x	y	stress_yy
 1.000000000000000e+00	 0.000000000000000e+00	 3.087938596726964e+01
 9.999652819873316e-01	 8.333048840547298e-03	 3.087434524656067e+01
 9.998606548526504e-01	 1.669391286202172e-02	 3.085913543726103e+01
 9.996854145678035e-01	 2.508186591579744e-02	 3.083366623001330e+01
 9.994388649236412e-01	 3.349616549931930e-02	 3.079785671015707e+01
 9.991203179452327e-01	 4.193605278629495e-02	 3.075163562433201e+01
 9.987290943103193e-01	 5.040075266753075e-02	 3.069494164767372e+01
 9.982645237707195e-01	 5.888947380262372e-02	 3.062772365147331e+01
 9.977259455763865e-01	 6.740140868271496e-02	 3.054994097114338e+01
 9.971127089018138e-01	 7.593573370450242e-02	 3.046156367430337e+01
 9.964241732744672e-01	 8.449160925570288e-02	 3.036257282876439e+01
 1.011764609779771e+00	 0.000000000000000e+00	 3.003618653934831e+01
 1.011729483322956e+00	 8.431083908614686e-03	 3.003154416788074e+01
 1.011623625290101e+00	 1.689031023271577e-02	 3.001736844698294e+01
 1.011446323370527e+00	 2.537694428088149e-02	 2.999357514167163e+01
 1.011196873164555e+00	 3.389023481536397e-02	 2.996008848535511e+01
 1.010874578603591e+00	 4.242941408263661e-02	 2.991684141888314e+01
 1.010478752373516e+00	 5.099369785471029e-02	 2.986377583117437e+01
 1.010008716341037e+00	 5.958228548143359e-02	 2.980084280138091e+01
 1.009463801982744e+00	 6.819435995398436e-02	 2.972800284252444e+01
 1.008843350816523e+00	 7.682908797975327e-02	 2.964522614650546e+01
 1.008146714835034e+00	 8.548562006881108e-02	 2.955249283035371e+01
 1.023529042894170e+00	 0.000000000000000e+00	 2.924316831002679e+01
 1.023493507999417e+00	 8.529117504576966e-03	 2.923887748018677e+01
 1.023386419087075e+00	 1.708670465434165e-02	 2.922564846617117e+01
 1.023207055564047e+00	 2.567201821518636e-02	 2.920340337170344e+01
 1.022954704840214e+00	 3.428429821428319e-02	 2.917207184292572e+01
 1.022628662753420e+00	 4.292276797098653e-02	 2.913159127923927e+01
 1.022228233997774e+00	 5.158663413862979e-02	 2.908190704673629e+01
 1.021752732554970e+00	 6.027508675743358e-02	 2.902297269427802e+01
 1.021201482128318e+00	 6.898729931873566e-02	 2.895475017224710e+01
 1.020573816579189e+00	 7.772242884074508e-02	 2.887721005396847e+01
 1.019869080365520e+00	 8.647961595601505e-02	 2.879033175975838e+01
 1.035293322675825e+00	 0.000000000000000e+00	 2.849635165515513e+01
 1.035257379348522e+00	 8.627149822857101e-03	 2.849237276103026e+01
 1.035149059572921e+00	 1.728309651638406e-02	 2.848001142684959e+01
 1.034967634473585e+00	 2.596708830388324e-02	 2.845919635976817e+01
 1.034712383270044e+00	 3.467835647754494e-02	 2.842986288214441e+01
 1.034382593706661e+00	 4.341611542970513e-02	 2.839195311346824e+01
 1.033977562485856e+00	 5.217956269512251e-02	 2.834541615592818e+01
 1.033496595704385e+00	 6.096787900449491e-02	 2.829020828377132e+01
 1.032939009292358e+00	 6.978022834942733e-02	 2.822629313658045e+01
 1.032304129454704e+00	 7.861575805905692e-02	 2.815364191656138e+01
 1.031591293114714e+00	 8.747359888853125e-02	 2.807223358989382e+01
 1.047057472457363e+00	 0.000000000000000e+00	 2.779193625437301e+01
 1.047021120702081e+00	 8.725181057878039e-03	 2.778823630358732e+01
 1.046911570076982e+00	 1.747948620832770e-02	 2.777667137688909e+01
 1.046728083424362e+00	 2.626215513214328e-02	 2.775717705058318e+01
 1.046469931773470e+00	 3.507241038661718e-02	 2.772969458612538e+01
 1.046136394775257e+00	 4.390945743715272e-02	 2.769417108238746e+01
 1.045726761140521e+00	 5.277248470002170e-02	 2.765055963264672e+01
 1.045240329081146e+00	 6.166066359648878e-02	 2.759881948655343e+01
 1.044676406754111e+00	 7.057314861851791e-02	 2.753891621730500e+01
 1.044034312707962e+00	 7.950907740626792e-02	 2.747082189421875e+01
 1.043313376331406e+00	 8.846757083757607e-02	 2.739451526085778e+01
 1.058821515571412e+00	 0.000000000000000e+00	 2.712629112299989e+01
 1.058784755391905e+00	 8.823211404062751e-03	 2.712284317590215e+01
 1.058673973928604e+00	 1.767587411965726e-02	 2.711201056899167e+01
 1.058488425741601e+00	 2.655721928513766e-02	 2.709373601502551e+01
 1.058227373669919e+00	 3.546646072296788e-02	 2.706796697740361e+01
 1.057890089271150e+00	 4.440279497168967e-02	 2.703465579197282e+01
 1.057475853264529e+00	 5.336540132916057e-02	 2.699375979467917e+01
 1.056983955977121e+00	 6.235344190728640e-02	 2.694524145542735e+01
 1.056413697792824e+00	 7.136606169846593e-02	 2.688906851848330e+01
 1.055764389603855e+00	 8.040238865395700e-02	 2.682521414971724e+01
 1.055035353264385e+00	 8.946153377436585e-02	 2.675365709094503e+01
 1.070585475350601e+00	 0.000000000000000e+00	 2.649594530307265e+01
 1.070548306749801e+00	 8.921241055834177e-03	 2.649272793747600e+01
 1.070436294457133e+00	 1.787226063985745e-02	 2.648257020509643e+01
 1.070248684750522e+00	 2.685228134803755e-02	 2.646542222460819e+01
 1.069984732278812e+00	 3.586050826806499e-02	 2.644123792472285e+01
 1.069643700506282e+00	 4.489612901167631e-02	 2.640997513468421e+01
 1.069224862160641e+00	 5.395831375837237e-02	 2.637159568177663e+01
 1.068727499684177e+00	 6.304621531075903e-02	 2.632606549631698e+01
 1.068150905687745e+00	 7.215896916172988e-02	 2.627335472457700e+01
 1.067494383407276e+00	 8.129569357370332e-02	 2.621343785004459e+01
 1.066757247162440e+00	 9.045548967011703e-02	 2.614629382338842e+01
 1.082349375127556e+00	 0.000000000000000e+00	 2.589757916323403e+01
 1.082311798107581e+00	 9.019270207615292e-03	 2.589457596304364e+01
 1.082198554991914e+00	 1.806864615841298e-02	 2.588504178619427e+01
 1.082008883776349e+00	 2.714734190601412e-02	 2.586893442947438e+01
 1.081742030919577e+00	 3.625455380337649e-02	 2.584621455133831e+01
 1.081397251792594e+00	 4.538946053547297e-02	 2.581684573019244e+01
 1.080973811131616e+00	 5.455122316349035e-02	 2.578079453090466e+01
 1.080470983494178e+00	 6.373898518077779e-02	 2.573803058012388e+01
 1.079888053718124e+00	 7.295187258076828e-02	 2.568852665097235e+01
 1.079224317383118e+00	 8.218899393708594e-02	 2.563225875763446e+01
 1.078479081274362e+00	 9.144944049604598e-02	 2.556920626031939e+01
 1.094113238234906e+00	 0.000000000000000e+00	 2.532801626151415e+01
 1.094075252797053e+00	 9.117299053829049e-03	 2.532521532770414e+01
 1.093960778862292e+00	 1.826503106480854e-02	 2.531625902185333e+01
 1.093769046144301e+00	 2.744240154423854e-02	 2.530111309435367e+01
 1.093499292911638e+00	 3.664859811037033e-02	 2.527974519942968e+01
 1.093150766442032e+00	 4.588279052144005e-02	 2.525212492026230e+01
 1.092722723480215e+00	 5.514413072034768e-02	 2.521822380359518e+01
 1.092214430698992e+00	 6.443175289121397e-02	 2.517801540453058e+01
 1.091625165163206e+00	 7.374477352803964e-02	 2.513147534219830e+01
 1.090954214796274e+00	 8.308229151568386e-02	 2.507858136694298e+01
 1.090200878848938e+00	 9.244338822336912e-02	 2.501931343962426e+01
 1.105877088005278e+00	 0.000000000000000e+00	 2.478421572896994e+01
 1.105838694150027e+00	 9.215327788898399e-03	 2.478160921148563e+01
 1.105722989397613e+00	 1.846141574852883e-02	 2.477319025765659e+01
 1.105529195179602e+00	 2.773746084788198e-02	 2.475893285081295e+01
 1.105256541574422e+00	 3.704264197051451e-02	 2.473881190909515e+01
 1.104904267766534e+00	 4.637611994793787e-02	 2.471280327640834e+01
 1.104471622509197e+00	 5.573703760477768e-02	 2.468088372416975e+01
 1.103957864590485e+00	 6.512451981593874e-02	 2.464303096468100e+01
 1.103362263302241e+00	 7.453767357600251e-02	 2.459922367693753e+01
 1.102684098911636e+00	 8.397558808107612e-02	 2.454944154564413e+01
 1.101922663134958e+00	 9.343733482330288e-02	 2.449366531415623e+01
 1.117640947771301e+00	 0.000000000000000e+00	 2.426229607461164e+01
 1.117602145498312e+00	 9.313356607246307e-03	 2.425988362866339e+01
 1.117485209927221e+00	 1.865780059905855e-02	 2.425199349312972e+01
 1.117289354207473e+00	 2.803252040211561e-02	 2.423860763264537e+01
 1.117013800227351e+00	 3.743668616527699e-02	 2.421970701726078e+01
 1.116657779078045e+00	 4.686944979332677e-02	 2.419527151840835e+01
 1.116220531521325e+00	 5.632994499261353e-02	 2.416527981739807e+01
 1.115701308460522e+00	 6.581728732882330e-02	 2.412970932778770e+01
 1.115099371414475e+00	 7.533057429711537e-02	 2.408853613310815e+01
 1.114413992994098e+00	 8.486888540484182e-02	 2.404173494154510e+01
 1.113644457381211e+00	 9.443128226706360e-02	 2.398927905930374e+01
 9.964241732744672e-01	 8.449160925570288e-02	 3.036257282876439e+01
 9.956595725195881e-01	 9.306963622590368e-02	 3.025295548139910e+01
 9.948183983547721e-01	 1.016674728801871e-01	 3.013273008757015e+01
 9.939000435131441e-01	 1.102842106753847e-01	 3.000188891978214e+01
 9.929039128517897e-01	 1.189189249707242e-01	 2.986043632607338e+01
 9.918294237927018e-01	 1.275706751727545e-01	 2.970838902729690e+01
 9.906760067638285e-01	 1.362385048931707e-01	 2.954577641330329e+01
 9.894431056398209e-01	 1.449214421196757e-01	 2.937264083746927e+01
 9.881301781820826e-01	 1.536184993999990e-01	 2.918903790895668e+01
 9.867366964777042e-01	 1.623286740391850e-01	 2.899503678202936e+01
 9.852621473768629e-01	 1.710509483102449e-01	 2.879072044168877e+01
 1.008146714835034e+00	 8.548562006881108e-02	 2.955249283035370e+01
 1.007373118849851e+00	 9.416456418001551e-02	 2.944979631997592e+01
 1.006522048598804e+00	 1.028635510287821e-01	 2.933715716815983e+01
 1.005592889670713e+00	 1.115816613831890e-01	 2.921456194047352e+01
 1.004585039920993e+00	 1.203179597243276e-01	 2.908200810181046e+01
 1.003497909917784e+00	 1.290714943929320e-01	 2.893950430136258e+01
 1.002330923388193e+00	 1.378412977490611e-01	 2.878707065835776e+01
 1.001083517664225e+00	 1.466263863449699e-01	 2.862473904806862e+01
 9.997551441280065e-01	 1.554257611112942e-01	 2.845255338753726e+01
 9.983452686558881e-01	 1.642384075566588e-01	 2.827056992039425e+01
 9.968533720609890e-01	 1.730632959808086e-01	 2.807885750008171e+01
 1.019869080365520e+00	 8.647961595601505e-02	 2.879033175975838e+01
 1.019086489285332e+00	 9.525947569255507e-02	 2.869411491138391e+01
 1.018225523096786e+00	 1.040596112165460e-01	 2.858858232106720e+01
 1.017285560244519e+00	 1.128790926075001e-01	 2.847371540073018e+01
 1.016265991582388e+00	 1.217169734685625e-01	 2.834950528374907e+01
 1.015166220824802e+00	 1.305722910748461e-01	 2.821595309712993e+01
 1.013985664998140e+00	 1.394440665349704e-01	 2.807307023636413e+01
 1.012723754891869e+00	 1.483313049659422e-01	 2.792087864253962e+01
 1.011379935508951e+00	 1.572329956815064e-01	 2.775941108121114e+01
 1.009953666515104e+00	 1.661481123940741e-01	 2.758871142246441e+01
 1.008444422686493e+00	 1.750756134303323e-01	 2.740883492153185e+01
 1.031591293114714e+00	 8.747359888853125e-02	 2.807223358989381e+01
 1.030799707056954e+00	 9.635437293490888e-02	 2.798207378846558e+01
 1.029928845059997e+00	 1.052556558155116e-01	 2.788318772839423e+01
 1.028978078424401e+00	 1.141765069214482e-01	 2.777555219360774e+01
 1.027946791002574e+00	 1.231159689780829e-01	 2.765915250796584e+01
 1.026834379655289e+00	 1.320730681950754e-01	 2.753398279414404e+01
 1.025640254708297e+00	 1.410468144297763e-01	 2.740004623717457e+01
 1.024363840408628e+00	 1.500362013641183e-01	 2.725735535228798e+01
 1.023004575380174e+00	 1.590402066951307e-01	 2.710593225662295e+01
 1.021561913078112e+00	 1.680577923391899e-01	 2.694580894429587e+01
 1.020035322241744e+00	 1.770879046501064e-01	 2.677702756423899e+01
 1.043313376331406e+00	 8.846757083757607e-02	 2.739451526085779e+01
 1.042512795395637e+00	 9.744925807846370e-02	 2.731000777087405e+01
 1.041632037699713e+00	 1.064516871977119e-01	 2.721732717165716e+01
 1.040670467400201e+00	 1.154739068981637e-01	 2.711644611797570e+01
 1.039627461348147e+00	 1.245149490275430e-01	 2.700734461734069e+01
 1.038502409550776e+00	 1.335738287301985e-01	 2.689001027510164e+01
 1.037294715633294e+00	 1.426495446123568e-01	 2.676443854624074e+01
 1.036003797300378e+00	 1.517410789210235e-01	 2.663063299358034e+01
 1.034629086796930e+00	 1.608473977366619e-01	 2.648860555203835e+01
 1.033170031367667e+00	 1.699674511797652e-01	 2.633837679848195e+01
 1.031626093715108e+00	 1.791001736314211e-01	 2.617997622664161e+01
 1.055035353264385e+00	 8.946153377436585e-02	 2.675365709094503e+01
 1.054225777532304e+00	 9.854413329460621e-02	 2.667441442655649e+01
 1.053335124227214e+00	 1.076477077351798e-01	 2.658751654593037e+01
 1.052362750361762e+00	 1.167712951107772e-01	 2.649293244745252e+01
 1.051308025785706e+00	 1.259139163915968e-01	 2.639063728735172e+01
 1.050170333652795e+00	 1.350745756567938e-01	 2.628061261050694e+01
 1.048949070887761e+00	 1.442522602615897e-01	 2.616284659006331e+01
 1.047643648652995e+00	 1.534459410181834e-01	 2.603733427564814e+01
 1.046253492814476e+00	 1.626545723905951e-01	 2.590407784988943e+01
 1.044778044406529e+00	 1.718770927035591e-01	 2.576308689285044e+01
 1.043216760094952e+00	 1.811124243655664e-01	 2.561437865389694e+01
 1.066757247162440e+00	 9.045548967011703e-02	 2.614629382338843e+01
 1.065938676697876e+00	 9.963900075472300e-02	 2.607194516598582e+01
 1.065038127853774e+00	 1.088437197999481e-01	 2.599042500365119e+01
 1.064054950498924e+00	 1.180686741324190e-01	 2.590169912580868e+01
 1.062988507481849e+00	 1.273128738448986e-01	 2.580573827504151e+01
 1.061838175102879e+00	 1.365753119514401e-01	 2.570251836310412e+01
 1.060603343586328e+00	 1.458549645563528e-01	 2.559202069792934e+01
 1.059283417552354e+00	 1.551507910371235e-01	 2.547423222150075e+01
 1.057877816488069e+00	 1.644617342414252e-01	 2.534914575836460e+01
 1.056385975217457e+00	 1.737867206983305e-01	 2.521676027445946e+01
 1.054807344369644e+00	 1.831246608438328e-01	 2.507708114583715e+01
 1.078479081274362e+00	 9.144944049604598e-02	 2.556920626031940e+01
 1.077651516123275e+00	 1.007338626302007e-01	 2.549939692086173e+01
 1.076741071790673e+00	 1.100397257640498e-01	 2.542286668004211e+01
 1.075747091001528e+00	 1.193660465362196e-01	 2.533957854103751e+01
 1.074668929603173e+00	 1.287118241621025e-01	 2.524949924360777e+01
 1.073505957042559e+00	 1.380760405907158e-01	 2.515259946480034e+01
 1.072257556843623e+00	 1.474576606755238e-01	 2.504885403291845e+01
 1.070923127084331e+00	 1.568556323593692e-01	 2.493824215470317e+01
 1.069502080872966e+00	 1.662688868736471e-01	 2.482074765558024e+01
 1.067993846823207e+00	 1.756963389518385e-01	 2.469635923271624e+01
 1.066397869527551e+00	 1.851368870575102e-01	 2.456507072051875e+01
 1.090200878848938e+00	 9.244338822336912e-02	 2.501931343962426e+01
 1.089364319039423e+00	 1.018287210924261e-01	 2.495370436316594e+01
 1.088443979249188e+00	 1.112357279995176e-01	 2.488179295625248e+01
 1.087439195059416e+00	 1.206634148953092e-01	 2.480353983441989e+01
 1.086349315316276e+00	 1.301107701178627e-01	 2.471890811917451e+01
 1.085173702613368e+00	 1.395767645511997e-01	 2.462786362287234e+01
 1.083911733774276e+00	 1.490603517979806e-01	 2.453037504921636e+01
 1.082562800334801e+00	 1.585604683664462e-01	 2.442641420940755e+01
 1.081126309024421e+00	 1.680760338717558e-01	 2.431595625387881e+01
 1.079601682246538e+00	 1.776059512518420e-01	 2.419897991942729e+01
 1.077988358557040e+00	 1.871491069978890e-01	 2.407546779144205e+01
 1.101922663134958e+00	 9.343733482330288e-02	 2.449366531415623e+01
 1.101077108677241e+00	 1.029235783127858e-01	 2.443193262422198e+01
 1.100146873440595e+00	 1.124317288783845e-01	 2.436428522006671e+01
 1.099131285862429e+00	 1.219607817828184e-01	 2.429068170463417e+01
 1.098029687787756e+00	 1.315097144868332e-01	 2.421108194000750e+01
 1.096841434956837e+00	 1.410774868094701e-01	 2.412544721593837e+01
 1.095565897492917e+00	 1.506630411026010e-01	 2.403374043644035e+01
 1.094202460389640e+00	 1.602653024398799e-01	 2.393592632457245e+01
 1.092750523997693e+00	 1.698831788202462e-01	 2.383197164542392e+01
 1.091209504510208e+00	 1.795155613861002e-01	 2.372184544718919e+01
 1.089578834446478e+00	 1.891613246562592e-01	 2.360551932009508e+01
 1.113644457381211e+00	 9.443128226706360e-02	 2.398927905930374e+01
 1.112789908267651e+00	 1.040184364626665e-01	 2.393120104280511e+01
 1.111849777576174e+00	 1.136277307726835e-01	 2.386753445542508e+01
 1.110823386600407e+00	 1.232581497718775e-01	 2.379822567033858e+01
 1.109710070184211e+00	 1.329086600436682e-01	 2.372326016179332e+01
 1.108509177214499e+00	 1.425782103421058e-01	 2.364260864351388e+01
 1.107220071114175e+00	 1.522657317682628e-01	 2.355622851499976e+01
 1.105842130334725e+00	 1.619701379611959e-01	 2.346407768660345e+01
 1.104374748848036e+00	 1.716903253036133e-01	 2.336611479354004e+01
 1.102817336636975e+00	 1.814251731423720e-01	 2.326229943078874e+01
 1.101169320184234e+00	 1.911735440239112e-01	 2.315259240871583e+01
 9.852621473768629e-01	 1.710509483102449e-01	 2.879072044168877e+01
 9.837063042735066e-01	 1.797828046792139e-01	 2.857632265356645e+01
 9.820684407268566e-01	 1.885246801511627e-01	 2.835199010074501e+01
 9.803480899544126e-01	 1.972755162273639e-01	 2.811780320484911e+01
 9.785448016382446e-01	 2.060342404108244e-01	 2.787385692360109e+01
 9.766581423474189e-01	 2.147997664840680e-01	 2.762026105831176e+01
 9.746876959562029e-01	 2.235709948004863e-01	 2.735714055345731e+01
 9.726330640575948e-01	 2.323468125892456e-01	 2.708463578710350e+01
 9.704938663716977e-01	 2.411260942737208e-01	 2.680290285086841e+01
 9.682697411484724e-01	 2.499077018034106e-01	 2.651211381805621e+01
 9.659603455643851e-01	 2.586904849992691e-01	 2.621245699852609e+01
 9.968533720609890e-01	 1.730632959808086e-01	 2.807885750008171e+01
 9.952792250712819e-01	 1.818978792319071e-01	 2.787763771240629e+01
 9.936220926996926e-01	 1.907425994563115e-01	 2.766704815971681e+01
 9.918815026722110e-01	 1.995963857026034e-01	 2.744715169456159e+01
 9.900569993730995e-01	 2.084581528564159e-01	 2.721802492404836e+01
 9.881481442722824e-01	 2.173268019214845e-01	 2.697975853507045e+01
 9.861545163484771e-01	 2.262012203144257e-01	 2.673245761347791e+01
 9.840757125075835e-01	 2.350802821732304e-01	 2.647624195592415e+01
 9.819113479958672e-01	 2.439628486794446e-01	 2.621124637304803e+01
 9.796610568074448e-01	 2.528477683939890e-01	 2.593762098257575e+01
 9.773244920856056e-01	 2.617338776065536e-01	 2.565553149085589e+01
 1.008444422686493e+00	 1.750756134303323e-01	 2.740883492153185e+01
 1.006851972085169e+00	 1.840129220210373e-01	 2.721999931292867e+01
 1.005175571177887e+00	 1.929604854537344e-01	 2.702234180331660e+01
 1.003414742199211e+00	 2.019172203244700e-01	 2.681590912818556e+01
 1.001569024235669e+00	 2.108820289016614e-01	 2.660076097700174e+01
 9.996379736581213e-01	 2.198537994104159e-01	 2.637697033485350e+01
 9.976211645498032e-01	 2.288314063307365e-01	 2.614462381995293e+01
 9.955181891295856e-01	 2.378137107096029e-01	 2.590382201570084e+01
 9.933286581699597e-01	 2.467995604868981e-01	 2.565467979593703e+01
 9.910522014092618e-01	 2.557877908351328e-01	 2.539732664191641e+01
 9.886884679576573e-01	 2.647772245129021e-01	 2.513190694947317e+01
 1.020035322241744e+00	 1.770879046501064e-01	 2.677702756423899e+01
 1.018424568267244e+00	 1.861279372416317e-01	 2.659980977604378e+01
 1.016728899075312e+00	 1.951783425424138e-01	 2.641430050878080e+01
 1.014947831409152e+00	 2.042380246960982e-01	 2.622053175268787e+01
 1.013080899057625e+00	 2.133058733540229e-01	 2.601854763095405e+01
 1.011127653292591e+00	 2.223807639628051e-01	 2.580840475655188e+01
 1.009087663301867e+00	 2.314615580659744e-01	 2.559017258689828e+01
 1.006960516617351e+00	 2.405471036196410e-01	 2.536393377502506e+01
 1.004745819537817e+00	 2.496362353221681e-01	 2.512978451584792e+01
 1.002443197545873e+00	 2.587277749578010e-01	 2.488783488603125e+01
 1.000052295718614e+00	 2.678205317541871e-01	 2.463820917585550e+01
 1.031626093715108e+00	 1.791001736314211e-01	 2.617997622664161e+01
 1.029997036569585e+00	 1.882429290887175e-01	 2.601363666876687e+01
 1.028282099305840e+00	 1.973961751213320e-01	 2.583951835158773e+01
 1.026480793175773e+00	 2.065588034206224e-01	 2.565763981371234e+01
 1.024592646670640e+00	 2.157296910209624e-01	 2.546803088379308e+01
 1.022617205963349e+00	 2.249077005905954e-01	 2.527073305139442e+01
 1.020554035346352e+00	 2.340916807366957e-01	 2.506579983772815e+01
 1.018402717664629e+00	 2.432804663246228e-01	 2.485329716491344e+01
 1.016162854743279e+00	 2.524728788113410e-01	 2.463330372231566e+01
 1.013834067809228e+00	 2.616677265929525e-01	 2.440591132841886e+01
 1.011415997906544e+00	 2.708638053662800e-01	 2.417122528658588e+01
 1.043216760094952e+00	 1.811124243655664e-01	 2.561437865389694e+01
 1.041569399944270e+00	 1.903579017573216e-01	 2.545820387875772e+01
 1.039835194783341e+00	 1.996139875894709e-01	 2.529474514694195e+01
 1.038013650372813e+00	 2.088795611011766e-01	 2.512400876272643e+01
 1.036104289906381e+00	 2.181534867099416e-01	 2.494601145415719e+01
 1.034106654458050e+00	 2.274346143057298e-01	 2.476078075688342e+01
 1.032020303424945e+00	 2.367217795594558e-01	 2.456835539997110e+01
 1.029844814965167e+00	 2.460138042458258e-01	 2.436878569232954e+01
 1.027579786430186e+00	 2.553094965805032e-01	 2.416213390827242e+01
 1.025224834791279e+00	 2.646076515715462e-01	 2.394847467062451e+01
 1.022779597059521e+00	 2.739070513850533e-01	 2.372789532967440e+01
 1.054807344369644e+00	 1.831246608438328e-01	 2.507708114583716e+01
 1.053141681343376e+00	 1.924728594424715e-01	 2.493038328652474e+01
 1.051388208421689e+00	 2.018317843458130e-01	 2.477687818521588e+01
 1.049546425874014e+00	 2.112003023408957e-01	 2.461656105453046e+01
 1.047615851596521e+00	 2.205772652284226e-01	 2.444943663968047e+01
 1.045596021564348e+00	 2.299615101201515e-01	 2.427551961428351e+01
 1.043486490279329e+00	 2.393518597508108e-01	 2.409483498034517e+01
 1.041286831212717e+00	 2.487471228045282e-01	 2.390741847102406e+01
 1.038996637242378e+00	 2.581460942557411e-01	 2.371331695466777e+01
 1.036615521083976e+00	 2.675475557245410e-01	 2.351258883848615e+01
 1.034143115715616e+00	 2.769502758463785e-01	 2.330530447011105e+01
 1.066397869527551e+00	 1.851368870575102e-01	 2.456507072051875e+01
 1.064713903718981e+00	 1.945878063391940e-01	 2.442718698970383e+01
 1.062941163134753e+00	 2.040495697893408e-01	 2.428295451604333e+01
 1.061079142553115e+00	 2.135210317429137e-01	 2.413235849009930e+01
 1.059127354572732e+00	 2.230010313838671e-01	 2.397539271736660e+01
 1.057085330069900e+00	 2.324883930458034e-01	 2.381206002515750e+01
 1.054952618651190e+00	 2.419819265273165e-01	 2.364237267593271e+01
 1.052728789101026e+00	 2.514804274220075e-01	 2.346635278567039e+01
 1.050413429823696e+00	 2.609826774631417e-01	 2.328403274572928e+01
 1.048006149279268e+00	 2.704874448828958e-01	 2.309545564653008e+01
 1.045506576412900e+00	 2.799934847861281e-01	 2.290067570124744e+01
 1.077988358557040e+00	 1.871491069978890e-01	 2.407546779144205e+01
 1.076286090023162e+00	 1.967027466425166e-01	 2.394576003775660e+01
 1.074494081836407e+00	 2.062673483190362e-01	 2.381014373966815e+01
 1.072611823283853e+00	 2.158417539103651e-01	 2.366859506361406e+01
 1.070638821666682e+00	 2.254247899837372e-01	 2.352109784519105e+01
 1.068574602762363e+00	 2.350152680946288e-01	 2.336764400628445e+01
 1.066418711282212e+00	 2.446119851055288e-01	 2.320823398101403e+01
 1.064170711323844e+00	 2.542137235195419e-01	 2.304287714906660e+01
 1.061830186817982e+00	 2.638192518287910e-01	 2.287159227484063e+01
 1.059396741969107e+00	 2.734273248775695e-01	 2.269440795068244e+01
 1.056870001689444e+00	 2.830366842401736e-01	 2.251136304235201e+01
 1.089578834446478e+00	 1.891613246562592e-01	 2.360551932009508e+01
 1.087858263207996e+00	 1.988176845474660e-01	 2.348337363898640e+01
 1.086046987440523e+00	 2.084851243338817e-01	 2.335574126768672e+01
 1.084144490939970e+00	 2.181624734463843e-01	 2.322259027605107e+01
 1.082150275710045e+00	 2.278485458354948e-01	 2.308389542752386e+01
 1.080063862429390e+00	 2.375421402785707e-01	 2.293963860576664e+01
 1.077884790914079e+00	 2.472420407020036e-01	 2.278980925257182e+01
 1.075612620574921e+00	 2.569470165184093e-01	 2.263440481561387e+01
 1.073246930869074e+00	 2.666558229787757e-01	 2.247343120442944e+01
 1.070787321745442e+00	 2.763672015395213e-01	 2.230690325286445e+01
 1.068233414083320e+00	 2.860798802443874e-01	 2.213484518606854e+01
 1.101169320184234e+00	 1.911735440239112e-01	 2.315259240871584e+01
 1.099430446225561e+00	 2.009326242490697e-01	 2.303741880498980e+01
 1.097599902860971e+00	 2.107029022328595e-01	 2.291716201851850e+01
 1.095677168395206e+00	 2.204831949541056e-01	 2.279178288087601e+01
 1.093661739534489e+00	 2.302723037466017e-01	 2.266124791012410e+01
 1.091553131858639e+00	 2.400690146095722e-01	 2.252552974627271e+01
 1.089350880288478e+00	 2.498720985332967e-01	 2.238460760060311e+01
 1.087054539548005e+00	 2.596803118398872e-01	 2.223846771738527e+01
 1.084663684620814e+00	 2.694923965391824e-01	 2.208710384635115e+01
 1.082177911200225e+00	 2.793070806997097e-01	 2.193051772411598e+01
 1.079596836132600e+00	 2.891230788346412e-01	 2.176871956257148e+01
 9.659603455643851e-01	 2.586904849992691e-01	 2.621245699852609e+01
 9.635653563227460e-01	 2.674732820350743e-01	 2.590430559880710e+01
 9.610844706690255e-01	 2.762549201886375e-01	 2.558802055394286e+01
 9.585174061376137e-01	 2.850342158783321e-01	 2.526379768125532e+01
 9.558639007082445e-01	 2.938099749412080e-01	 2.493185113054192e+01
 9.531237131637238e-01	 3.025809930437929e-01	 2.459241362889875e+01
 9.502966234386567e-01	 3.113460561054973e-01	 2.424573670227485e+01
 9.473824329586863e-01	 3.201039407344277e-01	 2.389209087187862e+01
 9.443809649697816e-01	 3.288534146753910e-01	 2.353176582353992e+01
 9.412920648570995e-01	 3.375932372698591e-01	 2.316507054811461e+01
 9.381156004529616e-01	 3.463221599276365e-01	 2.279233345101440e+01
 9.773244920856056e-01	 2.617338776065536e-01	 2.565553149085589e+01
 9.749013267302059e-01	 2.706200008225864e-01	 2.536535250465554e+01
 9.723912544249423e-01	 2.795049515232117e-01	 2.506745462292180e+01
 9.697939893811230e-01	 2.883875322023148e-01	 2.476202208827094e+01
 9.671092664959308e-01	 2.972665346479713e-01	 2.444925628305899e+01
 9.643368417143623e-01	 3.061407403580817e-01	 2.412937598060497e+01
 9.614764923820540e-01	 3.150089209687564e-01	 2.380261757474776e+01
 9.585280175885164e-01	 3.238698386952574e-01	 2.346923528579823e+01
 9.554912385002921e-01	 3.327222467852726e-01	 2.312950134092252e+01
 9.523659986835720e-01	 3.415648899842920e-01	 2.278370612696739e+01
 9.491521644157924e-01	 3.503965050128239e-01	 2.243215831373198e+01
 9.886884679576573e-01	 2.647772245129021e-01	 2.513190694947317e+01
 9.862371269116083e-01	 2.737666723575055e-01	 2.485878558244586e+01
 9.836978683930847e-01	 2.827549340536006e-01	 2.457832933196782e+01
 9.810704032903602e-01	 2.917407981708180e-01	 2.429070870930402e+01
 9.783544634181113e-01	 3.007230424484941e-01	 2.399611026157483e+01
 9.755498018835635e-01	 3.097004342161388e-01	 2.369473683485110e+01
 9.726561934434226e-01	 3.186717308268018e-01	 2.338680781718747e+01
 9.696734348510970e-01	 3.276356801031408e-01	 2.307255935958621e+01
 9.666013451937324e-01	 3.365910207959677e-01	 2.275224457284229e+01
 9.634397662185763e-01	 3.455364830550350e-01	 2.242613369819405e+01
 9.601885626482006e-01	 3.544707889118005e-01	 2.209451424968629e+01
 1.000052295718614e+00	 2.678205317541871e-01	 2.463820917585551e+01
 9.975727793491490e-01	 2.769133028806329e-01	 2.438125382703294e+01
 9.950043349977704e-01	 2.860048742255228e-01	 2.411732090046993e+01
 9.923466702297564e-01	 2.950940204344354e-01	 2.384656505670259e+01
 9.895995137773136e-01	 3.041795051981721e-01	 2.356915597420801e+01
 9.867626159099309e-01	 3.132600816780586e-01	 2.328527862985127e+01
 9.838357487954142e-01	 3.223344929442925e-01	 2.299513356088750e+01
 9.808187068510975e-01	 3.314014724271371e-01	 2.269893710642087e+01
 9.777113070847533e-01	 3.404597443807398e-01	 2.239692162617747e+01
 9.745133894247070e-01	 3.495080243593273e-01	 2.208933569441329e+01
 9.712248170386841e-01	 3.585450197055228e-01	 2.177644426675405e+01
 1.011415997906544e+00	 2.708638053662800e-01	 2.417122528658588e+01
 1.008908306525025e+00	 2.800598986327699e-01	 2.392956728810667e+01
 1.006310676663318e+00	 2.892547784846969e-01	 2.368126617359779e+01
 1.003622812563742e+00	 2.984472056437595e-01	 2.342645866664930e+01
 1.000844439876063e+00	 3.076359297523997e-01	 2.316529557403479e+01
 9.979753060320660e-01	 3.168196898039352e-01	 2.289794208901024e+01
 9.950151806106790e-01	 3.259972145858875e-01	 2.262457807779521e+01
 9.919638556931859e-01	 3.351672231363055e-01	 2.234539834703827e+01
 9.888211462080057e-01	 3.443284252128511e-01	 2.206061289001492e+01
 9.855868902645598e-01	 3.534795217744084e-01	 2.177044710926102e+01
 9.822609494757408e-01	 3.626192054749470e-01	 2.147514201331286e+01
 1.022779597059521e+00	 2.739070513850533e-01	 2.372789532967440e+01
 1.020243730921431e+00	 2.832064658547181e-01	 2.350068874203125e+01
 1.017616915814045e+00	 2.925046532768409e-01	 2.326715435977143e+01
 1.014898852656746e+00	 3.018003604493837e-01	 2.302740891251280e+01
 1.012089264016888e+00	 3.110923229665727e-01	 2.278158235870918e+01
 1.009187894488570e+00	 3.203792656538620e-01	 2.252981821732187e+01
 1.006194511061867e+00	 3.296599030162458e-01	 2.227227388431910e+01
 1.003108903482030e+00	 3.389329396997047e-01	 2.200912093169237e+01
 9.999308845981408e-01	 3.481970709655652e-01	 2.174054538661327e+01
 9.966602907007295e-01	 3.574509831775176e-01	 2.146674798830287e+01
 9.932969818478676e-01	 3.666933543010295e-01	 2.118794442014266e+01
 1.034143115715616e+00	 2.769502758463785e-01	 2.330530447011105e+01
 1.031579075020566e+00	 2.863530107872789e-01	 2.309172593017503e+01
 1.028923074874270e+00	 2.957545050476735e-01	 2.287211933122797e+01
 1.026174812873199e+00	 3.051534915019011e-01	 2.264657937724120e+01
 1.023334008502314e+00	 3.145486916960856e-01	 2.241521322439382e+01
 1.020400403518045e+00	 3.239388162879336e-01	 2.217814084666594e+01
 1.017373762321629e+00	 3.333225655000265e-01	 2.193549538793016e+01
 1.014253872322298e+00	 3.426986295863944e-01	 2.168742349810161e+01
 1.011040544289810e+00	 3.520656893121451e-01	 2.143408565083229e+01
 1.007733612695812e+00	 3.614224164458944e-01	 2.117565644017483e+01
 1.004332936043563e+00	 3.707674742647269e-01	 2.091232661491981e+01
 1.045506576412900e+00	 2.799934847861281e-01	 2.290067570124744e+01
 1.042914361304625e+00	 2.894995396712535e-01	 2.269992432053946e+01
 1.040229176268310e+00	 2.990043402429129e-01	 2.249343244475622e+01
 1.037450715577531e+00	 3.085066054519044e-01	 2.228127074217930e+01
 1.034578695634867e+00	 3.180050427963337e-01	 2.206352163174951e+01
 1.031612855359092e+00	 3.274983487662438e-01	 2.184027968816675e+01
 1.028552956562615e+00	 3.369852093018885e-01	 2.161165203518680e+01
 1.025398784318659e+00	 3.464643002654330e-01	 2.137775872453319e+01
 1.022150147317663e+00	 3.559342879258535e-01	 2.113873309775769e+01
 1.018806878212401e+00	 3.653938294567779e-01	 2.089472212831232e+01
 1.015368833951324e+00	 3.748415734469953e-01	 2.064614996391879e+01
 1.056870001689444e+00	 2.830366842401736e-01	 2.251136304235201e+01
 1.054249612255803e+00	 2.926460587474435e-01	 2.232266035322598e+01
 1.051535242420484e+00	 3.022541653082779e-01	 2.212849584337696e+01
 1.048726583134173e+00	 3.118597089499873e-01	 2.192891415337234e+01
 1.045823347717075e+00	 3.214613831227122e-01	 2.172397104537742e+01
 1.042825272250314e+00	 3.310578701488867e-01	 2.151373385338690e+01
 1.039732115957476e+00	 3.406478416864908e-01	 2.129828192338627e+01
 1.036543661575780e+00	 3.502299592058800e-01	 2.107770704070491e+01
 1.033259715716351e+00	 3.598028744799537e-01	 2.085211384172796e+01
 1.029880109213092e+00	 3.693652300874075e-01	 2.062162020705147e+01
 1.026404697459648e+00	 3.789156599287912e-01	 2.038734046186064e+01
 1.068233414083320e+00	 2.860798802443874e-01	 2.213484518606853e+01
 1.065584850356298e+00	 2.957925742566500e-01	 2.195743513364723e+01
 1.062841295755111e+00	 3.055039866894865e-01	 2.177483620309269e+01
 1.060002437907555e+00	 3.152128086467422e-01	 2.158706502974172e+01
 1.057067987051463e+00	 3.249177195306162e-01	 2.139414881140361e+01
 1.054037676430311e+00	 3.346173874959559e-01	 2.119612580939393e+01
 1.050911262678862e+00	 3.443104699184923e-01	 2.099304584127170e+01
 1.047688526198331e+00	 3.539956138767945e-01	 2.078497076237086e+01
 1.044369271520526e+00	 3.636714566477088e-01	 2.057197493311084e+01
 1.040953327660482e+00	 3.733366262150227e-01	 2.035426396587017e+01
 1.037440548457033e+00	 3.829897417910711e-01	 2.013375962722780e+01
 1.079596836132600e+00	 2.891230788346412e-01	 2.176871956257148e+01
 1.076920098088306e+00	 2.989390924396748e-01	 2.160186854043843e+01
 1.074147358696508e+00	 3.087538108322573e-01	 2.143009889186408e+01
 1.071278302262107e+00	 3.185659111927625e-01	 2.125339728052888e+01
 1.068312635940559e+00	 3.283740588754407e-01	 2.107176044088018e+01
 1.065250090137686e+00	 3.381769078675460e-01	 2.088519573569173e+01
 1.062090418899424e+00	 3.479731012625524e-01	 2.069372170714529e+01
 1.058833400290978e+00	 3.577612717472354e-01	 2.049736861834069e+01
 1.055478836764839e+00	 3.675400421023816e-01	 2.029617898202060e+01
 1.052026555517164e+00	 3.773080257168628e-01	 2.009086880540970e+01
 1.048476408831977e+00	 3.870638271147915e-01	 1.988337517854438e+01
 9.381156004529616e-01	 3.463221599276365e-01	 2.279233345101440e+01
 9.348508998318095e-01	 3.550404073758257e-01	 2.241324691079501e+01
 9.314984086111489e-01	 3.637452306608892e-01	 2.202757844774699e+01
 9.280580630371016e-01	 3.724353592601340e-01	 2.163564618330370e+01
 9.245298229341035e-01	 3.811095166967163e-01	 2.123882914889806e+01
 9.209136719525729e-01	 3.897664210659201e-01	 2.083784608859186e+01
 9.172096178030529e-01	 3.984047855712462e-01	 2.043293748386445e+01
 9.134176924764241e-01	 4.070233190699295e-01	 2.002434966574430e+01
 9.095379524497916e-01	 4.156207266274775e-01	 1.961233475242688e+01
 9.055704788776667e-01	 4.241957100808110e-01	 1.919715059183346e+01
 9.015153777680721e-01	 4.327469686095653e-01	 1.877906070986386e+01
 9.491521644157924e-01	 3.503965050128239e-01	 2.243215831373199e+01
 9.458490558664622e-01	 3.592173192417036e-01	 2.207442214694040e+01
 9.424571238955796e-01	 3.680245513770365e-01	 2.171013585811833e+01
 9.389763039991952e-01	 3.768169159489613e-01	 2.134002312818091e+01
 9.354065555290638e-01	 3.855931214634176e-01	 2.096553691961065e+01
 9.317478619432242e-01	 3.943518709346170e-01	 2.058696238074362e+01
 9.280002310429004e-01	 4.030918624274381e-01	 2.020452572383481e+01
 9.241636951952991e-01	 4.118117896093610e-01	 1.981845812072061e+01
 9.202383115419241e-01	 4.205103423115320e-01	 1.942899563245581e+01
 9.162241621920052e-01	 4.291862070985267e-01	 1.903637914577459e+01
 9.121213544006749e-01	 4.378380678463747e-01	 1.864085431723587e+01
 9.601885626482006e-01	 3.544707889118005e-01	 2.209451424968629e+01
 9.568470467472995e-01	 3.633941683808130e-01	 2.175683080106814e+01
 9.534156746182879e-01	 3.723038078283064e-01	 2.141264414553880e+01
 9.498943810071627e-01	 3.811984068374696e-01	 2.106343056515978e+01
 9.462831247930094e-01	 3.900766588972460e-01	 2.070997305052181e+01
 9.425818892414984e-01	 3.989372519409956e-01	 2.035247986117371e+01
 9.387906822445349e-01	 4.077788688951959e-01	 1.999116361529393e+01
 9.349095365456550e-01	 4.166001882377958e-01	 1.962624120513146e+01
 9.309385099507559e-01	 4.253998845658022e-01	 1.925793371993898e+01
 9.268776855237778e-01	 4.341766291716697e-01	 1.888646637740953e+01
 9.227271717669495e-01	 4.429290906280449e-01	 1.851206846457876e+01
 9.712248170386841e-01	 3.585450197055228e-01	 2.177644426675405e+01
 9.678448942866635e-01	 3.675709630775713e-01	 2.145758178377922e+01
 9.643740825134145e-01	 3.765830085022565e-01	 2.113261859865291e+01
 9.608123157148940e-01	 3.855798406160075e-01	 2.080316876197566e+01
 9.571595522975307e-01	 3.945601378909617e-01	 2.046952144553626e+01
 9.534157753346321e-01	 4.035225731798185e-01	 2.013187249247657e+01
 9.495809928087915e-01	 4.124658142708466e-01	 1.979042162526878e+01
 9.456552378398733e-01	 4.213885244526558e-01	 1.944537235423329e+01
 9.416385688981666e-01	 4.302893630883069e-01	 1.909693189491808e+01
 9.375310700023125e-01	 4.391669861983269e-01	 1.874531109545916e+01
 9.333328509016273e-01	 4.480200470521739e-01	 1.839072437499211e+01
 9.822609494757408e-01	 3.626192054749470e-01	 2.147514201331286e+01
 9.788426202968981e-01	 3.717477116163958e-01	 2.117395511330293e+01
 9.753323693151001e-01	 3.808621618864448e-01	 2.086748780413399e+01
 9.717301297762790e-01	 3.899612259749233e-01	 2.055667619008338e+01
 9.680358596142158e-01	 3.990435673373247e-01	 2.024170052784251e+01
 9.642495417098624e-01	 4.081078437458482e-01	 1.992274477319419e+01
 9.603711841365045e-01	 4.171527078507164e-01	 1.959999647505661e+01
 9.564008203903356e-01	 4.261768077513627e-01	 1.927364667828999e+01
 9.523385096060332e-01	 4.351787875770651e-01	 1.894388983653964e+01
 9.481843367569365e-01	 4.441572880765864e-01	 1.861092373634616e+01
 9.439384128394400e-01	 4.531109472163599e-01	 1.827494943370126e+01
 9.932969818478676e-01	 3.666933543010295e-01	 2.118794442014266e+01
 9.898402465903455e-01	 3.759244222817039e-01	 2.090367164875786e+01
 9.862905567574870e-01	 3.851412764684291e-01	 2.061475022633694e+01
 9.826478448452090e-01	 3.943425716045663e-01	 2.032152195716756e+01
 9.789120683146538e-01	 4.035269561290948e-01	 2.002415586091266e+01
 9.750832098544269e-01	 4.126930727338470e-01	 1.972282456408906e+01
 9.711612776285081e-01	 4.218395589311318e-01	 1.941770418860191e+01
 9.671463055094226e-01	 4.309650476313385e-01	 1.910897424991467e+01
 9.630383532962352e-01	 4.400681677300958e-01	 1.879681756624356e+01
 9.588375069169784e-01	 4.491475447045356e-01	 1.848142018011848e+01
 9.545438786151186e-01	 4.582018012182008e-01	 1.816297129359633e+01
 1.004332936043563e+00	 3.707674742647269e-01	 2.091232661491981e+01
 1.000837794979349e+00	 3.801011033579126e-01	 2.064439168442176e+01
 9.972486665747142e-01	 3.894203607357672e-01	 2.037203093030545e+01
 9.935654825755719e-01	 3.987238861952844e-01	 2.009539871788214e+01
 9.897881999704341e-01	 4.080103131590319e-01	 1.981465323456178e+01
 9.859168012555625e-01	 4.172782692385776e-01	 1.952995636521178e+01
 9.819512946856372e-01	 4.265263768084190e-01	 1.924147357630272e+01
 9.778917145095156e-01	 4.357532535900048e-01	 1.894937381037927e+01
 9.737381211906503e-01	 4.449575132454177e-01	 1.865382939236013e+01
 9.694906016117657e-01	 4.541377659802627e-01	 1.835501594912345e+01
 9.651492692633933e-01	 4.632926191552946e-01	 1.805311234377373e+01
 1.015368833951324e+00	 3.748415734469953e-01	 2.064614996391879e+01
 1.011835287276251e+00	 3.842777631294397e-01	 2.039380066459002e+01
 1.008206720500924e+00	 3.936994231760172e-01	 2.013707478572692e+01
 1.004483064621259e+00	 4.031051784374262e-01	 1.987611602633460e+01
 1.000664276153146e+00	 4.124936473198963e-01	 1.961107218058369e+01
 9.967503374005066e-01	 4.218634423548027e-01	 1.934209500936485e+01
 9.927412567087261e-01	 4.312131707789045e-01	 1.906934012102208e+01
 9.886370687029961e-01	 4.405414351247839e-01	 1.879296686292254e+01
 9.844378345111575e-01	 4.498468338210500e-01	 1.851313822548343e+01
 9.801436419706253e-01	 4.591279618018547e-01	 1.823002076022764e+01
 9.757546058189972e-01	 4.683834111252396e-01	 1.794378451337709e+01
 1.026404697459648e+00	 3.789156599287912e-01	 2.038734046186064e+01
 1.022832745293394e+00	 3.884544098807022e-01	 2.014969998882113e+01
 1.019164740270257e+00	 3.979784722767367e-01	 1.990774008960245e+01
 1.015400612636162e+00	 4.074864570213408e-01	 1.966159409696929e+01
 1.011540318434378e+00	 4.169769675044476e-01	 1.941139988553754e+01
 1.007583839776497e+00	 4.264486011772844e-01	 1.915729974053231e+01
 1.003531185098610e+00	 4.358999501389150e-01	 1.889944023594122e+01
 9.993823894022449e-01	 4.453296017330970e-01	 1.863797212383999e+01
 9.951375144796349e-01	 4.547361391550115e-01	 1.837305023663174e+01
 9.907966491228861e-01	 4.641181420673997e-01	 1.810483340388902e+01
 9.863599093166606e-01	 4.734741872256336e-01	 1.783348438542306e+01
 1.037440548457033e+00	 3.829897417910711e-01	 2.013375962722780e+01
 1.033830190843122e+00	 3.926310518961178e-01	 1.991000090615323e+01
 1.030122747616855e+00	 4.022575165254837e-01	 1.968199257636421e+01
 1.026318148274169e+00	 4.118677306373764e-01	 1.944985794335208e+01
 1.022416348385720e+00	 4.214602826054462e-01	 1.921372547102401e+01
 1.018417329870770e+00	 4.310337548007855e-01	 1.897372864852268e+01
 1.014321101256122e+00	 4.405867241847763e-01	 1.873000586648402e+01
 1.010127697919643e+00	 4.501177629123665e-01	 1.848270030463400e+01
 1.005837182317961e+00	 4.596254389453209e-01	 1.823195983258828e+01
 1.001449644197875e+00	 4.691083166749851e-01	 1.797793692566493e+01
 9.969652007911152e-01	 4.785649575540746e-01	 1.772078859745421e+01
 1.048476408831977e+00	 3.870638271147915e-01	 1.988337517854438e+01
 1.044827645737777e+00	 3.968076974601034e-01	 1.967271877618101e+01
 1.041080764274857e+00	 4.065365644098159e-01	 1.945789978680974e+01
 1.037235693189170e+00	 4.162490079758815e-01	 1.923903186692960e+01
 1.033292387578760e+00	 4.259436015156521e-01	 1.901623461429447e+01
 1.029250829170564e+00	 4.356189123200683e-01	 1.878963343349972e+01
 1.025111026582097e+00	 4.452735022128154e-01	 1.855935941088105e+01
 1.020873015567573e+00	 4.549059281600142e-01	 1.832554920075313e+01
 1.016536859248014e+00	 4.645147428899974e-01	 1.808834492497837e+01
 1.012102648324919e+00	 4.740984955226986e-01	 1.784789408780116e+01
 1.007570501277092e+00	 4.836557322081607e-01	 1.760434950781497e+01
 9.015153777680721e-01	 4.327469686095653e-01	 1.877906070986386e+01
 8.973734916289077e-01	 4.412717521407645e-01	 1.835848015782033e+01
 8.931442941867405e-01	 4.497702121745721e-01	 1.793571710862772e+01
 8.888279661850488e-01	 4.582410436156898e-01	 1.751109724962529e+01
 8.844247137540192e-01	 4.666829410531057e-01	 1.708495200138858e+01
 8.799347685068711e-01	 4.750945993647693e-01	 1.665761843944794e+01
 8.753583876192406e-01	 4.834747143274810e-01	 1.622943922392754e+01
 8.706958538913733e-01	 4.918219832314509e-01	 1.580076253746539e+01
 8.659474757928984e-01	 5.001351054989742e-01	 1.537194203168860e+01
 8.611135874899662e-01	 5.084127833066525e-01	 1.494333678242202e+01
 8.561945488545586e-01	 5.166537222105835e-01	 1.451531125370415e+01
 9.121213544006749e-01	 4.378380678463747e-01	 1.864085431723587e+01
 9.079307405875887e-01	 4.464631421285952e-01	 1.824282336803424e+01
 9.036517882879429e-01	 4.550615832276971e-01	 1.784258601748408e+01
 8.992846803716336e-01	 4.636320706944428e-01	 1.744044459245460e+01
 8.948296253939324e-01	 4.721732837601672e-01	 1.703670734289085e+01
 8.902868576929416e-01	 4.806839019485667e-01	 1.663168838548063e+01
 8.856566374699102e-01	 4.891626056927622e-01	 1.622570765636663e+01
 8.809392508521630e-01	 4.976080769570894e-01	 1.581909087327981e+01
 8.761350099383983e-01	 5.060189998630527e-01	 1.541216950738101e+01
 8.712442528261447e-01	 5.143940613188653e-01	 1.500528076498694e+01
 8.662673436211814e-01	 5.227319516519963e-01	 1.459876757924895e+01
 9.227271717669495e-01	 4.429290906280449e-01	 1.851206846457876e+01
 9.184878310115381e-01	 4.516544541554241e-01	 1.813514602552116e+01
 9.141591246014563e-01	 4.603528748186305e-01	 1.775600640538810e+01
 9.097412375329832e-01	 4.690230168147166e-01	 1.737492999214973e+01
 9.052343807864319e-01	 4.776635440175916e-01	 1.699220313457451e+01
 9.006387914247403e-01	 4.862731205969262e-01	 1.660811810492247e+01
 8.959547326747207e-01	 4.948504116423904e-01	 1.622297307206562e+01
 8.911824939907200e-01	 5.033940837926729e-01	 1.583707208545097e+01
 8.863223911004452e-01	 5.119028058687144e-01	 1.545072507020414e+01
 8.813747660327386e-01	 5.203752495105669e-01	 1.506424783356652e+01
 8.763399871271070e-01	 5.288100898172954e-01	 1.467796208273424e+01
 9.333328509016273e-01	 4.480200470521739e-01	 1.839072437499211e+01
 9.290447838388638e-01	 4.568456985177370e-01	 1.803359246837496e+01
 9.246663239667289e-01	 4.656440974421290e-01	 1.767424067455455e+01
 9.201976584078502e-01	 4.744138926688890e-01	 1.731292884991682e+01
 9.156390005675455e-01	 4.831537327146996e-01	 1.694992269971412e+01
 9.109905902335468e-01	 4.918622663954039e-01	 1.658549375684573e+01
 9.062526936581859e-01	 5.005381434574181e-01	 1.621991937272185e+01
 9.014256036227829e-01	 5.091800152139832e-01	 1.585348272066104e+01
 8.965096394839994e-01	 5.177865351856712e-01	 1.548647281215387e+01
 8.915051472019343e-01	 5.263563597445712e-01	 1.511918452620078e+01
 8.864124993497631e-01	 5.348881487615409e-01	 1.475191865180739e+01
 9.439384128394400e-01	 4.531109472163599e-01	 1.827494943370127e+01
 9.396016200076746e-01	 4.620368855120206e-01	 1.793640769840776e+01
 9.351734072232081e-01	 4.709352615929486e-01	 1.759564661945224e+01
 9.306539637349861e-01	 4.798047089493377e-01	 1.725290691654558e+01
 9.260435053733003e-01	 4.886438607408124e-01	 1.690843489894546e+01
 9.213422746506421e-01	 4.974513504295558e-01	 1.656248245737720e+01
 9.165505408448213e-01	 5.062258124188991e-01	 1.621530706996063e+01
 9.116686000640906e-01	 5.149658826968010e-01	 1.586717182264145e+01
 9.066967752940209e-01	 5.236701994836354e-01	 1.551834544450111e+01
 9.016354164259196e-01	 5.323374038836932e-01	 1.516910235818433e+01
 8.964849002665759e-01	 5.409661405397922e-01	 1.481972274554340e+01
 9.545438786151186e-01	 4.582018012182008e-01	 1.816297129359632e+01
 9.501583604560790e-01	 4.672280254347608e-01	 1.784193177872683e+01
 9.456803952103396e-01	 4.762263777658446e-01	 1.751867210446276e+01
 9.411101742531426e-01	 4.851954763484406e-01	 1.719341523814634e+01
 9.364479158397241e-01	 4.941339389852510e-01	 1.686638933204701e+01
 9.316938652073049e-01	 5.030403837849382e-01	 1.653782772545777e+01
 9.268482946591415e-01	 5.119134298078857e-01	 1.620796896298872e+01
 9.219115036303827e-01	 5.207516977169087e-01	 1.587705682961871e+01
 9.168838187354712e-01	 5.295538104323189e-01	 1.554534040292811e+01
 9.117655937968809e-01	 5.383183937907475e-01	 1.521307412279361e+01
 9.065572098549728e-01	 5.470440772071088e-01	 1.488051787867087e+01
 9.651492692633933e-01	 4.632926191552946e-01	 1.805311234377373e+01
 9.607150261221853e-01	 4.724191285824437e-01	 1.774859457442735e+01
 9.561873087675727e-01	 4.815174564555743e-01	 1.744185006558169e+01
 9.515663107010722e-01	 4.905862055585751e-01	 1.713308540767857e+01
 9.468522526028447e-01	 4.996239783373367e-01	 1.682251182808076e+01
 9.420453824348154e-01	 5.086293775471074e-01	 1.651034520035693e+01
 9.371459755256613e-01	 5.176010069054310e-01	 1.619680607222622e+01
 9.321543346373986e-01	 5.265374717500876e-01	 1.588211971279772e+01
 9.270707900133106e-01	 5.354373797014340e-01	 1.556651617958925e+01
 9.218956994070058e-01	 5.442993413285486e-01	 1.525023040565586e+01
 9.166294480923809e-01	 5.531219708185500e-01	 1.493350230699214e+01
 9.757546058189972e-01	 4.683834111252396e-01	 1.794378451337709e+01
 9.712716379441023e-01	 4.776102052515558e-01	 1.765491081021460e+01
 9.666941687343531e-01	 4.868085081568927e-01	 1.736379381143138e+01
 9.620223938175266e-01	 4.959769072721192e-01	 1.707062509892948e+01
 9.572565362986893e-01	 5.051139896863903e-01	 1.677560020188380e+01
 9.523968468644529e-01	 5.142183428016192e-01	 1.647891861020182e+01
 9.474436038688954e-01	 5.232885549925883e-01	 1.618078380938042e+01
 9.423971134008770e-01	 5.323232162721189e-01	 1.588140333747920e+01
 9.372577093324997e-01	 5.413209189606923e-01	 1.558098886476956e+01
 9.320257533484809e-01	 5.502802583599118e-01	 1.527975629644961e+01
 9.267016349562268e-01	 5.591998334291759e-01	 1.497792589863430e+01
 9.863599093166606e-01	 4.734741872256336e-01	 1.783348438542306e+01
 9.818282168599384e-01	 4.828012657385828e-01	 1.755947542102492e+01
 9.772009959501292e-01	 4.920995433645568e-01	 1.728319260098437e+01
 9.724784443412580e-01	 5.013675921814507e-01	 1.700481386161461e+01
 9.676607875632861e-01	 5.106039839217335e-01	 1.672452025679508e+01
 9.627482790274980e-01	 5.198072906340303e-01	 1.644249597256055e+01
 9.577412001133583e-01	 5.289760853504105e-01	 1.615892836610221e+01
 9.526398602365577e-01	 5.381089427587850e-01	 1.587400802999698e+01
 9.474445968979998e-01	 5.472044398798064e-01	 1.558792888230980e+01
 9.421557757134935e-01	 5.562611567476509e-01	 1.530088828302776e+01
 9.367737904239373e-01	 5.652776770940452e-01	 1.501308717709365e+01
 9.969652007911152e-01	 4.785649575540746e-01	 1.772078859745421e+01
 9.923847838078022e-01	 4.879923203400114e-01	 1.746095917375713e+01
 9.877078112543476e-01	 4.973905725733220e-01	 1.719880747732349e+01
 9.829344830110183e-01	 5.067582709789471e-01	 1.693449915809000e+01
 9.780650270326624e-01	 5.160939719326867e-01	 1.666820201521958e+01
 9.730996994552307e-01	 5.253962321298965e-01	 1.640008600973972e+01
 9.680387846835654e-01	 5.346636092599504e-01	 1.613032330488798e+01
 9.628825954601794e-01	 5.438946626858667e-01	 1.585908833509019e+01
 9.576314729147706e-01	 5.530879541284882e-01	 1.558655790431218e+01
 9.522857865942299e-01	 5.622420483545807e-01	 1.531291131432666e+01
 9.468459344729394e-01	 5.713555138682183e-01	 1.503833052322771e+01
 1.007570501277092e+00	 4.836557322081607e-01	 1.760434950781497e+01
 1.002941359725802e+00	 4.931833793523275e-01	 1.735810454006963e+01
 9.982146354864559e-01	 5.026816062779448e-01	 1.710946733850806e+01
 9.933905305655590e-01	 5.121489543569863e-01	 1.685859262380898e+01
 9.884692753428458e-01	 5.215839646085714e-01	 1.660563616017794e+01
 9.834511286789298e-01	 5.309851783747742e-01	 1.635075476291538e+01
 9.783363780040307e-01	 5.403511380022610e-01	 1.609410633726939e+01
 9.731253393874821e-01	 5.496803875291462e-01	 1.583584994962306e+01
 9.678183575877733e-01	 5.589714733764497e-01	 1.557614593186430e+01
 9.624158060828780e-01	 5.682229450435161e-01	 1.531515601957267e+01
 9.569180870806602e-01	 5.774333558067543e-01	 1.505304352443260e+01
 8.561945488545586e-01	 5.166537222105835e-01	 1.451531125370415e+01
 8.511907456626934e-01	 5.248566319374305e-01	 1.408870872496249e+01
 8.461025901846804e-01	 5.330202275143922e-01	 1.366426465220083e+01
 8.409305205124762e-01	 5.411432294266815e-01	 1.324218241976783e+01
 8.356750002871786e-01	 5.492243640870376e-01	 1.282266104628286e+01
 8.303365186157974e-01	 5.572623644660746e-01	 1.240589536019658e+01
 8.249155899695261e-01	 5.652559707219061e-01	 1.199207619693241e+01
 8.194127540634818e-01	 5.732039308284176e-01	 1.158139061671208e+01
 8.138285757179111e-01	 5.811050012015556e-01	 1.117402214203481e+01
 8.081636447008754e-01	 5.889579473229990e-01	 1.077015101362746e+01
 8.024185755524645e-01	 5.967615443605806e-01	 1.036995446354671e+01
 8.662673436211814e-01	 5.227319516519963e-01	 1.459876757924895e+01
 8.612046726380588e-01	 5.310313654095496e-01	 1.419331778937297e+01
 8.560566569972516e-01	 5.392910025015476e-01	 1.378952333665004e+01
 8.508237399446464e-01	 5.475095683602436e-01	 1.338758501972598e+01
 8.455063905758442e-01	 5.556857744151524e-01	 1.298770033130329e+01
 8.401051037519579e-01	 5.638183387308149e-01	 1.259006364882736e+01
 8.346203999966803e-01	 5.719059866438291e-01	 1.219486644676553e+01
 8.290528253746150e-01	 5.799474513985156e-01	 1.180229752953557e+01
 8.234029513508452e-01	 5.879414747805720e-01	 1.141254328399091e+01
 8.176713746317720e-01	 5.958868077480854e-01	 1.102578795021607e+01
 8.118587169872558e-01	 6.037822110592489e-01	 1.064221390923489e+01
 8.763399871271070e-01	 5.288100898172954e-01	 1.467796208273424e+01
 8.712184492365633e-01	 5.372060061566716e-01	 1.429241057084550e+01
 8.660105743316785e-01	 5.455616833217620e-01	 1.390805303134839e+01
 8.607168108121994e-01	 5.538758116920818e-01	 1.352508927678694e+01
 8.553376332281601e-01	 5.621470877141412e-01	 1.314371685948784e+01
 8.498735421946952e-01	 5.703742145466260e-01	 1.276413127576001e+01
 8.443250642879175e-01	 5.785559027048366e-01	 1.238652619179898e+01
 8.386927519218279e-01	 5.866908707037433e-01	 1.201109369030308e+01
 8.329771832062567e-01	 5.947778456990110e-01	 1.163802453665178e+01
 8.271789617858472e-01	 6.028155641253462e-01	 1.126750846333413e+01
 8.212987166601320e-01	 6.108027723315136e-01	 1.089973447115824e+01
 8.864124993497631e-01	 5.348881487615409e-01	 1.475191865180738e+01
 8.812320953188961e-01	 5.433805664252134e-01	 1.438508539488283e+01
 8.759643619299443e-01	 5.518322824118939e-01	 1.401902574176773e+01
 8.706097527364566e-01	 5.602419720485501e-01	 1.365394007622660e+01
 8.651687477428343e-01	 5.686083167988780e-01	 1.329002755255295e+01
 8.596418533181698e-01	 5.769300049158991e-01	 1.292748631170963e+01
 8.540296020909226e-01	 5.852057320938034e-01	 1.256651371938624e+01
 8.483325528244183e-01	 5.934342021184000e-01	 1.220730662493792e+01
 8.425512902731547e-01	 6.016141275155061e-01	 1.185006164000038e+01
 8.366864250199358e-01	 6.097442301966316e-01	 1.149497543540260e+01
 8.307385932938800e-01	 6.178232421012975e-01	 1.114224505483898e+01
 8.964849002665759e-01	 5.409661405397922e-01	 1.481972274554340e+01
 8.912456307457463e-01	 5.495550584615924e-01	 1.447049889107409e+01
 8.859180395340333e-01	 5.581028122088014e-01	 1.412166855216068e+01
 8.805025853387365e-01	 5.666080620560013e-01	 1.377343420094662e+01
 8.749997536185755e-01	 5.750694744842371e-01	 1.342599809488291e+01
 8.694100564965410e-01	 5.834857228410245e-01	 1.307956250326756e+01
 8.637340326533817e-01	 5.918554879996059e-01	 1.273432995602757e+01
 8.579722472016846e-01	 6.001774590167851e-01	 1.239050351366334e+01
 8.521252915405495e-01	 6.084503337886906e-01	 1.204828705709613e+01
 8.461937831908724e-01	 6.166728197037933e-01	 1.170788559598038e+01
 8.401783656112859e-01	 6.248436342925239e-01	 1.136950559386611e+01
 9.065572098549728e-01	 5.470440772071088e-01	 1.488051787867088e+01
 9.012590753778040e-01	 5.557294945122258e-01	 1.454786265418574e+01
 8.958716268859289e-01	 5.643732851493420e-01	 1.421526046226711e+01
 8.903953282403608e-01	 5.729740943407893e-01	 1.388291734244993e+01
 8.848306703540918e-01	 5.815305735850917e-01	 1.355104011732544e+01
 8.791781711039677e-01	 5.900413813243935e-01	 1.321983662797303e+01
 8.734383752229795e-01	 5.985051836111184e-01	 1.288951599207526e+01
 8.676118541729245e-01	 6.069206547731972e-01	 1.256028888359693e+01
 8.616992059974518e-01	 6.152864780771983e-01	 1.223236783271657e+01
 8.557010551554928e-01	 6.236013463886811e-01	 1.190596754451015e+01
 8.496180523351354e-01	 6.318639628291151e-01	 1.158130523470166e+01
 9.166294480923809e-01	 5.531219708185500e-01	 1.493350230699214e+01
 9.112724490757581e-01	 5.619038868235304e-01	 1.461644009447114e+01
 9.058251437276159e-01	 5.706437136703748e-01	 1.429912940137962e+01
 9.002880010626491e-01	 5.793400815292674e-01	 1.398178127743748e+01
 8.946615174480913e-01	 5.879916269163166e-01	 1.366460853500718e+01
 8.889462165146110e-01	 5.965969933683971e-01	 1.334782599194019e+01
 8.831426490474020e-01	 6.051548321172169e-01	 1.303165073767252e+01
 8.772513928574365e-01	 6.136638027619358e-01	 1.271630242141140e+01
 8.712730526328708e-01	 6.221225739396622e-01	 1.240200356105344e+01
 8.652082597706316e-01	 6.305298239931468e-01	 1.208897987127284e+01
 8.590576721882167e-01	 6.388842416349949e-01	 1.177746060902098e+01
 9.267016349562268e-01	 5.591998334291759e-01	 1.497792589863430e+01
 9.212857717002987e-01	 5.680782476419239e-01	 1.467554346274924e+01
 9.157786098010777e-01	 5.769141102087579e-01	 1.437264940622484e+01
 9.101806234269213e-01	 5.857060362477891e-01	 1.406946119738348e+01
 9.044923143992831e-01	 5.944526472927856e-01	 1.376619902740777e+01
 8.987142121026295e-01	 6.031525719754258e-01	 1.346308605915279e+01
 8.928468733743350e-01	 6.118044467067766e-01	 1.316034869990402e+01
 8.868908823745184e-01	 6.204069163572997e-01	 1.285821689688852e+01
 8.808468504358178e-01	 6.289586349347169e-01	 1.255692445413326e+01
 8.747154158931240e-01	 6.374582662590408e-01	 1.225670936904707e+01
 8.684972438933152e-01	 6.459044846340860e-01	 1.195781418689910e+01
 9.367737904239373e-01	 5.652776770940452e-01	 1.501308717709365e+01
 9.312990631121146e-01	 5.742525892138234e-01	 1.472453103704860e+01
 9.257320448482983e-01	 5.831844872013492e-01	 1.443523795028209e+01
 9.200732149544977e-01	 5.920719711227083e-01	 1.414543317952531e+01
 9.143230807063749e-01	 6.009136475293720e-01	 1.385534564994030e+01
 9.084821772421833e-01	 6.097081301478706e-01	 1.356520820247361e+01
 9.025510674514640e-01	 6.184540405686731e-01	 1.327525787199326e+01
 8.965303418434687e-01	 6.271500089335879e-01	 1.298573618898336e+01
 8.904206183953024e-01	 6.357946746209953e-01	 1.269688950334369e+01
 8.842225423798045e-01	 6.443866869282140e-01	 1.240896932861494e+01
 8.779367861732174e-01	 6.529247057503111e-01	 1.212223270472755e+01
 9.468459344729394e-01	 5.713555138682183e-01	 1.503833052322771e+01
 9.413123431718960e-01	 5.804269237856459e-01	 1.476280445873477e+01
 9.356854686112616e-01	 5.894548570850068e-01	 1.448635341321371e+01
 9.299657952666982e-01	 5.984378987803778e-01	 1.420921178869332e+01
 9.241538358680753e-01	 6.073746404409508e-01	 1.393161856720181e+01
 9.182501313074314e-01	 6.162636808881224e-01	 1.365381756726394e+01
 9.122552505264740e-01	 6.251036268917812e-01	 1.337605772616469e+01
 9.061697903835850e-01	 6.338930938650993e-01	 1.309859340672618e+01
 8.999943755003350e-01	 6.426307065571312e-01	 1.282168472709952e+01
 8.937296580875083e-01	 6.513150997425171e-01	 1.254559791183646e+01
 8.873763177507102e-01	 6.599449189075938e-01	 1.227060566226654e+01
 9.569180870806602e-01	 5.774333558067543e-01	 1.505304352443260e+01
 9.513256317403318e-01	 5.866012636038084e-01	 1.478980620705830e+01
 9.456389008319519e-01	 5.957252322965895e-01	 1.452549268003762e+01
 9.398583839848429e-01	 6.048038318471516e-01	 1.426034780029294e+01
 9.339845993830925e-01	 6.138356388423952e-01	 1.399462189888427e+01
 9.280180936725346e-01	 6.228192371985718e-01	 1.372857103927284e+01
 9.219594418470507e-01	 6.317532188649768e-01	 1.346245730249092e+01
 9.158092471141666e-01	 6.406361845261336e-01	 1.319654909793771e+01
 9.095681407399252e-01	 6.494667443017578e-01	 1.293112149826261e+01
 9.032367818730713e-01	 6.582435184438015e-01	 1.266645659654192e+01
 8.968158573485796e-01	 6.669651380298567e-01	 1.240284388370477e+01
 8.024185755524645e-01	 5.967615443605806e-01	 1.036995446354671e+01
 7.965930109800831e-01	 6.045158907765116e-01	 9.973787232413349e+00
 7.906885874742027e-01	 6.122184477348452e-01	 9.582232210067733e+00
 7.847059963145351e-01	 6.198680180939394e-01	 9.195608163621127e+00
 7.786459526990358e-01	 6.274634168227140e-01	 8.814240044980499e+00
 7.725091954758022e-01	 6.350034715981188e-01	 8.438459149342492e+00
 7.662964868572391e-01	 6.424870233956012e-01	 8.068603268203182e+00
 7.600086121167052e-01	 6.499129270719646e-01	 7.705016834998677e+00
 7.536463792678838e-01	 6.572800519400025e-01	 7.348051061436302e+00
 7.472106187271417e-01	 6.645872823343153e-01	 6.998064062533816e+00
 7.407021829591638e-01	 6.718335181677186e-01	 6.655420968526266e+00
 8.118587169872558e-01	 6.037822110592489e-01	 1.064221390923490e+01
 8.059646169212547e-01	 6.116277843346658e-01	 1.026228900240141e+01
 7.999907301769286e-01	 6.194209588699561e-01	 9.886688732789944e+00
 7.939377561666576e-01	 6.271605234395431e-01	 9.515714615214319e+00
 7.878064185024524e-01	 6.348452790708891e-01	 9.149673185034910e+00
 7.815974647247018e-01	 6.424740396489887e-01	 8.788876193652452e+00
 7.753116660129732e-01	 6.500456325137891e-01	 8.433640801067039e+00
 7.689498168790924e-01	 6.575588990498992e-01	 8.084289763470514e+00
 7.625127348427394e-01	 6.650126952679886e-01	 7.741151613771320e+00
 7.560012600898370e-01	 6.724058923772588e-01	 7.404560832898017e+00
 7.494162551140171e-01	 6.797373773483986e-01	 7.074858009687901e+00
 8.212987166601320e-01	 6.108027723315136e-01	 1.089973447115824e+01
 8.153360821296917e-01	 6.187395710964885e-01	 1.053524700473766e+01
 8.092927331900801e-01	 6.266233618479118e-01	 1.017477384379737e+01
 8.031693773862137e-01	 6.344529192764914e-01	 9.818594467721551e+00
 7.969667467440251e-01	 6.422270304684482e-01	 9.466992122019906e+00
 7.906855974960554e-01	 6.499444955170393e-01	 9.120254059238976e+00
 7.843267097888920e-01	 6.576041281269219e-01	 8.778671779731138e+00
 7.778908873726792e-01	 6.652047562107222e-01	 8.442541270075393e+00
 7.713789572729436e-01	 6.727452224771929e-01	 8.112163236872085e+00
 7.647917694450099e-01	 6.802243850103417e-01	 7.787843333566673e+00
 7.581301964112962e-01	 6.876411178389333e-01	 7.469892377907916e+00
 8.307385932938800e-01	 6.178232421012975e-01	 1.114224505483898e+01
 8.247074251922496e-01	 6.258512651668323e-01	 1.079245449123409e+01
 8.185946149627382e-01	 6.338256709532919e-01	 1.044634302096572e+01
 8.124008782826848e-01	 6.417452200678598e-01	 1.010416346179818e+01
 8.061269555918262e-01	 6.496086856557038e-01	 9.766171053765296e+00
 7.997736118147345e-01	 6.574148540185301e-01	 9.432623753862114e+00
 7.933416360648928e-01	 6.651625252258905e-01	 9.103782533621070e+00
 7.868318413306357e-01	 6.728505137186104e-01	 8.779911677185256e+00
 7.802450641432053e-01	 6.804776489037069e-01	 8.461279077400011e+00
 7.735821642271919e-01	 6.880427757401721e-01	 8.148156527364685e+00
 7.668440241336621e-01	 6.955447553150208e-01	 7.840820004830764e+00
 8.401783656112859e-01	 6.248436342925239e-01	 1.136950559386611e+01
 8.340786646957855e-01	 6.329628806505501e-01	 1.103373300395416e+01
 8.278963939439861e-01	 6.410279004706764e-01	 1.070127739502397e+01
 8.216322771655533e-01	 6.490374402767242e-01	 1.037236044612878e+01
 8.152870632139282e-01	 6.569902592729682e-01	 1.004720482591716e+01
 8.088615257056104e-01	 6.648851299697199e-01	 9.726034549408885e+00
 8.023564627208726e-01	 6.727208388015844e-01	 9.409075340930015e+00
 7.957726964861314e-01	 6.804961867377408e-01	 9.096555000615536e+00
 7.891110730382317e-01	 6.882099898836223e-01	 8.788703771779758e+00
 7.823724618709137e-01	 6.958610800733570e-01	 8.485754706368263e+00
 7.755577555637762e-01	 7.034483054523595e-01	 8.187944025629138e+00
 8.496180523351354e-01	 6.318639628291151e-01	 1.158130523470166e+01
 8.434498192271546e-01	 6.400744316524942e-01	 1.125893071867369e+01
 8.371980885829055e-01	 6.482300646846458e-01	 1.093948224718715e+01
 8.308635923443004e-01	 6.563295943661610e-01	 1.062314602516682e+01
 8.244470877784028e-01	 6.643717659605527e-01	 1.031010772613097e+01
 8.179493571935542e-01	 6.723553381868688e-01	 1.000055291931027e+01
 8.113712076367294e-01	 6.802790838448942e-01	 9.694667506450934e+00
 8.047134705723371e-01	 6.881417904322900e-01	 9.392638165484035e+00
 7.979770015427305e-01	 6.959422607530309e-01	 9.094652798124010e+00
 7.911626798107071e-01	 7.036793135165041e-01	 8.800900978359570e+00
 7.842714079842985e-01	 7.113517839266459e-01	 8.511574398706255e+00
 8.590576721882167e-01	 6.388842416349949e-01	 1.177746060902098e+01
 8.528209073732126e-01	 6.471859322775178e-01	 1.146792086546177e+01
 8.464997173285783e-01	 6.554321778797804e-01	 1.116088557383079e+01
 8.400948421284085e-01	 6.636216967992461e-01	 1.085650126413851e+01
 8.336070474533220e-01	 6.717532203587692e-01	 1.055491232603191e+01
 8.270371243034376e-01	 6.798254934862354e-01	 1.025626151447538e+01
 8.203858886923610e-01	 6.878372753467100e-01	 9.960690468894144e+00
 8.136541813224211e-01	 6.957873399664343e-01	 9.668340242716967e+00
 8.068428672414090e-01	 7.036744768480231e-01	 9.379351840126716e+00
 7.999528354811027e-01	 7.114974915762203e-01	 9.093866756704548e+00
 7.929849986778904e-01	 7.192552064135787e-01	 8.812027520552570e+00
 8.684972438933152e-01	 6.459044846340860e-01	 1.195781418689911e+01
 8.621919477208162e-01	 6.542973966304731e-01	 1.166060022049166e+01
 8.558012986300869e-01	 6.626342543406596e-01	 1.136543671308248e+01
 8.493260448273590e-01	 6.709137620390554e-01	 1.107242644693483e+01
 8.427669604067591e-01	 6.791346371079299e-01	 1.078166836728962e+01
 8.361248450601315e-01	 6.872956106840795e-01	 1.049325817479487e+01
 8.294005237676642e-01	 6.953954282979221e-01	 1.020728893543220e+01
 8.225948464695544e-01	 7.034328505043509e-01	 9.923851704617705e+00
 8.157086877189762e-01	 7.114066535046920e-01	 9.643036162006211e+00
 8.087429463166328e-01	 7.193156297591136e-01	 9.364931253389724e+00
 8.016985449272134e-01	 7.271585885888553e-01	 9.089625835967791e+00
 8.779367861732174e-01	 6.529247057503111e-01	 1.212223270472755e+01
 8.715629588568212e-01	 6.614088388162136e-01	 1.183688766368920e+01
 8.651028509365137e-01	 6.698363083518637e-01	 1.155310502864511e+01
 8.585572187506338e-01	 6.782058045486651e-01	 1.127093988288786e+01
 8.519268448067854e-01	 6.865160308483467e-01	 1.099044168846566e+01
 8.452125374885078e-01	 6.947657045966602e-01	 1.071165497351848e+01
 8.384151307425370e-01	 7.029535576894202e-01	 1.043462004140989e+01
 8.315354837469064e-01	 7.110783372102166e-01	 1.015937369805246e+01
 8.245744805601382e-01	 7.191388060591279e-01	 9.885949993655318e+00
 8.175330297518275e-01	 7.271337435717906e-01	 9.614380974971612e+00
 8.104120640149274e-01	 7.350619461281734e-01	 9.344697443988689e+00
 8.873763177507102e-01	 6.599449189075938e-01	 1.227060566226654e+01
 8.809339593680835e-01	 6.685202729395914e-01	 1.199672279729028e+01
 8.744043926969410e-01	 6.770383541979728e-01	 1.172387864656351e+01
 8.677883822077149e-01	 6.854978387911509e-01	 1.145207675876722e+01
 8.610867188214735e-01	 6.938974162203311e-01	 1.118131318957653e+01
 8.543002196134367e-01	 7.022357900402363e-01	 1.091157729204041e+01
 8.474297274968771e-01	 7.105116785120954e-01	 1.064285253332619e+01
 8.404761108876470e-01	 7.187238152482077e-01	 1.037511733392455e+01
 8.334402633496039e-01	 7.268709498474226e-01	 1.010834592522693e+01
 8.263231032212188e-01	 7.349518485208596e-01	 9.842509221212374e+00
 8.191255732236941e-01	 7.429652947072309e-01	 9.577820206676385e+00
 8.968158573485796e-01	 6.669651380298567e-01	 1.240284388370477e+01
 8.903049678414585e-01	 6.756317131054590e-01	 1.214006462078662e+01
 8.837059423604503e-01	 6.842404061635670e-01	 1.187776324100506e+01
 8.770195535080831e-01	 6.927898792295892e-01	 1.161588803263834e+01
 8.702466006188954e-01	 7.012788078641958e-01	 1.135437783156854e+01
 8.633879094597913e-01	 7.097058818310689e-01	 1.109316292282853e+01
 8.564443319105822e-01	 7.180698057568373e-01	 1.083216597335404e+01
 8.494167456249464e-01	 7.263692997825018e-01	 1.057130299172228e+01
 8.423060536720807e-01	 7.346031002056677e-01	 1.031048431044385e+01
 8.351131841593377e-01	 7.427699601129277e-01	 1.004982143673055e+01
 8.278390898361738e-01	 7.508686500017251e-01	 9.793577232940002e+00
 7.407021829591638e-01	 6.718335181677186e-01	 6.655420968526265e+00
 7.341230687229586e-01	 6.790164615925394e-01	 6.320380813054174e+00
 7.274730610723107e-01	 6.861362925476358e-01	 5.992884577789708e+00
 7.207530641401294e-01	 6.931919731627650e-01	 5.672990839462202e+00
 7.139640025157525e-01	 7.001824832538673e-01	 5.360746283494198e+00
 7.071068208180253e-01	 7.071068208180252e-01	 5.056185628509736e+00
 7.001824832538673e-01	 7.139640025157528e-01	 4.759331550645655e+00
 6.931919731627649e-01	 7.207530641401293e-01	 4.470194608654572e+00
 6.861362925476358e-01	 7.274730610723109e-01	 4.188773170850383e+00
 6.790164615925391e-01	 7.341230687229588e-01	 3.915053345005705e+00
 6.718335181677186e-01	 7.407021829591638e-01	 3.649008912359137e+00
 7.494162551140171e-01	 6.797373773483986e-01	 7.074858009687905e+00
 7.427597401654040e-01	 6.870048253004289e-01	 6.751747279133419e+00
 7.360314977690208e-01	 6.942084182891202e-01	 6.434726433836129e+00
 7.292324426945411e-01	 7.013471062341005e-01	 6.124228610387553e+00
 7.223635104087271e-01	 7.084198569492499e-01	 5.820308233537373e+00
 7.154256566434866e-01	 7.154256566434863e-01	 5.522981783826887e+00
 7.084198569492500e-01	 7.223635104087269e-01	 5.232254830504929e+00
 7.013471062341005e-01	 7.292324426945412e-01	 4.948121961797675e+00
 6.942084182891201e-01	 7.360314977690209e-01	 4.670566714601593e+00
 6.870048253004285e-01	 7.427597401654041e-01	 4.399729670915701e+00
 6.797373773483985e-01	 7.494162551140171e-01	 4.138047124361630e+00
 7.581301964112962e-01	 6.876411178389333e-01	 7.469892377907913e+00
 7.513962819126839e-01	 6.949930690490941e-01	 7.157765062730584e+00
 7.445898059454777e-01	 7.022804228134732e-01	 6.850579537211128e+00
 7.377116939159589e-01	 7.095021168417444e-01	 6.548361643207524e+00
 7.307628921681558e-01	 7.166571069459053e-01	 6.251568059676324e+00
 7.237443675468799e-01	 7.237443675468797e-01	 5.960306361292732e+00
 7.166571069459055e-01	 7.307628921681559e-01	 5.674574993440234e+00
 7.095021168417445e-01	 7.377116939159590e-01	 5.394362688348777e+00
 7.022804228134732e-01	 7.445898059454782e-01	 5.120269788869346e+00
 6.949930690490936e-01	 7.513962819126840e-01	 4.855042336756997e+00
 6.876411178389331e-01	 7.581301964112962e-01	 4.598720547613660e+00
 7.668440241336621e-01	 6.955447553150208e-01	 7.840820004830764e+00
 7.600327110939431e-01	 7.029812086818440e-01	 7.538504509456202e+00
 7.531480025756558e-01	 7.103523221301368e-01	 7.240130957608027e+00
 7.461908346215558e-01	 7.176570211597758e-01	 6.945658723249032e+00
 7.391621644528011e-01	 7.248942495810257e-01	 6.655058886274332e+00
 7.320629700269656e-01	 7.320629700269656e-01	 6.368756294432817e+00
 7.248942495810254e-01	 7.391621644528013e-01	 6.086955335852554e+00
 7.176570211597759e-01	 7.461908346215557e-01	 5.810925144227756e+00
 7.103523221301365e-01	 7.531480025756558e-01	 5.543303600106252e+00
 7.029812086818440e-01	 7.600327110939432e-01	 5.283870545218647e+00
 6.955447553150208e-01	 7.668440241336620e-01	 5.032286465629879e+00
 7.755577555637762e-01	 7.034483054523595e-01	 8.187944025629136e+00
 7.686690448383248e-01	 7.109692600419865e-01	 7.894319224697649e+00
 7.617061046335293e-01	 7.184241322485547e-01	 7.603644681795356e+00
 7.546698816285052e-01	 7.258118353622732e-01	 7.315882287936465e+00
 7.475613439214248e-01	 7.331313011918033e-01	 7.030990843141701e+00
 7.403814805825052e-01	 7.403814805825051e-01	 6.748927535081964e+00
 7.331313011918031e-01	 7.475613439214250e-01	 6.472102607642186e+00
 7.258118353622734e-01	 7.546698816285055e-01	 6.203101057733667e+00
 7.184241322485544e-01	 7.617061046335296e-01	 5.941625970146144e+00
 7.109692600419861e-01	 7.686690448383252e-01	 5.687358444246090e+00
 7.034483054523594e-01	 7.755577555637762e-01	 5.439963559544604e+00
 7.842714079842985e-01	 7.113517839266459e-01	 8.511574398706252e+00
 7.773053002749736e-01	 7.189572389728289e-01	 8.225567568259569e+00
 7.702641290930733e-01	 7.264958691781694e-01	 7.941531073460457e+00
 7.631488517539810e-01	 7.339665756233158e-01	 7.659437541637084e+00
 7.559604472327883e-01	 7.413682781154305e-01	 7.379278008326864e+00
 7.486999157122587e-01	 7.486999157122586e-01	 7.103815537493483e+00
 7.413682781154305e-01	 7.559604472327885e-01	 6.834801448856555e+00
 7.339665756233158e-01	 7.631488517539812e-01	 6.572237344685880e+00
 7.264958691781692e-01	 7.702641290930731e-01	 6.316276236727513e+00
 7.189572389728289e-01	 7.773053002749737e-01	 6.066615063972248e+00
 7.113517839266460e-01	 7.842714079842985e-01	 5.822932319530453e+00
 7.929849986778904e-01	 7.192552064135787e-01	 8.812027520552570e+00
 7.859414945330326e-01	 7.269451613176805e-01	 8.532612399167261e+00
 7.788220929282613e-01	 7.345675489284240e-01	 8.254202893536634e+00
 7.716277618151562e-01	 7.421212581169818e-01	 7.976882184070447e+00
 7.643594910456536e-01	 7.496051966890993e-01	 7.703974822493564e+00
 7.570182919149872e-01	 7.570182919149868e-01	 7.436938751862787e+00
 7.496051966890995e-01	 7.643594910456537e-01	 7.175472246167709e+00
 7.421212581169817e-01	 7.716277618151564e-01	 6.919261737705671e+00
 7.345675489284238e-01	 7.788220929282618e-01	 6.668261544045896e+00
 7.269451613176805e-01	 7.859414945330331e-01	 6.422714403758189e+00
 7.192552064135785e-01	 7.929849986778905e-01	 6.182335336990710e+00
 8.016985449272134e-01	 7.271585885888553e-01	 9.089625835967794e+00
 7.945776447416458e-01	 7.349330429198483e-01	 8.815820807744768e+00
 7.873800131130686e-01	 7.426391875087610e-01	 8.542249607672602e+00
 7.801066286292050e-01	 7.502758990173506e-01	 8.272655419320914e+00
 7.727584920187821e-01	 7.578420732500025e-01	 8.008352831315174e+00
 7.653366256894505e-01	 7.653366256894505e-01	 7.749074036169527e+00
 7.578420732500022e-01	 7.727584920187819e-01	 7.494539120420002e+00
 7.502758990173505e-01	 7.801066286292052e-01	 7.244457421515451e+00
 7.426391875087609e-01	 7.873800131130689e-01	 6.998528931574215e+00
 7.349330429198481e-01	 7.945776447416462e-01	 6.756695422090533e+00
 7.271585885888552e-01	 8.016985449272132e-01	 6.519277487490554e+00
 8.104120640149274e-01	 7.350619461281734e-01	 9.344697443988689e+00
 8.032137680299576e-01	 7.429208996226409e-01	 9.075796132546044e+00
 7.959379066214699e-01	 7.507108009286245e-01	 8.810281011126044e+00
 7.885854690133003e-01	 7.584305144985001e-01	 8.549457521627627e+00
 7.811574668109358e-01	 7.660789241353319e-01	 8.293098328364161e+00
 7.736549335344107e-01	 7.736549335344107e-01	 8.040963805751840e+00
 7.660789241353317e-01	 7.811574668109360e-01	 7.792803355931133e+00
 7.584305144984997e-01	 7.885854690133002e-01	 7.548356781170902e+00
 7.507108009286241e-01	 7.959379066214700e-01	 7.307355704409193e+00
 7.429208996226405e-01	 8.032137680299580e-01	 7.069525030996026e+00
 7.350619461281735e-01	 8.104120640149275e-01	 6.834826012558727e+00
 8.191255732236941e-01	 7.429652947072309e-01	 9.577820206676385e+00
 8.118498815271108e-01	 7.509087472693660e-01	 9.317183572346050e+00
 8.044957904274387e-01	 7.587824051974561e-01	 9.060602065800799e+00
 7.970642997846160e-01	 7.665851207345094e-01	 8.807894881095780e+00
 7.895564320808763e-01	 7.743157656822791e-01	 8.558868848108556e+00
 7.819732319486272e-01	 7.819732319486272e-01	 8.313319693602246e+00
 7.743157656822792e-01	 7.895564320808763e-01	 8.071033365306246e+00
 7.665851207345095e-01	 7.970642997846159e-01	 7.831787412424123e+00
 7.587824051974560e-01	 8.044957904274391e-01	 7.595352415628925e+00
 7.509087472693656e-01	 8.118498815271112e-01	 7.361493459299488e+00
 7.429652947072306e-01	 8.191255732236938e-01	 7.129971638478824e+00
 8.278390898361738e-01	 7.508686500017251e-01	 9.793577232940001e+00
 8.204860023622503e-01	 7.588966017033322e-01	 9.542042160548876e+00
 8.130536815049506e-01	 7.668540163246993e-01	 9.293745597483330e+00
 8.055431377603253e-01	 7.747397338994574e-01	 9.048546501327092e+00
 7.979554044873656e-01	 7.825526142280376e-01	 8.806292716745343e+00
 7.902915374308616e-01	 7.902915374308616e-01	 8.566822233859408e+00
 7.825526142280379e-01	 7.979554044873657e-01	 8.329964511658034e+00
 7.747397338994572e-01	 8.055431377603252e-01	 8.095541859577208e+00
 7.668540163246993e-01	 8.130536815049509e-01	 7.863370870011389e+00
 7.588966017033316e-01	 8.204860023622508e-01	 7.633263894190567e+00
 7.508686500017251e-01	 8.278390898361738e-01	 7.405030553577227e+00
 6.718335181677186e-01	 7.407021829591638e-01	 3.649008912359138e+00
 6.645872823343156e-01	 7.472106187271413e-01	 3.391435446907911e+00
 6.572800519400028e-01	 7.536463792678837e-01	 3.143138532689020e+00
 6.499129270719648e-01	 7.600086121167050e-01	 2.903946024330313e+00
 6.424870233956014e-01	 7.662964868572387e-01	 2.673673209330807e+00
 6.350034715981191e-01	 7.725091954758020e-01	 2.452123815556683e+00
 6.274634168227144e-01	 7.786459526990355e-01	 2.239091036879021e+00
 6.198680180939397e-01	 7.847059963145349e-01	 2.034358572786744e+00
 6.122184477348455e-01	 7.906885874742023e-01	 1.837701676718305e+00
 6.045158907765119e-01	 7.965930109800829e-01	 1.648888207863935e+00
 5.967615443605807e-01	 8.024185755524647e-01	 1.467679681220186e+00
 6.797373773483985e-01	 7.494162551140171e-01	 4.138047124361630e+00
 6.724058923772588e-01	 7.560012600898367e-01	 3.885350360590525e+00
 6.650126952679886e-01	 7.625127348427392e-01	 3.640823679597536e+00
 6.575588990498993e-01	 7.689498168790919e-01	 3.404353297686318e+00
 6.500456325137897e-01	 7.753116660129731e-01	 3.175815227574198e+00
 6.424740396489892e-01	 7.815974647247017e-01	 2.955076241447122e+00
 6.348452790708895e-01	 7.878064185024524e-01	 2.741994851216982e+00
 6.271605234395434e-01	 7.939377561666573e-01	 2.536422300563594e+00
 6.194209588699563e-01	 7.999907301769283e-01	 2.338203563324230e+00
 6.116277843346662e-01	 8.059646169212544e-01	 2.147178342787219e+00
 6.037822110592491e-01	 8.118587169872559e-01	 1.963182066503263e+00
 6.876411178389331e-01	 7.581301964112962e-01	 4.598720547613655e+00
 6.802243850103421e-01	 7.647917694450097e-01	 4.350308234448057e+00
 6.727452224771931e-01	 7.713789572729435e-01	 4.109087980815159e+00
 6.652047562107225e-01	 7.778908873726789e-01	 3.874995590305450e+00
 6.576041281269223e-01	 7.843267097888916e-01	 3.647958827174922e+00
 6.499444955170398e-01	 7.906855974960552e-01	 3.427898351829299e+00
 6.422270304684485e-01	 7.969667467440252e-01	 3.214728671774575e+00
 6.344529192764919e-01	 8.031693773862135e-01	 3.008359102383652e+00
 6.266233618479119e-01	 8.092927331900795e-01	 2.808694731801200e+00
 6.187395710964888e-01	 8.153360821296912e-01	 2.615637384324289e+00
 6.108027723315135e-01	 8.212987166601320e-01	 2.429086576639405e+00
 6.955447553150208e-01	 7.668440241336620e-01	 5.032286465629882e+00
 6.880427757401724e-01	 7.735821642271914e-01	 4.787641577090344e+00
 6.804776489037071e-01	 7.802450641432049e-01	 4.549332519551995e+00
 6.728505137186106e-01	 7.868318413306356e-01	 4.317336182751679e+00
 6.651625252258906e-01	 7.933416360648924e-01	 4.091623385715119e+00
 6.574148540185304e-01	 7.997736118147343e-01	 3.872159800470964e+00
 6.496086856557043e-01	 8.061269555918261e-01	 3.658906889756945e+00
 6.417452200678599e-01	 8.124008782826847e-01	 3.451822852786768e+00
 6.338256709532920e-01	 8.185946149627379e-01	 3.250863573122687e+00
 6.258512651668326e-01	 8.247074251922495e-01	 3.055983562718970e+00
 6.178232421012976e-01	 8.307385932938800e-01	 2.867136896241057e+00
 7.034483054523594e-01	 7.755577555637762e-01	 5.439963559544601e+00
 6.958610800733576e-01	 7.823724618709136e-01	 5.198641160083850e+00
 6.882099898836226e-01	 7.891110730382315e-01	 4.962913840964976e+00
 6.804961867377409e-01	 7.957726964861315e-01	 4.732791335611099e+00
 6.727208388015846e-01	 8.023564627208721e-01	 4.508279082068365e+00
 6.648851299697206e-01	 8.088615257056103e-01	 4.289379150753807e+00
 6.569902592729685e-01	 8.152870632139280e-01	 4.076091184984992e+00
 6.490374402767242e-01	 8.216322771655530e-01	 3.868413348033155e+00
 6.410279004706767e-01	 8.278963939439857e-01	 3.666343270421698e+00
 6.329628806505502e-01	 8.340786646957851e-01	 3.469878991212375e+00
 6.248436342925234e-01	 8.401783656112856e-01	 3.279019887074158e+00
 7.113517839266460e-01	 7.842714079842985e-01	 5.822932319530449e+00
 7.036793135165043e-01	 7.911626798107066e-01	 5.584556640755010e+00
 6.959422607530311e-01	 7.979770015427301e-01	 5.351144771449386e+00
 6.881417904322901e-01	 8.047134705723366e-01	 5.122731290034870e+00
 6.802790838448944e-01	 8.113712076367290e-01	 4.899348063678983e+00
 6.723553381868691e-01	 8.179493571935539e-01	 4.681025195906140e+00
 6.643717659605528e-01	 8.244470877784026e-01	 4.467791986042517e+00
 6.563295943661613e-01	 8.308635923443002e-01	 4.259677893868721e+00
 6.482300646846464e-01	 8.371980885829050e-01	 4.056713502830511e+00
 6.400744316524946e-01	 8.434498192271541e-01	 3.858931475179277e+00
 6.318639628291151e-01	 8.496180523351355e-01	 3.666367492477862e+00
 7.192552064135785e-01	 7.929849986778905e-01	 6.182335336990713e+00
 7.114974915762206e-01	 7.999528354811026e-01	 5.946597054153091e+00
 7.036744768480238e-01	 8.068428672414090e-01	 5.715295095542216e+00
 6.957873399664345e-01	 8.136541813224207e-01	 5.488481115418407e+00
 6.878372753467102e-01	 8.203858886923603e-01	 5.266205451526702e+00
 6.798254934862359e-01	 8.270371243034370e-01	 5.048518108439033e+00
 6.717532203587695e-01	 8.336070474533218e-01	 4.835469752055240e+00
 6.636216967992463e-01	 8.400948421284082e-01	 4.627112708214956e+00
 6.554321778797806e-01	 8.464997173285782e-01	 4.423501958353125e+00
 6.471859322775180e-01	 8.528209073732124e-01	 4.224696125154294e+00
 6.388842416349948e-01	 8.590576721882167e-01	 4.030758441231762e+00
 7.271585885888552e-01	 8.016985449272132e-01	 6.519277487490551e+00
 7.193156297591136e-01	 8.087429463166325e-01	 6.285931184050251e+00
 7.114066535046921e-01	 8.157086877189753e-01	 6.056592101201360e+00
 7.034328505043512e-01	 8.225948464695541e-01	 5.831321415785304e+00
 6.953954282979220e-01	 8.294005237676636e-01	 5.610180195062550e+00
 6.872956106840796e-01	 8.361248450601310e-01	 5.393230431717974e+00
 6.791346371079302e-01	 8.427669604067588e-01	 5.180536089620409e+00
 6.709137620390558e-01	 8.493260448273590e-01	 4.972164152820390e+00
 6.626342543406598e-01	 8.558012986300868e-01	 4.768185670252603e+00
 6.542973966304735e-01	 8.621919477208162e-01	 4.568676788629921e+00
 6.459044846340860e-01	 8.684972438933153e-01	 4.373719766098338e+00
 7.350619461281735e-01	 8.104120640149275e-01	 6.834826012558727e+00
 7.271337435717909e-01	 8.175330297518271e-01	 6.603687821998468e+00
 7.191388060591283e-01	 8.245744805601380e-01	 6.376221003284425e+00
 7.110783372102166e-01	 8.315354837469057e-01	 6.152488905430107e+00
 7.029535576894207e-01	 8.384151307425367e-01	 5.932555788339887e+00
 6.947657045966604e-01	 8.452125374885071e-01	 5.716487925489428e+00
 6.865160308483470e-01	 8.519268448067852e-01	 5.504354717230078e+00
 6.782058045486654e-01	 8.585572187506337e-01	 5.296229806685028e+00
 6.698363083518640e-01	 8.651028509365135e-01	 5.092192190184656e+00
 6.614088388162139e-01	 8.715629588568209e-01	 4.892327314215707e+00
 6.529247057503110e-01	 8.779367861732175e-01	 4.696728150939835e+00
 7.429652947072306e-01	 8.191255732236938e-01	 7.129971638478821e+00
 7.349518485208598e-01	 8.263231032212184e-01	 6.900955922682418e+00
 7.268709498474230e-01	 8.334402633496035e-01	 6.675325254208156e+00
 7.187238152482081e-01	 8.404761108876466e-01	 6.453176863471856e+00
 7.105116785120958e-01	 8.474297274968769e-01	 6.234570857590259e+00
 7.022357900402370e-01	 8.543002196134368e-01	 6.019570276155966e+00
 6.938974162203315e-01	 8.610867188214731e-01	 5.808242288474390e+00
 6.854978387911514e-01	 8.677883822077145e-01	 5.600659392974025e+00
 6.770383541979733e-01	 8.744043926969407e-01	 5.396900610169182e+00
 6.685202729395916e-01	 8.809339593680829e-01	 5.197052660582671e+00
 6.599449189075938e-01	 8.873763177507101e-01	 5.001211119121947e+00
 7.508686500017251e-01	 8.278390898361738e-01	 7.405030553577226e+00
 7.427699601129280e-01	 8.351131841593374e-01	 7.178751905280691e+00
 7.346031002056681e-01	 8.423060536720803e-01	 6.955006749998230e+00
 7.263692997825020e-01	 8.494167456249461e-01	 6.734535476143315e+00
 7.180698057568378e-01	 8.564443319105818e-01	 6.517419629628643e+00
 7.097058818310689e-01	 8.633879094597907e-01	 6.303711681681523e+00
 7.012788078641958e-01	 8.702466006188950e-01	 6.093469084343940e+00
 6.927898792295897e-01	 8.770195535080832e-01	 5.886755570136202e+00
 6.842404061635671e-01	 8.837059423604499e-01	 5.683642444464230e+00
 6.756317131054596e-01	 8.903049678414582e-01	 5.484209861559666e+00
 6.669651380298567e-01	 8.968158573485795e-01	 5.288548074833097e+00
 5.967615443605807e-01	 8.024185755524647e-01	 1.467679681220189e+00
 5.889579473229991e-01	 8.081636447008754e-01	 1.294583662637034e+00
 5.811050012015555e-01	 8.138285757179110e-01	 1.130087130080535e+00
 5.732039308284177e-01	 8.194127540634818e-01	 9.740036829019145e-01
 5.652559707219063e-01	 8.249155899695259e-01	 8.261430653768247e-01
 5.572623644660748e-01	 8.303365186157972e-01	 6.863120128559712e-01
 5.492243640870379e-01	 8.356750002871786e-01	 5.543150703435811e-01
 5.411432294266819e-01	 8.409305205124760e-01	 4.299553795305127e-01
 5.330202275143926e-01	 8.461025901846800e-01	 3.130354305648022e-01
 5.248566319374309e-01	 8.511907456626929e-01	 2.033577750980273e-01
 5.166537222105835e-01	 8.561945488545585e-01	 1.007256974269513e-01
 6.037822110592491e-01	 8.118587169872559e-01	 1.963182066503264e+00
 5.958868077480854e-01	 8.176713746317720e-01	 1.786769319369329e+00
 5.879414747805721e-01	 8.234029513508451e-01	 1.618426769536268e+00
 5.799474513985157e-01	 8.290528253746151e-01	 1.457974859917263e+00
 5.719059866438293e-01	 8.346203999966803e-01	 1.305231343929866e+00
 5.638183387308151e-01	 8.401051037519578e-01	 1.160012166059955e+00
 5.556857744151529e-01	 8.455063905758440e-01	 1.022132311370807e+00
 5.475095683602440e-01	 8.508237399446459e-01	 8.914066197251632e-01
 5.392910025015479e-01	 8.560566569972515e-01	 7.676505607516839e-01
 5.310313654095502e-01	 8.612046726380586e-01	 6.506809658815030e-01
 5.227319516519963e-01	 8.662673436211813e-01	 5.403167140680929e-01
 6.108027723315135e-01	 8.212987166601320e-01	 2.429086576639403e+00
 6.028155641253462e-01	 8.271789617858474e-01	 2.249620080872989e+00
 5.947778456990113e-01	 8.329771832062568e-01	 2.077708482283249e+00
 5.866908707037434e-01	 8.386927519218278e-01	 1.913181117425218e+00
 5.785559027048367e-01	 8.443250642879171e-01	 1.755865774973532e+00
 5.703742145466264e-01	 8.498735421946954e-01	 1.605589611508244e+00
 5.621470877141416e-01	 8.553376332281599e-01	 1.462180032697141e+00
 5.538758116920823e-01	 8.607168108121991e-01	 1.325465535367470e+00
 5.455616833217627e-01	 8.660105743316783e-01	 1.195276506239460e+00
 5.372060061566719e-01	 8.712184492365627e-01	 1.071445973407883e+00
 5.288100898172954e-01	 8.763399871271069e-01	 9.538103069780838e-01
 6.178232421012976e-01	 8.307385932938800e-01	 2.867136896241059e+00
 6.097442301966318e-01	 8.366864250199358e-01	 2.684902229162148e+00
 6.016141275155062e-01	 8.425512902731545e-01	 2.509719555018452e+00
 5.934342021184001e-01	 8.483325528244182e-01	 2.341429042184373e+00
 5.852057320938036e-01	 8.540296020909223e-01	 2.179870430908367e+00
 5.769300049158992e-01	 8.596418533181697e-01	 2.024883985412633e+00
 5.686083167988785e-01	 8.651687477428344e-01	 1.876311407773342e+00
 5.602419720485505e-01	 8.706097527364566e-01	 1.733996708773052e+00
 5.518322824118944e-01	 8.759643619299442e-01	 1.597787031228693e+00
 5.433805664252140e-01	 8.812320953188959e-01	 1.467533421626961e+00
 5.348881487615410e-01	 8.864124993497627e-01	 1.343091546248525e+00
 6.248436342925234e-01	 8.401783656112856e-01	 3.279019887074158e+00
 6.166728197037933e-01	 8.461937831908724e-01	 3.094324648157274e+00
 6.084503337886905e-01	 8.521252915405495e-01	 2.916189370926206e+00
 6.001774590167853e-01	 8.579722472016844e-01	 2.744466882883312e+00
 5.918554879996061e-01	 8.637340326533816e-01	 2.579010683352991e+00
 5.834857228410248e-01	 8.694100564965407e-01	 2.419675933286640e+00
 5.750694744842373e-01	 8.749997536185751e-01	 2.266320403145631e+00
 5.666080620560018e-01	 8.805025853387365e-01	 2.118805373746126e+00
 5.581028122088015e-01	 8.859180395340327e-01	 1.976996485274174e+00
 5.495550584615931e-01	 8.912456307457460e-01	 1.840764530037195e+00
 5.409661405397921e-01	 8.964849002665759e-01	 1.709986184891926e+00
 6.318639628291151e-01	 8.496180523351355e-01	 3.666367492477862e+00
 6.236013463886815e-01	 8.557010551554930e-01	 3.479540817221961e+00
 6.152864780771984e-01	 8.616992059974519e-01	 3.298791489369975e+00
 6.069206547731975e-01	 8.676118541729243e-01	 3.123986712772379e+00
 5.985051836111185e-01	 8.734383752229793e-01	 2.954995445260958e+00
 5.900413813243939e-01	 8.791781711039675e-01	 2.791689427845233e+00
 5.815305735850923e-01	 8.848306703540912e-01	 2.633944168201157e+00
 5.729740943407898e-01	 8.903953282403608e-01	 2.481639872998887e+00
 5.643732851493427e-01	 8.958716268859289e-01	 2.334662323972774e+00
 5.557294945122264e-01	 9.012590753778039e-01	 2.192903693012616e+00
 5.470440772071088e-01	 9.065572098549729e-01	 2.056263291960154e+00
 6.388842416349948e-01	 8.590576721882167e-01	 4.030758441231765e+00
 6.305298239931469e-01	 8.652082597706318e-01	 3.842150600151927e+00
 6.221225739396624e-01	 8.712730526328708e-01	 3.659145517263003e+00
 6.136638027619359e-01	 8.772513928574360e-01	 3.481626380445057e+00
 6.051548321172170e-01	 8.831426490474018e-01	 3.309479197902912e+00
 5.965969933683978e-01	 8.889462165146110e-01	 3.142593868753194e+00
 5.879916269163168e-01	 8.946615174480909e-01	 2.980865204016338e+00
 5.793400815292679e-01	 9.002880010626489e-01	 2.824193892213144e+00
 5.706437136703754e-01	 9.058251437276157e-01	 2.672487404134649e+00
 5.619038868235311e-01	 9.112724490757579e-01	 2.525660831765524e+00
 5.531219708185502e-01	 9.166294480923810e-01	 2.383637656768958e+00
 6.459044846340860e-01	 8.684972438933153e-01	 4.373719766098337e+00
 6.374582662590408e-01	 8.747154158931236e-01	 4.183701845145785e+00
 6.289586349347168e-01	 8.808468504358175e-01	 3.998818787941735e+00
 6.204069163572997e-01	 8.868908823745182e-01	 3.818971264859051e+00
 6.118044467067768e-01	 8.928468733743350e-01	 3.644063819063132e+00
 6.031525719754262e-01	 8.987142121026293e-01	 3.474005980800095e+00
 5.944526472927857e-01	 9.044923143992825e-01	 3.308713328102999e+00
 5.857060362477896e-01	 9.101806234269210e-01	 3.148108487735694e+00
 5.769141102087584e-01	 9.157786098010774e-01	 2.992122070597375e+00
 5.680782476419247e-01	 9.212857717002984e-01	 2.840693536244320e+00
 5.591998334291759e-01	 9.267016349562268e-01	 2.693771981646729e+00
 6.529247057503110e-01	 8.779367861732175e-01	 4.696728150939836e+00
 6.443866869282142e-01	 8.842225423798045e-01	 4.505691809944962e+00
 6.357946746209954e-01	 8.904206183953023e-01	 4.319327861992909e+00
 6.271500089335880e-01	 8.965303418434682e-01	 4.137555849303155e+00
 6.184540405686731e-01	 9.025510674514636e-01	 3.960300227382624e+00
 6.097081301478711e-01	 9.084821772421832e-01	 3.787491525653501e+00
 6.009136475293724e-01	 9.143230807063745e-01	 3.619067450395185e+00
 5.920719711227088e-01	 9.200732149544970e-01	 3.454973923422105e+00
 5.831844872013496e-01	 9.257320448482980e-01	 3.295166050350840e+00
 5.742525892138240e-01	 9.312990631121143e-01	 3.139609012770277e+00
 5.652776770940452e-01	 9.367737904239370e-01	 2.988278879120471e+00
 6.599449189075938e-01	 8.873763177507101e-01	 5.001211119121947e+00
 6.513150997425170e-01	 8.937296580875085e-01	 4.809568425108964e+00
 6.426307065571312e-01	 8.999943755003349e-01	 4.622139863245483e+00
 6.338930938650995e-01	 9.061697903835851e-01	 4.438865127744891e+00
 6.251036268917814e-01	 9.122552505264739e-01	 4.259689856503314e+00
 6.162636808881228e-01	 9.182501313074315e-01	 4.084566841036554e+00
 6.073746404409511e-01	 9.241538358680752e-01	 3.913457174503080e+00
 5.984378987803782e-01	 9.299657952666975e-01	 3.746331330815634e+00
 5.894548570850076e-01	 9.356854686112615e-01	 3.583170168301831e+00
 5.804269237856464e-01	 9.413123431718957e-01	 3.423965851860418e+00
 5.713555138682181e-01	 9.468459344729393e-01	 3.268722688091309e+00
 6.669651380298567e-01	 8.968158573485795e-01	 5.288548074833096e+00
 6.582435184438014e-01	 9.032367818730712e-01	 5.096731407292925e+00
 6.494667443017579e-01	 9.095681407399251e-01	 4.908673662017507e+00
 6.406361845261334e-01	 9.158092471141662e-01	 4.724335855862183e+00
 6.317532188649773e-01	 9.219594418470508e-01	 4.543685971505440e+00
 6.228192371985722e-01	 9.280180936725346e-01	 4.366700220002941e+00
 6.138356388423956e-01	 9.339845993830923e-01	 4.193364237069410e+00
 6.048038318471520e-01	 9.398583839848424e-01	 4.023674205645515e+00
 5.957252322965900e-01	 9.456389008319513e-01	 3.857637897790718e+00
 5.866012636038090e-01	 9.513256317403314e-01	 3.695275629463396e+00
 5.774333558067541e-01	 9.569180870806601e-01	 3.536621122313182e+00
 5.166537222105835e-01	 8.561945488545585e-01	 1.007256974269513e-01
 5.084127833066525e-01	 8.611135874899662e-01	 5.103409150114591e-03
 5.001351054989744e-01	 8.659474757928982e-01	-8.351796686582282e-02
 4.918219832314512e-01	 8.706958538913729e-01	-1.652909677979799e-01
 4.834747143274812e-01	 8.753583876192402e-01	-2.403639728406682e-01
 4.750945993647698e-01	 8.799347685068711e-01	-3.088808537028280e-01
 4.666829410531063e-01	 8.844247137540189e-01	-3.709806802661603e-01
 4.582410436156905e-01	 8.888279661850482e-01	-4.267974821421487e-01
 4.497702121745728e-01	 8.931442941867402e-01	-4.764600665193084e-01
 4.412717521407651e-01	 8.973734916289072e-01	-5.200918923363129e-01
 4.327469686095653e-01	 9.015153777680721e-01	-5.578110004941804e-01
 5.227319516519963e-01	 8.662673436211813e-01	 5.403167140680929e-01
 5.143940613188656e-01	 8.712442528261447e-01	 4.365474325721397e-01
 5.060189998630528e-01	 8.761350099383981e-01	 3.393716004446705e-01
 4.976080769570899e-01	 8.809392508521632e-01	 2.486261127915964e-01
 4.891626056927626e-01	 8.856566374699101e-01	 1.641519738958248e-01
 4.806839019485672e-01	 8.902868576929414e-01	 8.579469228380288e-02
 4.721732837601678e-01	 8.948296253939324e-01	 1.340461682594962e-02
 4.636320706944435e-01	 8.992846803716337e-01	-5.316278698375709e-02
 4.550615832276977e-01	 9.036517882879423e-01	-1.140467210631556e-01
 4.464631421285961e-01	 9.079307405875888e-01	-1.693808992060815e-01
 4.378380678463747e-01	 9.121213544006750e-01	-2.192934517280524e-01
 5.288100898172954e-01	 8.763399871271069e-01	 9.538103069780838e-01
 5.203752495105670e-01	 8.813747660327383e-01	 8.423644045834362e-01
 5.119028058687146e-01	 8.863223911004451e-01	 7.370974390294147e-01
 5.033940837926733e-01	 8.911824939907200e-01	 6.378430420180293e-01
 4.948504116423904e-01	 8.959547326747203e-01	 5.444391626735035e-01
 4.862731205969266e-01	 9.006387914247405e-01	 4.567284979634026e-01
 4.776635440175921e-01	 9.052343807864319e-01	 3.745588599155608e-01
 4.690230168147174e-01	 9.097412375329830e-01	 2.977834786579134e-01
 4.603528748186314e-01	 9.141591246014561e-01	 2.262612407066660e-01
 4.516544541554248e-01	 9.184878310115376e-01	 1.598568623353176e-01
 4.429290906280449e-01	 9.227271717669492e-01	 9.844099824304320e-02
 5.348881487615410e-01	 8.864124993497627e-01	 1.343091546248525e+00
 5.263563597445713e-01	 8.915051472019345e-01	 1.224446483850974e+00
 5.177865351856714e-01	 8.965096394839994e-01	 1.111566374194296e+00
 5.091800152139832e-01	 9.014256036227823e-01	 1.004288618943821e+00
 5.005381434574184e-01	 9.062526936581858e-01	 9.024554004399877e-01
 4.918622663954042e-01	 9.109905902335470e-01	 8.059141376377649e-01
 4.831537327147002e-01	 9.156390005675454e-01	 7.145178741461409e-01
 4.744138926688897e-01	 9.201976584078497e-01	 6.281255972971298e-01
 4.656440974421299e-01	 9.246663239667287e-01	 5.466024876052447e-01
 4.568456985177378e-01	 9.290447838388636e-01	 4.698200984063354e-01
 4.480200470521739e-01	 9.333328509016273e-01	 3.976564658895259e-01
 5.409661405397921e-01	 8.964849002665759e-01	 1.709986184891926e+00
 5.323374038836933e-01	 9.016354164259196e-01	 1.584626446175510e+00
 5.236701994836358e-01	 9.066967752940208e-01	 1.464625404673083e+00
 5.149658826968011e-01	 9.116686000640902e-01	 1.349831003878958e+00
 5.062258124188993e-01	 9.165505408448215e-01	 1.240096684487883e+00
 4.974513504295562e-01	 9.213422746506419e-01	 1.135281856377745e+00
 4.886438607408129e-01	 9.260435053733000e-01	 1.035252297530383e+00
 4.798047089493384e-01	 9.306539637349855e-01	 9.398804787367929e-01
 4.709352615929492e-01	 9.351734072232075e-01	 8.490458133964220e-01
 4.620368855120213e-01	 9.396016200076739e-01	 7.626348321746106e-01
 4.531109472163599e-01	 9.439384128394399e-01	 6.805412827469099e-01
 5.470440772071088e-01	 9.065572098549729e-01	 2.056263291960154e+00
 5.383183937907475e-01	 9.117655937968810e-01	 1.924680379191717e+00
 5.295538104323191e-01	 9.168838187354713e-01	 1.798064479027679e+00
 5.207516977169089e-01	 9.219115036303823e-01	 1.676280595915621e+00
 5.119134298078861e-01	 9.268482946591414e-01	 1.559200199862196e+00
 5.030403837849386e-01	 9.316938652073044e-01	 1.446701705340899e+00
 4.941339389852518e-01	 9.364479158397240e-01	 1.338670871500035e+00
 4.851954763484411e-01	 9.411101742531419e-01	 1.235001122444671e+00
 4.762263777658455e-01	 9.456803952103395e-01	 1.135593786861125e+00
 4.672280254347614e-01	 9.501583604560784e-01	 1.040358256750712e+00
 4.582018012182008e-01	 9.545438786151184e-01	 9.492120655181502e-01
 5.531219708185502e-01	 9.166294480923810e-01	 2.383637656768958e+00
 5.442993413285487e-01	 9.218956994070057e-01	 2.246330146121892e+00
 5.354373797014343e-01	 9.270707900133109e-01	 2.113619037712249e+00
 5.265374717500875e-01	 9.321543346373982e-01	 1.985392671442049e+00
 5.176010069054314e-01	 9.371459755256614e-01	 1.861547071808619e+00
 5.086293775471077e-01	 9.420453824348146e-01	 1.741986424977196e+00
 4.996239783373372e-01	 9.468522526028444e-01	 1.626623471022607e+00
 4.905862055585757e-01	 9.515663107010720e-01	 1.515379810055330e+00
 4.815174564555748e-01	 9.561873087675720e-01	 1.408186121477741e+00
 4.724191285824446e-01	 9.607150261221851e-01	 1.304982296141944e+00
 4.632926191552947e-01	 9.651492692633935e-01	 1.205717481704816e+00
 5.591998334291759e-01	 9.267016349562268e-01	 2.693771981646729e+00
 5.502802583599117e-01	 9.320257533484806e-01	 2.551245636164905e+00
 5.413209189606926e-01	 9.372577093325001e-01	 2.412972338646100e+00
 5.323232162721192e-01	 9.423971134008768e-01	 2.278869801838454e+00
 5.232885549925888e-01	 9.474436038688953e-01	 2.148864891920870e+00
 5.142183428016198e-01	 9.523968468644528e-01	 2.022894095331833e+00
 5.051139896863911e-01	 9.572565362986892e-01	 1.900903894132908e+00
 4.959769072721197e-01	 9.620223938175261e-01	 1.782851048572923e+00
 4.868085081568935e-01	 9.666941687343529e-01	 1.668702786087588e+00
 4.776102052515563e-01	 9.712716379441014e-01	 1.558436896529851e+00
 4.683834111252397e-01	 9.757546058189975e-01	 1.452041733987401e+00
 5.652776770940452e-01	 9.367737904239370e-01	 2.988278879120471e+00
 5.562611567476509e-01	 9.421557757134931e-01	 2.841046817577611e+00
 5.472044398798067e-01	 9.474445968979999e-01	 2.697757582592589e+00
 5.381089427587852e-01	 9.526398602365576e-01	 2.558364066985602e+00
 5.289760853504109e-01	 9.577412001133581e-01	 2.422830035032390e+00
 5.198072906340309e-01	 9.627482790274980e-01	 2.291130570991484e+00
 5.106039839217340e-01	 9.676607875632857e-01	 2.163252429014463e+00
 5.013675921814512e-01	 9.724784443412574e-01	 2.039194283064577e+00
 4.920995433645574e-01	 9.772009959501289e-01	 1.918966876078858e+00
 4.828012657385835e-01	 9.818282168599377e-01	 1.802593068207830e+00
 4.734741872256337e-01	 9.863599093166607e-01	 1.690107784568045e+00
 5.713555138682181e-01	 9.468459344729393e-01	 3.268722688091309e+00
 5.622420483545807e-01	 9.522857865942297e-01	 3.117305608135554e+00
 5.530879541284884e-01	 9.576314729147707e-01	 2.969559853247069e+00
 5.438946626858671e-01	 9.628825954601796e-01	 2.825479079788846e+00
 5.346636092599506e-01	 9.680387846835651e-01	 2.685069782441234e+00
 5.253962321298969e-01	 9.730996994552301e-01	 2.548351716722729e+00
 5.160939719326872e-01	 9.780650270326621e-01	 2.415358215206811e+00
 5.067582709789477e-01	 9.829344830110178e-01	 2.286136396030563e+00
 4.973905725733228e-01	 9.877078112543473e-01	 2.160747262942112e+00
 4.879923203400123e-01	 9.923847838078013e-01	 2.039265696775190e+00
 4.785649575540746e-01	 9.969652007911151e-01	 1.921780338874847e+00
 5.774333558067541e-01	 9.569180870806601e-01	 3.536621122313182e+00
 5.682229450435162e-01	 9.624158060828777e-01	 3.381547576410065e+00
 5.589714733764499e-01	 9.678183575877735e-01	 3.229917885677068e+00
 5.496803875291465e-01	 9.731253393874821e-01	 3.081771835637340e+00
 5.403511380022612e-01	 9.783363780040304e-01	 2.937164265734293e+00
 5.309851783747745e-01	 9.834511286789296e-01	 2.796165458488797e+00
 5.215839646085719e-01	 9.884692753428456e-01	 2.658861414116362e+00
 5.121489543569868e-01	 9.933905305655588e-01	 2.525354009180306e+00
 5.026816062779456e-01	 9.982146354864553e-01	 2.395761038548886e+00
 4.931833793523284e-01	 1.002941359725801e+00	 2.270216140611564e+00
 4.836557322081607e-01	 1.007570501277091e+00	 2.148868606386497e+00
 4.327469686095653e-01	 9.015153777680721e-01	-5.578110004941791e-01
 4.241957100808111e-01	 9.055704788776667e-01	-5.897942811189556e-01
 4.156207266274777e-01	 9.095379524497916e-01	-6.163264039495391e-01
 4.070233190699297e-01	 9.134176924764242e-01	-6.377001826711253e-01
 3.984047855712466e-01	 9.172096178030530e-01	-6.542075364948006e-01
 3.897664210659204e-01	 9.209136719525728e-01	-6.661393595019254e-01
 3.811095166967166e-01	 9.245298229341032e-01	-6.737854366484910e-01
 3.724353592601342e-01	 9.280580630371011e-01	-6.774344045653558e-01
 3.637452306608896e-01	 9.314984086111489e-01	-6.773037094190553e-01
 3.550404073758262e-01	 9.348508998318095e-01	-6.735161487132191e-01
 3.463221599276364e-01	 9.381156004529614e-01	-6.663528957743738e-01
 4.378380678463747e-01	 9.121213544006750e-01	-2.192934517280515e-01
 4.291862070985272e-01	 9.162241621920049e-01	-2.640399716477830e-01
 4.205103423115322e-01	 9.202383115419241e-01	-3.039206138210329e-01
 4.118117896093613e-01	 9.241636951952988e-01	-3.391483286977224e-01
 4.030918624274383e-01	 9.280002310429005e-01	-3.699334967641925e-01
 3.943518709346170e-01	 9.317478619432240e-01	-3.964839312924653e-01
 3.855931214634178e-01	 9.354065555290633e-01	-4.190049315714486e-01
 3.768169159489614e-01	 9.389763039991950e-01	-4.376993844221706e-01
 3.680245513770369e-01	 9.424571238955793e-01	-4.527588522331563e-01
 3.592173192417041e-01	 9.458490558664622e-01	-4.642095879986743e-01
 3.503965050128239e-01	 9.491521644157923e-01	-4.721886130584880e-01
 4.429290906280449e-01	 9.227271717669492e-01	 9.844099824304609e-02
 4.341766291716699e-01	 9.268776855237780e-01	 4.171747153289829e-02
 4.253998845658023e-01	 9.309385099507558e-01	-1.060679955908728e-02
 4.166001882377961e-01	 9.349095365456548e-01	-5.867900179194674e-02
 4.077788688951961e-01	 9.387906822445347e-01	-1.026422405925684e-01
 3.989372519409960e-01	 9.425818892414985e-01	-1.426356554997079e-01
 3.900766588972464e-01	 9.462831247930091e-01	-1.787945902469248e-01
 3.811984068374697e-01	 9.498943810071622e-01	-2.112508149753045e-01
 3.723038078283069e-01	 9.534156746182875e-01	-2.401327977820784e-01
 3.633941683808136e-01	 9.568470467472991e-01	-2.654866729477030e-01
 3.544707889118004e-01	 9.601885626482006e-01	-2.872713345756233e-01
 4.480200470521739e-01	 9.333328509016273e-01	 3.976564658895259e-01
 4.391669861983272e-01	 9.375310700023123e-01	 3.298042775699641e-01
 4.302893630883070e-01	 9.416385688981660e-01	 2.659919303846823e-01
 4.213885244526560e-01	 9.456552378398733e-01	 2.061244417691588e-01
 4.124658142708468e-01	 9.495809928087913e-01	 1.501122653447102e-01
 4.035225731798188e-01	 9.534157753346321e-01	 9.787108302748737e-02
 3.945601378909622e-01	 9.571595522975306e-01	 4.932153799105699e-02
 3.855798406160076e-01	 9.608123157148937e-01	 4.388911285451158e-03
 3.765830085022568e-01	 9.643740825134138e-01	-3.699725479100424e-02
 3.675709630775719e-01	 9.678448942866635e-01	-7.489037311151359e-02
 3.585450197055227e-01	 9.712248170386840e-01	-1.091680754824806e-01
 4.531109472163599e-01	 9.439384128394399e-01	 6.805412827469104e-01
 4.441572880765866e-01	 9.481843367569364e-01	 6.024678835601660e-01
 4.351787875770655e-01	 9.523385096060333e-01	 5.281711293966800e-01
 4.261768077513629e-01	 9.564008203903354e-01	 4.575951981724868e-01
 4.171527078507167e-01	 9.603711841365045e-01	 3.906909098777409e-01
 4.081078437458485e-01	 9.642495417098619e-01	 3.274154460439194e-01
 3.990435673373249e-01	 9.680358596142156e-01	 2.677320051965755e-01
 3.899612259749238e-01	 9.717301297762790e-01	 2.116093973609243e-01
 3.808621618864451e-01	 9.753323693151003e-01	 1.590215810086022e-01
 3.717477116163962e-01	 9.788426202968978e-01	 1.099471461340231e-01
 3.626192054749470e-01	 9.822609494757407e-01	 6.446763246633402e-02
 4.582018012182008e-01	 9.545438786151184e-01	 9.492120655181508e-01
 4.491475447045359e-01	 9.588375069169783e-01	 8.618812145356587e-01
 4.400681677300960e-01	 9.630383532962352e-01	 7.781494748065720e-01
 4.309650476313387e-01	 9.671463055094224e-01	 6.979876338129627e-01
 4.218395589311320e-01	 9.711612776285080e-01	 6.213741855410291e-01
 4.126930727338473e-01	 9.750832098544265e-01	 5.482949966895188e-01
 4.035269561290950e-01	 9.789120683146536e-01	 4.787429036181934e-01
 3.943425716045665e-01	 9.826478448452082e-01	 4.127172433485589e-01
 3.851412764684295e-01	 9.862905567574868e-01	 3.502233222736830e-01
 3.759244222817043e-01	 9.898402465903451e-01	 2.912718265550365e-01
 3.666933543010294e-01	 9.932969818478675e-01	 2.359012260400895e-01
 4.632926191552947e-01	 9.651492692633935e-01	 1.205717481704816e+00
 4.541377659802630e-01	 9.694906016117657e-01	 1.110146646895251e+00
 4.449575132454179e-01	 9.737381211906502e-01	 1.018072903152412e+00
 4.357532535900051e-01	 9.778917145095155e-01	 9.294815676232122e-01
 4.265263768084192e-01	 9.819512946856370e-01	 8.443665944066241e-01
 4.172782692385780e-01	 9.859168012555621e-01	 7.627302064833255e-01
 4.080103131590322e-01	 9.897881999704340e-01	 6.845824527468543e-01
 3.987238861952847e-01	 9.935654825755719e-01	 6.099406936737579e-01
 3.894203607357677e-01	 9.972486665747142e-01	 5.388290195391243e-01
 3.801011033579131e-01	 1.000837794979348e+00	 4.712776054272170e-01
 3.707674742647268e-01	 1.004332936043562e+00	 4.073220076032764e-01
 4.683834111252397e-01	 9.757546058189975e-01	 1.452041733987399e+00
 4.591279618018550e-01	 9.801436419706255e-01	 1.349299679426884e+00
 4.498468338210503e-01	 9.844378345111573e-01	 1.250018443537131e+00
 4.405414351247841e-01	 9.886370687029958e-01	 1.154186243573851e+00
 4.312131707789048e-01	 9.927412567087261e-01	 1.061800737668287e+00
 4.218634423548029e-01	 9.967503374005066e-01	 9.728686410698046e-01
 4.124936473198965e-01	 1.000664276153146e+00	 8.874052614480086e-01
 4.031051784374267e-01	 1.004483064621260e+00	 8.054339569905555e-01
 3.936994231760176e-01	 1.008206720500924e+00	 7.269855214358341e-01
 3.842777631294401e-01	 1.011835287276251e+00	 6.520975005476730e-01
 3.748415734469953e-01	 1.015368833951324e+00	 5.808134448815174e-01
 4.734741872256337e-01	 9.863599093166607e-01	 1.690107784568045e+00
 4.641181420673999e-01	 9.907966491228859e-01	 1.581312333976415e+00
 4.547361391550118e-01	 9.951375144796348e-01	 1.475997771853597e+00
 4.453296017330973e-01	 9.993823894022450e-01	 1.374144016727067e+00
 4.358999501389152e-01	 1.003531185098610e+00	 1.275741112845773e+00
 4.264486011772848e-01	 1.007583839776497e+00	 1.180788848961304e+00
 4.169769675044480e-01	 1.011540318434378e+00	 1.089296289702760e+00
 4.074864570213412e-01	 1.015400612636161e+00	 1.001281223461345e+00
 3.979784722767370e-01	 1.019164740270257e+00	 9.167695311362754e-01
 3.884544098807027e-01	 1.022832745293394e+00	 8.357944804960034e-01
 3.789156599287913e-01	 1.026404697459648e+00	 7.583959512703200e-01
 4.785649575540746e-01	 9.969652007911151e-01	 1.921780338874846e+00
 4.691083166749853e-01	 1.001449644197874e+00	 1.808096305938741e+00
 4.596254389453213e-01	 1.005837182317961e+00	 1.697960506711482e+00
 4.501177629123669e-01	 1.010127697919643e+00	 1.591333774221045e+00
 4.405867241847766e-01	 1.014321101256122e+00	 1.488187640433816e+00
 4.310337548007858e-01	 1.018417329870770e+00	 1.388503975450861e+00
 4.214602826054465e-01	 1.022416348385720e+00	 1.292274532386063e+00
 4.118677306373766e-01	 1.026318148274168e+00	 1.199500402011414e+00
 4.022575165254840e-01	 1.030122747616854e+00	 1.110191381715002e+00
 3.926310518961182e-01	 1.033830190843122e+00	 1.024365263752960e+00
 3.829897417910713e-01	 1.037440548457034e+00	 9.420470481723435e-01
 4.836557322081607e-01	 1.007570501277091e+00	 2.148868606386494e+00
 4.740984955226988e-01	 1.012102648324919e+00	 2.031505883035507e+00
 4.645147428899979e-01	 1.016536859248014e+00	 1.917797266133092e+00
 4.549059281600144e-01	 1.020873015567573e+00	 1.807674110757268e+00
 4.452735022128158e-01	 1.025111026582097e+00	 1.701078939976295e+00
 4.356189123200688e-01	 1.029250829170564e+00	 1.597965121993924e+00
 4.259436015156523e-01	 1.033292387578760e+00	 1.498296445614358e+00
 4.162490079758816e-01	 1.037235693189170e+00	 1.402046598247952e+00
 4.065365644098163e-01	 1.041080764274857e+00	 1.309198551192343e+00
 3.968076974601040e-01	 1.044827645737777e+00	 1.219743857380632e+00
 3.870638271147915e-01	 1.048476408831977e+00	 1.133681867222554e+00
 3.463221599276364e-01	 9.381156004529614e-01	-6.663528957743734e-01
 3.375932372698592e-01	 9.412920648570996e-01	-6.563889375600842e-01
 3.288534146753911e-01	 9.443809649697815e-01	-6.441373651173818e-01
 3.201039407344279e-01	 9.473824329586862e-01	-6.298090749181808e-01
 3.113460561054977e-01	 9.502966234386565e-01	-6.136238947191774e-01
 3.025809930437933e-01	 9.531237131637239e-01	-5.958105514694774e-01
 2.938099749412085e-01	 9.558639007082442e-01	-5.766065958820334e-01
 2.850342158783328e-01	 9.585174061376137e-01	-5.562582844701272e-01
 2.762549201886382e-01	 9.610844706690251e-01	-5.350204200441979e-01
 2.674732820350750e-01	 9.635653563227456e-01	-5.131561518358696e-01
 2.586904849992691e-01	 9.659603455643853e-01	-4.909367365836212e-01
 3.503965050128239e-01	 9.491521644157923e-01	-4.721886130584880e-01
 3.415648899842920e-01	 9.523659986835720e-01	-4.772173245336044e-01
 3.327222467852727e-01	 9.554912385002919e-01	-4.797835237928663e-01
 3.238698386952577e-01	 9.585280175885160e-01	-4.800484125693010e-01
 3.150089209687567e-01	 9.614764923820540e-01	-4.781821477841821e-01
 3.061407403580820e-01	 9.643368417143620e-01	-4.743638885212258e-01
 2.972665346479718e-01	 9.671092664959304e-01	-4.687817960123040e-01
 2.883875322023154e-01	 9.697939893811226e-01	-4.616329873907983e-01
 2.795049515232124e-01	 9.723912544249423e-01	-4.531234441922969e-01
 2.706200008225871e-01	 9.749013267302059e-01	-4.434678767560634e-01
 2.617338776065535e-01	 9.773244920856053e-01	-4.328895458675319e-01
 3.544707889118004e-01	 9.601885626482006e-01	-2.872713345756228e-01
 3.455364830550350e-01	 9.634397662185762e-01	-3.059591524866732e-01
 3.365910207959680e-01	 9.666013451937326e-01	-3.220184252378497e-01
 3.276356801031411e-01	 9.696734348510970e-01	-3.355696094697662e-01
 3.186717308268021e-01	 9.726561934434222e-01	-3.467422754355209e-01
 3.097004342161392e-01	 9.755498018835633e-01	-3.556752203355504e-01
 3.007230424484948e-01	 9.783544634181114e-01	-3.625165309269298e-01
 2.917407981708185e-01	 9.810704032903602e-01	-3.674235961625913e-01
 2.827549340536012e-01	 9.836978683930844e-01	-3.705630708228371e-01
 2.737666723575062e-01	 9.862371269116078e-01	-3.721107913181405e-01
 2.647772245129022e-01	 9.886884679576577e-01	-3.722516450289408e-01
 3.585450197055227e-01	 9.712248170386840e-01	-1.091680754824798e-01
 3.495080243593274e-01	 9.745133894247071e-01	-1.402114023342964e-01
 3.404597443807399e-01	 9.777113070847534e-01	-1.684748611532698e-01
 3.314014724271374e-01	 9.808187068510974e-01	-1.940467590324921e-01
 3.223344929442929e-01	 9.838357487954144e-01	-2.170248097817820e-01
 3.132600816780591e-01	 9.867626159099309e-01	-2.375163011902925e-01
 3.041795051981727e-01	 9.895995137773136e-01	-2.556382077522943e-01
 2.950940204344359e-01	 9.923466702297564e-01	-2.715172496105343e-01
 2.860048742255236e-01	 9.950043349977704e-01	-2.852898987063721e-01
 2.769133028806337e-01	 9.975727793491490e-01	-2.971023333479237e-01
 2.678205317541871e-01	 1.000052295718614e+00	-3.071103426136355e-01
 3.626192054749470e-01	 9.822609494757407e-01	 6.446763246633447e-02
 3.534795217744085e-01	 9.855868902645597e-01	 2.234233657353846e-02
 3.443284252128513e-01	 9.888211462080054e-01	-1.687202052475012e-02
 3.351672231363057e-01	 9.919638556931856e-01	-5.323985198780701e-02
 3.259972145858879e-01	 9.950151806106788e-01	-8.683540578677329e-02
 3.168196898039354e-01	 9.979753060320659e-01	-1.177429737393068e-01
 3.076359297524004e-01	 1.000844439876063e+00	-1.460570420962175e-01
 2.984472056437601e-01	 1.003622812563742e+00	-1.718823844648600e-01
 2.892547784846975e-01	 1.006310676663317e+00	-1.953340980980918e-01
 2.800598986327708e-01	 1.008908306525025e+00	-2.165375848223015e-01
 2.708638053662800e-01	 1.011415997906544e+00	-2.356284780925373e-01
 3.666933543010294e-01	 9.932969818478675e-01	 2.359012260400895e-01
 3.574509831775177e-01	 9.966602907007296e-01	 1.839373141833338e-01
 3.481970709655654e-01	 9.999308845981407e-01	 1.349899052038293e-01
 3.389329396997051e-01	 1.003108903482030e+00	 8.901055085454779e-02
 3.296599030162461e-01	 1.006194511061867e+00	 4.594040451914960e-02
 3.203792656538625e-01	 1.009187894488570e+00	 5.709982306518313e-03
 3.110923229665732e-01	 1.012089264016888e+00	-3.176101339254478e-02
 3.018003604493844e-01	 1.014898852656745e+00	-6.656380871581691e-02
 2.925046532768416e-01	 1.017616915814045e+00	-9.880061261023387e-02
 2.832064658547190e-01	 1.020243730921431e+00	-1.285846119288130e-01
 2.739070513850532e-01	 1.022779597059521e+00	-1.560399089318425e-01
 3.707674742647268e-01	 1.004332936043562e+00	 4.073220076032764e-01
 3.614224164458945e-01	 1.007733612695812e+00	 3.467327144498480e-01
 3.520656893121451e-01	 1.011040544289809e+00	 2.892347669285384e-01
 3.426986295863946e-01	 1.014253872322298e+00	 2.347882997915249e-01
 3.333225655000269e-01	 1.017373762321629e+00	 1.833421166936606e-01
 3.239388162879342e-01	 1.020400403518045e+00	 1.348336661569860e-01
 3.145486916960861e-01	 1.023334008502314e+00	 8.918885104395358e-02
 3.051534915019017e-01	 1.026174812873199e+00	 4.632190371812062e-02
 2.957545050476741e-01	 1.028923074874269e+00	 6.135325712247397e-03
 2.863530107872798e-01	 1.031579075020566e+00	-3.148010955618430e-02
 2.769502758463785e-01	 1.034143115715616e+00	-6.664529272159037e-02
 3.748415734469953e-01	 1.015368833951324e+00	 5.808134448815183e-01
 3.653938294567779e-01	 1.018806878212401e+00	 5.128164240042157e-01
 3.559342879258536e-01	 1.022150147317663e+00	 4.479151793930289e-01
 3.464643002654333e-01	 1.025398784318659e+00	 3.861063177971511e-01
 3.369852093018887e-01	 1.028552956562615e+00	 3.273388434599589e-01
 3.274983487662442e-01	 1.031612855359092e+00	 2.715495622032935e-01
 3.180050427963342e-01	 1.034578695634867e+00	 2.186628883575144e-01
 3.085066054519051e-01	 1.037450715577531e+00	 1.685907215474143e-01
 2.990043402429137e-01	 1.040229176268310e+00	 1.212323920338947e-01
 2.894995396712544e-01	 1.042914361304624e+00	 7.647467303416544e-02
 2.799934847861281e-01	 1.045506576412899e+00	 3.419185817660164e-02
 3.789156599287913e-01	 1.026404697459648e+00	 7.583959512703200e-01
 3.693652300874075e-01	 1.029880109213092e+00	 6.842094994245849e-01
 3.598028744799540e-01	 1.033259715716351e+00	 6.130169438494528e-01
 3.502299592058804e-01	 1.036543661575780e+00	 5.449109666390601e-01
 3.406478416864911e-01	 1.039732115957476e+00	 4.798336130254097e-01
 3.310578701488872e-01	 1.042825272250313e+00	 4.177137599603897e-01
 3.214613831227128e-01	 1.045823347717074e+00	 3.584669318332527e-01
 3.118597089499879e-01	 1.048726583134173e+00	 3.019951903219780e-01
 3.022541653082786e-01	 1.051535242420484e+00	 2.481870969472801e-01
 2.926460587474443e-01	 1.054249612255803e+00	 1.969177466017737e-01
 2.830366842401736e-01	 1.056870001689444e+00	 1.480488700499012e-01
 3.829897417910713e-01	 1.037440548457034e+00	 9.420470481723444e-01
 3.733366262150228e-01	 1.040953327660482e+00	 8.628545416314548e-01
 3.636714566477090e-01	 1.044369271520527e+00	 7.864631942222249e-01
 3.539956138767948e-01	 1.047688526198331e+00	 7.130861396361716e-01
 3.443104699184928e-01	 1.050911262678862e+00	 6.426673979184514e-01
 3.346173874959565e-01	 1.054037676430311e+00	 5.751209091102729e-01
 3.249177195306167e-01	 1.057067987051463e+00	 5.103461829035552e-01
 3.152128086467429e-01	 1.060002437907555e+00	 4.482282128071287e-01
 3.055039866894872e-01	 1.062841295755111e+00	 3.886374672633890e-01
 2.957925742566510e-01	 1.065584850356298e+00	 3.314299558186269e-01
 2.860798802443874e-01	 1.068233414083320e+00	 2.764473681567612e-01
 3.870638271147915e-01	 1.048476408831977e+00	 1.133681867222554e+00
 3.773080257168627e-01	 1.052026555517163e+00	 1.050606142747197e+00
 3.675400421023817e-01	 1.055478836764839e+00	 9.701182872404011e-01
 3.577612717472357e-01	 1.058833400290978e+00	 8.924571012896800e-01
 3.479731012625529e-01	 1.062090418899424e+00	 8.176228942904618e-01
 3.381769078675465e-01	 1.065250090137686e+00	 7.455079292411932e-01
 3.283740588754411e-01	 1.068312635940559e+00	 6.759888426958853e-01
 3.185659111927632e-01	 1.071278302262107e+00	 6.089265943060580e-01
 3.087538108322579e-01	 1.074147358696507e+00	 5.441664976777600e-01
 2.989390924396756e-01	 1.076920098088306e+00	 4.815383304493754e-01
 2.891230788346412e-01	 1.079596836132600e+00	 4.208565211949544e-01
 2.586904849992691e-01	 9.659603455643853e-01	-4.909367365836212e-01
 2.499077018034105e-01	 9.682697411484725e-01	-4.684900000570291e-01
 2.411260942737208e-01	 9.704938663716978e-01	-4.458114161912632e-01
 2.323468125892457e-01	 9.726330640575948e-01	-4.229850119981702e-01
 2.235709948004865e-01	 9.746876959562027e-01	-4.001019062585534e-01
 2.147997664840682e-01	 9.766581423474187e-01	-3.772601781358458e-01
 2.060342404108247e-01	 9.785448016382445e-01	-3.545647012706983e-01
 1.972755162273643e-01	 9.803480899544124e-01	-3.321269452178752e-01
 1.885246801511632e-01	 9.820684407268568e-01	-3.100647461789263e-01
 1.797828046792145e-01	 9.837063042735065e-01	-2.885020490434451e-01
 1.710509483102450e-01	 9.852621473768629e-01	-2.675686228220009e-01
 2.617338776065535e-01	 9.773244920856053e-01	-4.328895458675319e-01
 2.528477683939890e-01	 9.796610568074452e-01	-4.214482839461455e-01
 2.439628486794445e-01	 9.819113479958671e-01	-4.091226297750361e-01
 2.350802821732305e-01	 9.840757125075836e-01	-3.960262001418826e-01
 2.262012203144259e-01	 9.861545163484770e-01	-3.822805020359095e-01
 2.173268019214848e-01	 9.881481442722823e-01	-3.680147449701496e-01
 2.084581528564162e-01	 9.900569993730991e-01	-3.533656172247062e-01
 1.995963857026039e-01	 9.918815026722109e-01	-3.384770280717713e-01
 1.907425994563121e-01	 9.936220926996921e-01	-3.234998181168747e-01
 1.818978792319076e-01	 9.952792250712817e-01	-3.085914399698568e-01
 1.730632959808086e-01	 9.968533720609891e-01	-2.939156115113795e-01
 2.647772245129022e-01	 9.886884679576577e-01	-3.722516450289408e-01
 2.557877908351327e-01	 9.910522014092615e-01	-3.710007736334520e-01
 2.467995604868981e-01	 9.933286581699599e-01	-3.683305745794390e-01
 2.378137107096030e-01	 9.955181891295856e-01	-3.643751330553919e-01
 2.288314063307366e-01	 9.976211645498031e-01	-3.592772104879782e-01
 2.198537994104162e-01	 9.996379736581213e-01	-3.531880118309063e-01
 2.108820289016618e-01	 1.001569024235669e+00	-3.462669148868787e-01
 2.019172203244705e-01	 1.003414742199211e+00	-3.386811639127179e-01
 1.929604854537350e-01	 1.005175571177887e+00	-3.306055298255859e-01
 1.840129220210379e-01	 1.006851972085168e+00	-3.222219394122559e-01
 1.750756134303323e-01	 1.008444422686493e+00	-3.137190759992312e-01
 2.678205317541871e-01	 1.000052295718614e+00	-3.071103426136355e-01
 2.587277749578010e-01	 1.002443197545873e+00	-3.153030150562883e-01
 2.496362353221682e-01	 1.004745819537816e+00	-3.216531763920272e-01
 2.405471036196412e-01	 1.006960516617351e+00	-3.263065757475330e-01
 2.314615580659747e-01	 1.009087663301867e+00	-3.294184142583307e-01
 2.223807639628054e-01	 1.011127653292591e+00	-3.311530782934864e-01
 2.133058733540233e-01	 1.013080899057625e+00	-3.316838324990652e-01
 2.042380246960988e-01	 1.014947831409151e+00	-3.311924750847175e-01
 1.951783425424143e-01	 1.016728899075312e+00	-3.298689578605081e-01
 1.861279372416323e-01	 1.018424568267244e+00	-3.279109736102912e-01
 1.770879046501064e-01	 1.020035322241744e+00	-3.255235134465835e-01
 2.708638053662800e-01	 1.011415997906544e+00	-2.356284780925373e-01
 2.616677265929525e-01	 1.013834067809228e+00	-2.525839952084676e-01
 2.524728788113410e-01	 1.016162854743279e+00	-2.673799252464186e-01
 2.432804663246229e-01	 1.018402717664629e+00	-2.801651794890572e-01
 2.340916807366958e-01	 1.020554035346352e+00	-2.910988889146293e-01
 2.249077005905956e-01	 1.022617205963349e+00	-3.003501140474327e-01
 2.157296910209627e-01	 1.024592646670639e+00	-3.080975120802805e-01
 2.065588034206227e-01	 1.026480793175772e+00	-3.145289638661324e-01
 1.973961751213325e-01	 1.028282099305840e+00	-3.198411634703113e-01
 1.882429290887180e-01	 1.029997036569585e+00	-3.242391730513323e-01
 1.791001736314211e-01	 1.031626093715108e+00	-3.279359459007849e-01
 2.739070513850532e-01	 1.022779597059521e+00	-1.560399089318425e-01
 2.646076515715461e-01	 1.025224834791279e+00	-1.811417734164666e-01
 2.553094965805032e-01	 1.027579786430185e+00	-2.038676375582922e-01
 2.460138042458259e-01	 1.029844814965167e+00	-2.243613622710412e-01
 2.367217795594560e-01	 1.032020303424945e+00	-2.427777900007708e-01
 2.274346143057301e-01	 1.034106654458049e+00	-2.592824416184958e-01
 2.181534867099419e-01	 1.036104289906381e+00	-2.740511677065633e-01
 2.088795611011771e-01	 1.038013650372813e+00	-2.872697570039517e-01
 1.996139875894714e-01	 1.039835194783341e+00	-2.991335048830197e-01
 1.903579017573224e-01	 1.041569399944270e+00	-3.098467448085587e-01
 1.811124243655665e-01	 1.043216760094952e+00	-3.196223457947300e-01
 2.769502758463785e-01	 1.034143115715616e+00	-6.664529272159037e-02
 2.675475557245409e-01	 1.036615521083976e+00	-9.933939846097006e-02
 2.581460942557412e-01	 1.038996637242378e+00	-1.295364957571485e-01
 2.487471228045282e-01	 1.041286831212717e+00	-1.573674592198637e-01
 2.393518597508109e-01	 1.043486490279329e+00	-1.829749032616701e-01
 2.299615101201517e-01	 1.045596021564348e+00	-2.065128761874244e-01
 2.205772652284229e-01	 1.047615851596521e+00	-2.281465054597520e-01
 2.112003023408962e-01	 1.049546425874014e+00	-2.480515970812798e-01
 2.018317843458137e-01	 1.051388208421688e+00	-2.664141921370931e-01
 1.924728594424722e-01	 1.053141681343376e+00	-2.834300836354382e-01
 1.831246608438329e-01	 1.054807344369644e+00	-2.993042968426112e-01
 2.799934847861281e-01	 1.045506576412899e+00	 3.419185817660164e-02
 2.704874448828958e-01	 1.048006149279268e+00	-5.601089710983054e-03
 2.609826774631417e-01	 1.050413429823696e+00	-4.286634422319269e-02
 2.514804274220077e-01	 1.052728789101026e+00	-7.771412235481900e-02
 2.419819265273168e-01	 1.054952618651190e+00	-1.102671379479454e-01
 2.324883930458036e-01	 1.057085330069900e+00	-1.406603028715612e-01
 2.230010313838675e-01	 1.059127354572732e+00	-1.690403758245775e-01
 2.135210317429142e-01	 1.061079142553114e+00	-1.955655618744951e-01
 2.040495697893414e-01	 1.062941163134753e+00	-2.204050659460117e-01
 1.945878063391948e-01	 1.064713903718981e+00	-2.437386035829703e-01
 1.851368870575102e-01	 1.066397869527551e+00	-2.657558723645304e-01
 2.830366842401736e-01	 1.056870001689444e+00	 1.480488700499012e-01
 2.734273248775695e-01	 1.059396741969107e+00	 1.015913376720139e-01
 2.638192518287910e-01	 1.061830186817982e+00	 5.760677783406365e-02
 2.542137235195421e-01	 1.064170711323844e+00	 1.601304914750612e-02
 2.446119851055290e-01	 1.066418711282212e+00	-2.328524483598349e-02
 2.350152680946290e-01	 1.068574602762363e+00	-6.039647353409450e-02
 2.254247899837376e-01	 1.070638821666683e+00	-9.544164098030583e-02
 2.158417539103656e-01	 1.072611823283854e+00	-1.285539944796628e-01
 2.062673483190368e-01	 1.074494081836407e+00	-1.598785836706971e-01
 1.967027466425173e-01	 1.076286090023162e+00	-1.895717734910551e-01
 1.871491069978890e-01	 1.077988358557040e+00	-2.178007146200200e-01
 2.860798802443874e-01	 1.068233414083320e+00	 2.764473681567612e-01
 2.763672015395212e-01	 1.070787321745442e+00	 2.237018217070590e-01
 2.666558229787758e-01	 1.073246930869074e+00	 1.732938842671770e-01
 2.569470165184093e-01	 1.075612620574921e+00	 1.251766654118445e-01
 2.472420407020037e-01	 1.077884790914079e+00	 7.928925782943264e-02
 2.375421402785710e-01	 1.080063862429391e+00	 3.555699328418838e-02
 2.278485458354952e-01	 1.082150275710045e+00	-6.108240926119279e-03
 2.181624734463848e-01	 1.084144490939970e+00	-4.580762845806907e-02
 2.084851243338823e-01	 1.086046987440522e+00	-8.365499692901812e-02
 1.988176845474667e-01	 1.087858263207996e+00	-1.197763411188753e-01
 1.891613246562593e-01	 1.089578834446479e+00	-1.543093001331721e-01
 2.891230788346412e-01	 1.079596836132600e+00	 4.208565211949544e-01
 2.793070806997095e-01	 1.082177911200225e+00	 3.621431934466721e-01
 2.694923965391823e-01	 1.084663684620814e+00	 3.055560868643310e-01
 2.596803118398872e-01	 1.087054539548005e+00	 2.510905048193970e-01
 2.498720985332969e-01	 1.089350880288478e+00	 1.987269658483579e-01
 2.400690146095725e-01	 1.091553131858640e+00	 1.484314243351306e-01
 2.302723037466021e-01	 1.093661739534489e+00	 1.001555562615670e-01
 2.204831949541061e-01	 1.095677168395206e+00	 5.383710641816331e-02
 2.107029022328601e-01	 1.097599902860970e+00	 9.400293330124931e-03
 2.009326242490704e-01	 1.099430446225561e+00	-3.324373196749075e-02
 1.911735440239112e-01	 1.101169320184234e+00	-7.419637725725137e-02
 1.710509483102450e-01	 9.852621473768629e-01	-2.675686228220009e-01
 1.623286740391851e-01	 9.867366964777040e-01	-2.473332087089934e-01
 1.536184993999991e-01	 9.881301781820826e-01	-2.278038956631052e-01
 1.449214421196758e-01	 9.894431056398207e-01	-2.090169225848966e-01
 1.362385048931709e-01	 9.906760067638284e-01	-1.910133519419972e-01
 1.275706751727547e-01	 9.918294237927018e-01	-1.738388219665481e-01
 1.189189249707245e-01	 9.929039128517897e-01	-1.575432813795636e-01
 1.102842106753850e-01	 9.939000435131441e-01	-1.421807086852453e-01
 1.016674728801875e-01	 9.948183983547720e-01	-1.278088180667121e-01
 9.306963622590408e-02	 9.956595725195880e-01	-1.144887538700692e-01
 8.449160925570287e-02	 9.964241732744671e-01	-1.022847756444598e-01
 1.730632959808086e-01	 9.968533720609891e-01	-2.939156115113803e-01
 1.642384075566589e-01	 9.983452686558882e-01	-2.795503063096723e-01
 1.554257611112943e-01	 9.997551441280063e-01	-2.654937824063435e-01
 1.466263863449701e-01	 1.001083517664225e+00	-2.517915115674958e-01
 1.378412977490612e-01	 1.002330923388193e+00	-2.384944123781025e-01
 1.290714943929323e-01	 1.003497909917784e+00	-2.256585648883993e-01
 1.203179597243279e-01	 1.004585039920993e+00	-2.133449069064728e-01
 1.115816613831894e-01	 1.005592889670713e+00	-2.016189141586660e-01
 1.028635510287825e-01	 1.006522048598804e+00	-1.905502664979135e-01
 9.416456418001592e-02	 1.007373118849850e+00	-1.802125023101464e-01
 8.548562006881107e-02	 1.008146714835034e+00	-1.706826632344791e-01
 1.750756134303323e-01	 1.008444422686493e+00	-3.137190759992317e-01
 1.661481123940742e-01	 1.009953666515104e+00	-3.051773384966481e-01
 1.572329956815066e-01	 1.011379935508951e+00	-2.965819824877460e-01
 1.483313049659424e-01	 1.012723754891869e+00	-2.879841897125726e-01
 1.394440665349705e-01	 1.013985664998140e+00	-2.794412113374092e-01
 1.305722910748464e-01	 1.015166220824802e+00	-2.710160485024753e-01
 1.217169734685628e-01	 1.016265991582388e+00	-2.627771135144386e-01
 1.128790926075004e-01	 1.017285560244518e+00	-2.547978740608112e-01
 1.040596112165464e-01	 1.018225523096786e+00	-2.471564827945860e-01
 9.525947569255547e-02	 1.019086489285332e+00	-2.399353946055820e-01
 8.647961595601504e-02	 1.019869080365520e+00	-2.332209738387698e-01
 1.770879046501064e-01	 1.020035322241744e+00	-3.255235134465839e-01
 1.680577923391900e-01	 1.021561913078112e+00	-3.227825631376393e-01
 1.590402066951307e-01	 1.023004575380174e+00	-3.196570441770392e-01
 1.500362013641184e-01	 1.024363840408628e+00	-3.162004726381116e-01
 1.410468144297765e-01	 1.025640254708297e+00	-3.124730575601200e-01
 1.320730681950757e-01	 1.026834379655289e+00	-3.085413506754229e-01
 1.231159689780832e-01	 1.027946791002573e+00	-3.044778756361461e-01
 1.141765069214485e-01	 1.028978078424401e+00	-3.003607392941321e-01
 1.052556558155120e-01	 1.029928845059997e+00	-2.962732275473261e-01
 9.635437293490934e-02	 1.030799707056954e+00	-2.923033882308257e-01
 8.747359888853123e-02	 1.031591293114714e+00	-2.885436034798241e-01
 1.791001736314211e-01	 1.031626093715108e+00	-3.279359459007849e-01
 1.699674511797653e-01	 1.033170031367667e+00	-3.309961872446059e-01
 1.608473977366620e-01	 1.034629086796930e+00	-3.333690009762984e-01
 1.517410789210236e-01	 1.036003797300378e+00	-3.351070036981660e-01
 1.426495446123570e-01	 1.037294715633294e+00	-3.362701310528498e-01
 1.335738287301988e-01	 1.038502409550776e+00	-3.369252597178005e-01
 1.245149490275433e-01	 1.039627461348147e+00	-3.371458076259017e-01
 1.154739068981641e-01	 1.040670467400201e+00	-3.370113151384415e-01
 1.064516871977123e-01	 1.041632037699713e+00	-3.366070098534917e-01
 9.744925807846412e-02	 1.042512795395637e+00	-3.360233577028766e-01
 8.846757083757605e-02	 1.043313376331406e+00	-3.353556029213105e-01
 1.811124243655665e-01	 1.043216760094952e+00	-3.196223457947300e-01
 1.718770927035592e-01	 1.044778044406530e+00	-3.285068386362724e-01
 1.626545723905952e-01	 1.046253492814476e+00	-3.364258820358965e-01
 1.534459410181836e-01	 1.047643648652995e+00	-3.434280960878806e-01
 1.442522602615899e-01	 1.048949070887761e+00	-3.495700501548646e-01
 1.350745756567941e-01	 1.050170333652795e+00	-3.549158600396427e-01
 1.259139163915971e-01	 1.051308025785706e+00	-3.595367619757441e-01
 1.167712951107776e-01	 1.052362750361762e+00	-3.635106663386187e-01
 1.076477077351802e-01	 1.053335124227214e+00	-3.669216939450002e-01
 9.854413329460662e-02	 1.054225777532304e+00	-3.698596977556048e-01
 8.946153377436580e-02	 1.055035353264385e+00	-3.724197727451677e-01
 1.831246608438329e-01	 1.054807344369644e+00	-2.993042968426112e-01
 1.737867206983306e-01	 1.056385975217457e+00	-3.140582700914152e-01
 1.644617342414254e-01	 1.057877816488070e+00	-3.275904526287232e-01
 1.551507910371237e-01	 1.059283417552354e+00	-3.399425030231762e-01
 1.458549645563530e-01	 1.060603343586328e+00	-3.511646651356641e-01
 1.365753119514404e-01	 1.061838175102879e+00	-3.613153431973952e-01
 1.273128738448989e-01	 1.062988507481849e+00	-3.704606521661185e-01
 1.180686741324194e-01	 1.064054950498924e+00	-3.786739464462059e-01
 1.088437197999485e-01	 1.065038127853774e+00	-3.860353300217767e-01
 9.963900075472343e-02	 1.065938676697876e+00	-3.926311509988349e-01
 9.045548967011696e-02	 1.066757247162440e+00	-3.985534834874485e-01
 1.851368870575102e-01	 1.066397869527551e+00	-2.657558723645304e-01
 1.756963389518386e-01	 1.067993846823207e+00	-2.864462782453692e-01
 1.662688868736472e-01	 1.069502080872965e+00	-3.056771671221488e-01
 1.568556323593694e-01	 1.070923127084330e+00	-3.234803985932171e-01
 1.474576606755240e-01	 1.072257556843623e+00	-3.398970610335139e-01
 1.380760405907161e-01	 1.073505957042559e+00	-3.549770271287409e-01
 1.287118241621029e-01	 1.074668929603173e+00	-3.687784830146188e-01
 1.193660465362199e-01	 1.075747091001528e+00	-3.813674342957243e-01
 1.100397257640501e-01	 1.076741071790673e+00	-3.928171921828274e-01
 1.007338626302012e-01	 1.077651516123275e+00	-4.032078429255517e-01
 9.144944049604596e-02	 1.078479081274362e+00	-4.126257036538594e-01
 1.871491069978890e-01	 1.077988358557040e+00	-2.178007146200196e-01
 1.776059512518421e-01	 1.079601682246538e+00	-2.445158210150304e-01
 1.680760338717559e-01	 1.081126309024421e+00	-2.695493184017606e-01
 1.585604683664464e-01	 1.082562800334801e+00	-2.929205533737069e-01
 1.490603517979808e-01	 1.083911733774276e+00	-3.146587539345833e-01
 1.395767645511999e-01	 1.085173702613368e+00	-3.348025678587216e-01
 1.301107701178630e-01	 1.086349315316276e+00	-3.533995728517629e-01
 1.206634148953096e-01	 1.087439195059416e+00	-3.705057619826073e-01
 1.112357279995180e-01	 1.088443979249188e+00	-3.861850078168048e-01
 1.018287210924266e-01	 1.089364319039423e+00	-4.005085086191693e-01
 9.244338822336910e-02	 1.090200878848937e+00	-4.135542199243236e-01
 1.891613246562593e-01	 1.089578834446479e+00	-1.543093001331726e-01
 1.795155613861003e-01	 1.091209504510208e+00	-1.871583187179420e-01
 1.698831788202463e-01	 1.092750523997692e+00	-2.181163690697763e-01
 1.602653024398801e-01	 1.094202460389640e+00	-2.471876902553425e-01
 1.506630411026012e-01	 1.095565897492917e+00	-2.743870662463204e-01
 1.410774868094704e-01	 1.096841434956837e+00	-2.997393492990379e-01
 1.315097144868335e-01	 1.098029687787756e+00	-3.232789531972022e-01
 1.219607817828187e-01	 1.099131285862428e+00	-3.450493200333011e-01
 1.124317288783849e-01	 1.100146873440595e+00	-3.651023641538687e-01
 1.029235783127863e-01	 1.101077108677241e+00	-3.834978968375466e-01
 9.343733482330285e-02	 1.101922663134957e+00	-4.003030351915204e-01
 1.911735440239112e-01	 1.101169320184234e+00	-7.419637725725181e-02
 1.814251731423721e-01	 1.102817336636975e+00	-1.133091253088065e-01
 1.716903253036134e-01	 1.104374748848036e+00	-1.503314509829554e-01
 1.619701379611960e-01	 1.105842130334724e+00	-1.852500071632264e-01
 1.522657317682630e-01	 1.107220071114175e+00	-2.180626677303739e-01
 1.425782103421061e-01	 1.108509177214500e+00	-2.487780379774898e-01
 1.329086600436685e-01	 1.109710070184211e+00	-2.774149328186399e-01
 1.232581497718779e-01	 1.110823386600407e+00	-3.040018266776228e-01
 1.136277307726839e-01	 1.111849777576174e+00	-3.285053382495451e-01
 1.040184364626670e-01	 1.112789908267651e+00	-3.508223362745073e-01
 9.443128226706357e-02	 1.113644457381211e+00	-3.710605680389705e-01
 8.449160925570287e-02	 9.964241732744671e-01	-1.022847756444598e-01
 7.593573370450234e-02	 9.971127089018138e-01	-9.123018306796293e-02
 6.740140868271495e-02	 9.977259455763865e-01	-8.130681984818544e-02
 5.888947380262378e-02	 9.982645237707195e-01	-7.251257572929060e-02
 5.040075266753091e-02	 9.987290943103193e-01	-6.484877819851054e-02
 4.193605278629518e-02	 9.991203179452326e-01	-5.831991459940067e-02
 3.349616549931961e-02	 9.994388649236411e-01	-5.293335181322156e-02
 2.508186591579783e-02	 9.996854145678036e-01	-4.869905502615524e-02
 1.669391286202219e-02	 9.998606548526503e-01	-4.562930702186296e-02
 8.333048840547847e-03	 9.999652819873316e-01	-4.373842936338779e-02
 0.000000000000000e+00	 1.000000000000000e+00	-4.304250673277465e-02
 8.548562006881107e-02	 1.008146714835034e+00	-1.706826632344782e-01
 7.682908797975316e-02	 1.008843350816523e+00	-1.620121380908159e-01
 6.819435995398435e-02	 1.009463801982744e+00	-1.541979650743066e-01
 5.958228548143366e-02	 1.010008716341037e+00	-1.472455430316106e-01
 5.099369785471045e-02	 1.010478752373515e+00	-1.411638060918934e-01
 4.242941408263685e-02	 1.010874578603591e+00	-1.359649187707159e-01
 3.389023481536427e-02	 1.011196873164554e+00	-1.316639690172368e-01
 2.537694428088188e-02	 1.011446323370527e+00	-1.282786608191708e-01
 1.689031023271625e-02	 1.011623625290100e+00	-1.258290079028033e-01
 8.431083908615243e-03	 1.011729483322956e+00	-1.243370299667808e-01
 0.000000000000000e+00	 1.011764609779771e+00	-1.238264528020094e-01
 8.647961595601504e-02	 1.019869080365520e+00	-2.332209738387698e-01
 7.772242884074498e-02	 1.020573816579189e+00	-2.270752116420702e-01
 6.898729931873566e-02	 1.021201482128319e+00	-2.215037561819093e-01
 6.027508675743365e-02	 1.021752732554970e+00	-2.165173856945763e-01
 5.158663413862993e-02	 1.022228233997774e+00	-2.121305572448806e-01
 4.292276797098678e-02	 1.022628662753420e+00	-2.083610752623972e-01
 3.428429821428352e-02	 1.022954704840214e+00	-2.052297583250082e-01
 2.567201821518676e-02	 1.023207055564047e+00	-2.027601059090811e-01
 1.708670465434214e-02	 1.023386419087075e+00	-2.009779667320322e-01
 8.529117504577530e-03	 1.023493507999417e+00	-1.999112102250908e-01
 0.000000000000000e+00	 1.023529042894170e+00	-1.995894025627152e-01
 8.747359888853123e-02	 1.031591293114714e+00	-2.885436034798250e-01
 7.861575805905685e-02	 1.032304129454704e+00	-2.850598722533499e-01
 6.978022834942732e-02	 1.032939009292358e+00	-2.818607289482546e-01
 6.096787900449499e-02	 1.033496595704385e+00	-2.789603101976335e-01
 5.217956269512266e-02	 1.033977562485856e+00	-2.763766204789411e-01
 4.341611542970537e-02	 1.034382593706661e+00	-2.741311743996242e-01
 3.467835647754527e-02	 1.034712383270044e+00	-2.722486374699900e-01
 2.596708830388365e-02	 1.034967634473585e+00	-2.707564671814708e-01
 1.728309651638455e-02	 1.035149059572921e+00	-2.696845561242593e-01
 8.627149822857666e-03	 1.035257379348522e+00	-2.690648787725785e-01
 0.000000000000000e+00	 1.035293322675825e+00	-2.689311434481896e-01
 8.846757083757605e-02	 1.043313376331406e+00	-3.353556029213101e-01
 7.950907740626781e-02	 1.044034312707962e+00	-3.346680116816985e-01
 7.057314861851791e-02	 1.044676406754111e+00	-3.339671047585138e-01
 6.166066359648887e-02	 1.045240329081146e+00	-3.332684618319584e-01
 5.277248470002185e-02	 1.045726761140521e+00	-3.325917644198695e-01
 4.390945743715297e-02	 1.046136394775257e+00	-3.319604121131361e-01
 3.507241038661751e-02	 1.046469931773471e+00	-3.314011374624588e-01
 2.626215513214369e-02	 1.046728083424363e+00	-3.309436214594994e-01
 1.747948620832819e-02	 1.046911570076982e+00	-3.306201114415908e-01
 8.725181057878617e-03	 1.047021120702081e+00	-3.304650431579290e-01
 0.000000000000000e+00	 1.047057472457363e+00	-3.305146685837741e-01
 8.946153377436580e-02	 1.055035353264385e+00	-3.724197727451686e-01
 8.040238865395692e-02	 1.055764389603855e+00	-3.746595294310153e-01
 7.136606169846592e-02	 1.056413697792824e+00	-3.765793642257482e-01
 6.235344190728646e-02	 1.056983955977121e+00	-3.781944872914731e-01
 5.336540132916073e-02	 1.057475853264529e+00	-3.795244891621552e-01
 4.440279497168993e-02	 1.057890089271150e+00	-3.805929309945477e-01
 3.546646072296820e-02	 1.058227373669918e+00	-3.814269335823144e-01
 2.655721928513807e-02	 1.058488425741601e+00	-3.820567671876169e-01
 1.767587411965776e-02	 1.058673973928604e+00	-3.825154441387992e-01
 8.823211404063334e-03	 1.058784755391905e+00	-3.828383160284456e-01
 0.000000000000000e+00	 1.058821515571412e+00	-3.830626772003987e-01
 9.045548967011696e-02	 1.066757247162440e+00	-3.985534834874493e-01
 8.129569357370324e-02	 1.067494383407276e+00	-4.038491430638032e-01
 7.215896916172986e-02	 1.068150905687745e+00	-4.085090473401847e-01
 6.304621531075909e-02	 1.068727499684177e+00	-4.125463245418803e-01
 5.395831375837253e-02	 1.069224862160641e+00	-4.159788059423351e-01
 4.489612901167656e-02	 1.069643700506282e+00	-4.188285900753379e-01
 3.586050826806532e-02	 1.069984732278812e+00	-4.211216057604088e-01
 2.685228134803796e-02	 1.070248684750522e+00	-4.228871761219692e-01
 1.787226063985796e-02	 1.070436294457133e+00	-4.241575856634543e-01
 8.921241055834771e-03	 1.070548306749802e+00	-4.249676523461261e-01
 0.000000000000000e+00	 1.070585475350601e+00	-4.253543064563123e-01
 9.144944049604596e-02	 1.078479081274362e+00	-4.126257036538594e-01
 8.218899393708584e-02	 1.079224317383118e+00	-4.211034070639474e-01
 7.295187258076825e-02	 1.079888053718124e+00	-4.286197628621857e-01
 6.373898518077788e-02	 1.080470983494178e+00	-4.351842026213579e-01
 5.455122316349049e-02	 1.080973811131616e+00	-4.408112274274445e-01
 4.538946053547323e-02	 1.081397251792595e+00	-4.455199458710926e-01
 3.625455380337682e-02	 1.081742030919577e+00	-4.493336108473844e-01
 2.714734190601454e-02	 1.082008883776349e+00	-4.522791574756200e-01
 1.806864615841349e-02	 1.082198554991914e+00	-4.543867443238248e-01
 9.019270207615894e-03	 1.082311798107581e+00	-4.556893000015863e-01
 0.000000000000000e+00	 1.082349375127556e+00	-4.562220770099641e-01
 9.244338822336910e-02	 1.090200878848937e+00	-4.135542199243236e-01
 8.308229151568372e-02	 1.090954214796274e+00	-4.253379245125521e-01
 7.374477352803964e-02	 1.091625165163206e+00	-4.358243911622068e-01
 6.443175289121403e-02	 1.092214430698992e+00	-4.450178355274317e-01
 5.514413072034786e-02	 1.092722723480215e+00	-4.529279527152363e-01
 4.588279052144030e-02	 1.093150766442032e+00	-4.595694287473928e-01
 3.664859811037068e-02	 1.093499292911639e+00	-4.649614507731954e-01
 2.744240154423896e-02	 1.093769046144302e+00	-4.691272184841413e-01
 1.826503106480905e-02	 1.093960778862292e+00	-4.720934590444275e-01
 9.117299053829651e-03	 1.094075252797053e+00	-4.738899477201950e-01
 0.000000000000000e+00	 1.094113238234906e+00	-4.745490362065365e-01
 9.343733482330285e-02	 1.101922663134957e+00	-4.003030351915213e-01
 8.397558808107602e-02	 1.102684098911636e+00	-4.155147371729702e-01
 7.453767357600249e-02	 1.103362263302241e+00	-4.290824660611103e-01
 6.512451981593881e-02	 1.103957864590484e+00	-4.410037956949129e-01
 5.573703760477785e-02	 1.104471622509197e+00	-4.512822325072223e-01
 4.637611994793814e-02	 1.104904267766535e+00	-4.599267000166605e-01
 3.704264197051486e-02	 1.105256541574422e+00	-4.669510219693178e-01
 2.773746084788241e-02	 1.105529195179602e+00	-4.723734067199867e-01
 1.846141574852935e-02	 1.105722989397613e+00	-4.762159353066990e-01
 9.215327788899011e-03	 1.105838694150027e+00	-4.785040555264297e-01
 0.000000000000000e+00	 1.105877088005278e+00	-4.792660841237484e-01
 9.443128226706357e-02	 1.113644457381211e+00	-3.710605680389705e-01
 8.486888540484175e-02	 1.114413992994098e+00	-3.892538587218919e-01
 7.533057429711539e-02	 1.115099371414475e+00	-4.053855987713759e-01
 6.581728732882340e-02	 1.115701308460522e+00	-4.194885956854826e-01
 5.632994499261373e-02	 1.116220531521325e+00	-4.315956420581792e-01
 4.686944979332704e-02	 1.116657779078045e+00	-4.417392589766647e-01
 3.743668616527732e-02	 1.117013800227352e+00	-4.499514501721076e-01
 2.803252040211605e-02	 1.117289354207472e+00	-4.562634626881046e-01
 1.865780059905909e-02	 1.117485209927222e+00	-4.607055501785595e-01
 9.313356607246925e-03	 1.117602145498313e+00	-4.633067353090201e-01
 0.000000000000000e+00	 1.117640947771301e+00	-4.640945680336839e-01
 1.117640947771301e+00	 0.000000000000000e+00	 2.426229607461164e+01
 1.117602145498312e+00	 9.313356607246307e-03	 2.425988362866339e+01
 1.117485209927221e+00	 1.865780059905855e-02	 2.425199349312972e+01
 1.117289354207473e+00	 2.803252040211561e-02	 2.423860763264537e+01
 1.117013800227351e+00	 3.743668616527699e-02	 2.421970701726078e+01
 1.116657779078045e+00	 4.686944979332677e-02	 2.419527151840834e+01
 1.116220531521325e+00	 5.632994499261353e-02	 2.416527981739807e+01
 1.115701308460522e+00	 6.581728732882330e-02	 2.412970932778770e+01
 1.115099371414475e+00	 7.533057429711537e-02	 2.408853613310815e+01
 1.114413992994098e+00	 8.486888540484182e-02	 2.404173494154509e+01
 1.113644457381211e+00	 9.443128226706360e-02	 2.398927905930374e+01
 1.129406836405184e+00	 0.000000000000000e+00	 2.376216971855484e+01
 1.129367625644021e+00	 9.411402332226586e-03	 2.375994798511728e+01
 1.129249459041981e+00	 1.885421931925312e-02	 2.375257797895845e+01
 1.129051541464957e+00	 2.832763084398043e-02	 2.374005099293827e+01
 1.128773086609680e+00	 3.783079831907150e-02	 2.372235633303645e+01
 1.128413317472667e+00	 4.736286472105082e-02	 2.369948118001155e+01
 1.127971466822820e+00	 5.692295463642456e-02	 2.367141046308927e+01
 1.127446777677372e+00	 6.651017432006190e-02	 2.363812674705527e+01
 1.126838503780811e+00	 7.612361176606909e-02	 2.359961013427353e+01
 1.126145910086474e+00	 8.576233679137990e-02	 2.355583818328521e+01
 1.125368273240415e+00	 9.542540113227710e-02	 2.350678584577899e+01
 1.141172755044817e+00	 0.000000000000000e+00	 2.328852510253104e+01
 1.141133135794435e+00	 9.509448307224595e-03	 2.328650055300306e+01
 1.141013738158299e+00	 1.905063854028792e-02	 2.327963861301506e+01
 1.140813758718728e+00	 2.862274203829743e-02	 2.326793867439857e+01
 1.140532402980881e+00	 3.822491147770400e-02	 2.325139720069909e+01
 1.140168885846581e+00	 4.785628090675637e-02	 2.323000755684623e+01
 1.139722432091846e+00	 5.751596579210191e-02	 2.320375985022155e+01
 1.139192276847786e+00	 6.720306307777603e-02	 2.317264078451677e+01
 1.138577666084521e+00	 7.691665125681467e-02	 2.313663352793661e+01
 1.137877857097793e+00	 8.665579045571574e-02	 2.309571759744521e+01
 1.137092118997869e+00	 9.641952253196569e-02	 2.304986876090305e+01
 1.152938700356340e+00	 0.000000000000000e+00	 2.283939903948662e+01
 1.152898672615807e+00	 9.607494504462126e-03	 2.283756779626335e+01
 1.152778043942767e+00	 1.924705820651986e-02	 2.283119344803317e+01
 1.152576002635953e+00	 2.891785390147328e-02	 2.282028227561924e+01
 1.152291746008928e+00	 3.861902552954671e-02	 2.280483674248702e+01
 1.151924480868808e+00	 4.834969821069839e-02	 2.278485529476571e+01
 1.151473423998709e+00	 5.810897829170171e-02	 2.276033217189330e+01
 1.150937802643601e+00	 6.789595340574295e-02	 2.273125722928651e+01
 1.150316854999225e+00	 7.770969254477192e-02	 2.269761577461216e+01
 1.149609830703705e+00	 8.754924614483423e-02	 2.265938841939327e+01
 1.148815991331510e+00	 9.741364618460364e-02	 2.261655094784533e+01
 1.164704669005890e+00	 0.000000000000000e+00	 2.241290746928107e+01
 1.164664232774389e+00	 9.705540896160967e-03	 2.241125711365358e+01
 1.164542373061981e+00	 1.944347826230588e-02	 2.240534313182394e+01
 1.164338269883797e+00	 2.921296634991463e-02	 2.239517750108958e+01
 1.164051112361794e+00	 3.901314036297183e-02	 2.238076754627265e+01
 1.163680099208367e+00	 4.884311649313178e-02	 2.236211571245854e+01
 1.163224439213715e+00	 5.870199196728021e-02	 2.233921934743340e+01
 1.162683351736658e+00	 6.858884510773998e-02	 2.231207049521837e+01
 1.162056067198539e+00	 7.850273540536050e-02	 2.228065570228969e+01
 1.161341827579859e+00	 8.844270360572032e-02	 2.224495583824337e+01
 1.160539886919274e+00	 9.840777180866553e-02	 2.220494593283759e+01
 1.176470657659607e+00	 0.000000000000000e+00	 2.200724150397049e+01
 1.176429812936431e+00	 9.803587454542904e-03	 2.200575283018578e+01
 1.176306722182532e+00	 1.963989865200290e-02	 2.200026684784379e+01
 1.176100557129425e+00	 2.950807930002811e-02	 2.199080005391155e+01
 1.175810498707453e+00	 3.940725586635156e-02	 2.197736351351348e+01
 1.175435737534277e+00	 4.933653561431153e-02	 2.195996260778406e+01
 1.174975474407171e+00	 5.929500665089353e-02	 2.193859679033390e+01
 1.174428920798795e+00	 6.928173798754449e-02	 2.191325935371206e+01
 1.173795299356084e+00	 7.929577961400015e-02	 2.188393720745595e+01
 1.173073844401907e+00	 8.933616258535898e-02	 2.185061066950189e+01
 1.172263802439096e+00	 9.940189912262562e-02	 2.181325327291868e+01
 1.188236662983631e+00	 0.000000000000000e+00	 2.162066370792522e+01
 1.188195409768187e+00	 9.901634151829724e-03	 2.161931242654564e+01
 1.188071087971013e+00	 1.983631931996784e-02	 2.161421849660108e+01
 1.187862861040004e+00	 2.980319266822034e-02	 2.160540177194314e+01
 1.187569901713879e+00	 3.980137192805815e-02	 2.159287595293775e+01
 1.187191392515558e+00	 4.982995543449258e-02	 2.157664831186451e+01
 1.186726526249384e+00	 5.988802217459791e-02	 2.155671942567301e+01
 1.186174506501850e+00	 6.997463184893374e-02	 2.153308291745272e+01
 1.185534548145479e+00	 8.008882494611064e-02	 2.150572520819771e+01
 1.184805877845498e+00	 9.022962283073516e-02	 2.147462528064324e+01
 1.183987734568912e+00	 1.003960278449584e-01	 2.143975445715597e+01
 1.200002681644098e+00	 0.000000000000000e+00	 2.125150459667231e+01
 1.199961019935908e+00	 9.999680960243213e-03	 2.125026299015800e+01
 1.199835467094019e+00	 2.003274021055762e-02	 2.124552310137961e+01
 1.199625178282700e+00	 3.009830637089799e-02	 2.123730699066921e+01
 1.199329318049044e+00	 4.019548843646376e-02	 2.122562990310615e+01
 1.198947060821229e+00	 5.032337581392983e-02	 2.121049997393658e+01
 1.198477591410662e+00	 6.048103837044949e-02	 2.119191793991253e+01
 1.197920105517663e+00	 7.066752649568500e-02	 2.116987685786775e+01
 1.197273810240342e+00	 8.088187117711176e-02	 2.114436183209040e+01
 1.196537924586281e+00	 9.112308408883374e-02	 2.111534975226200e+01
 1.195711679986658e+00	 1.013901576941382e-01	 2.108280904395334e+01
 1.211768710307149e+00	 0.000000000000000e+00	 2.089815933960456e+01
 1.211726640105846e+00	 1.009772785200517e-02	 2.089699787284282e+01
 1.211599856218141e+00	 2.022916126812917e-02	 2.089257342304009e+01
 1.211387505524678e+00	 3.039342032446768e-02	 2.088490911739643e+01
 1.211088744380924e+00	 4.058960527994066e-02	 2.087402066829969e+01
 1.210702739120310e+00	 5.081679661287825e-02	 2.085991606128471e+01
 1.210228666561309e+00	 6.107405507050445e-02	 2.084259524728207e+01
 1.209665714518071e+00	 7.136042173157561e-02	 2.082204984042221e+01
 1.209013082314291e+00	 8.167491808242316e-02	 2.079826282292094e+01
 1.208269981299908e+00	 9.201654610663976e-02	 2.077120825879642e+01
 1.207435635370270e+00	 1.023842883886396e-01	 2.074085101840643e+01
 1.223534745638923e+00	 0.000000000000000e+00	 2.055908465283981e+01
 1.223492266944253e+00	 1.019577479933736e-02	 2.055797354116233e+01
 1.223364252009974e+00	 2.042558243703941e-02	 2.055382676983192e+01
 1.223149839433106e+00	 3.068853444533607e-02	 2.054666740255342e+01
 1.222848177377490e+00	 4.098372234686101e-02	 2.053651055338060e+01
 1.222458424081820e+00	 5.131021769159280e-02	 2.052336305978401e+01
 1.221979748371634e+00	 6.166707210681900e-02	 2.050722315817639e+01
 1.221411330174915e+00	 7.205331736038291e-02	 2.048808016309500e+01
 1.220752361040947e+00	 8.246796543746465e-02	 2.046591415152010e+01
 1.220002044662028e+00	 9.291000863113812e-02	 2.044069565404870e+01
 1.219159597397682e+00	 1.033784196469368e-01	 2.041238535489808e+01
 1.235300784305558e+00	 0.000000000000000e+00	 2.023279586955894e+01
 1.235257897117380e+00	 1.029382177446159e-02	 2.023170660661785e+01
 1.235128651136109e+00	 2.062200366164527e-02	 2.022780198921888e+01
 1.234912176675148e+00	 3.098364864990978e-02	 2.022110389496027e+01
 1.234607613706718e+00	 4.137783952559704e-02	 2.021162578436502e+01
 1.234214112374779e+00	 5.180363891032840e-02	 2.019937236168283e+01
 1.233730833511943e+00	 6.226008931144928e-02	 2.018433923610245e+01
 1.233156949160033e+00	 7.274621318588417e-02	 2.016651258449411e+01
 1.232491643093927e+00	 8.326101301765594e-02	 2.014586881710086e+01
 1.231734111348292e+00	 9.380347140931372e-02	 2.012237424785314e+01
 1.230883562746831e+00	 1.043725511875043e-01	 2.009598477125617e+01
 1.113644457381211e+00	 9.443128226706360e-02	 2.398927905930373e+01
 1.112789908267651e+00	 1.040184364626665e-01	 2.393120104280511e+01
 1.111849777576174e+00	 1.136277307726835e-01	 2.386753445542508e+01
 1.110823386600407e+00	 1.232581497718775e-01	 2.379822567033858e+01
 1.109710070184211e+00	 1.329086600436682e-01	 2.372326016179332e+01
 1.108509177214499e+00	 1.425782103421058e-01	 2.364260864351388e+01
 1.107220071114175e+00	 1.522657317682628e-01	 2.355622851499976e+01
 1.105842130334725e+00	 1.619701379611959e-01	 2.346407768660345e+01
 1.104374748848036e+00	 1.716903253036133e-01	 2.336611479354004e+01
 1.102817336636975e+00	 1.814251731423720e-01	 2.326229943078875e+01
 1.101169320184234e+00	 1.911735440239112e-01	 2.315259240871583e+01
 1.125368273240415e+00	 9.542540113227710e-02	 2.350678584577899e+01
 1.124504727919713e+00	 1.051134834376542e-01	 2.345249072936071e+01
 1.123554700066746e+00	 1.148239389359646e-01	 2.339298968638762e+01
 1.122517503830127e+00	 1.245557415121677e-01	 2.332822603868678e+01
 1.121392467051355e+00	 1.343078468704772e-01	 2.325814030478589e+01
 1.120178931762818e+00	 1.440791926980397e-01	 2.318267029620751e+01
 1.118876254685921e+00	 1.538686988431843e-01	 2.310175124721909e+01
 1.117483807728866e+00	 1.636752675083939e-01	 2.301531598084009e+01
 1.116000978483646e+00	 1.734977834581384e-01	 2.292329511404916e+01
 1.114427170721787e+00	 1.833351142416926e-01	 2.282561730526866e+01
 1.112761804888340e+00	 1.931861104310484e-01	 2.272220954733372e+01
 1.137092118997869e+00	 9.641952253196569e-02	 2.304986876090305e+01
 1.136219577447053e+00	 1.062085332044891e-01	 2.299912888349623e+01
 1.135259652407323e+00	 1.160201501490875e-01	 2.294353738301209e+01
 1.134211650882264e+00	 1.258533365608852e-01	 2.288303577896783e+01
 1.133074893710994e+00	 1.357070372648581e-01	 2.281756152532020e+01
 1.131848716071361e+00	 1.455801788812169e-01	 2.274704807049286e+01
 1.130532467983254e+00	 1.554716700055140e-01	 2.267142495097087e+01
 1.129125514811573e+00	 1.653804014036253e-01	 2.259061792142688e+01
 1.127627237768403e+00	 1.753052462217481e-01	 2.250454912450047e+01
 1.126037034413910e+00	 1.852450602115405e-01	 2.241313730350542e+01
 1.124354319155494e+00	 1.951986819705127e-01	 2.231629806148607e+01
 1.148815991331510e+00	 9.741364618460364e-02	 2.261655094784534e+01
 1.147934453530147e+00	 1.073035854530562e-01	 2.256914907687494e+01
 1.146964631281185e+00	 1.172163640732770e-01	 2.251722445578628e+01
 1.145905824443162e+00	 1.271509345505273e-01	 2.246071611926639e+01
 1.144757346852800e+00	 1.371062308305166e-01	 2.239955786176297e+01
 1.143518526833388e+00	 1.470811684664911e-01	 2.233367826231321e+01
 1.142188707703287e+00	 1.570746448011970e-01	 2.226300074282676e+01
 1.140767248284079e+00	 1.670855391638732e-01	 2.218744366294612e+01
 1.139253523407924e+00	 1.771127130824143e-01	 2.210692045478380e+01
 1.137646924423618e+00	 1.871550105108311e-01	 2.202133980100619e+01
 1.135946859700894e+00	 1.972112580721202e-01	 2.193060585990123e+01
 1.160539886919274e+00	 9.840777180866553e-02	 2.220494593283759e+01
 1.159649352849477e+00	 1.083986398732407e-01	 2.216067552198603e+01
 1.158669633371616e+00	 1.184125803697580e-01	 2.211218852757475e+01
 1.157600021199167e+00	 1.284485351135913e-01	 2.205942085550767e+01
 1.156439823166441e+00	 1.385054271711586e-01	 2.200230208542439e+01
 1.155188360742158e+00	 1.485821610287161e-01	 2.194075546130289e+01
 1.153844970543131e+00	 1.586776227761783e-01	 2.187469791516587e+01
 1.152409004847614e+00	 1.687906803061209e-01	 2.180404012716942e+01
 1.150879832107828e+00	 1.789201835281091e-01	 2.172868662554816e+01
 1.149256837461185e+00	 1.890649645984795e-01	 2.164853593008285e+01
 1.147539423239738e+00	 1.992238381656877e-01	 2.156348074294197e+01
 1.172263802439096e+00	 9.940189912262562e-02	 2.181325327291868e+01
 1.171364272085521e+00	 1.094936961549277e-01	 2.177191869924214e+01
 1.170374655361896e+00	 1.196087986997555e-01	 2.172665354512029e+01
 1.169294237836624e+00	 1.297461378825745e-01	 2.167738998228145e+01
 1.168122319341590e+00	 1.399046258904898e-01	 2.162405286011209e+01
 1.166858214490929e+00	 1.500831561427458e-01	 2.156655966291139e+01
 1.165501253199900e+00	 1.602806034764031e-01	 2.150482049964751e+01
 1.164050781203412e+00	 1.704958243473517e-01	 2.143873812964655e+01
 1.162506160573733e+00	 1.807276570468045e-01	 2.136820802786134e+01
 1.160866770236885e+00	 1.909749219334007e-01	 2.129311849358021e+01
 1.159132006487223e+00	 2.012364216810316e-01	 2.121335080664368e+01
 1.183987734568912e+00	 1.003960278449584e-01	 2.143975445715597e+01
 1.183079207918759e+00	 1.105887539880022e-01	 2.140117123775457e+01
 1.182079693935309e+00	 1.208050187244944e-01	 2.135892564403212e+01
 1.180988471041877e+00	 1.310437424899742e-01	 2.131294554677708e+01
 1.179804832067916e+00	 1.413038265922161e-01	 2.126315058982222e+01
 1.178528084772962e+00	 1.515841533834341e-01	 2.120945211473471e+01
 1.177157552370706e+00	 1.618835864478165e-01	 2.115175311714130e+01
 1.175692574052703e+00	 1.722009708045488e-01	 2.108994823826773e+01
 1.174132505511260e+00	 1.825351331264727e-01	 2.102392379551054e+01
 1.172476719460989e+00	 1.928848819745101e-01	 2.095355785609494e+01
 1.170724606158547e+00	 2.032490080479686e-01	 2.087872035810306e+01
 1.195711679986658e+00	 1.013901576941382e-01	 2.108280904395334e+01
 1.194794157029669e+00	 1.116838130623494e-01	 2.104680403238297e+01
 1.193784745775133e+00	 1.220012401051997e-01	 2.100738924987026e+01
 1.192682717501272e+00	 1.323413485682879e-01	 2.096448773826841e+01
 1.191487358035089e+00	 1.427030288800431e-01	 2.091801350106284e+01
 1.190197968281516e+00	 1.530851523256348e-01	 2.086787139618772e+01
 1.188813864752661e+00	 1.634865712363637e-01	 2.081395705933128e+01
 1.187334380096720e+00	 1.739061191946957e-01	 2.075615686145394e+01
 1.185758863626025e+00	 1.843426112550855e-01	 2.069434790450562e+01
 1.184086681843773e+00	 1.947948441807227e-01	 2.062839805958910e+01
 1.182317218968909e+00	 2.052615966963149e-01	 2.055816605207071e+01
 1.207435635370270e+00	 1.023842883886396e-01	 2.074085101840642e+01
 1.206509116098730e+00	 1.127788730678544e-01	 2.070726258100657e+01
 1.205489807564653e+00	 1.231974625030961e-01	 2.067050339928588e+01
 1.204376973901154e+00	 1.336389557500126e-01	 2.063049119714545e+01
 1.203169893932780e+00	 1.441022323576766e-01	 2.058713394386915e+01
 1.201867861709848e+00	 1.545861525442017e-01	 2.054032971566504e+01
 1.200470187042880e+00	 1.650895573879897e-01	 2.048996658625474e+01
 1.198976196036694e+00	 1.756112690347754e-01	 2.043592255037597e+01
 1.197385231623647e+00	 1.861500909206150e-01	 2.037806548435045e+01
 1.195696654095510e+00	 1.967048080109537e-01	 2.031625314815604e+01
 1.193909841633505e+00	 2.072741870558874e-01	 2.025033323372253e+01
 1.219159597397682e+00	 1.033784196469368e-01	 2.041238535489808e+01
 1.218224081806422e+00	 1.138739336944021e-01	 2.038106352719935e+01
 1.217194875987150e+00	 1.243936855794088e-01	 2.034679826641092e+01
 1.216071236927868e+00	 1.349365636676459e-01	 2.030950152872078e+01
 1.214852436450660e+00	 1.455014366288226e-01	 2.026907489679635e+01
 1.213537761751219e+00	 1.560871536139887e-01	 2.022540941055767e+01
 1.212126515938472e+00	 1.666925444486398e-01	 2.017838542524790e+01
 1.210618018573860e+00	 1.773164198417713e-01	 2.012787250080283e+01
 1.209011606209746e+00	 1.879575716110334e-01	 2.007372932683587e+01
 1.207306632926473e+00	 1.986147729241184e-01	 2.001580368786771e+01
 1.205502470867534e+00	 2.092867785565024e-01	 1.995393247373960e+01
 1.230883562746831e+00	 1.043725511875043e-01	 2.009598477125617e+01
 1.229939050833223e+00	 1.149689946318778e-01	 2.006679139461931e+01
 1.228899947725906e+00	 1.255899089953627e-01	 2.003487188081816e+01
 1.227765503267758e+00	 1.362341719536851e-01	 2.000013200816370e+01
 1.226534982278399e+00	 1.469006412971867e-01	 1.996246666229625e+01
 1.225207665098888e+00	 1.575881551098497e-01	 1.992175963660647e+01
 1.223782848136552e+00	 1.682955319642590e-01	 1.987788345787660e+01
 1.222259844409447e+00	 1.790215711326668e-01	 1.983069924127642e+01
 1.220637984089939e+00	 1.897650528143125e-01	 1.978005657919179e+01
 1.218916615046936e+00	 2.005247383791319e-01	 1.972579346870451e+01
 1.217095103386193e+00	 2.112993706279765e-01	 1.966773628288292e+01
 1.101169320184234e+00	 1.911735440239112e-01	 2.315259240871584e+01
 1.099430446225561e+00	 2.009326242490697e-01	 2.303741880498980e+01
 1.097599902860971e+00	 2.107029022328595e-01	 2.291716201851850e+01
 1.095677168395206e+00	 2.204831949541056e-01	 2.279178288087601e+01
 1.093661739534489e+00	 2.302723037466017e-01	 2.266124791012410e+01
 1.091553131858639e+00	 2.400690146095722e-01	 2.252552974627271e+01
 1.089350880288478e+00	 2.498720985332967e-01	 2.238460760060311e+01
 1.087054539548005e+00	 2.596803118398872e-01	 2.223846771738527e+01
 1.084663684620814e+00	 2.694923965391824e-01	 2.208710384635115e+01
 1.082177911200225e+00	 2.793070806997097e-01	 2.193051772411597e+01
 1.079596836132600e+00	 2.891230788346412e-01	 2.176871956257148e+01
 1.112761804888340e+00	 1.931861104310484e-01	 2.272220954733372e+01
 1.111004625052853e+00	 2.030479287060296e-01	 2.261352107308216e+01
 1.109154810768120e+00	 2.129210626233846e-01	 2.250005915747697e+01
 1.107211834846767e+00	 2.228043167077371e-01	 2.238184649649660e+01
 1.105175188696621e+00	 2.326964796739771e-01	 2.225884126154984e+01
 1.103044382797795e+00	 2.425963247409915e-01	 2.213100673694228e+01
 1.100818947175019e+00	 2.525026099607166e-01	 2.199831178178791e+01
 1.098498431864670e+00	 2.624140785625021e-01	 2.186073130699247e+01
 1.096082407376011e+00	 2.723294593127534e-01	 2.171824676563700e+01
 1.093570465146044e+00	 2.822474668897976e-01	 2.157084665490548e+01
 1.090962217987501e+00	 2.921668022739037e-01	 2.141852702752052e+01
 1.124354319155494e+00	 1.951986819705127e-01	 2.231629806148608e+01
 1.122578833396494e+00	 2.051632385573932e-01	 2.221453048145100e+01
 1.120709748142462e+00	 2.151392286706804e-01	 2.210830144963763e+01
 1.118746530713894e+00	 2.251254443807648e-01	 2.199752814147110e+01
 1.116688667220207e+00	 2.351206617836016e-01	 2.188212987051475e+01
 1.114535663041798e+00	 2.451236413177078e-01	 2.176202871082564e+01
 1.112287043307289e+00	 2.551331280966435e-01	 2.163715018519405e+01
 1.109942353365432e+00	 2.651478522569642e-01	 2.150745804697933e+01
 1.107501159251138e+00	 2.751665293216079e-01	 2.137311122788470e+01
 1.104963048145085e+00	 2.851878605786680e-01	 2.123411921104442e+01
 1.102327628826365e+00	 2.952105334754761e-01	 2.109046301533896e+01
 1.135946859700894e+00	 1.972112580721202e-01	 2.193060585990123e+01
 1.134153067976876e+00	 2.072785532038455e-01	 2.183526949034643e+01
 1.132264711709853e+00	 2.173573997462660e-01	 2.173585401018608e+01
 1.130281252728181e+00	 2.274465773155129e-01	 2.163226687729247e+01
 1.128202171842857e+00	 2.375448493885780e-01	 2.152441630487024e+01
 1.126026969334549e+00	 2.476509636235806e-01	 2.141221185211213e+01
 1.123755165435761e+00	 2.577636521956769e-01	 2.129556508276317e+01
 1.121386300807606e+00	 2.678816321485986e-01	 2.117439029584269e+01
 1.118919937010637e+00	 2.780036057617879e-01	 2.104860533281605e+01
 1.116355656969199e+00	 2.881282609330751e-01	 2.091813246552695e+01
 1.113693065428734e+00	 2.982542715768248e-01	 2.078289936919020e+01
 1.147539423239738e+00	 1.992238381656877e-01	 2.156348074294198e+01
 1.145727325514390e+00	 2.093938720460714e-01	 2.147412442781271e+01
 1.143819698196151e+00	 2.195755752216612e-01	 2.138104697822021e+01
 1.141815997621227e+00	 2.297677148543051e-01	 2.128414570488196e+01
 1.139715699302183e+00	 2.399690418020086e-01	 2.118331731255575e+01
 1.137518298419949e+00	 2.501782909424696e-01	 2.107845845709676e+01
 1.135223310310902e+00	 2.603941815124155e-01	 2.096946637231288e+01
 1.132830270948507e+00	 2.706154174627303e-01	 2.085623957122095e+01
 1.130338737418952e+00	 2.808406878293355e-01	 2.073867862636734e+01
 1.127748288390237e+00	 2.910686671197731e-01	 2.061668703391057e+01
 1.125058524574150e+00	 3.012980157154155e-01	 2.049017216616781e+01
 1.159132006487223e+00	 2.012364216810316e-01	 2.121335080664367e+01
 1.157301602729428e+00	 2.115091944847557e-01	 2.112956066642329e+01
 1.155374704327215e+00	 2.217937544683852e-01	 2.104238410976781e+01
 1.153350762124629e+00	 2.320888563394657e-01	 2.095170793072342e+01
 1.151229246335796e+00	 2.423932383369966e-01	 2.085741697867484e+01
 1.149009647041900e+00	 2.527056225582346e-01	 2.075939467968932e+01
 1.146691474683182e+00	 2.630247153014589e-01	 2.065752362940104e+01
 1.144274260545451e+00	 2.733492074246848e-01	 2.055168626240586e+01
 1.141757557240525e+00	 2.836777747202930e-01	 2.044176560321693e+01
 1.139140939180050e+00	 2.940090783055166e-01	 2.032764610388230e+01
 1.136424003042155e+00	 3.043417650287146e-01	 2.020921457338665e+01
 1.170724606158547e+00	 2.032490080479686e-01	 2.087872035810306e+01
 1.168875896342381e+00	 2.136245199205835e-01	 2.080011830861903e+01
 1.166929726828901e+00	 2.240119368579574e-01	 2.071844231761548e+01
 1.164885542969982e+00	 2.344100011133185e-01	 2.063356835472591e+01
 1.162742809681307e+00	 2.448174383066446e-01	 2.054536913004078e+01
 1.160501011944302e+00	 2.552329577547355e-01	 2.045371457740322e+01
 1.158159655303070e+00	 2.656552528174058e-01	 2.035847241082618e+01
 1.155718266355756e+00	 2.760830012597871e-01	 2.025950875938366e+01
 1.153176393239799e+00	 2.865148656307023e-01	 2.015668888602889e+01
 1.150533606110489e+00	 2.969494936570597e-01	 2.004987799586169e+01
 1.147789497612289e+00	 3.073855186541881e-01	 1.993894213940752e+01
 1.182317218968909e+00	 2.052615966963149e-01	 2.055816605207071e+01
 1.180450203073641e+00	 2.157398477542396e-01	 2.048440834739472e+01
 1.178484762427066e+00	 2.262301217618974e-01	 2.040786785747424e+01
 1.176420336888885e+00	 2.367311485181875e-01	 2.032840948335012e+01
 1.174256386076326e+00	 2.472416410240553e-01	 2.024589357684351e+01
 1.171992389871057e+00	 2.577602958158316e-01	 2.016017638324153e+01
 1.169627848921035e+00	 2.682857933148556e-01	 2.007111055851149e+01
 1.167162285136737e+00	 2.788167981933624e-01	 1.997854576679361e+01
 1.164595242181217e+00	 2.893519597566059e-01	 1.988232936404351e+01
 1.161926285953406e+00	 2.998899123411568e-01	 1.978230717378797e+01
 1.159155005064094e+00	 3.104292757293020e-01	 1.967832436101400e+01
 1.193909841633505e+00	 2.072741870558874e-01	 2.025033323372253e+01
 1.192024519643600e+00	 2.178551773864089e-01	 2.018110902993864e+01
 1.190039807847570e+00	 2.284483085517244e-01	 2.010937271372447e+01
 1.187955140612934e+00	 2.390522978963969e-01	 2.003497793878968e+01
 1.185769972258465e+00	 2.496658458023313e-01	 1.995777254669329e+01
 1.183483777566067e+00	 2.602876360253830e-01	 1.987759896612637e+01
 1.181096052287546e+00	 2.709163360484072e-01	 1.979429468794168e+01
 1.178606313645709e+00	 2.815505974507359e-01	 1.970769282209287e+01
 1.176014100829222e+00	 2.921890562940456e-01	 1.961762274279173e+01
 1.173318975480652e+00	 3.028303335245621e-01	 1.952391082830500e+01
 1.170520522177113e+00	 3.134730353915224e-01	 1.942638130189170e+01
 1.205502470867534e+00	 2.092867785565024e-01	 1.995393247373960e+01
 1.203598842772650e+00	 2.199705082177766e-01	 1.988896241057282e+01
 1.201594859816268e+00	 2.306664965989581e-01	 1.982173117131502e+01
 1.199489950873725e+00	 2.413734485902705e-01	 1.975208105101938e+01
 1.197283564965334e+00	 2.520900519545753e-01	 1.967984729810207e+01
 1.194975171773232e+00	 2.628149776672491e-01	 1.960485846719184e+01
 1.192564262153073e+00	 2.735468802726601e-01	 1.952693684874143e+01
 1.190050348639989e+00	 2.842843982572328e-01	 1.944589898199287e+01
 1.187432965948257e+00	 2.950261544390639e-01	 1.936155625805915e+01
 1.184711671464076e+00	 3.057707563740302e-01	 1.927371562002333e+01
 1.181886045730884e+00	 3.165167967783151e-01	 1.918218036705736e+01
 1.217095103386193e+00	 2.112993706279765e-01	 1.966773628288292e+01
 1.215173169181184e+00	 2.220858396490275e-01	 1.960677108038138e+01
 1.213149915059019e+00	 2.328846852751176e-01	 1.954377656141460e+01
 1.211024764402856e+00	 2.436945999421323e-01	 1.947858362052847e+01
 1.208797160934544e+00	 2.545142587938903e-01	 1.941101490144891e+01
 1.206466569236455e+00	 2.653423200252899e-01	 1.934088510022477e+01
 1.204032475268085e+00	 2.761774252422130e-01	 1.926800134592968e+01
 1.201494386876892e+00	 2.870181998381784e-01	 1.919216366595957e+01
 1.198851834302765e+00	 2.978632533877028e-01	 1.911316554316229e+01
 1.196104370675531e+00	 3.087111800563152e-01	 1.903079457219934e+01
 1.193251572504952e+00	 3.195605590271466e-01	 1.894483322266700e+01
 1.079596836132600e+00	 2.891230788346412e-01	 2.176871956257147e+01
 1.076920098088306e+00	 2.989390924396748e-01	 2.160186854043843e+01
 1.074147358696508e+00	 3.087538108322573e-01	 2.143009889186408e+01
 1.071278302262107e+00	 3.185659111927625e-01	 2.125339728052888e+01
 1.068312635940559e+00	 3.283740588754407e-01	 2.107176044088018e+01
 1.065250090137686e+00	 3.381769078675460e-01	 2.088519573569173e+01
 1.062090418899424e+00	 3.479731012625524e-01	 2.069372170714529e+01
 1.058833400290978e+00	 3.577612717472354e-01	 2.049736861834069e+01
 1.055478836764839e+00	 3.675400421023816e-01	 2.029617898202060e+01
 1.052026555517164e+00	 3.773080257168628e-01	 2.009086880540969e+01
 1.048476408831977e+00	 3.870638271147915e-01	 1.988337517854438e+01
 1.090962217987501e+00	 2.921668022739037e-01	 2.141852702752052e+01
 1.088257300766870e+00	 3.020861532908331e-01	 2.126143486977389e+01
 1.085455371551130e+00	 3.120041954599260e-01	 2.109968246585679e+01
 1.082556111321715e+00	 3.219195920356861e-01	 2.093322662882557e+01
 1.079559224151166e+00	 3.318309943219940e-01	 2.076203378117262e+01
 1.076464437607160e+00	 3.417370421360704e-01	 2.058608057144399e+01
 1.073271503146360e+00	 3.516363642866718e-01	 2.040535448624274e+01
 1.069980196497551e+00	 3.615275790663009e-01	 2.021985445432916e+01
 1.066590318033548e+00	 3.714092947571869e-01	 2.002960556423697e+01
 1.063101693131315e+00	 3.812801101507722e-01	 1.983623822295458e+01
 1.059514172519796e+00	 3.911386150804162e-01	 1.964089181297963e+01
 1.102327628826365e+00	 2.952105334754761e-01	 2.109046301533896e+01
 1.099594532357578e+00	 3.052332221678238e-01	 2.094228331613351e+01
 1.096763413243508e+00	 3.152545883769107e-01	 2.078967832143123e+01
 1.093833949142106e+00	 3.252732814313357e-01	 2.063257712524507e+01
 1.090805841042993e+00	 3.352879385845767e-01	 2.047091796411439e+01
 1.087678813675691e+00	 3.452971854837861e-01	 2.030464889218258e+01
 1.084452615907577e+00	 3.552996366529683e-01	 2.013372845356703e+01
 1.081127021131017e+00	 3.652938959903181e-01	 1.995812634853272e+01
 1.077701827639137e+00	 3.752785572794725e-01	 1.977815521343837e+01
 1.074176858989701e+00	 3.852522047144083e-01	 1.959589868518107e+01
 1.070551964356567e+00	 3.952134134376968e-01	 1.941174677914914e+01
 1.113693065428734e+00	 2.982542715768248e-01	 2.078289936919019e+01
 1.110931789647947e+00	 3.083802981788286e-01	 2.064300859996569e+01
 1.108071480569414e+00	 3.185049886621151e-01	 2.049873795215220e+01
 1.105111812527599e+00	 3.286269784293486e-01	 2.035015647187837e+01
 1.102052483429192e+00	 3.387448906835726e-01	 2.019717621352376e+01
 1.098893215165552e+00	 3.488573369018403e-01	 2.003971863351069e+01
 1.095633754014766e+00	 3.589629173233727e-01	 1.987771532266918e+01
 1.092273871032768e+00	 3.690602214520252e-01	 1.971110873415519e+01
 1.088813362432993e+00	 3.791478285728104e-01	 1.954091640485436e+01
 1.085252049954001e+00	 3.892243082822078e-01	 1.936886735204095e+01
 1.081589781214555e+00	 3.992882210319683e-01	 1.919499744870776e+01
 1.125058524574150e+00	 3.012980157154155e-01	 2.049017216616781e+01
 1.122269069425491e+00	 3.115273804320288e-01	 2.035923380261530e+01
 1.119379570324622e+00	 3.217553953944434e-01	 2.022391931896329e+01
 1.116389698282513e+00	 3.319806820793615e-01	 2.008406713373235e+01
 1.113299148122914e+00	 3.422018496393653e-01	 1.993952504378508e+01
 1.110107638899018e+00	 3.524174953813802e-01	 1.979017556158905e+01
 1.106814914299611e+00	 3.626262052598160e-01	 1.963625363835216e+01
 1.103420743044195e+00	 3.728265543841602e-01	 1.947787271597470e+01
 1.099924919266505e+00	 3.830171075407729e-01	 1.931692125313613e+01
 1.096327262885893e+00	 3.931964197286073e-01	 1.915421642696401e+01
 1.092627619966026e+00	 4.033630367085647e-01	 1.898975454948384e+01
 1.136424003042155e+00	 3.043417650287146e-01	 2.020921457338666e+01
 1.133606368477726e+00	 3.146744680356061e-01	 2.008657208989884e+01
 1.130687679304909e+00	 3.250058076528001e-01	 1.995976435011580e+01
 1.127667603211168e+00	 3.353343914310122e-01	 1.982860253415185e+01
 1.124545831937314e+00	 3.456588144723388e-01	 1.969290579350694e+01
 1.121322081698363e+00	 3.559776599135531e-01	 1.955250286440838e+01
 1.117996093593801e+00	 3.662894994242290e-01	 1.940723380353087e+01
 1.114567634006689e+00	 3.765928937194614e-01	 1.925747327348997e+01
 1.111036494991061e+00	 3.868863930869320e-01	 1.910525580652223e+01
 1.107402494647056e+00	 3.971685379280430e-01	 1.895107037811126e+01
 1.103665477483243e+00	 4.074378593128205e-01	 1.879517944920442e+01
 1.147789497612289e+00	 3.073855186541881e-01	 1.993894213940751e+01
 1.144943683592167e+00	 3.178215600977420e-01	 1.982398612489391e+01
 1.141995804306047e+00	 3.282562245160893e-01	 1.970505812438257e+01
 1.138945524117883e+00	 3.386881055339375e-01	 1.958194444145118e+01
 1.135792531685543e+00	 3.491157842028766e-01	 1.945443789634908e+01
 1.132536540385862e+00	 3.595378294895065e-01	 1.932233943984354e+01
 1.129177288729021e+00	 3.699527987785430e-01	 1.918545989547007e+01
 1.125714540761640e+00	 3.803592383906670e-01	 1.904495246640470e+01
 1.122148086458048e+00	 3.907556841148602e-01	 1.890228170968356e+01
 1.118477742099169e+00	 4.011406617549517e-01	 1.875738267726001e+01
 1.114703350638471e+00	 4.115126876900703e-01	 1.861019524155492e+01
 1.159155005064094e+00	 3.104292757293020e-01	 1.967832436101401e+01
 1.156281011556331e+00	 3.209686557266182e-01	 1.957049103636093e+01
 1.153303942123809e+00	 3.315066450632148e-01	 1.945886108820943e+01
 1.150223457806979e+00	 3.420418234377749e-01	 1.934319829122386e+01
 1.147039244180752e+00	 3.525727578513627e-01	 1.922327143356426e+01
 1.143751011783789e+00	 3.630980031003874e-01	 1.909885592375373e+01
 1.140358496536961e+00	 3.736161022846889e-01	 1.896987010144749e+01
 1.136861460150441e+00	 3.841255873305150e-01	 1.883818856418220e+01
 1.133259690518855e+00	 3.946249795281298e-01	 1.870440547011368e+01
 1.129553002103912e+00	 4.051127900837697e-01	 1.856843618488770e+01
 1.125741236303975e+00	 4.155875206856484e-01	 1.843020279687993e+01
 1.170520522177113e+00	 3.134730353915224e-01	 1.942638130189169e+01
 1.167618349157731e+00	 3.241157540304160e-01	 1.932515032888074e+01
 1.164612089553972e+00	 3.347570683730812e-01	 1.922027988262352e+01
 1.161501401082773e+00	 3.453955441921612e-01	 1.911151354849353e+01
 1.158285966236097e+00	 3.560297344381810e-01	 1.899859837306897e+01
 1.154965492714420e+00	 3.666581797373434e-01	 1.888128645626659e+01
 1.151539713849305e+00	 3.772794089045976e-01	 1.875993876300702e+01
 1.148008389014483e+00	 3.878919394717440e-01	 1.863646757552074e+01
 1.144371304024871e+00	 3.984942782303128e-01	 1.851094371034814e+01
 1.140628271522962e+00	 4.090849217889340e-01	 1.838326781358903e+01
 1.136779131352019e+00	 4.196623571448892e-01	 1.825334646081435e+01
 1.181886045730884e+00	 3.165167967783151e-01	 1.918218036705736e+01
 1.178955693183884e+00	 3.272628541173172e-01	 1.908707268869043e+01
 1.175920243392309e+00	 3.380074935245925e-01	 1.898846417898577e+01
 1.172779350749585e+00	 3.487492668467337e-01	 1.888608057184490e+01
 1.169532694664726e+00	 3.594867129837150e-01	 1.877964946036763e+01
 1.166179980000026e+00	 3.702183583915215e-01	 1.866890186621324e+01
 1.162720937497741e+00	 3.809427176002000e-01	 1.855495100356045e+01
 1.159155324195156e+00	 3.916582937470918e-01	 1.843910153583583e+01
 1.155482923827483e+00	 4.023635791249817e-01	 1.832123746584779e+01
 1.151703547218000e+00	 4.130570557448806e-01	 1.820124697913934e+01
 1.147817032654868e+00	 4.237371959131274e-01	 1.807902336613375e+01
 1.193251572504952e+00	 3.195605590271466e-01	 1.894483322266699e+01
 1.190293040422305e+00	 3.304099550955031e-01	 1.885540893081339e+01
 1.187228400434594e+00	 3.412579195966530e-01	 1.876260365201004e+01
 1.184057303611736e+00	 3.521029904511300e-01	 1.866612761085718e+01
 1.180779426279795e+00	 3.629436925083490e-01	 1.856569123888577e+01
 1.177394470462885e+00	 3.737785380540692e-01	 1.846114127467193e+01
 1.173902164313956e+00	 3.846060273334274e-01	 1.835421482651083e+01
 1.170302262533851e+00	 3.954246490892965e-01	 1.824542631092083e+01
 1.166594546778079e+00	 4.062328811157084e-01	 1.813464992508160e+01
 1.162778826050703e+00	 4.170291908260462e-01	 1.802176361274389e+01
 1.158854937084785e+00	 4.278120358356972e-01	 1.790664956670790e+01
 1.048476408831977e+00	 3.870638271147915e-01	 1.988337517854438e+01
 1.044827645737777e+00	 3.968076974601034e-01	 1.967271877618101e+01
 1.041080764274857e+00	 4.065365644098159e-01	 1.945789978680974e+01
 1.037235693189170e+00	 4.162490079758815e-01	 1.923903186692960e+01
 1.033292387578760e+00	 4.259436015156521e-01	 1.901623461429447e+01
 1.029250829170564e+00	 4.356189123200683e-01	 1.878963343349972e+01
 1.025111026582097e+00	 4.452735022128154e-01	 1.855935941088105e+01
 1.020873015567573e+00	 4.549059281600142e-01	 1.832554920075312e+01
 1.016536859248014e+00	 4.645147428899974e-01	 1.808834492497837e+01
 1.012102648324919e+00	 4.740984955226986e-01	 1.784789408780116e+01
 1.007570501277092e+00	 4.836557322081607e-01	 1.760434950781496e+01
 1.059514172519796e+00	 3.911386150804162e-01	 1.964089181297963e+01
 1.055826997321678e+00	 4.009850633541847e-01	 1.944248202718374e+01
 1.052040670820348e+00	 4.108163502852116e-01	 1.924002272511034e+01
 1.048155121011650e+00	 4.206310409366145e-01	 1.903361846172716e+01
 1.044170302520938e+00	 4.304276936468540e-01	 1.882338051388938e+01
 1.040086196882790e+00	 4.402048606241157e-01	 1.860942674277445e+01
 1.035902812805455e+00	 4.499610885517731e-01	 1.839188146552960e+01
 1.031620186419559e+00	 4.596949192044985e-01	 1.817087533829685e+01
 1.027238381510639e+00	 4.694048900745626e-01	 1.794654525274256e+01
 1.022757489735061e+00	 4.790895350078492e-01	 1.771903424816363e+01
 1.018177630818916e+00	 4.887473848490864e-01	 1.748849144117086e+01
 1.070551964356567e+00	 3.952134134376968e-01	 1.941174677914914e+01
 1.066826376956591e+00	 4.051624399015419e-01	 1.922464182942140e+01
 1.063000605316269e+00	 4.150961470751097e-01	 1.903362867323767e+01
 1.059074576681333e+00	 4.250130850726420e-01	 1.883880346393250e+01
 1.055048245204449e+00	 4.349117972136679e-01	 1.864026969090835e+01
 1.050921592227840e+00	 4.447908206235768e-01	 1.843813803443766e+01
 1.046694626550490e+00	 4.546486868453900e-01	 1.823252622979481e+01
 1.042367384679441e+00	 4.644839224622894e-01	 1.802355894303761e+01
 1.037939931064749e+00	 4.742950497304430e-01	 1.781136766072133e+01
 1.033412358317650e+00	 4.840805872216433e-01	 1.759609059577117e+01
 1.028784787411531e+00	 4.938390504752620e-01	 1.737787261166382e+01
 1.081589781214555e+00	 3.992882210319683e-01	 1.919499744870776e+01
 1.077825781525665e+00	 4.093398259184397e-01	 1.901829225311158e+01
 1.073960564656944e+00	 4.193759535667466e-01	 1.883784301250301e+01
 1.069994057104019e+00	 4.293951391422194e-01	 1.865373818960152e+01
 1.065926212546861e+00	 4.393959109454191e-01	 1.846607403409227e+01
 1.061757012135345e+00	 4.493767910189037e-01	 1.827495442524652e+01
 1.057486464759189e+00	 4.593362957653061e-01	 1.808049072420333e+01
 1.053114607301854e+00	 4.692729365762816e-01	 1.788280163840756e+01
 1.048641504877916e+00	 4.791852204718580e-01	 1.768201310065930e+01
 1.044067251053487e+00	 4.890716507497009e-01	 1.747825816517323e+01
 1.039391968049255e+00	 4.989307276437896e-01	 1.727167692296707e+01
 1.092627619966026e+00	 4.033630367085647e-01	 1.898975454948384e+01
 1.088825207912048e+00	 4.135172202211431e-01	 1.882257916300684e+01
 1.084920545736703e+00	 4.236557685473593e-01	 1.865184156084044e+01
 1.080913559185507e+00	 4.337772019036022e-01	 1.847762323907682e+01
 1.076804201465744e+00	 4.438800335714339e-01	 1.830001377140688e+01
 1.072592453534935e+00	 4.539627705105492e-01	 1.811911063493603e+01
 1.068278324373537e+00	 4.640239139831614e-01	 1.793501904620639e+01
 1.063861851241428e+00	 4.740619601893685e-01	 1.774785181011338e+01
 1.059343099917711e+00	 4.840754009130265e-01	 1.755772918436374e+01
 1.054722164923374e+00	 4.940627241776425e-01	 1.736477876206432e+01
 1.049999169726409e+00	 5.040224149117716e-01	 1.716913537494769e+01
 1.103665477483243e+00	 4.074378593128205e-01	 1.879517944920442e+01
 1.099824652998885e+00	 4.176946216259161e-01	 1.863669755824646e+01
 1.095880545449869e+00	 4.279355908041845e-01	 1.847484795862737e+01
 1.091833079831597e+00	 4.381592721150457e-01	 1.830970591861320e+01
 1.087682208878666e+00	 4.483641638210374e-01	 1.814135491730997e+01
 1.083427913356241e+00	 4.585487577989650e-01	 1.796988644897282e+01
 1.079070202335518e+00	 4.687115401705960e-01	 1.779539983827782e+01
 1.074609113452798e+00	 4.788509919444440e-01	 1.761800206945654e+01
 1.070044713151706e+00	 4.889655896681674e-01	 1.743780763215322e+01
 1.065377096908112e+00	 4.990538060910881e-01	 1.725493838680157e+01
 1.060606389437311e+00	 5.091141108363100e-01	 1.706952345223398e+01
 1.114703350638471e+00	 4.115126876900703e-01	 1.861019524155492e+01
 1.110824113669326e+00	 4.218720289490240e-01	 1.845988905097399e+01
 1.106840560690770e+00	 4.322154191244589e-01	 1.830613118988165e+01
 1.102752615948090e+00	 4.425413485348055e-01	 1.814927779460426e+01
 1.098560231703194e+00	 4.528483004235553e-01	 1.798940685045954e+01
 1.094263388528892e+00	 4.631347515846035e-01	 1.782660431020443e+01
 1.089862095587119e+00	 4.733991729992497e-01	 1.766096388397862e+01
 1.085356390890596e+00	 4.836400304844022e-01	 1.749258684430921e+01
 1.080746341547473e+00	 4.938557853515000e-01	 1.732158184926746e+01
 1.076032043988500e+00	 5.040448950756576e-01	 1.714806478680404e+01
 1.071213624176282e+00	 5.142058139745068e-01	 1.697215864319943e+01
 1.125741236303975e+00	 4.155875206856484e-01	 1.843020279687993e+01
 1.121823586806519e+00	 4.260494410067313e-01	 1.828895364444479e+01
 1.117800588353732e+00	 4.364952522954190e-01	 1.814405112648537e+01
 1.113672164440786e+00	 4.469234299211367e-01	 1.799553528720561e+01
 1.109438266856897e+00	 4.573324421083132e-01	 1.784352001291435e+01
 1.105098875982519e+00	 4.677207505679165e-01	 1.768862703056247e+01
 1.100654001070325e+00	 4.780868111407626e-01	 1.753108182321228e+01
 1.096103680509453e+00	 4.884290744521367e-01	 1.737098008899062e+01
 1.091447982072582e+00	 4.987459865772429e-01	 1.720842462146124e+01
 1.086687003145341e+00	 5.090359897169713e-01	 1.704352512899359e+01
 1.081820870937641e+00	 5.192975228834644e-01	 1.687639808041936e+01
 1.136779131352019e+00	 4.196623571448892e-01	 1.825334646081435e+01
 1.132823069293611e+00	 4.302268566153025e-01	 1.812051602528189e+01
 1.128760625333080e+00	 4.407750891043017e-01	 1.798422386870007e+01
 1.124591722215484e+00	 4.513055150322948e-01	 1.784449323696630e+01
 1.120316311257342e+00	 4.618165876046367e-01	 1.770136423622510e+01
 1.115934372646752e+00	 4.723067534493565e-01	 1.755489447932212e+01
 1.111445915727119e+00	 4.827744532667745e-01	 1.740515974827766e+01
 1.106850979264005e+00	 4.932181224905422e-01	 1.725259310496748e+01
 1.102149631694606e+00	 5.036361919596153e-01	 1.709774592168751e+01
 1.097341971359436e+00	 5.140270886006494e-01	 1.694072378412472e+01
 1.092428126715707e+00	 5.243892361202850e-01	 1.678163629434835e+01
 1.147817032654868e+00	 4.237371959131274e-01	 1.807902336613375e+01
 1.143822558013748e+00	 4.344042745910021e-01	 1.795399716053269e+01
 1.139720668523142e+00	 4.450549283383435e-01	 1.782570575766671e+01
 1.135511286177985e+00	 4.556876026265353e-01	 1.769415579091093e+01
 1.131194361822098e+00	 4.663007356418513e-01	 1.755937016785185e+01
 1.126769875451220e+00	 4.768927589293754e-01	 1.742138872029786e+01
 1.122237836499490e+00	 4.874620980489254e-01	 1.728026887210687e+01
 1.117598284108881e+00	 4.980071732425120e-01	 1.713608632537213e+01
 1.112851287381117e+00	 5.085264001128363e-01	 1.698893576544966e+01
 1.107996945611583e+00	 5.190181903123116e-01	 1.683910021547669e+01
 1.103035388504801e+00	 5.294809522420707e-01	 1.668730307260447e+01
 1.158854937084785e+00	 4.278120358356972e-01	 1.790664956670790e+01
 1.154822049850080e+00	 4.385816937500952e-01	 1.778883716877735e+01
 1.150680714818244e+00	 4.493347687847815e-01	 1.766795750308436e+01
 1.146430853234088e+00	 4.600696914621136e-01	 1.754400078437649e+01
 1.142072415468732e+00	 4.707848849492828e-01	 1.741697275613425e+01
 1.137605381325554e+00	 4.814787657084257e-01	 1.728689534058858e+01
 1.133029760329420e+00	 4.921497441588556e-01	 1.715380730853305e+01
 1.128345591998717e+00	 5.027962253509403e-01	 1.701776496962352e+01
 1.123552946099686e+00	 5.134166096511249e-01	 1.687884288379790e+01
 1.118651922882586e+00	 5.240092934375784e-01	 1.673713459437392e+01
 1.113642653299240e+00	 5.345726698059234e-01	 1.659275338329679e+01
 1.007570501277092e+00	 4.836557322081607e-01	 1.760434950781497e+01
 1.002941359725802e+00	 4.931833793523275e-01	 1.735810454006963e+01
 9.982146354864559e-01	 5.026816062779448e-01	 1.710946733850805e+01
 9.933905305655590e-01	 5.121489543569863e-01	 1.685859262380898e+01
 9.884692753428458e-01	 5.215839646085714e-01	 1.660563616017794e+01
 9.834511286789298e-01	 5.309851783747742e-01	 1.635075476291538e+01
 9.783363780040307e-01	 5.403511380022610e-01	 1.609410633726939e+01
 9.731253393874821e-01	 5.496803875291462e-01	 1.583584994962306e+01
 9.678183575877733e-01	 5.589714733764497e-01	 1.557614593186430e+01
 9.624158060828780e-01	 5.682229450435161e-01	 1.531515601957266e+01
 9.569180870806602e-01	 5.774333558067543e-01	 1.505304352443260e+01
 1.018177630818916e+00	 4.887473848490864e-01	 1.748849144117086e+01
 1.013499756296339e+00	 4.983753336471590e-01	 1.725523307216217e+01
 1.008723271790660e+00	 5.079735525073387e-01	 1.701949092342221e+01
 1.003848381434984e+00	 5.175405674459869e-01	 1.678141031056709e+01
 9.988753180343463e-01	 5.270749041228945e-01	 1.654113659431273e+01
 9.938043431744911e-01	 5.365750885242080e-01	 1.629881518163789e+01
 9.886357473115310e-01	 5.460396476512410e-01	 1.605459156177393e+01
 9.833698498421928e-01	 5.554671102145627e-01	 1.580861137819945e+01
 9.780069991543772e-01	 5.648560073327327e-01	 1.556102053760315e+01
 9.725475726578156e-01	 5.742048732350428e-01	 1.531196535654834e+01
 9.669919767945795e-01	 5.835122459676111e-01	 1.506159274633015e+01
 1.028784787411531e+00	 4.938390504752620e-01	 1.737787261166382e+01
 1.024058179793417e+00	 5.035673011830398e-01	 1.715693166328538e+01
 1.019231934894540e+00	 5.132655122327814e-01	 1.693340317842434e+01
 1.014306258974614e+00	 5.229321942851962e-01	 1.670742475101978e+01
 1.009281387263975e+00	 5.325658576407098e-01	 1.647913336708803e+01
 1.004157584073502e+00	 5.421650129295027e-01	 1.624866539988566e+01
 9.989351428852056e-01	 5.517281718074987e-01	 1.601615664308876e+01
 9.936143864232080e-01	 5.612538476576830e-01	 1.578174238329774e+01
 9.881956667048325e-01	 5.707405562961183e-01	 1.554555751294563e+01
 9.826793650715714e-01	 5.801868166820052e-01	 1.530773668444402e+01
 9.770658921997131e-01	 5.895911516311348e-01	 1.506841450614021e+01
 1.039391968049255e+00	 4.989307276437896e-01	 1.727167692296707e+01
 1.034616627225157e+00	 5.087592804886460e-01	 1.706237559436141e+01
 1.029740621820315e+00	 5.185574839546108e-01	 1.685038095807042e+01
 1.024764160221050e+00	 5.283238333467093e-01	 1.663582455360368e+01
 1.019687480083004e+00	 5.380568236059682e-01	 1.641883699595053e+01
 1.014510848442193e+00	 5.477549500065677e-01	 1.619954796502989e+01
 1.009234561806533e+00	 5.574167088590082e-01	 1.597808623600877e+01
 1.003858946227547e+00	 5.670405982186584e-01	 1.575457975193045e+01
 9.983843573519838e-01	 5.766251185990490e-01	 1.552915573984642e+01
 9.928111804531062e-01	 5.861687736892578e-01	 1.530194087138856e+01
 9.871398304414253e-01	 5.956700710747139e-01	 1.507306146843792e+01
 1.049999169726409e+00	 5.040224149117716e-01	 1.716913537494769e+01
 1.045175095599685e+00	 5.139512700926515e-01	 1.697078747139319e+01
 1.040249329590202e+00	 5.238494661731644e-01	 1.676964826582120e+01
 1.035222082210891e+00	 5.337154831026212e-01	 1.656584489676781e+01
 1.030093593542702e+00	 5.435478004626196e-01	 1.635950358935730e+01
 1.024864133346795e+00	 5.533448981713114e-01	 1.615074963920684e+01
 1.019534001156993e+00	 5.631052571937438e-01	 1.593970743972898e+01
 1.014103526352226e+00	 5.728273602576388e-01	 1.572650055440424e+01
 1.008573068208676e+00	 5.825096925739677e-01	 1.551125183533928e+01
 1.002943015931381e+00	 5.921507425616539e-01	 1.529408358914735e+01
 9.972137886650820e-01	 6.017490025757368e-01	 1.507511779089710e+01
 1.060606389437311e+00	 5.091141108363100e-01	 1.706952345223398e+01
 1.055733581925126e+00	 5.191432685237317e-01	 1.688143458464377e+01
 1.050758055226419e+00	 5.291414573887798e-01	 1.669047360490621e+01
 1.045680021980736e+00	 5.391071420250266e-01	 1.649676489254331e+01
 1.040499724694340e+00	 5.490387866546150e-01	 1.630043224400505e+01
 1.035217435853538e+00	 5.589348558396432e-01	 1.610159885107651e+01
 1.029833458018065e+00	 5.687938151996800e-01	 1.590038732490052e+01
 1.024348123894264e+00	 5.786141321347756e-01	 1.569691976732436e+01
 1.018761796387754e+00	 5.883942765533161e-01	 1.549131789100593e+01
 1.013074868635356e+00	 5.981327216040473e-01	 1.528370318942285e+01
 1.007287764016048e+00	 6.078279444115926e-01	 1.507419715761988e+01
 1.071213624176282e+00	 5.142058139745068e-01	 1.697215864319943e+01
 1.066292083209603e+00	 5.243352743105610e-01	 1.679362639945816e+01
 1.061266795751183e+00	 5.344334561017952e-01	 1.661216746082697e+01
 1.056137976567184e+00	 5.444988085860203e-01	 1.642790508052431e+01
 1.050905870589189e+00	 5.545297806259049e-01	 1.624096257002231e+01
 1.045570753028652e+00	 5.645248214274717e-01	 1.605146327188083e+01
 1.040132929471228e+00	 5.744823812647907e-01	 1.585953058011757e+01
 1.034592735950678e+00	 5.844009122102196e-01	 1.566528800996161e+01
 1.028950539002062e+00	 5.942788688695376e-01	 1.546885931855017e+01
 1.023206735693992e+00	 6.041147091212918e-01	 1.527036867782004e+01
 1.017361753639688e+00	 6.139068948596698e-01	 1.506994090052161e+01
 1.081820870937641e+00	 5.192975228834644e-01	 1.687639808041936e+01
 1.076850596461240e+00	 5.295272859818150e-01	 1.670671216969960e+01
 1.071775548186711e+00	 5.397254608125477e-01	 1.653407990647130e+01
 1.066595943006836e+00	 5.498904812576972e-01	 1.635862504331575e+01
 1.061312028278518e+00	 5.600207808204396e-01	 1.618047233534834e+01
 1.055924081938368e+00	 5.701147933507065e-01	 1.599974750727864e+01
 1.050432412597963e+00	 5.801709537770503e-01	 1.581657726964436e+01
 1.044837359618485e+00	 5.901876988441208e-01	 1.563108938620735e+01
 1.039139293164446e+00	 6.001634678550744e-01	 1.544341279419876e+01
 1.033338614236248e+00	 6.100967034182412e-01	 1.525367777877872e+01
 1.027435754681365e+00	 6.199858521973568e-01	 1.506201620273330e+01
 1.092428126715707e+00	 5.243892361202850e-01	 1.678163629434835e+01
 1.087409118688162e+00	 5.347193020661679e-01	 1.662007866547141e+01
 1.082284309555221e+00	 5.450174700213756e-01	 1.645559832151121e+01
 1.077053918336291e+00	 5.552821585121521e-01	 1.628832113519875e+01
 1.071718194813599e+00	 5.655117856821701e-01	 1.611837522120341e+01
 1.066277419648916e+00	 5.757047700252556e-01	 1.594589089709217e+01
 1.060731904479748e+00	 5.858595311244336e-01	 1.577100069482864e+01
 1.055081991994704e+00	 5.959744903966312e-01	 1.559383942494683e+01
 1.049328055987749e+00	 6.060480718423689e-01	 1.541454429521875e+01
 1.043470501391087e+00	 6.160787027997493e-01	 1.523325508529649e+01
 1.037509764286448e+00	 6.260648147020429e-01	 1.505011437845242e+01
 1.103035388504801e+00	 5.294809522420707e-01	 1.668730307260447e+01
 1.097967646898495e+00	 5.399113210922951e-01	 1.653314800743860e+01
 1.092793076878932e+00	 5.503094822286160e-01	 1.637614521839742e+01
 1.087511899592148e+00	 5.606738388214801e-01	 1.621642431639786e+01
 1.082124367245701e+00	 5.710027936550465e-01	 1.605411868118028e+01
 1.076630763226527e+00	 5.812947498670287e-01	 1.588936541570989e+01
 1.071031402198063e+00	 5.915481116949141e-01	 1.572230535222695e+01
 1.065326630176351e+00	 6.017612852279003e-01	 1.555308311223136e+01
 1.059516824584817e+00	 6.119326791638638e-01	 1.538184722235740e+01
 1.053602394287470e+00	 6.220607055706701e-01	 1.520875028774020e+01
 1.047583779600299e+00	 6.321437806511163e-01	 1.503394922410192e+01
 1.113642653299240e+00	 5.345726698059234e-01	 1.659275338329679e+01
 1.108526178100360e+00	 5.451033415888710e-01	 1.644537560064672e+01
 1.103301847180059e+00	 5.556014959346071e-01	 1.629517616784987e+01
 1.097969883811006e+00	 5.660655206577758e-01	 1.614239808591693e+01
 1.092530542626095e+00	 5.764938031830196e-01	 1.598718189705286e+01
 1.086984109737430e+00	 5.868847312919343e-01	 1.582967366643898e+01
 1.081330902834387e+00	 5.972366938764667e-01	 1.567002498200151e+01
 1.075571271260445e+00	 6.075480816980797e-01	 1.550839300913557e+01
 1.069705596068494e+00	 6.178172881520017e-01	 1.534494060248088e+01
 1.063734290054355e+00	 6.280427100358570e-01	 1.517983647647935e+01
 1.057657797768284e+00	 6.382227483219658e-01	 1.501325543604943e+01
 9.569180870806602e-01	 5.774333558067543e-01	 1.505304352443260e+01
 9.513256317403318e-01	 5.866012636038084e-01	 1.478980620705830e+01
 9.456389008319519e-01	 5.957252322965895e-01	 1.452549268003762e+01
 9.398583839848429e-01	 6.048038318471516e-01	 1.426034780029294e+01
 9.339845993830925e-01	 6.138356388423952e-01	 1.399462189888427e+01
 9.280180936725346e-01	 6.228192371985718e-01	 1.372857103927284e+01
 9.219594418470507e-01	 6.317532188649768e-01	 1.346245730249092e+01
 9.158092471141666e-01	 6.406361845261336e-01	 1.319654909793771e+01
 9.095681407399252e-01	 6.494667443017578e-01	 1.293112149826261e+01
 9.032367818730713e-01	 6.582435184438015e-01	 1.266645659654192e+01
 8.968158573485796e-01	 6.669651380298567e-01	 1.240284388370477e+01
 9.669919767945795e-01	 5.835122459676111e-01	 1.506159274633015e+01
 9.613406472628766e-01	 5.927766682868658e-01	 1.480993506637101e+01
 9.555940496835016e-01	 6.019966889358785e-01	 1.455709165019652e+01
 9.497526788403324e-01	 6.111708628220862e-01	 1.430331487318716e+01
 9.438170583726181e-01	 6.202977515475145e-01	 1.404886320385901e+01
 9.377877406809841e-01	 6.293759241206996e-01	 1.379400146695042e+01
 9.316653068125367e-01	 6.384039576677890e-01	 1.353900113510465e+01
 9.254503663250420e-01	 6.473804381421170e-01	 1.328414064783994e+01
 9.191435571301683e-01	 6.563039610315404e-01	 1.302970575622225e+01
 9.127455453158193e-01	 6.651731320628166e-01	 1.277598989138619e+01
 9.062570249475932e-01	 6.739865679023106e-01	 1.252329455478089e+01
 9.770658921997131e-01	 5.895911516311348e-01	 1.506841450614021e+01
 9.713556883264696e-01	 5.989520887186807e-01	 1.482767510912607e+01
 9.655492239233869e-01	 6.082681615688377e-01	 1.458567840132157e+01
 9.596469989289126e-01	 6.175379100343872e-01	 1.434267725669160e+01
 9.536495424374763e-01	 6.267598807324443e-01	 1.409893074107424e+01
 9.475574126045134e-01	 6.359326277637909e-01	 1.385470438748250e+01
 9.413711965303718e-01	 6.450547134313903e-01	 1.361027050262768e+01
 9.350915101230793e-01	 6.541247089573511e-01	 1.336590850331926e+01
 9.287189979399498e-01	 6.631411951976338e-01	 1.312190528110575e+01
 9.222543330080655e-01	 6.721027633537651e-01	 1.287855559322630e+01
 9.156982166236715e-01	 6.810080156808476e-01	 1.263616247765918e+01
 9.871398304414253e-01	 5.956700710747139e-01	 1.507306146843793e+01
 9.813707520931674e-01	 6.051275231493034e-01	 1.484265906453954e+01
 9.755044207306413e-01	 6.145396484183117e-01	 1.461095265694926e+01
 9.695413414468789e-01	 6.239049716798312e-01	 1.437818882203502e+01
 9.634820487915045e-01	 6.332220245660299e-01	 1.414461991498584e+01
 9.573271066747772e-01	 6.424893462699049e-01	 1.391050436459772e+01
 9.510771082503056e-01	 6.517054842712011e-01	 1.367610700283822e+01
 9.447326757763930e-01	 6.608689950607688e-01	 1.344169942780536e+01
 9.382944604560168e-01	 6.699784448626382e-01	 1.320756039838194e+01
 9.317631422554569e-01	 6.790324103530745e-01	 1.297397625857286e+01
 9.251394297016218e-01	 6.880294793758842e-01	 1.274124138920428e+01
 9.972137886650820e-01	 6.017490025757368e-01	 1.507511779089711e+01
 9.913858357250274e-01	 6.113029698287864e-01	 1.485454793240889e+01
 9.854596372842997e-01	 6.208111477071470e-01	 1.463263973544099e+01
 9.794357035905263e-01	 6.302720459541931e-01	 1.440962689765927e+01
 9.733145746485375e-01	 6.396841812171172e-01	 1.418574797869261e+01
 9.670968201234310e-01	 6.490460777811012e-01	 1.396124672155081e+01
 9.607830392220854e-01	 6.583562683026418e-01	 1.373637241331075e+01
 9.543738605530949e-01	 6.676132945413020e-01	 1.351138028363833e+01
 9.478699419651152e-01	 6.768157080891537e-01	 1.328653193937957e+01
 9.412719703636387e-01	 6.859620710971716e-01	 1.306209583311090e+01
 9.345806615062522e-01	 6.950509569978370e-01	 1.283834776320997e+01
 1.007287764016048e+00	 6.078279444115926e-01	 1.507419715761988e+01
 1.001400936384107e+00	 6.174784270071804e-01	 1.486302917034740e+01
 9.954148707633970e-01	 6.270826576581893e-01	 1.465048886508953e+01
 9.893300825561507e-01	 6.366391310532494e-01	 1.443679068662066e+01
 9.831471172224132e-01	 6.461463488545525e-01	 1.422215252852788e+01
 9.768665501821291e-01	 6.556028204394388e-01	 1.400679608829453e+01
 9.704889866954589e-01	 6.650070636411326e-01	 1.379094726706872e+01
 9.640150617212996e-01	 6.743576054878841e-01	 1.357483661263681e+01
 9.574454397539931e-01	 6.836529829397817e-01	 1.335869980375281e+01
 9.507808146382570e-01	 6.928917436224833e-01	 1.314277817361181e+01
 9.440219093623695e-01	 7.020724465571221e-01	 1.292731926989284e+01
 1.017361753639688e+00	 6.139068948596698e-01	 1.506994090052161e+01
 1.011416051232463e+00	 6.236538929345369e-01	 1.486781495968054e+01
 1.005370118346968e+00	 6.333541764942843e-01	 1.466427157007084e+01
 9.992244755400475e-01	 6.430062251727759e-01	 1.445949974856834e+01
 9.929796737269679e-01	 6.526085256471812e-01	 1.425369005848433e+01
 9.866362940825272e-01	 6.621595723869776e-01	 1.404703500523277e+01
 9.801949479201758e-01	 6.716578684020942e-01	 1.383972948303235e+01
 9.736562765491191e-01	 6.811019259894474e-01	 1.363197127110325e+01
 9.670209511093968e-01	 6.904902674771215e-01	 1.342396157742636e+01
 9.602896723849579e-01	 6.998214259654365e-01	 1.321590562773399e+01
 9.534631705947822e-01	 7.090939460641568e-01	 1.300801329701367e+01
 1.027435754681365e+00	 6.199858521973568e-01	 1.506201620273330e+01
 1.021431177432151e+00	 6.298293658609070e-01	 1.486864054461023e+01
 1.015325377214048e+00	 6.396257024382778e-01	 1.467378012238272e+01
 1.009118879738512e+00	 6.493733265085493e-01	 1.447759254187434e+01
 1.002812241376037e+00	 6.590707097638493e-01	 1.428023457036973e+01
 9.964060490562801e-01	 6.687163317657763e-01	 1.408186257967724e+01
 9.899009201459833e-01	 6.783086807009463e-01	 1.388263304750277e+01
 9.832975023046671e-01	 6.878462541349248e-01	 1.368270311553578e+01
 9.765964733180726e-01	 6.973275597637734e-01	 1.348223120221898e+01
 9.697985409093876e-01	 7.067511161624589e-01	 1.328137766774552e+01
 9.629044425282970e-01	 7.161154535293569e-01	 1.308030552840415e+01
 1.037509764286448e+00	 6.260648147020429e-01	 1.505011437845242e+01
 1.031446312145230e+00	 6.360048440363424e-01	 1.486526263967363e+01
 1.025280644543671e+00	 6.458972337130158e-01	 1.467882605529242e+01
 1.019013292347840e+00	 6.557404332563441e-01	 1.449092502182998e+01
 1.012644817383459e+00	 6.655328993734029e-01	 1.430167623591228e+01
 1.006175812335042e+00	 6.752730967178938e-01	 1.411119319143043e+01
 9.996069006226299e-01	 6.849594986531095e-01	 1.391958674322181e+01
 9.929387362560567e-01	 6.945905880132490e-01	 1.372696573560466e+01
 9.861720036667683e-01	 7.041648578623385e-01	 1.353343769363721e+01
 9.793074175171915e-01	 7.136808122499766e-01	 1.333910957450735e+01
 9.723457224877214e-01	 7.231369669631390e-01	 1.314408857600112e+01
 1.047583779600299e+00	 6.321437806511163e-01	 1.503394922410192e+01
 1.041461452533757e+00	 6.421803257108943e-01	 1.485745790090376e+01
 1.035235917514871e+00	 6.521687685413435e-01	 1.467923873415643e+01
 1.028907710564327e+00	 6.621075436119376e-01	 1.449936929114242e+01
 1.022477398963069e+00	 6.719950926446873e-01	 1.431792010732240e+01
 1.015945581150470e+00	 6.818298653853909e-01	 1.413495524419314e+01
 1.009312886599864e+00	 6.916103203740042e-01	 1.395053292280750e+01
 1.002579975671401e+00	 7.013349257133527e-01	 1.376470623121728e+01
 9.957475394422296e-01	 7.110021598354168e-01	 1.357752390360209e+01
 9.888162995140160e-01	 7.206105122644171e-01	 1.338903116834116e+01
 9.817870077978635e-01	 7.301584843759201e-01	 1.319927066179255e+01
 1.057657797768284e+00	 6.382227483219658e-01	 1.501325543604943e+01
 1.051476595759788e+00	 6.483558091346141e-01	 1.484502145645155e+01
 1.045191193306685e+00	 6.584403051461072e-01	 1.467486398079420e+01
 1.038802131584267e+00	 6.684746557711055e-01	 1.450281229924732e+01
 1.032309983328703e+00	 6.784572877465485e-01	 1.432888487308655e+01
 1.025715352734217e+00	 6.883866359103252e-01	 1.415308995974688e+01
 1.019018875327433e+00	 6.982611439790508e-01	 1.397542632361366e+01
 1.012221217818813e+00	 7.080792653241684e-01	 1.379588403073770e+01
 1.005323077931204e+00	 7.178394637456084e-01	 1.361444532511883e+01
 9.983251842055071e-01	 7.275402142422078e-01	 1.343108558365952e+01
 9.912282957835301e-01	 7.371800037781164e-01	 1.324577434635301e+01
 8.968158573485796e-01	 6.669651380298567e-01	 1.240284388370477e+01
 8.903049678414585e-01	 6.756317131054590e-01	 1.214006462078662e+01
 8.837059423604503e-01	 6.842404061635670e-01	 1.187776324100506e+01
 8.770195535080831e-01	 6.927898792295892e-01	 1.161588803263834e+01
 8.702466006188954e-01	 7.012788078641958e-01	 1.135437783156854e+01
 8.633879094597913e-01	 7.097058818310689e-01	 1.109316292282853e+01
 8.564443319105822e-01	 7.180698057568373e-01	 1.083216597335403e+01
 8.494167456249464e-01	 7.263692997825018e-01	 1.057130299172228e+01
 8.423060536720807e-01	 7.346031002056677e-01	 1.031048431044385e+01
 8.351131841593377e-01	 7.427699601129277e-01	 1.004982143673054e+01
 8.278390898361738e-01	 7.508686500017251e-01	 9.793577232940002e+00
 9.062570249475932e-01	 6.739865679023106e-01	 1.252329455478090e+01
 8.996775924966403e-01	 6.827443797540639e-01	 1.227112495794815e+01
 8.930090962264511e-01	 6.914437002393762e-01	 1.201880380880148e+01
 8.862523168730525e-01	 7.000831772982242e-01	 1.176622759357073e+01
 8.794080621858981e-01	 7.086614725483364e-01	 1.151328159885113e+01
 8.724771666250739e-01	 7.171772619599741e-01	 1.125984092294627e+01
 8.654604910384762e-01	 7.256292365228153e-01	 1.100577152308992e+01
 8.583589223191984e-01	 7.340161029042340e-01	 1.075093129400013e+01
 8.511733730434137e-01	 7.423365840982989e-01	 1.049530040908642e+01
 8.439047810890381e-01	 7.505894200648096e-01	 1.024308001477717e+01
 8.365541092355102e-01	 7.587733683577078e-01	 9.996075244019256e+00
 9.156982166236715e-01	 6.810080156808476e-01	 1.263616247765918e+01
 9.090502410540512e-01	 6.898570645414307e-01	 1.239391954713861e+01
 9.023122738174918e-01	 6.986470126850800e-01	 1.215080630603873e+01
 8.954851037835364e-01	 7.073764939663019e-01	 1.190667779280737e+01
 8.885695471165769e-01	 7.160441560598449e-01	 1.166137660336328e+01
 8.815664469699012e-01	 7.246486611425158e-01	 1.141473400155727e+01
 8.744766731595092e-01	 7.331886865670031e-01	 1.116657106957653e+01
 8.673011218179337e-01	 7.416629255270205e-01	 1.091674450702132e+01
 8.600407150283462e-01	 7.500700877130636e-01	 1.066920337894805e+01
 8.526964004392497e-01	 7.584088999581038e-01	 1.042631165462075e+01
 8.452691508600887e-01	 7.666781068725480e-01	 1.018763882891450e+01
 9.251394297016218e-01	 6.880294793758842e-01	 1.274124138920428e+01
 9.184229108579225e-01	 6.969697654521280e-01	 1.250821495754895e+01
 9.116154724974854e-01	 7.058503414595689e-01	 1.227352408571648e+01
 9.047179116233884e-01	 7.146698271672092e-01	 1.203699237305259e+01
 8.977310528149786e-01	 7.234268563067872e-01	 1.179843022554171e+01
 8.906557479187651e-01	 7.321200772616180e-01	 1.155763605502360e+01
 8.834928757188734e-01	 7.407481537473726e-01	 1.131439760302371e+01
 8.762433415872933e-01	 7.493097654840704e-01	 1.107211212954038e+01
 8.689080771142168e-01	 7.578036088586033e-01	 1.083398072879494e+01
 8.614880397187561e-01	 7.662283975770843e-01	 1.059956684564475e+01
 8.539842122403825e-01	 7.745828633063542e-01	 1.036840163590345e+01
 9.345806615062522e-01	 6.950509569978370e-01	 1.283834776320996e+01
 9.277955992524862e-01	 7.040824804707247e-01	 1.261380179350266e+01
 9.209186896303456e-01	 7.130536845217338e-01	 1.238673528673183e+01
 9.139507377764603e-01	 7.219631748343351e-01	 1.215695007921945e+01
 9.068925766851488e-01	 7.308095711972268e-01	 1.192423454324372e+01
 8.997450668961595e-01	 7.395915082002057e-01	 1.168836486495604e+01
 8.925090961617598e-01	 7.483076359218945e-01	 1.145192947164058e+01
 8.851855790934186e-01	 7.569566206085931e-01	 1.121912967828039e+01
 8.777754567883651e-01	 7.655371453435609e-01	 1.098960090918700e+01
 8.702796964363408e-01	 7.740479107060253e-01	 1.076288263972037e+01
 8.626992909068648e-01	 7.824876354192342e-01	 1.053848064545393e+01
 9.440219093623695e-01	 7.020724465571221e-01	 1.292731926989284e+01
 9.371683035819739e-01	 7.111952075817883e-01	 1.271049309534969e+01
 9.302219225799869e-01	 7.202570398304660e-01	 1.249024120486774e+01
 9.231835796266047e-01	 7.292565349010688e-01	 1.226635302753285e+01
 9.160541161311330e-01	 7.381922986392290e-01	 1.203860472628803e+01
 9.088344013265766e-01	 7.470629518412034e-01	 1.180872760276509e+01
 9.015253319333616e-01	 7.558671309485412e-01	 1.158178922280886e+01
 8.941278318024507e-01	 7.646034887337982e-01	 1.135769865591595e+01
 8.866428515381310e-01	 7.732706949765785e-01	 1.113602000767597e+01
 8.790713681007883e-01	 7.818674371292008e-01	 1.091628104568672e+01
 8.714143843900087e-01	 7.903924209712969e-01	 1.069797473922867e+01
 9.534631705947822e-01	 7.090939460641568e-01	 1.300801329701367e+01
 9.465410211906170e-01	 7.183079447698874e-01	 1.279812280553492e+01
 9.395251687103222e-01	 7.274604053446562e-01	 1.258386473082970e+01
 9.324164345576732e-01	 7.365499053007974e-01	 1.236502514192193e+01
 9.252156685569773e-01	 7.455750365408594e-01	 1.214252378595478e+01
 9.179237486345097e-01	 7.545344060675357e-01	 1.192196499897829e+01
 9.105415804788707e-01	 7.634266366852838e-01	 1.170382536564940e+01
 9.030700971805322e-01	 7.722503676928948e-01	 1.148770866026723e+01
 8.955102588508530e-01	 7.810042555662985e-01	 1.127318003751073e+01
 8.878630522208819e-01	 7.896869746308849e-01	 1.105976746078852e+01
 8.801294902202880e-01	 7.982972177226509e-01	 1.084696329608237e+01
 9.629044425282970e-01	 7.161154535293569e-01	 1.308030552840415e+01
 9.559137494226483e-01	 7.254206900195906e-01	 1.287654429537245e+01
 9.488284253852663e-01	 7.346637790231952e-01	 1.266744885073243e+01
 9.416492999535184e-01	 7.438432839669105e-01	 1.245328182087652e+01
 9.343772313667281e-01	 7.529577828101828e-01	 1.223963444325491e+01
 9.270131062444520e-01	 7.620058687621275e-01	 1.202794625595072e+01
 9.195578392434791e-01	 7.709861509900936e-01	 1.181787441885030e+01
 9.120123726938034e-01	 7.798972553190925e-01	 1.160903560214428e+01
 9.043776762138703e-01	 7.887378249213628e-01	 1.140100726882903e+01
 8.966547463054053e-01	 7.975065209953512e-01	 1.119332913654741e+01
 8.888446059281753e-01	 8.062020234334041e-01	 1.098550481321091e+01
 9.723457224877214e-01	 7.231369669631390e-01	 1.314408857600113e+01
 9.652864856222984e-01	 7.325334413154658e-01	 1.294562894840597e+01
 9.581316899687320e-01	 7.418671588249739e-01	 1.274091882065488e+01
 9.508821731979932e-01	 7.511366688327957e-01	 1.253474905907184e+01
 9.435388019644306e-01	 7.603405353552641e-01	 1.233002423620829e+01
 9.361024715808965e-01	 7.694773378079035e-01	 1.212646724625131e+01
 9.285741056723784e-01	 7.785456717209425e-01	 1.192375908823131e+01
 9.209546558084056e-01	 7.875441494456005e-01	 1.172153996912223e+01
 9.132451011145221e-01	 7.964714008504135e-01	 1.151941059946330e+01
 9.054464478631425e-01	 8.053260740068736e-01	 1.131693367674145e+01
 8.975597290441439e-01	 8.141068358636656e-01	 1.111363555075733e+01
 9.817870077978635e-01	 7.301584843759201e-01	 1.319927066179255e+01
 9.746592271337993e-01	 7.396461966420818e-01	 1.300526479655109e+01
 9.674349598246335e-01	 7.490705427088830e-01	 1.280724196956675e+01
 9.601150516749493e-01	 7.584300578318419e-01	 1.261002302539225e+01
 9.527003777541317e-01	 7.677232920841685e-01	 1.241345992644985e+01
 9.451918420683366e-01	 7.769488110877883e-01	 1.221730945306278e+01
 9.375903772107608e-01	 7.861051967358013e-01	 1.202128649191078e+01
 9.298969439904803e-01	 7.951910479056279e-01	 1.182506513217340e+01
 9.221125310401482e-01	 8.042049811620937e-01	 1.162827996270827e+01
 9.142381544028775e-01	 8.131456314497271e-01	 1.143052756534609e+01
 9.062748570986672e-01	 8.220116527735436e-01	 1.123136819830950e+01
 9.912282957835301e-01	 7.371800037781164e-01	 1.324577434635301e+01
 9.840319713013833e-01	 7.467589539840065e-01	 1.305704064931518e+01
 9.767382323168847e-01	 7.562739286338140e-01	 1.286791552916038e+01
 9.693479327682388e-01	 7.657234488974372e-01	 1.267885208144360e+01
 9.618619561398762e-01	 7.751060509049608e-01	 1.248969291623074e+01
 9.542812151312645e-01	 7.844202864847063e-01	 1.230023818194840e+01
 9.466066513038190e-01	 7.936647238926423e-01	 1.211024642991842e+01
 9.388392347061697e-01	 8.028379485323843e-01	 1.191943569231144e+01
 9.309799634780872e-01	 8.119385636650447e-01	 1.172748476960143e+01
 9.230298634333939e-01	 8.209651911081843e-01	 1.153403472245258e+01
 9.149899876222183e-01	 8.299164719231461e-01	 1.133869056184432e+01
 8.278390898361738e-01	 7.508686500017251e-01	 9.793577232940001e+00
 8.204860023622503e-01	 7.588966017033322e-01	 9.542042160548876e+00
 8.130536815049506e-01	 7.668540163246993e-01	 9.293745597483335e+00
 8.055431377603253e-01	 7.747397338994574e-01	 9.048546501327092e+00
 7.979554044873656e-01	 7.825526142280376e-01	 8.806292716745340e+00
 7.902915374308616e-01	 7.902915374308616e-01	 8.566822233859408e+00
 7.825526142280379e-01	 7.979554044873657e-01	 8.329964511658030e+00
 7.747397338994572e-01	 8.055431377603252e-01	 8.095541859577203e+00
 7.668540163246993e-01	 8.130536815049509e-01	 7.863370870011391e+00
 7.588966017033316e-01	 8.204860023622508e-01	 7.633263894190567e+00
 7.508686500017251e-01	 8.278390898361738e-01	 7.405030553577226e+00
 8.365541092355102e-01	 7.587733683577078e-01	 9.996075244019259e+00
 8.291236126361191e-01	 7.668858337720451e-01	 9.752864222363611e+00
 8.216130485292267e-01	 7.749270195318970e-01	 9.512146115153344e+00
 8.140234380488295e-01	 7.828957534594093e-01	 9.273819600743666e+00
 8.063558254325535e-01	 7.907908833516234e-01	 9.037773401927085e+00
 7.986112775394860e-01	 7.986112775394862e-01	 8.803887544507234e+00
 7.907908833516234e-01	 8.063558254325535e-01	 8.572034683257815e+00
 7.828957534594094e-01	 8.140234380488299e-01	 8.342081488100307e+00
 7.749270195318969e-01	 8.216130485292268e-01	 8.113890082944106e+00
 7.668858337720448e-01	 8.291236126361194e-01	 7.887319529287226e+00
 7.587733683577078e-01	 8.365541092355102e-01	 7.662227346373572e+00
 8.452691508600887e-01	 7.666781068725480e-01	 1.018763882891449e+01
 8.377612449378390e-01	 7.748750862151560e-01	 9.951910126271619e+00
 8.301724373818343e-01	 7.830000433271345e-01	 9.718031564894295e+00
 8.225037599640427e-01	 7.910517938191132e-01	 9.485934956093349e+00
 8.147562678007527e-01	 7.990291734847134e-01	 9.255543059863754e+00
 8.069310388653784e-01	 8.069310388653784e-01	 9.026770856427664e+00
 7.990291734847131e-01	 8.147562678007527e-01	 8.799526888068561e+00
 7.910517938191131e-01	 8.225037599640427e-01	 8.573714663753679e+00
 7.830000433271341e-01	 8.301724373818344e-01	 8.349234118631417e+00
 7.748750862151558e-01	 8.377612449378391e-01	 8.125983120120987e+00
 7.666781068725480e-01	 8.452691508600887e-01	 7.903859011997069e+00
 8.539842122403825e-01	 7.745828633063542e-01	 1.036840163590345e+01
 8.463988968198115e-01	 7.828643567688182e-01	 1.013939985188303e+01
 8.387318456373419e-01	 7.910730854228198e-01	 9.911703315598261e+00
 8.309841011029381e-01	 7.992078526674468e-01	 9.685270572426138e+00
 8.231567292115728e-01	 8.072674822928729e-01	 9.460051767959069e+00
 8.152508190510124e-01	 8.152508190510122e-01	 9.235989945298435e+00
 8.072674822928730e-01	 8.231567292115729e-01	 9.013022416109111e+00
 7.992078526674468e-01	 8.309841011029386e-01	 8.791082197562648e+00
 7.910730854228196e-01	 8.387318456373422e-01	 8.570099506854609e+00
 7.828643567688178e-01	 8.463988968198118e-01	 8.350003304595715e+00
 7.745828633063541e-01	 8.539842122403826e-01	 8.130722878037680e+00
 8.626992909068648e-01	 7.824876354192342e-01	 1.053848064545393e+01
 8.550365658344385e-01	 7.908536431691849e-01	 1.031553342585292e+01
 8.472912708703200e-01	 7.991461435313624e-01	 1.009343976926252e+01
 8.394644590624890e-01	 8.073639276932894e-01	 9.872178735390996e+00
 8.315572072846240e-01	 8.155058074416683e-01	 9.651721383088789e+00
 8.235706157388633e-01	 8.235706157388630e-01	 9.432032106193459e+00
 8.155058074416683e-01	 8.315572072846241e-01	 9.213070047184495e+00
 8.073639276932891e-01	 8.394644590624895e-01	 8.994790580361935e+00
 7.991461435313624e-01	 8.472912708703202e-01	 8.777146855798037e+00
 7.908536431691849e-01	 8.550365658344391e-01	 8.560091394898746e+00
 7.824876354192341e-01	 8.626992909068649e-01	 8.343577728052914e+00
 8.714143843900087e-01	 7.903924209712969e-01	 1.069797473922867e+01
 8.636742495341211e-01	 7.988429431524098e-01	 1.048048967129417e+01
 8.558507106553367e-01	 8.072192153651712e-01	 1.026349528032376e+01
 8.479448314396679e-01	 8.155200165855180e-01	 1.004698509041780e+01
 8.399576996395151e-01	 8.237441465966652e-01	 9.830944770972483e+00
 8.318904265714064e-01	 8.318904265714065e-01	 9.615353523912832e+00
 8.237441465966648e-01	 8.399576996395148e-01	 9.400185553369637e+00
 8.155200165855178e-01	 8.479448314396679e-01	 9.185411609064371e+00
 8.072192153651708e-01	 8.558507106553367e-01	 8.971000594172015e+00
 7.988429431524098e-01	 8.636742495341216e-01	 8.756921227995178e+00
 7.903924209712966e-01	 8.714143843900088e-01	 8.543143753395727e+00
 8.801294902202880e-01	 7.982972177226509e-01	 1.084696329608237e+01
 8.723119454712615e-01	 8.068322544546471e-01	 1.063442497392036e+01
 8.644101625669626e-01	 8.152922986366545e-01	 1.042209908213814e+01
 8.564252158314485e-01	 8.236761170330114e-01	 1.020998772010913e+01
 8.483582038958559e-01	 8.319824974234288e-01	 9.998085025444826e+00
 8.402102491911161e-01	 8.402102491911161e-01	 9.786378625496230e+00
 8.319824974234289e-01	 8.483582038958561e-01	 9.574851176531441e+00
 8.236761170330114e-01	 8.564252158314483e-01	 9.363481981364302e+00
 8.152922986366543e-01	 8.644101625669626e-01	 9.152248675683619e+00
 8.068322544546463e-01	 8.723119454712613e-01	 8.941128972865256e+00
 7.982972177226507e-01	 8.801294902202882e-01	 8.730102456642415e+00
 8.888446059281753e-01	 8.062020234334041e-01	 1.098550481321091e+01
 8.809496511982605e-01	 8.148215748120490e-01	 1.077747206378567e+01
 8.729696241797656e-01	 8.233653910582209e-01	 1.056945422012889e+01
 8.649056098348031e-01	 8.318322267246483e-01	 1.036145621997702e+01
 8.567587176732560e-01	 8.402208575875258e-01	 1.015347467832918e+01
 8.485300812404680e-01	 8.485300812404677e-01	 9.945499416153108e+00
 8.402208575875262e-01	 8.567587176732563e-01	 9.737515082611875e+00
 8.318322267246482e-01	 8.649056098348034e-01	 9.529502861052748e+00
 8.233653910582208e-01	 8.729696241797655e-01	 9.321442248446665e+00
 8.148215748120489e-01	 8.809496511982607e-01	 9.113312897464924e+00
 8.062020234334041e-01	 8.888446059281754e-01	 8.905096509949761e+00
 8.975597290441439e-01	 8.141068358636656e-01	 1.111363555075734e+01
 8.895873642675199e-01	 8.228109019607694e-01	 1.090973881157268e+01
 8.815290930683159e-01	 8.314384903422800e-01	 1.070573649116153e+01
 8.733860110467065e-01	 8.399883433493066e-01	 1.050163077264997e+01
 8.651592385913250e-01	 8.484592247545215e-01	 1.029741490056435e+01
 8.568499203619364e-01	 8.568499203619364e-01	 1.009307479974794e+01
 8.484592247545215e-01	 8.651592385913249e-01	 9.888590794263163e+00
 8.399883433493065e-01	 8.733860110467062e-01	 9.683939415950871e+00
 8.314384903422802e-01	 8.815290930683163e-01	 9.479095291725088e+00
 8.228109019607692e-01	 8.895873642675203e-01	 9.274033098154286e+00
 8.141068358636656e-01	 8.975597290441441e-01	 9.068729571414975e+00
 9.062748570986672e-01	 8.220116527735436e-01	 1.123136819830950e+01
 8.982250822314414e-01	 8.308002336369623e-01	 1.103130703846308e+01
 8.900885668071832e-01	 8.395115942012406e-01	 1.083109338874017e+01
 8.818664170641304e-01	 8.481444645958648e-01	 1.063072122066483e+01
 8.735597642696723e-01	 8.566975965899820e-01	 1.043017469518664e+01
 8.651697641979968e-01	 8.651697641979967e-01	 1.022942988489256e+01
 8.566975965899817e-01	 8.735597642696722e-01	 1.002845660330384e+01
 8.481444645958647e-01	 8.818664170641304e-01	 9.827220330317285e+00
 8.395115942012403e-01	 8.900885668071833e-01	 9.625684222218926e+00
 8.308002336369620e-01	 8.982250822314417e-01	 9.423811194132455e+00
 8.220116527735434e-01	 9.062748570986673e-01	 9.221566062274400e+00
 9.149899876222183e-01	 8.299164719231461e-01	 1.133869056184432e+01
 9.068628026424265e-01	 8.387895675767806e-01	 1.114223133870033e+01
 8.986480429709360e-01	 8.475847003475108e-01	 1.094564305365012e+01
 8.903468254840484e-01	 8.563005881532008e-01	 1.074890613795129e+01
 8.819602923279076e-01	 8.649359707594722e-01	 1.055199008272129e+01
 8.734896103911239e-01	 8.734896103911240e-01	 1.035485527761749e+01
 8.649359707594724e-01	 8.819602923279075e-01	 1.015745496435170e+01
 8.563005881532008e-01	 8.903468254840485e-01	 9.959737293442339e+00
 8.475847003475104e-01	 8.986480429709363e-01	 9.761647471934781e+00
 8.387895675767804e-01	 9.068628026424267e-01	 9.563129989221014e+00
 8.299164719231462e-01	 9.149899876222183e-01	 9.364130907562057e+00
 7.508686500017251e-01	 8.278390898361738e-01	 7.405030553577226e+00
 7.427699601129280e-01	 8.351131841593374e-01	 7.178751905280691e+00
 7.346031002056681e-01	 8.423060536720803e-01	 6.955006749998232e+00
 7.263692997825020e-01	 8.494167456249461e-01	 6.734535476143315e+00
 7.180698057568378e-01	 8.564443319105818e-01	 6.517419629628639e+00
 7.097058818310689e-01	 8.633879094597907e-01	 6.303711681681524e+00
 7.012788078641958e-01	 8.702466006188950e-01	 6.093469084343941e+00
 6.927898792295897e-01	 8.770195535080832e-01	 5.886755570136201e+00
 6.842404061635671e-01	 8.837059423604499e-01	 5.683642444464232e+00
 6.756317131054596e-01	 8.903049678414582e-01	 5.484209861559666e+00
 6.669651380298567e-01	 8.968158573485795e-01	 5.288548074833098e+00
 7.587733683577078e-01	 8.365541092355102e-01	 7.662227346373570e+00
 7.505894200648097e-01	 8.439047810890377e-01	 7.438852937867102e+00
 7.423365840982993e-01	 8.511733730434136e-01	 7.217599699616605e+00
 7.340161029042345e-01	 8.583589223191982e-01	 6.998812270410491e+00
 7.256292365228155e-01	 8.654604910384756e-01	 6.783219494260561e+00
 7.171772619599743e-01	 8.724771666250738e-01	 6.570880219347631e+00
 7.086614725483369e-01	 8.794080621858976e-01	 6.361838359439381e+00
 7.000831772982250e-01	 8.862523168730525e-01	 6.156144898782103e+00
 6.914437002393765e-01	 8.930090962264510e-01	 5.953859296126859e+00
 6.827443797540642e-01	 8.996775924966400e-01	 5.755050871056053e+00
 6.739865679023106e-01	 9.062570249475932e-01	 5.559800162831194e+00
 7.666781068725480e-01	 8.452691508600887e-01	 7.903859011997072e+00
 7.584088999581041e-01	 8.526964004392492e-01	 7.683245522390622e+00
 7.500700877130637e-01	 8.600407150283457e-01	 7.464649836916047e+00
 7.416629255270207e-01	 8.673011218179335e-01	 7.248050994406765e+00
 7.331886865670034e-01	 8.744766731595087e-01	 7.033881036418434e+00
 7.246486611425159e-01	 8.815664469699008e-01	 6.822826613556749e+00
 7.160441560598455e-01	 8.885695471165769e-01	 6.614924911542011e+00
 7.073764939663022e-01	 8.954851037835367e-01	 6.410213669681982e+00
 6.986470126850804e-01	 9.023122738174916e-01	 6.208739823652056e+00
 6.898570645414309e-01	 9.090502410540509e-01	 6.010561009994041e+00
 6.810080156808477e-01	 9.156982166236716e-01	 5.815747041467578e+00
 7.745828633063541e-01	 8.539842122403826e-01	 8.130722878037679e+00
 7.662283975770848e-01	 8.614880397187561e-01	 7.912771865735465e+00
 7.578036088586038e-01	 8.689080771142165e-01	 7.696752332537219e+00
 7.493097654840709e-01	 8.762433415872932e-01	 7.482625147040753e+00
 7.407481537473728e-01	 8.834928757188728e-01	 7.270364928052012e+00
 7.321200772616185e-01	 8.906557479187650e-01	 7.060535532675121e+00
 7.234268563067874e-01	 8.977310528149782e-01	 6.853732898804300e+00
 7.146698271672095e-01	 9.047179116233881e-01	 6.649980972333434e+00
 7.058503414595693e-01	 9.116154724974851e-01	 6.449313427048761e+00
 6.969697654521284e-01	 9.184229108579219e-01	 6.251775308404806e+00
 6.880294793758843e-01	 9.251394297016218e-01	 6.057424633724931e+00
 7.824876354192341e-01	 8.626992909068649e-01	 8.343577728052917e+00
 7.740479107060259e-01	 8.702796964363408e-01	 8.128234610339085e+00
 7.655371453435611e-01	 8.777754567883649e-01	 7.914749510426208e+00
 7.569566206085933e-01	 8.851855790934180e-01	 7.703065120258741e+00
 7.483076359218951e-01	 8.925090961617597e-01	 7.493138324508960e+00
 7.395915082002060e-01	 8.997450668961592e-01	 7.284951599646766e+00
 7.308095711972270e-01	 9.068925766851483e-01	 7.079226523731808e+00
 7.219631748343359e-01	 9.139507377764600e-01	 6.876426249962182e+00
 7.130536845217340e-01	 9.209186896303455e-01	 6.676570386224619e+00
 7.040824804707249e-01	 9.277955992524859e-01	 6.479690416191882e+00
 6.950509569978370e-01	 9.345806615062522e-01	 6.285831433066997e+00
 7.903924209712966e-01	 8.714143843900088e-01	 8.543143753395727e+00
 7.818674371292011e-01	 8.790713681007879e-01	 8.330396879590747e+00
 7.732706949765789e-01	 8.866428515381307e-01	 8.119443457129623e+00
 7.646034887337984e-01	 8.941278318024505e-01	 7.910207921804159e+00
 7.558671309485415e-01	 9.015253319333615e-01	 7.702629169881764e+00
 7.470629518412035e-01	 9.088344013265762e-01	 7.496662356444464e+00
 7.381922986392293e-01	 9.160541161311324e-01	 7.292329925052496e+00
 7.292565349010693e-01	 9.231835796266044e-01	 7.090489238361978e+00
 7.202570398304662e-01	 9.302219225799865e-01	 6.891461837891155e+00
 7.111952075817884e-01	 9.371683035819734e-01	 6.695264609145873e+00
 7.020724465571223e-01	 9.440219093623696e-01	 6.501928529564697e+00
 7.982972177226507e-01	 8.801294902202882e-01	 8.730102456642415e+00
 7.896869746308852e-01	 8.878630522208811e-01	 8.519982270183391e+00
 7.810042555662989e-01	 8.955102588508529e-01	 8.311596094754927e+00
 7.722503676928953e-01	 9.030700971805318e-01	 8.104849955966731e+00
 7.634266366852840e-01	 9.105415804788706e-01	 7.899664434563103e+00
 7.545344060675362e-01	 9.179237486345094e-01	 7.695976600640672e+00
 7.455750365408600e-01	 9.252156685569772e-01	 7.493741918806701e+00
 7.365499053007980e-01	 9.324164345576729e-01	 7.293069835685165e+00
 7.274604053446565e-01	 9.395251687103222e-01	 7.094899682745587e+00
 7.183079447698877e-01	 9.465410211906170e-01	 6.899417725131994e+00
 7.090939460641568e-01	 9.534631705947824e-01	 6.706639566655754e+00
 8.062020234334041e-01	 8.888446059281754e-01	 8.905096509949765e+00
 7.975065209953515e-01	 8.966547463054050e-01	 8.697674795069155e+00
 7.887378249213630e-01	 9.043776762138697e-01	 8.491929200731210e+00
 7.798972553190928e-01	 9.120123726938028e-01	 8.287747112288436e+00
 7.709861509900943e-01	 9.195578392434788e-01	 8.085030393297080e+00
 7.620058687621279e-01	 9.270131062444520e-01	 7.883697462828331e+00
 7.529577828101832e-01	 9.343772313667279e-01	 7.683685343973416e+00
 7.438432839669109e-01	 9.416492999535182e-01	 7.484951670980598e+00
 7.346637790231955e-01	 9.488284253852658e-01	 7.287756427721925e+00
 7.254206900195909e-01	 9.559137494226480e-01	 7.093031035247822e+00
 7.161154535293568e-01	 9.629044425282967e-01	 6.900850633309345e+00
 8.141068358636656e-01	 8.975597290441441e-01	 9.068729571414975e+00
 8.053260740068741e-01	 9.054464478631425e-01	 8.864118780382137e+00
 7.964714008504141e-01	 9.132451011145217e-01	 8.661124377993405e+00
 7.875441494456006e-01	 9.209546558084050e-01	 8.459614801637509e+00
 7.785456717209426e-01	 9.285741056723781e-01	 8.259472719711223e+00
 7.694773378079039e-01	 9.361024715808967e-01	 8.060597259557358e+00
 7.603405353552645e-01	 9.435388019644307e-01	 7.862906207121895e+00
 7.511366688327960e-01	 9.508821731979927e-01	 7.666338164961084e+00
 7.418671588249741e-01	 9.581316899687315e-01	 7.470854655388948e+00
 7.325334413154660e-01	 9.652864856222980e-01	 7.276947054383430e+00
 7.231369669631389e-01	 9.723457224877214e-01	 7.085410095992989e+00
 8.220116527735434e-01	 9.062748570986673e-01	 9.221566062274393e+00
 8.131456314497272e-01	 9.142381544028771e-01	 9.019918719438543e+00
 8.042049811620939e-01	 9.221125310401475e-01	 8.819822978936180e+00
 7.951910479056283e-01	 9.298969439904801e-01	 8.621127943204243e+00
 7.861051967358017e-01	 9.375903772107604e-01	 8.423696529380024e+00
 7.769488110877885e-01	 9.451918420683360e-01	 8.227407855727392e+00
 7.677232920841687e-01	 9.527003777541312e-01	 8.032159600579691e+00
 7.584300578318425e-01	 9.601150516749491e-01	 7.837870319584368e+00
 7.490705427088835e-01	 9.674349598246332e-01	 7.644481707191607e+00
 7.396461966420821e-01	 9.746592271337992e-01	 7.451969295271697e+00
 7.301584843759202e-01	 9.817870077978634e-01	 7.261128374504526e+00
 8.299164719231462e-01	 9.149899876222183e-01	 9.364130907562057e+00
 8.209651911081850e-01	 9.230298634333938e-01	 9.165639086684717e+00
 8.119385636650452e-01	 9.309799634780870e-01	 8.968625986228908e+00
 8.028379485323849e-01	 9.388392347061693e-01	 8.772920905697369e+00
 7.936647238926425e-01	 9.466066513038186e-01	 8.578366374858236e+00
 7.844202864847065e-01	 9.542812151312641e-01	 8.384820706857678e+00
 7.751060509049611e-01	 9.618619561398761e-01	 8.192160524922453e+00
 7.657234488974376e-01	 9.693479327682387e-01	 8.000283247543177e+00
 7.562739286338144e-01	 9.767382323168843e-01	 7.809109517199284e+00
 7.467589539840069e-01	 9.840319713013833e-01	 7.618585557935276e+00
 7.371800037781164e-01	 9.912282957835301e-01	 7.428777665422100e+00
 6.669651380298567e-01	 8.968158573485795e-01	 5.288548074833098e+00
 6.582435184438014e-01	 9.032367818730712e-01	 5.096731407292926e+00
 6.494667443017579e-01	 9.095681407399251e-01	 4.908673662017507e+00
 6.406361845261334e-01	 9.158092471141662e-01	 4.724335855862183e+00
 6.317532188649773e-01	 9.219594418470508e-01	 4.543685971505439e+00
 6.228192371985722e-01	 9.280180936725346e-01	 4.366700220002939e+00
 6.138356388423956e-01	 9.339845993830923e-01	 4.193364237069410e+00
 6.048038318471520e-01	 9.398583839848424e-01	 4.023674205645515e+00
 5.957252322965900e-01	 9.456389008319513e-01	 3.857637897790719e+00
 5.866012636038090e-01	 9.513256317403314e-01	 3.695275629463397e+00
 5.774333558067541e-01	 9.569180870806601e-01	 3.536621122313183e+00
 6.739865679023106e-01	 9.062570249475932e-01	 5.559800162831193e+00
 6.651731320628163e-01	 9.127455453158190e-01	 5.368054355983106e+00
 6.563039610315407e-01	 9.191435571301683e-01	 5.179620284837594e+00
 6.473804381421170e-01	 9.254503663250414e-01	 4.994481061270305e+00
 6.384039576677892e-01	 9.316653068125366e-01	 4.812627882670130e+00
 6.293759241206998e-01	 9.377877406809839e-01	 4.634061350365889e+00
 6.202977515475149e-01	 9.438170583726178e-01	 4.458792717138274e+00
 6.111708628220867e-01	 9.497526788403322e-01	 4.286845055902338e+00
 6.019966889358792e-01	 9.555940496835017e-01	 4.118254342161154e+00
 5.927766682868664e-01	 9.613406472628759e-01	 3.953070443383011e+00
 5.835122459676111e-01	 9.669919767945793e-01	 3.791358009055065e+00
 6.810080156808477e-01	 9.156982166236716e-01	 5.815747041467577e+00
 6.721027633537650e-01	 9.222543330080657e-01	 5.624115888637052e+00
 6.631411951976339e-01	 9.287189979399497e-01	 5.435366256619748e+00
 6.541247089573515e-01	 9.350915101230795e-01	 5.249503724341254e+00
 6.450547134313908e-01	 9.413711965303719e-01	 5.066543276035743e+00
 6.359326277637910e-01	 9.475574126045134e-01	 4.886510678748950e+00
 6.267598807324446e-01	 9.536495424374761e-01	 4.709443783850493e+00
 6.175379100343876e-01	 9.596469989289123e-01	 4.535393744143328e+00
 6.082681615688380e-01	 9.655492239233864e-01	 4.364426138707985e+00
 5.989520887186812e-01	 9.713556883264690e-01	 4.196621998206971e+00
 5.895911516311348e-01	 9.770658921997128e-01	 4.032078724010676e+00
 6.880294793758843e-01	 9.251394297016218e-01	 6.057424633724931e+00
 6.790324103530745e-01	 9.317631422554570e-01	 5.865952707536148e+00
 6.699784448626382e-01	 9.382944604560168e-01	 5.676953537163423e+00
 6.608689950607688e-01	 9.447326757763926e-01	 5.490455437932268e+00
 6.517054842712012e-01	 9.510771082503053e-01	 5.306497647959595e+00
 6.424893462699052e-01	 9.573271066747769e-01	 5.125131768320673e+00
 6.332220245660303e-01	 9.634820487915040e-01	 4.946423121708468e+00
 6.239049716798312e-01	 9.695413414468781e-01	 4.770452020654364e+00
 6.145396484183122e-01	 9.755044207306408e-01	 4.597314936957562e+00
 6.051275231493042e-01	 9.813707520931670e-01	 4.427125564601218e+00
 5.956700710747140e-01	 9.871398304414253e-01	 4.260015769103900e+00
 6.950509569978370e-01	 9.345806615062522e-01	 6.285831433066999e+00
 6.859620710971714e-01	 9.412719703636386e-01	 6.094565054212463e+00
 6.768157080891541e-01	 9.478699419651152e-01	 5.905388421590160e+00
 6.676132945413020e-01	 9.543738605530948e-01	 5.718352752298275e+00
 6.583562683026422e-01	 9.607830392220852e-01	 5.533521899125853e+00
 6.490460777811015e-01	 9.670968201234307e-01	 5.350973857362423e+00
 6.396841812171178e-01	 9.733145746485372e-01	 5.170802184139969e+00
 6.302720459541936e-01	 9.794357035905261e-01	 4.993117320826765e+00
 6.208111477071475e-01	 9.854596372842994e-01	 4.818047809608983e+00
 6.113029698287868e-01	 9.913858357250269e-01	 4.645741396063737e+00
 6.017490025757369e-01	 9.972137886650821e-01	 4.476366010244524e+00
 7.020724465571223e-01	 9.440219093623696e-01	 6.501928529564697e+00
 6.928917436224834e-01	 9.507808146382571e-01	 6.310916756091641e+00
 6.836529829397819e-01	 9.574454397539933e-01	 6.121641617260837e+00
 6.743576054878843e-01	 9.640150617212995e-01	 5.934177291899253e+00
 6.650070636411330e-01	 9.704889866954591e-01	 5.748612500711187e+00
 6.556028204394392e-01	 9.768665501821289e-01	 5.565052084109166e+00
 6.461463488545529e-01	 9.831471172224132e-01	 5.383618486168365e+00
 6.366391310532498e-01	 9.893300825561501e-01	 5.204453134644739e+00
 6.270826576581898e-01	 9.954148707633966e-01	 5.027717707653906e+00
 6.174784270071810e-01	 1.001400936384107e+00	 4.853595278318886e+00
 6.078279444115926e-01	 1.007287764016048e+00	 4.682291329450944e+00
 7.090939460641568e-01	 9.534631705947824e-01	 6.706639566655751e+00
 6.998214259654367e-01	 9.602896723849580e-01	 6.515935204241305e+00
 6.904902674771216e-01	 9.670209511093969e-01	 6.326648251716385e+00
 6.811019259894476e-01	 9.736562765491189e-01	 6.138875802603236e+00
 6.716578684020943e-01	 9.801949479201757e-01	 5.952731589777391e+00
 6.621595723869779e-01	 9.866362940825271e-01	 5.768347639109381e+00
 6.526085256471819e-01	 9.929796737269676e-01	 5.585875822364921e+00
 6.430062251727766e-01	 9.992244755400472e-01	 5.405489298694833e+00
 6.333541764942849e-01	 1.005370118346968e+00	 5.227383834745541e+00
 6.236538929345374e-01	 1.011416051232462e+00	 5.051778994172773e+00
 6.139068948596700e-01	 1.017361753639688e+00	 4.878919188148998e+00
 7.161154535293568e-01	 9.629044425282967e-01	 6.900850633309345e+00
 7.067511161624589e-01	 9.697985409093874e-01	 6.710511266960495e+00
 6.973275597637737e-01	 9.765964733180728e-01	 6.521307816384112e+00
 6.878462541349252e-01	 9.832975023046675e-01	 6.333360134068804e+00
 6.783086807009464e-01	 9.899009201459833e-01	 6.146806998752524e+00
 6.687163317657765e-01	 9.964060490562799e-01	 5.961807850084952e+00
 6.590707097638500e-01	 1.002812241376037e+00	 5.778544415218445e+00
 6.493733265085496e-01	 1.009118879738512e+00	 5.597222216024059e+00
 6.396257024382784e-01	 1.015325377214047e+00	 5.418071946361319e+00
 6.298293658609078e-01	 1.021431177432151e+00	 5.241350709637626e+00
 6.199858521973570e-01	 1.027435754681366e+00	 5.067343107743570e+00
 7.231369669631389e-01	 9.723457224877214e-01	 7.085410095992986e+00
 7.136808122499766e-01	 9.793074175171913e-01	 6.895499143579975e+00
 7.041648578623385e-01	 9.861720036667680e-01	 6.706484050422410e+00
 6.945905880132490e-01	 9.929387362560566e-01	 6.518507161718867e+00
 6.849594986531099e-01	 9.996069006226299e-01	 6.331732223487271e+00
 6.752730967178944e-01	 1.006175812335042e+00	 6.146346203883891e+00
 6.655328993734032e-01	 1.012644817383459e+00	 5.962560998656461e+00
 6.557404332563446e-01	 1.019013292347840e+00	 5.780615008750798e+00
 6.458972337130163e-01	 1.025280644543670e+00	 5.600774578875557e+00
 6.360048440363434e-01	 1.031446312145230e+00	 5.423335286678048e+00
 6.260648147020430e-01	 1.037509764286448e+00	 5.248623073090426e+00
 7.301584843759202e-01	 9.817870077978634e-01	 7.261128374504526e+00
 7.206105122644172e-01	 9.888162995140160e-01	 7.071716162506085e+00
 7.110021598354169e-01	 9.957475394422296e-01	 6.883004768742365e+00
 7.013349257133529e-01	 1.002579975671401e+00	 6.695158652382732e+00
 6.916103203740045e-01	 1.009312886599864e+00	 6.508366334029478e+00
 6.818298653853911e-01	 1.015945581150470e+00	 6.322842309769348e+00
 6.719950926446876e-01	 1.022477398963068e+00	 6.138828841088866e+00
 6.621075436119381e-01	 1.028907710564326e+00	 5.956597607963921e+00
 6.521687685413442e-01	 1.035235917514871e+00	 5.776451213265235e+00
 6.421803257108951e-01	 1.041461452533756e+00	 5.598724527524336e+00
 6.321437806511163e-01	 1.047583779600299e+00	 5.423785864062483e+00
 7.371800037781164e-01	 9.912282957835301e-01	 7.428777665422102e+00
 7.275402142422077e-01	 9.983251842055071e-01	 7.239942527237273e+00
 7.178394637456086e-01	 1.005323077931204e+00	 7.051661637937907e+00
 7.080792653241690e-01	 1.012221217818814e+00	 6.864121077368365e+00
 6.982611439790511e-01	 1.019018875327433e+00	 6.677533831944129e+00
 6.883866359103259e-01	 1.025715352734217e+00	 6.492141807960895e+00
 6.784572877465489e-01	 1.032309983328702e+00	 6.308217712014640e+00
 6.684746557711058e-01	 1.038802131584267e+00	 6.126066785097180e+00
 6.584403051461076e-01	 1.045191193306684e+00	 5.946028377813290e+00
 6.483558091346150e-01	 1.051476595759787e+00	 5.768477355119876e+00
 6.382227483219657e-01	 1.057657797768284e+00	 5.593825320006294e+00
 5.774333558067541e-01	 9.569180870806601e-01	 3.536621122313183e+00
 5.682229450435162e-01	 9.624158060828777e-01	 3.381547576410064e+00
 5.589714733764499e-01	 9.678183575877735e-01	 3.229917885677068e+00
 5.496803875291465e-01	 9.731253393874821e-01	 3.081771835637340e+00
 5.403511380022612e-01	 9.783363780040304e-01	 2.937164265734293e+00
 5.309851783747745e-01	 9.834511286789296e-01	 2.796165458488795e+00
 5.215839646085719e-01	 9.884692753428456e-01	 2.658861414116362e+00
 5.121489543569868e-01	 9.933905305655588e-01	 2.525354009180305e+00
 5.026816062779456e-01	 9.982146354864553e-01	 2.395761038548889e+00
 4.931833793523284e-01	 1.002941359725801e+00	 2.270216140611566e+00
 4.836557322081607e-01	 1.007570501277091e+00	 2.148868606386495e+00
 5.835122459676111e-01	 9.669919767945793e-01	 3.791358009055065e+00
 5.742048732350428e-01	 9.725475726578154e-01	 3.633013287650914e+00
 5.648560073327329e-01	 9.780069991543772e-01	 3.477927359568898e+00
 5.554671102145631e-01	 9.833698498421924e-01	 3.326181353789965e+00
 5.460396476512414e-01	 9.886357473115308e-01	 3.177873656888151e+00
 5.365750885242085e-01	 9.938043431744910e-01	 3.033120278608417e+00
 5.270749041228948e-01	 9.988753180343460e-01	 2.892055094271722e+00
 5.175405674459873e-01	 1.003848381434983e+00	 2.754829962542699e+00
 5.079735525073393e-01	 1.008723271790659e+00	 2.621614717829544e+00
 4.983753336471597e-01	 1.013499756296339e+00	 2.492597037321617e+00
 4.887473848490864e-01	 1.018177630818916e+00	 2.367982183387853e+00
 5.895911516311348e-01	 9.770658921997128e-01	 4.032078724010676e+00
 5.801868166820056e-01	 9.826793650715713e-01	 3.870722431667470e+00
 5.707405562961186e-01	 9.881956667048325e-01	 3.712468348304246e+00
 5.612538476576834e-01	 9.936143864232082e-01	 3.557424426526182e+00
 5.517281718074990e-01	 9.989351428852051e-01	 3.405717813921241e+00
 5.421650129295033e-01	 1.004157584073501e+00	 3.257495221606074e+00
 5.325658576407104e-01	 1.009281387263975e+00	 3.112923160723442e+00
 5.229321942851969e-01	 1.014306258974614e+00	 2.972188045333571e+00
 5.132655122327824e-01	 1.019231934894540e+00	 2.835496160922029e+00
 5.035673011830408e-01	 1.024058179793416e+00	 2.703073498531114e+00
 4.938390504752620e-01	 1.028784787411531e+00	 2.575165455292376e+00
 5.956700710747140e-01	 9.871398304414253e-01	 4.260015769103900e+00
 5.861687736892580e-01	 9.928111804531063e-01	 4.095939836907843e+00
 5.766251185990492e-01	 9.983843573519836e-01	 3.934824936807393e+00
 5.670405982186587e-01	 1.003858946227547e+00	 3.776791745845373e+00
 5.574167088590085e-01	 1.009234561806533e+00	 3.621981817769494e+00
 5.477549500065683e-01	 1.014510848442193e+00	 3.470557980880022e+00
 5.380568236059685e-01	 1.019687480083004e+00	 3.322704594688218e+00
 5.283238333467100e-01	 1.024764160221050e+00	 3.178627663681017e+00
 5.185574839546114e-01	 1.029740621820315e+00	 3.038554807321642e+00
 5.087592804886466e-01	 1.034616627225156e+00	 2.902735086249017e+00
 4.989307276437897e-01	 1.039391968049255e+00	 2.771438685459699e+00
 6.017490025757369e-01	 9.972137886650821e-01	 4.476366010244524e+00
 5.921507425616539e-01	 1.002943015931381e+00	 4.309894238105782e+00
 5.825096925739678e-01	 1.008573068208676e+00	 4.146245145472727e+00
 5.728273602576390e-01	 1.014103526352226e+00	 3.985538434311980e+00
 5.631052571937443e-01	 1.019534001156993e+00	 3.827916119794616e+00
 5.533448981713120e-01	 1.024864133346794e+00	 3.673542983586928e+00
 5.435478004626201e-01	 1.030093593542702e+00	 3.522606876524609e+00
 5.337154831026218e-01	 1.035222082210891e+00	 3.375318868766711e+00
 5.238494661731651e-01	 1.040249329590202e+00	 3.231913246416753e+00
 5.139512700926524e-01	 1.045175095599685e+00	 3.092647354481869e+00
 5.040224149117716e-01	 1.049999169726409e+00	 2.957801286922057e+00
 6.078279444115926e-01	 1.007287764016048e+00	 4.682291329450944e+00
 5.981327216040474e-01	 1.013074868635356e+00	 4.513779022425515e+00
 5.883942765533166e-01	 1.018761796387754e+00	 4.347941745154788e+00
 5.786141321347759e-01	 1.024348123894264e+00	 4.184884904594094e+00
 5.687938151996803e-01	 1.029833458018065e+00	 4.024737422464954e+00
 5.589348558396436e-01	 1.035217435853537e+00	 3.867652269964275e+00
 5.490387866546156e-01	 1.040499724694340e+00	 3.713806842118431e+00
 5.391071420250273e-01	 1.045680021980735e+00	 3.563403169629479e+00
 5.291414573887807e-01	 1.050758055226419e+00	 3.416667967007243e+00
 5.191432685237324e-01	 1.055733581925125e+00	 3.273852516725643e+00
 5.091141108363099e-01	 1.060606389437311e+00	 3.135232390073761e+00
 6.139068948596700e-01	 1.017361753639688e+00	 4.878919188148998e+00
 6.041147091212922e-01	 1.023206735693992e+00	 4.708752883005965e+00
 5.942788688695378e-01	 1.028950539002063e+00	 4.541092977274515e+00
 5.844009122102198e-01	 1.034592735950678e+00	 4.376017623266728e+00
 5.744823812647909e-01	 1.040132929471228e+00	 4.213629464827874e+00
 5.645248214274723e-01	 1.045570753028651e+00	 4.054056279293542e+00
 5.545297806259056e-01	 1.050905870589189e+00	 3.897451449019934e+00
 5.444988085860210e-01	 1.056137976567184e+00	 3.743994260033659e+00
 5.344334561017960e-01	 1.061266795751183e+00	 3.593890026352474e+00
 5.243352743105621e-01	 1.066292083209602e+00	 3.447370039536194e+00
 5.142058139745068e-01	 1.071213624176282e+00	 3.304691344016652e+00
 6.199858521973570e-01	 1.027435754681366e+00	 5.067343107743570e+00
 6.100967034182413e-01	 1.033338614236248e+00	 4.895940386265892e+00
 6.001634678550746e-01	 1.039139293164445e+00	 4.726843185557509e+00
 5.901876988441215e-01	 1.044837359618485e+00	 4.560089785454332e+00
 5.801709537770509e-01	 1.050432412597963e+00	 4.395743719310522e+00
 5.701147933507069e-01	 1.055924081938368e+00	 4.233894548910570e+00
 5.600207808204404e-01	 1.061312028278518e+00	 4.074658458524799e+00
 5.498904812576979e-01	 1.066595943006836e+00	 3.918178665303607e+00
 5.397254608125487e-01	 1.071775548186711e+00	 3.764625644271535e+00
 5.295272859818158e-01	 1.076850596461240e+00	 3.614197167252621e+00
 5.192975228834643e-01	 1.081820870937640e+00	 3.467118156115081e+00
 6.260648147020430e-01	 1.037509764286448e+00	 5.248623073090426e+00
 6.160787027997497e-01	 1.043470501391088e+00	 5.076432458830620e+00
 6.060480718423692e-01	 1.049328055987749e+00	 4.906303365409777e+00
 5.959744903966314e-01	 1.055081991994704e+00	 4.738221906370836e+00
 5.858595311244340e-01	 1.060731904479748e+00	 4.572200005875576e+00
 5.757047700252561e-01	 1.066277419648916e+00	 4.408276332174717e+00
 5.655117856821708e-01	 1.071718194813599e+00	 4.246517039413588e+00
 5.552821585121529e-01	 1.077053918336290e+00	 4.087016314561639e+00
 5.450174700213763e-01	 1.082284309555221e+00	 3.929896727389389e+00
 5.347193020661688e-01	 1.087409118688162e+00	 3.775309382551429e+00
 5.243892361202851e-01	 1.092428126715707e+00	 3.623433873959340e+00
 6.321437806511163e-01	 1.047583779600299e+00	 5.423785864062483e+00
 6.220607055706702e-01	 1.053602394287469e+00	 5.251286799496933e+00
 6.119326791638641e-01	 1.059516824584817e+00	 5.080551636480145e+00
 6.017612852279007e-01	 1.065326630176351e+00	 4.911502335356526e+00
 5.915481116949148e-01	 1.071031402198062e+00	 4.744087029097697e+00
 5.812947498670292e-01	 1.076630763226526e+00	 4.578281140853417e+00
 5.710027936550471e-01	 1.082124367245701e+00	 4.414088298625231e+00
 5.606738388214808e-01	 1.087511899592147e+00	 4.251541043393567e+00
 5.503094822286169e-01	 1.092793076878931e+00	 4.090701328231878e+00
 5.399113210922960e-01	 1.097967646898494e+00	 3.931660807152192e+00
 5.294809522420707e-01	 1.103035388504800e+00	 3.774540913615345e+00
 6.382227483219657e-01	 1.057657797768284e+00	 5.593825320006294e+00
 6.280427100358572e-01	 1.063734290054355e+00	 5.421528221236146e+00
 6.178172881520020e-01	 1.069705596068494e+00	 5.250633643532906e+00
 6.075480816980801e-01	 1.075571271260445e+00	 5.080987697579790e+00
 5.972366938764673e-01	 1.081330902834387e+00	 4.912462843302386e+00
 5.868847312919349e-01	 1.086984109737429e+00	 4.744959216963032e+00
 5.764938031830203e-01	 1.092530542626095e+00	 4.578405743735835e+00
 5.660655206577766e-01	 1.097969883811006e+00	 4.412761031580539e+00
 5.556014959346079e-01	 1.103301847180059e+00	 4.248014043515662e+00
 5.451033415888720e-01	 1.108526178100360e+00	 4.084184546667368e+00
 5.345726698059237e-01	 1.113642653299240e+00	 3.921876413016112e+00
 4.836557322081607e-01	 1.007570501277091e+00	 2.148868606386496e+00
 4.740984955226988e-01	 1.012102648324919e+00	 2.031505883035508e+00
 4.645147428899979e-01	 1.016536859248014e+00	 1.917797266133092e+00
 4.549059281600144e-01	 1.020873015567573e+00	 1.807674110757267e+00
 4.452735022128158e-01	 1.025111026582097e+00	 1.701078939976294e+00
 4.356189123200688e-01	 1.029250829170564e+00	 1.597965121993924e+00
 4.259436015156523e-01	 1.033292387578760e+00	 1.498296445614359e+00
 4.162490079758816e-01	 1.037235693189170e+00	 1.402046598247952e+00
 4.065365644098163e-01	 1.041080764274857e+00	 1.309198551192345e+00
 3.968076974601040e-01	 1.044827645737777e+00	 1.219743857380632e+00
 3.870638271147915e-01	 1.048476408831977e+00	 1.133681867222554e+00
 4.887473848490864e-01	 1.018177630818916e+00	 2.367982183387852e+00
 4.790895350078494e-01	 1.022757489735061e+00	 2.247506616720512e+00
 4.694048900745630e-01	 1.027238381510639e+00	 2.130731659228549e+00
 4.596949192044988e-01	 1.031620186419559e+00	 2.017559349572243e+00
 4.499610885517734e-01	 1.035902812805455e+00	 1.907903453229685e+00
 4.402048606241160e-01	 1.040086196882790e+00	 1.801689178026597e+00
 4.304276936468542e-01	 1.044170302520937e+00	 1.698852780153272e+00
 4.206310409366148e-01	 1.048155121011650e+00	 1.599341065049811e+00
 4.108163502852120e-01	 1.052040670820348e+00	 1.503110788080904e+00
 4.009850633541852e-01	 1.055826997321678e+00	 1.410127960422613e+00
 3.911386150804161e-01	 1.059514172519796e+00	 1.320367066048887e+00
 4.938390504752620e-01	 1.028784787411531e+00	 2.575165455292377e+00
 4.840805872216436e-01	 1.033412358317649e+00	 2.451422131707610e+00
 4.742950497304435e-01	 1.037939931064749e+00	 2.331278827573825e+00
 4.644839224622899e-01	 1.042367384679441e+00	 2.214618526916575e+00
 4.546486868453902e-01	 1.046694626550490e+00	 2.101336779118705e+00
 4.447908206235771e-01	 1.050921592227840e+00	 1.991341436543631e+00
 4.349117972136681e-01	 1.055048245204448e+00	 1.884552274348871e+00
 4.250130850726424e-01	 1.059074576681333e+00	 1.780900497061618e+00
 4.150961470751101e-01	 1.063000605316269e+00	 1.680328137065335e+00
 4.051624399015423e-01	 1.066826376956591e+00	 1.582787350688243e+00
 3.952134134376968e-01	 1.070551964356567e+00	 1.488239618081152e+00
 4.989307276437897e-01	 1.039391968049255e+00	 2.771438685459699e+00
 4.890716507497013e-01	 1.044067251053487e+00	 2.644202211072677e+00
 4.791852204718584e-01	 1.048641504877916e+00	 2.520324620246599e+00
 4.692729365762818e-01	 1.053114607301854e+00	 2.399679796565040e+00
 4.593362957653065e-01	 1.057486464759189e+00	 2.282155309103877e+00
 4.493767910189040e-01	 1.061757012135345e+00	 2.167652156122360e+00
 4.393959109454195e-01	 1.065926212546861e+00	 2.056084382161147e+00
 4.293951391422197e-01	 1.069994057104018e+00	 1.947378573342650e+00
 4.193759535667471e-01	 1.073960564656944e+00	 1.841473236290830e+00
 4.093398259184403e-01	 1.077825781525665e+00	 1.738318066664996e+00
 3.992882210319683e-01	 1.081589781214555e+00	 1.637873113838366e+00
 5.040224149117716e-01	 1.049999169726409e+00	 2.957801286922058e+00
 4.940627241776429e-01	 1.054722164923374e+00	 2.826778926339172e+00
 4.840754009130269e-01	 1.059343099917711e+00	 2.698739981101001e+00
 4.740619601893687e-01	 1.063861851241428e+00	 2.573558892521870e+00
 4.640239139831618e-01	 1.068278324373537e+00	 2.451125191295365e+00
 4.539627705105495e-01	 1.072592453534936e+00	 2.331343231482958e+00
 4.438800335714342e-01	 1.076804201465744e+00	 2.214131788617888e+00
 4.337772019036026e-01	 1.080913559185506e+00	 2.099423526978854e+00
 4.236557685473596e-01	 1.084920545736703e+00	 1.987164341754109e+00
 4.135172202211434e-01	 1.088825207912047e+00	 1.877312582437408e+00
 4.033630367085647e-01	 1.092627619966026e+00	 1.769838164364369e+00
 5.091141108363099e-01	 1.060606389437311e+00	 3.135232390073761e+00
 4.990538060910884e-01	 1.065377096908112e+00	 3.000067104215999e+00
 4.889655896681678e-01	 1.070044713151706e+00	 2.867381328974204e+00
 4.788509919444443e-01	 1.074609113452798e+00	 2.737059436453384e+00
 4.687115401705964e-01	 1.079070202335518e+00	 2.609002578200228e+00
 4.585487577989654e-01	 1.083427913356241e+00	 2.483128393967762e+00
 4.483641638210378e-01	 1.087682208878666e+00	 2.359370574769860e+00
 4.381592721150461e-01	 1.091833079831597e+00	 2.237678285580157e+00
 4.279355908041850e-01	 1.095880545449869e+00	 2.118015453734964e+00
 4.176946216259166e-01	 1.099824652998885e+00	 2.000359929764441e+00
 4.074378593128204e-01	 1.103665477483243e+00	 1.884702527986081e+00
 5.142058139745068e-01	 1.071213624176282e+00	 3.304691344016653e+00
 5.040448950756580e-01	 1.076032043988500e+00	 3.164964734605973e+00
 4.938557853515002e-01	 1.080746341547473e+00	 3.027090885891567e+00
 4.836400304844023e-01	 1.085356390890595e+00	 2.890973198994168e+00
 4.733991729992499e-01	 1.089862095587119e+00	 2.756533833405145e+00
 4.631347515846037e-01	 1.094263388528892e+00	 2.623713375241200e+00
 4.528483004235556e-01	 1.098560231703194e+00	 2.492470349413985e+00
 4.425413485348058e-01	 1.102752615948091e+00	 2.362780581398292e+00
 4.322154191244593e-01	 1.106840560690770e+00	 2.234636415038121e+00
 4.218720289490244e-01	 1.110824113669326e+00	 2.108045793539350e+00
 4.115126876900702e-01	 1.114703350638471e+00	 1.984547201161631e+00
 5.192975228834643e-01	 1.081820870937640e+00	 3.467118156115081e+00
 5.090359897169717e-01	 1.086687003145341e+00	 3.322353323917081e+00
 4.987459865772433e-01	 1.091447982072583e+00	 3.178696956837700e+00
 4.884290744521372e-01	 1.096103680509454e+00	 3.036080318091311e+00
 4.780868111407631e-01	 1.100654001070325e+00	 2.894455700009388e+00
 4.677207505679167e-01	 1.105098875982519e+00	 2.753796036732899e+00
 4.573324421083135e-01	 1.109438266856897e+00	 2.614094349866904e+00
 4.469234299211370e-01	 1.113672164440786e+00	 2.476085585293108e+00
 4.364952522954195e-01	 1.117800588353732e+00	 2.342653875672237e+00
 4.260494410067318e-01	 1.121823586806519e+00	 2.214074500333182e+00
 4.155875206856482e-01	 1.125741236303975e+00	 2.090301740714331e+00
 5.243892361202851e-01	 1.092428126715707e+00	 3.623433873959339e+00
 5.140270886006497e-01	 1.097341971359436e+00	 3.473098197392224e+00
 5.036361919596157e-01	 1.102149631694607e+00	 3.323014164385604e+00
 4.932181224905427e-01	 1.106850979264004e+00	 3.173149477305399e+00
 4.827744532667747e-01	 1.111445915727119e+00	 3.023507111142207e+00
 4.723067534493567e-01	 1.115934372646752e+00	 2.876480407492621e+00
 4.618165876046370e-01	 1.120316311257342e+00	 2.733904534967205e+00
 4.513055150322950e-01	 1.124591722215484e+00	 2.595815107663908e+00
 4.407750891043020e-01	 1.128760625333080e+00	 2.462222877596516e+00
 4.302268566153029e-01	 1.132823069293610e+00	 2.333114746829879e+00
 4.196623571448891e-01	 1.136779131352019e+00	 2.208454824189555e+00
 5.294809522420707e-01	 1.103035388504800e+00	 3.774540913615342e+00
 5.190181903123119e-01	 1.107996945611583e+00	 3.618048753890390e+00
 5.085264001128367e-01	 1.112851287381117e+00	 3.461129141542432e+00
 4.980071732425123e-01	 1.117598284108881e+00	 3.307012705234148e+00
 4.874620980489259e-01	 1.122237836499490e+00	 3.156707196053960e+00
 4.768927589293757e-01	 1.126769875451220e+00	 3.010317099191290e+00
 4.663007356418517e-01	 1.131194361822097e+00	 2.867920199840945e+00
 4.556876026265357e-01	 1.135511286177984e+00	 2.729568514975346e+00
 4.450549283383440e-01	 1.139720668523142e+00	 2.595289284284977e+00
 4.344042745910026e-01	 1.143822558013748e+00	 2.465086014719617e+00
 4.237371959131273e-01	 1.147817032654867e+00	 2.338939572758914e+00
 5.345726698059237e-01	 1.113642653299240e+00	 3.921876413016112e+00
 5.240092934375787e-01	 1.118651922882586e+00	 3.763114536295344e+00
 5.134166096511253e-01	 1.123552946099685e+00	 3.607268120168948e+00
 5.027962253509407e-01	 1.128345591998717e+00	 3.454519843141335e+00
 4.921497441588559e-01	 1.133029760329420e+00	 3.305024137262849e+00
 4.814787657084261e-01	 1.137605381325554e+00	 3.158907992846429e+00
 4.707848849492832e-01	 1.142072415468733e+00	 3.016271836873293e+00
 4.600696914621139e-01	 1.146430853234088e+00	 2.877190480037543e+00
 4.493347687847818e-01	 1.150680714818243e+00	 2.741714126975072e+00
 4.385816937500957e-01	 1.154822049850079e+00	 2.609869443855257e+00
 4.278120358356970e-01	 1.158854937084785e+00	 2.481660677187295e+00
 3.870638271147915e-01	 1.048476408831977e+00	 1.133681867222554e+00
 3.773080257168627e-01	 1.052026555517163e+00	 1.050606142747198e+00
 3.675400421023817e-01	 1.055478836764839e+00	 9.701182872404011e-01
 3.577612717472357e-01	 1.058833400290978e+00	 8.924571012896809e-01
 3.479731012625529e-01	 1.062090418899424e+00	 8.176228942904622e-01
 3.381769078675465e-01	 1.065250090137686e+00	 7.455079292411932e-01
 3.283740588754411e-01	 1.068312635940559e+00	 6.759888426958867e-01
 3.185659111927632e-01	 1.071278302262107e+00	 6.089265943060580e-01
 3.087538108322579e-01	 1.074147358696507e+00	 5.441664976777596e-01
 2.989390924396756e-01	 1.076920098088306e+00	 4.815383304493754e-01
 2.891230788346412e-01	 1.079596836132600e+00	 4.208565211949540e-01
 3.911386150804161e-01	 1.059514172519796e+00	 1.320367066048886e+00
 3.812801101507723e-01	 1.063101693131315e+00	 1.233400232178460e+00
 3.714092947571871e-01	 1.066590318033548e+00	 1.148805394543451e+00
 3.615275790663012e-01	 1.069980196497551e+00	 1.066744046696366e+00
 3.516363642866721e-01	 1.073271503146359e+00	 9.873440460007159e-01
 3.417370421360709e-01	 1.076464437607160e+00	 9.104795448970124e-01
 3.318309943219947e-01	 1.079559224151166e+00	 8.360059619837164e-01
 3.219195920356868e-01	 1.082556111321715e+00	 7.637618213321957e-01
 3.120041954599269e-01	 1.085455371551130e+00	 6.935688222431287e-01
 3.020861532908339e-01	 1.088257300766869e+00	 6.252319926432910e-01
 2.921668022739037e-01	 1.090962217987500e+00	 5.585399235120767e-01
 3.952134134376968e-01	 1.070551964356567e+00	 1.488239618081153e+00
 3.852522047144085e-01	 1.074176858989701e+00	 1.396249814567346e+00
 3.752785572794727e-01	 1.077701827639137e+00	 1.306399076922420e+00
 3.652938959903185e-01	 1.081127021131017e+00	 1.218775065159533e+00
 3.552996366529687e-01	 1.084452615907577e+00	 1.133606673222419e+00
 3.452971854837866e-01	 1.087678813675691e+00	 1.050802278029188e+00
 3.352879385845773e-01	 1.090805841042993e+00	 9.702059051563623e-01
 3.252732814313363e-01	 1.093833949142106e+00	 8.916434604788348e-01
 3.152545883769114e-01	 1.096763413243508e+00	 8.149228262302288e-01
 3.052332221678246e-01	 1.099594532357578e+00	 7.398340455351331e-01
 2.952105334754762e-01	 1.102327628826365e+00	 6.661495925891159e-01
 3.992882210319683e-01	 1.081589781214555e+00	 1.637873113838365e+00
 3.892243082822079e-01	 1.085252049954001e+00	 1.539710633931513e+00
 3.791478285728106e-01	 1.088813362432993e+00	 1.443428187412172e+00
 3.690602214520255e-01	 1.092273871032768e+00	 1.349090038729352e+00
 3.589629173233730e-01	 1.095633754014766e+00	 1.256941393627329e+00
 3.488573369018408e-01	 1.098893215165552e+00	 1.167003090123585e+00
 3.387448906835732e-01	 1.102052483429192e+00	 1.079117324619594e+00
 3.286269784293492e-01	 1.105111812527598e+00	 9.931069371043404e-01
 3.185049886621158e-01	 1.108071480569413e+00	 9.087755211751962e-01
 3.083802981788294e-01	 1.110931789647947e+00	 8.259076277709818e-01
 2.982542715768248e-01	 1.113693065428734e+00	 7.451427406495830e-01
 4.033630367085647e-01	 1.092627619966026e+00	 1.769838164364369e+00
 3.931964197286074e-01	 1.096327262885893e+00	 1.664335790709553e+00
 3.830171075407730e-01	 1.099924919266505e+00	 1.560433132163792e+00
 3.728265543841605e-01	 1.103420743044195e+00	 1.458218025766620e+00
 3.626262052598163e-01	 1.106814914299611e+00	 1.357878010913312e+00
 3.524174953813807e-01	 1.110107638899018e+00	 1.259606804777037e+00
 3.422018496393658e-01	 1.113299148122914e+00	 1.163877264799973e+00
 3.319806820793623e-01	 1.116389698282513e+00	 1.072260485460179e+00
 3.217553953944442e-01	 1.119379570324622e+00	 9.844965728339168e-01
 3.115273804320297e-01	 1.122269069425491e+00	 9.001697761939438e-01
 3.012980157154156e-01	 1.125058524574150e+00	 8.188376924856784e-01
 4.074378593128204e-01	 1.103665477483243e+00	 1.884702527986080e+00
 3.971685379280430e-01	 1.107402494647056e+00	 1.770675883035816e+00
 3.868863930869323e-01	 1.111036494991060e+00	 1.657951909833617e+00
 3.765928937194616e-01	 1.114567634006689e+00	 1.548129056929212e+00
 3.662894994242294e-01	 1.117996093593801e+00	 1.442852131677458e+00
 3.559776599135536e-01	 1.121322081698363e+00	 1.342253421745209e+00
 3.456588144723394e-01	 1.124545831937314e+00	 1.246077727427157e+00
 3.353343914310128e-01	 1.127667603211168e+00	 1.153953964133134e+00
 3.250058076528010e-01	 1.130687679304909e+00	 1.065477833935222e+00
 3.146744680356071e-01	 1.133606368477726e+00	 9.802157544194006e-01
 3.043417650287146e-01	 1.136424003042155e+00	 8.977085640439055e-01
 4.115126876900702e-01	 1.114703350638471e+00	 1.984547201161631e+00
 4.011406617549517e-01	 1.118477742099170e+00	 1.865747236131199e+00
 3.907556841148604e-01	 1.122148086458048e+00	 1.751246730750147e+00
 3.803592383906672e-01	 1.125714540761640e+00	 1.641046957514093e+00
 3.699527987785434e-01	 1.129177288729021e+00	 1.535131315589159e+00
 3.595378294895070e-01	 1.132536540385862e+00	 1.433622601244269e+00
 3.491157842028773e-01	 1.135792531685542e+00	 1.336393390939139e+00
 3.386881055339383e-01	 1.138945524117883e+00	 1.243059844107575e+00
 3.282562245160900e-01	 1.141995804306046e+00	 1.153206003478575e+00
 3.178215600977430e-01	 1.144943683592168e+00	 1.066387810742059e+00
 3.073855186541881e-01	 1.147789497612290e+00	 9.821368818607144e-01
 4.155875206856482e-01	 1.125741236303975e+00	 2.090301740714331e+00
 4.051127900837699e-01	 1.129553002103912e+00	 1.970941938762387e+00
 3.946249795281300e-01	 1.133259690518856e+00	 1.855619695400493e+00
 3.841255873305153e-01	 1.136861460150441e+00	 1.744348210390725e+00
 3.736161022846892e-01	 1.140358496536960e+00	 1.637122998928831e+00
 3.630980031003879e-01	 1.143751011783789e+00	 1.534001177144872e+00
 3.525727578513634e-01	 1.147039244180752e+00	 1.435020963796716e+00
 3.420418234377755e-01	 1.150223457806978e+00	 1.339812564034727e+00
 3.315066450632156e-01	 1.153303942123809e+00	 1.247955262187202e+00
 3.209686557266191e-01	 1.156281011556330e+00	 1.159001627234333e+00
 3.104292757293020e-01	 1.159155005064094e+00	 1.072481345247781e+00
 4.196623571448891e-01	 1.136779131352019e+00	 2.208454824189555e+00
 4.090849217889340e-01	 1.140628271522962e+00	 2.087889908665434e+00
 3.984942782303131e-01	 1.144371304024871e+00	 1.971089691452424e+00
 3.878919394717442e-01	 1.148008389014482e+00	 1.858085244506373e+00
 3.772794089045979e-01	 1.151539713849304e+00	 1.748890601674868e+00
 3.666581797373438e-01	 1.154965492714420e+00	 1.643526377640532e+00
 3.560297344381816e-01	 1.158285966236096e+00	 1.542133889653887e+00
 3.453955441921618e-01	 1.161501401082772e+00	 1.444423829279156e+00
 3.347570683730821e-01	 1.164612089553972e+00	 1.349977371106437e+00
 3.241157540304169e-01	 1.167618349157731e+00	 1.258350571920757e+00
 3.134730353915223e-01	 1.170520522177112e+00	 1.169078247381689e+00
 4.237371959131273e-01	 1.147817032654867e+00	 2.338939572758913e+00
 4.130570557448807e-01	 1.151703547218000e+00	 2.216550841445244e+00
 4.023635791249817e-01	 1.155482923827482e+00	 2.097647091209697e+00
 3.916582937470921e-01	 1.159155324195156e+00	 1.982282926293470e+00
 3.809427176002005e-01	 1.162720937497741e+00	 1.870496654767863e+00
 3.702183583915220e-01	 1.166179980000026e+00	 1.762311388420263e+00
 3.594867129837158e-01	 1.169532694664726e+00	 1.657882399669268e+00
 3.487492668467345e-01	 1.172779350749585e+00	 1.557082740211648e+00
 3.380074935245935e-01	 1.175920243392309e+00	 1.459501880427565e+00
 3.272628541173181e-01	 1.178955693183884e+00	 1.364705992243749e+00
 3.165167967783151e-01	 1.181886045730884e+00	 1.272241857089674e+00
 4.278120358356970e-01	 1.158854937084785e+00	 2.481660677187294e+00
 4.170291908260465e-01	 1.162778826050703e+00	 2.356856659355822e+00
 4.062328811157087e-01	 1.166594546778079e+00	 2.235254999495974e+00
 3.954246490892970e-01	 1.170302262533852e+00	 2.116939216930299e+00
 3.846060273334279e-01	 1.173902164313956e+00	 2.001977369107763e+00
 3.737785380540697e-01	 1.177394470462886e+00	 1.890423114896943e+00
 3.629436925083494e-01	 1.180779426279795e+00	 1.782393540007855e+00
 3.521029904511305e-01	 1.184057303611736e+00	 1.677955893242700e+00
 3.412579195966538e-01	 1.187228400434594e+00	 1.576736308239791e+00
 3.304099550955042e-01	 1.190293040422305e+00	 1.478317475309193e+00
 3.195605590271466e-01	 1.193251572504952e+00	 1.382264763957639e+00
 2.891230788346412e-01	 1.079596836132600e+00	 4.208565211949540e-01
 2.793070806997095e-01	 1.082177911200225e+00	 3.621431934466735e-01
 2.694923965391823e-01	 1.084663684620814e+00	 3.055560868643301e-01
 2.596803118398872e-01	 1.087054539548005e+00	 2.510905048193970e-01
 2.498720985332969e-01	 1.089350880288478e+00	 1.987269658483570e-01
 2.400690146095725e-01	 1.091553131858640e+00	 1.484314243351310e-01
 2.302723037466021e-01	 1.093661739534489e+00	 1.001555562615670e-01
 2.204831949541061e-01	 1.095677168395206e+00	 5.383710641816375e-02
 2.107029022328601e-01	 1.097599902860970e+00	 9.400293330124931e-03
 2.009326242490704e-01	 1.099430446225561e+00	-3.324373196749031e-02
 1.911735440239112e-01	 1.101169320184234e+00	-7.419637725725137e-02
 2.921668022739037e-01	 1.090962217987500e+00	 5.585399235120767e-01
 2.822474668897975e-01	 1.093570465146044e+00	 4.935418915291145e-01
 2.723294593127535e-01	 1.096082407376011e+00	 4.304699633777904e-01
 2.624140785625022e-01	 1.098498431864670e+00	 3.693629863104482e-01
 2.525026099607168e-01	 1.100818947175019e+00	 3.102441985816800e-01
 2.425963247409918e-01	 1.103044382797796e+00	 2.531214139549443e-01
 2.326964796739776e-01	 1.105175188696620e+00	 1.979872760707875e-01
 2.228043167077376e-01	 1.107211834846767e+00	 1.448195788974056e-01
 2.129210626233852e-01	 1.109154810768120e+00	 9.358164932893809e-02
 2.030479287060303e-01	 1.111004625052854e+00	 4.422278787668299e-02
 1.931861104310485e-01	 1.112761804888340e+00	-2.960990756210258e-03
 2.952105334754762e-01	 1.102327628826365e+00	 6.661495925891159e-01
 2.851878605786680e-01	 1.104963048145085e+00	 5.939670602774769e-01
 2.751665293216080e-01	 1.107501159251138e+00	 5.236049334894228e-01
 2.651478522569644e-01	 1.109942353365432e+00	 4.551415927853610e-01
 2.551331280966438e-01	 1.112287043307290e+00	 3.888229360294000e-01
 2.451236413177080e-01	 1.114535663041798e+00	 3.256945591886158e-01
 2.351206617836020e-01	 1.116688667220207e+00	 2.657938420143933e-01
 2.251254443807654e-01	 1.118746530713893e+00	 2.089684983759978e-01
 2.151392286706810e-01	 1.120709748142462e+00	 1.550563830839673e-01
 2.051632385573940e-01	 1.122578833396495e+00	 1.038869796471094e-01
 1.951986819705127e-01	 1.124354319155494e+00	 5.528276077223326e-02
 2.982542715768248e-01	 1.113693065428734e+00	 7.451427406495830e-01
 2.881282609330751e-01	 1.116355656969199e+00	 6.676333723384582e-01
 2.780036057617879e-01	 1.118919937010637e+00	 5.936049035920092e-01
 2.678816321485987e-01	 1.121386300807606e+00	 5.229779450220922e-01
 2.577636521956772e-01	 1.123755165435761e+00	 4.556569267359305e-01
 2.476509636235809e-01	 1.126026969334549e+00	 3.915321331782482e-01
 2.375448493885783e-01	 1.128202171842857e+00	 3.304815760260791e-01
 2.274465773155133e-01	 1.130281252728181e+00	 2.723727113254615e-01
 2.173573997462667e-01	 1.132264711709853e+00	 2.170640076111154e-01
 2.072785532038462e-01	 1.134153067976876e+00	 1.644063722239153e-01
 1.972112580721203e-01	 1.135946859700894e+00	 1.142444434350551e-01
 3.012980157154156e-01	 1.125058524574150e+00	 8.188376924856784e-01
 2.910686671197731e-01	 1.127748288390237e+00	 7.405312353638980e-01
 2.808406878293356e-01	 1.130338737418952e+00	 6.655513807083975e-01
 2.706154174627305e-01	 1.132830270948507e+00	 5.938303088072545e-01
 2.603941815124158e-01	 1.135223310310902e+00	 5.252851386846111e-01
 2.501782909424700e-01	 1.137518298419949e+00	 4.598199380060777e-01
 2.399690418020090e-01	 1.139715699302183e+00	 3.973275603705155e-01
 2.297677148543056e-01	 1.141815997621227e+00	 3.376913169686877e-01
 2.195755752216618e-01	 1.143819698196151e+00	 2.807864901606281e-01
 2.093938720460720e-01	 1.145727325514389e+00	 2.264816970133077e-01
 1.992238381656878e-01	 1.147539423239738e+00	 1.746401112471445e-01
 3.043417650287146e-01	 1.136424003042155e+00	 8.977085640439055e-01
 2.940090783055166e-01	 1.139140939180050e+00	 8.180548714436844e-01
 2.836777747202930e-01	 1.141757557240525e+00	 7.416383312752646e-01
 2.733492074246848e-01	 1.144274260545452e+00	 6.683986070659835e-01
 2.630247153014590e-01	 1.146691474683182e+00	 5.982615153249871e-01
 2.527056225582350e-01	 1.149009647041900e+00	 5.311410110278749e-01
 2.423932383369971e-01	 1.151229246335796e+00	 4.669409891592133e-01
 2.320888563394662e-01	 1.153350762124628e+00	 4.055569101303873e-01
 2.217937544683858e-01	 1.155374704327215e+00	 3.468772574818302e-01
 2.115091944847564e-01	 1.157301602729427e+00	 2.907848367871728e-01
 2.012364216810317e-01	 1.159132006487223e+00	 2.371579250898348e-01
 3.073855186541881e-01	 1.147789497612290e+00	 9.821368818607144e-01
 2.969494936570596e-01	 1.150533606110489e+00	 9.006279501964101e-01
 2.865148656307024e-01	 1.153176393239799e+00	 8.223279932956209e-01
 2.760830012597871e-01	 1.155718266355756e+00	 7.471802196887669e-01
 2.656552528174060e-01	 1.158159655303070e+00	 6.751153084487531e-01
 2.552329577547358e-01	 1.160501011944302e+00	 6.060533703108137e-01
 2.448174383066450e-01	 1.162742809681307e+00	 5.399057128413149e-01
 2.344100011133190e-01	 1.164885542969983e+00	 4.765764183547407e-01
 2.240119368579580e-01	 1.166929726828901e+00	 4.159637438956505e-01
 2.136245199205841e-01	 1.168875896342380e+00	 3.579613531266999e-01
 2.032490080479685e-01	 1.170724606158547e+00	 3.024593903871557e-01
 3.104292757293020e-01	 1.159155005064094e+00	 1.072481345247781e+00
 2.998899123411568e-01	 1.161926285953407e+00	 9.886510384572320e-01
 2.893519597566059e-01	 1.164595242181217e+00	 9.080592357085608e-01
 2.788167981933625e-01	 1.167162285136736e+00	 8.306488973248927e-01
 2.682857933148557e-01	 1.169627848921034e+00	 7.563518836130214e-01
 2.577602958158320e-01	 1.171992389871058e+00	 6.850908912084859e-01
 2.472416410240557e-01	 1.174256386076326e+00	 6.167811807567412e-01
 2.367311485181880e-01	 1.176420336888885e+00	 5.513321055615528e-01
 2.262301217618980e-01	 1.178484762427066e+00	 4.886484514777312e-01
 2.157398477542403e-01	 1.180450203073641e+00	 4.286315988624523e-01
 2.052615966963150e-01	 1.182317218968908e+00	 3.711805178378458e-01
 3.134730353915223e-01	 1.170520522177112e+00	 1.169078247381689e+00
 3.028303335245621e-01	 1.173318975480652e+00	 1.082502112126812e+00
 2.921890562940456e-01	 1.176014100829222e+00	 9.992481549373657e-01
 2.815505974507361e-01	 1.178606313645709e+00	 9.192554368376720e-01
 2.709163360484075e-01	 1.181096052287546e+00	 8.424534689849628e-01
 2.602876360253833e-01	 1.183483777566067e+00	 7.687641233534550e-01
 2.496658458023317e-01	 1.185769972258465e+00	 6.981033213145547e-01
 2.390522978963974e-01	 1.187955140612934e+00	 6.303825107322298e-01
 2.284483085517251e-01	 1.190039807847570e+00	 5.655099428607722e-01
 2.178551773864097e-01	 1.192024519643600e+00	 5.033917608901475e-01
 2.072741870558874e-01	 1.193909841633505e+00	 4.439329124327287e-01
 3.165167967783151e-01	 1.181886045730884e+00	 1.272241857089674e+00
 3.057707563740301e-01	 1.184711671464076e+00	 1.182537024984153e+00
 2.950261544390638e-01	 1.187432965948256e+00	 1.096288624924184e+00
 2.842843982572330e-01	 1.190050348639988e+00	 1.013428307008725e+00
 2.735468802726602e-01	 1.192564262153073e+00	 9.338798514217632e-01
 2.628149776672494e-01	 1.194975171773233e+00	 8.575610520815917e-01
 2.520900519545758e-01	 1.197283564965334e+00	 7.843853639986336e-01
 2.413734485902709e-01	 1.199489950873725e+00	 7.142633260022149e-01
 2.306664965989587e-01	 1.201594859816268e+00	 6.471037711924081e-01
 2.199705082177774e-01	 1.203598842772651e+00	 5.828148380481093e-01
 2.092867785565024e-01	 1.205502470867534e+00	 5.213047955841863e-01
 3.195605590271466e-01	 1.193251572504952e+00	 1.382264763957639e+00
 3.087111800563153e-01	 1.196104370675531e+00	 1.289089937341459e+00
 2.978632533877027e-01	 1.198851834302764e+00	 1.199552803759311e+00
 2.870181998381785e-01	 1.201494386876893e+00	 1.113574227812150e+00
 2.761774252422133e-01	 1.204032475268084e+00	 1.031069023305995e+00
 2.653423200252903e-01	 1.206466569236455e+00	 9.519478079961430e-01
 2.545142587938909e-01	 1.208797160934545e+00	 8.761186070798399e-01
 2.436945999421328e-01	 1.211024764402856e+00	 8.034882181996015e-01
 2.328846852751183e-01	 1.213149915059019e+00	 7.339633514386525e-01
 2.220858396490283e-01	 1.215173169181183e+00	 6.674515583868859e-01
 2.112993706279765e-01	 1.217095103386193e+00	 6.038619648270971e-01
 1.911735440239112e-01	 1.101169320184234e+00	-7.419637725725181e-02
 1.814251731423721e-01	 1.102817336636975e+00	-1.133091253088070e-01
 1.716903253036134e-01	 1.104374748848036e+00	-1.503314509829550e-01
 1.619701379611960e-01	 1.105842130334724e+00	-1.852500071632264e-01
 1.522657317682630e-01	 1.107220071114175e+00	-2.180626677303739e-01
 1.425782103421061e-01	 1.108509177214500e+00	-2.487780379774898e-01
 1.329086600436685e-01	 1.109710070184211e+00	-2.774149328186404e-01
 1.232581497718779e-01	 1.110823386600407e+00	-3.040018266776228e-01
 1.136277307726839e-01	 1.111849777576174e+00	-3.285053382495451e-01
 1.040184364626670e-01	 1.112789908267651e+00	-3.508223362745078e-01
 9.443128226706357e-02	 1.113644457381211e+00	-3.710605680389705e-01
 1.931861104310485e-01	 1.112761804888340e+00	-2.960990756210258e-03
 1.833351142416927e-01	 1.114427170721787e+00	-4.740153753373644e-02
 1.734977834581386e-01	 1.116000978483646e+00	-8.892845495442669e-02
 1.636752675083941e-01	 1.117483807728866e+00	-1.276295722966472e-01
 1.538686988431845e-01	 1.118876254685921e+00	-1.635965949805738e-01
 1.440791926980400e-01	 1.120178931762818e+00	-1.969243753034733e-01
 1.343078468704775e-01	 1.121392467051355e+00	-2.277102571998326e-01
 1.245557415121681e-01	 1.122517503830127e+00	-2.560534879246679e-01
 1.148239389359650e-01	 1.123554700066746e+00	-2.820546896603107e-01
 1.051134834376547e-01	 1.124504727919713e+00	-3.058153841935418e-01
 9.542540113227709e-02	 1.125368273240415e+00	-3.274375639928264e-01
 1.951986819705127e-01	 1.124354319155494e+00	 5.528276077223326e-02
 1.852450602115407e-01	 1.126037034413910e+00	 9.361063033014982e-03
 1.753052462217482e-01	 1.127627237768403e+00	-3.367305230469109e-02
 1.653804014036255e-01	 1.129125514811574e+00	-7.389710208549793e-02
 1.554716700055143e-01	 1.130532467983254e+00	-1.113919008671620e-01
 1.455801788812172e-01	 1.131848716071361e+00	-1.462409062752013e-01
 1.357070372648584e-01	 1.133074893710994e+00	-1.785296410310626e-01
 1.258533365608856e-01	 1.134211650882265e+00	-2.083451838604398e-01
 1.160201501490879e-01	 1.135259652407323e+00	-2.357757216149294e-01
 1.062085332044895e-01	 1.136219577447052e+00	-2.609101551061732e-01
 9.641952253196563e-02	 1.137092118997869e+00	-2.838377513662267e-01
 1.972112580721203e-01	 1.135946859700894e+00	 1.142444434350542e-01
 1.871550105108312e-01	 1.137646924423618e+00	 6.673845891822738e-02
 1.771127130824144e-01	 1.139253523407924e+00	 2.212620592232595e-02
 1.670855391638734e-01	 1.140767248284079e+00	-1.966272490031207e-02
 1.570746448011972e-01	 1.142188707703287e+00	-5.870143211119938e-02
 1.470811684664914e-01	 1.143518526833388e+00	-9.506512576529946e-02
 1.371062308305170e-01	 1.144757346852799e+00	-1.288306291799182e-01
 1.271509345505277e-01	 1.145905824443162e+00	-1.600759516744135e-01
 1.172163640732774e-01	 1.146964631281185e+00	-1.888799239046981e-01
 1.073035854530567e-01	 1.147934453530147e+00	-2.153218876134630e-01
 9.741364618460363e-02	 1.148815991331510e+00	-2.394814318584331e-01
 1.992238381656878e-01	 1.147539423239738e+00	 1.746401112471450e-01
 1.890649645984795e-01	 1.149256837461185e+00	 1.254607990777417e-01
 1.789201835281092e-01	 1.150879832107828e+00	 7.921059614705905e-02
 1.687906803061210e-01	 1.152409004847615e+00	 3.582319815323265e-02
 1.586776227761786e-01	 1.153844970543131e+00	-4.769746215098625e-03
 1.485821610287164e-01	 1.155188360742158e+00	-4.263813733149213e-02
 1.385054271711590e-01	 1.156439823166441e+00	-7.785300916079629e-02
 1.284485351135917e-01	 1.157600021199167e+00	-1.104861869714462e-01
 1.184125803697584e-01	 1.158669633371616e+00	-1.406100091164428e-01
 1.083986398732412e-01	 1.159649352849477e+00	-1.682971039855845e-01
 9.840777180866547e-02	 1.160539886919273e+00	-1.936202135024252e-01
 2.012364216810317e-01	 1.159132006487223e+00	 2.371579250898348e-01
 1.909749219334008e-01	 1.160866770236884e+00	 1.862299749978029e-01
 1.807276570468047e-01	 1.162506160573733e+00	 1.382928158523931e-01
 1.704958243473519e-01	 1.164050781203412e+00	 9.328144709824171e-02
 1.602806034764034e-01	 1.165501253199900e+00	 5.112950082674050e-02
 1.500831561427461e-01	 1.166858214490930e+00	 1.176965654230200e-02
 1.399046258904902e-01	 1.168122319341590e+00	-2.486602969412743e-02
 1.297461378825749e-01	 1.169294237836623e+00	-5.884587164720267e-02
 1.196087986997559e-01	 1.170374655361896e+00	-9.023836491187032e-02
 1.094936961549282e-01	 1.171364272085521e+00	-1.191120548893863e-01
 9.940189912262559e-02	 1.172263802439096e+00	-1.455354513842666e-01
 2.032490080479685e-01	 1.170724606158547e+00	 3.024593903871562e-01
 1.928848819745101e-01	 1.172476719460989e+00	 2.497209039203829e-01
 1.825351331264728e-01	 1.174132505511259e+00	 2.000583064910395e-01
 1.722009708045490e-01	 1.175692574052702e+00	 1.534053001164617e-01
 1.618835864478168e-01	 1.177157552370706e+00	 1.096949404265399e-01
 1.515841533834344e-01	 1.178528084772962e+00	 6.885996427677155e-02
 1.413038265922165e-01	 1.179804832067916e+00	 3.083302842654856e-02
 1.310437424899747e-01	 1.180988471041877e+00	-4.453129768454023e-03
 1.208050187244949e-01	 1.182079693935309e+00	-3.706559891981653e-02
 1.105887539880027e-01	 1.183079207918759e+00	-6.707125697854055e-02
 1.003960278449584e-01	 1.183987734568912e+00	-9.453678130312682e-02
 2.052615966963150e-01	 1.182317218968908e+00	 3.711805178378462e-01
 1.947948441807228e-01	 1.184086681843773e+00	 3.165827331012721e-01
 1.843426112550856e-01	 1.185758863626025e+00	 2.651664956766573e-01
 1.739061191946958e-01	 1.187334380096720e+00	 2.168618083707594e-01
 1.634865712363640e-01	 1.188813864752662e+00	 1.715987938532519e-01
 1.530851523256351e-01	 1.190197968281515e+00	 1.293079305632188e-01
 1.427030288800434e-01	 1.191487358035090e+00	 8.992019620713565e-02
 1.323413485682882e-01	 1.192682717501272e+00	 5.336713069458776e-02
 1.220012401052001e-01	 1.193784745775133e+00	 1.958083011249290e-02
 1.116838130623499e-01	 1.194794157029668e+00	-1.150611697650072e-02
 1.013901576941382e-01	 1.195711679986658e+00	-3.996073999679517e-02
 2.072741870558874e-01	 1.193909841633505e+00	 4.439329124327291e-01
 1.967048080109538e-01	 1.195696654095510e+00	 3.874399704673381e-01
 1.861500909206152e-01	 1.197385231623647e+00	 3.342519641429975e-01
 1.756112690347756e-01	 1.198976196036695e+00	 2.842929942087675e-01
 1.650895573879900e-01	 1.200470187042879e+00	 2.374880969026996e-01
 1.545861525442020e-01	 1.201867861709848e+00	 1.937633830068606e-01
 1.441022323576770e-01	 1.203169893932781e+00	 1.530460808590655e-01
 1.336389557500131e-01	 1.204376973901154e+00	 1.152644961135985e-01
 1.231974625030967e-01	 1.205489807564653e+00	 8.034790076818155e-02
 1.127788730678548e-01	 1.206509116098730e+00	 4.822636362491739e-02
 1.023842883886396e-01	 1.207435635370270e+00	 1.883053394760914e-02
 2.092867785565024e-01	 1.205502470867534e+00	 5.213047955841867e-01
 1.986147729241186e-01	 1.207306632926473e+00	 4.628935466260098e-01
 1.879575716110335e-01	 1.209011606209746e+00	 4.079255425344397e-01
 1.773164198417715e-01	 1.210618018573860e+00	 3.563169779013382e-01
 1.666925444486401e-01	 1.212126515938472e+00	 3.079858520203709e-01
 1.560871536139890e-01	 1.213537761751219e+00	 2.628520053416061e-01
 1.455014366288230e-01	 1.214852436450660e+00	 2.208370560858035e-01
 1.349365636676464e-01	 1.216071236927867e+00	 1.818642508124046e-01
 1.243936855794093e-01	 1.217194875987150e+00	 1.458582424192345e-01
 1.138739336944026e-01	 1.218224081806422e+00	 1.127448086739122e-01
 1.033784196469367e-01	 1.219159597397682e+00	 8.245052392669283e-02
 2.112993706279765e-01	 1.217095103386193e+00	 6.038619648270971e-01
 2.005247383791320e-01	 1.218916615046935e+00	 5.435218128035109e-01
 1.897650528143126e-01	 1.220637984089940e+00	 4.867753427049786e-01
 1.790215711326670e-01	 1.222259844409447e+00	 4.335290376802523e-01
 1.682955319642592e-01	 1.223782848136552e+00	 3.836921127141808e-01
 1.575881551098500e-01	 1.225207665098887e+00	 3.371764421117536e-01
 1.469006412971870e-01	 1.226534982278399e+00	 2.938963831883212e-01
 1.362341719536855e-01	 1.227765503267758e+00	 2.537685110123620e-01
 1.255899089953631e-01	 1.228899947725906e+00	 2.167112786924801e-01
 1.149689946318784e-01	 1.229939050833223e+00	 1.826446172854463e-01
 1.043725511875042e-01	 1.230883562746832e+00	 1.514894889116045e-01
 9.443128226706357e-02	 1.113644457381211e+00	-3.710605680389705e-01
 8.486888540484175e-02	 1.114413992994098e+00	-3.892538587218914e-01
 7.533057429711539e-02	 1.115099371414475e+00	-4.053855987713759e-01
 6.581728732882340e-02	 1.115701308460522e+00	-4.194885956854830e-01
 5.632994499261373e-02	 1.116220531521325e+00	-4.315956420581797e-01
 4.686944979332704e-02	 1.116657779078045e+00	-4.417392589766638e-01
 3.743668616527732e-02	 1.117013800227352e+00	-4.499514501721071e-01
 2.803252040211605e-02	 1.117289354207472e+00	-4.562634626881041e-01
 1.865780059905909e-02	 1.117485209927222e+00	-4.607055501785595e-01
 9.313356607246925e-03	 1.117602145498313e+00	-4.633067353090206e-01
 0.000000000000000e+00	 1.117640947771301e+00	-4.640945680336834e-01
 9.542540113227709e-02	 1.125368273240415e+00	-3.274375639928260e-01
 8.576233679137982e-02	 1.126145910086474e+00	-3.469332175467477e-01
 7.612361176606906e-02	 1.126838503780811e+00	-3.642669130189664e-01
 6.651017432006200e-02	 1.127446777677372e+00	-3.794594178386608e-01
 5.692295463642473e-02	 1.127971466822820e+00	-3.925317237007198e-01
 4.736286472105108e-02	 1.128413317472666e+00	-4.035048577440379e-01
 3.783079831907185e-02	 1.128773086609680e+00	-4.123997016401817e-01
 2.832763084398085e-02	 1.129051541464956e+00	-4.192368139982094e-01
 1.885421931925366e-02	 1.129249459041981e+00	-4.240362518748571e-01
 9.411402332227209e-03	 1.129367625644021e+00	-4.268173875716657e-01
 0.000000000000000e+00	 1.129406836405184e+00	-4.275987172341216e-01
 9.641952253196563e-02	 1.137092118997869e+00	-2.838377513662267e-01
 8.665579045571563e-02	 1.137877857097793e+00	-3.045529858182778e-01
 7.691665125681468e-02	 1.138577666084521e+00	-3.230054424723972e-01
 6.720306307777608e-02	 1.139192276847785e+00	-3.392064103811050e-01
 5.751596579210206e-02	 1.139722432091846e+00	-3.531676340196110e-01
 4.785628090675662e-02	 1.140168885846581e+00	-3.649011951034260e-01
 3.822491147770436e-02	 1.140532402980881e+00	-3.744193993338887e-01
 2.862274203829787e-02	 1.140813758718728e+00	-3.817346630990501e-01
 1.905063854028846e-02	 1.141013738158299e+00	-3.868593955757178e-01
 9.509448307225225e-03	 1.141133135794435e+00	-3.898058721107098e-01
 0.000000000000000e+00	 1.141172755044817e+00	-3.905860951228846e-01
 9.741364618460363e-02	 1.148815991331510e+00	-2.394814318584331e-01
 8.754924614483411e-02	 1.149609830703705e+00	-2.613393943260984e-01
 7.770969254477189e-02	 1.150316854999224e+00	-2.808337817742963e-01
 6.789595340574302e-02	 1.150937802643601e+00	-2.979687724306679e-01
 5.810897829170187e-02	 1.151473423998709e+00	-3.127492246198726e-01
 4.834969821069865e-02	 1.151924480868808e+00	-3.251806325042179e-01
 3.861902552954706e-02	 1.152291746008928e+00	-3.352690836160388e-01
 2.891785390147374e-02	 1.152576002635953e+00	-3.430212128059855e-01
 1.924705820652041e-02	 1.152778043942768e+00	-3.484441476941189e-01
 9.607494504462768e-03	 1.152898672615807e+00	-3.515454411797250e-01
 0.000000000000000e+00	 1.152938700356340e+00	-3.523329869632157e-01
 9.840777180866547e-02	 1.160539886919273e+00	-1.936202135024252e-01
 8.844270360572018e-02	 1.161341827579859e+00	-2.165499750247091e-01
 7.850273540536049e-02	 1.162056067198540e+00	-2.370158034940362e-01
 6.858884510774008e-02	 1.162683351736658e+00	-2.550169399069153e-01
 5.870199196728036e-02	 1.163224439213715e+00	-2.705535250720077e-01
 4.884311649313206e-02	 1.163680099208367e+00	-2.836266329976445e-01
 3.901314036297220e-02	 1.164051112361794e+00	-2.942383027585134e-01
 2.921296634991509e-02	 1.164338269883796e+00	-3.023915630463465e-01
 1.944347826230644e-02	 1.164542373061981e+00	-3.080904441114476e-01
 9.705540896161611e-03	 1.164664232774388e+00	-3.113399723096744e-01
 0.000000000000000e+00	 1.164704669005890e+00	-3.121461429079901e-01
 9.940189912262559e-02	 1.172263802439096e+00	-1.455354513842666e-01
 8.933616258535888e-02	 1.173073844401907e+00	-1.694720004921710e-01
 7.929577961400014e-02	 1.173795299356085e+00	-1.908450983151009e-01
 6.928173798754458e-02	 1.174428920798795e+00	-2.096510281479054e-01
 5.929500665089372e-02	 1.174975474407171e+00	-2.258871893801717e-01
 4.933653561431182e-02	 1.175435737534277e+00	-2.395522126970455e-01
 3.940725586635194e-02	 1.175810498707453e+00	-2.506460702591427e-01
 2.950807930002855e-02	 1.176100557129425e+00	-2.591701746224251e-01
 1.963989865200346e-02	 1.176306722182532e+00	-2.651274607032272e-01
 9.803587454543555e-03	 1.176429812936431e+00	-2.685224456459676e-01
 0.000000000000000e+00	 1.176470657659607e+00	-2.693612619282097e-01
 1.003960278449584e-01	 1.183987734568912e+00	-9.453678130312593e-02
 9.022962283073505e-02	 1.184805877845498e+00	-1.194210162824345e-01
 8.008882494611064e-02	 1.185534548145479e+00	-1.416435079756320e-01
 6.997463184893379e-02	 1.186174506501850e+00	-1.611993670698522e-01
 5.988802217459810e-02	 1.186726526249384e+00	-1.780850347195160e-01
 4.982995543449285e-02	 1.187191392515558e+00	-1.922984841857445e-01
 3.980137192805853e-02	 1.187569901713879e+00	-2.038394137474620e-01
 2.980319266822080e-02	 1.187862861040004e+00	-2.127094241783638e-01
 1.983631931996841e-02	 1.188071087971014e+00	-2.189121746709182e-01
 9.901634151830378e-03	 1.188195409768187e+00	-2.224535116909858e-01
 0.000000000000000e+00	 1.188236662983631e+00	-2.233415657593842e-01
 1.013901576941382e-01	 1.195711679986658e+00	-3.996073999679517e-02
 9.112308408883363e-02	 1.196537924586281e+00	-6.573945979565332e-02
 8.088187117711176e-02	 1.197273810240342e+00	-8.875974460334257e-02
 7.066752649568508e-02	 1.197920105517663e+00	-1.090171225238934e-01
 6.048103837044966e-02	 1.198477591410661e+00	-1.265086661167580e-01
 5.032337581393012e-02	 1.198947060821230e+00	-1.412332855669443e-01
 4.019548843646414e-02	 1.199329318049044e+00	-1.531920091959122e-01
 3.009830637089844e-02	 1.199625178282699e+00	-1.623882441134321e-01
 2.003274021055819e-02	 1.199835467094019e+00	-1.688280104493265e-01
 9.999680960243878e-03	 1.199961019935908e+00	-1.725201432510663e-01
 0.000000000000000e+00	 1.200002681644098e+00	-1.734764566895077e-01
 1.023842883886396e-01	 1.207435635370270e+00	 1.883053394760914e-02
 9.201654610663965e-02	 1.208269981299909e+00	-7.795359791574086e-03
 8.167491808242316e-02	 1.209013082314292e+00	-3.156809057303134e-02
 7.136042173157572e-02	 1.209665714518071e+00	-5.248499799256523e-02
 6.107405507050463e-02	 1.210228666561309e+00	-7.054518123316567e-02
 5.081679661287853e-02	 1.210702739120310e+00	-8.574988933646210e-02
 4.058960527994102e-02	 1.211088744380923e+00	-9.810289464119504e-02
 3.039342032446815e-02	 1.211387505524679e+00	-1.076108416714627e-01
 2.022916126812975e-02	 1.211599856218141e+00	-1.142835644444431e-01
 1.009772785200583e-02	 1.211726640105846e+00	-1.181343658669936e-01
 0.000000000000000e+00	 1.211768710307149e+00	-1.191802534937816e-01
 1.033784196469367e-01	 1.219159597397682e+00	 8.245052392669194e-02
 9.291000863113799e-02	 1.220002044662028e+00	 5.501888888066486e-02
 8.246796543746465e-02	 1.220752361040947e+00	 3.053282652940670e-02
 7.205331736038299e-02	 1.221411330174915e+00	 8.991988778004556e-03
 6.166707210681918e-02	 1.221979748371634e+00	-9.605949862560914e-03
 5.131021769159308e-02	 1.222458424081821e+00	-2.526578570811200e-02
 4.098372234686138e-02	 1.222848177377490e+00	-3.799525806803983e-02
 3.068853444533653e-02	 1.223149839433106e+00	-4.780549188079952e-02
 2.042558243703999e-02	 1.223364252009973e+00	-5.471140329804158e-02
 1.019577479933804e-02	 1.223492266944253e+00	-5.873206144756660e-02
 0.000000000000000e+00	 1.223534745638923e+00	-5.989100025798377e-02
 1.043725511875042e-01	 1.230883562746832e+00	 1.514894889116045e-01
 9.380347140931360e-02	 1.231734111348292e+00	 1.232876803490379e-01
 8.326101301765595e-02	 1.232491643093927e+00	 9.812118884245757e-02
 7.274621318588424e-02	 1.233156949160033e+00	 7.598565920465328e-02
 6.226008931144947e-02	 1.233730833511943e+00	 5.687453683638632e-02
 5.180363891032868e-02	 1.234214112374779e+00	 4.077846456904077e-02
 4.137783952559742e-02	 1.234607613706718e+00	 2.768470548911250e-02
 3.098364864991027e-02	 1.234912176675148e+00	 1.757660058027044e-02
 2.062200366164586e-02	 1.235128651136109e+00	 1.043306922129617e-02
 1.029382177446227e-02	 1.235257897117380e+00	 6.228159771223707e-03
 0.000000000000000e+00	 1.235300784305558e+00	 4.930656766925390e-03
 1.235300784305558e+00	 0.000000000000000e+00	 2.023279586955894e+01
 1.235257897117380e+00	 1.029382177446159e-02	 2.023170660661785e+01
 1.235128651136109e+00	 2.062200366164527e-02	 2.022780198921888e+01
 1.234912176675148e+00	 3.098364864990978e-02	 2.022110389496027e+01
 1.234607613706718e+00	 4.137783952559704e-02	 2.021162578436502e+01
 1.234214112374779e+00	 5.180363891032840e-02	 2.019937236168283e+01
 1.233730833511943e+00	 6.226008931144928e-02	 2.018433923610245e+01
 1.233156949160033e+00	 7.274621318588417e-02	 2.016651258449411e+01
 1.232491643093927e+00	 8.326101301765594e-02	 2.014586881710086e+01
 1.231734111348292e+00	 9.380347140931372e-02	 2.012237424785314e+01
 1.230883562746831e+00	 1.043725511875043e-01	 2.009598477125617e+01
 1.247064823522136e+00	 0.000000000000000e+00	 1.991987912866394e+01
 1.247021527909842e+00	 1.039185208807583e-02	 1.991878911629670e+01
 1.246891051090703e+00	 2.081839150763952e-02	 1.991509894214983e+01
 1.246672515095922e+00	 3.127871270462662e-02	 1.990882802003503e+01
 1.246365051707504e+00	 4.177188973056788e-02	 1.989998694153989e+01
 1.245967802976057e+00	 5.229697628024065e-02	 1.988857712723220e+01
 1.245479921742635e+00	 6.285300574259391e-02	 1.987459047601047e+01
 1.244900572164251e+00	 7.343899126521140e-02	 1.985800901362740e+01
 1.244228930242707e+00	 8.405392583256915e-02	 1.983880454172887e+01
 1.243464184356351e+00	 9.469678235833402e-02	 1.981693828902716e+01
 1.242605535794355e+00	 1.053665137919405e-01	 1.979236056651847e+01
 1.258828862739513e+00	 0.000000000000000e+00	 1.962113010426248e+01
 1.258785158703081e+00	 1.048988240170249e-02	 1.962001900632072e+01
 1.258653451046015e+00	 2.101477935368090e-02	 1.961651943636636e+01
 1.258432853517321e+00	 3.157377675944378e-02	 1.961064691363040e+01
 1.258122489708798e+00	 4.216593993570673e-02	 1.960240778733438e+01
 1.257721493577711e+00	 5.279031365039921e-02	 1.959179888101000e+01
 1.257229009973564e+00	 6.344592217406975e-02	 1.957880713248169e+01
 1.256644195168565e+00	 7.413176934495716e-02	 1.956340923042903e+01
 1.255966217391450e+00	 8.484683864798655e-02	 1.954557124878323e+01
 1.255194257364255e+00	 9.559009330793838e-02	 1.952524828050528e+01
 1.254327508841632e+00	 1.063604763970304e-01	 1.950238407260468e+01
 1.270592901957491e+00	 0.000000000000000e+00	 1.933561075793812e+01
 1.270548789496904e+00	 1.058791271534017e-02	 1.933445643802777e+01
 1.270415851001863e+00	 2.121116719976406e-02	 1.933112204972090e+01
 1.270193191939190e+00	 3.186884081434962e-02	 1.932561779615358e+01
 1.269879927710475e+00	 4.255999014099385e-02	 1.931794442355671e+01
 1.269475184179651e+00	 5.328365102077453e-02	 1.930809286147634e+01
 1.268978098204674e+00	 6.403883860583609e-02	 1.929604385593951e+01
 1.268387818172957e+00	 7.482454742506885e-02	 1.928176759635955e+01
 1.267703504540177e+00	 8.563975146384303e-02	 1.926522333733014e+01
 1.266924330372060e+00	 9.648340425804881e-02	 1.924635901677097e+01
 1.266049481888746e+00	 1.073544390026837e-01	 1.922511087222005e+01
 1.282356941175869e+00	 0.000000000000000e+00	 1.906241729759679e+01
 1.282312420291116e+00	 1.068594302898748e-02	 1.906119747934906e+01
 1.282178250958071e+00	 2.140755504588359e-02	 1.905800281148846e+01
 1.281953530361371e+00	 3.216390486933255e-02	 1.905283676726373e+01
 1.281637365712408e+00	 4.295404034640939e-02	 1.904569314071770e+01
 1.281228874781783e+00	 5.377698839133703e-02	 1.903655568566849e+01
 1.280727186435910e+00	 6.463175503785237e-02	 1.902539774467401e+01
 1.280131441177411e+00	 7.551732550549381e-02	 1.901218186863225e+01
 1.279440791688905e+00	 8.643266428007335e-02	 1.899685942804816e+01
 1.278654403379817e+00	 9.737671520858741e-02	 1.897937021732906e+01
 1.277771454935777e+00	 1.083484016088095e-01	 1.895964205382536e+01
 1.294120980394446e+00	 0.000000000000000e+00	 1.880067862143603e+01
 1.294076051085523e+00	 1.078397334264302e-02	 1.879937250605418e+01
 1.293940650914459e+00	 2.160394289203413e-02	 1.879629356122560e+01
 1.293713868783711e+00	 3.245896892438092e-02	 1.879143712272558e+01
 1.293394803714473e+00	 4.334809055193357e-02	 1.878478869330213e+01
 1.292982565384017e+00	 5.427032576205711e-02	 1.877632358336006e+01
 1.292476274667218e+00	 6.522467147007795e-02	 1.876600653840597e+01
 1.291875064181908e+00	 7.621010358617944e-02	 1.875379135374999e+01
 1.291178078837654e+00	 8.722557709661240e-02	 1.873962047735845e+01
 1.290384476387579e+00	 9.827002615947622e-02	 1.872342460210343e+01
 1.289493427982807e+00	 1.093423642153174e-01	 1.870512224903438e+01
 1.305885019613024e+00	 0.000000000000000e+00	 1.854955484601937e+01
 1.305839681879930e+00	 1.088200365630538e-02	 1.854814468936213e+01
 1.305703050870846e+00	 2.180033073821032e-02	 1.854516039614991e+01
 1.305474207206051e+00	 3.275403297948313e-02	 1.854058776182746e+01
 1.305152241716542e+00	 4.374214075754658e-02	 1.853440266753735e+01
 1.304736255986260e+00	 5.476366313290518e-02	 1.852657072553463e+01
 1.304225362898544e+00	 6.581758790247220e-02	 1.851704690786672e+01
 1.303618687186434e+00	 7.690288166707321e-02	 1.850577515863989e+01
 1.302915365986445e+00	 8.801848991339500e-02	 1.849268799061250e+01
 1.302114549395401e+00	 9.916333711063731e-02	 1.847770606722989e+01
 1.301215401029919e+00	 1.103363268221167e-01	 1.846073777161704e+01
 1.317649058831402e+00	 0.000000000000000e+00	 1.830823591319968e+01
 1.317603312674141e+00	 1.098003396997318e-02	 1.830670856452099e+01
 1.317465450827056e+00	 2.199671858440674e-02	 1.830380220150689e+01
 1.317234545628240e+00	 3.304909703462756e-02	 1.829949167970321e+01
 1.316909679718492e+00	 4.413619096322865e-02	 1.829374193587672e+01
 1.316489946588423e+00	 5.525700050385172e-02	 1.828650764127912e+01
 1.315974451129833e+00	 6.641050433499449e-02	 1.827773283439243e+01
 1.315362310190970e+00	 7.759565974812246e-02	 1.826735053328526e+01
 1.314652653135296e+00	 8.881140273035600e-02	 1.825528232814726e+01
 1.313844622403334e+00	 1.000566480619927e-01	 1.824143795496890e+01
 1.312937374077192e+00	 1.113302894291167e-01	 1.822571485175795e+01
 1.329413098049379e+00	 0.000000000000000e+00	 1.807594027100757e+01
 1.329366943467965e+00	 1.107806428364501e-02	 1.807428867534028e+01
 1.329227850782908e+00	 2.219310643061804e-02	 1.807144925878371e+01
 1.328994884050118e+00	 3.334416108980259e-02	 1.806738453929883e+01
 1.328667117720193e+00	 4.453024116895996e-02	 1.806204719282751e+01
 1.328243637190411e+00	 5.575033787486709e-02	 1.805537971761974e+01
 1.327723539361028e+00	 6.700342076760418e-02	 1.804731407395688e+01
 1.327105933195499e+00	 7.828843782927465e-02	 1.803777129918756e+01
 1.326389940284228e+00	 8.960431554743027e-02	 1.802666109845396e+01
 1.325574695411432e+00	 1.009499590134645e-01	 1.801388141190803e+01
 1.324659347124710e+00	 1.123242520362270e-01	 1.799931795966921e+01
 1.341177137266757e+00	 0.000000000000000e+00	 1.785191362396287e+01
 1.341130574261205e+00	 1.117609459731948e-02	 1.785013829001287e+01
 1.340990250738223e+00	 2.238949427683884e-02	 1.784736192698976e+01
 1.340755222471532e+00	 3.363922514499658e-02	 1.784353331809301e+01
 1.340424555721523e+00	 4.492429137472072e-02	 1.783859156712710e+01
 1.339997327792134e+00	 5.624367524592172e-02	 1.783246577720716e+01
 1.339472627592077e+00	 6.759633720026065e-02	 1.782507470045746e+01
 1.338849556200005e+00	 7.898121591047708e-02	 1.781632635838724e+01
 1.338127227433259e+00	 9.039722836455261e-02	 1.780611763311174e+01
 1.337304768419748e+00	 1.018432699649747e-01	 1.779433383003265e+01
 1.336381320172553e+00	 1.133182146433568e-01	 1.778084821307129e+01
 1.352941176483334e+00	 0.000000000000000e+00	 1.763542774858413e+01
 1.352894205053666e+00	 1.127412491099520e-02	 1.763353818388651e+01
 1.352752650692823e+00	 2.258588212306376e-02	 1.763082939255647e+01
 1.352515560892325e+00	 3.393428920019793e-02	 1.762723502502140e+01
 1.352181993722354e+00	 4.531834158049113e-02	 1.762267930562097e+01
 1.351751018393503e+00	 5.673701261698608e-02	 1.761707672911218e+01
 1.351221715822924e+00	 6.818925363292330e-02	 1.761033172343052e+01
 1.350593179204471e+00	 7.967399399167724e-02	 1.760233827813997e+01
 1.349864514582410e+00	 9.119014118165783e-02	 1.759297953850887e+01
 1.349034841428336e+00	 1.027365809164454e-01	 1.758212736562052e+01
 1.348103293220804e+00	 1.143121772504156e-01	 1.756964186343632e+01
 1.230883562746831e+00	 1.043725511875043e-01	 2.009598477125617e+01
 1.229939050833223e+00	 1.149689946318778e-01	 2.006679139461931e+01
 1.228899947725906e+00	 1.255899089953627e-01	 2.003487188081816e+01
 1.227765503267758e+00	 1.362341719536851e-01	 2.000013200816370e+01
 1.226534982278399e+00	 1.469006412971867e-01	 1.996246666229625e+01
 1.225207665098888e+00	 1.575881551098497e-01	 1.992175963660647e+01
 1.223782848136552e+00	 1.682955319642590e-01	 1.987788345787660e+01
 1.222259844409447e+00	 1.790215711326668e-01	 1.983069924127641e+01
 1.220637984089939e+00	 1.897650528143125e-01	 1.978005657919179e+01
 1.218916615046936e+00	 2.005247383791319e-01	 1.972579346870451e+01
 1.217095103386193e+00	 2.112993706279765e-01	 1.966773628288292e+01
 1.242605535794355e+00	 1.053665137919405e-01	 1.979236056651848e+01
 1.241652029087102e+00	 1.160638694819423e-01	 1.976517518468026e+01
 1.240603030373579e+00	 1.267859291330024e-01	 1.973547218603132e+01
 1.239457782352756e+00	 1.375315597327005e-01	 1.970315125889798e+01
 1.238215542842965e+00	 1.482996081938588e-01	 1.966810077188631e+01
 1.236875585331799e+00	 1.590889015352722e-01	 1.963019754341035e+01
 1.235437199526119e+00	 1.698982470785265e-01	 1.958930663401298e+01
 1.233899691901696e+00	 1.807264326610737e-01	 1.954528116574415e+01
 1.232262386251986e+00	 1.915722268657165e-01	 1.949796217323268e+01
 1.230524624235507e+00	 2.024343792666381e-01	 1.944717849146197e+01
 1.228685765921302e+00	 2.133116206920999e-01	 1.939274668562971e+01
 1.254327508841632e+00	 1.063604763970304e-01	 1.950238407260468e+01
 1.253365007340673e+00	 1.171587443327168e-01	 1.947709723064860e+01
 1.252306113020913e+00	 1.279819492713938e-01	 1.944949305481914e+01
 1.251150061437405e+00	 1.388289475124948e-01	 1.941946570600451e+01
 1.249896103407196e+00	 1.496985750913226e-01	 1.938689768301450e+01
 1.248543505564404e+00	 1.605896479614842e-01	 1.935165955972734e+01
 1.247091550915417e+00	 1.715009621935666e-01	 1.931360974222633e+01
 1.245539539393727e+00	 1.824312941902219e-01	 1.927259425031774e+01
 1.243886788413867e+00	 1.933794009178153e-01	 1.922844652822527e+01
 1.242132633423963e+00	 2.043440201547779e-01	 1.918098728966334e+01
 1.240276428456341e+00	 2.153238707567809e-01	 1.913002440289403e+01
 1.266049481888746e+00	 1.073544390026837e-01	 1.922511087222005e+01
 1.265077985594041e+00	 1.182536191840984e-01	 1.920161427618883e+01
 1.264009195668025e+00	 1.291779694104228e-01	 1.917599272347584e+01
 1.262842340521835e+00	 1.401263352929441e-01	 1.914813541941865e+01
 1.261576663971225e+00	 1.510975419894457e-01	 1.911791965295149e+01
 1.260211425796837e+00	 1.620903943883478e-01	 1.908521049981954e+01
 1.258745902304583e+00	 1.731036773092387e-01	 1.904986054258676e+01
 1.257179386885668e+00	 1.841361557199702e-01	 1.901170961195297e+01
 1.255511190575701e+00	 1.951865749704715e-01	 1.897058455433440e+01
 1.253740642612413e+00	 2.062536610434213e-01	 1.892629903110182e+01
 1.251867090991410e+00	 2.173361208219013e-01	 1.887865335531079e+01
 1.277771454935777e+00	 1.083484016088095e-01	 1.895964205382536e+01
 1.276790963847309e+00	 1.193484940359845e-01	 1.893782903099414e+01
 1.275712278315037e+00	 1.303739895499755e-01	 1.891407573727258e+01
 1.274534619606176e+00	 1.414237230739244e-01	 1.888826700541694e+01
 1.273257224535189e+00	 1.524965088880963e-01	 1.886027558904767e+01
 1.271879346029234e+00	 1.635911408157250e-01	 1.882996183031630e+01
 1.270400253693749e+00	 1.747063924254011e-01	 1.879717334075855e+01
 1.268819234377645e+00	 1.858410172501773e-01	 1.876174469997038e+01
 1.267135592737608e+00	 1.969937490235472e-01	 1.872349717721874e+01
 1.265348651800970e+00	 2.081633019324382e-01	 1.868223848157538e+01
 1.263457753526609e+00	 2.193483708873434e-01	 1.863776254664009e+01
 1.289493427982807e+00	 1.093423642153174e-01	 1.870512224903438e+01
 1.288503942100581e+00	 1.204433688882723e-01	 1.868488817086947e+01
 1.287415360962067e+00	 1.315700096899379e-01	 1.866289091384100e+01
 1.286226898690559e+00	 1.427211108553119e-01	 1.863901153391785e+01
 1.284937785099221e+00	 1.538954757871424e-01	 1.861311894057124e+01
 1.283547266261732e+00	 1.650918872434780e-01	 1.858506952721562e+01
 1.282054605083047e+00	 1.763091075419129e-01	 1.855470681079785e+01
 1.280459081869787e+00	 1.875458787807021e-01	 1.852186108529019e+01
 1.278759994899708e+00	 1.988009230769049e-01	 1.848634909435474e+01
 1.276956660989742e+00	 2.100729428216987e-01	 1.844797372896299e+01
 1.275048416062042e+00	 2.213606209529891e-01	 1.840652375627230e+01
 1.301215401029919e+00	 1.103363268221167e-01	 1.846073777161704e+01
 1.300216920353960e+00	 1.215382437408589e-01	 1.844198044050861e+01
 1.299118443609234e+00	 1.327660298301957e-01	 1.842162941022121e+01
 1.297919177775111e+00	 1.440184986369824e-01	 1.839956257030121e+01
 1.296618345663457e+00	 1.552944426864517e-01	 1.837564569580508e+01
 1.295215186494465e+00	 1.665926336714687e-01	 1.834973203877063e+01
 1.293708956472612e+00	 1.779118226586330e-01	 1.832166192434937e+01
 1.292098929362221e+00	 1.892507403114035e-01	 1.829126235647058e+01
 1.290384397062122e+00	 2.006080971304069e-01	 1.825834663845915e+01
 1.288564670178843e+00	 2.119825837110725e-01	 1.822271401458769e+01
 1.286639078597807e+00	 2.233728710187205e-01	 1.818414933910253e+01
 1.312937374077192e+00	 1.113302894291167e-01	 1.822571485175795e+01
 1.311929898607551e+00	 1.226331185936416e-01	 1.820833485254669e+01
 1.310821526256661e+00	 1.339620499706352e-01	 1.818952288709562e+01
 1.309611456859965e+00	 1.453158864188123e-01	 1.816915430521503e+01
 1.308298906228031e+00	 1.566934095858923e-01	 1.814709247782404e+01
 1.306883106727571e+00	 1.680933800995593e-01	 1.812318834764353e+01
 1.305363307862575e+00	 1.795145377754201e-01	 1.809727997959305e+01
 1.303738776855076e+00	 1.909556018421401e-01	 1.806919211587439e+01
 1.302008799224969e+00	 2.024152711839154e-01	 1.803873574131680e+01
 1.300172679368381e+00	 2.138922246004298e-01	 1.800570766516109e+01
 1.298229741134006e+00	 2.253851210844198e-01	 1.796989012606491e+01
 1.324659347124710e+00	 1.123242520362270e-01	 1.799931795966921e+01
 1.323642876861457e+00	 1.237279934465176e-01	 1.798321897692428e+01
 1.322524608904463e+00	 1.351580701111421e-01	 1.796584176418800e+01
 1.321303735945247e+00	 1.466132742006774e-01	 1.794705977629890e+01
 1.319979466793079e+00	 1.580923764853321e-01	 1.792673473284007e+01
 1.318551026961184e+00	 1.695941265276117e-01	 1.790471612617846e+01
 1.317017659253071e+00	 1.811172528921333e-01	 1.788084072376196e+01
 1.315378624348478e+00	 1.926604633727708e-01	 1.785493206976275e+01
 1.313633201388369e+00	 2.042224452372930e-01	 1.782679999179491e+01
 1.311780688558469e+00	 2.158018654896404e-01	 1.779624011908081e+01
 1.309820403670740e+00	 2.273973711499690e-01	 1.776303341909268e+01
 1.336381320172553e+00	 1.133182146433568e-01	 1.778084821307130e+01
 1.335355855115781e+00	 1.248228682993842e-01	 1.776593731501751e+01
 1.334227691552762e+00	 1.363540902516026e-01	 1.774989356123026e+01
 1.332996015031089e+00	 1.479106619824538e-01	 1.773258917618107e+01
 1.331660027358734e+00	 1.594913433846390e-01	 1.771388500543122e+01
 1.330218947195440e+00	 1.710948729554881e-01	 1.769362997907564e+01
 1.328672010644233e+00	 1.827199680086312e-01	 1.767166056348653e+01
 1.327018471842556e+00	 1.943653249031543e-01	 1.764780020654846e+01
 1.325257603552443e+00	 2.060296192904019e-01	 1.762185878226171e+01
 1.323388697749217e+00	 2.177115063785743e-01	 1.759363204128707e+01
 1.321411066208111e+00	 2.294096212152501e-01	 1.756290107470682e+01
 1.348103293220804e+00	 1.143121772504156e-01	 1.756964186343632e+01
 1.347068833370628e+00	 1.259177431521386e-01	 1.755582975337515e+01
 1.345930774201676e+00	 1.375501103919023e-01	 1.754102131928868e+01
 1.344688294117620e+00	 1.492080497640176e-01	 1.752508824149748e+01
 1.343340587925133e+00	 1.608903102836810e-01	 1.750789129536712e+01
 1.341886867430475e+00	 1.725956193830505e-01	 1.748927976814722e+01
 1.340326362036193e+00	 1.843226831247728e-01	 1.746909085761961e+01
 1.338658319337436e+00	 1.960701864331496e-01	 1.744714905784432e+01
 1.336882005717310e+00	 2.078367933431044e-01	 1.742326553802867e+01
 1.334996706940735e+00	 2.196211472671013e-01	 1.739723752129024e+01
 1.333001728746217e+00	 2.314218712801452e-01	 1.736884767084024e+01
 1.217095103386193e+00	 2.112993706279765e-01	 1.966773628288292e+01
 1.215173169181184e+00	 2.220858396490275e-01	 1.960677108038138e+01
 1.213149915059019e+00	 2.328846852751176e-01	 1.954377656141460e+01
 1.211024764402856e+00	 2.436945999421323e-01	 1.947858362052847e+01
 1.208797160934544e+00	 2.545142587938903e-01	 1.941101490144891e+01
 1.206466569236455e+00	 2.653423200252899e-01	 1.934088510022477e+01
 1.204032475268085e+00	 2.761774252422130e-01	 1.926800134592968e+01
 1.201494386876892e+00	 2.870181998381784e-01	 1.919216366595957e+01
 1.198851834302765e+00	 2.978632533877028e-01	 1.911316554316229e+01
 1.196104370675531e+00	 3.087111800563152e-01	 1.903079457219934e+01
 1.193251572504952e+00	 3.195605590271466e-01	 1.894483322266699e+01
 1.228685765921302e+00	 2.133116206920999e-01	 1.939274668562971e+01
 1.226745528717041e+00	 2.242008116139073e-01	 1.933558774905150e+01
 1.224703006703957e+00	 2.351024970058388e-01	 1.927661651598469e+01
 1.222557617773954e+00	 2.460153568515620e-01	 1.921565262948189e+01
 1.220308800351323e+00	 2.569380536780024e-01	 1.915250630743372e+01
 1.217956013919532e+00	 2.678692329017561e-01	 1.908697859219039e+01
 1.215498739542758e+00	 2.788075231924229e-01	 1.901886167829941e+01
 1.212936480381579e+00	 2.897515368528447e-01	 1.894793932585988e+01
 1.210268762202250e+00	 3.006998702162137e-01	 1.887398736722263e+01
 1.207495133878961e+00	 3.116511040599925e-01	 1.879677431495741e+01
 1.204615167888475e+00	 3.226038040365630e-01	 1.871606207916263e+01
 1.240276428456341e+00	 2.153238707567809e-01	 1.913002440289403e+01
 1.238317888252864e+00	 2.263157835792542e-01	 1.907650948567621e+01
 1.236256098348886e+00	 2.373203087369251e-01	 1.902138857159306e+01
 1.234090471145060e+00	 2.483361137612477e-01	 1.896447038105843e+01
 1.231820439768116e+00	 2.593618485622579e-01	 1.890555306410920e+01
 1.229445458602622e+00	 2.703961457782539e-01	 1.884442439213138e+01
 1.226965003817432e+00	 2.814376211425568e-01	 1.878086202799995e+01
 1.224378573886246e+00	 2.924848738673359e-01	 1.871463388261527e+01
 1.221685690101690e+00	 3.035364870444638e-01	 1.864549856607883e+01
 1.218885897082306e+00	 3.145910280633389e-01	 1.857320594197429e+01
 1.215978763271868e+00	 3.256470490455998e-01	 1.849749779340176e+01
 1.251867090991410e+00	 2.173361208219013e-01	 1.887865335531079e+01
 1.249890247788744e+00	 2.284307555449669e-01	 1.882862532400375e+01
 1.247809189993888e+00	 2.395381204682964e-01	 1.877718712072421e+01
 1.245623324516245e+00	 2.506568706711335e-01	 1.872413693459427e+01
 1.243332079184988e+00	 2.617856434466271e-01	 1.866926127060150e+01
 1.240934903285781e+00	 2.729230586547806e-01	 1.861233507880473e+01
 1.238431268092155e+00	 2.840677190926393e-01	 1.855312196197482e+01
 1.235820667390937e+00	 2.952182108817035e-01	 1.849137447015425e+01
 1.233102618001120e+00	 3.063731038725281e-01	 1.842683449091432e+01
 1.230276660285602e+00	 3.175309520664517e-01	 1.835923374434351e+01
 1.227342358655166e+00	 3.286902940543719e-01	 1.828829439201489e+01
 1.263457753526609e+00	 2.193483708873434e-01	 1.863776254664009e+01
 1.261462607324771e+00	 2.305457275109444e-01	 1.859106877831584e+01
 1.259362281639043e+00	 2.417559321998727e-01	 1.854315035517688e+01
 1.257156177887583e+00	 2.529776275811633e-01	 1.849379539179517e+01
 1.254843718602000e+00	 2.642094383310801e-01	 1.844277923880602e+01
 1.252424347969061e+00	 2.754499715313337e-01	 1.838986454471160e+01
 1.249897532366977e+00	 2.866978170426955e-01	 1.833480139584595e+01
 1.247262760895695e+00	 2.979515478959988e-01	 1.827732754350777e+01
 1.244519545900578e+00	 3.092097207004831e-01	 1.821716872759626e+01
 1.241667423488883e+00	 3.204708760694289e-01	 1.815403910637772e+01
 1.238705954038400e+00	 3.317335390629949e-01	 1.808764180225625e+01
 1.275048416062042e+00	 2.213606209529891e-01	 1.840652375627231e+01
 1.273034966861035e+00	 2.326606994770856e-01	 1.836301550477881e+01
 1.270915373284434e+00	 2.439737439315739e-01	 1.831845789643636e+01
 1.268689031259143e+00	 2.552983844912808e-01	 1.827262949636420e+01
 1.266355358019217e+00	 2.666332332155869e-01	 1.822529506256553e+01
 1.263913792652520e+00	 2.779768844079102e-01	 1.817620553518221e+01
 1.261363796641944e+00	 2.893279149927502e-01	 1.812509810332633e+01
 1.258704854400559e+00	 3.006848849102730e-01	 1.807169635903538e+01
 1.255936473800101e+00	 3.120463375284044e-01	 1.801571054826849e+01
 1.253058186692183e+00	 3.234108000723677e-01	 1.795683792918942e+01
 1.250069549421605e+00	 3.347767840715839e-01	 1.789476324826344e+01
 1.286639078597807e+00	 2.233728710187205e-01	 1.818414933910253e+01
 1.284607326397629e+00	 2.347756714432896e-01	 1.814368107015850e+01
 1.282468464930141e+00	 2.461915556633198e-01	 1.810232853333328e+01
 1.280221884630999e+00	 2.576191414014302e-01	 1.805986134076590e+01
 1.277866997436700e+00	 2.690570281001174e-01	 1.801603429376081e+01
 1.275403237336211e+00	 2.805037972845076e-01	 1.797058729407745e+01
 1.272830060917104e+00	 2.919580129428275e-01	 1.792324533187979e+01
 1.270146947905573e+00	 3.034182219245772e-01	 1.787371856045671e+01
 1.267353401699727e+00	 3.148829543563679e-01	 1.782170246823493e+01
 1.264448949895537e+00	 3.263507240753658e-01	 1.776687815897491e+01
 1.261433144804814e+00	 3.378200290802544e-01	 1.770891275136050e+01
 1.298229741134006e+00	 2.253851210844198e-01	 1.796989012606491e+01
 1.296179685934643e+00	 2.368906434094554e-01	 1.793231882119047e+01
 1.294021556576245e+00	 2.484093673950304e-01	 1.789401806028480e+01
 1.291754738003221e+00	 2.599398983115553e-01	 1.785474917343156e+01
 1.289378636854513e+00	 2.714808229846418e-01	 1.781425771863412e+01
 1.286892682020190e+00	 2.830307101611235e-01	 1.777227330944522e+01
 1.284296325192505e+00	 2.945881108929529e-01	 1.772850951799002e+01
 1.281589041410779e+00	 3.061515589389628e-01	 1.768266386407804e+01
 1.278770329599493e+00	 3.177195711844494e-01	 1.763441790155550e+01
 1.275839713098980e+00	 3.292906480785208e-01	 1.758343741346038e+01
 1.272796740188061e+00	 3.408632740891216e-01	 1.752937272790389e+01
 1.309820403670740e+00	 2.273973711499690e-01	 1.776303341909268e+01
 1.307752045472168e+00	 2.390056153754818e-01	 1.772821784837173e+01
 1.305574648222828e+00	 2.506271791266257e-01	 1.769281720988916e+01
 1.303287591375883e+00	 2.622606552216002e-01	 1.765658530018615e+01
 1.300890276272719e+00	 2.739046178691303e-01	 1.761925922813740e+01
 1.298382126704511e+00	 2.855576230377547e-01	 1.758055915294199e+01
 1.295762589468195e+00	 2.972182088431506e-01	 1.754018809587036e+01
 1.293031134916217e+00	 3.088848959534808e-01	 1.749783183707085e+01
 1.290187257499437e+00	 3.205561880127249e-01	 1.745315890924174e+01
 1.287230476302546e+00	 3.322305720819303e-01	 1.740582070043098e+01
 1.284160335571379e+00	 3.439065190983009e-01	 1.735545167863211e+01
 1.321411066208111e+00	 2.294096212152501e-01	 1.756290107470682e+01
 1.319324405010296e+00	 2.411205873412680e-01	 1.753070103837715e+01
 1.317127739869970e+00	 2.528449908580255e-01	 1.749804967408138e+01
 1.314820444749054e+00	 2.645814121315085e-01	 1.746469407411258e+01
 1.312401915691381e+00	 2.763284127535528e-01	 1.743036377653451e+01
 1.309871571389230e+00	 2.880845359143990e-01	 1.739477040726365e+01
 1.307228853744221e+00	 2.998483067934454e-01	 1.735760739387860e+01
 1.304473228421932e+00	 3.116182329681828e-01	 1.731854976309163e+01
 1.301604185399596e+00	 3.233928048412702e-01	 1.727725403436895e+01
 1.298621239506269e+00	 3.351704960856917e-01	 1.723335822269192e+01
 1.295523930954800e+00	 3.469497641079077e-01	 1.718648196390211e+01
 1.333001728746217e+00	 2.314218712801452e-01	 1.736884767084024e+01
 1.330896764549116e+00	 2.432355593067127e-01	 1.733912320970778e+01
 1.328680831517753e+00	 2.550628025891495e-01	 1.730907020846123e+01
 1.326353298122809e+00	 2.669021690412245e-01	 1.727842996847193e+01
 1.323913555110562e+00	 2.787522076378796e-01	 1.724692542288665e+01
 1.321361016074400e+00	 2.906114487910534e-01	 1.721426067623126e+01
 1.318695118020632e+00	 3.024784047438621e-01	 1.718012061330122e+01
 1.315915321927963e+00	 3.143515699831197e-01	 1.714417058992811e+01
 1.313021113300007e+00	 3.262294216701611e-01	 1.710605621881642e+01
 1.310012002710184e+00	 3.381104200899029e-01	 1.706540326420263e+01
 1.306887526338360e+00	 3.499930091180571e-01	 1.702181765958806e+01
 1.193251572504952e+00	 3.195605590271466e-01	 1.894483322266699e+01
 1.190293040422305e+00	 3.304099550955031e-01	 1.885540893081339e+01
 1.187228400434594e+00	 3.412579195966530e-01	 1.876260365201004e+01
 1.184057303611736e+00	 3.521029904511300e-01	 1.866612761085718e+01
 1.180779426279795e+00	 3.629436925083490e-01	 1.856569123888577e+01
 1.177394470462885e+00	 3.737785380540692e-01	 1.846114127467193e+01
 1.173902164313956e+00	 3.846060273334274e-01	 1.835421482651083e+01
 1.170302262533851e+00	 3.954246490892965e-01	 1.824542631092083e+01
 1.166594546778079e+00	 4.062328811157084e-01	 1.813464992508160e+01
 1.162778826050703e+00	 4.170291908260462e-01	 1.802176361274389e+01
 1.158854937084785e+00	 4.278120358356972e-01	 1.790664956670790e+01
 1.204615167888475e+00	 3.226038040365630e-01	 1.871606207916263e+01
 1.201628461058793e+00	 3.335565212734662e-01	 1.863198208113836e+01
 1.198534635835296e+00	 3.445077933100236e-01	 1.854462571676559e+01
 1.195333339964961e+00	 3.554561441430723e-01	 1.845368850352695e+01
 1.192024246691429e+00	 3.664000845738510e-01	 1.835886453722312e+01
 1.188607055201119e+00	 3.773381127202968e-01	 1.826039525197450e+01
 1.185081491058117e+00	 3.882687145450582e-01	 1.816004128126812e+01
 1.181447306627223e+00	 3.991903643989818e-01	 1.805784419888063e+01
 1.177704281484599e+00	 4.101015255798048e-01	 1.795366986199364e+01
 1.173852222815407e+00	 4.210006509057591e-01	 1.784738709549942e+01
 1.169890965797878e+00	 4.318861833037712e-01	 1.773886817932448e+01
 1.215978763271868e+00	 3.256470490455998e-01	 1.849749779340176e+01
 1.212963881695098e+00	 3.367030874510241e-01	 1.841850950368532e+01
 1.209840871235759e+00	 3.477576670229849e-01	 1.833634110181968e+01
 1.206609376317885e+00	 3.588092978346175e-01	 1.825067272326537e+01
 1.203269067102697e+00	 3.698564766389810e-01	 1.816118154849344e+01
 1.199819639938926e+00	 3.808976873861855e-01	 1.806874597592856e+01
 1.196260817801794e+00	 3.919314017563870e-01	 1.797461034571519e+01
 1.192592350720061e+00	 4.029560797084019e-01	 1.787863336864561e+01
 1.188814016190545e+00	 4.139701700436685e-01	 1.778067248814839e+01
 1.184925619579510e+00	 4.249721109852618e-01	 1.768058748766600e+01
 1.180926994510356e+00	 4.359603307716446e-01	 1.757824096410058e+01
 1.227342358655166e+00	 3.286902940543719e-01	 1.828829439201489e+01
 1.224299302331255e+00	 3.398496536283053e-01	 1.821415757033672e+01
 1.221147106636015e+00	 3.510075407356737e-01	 1.813693297565347e+01
 1.217885412670544e+00	 3.621624515259080e-01	 1.805628479908021e+01
 1.214513887513644e+00	 3.733128687038829e-01	 1.797195905461797e+01
 1.211032224676355e+00	 3.844572620518789e-01	 1.788541460051827e+01
 1.207440144545039e+00	 3.955940889675561e-01	 1.779717054112923e+01
 1.203737394812421e+00	 4.067217950176966e-01	 1.770707444963923e+01
 1.199923750895974e+00	 4.178388145074356e-01	 1.761497532750158e+01
 1.195999016343065e+00	 4.289435710646892e-01	 1.752072403680035e+01
 1.191963023222268e+00	 4.400344782394511e-01	 1.742417376095588e+01
 1.238705954038400e+00	 3.317335390629949e-01	 1.808764180225625e+01
 1.235634722967297e+00	 3.429962198054382e-01	 1.801812725001665e+01
 1.232453342036104e+00	 3.542574144482272e-01	 1.794561762844833e+01
 1.229161449022980e+00	 3.655156052170854e-01	 1.786976073732414e+01
 1.225758707924312e+00	 3.767692607687010e-01	 1.779058975524526e+01
 1.222244809413452e+00	 3.880168367175215e-01	 1.770964619696787e+01
 1.218619471287904e+00	 3.992567761787077e-01	 1.762699257949804e+01
 1.214882438904356e+00	 4.104875103270052e-01	 1.754246837316110e+01
 1.211033485600939e+00	 4.217074589712434e-01	 1.745591415500714e+01
 1.207072413106127e+00	 4.329150311441755e-01	 1.736717202893463e+01
 1.202999051933666e+00	 4.441086257073239e-01	 1.727608607465246e+01
 1.250069549421605e+00	 3.347767840715839e-01	 1.789476324826345e+01
 1.246970143603260e+00	 3.461427859825510e-01	 1.782965148129408e+01
 1.243759577436060e+00	 3.575072881607823e-01	 1.776164182771858e+01
 1.240437485375233e+00	 3.688687589082921e-01	 1.769036536718172e+01
 1.237003528334746e+00	 3.802256528335796e-01	 1.761632423133223e+01
 1.233457394150266e+00	 3.915764113832566e-01	 1.754070776464231e+01
 1.229798798030439e+00	 4.029194633899841e-01	 1.746336741506734e+01
 1.226027482995919e+00	 4.142532256364672e-01	 1.738413447179376e+01
 1.222143220305494e+00	 4.255761034352282e-01	 1.730284115115100e+01
 1.218145809868746e+00	 4.368864912238549e-01	 1.721932100555428e+01
 1.214035080644598e+00	 4.481827731753966e-01	 1.713340936157865e+01
 1.261433144804814e+00	 3.378200290802544e-01	 1.770891275136049e+01
 1.258305564239176e+00	 3.492893521597721e-01	 1.764799264814036e+01
 1.255065812835922e+00	 3.607571618734763e-01	 1.758428027582122e+01
 1.251713521727341e+00	 3.722219125996699e-01	 1.751741712276580e+01
 1.248248348744990e+00	 3.836820448986625e-01	 1.744843143659534e+01
 1.244669978886844e+00	 3.951359860492287e-01	 1.737788633765709e+01
 1.240978124772696e+00	 4.065821506015272e-01	 1.730560438873731e+01
 1.237172527087162e+00	 4.180189409462222e-01	 1.723140866839845e+01
 1.233252955009695e+00	 4.294447478995267e-01	 1.715512314240945e+01
 1.229219206630979e+00	 4.408579513038619e-01	 1.707657306243000e+01
 1.225071109355115e+00	 4.522569206438022e-01	 1.699558539390994e+01
 1.272796740188061e+00	 3.408632740891216e-01	 1.752937272790389e+01
 1.269640984875081e+00	 3.524359183372299e-01	 1.747244015239659e+01
 1.266372048235725e+00	 3.640070355864461e-01	 1.741283316297752e+01
 1.262989558079346e+00	 3.755750662913613e-01	 1.735035373090277e+01
 1.259493169155085e+00	 3.871384369640941e-01	 1.728620002669265e+01
 1.255882563623233e+00	 3.986955607155817e-01	 1.722048718121779e+01
 1.252157451514724e+00	 4.102448378134794e-01	 1.715302945950960e+01
 1.248317571178141e+00	 4.217846562564099e-01	 1.708364174910398e+01
 1.244362689713595e+00	 4.333133923642758e-01	 1.701213992226488e+01
 1.240292603392879e+00	 4.448294113843309e-01	 1.693834122519181e+01
 1.236107138065268e+00	 4.563310681126742e-01	 1.686206469631415e+01
 1.284160335571379e+00	 3.439065190983009e-01	 1.735545167863211e+01
 1.280976405511009e+00	 3.555824845150528e-01	 1.730230807696215e+01
 1.277678283635505e+00	 3.672569092998288e-01	 1.724662380989284e+01
 1.274265594431286e+00	 3.789282199835082e-01	 1.718849123895416e+01
 1.270737989565077e+00	 3.905948290300187e-01	 1.712893661317498e+01
 1.267095148359481e+00	 4.022551353824593e-01	 1.706783207213406e+01
 1.263336778256576e+00	 4.139075250259828e-01	 1.700498351759431e+01
 1.259462615268909e+00	 4.255503715671694e-01	 1.694019771508852e+01
 1.255472424417250e+00	 4.371820368296119e-01	 1.687328264779205e+01
 1.251366000154499e+00	 4.488008714653967e-01	 1.680404789689354e+01
 1.247143166775106e+00	 4.604052155821461e-01	 1.673230505071016e+01
 1.295523930954800e+00	 3.469497641079077e-01	 1.718648196390211e+01
 1.292311826146992e+00	 3.587290506933690e-01	 1.713693293413694e+01
 1.288984519035298e+00	 3.705067830137614e-01	 1.708499646320075e+01
 1.285541630783201e+00	 3.822813736762529e-01	 1.703114256995654e+01
 1.281982809975009e+00	 3.940512210965803e-01	 1.697596409847517e+01
 1.278307733095636e+00	 4.058147100500060e-01	 1.691925765834262e+01
 1.274516104998302e+00	 4.175702122391797e-01	 1.686082077416655e+01
 1.270607659359518e+00	 4.293160868786406e-01	 1.680045220831963e+01
 1.266582159120714e+00	 4.410506812956718e-01	 1.673795230717773e+01
 1.262439396915893e+00	 4.527723315471930e-01	 1.667312337315200e+01
 1.258179195484681e+00	 4.644793630523511e-01	 1.660577006490585e+01
 1.306887526338360e+00	 3.499930091180571e-01	 1.702181765958806e+01
 1.303647246783067e+00	 3.618756168723069e-01	 1.697567149393617e+01
 1.300290754435142e+00	 3.737566567283810e-01	 1.692737573428978e+01
 1.296817667135131e+00	 3.856345273697371e-01	 1.687763662071357e+01
 1.293227630384924e+00	 3.975076131639229e-01	 1.682662008700646e+01
 1.289520317831744e+00	 4.093742847183652e-01	 1.677411389263266e+01
 1.285695431739954e+00	 4.212328994532120e-01	 1.671990722310976e+01
 1.281752703450023e+00	 4.330818021909628e-01	 1.666379100675364e+01
 1.277691893824042e+00	 4.449193257625922e-01	 1.660555825385940e+01
 1.273512793677115e+00	 4.567437916298545e-01	 1.654500442074999e+01
 1.269215224194041e+00	 4.685535105234227e-01	 1.648192780122878e+01
 1.158854937084785e+00	 4.278120358356972e-01	 1.790664956670790e+01
 1.154822049850080e+00	 4.385816937500952e-01	 1.778883716877735e+01
 1.150680714818244e+00	 4.493347687847815e-01	 1.766795750308436e+01
 1.146430853234088e+00	 4.600696914621136e-01	 1.754400078437649e+01
 1.142072415468732e+00	 4.707848849492828e-01	 1.741697275613425e+01
 1.137605381325554e+00	 4.814787657084257e-01	 1.728689534058858e+01
 1.133029760329420e+00	 4.921497441588556e-01	 1.715380730853305e+01
 1.128345591998717e+00	 5.027962253509403e-01	 1.701776496962353e+01
 1.123552946099686e+00	 5.134166096511249e-01	 1.687884288379790e+01
 1.118651922882586e+00	 5.240092934375784e-01	 1.673713459437392e+01
 1.113642653299240e+00	 5.345726698059234e-01	 1.659275338329679e+01
 1.169890965797878e+00	 4.318861833037712e-01	 1.773886817932448e+01
 1.165819672497204e+00	 4.427584030229763e-01	 1.762774371641062e+01
 1.161638898627302e+00	 4.536138819401158e-01	 1.751374050212235e+01
 1.157348564682983e+00	 4.644510356310647e-01	 1.739683270331210e+01
 1.152948620562746e+00	 4.752682722464863e-01	 1.727700917743535e+01
 1.148439045877630e+00	 4.860639931681356e-01	 1.715427411978899e+01
 1.143819850243213e+00	 4.968365936773976e-01	 1.702864773262469e+01
 1.139091073554227e+00	 5.075844636355815e-01	 1.690016691699306e+01
 1.134252786241315e+00	 5.183059881754684e-01	 1.676888598811461e+01
 1.129305089509444e+00	 5.289995484035814e-01	 1.663487741499844e+01
 1.124248115557521e+00	 5.396635221126375e-01	 1.649823258494045e+01
 1.180926994510356e+00	 4.359603307716446e-01	 1.757824096410058e+01
 1.176817295143713e+00	 4.469351122956498e-01	 1.747336415627515e+01
 1.172597082435761e+00	 4.578929950952199e-01	 1.736577928158652e+01
 1.168266276131307e+00	 4.688323797997498e-01	 1.725544500850256e+01
 1.163824825656220e+00	 4.797516595433781e-01	 1.714233383025388e+01
 1.159272710429204e+00	 4.906492206274808e-01	 1.702643270724597e+01
 1.154609940156544e+00	 5.015234431955167e-01	 1.690774373345142e+01
 1.149836555109311e+00	 5.123727019197402e-01	 1.678628482781256e+01
 1.144952626382548e+00	 5.231953666992700e-01	 1.666209045162433e+01
 1.139958256135926e+00	 5.339898033689868e-01	 1.653521235279241e+01
 1.134853577815434e+00	 5.447543744187040e-01	 1.640572033776981e+01
 1.191963023222268e+00	 4.400344782394511e-01	 1.742417376095588e+01
 1.187814917789653e+00	 4.511118215682497e-01	 1.732515344548357e+01
 1.183555266243658e+00	 4.621721082502302e-01	 1.722357806946470e+01
 1.179183987579083e+00	 4.732137239683097e-01	 1.711939137393320e+01
 1.174701030749171e+00	 4.842350468401040e-01	 1.701255003090398e+01
 1.170106374980281e+00	 4.952344480866125e-01	 1.690302427880982e+01
 1.165400030069404e+00	 5.062102927133713e-01	 1.679079858404688e+01
 1.160582036663951e+00	 5.171609402035807e-01	 1.667587232984424e+01
 1.155652466523359e+00	 5.280847452227010e-01	 1.655826053361253e+01
 1.150611422762002e+00	 5.389800583339720e-01	 1.643799459385212e+01
 1.145459040072949e+00	 5.498452267243066e-01	 1.631512306760795e+01
 1.202999051933666e+00	 4.441086257073239e-01	 1.727608607465246e+01
 1.198812540435067e+00	 4.552885308409100e-01	 1.718257775916162e+01
 1.194513450051027e+00	 4.664512214052834e-01	 1.708664988088229e+01
 1.190101699026339e+00	 4.775950681368847e-01	 1.698823184705212e+01
 1.185577235841610e+00	 4.887184341368095e-01	 1.688726507394426e+01
 1.180940039530863e+00	 4.998196755456829e-01	 1.678370361307541e+01
 1.176190119981785e+00	 5.108971422311193e-01	 1.667751480567204e+01
 1.171327518218129e+00	 5.219491784872682e-01	 1.656867996680621e+01
 1.166352306663722e+00	 5.329741237459327e-01	 1.645719510055326e+01
 1.161264589387640e+00	 5.439703132987145e-01	 1.634307164744963e+01
 1.156064502330029e+00	 5.549360790296277e-01	 1.622633726543345e+01
 1.214035080644598e+00	 4.481827731753966e-01	 1.713340936157865e+01
 1.209810163079999e+00	 4.594652401137654e-01	 1.704511285046912e+01
 1.205471633857905e+00	 4.707303345605161e-01	 1.695451495081838e+01
 1.201019410473099e+00	 4.819764123056157e-01	 1.686153135365675e+01
 1.196453440933555e+00	 4.932018214336404e-01	 1.676608880872873e+01
 1.191773704080952e+00	 5.044049030048433e-01	 1.666812573911029e+01
 1.186980209893681e+00	 5.155839917489188e-01	 1.656759288625281e+01
 1.182072999771826e+00	 5.267374167709673e-01	 1.646445398707198e+01
 1.177052146803612e+00	 5.378635022691365e-01	 1.635868648464448e+01
 1.171917756012809e+00	 5.489605682633918e-01	 1.625028227399890e+01
 1.166669964586642e+00	 5.600269313348507e-01	 1.613924848439417e+01
 1.225071109355115e+00	 4.522569206438022e-01	 1.699558539390994e+01
 1.220807785724493e+00	 4.636419493869496e-01	 1.691224248332673e+01
 1.216429817664327e+00	 4.750094477160655e-01	 1.682669923487875e+01
 1.211937121919388e+00	 4.863577564746435e-01	 1.673885826621140e+01
 1.207329646025018e+00	 4.976852087307428e-01	 1.664863227478502e+01
 1.202607368630553e+00	 5.089901304642456e-01	 1.655594463842872e+01
 1.197770299805081e+00	 5.202708412669278e-01	 1.646073004850477e+01
 1.192818481325027e+00	 5.315256550548426e-01	 1.636293517752197e+01
 1.187751986943002e+00	 5.427528807924834e-01	 1.626251938298218e+01
 1.182570922637479e+00	 5.539508232281816e-01	 1.615945544917039e+01
 1.177275426842756e+00	 5.651177836401587e-01	 1.605373036850275e+01
 1.236107138065268e+00	 4.563310681126742e-01	 1.686206469631415e+01
 1.231805408368594e+00	 4.678186586605971e-01	 1.678345693330818e+01
 1.227388001470327e+00	 4.792885608720676e-01	 1.670273297387655e+01
 1.222854833365231e+00	 4.907391006441083e-01	 1.661978303163490e+01
 1.218205851116014e+00	 5.021685960282621e-01	 1.653450639234642e+01
 1.213441033179667e+00	 5.135753579240412e-01	 1.644681199782476e+01
 1.208560389715980e+00	 5.249576907853045e-01	 1.635661906464408e+01
 1.203563962877712e+00	 5.363138933390589e-01	 1.626385773972808e+01
 1.198451827081868e+00	 5.476422593161455e-01	 1.616846979483729e+01
 1.193224089261618e+00	 5.589410781932612e-01	 1.607040936190016e+01
 1.187880889098336e+00	 5.702086359457343e-01	 1.596964371103921e+01
 1.247143166775106e+00	 4.604052155821461e-01	 1.673230505071016e+01
 1.242803031012346e+00	 4.719953679348420e-01	 1.665825155247865e+01
 1.238346185275943e+00	 4.835676740286595e-01	 1.658214931827067e+01
 1.233772544810655e+00	 4.951204448141511e-01	 1.650387685487763e+01
 1.229082056206557e+00	 5.066519833263442e-01	 1.642332070462495e+01
 1.224274697728297e+00	 5.181605853843817e-01	 1.634037600991769e+01
 1.219350479626368e+00	 5.296445403042070e-01	 1.625494711480118e+01
 1.214309444429863e+00	 5.411021316237808e-01	 1.616694820585377e+01
 1.209151667220183e+00	 5.525316378402934e-01	 1.607630399467956e+01
 1.203877255885195e+00	 5.639313331588082e-01	 1.598295044419677e+01
 1.198486351353350e+00	 5.752994882517609e-01	 1.588683554082308e+01
 1.258179195484681e+00	 4.644793630523511e-01	 1.660577006490585e+01
 1.253800653655791e+00	 4.761720772098184e-01	 1.653612539425626e+01
 1.249304369081210e+00	 4.878467871859780e-01	 1.646448300879042e+01
 1.244690256255685e+00	 4.995017889849126e-01	 1.639071043486673e+01
 1.239958261296662e+00	 5.111353706251346e-01	 1.631468216865237e+01
 1.235108362276447e+00	 5.227458128454189e-01	 1.623628021848411e+01
 1.230140569536238e+00	 5.343313898237932e-01	 1.615539468645947e+01
 1.225054925981464e+00	 5.458903699091736e-01	 1.607192439183420e+01
 1.219851507357921e+00	 5.574210163650986e-01	 1.598577753875649e+01
 1.214530422508178e+00	 5.689215881250002e-01	 1.589687243079828e+01
 1.209091813607764e+00	 5.803903405584213e-01	 1.580513823464934e+01
 1.269215224194041e+00	 4.685535105234227e-01	 1.648192780122878e+01
 1.264798276298976e+00	 4.803487864856605e-01	 1.641657989464690e+01
 1.260262552886163e+00	 4.921259003441599e-01	 1.634926910983037e+01
 1.255607967700346e+00	 5.038831331565332e-01	 1.627985274963491e+01
 1.250834466386342e+00	 5.156187579247794e-01	 1.620819399173648e+01
 1.245942026824119e+00	 5.273310403073044e-01	 1.613416240585430e+01
 1.240930659445581e+00	 5.390182393442214e-01	 1.605763451242426e+01
 1.235800407532495e+00	 5.506786081954013e-01	 1.597849438557171e+01
 1.230551347495057e+00	 5.623103948907321e-01	 1.589663430319009e+01
 1.225183589130537e+00	 5.739118430920145e-01	 1.581195544686658e+01
 1.219697275861545e+00	 5.854811928658986e-01	 1.572436865429876e+01
 1.113642653299240e+00	 5.345726698059234e-01	 1.659275338329680e+01
 1.108526178100360e+00	 5.451033415888710e-01	 1.644537560064672e+01
 1.103301847180059e+00	 5.556014959346071e-01	 1.629517616784987e+01
 1.097969883811006e+00	 5.660655206577758e-01	 1.614239808591693e+01
 1.092530542626095e+00	 5.764938031830196e-01	 1.598718189705286e+01
 1.086984109737430e+00	 5.868847312919343e-01	 1.582967366643899e+01
 1.081330902834387e+00	 5.972366938764667e-01	 1.567002498200151e+01
 1.075571271260445e+00	 6.075480816980797e-01	 1.550839300913557e+01
 1.069705596068494e+00	 6.178172881520017e-01	 1.534494060248088e+01
 1.063734290054355e+00	 6.280427100358570e-01	 1.517983647647934e+01
 1.057657797768284e+00	 6.382227483219658e-01	 1.501325543604943e+01
 1.124248115557521e+00	 5.396635221126375e-01	 1.649823258494045e+01
 1.119082915047558e+00	 5.502944797833771e-01	 1.635852882557991e+01
 1.113808831682570e+00	 5.608926103462395e-01	 1.621534387756934e+01
 1.108426090861504e+00	 5.714562862626756e-01	 1.606897945229867e+01
 1.102934949642181e+00	 5.819838796004206e-01	 1.592027140586199e+01
 1.097335696861414e+00	 5.924737627875634e-01	 1.576948806175653e+01
 1.091628653234009e+00	 6.029243093731169e-01	 1.561679234475245e+01
 1.085814171430323e+00	 6.133338947934145e-01	 1.546235443314049e+01
 1.079892636132096e+00	 6.237008971436367e-01	 1.530635186387691e+01
 1.073864464066298e+00	 6.340236979537623e-01	 1.514896969811132e+01
 1.067730104016737e+00	 6.443006829682215e-01	 1.499040074855510e+01
 1.134853577815434e+00	 5.447543744187040e-01	 1.640572033776981e+01
 1.129639651994383e+00	 5.554856179771950e-01	 1.627323266567750e+01
 1.124315816184690e+00	 5.661837247571514e-01	 1.613737887835247e+01
 1.118882297911584e+00	 5.768470518668315e-01	 1.599834688216709e+01
 1.113339356657818e+00	 5.874739560170634e-01	 1.585635257541883e+01
 1.107687283984920e+00	 5.980627942824284e-01	 1.571179447244814e+01
 1.101926403633127e+00	 6.086119248690056e-01	 1.556552588877298e+01
 1.096057071599678e+00	 6.191197078879990e-01	 1.541779785444502e+01
 1.090079676195170e+00	 6.295845061345409e-01	 1.526880035941316e+01
 1.083994638077725e+00	 6.400046858709637e-01	 1.511873208408659e+01
 1.077802410264706e+00	 6.503786176138091e-01	 1.496780062137732e+01
 1.145459040072949e+00	 5.498452267243066e-01	 1.631512306760795e+01
 1.140196388940802e+00	 5.606767561705120e-01	 1.618933220164252e+01
 1.134822800686391e+00	 5.714748391675339e-01	 1.606032988695934e+01
 1.129338504961225e+00	 5.822378174704368e-01	 1.592829507909869e+01
 1.123743763672994e+00	 5.929640324331420e-01	 1.579343581017445e+01
 1.118038871107943e+00	 6.036518257767227e-01	 1.565599010310159e+01
 1.112224154031745e+00	 6.142995403643245e-01	 1.551622690732968e+01
 1.106299971768522e+00	 6.249055209820207e-01	 1.537471370963613e+01
 1.100266716257733e+00	 6.354681151248964e-01	 1.523223879889683e+01
 1.094124812088654e+00	 6.459856737876377e-01	 1.508902731432399e+01
 1.087874716512206e+00	 6.564565522588955e-01	 1.494529847529099e+01
 1.156064502330029e+00	 5.549360790296277e-01	 1.622633726543345e+01
 1.150753125886786e+00	 5.658678943635160e-01	 1.610676774698447e+01
 1.145329785187646e+00	 5.767659535775781e-01	 1.598417039348969e+01
 1.139794712010408e+00	 5.876285830736848e-01	 1.585871469014215e+01
 1.134148170687698e+00	 5.984541088488509e-01	 1.573059982234246e+01
 1.128390458230482e+00	 6.092408572706405e-01	 1.560005560662436e+01
 1.122521904429870e+00	 6.199871558592650e-01	 1.546734344487365e+01
 1.116542871936870e+00	 6.306913340756684e-01	 1.533275730172237e+01
 1.110453756319804e+00	 6.413517241148867e-01	 1.519662926971363e+01
 1.104254986099104e+00	 6.519666617039598e-01	 1.505977012316175e+01
 1.097947022759257e+00	 6.625344869036486e-01	 1.492275090268849e+01
 1.166669964586642e+00	 5.600269313348507e-01	 1.613924848439417e+01
 1.161309862832300e+00	 5.710590325563943e-01	 1.602546671589150e+01
 1.155836769688428e+00	 5.820570679874746e-01	 1.590885945598230e+01
 1.150250919059114e+00	 5.930193486767691e-01	 1.578958621631754e+01
 1.144552577701919e+00	 6.039441852643835e-01	 1.566783637775784e+01
 1.138742045352534e+00	 6.148298887643748e-01	 1.554383013289144e+01
 1.132819654827506e+00	 6.256747713540195e-01	 1.541781945429777e+01
 1.126785772104733e+00	 6.364771471691303e-01	 1.529008908859256e+01
 1.120640796381398e+00	 6.472353331046945e-01	 1.516095757606371e+01
 1.114385160109096e+00	 6.579476496201060e-01	 1.503077829545740e+01
 1.108019329005873e+00	 6.686124215482343e-01	 1.490002645160797e+01
 1.177275426842756e+00	 5.651177836401587e-01	 1.605373036850275e+01
 1.171866599777314e+00	 5.762501707493345e-01	 1.594534270713847e+01
 1.166343754188711e+00	 5.873481823974146e-01	 1.583434082117344e+01
 1.160707126107322e+00	 5.984101142798826e-01	 1.572087376308335e+01
 1.154956984715646e+00	 6.094342616799352e-01	 1.560512017500081e+01
 1.149093632474096e+00	 6.204189202581202e-01	 1.548728923766652e+01
 1.143117405224660e+00	 6.313623868487792e-01	 1.536762164823583e+01
 1.137028672272124e+00	 6.422629602625941e-01	 1.524639062716012e+01
 1.130827836442536e+00	 6.531189420945037e-01	 1.512390295412238e+01
 1.124515334118647e+00	 6.639286375362522e-01	 1.500050003274450e+01
 1.118091635252071e+00	 6.746903561928201e-01	 1.487655898350717e+01
 1.187880889098336e+00	 5.702086359457343e-01	 1.596964371103921e+01
 1.182423336721798e+00	 5.814413089425244e-01	 1.586629461401933e+01
 1.176850738688469e+00	 5.926392968075895e-01	 1.576054206858641e+01
 1.171163333155012e+00	 6.038008798832185e-01	 1.565252420123133e+01
 1.165361391728866e+00	 6.149243380956992e-01	 1.554240800578157e+01
 1.159445219595166e+00	 6.260079517520698e-01	 1.543039029356180e+01
 1.153415155621338e+00	 6.370500023437364e-01	 1.531669867617803e+01
 1.147271572439056e+00	 6.480487733562489e-01	 1.520159258134997e+01
 1.141014876503233e+00	 6.590025510844960e-01	 1.508536430196597e+01
 1.134645508127778e+00	 6.699096254525748e-01	 1.496834007826119e+01
 1.128163941497868e+00	 6.807682908375728e-01	 1.485088121272526e+01
 1.198486351353350e+00	 5.752994882517609e-01	 1.588683554082308e+01
 1.192980073665718e+00	 5.866324471361510e-01	 1.578820575869646e+01
 1.187357723187672e+00	 5.979304112181899e-01	 1.568737377651022e+01
 1.181619540202164e+00	 6.091916454869701e-01	 1.558446634807240e+01
 1.175765798741569e+00	 6.204144145118703e-01	 1.547963793494324e+01
 1.169796806715740e+00	 6.315969832464174e-01	 1.537307165251602e+01
 1.163712906017545e+00	 6.427376178390826e-01	 1.526498025314067e+01
 1.157514472605541e+00	 6.538345864502825e-01	 1.515560714694605e+01
 1.151201916563507e+00	 6.648861600748555e-01	 1.504522746075592e+01
 1.144775682136508e+00	 6.758906133692492e-01	 1.493414913520450e+01
 1.138236247743282e+00	 6.868462254826597e-01	 1.482271405984605e+01
 1.209091813607764e+00	 5.803903405584213e-01	 1.580513823464934e+01
 1.203536810609043e+00	 5.918235853304025e-01	 1.571094304947095e+01
 1.197864707686297e+00	 6.032215256294070e-01	 1.561472870852933e+01
 1.192075747248760e+00	 6.145824110913307e-01	 1.551661016767105e+01
 1.186170205753742e+00	 6.259044909286422e-01	 1.541672849888230e+01
 1.180148393835818e+00	 6.371860147413575e-01	 1.531525182692718e+01
 1.174010656413286e+00	 6.484252333350099e-01	 1.521237630809404e+01
 1.167757372771594e+00	 6.596203995448833e-01	 1.510832715196677e+01
 1.161388956623376e+00	 6.707697690657644e-01	 1.500335968685811e+01
 1.154905856144855e+00	 6.818716012864516e-01	 1.489776046924207e+01
 1.148308553988328e+00	 6.929241601282480e-01	 1.479184843719207e+01
 1.219697275861545e+00	 5.854811928658986e-01	 1.572436865429876e+01
 1.214093547551742e+00	 5.970147235254660e-01	 1.563435615958396e+01
 1.208371692184315e+00	 6.085126400414316e-01	 1.554248101935638e+01
 1.202531954294778e+00	 6.199731766964938e-01	 1.544884598897397e+01
 1.196574612765376e+00	 6.313945673462095e-01	 1.535357792127065e+01
 1.190499980955395e+00	 6.427750462370833e-01	 1.525682868830914e+01
 1.184308406808569e+00	 6.541128488317098e-01	 1.515877615095149e+01
 1.178000272937226e+00	 6.654062126402392e-01	 1.505962517744936e+01
 1.171575996682858e+00	 6.766533780574059e-01	 1.495960871196262e+01
 1.165036030152839e+00	 6.878525892043580e-01	 1.485898889359667e+01
 1.158380860233024e+00	 6.990020947745036e-01	 1.475805822619954e+01
 1.057657797768284e+00	 6.382227483219658e-01	 1.501325543604943e+01
 1.051476595759788e+00	 6.483558091346141e-01	 1.484502145645155e+01
 1.045191193306685e+00	 6.584403051461072e-01	 1.467486398079419e+01
 1.038802131584267e+00	 6.684746557711055e-01	 1.450281229924732e+01
 1.032309983328703e+00	 6.784572877465485e-01	 1.432888487308654e+01
 1.025715352734217e+00	 6.883866359103252e-01	 1.415308995974688e+01
 1.019018875327433e+00	 6.982611439790508e-01	 1.397542632361366e+01
 1.012221217818813e+00	 7.080792653241684e-01	 1.379588403073770e+01
 1.005323077931204e+00	 7.178394637456084e-01	 1.361444532511883e+01
 9.983251842055071e-01	 7.275402142422078e-01	 1.343108558365952e+01
 9.912282957835301e-01	 7.371800037781164e-01	 1.324577434635301e+01
 1.067730104016737e+00	 6.443006829682215e-01	 1.499040074855510e+01
 1.061490037071206e+00	 6.545302431324747e-01	 1.483020901859836e+01
 1.055144777357485e+00	 6.647107760023608e-01	 1.466782103979570e+01
 1.048694871204592e+00	 6.748406859402823e-01	 1.450321812567617e+01
 1.042140896802981e+00	 6.849183847006544e-01	 1.433636704955507e+01
 1.035483464100749e+00	 6.949422922159872e-01	 1.416722073838223e+01
 1.028723214676773e+00	 7.049108373820712e-01	 1.399571906253515e+01
 1.021860821590739e+00	 7.148224588414698e-01	 1.382178971966457e+01
 1.014896989210057e+00	 7.246756057645477e-01	 1.364534921011906e+01
 1.007832453013678e+00	 7.344687386272238e-01	 1.346630390088635e+01
 1.000667979372880e+00	 7.442003299846808e-01	 1.328510022019962e+01
 1.077802410264706e+00	 6.503786176138091e-01	 1.496780062137732e+01
 1.071503478382196e+00	 6.607046771297107e-01	 1.481524847345126e+01
 1.065098361407931e+00	 6.709812468580393e-01	 1.466014369627778e+01
 1.058587610824651e+00	 6.812067161089400e-01	 1.450242543880087e+01
 1.051971810277091e+00	 6.913794816542986e-01	 1.434201521971518e+01
 1.045251575467211e+00	 7.014979485212475e-01	 1.417881768693012e+01
 1.038427554026137e+00	 7.115605307847487e-01	 1.401272148253219e+01
 1.031500425362774e+00	 7.215656523584875e-01	 1.384360021127661e+01
 1.024470900489088e+00	 7.315117477832576e-01	 1.367131351001416e+01
 1.017339721822077e+00	 7.413972630120617e-01	 1.349572906733574e+01
 1.010107662962478e+00	 7.512206561911103e-01	 1.332152171240297e+01
 1.087874716512206e+00	 6.564565522588955e-01	 1.494529847529099e+01
 1.081516919692766e+00	 6.668791111264784e-01	 1.479992598594028e+01
 1.075051945458022e+00	 6.772517177132874e-01	 1.465157794613628e+01
 1.068480350444430e+00	 6.875727462772072e-01	 1.450015699565246e+01
 1.061802723751002e+00	 6.978405786075971e-01	 1.434554565971295e+01
 1.055019686833557e+00	 7.080536048262057e-01	 1.418760717093599e+01
 1.048131893375465e+00	 7.182102241871702e-01	 1.402618640570181e+01
 1.041140029134846e+00	 7.283088458752915e-01	 1.386111093289937e+01
 1.034044811768219e+00	 7.383478898017963e-01	 1.369219217233947e+01
 1.026846990630618e+00	 7.483257873967654e-01	 1.352172628590838e+01
 1.019547346552243e+00	 7.582409823974395e-01	 1.335541584088670e+01
 1.097947022759257e+00	 6.625344869036486e-01	 1.492275090268850e+01
 1.091530361002927e+00	 6.730535451229338e-01	 1.478404292889080e+01
 1.085005529507757e+00	 6.835221885682482e-01	 1.464188643253734e+01
 1.078373090063914e+00	 6.939387764452151e-01	 1.449615304938864e+01
 1.071633637224684e+00	 7.043016755606643e-01	 1.434669240693427e+01
 1.064787798199742e+00	 7.146092611309632e-01	 1.419333300571865e+01
 1.057836232724699e+00	 7.248599175894200e-01	 1.403588322341562e+01
 1.050779632906884e+00	 7.350520393919542e-01	 1.387413243953147e+01
 1.043618723047367e+00	 7.451840318202205e-01	 1.370868623847593e+01
 1.036354259439218e+00	 7.552543117813800e-01	 1.354574138930166e+01
 1.028987030142090e+00	 7.652613086037011e-01	 1.338656794130840e+01
 1.108019329005873e+00	 6.686124215482343e-01	 1.490002645160797e+01
 1.101543802312688e+00	 6.792279791192330e-01	 1.476741456563807e+01
 1.094959113557134e+00	 6.897926594230654e-01	 1.463084705571573e+01
 1.088265829683088e+00	 7.003048066130930e-01	 1.449016991460947e+01
 1.081464550698108e+00	 7.107627725136163e-01	 1.434520580888513e+01
 1.074555909565722e+00	 7.211649174356201e-01	 1.419575501655249e+01
 1.067540572073778e+00	 7.315096109915848e-01	 1.404159649521082e+01
 1.060419236678817e+00	 7.417952329085458e-01	 1.388253640039111e+01
 1.053192634326453e+00	 7.520201738385875e-01	 1.372338239998136e+01
 1.045861528247791e+00	 7.621828361659501e-01	 1.356746537996066e+01
 1.038426713731936e+00	 7.722816348099295e-01	 1.341473756405778e+01
 1.118091635252071e+00	 6.746903561928201e-01	 1.487655898350717e+01
 1.111557243622059e+00	 6.854024131155325e-01	 1.474986710753970e+01
 1.104912697606152e+00	 6.960631302778825e-01	 1.461825163140800e+01
 1.098158569301938e+00	 7.066708367809709e-01	 1.448197858353741e+01
 1.091295464171243e+00	 7.172238694665681e-01	 1.434085112367822e+01
 1.084324020931450e+00	 7.277205737402772e-01	 1.419464764972948e+01
 1.077244911422643e+00	 7.381593043937494e-01	 1.404312459638096e+01
 1.070058840450572e+00	 7.485384264251372e-01	 1.388840785924348e+01
 1.062766545605396e+00	 7.588563158569542e-01	 1.373613374503823e+01
 1.055368797056252e+00	 7.691113605505202e-01	 1.358656528808162e+01
 1.047866397321698e+00	 7.793019610161573e-01	 1.343965702157151e+01
 1.128163941497868e+00	 6.807682908375728e-01	 1.485088121272526e+01
 1.121570684931049e+00	 6.915768471119883e-01	 1.473033436414736e+01
 1.114866281654810e+00	 7.023336011328433e-01	 1.460380067451889e+01
 1.108051308920447e+00	 7.130368669489786e-01	 1.447136338988197e+01
 1.101126377644060e+00	 7.236849664196358e-01	 1.433340716890122e+01
 1.094092132296882e+00	 7.342762300450349e-01	 1.418979863131967e+01
 1.086949250771235e+00	 7.448089977959997e-01	 1.404090197782731e+01
 1.079698444222078e+00	 7.552816199417994e-01	 1.389261724427924e+01
 1.072340456884116e+00	 7.656924578753788e-01	 1.374653412952097e+01
 1.064876065864517e+00	 7.760398849351349e-01	 1.360268261722247e+01
 1.057306080911293e+00	 7.863222872224190e-01	 1.346102995983400e+01
 1.138236247743282e+00	 6.868462254826597e-01	 1.482271405984605e+01
 1.131584126239668e+00	 6.977512811087561e-01	 1.470784397383935e+01
 1.124819865703105e+00	 7.086040719880915e-01	 1.458621164011977e+01
 1.117944048538602e+00	 7.194028971172464e-01	 1.445781632903754e+01
 1.110957291116528e+00	 7.301460633729339e-01	 1.432266501586800e+01
 1.103860243661971e+00	 7.408318863499933e-01	 1.418100821264212e+01
 1.096653590119494e+00	 7.514586911984209e-01	 1.403702777416494e+01
 1.089338047993263e+00	 7.620248134586041e-01	 1.389470320465831e+01
 1.081914368162531e+00	 7.725285998939171e-01	 1.375415297489350e+01
 1.074383334672501e+00	 7.829684093198388e-01	 1.361543181944072e+01
 1.066745764500636e+00	 7.933426134287479e-01	 1.347852995256137e+01
 1.148308553988328e+00	 6.929241601282480e-01	 1.479184843719207e+01
 1.141597567547926e+00	 7.039257151059924e-01	 1.468214756015227e+01
 1.134773449751038e+00	 7.148745428437704e-01	 1.456493440719353e+01
 1.127836788156387e+00	 7.257689272859041e-01	 1.444018765120909e+01
 1.120788204588618e+00	 7.366071603265782e-01	 1.430789513844492e+01
 1.113628355026674e+00	 7.473875426552533e-01	 1.416955863170550e+01
 1.106357929467360e+00	 7.581083846010991e-01	 1.403125007507923e+01
 1.098977651764055e+00	 7.687680069756218e-01	 1.389418050186345e+01
 1.091488279440561e+00	 7.793647419126275e-01	 1.375853367974520e+01
 1.083890603480119e+00	 7.898969337046765e-01	 1.362439879814024e+01
 1.076185448089647e+00	 8.003629396351779e-01	 1.349179911666794e+01
 1.158380860233024e+00	 6.990020947745036e-01	 1.475805822619954e+01
 1.151611008855832e+00	 7.101001491038532e-01	 1.465298109040997e+01
 1.144727033798606e+00	 7.211450137000243e-01	 1.453968096147290e+01
 1.137729527773788e+00	 7.321349574550814e-01	 1.441811986249071e+01
 1.130619118060299e+00	 7.430682572806847e-01	 1.428844553431301e+01
 1.123396466390945e+00	 7.539431989609153e-01	 1.415578345183981e+01
 1.116062268814774e+00	 7.647580780041193e-01	 1.402295243182754e+01
 1.108617255534383e+00	 7.755112004929233e-01	 1.389053838645275e+01
 1.101062190718126e+00	 7.862008839315665e-01	 1.375919206231739e+01
 1.093397872287285e+00	 7.968254580896929e-01	 1.362913943693382e+01
 1.085625131678239e+00	 8.073832658417421e-01	 1.350044674771392e+01
 9.912282957835301e-01	 7.371800037781164e-01	 1.324577434635301e+01
 9.840319713013833e-01	 7.467589539840065e-01	 1.305704064931518e+01
 9.767382323168847e-01	 7.562739286338140e-01	 1.286791552916038e+01
 9.693479327682388e-01	 7.657234488974372e-01	 1.267885208144360e+01
 9.618619561398762e-01	 7.751060509049608e-01	 1.248969291623074e+01
 9.542812151312645e-01	 7.844202864847063e-01	 1.230023818194840e+01
 9.466066513038190e-01	 7.936647238926423e-01	 1.211024642991841e+01
 9.388392347061697e-01	 8.028379485323843e-01	 1.191943569231145e+01
 9.309799634780872e-01	 8.119385636650447e-01	 1.172748476960143e+01
 9.230298634333939e-01	 8.209651911081843e-01	 1.153403472245257e+01
 9.149899876222183e-01	 8.299164719231461e-01	 1.133869056184433e+01
 1.000667979372880e+00	 7.442003299846808e-01	 1.328510022019963e+01
 9.934031227205647e-01	 7.538705026259065e-01	 1.310469989830670e+01
 9.860399238662905e-01	 7.634760904578685e-01	 1.292371030449694e+01
 9.785792448805086e-01	 7.730156005672394e-01	 1.274206248615901e+01
 9.710219776612697e-01	 7.824875551433469e-01	 1.255964462926178e+01
 9.633690435998837e-01	 7.918904922232534e-01	 1.237630266833703e+01
 9.556213932244673e-01	 8.012229664281129e-01	 1.219184112179506e+01
 9.477800058216410e-01	 8.104835496900263e-01	 1.200602414978271e+01
 9.398458890366842e-01	 8.196708319686529e-01	 1.181857683057187e+01
 9.318200784524739e-01	 8.287834219568171e-01	 1.162918665025769e+01
 9.237036371475712e-01	 8.378199477743884e-01	 1.143750519935751e+01
 1.010107662962478e+00	 7.512206561911103e-01	 1.332152171240297e+01
 1.002774274139985e+00	 7.609820512677085e-01	 1.314917026778607e+01
 9.953416154158982e-01	 7.706782522818534e-01	 1.297557510723701e+01
 9.878105569929215e-01	 7.803077522369920e-01	 1.280070929790742e+01
 9.801819991827313e-01	 7.898690593816953e-01	 1.262450276710227e+01
 9.724568720684862e-01	 7.993606979617673e-01	 1.244684287873553e+01
 9.646361351450092e-01	 8.087812089635464e-01	 1.226757524546850e+01
 9.567207769369164e-01	 8.181291508476193e-01	 1.208650477369592e+01
 9.487118145950031e-01	 8.274031002721918e-01	 1.190339693725942e+01
 9.406102934712062e-01	 8.366016528053526e-01	 1.171797927449509e+01
 9.324172866725250e-01	 8.457234236254972e-01	 1.152994310197260e+01
 1.019547346552243e+00	 7.582409823974395e-01	 1.335541584088670e+01
 1.012145425559569e+00	 7.680935999094363e-01	 1.319034059249387e+01
 1.004643306965647e+00	 7.778804141057851e-01	 1.302346925316341e+01
 9.970418691054342e-01	 7.875999039067070e-01	 1.285481375428095e+01
 9.893420207042394e-01	 7.972505636200158e-01	 1.268434208328029e+01
 9.815447005370731e-01	 8.068309037002558e-01	 1.251197883135291e+01
 9.736508770654687e-01	 8.163394514989513e-01	 1.233760598839743e+01
 9.656615480520443e-01	 8.257747520051750e-01	 1.216106398231949e+01
 9.575777401531126e-01	 8.351353685756786e-01	 1.198215295843939e+01
 9.494005084896777e-01	 8.444198836538152e-01	 1.180063429342231e+01
 9.411309361971797e-01	 8.536268994765063e-01	 1.161623233683272e+01
 1.028987030142090e+00	 7.652613086037011e-01	 1.338656794130840e+01
 1.021516576979242e+00	 7.752051485511151e-01	 1.322807182513635e+01
 1.013944998515475e+00	 7.850825759296824e-01	 1.306732102259491e+01
 1.006273181218004e+00	 7.948920555763973e-01	 1.290436332127493e+01
 9.985020422257724e-01	 8.046320678583169e-01	 1.273920123591497e+01
 9.906325290056455e-01	 8.143011094387276e-01	 1.257179253207932e+01
 9.826656189858717e-01	 8.238976940343380e-01	 1.240205100985804e+01
 9.746023191670731e-01	 8.334203531627061e-01	 1.222984754463474e+01
 9.664436657110836e-01	 8.428676368791312e-01	 1.205501138054184e+01
 9.581907235079754e-01	 8.522381145022291e-01	 1.187733167080870e+01
 9.498445857216345e-01	 8.615303753274486e-01	 1.169655925782364e+01
 1.038426713731936e+00	 7.722816348099295e-01	 1.341473756405778e+01
 1.030887728398930e+00	 7.823166971927695e-01	 1.326219570402807e+01
 1.023246690065321e+00	 7.922847377535618e-01	 1.310702645857098e+01
 1.015504493330588e+00	 8.021842072460749e-01	 1.294931060664282e+01
 1.007662063747309e+00	 8.120135720966092e-01	 1.278908180109914e+01
 9.997203574742065e-01	 8.217713151771916e-01	 1.262632707299406e+01
 9.916803609062446e-01	 8.314559365697151e-01	 1.246098760992528e+01
 9.835430902820510e-01	 8.410659543202251e-01	 1.229295980539774e+01
 9.753095912689841e-01	 8.505999051825662e-01	 1.212209657467054e+01
 9.669809385261864e-01	 8.600563453506187e-01	 1.194820893106689e+01
 9.585582352459899e-01	 8.694338511783578e-01	 1.177106781526042e+01
 1.047866397321698e+00	 7.793019610161573e-01	 1.343965702157152e+01
 1.040258879818555e+00	 7.894282458344239e-01	 1.329251343853140e+01
 1.032548381615123e+00	 7.994868995774410e-01	 1.314244817572043e+01
 1.024735805443143e+00	 8.094763589157525e-01	 1.298957227770615e+01
 1.016822085268827e+00	 8.193950763349013e-01	 1.283394728538055e+01
 1.008808185942757e+00	 8.292415209156552e-01	 1.267558572547432e+01
 1.000695102826612e+00	 8.390141791050925e-01	 1.251445188940222e+01
 9.924838613970265e-01	 8.487115554777440e-01	 1.235046289832698e+01
 9.841755168268840e-01	 8.583321734860012e-01	 1.218349004974099e+01
 9.757711535443965e-01	 8.678745761990083e-01	 1.201336043929533e+01
 9.672718847703454e-01	 8.773373270292667e-01	 1.183985885006192e+01
 1.057306080911293e+00	 7.863222872224190e-01	 1.346102995983400e+01
 1.049630031238044e+00	 7.965397944761028e-01	 1.331879441117329e+01
 1.041850073164822e+00	 8.066890614013381e-01	 1.317341417913936e+01
 1.033967117555626e+00	 8.167685105854429e-01	 1.302502798333467e+01
 1.025982106790306e+00	 8.267765805732026e-01	 1.287372213739124e+01
 1.017896014411298e+00	 8.367117266541271e-01	 1.271953102823606e+01
 1.009709844746999e+00	 8.465724216404790e-01	 1.256243790125620e+01
 1.001424632512048e+00	 8.563571566352749e-01	 1.240237594815196e+01
 9.930414423848528e-01	 8.660644417894536e-01	 1.223922969259742e+01
 9.845613685626941e-01	 8.756928070474221e-01	 1.207283666716872e+01
 9.759855342948003e-01	 8.852408028802089e-01	 1.190298937337366e+01
 1.066745764500636e+00	 7.933426134287479e-01	 1.347852995256137e+01
 1.059001182657322e+00	 8.036513431178307e-01	 1.334077489540146e+01
 1.051151764714355e+00	 8.138912232252702e-01	 1.319971669265126e+01
 1.043198429667994e+00	 8.240606622551578e-01	 1.305551927983097e+01
 1.035142128311723e+00	 8.341580848115230e-01	 1.290829075867051e+01
 1.026983842879832e+00	 8.441819323926159e-01	 1.275808387061247e+01
 1.018724586667432e+00	 8.541306641758843e-01	 1.260489679408176e+01
 1.010365403627165e+00	 8.640027577928309e-01	 1.244867426220632e+01
 1.001907367942960e+00	 8.737967100929408e-01	 1.228930899590928e+01
 9.933515835811655e-01	 8.835110378958849e-01	 1.212664344554527e+01
 9.846991838194551e-01	 8.931442787312180e-01	 1.196047183253608e+01
 1.076185448089647e+00	 8.003629396351779e-01	 1.349179911666794e+01
 1.068372334076313e+00	 8.107628917596325e-01	 1.335815678801084e+01
 1.060453456263661e+00	 8.210933850492551e-01	 1.322111099586736e+01
 1.052429741780204e+00	 8.313528139249102e-01	 1.308084856047324e+01
 1.044302149833057e+00	 8.415395890498717e-01	 1.293749651372539e+01
 1.036071671348360e+00	 8.516521381311296e-01	 1.279112257135716e+01
 1.027739328587935e+00	 8.616889067113175e-01	 1.264173594807158e+01
 1.019306174742424e+00	 8.716483589504235e-01	 1.248928851219940e+01
 1.010773293501274e+00	 8.815289783964798e-01	 1.233367627459010e+01
 1.002141798599897e+00	 8.913292687444204e-01	 1.217474120459960e+01
 9.934128333444089e-01	 9.010477545823268e-01	 1.201227336422687e+01
 1.085625131678239e+00	 8.073832658417421e-01	 1.350044674771392e+01
 1.077743485494942e+00	 8.178744404015328e-01	 1.337060635534198e+01
 1.069755147812679e+00	 8.282955468733098e-01	 1.323731426950359e+01
 1.061661053892214e+00	 8.386449655947125e-01	 1.310077798848712e+01
 1.053462171354286e+00	 8.489210932882577e-01	 1.296114073936619e+01
 1.045159499816885e+00	 8.591223438696768e-01	 1.281848195323647e+01
 1.036754070508536e+00	 8.692471492467884e-01	 1.267281810394580e+01
 1.028246945857875e+00	 8.792939601080658e-01	 1.252410390675817e+01
 1.019639219059865e+00	 8.892612467000878e-01	 1.237223387143002e+01
 1.010932013618977e+00	 8.991474995930532e-01	 1.221704420223389e+01
 1.002126482869762e+00	 9.089512304335691e-01	 1.205831503555267e+01
 9.149899876222183e-01	 8.299164719231461e-01	 1.133869056184433e+01
 9.068628026424265e-01	 8.387895675767806e-01	 1.114223133870033e+01
 8.986480429709360e-01	 8.475847003475108e-01	 1.094564305365012e+01
 8.903468254840484e-01	 8.563005881532008e-01	 1.074890613795129e+01
 8.819602923279076e-01	 8.649359707594722e-01	 1.055199008272129e+01
 8.734896103911239e-01	 8.734896103911240e-01	 1.035485527761749e+01
 8.649359707594724e-01	 8.819602923279075e-01	 1.015745496435170e+01
 8.563005881532008e-01	 8.903468254840485e-01	 9.959737293442334e+00
 8.475847003475104e-01	 8.986480429709363e-01	 9.761647471934781e+00
 8.387895675767804e-01	 9.068628026424267e-01	 9.563129989221014e+00
 8.299164719231462e-01	 9.149899876222183e-01	 9.364130907562055e+00
 9.237036371475712e-01	 8.378199477743884e-01	 1.143750519935750e+01
 9.154990552097964e-01	 8.467775438562437e-01	 1.124456409618658e+01
 9.072060645874288e-01	 8.556564345976151e-01	 1.105155980982397e+01
 8.988257927930227e-01	 8.644553257068245e-01	 1.085845342346472e+01
 8.903593928496245e-01	 8.731729449480103e-01	 1.066519367369773e+01
 8.818080427583737e-01	 8.818080427583734e-01	 1.047171891931025e+01
 8.731729449480103e-01	 8.903593928496245e-01	 1.027795923336968e+01
 8.644553257068243e-01	 8.988257927930228e-01	 1.008383860628260e+01
 8.556564345976151e-01	 9.072060645874290e-01	 9.889277246820786e+00
 8.467775438562435e-01	 9.154990552097965e-01	 9.694193967460990e+00
 8.378199477743883e-01	 9.237036371475715e-01	 9.498508639826555e+00
 9.324172866725250e-01	 8.457234236254972e-01	 1.152994310197260e+01
 9.241353077767381e-01	 8.547655201355298e-01	 1.134054433456758e+01
 9.157640862034860e-01	 8.637281688474943e-01	 1.115116240515511e+01
 9.073047601015715e-01	 8.726100632601732e-01	 1.096173275334202e+01
 8.987584933709396e-01	 8.814099191362255e-01	 1.077217676939984e+01
 8.901264751252571e-01	 8.901264751252571e-01	 1.058240390738351e+01
 8.814099191362255e-01	 8.987584933709394e-01	 1.039231393070606e+01
 8.726100632601733e-01	 9.073047601015718e-01	 1.020179927712543e+01
 8.637281688474940e-01	 9.157640862034861e-01	 1.001074752933783e+01
 8.547655201355294e-01	 9.241353077767384e-01	 9.819043976693575e+00
 8.457234236254971e-01	 9.324172866725252e-01	 9.626574252953471e+00
 9.411309361971797e-01	 8.536268994765063e-01	 1.161623233683272e+01
 9.327715603433593e-01	 8.627534964146832e-01	 1.143040098908910e+01
 9.243221078192164e-01	 8.717999030972050e-01	 1.124467707132092e+01
 9.157837274098003e-01	 8.807648008133159e-01	 1.105896419685314e+01
 9.071575938919529e-01	 8.896468933241983e-01	 1.087314992937183e+01
 8.984449074918653e-01	 8.984449074918651e-01	 1.068710805466270e+01
 8.896468933241984e-01	 9.071575938919529e-01	 1.050070099473658e+01
 8.807648008133159e-01	 9.157837274098005e-01	 1.031378235050574e+01
 8.717999030972047e-01	 9.243221078192165e-01	 1.012619955836419e+01
 8.627534964146829e-01	 9.327715603433593e-01	 9.937796645302569e+00
 8.536268994765061e-01	 9.411309361971795e-01	 9.748417066550275e+00
 9.498445857216345e-01	 8.615303753274486e-01	 1.169655925782364e+01
 9.414078129097662e-01	 8.707414726937482e-01	 1.151432160234745e+01
 9.328801294347290e-01	 8.798716373468033e-01	 1.133228919422201e+01
 9.242626947178161e-01	 8.889195383663206e-01	 1.115032774379515e+01
 9.155566944127654e-01	 8.978838675120098e-01	 1.096828461231450e+01
 9.067633398582903e-01	 9.067633398582903e-01	 1.078599125671667e+01
 8.978838675120097e-01	 9.155566944127653e-01	 1.060326582750296e+01
 8.889195383663209e-01	 9.242626947178166e-01	 1.041991590502356e+01
 8.798716373468031e-01	 9.328801294347290e-01	 1.023574135863087e+01
 8.707414726937481e-01	 9.414078129097666e-01	 1.005053731239568e+01
 8.615303753274486e-01	 9.498445857216345e-01	 9.864097200398898e+00
 9.585582352459899e-01	 8.694338511783578e-01	 1.177106781526042e+01
 9.500440654760668e-01	 8.787294489727695e-01	 1.159245163827094e+01
 9.414381510501325e-01	 8.879433715963452e-01	 1.141414262524942e+01
 9.327416620257258e-01	 8.970742759192574e-01	 1.123596260626669e+01
 9.239557949334775e-01	 9.061208416997401e-01	 1.105771246182032e+01
 9.150817722246237e-01	 9.150817722246236e-01	 1.087917475524373e+01
 9.061208416997401e-01	 9.239557949334775e-01	 1.070011652968359e+01
 8.970742759192574e-01	 9.327416620257261e-01	 1.052029225407578e+01
 8.879433715963450e-01	 9.414381510501327e-01	 1.033944690163952e+01
 8.787294489727694e-01	 9.500440654760668e-01	 1.015731914358819e+01
 8.694338511783578e-01	 9.585582352459900e-01	 9.973644640035914e+00
 9.672718847703454e-01	 8.773373270292667e-01	 1.183985885006192e+01
 9.586803180423668e-01	 8.867174252517905e-01	 1.166489378076762e+01
 9.499961726655363e-01	 8.960151058458872e-01	 1.149033897782552e+01
 9.412206293336354e-01	 9.052290134721942e-01	 1.131596650673555e+01
 9.323548954541897e-01	 9.143578158874707e-01	 1.114152457982161e+01
 9.234002045909574e-01	 9.234002045909573e-01	 1.096674039097772e+01
 9.143578158874707e-01	 9.323548954541898e-01	 1.079132312725988e+01
 9.052290134721941e-01	 9.412206293336358e-01	 1.061496714081737e+01
 8.960151058458872e-01	 9.499961726655365e-01	 1.043735526368501e+01
 8.867174252517904e-01	 9.586803180423671e-01	 1.025816224708870e+01
 8.773373270292666e-01	 9.672718847703452e-01	 1.007705830614702e+01
 9.759855342948003e-01	 8.852408028802089e-01	 1.190298937337366e+01
 9.673165706087740e-01	 8.947054015308562e-01	 1.173170721799172e+01
 9.585541942810489e-01	 9.040868400954855e-01	 1.156093691013190e+01
 9.496995966416517e-01	 9.133837510251995e-01	 1.139039495324986e+01
 9.407539959750022e-01	 9.225947900752820e-01	 1.121977078851426e+01
 9.317186369573822e-01	 9.317186369573822e-01	 1.104872984676165e+01
 9.225947900752820e-01	 9.407539959750024e-01	 1.087691679039149e+01
 9.133837510251991e-01	 9.496995966416516e-01	 1.070395892770442e+01
 9.040868400954853e-01	 9.585541942810492e-01	 1.052946978115443e+01
 8.947054015308556e-01	 9.673165706087743e-01	 1.035305279006388e+01
 8.852408028802090e-01	 9.759855342948003e-01	 1.017430512753008e+01
 9.846991838194551e-01	 8.931442787312180e-01	 1.196047183253608e+01
 9.759528231753953e-01	 9.026933778100096e-01	 1.179290691311140e+01
 9.671122158967792e-01	 9.121585743451963e-01	 1.162595139487208e+01
 9.581785639498809e-01	 9.215384885783423e-01	 1.145926050258261e+01
 9.491530964960160e-01	 9.308317642632552e-01	 1.129245888146248e+01
 9.400370693239908e-01	 9.400370693239908e-01	 1.112514388139053e+01
 9.308317642632550e-01	 9.491530964960160e-01	 1.095688904497494e+01
 9.215384885783420e-01	 9.581785639498810e-01	 1.078724778095007e+01
 9.121585743451961e-01	 9.671122158967792e-01	 1.061575720326600e+01
 9.026933778100091e-01	 9.759528231753953e-01	 1.044194211525603e+01
 8.931442787312178e-01	 9.846991838194551e-01	 1.026531911739930e+01
 9.934128333444089e-01	 9.010477545823268e-01	 1.201227336422687e+01
 9.845890757423369e-01	 9.106813540892957e-01	 1.184846286240009e+01
 9.756702375128364e-01	 9.202303085950755e-01	 1.168535297685924e+01
 9.666575312584293e-01	 9.296932261316911e-01	 1.152253201204183e+01
 9.575521970173311e-01	 9.390687384514703e-01	 1.135955386454256e+01
 9.483555016908741e-01	 9.483555016908741e-01	 1.119594155478403e+01
 9.390687384514700e-01	 9.575521970173310e-01	 1.103119097732868e+01
 9.296932261316907e-01	 9.666575312584292e-01	 1.086477485019693e+01
 9.202303085950754e-01	 9.756702375128368e-01	 1.069614684239736e+01
 9.106813540892954e-01	 9.845890757423374e-01	 1.052474585783205e+01
 9.010477545823268e-01	 9.934128333444088e-01	 1.035000045281787e+01
 1.002126482869762e+00	 9.089512304335691e-01	 1.205831503555267e+01
 9.932253283097068e-01	 9.186693303687588e-01	 1.189829934141603e+01
 9.842282591293295e-01	 9.283020428451800e-01	 1.173906701916204e+01
 9.751364985674037e-01	 9.378479636853145e-01	 1.158013388063094e+01
 9.659512975390478e-01	 9.473057126400085e-01	 1.142097718733707e+01
 9.566739340581240e-01	 9.566739340581240e-01	 1.126103944500901e+01
 9.473057126400086e-01	 9.659512975390476e-01	 1.109973243241541e+01
 9.378479636853141e-01	 9.751364985674038e-01	 1.093644144368997e+01
 9.283020428451798e-01	 9.842282591293298e-01	 1.077052972214349e+01
 9.186693303687584e-01	 9.932253283097072e-01	 1.060134306244325e+01
 9.089512304335688e-01	 1.002126482869762e+00	 1.042821455706365e+01
 8.299164719231462e-01	 9.149899876222183e-01	 9.364130907562055e+00
 8.209651911081850e-01	 9.230298634333938e-01	 9.165639086684717e+00
 8.119385636650452e-01	 9.309799634780870e-01	 8.968625986228904e+00
 8.028379485323849e-01	 9.388392347061693e-01	 8.772920905697369e+00
 7.936647238926425e-01	 9.466066513038186e-01	 8.578366374858238e+00
 7.844202864847065e-01	 9.542812151312641e-01	 8.384820706857678e+00
 7.751060509049611e-01	 9.618619561398761e-01	 8.192160524922453e+00
 7.657234488974376e-01	 9.693479327682387e-01	 8.000283247543177e+00
 7.562739286338144e-01	 9.767382323168843e-01	 7.809109517199282e+00
 7.467589539840069e-01	 9.840319713013833e-01	 7.618585557935276e+00
 7.371800037781164e-01	 9.912282957835301e-01	 7.428777665422100e+00
 8.378199477743883e-01	 9.237036371475715e-01	 9.498508639826555e+00
 8.287834219568174e-01	 9.318200784524734e-01	 9.303213379679644e+00
 8.196708319686534e-01	 9.398458890366838e-01	 9.109289252650115e+00
 8.104835496900267e-01	 9.477800058216405e-01	 8.916549826724893e+00
 8.012229664281134e-01	 9.556213932244674e-01	 8.724821450463125e+00
 7.918904922232539e-01	 9.633690435998835e-01	 8.533945973287505e+00
 7.824875551433471e-01	 9.710219776612695e-01	 8.343783440323605e+00
 7.730156005672398e-01	 9.785792448805083e-01	 8.154214745760866e+00
 7.634760904578690e-01	 9.860399238662905e-01	 7.965144228879936e+00
 7.538705026259068e-01	 9.934031227205642e-01	 7.776502197150716e+00
 7.442003299846809e-01	 1.000667979372880e+00	 7.588247361162122e+00
 8.457234236254971e-01	 9.324172866725252e-01	 9.626574252953471e+00
 8.366016528053530e-01	 9.406102934712058e-01	 9.434324631190803e+00
 8.274031002721923e-01	 9.487118145950028e-01	 9.243287576091339e+00
 8.181291508476195e-01	 9.567207769369159e-01	 9.053269338343988e+00
 8.087812089635468e-01	 9.646361351450087e-01	 8.864088929482953e+00
 7.993606979617678e-01	 9.724568720684860e-01	 8.675581002377072e+00
 7.898690593816957e-01	 9.801819991827311e-01	 8.487598706734619e+00
 7.803077522369924e-01	 9.878105569929211e-01	 8.300016502662556e+00
 7.706782522818539e-01	 9.953416154158981e-01	 8.112732915496418e+00
 7.609820512677086e-01	 1.002774274139985e+00	 7.925673215387246e+00
 7.512206561911104e-01	 1.010107662962479e+00	 7.738792005498322e+00
 8.536268994765061e-01	 9.411309361971795e-01	 9.748417066550275e+00
 8.444198836538155e-01	 9.494005084896775e-01	 9.559039810053779e+00
 8.351353685756790e-01	 9.575777401531121e-01	 9.370677892621522e+00
 8.257747520051752e-01	 9.656615480520441e-01	 9.183138301272216e+00
 8.163394514989517e-01	 9.736508770654682e-01	 8.996241184030271e+00
 8.068309037002566e-01	 9.815447005370727e-01	 8.809822884243676e+00
 7.972505636200159e-01	 9.893420207042389e-01	 8.623738949901785e+00
 7.875999039067072e-01	 9.970418691054336e-01	 8.437867100045404e+00
 7.778804141057857e-01	 1.004643306965646e+00	 8.252110130539265e+00
 7.680935999094367e-01	 1.012145425559569e+00	 8.066398741758185e+00
 7.582409823974395e-01	 1.019547346552243e+00	 7.880694271123271e+00
 8.615303753274486e-01	 9.498445857216345e-01	 9.864097200398898e+00
 8.522381145022295e-01	 9.581907235079753e-01	 9.677398653765422e+00
 8.428676368791317e-01	 9.664436657110833e-01	 9.491491479265655e+00
 8.334203531627066e-01	 9.746023191670727e-01	 9.306191101386641e+00
 8.238976940343381e-01	 9.826656189858715e-01	 9.121326915828455e+00
 8.143011094387280e-01	 9.906325290056454e-01	 8.936745471887695e+00
 8.046320678583173e-01	 9.985020422257720e-01	 8.752313629358678e+00
 7.948920555763976e-01	 1.006273181218003e+00	 8.567921671076549e+00
 7.850825759296827e-01	 1.013944998515474e+00	 8.383486352410433e+00
 7.752051485511156e-01	 1.021516576979242e+00	 8.198953869305775e+00
 7.652613086037011e-01	 1.028987030142090e+00	 8.014302726878803e+00
 8.694338511783578e-01	 9.585582352459900e-01	 9.973644640035914e+00
 8.600563453506190e-01	 9.669809385261862e-01	 9.789412691644703e+00
 8.505999051825663e-01	 9.753095912689836e-01	 9.605732954888961e+00
 8.410659543202255e-01	 9.835430902820506e-01	 9.422436647961515e+00
 8.314559365697154e-01	 9.916803609062439e-01	 9.239370170902117e+00
 8.217713151771917e-01	 9.997203574742063e-01	 9.056398430894102e+00
 8.120135720966096e-01	 1.007662063747309e+00	 8.873408141139185e+00
 8.021842072460753e-01	 1.015504493330588e+00	 8.690311073448221e+00
 7.922847377535621e-01	 1.023246690065320e+00	 8.507047244871220e+00
 7.823166971927700e-01	 1.030887728398929e+00	 8.323588018997230e+00
 7.722816348099293e-01	 1.038426713731936e+00	 8.139939102973438e+00
 8.773373270292666e-01	 9.672718847703452e-01	 1.007705830614702e+01
 8.678745761990088e-01	 9.757711535443960e-01	 9.895064274931849e+00
 8.583321734860015e-01	 9.841755168268839e-01	 9.713379290088351e+00
 8.487115554777444e-01	 9.924838613970260e-01	 9.531857381950374e+00
 8.390141791050928e-01	 1.000695102826612e+00	 9.350369364347404e+00
 8.292415209156552e-01	 1.008808185942756e+00	 9.168806298270638e+00
 8.193950763349015e-01	 1.016822085268827e+00	 8.987082927736584e+00
 8.094763589157529e-01	 1.024735805443143e+00	 8.805141066969572e+00
 7.994868995774420e-01	 1.032548381615124e+00	 8.622952918225511e+00
 7.894282458344243e-01	 1.040258879818555e+00	 8.440524299894033e+00
 7.793019610161575e-01	 1.047866397321698e+00	 8.257897764959177e+00
 8.852408028802090e-01	 9.759855342948003e-01	 1.017430512753008e+01
 8.756928070474229e-01	 9.845613685626939e-01	 9.994305613385304e+00
 8.660644417894537e-01	 9.930414423848521e-01	 9.814378825520887e+00
 8.563571566352753e-01	 1.001424632512048e+00	 9.634408293679559e+00
 8.465724216404796e-01	 1.009709844746999e+00	 9.454296314544795e+00
 8.367117266541274e-01	 1.017896014411298e+00	 9.273967549846954e+00
 8.267765805732029e-01	 1.025982106790305e+00	 9.093372594851388e+00
 8.167685105854431e-01	 1.033967117555626e+00	 8.912491495312732e+00
 8.066890614013388e-01	 1.041850073164822e+00	 8.731337191187560e+00
 7.965397944761033e-01	 1.049630031238044e+00	 8.549958865731238e+00
 7.863222872224190e-01	 1.057306080911292e+00	 8.368445179063869e+00
 8.931442787312178e-01	 9.846991838194551e-01	 1.026531911739930e+01
 8.835110378958851e-01	 9.933515835811648e-01	 1.008705781796780e+01
 8.737967100929410e-01	 1.001907367942959e+00	 9.908650298140202e+00
 8.640027577928312e-01	 1.010365403627165e+00	 9.730015949361567e+00
 8.541306641758846e-01	 1.018724586667432e+00	 9.551095286223790e+00
 8.441819323926161e-01	 1.026983842879831e+00	 9.371853675696144e+00
 8.341580848115231e-01	 1.035142128311722e+00	 9.192285034500181e+00
 8.240606622551581e-01	 1.043198429667994e+00	 9.012415471648641e+00
 8.138912232252709e-01	 1.051151764714355e+00	 8.832306853386758e+00
 8.036513431178314e-01	 1.059001182657321e+00	 8.652060268121417e+00
 7.933426134287480e-01	 1.066745764500637e+00	 8.471819369407532e+00
 9.010477545823268e-01	 9.934128333444088e-01	 1.035000045281787e+01
 8.913292687444206e-01	 1.002141798599897e+00	 1.017320994924069e+01
 8.815289783964800e-01	 1.010773293501273e+00	 9.996081874849004e+00
 8.716483589504241e-01	 1.019306174742424e+00	 9.818577525882771e+00
 8.616889067113181e-01	 1.027739328587935e+00	 9.640682041829896e+00
 8.516521381311302e-01	 1.036071671348360e+00	 9.462408263082587e+00
 8.415395890498718e-01	 1.044302149833056e+00	 9.283800554089108e+00
 8.313528139249107e-01	 1.052429741780204e+00	 9.104938567928626e+00
 8.210933850492557e-01	 1.060453456263661e+00	 8.925940928462580e+00
 8.107628917596329e-01	 1.068372334076313e+00	 8.746968806584952e+00
 8.003629396351780e-01	 1.076185448089647e+00	 8.568229367595684e+00
 9.089512304335688e-01	 1.002126482869762e+00	 1.042821455706365e+01
 8.991474995930534e-01	 1.010932013618976e+00	 1.025261807111221e+01
 8.892612467000883e-01	 1.019639219059864e+00	 1.007653019310938e+01
 8.792939601080663e-01	 1.028246945857875e+00	 9.899959853353307e+00
 8.692471492467886e-01	 1.036754070508535e+00	 9.722942900680483e+00
 8.591223438696771e-01	 1.045159499816885e+00	 9.545546086467915e+00
 8.489210932882580e-01	 1.053462171354286e+00	 9.367871011082778e+00
 8.386449655947128e-01	 1.061661053892214e+00	 9.190058007582817e+00
 8.282955468733099e-01	 1.069755147812679e+00	 9.012289937708955e+00
 8.178744404015331e-01	 1.077743485494941e+00	 8.834795875594565e+00
 8.073832658417420e-01	 1.085625131678239e+00	 8.657854655147071e+00
 7.371800037781164e-01	 9.912282957835301e-01	 7.428777665422098e+00
 7.275402142422077e-01	 9.983251842055071e-01	 7.239942527237273e+00
 7.178394637456086e-01	 1.005323077931204e+00	 7.051661637937910e+00
 7.080792653241690e-01	 1.012221217818814e+00	 6.864121077368365e+00
 6.982611439790511e-01	 1.019018875327433e+00	 6.677533831944128e+00
 6.883866359103259e-01	 1.025715352734217e+00	 6.492141807960894e+00
 6.784572877465489e-01	 1.032309983328702e+00	 6.308217712014640e+00
 6.684746557711058e-01	 1.038802131584267e+00	 6.126066785097176e+00
 6.584403051461076e-01	 1.045191193306684e+00	 5.946028377813290e+00
 6.483558091346150e-01	 1.051476595759787e+00	 5.768477355119876e+00
 6.382227483219657e-01	 1.057657797768284e+00	 5.593825320006293e+00
 7.442003299846809e-01	 1.000667979372880e+00	 7.588247361162123e+00
 7.344687386272236e-01	 1.007832453013678e+00	 7.399976643486903e+00
 7.246756057645478e-01	 1.014896989210057e+00	 7.212088635252221e+00
 7.148224588414700e-01	 1.021860821590739e+00	 7.024871530503670e+00
 7.049108373820712e-01	 1.028723214676773e+00	 6.838552864023191e+00
 6.949422922159876e-01	 1.035483464100749e+00	 6.653391854563565e+00
 6.849183847006549e-01	 1.042140896802981e+00	 6.469681398617507e+00
 6.748406859402828e-01	 1.048694871204591e+00	 6.287749908221507e+00
 6.647107760023613e-01	 1.055144777357484e+00	 6.107962979477943e+00
 6.545302431324753e-01	 1.061490037071205e+00	 5.930724879487055e+00
 6.443006829682215e-01	 1.067730104016737e+00	 5.756479840462151e+00
 7.512206561911104e-01	 1.010107662962479e+00	 7.738792005498322e+00
 7.413972630120617e-01	 1.017339721822077e+00	 7.551473807947954e+00
 7.315117477832579e-01	 1.024470900489089e+00	 7.363806956434307e+00
 7.215656523584875e-01	 1.031500425362774e+00	 7.176787323653276e+00
 7.115605307847489e-01	 1.038427554026137e+00	 6.990641275265712e+00
 7.014979485212477e-01	 1.045251575467211e+00	 6.805625652680368e+00
 6.913794816542993e-01	 1.051971810277091e+00	 6.622033350283032e+00
 6.812067161089405e-01	 1.058587610824651e+00	 6.440195296518244e+00
 6.709812468580401e-01	 1.065098361407931e+00	 6.260482255409588e+00
 6.607046771297111e-01	 1.071503478382195e+00	 6.083306435408746e+00
 6.503786176138092e-01	 1.077802410264706e+00	 5.909122893601508e+00
 7.582409823974395e-01	 1.019547346552243e+00	 7.880694271123271e+00
 7.483257873967655e-01	 1.026846990630618e+00	 7.694464686913410e+00
 7.383478898017962e-01	 1.034044811768219e+00	 7.507305378342467e+00
 7.283088458752920e-01	 1.041140029134846e+00	 7.320392224694576e+00
 7.182102241871703e-01	 1.048131893375465e+00	 7.134341197750272e+00
 7.080536048262062e-01	 1.055019686833557e+00	 6.949387503677519e+00
 6.978405786075974e-01	 1.061802723751002e+00	 6.765804286971564e+00
 6.875727462772078e-01	 1.068480350444430e+00	 6.583904794335611e+00
 6.772517177132881e-01	 1.075051945458022e+00	 6.404044348825567e+00
 6.668791111264790e-01	 1.081516919692765e+00	 6.226622120247810e+00
 6.564565522588958e-01	 1.087874716512207e+00	 6.052082678999144e+00
 7.652613086037011e-01	 1.028987030142090e+00	 8.014302726878803e+00
 7.552543117813801e-01	 1.036354259439218e+00	 7.829085193182034e+00
 7.451840318202204e-01	 1.043618723047367e+00	 7.642903191465289e+00
 7.350520393919543e-01	 1.050779632906884e+00	 7.456180009111799e+00
 7.248599175894201e-01	 1.057836232724698e+00	 7.270165743457648e+00
 7.146092611309636e-01	 1.064787798199742e+00	 7.085194253506211e+00
 7.043016755606648e-01	 1.071633637224684e+00	 6.901499607251043e+00
 6.939387764452157e-01	 1.078373090063914e+00	 6.719357604628863e+00
 6.835221885682489e-01	 1.085005529507757e+00	 6.539087963874698e+00
 6.730535451229345e-01	 1.091530361002927e+00	 6.361056293038056e+00
 6.625344869036486e-01	 1.097947022759257e+00	 6.185675832915576e+00
 7.722816348099293e-01	 1.038426713731936e+00	 8.139939102973438e+00
 7.621828361659501e-01	 1.045861528247791e+00	 7.955725173265423e+00
 7.520201738385877e-01	 1.053192634326453e+00	 7.770563688148926e+00
 7.417952329085460e-01	 1.060419236678817e+00	 7.584605862984833e+00
 7.315096109915848e-01	 1.067540572073777e+00	 7.398598347860741e+00
 7.211649174356205e-01	 1.074555909565721e+00	 7.213534647103110e+00
 7.107627725136166e-01	 1.081464550698108e+00	 7.029598728030894e+00
 7.003048066130932e-01	 1.088265829683088e+00	 6.847009589398431e+00
 6.897926594230659e-01	 1.094959113557134e+00	 6.666031603015910e+00
 6.792279791192338e-01	 1.101543802312688e+00	 6.486976725920677e+00
 6.686124215482344e-01	 1.108019329005872e+00	 6.310206471804126e+00
 7.793019610161575e-01	 1.047866397321698e+00	 8.257897764959178e+00
 7.691113605505201e-01	 1.055368797056252e+00	 8.074746215164947e+00
 7.588563158569543e-01	 1.062766545605396e+00	 7.890660947778807e+00
 7.485384264251372e-01	 1.070058840450572e+00	 7.705720011645560e+00
 7.381593043937498e-01	 1.077244911422643e+00	 7.520092093605106e+00
 7.277205737402775e-01	 1.084324020931449e+00	 7.334868663919366e+00
 7.172238694665684e-01	 1.091295464171243e+00	 7.150554407850493e+00
 7.066708367809712e-01	 1.098158569301937e+00	 6.967292557449305e+00
 6.960631302778832e-01	 1.104912697606152e+00	 6.785272796776008e+00
 6.854024131155336e-01	 1.111557243622059e+00	 6.604740600022160e+00
 6.746903561928201e-01	 1.118091635252071e+00	 6.427797959945944e+00
 7.863222872224190e-01	 1.057306080911292e+00	 8.368445179063871e+00
 7.760398849351350e-01	 1.064876065864517e+00	 8.186481216095128e+00
 7.656924578753788e-01	 1.072340456884115e+00	 8.003579065186099e+00
 7.552816199418000e-01	 1.079698444222078e+00	 7.819727159793768e+00
 7.448089977960001e-01	 1.086949250771235e+00	 7.634963164281423e+00
 7.342762300450349e-01	 1.094092132296881e+00	 7.449626835752001e+00
 7.236849664196359e-01	 1.101126377644060e+00	 7.264792054745479e+00
 7.130368669489792e-01	 1.108051308920447e+00	 7.080613540260366e+00
 7.023336011328438e-01	 1.114866281654809e+00	 6.897572797037569e+00
 6.915768471119890e-01	 1.121570684931049e+00	 6.718086661341793e+00
 6.807682908375731e-01	 1.128163941497868e+00	 6.543510341402408e+00
 7.933426134287480e-01	 1.066745764500637e+00	 8.471819369407532e+00
 7.829684093198388e-01	 1.074383334672501e+00	 8.291233937700635e+00
 7.725285998939171e-01	 1.081914368162530e+00	 8.109672848828140e+00
 7.620248134586042e-01	 1.089338047993263e+00	 7.927018799250221e+00
 7.514586911984213e-01	 1.096653590119494e+00	 7.743203253230837e+00
 7.408318863499936e-01	 1.103860243661971e+00	 7.558209455897383e+00
 7.301460633729343e-01	 1.110957291116528e+00	 7.372709019640450e+00
 7.194028971172467e-01	 1.117944048538601e+00	 7.188330877627193e+00
 7.086040719880921e-01	 1.124819865703105e+00	 7.006821959269452e+00
 6.977512811087569e-01	 1.131584126239668e+00	 6.829241961628203e+00
 6.868462254826598e-01	 1.138236247743282e+00	 6.656632067834857e+00
 8.003629396351780e-01	 1.076185448089647e+00	 8.568229367595684e+00
 7.898969337046766e-01	 1.083890603480119e+00	 8.389278549530534e+00
 7.793647419126274e-01	 1.091488279440561e+00	 8.209267434935313e+00
 7.687680069756218e-01	 1.098977651764055e+00	 8.027957171446532e+00
 7.581083846010992e-01	 1.106357929467360e+00	 7.845156735710878e+00
 7.473875426552539e-01	 1.113628355026674e+00	 7.660792604721435e+00
 7.366071603265787e-01	 1.120788204588617e+00	 7.476030724957779e+00
 7.257689272859044e-01	 1.127836788156386e+00	 7.293063412909797e+00
 7.148745428437712e-01	 1.134773449751038e+00	 7.113117205558646e+00
 7.039257151059931e-01	 1.141597567547925e+00	 6.937139147559641e+00
 6.929241601282479e-01	 1.148308553988328e+00	 6.766054995061266e+00
 8.073832658417420e-01	 1.085625131678239e+00	 8.657854655147071e+00
 7.968254580896930e-01	 1.093397872287285e+00	 8.480859161478032e+00
 7.862008839315666e-01	 1.101062190718126e+00	 8.302657887974727e+00
 7.755112004929233e-01	 1.108617255534383e+00	 8.122874914523646e+00
 7.647580780041195e-01	 1.116062268814774e+00	 7.941278535872085e+00
 7.539431989609159e-01	 1.123396466390945e+00	 7.758509166759071e+00
 7.430682572806854e-01	 1.130619118060299e+00	 7.575608221148814e+00
 7.321349574550818e-01	 1.137729527773787e+00	 7.393989145910048e+00
 7.211450137000248e-01	 1.144727033798606e+00	 7.215401068183799e+00
 7.101001491038539e-01	 1.151611008855831e+00	 7.040691806968614e+00
 6.990020947745038e-01	 1.158380860233024e+00	 6.870654091866061e+00
 6.382227483219657e-01	 1.057657797768284e+00	 5.593825320006293e+00
 6.280427100358572e-01	 1.063734290054355e+00	 5.421528221236144e+00
 6.178172881520020e-01	 1.069705596068494e+00	 5.250633643532908e+00
 6.075480816980801e-01	 1.075571271260445e+00	 5.080987697579791e+00
 5.972366938764673e-01	 1.081330902834387e+00	 4.912462843302384e+00
 5.868847312919349e-01	 1.086984109737429e+00	 4.744959216963032e+00
 5.764938031830203e-01	 1.092530542626095e+00	 4.578405743735837e+00
 5.660655206577766e-01	 1.097969883811006e+00	 4.412761031580539e+00
 5.556014959346079e-01	 1.103301847180059e+00	 4.248014043515659e+00
 5.451033415888720e-01	 1.108526178100360e+00	 4.084184546667368e+00
 5.345726698059237e-01	 1.113642653299240e+00	 3.921876413016112e+00
 6.443006829682215e-01	 1.067730104016737e+00	 5.756479840462151e+00
 6.340236979537626e-01	 1.073864464066298e+00	 5.584425768989925e+00
 6.237008971436371e-01	 1.079892636132096e+00	 5.413280839722232e+00
 6.133338947934149e-01	 1.085814171430323e+00	 5.242819394290100e+00
 6.029243093731176e-01	 1.091628653234009e+00	 5.072842560954711e+00
 5.924737627875640e-01	 1.097335696861414e+00	 4.903179789988910e+00
 5.819838796004213e-01	 1.102934949642181e+00	 4.733690162157109e+00
 5.714562862626762e-01	 1.108426090861504e+00	 4.564263465596916e+00
 5.608926103462403e-01	 1.113808831682570e+00	 4.395388028462496e+00
 5.502944797833781e-01	 1.119082915047558e+00	 4.230471223830554e+00
 5.396635221126376e-01	 1.124248115557521e+00	 4.070305110793136e+00
 6.503786176138092e-01	 1.077802410264706e+00	 5.909122893601508e+00
 6.400046858709640e-01	 1.083994638077725e+00	 5.736814268268910e+00
 6.295845061345410e-01	 1.090079676195170e+00	 5.564739230563314e+00
 6.191197078879993e-01	 1.096057071599678e+00	 5.392619552404803e+00
 6.086119248690061e-01	 1.101926403633127e+00	 5.220204926713031e+00
 5.980627942824288e-01	 1.107687283984919e+00	 5.047274683753031e+00
 5.874739560170639e-01	 1.113339356657817e+00	 4.873982250541014e+00
 5.768470518668322e-01	 1.118882297911583e+00	 4.703515716803520e+00
 5.661837247571523e-01	 1.124315816184690e+00	 4.536897077203614e+00
 5.554856179771961e-01	 1.129639651994383e+00	 4.374354015479244e+00
 5.447543744187041e-01	 1.134853577815435e+00	 4.216080952048835e+00
 6.564565522588958e-01	 1.087874716512207e+00	 6.052082678999144e+00
 6.459856737876377e-01	 1.094124812088654e+00	 5.878951922974331e+00
 6.354681151248968e-01	 1.100266716257733e+00	 5.705213913593585e+00
 6.249055209820209e-01	 1.106299971768522e+00	 5.530556399609678e+00
 6.142995403643249e-01	 1.112224154031745e+00	 5.354771243617441e+00
 6.036518257767232e-01	 1.118038871107942e+00	 5.180421294126971e+00
 5.929640324331427e-01	 1.123743763672993e+00	 5.009083030026290e+00
 5.822378174704376e-01	 1.129338504961225e+00	 4.841011777907680e+00
 5.714748391675346e-01	 1.134822800686390e+00	 4.676427334113408e+00
 5.606767561705129e-01	 1.140196388940802e+00	 4.515514365470425e+00
 5.498452267243066e-01	 1.145459040072949e+00	 4.358422923787986e+00
 6.625344869036486e-01	 1.097947022759257e+00	 6.185675832915576e+00
 6.519666617039599e-01	 1.104254986099104e+00	 6.011089439064030e+00
 6.413517241148868e-01	 1.110453756319804e+00	 5.834905888611374e+00
 6.306913340756687e-01	 1.116542871936870e+00	 5.658381759978743e+00
 6.199871558592653e-01	 1.122521904429869e+00	 5.483952664438037e+00
 6.092408572706408e-01	 1.128390458230482e+00	 5.311948737615227e+00
 5.984541088488513e-01	 1.134148170687698e+00	 5.142641769747268e+00
 5.876285830736857e-01	 1.139794712010408e+00	 4.976266544254786e+00
 5.767659535775788e-01	 1.145329785187645e+00	 4.813021163041745e+00
 5.658678943635170e-01	 1.150753125886785e+00	 4.653067494070141e+00
 5.549360790296277e-01	 1.156064502330029e+00	 4.496531739676772e+00
 6.686124215482344e-01	 1.108019329005872e+00	 6.310206471804126e+00
 6.579476496201063e-01	 1.114385160109096e+00	 6.133939100953020e+00
 6.472353331046948e-01	 1.120640796381398e+00	 5.958342496110940e+00
 6.364771471691306e-01	 1.126785772104733e+00	 5.784180500108768e+00
 6.256747713540198e-01	 1.132819654827506e+00	 5.611800173631510e+00
 6.148298887643754e-01	 1.138742045352533e+00	 5.441510494998031e+00
 6.039441852643843e-01	 1.144552577701919e+00	 5.273582432136529e+00
 5.930193486767700e-01	 1.150250919059114e+00	 5.108249144617570e+00
 5.820570679874754e-01	 1.155836769688428e+00	 4.945706315897313e+00
 5.710590325563952e-01	 1.161309862832300e+00	 4.786112615081493e+00
 5.600269313348508e-01	 1.166669964586642e+00	 4.629590286691487e+00
 6.746903561928201e-01	 1.118091635252071e+00	 6.427797959945944e+00
 6.639286375362525e-01	 1.124515334118648e+00	 6.253793515604431e+00
 6.531189420945037e-01	 1.130827836442536e+00	 6.080426061684977e+00
 6.422629602625948e-01	 1.137028672272124e+00	 5.908098868129928e+00
 6.313623868487797e-01	 1.143117405224660e+00	 5.737176877167514e+00
 6.204189202581205e-01	 1.149093632474096e+00	 5.567986599177040e+00
 6.094342616799359e-01	 1.154956984715645e+00	 5.400816144560247e+00
 5.984101142798831e-01	 1.160707126107321e+00	 5.235915392847554e+00
 5.873481823974153e-01	 1.166343754188711e+00	 5.073496299377137e+00
 5.762501707493354e-01	 1.171866599777314e+00	 4.913733338985736e+00
 5.651177836401589e-01	 1.177275426842756e+00	 4.756764085265777e+00
 6.807682908375731e-01	 1.128163941497868e+00	 6.543510341402408e+00
 6.699096254525749e-01	 1.134645508127778e+00	 6.371691147647870e+00
 6.590025510844965e-01	 1.141014876503233e+00	 6.200036509763267e+00
 6.480487733562494e-01	 1.147271572439055e+00	 6.028984002111315e+00
 6.370500023437370e-01	 1.153415155621337e+00	 5.858933035020304e+00
 6.260079517520704e-01	 1.159445219595165e+00	 5.690244671024235e+00
 6.149243380957000e-01	 1.165361391728866e+00	 5.523241584120909e+00
 6.038008798832193e-01	 1.171163333155011e+00	 5.358208163584216e+00
 5.926392968075904e-01	 1.176850738688468e+00	 5.195390762914847e+00
 5.814413089425252e-01	 1.182423336721797e+00	 5.034998093560622e+00
 5.702086359457345e-01	 1.187880889098336e+00	 4.877201762093732e+00
 6.868462254826598e-01	 1.138236247743282e+00	 6.656632067834857e+00
 6.758906133692495e-01	 1.144775682136508e+00	 6.486501328542746e+00
 6.648861600748555e-01	 1.151201916563507e+00	 6.316018081793397e+00
 6.538345864502830e-01	 1.157514472605542e+00	 6.145669836062032e+00
 6.427376178390831e-01	 1.163712906017544e+00	 5.975906554527780e+00
 6.315969832464181e-01	 1.169796806715740e+00	 5.807140359363829e+00
 6.204144145118707e-01	 1.175765798741568e+00	 5.639745386149716e+00
 6.091916454869708e-01	 1.181619540202164e+00	 5.474057790318868e+00
 5.979304112181908e-01	 1.187357723187672e+00	 5.310375906536749e+00
 5.866324471361521e-01	 1.192980073665717e+00	 5.148960560896082e+00
 5.752994882517610e-01	 1.198486351353350e+00	 4.990035534810399e+00
 6.929241601282479e-01	 1.148308553988328e+00	 6.766054995061266e+00
 6.818716012864520e-01	 1.154905856144856e+00	 6.597077793166537e+00
 6.707697690657647e-01	 1.161388956623376e+00	 6.427201157431792e+00
 6.596203995448836e-01	 1.167757372771594e+00	 6.256977688628647e+00
 6.484252333350105e-01	 1.174010656413287e+00	 6.086923505170111e+00
 6.371860147413579e-01	 1.180148393835817e+00	 5.917517803351225e+00
 6.259044909286430e-01	 1.186170205753742e+00	 5.749202574936607e+00
 6.145824110913315e-01	 1.192075747248759e+00	 5.582382484443971e+00
 6.032215256294078e-01	 1.197864707686296e+00	 5.417424907405090e+00
 5.918235853304036e-01	 1.203536810609043e+00	 5.254660129803574e+00
 5.803903405584212e-01	 1.209091813607764e+00	 5.094381707820583e+00
 6.990020947745038e-01	 1.158380860233024e+00	 6.870654091866061e+00
 6.878525892043581e-01	 1.165036030152840e+00	 6.702259494431875e+00
 6.766533780574063e-01	 1.171575996682858e+00	 6.532402954335035e+00
 6.654062126402396e-01	 1.178000272937226e+00	 6.361716869880302e+00
 6.541128488317102e-01	 1.184308406808569e+00	 6.190798653467150e+00
 6.427750462370838e-01	 1.190499980955394e+00	 6.020210115889998e+00
 6.313945673462101e-01	 1.196574612765375e+00	 5.850477015345707e+00
 6.199731766964944e-01	 1.202531954294777e+00	 5.682088774010912e+00
 6.085126400414324e-01	 1.208371692184314e+00	 5.515498363914262e+00
 5.970147235254675e-01	 1.214093547551742e+00	 5.351122362682634e+00
 5.854811928658988e-01	 1.219697275861546e+00	 5.189341178601621e+00
 5.345726698059237e-01	 1.113642653299240e+00	 3.921876413016112e+00
 5.240092934375787e-01	 1.118651922882586e+00	 3.763114536295344e+00
 5.134166096511253e-01	 1.123552946099685e+00	 3.607268120168948e+00
 5.027962253509407e-01	 1.128345591998717e+00	 3.454519843141336e+00
 4.921497441588559e-01	 1.133029760329420e+00	 3.305024137262849e+00
 4.814787657084261e-01	 1.137605381325554e+00	 3.158907992846430e+00
 4.707848849492832e-01	 1.142072415468733e+00	 3.016271836873293e+00
 4.600696914621139e-01	 1.146430853234088e+00	 2.877190480037543e+00
 4.493347687847818e-01	 1.150680714818243e+00	 2.741714126975071e+00
 4.385816937500957e-01	 1.154822049850079e+00	 2.609869443855257e+00
 4.278120358356970e-01	 1.158854937084785e+00	 2.481660677187294e+00
 5.396635221126376e-01	 1.124248115557521e+00	 4.070305110793138e+00
 5.289995484035818e-01	 1.129305089509443e+00	 3.913652484654137e+00
 5.183059881754688e-01	 1.134252786241315e+00	 3.759324299050145e+00
 5.075844636355820e-01	 1.139091073554227e+00	 3.607527317889994e+00
 4.968365936773979e-01	 1.143819850243213e+00	 3.458440191717802e+00
 4.860639931681360e-01	 1.148439045877629e+00	 3.312214265814746e+00
 4.752682722464868e-01	 1.152948620562745e+00	 3.168974466761201e+00
 4.644510356310651e-01	 1.157348564682983e+00	 3.028820262214926e+00
 4.536138819401164e-01	 1.161638898627301e+00	 2.891826688222084e+00
 4.427584030229768e-01	 1.165819672497203e+00	 2.758045437980214e+00
 4.318861833037710e-01	 1.169890965797879e+00	 2.627506005619542e+00
 5.447543744187041e-01	 1.134853577815435e+00	 4.216080952048835e+00
 5.339898033689870e-01	 1.139958256135926e+00	 4.060805797696352e+00
 5.231953666992704e-01	 1.144952626382548e+00	 3.907363176797530e+00
 5.123727019197404e-01	 1.149836555109311e+00	 3.755981832369199e+00
 5.015234431955170e-01	 1.154609940156544e+00	 3.606862430060475e+00
 4.906492206274812e-01	 1.159272710429204e+00	 3.460178373661912e+00
 4.797516595433783e-01	 1.163824825656219e+00	 3.316076704228858e+00
 4.688323797997503e-01	 1.168266276131307e+00	 3.174679077362254e+00
 4.578929950952204e-01	 1.172597082435761e+00	 3.036082812718451e+00
 4.469351122956503e-01	 1.176817295143713e+00	 2.900362009391801e+00
 4.359603307716445e-01	 1.180926994510356e+00	 2.767568720427410e+00
 5.498452267243066e-01	 1.145459040072949e+00	 4.358422923787986e+00
 5.389800583339723e-01	 1.150611422762002e+00	 4.203886501196741e+00
 5.280847452227011e-01	 1.155652466523359e+00	 4.050788483488578e+00
 5.171609402035812e-01	 1.160582036663951e+00	 3.899377485533743e+00
 5.062102927133716e-01	 1.165400030069403e+00	 3.749873981190192e+00
 4.952344480866130e-01	 1.170106374980280e+00	 3.602471130231725e+00
 4.842350468401043e-01	 1.174701030749170e+00	 3.457335694440443e+00
 4.732137239683101e-01	 1.179183987579083e+00	 3.314609037181452e+00
 4.621721082502307e-01	 1.183555266243658e+00	 3.174408200270051e+00
 4.511118215682502e-01	 1.187814917789653e+00	 3.036827051477256e+00
 4.400344782394512e-01	 1.191963023222269e+00	 2.901937495605684e+00
 5.549360790296277e-01	 1.156064502330029e+00	 4.496531739676772e+00
 5.439703132987149e-01	 1.161264589387640e+00	 4.342186289993234e+00
 5.329741237459332e-01	 1.166352306663722e+00	 4.188981641403515e+00
 5.219491784872685e-01	 1.171327518218128e+00	 4.037184171612707e+00
 5.108971422311197e-01	 1.176190119981785e+00	 3.887031951319176e+00
 4.998196755456832e-01	 1.180940039530862e+00	 3.738735586557984e+00
 4.887184341368099e-01	 1.185577235841611e+00	 3.592479156176054e+00
 4.775950681368851e-01	 1.190101699026339e+00	 3.448421238516017e+00
 4.664512214052839e-01	 1.194513450051027e+00	 3.306696020838007e+00
 4.552885308409106e-01	 1.198812540435067e+00	 3.167414484513292e+00
 4.441086257073239e-01	 1.202999051933666e+00	 3.030665658568808e+00
 5.600269313348508e-01	 1.166669964586642e+00	 4.629590286691487e+00
 5.489605682633922e-01	 1.171917756012810e+00	 4.474977046237196e+00
 5.378635022691368e-01	 1.177052146803612e+00	 4.321302352780305e+00
 5.267374167709677e-01	 1.182072999771827e+00	 4.168848235380475e+00
 5.155839917489192e-01	 1.186980209893681e+00	 4.017868144875228e+00
 5.044049030048435e-01	 1.191773704080952e+00	 3.868587815620048e+00
 4.932018214336409e-01	 1.196453440933555e+00	 3.721206228764640e+00
 4.819764123056161e-01	 1.201019410473099e+00	 3.575896670883624e+00
 4.707303345605167e-01	 1.205471633857905e+00	 3.432807881195885e+00
 4.594652401137658e-01	 1.209810163079999e+00	 3.292065280068054e+00
 4.481827731753965e-01	 1.214035080644598e+00	 3.153772271014470e+00
 5.651177836401589e-01	 1.177275426842756e+00	 4.756764085265777e+00
 5.539508232281820e-01	 1.182570922637479e+00	 4.601511365516583e+00
 5.427528807924838e-01	 1.187751986943002e+00	 4.447089189960765e+00
 5.315256550548431e-01	 1.192818481325027e+00	 4.293793124477133e+00
 5.202708412669282e-01	 1.197770299805082e+00	 4.141889777249395e+00
 5.089901304642459e-01	 1.202607368630553e+00	 3.991617683870885e+00
 4.976852087307431e-01	 1.207329646025018e+00	 3.843188300843247e+00
 4.863577564746437e-01	 1.211937121919388e+00	 3.696787101018506e+00
 4.750094477160658e-01	 1.216429817664327e+00	 3.552574763898516e+00
 4.636419493869502e-01	 1.220807785724493e+00	 3.410688453135552e+00
 4.522569206438021e-01	 1.225071109355115e+00	 3.271243173052086e+00
 5.702086359457345e-01	 1.187880889098336e+00	 4.877201762093732e+00
 5.589410781932614e-01	 1.193224089261618e+00	 4.721023090362374e+00
 5.476422593161459e-01	 1.198451827081868e+00	 4.565660187782488e+00
 5.363138933390593e-01	 1.203563962877712e+00	 4.411420038966146e+00
 5.249576907853049e-01	 1.208560389715980e+00	 4.258580179900358e+00
 5.135753579240416e-01	 1.213441033179666e+00	 4.107389610365398e+00
 5.021685960282625e-01	 1.218205851116014e+00	 3.958069822084711e+00
 4.907391006441085e-01	 1.222854833365231e+00	 3.810815935863130e+00
 4.792885608720680e-01	 1.227388001470327e+00	 3.665797940297034e+00
 4.678186586605977e-01	 1.231805408368594e+00	 3.523162024021598e+00
 4.563310681126742e-01	 1.236107138065268e+00	 3.383031992897068e+00
 5.752994882517610e-01	 1.198486351353350e+00	 4.990035534810400e+00
 5.639313331588085e-01	 1.203877255885194e+00	 4.832727850685247e+00
 5.525316378402936e-01	 1.209151667220183e+00	 4.676313438078509e+00
 5.411021316237814e-01	 1.214309444429863e+00	 4.521108578303579e+00
 5.296445403042075e-01	 1.219350479626368e+00	 4.367399498292635e+00
 5.181605853843820e-01	 1.224274697728297e+00	 4.215443314263225e+00
 5.066519833263444e-01	 1.229082056206557e+00	 4.065469098949002e+00
 4.951204448141516e-01	 1.233772544810656e+00	 3.917679065346804e+00
 4.835676740286600e-01	 1.238346185275943e+00	 3.772249859210421e+00
 4.719953679348425e-01	 1.242803031012345e+00	 3.629333951859770e+00
 4.604052155821460e-01	 1.247143166775106e+00	 3.489061124266049e+00
 5.803903405584212e-01	 1.209091813607764e+00	 5.094381707820583e+00
 5.689215881250006e-01	 1.214530422508178e+00	 4.935823610718167e+00
 5.574210163650988e-01	 1.219851507357921e+00	 4.778327686160342e+00
 5.458903699091739e-01	 1.225054925981464e+00	 4.622217385880112e+00
 5.343313898237937e-01	 1.230140569536238e+00	 4.467785383111715e+00
 5.227458128454193e-01	 1.235108362276447e+00	 4.315294551419940e+00
 5.111353706251349e-01	 1.239958261296662e+00	 4.164979075445501e+00
 4.995017889849129e-01	 1.244690256255685e+00	 4.017045686197317e+00
 4.878467871859785e-01	 1.249304369081210e+00	 3.871675012751486e+00
 4.761720772098189e-01	 1.253800653655791e+00	 3.729023041501152e+00
 4.644793630523509e-01	 1.258179195484680e+00	 3.589222673460805e+00
 5.854811928658988e-01	 1.219697275861546e+00	 5.189341178601621e+00
 5.739118430920152e-01	 1.225183589130536e+00	 5.029491222072167e+00
 5.623103948907325e-01	 1.230551347495057e+00	 4.870962929163769e+00
 5.506786081954017e-01	 1.235800407532495e+00	 4.714084791286927e+00
 5.390182393442218e-01	 1.240930659445580e+00	 4.559153675167844e+00
 5.273310403073047e-01	 1.245942026824119e+00	 4.406435840735254e+00
 5.156187579247797e-01	 1.250834466386342e+00	 4.256168099817285e+00
 5.038831331565337e-01	 1.255607967700346e+00	 4.108559107941002e+00
 4.921259003441603e-01	 1.260262552886162e+00	 3.963790780701276e+00
 4.803487864856610e-01	 1.264798276298975e+00	 3.822019825402411e+00
 4.685535105234227e-01	 1.269215224194041e+00	 3.683379377986766e+00
 4.278120358356970e-01	 1.158854937084785e+00	 2.481660677187295e+00
 4.170291908260465e-01	 1.162778826050703e+00	 2.356856659355823e+00
 4.062328811157087e-01	 1.166594546778079e+00	 2.235254999495973e+00
 3.954246490892970e-01	 1.170302262533852e+00	 2.116939216930299e+00
 3.846060273334279e-01	 1.173902164313956e+00	 2.001977369107763e+00
 3.737785380540697e-01	 1.177394470462886e+00	 1.890423114896942e+00
 3.629436925083494e-01	 1.180779426279795e+00	 1.782393540007855e+00
 3.521029904511305e-01	 1.184057303611736e+00	 1.677955893242701e+00
 3.412579195966538e-01	 1.187228400434594e+00	 1.576736308239791e+00
 3.304099550955042e-01	 1.190293040422305e+00	 1.478317475309193e+00
 3.195605590271466e-01	 1.193251572504952e+00	 1.382264763957640e+00
 4.318861833037710e-01	 1.169890965797879e+00	 2.627506005619543e+00
 4.210006509057591e-01	 1.173852222815406e+00	 2.500053501949388e+00
 4.101015255798051e-01	 1.177704281484598e+00	 2.375560986585805e+00
 3.991903643989822e-01	 1.181447306627223e+00	 2.254138023958934e+00
 3.882687145450586e-01	 1.185081491058116e+00	 2.135879502461661e+00
 3.773381127202973e-01	 1.188607055201118e+00	 2.020866727107701e+00
 3.664000845738516e-01	 1.192024246691428e+00	 1.909193183797546e+00
 3.554561441430730e-01	 1.195333339964961e+00	 1.801053687569345e+00
 3.445077933100246e-01	 1.198534635835297e+00	 1.696166377947060e+00
 3.335565212734672e-01	 1.201628461058793e+00	 1.594128040931414e+00
 3.226038040365631e-01	 1.204615167888475e+00	 1.494520380479923e+00
 4.359603307716445e-01	 1.180926994510356e+00	 2.767568720427409e+00
 4.249721109852619e-01	 1.184925619579510e+00	 2.637624832691824e+00
 4.139701700436687e-01	 1.188814016190545e+00	 2.510474126066902e+00
 4.029560797084023e-01	 1.192592350720061e+00	 2.386241421780161e+00
 3.919314017563874e-01	 1.196260817801793e+00	 2.265037464488715e+00
 3.808976873861860e-01	 1.199819639938926e+00	 2.146960064305748e+00
 3.698564766389817e-01	 1.203269067102697e+00	 2.032095759021530e+00
 3.588092978346183e-01	 1.206609376317884e+00	 1.920666006569681e+00
 3.477576670229857e-01	 1.209840871235758e+00	 1.812542348530696e+00
 3.367030874510251e-01	 1.212963881695097e+00	 1.707324761946272e+00
 3.256470490455999e-01	 1.215978763271868e+00	 1.604600501818834e+00
 4.400344782394512e-01	 1.191963023222269e+00	 2.901937495605684e+00
 4.289435710646893e-01	 1.195999016343065e+00	 2.769735529164921e+00
 4.178388145074359e-01	 1.199923750895974e+00	 2.640227935270307e+00
 4.067217950176970e-01	 1.203737394812421e+00	 2.513544208940050e+00
 3.955940889675565e-01	 1.207440144545039e+00	 2.389800182273240e+00
 3.844572620518792e-01	 1.211032224676355e+00	 2.269099235793655e+00
 3.733128687038836e-01	 1.214513887513644e+00	 2.151533524790294e+00
 3.621624515259087e-01	 1.217885412670544e+00	 2.037270599659205e+00
 3.510075407356744e-01	 1.221147106636015e+00	 1.926363965956012e+00
 3.398496536283063e-01	 1.224299302331255e+00	 1.818422138844136e+00
 3.286902940543719e-01	 1.227342358655165e+00	 1.713027434456002e+00
 4.441086257073239e-01	 1.202999051933666e+00	 3.030665658568808e+00
 4.329150311441756e-01	 1.207072413106127e+00	 2.896513931689976e+00
 4.217074589712435e-01	 1.211033485600939e+00	 2.765018493183167e+00
 4.104875103270055e-01	 1.214882438904356e+00	 2.636303123332780e+00
 3.992567761787083e-01	 1.218619471287904e+00	 2.510478167666496e+00
 3.880168367175220e-01	 1.222244809413452e+00	 2.387641837516379e+00
 3.767692607687018e-01	 1.225758707924313e+00	 2.267881527189360e+00
 3.655156052170861e-01	 1.229161449022981e+00	 2.151309102493488e+00
 3.542574144482281e-01	 1.232453342036103e+00	 2.038096382965361e+00
 3.429962198054391e-01	 1.235634722967297e+00	 1.927901698063353e+00
 3.317335390629949e-01	 1.238705954038400e+00	 1.820292218967100e+00
 4.481827731753965e-01	 1.214035080644598e+00	 3.153772271014470e+00
 4.368864912238550e-01	 1.218145809868746e+00	 3.018052974232579e+00
 4.255761034352283e-01	 1.222143220305494e+00	 2.885005610106543e+00
 4.142532256364675e-01	 1.226027482995918e+00	 2.754738039800220e+00
 4.029194633899846e-01	 1.229798798030439e+00	 2.627344732488612e+00
 3.915764113832571e-01	 1.233457394150266e+00	 2.502908175002386e+00
 3.802256528335801e-01	 1.237003528334747e+00	 2.381500299853302e+00
 3.688687589082928e-01	 1.240437485375233e+00	 2.263187656443933e+00
 3.575072881607832e-01	 1.243759577436060e+00	 2.148170810099725e+00
 3.461427859825519e-01	 1.246970143603259e+00	 2.036212663928230e+00
 3.347767840715840e-01	 1.250069549421605e+00	 1.926855312743414e+00
 4.522569206438021e-01	 1.225071109355115e+00	 3.271243173052086e+00
 4.408579513038619e-01	 1.229219206630979e+00	 3.134411274497744e+00
 4.294447478995270e-01	 1.233252955009694e+00	 3.000313953087944e+00
 4.180189409462228e-01	 1.237172527087163e+00	 2.869033120719612e+00
 4.065821506015277e-01	 1.240978124772696e+00	 2.740637154538911e+00
 3.951359860492292e-01	 1.244669978886844e+00	 2.615182435517038e+00
 3.836820448986632e-01	 1.248248348744990e+00	 2.492714907343718e+00
 3.722219125996708e-01	 1.251713521727341e+00	 2.373271645720264e+00
 3.607571618734772e-01	 1.255065812835922e+00	 2.256985114352431e+00
 3.492893521597731e-01	 1.258305564239176e+00	 2.143772578685403e+00
 3.378200290802544e-01	 1.261433144804814e+00	 2.033147221735347e+00
 4.563310681126742e-01	 1.236107138065268e+00	 3.383031992897068e+00
 4.448294113843311e-01	 1.240292603392879e+00	 3.245614185772046e+00
 4.333133923642760e-01	 1.244362689713595e+00	 3.111034129896886e+00
 4.217846562564102e-01	 1.248317571178141e+00	 2.979337922521678e+00
 4.102448378134799e-01	 1.252157451514724e+00	 2.850557797495217e+00
 3.986955607155822e-01	 1.255882563623233e+00	 2.724713812605497e+00
 3.871384369640948e-01	 1.259493169155085e+00	 2.601815559361597e+00
 3.755750662913622e-01	 1.262989558079346e+00	 2.481863884617187e+00
 3.640070355864470e-01	 1.266372048235724e+00	 2.364904368727675e+00
 3.524359183372309e-01	 1.269640984875081e+00	 2.250967873887306e+00
 3.408632740891216e-01	 1.272796740188061e+00	 2.139569084406187e+00
 4.604052155821460e-01	 1.247143166775106e+00	 3.489061124266049e+00
 4.488008714653967e-01	 1.251366000154499e+00	 3.351654812884147e+00
 4.371820368296120e-01	 1.255472424417250e+00	 3.217223734112987e+00
 4.255503715671698e-01	 1.259462615268909e+00	 3.085768460873211e+00
 4.139075250259833e-01	 1.263336778256576e+00	 2.957275187558563e+00
 4.022551353824599e-01	 1.267095148359481e+00	 2.831717585976522e+00
 3.905948290300192e-01	 1.270737989565077e+00	 2.709058686051383e+00
 3.789282199835091e-01	 1.274265594431286e+00	 2.589252769960351e+00
 3.672569092998297e-01	 1.277678283635504e+00	 2.472261355753536e+00
 3.555824845150538e-01	 1.280976405511008e+00	 2.358154396141297e+00
 3.439065190983009e-01	 1.284160335571379e+00	 2.246493210863908e+00
 4.644793630523509e-01	 1.258179195484680e+00	 3.589222673460806e+00
 4.527723315471931e-01	 1.262439396915893e+00	 3.452494994491294e+00
 4.410506812956719e-01	 1.266582159120714e+00	 3.318908353719208e+00
 4.293160868786409e-01	 1.270607659359518e+00	 3.188408237063592e+00
 4.175702122391802e-01	 1.274516104998302e+00	 3.060925049505220e+00
 4.058147100500065e-01	 1.278307733095636e+00	 2.936376159473855e+00
 3.940512210965809e-01	 1.281982809975009e+00	 2.814667970532082e+00
 3.822813736762538e-01	 1.285541630783201e+00	 2.695698008245337e+00
 3.705067830137623e-01	 1.288984519035298e+00	 2.579357010085266e+00
 3.587290506933699e-01	 1.292311826146992e+00	 2.465657890030543e+00
 3.469497641079077e-01	 1.295523930954800e+00	 2.354263579923304e+00
 4.685535105234227e-01	 1.269215224194041e+00	 3.683379377986766e+00
 4.567437916298547e-01	 1.273512793677115e+00	 3.548066253743335e+00
 4.449193257625925e-01	 1.277691893824041e+00	 3.416082545424351e+00
 4.330818021909631e-01	 1.281752703450023e+00	 3.287309227961435e+00
 4.212328994532125e-01	 1.285695431739953e+00	 3.161611304618273e+00
 4.093742847183657e-01	 1.289520317831744e+00	 3.038840059689056e+00
 3.975076131639236e-01	 1.293227630384924e+00	 2.918835341261880e+00
 3.856345273697379e-01	 1.296817667135131e+00	 2.801427861094868e+00
 3.737566567283818e-01	 1.300290754435142e+00	 2.686441498608508e+00
 3.618756168723080e-01	 1.303647246783066e+00	 2.573774440818820e+00
 3.499930091180572e-01	 1.306887526338360e+00	 2.463196296666838e+00
 3.195605590271466e-01	 1.193251572504952e+00	 1.382264763957640e+00
 3.087111800563153e-01	 1.196104370675531e+00	 1.289089937341459e+00
 2.978632533877027e-01	 1.198851834302764e+00	 1.199552803759311e+00
 2.870181998381785e-01	 1.201494386876893e+00	 1.113574227812150e+00
 2.761774252422133e-01	 1.204032475268084e+00	 1.031069023305995e+00
 2.653423200252903e-01	 1.206466569236455e+00	 9.519478079961434e-01
 2.545142587938909e-01	 1.208797160934545e+00	 8.761186070798399e-01
 2.436945999421328e-01	 1.211024764402856e+00	 8.034882181996015e-01
 2.328846852751183e-01	 1.213149915059019e+00	 7.339633514386525e-01
 2.220858396490283e-01	 1.215173169181183e+00	 6.674515583868859e-01
 2.112993706279765e-01	 1.217095103386193e+00	 6.038619648270971e-01
 3.226038040365631e-01	 1.204615167888475e+00	 1.494520380479923e+00
 3.116511040599924e-01	 1.207495133878961e+00	 1.397929160999646e+00
 3.006998702162139e-01	 1.210268762202250e+00	 1.305166758887871e+00
 2.897515368528448e-01	 1.212936480381579e+00	 1.216141400501086e+00
 2.788075231924231e-01	 1.215498739542758e+00	 1.130757242628965e+00
 2.678692329017563e-01	 1.217956013919532e+00	 1.048916193783397e+00
 2.569380536780028e-01	 1.220308800351322e+00	 9.705194685212706e-01
 2.460153568515626e-01	 1.222557617773954e+00	 8.954688887220594e-01
 2.351024970058395e-01	 1.224703006703957e+00	 8.236679464957808e-01
 2.242008116139081e-01	 1.226745528717040e+00	 7.550226440084253e-01
 2.133116206920999e-01	 1.228685765921302e+00	 6.894421259979748e-01
 3.256470490455999e-01	 1.215978763271868e+00	 1.604600501818834e+00
 3.145910280633388e-01	 1.218885897082306e+00	 1.505013768247813e+00
 3.035364870444638e-01	 1.221685690101690e+00	 1.409420703685522e+00
 2.924848738673361e-01	 1.224378573886246e+00	 1.317716498842159e+00
 2.814376211425569e-01	 1.226965003817432e+00	 1.229794442079582e+00
 2.703961457782543e-01	 1.229445458602622e+00	 1.145547700041585e+00
 2.593618485622583e-01	 1.231820439768115e+00	 1.064870814850326e+00
 2.483361137612482e-01	 1.234090471145059e+00	 9.876609330230428e-01
 2.373203087369258e-01	 1.236256098348886e+00	 9.138187820419390e-01
 2.263157835792549e-01	 1.238317888252864e+00	 8.432494111465265e-01
 2.153238707567809e-01	 1.240276428456341e+00	 7.758627134116287e-01
 3.286902940543719e-01	 1.227342358655165e+00	 1.713027434456002e+00
 3.175309520664518e-01	 1.230276660285602e+00	 1.610869369950718e+00
 3.063731038725283e-01	 1.233102618001120e+00	 1.512841320381327e+00
 2.952182108817037e-01	 1.235820667390937e+00	 1.418825086639111e+00
 2.840677190926396e-01	 1.238431268092155e+00	 1.328702930710855e+00
 2.729230586547809e-01	 1.240934903285780e+00	 1.242359307978765e+00
 2.617856434466275e-01	 1.243332079184987e+00	 1.159682298842872e+00
 2.506568706711341e-01	 1.245623324516245e+00	 1.080564756124015e+00
 2.395381204682971e-01	 1.247809189993888e+00	 1.004905185509988e+00
 2.284307555449676e-01	 1.249890247788743e+00	 9.326083769656441e-01
 2.173361208219014e-01	 1.251867090991410e+00	 8.635858055378209e-01
 3.317335390629949e-01	 1.238705954038400e+00	 1.820292218967100e+00
 3.204708760694287e-01	 1.241667423488883e+00	 1.715992020249241e+00
 3.092097207004832e-01	 1.244519545900578e+00	 1.615927364023098e+00
 2.979515478959990e-01	 1.247262760895695e+00	 1.519966352094734e+00
 2.866978170426959e-01	 1.249897532366978e+00	 1.427980117555391e+00
 2.754499715313340e-01	 1.252424347969061e+00	 1.339844500599352e+00
 2.642094383310805e-01	 1.254843718602000e+00	 1.255441405618170e+00
 2.529776275811638e-01	 1.257156177887583e+00	 1.174659857405126e+00
 2.417559321998734e-01	 1.259362281639043e+00	 1.097396775139299e+00
 2.305457275109452e-01	 1.261462607324770e+00	 1.023557483496787e+00
 2.193483708873434e-01	 1.263457753526609e+00	 9.530559807570553e-01
 3.347767840715840e-01	 1.250069549421605e+00	 1.926855312743414e+00
 3.234108000723675e-01	 1.253058186692183e+00	 1.820848904014647e+00
 3.120463375284045e-01	 1.255936473800102e+00	 1.719150352382585e+00
 3.006848849102731e-01	 1.258704854400559e+00	 1.621613797927293e+00
 2.893279149927503e-01	 1.261363796641944e+00	 1.528099199761709e+00
 2.779768844079105e-01	 1.263913792652519e+00	 1.438473946720899e+00
 2.666332332155872e-01	 1.266355358019216e+00	 1.352614130452211e+00
 2.552983844912813e-01	 1.268689031259143e+00	 1.270405500190737e+00
 2.439737439315745e-01	 1.270915373284434e+00	 1.191744119374937e+00
 2.326606994770865e-01	 1.273034966861035e+00	 1.116536744953269e+00
 2.213606209529891e-01	 1.275048416062042e+00	 1.044700950768549e+00
 3.378200290802544e-01	 1.261433144804814e+00	 2.033147221735347e+00
 3.263507240753656e-01	 1.264448949895537e+00	 1.925878974481799e+00
 3.148829543563679e-01	 1.267353401699727e+00	 1.822955207226707e+00
 3.034182219245774e-01	 1.270146947905573e+00	 1.724215884072115e+00
 2.919580129428279e-01	 1.272830060917104e+00	 1.629509804565391e+00
 2.805037972845080e-01	 1.275403237336211e+00	 1.538696140105817e+00
 2.690570281001178e-01	 1.277866997436699e+00	 1.451645613016466e+00
 2.576191414014308e-01	 1.280221884630999e+00	 1.368241339100107e+00
 2.461915556633205e-01	 1.282468464930141e+00	 1.288379355395091e+00
 2.347756714432904e-01	 1.284607326397629e+00	 1.211968855570296e+00
 2.233728710187206e-01	 1.286639078597807e+00	 1.138932155942908e+00
 3.408632740891216e-01	 1.272796740188061e+00	 2.139569084406187e+00
 3.292906480785207e-01	 1.275839713098980e+00	 2.031493544175888e+00
 3.177195711844494e-01	 1.278770329599493e+00	 1.927760849996918e+00
 3.061515589389628e-01	 1.281589041410778e+00	 1.828196625934595e+00
 2.945881108929532e-01	 1.284296325192505e+00	 1.732638587983819e+00
 2.830307101611237e-01	 1.286892682020190e+00	 1.640937996515519e+00
 2.714808229846424e-01	 1.289378636854513e+00	 1.552960730765771e+00
 2.599398983115558e-01	 1.291754738003221e+00	 1.468588007801146e+00
 2.484093673950311e-01	 1.294021556576245e+00	 1.387716769325705e+00
 2.368906434094562e-01	 1.296179685934643e+00	 1.310259760437554e+00
 2.253851210844199e-01	 1.298229741134006e+00	 1.236145324999629e+00
 3.439065190983009e-01	 1.284160335571379e+00	 2.246493210863908e+00
 3.322305720819301e-01	 1.287230476302545e+00	 2.138076832033402e+00
 3.205561880127250e-01	 1.290187257499437e+00	 2.033960754725538e+00
 3.088848959534810e-01	 1.293031134916218e+00	 1.933956150950616e+00
 2.972182088431507e-01	 1.295762589468195e+00	 1.837889792916256e+00
 2.855576230377552e-01	 1.298382126704511e+00	 1.745605411297350e+00
 2.739046178691307e-01	 1.300890276272719e+00	 1.656964654009520e+00
 2.622606552216007e-01	 1.303287591375883e+00	 1.571847669623367e+00
 2.506271791266264e-01	 1.305574648222827e+00	 1.490153340513828e+00
 2.390056153754827e-01	 1.307752045472169e+00	 1.411799191616823e+00
 2.273973711499691e-01	 1.309820403670741e+00	 1.336721001219068e+00
 3.469497641079077e-01	 1.295523930954800e+00	 2.354263579923304e+00
 3.351704960856915e-01	 1.298621239506268e+00	 2.245986469407568e+00
 3.233928048412701e-01	 1.301604185399596e+00	 2.141923460817097e+00
 3.116182329681829e-01	 1.304473228421932e+00	 2.041871216018841e+00
 2.998483067934456e-01	 1.307228853744221e+00	 1.945645769146557e+00
 2.880845359143993e-01	 1.309871571389229e+00	 1.853083779926175e+00
 2.763284127535534e-01	 1.312401915691381e+00	 1.764043365019486e+00
 2.645814121315091e-01	 1.314820444749054e+00	 1.678404533312136e+00
 2.528449908580262e-01	 1.317127739869969e+00	 1.596069252070724e+00
 2.411205873412688e-01	 1.319324405010296e+00	 1.516961171678902e+00
 2.294096212152501e-01	 1.321411066208110e+00	 1.441025037246663e+00
 3.499930091180572e-01	 1.306887526338360e+00	 2.463196296666838e+00
 3.381104200899027e-01	 1.310012002710184e+00	 2.355553967466122e+00
 3.262294216701611e-01	 1.313021113300007e+00	 2.251993048141432e+00
 3.143515699831197e-01	 1.315915321927963e+00	 2.152295688187305e+00
 3.024784047438625e-01	 1.318695118020632e+00	 2.056267457568494e+00
 2.906114487910538e-01	 1.321361016074400e+00	 1.963738483763654e+00
 2.787522076378801e-01	 1.323913555110562e+00	 1.874564143365802e+00
 2.669021690412250e-01	 1.326353298122808e+00	 1.788625336048194e+00
 2.550628025891503e-01	 1.328680831517753e+00	 1.705828369736864e+00
 2.432355593067135e-01	 1.330896764549116e+00	 1.626104486643057e+00
 2.314218712801453e-01	 1.333001728746217e+00	 1.549409060400234e+00
 2.112993706279765e-01	 1.217095103386193e+00	 6.038619648270971e-01
 2.005247383791320e-01	 1.218916615046935e+00	 5.435218128035109e-01
 1.897650528143126e-01	 1.220637984089940e+00	 4.867753427049786e-01
 1.790215711326670e-01	 1.222259844409447e+00	 4.335290376802523e-01
 1.682955319642592e-01	 1.223782848136552e+00	 3.836921127141808e-01
 1.575881551098500e-01	 1.225207665098887e+00	 3.371764421117536e-01
 1.469006412971870e-01	 1.226534982278399e+00	 2.938963831883217e-01
 1.362341719536855e-01	 1.227765503267758e+00	 2.537685110123620e-01
 1.255899089953631e-01	 1.228899947725906e+00	 2.167112786924801e-01
 1.149689946318784e-01	 1.229939050833223e+00	 1.826446172854463e-01
 1.043725511875042e-01	 1.230883562746832e+00	 1.514894889116050e-01
 2.133116206920999e-01	 1.228685765921302e+00	 6.894421259979744e-01
 2.024343792666382e-01	 1.230524624235507e+00	 6.272565151929963e-01
 1.915722268657166e-01	 1.232262386251986e+00	 5.688061599483687e-01
 1.807264326610740e-01	 1.233899691901696e+00	 5.139883680269011e-01
 1.698982470785267e-01	 1.235437199526119e+00	 4.627041967193262e-01
 1.590889015352726e-01	 1.236875585331799e+00	 4.148582609631943e-01
 1.482996081938592e-01	 1.238215542842965e+00	 3.703584336143255e-01
 1.375315597327009e-01	 1.239457782352756e+00	 3.291154538185892e-01
 1.267859291330028e-01	 1.240603030373579e+00	 2.910424590501461e-01
 1.160638694819429e-01	 1.241652029087102e+00	 2.560544559232749e-01
 1.053665137919404e-01	 1.242605535794355e+00	 2.240677443506180e-01
 2.153238707567809e-01	 1.240276428456341e+00	 7.758627134116287e-01
 2.043440201547780e-01	 1.242132633423963e+00	 7.119896144586402e-01
 1.933794009178155e-01	 1.243886788413867e+00	 6.519656750945888e-01
 1.824312941902221e-01	 1.245539539393727e+00	 5.956818128892185e-01
 1.715009621935669e-01	 1.247091550915417e+00	 5.430338358960733e-01
 1.605896479614845e-01	 1.248543505564404e+00	 4.939221170101062e-01
 1.496985750913230e-01	 1.249896103407196e+00	 4.482511563658240e-01
 1.388289475124952e-01	 1.251150061437404e+00	 4.059290488943508e-01
 1.279819492713942e-01	 1.252306113020913e+00	 3.668668737389154e-01
 1.171587443327173e-01	 1.253365007340673e+00	 3.309780217249083e-01
 1.063604763970304e-01	 1.254327508841633e+00	 2.981774765020933e-01
 2.173361208219014e-01	 1.251867090991410e+00	 8.635858055378209e-01
 2.062536610434214e-01	 1.253740642612413e+00	 7.981681113028198e-01
 1.951865749704716e-01	 1.255511190575701e+00	 7.366861383501468e-01
 1.841361557199704e-01	 1.257179386885667e+00	 6.790272696559492e-01
 1.731036773092389e-01	 1.258745902304583e+00	 6.250850470600660e-01
 1.620903943883481e-01	 1.260211425796837e+00	 5.747586969046752e-01
 1.510975419894461e-01	 1.261576663971225e+00	 5.279525395463622e-01
 1.401263352929445e-01	 1.262842340521835e+00	 4.845753010957199e-01
 1.291779694104233e-01	 1.264009195668025e+00	 4.445393452838402e-01
 1.182536191840990e-01	 1.265077985594041e+00	 4.077598427996094e-01
 1.073544390026836e-01	 1.266049481888746e+00	 3.741538948186407e-01
 2.193483708873434e-01	 1.263457753526609e+00	 9.530559807570556e-01
 2.081633019324383e-01	 1.265348651800969e+00	 8.862224937460619e-01
 1.969937490235473e-01	 1.267135592737608e+00	 8.233841594496816e-01
 1.858410172501776e-01	 1.268819234377645e+00	 7.644277580176044e-01
 1.747063924254014e-01	 1.270400253693749e+00	 7.092476285767315e-01
 1.635911408157253e-01	 1.271879346029234e+00	 6.577450306152623e-01
 1.524965088880967e-01	 1.273257224535189e+00	 6.098273850163805e-01
 1.414237230739248e-01	 1.274534619606176e+00	 5.654074144046510e-01
 1.303739895499760e-01	 1.275712278315037e+00	 5.244022019632932e-01
 1.193484940359851e-01	 1.276790963847309e+00	 4.867321872849106e-01
 1.083484016088095e-01	 1.277771454935777e+00	 4.523201171359643e-01
 2.213606209529891e-01	 1.275048416062042e+00	 1.044700950768550e+00
 2.100729428216988e-01	 1.276956660989742e+00	 9.765673563404351e-01
 1.988009230769051e-01	 1.278759994899709e+00	 9.124613138793840e-01
 1.875458787807024e-01	 1.280459081869787e+00	 8.522720143942031e-01
 1.763091075419132e-01	 1.282054605083047e+00	 7.958977441803152e-01
 1.650918872434783e-01	 1.283547266261732e+00	 7.432450658155476e-01
 1.538954757871427e-01	 1.284937785099221e+00	 6.942278745274371e-01
 1.427211108553123e-01	 1.286226898690559e+00	 6.487663509744916e-01
 1.315700096899384e-01	 1.287415360962067e+00	 6.067858309275143e-01
 1.204433688882728e-01	 1.288503942100581e+00	 5.682156116966603e-01
 1.093423642153174e-01	 1.289493427982808e+00	 5.329877144075073e-01
 2.233728710187206e-01	 1.286639078597807e+00	 1.138932155942907e+00
 2.119825837110727e-01	 1.288564670178843e+00	 1.069601982697276e+00
 2.006080971304070e-01	 1.290384397062122e+00	 1.004304713651840e+00
 1.892507403114037e-01	 1.292098929362221e+00	 9.429350520258191e-01
 1.779118226586333e-01	 1.293708956472611e+00	 8.853984734444524e-01
 1.665926336714690e-01	 1.295215186494465e+00	 8.316102097963884e-01
 1.552944426864521e-01	 1.296618345663457e+00	 7.814941041330967e-01
 1.440184986369829e-01	 1.297919177775111e+00	 7.349813590983525e-01
 1.327660298301963e-01	 1.299118443609235e+00	 6.920092007807206e-01
 1.215382437408594e-01	 1.300216920353960e+00	 6.525194791798792e-01
 1.103363268221166e-01	 1.301215401029919e+00	 6.164572256790539e-01
 2.253851210844199e-01	 1.298229741134006e+00	 1.236145324999629e+00
 2.138922246004299e-01	 1.300172679368381e+00	 1.165710893620020e+00
 2.024152711839156e-01	 1.302008799224969e+00	 1.099287544846924e+00
 1.909556018421403e-01	 1.303738776855075e+00	 1.036778688871762e+00
 1.795145377754204e-01	 1.305363307862575e+00	 9.781003309882166e-01
 1.680933800995596e-01	 1.306883106727570e+00	 9.231798409293823e-01
 1.566934095858927e-01	 1.308298906228031e+00	 8.719545888609865e-01
 1.453158864188127e-01	 1.309611456859964e+00	 8.243704720431166e-01
 1.339620499706357e-01	 1.310821526256660e+00	 7.803803555340578e-01
 1.226331185936421e-01	 1.311929898607551e+00	 7.399424495397979e-01
 1.113302894291167e-01	 1.312937374077192e+00	 7.030186451619687e-01
 2.273973711499691e-01	 1.309820403670741e+00	 1.336721001219068e+00
 2.158018654896405e-01	 1.311780688558469e+00	 1.265264362975970e+00
 2.042224452372932e-01	 1.313633201388370e+00	 1.197769573980266e+00
 1.926604633727710e-01	 1.315378624348478e+00	 1.134152045312805e+00
 1.811172528921335e-01	 1.317017659253071e+00	 1.074341756354809e+00
 1.695941265276120e-01	 1.318551026961183e+00	 1.018281791567726e+00
 1.580923764853324e-01	 1.319979466793079e+00	 9.659267394874080e-01
 1.466132742006778e-01	 1.321303735945247e+00	 9.172409795549306e-01
 1.351580701111426e-01	 1.322524608904463e+00	 8.721968817037513e-01
 1.237279934465182e-01	 1.323642876861456e+00	 8.307729428038961e-01
 1.123242520362270e-01	 1.324659347124710e+00	 7.929518831347515e-01
 2.294096212152501e-01	 1.321411066208110e+00	 1.441025037246662e+00
 2.177115063785743e-01	 1.323388697749216e+00	 1.368618903288298e+00
 2.060296192904021e-01	 1.325257603552443e+00	 1.300097625111442e+00
 1.943653249031546e-01	 1.327018471842555e+00	 1.235392013511743e+00
 1.827199680086315e-01	 1.328672010644233e+00	 1.174449576365106e+00
 1.710948729554884e-01	 1.330218947195439e+00	 1.117232804139809e+00
 1.594913433846394e-01	 1.331660027358734e+00	 1.063717313128384e+00
 1.479106619824542e-01	 1.332996015031089e+00	 1.013889873711687e+00
 1.363540902516031e-01	 1.334227691552762e+00	 9.677463502029373e-01
 1.248228682993848e-01	 1.335355855115781e+00	 9.252895779374408e-01
 1.133182146433568e-01	 1.336381320172553e+00	 8.865272022783690e-01
 2.314218712801453e-01	 1.333001728746217e+00	 1.549409060400233e+00
 2.196211472671014e-01	 1.334996706940734e+00	 1.476117722890927e+00
 2.078367933431046e-01	 1.336882005717310e+00	 1.406606029475423e+00
 1.960701864331498e-01	 1.338658319337436e+00	 1.340823700157233e+00
 1.843226831247731e-01	 1.340326362036193e+00	 1.278739441619630e+00
 1.725956193830508e-01	 1.341886867430476e+00	 1.220338962066971e+00
 1.608903102836814e-01	 1.343340587925134e+00	 1.165622839239800e+00
 1.492080497640180e-01	 1.344688294117620e+00	 1.114604270688144e+00
 1.375501103919029e-01	 1.345930774201677e+00	 1.067306734561870e+00
 1.259177431521392e-01	 1.347068833370628e+00	 1.023761588225819e+00
 1.143121772504156e-01	 1.348103293220804e+00	 9.840056309422134e-01
 1.043725511875042e-01	 1.230883562746832e+00	 1.514894889116045e-01
 9.380347140931360e-02	 1.231734111348292e+00	 1.232876803490379e-01
 8.326101301765595e-02	 1.232491643093927e+00	 9.812118884245757e-02
 7.274621318588424e-02	 1.233156949160033e+00	 7.598565920465328e-02
 6.226008931144947e-02	 1.233730833511943e+00	 5.687453683638632e-02
 5.180363891032868e-02	 1.234214112374779e+00	 4.077846456904122e-02
 4.137783952559742e-02	 1.234607613706718e+00	 2.768470548911295e-02
 3.098364864991027e-02	 1.234912176675148e+00	 1.757660058027044e-02
 2.062200366164586e-02	 1.235128651136109e+00	 1.043306922129639e-02
 1.029382177446227e-02	 1.235257897117380e+00	 6.228159771223707e-03
 0.000000000000000e+00	 1.235300784305558e+00	 4.930656766924946e-03
 1.053665137919404e-01	 1.242605535794355e+00	 2.240677443506172e-01
 9.469678235833391e-02	 1.243464184356351e+00	 1.951236098721021e-01
 8.405392583256917e-02	 1.244228930242707e+00	 1.693032784666415e-01
 7.343899126521147e-02	 1.244900572164251e+00	 1.465977573815838e-01
 6.285300574259410e-02	 1.245479921742636e+00	 1.269956349956847e-01
 5.229697628024092e-02	 1.245967802976057e+00	 1.104823604555620e-01
 4.177188973056825e-02	 1.246365051707504e+00	 9.703955430514344e-02
 3.127871270462711e-02	 1.246672515095922e+00	 8.664435954880934e-02
 2.081839150764010e-02	 1.246891051090703e+00	 7.926884173093773e-02
 1.039185208807652e-02	 1.247021527909842e+00	 7.487944574614480e-02
 0.000000000000000e+00	 1.247064823522136e+00	 7.343651633737447e-02
 1.063604763970304e-01	 1.254327508841633e+00	 2.981774765020933e-01
 9.559009330793825e-02	 1.255194257364255e+00	 2.685089268334040e-01
 8.484683864798656e-02	 1.255966217391451e+00	 2.420533056967664e-01
 7.413176934495726e-02	 1.256644195168565e+00	 2.187967121583123e-01
 6.344592217406993e-02	 1.257229009973564e+00	 1.987226160226074e-01
 5.279031365039951e-02	 1.257721493577712e+00	 1.818110118141849e-01
 4.216593993570714e-02	 1.258122489708798e+00	 1.680376090847542e-01
 3.157377675944426e-02	 1.258432853517321e+00	 1.573730691233053e-01
 2.101477935368149e-02	 1.258653451046015e+00	 1.497822972211202e-01
 1.048988240170319e-02	 1.258785158703082e+00	 1.452237987181482e-01
 0.000000000000000e+00	 1.258828862739513e+00	 1.436491062407967e-01
 1.073544390026836e-01	 1.266049481888746e+00	 3.741538948186409e-01
 9.648340425804869e-02	 1.266924330372060e+00	 3.437701424174959e-01
 8.563975146384302e-02	 1.267703504540177e+00	 3.166894149398096e-01
 7.482454742506896e-02	 1.268387818172957e+00	 2.928928239589272e-01
 6.403883860583630e-02	 1.268978098204674e+00	 2.723586486178369e-01
 5.328365102077483e-02	 1.269475184179651e+00	 2.550613549848006e-01
 4.255999014099423e-02	 1.269879927710475e+00	 2.409706574096941e-01
 3.186884081435012e-02	 1.270193191939190e+00	 2.300506326222567e-01
 2.121116719976466e-02	 1.270415851001863e+00	 2.222588963298655e-01
 1.058791271534087e-02	 1.270548789496905e+00	 2.175458510743387e-01
 0.000000000000000e+00	 1.270592901957491e+00	 2.158540132349689e-01
 1.083484016088095e-01	 1.277771454935777e+00	 4.523201171359643e-01
 9.737671520858729e-02	 1.278654403379817e+00	 4.212218013933284e-01
 8.643266428007333e-02	 1.279440791688905e+00	 3.935178864977871e-01
 7.551732550549389e-02	 1.280131441177410e+00	 3.691846111569839e-01
 6.463175503785257e-02	 1.280727186435910e+00	 3.481951838658981e-01
 5.377698839133734e-02	 1.281228874781783e+00	 3.305186581298389e-01
 4.295404034640978e-02	 1.281637365712408e+00	 3.161188557241608e-01
 3.216390486933305e-02	 1.281953530361371e+00	 3.049533494309788e-01
 2.140755504588419e-02	 1.282178250958071e+00	 2.969725156436114e-01
 1.068594302898819e-02	 1.282312420291117e+00	 2.921186661613604e-01
 0.000000000000000e+00	 1.282356941175869e+00	 2.903252675628836e-01
 1.093423642153174e-01	 1.289493427982808e+00	 5.329877144075079e-01
 9.827002615947611e-02	 1.290384476387579e+00	 5.011670236407806e-01
 8.722557709661240e-02	 1.291178078837655e+00	 4.728336746624600e-01
 7.621010358617954e-02	 1.291875064181909e+00	 4.479593446838026e-01
 6.522467147007814e-02	 1.292476274667219e+00	 4.265124864690977e-01
 5.427032576205740e-02	 1.292982565384017e+00	 4.084570493709210e-01
 4.334809055193398e-02	 1.293394803714473e+00	 3.937512548181208e-01
 3.245896892438143e-02	 1.293713868783711e+00	 3.823464384342643e-01
 2.160394289203475e-02	 1.293940650914459e+00	 3.741859698418224e-01
 1.078397334264372e-02	 1.294076051085523e+00	 3.692042600637306e-01
 0.000000000000000e+00	 1.294120980394446e+00	 3.673258654383522e-01
 1.103363268221166e-01	 1.301215401029919e+00	 6.164572256790544e-01
 9.916333711063718e-02	 1.302114549395401e+00	 5.838980162026577e-01
 8.801848991339499e-02	 1.302915365986445e+00	 5.549209166039606e-01
 7.690288166707332e-02	 1.303618687186434e+00	 5.294935536777978e-01
 6.581758790247240e-02	 1.304225362898545e+00	 5.075801372450739e-01
 5.476366313290550e-02	 1.304736255986260e+00	 4.891400163813777e-01
 4.374214075754699e-02	 1.305152241716542e+00	 4.741262969186417e-01
 3.275403297948364e-02	 1.305474207206052e+00	 4.624845331701302e-01
 2.180033073821093e-02	 1.305703050870846e+00	 4.541515056302174e-01
 1.088200365630610e-02	 1.305839681879929e+00	 4.490540951851374e-01
 0.000000000000000e+00	 1.305885019613024e+00	 4.471082632935772e-01
 1.113302894291167e-01	 1.312937374077192e+00	 7.030186451619680e-01
 1.000566480619926e-01	 1.313844622403334e+00	 6.696965577019824e-01
 8.881140273035600e-02	 1.314652653135296e+00	 6.400534138793081e-01
 7.759565974812259e-02	 1.315362310190970e+00	 6.140535039874877e-01
 6.641050433499468e-02	 1.315974451129832e+00	 5.916575086843141e-01
 5.525700050385201e-02	 1.316489946588422e+00	 5.728208792165859e-01
 4.413619096322905e-02	 1.316909679718491e+00	 5.574922861653657e-01
 3.304909703462807e-02	 1.317234545628240e+00	 5.456121504722597e-01
 2.199671858440736e-02	 1.317465450827056e+00	 5.371112692249942e-01
 1.098003396997390e-02	 1.317603312674142e+00	 5.319095473941384e-01
 0.000000000000000e+00	 1.317649058831402e+00	 5.299148455545051e-01
 1.123242520362270e-01	 1.324659347124710e+00	 7.929518831347515e-01
 1.009499590134644e-01	 1.325574695411432e+00	 7.588344568394658e-01
 8.960431554743023e-02	 1.326389940284228e+00	 7.284950882550958e-01
 7.828843782927473e-02	 1.327105933195500e+00	 7.018956512070704e-01
 6.700342076760436e-02	 1.327723539361028e+00	 6.789942152370283e-01
 5.575033787486739e-02	 1.328243637190411e+00	 6.597432380405481e-01
 4.453024116896037e-02	 1.328667117720193e+00	 6.440878341167995e-01
 3.334416108980310e-02	 1.328994884050118e+00	 6.319641342442552e-01
 2.219310643061867e-02	 1.329227850782908e+00	 6.232977490254799e-01
 1.107806428364575e-02	 1.329366943467965e+00	 6.180023483738204e-01
 0.000000000000000e+00	 1.329413098049379e+00	 6.159783675819350e-01
 1.133182146433568e-01	 1.336381320172553e+00	 8.865272022783668e-01
 1.018432699649746e-01	 1.337304768419748e+00	 8.515739865591132e-01
 9.039722836455258e-02	 1.338127227433259e+00	 8.205004134238534e-01
 7.898121591047717e-02	 1.338849556200005e+00	 7.932670698085318e-01
 6.759633720026087e-02	 1.339472627592077e+00	 7.698305398795102e-01
 5.624367524592205e-02	 1.339997327792135e+00	 7.501413972912423e-01
 4.492429137472113e-02	 1.340424555721523e+00	 7.341422818221373e-01
 3.363922514499709e-02	 1.340755222471532e+00	 7.217660758909135e-01
 2.238949427683948e-02	 1.340990250738223e+00	 7.129341950005574e-01
 1.117609459732023e-02	 1.341130574261204e+00	 7.075550046954351e-01
 0.000000000000000e+00	 1.341177137266757e+00	 7.055223753053328e-01
 1.143121772504156e-01	 1.348103293220804e+00	 9.840056309422125e-01
 1.027365809164453e-01	 1.349034841428336e+00	 9.481682953662292e-01
 9.119014118165782e-02	 1.349864514582410e+00	 9.163148240787802e-01
 7.967399399167731e-02	 1.350593179204470e+00	 8.884058598278932e-01
 6.818925363292350e-02	 1.351221715822924e+00	 8.643978384060418e-01
 5.673701261698640e-02	 1.351751018393502e+00	 8.442407677172754e-01
 4.531834158049153e-02	 1.352181993722354e+00	 8.278760998846553e-01
 3.393428920019845e-02	 1.352515560892326e+00	 8.152347128285904e-01
 2.258588212306440e-02	 1.352752650692822e+00	 8.062350162047482e-01
 1.127412491099594e-02	 1.352894205053666e+00	 8.007811950351431e-01
 0.000000000000000e+00	 1.352941176483334e+00	 7.987616029664499e-01
 1.352941176483334e+00	 0.000000000000000e+00	 1.763542774858413e+01
 1.352894205053666e+00	 1.127412491099520e-02	 1.763353818388651e+01
 1.352752650692823e+00	 2.258588212306376e-02	 1.763082939255647e+01
 1.352515560892325e+00	 3.393428920019793e-02	 1.762723502502140e+01
 1.352181993722354e+00	 4.531834158049113e-02	 1.762267930562097e+01
 1.351751018393503e+00	 5.673701261698608e-02	 1.761707672911218e+01
 1.351221715822924e+00	 6.818925363292330e-02	 1.761033172343052e+01
 1.350593179204471e+00	 7.967399399167724e-02	 1.760233827813997e+01
 1.349864514582410e+00	 9.119014118165783e-02	 1.759297953850887e+01
 1.349034841428336e+00	 1.027365809164454e-01	 1.758212736562052e+01
 1.348103293220804e+00	 1.143121772504156e-01	 1.756964186343632e+01
 1.364705215698962e+00	 0.000000000000000e+00	 1.742724775837548e+01
 1.364657835845205e+00	 1.137215522467076e-02	 1.742527014406657e+01
 1.364515050646572e+00	 2.278226996928750e-02	 1.742265285036249e+01
 1.364275899312382e+00	 3.422935325539531e-02	 1.741931269663651e+01
 1.363939431722592e+00	 4.571239178625208e-02	 1.741515746600959e+01
 1.363504708994443e+00	 5.723034998803187e-02	 1.741008562445537e+01
 1.362970804053529e+00	 6.878217006555377e-02	 1.740398600105547e+01
 1.362336802208880e+00	 8.036677207282614e-02	 1.739673742856091e+01
 1.361601801731692e+00	 9.198305399868634e-02	 1.738820834394199e+01
 1.360764914437230e+00	 1.036298918678065e-01	 1.737825634910823e+01
 1.359825266269520e+00	 1.153061398573236e-01	 1.736672773251803e+01
 1.376469254913690e+00	 0.000000000000000e+00	 1.722825647429895e+01
 1.376421466635868e+00	 1.147018553834483e-02	 1.722621313752023e+01
 1.376277450599515e+00	 2.297865781550511e-02	 1.722371187361264e+01
 1.376036237731739e+00	 3.452441731057849e-02	 1.722065068183491e+01
 1.375696869722267e+00	 4.610644199198713e-02	 1.721691909663479e+01
 1.375258399594980e+00	 5.772368735903614e-02	 1.721239793551480e+01
 1.374719892283898e+00	 6.937508649812295e-02	 1.720695900253527e+01
 1.374080425213233e+00	 8.105955015388946e-02	 1.720046474630624e+01
 1.373339088881091e+00	 9.277596681560034e-02	 1.719276787186976e+01
 1.372494987446405e+00	 1.045232028190191e-01	 1.718371090639940e+01
 1.371547239318660e+00	 1.163001024640440e-01	 1.717312571921416e+01
 1.388233294127617e+00	 0.000000000000000e+00	 1.703793453510788e+01
 1.388185097425753e+00	 1.156821585201608e-02	 1.703582890887768e+01
 1.388039850551743e+00	 2.317504566171171e-02	 1.703345107079019e+01
 1.387796576150474e+00	 3.481948136573758e-02	 1.703067822199035e+01
 1.387454307721441e+00	 4.650049219768056e-02	 1.702737985585999e+01
 1.387012090195153e+00	 5.821702472997729e-02	 1.702341754088775e+01
 1.386468980514056e+00	 6.996800293060394e-02	 1.701864465324006e+01
 1.385824048217529e+00	 8.175232823483659e-02	 1.701290605755313e+01
 1.385076376030586e+00	 9.356887963236762e-02	 1.700603773503716e+01
 1.384225060455817e+00	 1.054165137700524e-01	 1.699786635853870e+01
 1.383269212368158e+00	 1.172940650705508e-01	 1.698820881481044e+01
 1.399997333340845e+00	 0.000000000000000e+00	 1.685577988067847e+01
 1.399948728214958e+00	 1.166624616568317e-02	 1.685359889978299e+01
 1.399802250503344e+00	 2.337143350790243e-02	 1.685133693664341e+01
 1.399556914568666e+00	 3.511454542086268e-02	 1.684884842558489e+01
 1.399211745720175e+00	 4.689454240331663e-02	 1.684598104007248e+01
 1.398765780795009e+00	 5.871036210083370e-02	 1.684257551691787e+01
 1.398218068744025e+00	 7.056091936296997e-02	 1.683846542381146e+01
 1.397567671221768e+00	 8.244510631563692e-02	 1.683347686833887e+01
 1.396813663180152e+00	 9.436179244895582e-02	 1.682742814723347e+01
 1.395955133465419e+00	 1.063098247208753e-01	 1.682012933520284e+01
 1.394991185417950e+00	 1.182880276768181e-01	 1.681138181330276e+01
 1.411761372553473e+00	 0.000000000000000e+00	 1.668130703165658e+01
 1.411712359003579e+00	 1.176427647934476e-02	 1.667902345827494e+01
 1.411564650454407e+00	 2.356782135407239e-02	 1.667685699459035e+01
 1.411317252986390e+00	 3.540960947594383e-02	 1.667463734697226e+01
 1.410969183718531e+00	 4.728859260887960e-02	 1.667218860218484e+01
 1.410519471394586e+00	 5.920369947158369e-02	 1.666932909935951e+01
 1.409967156973825e+00	 7.115383579519417e-02	 1.666587123845993e+01
 1.409311294225951e+00	 8.313788439625980e-02	 1.666162122300779e+01
 1.408550950329769e+00	 9.515470526533275e-02	 1.665637873545233e+01
 1.407685206475169e+00	 1.072031356714569e-01	 1.664993654418344e+01
 1.406713158467971e+00	 1.192819902828200e-01	 1.664208004185970e+01
 1.423525411765601e+00	 0.000000000000000e+00	 1.651404640482300e+01
 1.423475989791714e+00	 1.186230679299952e-02	 1.651162108732477e+01
 1.423327050405022e+00	 2.376420920021671e-02	 1.650951898147505e+01
 1.423077591403723e+00	 3.570467353097117e-02	 1.650754311043977e+01
 1.422726621716568e+00	 4.768264281435373e-02	 1.650549221813300e+01
 1.422273161993929e+00	 5.969703684220569e-02	 1.650316069548561e+01
 1.421716245203481e+00	 7.174675222724970e-02	 1.650033843589955e+01
 1.421054917230077e+00	 8.383066247667455e-02	 1.649681061723450e+01
 1.420288237479414e+00	 9.594761808146608e-02	 1.649235740830898e+01
 1.419415279485022e+00	 1.080964466217662e-01	 1.648675359854926e+01
 1.418435131518156e+00	 1.202759528885304e-01	 1.647976815012656e+01
 1.435289450977329e+00	 0.000000000000000e+00	 1.635354366212793e+01
 1.435239620579460e+00	 1.196033710664612e-02	 1.635092773028446e+01
 1.435089450355279e+00	 2.396059704633054e-02	 1.634885007224456e+01
 1.434837929820744e+00	 3.599973758593476e-02	 1.634708507696988e+01
 1.434484059714351e+00	 4.807669301972327e-02	 1.634540439861768e+01
 1.434026852593082e+00	 6.019037421267805e-02	 1.634357694374516e+01
 1.433465333433012e+00	 7.233966865910972e-02	 1.634136877990025e+01
 1.432798540234147e+00	 8.452344055685057e-02	 1.633854296249130e+01
 1.432025524629065e+00	 9.674053089732358e-02	 1.633485927748654e+01
 1.431145352494936e+00	 1.089897575717724e-01	 1.633007389817858e+01
 1.430157104568439e+00	 1.212699154939235e-01	 1.632393895499451e+01
 1.447053490188757e+00	 0.000000000000000e+00	 1.619935909147842e+01
 1.447003251366914e+00	 1.205836742028321e-02	 1.619649609114437e+01
 1.446851850305266e+00	 2.415698489240899e-02	 1.619439614227550e+01
 1.446598268237529e+00	 3.629480164082467e-02	 1.619280305127073e+01
 1.446241497711938e+00	 4.847074322497250e-02	 1.619145964351312e+01
 1.445780543192086e+00	 6.068371158297913e-02	 1.619010781826405e+01
 1.445214421662443e+00	 7.293258509074739e-02	 1.618848851663339e+01
 1.444542163238162e+00	 8.521621863675721e-02	 1.618634159903220e+01
 1.443762811778701e+00	 9.753344371287301e-02	 1.618340562919347e+01
 1.442875425504863e+00	 1.098830685214442e-01	 1.617941756256687e+01
 1.441879077618756e+00	 1.222638780989732e-01	 1.617411233767837e+01
 1.458817529399985e+00	 0.000000000000000e+00	 1.605106701748649e+01
 1.458766882154173e+00	 1.215639773390948e-02	 1.604789498763582e+01
 1.458614250255073e+00	 2.435337273844718e-02	 1.604572106522388e+01
 1.458358606654155e+00	 3.658986569563102e-02	 1.604425652680253e+01
 1.457998935709393e+00	 4.886479343008567e-02	 1.604321363653554e+01
 1.457534233790984e+00	 6.117704895308734e-02	 1.604230577565733e+01
 1.456963509891796e+00	 7.352550152213586e-02	 1.604124747616881e+01
 1.456285786242121e+00	 8.590899671636383e-02	 1.603975435465446e+01
 1.455500098928298e+00	 9.832635652808205e-02	 1.603754294280894e+01
 1.454605498514761e+00	 1.107763794707509e-01	 1.603433041201597e+01
 1.453601050669042e+00	 1.232578407036537e-01	 1.602983419015050e+01
 1.470581568611112e+00	 0.000000000000000e+00	 1.590825524050037e+01
 1.470530512941336e+00	 1.225442804752357e-02	 1.590470873533882e+01
 1.470376650204790e+00	 2.454976058444025e-02	 1.590240604440946e+01
 1.470118945070700e+00	 3.688492975034387e-02	 1.590102396667213e+01
 1.469756373706776e+00	 4.925884363504703e-02	 1.590024247791536e+01
 1.469287924389820e+00	 6.167038632298101e-02	 1.589974494178349e+01
 1.468712598121091e+00	 7.411841795324829e-02	 1.589921821565095e+01
 1.468029409246025e+00	 8.660177479563978e-02	 1.589835264667398e+01
 1.467237386077836e+00	 9.911926934291847e-02	 1.589684195407310e+01
 1.466335571524586e+00	 1.116696904196615e-01	 1.589438299449425e+01
 1.465323023719231e+00	 1.242518033079388e-01	 1.589067540816623e+01
 1.348103293220804e+00	 1.143121772504156e-01	 1.756964186343632e+01
 1.347068833370628e+00	 1.259177431521386e-01	 1.755582975337515e+01
 1.345930774201676e+00	 1.375501103919023e-01	 1.754102131928868e+01
 1.344688294117620e+00	 1.492080497640176e-01	 1.752508824149748e+01
 1.343340587925133e+00	 1.608903102836810e-01	 1.750789129536712e+01
 1.341886867430475e+00	 1.725956193830505e-01	 1.748927976814722e+01
 1.340326362036193e+00	 1.843226831247728e-01	 1.746909085761961e+01
 1.338658319337436e+00	 1.960701864331496e-01	 1.744714905784432e+01
 1.336882005717310e+00	 2.078367933431044e-01	 1.742326553802867e+01
 1.334996706940735e+00	 2.196211472671013e-01	 1.739723752129024e+01
 1.333001728746217e+00	 2.314218712801452e-01	 1.736884767084024e+01
 1.359825266269520e+00	 1.153061398573236e-01	 1.736672773251803e+01
 1.358781811626070e+00	 1.270126180046922e-01	 1.735396109106946e+01
 1.357633856851290e+00	 1.387461305319459e-01	 1.734032615976367e+01
 1.356380573204929e+00	 1.505054375452673e-01	 1.732569348833811e+01
 1.355021148492367e+00	 1.622892771823526e-01	 1.730992334898054e+01
 1.353554787666380e+00	 1.740963658101910e-01	 1.729286510681838e+01
 1.351980713429040e+00	 1.859253982404502e-01	 1.727435656518500e+01
 1.350298166833201e+00	 1.977750479626508e-01	 1.725422329104284e+01
 1.348506407883044e+00	 2.096439673952991e-01	 1.723227792672990e+01
 1.346604716133090e+00	 2.215307881551273e-01	 1.720831949499558e+01
 1.344592391285120e+00	 2.334341213445703e-01	 1.718213270510374e+01
 1.371547239318660e+00	 1.163001024640440e-01	 1.717312571921417e+01
 1.370494789882054e+00	 1.281074928570142e-01	 1.716138415730380e+01
 1.369336939501538e+00	 1.399421506717107e-01	 1.714889578371201e+01
 1.368072852292941e+00	 1.518028253261911e-01	 1.713552820927495e+01
 1.366701709060350e+00	 1.636882440806539e-01	 1.712113958363604e+01
 1.365222707903061e+00	 1.755971122369226e-01	 1.710557792185782e+01
 1.363635064822670e+00	 1.875281133556879e-01	 1.708868039823174e+01
 1.361938014329745e+00	 1.994799094916930e-01	 1.707027261274343e+01
 1.360130810049538e+00	 2.114511414470299e-01	 1.705016783649256e+01
 1.358212725326173e+00	 2.234404290427010e-01	 1.702816624322272e+01
 1.356183053824709e+00	 2.354463714085747e-01	 1.700405413498517e+01
 1.383269212368158e+00	 1.172940650705508e-01	 1.698820881481044e+01
 1.382207768138496e+00	 1.292023677090875e-01	 1.697747141512129e+01
 1.381040022152319e+00	 1.411381708111925e-01	 1.696610380185054e+01
 1.379765131381540e+00	 1.531002131067998e-01	 1.695396893718570e+01
 1.378382269628953e+00	 1.650872109786117e-01	 1.694092133219152e+01
 1.376890628140381e+00	 1.770978586632878e-01	 1.692680633188351e+01
 1.375289416216942e+00	 1.891308284705439e-01	 1.691145935934701e+01
 1.373577861826916e+00	 2.011847710203468e-01	 1.689470512442634e+01
 1.371755212216636e+00	 2.132583154983765e-01	 1.687635680340622e+01
 1.369820734519831e+00	 2.253500699299074e-01	 1.685621519702303e+01
 1.367773716364836e+00	 2.374586214722428e-01	 1.683406787507246e+01
 1.394991185417950e+00	 1.182880276768181e-01	 1.681138181330276e+01
 1.393920746395312e+00	 1.302972425608955e-01	 1.680162741813227e+01
 1.392743104803533e+00	 1.423341909503871e-01	 1.679135600352701e+01
 1.391457410470609e+00	 1.543976008871039e-01	 1.678042427125186e+01
 1.390062830198049e+00	 1.664861778762527e-01	 1.676868168075927e+01
 1.388558548378199e+00	 1.785986050893295e-01	 1.675596969493017e+01
 1.386943767611705e+00	 1.907335435850759e-01	 1.674212097611066e+01
 1.385217709324564e+00	 2.028896325486830e-01	 1.672695853802347e+01
 1.383379614384186e+00	 2.150654895494188e-01	 1.671029486009008e+01
 1.381428743713909e+00	 2.272597108168308e-01	 1.669193097167644e+01
 1.379364378905350e+00	 2.394708715356577e-01	 1.667165551476763e+01
 1.406713158467971e+00	 1.192819902828200e-01	 1.664208004185970e+01
 1.405633724652417e+00	 1.313921174124214e-01	 1.663328750536796e+01
 1.404446187455077e+00	 1.435302110892904e-01	 1.662408901918598e+01
 1.403149689560034e+00	 1.556949886671143e-01	 1.661433351037016e+01
 1.401743390767510e+00	 1.678851447736035e-01	 1.660386407650844e+01
 1.400226468616377e+00	 1.800993515150907e-01	 1.659251719420275e+01
 1.398598119006815e+00	 1.923362586993418e-01	 1.658012186847450e+01
 1.396857556822536e+00	 2.045944940767720e-01	 1.656649872871352e+01
 1.395004016552034e+00	 2.168726636002369e-01	 1.655145907781061e+01
 1.393036752908255e+00	 2.291693517035561e-01	 1.653480390215475e+01
 1.390955041446099e+00	 2.414831215989033e-01	 1.651632285123572e+01
 1.418435131518156e+00	 1.202759528885304e-01	 1.647976815012656e+01
 1.417346702909728e+00	 1.324869922636484e-01	 1.647191655589004e+01
 1.416149270106851e+00	 1.447262312278979e-01	 1.646376904326834e+01
 1.414841968649697e+00	 1.569923764468413e-01	 1.645516534743383e+01
 1.413423951337205e+00	 1.692841116706911e-01	 1.644594099652867e+01
 1.411894388854778e+00	 1.816000979406140e-01	 1.643592648483286e+01
 1.410252470402125e+00	 1.939389738133994e-01	 1.642494637683267e+01
 1.408497404320681e+00	 2.062993556046845e-01	 1.641281834783928e+01
 1.406628418720024e+00	 2.186798376509107e-01	 1.639935216789102e+01
 1.404644762102713e+00	 2.310789925901679e-01	 1.638434863678203e+01
 1.402545703986934e+00	 2.434953716620630e-01	 1.636759847918866e+01
 1.430157104568439e+00	 1.212699154939235e-01	 1.632393895499451e+01
 1.429059681167160e+00	 1.335818671145597e-01	 1.631700779972753e+01
 1.427852352758753e+00	 1.459222513662057e-01	 1.630989061407691e+01
 1.426534247739484e+00	 1.582897642262958e-01	 1.630241662099148e+01
 1.425104511907008e+00	 1.706830785675420e-01	 1.629441267425173e+01
 1.423562309093261e+00	 1.831008443659423e-01	 1.628570239813819e+01
 1.421906821797488e+00	 1.955416889273067e-01	 1.627610524730132e+01
 1.420137251818847e+00	 2.080042171324911e-01	 1.626543549249800e+01
 1.418252820888004e+00	 2.204870117015202e-01	 1.625350113901188e+01
 1.416252771297131e+00	 2.329886334767510e-01	 1.624010278575417e+01
 1.414136366527705e+00	 2.455076217252206e-01	 1.622503243424318e+01
 1.441879077618756e+00	 1.222638780989732e-01	 1.617411233767837e+01
 1.440772659424629e+00	 1.346767419651385e-01	 1.616808168193535e+01
 1.439555435410683e+00	 1.471182715042095e-01	 1.616197544736647e+01
 1.438226526829278e+00	 1.595871520054886e-01	 1.615561112101881e+01
 1.436785072476788e+00	 1.720820454641830e-01	 1.614880588015594e+01
 1.435230229331687e+00	 1.846015907911185e-01	 1.614137570011358e+01
 1.433561173192759e+00	 1.971444040411212e-01	 1.613313437095317e+01
 1.431777099316884e+00	 2.097090786602623e-01	 1.612389242858113e+01
 1.429877223055819e+00	 2.222941857521451e-01	 1.611345600722320e+01
 1.427860780491356e+00	 2.348982743633899e-01	 1.610162562139731e+01
 1.425727029068261e+00	 2.475198717884596e-01	 1.608819488680636e+01
 1.453601050669042e+00	 1.232578407036537e-01	 1.602983419015050e+01
 1.452485637682052e+00	 1.357716168153682e-01	 1.602468477677615e+01
 1.451258518062540e+00	 1.483142916419052e-01	 1.601957132062556e+01
 1.449918805918962e+00	 1.608845397844302e-01	 1.601429844574851e+01
 1.448465633046419e+00	 1.734810123606409e-01	 1.600867275368989e+01
 1.446898149569920e+00	 1.861023372161854e-01	 1.600250190109255e+01
 1.445215524587790e+00	 1.987471191549009e-01	 1.599559357396163e+01
 1.443416946814639e+00	 2.114139401880688e-01	 1.598775436424685e+01
 1.441501625223316e+00	 2.241013598028654e-01	 1.597878855569366e+01
 1.439468789685232e+00	 2.368079152501693e-01	 1.596849682724560e+01
 1.437317691608452e+00	 2.495321218518637e-01	 1.595667488363795e+01
 1.465323023719231e+00	 1.242518033079388e-01	 1.589067540816623e+01
 1.464198615939344e+00	 1.368664916652319e-01	 1.588638874921847e+01
 1.462961600714222e+00	 1.495103117792884e-01	 1.588225100521181e+01
 1.461611085008422e+00	 1.621819275631313e-01	 1.587805290669972e+01
 1.460146193615772e+00	 1.748799792569423e-01	 1.587358968354736e+01
 1.458566069807820e+00	 1.876030836411857e-01	 1.586866011371485e+01
 1.456869875982435e+00	 2.003498342687038e-01	 1.586306545580467e+01
 1.455056794311961e+00	 2.131188017159812e-01	 1.585660827100248e+01
 1.453126027390339e+00	 2.259085338537612e-01	 1.584909114141322e+01
 1.451076798878608e+00	 2.387175561371740e-01	 1.584031529320583e+01
 1.448908354148126e+00	 2.515443719155165e-01	 1.583007913442106e+01
 1.333001728746217e+00	 2.314218712801452e-01	 1.736884767084024e+01
 1.330896764549116e+00	 2.432355593067127e-01	 1.733912320970778e+01
 1.328680831517753e+00	 2.550628025891495e-01	 1.730907020846124e+01
 1.326353298122809e+00	 2.669021690412245e-01	 1.727842996847193e+01
 1.323913555110562e+00	 2.787522076378796e-01	 1.724692542288665e+01
 1.321361016074400e+00	 2.906114487910534e-01	 1.721426067623126e+01
 1.318695118020632e+00	 3.024784047438621e-01	 1.718012061330122e+01
 1.315915321927963e+00	 3.143515699831197e-01	 1.714417058992811e+01
 1.313021113300007e+00	 3.262294216701611e-01	 1.710605621881642e+01
 1.310012002710184e+00	 3.381104200899029e-01	 1.706540326420263e+01
 1.306887526338360e+00	 3.499930091180571e-01	 1.702181765958806e+01
 1.344592391285120e+00	 2.334341213445703e-01	 1.718213270510374e+01
 1.342469124088681e+00	 2.453505312717445e-01	 1.715473097275438e+01
 1.340233923166222e+00	 2.572806143199417e-01	 1.712710322212990e+01
 1.337886151497184e+00	 2.692229259507085e-01	 1.709898632887181e+01
 1.335425194530294e+00	 2.811760025220889e-01	 1.707009813090739e+01
 1.332850460760052e+00	 2.931383616677153e-01	 1.704013686007066e+01
 1.330161382297453e+00	 3.051085026944163e-01	 1.700878064004939e+01
 1.327357415434335e+00	 3.170849069983250e-01	 1.697568706392318e+01
 1.324438041200693e+00	 3.290660384994468e-01	 1.694049286521846e+01
 1.321402765914311e+00	 3.410503440946266e-01	 1.690281369701862e+01
 1.318251121722079e+00	 3.530362541288234e-01	 1.686224403421997e+01
 1.356183053824709e+00	 2.354463714085747e-01	 1.700405413498516e+01
 1.354041483628886e+00	 2.474655032364099e-01	 1.697882494772924e+01
 1.351787014815277e+00	 2.594984260504405e-01	 1.695344554087472e+01
 1.349419004872088e+00	 2.715436828599878e-01	 1.692765018609646e+01
 1.346936833950496e+00	 2.835997974061940e-01	 1.690115368262047e+01
 1.344339905446112e+00	 2.956652745443811e-01	 1.687365067638472e+01
 1.341627646574621e+00	 3.077386006450866e-01	 1.684481504193973e+01
 1.338799508940995e+00	 3.198182440137586e-01	 1.681429934104576e+01
 1.335854969101610e+00	 3.319026553290695e-01	 1.678173437264621e+01
 1.332793529118621e+00	 3.439902680997881e-01	 1.674672882956490e+01
 1.329614717105935e+00	 3.560794991401162e-01	 1.670886907788477e+01
 1.367773716364836e+00	 2.374586214722428e-01	 1.683406787507246e+01
 1.365613843169585e+00	 2.495804752007847e-01	 1.681088271132248e+01
 1.363340106464783e+00	 2.617162377807082e-01	 1.678760015486263e+01
 1.360951858247396e+00	 2.738644397691062e-01	 1.676395379125395e+01
 1.358448473371055e+00	 2.860235922902160e-01	 1.673965753498540e+01
 1.355829350132481e+00	 2.981921874210470e-01	 1.671440483133423e+01
 1.353093910852050e+00	 3.103686985958426e-01	 1.668786791673107e+01
 1.350241602447871e+00	 3.225515810293630e-01	 1.665969715229894e+01
 1.347271897002702e+00	 3.347392721589449e-01	 1.662952044601910e+01
 1.344184292323067e+00	 3.469301921052779e-01	 1.659694277970756e+01
 1.340978312489893e+00	 3.591227441518039e-01	 1.656154585765488e+01
 1.379364378905350e+00	 2.394708715356577e-01	 1.667165551476762e+01
 1.377186202710636e+00	 2.516954471649449e-01	 1.665040579480369e+01
 1.374893198114605e+00	 2.639340495108071e-01	 1.662909206469343e+01
 1.372484711622983e+00	 2.761851966781072e-01	 1.660744924124100e+01
 1.369960112791857e+00	 2.884473871741763e-01	 1.658519260930425e+01
 1.367318794819058e+00	 3.007191002977093e-01	 1.656201690114355e+01
 1.364560175129656e+00	 3.129987965466541e-01	 1.653759542937128e+01
 1.361683695954892e+00	 3.252849180450806e-01	 1.651157928890109e+01
 1.358688824903910e+00	 3.375758889889885e-01	 1.648359664414707e+01
 1.355575055527603e+00	 3.498701161109865e-01	 1.645325211851826e+01
 1.352341907873920e+00	 3.621659891637546e-01	 1.642012630398658e+01
 1.390955041446099e+00	 2.414831215989033e-01	 1.651632285123572e+01
 1.388758562251894e+00	 2.538104191289665e-01	 1.649691821936204e+01
 1.386446289764606e+00	 2.661518612407996e-01	 1.647746682476139e+01
 1.384017564998725e+00	 2.785059535870349e-01	 1.645770703581737e+01
 1.381471752212791e+00	 2.908711820580968e-01	 1.643735786775760e+01
 1.378808239505747e+00	 3.032460131743647e-01	 1.641611793390440e+01
 1.376026439407352e+00	 3.156288944974902e-01	 1.639366444492897e+01
 1.373125789461987e+00	 3.280182550608537e-01	 1.636965227225893e+01
 1.370105752805177e+00	 3.404125058191161e-01	 1.634371309270878e+01
 1.366965818732184e+00	 3.528100401168044e-01	 1.631545463226922e+01
 1.363705503257981e+00	 3.652092341758369e-01	 1.628446002778889e+01
 1.402545703986934e+00	 2.434953716620630e-01	 1.636759847918866e+01
 1.400330921793216e+00	 2.559253910929253e-01	 1.634996508661398e+01
 1.397999381414652e+00	 2.683696729707478e-01	 1.633228913978127e+01
 1.395550418374497e+00	 2.808267104959328e-01	 1.631431468550359e+01
 1.392983391633744e+00	 2.932949769419985e-01	 1.629576693808621e+01
 1.390297684192445e+00	 3.057729260510091e-01	 1.627635109650977e+01
 1.387492703685054e+00	 3.182589924483209e-01	 1.625575120330397e+01
 1.384567882969085e+00	 3.307515920766243e-01	 1.623362906203138e+01
 1.381522680706444e+00	 3.432491226492427e-01	 1.620962323129735e+01
 1.378356581936765e+00	 3.557499641226221e-01	 1.618334811413854e+01
 1.375069098642042e+00	 3.682524791879195e-01	 1.615439316251308e+01
 1.414136366527705e+00	 2.455076217252206e-01	 1.622503243424318e+01
 1.411903281334454e+00	 2.580403630568973e-01	 1.620911122111517e+01
 1.409552473064606e+00	 2.705874847007143e-01	 1.619314151143009e+01
 1.407083271750174e+00	 2.831474674048448e-01	 1.617687536738841e+01
 1.404495031054602e+00	 2.957187718259027e-01	 1.616004678365790e+01
 1.401787128879056e+00	 3.082998389276391e-01	 1.614237036413157e+01
 1.398958967962677e+00	 3.208890903991156e-01	 1.612354003332151e+01
 1.396009976476112e+00	 3.334849290923348e-01	 1.610322780010122e+01
 1.392939608607655e+00	 3.460857394792844e-01	 1.608108259258193e+01
 1.389747345141302e+00	 3.586898881283306e-01	 1.605672918392428e+01
 1.386432694026069e+00	 3.712957241998703e-01	 1.602976772559667e+01
 1.425727029068261e+00	 2.475198717884596e-01	 1.608819488680637e+01
 1.423475640875468e+00	 2.601553350209586e-01	 1.607393986191864e+01
 1.421105564714333e+00	 2.728052964307610e-01	 1.605962293225484e+01
 1.418616125125631e+00	 2.854682243138149e-01	 1.604500662612161e+01
 1.416006670475254e+00	 2.981425667098311e-01	 1.602983641633964e+01
 1.413276573565478e+00	 3.108267518042505e-01	 1.601383924982285e+01
 1.410425232240134e+00	 3.235191883498438e-01	 1.599672210397253e+01
 1.407452069983000e+00	 3.362182661079277e-01	 1.597817058841438e+01
 1.404356536508750e+00	 3.489223563091565e-01	 1.595784761176041e+01
 1.401138108345747e+00	 3.616298121338200e-01	 1.593539213417629e+01
 1.397796289410027e+00	 3.743389692115581e-01	 1.591041877617656e+01
 1.437317691608452e+00	 2.495321218518637e-01	 1.595667488363795e+01
 1.435048000416112e+00	 2.622703069851849e-01	 1.594405140041258e+01
 1.432658656363698e+00	 2.750231081609506e-01	 1.593134762417953e+01
 1.430148978500743e+00	 2.877889812228864e-01	 1.591833911754337e+01
 1.427518309895587e+00	 3.005663615938050e-01	 1.590478564976041e+01
 1.424766018251614e+00	 3.133536646808402e-01	 1.589042957198270e+01
 1.421891496517341e+00	 3.261492863004750e-01	 1.587499421070477e+01
 1.418894163489676e+00	 3.389516031233448e-01	 1.585818229877724e+01
 1.415773464409672e+00	 3.517589731387742e-01	 1.583967446459640e+01
 1.412528871550057e+00	 3.645697361389810e-01	 1.581912780125806e+01
 1.409159884793883e+00	 3.773822142228510e-01	 1.579615004255810e+01
 1.448908354148126e+00	 2.515443719155165e-01	 1.583007913442106e+01
 1.446620359956241e+00	 2.643852789496522e-01	 1.581906216184802e+01
 1.444211748012564e+00	 2.772409198913453e-01	 1.580794381911660e+01
 1.441681831875386e+00	 2.901097381321035e-01	 1.579651539256540e+01
 1.439029949315489e+00	 3.029901564778457e-01	 1.578455389070583e+01
 1.436255462937364e+00	 3.158805775574043e-01	 1.577182025756610e+01
 1.433357760794212e+00	 3.287793842509791e-01	 1.575805759480559e+01
 1.430336256996070e+00	 3.416849401385289e-01	 1.574298941282625e+01
 1.427190392310364e+00	 3.545955899680540e-01	 1.572631793244303e+01
 1.423919634754187e+00	 3.675096601437043e-01	 1.570772245994557e+01
 1.420523480177602e+00	 3.804254592336176e-01	 1.568675428984761e+01
 1.306887526338360e+00	 3.499930091180571e-01	 1.702181765958806e+01
 1.303647246783067e+00	 3.618756168723069e-01	 1.697567149393617e+01
 1.300290754435142e+00	 3.737566567283810e-01	 1.692737573428978e+01
 1.296817667135131e+00	 3.856345273697371e-01	 1.687763662071357e+01
 1.293227630384924e+00	 3.975076131639229e-01	 1.682662008700646e+01
 1.289520317831744e+00	 4.093742847183652e-01	 1.677411389263266e+01
 1.285695431739954e+00	 4.212328994532120e-01	 1.671990722310977e+01
 1.281752703450023e+00	 4.330818021909628e-01	 1.666379100675365e+01
 1.277691893824042e+00	 4.449193257625922e-01	 1.660555825385940e+01
 1.273512793677115e+00	 4.567437916298545e-01	 1.654500442074999e+01
 1.269215224194041e+00	 4.685535105234227e-01	 1.648192780122878e+01
 1.318251121722079e+00	 3.530362541288234e-01	 1.686224403421997e+01
 1.314982667419256e+00	 3.650221830519486e-01	 1.681923474911505e+01
 1.311596989835064e+00	 3.770065304437742e-01	 1.677442569012685e+01
 1.308093703487108e+00	 3.889876810640503e-01	 1.672849613360177e+01
 1.304472450794858e+00	 4.009640052321364e-01	 1.668135782713347e+01
 1.300732902567846e+00	 4.129338593876255e-01	 1.663279143884550e+01
 1.296874758481573e+00	 4.248955866681666e-01	 1.658257948385559e+01
 1.292897747540470e+00	 4.368475175042202e-01	 1.653050662992757e+01
 1.288801628527281e+00	 4.487879702304550e-01	 1.647636002447407e+01
 1.284586190438213e+00	 4.607152517134621e-01	 1.641992964548798e+01
 1.280251252903235e+00	 4.726276579954414e-01	 1.636100867909848e+01
 1.329614717105935e+00	 3.560794991401162e-01	 1.670886907788477e+01
 1.326318088055545e+00	 3.681687492321902e-01	 1.666869525535144e+01
 1.322903225235055e+00	 3.802564041598270e-01	 1.662713585872780e+01
 1.319369739839128e+00	 3.923408347590692e-01	 1.658465992811603e+01
 1.315717271204813e+00	 4.044203973010911e-01	 1.654106256227563e+01
 1.311945487303949e+00	 4.164934340576533e-01	 1.649612087622128e+01
 1.308054085223173e+00	 4.285582738839065e-01	 1.644961394741473e+01
 1.304042791630876e+00	 4.406132328182756e-01	 1.640132309944753e+01
 1.299911363230454e+00	 4.526566146991240e-01	 1.635103220615649e+01
 1.295659587199216e+00	 4.646867117978811e-01	 1.629852801892152e+01
 1.291287281612299e+00	 4.767018054682765e-01	 1.624360052002904e+01
 1.340978312489893e+00	 3.591227441518039e-01	 1.656154585765488e+01
 1.337653508691909e+00	 3.713153154128821e-01	 1.652396599728700e+01
 1.334209460635097e+00	 3.835062778763743e-01	 1.648542516521419e+01
 1.330645776191181e+00	 3.956939884546183e-01	 1.644608517379708e+01
 1.326962091614785e+00	 4.078767893706033e-01	 1.640572152836708e+01
 1.323158072040053e+00	 4.200530087282590e-01	 1.636411127851280e+01
 1.319233411964759e+00	 4.322209611002403e-01	 1.632103325206180e+01
 1.315187835721251e+00	 4.443789481329366e-01	 1.627626830594735e+01
 1.311021097933578e+00	 4.565252591684081e-01	 1.622959959674657e+01
 1.306732983960147e+00	 4.686581718829235e-01	 1.618081287383876e+01
 1.302323310321264e+00	 4.807759529417442e-01	 1.612969679828082e+01
 1.352341907873920e+00	 3.621659891637546e-01	 1.642012630398658e+01
 1.348988929328323e+00	 3.744618815938739e-01	 1.638498850876880e+01
 1.345515696035176e+00	 3.867561515932518e-01	 1.634920530165524e+01
 1.341921812543256e+00	 3.990471421505213e-01	 1.631271947055155e+01
 1.338206912024767e+00	 4.113331814404887e-01	 1.627531033177896e+01
 1.334370656776157e+00	 4.236125833992538e-01	 1.623675831056448e+01
 1.330412738706335e+00	 4.358836483169759e-01	 1.619684513220337e+01
 1.326332879811606e+00	 4.481446634480104e-01	 1.615535402928480e+01
 1.322130832636670e+00	 4.603939036381161e-01	 1.611206996797635e+01
 1.317806380721032e+00	 4.726296319684017e-01	 1.606677989654018e+01
 1.313359339030164e+00	 4.848501004156610e-01	 1.601927301941899e+01
 1.363705503257981e+00	 3.652092341758369e-01	 1.628446002778889e+01
 1.360324349964761e+00	 3.776084477750161e-01	 1.625164519741633e+01
 1.356821931435270e+00	 3.900060253102945e-01	 1.621838021267497e+01
 1.353197848895342e+00	 4.024002958466024e-01	 1.618450039198752e+01
 1.349451732434755e+00	 4.147895735105633e-01	 1.614979253840450e+01
 1.345583241512263e+00	 4.271721580704479e-01	 1.611404385106622e+01
 1.341592065447907e+00	 4.395463355339208e-01	 1.607704206262432e+01
 1.337477923901950e+00	 4.519103787633047e-01	 1.603857559201854e+01
 1.333240567339745e+00	 4.642625481080568e-01	 1.599843371583714e+01
 1.328879777481892e+00	 4.766010920541273e-01	 1.595640676168535e+01
 1.324395367739031e+00	 4.889242478898433e-01	 1.591228632716838e+01
 1.375069098642042e+00	 3.682524791879195e-01	 1.615439316251308e+01
 1.371659770601201e+00	 3.807550139561582e-01	 1.612379301911547e+01
 1.368128166835366e+00	 3.932558990273380e-01	 1.609284559750815e+01
 1.364473885247428e+00	 4.057534495426858e-01	 1.606135504176794e+01
 1.360696552844742e+00	 4.182459655806431e-01	 1.602911927291209e+01
 1.356795826248367e+00	 4.307317327416523e-01	 1.599593562321080e+01
 1.352771392189478e+00	 4.432090227508833e-01	 1.596160090896640e+01
 1.348622967992295e+00	 4.556760940786270e-01	 1.592591151804252e+01
 1.344350302042820e+00	 4.681311925780391e-01	 1.588866351563083e+01
 1.339953174242752e+00	 4.805725521399125e-01	 1.584965277195721e+01
 1.335431396447899e+00	 4.929983953641072e-01	 1.580867511582897e+01
 1.386432694026069e+00	 3.712957241998703e-01	 1.602976772559667e+01
 1.382995191237615e+00	 3.839015801371502e-01	 1.600128261410390e+01
 1.379434402235443e+00	 3.965057727442173e-01	 1.597248842756455e+01
 1.375749921599503e+00	 4.091066032385954e-01	 1.594319962223815e+01
 1.371941373254725e+00	 4.217023576505441e-01	 1.591322882758538e+01
 1.368008410984471e+00	 4.342913074126772e-01	 1.588238683280534e+01
 1.363950718931055e+00	 4.468717099676716e-01	 1.585048258408468e+01
 1.359768012082650e+00	 4.594418093937846e-01	 1.581732319608495e+01
 1.355460036745912e+00	 4.719998370478722e-01	 1.578271398144017e+01
 1.351026571003636e+00	 4.845440122255690e-01	 1.574645850227044e+01
 1.346467425156799e+00	 4.970725428382693e-01	 1.570835864793581e+01
 1.397796289410027e+00	 3.743389692115581e-01	 1.591041877617656e+01
 1.394330611873979e+00	 3.870481463178429e-01	 1.588395778090780e+01
 1.390740637635486e+00	 3.997556464607683e-01	 1.585718647862062e+01
 1.387025957951556e+00	 4.124597569341557e-01	 1.582993901463152e+01
 1.383186193664696e+00	 4.251587497200823e-01	 1.580204628020828e+01
 1.379220995720575e+00	 4.378508820833338e-01	 1.577333581341471e+01
 1.375130045672641e+00	 4.505343971840930e-01	 1.574363170995009e+01
 1.370913056173025e+00	 4.632075247085850e-01	 1.571275454779846e+01
 1.366569771449036e+00	 4.758684815173647e-01	 1.568052132976978e+01
 1.362099967764568e+00	 4.885154723109091e-01	 1.564674544826924e+01
 1.357503453865764e+00	 5.011466903121459e-01	 1.561123667686900e+01
 1.409159884793883e+00	 3.773822142228510e-01	 1.579615004255810e+01
 1.405666032510268e+00	 3.901947124980853e-01	 1.577165496744272e+01
 1.402046873035478e+00	 4.030055201768257e-01	 1.574680787681645e+01
 1.398301994303576e+00	 4.158129106291901e-01	 1.572146637020249e+01
 1.394431014074651e+00	 4.286151417890733e-01	 1.569548312048677e+01
 1.390433580456677e+00	 4.414104567534325e-01	 1.566870567814374e+01
 1.386309372414241e+00	 4.541970843999560e-01	 1.564097628478882e+01
 1.382058100263431e+00	 4.669732400228358e-01	 1.561213170018563e+01
 1.377679506152209e+00	 4.797371259863258e-01	 1.558200304712596e+01
 1.373173364525571e+00	 4.924869323957447e-01	 1.555041567887569e+01
 1.368539482574827e+00	 5.052208377855534e-01	 1.551718907413795e+01
 1.420523480177602e+00	 3.804254592336176e-01	 1.568675428984761e+01
 1.417001453146457e+00	 3.933412786777279e-01	 1.566420277832048e+01
 1.413353108435399e+00	 4.062553938922251e-01	 1.564121065768726e+01
 1.409578030655553e+00	 4.191660643235230e-01	 1.561766271167794e+01
 1.405675834484585e+00	 4.320715338573337e-01	 1.559343688453261e+01
 1.401646165192779e+00	 4.449700314227842e-01	 1.556840397768915e+01
 1.397488699155860e+00	 4.578597716150684e-01	 1.554242735516798e+01
 1.393203144353878e+00	 4.707389553363442e-01	 1.551536266212022e+01
 1.388789240855448e+00	 4.836057704545642e-01	 1.548705756131826e+01
 1.384246761286669e+00	 4.964583924798877e-01	 1.545735149266554e+01
 1.379575511284022e+00	 5.092949852583083e-01	 1.542607546108177e+01
 1.269215224194041e+00	 4.685535105234227e-01	 1.648192780122878e+01
 1.264798276298976e+00	 4.803487864856605e-01	 1.641657989464690e+01
 1.260262552886163e+00	 4.921259003441599e-01	 1.634926910983037e+01
 1.255607967700346e+00	 5.038831331565332e-01	 1.627985274963491e+01
 1.250834466386342e+00	 5.156187579247794e-01	 1.620819399173648e+01
 1.245942026824119e+00	 5.273310403073044e-01	 1.613416240585429e+01
 1.240930659445581e+00	 5.390182393442214e-01	 1.605763451242426e+01
 1.235800407532495e+00	 5.506786081954013e-01	 1.597849438557171e+01
 1.230551347495057e+00	 5.623103948907321e-01	 1.589663430319009e+01
 1.225183589130537e+00	 5.739118430920145e-01	 1.581195544686658e+01
 1.219697275861545e+00	 5.854811928658986e-01	 1.572436865429876e+01
 1.280251252903235e+00	 4.726276579954414e-01	 1.636100867909848e+01
 1.275795898941942e+00	 4.845254957624506e-01	 1.629984967078670e+01
 1.271220736690840e+00	 4.964050135032899e-01	 1.623675806784608e+01
 1.266525679144670e+00	 5.082644773291027e-01	 1.617158162040656e+01
 1.261710671475624e+00	 5.201021452253733e-01	 1.610417282294461e+01
 1.256775691371333e+00	 5.319162677701390e-01	 1.603438940305558e+01
 1.251720749354409e+00	 5.437050888655987e-01	 1.596209485389816e+01
 1.246545889082964e+00	 5.554668464825779e-01	 1.588715901344762e+01
 1.241251187631592e+00	 5.671997734173145e-01	 1.580945869365769e+01
 1.235836755752269e+00	 5.789020980599768e-01	 1.572887836256538e+01
 1.230302738114691e+00	 5.905720451743234e-01	 1.564531088228152e+01
 1.291287281612299e+00	 4.767018054682765e-01	 1.624360052002904e+01
 1.286793521584735e+00	 4.887022050400621e-01	 1.618648958926113e+01
 1.282178920495295e+00	 5.006841266632480e-01	 1.612748336263205e+01
 1.277443390588720e+00	 5.126458215025068e-01	 1.606642061495485e+01
 1.272586876564578e+00	 5.245855325268081e-01	 1.600314369321541e+01
 1.267609355918168e+00	 5.365014952338213e-01	 1.593749897322291e+01
 1.262510839262813e+00	 5.483919383878294e-01	 1.586933736215385e+01
 1.257291370632969e+00	 5.602550847706134e-01	 1.579851485043005e+01
 1.251951027767632e+00	 5.720891519447595e-01	 1.572489311633817e+01
 1.246489922373489e+00	 5.838923530288047e-01	 1.564834018673832e+01
 1.240908200367320e+00	 5.956628974836143e-01	 1.556873115711690e+01
 1.302323310321264e+00	 4.807759529417442e-01	 1.612969679828083e+01
 1.297791144227397e+00	 4.928789143183174e-01	 1.607646914232189e+01
 1.293137104299583e+00	 5.049632398238615e-01	 1.602139068509652e+01
 1.288361102032565e+00	 5.170271656765795e-01	 1.596429182564137e+01
 1.283463081653290e+00	 5.290689198289247e-01	 1.590500532117178e+01
 1.278443020464724e+00	 5.410867226981985e-01	 1.584336670781348e+01
 1.273300929170903e+00	 5.530787879107669e-01	 1.577921476944490e+01
 1.268036852182632e+00	 5.650433230593659e-01	 1.571239205841079e+01
 1.262650867903312e+00	 5.769785304729302e-01	 1.564274547184064e+01
 1.257143088994339e+00	 5.888826079983637e-01	 1.557012688724729e+01
 1.251513662619583e+00	 6.007537497936388e-01	 1.549439386099402e+01
 1.313359339030164e+00	 4.848501004156610e-01	 1.601927301941899e+01
 1.308788766869973e+00	 4.970556235970378e-01	 1.596973968834840e+01
 1.304095288103760e+00	 5.092423529849588e-01	 1.591840744220226e+01
 1.299278813476273e+00	 5.214085098511551e-01	 1.586509892776203e+01
 1.294339286741840e+00	 5.335523071315645e-01	 1.580963789407043e+01
 1.289276685011096e+00	 5.456719501631180e-01	 1.575184957331641e+01
 1.284091019078790e+00	 5.577656374342650e-01	 1.569156111204096e+01
 1.278782333732078e+00	 5.698315613486946e-01	 1.562860205676117e+01
 1.273350708038766e+00	 5.818679090016892e-01	 1.556280489808807e+01
 1.267796255614964e+00	 5.938728629685193e-01	 1.549400567736190e+01
 1.262119124871628e+00	 6.058446021042628e-01	 1.542204465974208e+01
 1.324395367739031e+00	 4.889242478898433e-01	 1.591228632716838e+01
 1.319786389512505e+00	 5.012323328760452e-01	 1.586623402418760e+01
 1.315053471907882e+00	 5.135214661463674e-01	 1.581844229426434e+01
 1.310196524919915e+00	 5.257898540260685e-01	 1.576872668127733e+01
 1.305215491830312e+00	 5.380356944345682e-01	 1.571690253344011e+01
 1.300110349557380e+00	 5.502571776284274e-01	 1.566278534027697e+01
 1.294881108986584e+00	 5.624524869581768e-01	 1.560619112211963e+01
 1.289527815281429e+00	 5.746197996384578e-01	 1.554693687657487e+01
 1.284050548174128e+00	 5.867572875308997e-01	 1.548484108639980e+01
 1.278449422235504e+00	 5.988631179391370e-01	 1.541972429317409e+01
 1.272724587123605e+00	 6.109354544153536e-01	 1.535140974107498e+01
 1.335431396447899e+00	 4.929983953641072e-01	 1.580867511582897e+01
 1.330784012155036e+00	 5.054090421551610e-01	 1.576586596411283e+01
 1.326011655712004e+00	 5.178005793079152e-01	 1.572138469994540e+01
 1.321114236363558e+00	 5.301711982011533e-01	 1.567504044133888e+01
 1.316091696918789e+00	 5.425190817377771e-01	 1.562664077063688e+01
 1.310944014103675e+00	 5.548424050939741e-01	 1.557599202338123e+01
 1.305671198894395e+00	 5.671393364823557e-01	 1.552289963188410e+01
 1.300273296830808e+00	 5.794080379285145e-01	 1.546716852832769e+01
 1.294750388309532e+00	 5.916466660604238e-01	 1.540860361220674e+01
 1.289102588856105e+00	 6.038533729100825e-01	 1.534701028688779e+01
 1.283330049375665e+00	 6.160263067267771e-01	 1.528219506997984e+01
 1.346467425156799e+00	 4.970725428382693e-01	 1.570835864793581e+01
 1.341781634797613e+00	 5.095857514342077e-01	 1.566852992502560e+01
 1.336969839516183e+00	 5.220796924694301e-01	 1.562710446851081e+01
 1.332031947807274e+00	 5.345525423762446e-01	 1.558388567711194e+01
 1.326967902007355e+00	 5.470024690410320e-01	 1.553867403175182e+01
 1.321777678650077e+00	 5.594276325596057e-01	 1.549126733197020e+01
 1.316461288802336e+00	 5.718261860066556e-01	 1.544146098921041e+01
 1.311018778380338e+00	 5.841962762187232e-01	 1.538904838218952e+01
 1.305450228445113e+00	 5.965360445901251e-01	 1.533382127956508e+01
 1.299755755476908e+00	 6.088436278812215e-01	 1.527557033507769e+01
 1.293935511627957e+00	 6.211171590384006e-01	 1.521408566027125e+01
 1.357503453865764e+00	 5.011466903121459e-01	 1.561123667686900e+01
 1.352779257440275e+00	 5.137624607130066e-01	 1.557410051754887e+01
 1.347928023320474e+00	 5.263588056307398e-01	 1.553545131893417e+01
 1.342949659251129e+00	 5.389338865511762e-01	 1.549508749842572e+01
 1.337844107096091e+00	 5.514858563441739e-01	 1.545280313134248e+01
 1.332611343196683e+00	 5.640128600251695e-01	 1.540838813039458e+01
 1.327251378710514e+00	 5.765130355309299e-01	 1.536162848417258e+01
 1.321764259930142e+00	 5.889845145089430e-01	 1.531230656027234e+01
 1.316150068581002e+00	 6.014254231198661e-01	 1.526020147868734e+01
 1.310408922098057e+00	 6.138338828524195e-01	 1.520508956107001e+01
 1.304540973880630e+00	 6.262080113500902e-01	 1.514674486139580e+01
 1.368539482574827e+00	 5.052208377855534e-01	 1.551718907413795e+01
 1.363776880083069e+00	 5.179391699913793e-01	 1.548243214268321e+01
 1.358886207124933e+00	 5.306379187916724e-01	 1.544625444547043e+01
 1.353867370695194e+00	 5.433152307257829e-01	 1.540845018981333e+01
 1.348720312185082e+00	 5.559692436470439e-01	 1.536880777449493e+01
 1.343445007743590e+00	 5.685980874905133e-01	 1.532710990765906e+01
 1.338041468619041e+00	 5.811998850550318e-01	 1.528313378583531e+01
 1.332509741480342e+00	 5.937727527990317e-01	 1.523665134014578e+01
 1.326849908717336e+00	 6.063148016495093e-01	 1.518742955576075e+01
 1.321062088719695e+00	 6.188241378235417e-01	 1.513523087065255e+01
 1.315146436133834e+00	 6.312988636617130e-01	 1.507981365963065e+01
 1.379575511284022e+00	 5.092949852583083e-01	 1.542607546108177e+01
 1.374774502726036e+00	 5.221158792691480e-01	 1.539335859371782e+01
 1.369844390929617e+00	 5.349170319520559e-01	 1.535932208933873e+01
 1.364785082139539e+00	 5.476965748998992e-01	 1.532375675153232e+01
 1.359596517274411e+00	 5.604526309494831e-01	 1.528644606675351e+01
 1.354278672290895e+00	 5.731833149554840e-01	 1.524716625583935e+01
 1.348831558528028e+00	 5.858867345788147e-01	 1.520568638874459e+01
 1.343255223031063e+00	 5.985609910888490e-01	 1.516176856899285e+01
 1.337549748854247e+00	 6.112041801789182e-01	 1.511516819436973e+01
 1.331715255341965e+00	 6.238143927944543e-01	 1.506563430037291e+01
 1.325751898387718e+00	 6.363897159731350e-01	 1.501290999287539e+01
 1.219697275861545e+00	 5.854811928658986e-01	 1.572436865429876e+01
 1.214093547551742e+00	 5.970147235254660e-01	 1.563435615958396e+01
 1.208371692184315e+00	 6.085126400414316e-01	 1.554248101935638e+01
 1.202531954294778e+00	 6.199731766964938e-01	 1.544884598897397e+01
 1.196574612765376e+00	 6.313945673462095e-01	 1.535357792127065e+01
 1.190499980955395e+00	 6.427750462370833e-01	 1.525682868830914e+01
 1.184308406808569e+00	 6.541128488317098e-01	 1.515877615095149e+01
 1.178000272937226e+00	 6.654062126402392e-01	 1.505962517744936e+01
 1.171575996682858e+00	 6.766533780574059e-01	 1.495960871196262e+01
 1.165036030152839e+00	 6.878525892043580e-01	 1.485898889359667e+01
 1.158380860233024e+00	 6.990020947745036e-01	 1.475805822619954e+01
 1.230302738114691e+00	 5.905720451743234e-01	 1.564531088228152e+01
 1.224650284493815e+00	 6.022058617214757e-01	 1.555934128540019e+01
 1.218878676681729e+00	 6.138037544544003e-01	 1.547164048464880e+01
 1.212988161340228e+00	 6.253639423025968e-01	 1.538229622860429e+01
 1.206979019776484e+00	 6.368846437647101e-01	 1.529141816360398e+01
 1.200851568074494e+00	 6.483640777337315e-01	 1.519913874072161e+01
 1.194606157203422e+00	 6.598004643293176e-01	 1.510561417663215e+01
 1.188243173102471e+00	 6.711920257364827e-01	 1.501102546986602e+01
 1.181763036741989e+00	 6.825369870499084e-01	 1.491557947364760e+01
 1.175166204160498e+00	 6.938335771230912e-01	 1.481951002617445e+01
 1.168453166477405e+00	 7.050800294215442e-01	 1.472307913882725e+01
 1.240908200367320e+00	 5.956628974836143e-01	 1.556873115711689e+01
 1.235207021435382e+00	 6.073969999183515e-01	 1.548674286091012e+01
 1.229385661178664e+00	 6.190948688682310e-01	 1.540313950133507e+01
 1.223444368385236e+00	 6.307547079095560e-01	 1.531798869715985e+01
 1.217383426787192e+00	 6.423747201840578e-01	 1.523137782446705e+01
 1.211203155193239e+00	 6.539531092312139e-01	 1.514341491439913e+01
 1.204903907597965e+00	 6.654880798277424e-01	 1.505422961094465e+01
 1.198486073267449e+00	 6.769778388335217e-01	 1.496397419056926e+01
 1.191950076800888e+00	 6.884205960431806e-01	 1.487282464517477e+01
 1.185296378167948e+00	 6.998145650425625e-01	 1.478098182951217e+01
 1.178525472721587e+00	 7.111579640692867e-01	 1.468867267378910e+01
 1.251513662619583e+00	 6.007537497936388e-01	 1.549439386099402e+01
 1.245763758376599e+00	 6.125881381159584e-01	 1.541630596304746e+01
 1.239892645675277e+00	 6.243859832827884e-01	 1.533670813886727e+01
 1.233900575429955e+00	 6.361454735172319e-01	 1.525564290647901e+01
 1.227787833797651e+00	 6.478647966041091e-01	 1.517317045635951e+01
 1.221554742311777e+00	 6.595421407293844e-01	 1.508936954523835e+01
 1.215201657992343e+00	 6.711756953268365e-01	 1.500433845617735e+01
 1.208728973432300e+00	 6.827636519312088e-01	 1.491819602704041e+01
 1.202137116859690e+00	 6.943042050370760e-01	 1.483108274912843e+01
 1.195426552175323e+00	 7.057955529626306e-01	 1.474316193737843e+01
 1.188597778965700e+00	 7.172358987175963e-01	 1.465462097312114e+01
 1.262119124871628e+00	 6.058446021042628e-01	 1.542204465974208e+01
 1.256320495317619e+00	 6.177792763141626e-01	 1.534775695833326e+01
 1.250399630171719e+00	 6.296770976979343e-01	 1.527205766441345e+01
 1.244356782474538e+00	 6.415362391254849e-01	 1.519495937364085e+01
 1.238192240808012e+00	 6.533548730247218e-01	 1.511649032120378e+01
 1.231906329430256e+00	 6.651311722280979e-01	 1.503669527670520e+01
 1.225499408386701e+00	 6.768633108264527e-01	 1.495563651165220e+01
 1.218971873597164e+00	 6.885494650293954e-01	 1.487339484197474e+01
 1.212324156918533e+00	 7.001878140314485e-01	 1.479007074764530e+01
 1.205556726182756e+00	 7.117765408831541e-01	 1.470578557107698e+01
 1.198670085209880e+00	 7.233138333663404e-01	 1.462068279555071e+01
 1.272724587123605e+00	 6.109354544153536e-01	 1.535140974107498e+01
 1.266877232258593e+00	 6.229704145128298e-01	 1.528080270413789e+01
 1.260906614668146e+00	 6.349682121135339e-01	 1.520887971213212e+01
 1.254812989519139e+00	 6.469270047341757e-01	 1.513561876344479e+01
 1.248596647818427e+00	 6.588449494457536e-01	 1.506101151141763e+01
 1.242257916548825e+00	 6.707202037272082e-01	 1.498506416508174e+01
 1.235797158781182e+00	 6.825509263264429e-01	 1.490779846891583e+01
 1.229214773762181e+00	 6.943352781279341e-01	 1.482925276437233e+01
 1.222511196977553e+00	 7.060714230261522e-01	 1.474948313554365e+01
 1.215686900190384e+00	 7.177575288039907e-01	 1.466856464093054e+01
 1.208742391454260e+00	 7.293917680153851e-01	 1.458659263282446e+01
 1.283330049375665e+00	 6.160263067267771e-01	 1.528219506997984e+01
 1.277433969199677e+00	 6.281615527118258e-01	 1.521512976825160e+01
 1.271413599164712e+00	 6.402593265294499e-01	 1.514684547167587e+01
 1.265269196563913e+00	 6.523177703431652e-01	 1.507728105078797e+01
 1.259001054829048e+00	 6.643350258670611e-01	 1.500638709129377e+01
 1.252609503667633e+00	 6.763092352265697e-01	 1.493412680515910e+01
 1.246094909175930e+00	 6.882385418266600e-01	 1.486047702723911e+01
 1.239457673927492e+00	 7.001210912266765e-01	 1.478542930051525e+01
 1.232698237036888e+00	 7.119550320210413e-01	 1.470899105262272e+01
 1.225817074198339e+00	 7.237385167249996e-01	 1.463118686591815e+01
 1.218814697698973e+00	 7.354697026645967e-01	 1.455205984286763e+01
 1.293935511627957e+00	 6.211171590384006e-01	 1.521408566027125e+01
 1.287990706141024e+00	 6.333526909110168e-01	 1.515040366571776e+01
 1.281920583661574e+00	 6.455504409455465e-01	 1.508560489482545e+01
 1.275725403609013e+00	 6.577085359523137e-01	 1.501958470180420e+01
 1.269405461840026e+00	 6.698251022885019e-01	 1.495224825752527e+01
 1.262961090786825e+00	 6.818982667260374e-01	 1.488351147520872e+01
 1.256392659571091e+00	 6.939261573269562e-01	 1.481330202826525e+01
 1.249700574093237e+00	 7.059069043254749e-01	 1.474156046369481e+01
 1.242885277096673e+00	 7.178386410159689e-01	 1.466824141403844e+01
 1.235947248206757e+00	 7.297195046460386e-01	 1.459331491043154e+01
 1.228887003944152e+00	 7.415476373138414e-01	 1.451677841625511e+01
 1.304540973880630e+00	 6.262080113500902e-01	 1.514674486139580e+01
 1.298547443082786e+00	 6.385438291102684e-01	 1.508626811195125e+01
 1.292427568158884e+00	 6.508415553616869e-01	 1.502478591922808e+01
 1.286181610654593e+00	 6.630993015614816e-01	 1.496214587270112e+01
 1.279809868851513e+00	 6.753151787099334e-01	 1.489820351779321e+01
 1.273312677906552e+00	 6.874872982254651e-01	 1.483282330013913e+01
 1.266690409966807e+00	 6.996137728271838e-01	 1.476587960872244e+01
 1.259943474259555e+00	 7.116927174241814e-01	 1.469725792162776e+01
 1.253072317157047e+00	 7.237222500107893e-01	 1.462685605773142e+01
 1.246077422215770e+00	 7.357004925669669e-01	 1.455458553718061e+01
 1.238959310189931e+00	 7.476255719629860e-01	 1.448100595035815e+01
 1.315146436133834e+00	 6.312988636617130e-01	 1.507981365963065e+01
 1.309104180025118e+00	 6.437349673094463e-01	 1.502234429122767e+01
 1.302934552656797e+00	 6.561326697777349e-01	 1.496399370827917e+01
 1.296637817700807e+00	 6.684900671705297e-01	 1.490455762530262e+01
 1.290214275863659e+00	 6.808052551312128e-01	 1.484383788640137e+01
 1.283664265026962e+00	 6.930763297247078e-01	 1.478164343181806e+01
 1.276988160363225e+00	 7.053013883271961e-01	 1.471779137018524e+01
 1.270186374426589e+00	 7.174785305226480e-01	 1.465210816056763e+01
 1.263259357218144e+00	 7.296058590053560e-01	 1.458443090795085e+01
 1.256207596225515e+00	 7.416814804876422e-01	 1.451461839169789e+01
 1.249031616436443e+00	 7.537035066118966e-01	 1.444442986390569e+01
 1.325751898387718e+00	 6.363897159731350e-01	 1.501290999287539e+01
 1.319660916968172e+00	 6.489261055084165e-01	 1.495823013968775e+01
 1.313441537155469e+00	 6.614237841935542e-01	 1.490280990624813e+01
 1.307094024747808e+00	 6.738808327793185e-01	 1.484638915836506e+01
 1.300618682876617e+00	 6.862953315521974e-01	 1.478871209600957e+01
 1.294015852148202e+00	 6.986653612236192e-01	 1.472952824560313e+01
 1.287285910760487e+00	 7.109890038268447e-01	 1.466859356493758e+01
 1.280429274594478e+00	 7.232643436207272e-01	 1.460567166518246e+01
 1.273446397280105e+00	 7.354894679995237e-01	 1.454053515397821e+01
 1.266337770236125e+00	 7.476624684079233e-01	 1.447336849823934e+01
 1.259103922683822e+00	 7.597814412604398e-01	 1.440624476602619e+01
 1.158380860233024e+00	 6.990020947745036e-01	 1.475805822619954e+01
 1.151611008855832e+00	 7.101001491038532e-01	 1.465298109040998e+01
 1.144727033798606e+00	 7.211450137000243e-01	 1.453968096147290e+01
 1.137729527773788e+00	 7.321349574550814e-01	 1.441811986249071e+01
 1.130619118060299e+00	 7.430682572806847e-01	 1.428844553431301e+01
 1.123396466390945e+00	 7.539431989609153e-01	 1.415578345183981e+01
 1.116062268814774e+00	 7.647580780041193e-01	 1.402295243182754e+01
 1.108617255534383e+00	 7.755112004929233e-01	 1.389053838645275e+01
 1.101062190718126e+00	 7.862008839315665e-01	 1.375919206231739e+01
 1.093397872287285e+00	 7.968254580896929e-01	 1.362913943693382e+01
 1.085625131678239e+00	 8.073832658417421e-01	 1.350044674771392e+01
 1.168453166477405e+00	 7.050800294215442e-01	 1.472307913882725e+01
 1.161624450163416e+00	 7.162745831024483e-01	 1.462213819293418e+01
 1.154680617845832e+00	 7.274154845569546e-01	 1.451231021680380e+01
 1.147622267390815e+00	 7.385009876248719e-01	 1.439354565721898e+01
 1.140450031531571e+00	 7.495293542353372e-01	 1.426813048614481e+01
 1.133164577754769e+00	 7.604988552670547e-01	 1.414118471121861e+01
 1.125766608161711e+00	 7.714077714075478e-01	 1.401348281380836e+01
 1.118256859304210e+00	 7.822543940105657e-01	 1.388563652974699e+01
 1.110636101995182e+00	 7.930370259507828e-01	 1.375822922345941e+01
 1.102905141093953e+00	 8.037539824749281e-01	 1.363185710204998e+01
 1.095064815266366e+00	 8.144035920484748e-01	 1.350678740125048e+01
 1.178525472721587e+00	 7.111579640692867e-01	 1.468867267378910e+01
 1.171637891470792e+00	 7.224490171017018e-01	 1.459148166708171e+01
 1.164634201892828e+00	 7.336859554144957e-01	 1.448478464107479e+01
 1.157515007007581e+00	 7.448670177952225e-01	 1.436899722995555e+01
 1.150280945002546e+00	 7.559904511904966e-01	 1.424928353841065e+01
 1.142932689118261e+00	 7.670545115736463e-01	 1.412762432705232e+01
 1.135470947508280e+00	 7.780574648113737e-01	 1.400470125942338e+01
 1.127896463073644e+00	 7.889975875285515e-01	 1.388117635396306e+01
 1.120210013271829e+00	 7.998731679702917e-01	 1.375768571102705e+01
 1.112412409900214e+00	 8.106825068604080e-01	 1.363483298273576e+01
 1.104504498854108e+00	 8.214239182554082e-01	 1.351317637191391e+01
 1.188597778965700e+00	 7.172358987175963e-01	 1.465462097312114e+01
 1.181651332778095e+00	 7.286234511014928e-01	 1.456082103487593e+01
 1.174587785939731e+00	 7.399564262725418e-01	 1.445694129559077e+01
 1.167407746624226e+00	 7.512330479660438e-01	 1.434576345138139e+01
 1.160111858473366e+00	 7.624515481460916e-01	 1.423139589470646e+01
 1.152700800481561e+00	 7.736101678806386e-01	 1.411459888182282e+01
 1.145175286854625e+00	 7.847071582155651e-01	 1.399610869826470e+01
 1.137536066842826e+00	 7.957407810468692e-01	 1.387664519579961e+01
 1.129783924548207e+00	 8.067093099900980e-01	 1.375690524368207e+01
 1.121919678706198e+00	 8.176110312461524e-01	 1.363755589742334e+01
 1.113944182441584e+00	 8.284442444625758e-01	 1.351922730951786e+01
 1.198670085209880e+00	 7.233138333663404e-01	 1.462068279555071e+01
 1.191664774085457e+00	 7.347978851016983e-01	 1.452994143169792e+01
 1.184541369986677e+00	 7.462268971309846e-01	 1.442928537756303e+01
 1.177300486240889e+00	 7.575990781372465e-01	 1.432342264362127e+01
 1.169942771944174e+00	 7.689126451020527e-01	 1.421391180970732e+01
 1.162468911844816e+00	 7.801658241879815e-01	 1.410155767371807e+01
 1.154879626200890e+00	 7.913568516200923e-01	 1.398715842415473e+01
 1.147175670611898e+00	 8.024839745655066e-01	 1.387149913166024e+01
 1.139357835824450e+00	 8.135454520102076e-01	 1.375534490919614e+01
 1.131426947512035e+00	 8.245395556321836e-01	 1.363943376307934e+01
 1.123383866028910e+00	 8.354645706700103e-01	 1.352446916009863e+01
 1.208742391454260e+00	 7.293917680153851e-01	 1.458659263282445e+01
 1.201678215393014e+00	 7.409723191021973e-01	 1.449860413248574e+01
 1.194494954033802e+00	 7.524973679897187e-01	 1.440244897548359e+01
 1.187193225857709e+00	 7.639651083087405e-01	 1.430136916358344e+01
 1.179773685415109e+00	 7.753737420583086e-01	 1.419623129418774e+01
 1.172237023208167e+00	 7.867214804956238e-01	 1.408790546976439e+01
 1.164583965547221e+00	 7.980065450249240e-01	 1.397725889146095e+01
 1.156815274381003e+00	 8.092271680844517e-01	 1.386514907306720e+01
 1.148931747100699e+00	 8.203815940306269e-01	 1.375241669494997e+01
 1.140934216317854e+00	 8.314680800185212e-01	 1.363987812079396e+01
 1.132823549616204e+00	 8.424848968777450e-01	 1.352831760316943e+01
 1.218814697698973e+00	 7.354697026645967e-01	 1.455205984286762e+01
 1.211691656700899e+00	 7.471467531028667e-01	 1.446728823891988e+01
 1.204448538081243e+00	 7.587678388486355e-01	 1.437579272037527e+01
 1.197085965474824e+00	 7.703311384804362e-01	 1.427895605190905e+01
 1.189604598886316e+00	 7.818348390147891e-01	 1.417771283147075e+01
 1.182005134571759e+00	 7.932771368035154e-01	 1.407300526922871e+01
 1.174288304893759e+00	 8.046562384300294e-01	 1.396577652062832e+01
 1.166454878150284e+00	 8.159703616036935e-01	 1.385696360923176e+01
 1.158505658377090e+00	 8.272177360513614e-01	 1.374748995939389e+01
 1.150441485123784e+00	 8.383966044051876e-01	 1.363825756223612e+01
 1.142263233203581e+00	 8.495052230858128e-01	 1.353013880175996e+01
 1.228887003944152e+00	 7.415476373138414e-01	 1.451677841625511e+01
 1.221705098009248e+00	 7.533211871035861e-01	 1.443604875066623e+01
 1.214402122129137e+00	 7.650383097076294e-01	 1.434862494693324e+01
 1.206978705092375e+00	 7.766971686522446e-01	 1.425549770986898e+01
 1.199435512357933e+00	 7.882959359714230e-01	 1.415767610464962e+01
 1.191773245935735e+00	 7.998327931116054e-01	 1.405618107670360e+01
 1.183992644240650e+00	 8.113059318353775e-01	 1.395203851240157e+01
 1.176094481919881e+00	 8.227135551232202e-01	 1.384627185743080e+01
 1.168079569653761e+00	 8.340538780724170e-01	 1.373989431334707e+01
 1.159948753929955e+00	 8.453251287922027e-01	 1.363390063640096e+01
 1.151702916791159e+00	 8.565255492942466e-01	 1.352925856632505e+01
 1.238959310189931e+00	 7.476255719629860e-01	 1.448100595035815e+01
 1.231718539318194e+00	 7.594956211042331e-01	 1.440415148599884e+01
 1.224355706177618e+00	 7.713087805665929e-01	 1.432021810995462e+01
 1.216871444710499e+00	 7.830631988240758e-01	 1.423027258753228e+01
 1.209266425830104e+00	 7.947570329281402e-01	 1.413540473397062e+01
 1.201541357300239e+00	 8.063884494198424e-01	 1.403672068432501e+01
 1.193696983588037e+00	 8.179556252409373e-01	 1.393533567024357e+01
 1.185734085689939e+00	 8.294567486430199e-01	 1.383236632074676e+01
 1.177653480930850e+00	 8.408900200937994e-01	 1.372892250793970e+01
 1.169456022736497e+00	 8.522536531795880e-01	 1.362609876240432e+01
 1.161142600379055e+00	 8.635458755030792e-01	 1.352496528681844e+01
 1.249031616436443e+00	 7.537035066118966e-01	 1.444442986390569e+01
 1.241731980627871e+00	 7.656700551046853e-01	 1.437082900281863e+01
 1.234309290226824e+00	 7.775792514254192e-01	 1.428981143092282e+01
 1.226764184329336e+00	 7.894292289958399e-01	 1.420252588256954e+01
 1.219097339302971e+00	 8.012181298848704e-01	 1.411014902380337e+01
 1.211309468665415e+00	 8.129441057281770e-01	 1.401387846260633e+01
 1.203401322936065e+00	 8.246053186466789e-01	 1.391492523048832e+01
 1.195373689460598e+00	 8.361999421630804e-01	 1.381450575275590e+01
 1.187227392208493e+00	 8.477261621155145e-01	 1.371383332882545e+01
 1.178963291543537e+00	 8.591821775673645e-01	 1.361410914798574e+01
 1.170582283967386e+00	 8.705662017123440e-01	 1.351651287003855e+01
 1.259103922683822e+00	 7.597814412604398e-01	 1.440624476602619e+01
 1.251745421938413e+00	 7.718444891048214e-01	 1.433528320142388e+01
 1.244262874276892e+00	 7.838497222840011e-01	 1.425661355568445e+01
 1.236656923949025e+00	 7.957952591674481e-01	 1.417147224909552e+01
 1.228928252776675e+00	 8.076792268415427e-01	 1.408112871866127e+01
 1.221077580031405e+00	 8.194997620365576e-01	 1.398687815940778e+01
 1.213105662284877e+00	 8.312550120525702e-01	 1.389003369979492e+01
 1.205013293232002e+00	 8.429431356833911e-01	 1.379191802877713e+01
 1.196801303486830e+00	 8.545623041375685e-01	 1.369385449631352e+01
 1.188470560351207e+00	 8.661107019555532e-01	 1.359715771340029e+01
 1.180021967556269e+00	 8.775865279220734e-01	 1.350312368195202e+01
 1.085625131678239e+00	 8.073832658417421e-01	 1.350044674771392e+01
 1.077743485494942e+00	 8.178744404015328e-01	 1.337060635534198e+01
 1.069755147812679e+00	 8.282955468733098e-01	 1.323731426950359e+01
 1.061661053892214e+00	 8.386449655947125e-01	 1.310077798848712e+01
 1.053462171354286e+00	 8.489210932882577e-01	 1.296114073936619e+01
 1.045159499816885e+00	 8.591223438696768e-01	 1.281848195323648e+01
 1.036754070508536e+00	 8.692471492467884e-01	 1.267281810394580e+01
 1.028246945857875e+00	 8.792939601080658e-01	 1.252410390675817e+01
 1.019639219059865e+00	 8.892612467000878e-01	 1.237223387143002e+01
 1.010932013618977e+00	 8.991474995930532e-01	 1.221704420223389e+01
 1.002126482869762e+00	 9.089512304335691e-01	 1.205831503555267e+01
 1.095064815266366e+00	 8.144035920484748e-01	 1.350678740125048e+01
 1.087114636913163e+00	 8.249859890435582e-01	 1.338054877552341e+01
 1.079056839361370e+00	 8.354977086974563e-01	 1.325085068998624e+01
 1.070892366003996e+00	 8.459371172645828e-01	 1.311791574911258e+01
 1.062622192875398e+00	 8.563025975266969e-01	 1.298189734015033e+01
 1.054247328285408e+00	 8.665925496082714e-01	 1.284288012050347e+01
 1.045768812429249e+00	 8.768053917823091e-01	 1.270088089043256e+01
 1.037187716973550e+00	 8.869395612657713e-01	 1.255584984736831e+01
 1.028505144618779e+00	 8.969935150037819e-01	 1.240767221606471e+01
 1.019722228638462e+00	 9.069657304418031e-01	 1.225617024676784e+01
 1.010840132395580e+00	 9.168547062849696e-01	 1.210110557156204e+01
 1.104504498854108e+00	 8.214239182554082e-01	 1.351317637191391e+01
 1.096485788331047e+00	 8.320975376857478e-01	 1.339040793081583e+01
 1.088358530909791e+00	 8.426998705217367e-01	 1.326420358001278e+01
 1.080123678115588e+00	 8.532292689345620e-01	 1.313479219405734e+01
 1.071782214396412e+00	 8.636841017652273e-01	 1.300232808450355e+01
 1.063335156753931e+00	 8.740627553469473e-01	 1.286689151313021e+01
 1.054783554350062e+00	 8.843636343179097e-01	 1.272848961354359e+01
 1.046128488089418e+00	 8.945851624235607e-01	 1.258705771728200e+01
 1.037371070177970e+00	 9.047257833075728e-01	 1.244246107836540e+01
 1.028512443658294e+00	 9.147839612906722e-01	 1.229449698807000e+01
 1.019553781921798e+00	 9.247581821365196e-01	 1.214289726958734e+01
 1.113944182441584e+00	 8.284442444625758e-01	 1.351922730951785e+01
 1.105856939748693e+00	 8.392090863281423e-01	 1.339978960165691e+01
 1.097660222458019e+00	 8.499020323461949e-01	 1.327696828619163e+01
 1.089354990227046e+00	 8.605214206046964e-01	 1.315099056001321e+01
 1.080942235917358e+00	 8.710656060038937e-01	 1.302200268568379e+01
 1.072422985222456e+00	 8.815329610857443e-01	 1.289007116498730e+01
 1.063798296270949e+00	 8.919218768536212e-01	 1.275518372422970e+01
 1.055069259205430e+00	 9.022307635814574e-01	 1.261725072816669e+01
 1.046236995737369e+00	 9.124580516114726e-01	 1.247610701618489e+01
 1.037302658678387e+00	 9.226021921396588e-01	 1.233151415208695e+01
 1.028267431448315e+00	 9.326616579882037e-01	 1.218316307659284e+01
 1.123383866028910e+00	 8.354645706700103e-01	 1.352446916009863e+01
 1.115228091166201e+00	 8.463206349707832e-01	 1.340827078689208e+01
 1.106961914006133e+00	 8.571041941708781e-01	 1.328869753348063e+01
 1.098586302338423e+00	 8.678135722750333e-01	 1.316605135900113e+01
 1.090102257438265e+00	 8.784471102427415e-01	 1.304044820742033e+01
 1.081510813690987e+00	 8.890031668247020e-01	 1.291193170523082e+01
 1.072813038191888e+00	 8.994801193894757e-01	 1.278046067443842e+01
 1.064010030321539e+00	 9.098763647394834e-01	 1.264591065024259e+01
 1.055102921296907e+00	 9.201903199154924e-01	 1.250807584601135e+01
 1.046092873698654e+00	 9.304204229887606e-01	 1.236667155643352e+01
 1.036981080975032e+00	 9.405651338400042e-01	 1.222133698737188e+01
 1.132823549616204e+00	 8.424848968777450e-01	 1.352831760316943e+01
 1.124599242583671e+00	 8.534321836137118e-01	 1.341543609047124e+01
 1.116263605554212e+00	 8.643063559958306e-01	 1.329894471156263e+01
 1.107817614449775e+00	 8.751057239456186e-01	 1.317947125291648e+01
 1.099262278959160e+00	 8.858286144818142e-01	 1.305714793066115e+01
 1.090598642159526e+00	 8.964733725638601e-01	 1.293194221396944e+01
 1.081827780112856e+00	 9.070383619255062e-01	 1.280377475876524e+01
 1.072950801437699e+00	 9.175219658976611e-01	 1.267247663733215e+01
 1.063968846856515e+00	 9.279225882196432e-01	 1.253779144917941e+01
 1.054883088719009e+00	 9.382386538379759e-01	 1.239937789587969e+01
 1.045694730501848e+00	 9.484686096919049e-01	 1.225681280777464e+01
 1.142263233203581e+00	 8.495052230858128e-01	 1.353013880175996e+01
 1.133970394001202e+00	 8.605437322569683e-01	 1.342067477379642e+01
 1.125565297102334e+00	 8.715085178210993e-01	 1.330734568834458e+01
 1.117048926561155e+00	 8.823978756164995e-01	 1.319079150866428e+01
 1.108422300480074e+00	 8.932101187211562e-01	 1.307154022669463e+01
 1.099686470628076e+00	 9.039435783032587e-01	 1.294952708494936e+01
 1.090842522033830e+00	 9.145966044617442e-01	 1.282453596396104e+01
 1.081891572553860e+00	 9.251675670560136e-01	 1.269634406078041e+01
 1.072834772416124e+00	 9.356548565239354e-01	 1.256463458812485e+01
 1.063673303739363e+00	 9.460568846873014e-01	 1.242899953919464e+01
 1.054408380028664e+00	 9.563720855438894e-01	 1.228894293072949e+01
 1.151702916791159e+00	 8.565255492942466e-01	 1.352925856632505e+01
 1.143341545418894e+00	 8.676552809005948e-01	 1.342330743847119e+01
 1.134866988650577e+00	 8.787106796467281e-01	 1.331324518281335e+01
 1.126280238672620e+00	 8.896900272877223e-01	 1.319968737226458e+01
 1.117582322001036e+00	 9.005916229608133e-01	 1.308315980963604e+01
 1.108774299096638e+00	 9.114137840429364e-01	 1.296406489484776e+01
 1.099857263954785e+00	 9.221548469982224e-01	 1.284210882583806e+01
 1.090832343669977e+00	 9.328131682145633e-01	 1.271686335172911e+01
 1.081700697975664e+00	 9.433871248283805e-01	 1.258794173209990e+01
 1.072463518759630e+00	 9.538751155367361e-01	 1.245485933668943e+01
 1.063122029555380e+00	 9.642755613959409e-01	 1.231703712431587e+01
 1.161142600379055e+00	 8.635458755030792e-01	 1.352496528681844e+01
 1.152712696836846e+00	 8.747668295446319e-01	 1.342261698131922e+01
 1.144168680199020e+00	 8.859128414727644e-01	 1.331591760897766e+01
 1.135511550784221e+00	 8.969821789593340e-01	 1.320545168271311e+01
 1.126742343522073e+00	 9.079731272008288e-01	 1.309171023268638e+01
 1.117862127565217e+00	 9.188839897829338e-01	 1.297508080551808e+01
 1.108872005875700e+00	 9.297130895349732e-01	 1.285581129314395e+01
 1.099773114786001e+00	 9.404587693733325e-01	 1.273333885126221e+01
 1.090566623535067e+00	 9.511193931329895e-01	 1.260700389180112e+01
 1.081253733779724e+00	 9.616933463862778e-01	 1.247623543784051e+01
 1.071835679081897e+00	 9.721790372480427e-01	 1.234036133119546e+01
 1.170582283967386e+00	 8.705662017123440e-01	 1.351651287003855e+01
 1.162083848255159e+00	 8.818783781891211e-01	 1.341785154402620e+01
 1.153470371747742e+00	 8.931150032992524e-01	 1.331460237230635e+01
 1.144742862896016e+00	 9.042743306313806e-01	 1.320731239286870e+01
 1.135902365043215e+00	 9.153546314412476e-01	 1.309643137349817e+01
 1.126949956033813e+00	 9.263541955232899e-01	 1.298230143700032e+01
 1.117886747796550e+00	 9.372713320720282e-01	 1.286514656211596e+01
 1.108713885901884e+00	 9.481043705323445e-01	 1.274502766796904e+01
 1.099432549094263e+00	 9.588516614377735e-01	 1.262106546240028e+01
 1.090043948799557e+00	 9.695115772359240e-01	 1.249236011841757e+01
 1.080549328608115e+00	 9.800825131001787e-01	 1.235813647875137e+01
 1.180021967556269e+00	 8.775865279220734e-01	 1.350312368195202e+01
 1.171454999673932e+00	 8.889899268341032e-01	 1.340822746752159e+01
 1.162772063296821e+00	 9.003171651262384e-01	 1.330850682904250e+01
 1.153974175008058e+00	 9.115664823039090e-01	 1.320446516371070e+01
 1.145062386564489e+00	 9.227361356821143e-01	 1.309650474921344e+01
 1.136037784502430e+00	 9.338244012640450e-01	 1.298491599021120e+01
 1.126901489717312e+00	 9.448295746094201e-01	 1.286986652332785e+01
 1.117654657017580e+00	 9.557499716916212e-01	 1.275139023675538e+01
 1.108298474653183e+00	 9.665839297427430e-01	 1.262932307449847e+01
 1.098834163819044e+00	 9.773298080856726e-01	 1.250241861657507e+01
 1.089262978133934e+00	 9.879859889523319e-01	 1.236953729932866e+01
 1.002126482869762e+00	 9.089512304335691e-01	 1.205831503555267e+01
 9.932253283097068e-01	 9.186693303687588e-01	 1.189829934141603e+01
 9.842282591293295e-01	 9.283020428451800e-01	 1.173906701916205e+01
 9.751364985674037e-01	 9.378479636853145e-01	 1.158013388063094e+01
 9.659512975390478e-01	 9.473057126400085e-01	 1.142097718733707e+01
 9.566739340581240e-01	 9.566739340581240e-01	 1.126103944500901e+01
 9.473057126400086e-01	 9.659512975390476e-01	 1.109973243241541e+01
 9.378479636853141e-01	 9.751364985674038e-01	 1.093644144368997e+01
 9.283020428451798e-01	 9.842282591293298e-01	 1.077052972214349e+01
 9.186693303687584e-01	 9.932253283097072e-01	 1.060134306244325e+01
 9.089512304335688e-01	 1.002126482869762e+00	 1.042821455706365e+01
 1.010840132395580e+00	 9.168547062849696e-01	 1.210110557156204e+01
 1.001861580877576e+00	 9.266573066484298e-01	 1.194478133823108e+01
 9.927862807463307e-01	 9.363737770955480e-01	 1.178929075023202e+01
 9.836154658768759e-01	 9.460027012392600e-01	 1.163408237569147e+01
 9.743503980612336e-01	 9.555426868289243e-01	 1.147856211349429e+01
 9.649923664258014e-01	 9.649923664258016e-01	 1.132209725088085e+01
 9.555426868289242e-01	 9.743503980612337e-01	 1.116402077137741e+01
 9.460027012392600e-01	 9.836154658768761e-01	 1.100363589109608e+01
 9.363737770955480e-01	 9.927862807463310e-01	 1.084022080014125e+01
 9.266573066484294e-01	 1.001861580877576e+00	 1.067303358468676e+01
 9.168547062849695e-01	 1.010840132395581e+00	 1.050131730425430e+01
 1.019553781921798e+00	 9.247581821365196e-01	 1.214289726958733e+01
 1.010497833445873e+00	 9.346452829282896e-01	 1.199000816918909e+01
 1.001344302363768e+00	 9.444455113461505e-01	 1.183795699956909e+01
 9.920944331867741e-01	 9.541574387934858e-01	 1.168614078482985e+01
 9.827494985838229e-01	 9.637796610181670e-01	 1.153391011422357e+01
 9.733107987938482e-01	 9.733107987938480e-01	 1.138057344807694e+01
 9.637796610181670e-01	 9.827494985838231e-01	 1.122540169004922e+01
 9.541574387934856e-01	 9.920944331867746e-01	 1.106763300257674e+01
 9.444455113461504e-01	 1.001344302363769e+00	 1.090647784098419e+01
 9.346452829282893e-01	 1.010497833445873e+00	 1.074112418050515e+01
 9.247581821365196e-01	 1.019553781921798e+00	 1.057074290935789e+01
 1.028267431448315e+00	 9.326616579882037e-01	 1.218316307659284e+01
 1.019134086014491e+00	 9.426332592083068e-01	 1.203344302913941e+01
 1.009902323981533e+00	 9.525172455969383e-01	 1.188453274145635e+01
 1.000573400496993e+00	 9.623121763479290e-01	 1.173579291306281e+01
 9.911485991067153e-01	 9.720166352076590e-01	 1.158653438108282e+01
 9.816292311621735e-01	 9.816292311621733e-01	 1.143602266041182e+01
 9.720166352076591e-01	 9.911485991067153e-01	 1.128348276619966e+01
 9.623121763479289e-01	 1.000573400496993e+00	 1.112810429431558e+01
 9.525172455969378e-01	 1.009902323981533e+00	 1.096904673400886e+01
 9.426332592083065e-01	 1.019134086014491e+00	 1.080544498567755e+01
 9.326616579882036e-01	 1.028267431448315e+00	 1.063641505549562e+01
 1.036981080975032e+00	 9.405651338400042e-01	 1.222133698737188e+01
 1.027770338583322e+00	 9.506212354884482e-01	 1.207451100307075e+01
 1.018460345599516e+00	 9.605889798478638e-01	 1.192844734732073e+01
 1.009052367807426e+00	 9.704669139025268e-01	 1.178248514712379e+01
 9.995476996298116e-01	 9.802536093973230e-01	 1.163591056249937e+01
 9.899476635306882e-01	 9.899476635306880e-01	 1.148796154744520e+01
 9.802536093973231e-01	 9.995476996298118e-01	 1.133783290921426e+01
 9.704669139025267e-01	 1.009052367807426e+00	 1.118468164037528e+01
 9.605889798478637e-01	 1.018460345599516e+00	 1.102763249659871e+01
 9.506212354884482e-01	 1.027770338583322e+00	 1.086578379173309e+01
 9.405651338400040e-01	 1.036981080975032e+00	 1.069821338051938e+01
 1.045694730501848e+00	 9.484686096919049e-01	 1.225681280777464e+01
 1.036406591152260e+00	 9.586092117686832e-01	 1.211259781534706e+01
 1.027018367217608e+00	 9.686607140988807e-01	 1.196909133839830e+01
 1.017531335117967e+00	 9.786216514572168e-01	 1.182562522835596e+01
 1.007946800153013e+00	 9.884905835870830e-01	 1.168147557305294e+01
 9.982660958993033e-01	 9.982660958993032e-01	 1.153586766566865e+01
 9.884905835870830e-01	 1.007946800153013e+00	 1.138798128803458e+01
 9.786216514572165e-01	 1.017531335117967e+00	 1.123695628156493e+01
 9.686607140988800e-01	 1.027018367217608e+00	 1.108189837746661e+01
 9.586092117686829e-01	 1.036406591152261e+00	 1.092188525643818e+01
 9.484686096919046e-01	 1.045694730501848e+00	 1.075597280678075e+01
 1.054408380028664e+00	 9.563720855438894e-01	 1.228894293072949e+01
 1.045042843721199e+00	 9.665971880489791e-01	 1.214704859280907e+01
 1.035576388835701e+00	 9.767324483499398e-01	 1.200581515251632e+01
 1.026010302428511e+00	 9.867763890119353e-01	 1.186458103918455e+01
 1.016345900676220e+00	 9.967275577768607e-01	 1.172262641504175e+01
 1.006584528267929e+00	 1.006584528267929e+00	 1.157917833994934e+01
 9.967275577768607e-01	 1.016345900676220e+00	 1.143341626663438e+01
 9.867763890119350e-01	 1.026010302428511e+00	 1.128447783845712e+01
 9.767324483499399e-01	 1.035576388835701e+00	 1.113146496006914e+01
 9.665971880489788e-01	 1.045042843721200e+00	 1.097345010979615e+01
 9.563720855438893e-01	 1.054408380028664e+00	 1.080948286123237e+01
 1.063122029555380e+00	 9.642755613959409e-01	 1.231703712431587e+01
 1.053679096290031e+00	 9.745851643293038e-01	 1.217716664093696e+01
 1.044134410453685e+00	 9.848041826009941e-01	 1.203792792417521e+01
 1.034489269738951e+00	 9.949311265666200e-01	 1.189867940238195e+01
 1.024745001199333e+00	 1.004964531966579e+00	 1.175871901161868e+01
 1.014902960636475e+00	 1.014902960636475e+00	 1.161728954463608e+01
 1.004964531966580e+00	 1.024745001199333e+00	 1.147358434659092e+01
 9.949311265666196e-01	 1.034489269738951e+00	 1.132675332830949e+01
 9.848041826009940e-01	 1.044134410453686e+00	 1.117590926613632e+01
 9.745851643293036e-01	 1.053679096290032e+00	 1.102013435581212e+01
 9.642755613959407e-01	 1.063122029555381e+00	 1.085848698640649e+01
 1.071835679081897e+00	 9.721790372480427e-01	 1.234036133119545e+01
 1.062315348858649e+00	 9.825731406096258e-01	 1.220221223232411e+01
 1.052692432071453e+00	 9.928759168519964e-01	 1.206469627716412e+01
 1.042968237049182e+00	 1.003085864121207e+00	 1.192720489238922e+01
 1.033144101722252e+00	 1.013201506156162e+00	 1.178906705083152e+01
 1.023221393004853e+00	 1.023221393004853e+00	 1.164955479376878e+01
 1.013201506156162e+00	 1.033144101722252e+00	 1.150788911634146e+01
 1.003085864121207e+00	 1.042968237049182e+00	 1.136324618565967e+01
 9.928759168519961e-01	 1.052692432071453e+00	 1.121476385930432e+01
 9.825731406096254e-01	 1.062315348858650e+00	 1.106154847025422e+01
 9.721790372480427e-01	 1.071835679081897e+00	 1.090268184278497e+01
 1.080549328608115e+00	 9.800825131001787e-01	 1.235813647875137e+01
 1.070951601426947e+00	 9.905611168899124e-01	 1.222140140675726e+01
 1.061250453688895e+00	 1.000947651102898e+00	 1.208534312899612e+01
 1.051447204359096e+00	 1.011240601675633e+00	 1.194939865800592e+01
 1.041543202244879e+00	 1.021438480345531e+00	 1.181294083994342e+01
 1.031539825372972e+00	 1.031539825372972e+00	 1.167528403986939e+01
 1.021438480345531e+00	 1.041543202244879e+00	 1.153569020673764e+01
 1.011240601675633e+00	 1.051447204359096e+00	 1.139337528637941e+01
 1.000947651102898e+00	 1.061250453688895e+00	 1.124751594883522e+01
 9.905611168899124e-01	 1.070951601426947e+00	 1.109725659463054e+01
 9.800825131001786e-01	 1.080549328608115e+00	 1.094171660303610e+01
 1.089262978133934e+00	 9.879859889523319e-01	 1.236953729932866e+01
 1.079587853994817e+00	 9.985490931701331e-01	 1.223390478224610e+01
 1.069808475305903e+00	 1.009019385353652e+00	 1.209904650649127e+01
 1.059926171668588e+00	 1.019395339229837e+00	 1.196445725580244e+01
 1.049942302767113e+00	 1.029675454534610e+00	 1.182956616944938e+01
 1.039858257740744e+00	 1.039858257740744e+00	 1.169374258082656e+01
 1.029675454534610e+00	 1.049942302767114e+00	 1.155630225253902e+01
 1.019395339229837e+00	 1.059926171668588e+00	 1.141651397498537e+01
 1.009019385353652e+00	 1.069808475305903e+00	 1.127360649341308e+01
 9.985490931701325e-01	 1.079587853994817e+00	 1.112677572658550e+01
 9.879859889523319e-01	 1.089262978133934e+00	 1.097519223856870e+01
 9.089512304335688e-01	 1.002126482869762e+00	 1.042821455706365e+01
 8.991474995930534e-01	 1.010932013618976e+00	 1.025261807111221e+01
 8.892612467000883e-01	 1.019639219059864e+00	 1.007653019310939e+01
 8.792939601080663e-01	 1.028246945857875e+00	 9.899959853353312e+00
 8.692471492467886e-01	 1.036754070508535e+00	 9.722942900680486e+00
 8.591223438696771e-01	 1.045159499816885e+00	 9.545546086467914e+00
 8.489210932882580e-01	 1.053462171354286e+00	 9.367871011082780e+00
 8.386449655947128e-01	 1.061661053892214e+00	 9.190058007582817e+00
 8.282955468733099e-01	 1.069755147812679e+00	 9.012289937708958e+00
 8.178744404015331e-01	 1.077743485494941e+00	 8.834795875594560e+00
 8.073832658417420e-01	 1.085625131678239e+00	 8.657854655147069e+00
 9.168547062849695e-01	 1.010840132395581e+00	 1.050131730425430e+01
 9.069657304418034e-01	 1.019722228638461e+00	 1.032677600107676e+01
 8.969935150037820e-01	 1.028505144618779e+00	 1.015170073059647e+01
 8.869395612657714e-01	 1.037187716973550e+00	 9.976137878933320e+00
 8.768053917823098e-01	 1.045768812429249e+00	 9.800163590528179e+00
 8.665925496082719e-01	 1.054247328285408e+00	 9.623887901937529e+00
 8.563025975266972e-01	 1.062622192875398e+00	 9.447458835345952e+00
 8.459371172645830e-01	 1.070892366003996e+00	 9.271066425394485e+00
 8.354977086974567e-01	 1.079056839361370e+00	 9.094946653175754e+00
 8.249859890435587e-01	 1.087114636913163e+00	 8.919385261646676e+00
 8.144035920484748e-01	 1.095064815266366e+00	 8.744721427265667e+00
 9.247581821365196e-01	 1.019553781921798e+00	 1.057074290935789e+01
 9.147839612906729e-01	 1.028512443658294e+00	 1.039732133290865e+01
 9.047257833075731e-01	 1.037371070177969e+00	 1.022348944434252e+01
 8.945851624235615e-01	 1.046128488089418e+00	 1.004930556120134e+01
 8.843636343179101e-01	 1.054783554350061e+00	 9.874859785743045e+00
 8.740627553469472e-01	 1.063335156753930e+00	 9.700278337036139e+00
 8.636841017652278e-01	 1.071782214396412e+00	 9.525727841058488e+00
 8.532292689345622e-01	 1.080123678115588e+00	 9.351419551075388e+00
 8.426998705217370e-01	 1.088358530909791e+00	 9.177613470829129e+00
 8.320975376857480e-01	 1.096485788331047e+00	 9.004622353489998e+00
 8.214239182554082e-01	 1.104504498854108e+00	 8.832815549901145e+00
 9.326616579882036e-01	 1.028267431448315e+00	 1.063641505549562e+01
 9.226021921396595e-01	 1.037302658678387e+00	 1.046426667520536e+01
 9.124580516114733e-01	 1.046236995737369e+00	 1.029198001466532e+01
 9.022307635814579e-01	 1.055069259205429e+00	 1.011960031234343e+01
 8.919218768536215e-01	 1.063798296270948e+00	 9.947205814678179e+00
 8.815329610857446e-01	 1.072422985222456e+00	 9.774912354914491e+00
 8.710656060038944e-01	 1.080942235917358e+00	 9.602877889247889e+00
 8.605214206046967e-01	 1.089354990227045e+00	 9.431306961097368e+00
 8.499020323461952e-01	 1.097660222458018e+00	 9.260455064597146e+00
 8.392090863281431e-01	 1.105856939748693e+00	 9.090632878828618e+00
 8.284442444625759e-01	 1.113944182441584e+00	 8.922057231953708e+00
 9.405651338400040e-01	 1.036981080975032e+00	 1.069821338051938e+01
 9.304204229887609e-01	 1.046092873698654e+00	 1.052757912405089e+01
 9.201903199154930e-01	 1.055102921296907e+00	 1.035720981446171e+01
 9.098763647394840e-01	 1.064010030321539e+00	 1.018711309114894e+01
 8.994801193894761e-01	 1.072813038191888e+00	 1.001733003133495e+01
 8.890031668247024e-01	 1.081510813690987e+00	 9.847940024052825e+00
 8.784471102427419e-01	 1.090102257438264e+00	 9.679065601752875e+00
 8.678135722750338e-01	 1.098586302338423e+00	 9.510877198770658e+00
 8.571041941708781e-01	 1.106961914006133e+00	 9.343597806173641e+00
 8.463206349707838e-01	 1.115228091166201e+00	 9.177080195150168e+00
 8.354645706700103e-01	 1.123383866028910e+00	 9.009725858915678e+00
 9.484686096919046e-01	 1.045694730501848e+00	 1.075597280678075e+01
 9.382386538379760e-01	 1.054883088719009e+00	 1.058717970474448e+01
 9.279225882196438e-01	 1.063968846856515e+00	 1.041916943714311e+01
 9.175219658976619e-01	 1.072950801437698e+00	 1.025188799222411e+01
 9.070383619255066e-01	 1.081827780112856e+00	 1.008531444176719e+01
 8.964733725638606e-01	 1.090598642159526e+00	 9.919466158621907e+00
 8.858286144818146e-01	 1.099262278959160e+00	 9.754403993181253e+00
 8.751057239456191e-01	 1.107817614449774e+00	 9.590237376325549e+00
 8.643063559958311e-01	 1.116263605554211e+00	 9.426300778717764e+00
 8.534321836137121e-01	 1.124599242583670e+00	 9.260298618221668e+00
 8.424848968777450e-01	 1.132823549616204e+00	 9.093851948522016e+00
 9.563720855438893e-01	 1.054408380028664e+00	 1.080948286123237e+01
 9.460568846873018e-01	 1.063673303739362e+00	 1.064294279907243e+01
 9.356548565239359e-01	 1.072834772416124e+00	 1.047780220663457e+01
 9.251675670560140e-01	 1.081891572553860e+00	 1.031392181505285e+01
 9.145966044617446e-01	 1.090842522033829e+00	 1.015119430933550e+01
 9.039435783032590e-01	 1.099686470628075e+00	 9.989549937875562e+00
 8.932101187211570e-01	 1.108422300480074e+00	 9.828962083211170e+00
 8.823978756164998e-01	 1.117048926561155e+00	 9.668146848634565e+00
 8.715085178210995e-01	 1.125565297102333e+00	 9.504109222631618e+00
 8.605437322569688e-01	 1.133970394001202e+00	 9.338465237963284e+00
 8.495052230858129e-01	 1.142263233203581e+00	 9.173185931270698e+00
 9.642755613959407e-01	 1.063122029555381e+00	 1.085848698640649e+01
 9.538751155367364e-01	 1.072463518759630e+00	 1.069469555894643e+01
 9.433871248283809e-01	 1.081700697975664e+00	 1.053300367045806e+01
 9.328131682145636e-01	 1.090832343669977e+00	 1.037316361405273e+01
 9.221548469982229e-01	 1.099857263954785e+00	 1.021495774001901e+01
 9.114137840429368e-01	 1.108774299096638e+00	 1.005820450577119e+01
 9.005916229608133e-01	 1.117582322001035e+00	 9.900977674905970e+00
 8.896900272877228e-01	 1.126280238672619e+00	 9.739521455768237e+00
 8.787106796467287e-01	 1.134866988650576e+00	 9.575370131669306e+00
 8.676552809005953e-01	 1.143341545418894e+00	 9.410381052376565e+00
 8.565255492942466e-01	 1.151702916791159e+00	 9.246476082800438e+00
 9.721790372480427e-01	 1.071835679081897e+00	 1.090268184278497e+01
 9.616933463862782e-01	 1.081253733779724e+00	 1.074221730717499e+01
 9.511193931329899e-01	 1.090566623535066e+00	 1.058462107685523e+01
 9.404587693733333e-01	 1.099773114786000e+00	 1.042951423070108e+01
 9.297130895349734e-01	 1.108872005875699e+00	 1.027654524891205e+01
 9.188839897829343e-01	 1.117862127565217e+00	 1.012320592531897e+01
 9.079731272008288e-01	 1.126742343522072e+00	 9.964850869389734e+00
 8.969821789593343e-01	 1.135511550784221e+00	 9.802852732015273e+00
 8.859128414727646e-01	 1.144168680199020e+00	 9.638922494350908e+00
 8.747668295446325e-01	 1.152712696836846e+00	 9.474845133872019e+00
 8.635458755030794e-01	 1.161142600379055e+00	 9.312470105042582e+00
 9.800825131001786e-01	 1.080549328608115e+00	 1.094171660303610e+01
 9.695115772359243e-01	 1.090043948799557e+00	 1.078523892608775e+01
 9.588516614377736e-01	 1.099432549094262e+00	 1.063245283684461e+01
 9.481043705323450e-01	 1.108713885901884e+00	 1.048282580873517e+01
 9.372713320720288e-01	 1.117886747796549e+00	 1.033340712551964e+01
 9.263541955232906e-01	 1.126949956033813e+00	 1.017848223700195e+01
 9.153546314412478e-01	 1.135902365043214e+00	 1.001917075323621e+01
 9.042743306313811e-01	 1.144742862896016e+00	 9.857005850495362e+00
 8.931150032992528e-01	 1.153470371747742e+00	 9.693604216448144e+00
 8.818783781891216e-01	 1.162083848255159e+00	 9.530656341730030e+00
 8.705662017123441e-01	 1.170582283967386e+00	 9.369916704103854e+00
 9.879859889523319e-01	 1.089262978133934e+00	 1.097519223856870e+01
 9.773298080856730e-01	 1.098834163819043e+00	 1.082344223468555e+01
 9.665839297427435e-01	 1.108298474653183e+00	 1.067624797204679e+01
 9.557499716916213e-01	 1.117654657017579e+00	 1.053041665292986e+01
 9.448295746094204e-01	 1.126901489717312e+00	 1.037897452380793e+01
 9.338244012640456e-01	 1.136037784502430e+00	 1.022266641715056e+01
 9.227361356821150e-01	 1.145062386564489e+00	 1.006281759986844e+01
 9.115664823039097e-01	 1.153974175008057e+00	 9.900846312127140e+00
 9.003171651262387e-01	 1.162772063296821e+00	 9.738253941050360e+00
 8.889899268341038e-01	 1.171454999673932e+00	 9.576615027222262e+00
 8.775865279220734e-01	 1.180021967556268e+00	 9.417567165060936e+00
 8.073832658417420e-01	 1.085625131678239e+00	 8.657854655147069e+00
 7.968254580896930e-01	 1.093397872287285e+00	 8.480859161478032e+00
 7.862008839315666e-01	 1.101062190718126e+00	 8.302657887974725e+00
 7.755112004929233e-01	 1.108617255534383e+00	 8.122874914523640e+00
 7.647580780041195e-01	 1.116062268814774e+00	 7.941278535872085e+00
 7.539431989609159e-01	 1.123396466390945e+00	 7.758509166759071e+00
 7.430682572806854e-01	 1.130619118060299e+00	 7.575608221148812e+00
 7.321349574550818e-01	 1.137729527773787e+00	 7.393989145910044e+00
 7.211450137000248e-01	 1.144727033798606e+00	 7.215401068183798e+00
 7.101001491038539e-01	 1.151611008855831e+00	 7.040691806968608e+00
 6.990020947745038e-01	 1.158380860233024e+00	 6.870654091866061e+00
 8.144035920484748e-01	 1.095064815266366e+00	 8.744721427265667e+00
 8.037539824749281e-01	 1.102905141093953e+00	 8.570096448669196e+00
 7.930370259507830e-01	 1.110636101995182e+00	 8.393976862764543e+00
 7.822543940105660e-01	 1.118256859304210e+00	 8.215727014270271e+00
 7.714077714075480e-01	 1.125766608161711e+00	 8.035596461573737e+00
 7.604988552670552e-01	 1.133164577754769e+00	 7.854524525666916e+00
 7.495293542353380e-01	 1.140450031531571e+00	 7.673447224611681e+00
 7.385009876248725e-01	 1.147622267390814e+00	 7.493315177790489e+00
 7.274154845569550e-01	 1.154680617845831e+00	 7.315796370558820e+00
 7.162745831024488e-01	 1.161624450163415e+00	 7.141993913049632e+00
 7.050800294215445e-01	 1.168453166477406e+00	 6.972571570527658e+00
 8.214239182554082e-01	 1.104504498854108e+00	 8.832815549901145e+00
 8.106825068604079e-01	 1.112412409900214e+00	 8.660971343621803e+00
 7.998731679702917e-01	 1.120210013271829e+00	 8.486451349097248e+00
 7.889975875285518e-01	 1.127896463073643e+00	 8.309394090235232e+00
 7.780574648113737e-01	 1.135470947508280e+00	 8.130664396910010e+00
 7.670545115736468e-01	 1.142932689118260e+00	 7.951124340433678e+00
 7.559904511904971e-01	 1.150280945002546e+00	 7.771627976765426e+00
 7.448670177952230e-01	 1.157515007007581e+00	 7.593016276371628e+00
 7.336859554144965e-01	 1.164634201892827e+00	 7.416335332668441e+00
 7.224490171017026e-01	 1.171637891470791e+00	 7.243123844924021e+00
 7.111579640692864e-01	 1.178525472721586e+00	 7.074025130528930e+00
 8.284442444625759e-01	 1.113944182441584e+00	 8.922057231953708e+00
 8.176110312461525e-01	 1.121919678706198e+00	 8.751801855691507e+00
 8.067093099900979e-01	 1.129783924548206e+00	 8.578355721939159e+00
 7.957407810468693e-01	 1.137536066842826e+00	 8.402529779775053e+00
 7.847071582155656e-01	 1.145175286854625e+00	 8.225135260078307e+00
 7.736101678806390e-01	 1.152700800481561e+00	 8.046978074577448e+00
 7.624515481460922e-01	 1.160111858473366e+00	 7.868853383519666e+00
 7.512330479660445e-01	 1.167407746624226e+00	 7.691540364675159e+00
 7.399564262725421e-01	 1.174587785939730e+00	 7.515799667601321e+00
 7.286234511014934e-01	 1.181651332778094e+00	 7.342946435498495e+00
 7.172358987175965e-01	 1.188597778965700e+00	 7.173977071731637e+00
 8.354645706700103e-01	 1.123383866028910e+00	 9.009725858915676e+00
 8.245395556321835e-01	 1.131426947512035e+00	 8.840597935170416e+00
 8.135454520102081e-01	 1.139357835824450e+00	 8.668357340792317e+00
 8.024839745655068e-01	 1.147175670611898e+00	 8.493784551062847e+00
 7.913568516200928e-01	 1.154879626200890e+00	 8.317658597684769e+00
 7.801658241879816e-01	 1.162468911844815e+00	 8.140751229970434e+00
 7.689126451020530e-01	 1.169942771944173e+00	 7.963821257683246e+00
 7.575990781372470e-01	 1.177300486240889e+00	 7.787609109966599e+00
 7.462268971309854e-01	 1.184541369986676e+00	 7.612831642808965e+00
 7.347978851016989e-01	 1.191664774085457e+00	 7.440311758312074e+00
 7.233138333663404e-01	 1.198670085209880e+00	 7.271372213541294e+00
 8.424848968777450e-01	 1.132823549616204e+00	 9.093851948522016e+00
 8.314680800185213e-01	 1.140934216317853e+00	 8.926060882912966e+00
 8.203815940306269e-01	 1.148931747100699e+00	 8.755122381244151e+00
 8.092271680844521e-01	 1.156815274381003e+00	 8.581806741716441e+00
 7.980065450249242e-01	 1.164583965547220e+00	 8.406881726839650e+00
 7.867214804956244e-01	 1.172237023208167e+00	 8.231106437348478e+00
 7.753737420583088e-01	 1.179773685415108e+00	 8.055225380757820e+00
 7.639651083087412e-01	 1.187193225857709e+00	 7.879962770853551e+00
 7.524973679897192e-01	 1.194494954033802e+00	 7.706017092318151e+00
 7.409723191021976e-01	 1.201678215393014e+00	 7.534055962400456e+00
 7.293917680153849e-01	 1.208742391454260e+00	 7.365139052518689e+00
 8.495052230858129e-01	 1.142263233203581e+00	 9.173185931270700e+00
 8.383966044051875e-01	 1.150441485123784e+00	 9.006889786478911e+00
 8.272177360513615e-01	 1.158505658377090e+00	 8.837315742687796e+00
 8.159703616036939e-01	 1.166454878150283e+00	 8.665243783844264e+00
 8.046562384300296e-01	 1.174288304893759e+00	 8.491450886367753e+00
 7.932771368035159e-01	 1.182005134571759e+00	 8.316704556144135e+00
 7.818348390147890e-01	 1.189604598886314e+00	 8.141756573126063e+00
 7.703311384804370e-01	 1.197085965474824e+00	 7.967336981848288e+00
 7.587678388486363e-01	 1.204448538081243e+00	 7.794148363953269e+00
 7.471467531028677e-01	 1.211691656700899e+00	 7.622860426400369e+00
 7.354697026645965e-01	 1.218814697698973e+00	 7.454190914213604e+00
 8.565255492942466e-01	 1.151702916791159e+00	 9.246476082800434e+00
 8.453251287922026e-01	 1.159948753929955e+00	 9.081782964226507e+00
 8.340538780724168e-01	 1.168079569653761e+00	 8.913602375202577e+00
 8.227135551232205e-01	 1.176094481919881e+00	 8.742743436378582e+00
 8.113059318353775e-01	 1.183992644240650e+00	 8.570012396610233e+00
 7.998327931116056e-01	 1.191773245935735e+00	 8.396205783103991e+00
 7.882959359714231e-01	 1.199435512357932e+00	 8.222103772150103e+00
 7.766971686522453e-01	 1.206978705092374e+00	 8.048463820915728e+00
 7.650383097076302e-01	 1.214402122129136e+00	 7.876014598435689e+00
 7.533211871035871e-01	 1.221705098009248e+00	 7.705450251383207e+00
 7.415476373138414e-01	 1.228887003944152e+00	 7.537425037457812e+00
 8.635458755030794e-01	 1.161142600379055e+00	 9.312470105042584e+00
 8.522536531795880e-01	 1.169456022736496e+00	 9.149439410532748e+00
 8.408900200937995e-01	 1.177653480930849e+00	 8.982648610990426e+00
 8.294567486430199e-01	 1.185734085689939e+00	 8.812955024278047e+00
 8.179556252409377e-01	 1.193696983588037e+00	 8.641213827324997e+00
 8.063884494198430e-01	 1.201541357300239e+00	 8.468270769188610e+00
 7.947570329281405e-01	 1.209266425830104e+00	 8.294955117727799e+00
 7.830631988240763e-01	 1.216871444710498e+00	 8.122072882683410e+00
 7.713087805665937e-01	 1.224355706177618e+00	 7.950400355494661e+00
 7.594956211042336e-01	 1.231718539318194e+00	 7.780678003482049e+00
 7.476255719629862e-01	 1.238959310189931e+00	 7.613604753140594e+00
 8.705662017123441e-01	 1.170582283967386e+00	 9.369916704103854e+00
 8.591821775673644e-01	 1.178963291543537e+00	 9.208560242072977e+00
 8.477261621155151e-01	 1.187227392208493e+00	 9.043123500111030e+00
 8.361999421630808e-01	 1.195373689460598e+00	 8.874530684208764e+00
 8.246053186466792e-01	 1.203401322936065e+00	 8.703705173225575e+00
 8.129441057281772e-01	 1.211309468665414e+00	 8.531561744284218e+00
 8.012181298848708e-01	 1.219097339302971e+00	 8.358999044883328e+00
 7.894292289958404e-01	 1.226764184329336e+00	 8.186892356995941e+00
 7.775792514254199e-01	 1.234309290226824e+00	 8.016086695830458e+00
 7.656700551046860e-01	 1.241731980627871e+00	 7.847390283079880e+00
 7.537035066118964e-01	 1.249031616436443e+00	 7.681568431446845e+00
 8.775865279220734e-01	 1.180021967556268e+00	 9.417567165060936e+00
 8.661107019555532e-01	 1.188470560351208e+00	 9.257850145095579e+00
 8.545623041375688e-01	 1.196801303486830e+00	 9.093700150268246e+00
 8.429431356833911e-01	 1.205013293232002e+00	 8.926126616338486e+00
 8.312550120525709e-01	 1.213105662284877e+00	 8.756140036727436e+00
 8.194997620365579e-01	 1.221077580031405e+00	 8.584743649285631e+00
 8.076792268415429e-01	 1.228928252776675e+00	 8.412925382993919e+00
 7.957952591674486e-01	 1.236656923949024e+00	 8.241650112504086e+00
 7.838497222840017e-01	 1.244262874276892e+00	 8.071852265688062e+00
 7.718444891048222e-01	 1.251745421938413e+00	 7.904428826375224e+00
 7.597814412604397e-01	 1.259103922683821e+00	 7.740232771246032e+00
 6.990020947745038e-01	 1.158380860233024e+00	 6.870654091866061e+00
 6.878525892043581e-01	 1.165036030152840e+00	 6.702259494431875e+00
 6.766533780574063e-01	 1.171575996682858e+00	 6.532402954335035e+00
 6.654062126402396e-01	 1.178000272937226e+00	 6.361716869880302e+00
 6.541128488317102e-01	 1.184308406808569e+00	 6.190798653467152e+00
 6.427750462370838e-01	 1.190499980955394e+00	 6.020210115889999e+00
 6.313945673462101e-01	 1.196574612765375e+00	 5.850477015345707e+00
 6.199731766964944e-01	 1.202531954294777e+00	 5.682088774010912e+00
 6.085126400414324e-01	 1.208371692184314e+00	 5.515498363914263e+00
 5.970147235254675e-01	 1.214093547551742e+00	 5.351122362682634e+00
 5.854811928658988e-01	 1.219697275861546e+00	 5.189341178601619e+00
 7.050800294215445e-01	 1.168453166477406e+00	 6.972571570527658e+00
 6.938335771230913e-01	 1.175166204160498e+00	 6.804336526731665e+00
 6.825369870499085e-01	 1.181763036741989e+00	 6.634157054713528e+00
 6.711920257364831e-01	 1.188243173102471e+00	 6.462741733964349e+00
 6.598004643293180e-01	 1.194606157203421e+00	 6.290765567490778e+00
 6.483640777337321e-01	 1.200851568074494e+00	 6.118869189441702e+00
 6.368846437647107e-01	 1.206979019776483e+00	 5.947658245299902e+00
 6.253639423025976e-01	 1.212988161340228e+00	 5.777702948028868e+00
 6.138037544544011e-01	 1.218878676681729e+00	 5.609537812353590e+00
 6.022058617214769e-01	 1.224650284493814e+00	 5.443661568144259e+00
 5.905720451743232e-01	 1.230302738114690e+00	 5.280537252656163e+00
 7.111579640692864e-01	 1.178525472721586e+00	 7.074025130528930e+00
 6.998145650425627e-01	 1.185296378167948e+00	 6.905763385630458e+00
 6.884205960431805e-01	 1.191950076800887e+00	 6.735230883887651e+00
 6.769778388335221e-01	 1.198486073267448e+00	 6.563191121930124e+00
 6.654880798277428e-01	 1.204903907597964e+00	 6.390374832386750e+00
 6.539531092312145e-01	 1.211203155193238e+00	 6.217479044651400e+00
 6.423747201840585e-01	 1.217383426787191e+00	 6.045166326918278e+00
 6.307547079095568e-01	 1.223444368385236e+00	 5.874064213367202e+00
 6.190948688682321e-01	 1.229385661178664e+00	 5.704764819093127e+00
 6.073969999183526e-01	 1.235207021435382e+00	 5.537824644088014e+00
 5.956628974836145e-01	 1.240908200367320e+00	 5.373764566296618e+00
 7.172358987175965e-01	 1.188597778965700e+00	 7.173977071731637e+00
 7.057955529626309e-01	 1.195426552175323e+00	 7.005599179427134e+00
 6.943042050370760e-01	 1.202137116859690e+00	 6.834765490492887e+00
 6.827636519312091e-01	 1.208728973432299e+00	 6.662273713470958e+00
 6.711756953268371e-01	 1.215201657992343e+00	 6.488889013570299e+00
 6.595421407293851e-01	 1.221554742311777e+00	 6.315342955650101e+00
 6.478647966041097e-01	 1.227787833797650e+00	 6.142332638045929e+00
 6.361454735172325e-01	 1.233900575429954e+00	 5.970520021569069e+00
 6.243859832827892e-01	 1.239892645675276e+00	 5.800531456648616e+00
 6.125881381159595e-01	 1.245763758376599e+00	 5.632957410221236e+00
 6.007537497936387e-01	 1.251513662619583e+00	 5.468352392610948e+00
 7.233138333663404e-01	 1.198670085209880e+00	 7.271372213541294e+00
 7.117765408831545e-01	 1.205556726182756e+00	 7.102882863308555e+00
 7.001878140314488e-01	 1.212324156918533e+00	 6.931879626332892e+00
 6.885494650293961e-01	 1.218971873597163e+00	 6.759174260586073e+00
 6.768633108264530e-01	 1.225499408386700e+00	 6.585545614291465e+00
 6.651311722280985e-01	 1.231906329430256e+00	 6.411738479481709e+00
 6.533548730247225e-01	 1.238192240808011e+00	 6.238462646856155e+00
 6.415362391254857e-01	 1.244356782474537e+00	 6.066392166685889e+00
 6.296770976979353e-01	 1.250399630171718e+00	 5.896164819067087e+00
 6.177792763141637e-01	 1.256320495317618e+00	 5.728381795386969e+00
 6.058446021042631e-01	 1.262119124871628e+00	 5.563607591417275e+00
 7.293917680153849e-01	 1.208742391454260e+00	 7.365139052518689e+00
 7.177575288039909e-01	 1.215686900190384e+00	 7.196634461319619e+00
 7.060714230261527e-01	 1.222511196977553e+00	 7.025671011095506e+00
 6.943352781279344e-01	 1.229214773762180e+00	 6.853054874258453e+00
 6.825509263264434e-01	 1.235797158781181e+00	 6.679558364332247e+00
 6.707202037272084e-01	 1.242257916548825e+00	 6.505918727725458e+00
 6.588449494457542e-01	 1.248596647818427e+00	 6.332837148164894e+00
 6.469270047341766e-01	 1.254812989519139e+00	 6.160977968916566e+00
 6.349682121135349e-01	 1.260906614668146e+00	 5.990968136398191e+00
 6.229704145128311e-01	 1.266877232258593e+00	 5.823396867255364e+00
 6.109354544153536e-01	 1.272724587123605e+00	 5.658815539451078e+00
 7.354697026645965e-01	 1.218814697698973e+00	 7.454190914213604e+00
 7.237385167249997e-01	 1.225817074198339e+00	 7.285856277618272e+00
 7.119550320210415e-01	 1.232698237036888e+00	 7.115217582487517e+00
 7.001210912266769e-01	 1.239457673927491e+00	 6.943056293718822e+00
 6.882385418266602e-01	 1.246094909175930e+00	 6.770118489453012e+00
 6.763092352265702e-01	 1.252609503667632e+00	 6.597113617990597e+00
 6.643350258670618e-01	 1.259001054829048e+00	 6.424713479654647e+00
 6.523177703431660e-01	 1.265269196563912e+00	 6.253551439072593e+00
 6.402593265294509e-01	 1.271413599164713e+00	 6.084221871743827e+00
 6.281615527118272e-01	 1.277433969199677e+00	 5.917279847140490e+00
 6.160263067267772e-01	 1.283330049375665e+00	 5.753241048975621e+00
 7.415476373138414e-01	 1.228887003944152e+00	 7.537425037457812e+00
 7.297195046460387e-01	 1.235947248206757e+00	 7.369534097626453e+00
 7.178386410159693e-01	 1.242885277096673e+00	 7.199578732619240e+00
 7.059069043254754e-01	 1.249700574093236e+00	 7.028299139293469e+00
 6.939261573269566e-01	 1.256392659571090e+00	 6.856395962694251e+00
 6.818982667260381e-01	 1.262961090786825e+00	 6.684531106436509e+00
 6.698251022885027e-01	 1.269405461840026e+00	 6.513326719163245e+00
 6.577085359523145e-01	 1.275725403609012e+00	 6.343364424969839e+00
 6.455504409455475e-01	 1.281920583661573e+00	 6.175184801885377e+00
 6.333526909110180e-01	 1.287990706141024e+00	 6.009287110795071e+00
 6.211171590384007e-01	 1.293935511627957e+00	 5.846129275482596e+00
 7.476255719629862e-01	 1.238959310189931e+00	 7.613604753140594e+00
 7.357004925669669e-01	 1.246077422215770e+00	 7.446638379651673e+00
 7.237222500107895e-01	 1.253072317157047e+00	 7.277796531425684e+00
 7.116927174241821e-01	 1.259943474259555e+00	 7.107885149768141e+00
 6.996137728271845e-01	 1.266690409966807e+00	 6.937540738563461e+00
 6.874872982254658e-01	 1.273312677906552e+00	 6.767358402398887e+00
 6.753151787099341e-01	 1.279809868851512e+00	 6.597890864111189e+00
 6.630993015614824e-01	 1.286181610654593e+00	 6.429647740774877e+00
 6.508415553616881e-01	 1.292427568158883e+00	 6.263095082423234e+00
 6.385438291102695e-01	 1.298547443082786e+00	 6.098655175982490e+00
 6.262080113500901e-01	 1.304540973880630e+00	 5.936706615102768e+00
 7.537035066118964e-01	 1.249031616436443e+00	 7.681568431446845e+00
 7.416814804876423e-01	 1.256207596225515e+00	 7.516123392115578e+00
 7.296058590053568e-01	 1.263259357218145e+00	 7.348896937850506e+00
 7.174785305226484e-01	 1.270186374426589e+00	 7.180898405143720e+00
 7.053013883271967e-01	 1.276988160363224e+00	 7.012683971072411e+00
 6.930763297247083e-01	 1.283664265026961e+00	 6.844763166130712e+00
 6.808052551312136e-01	 1.290214275863659e+00	 6.677599994078497e+00
 6.684900671705307e-01	 1.296637817700806e+00	 6.511612280267983e+00
 6.561326697777359e-01	 1.302934552656797e+00	 6.347171298302012e+00
 6.437349673094476e-01	 1.309104180025117e+00	 6.184601677570173e+00
 6.312988636617130e-01	 1.315146436133834e+00	 6.024181592308159e+00
 7.597814412604397e-01	 1.259103922683821e+00	 7.740232771246032e+00
 7.476624684079234e-01	 1.266337770236125e+00	 7.576845626277215e+00
 7.354894679995240e-01	 1.273446397280105e+00	 7.411890999477286e+00
 7.232643436207274e-01	 1.280429274594478e+00	 7.246406535595332e+00
 7.109890038268452e-01	 1.287285910760486e+00	 7.080939216529146e+00
 6.986653612236197e-01	 1.294015852148201e+00	 6.915894690601479e+00
 6.862953315521984e-01	 1.300618682876617e+00	 6.751629417470564e+00
 6.738808327793194e-01	 1.307094024747807e+00	 6.588450114921571e+00
 6.614237841935553e-01	 1.313441537155469e+00	 6.426613500540689e+00
 6.489261055084177e-01	 1.319660916968172e+00	 6.266326330845730e+00
 6.363897159731353e-01	 1.325751898387718e+00	 6.107745738448351e+00
 5.854811928658988e-01	 1.219697275861546e+00	 5.189341178601619e+00
 5.739118430920152e-01	 1.225183589130536e+00	 5.029491222072168e+00
 5.623103948907325e-01	 1.230551347495057e+00	 4.870962929163769e+00
 5.506786081954017e-01	 1.235800407532495e+00	 4.714084791286927e+00
 5.390182393442218e-01	 1.240930659445580e+00	 4.559153675167844e+00
 5.273310403073047e-01	 1.245942026824119e+00	 4.406435840735255e+00
 5.156187579247797e-01	 1.250834466386342e+00	 4.256168099817286e+00
 5.038831331565337e-01	 1.255607967700346e+00	 4.108559107941002e+00
 4.921259003441603e-01	 1.260262552886162e+00	 3.963790780701276e+00
 4.803487864856610e-01	 1.264798276298975e+00	 3.822019825402410e+00
 4.685535105234227e-01	 1.269215224194041e+00	 3.683379377986765e+00
 5.905720451743232e-01	 1.230302738114690e+00	 5.280537252656163e+00
 5.789020980599773e-01	 1.235836755752269e+00	 5.119578185365957e+00
 5.671997734173149e-01	 1.241251187631592e+00	 4.960199984507281e+00
 5.554668464825784e-01	 1.246545889082964e+00	 4.802735129871157e+00
 5.437050888655991e-01	 1.251720749354408e+00	 4.647483566183745e+00
 5.319162677701395e-01	 1.256775691371333e+00	 4.494713761220908e+00
 5.201021452253736e-01	 1.261710671475623e+00	 4.344663914168699e+00
 5.082644773291033e-01	 1.266525679144670e+00	 4.197543306169018e+00
 4.964050135032905e-01	 1.271220736690840e+00	 4.053533784109359e+00
 4.845254957624511e-01	 1.275795898941942e+00	 3.912791367900786e+00
 4.726276579954414e-01	 1.280251252903235e+00	 3.775447970749085e+00
 5.956628974836145e-01	 1.240908200367320e+00	 5.373764566296620e+00
 5.838923530288050e-01	 1.246489922373488e+00	 5.212036418935538e+00
 5.720891519447603e-01	 1.251951027767632e+00	 5.052059174292560e+00
 5.602550847706137e-01	 1.257291370632969e+00	 4.894169270888431e+00
 5.483919383878298e-01	 1.262510839262813e+00	 4.738669694611404e+00
 5.365014952338218e-01	 1.267609355918169e+00	 4.585831075557360e+00
 5.245855325268084e-01	 1.272586876564579e+00	 4.435892945089929e+00
 5.126458215025071e-01	 1.277443390588720e+00	 4.289065144700379e+00
 5.006841266632485e-01	 1.282178920495294e+00	 4.145529377305729e+00
 4.887022050400628e-01	 1.286793521584735e+00	 4.005440890755539e+00
 4.767018054682765e-01	 1.291287281612299e+00	 3.868930282526328e+00
 6.007537497936387e-01	 1.251513662619583e+00	 5.468352392610948e+00
 5.888826079983641e-01	 1.257143088994339e+00	 5.306174830081995e+00
 5.769785304729307e-01	 1.262650867903312e+00	 5.145831259194463e+00
 5.650433230593664e-01	 1.268036852182632e+00	 4.987661958535316e+00
 5.530787879107674e-01	 1.273300929170903e+00	 4.831972824067654e+00
 5.410867226981989e-01	 1.278443020464724e+00	 4.679036503245039e+00
 5.290689198289251e-01	 1.283463081653289e+00	 4.529093699883746e+00
 5.170271656765798e-01	 1.288361102032565e+00	 4.382354641003323e+00
 5.049632398238622e-01	 1.293137104299582e+00	 4.239000695844313e+00
 4.928789143183179e-01	 1.297791144227397e+00	 4.099186136342890e+00
 4.807759529417441e-01	 1.302323310321264e+00	 3.963040027496299e+00
 6.058446021042631e-01	 1.262119124871628e+00	 5.563607591417276e+00
 5.938728629685197e-01	 1.267796255614963e+00	 5.401281563568574e+00
 5.818679090016896e-01	 1.273350708038766e+00	 5.240787858400010e+00
 5.698315613486947e-01	 1.278782333732078e+00	 5.082470389856201e+00
 5.577656374342653e-01	 1.284091019078790e+00	 4.926637741464019e+00
 5.456719501631183e-01	 1.289276685011095e+00	 4.773564336315506e+00
 5.335523071315649e-01	 1.294339286741840e+00	 4.623491788936462e+00
 5.214085098511555e-01	 1.299278813476273e+00	 4.476630429872237e+00
 5.092423529849593e-01	 1.304095288103759e+00	 4.333160992755774e+00
 4.970556235970382e-01	 1.308788766869972e+00	 4.193236452632952e+00
 4.848501004156609e-01	 1.313359339030164e+00	 4.056984003416712e+00
 6.109354544153536e-01	 1.272724587123605e+00	 5.658815539451076e+00
 5.988631179391376e-01	 1.278449422235504e+00	 5.496624826708304e+00
 5.867572875308998e-01	 1.284050548174128e+00	 5.336182172553540e+00
 5.746197996384581e-01	 1.289527815281429e+00	 5.177834838466477e+00
 5.624524869581772e-01	 1.294881108986584e+00	 5.021893784385584e+00
 5.502571776284277e-01	 1.300110349557380e+00	 4.868634873198726e+00
 5.380356944345687e-01	 1.305215491830311e+00	 4.718300268859291e+00
 5.257898540260687e-01	 1.310196524919915e+00	 4.571100018575584e+00
 5.135214661463678e-01	 1.315053471907881e+00	 4.427213808379953e+00
 5.012323328760455e-01	 1.319786389512505e+00	 4.286792880330736e+00
 4.889242478898432e-01	 1.324395367739031e+00	 4.149962098636776e+00
 6.160263067267772e-01	 1.283330049375665e+00	 5.753241048975620e+00
 6.038533729100830e-01	 1.289102588856105e+00	 5.591453706478317e+00
 5.916466660604244e-01	 1.294750388309532e+00	 5.431249702213766e+00
 5.794080379285149e-01	 1.300273296830808e+00	 5.272979277154997e+00
 5.671393364823564e-01	 1.305671198894395e+00	 5.116955370606548e+00
 5.548424050939745e-01	 1.310944014103675e+00	 4.963454857876766e+00
 5.425190817377773e-01	 1.316091696918788e+00	 4.812719993961110e+00
 5.301711982011538e-01	 1.321114236363558e+00	 4.664960053284070e+00
 5.178005793079156e-01	 1.326011655712003e+00	 4.520353154335254e+00
 5.054090421551619e-01	 1.330784012155036e+00	 4.379048256915919e+00
 4.929983953641071e-01	 1.335431396447898e+00	 4.241167318682757e+00
 6.211171590384007e-01	 1.293935511627957e+00	 5.846129275482596e+00
 6.088436278812219e-01	 1.299755755476907e+00	 5.684998979119465e+00
 5.965360445901258e-01	 1.305450228445112e+00	 5.525208962078869e+00
 5.841962762187238e-01	 1.311018778380338e+00	 5.367111999431469e+00
 5.718261860066561e-01	 1.316461288802335e+00	 5.211022529619497e+00
 5.594276325596060e-01	 1.321777678650077e+00	 5.057217924021154e+00
 5.470024690410324e-01	 1.326967902007354e+00	 4.905939975579969e+00
 5.345525423762451e-01	 1.332031947807274e+00	 4.757396596136267e+00
 5.220796924694305e-01	 1.336969839516183e+00	 4.611763710812362e+00
 5.095857514342083e-01	 1.341781634797612e+00	 4.469187336611721e+00
 4.970725428382693e-01	 1.346467425156799e+00	 4.329785831295192e+00
 6.262080113500901e-01	 1.304540973880630e+00	 5.936706615102768e+00
 6.138338828524198e-01	 1.310408922098057e+00	 5.776473912649692e+00
 6.014254231198664e-01	 1.316150068581002e+00	 5.617262191222035e+00
 5.889845145089432e-01	 1.321764259930141e+00	 5.459426240077267e+00
 5.765130355309303e-01	 1.327251378710513e+00	 5.303281436066531e+00
 5.640128600251700e-01	 1.332611343196683e+00	 5.149105043833220e+00
 5.514858563441742e-01	 1.337844107096091e+00	 4.997137748824144e+00
 5.389338865511767e-01	 1.342949659251129e+00	 4.847585412334878e+00
 5.263588056307404e-01	 1.347928023320474e+00	 4.700621036437940e+00
 5.137624607130071e-01	 1.352779257440275e+00	 4.556386925380309e+00
 5.011466903121459e-01	 1.357503453865764e+00	 4.414997028871338e+00
 6.312988636617130e-01	 1.315146436133834e+00	 6.024181592308158e+00
 6.188241378235420e-01	 1.321062088719695e+00	 5.865075062689865e+00
 6.063148016495096e-01	 1.326849908717335e+00	 5.706596059563147e+00
 5.937727527990322e-01	 1.332509741480342e+00	 5.549100794758931e+00
 5.811998850550321e-01	 1.338041468619041e+00	 5.392904944964461e+00
 5.685980874905137e-01	 1.343445007743590e+00	 5.238284981320216e+00
 5.559692436470443e-01	 1.348720312185082e+00	 5.085479746307314e+00
 5.433152307257836e-01	 1.353867370695194e+00	 4.934692266711114e+00
 5.306379187916730e-01	 1.358886207124933e+00	 4.786091789997437e+00
 5.179391699913800e-01	 1.363776880083068e+00	 4.639816030094227e+00
 5.052208377855534e-01	 1.368539482574828e+00	 4.495973607330535e+00
 6.363897159731353e-01	 1.325751898387718e+00	 6.107745738448350e+00
 6.238143927944546e-01	 1.331715255341965e+00	 5.949983061978610e+00
 6.112041801789185e-01	 1.337549748854247e+00	 5.792382370787028e+00
 5.985609910888493e-01	 1.343255223031063e+00	 5.635300638757135e+00
 5.858867345788151e-01	 1.348831558528027e+00	 5.479053128624365e+00
 5.731833149554847e-01	 1.354278672290895e+00	 5.323914749761869e+00
 5.604526309494833e-01	 1.359596517274411e+00	 5.170121678486277e+00
 5.476965748998995e-01	 1.364785082139538e+00	 5.017873229225460e+00
 5.349170319520563e-01	 1.369844390929616e+00	 4.867333963357531e+00
 5.221158792691485e-01	 1.374774502726036e+00	 4.718636021095768e+00
 5.092949852583081e-01	 1.379575511284022e+00	 4.571881660484460e+00
 4.685535105234227e-01	 1.269215224194041e+00	 3.683379377986766e+00
 4.567437916298547e-01	 1.273512793677115e+00	 3.548066253743336e+00
 4.449193257625925e-01	 1.277691893824041e+00	 3.416082545424351e+00
 4.330818021909631e-01	 1.281752703450023e+00	 3.287309227961435e+00
 4.212328994532125e-01	 1.285695431739953e+00	 3.161611304618273e+00
 4.093742847183657e-01	 1.289520317831744e+00	 3.038840059689055e+00
 3.975076131639236e-01	 1.293227630384924e+00	 2.918835341261880e+00
 3.856345273697379e-01	 1.296817667135131e+00	 2.801427861094868e+00
 3.737566567283818e-01	 1.300290754435142e+00	 2.686441498608508e+00
 3.618756168723080e-01	 1.303647246783066e+00	 2.573774440818820e+00
 3.499930091180572e-01	 1.306887526338360e+00	 2.463196296666838e+00
 4.726276579954414e-01	 1.280251252903235e+00	 3.775447970749085e+00
 4.607152517134621e-01	 1.284586190438213e+00	 3.641657097665997e+00
 4.487879702304554e-01	 1.288801628527281e+00	 3.511340738065547e+00
 4.368475175042206e-01	 1.292897747540470e+00	 3.384321599049715e+00
 4.248955866681670e-01	 1.296874758481573e+00	 3.260405539181765e+00
 4.129338593876261e-01	 1.300732902567846e+00	 3.139384025022891e+00
 4.009640052321370e-01	 1.304472450794858e+00	 3.021036620929159e+00
 3.889876810640511e-01	 1.308093703487108e+00	 2.905133498298478e+00
 3.770065304437751e-01	 1.311596989835063e+00	 2.791437950400387e+00
 3.650221830519496e-01	 1.314982667419256e+00	 2.679744508420829e+00
 3.530362541288234e-01	 1.318251121722079e+00	 2.569887993919103e+00
 4.767018054682765e-01	 1.291287281612299e+00	 3.868930282526326e+00
 4.646867117978811e-01	 1.295659587199216e+00	 3.736096863317592e+00
 4.526566146991243e-01	 1.299911363230454e+00	 3.606785640275413e+00
 4.406132328182760e-01	 1.304042791630875e+00	 3.480782398179965e+00
 4.285582738839071e-01	 1.308054085223173e+00	 3.357855408751182e+00
 4.164934340576537e-01	 1.311945487303949e+00	 3.237758062679818e+00
 4.044203973010918e-01	 1.315717271204813e+00	 3.120231538739155e+00
 3.923408347590701e-01	 1.319369739839127e+00	 3.005007495316219e+00
 3.802564041598279e-01	 1.322903225235055e+00	 2.891810769643119e+00
 3.681687492321913e-01	 1.326318088055545e+00	 2.780368881275865e+00
 3.560794991401161e-01	 1.329614717105935e+00	 2.670537301228738e+00
 4.807759529417441e-01	 1.302323310321264e+00	 3.963040027496299e+00
 4.686581718829237e-01	 1.306732983960148e+00	 3.830601963211962e+00
 4.565252591684084e-01	 1.311021097933579e+00	 3.701648072398494e+00
 4.443789481329369e-01	 1.315187835721251e+00	 3.575947864273917e+00
 4.322209611002408e-01	 1.319233411964758e+00	 3.453252876057386e+00
 4.200530087282596e-01	 1.323158072040052e+00	 3.333299452873651e+00
 4.078767893706042e-01	 1.326962091614784e+00	 3.215811569192438e+00
 3.956939884546191e-01	 1.330645776191181e+00	 3.100503676306588e+00
 3.835062778763753e-01	 1.334209460635097e+00	 2.987083560278425e+00
 3.713153154128830e-01	 1.337653508691908e+00	 2.875255194794507e+00
 3.591227441518037e-01	 1.340978312489893e+00	 2.764836829415571e+00
 4.848501004156609e-01	 1.313359339030164e+00	 4.056984003416711e+00
 4.726296319684018e-01	 1.317806380721032e+00	 3.924383178289361e+00
 4.603939036381163e-01	 1.322130832636670e+00	 3.795154144791060e+00
 4.481446634480108e-01	 1.326332879811605e+00	 3.669070104926781e+00
 4.358836483169762e-01	 1.330412738706335e+00	 3.545886028527770e+00
 4.236125833992544e-01	 1.334370656776157e+00	 3.425341554117717e+00
 4.113331814404893e-01	 1.338206912024767e+00	 3.307163936416345e+00
 3.990471421505221e-01	 1.341921812543256e+00	 3.191071024158799e+00
 3.867561515932528e-01	 1.345515696035175e+00	 3.076774251810879e+00
 3.744618815938750e-01	 1.348988929328323e+00	 2.963981628768113e+00
 3.621659891637545e-01	 1.352341907873920e+00	 2.852471022333873e+00
 4.889242478898432e-01	 1.324395367739031e+00	 4.149962098636777e+00
 4.766010920541273e-01	 1.328879777481892e+00	 4.016645594995424e+00
 4.642625481080570e-01	 1.333240567339745e+00	 3.886525142250806e+00
 4.519103787633051e-01	 1.337477923901951e+00	 3.759396944612620e+00
 4.395463355339214e-01	 1.341592065447907e+00	 3.635038905828426e+00
 4.271721580704484e-01	 1.345583241512261e+00	 3.513213624796276e+00
 4.147895735105640e-01	 1.349451732434755e+00	 3.393671443580252e+00
 4.024002958466032e-01	 1.353197848895341e+00	 3.276153530684636e+00
 3.900060253102954e-01	 1.356821931435271e+00	 3.160394982325933e+00
 3.776084477750171e-01	 1.360324349964761e+00	 3.046127924436056e+00
 3.652092341758370e-01	 1.363705503257981e+00	 2.933115690274823e+00
 4.929983953641071e-01	 1.335431396447898e+00	 4.241167318682755e+00
 4.805725521399126e-01	 1.339953174242752e+00	 4.106588564146812e+00
 4.681311925780395e-01	 1.344350302042820e+00	 3.974977431629853e+00
 4.556760940786273e-01	 1.348622967992295e+00	 3.846171796699501e+00
 4.432090227508840e-01	 1.352771392189478e+00	 3.719991351115359e+00
 4.307317327416527e-01	 1.356795826248366e+00	 3.596240667658373e+00
 4.182459655806439e-01	 1.360696552844742e+00	 3.474712323805080e+00
 4.057534495426867e-01	 1.364473885247428e+00	 3.355190066282504e+00
 3.932558990273389e-01	 1.368128166835365e+00	 3.237451998404753e+00
 3.807550139561593e-01	 1.371659770601200e+00	 3.121273772070167e+00
 3.682524791879195e-01	 1.375069098642042e+00	 3.006437553634181e+00
 4.970725428382693e-01	 1.346467425156799e+00	 4.329785831295196e+00
 4.845440122255691e-01	 1.351026571003636e+00	 4.193405680333841e+00
 4.719998370478725e-01	 1.355460036745912e+00	 4.059722391303390e+00
 4.594418093937849e-01	 1.359768012082651e+00	 3.928633557910919e+00
 4.468717099676719e-01	 1.363950718931055e+00	 3.800018884635216e+00
 4.342913074126779e-01	 1.368008410984471e+00	 3.673743295919784e+00
 4.217023576505449e-01	 1.371941373254725e+00	 3.549660111338862e+00
 4.091066032385963e-01	 1.375749921599503e+00	 3.427614267960505e+00
 3.965057727442184e-01	 1.379434402235443e+00	 3.307445570969807e+00
 3.839015801371514e-01	 1.382995191237614e+00	 3.188991953569113e+00
 3.712957241998704e-01	 1.386432694026069e+00	 3.072092727243635e+00
 5.011466903121459e-01	 1.357503453865764e+00	 4.414997028871337e+00
 4.885154723109094e-01	 1.362099967764568e+00	 4.276284780694835e+00
 4.758684815173651e-01	 1.366569771449036e+00	 4.139966361251622e+00
 4.632075247085855e-01	 1.370913056173025e+00	 4.006016523956358e+00
 4.505343971840935e-01	 1.375130045672641e+00	 3.874392598406333e+00
 4.378508820833343e-01	 1.379220995720574e+00	 3.745037619746945e+00
 4.251587497200829e-01	 1.383186193664695e+00	 3.617883531843297e+00
 4.124597569341564e-01	 1.387025957951556e+00	 3.492854444672516e+00
 3.997556464607692e-01	 1.390740637635486e+00	 3.369869926155479e+00
 3.870481463178440e-01	 1.394330611873978e+00	 3.248848308584207e+00
 3.743389692115581e-01	 1.397796289410027e+00	 3.129709989855574e+00
 5.052208377855534e-01	 1.368539482574828e+00	 4.495973607330537e+00
 4.924869323957448e-01	 1.373173364525571e+00	 4.354407961969489e+00
 4.797371259863261e-01	 1.377679506152209e+00	 4.214910612593739e+00
 4.669732400228361e-01	 1.382058100263431e+00	 4.077550325140083e+00
 4.541970843999565e-01	 1.386309372414241e+00	 3.942379070790704e+00
 4.414104567534333e-01	 1.390433580456678e+00	 3.809435151972531e+00
 4.286151417890743e-01	 1.394431014074651e+00	 3.678746410719548e+00
 4.158129106291910e-01	 1.398301994303576e+00	 3.550333498996011e+00
 4.030055201768266e-01	 1.402046873035477e+00	 3.424213190357213e+00
 3.901947124980864e-01	 1.405666032510267e+00	 3.300401712235999e+00
 3.773822142228509e-01	 1.409159884793883e+00	 3.178918078171553e+00
 5.092949852583081e-01	 1.379575511284022e+00	 4.571881660484460e+00
 4.964583924798878e-01	 1.384246761286669e+00	 4.426951614808540e+00
 4.836057704545645e-01	 1.388789240855448e+00	 4.283751335484513e+00
 4.707389553363446e-01	 1.393203144353878e+00	 4.142459880829023e+00
 4.578597716150689e-01	 1.397488699155860e+00	 4.003240299846516e+00
 4.449700314227850e-01	 1.401646165192779e+00	 3.866242731970219e+00
 4.320715338573344e-01	 1.405675834484585e+00	 3.731607598459590e+00
 4.191660643235239e-01	 1.409578030655552e+00	 3.599468864233669e+00
 4.062553938922261e-01	 1.413353108435399e+00	 3.469957348670106e+00
 3.933412786777291e-01	 1.417001453146457e+00	 3.343204063777055e+00
 3.804254592336176e-01	 1.420523480177601e+00	 3.219343558160328e+00
 3.499930091180572e-01	 1.306887526338360e+00	 2.463196296666838e+00
 3.381104200899027e-01	 1.310012002710184e+00	 2.355553967466123e+00
 3.262294216701611e-01	 1.313021113300007e+00	 2.251993048141433e+00
 3.143515699831197e-01	 1.315915321927963e+00	 2.152295688187305e+00
 3.024784047438625e-01	 1.318695118020632e+00	 2.056267457568495e+00
 2.906114487910538e-01	 1.321361016074400e+00	 1.963738483763654e+00
 2.787522076378801e-01	 1.323913555110562e+00	 1.874564143365802e+00
 2.669021690412250e-01	 1.326353298122808e+00	 1.788625336048195e+00
 2.550628025891503e-01	 1.328680831517753e+00	 1.705828369736863e+00
 2.432355593067135e-01	 1.330896764549116e+00	 1.626104486643057e+00
 2.314218712801453e-01	 1.333001728746217e+00	 1.549409060400233e+00
 3.530362541288234e-01	 1.318251121722079e+00	 2.569887993919103e+00
 3.410503440946264e-01	 1.321402765914312e+00	 2.462807821324517e+00
 3.290660384994469e-01	 1.324438041200693e+00	 2.359705955620034e+00
 3.170849069983250e-01	 1.327357415434335e+00	 2.260346518769206e+00
 3.051085026944165e-01	 1.330161382297453e+00	 2.164521353307260e+00
 2.931383616677157e-01	 1.332850460760052e+00	 2.072051036645088e+00
 2.811760025220894e-01	 1.335425194530294e+00	 1.982785425376286e+00
 2.692229259507091e-01	 1.337886151497183e+00	 1.896603759370818e+00
 2.572806143199425e-01	 1.340233923166221e+00	 1.813414356504709e+00
 2.453505312717454e-01	 1.342469124088681e+00	 1.733153929710283e+00
 2.334341213445702e-01	 1.344592391285120e+00	 1.655786558636409e+00
 3.560794991401161e-01	 1.329614717105935e+00	 2.670537301228738e+00
 3.439902680997879e-01	 1.332793529118622e+00	 2.563422223877770e+00
 3.319026553290695e-01	 1.335854969101610e+00	 2.460285570196756e+00
 3.198182440137586e-01	 1.338799508940994e+00	 2.360866542588149e+00
 3.077386006450868e-01	 1.341627646574620e+00	 2.264936592206688e+00
 2.956652745443814e-01	 1.344339905446112e+00	 2.172300308826844e+00
 2.835997974061945e-01	 1.346936833950496e+00	 2.082795814958452e+00
 2.715436828599885e-01	 1.349419004872088e+00	 1.996294696055418e+00
 2.594984260504412e-01	 1.351787014815277e+00	 1.912701499760333e+00
 2.474655032364108e-01	 1.354041483628885e+00	 1.831952837996071e+00
 2.354463714085748e-01	 1.356183053824709e+00	 1.754016126323697e+00
 3.591227441518037e-01	 1.340978312489893e+00	 2.764836829415571e+00
 3.469301921052778e-01	 1.344184292323067e+00	 2.657171809135344e+00
 3.347392721589451e-01	 1.347271897002702e+00	 2.553581979574876e+00
 3.225515810293632e-01	 1.350241602447871e+00	 2.453774989396672e+00
 3.103686985958430e-01	 1.353093910852050e+00	 2.357495505708124e+00
 2.981921874210473e-01	 1.355829350132481e+00	 2.264525977036024e+00
 2.860235922902164e-01	 1.358448473371055e+00	 2.174686873565012e+00
 2.738644397691068e-01	 1.360951858247396e+00	 2.087836438631211e+00
 2.617162377807090e-01	 1.363340106464783e+00	 2.003869986605806e+00
 2.495804752007855e-01	 1.365613843169585e+00	 1.922718783192636e+00
 2.374586214722427e-01	 1.367773716364836e+00	 1.844348544786663e+00
 3.621659891637545e-01	 1.352341907873920e+00	 2.852471022333873e+00
 3.498701161109863e-01	 1.355575055527602e+00	 2.743822784922954e+00
 3.375758889889886e-01	 1.358688824903910e+00	 2.639436600457528e+00
 3.252849180450808e-01	 1.361683695954891e+00	 2.538982183039422e+00
 3.129987965466543e-01	 1.364560175129655e+00	 2.442171290174256e+00
 3.007191002977098e-01	 1.367318794819058e+00	 2.348758355630698e+00
 2.884473871741769e-01	 1.369960112791857e+00	 2.258540571312810e+00
 2.761851966781079e-01	 1.372484711622984e+00	 2.171357454383333e+00
 2.639340495108078e-01	 1.374893198114604e+00	 2.087089937057457e+00
 2.516954471649458e-01	 1.377186202710636e+00	 2.005659017402980e+00
 2.394708715356577e-01	 1.379364378905349e+00	 1.927024010115806e+00
 3.652092341758370e-01	 1.363705503257981e+00	 2.933115690274823e+00
 3.528100401168043e-01	 1.366965818732184e+00	 2.823132565679343e+00
 3.404125058191161e-01	 1.370105752805177e+00	 2.717681903883762e+00
 3.280182550608537e-01	 1.373125789461987e+00	 2.616389352783167e+00
 3.156288944974905e-01	 1.376026439407352e+00	 2.518927897988573e+00
 3.032460131743651e-01	 1.378808239505746e+00	 2.425018361564717e+00
 2.908711820580973e-01	 1.381471752212791e+00	 2.334429320236322e+00
 2.785059535870354e-01	 1.384017564998725e+00	 2.246976481644579e+00
 2.661518612408003e-01	 1.386446289764606e+00	 2.162521558460049e+00
 2.538104191289673e-01	 1.388758562251895e+00	 2.080970681094892e+00
 2.414831215989033e-01	 1.390955041446099e+00	 2.002272390414742e+00
 3.682524791879195e-01	 1.375069098642042e+00	 3.006437553634181e+00
 3.557499641226221e-01	 1.378356581936766e+00	 2.894849411883703e+00
 3.432491226492427e-01	 1.381522680706444e+00	 2.788141143812421e+00
 3.307515920766244e-01	 1.384567882969084e+00	 2.685888444756422e+00
 3.182589924483212e-01	 1.387492703685054e+00	 2.587719925852840e+00
 3.057729260510094e-01	 1.390297684192445e+00	 2.493317473854968e+00
 2.932949769419989e-01	 1.392983391633743e+00	 2.402415999547486e+00
 2.808267104959336e-01	 1.395550418374498e+00	 2.314802615787595e+00
 2.683696729707487e-01	 1.397999381414652e+00	 2.230315287464749e+00
 2.559253910929261e-01	 1.400330921793215e+00	 2.148840996640991e+00
 2.434953716620630e-01	 1.402545703986934e+00	 2.070313466799177e+00
 3.712957241998704e-01	 1.386432694026069e+00	 3.072092727243635e+00
 3.586898881283305e-01	 1.389747345141302e+00	 2.958712075733534e+00
 3.460857394792842e-01	 1.392939608607654e+00	 2.850628088769271e+00
 3.334849290923350e-01	 1.396009976476113e+00	 2.747361933494216e+00
 3.208890903991158e-01	 1.398958967962677e+00	 2.648492500446906e+00
 3.082998389276393e-01	 1.401787128879056e+00	 2.553657687868930e+00
 2.957187718259033e-01	 1.404495031054602e+00	 2.462553973363774e+00
 2.831474674048455e-01	 1.407083271750174e+00	 2.374935385505343e+00
 2.705874847007150e-01	 1.409552473064606e+00	 2.290611920283497e+00
 2.580403630568982e-01	 1.411903281334454e+00	 2.209447448271359e+00
 2.455076217252206e-01	 1.414136366527705e+00	 2.131357159082494e+00
 3.743389692115581e-01	 1.397796289410027e+00	 3.129709989855574e+00
 3.616298121338199e-01	 1.401138108345748e+00	 3.014449452724432e+00
 3.489223563091564e-01	 1.404356536508750e+00	 2.904946756391179e+00
 3.362182661079278e-01	 1.407452069983000e+00	 2.800682633585254e+00
 3.235191883498441e-01	 1.410425232240134e+00	 2.701181161602821e+00
 3.108267518042510e-01	 1.413276573565478e+00	 2.606031464730291e+00
 2.981425667098315e-01	 1.416006670475254e+00	 2.514887101334687e+00
 2.854682243138155e-01	 1.418616125125631e+00	 2.427464819940141e+00
 2.728052964307618e-01	 1.421105564714333e+00	 2.343542731889994e+00
 2.601553350209594e-01	 1.423475640875468e+00	 2.262957949214162e+00
 2.475198717884596e-01	 1.425727029068262e+00	 2.185603737019508e+00
 3.773822142228509e-01	 1.409159884793883e+00	 3.178918078171553e+00
 3.645697361389809e-01	 1.412528871550058e+00	 3.061780238800648e+00
 3.517589731387743e-01	 1.415773464409672e+00	 2.950891150701434e+00
 3.389516031233449e-01	 1.418894163489677e+00	 2.845713511422165e+00
 3.261492863004753e-01	 1.421891496517340e+00	 2.745711743138471e+00
 3.133536646808407e-01	 1.424766018251614e+00	 2.650421676120599e+00
 3.005663615938054e-01	 1.427518309895587e+00	 2.559449742570695e+00
 2.877889812228872e-01	 1.430148978500743e+00	 2.472471507175163e+00
 2.750231081609514e-01	 1.432658656363697e+00	 2.389229584792768e+00
 2.622703069851858e-01	 1.435048000416112e+00	 2.309530996749041e+00
 2.495321218518637e-01	 1.437317691608451e+00	 2.233244017925554e+00
 3.804254592336176e-01	 1.420523480177601e+00	 3.219343558160328e+00
 3.675096601437041e-01	 1.423919634754187e+00	 3.100412592772078e+00
 3.545955899680540e-01	 1.427190392310364e+00	 2.988245001974850e+00
 3.416849401385289e-01	 1.430336256996070e+00	 2.882307497048382e+00
 3.287793842509794e-01	 1.433357760794212e+00	 2.782000251484655e+00
 3.158805775574047e-01	 1.436255462937365e+00	 2.686801544738294e+00
 3.029901564778462e-01	 1.439029949315489e+00	 2.596266753251369e+00
 2.901097381321041e-01	 1.441681831875385e+00	 2.510026644577431e+00
 2.772409198913460e-01	 1.444211748012564e+00	 2.427785027965494e+00
 2.643852789496531e-01	 1.446620359956241e+00	 2.349315815852405e+00
 2.515443719155165e-01	 1.448908354148126e+00	 2.274459551434923e+00
 2.314218712801453e-01	 1.333001728746217e+00	 1.549409060400233e+00
 2.196211472671014e-01	 1.334996706940734e+00	 1.476117722890927e+00
 2.078367933431046e-01	 1.336882005717310e+00	 1.406606029475422e+00
 1.960701864331498e-01	 1.338658319337436e+00	 1.340823700157232e+00
 1.843226831247731e-01	 1.340326362036193e+00	 1.278739441619629e+00
 1.725956193830508e-01	 1.341886867430476e+00	 1.220338962066970e+00
 1.608903102836814e-01	 1.343340587925134e+00	 1.165622839239801e+00
 1.492080497640180e-01	 1.344688294117620e+00	 1.114604270688145e+00
 1.375501103919029e-01	 1.345930774201677e+00	 1.067306734561869e+00
 1.259177431521392e-01	 1.347068833370628e+00	 1.023761588225818e+00
 1.143121772504156e-01	 1.348103293220804e+00	 9.840056309422134e-01
 2.334341213445702e-01	 1.344592391285120e+00	 1.655786558636409e+00
 2.215307881551274e-01	 1.346604716133090e+00	 1.581706998414297e+00
 2.096439673952993e-01	 1.348506407883044e+00	 1.511312787111788e+00
 1.977750479626510e-01	 1.350298166833201e+00	 1.444570530883970e+00
 1.859253982404505e-01	 1.351980713429039e+00	 1.381468243894445e+00
 1.740963658101914e-01	 1.353554787666380e+00	 1.322013080317763e+00
 1.622892771823529e-01	 1.355021148492367e+00	 1.266228914766233e+00
 1.505054375452678e-01	 1.356380573204929e+00	 1.214153802073832e+00
 1.387461305319464e-01	 1.357633856851290e+00	 1.165837346483527e+00
 1.270126180046928e-01	 1.358781811626070e+00	 1.121338009265435e+00
 1.153061398573235e-01	 1.359825266269520e+00	 1.080720382644986e+00
 2.354463714085748e-01	 1.356183053824709e+00	 1.754016126323697e+00
 2.234404290427011e-01	 1.358212725326173e+00	 1.679301973401591e+00
 2.114511414470300e-01	 1.360130810049538e+00	 1.608225118359103e+00
 1.994799094916932e-01	 1.361938014329745e+00	 1.540761707593256e+00
 1.875281133556881e-01	 1.363635064822670e+00	 1.476911819773797e+00
 1.755971122369229e-01	 1.365222707903061e+00	 1.416696909913237e+00
 1.636882440806542e-01	 1.366701709060349e+00	 1.360157096751797e+00
 1.518028253261916e-01	 1.368072852292941e+00	 1.307348326318539e+00
 1.399421506717113e-01	 1.369336939501538e+00	 1.258339443576912e+00
 1.281074928570148e-01	 1.370494789882054e+00	 1.213209202962609e+00
 1.163001024640439e-01	 1.371547239318659e+00	 1.172043247407514e+00
 2.374586214722427e-01	 1.367773716364836e+00	 1.844348544786663e+00
 2.253500699299075e-01	 1.369820734519831e+00	 1.769181434384809e+00
 2.132583154983766e-01	 1.371755212216636e+00	 1.697643623923722e+00
 2.011847710203471e-01	 1.373577861826916e+00	 1.629713880244132e+00
 1.891308284705442e-01	 1.375289416216942e+00	 1.565397535583751e+00
 1.770978586632881e-01	 1.376890628140381e+00	 1.504723637653155e+00
 1.650872109786120e-01	 1.378382269628953e+00	 1.447741937567798e+00
 1.531002131068003e-01	 1.379765131381540e+00	 1.394519750504042e+00
 1.411381708111930e-01	 1.381040022152319e+00	 1.345138722918429e+00
 1.292023677090881e-01	 1.382207768138496e+00	 1.299691539003683e+00
 1.172940650705508e-01	 1.383269212368158e+00	 1.258278597743913e+00
 2.394708715356577e-01	 1.379364378905349e+00	 1.927024010115806e+00
 2.272597108168309e-01	 1.381428743713909e+00	 1.851613347858541e+00
 2.150654895494190e-01	 1.383379614384186e+00	 1.779857923235863e+00
 2.028896325486832e-01	 1.385217709324563e+00	 1.711732625647514e+00
 1.907335435850762e-01	 1.386943767611705e+00	 1.647241657952195e+00
 1.785986050893299e-01	 1.388558548378199e+00	 1.586415385510576e+00
 1.664861778762530e-01	 1.390062830198049e+00	 1.529307017283033e+00
 1.543976008871044e-01	 1.391457410470609e+00	 1.475989155931124e+00
 1.423341909503876e-01	 1.392743104803532e+00	 1.426550252777744e+00
 1.302972425608961e-01	 1.393920746395312e+00	 1.381091002235843e+00
 1.182880276768181e-01	 1.394991185417951e+00	 1.339720708912788e+00
 2.414831215989033e-01	 1.390955041446099e+00	 2.002272390414742e+00
 2.291693517035563e-01	 1.393036752908255e+00	 1.926855160987305e+00
 2.168726636002371e-01	 1.395004016552033e+00	 1.855146991256072e+00
 2.045944940767722e-01	 1.396857556822535e+00	 1.787112813444836e+00
 1.923362586993421e-01	 1.398598119006815e+00	 1.722749742473266e+00
 1.800993515150910e-01	 1.400226468616377e+00	 1.662083615938638e+00
 1.678851447736040e-01	 1.401743390767509e+00	 1.605165360009201e+00
 1.556949886671147e-01	 1.403149689560034e+00	 1.552067220345336e+00
 1.435302110892908e-01	 1.404446187455077e+00	 1.502878896002966e+00
 1.313921174124220e-01	 1.405633724652416e+00	 1.457703612935578e+00
 1.192819902828200e-01	 1.406713158467972e+00	 1.416654172232397e+00
 2.434953716620630e-01	 1.402545703986934e+00	 2.070313466799177e+00
 2.310789925901681e-01	 1.404644762102713e+00	 1.995154084461187e+00
 2.186798376509109e-01	 1.406628418720024e+00	 1.923779476126726e+00
 2.062993556046848e-01	 1.408497404320681e+00	 1.856138951917826e+00
 1.939389738133998e-01	 1.410252470402125e+00	 1.792217001459656e+00
 1.816000979406144e-01	 1.411894388854777e+00	 1.732029515769571e+00
 1.692841116706915e-01	 1.413423951337205e+00	 1.675619828574863e+00
 1.569923764468418e-01	 1.414841968649697e+00	 1.623054618438984e+00
 1.447262312278985e-01	 1.416149270106851e+00	 1.574419711826233e+00
 1.324869922636490e-01	 1.417346702909728e+00	 1.529815825817023e+00
 1.202759528885304e-01	 1.418435131518156e+00	 1.489354287612146e+00
 2.455076217252206e-01	 1.414136366527705e+00	 2.131357159082492e+00
 2.329886334767511e-01	 1.416252771297131e+00	 2.056747358522652e+00
 2.204870117015202e-01	 1.418252820888004e+00	 1.986013998771158e+00
 2.080042171324913e-01	 1.420137251818847e+00	 1.919085514790403e+00
 1.955416889273069e-01	 1.421906821797488e+00	 1.855928651983406e+00
 1.831008443659427e-01	 1.423562309093261e+00	 1.796544359934805e+00
 1.706830785675424e-01	 1.425104511907008e+00	 1.740963498772853e+00
 1.582897642262964e-01	 1.426534247739484e+00	 1.689242401876577e+00
 1.459222513662063e-01	 1.427852352758753e+00	 1.641458337327992e+00
 1.335818671145603e-01	 1.429059681167159e+00	 1.597704908998463e+00
 1.212699154939235e-01	 1.430157104568440e+00	 1.558087436491771e+00
 2.475198717884596e-01	 1.425727029068262e+00	 2.185603737019508e+00
 2.348982743633900e-01	 1.427860780491355e+00	 2.111862503123948e+00
 2.222941857521452e-01	 1.429877223055819e+00	 2.042099435466110e+00
 2.097090786602625e-01	 1.431777099316884e+00	 1.976217250104928e+00
 1.971444040411215e-01	 1.433561173192759e+00	 1.914160245327620e+00
 1.846015907911189e-01	 1.435230229331687e+00	 1.855909856156349e+00
 1.720820454641835e-01	 1.436785072476789e+00	 1.801480014342727e+00
 1.595871520054891e-01	 1.438226526829277e+00	 1.750912360011480e+00
 1.471182715042101e-01	 1.439555435410683e+00	 1.704271349717959e+00
 1.346767419651392e-01	 1.440772659424630e+00	 1.661639304070143e+00
 1.222638780989732e-01	 1.441879077618757e+00	 1.623111436303000e+00
 2.495321218518637e-01	 1.437317691608451e+00	 2.233244017925550e+00
 2.368079152501694e-01	 1.439468789685232e+00	 2.160717553113363e+00
 2.241013598028656e-01	 1.441501625223315e+00	 2.092275184351763e+00
 2.114139401880690e-01	 1.443416946814639e+00	 2.027789472182441e+00
 1.987471191549013e-01	 1.445215524587790e+00	 1.967177978898360e+00
 1.861023372161858e-01	 1.446898149569920e+00	 1.910398471682683e+00
 1.734810123606414e-01	 1.448465633046419e+00	 1.857443923775751e+00
 1.608845397844306e-01	 1.449918805918962e+00	 1.808337362380645e+00
 1.483142916419057e-01	 1.451258518062540e+00	 1.763126610515502e+00
 1.357716168153688e-01	 1.452485637682052e+00	 1.721878968326425e+00
 1.232578407036536e-01	 1.453601050669042e+00	 1.684675877497563e+00
 2.515443719155165e-01	 1.448908354148126e+00	 2.274459551434923e+00
 2.387175561371741e-01	 1.451076798878608e+00	 2.203521279287390e+00
 2.259085338537614e-01	 1.453126027390339e+00	 2.136771416778494e+00
 2.131188017159814e-01	 1.455056794311961e+00	 2.074048337618761e+00
 2.003498342687041e-01	 1.456869875982436e+00	 2.015238991582065e+00
 1.876030836411861e-01	 1.458566069807820e+00	 1.960273743074942e+00
 1.748799792569427e-01	 1.460146193615771e+00	 1.909120999962250e+00
 1.621819275631317e-01	 1.461611085008422e+00	 1.861781684001033e+00
 1.495103117792889e-01	 1.462961600714222e+00	 1.818283592642239e+00
 1.368664916652325e-01	 1.464198615939344e+00	 1.778675700165039e+00
 1.242518033079388e-01	 1.465323023719231e+00	 1.743022444118265e+00
 1.143121772504156e-01	 1.348103293220804e+00	 9.840056309422134e-01
 1.027365809164453e-01	 1.349034841428336e+00	 9.481682953662292e-01
 9.119014118165782e-02	 1.349864514582410e+00	 9.163148240787802e-01
 7.967399399167731e-02	 1.350593179204470e+00	 8.884058598278932e-01
 6.818925363292350e-02	 1.351221715822924e+00	 8.643978384060409e-01
 5.673701261698640e-02	 1.351751018393502e+00	 8.442407677172754e-01
 4.531834158049153e-02	 1.352181993722354e+00	 8.278760998846553e-01
 3.393428920019845e-02	 1.352515560892326e+00	 8.152347128285904e-01
 2.258588212306440e-02	 1.352752650692822e+00	 8.062350162047474e-01
 1.127412491099594e-02	 1.352894205053666e+00	 8.007811950351431e-01
 0.000000000000000e+00	 1.352941176483334e+00	 7.987616029664499e-01
 1.153061398573235e-01	 1.359825266269520e+00	 1.080720382644986e+00
 1.036298918678063e-01	 1.360764914437230e+00	 1.044124025551796e+00
 9.198305399868632e-02	 1.361601801731692e+00	 1.011604692499660e+00
 8.036677207282621e-02	 1.362336802208881e+00	 9.831221569251336e-01
 6.878217006555398e-02	 1.362970804053528e+00	 9.586318041106772e-01
 5.723034998803218e-02	 1.363504708994444e+00	 9.380821857776038e-01
 4.571239178625250e-02	 1.363939431722592e+00	 9.214126768006554e-01
 3.422935325539583e-02	 1.364275899312382e+00	 9.085512514475309e-01
 2.278226996928814e-02	 1.364515050646572e+00	 8.994123949119130e-01
 1.137215522467152e-02	 1.364657835845204e+00	 8.938951642536446e-01
 0.000000000000000e+00	 1.364705215698962e+00	 8.918814113749032e-01
 1.163001024640439e-01	 1.371547239318659e+00	 1.172043247407514e+00
 1.045232028190190e-01	 1.372494987446406e+00	 1.134982506815004e+00
 9.277596681560035e-02	 1.373339088881092e+00	 1.102066961397947e+00
 8.105955015388956e-02	 1.374080425213233e+00	 1.073252412257419e+00
 6.937508649812314e-02	 1.374719892283898e+00	 1.048490142016578e+00
 5.772368735903647e-02	 1.375258399594980e+00	 1.027724235322524e+00
 4.610644199198755e-02	 1.375696869722267e+00	 1.010889010897247e+00
 3.452441731057902e-02	 1.376036237731739e+00	 9.979065835620093e-01
 2.297865781550576e-02	 1.376277450599515e+00	 9.886845729178513e-01
 1.147018553834559e-02	 1.376421466635867e+00	 9.831139736151420e-01
 0.000000000000000e+00	 1.376469254913690e+00	 9.810672005642040e-01
 1.172940650705508e-01	 1.383269212368158e+00	 1.258278597743913e+00
 1.054165137700522e-01	 1.384225060455816e+00	 1.221034710650406e+00
 9.356887963236760e-02	 1.385076376030586e+00	 1.187978995568768e+00
 8.175232823483672e-02	 1.385824048217529e+00	 1.159060528748290e+00
 6.996800293060414e-02	 1.386468980514056e+00	 1.134223785465468e+00
 5.821702472997762e-02	 1.387012090195154e+00	 1.113405716088462e+00
 4.650049219768098e-02	 1.387454307721441e+00	 1.096532943494196e+00
 3.481948136573812e-02	 1.387796576150475e+00	 1.083519101328319e+00
 2.317504566171237e-02	 1.388039850551743e+00	 1.074262330745613e+00
 1.156821585201685e-02	 1.388185097425753e+00	 1.068642951419408e+00
 0.000000000000000e+00	 1.388233294127617e+00	 1.066521320926356e+00
 1.182880276768181e-01	 1.394991185417951e+00	 1.339720708912790e+00
 1.063098247208752e-01	 1.395955133465419e+00	 1.302561811687077e+00
 9.436179244895578e-02	 1.396813663180151e+00	 1.269608647560146e+00
 8.244510631563701e-02	 1.397567671221768e+00	 1.240801165814021e+00
 7.056091936297020e-02	 1.398218068744024e+00	 1.216074677074100e+00
 5.871036210083400e-02	 1.398765780795008e+00	 1.195356673846726e+00
 4.689454240331707e-02	 1.399211745720175e+00	 1.178563782621101e+00
 3.511454542086322e-02	 1.399556914568666e+00	 1.165598868130417e+00
 2.337143350790308e-02	 1.399802250503344e+00	 1.156348308412693e+00
 1.166624616568394e-02	 1.399948728214958e+00	 1.150679457349237e+00
 0.000000000000000e+00	 1.399997333340845e+00	 1.148438309577268e+00
 1.192819902828200e-01	 1.406713158467972e+00	 1.416654172232395e+00
 1.072031356714568e-01	 1.407685206475169e+00	 1.379835591797969e+00
 9.515470526533273e-02	 1.408550950329769e+00	 1.347214651816183e+00
 8.313788439625988e-02	 1.409311294225950e+00	 1.318720123085671e+00
 7.115383579519438e-02	 1.409967156973825e+00	 1.294276141881281e+00
 5.920369947158402e-02	 1.410519471394586e+00	 1.273798763122627e+00
 4.728859260888003e-02	 1.410969183718530e+00	 1.257192655751285e+00
 3.540960947594438e-02	 1.411317252986390e+00	 1.244347962063939e+00
 2.356782135407305e-02	 1.411564650454407e+00	 1.235137340688752e+00
 1.176427647934554e-02	 1.411712359003579e+00	 1.229413210812431e+00
 0.000000000000000e+00	 1.411761372553473e+00	 1.227005213373466e+00
 1.202759528885304e-01	 1.418435131518156e+00	 1.489354287612147e+00
 1.080964466217661e-01	 1.419415279485023e+00	 1.453118823983631e+00
 9.594761808146607e-02	 1.420288237479414e+00	 1.421046999165494e+00
 8.383066247667466e-02	 1.421054917230077e+00	 1.393054705046906e+00
 7.174675222724991e-02	 1.421716245203480e+00	 1.369053241972190e+00
 5.969703684220602e-02	 1.422273161993929e+00	 1.348945591930231e+00
 4.768264281435418e-02	 1.422726621716568e+00	 1.332622845055551e+00
 3.570467353097171e-02	 1.423077591403723e+00	 1.319960802399462e+00
 2.376420920021738e-02	 1.423327050405022e+00	 1.310816775739533e+00
 1.186230679300031e-02	 1.423475989791714e+00	 1.305026603008050e+00
 0.000000000000000e+00	 1.423525411765601e+00	 1.302401895915874e+00
 1.212699154939235e-01	 1.430157104568440e+00	 1.558087436491767e+00
 1.089897575717722e-01	 1.431145352494935e+00	 1.522665637191636e+00
 9.674053089732360e-02	 1.432025524629065e+00	 1.491347292783099e+00
 8.452344055685067e-02	 1.432798540234147e+00	 1.464034067684791e+00
 7.233966865910994e-02	 1.433465333433013e+00	 1.440623113644022e+00
 6.019037421267837e-02	 1.434026852593081e+00	 1.421003049553929e+00
 4.807669301972371e-02	 1.434484059714350e+00	 1.405050106179896e+00
 3.599973758593531e-02	 1.434837929820744e+00	 1.392624460005885e+00
 2.396059704633122e-02	 1.435089450355279e+00	 1.383566778109542e+00
 1.196033710664691e-02	 1.435239620579460e+00	 1.377694993652496e+00
 0.000000000000000e+00	 1.435289450977329e+00	 1.374801329458081e+00
 1.222638780989732e-01	 1.441879077618757e+00	 1.623111436302996e+00
 1.098830685214441e-01	 1.442875425504863e+00	 1.588721863153672e+00
 9.753344371287301e-02	 1.443762811778701e+00	 1.558349086679015e+00
 8.521621863675731e-02	 1.444542163238162e+00	 1.531879548175346e+00
 7.293258509074761e-02	 1.445214421662444e+00	 1.509195288103585e+00
 6.068371158297946e-02	 1.445780543192085e+00	 1.490169618345067e+00
 4.847074322497295e-02	 1.446241497711938e+00	 1.474662971484838e+00
 3.629480164082523e-02	 1.446598268237529e+00	 1.462518952641815e+00
 2.415698489240968e-02	 1.446851850305266e+00	 1.453560616936252e+00
 1.205836742028401e-02	 1.447003251366914e+00	 1.447586993235150e+00
 0.000000000000000e+00	 1.447053490188757e+00	 1.444369872579441e+00
 1.232578407036536e-01	 1.453601050669042e+00	 1.684675877497563e+00
 1.107763794707508e-01	 1.454605498514761e+00	 1.651525366259732e+00
 9.832635652808205e-02	 1.455500098928298e+00	 1.622278207701036e+00
 8.590899671636393e-02	 1.456285786242121e+00	 1.596804978562305e+00
 7.352550152213611e-02	 1.456963509891796e+00	 1.574971996629596e+00
 6.117704895308767e-02	 1.457534233790984e+00	 1.556636670429911e+00
 4.886479343008612e-02	 1.457998935709393e+00	 1.541643038622857e+00
 3.658986569563158e-02	 1.458358606654156e+00	 1.529817525973650e+00
 2.435337273844787e-02	 1.458614250255073e+00	 1.520964940227501e+00
 1.215639773391028e-02	 1.458766882154173e+00	 1.514864731624106e+00
 0.000000000000000e+00	 1.458817529399985e+00	 1.511267534425679e+00
 1.242518033079388e-01	 1.465323023719231e+00	 1.743022444118265e+00
 1.116696904196614e-01	 1.466335571524587e+00	 1.711306357415589e+00
 9.911926934291848e-02	 1.467237386077836e+00	 1.683353061973856e+00
 8.660177479563987e-02	 1.468029409246025e+00	 1.659016984324867e+00
 7.411841795324856e-02	 1.468712598121092e+00	 1.638148461067888e+00
 6.167038632298136e-02	 1.469287924389820e+00	 1.620588750180003e+00
 4.925884363504747e-02	 1.469756373706776e+00	 1.606165245274789e+00
 3.688492975034444e-02	 1.470118945070700e+00	 1.594686921115974e+00
 2.454976058444095e-02	 1.470376650204790e+00	 1.585940035984343e+00
 1.225442804752438e-02	 1.470530512941336e+00	 1.579684113784412e+00
 0.000000000000000e+00	 1.470581568611112e+00	 1.575648226270200e+00
 1.470581568611112e+00	 0.000000000000000e+00	 1.590825524050037e+01
 1.470530512941336e+00	 1.225442804752357e-02	 1.590470873533882e+01
 1.470376650204790e+00	 2.454976058444025e-02	 1.590240604440947e+01
 1.470118945070700e+00	 3.688492975034387e-02	 1.590102396667213e+01
 1.469756373706776e+00	 4.925884363504703e-02	 1.590024247791536e+01
 1.469287924389820e+00	 6.167038632298101e-02	 1.589974494178349e+01
 1.468712598121091e+00	 7.411841795324829e-02	 1.589921821565095e+01
 1.468029409246025e+00	 8.660177479563978e-02	 1.589835264667398e+01
 1.467237386077836e+00	 9.911926934291847e-02	 1.589684195407310e+01
 1.466335571524586e+00	 1.116696904196615e-01	 1.589438299449425e+01
 1.465323023719231e+00	 1.242518033079388e-01	 1.589067540816623e+01
 1.482347607828890e+00	 0.000000000000000e+00	 1.576626486963408e+01
 1.482296143665712e+00	 1.235247502727811e-02	 1.576230080668886e+01
 1.482141049882464e+00	 2.474618181832287e-02	 1.575982363948123e+01
 1.481881282864720e+00	 3.718004396885753e-02	 1.575847867064927e+01
 1.481515810588530e+00	 4.965296083240342e-02	 1.575791912669698e+01
 1.481043613235921e+00	 6.216380756503519e-02	 1.575779962099864e+01
 1.480463683815191e+00	 7.471143518591378e-02	 1.575777407411469e+01
 1.479775028785571e+00	 8.729467065391174e-02	 1.575750785873993e+01
 1.478976668685831e+00	 9.991231696063552e-02	 1.575667238603881e+01
 1.478067638766360e+00	 1.125631532401379e-01	 1.575494488397855e+01
 1.477046989624252e+00	 1.252459348956029e-01	 1.575200807369510e+01
 1.494113647046668e+00	 0.000000000000000e+00	 1.562592638700285e+01
 1.494061774390086e+00	 1.245052200702185e-02	 1.562152582463051e+01
 1.493905449560133e+00	 2.494260305216549e-02	 1.561877145969791e+01
 1.493643620658724e+00	 3.747515818728844e-02	 1.561727411055973e+01
 1.493275247470255e+00	 5.004707802962570e-02	 1.561665426928664e+01
 1.492799302081979e+00	 6.265722880690039e-02	 1.561654264302297e+01
 1.492214769509225e+00	 7.530445241833687e-02	 1.561658062555041e+01
 1.491520648325025e+00	 8.798756651189454e-02	 1.561642069158603e+01
 1.490715951293703e+00	 1.007053645780284e-01	 1.561572670570512e+01
 1.489799706007974e+00	 1.134566160602726e-01	 1.561417413714656e+01
 1.488770955529069e+00	 1.262400664829298e-01	 1.561145017111022e+01
 1.505879686264445e+00	 0.000000000000000e+00	 1.549109819229662e+01
 1.505827405114457e+00	 1.254856898675748e-02	 1.548629731411940e+01
 1.505669849237790e+00	 2.513902428597809e-02	 1.548330188256575e+01
 1.505405958452705e+00	 3.777027240565728e-02	 1.548169032669547e+01
 1.505034684351938e+00	 5.044119522674748e-02	 1.548105244205819e+01
 1.504554990927970e+00	 6.315065004862386e-02	 1.548099000938093e+01
 1.503965855203165e+00	 7.589746965057818e-02	 1.548111734630075e+01
 1.503266267864353e+00	 8.868046236966054e-02	 1.548106178460535e+01
 1.502455233901412e+00	 1.014984121951784e-01	 1.548046406474823e+01
 1.501531773249384e+00	 1.143500788801508e-01	 1.547897863872966e+01
 1.500494921433641e+00	 1.272341980700039e-01	 1.547627387173876e+01
 1.517645725482223e+00	 0.000000000000000e+00	 1.536149722539770e+01
 1.517593035838824e+00	 1.264661596648770e-02	 1.535634068856267e+01
 1.517434248915431e+00	 2.533544551977069e-02	 1.535314753686800e+01
 1.517168296246649e+00	 3.806538662398475e-02	 1.535146589045029e+01
 1.516794121233559e+00	 5.083531242380218e-02	 1.535085686757533e+01
 1.516310679773870e+00	 6.364407129025282e-02	 1.535089527786095e+01
 1.515716940896979e+00	 7.649048688269829e-02	 1.535117025174697e+01
 1.515011887403517e+00	 8.937335822728194e-02	 1.535128579862841e+01
 1.514194516508917e+00	 1.022914598121663e-01	 1.535086128531293e+01
 1.513263840490549e+00	 1.152435416998582e-01	 1.534953182574079e+01
 1.512218887337924e+00	 1.282283296569095e-01	 1.534694857216250e+01
 1.529411764700000e+00	 0.000000000000000e+00	 1.523685855800639e+01
 1.529358666563186e+00	 1.274466294621522e-02	 1.523139677657080e+01
 1.529198648593051e+00	 2.553186675355328e-02	 1.522805389008275e+01
 1.528930634040547e+00	 3.836050084229153e-02	 1.522634977723642e+01
 1.528553558115104e+00	 5.122942962082340e-02	 1.522581888107437e+01
 1.528066368619655e+00	 6.413749253183455e-02	 1.522601097390052e+01
 1.527468026590637e+00	 7.708350411475780e-02	 1.522649186202404e+01
 1.526757506942481e+00	 9.006625408483106e-02	 1.522684402272608e+01
 1.525933799116178e+00	 1.030845074290733e-01	 1.522666716502044e+01
 1.524995907731425e+00	 1.161370045194802e-01	 1.522557870501031e+01
 1.523942853241876e+00	 1.292224612437308e-01	 1.522321414584949e+01
 1.541177803917777e+00	 0.000000000000000e+00	 1.511693470172808e+01
 1.541124297287540e+00	 1.284270992594274e-02	 1.511122118062350e+01
 1.540963048270644e+00	 2.572828798733588e-02	 1.510777865726083e+01
 1.540692971834390e+00	 3.865561506059829e-02	 1.510610082515776e+01
 1.540312994996554e+00	 5.162354681784458e-02	 1.510569743846449e+01
 1.539822057465303e+00	 6.463091377341630e-02	 1.510609514566497e+01
 1.539219112284110e+00	 7.767652134681734e-02	 1.510683826709703e+01
 1.538503126481211e+00	 9.075914994238019e-02	 1.510748950867859e+01
 1.537673081723154e+00	 1.038775550459802e-01	 1.510763060334126e+01
 1.536727974971971e+00	 1.170304673391021e-01	 1.510686287085370e+01
 1.535666819145457e+00	 1.302165928305521e-01	 1.510480768586966e+01
 1.552943843135555e+00	 0.000000000000000e+00	 1.500149494762713e+01
 1.552889928011887e+00	 1.294075690567297e-02	 1.499558366494327e+01
 1.552727447948206e+00	 2.592470922112847e-02	 1.499209123695377e+01
 1.552455309628167e+00	 3.895072927892575e-02	 1.499048721867982e+01
 1.552072431877894e+00	 5.201766401489929e-02	 1.499025864737688e+01
 1.551577746310789e+00	 6.512433501504528e-02	 1.499091094206140e+01
 1.550970197977366e+00	 7.826953857893741e-02	 1.499196875126904e+01
 1.550248746019667e+00	 9.145204580000157e-02	 1.499297674144953e+01
 1.549412364329805e+00	 1.046706026629681e-01	 1.499350031744786e+01
 1.548460042212142e+00	 1.179239301588094e-01	 1.499312626565238e+01
 1.547390785048624e+00	 1.312107244174577e-01	 1.499146330948705e+01
 1.564709882353332e+00	 0.000000000000000e+00	 1.489032473559115e+01
 1.564655558736223e+00	 1.303880388540860e-02	 1.488426757103869e+01
 1.564491847625732e+00	 2.612113045494107e-02	 1.488077217276754e+01
 1.564217647421867e+00	 3.924584349729461e-02	 1.487928599597983e+01
 1.563831868759106e+00	 5.241178121202104e-02	 1.487927532004921e+01
 1.563333435156090e+00	 6.561775625676872e-02	 1.488022621084426e+01
 1.562721283670375e+00	 7.886255581117872e-02	 1.488164543614272e+01
 1.561994365557816e+00	 9.214494165776754e-02	 1.488306132658185e+01
 1.561151646936090e+00	 1.054636502801181e-01	 1.488402457356455e+01
 1.560192109451897e+00	 1.188173929786877e-01	 1.488410895461679e+01
 1.559114750951333e+00	 1.322048560045318e-01	 1.488291197573256e+01
 1.576475921571110e+00	 0.000000000000000e+00	 1.478322505194828e+01
 1.576421189460549e+00	 1.313685086515234e-02	 1.477706925947270e+01
 1.576256247303216e+00	 2.631755168878368e-02	 1.477361263920379e+01
 1.575979985215480e+00	 3.954095771572551e-02	 1.477228257874005e+01
 1.575591305640175e+00	 5.280589840924334e-02	 1.477252654690410e+01
 1.575089124001182e+00	 6.611117749863392e-02	 1.477381311576368e+01
 1.574472369363108e+00	 7.945557304360179e-02	 1.477563294107096e+01
 1.573739985095621e+00	 9.283783751575034e-02	 1.477749969363032e+01
 1.572890929541969e+00	 1.062566978975110e-01	 1.477895093300480e+01
 1.571924176691192e+00	 1.197108557988223e-01	 1.477954891399155e+01
 1.570838716853544e+00	 1.331989875918587e-01	 1.477888131527793e+01
 1.588241960788888e+00	 0.000000000000000e+00	 1.468001185387223e+01
 1.588186820184863e+00	 1.323489784490688e-02	 1.467379757649441e+01
 1.588020646980655e+00	 2.651397292266631e-02	 1.467041395052819e+01
 1.587742323008995e+00	 3.983607193423917e-02	 1.466927032321972e+01
 1.587350742521082e+00	 5.320001560659974e-02	 1.466979728974797e+01
 1.586844812846042e+00	 6.660459874068812e-02	 1.467144777176765e+01
 1.586223455055534e+00	 8.004859027626729e-02	 1.467369806018975e+01
 1.585485604633047e+00	 9.353073337402233e-02	 1.467604881479924e+01
 1.584630212147402e+00	 1.070497455152281e-01	 1.467802601213314e+01
 1.583656243929986e+00	 1.206043186192988e-01	 1.467918183200394e+01
 1.582562682755214e+00	 1.341931191795227e-01	 1.467909547197287e+01
 1.465323023719231e+00	 1.242518033079388e-01	 1.589067540816623e+01
 1.464198615939344e+00	 1.368664916652319e-01	 1.588638874921847e+01
 1.462961600714222e+00	 1.495103117792884e-01	 1.588225100521181e+01
 1.461611085008422e+00	 1.621819275631313e-01	 1.587805290669972e+01
 1.460146193615772e+00	 1.748799792569423e-01	 1.587358968354736e+01
 1.458566069807820e+00	 1.876030836411857e-01	 1.586866011371485e+01
 1.456869875982435e+00	 2.003498342687038e-01	 1.586306545580467e+01
 1.455056794311961e+00	 2.131188017159812e-01	 1.585660827100248e+01
 1.453126027390339e+00	 2.259085338537612e-01	 1.584909114141322e+01
 1.451076798878608e+00	 2.387175561371740e-01	 1.584031529320583e+01
 1.448908354148126e+00	 2.515443719155165e-01	 1.583007913442106e+01
 1.477046989624252e+00	 1.252459348956029e-01	 1.575200807369510e+01
 1.475913585522211e+00	 1.379615526546210e-01	 1.574857182272525e+01
 1.474666673009069e+00	 1.507065352519896e-01	 1.574540396089703e+01
 1.473305351904270e+00	 1.634795359107648e-01	 1.574228204679387e+01
 1.471828739999181e+00	 1.762791839917564e-01	 1.573899080085312e+01
 1.470235973710731e+00	 1.891040852083568e-01	 1.573532112243698e+01
 1.468526208735194e+00	 2.019528218604931e-01	 1.573106897700768e+01
 1.466698620701535e+00	 2.148239530879026e-01	 1.572603415900136e+01
 1.464752405823712e+00	 2.277160151429136e-01	 1.572001893744970e+01
 1.462686781551333e+00	 2.406275216828944e-01	 1.571282659289183e+01
 1.460500987218032e+00	 2.535569640825137e-01	 1.570425985564921e+01
 1.488770955529069e+00	 1.262400664829298e-01	 1.561145017111022e+01
 1.487628555104825e+00	 1.390566136437039e-01	 1.560832999682428e+01
 1.486371745303609e+00	 1.519027587244375e-01	 1.560565100404544e+01
 1.484999618799755e+00	 1.647771442582144e-01	 1.560321233799379e+01
 1.483511286382172e+00	 1.776783887264668e-01	 1.560082827117954e+01
 1.481905877613169e+00	 1.906050867755090e-01	 1.559832763756278e+01
 1.480182541487432e+00	 2.035558094523473e-01	 1.559548678233855e+01
 1.478340447090548e+00	 2.165291044599654e-01	 1.559196960715099e+01
 1.476378784256492e+00	 2.295234964322702e-01	 1.558757389672244e+01
 1.474296764223447e+00	 2.425374872288630e-01	 1.558210757389288e+01
 1.472093620287320e+00	 2.555695562497768e-01	 1.557538027327684e+01
 1.500494921433641e+00	 1.272341980700039e-01	 1.547627387173876e+01
 1.499343524687146e+00	 1.401516746325570e-01	 1.547316166015084e+01
 1.498076817597810e+00	 1.530989821966955e-01	 1.547051574963323e+01
 1.496693885694854e+00	 1.660747526055261e-01	 1.546811940818146e+01
 1.495193832764732e+00	 1.790775934610992e-01	 1.546577347192411e+01
 1.493575781515135e+00	 1.921060883426468e-01	 1.546329587773721e+01
 1.491838874239161e+00	 2.051587970442501e-01	 1.546052101683215e+01
 1.489982273479023e+00	 2.182342558321340e-01	 1.545729889465361e+01
 1.488005162688714e+00	 2.313309777217802e-01	 1.545349408178440e+01
 1.485906746894990e+00	 2.444474527750175e-01	 1.544898443995070e+01
 1.483686253356042e+00	 2.575821484172393e-01	 1.544365960666587e+01
 1.512218887337924e+00	 1.282283296569095e-01	 1.534694857216250e+01
 1.511058494269139e+00	 1.412467356212570e-01	 1.534396018339471e+01
 1.509781889891639e+00	 1.542952056688267e-01	 1.534147679872112e+01
 1.508388152589544e+00	 1.673723609527459e-01	 1.533926730287102e+01
 1.506876379146848e+00	 1.804767981956797e-01	 1.533712047175872e+01
 1.505245685416628e+00	 1.936070899097753e-01	 1.533484460383589e+01
 1.503495206990392e+00	 2.067617846361851e-01	 1.533226697297976e+01
 1.501624099866981e+00	 2.199394072043732e-01	 1.532923308765171e+01
 1.499631541120409e+00	 2.331384590113923e-01	 1.532560574035860e+01
 1.497516729566007e+00	 2.463574183212960e-01	 1.532126383078125e+01
 1.495278886424245e+00	 2.595947405848349e-01	 1.531610094531558e+01
 1.523942853241876e+00	 1.292224612437308e-01	 1.522321414584949e+01
 1.522773463850762e+00	 1.423417966098803e-01	 1.522045831308836e+01
 1.521486962185067e+00	 1.554914291408945e-01	 1.521825711931051e+01
 1.520082419483803e+00	 1.686699692999196e-01	 1.521636649757124e+01
 1.518558925528509e+00	 1.818760029302343e-01	 1.521456447420879e+01
 1.516915589317647e+00	 1.951080914768990e-01	 1.521265089941665e+01
 1.515151539741137e+00	 2.083647722281363e-01	 1.521044700042310e+01
 1.513265926254448e+00	 2.216445585766477e-01	 1.520779474140789e+01
 1.511257919551613e+00	 2.349459403010554e-01	 1.520455597351647e+01
 1.509126712236541e+00	 2.482673838676365e-01	 1.520061135759756e+01
 1.506871519491980e+00	 2.616073327524969e-01	 1.519585904160284e+01
 1.535666819145457e+00	 1.302165928305521e-01	 1.510480768586966e+01
 1.534488433431979e+00	 1.434368575985036e-01	 1.510238481189566e+01
 1.533192034478062e+00	 1.566876526129624e-01	 1.510057467474779e+01
 1.531776686377608e+00	 1.699675776470934e-01	 1.509912162447202e+01
 1.530241471909704e+00	 1.832752076647889e-01	 1.509779418210671e+01
 1.528585493218193e+00	 1.966090930440227e-01	 1.509638487015539e+01
 1.526807872491407e+00	 2.099677598200876e-01	 1.509470986727422e+01
 1.524907752641446e+00	 2.233497099489222e-01	 1.509260847069585e+01
 1.522884297982359e+00	 2.367534215907186e-01	 1.508994234907102e+01
 1.520736694906633e+00	 2.501773494139771e-01	 1.508659456760462e+01
 1.518464152559296e+00	 2.636199249201588e-01	 1.508246836660458e+01
 1.547390785048624e+00	 1.312107244174577e-01	 1.499146330948706e+01
 1.546203403012752e+00	 1.445319185872036e-01	 1.498946430574270e+01
 1.544897106770590e+00	 1.578838760850936e-01	 1.498814231113961e+01
 1.543470953270937e+00	 1.712651859943131e-01	 1.498723139781037e+01
 1.541924018290419e+00	 1.846744123993694e-01	 1.498649175849182e+01
 1.540255397118263e+00	 1.981100946111511e-01	 1.498570963777970e+01
 1.538464205241215e+00	 2.115707474120226e-01	 1.498469708976788e+01
 1.536549579027998e+00	 2.250548613211614e-01	 1.498329154498273e+01
 1.534510676412681e+00	 2.385609028803307e-01	 1.498135516860812e+01
 1.532346677576327e+00	 2.520873149602556e-01	 1.497877399111769e+01
 1.530056785626242e+00	 2.656325170877544e-01	 1.497545679159765e+01
 1.559114750951333e+00	 1.322048560045318e-01	 1.488291197573256e+01
 1.557918372593040e+00	 1.456269795760567e-01	 1.488141714287073e+01
 1.556602179062623e+00	 1.590800995573514e-01	 1.488066765581106e+01
 1.555165220163767e+00	 1.725627943416248e-01	 1.488038854957945e+01
 1.553606564670643e+00	 1.860736171340019e-01	 1.488033279733628e+01
 1.551925301017859e+00	 1.996110961782890e-01	 1.488028134349537e+01
 1.550120537990571e+00	 2.131737350039253e-01	 1.488004296598896e+01
 1.548191405414127e+00	 2.267600126933300e-01	 1.487945394997294e+01
 1.546137054842613e+00	 2.403683841698406e-01	 1.487837755427648e+01
 1.543956660245666e+00	 2.539972805064101e-01	 1.487670325094069e+01
 1.541649418692868e+00	 2.676451092552169e-01	 1.487434571728018e+01
 1.570838716853544e+00	 1.331989875918587e-01	 1.477888131527793e+01
 1.569633342172808e+00	 1.467220405651395e-01	 1.477795926418798e+01
 1.568307251354127e+00	 1.602763230297993e-01	 1.477785302622894e+01
 1.566859487056076e+00	 1.738604026890745e-01	 1.477827977504020e+01
 1.565289111050364e+00	 1.874728218687121e-01	 1.477898630358282e+01
 1.563595204916981e+00	 2.011120977454411e-01	 1.477974916040868e+01
 1.561776870739488e+00	 2.147767225957794e-01	 1.478037461845568e+01
 1.559833231799856e+00	 2.284651640653927e-01	 1.478069845804559e+01
 1.557763433272189e+00	 2.421758654591972e-01	 1.478058554468772e+01
 1.555566642914692e+00	 2.559072460523785e-01	 1.477992918125184e+01
 1.553242051759224e+00	 2.696577014224800e-01	 1.477865021307858e+01
 1.582562682755214e+00	 1.341931191795227e-01	 1.467909547197287e+01
 1.581348311752016e+00	 1.478171015545287e-01	 1.467880208433405e+01
 1.580012323645071e+00	 1.614725465025007e-01	 1.467939534884677e+01
 1.578553753947841e+00	 1.751580110367080e-01	 1.468058568752585e+01
 1.576971657429571e+00	 1.888720266035264e-01	 1.468211468201130e+01
 1.575265108815627e+00	 2.026130993126123e-01	 1.468375531447782e+01
 1.573433203487976e+00	 2.163797101875688e-01	 1.468531204509939e+01
 1.571475058185210e+00	 2.301703154373143e-01	 1.468662070712383e+01
 1.569389811701443e+00	 2.439833467483496e-01	 1.468754819945372e+01
 1.567176625583449e+00	 2.578172115980991e-01	 1.468799195550290e+01
 1.564834684825360e+00	 2.716702935894773e-01	 1.468787916601660e+01
 1.448908354148126e+00	 2.515443719155165e-01	 1.583007913442106e+01
 1.446620359956241e+00	 2.643852789496522e-01	 1.581906216184801e+01
 1.444211748012564e+00	 2.772409198913453e-01	 1.580794381911661e+01
 1.441681831875386e+00	 2.901097381321035e-01	 1.579651539256540e+01
 1.439029949315489e+00	 3.029901564778457e-01	 1.578455389070583e+01
 1.436255462937364e+00	 3.158805775574043e-01	 1.577182025756610e+01
 1.433357760794212e+00	 3.287793842509791e-01	 1.575805759480559e+01
 1.430336256996070e+00	 3.416849401385289e-01	 1.574298941282625e+01
 1.427190392310364e+00	 3.545955899680540e-01	 1.572631793244302e+01
 1.423919634754187e+00	 3.675096601437043e-01	 1.570772245994557e+01
 1.420523480177602e+00	 3.804254592336176e-01	 1.568675428984761e+01
 1.460500987218032e+00	 2.535569640825137e-01	 1.570425985564921e+01
 1.458194686914912e+00	 2.665006104812214e-01	 1.569494827373978e+01
 1.455766803804257e+00	 2.794591086726051e-01	 1.568552900502896e+01
 1.453216645952178e+00	 2.924308895938437e-01	 1.567581122862723e+01
 1.450543545831001e+00	 3.054143634318228e-01	 1.566559146933701e+01
 1.447746860945450e+00	 3.184079200349054e-01	 1.565465163883427e+01
 1.444825974452573e+00	 3.314099293448152e-01	 1.564275707548538e+01
 1.441780295774739e+00	 3.444187418486145e-01	 1.562965460392024e+01
 1.438609261204984e+00	 3.574326890507335e-01	 1.561507063691275e+01
 1.435312334504038e+00	 3.704500839649842e-01	 1.559870933936809e+01
 1.431889007488290e+00	 3.834692216264620e-01	 1.557998908303860e+01
 1.472093620287320e+00	 2.555695562497768e-01	 1.557538027327684e+01
 1.469769013872977e+00	 2.686159420130442e-01	 1.556797185105285e+01
 1.467321859595372e+00	 2.816772974540790e-01	 1.556047689545976e+01
 1.464751460028430e+00	 2.947520410557349e-01	 1.555272412506373e+01
 1.462057142346019e+00	 3.078385703858694e-01	 1.554453119290115e+01
 1.459238258953095e+00	 3.209352625123810e-01	 1.553570254263282e+01
 1.456294188110554e+00	 3.340404744385216e-01	 1.552602725261192e+01
 1.453224334553088e+00	 3.471525435584617e-01	 1.551527688991999e+01
 1.450028130099345e+00	 3.602697881330663e-01	 1.550320339795616e+01
 1.446705034253686e+00	 3.733905077858145e-01	 1.548951773727768e+01
 1.443254534798823e+00	 3.865129840187634e-01	 1.547346339116884e+01
 1.483686253356042e+00	 2.575821484172393e-01	 1.544365960666587e+01
 1.481343340830491e+00	 2.707312735450572e-01	 1.543812799429295e+01
 1.478876915385962e+00	 2.838954862357129e-01	 1.543274872042942e+01
 1.476286274104195e+00	 2.970731925177389e-01	 1.542717662359635e+01
 1.473570738860594e+00	 3.102627773399669e-01	 1.542125223828851e+01
 1.470729656960348e+00	 3.234626049898350e-01	 1.541480425381332e+01
 1.467762401768196e+00	 3.366710195321265e-01	 1.540764714876013e+01
 1.464668373331152e+00	 3.498863452681231e-01	 1.539957882507138e+01
 1.461446998993474e+00	 3.631068872151288e-01	 1.539037826637778e+01
 1.458097734003153e+00	 3.763309316062927e-01	 1.537971241747086e+01
 1.454620062109220e+00	 3.895567464106375e-01	 1.536668912163433e+01
 1.495278886424245e+00	 2.595947405848349e-01	 1.531610094531559e+01
 1.492917667787505e+00	 2.728466050771970e-01	 1.531067144393460e+01
 1.490431971176081e+00	 2.861136750174533e-01	 1.530556526105719e+01
 1.487821088179525e+00	 2.993943439798173e-01	 1.530074453142633e+01
 1.485084335374777e+00	 3.126869842940967e-01	 1.529617223126577e+01
 1.482221054967255e+00	 3.259899474672712e-01	 1.529180912555853e+01
 1.479230615425539e+00	 3.393015646256577e-01	 1.528739359207956e+01
 1.476112412108968e+00	 3.526201469776514e-01	 1.528228026083581e+01
 1.472865867887402e+00	 3.659439862969971e-01	 1.527625413415577e+01
 1.469490433752461e+00	 3.792713554265161e-01	 1.526886838536583e+01
 1.465985589419497e+00	 3.926005088021993e-01	 1.525917885649320e+01
 1.506871519491980e+00	 2.616073327524969e-01	 1.519585904160284e+01
 1.504491994744075e+00	 2.749619366094002e-01	 1.519079776613992e+01
 1.501987026965785e+00	 2.883318637992470e-01	 1.518596781987639e+01
 1.499355902254474e+00	 3.017154954419317e-01	 1.518134909897584e+01
 1.496597931888619e+00	 3.151111912482403e-01	 1.517692546054943e+01
 1.493712452973861e+00	 3.285172899446935e-01	 1.517268173747271e+01
 1.490698829082626e+00	 3.419321097191433e-01	 1.516860039289338e+01
 1.487556450886568e+00	 3.553539486870996e-01	 1.516465779396965e+01
 1.484284736781155e+00	 3.687810853787475e-01	 1.516082008441813e+01
 1.480883133501633e+00	 3.822117792465827e-01	 1.515655998656616e+01
 1.477351116729672e+00	 3.956442711935644e-01	 1.515044507054823e+01
 1.518464152559296e+00	 2.636199249201588e-01	 1.508246836660458e+01
 1.516066321700252e+00	 2.770772681416033e-01	 1.507800640804619e+01
 1.513542082755127e+00	 2.905500525810399e-01	 1.507369833062966e+01
 1.510890716329097e+00	 3.040366469040440e-01	 1.506954124985238e+01
 1.508111528402169e+00	 3.175353982023784e-01	 1.506553928772499e+01
 1.505203850980215e+00	 3.310446324221059e-01	 1.506170066191961e+01
 1.502167042739495e+00	 3.445626548126114e-01	 1.505803440693816e+01
 1.499000489663989e+00	 3.580877503965197e-01	 1.505454670557632e+01
 1.495703605674763e+00	 3.716181844604565e-01	 1.505123136380994e+01
 1.492275833250693e+00	 3.851522030665903e-01	 1.504730350228033e+01
 1.488716644039760e+00	 3.986880335848481e-01	 1.504223450330679e+01
 1.530056785626242e+00	 2.656325170877544e-01	 1.497545679159765e+01
 1.527640648656091e+00	 2.791925996737428e-01	 1.497178994499037e+01
 1.525097138544163e+00	 2.927682413627785e-01	 1.496821168675203e+01
 1.522425530403445e+00	 3.063577983661158e-01	 1.496473574056633e+01
 1.519625124915480e+00	 3.199596051564929e-01	 1.496138580751751e+01
 1.516695248986361e+00	 3.335719748995119e-01	 1.495819273679993e+01
 1.513635256396190e+00	 3.471931999060905e-01	 1.495519132113558e+01
 1.510444528441265e+00	 3.608215521059649e-01	 1.495241669386557e+01
 1.507122474568255e+00	 3.744552835422004e-01	 1.494983590835724e+01
 1.503668532999660e+00	 3.880926268866361e-01	 1.494644722372431e+01
 1.500082171349781e+00	 4.017317959761657e-01	 1.494194004587636e+01
 1.541649418692868e+00	 2.676451092552169e-01	 1.487434571728017e+01
 1.539214975611644e+00	 2.813079312057554e-01	 1.487163507076508e+01
 1.536652194332948e+00	 2.949864301444093e-01	 1.486895762790891e+01
 1.533960344477575e+00	 3.086789498281090e-01	 1.486634303647350e+01
 1.531138721428601e+00	 3.223838121105648e-01	 1.486383381683457e+01
 1.528186646992345e+00	 3.360993173769156e-01	 1.486148262192964e+01
 1.525103470052751e+00	 3.498237449996081e-01	 1.485934911498155e+01
 1.521888567218431e+00	 3.635553538154877e-01	 1.485749644060851e+01
 1.518541343461660e+00	 3.772923826240555e-01	 1.485579154256439e+01
 1.515061232748561e+00	 3.910330507068180e-01	 1.485312618222809e+01
 1.511447698659750e+00	 4.047755583676325e-01	 1.484937250699286e+01
 1.553242051759224e+00	 2.696577014224800e-01	 1.477865021307858e+01
 1.550789302566965e+00	 2.834232627375777e-01	 1.477702275506332e+01
 1.548207250121534e+00	 2.972046189258785e-01	 1.477538091359579e+01
 1.545495158551538e+00	 3.110001012899851e-01	 1.477376949947952e+01
 1.542652317941583e+00	 3.248080190645755e-01	 1.477224901445653e+01
 1.539678044998216e+00	 3.386266598543209e-01	 1.477089300852831e+01
 1.536571683709219e+00	 3.524542900931927e-01	 1.476978504852081e+01
 1.533332605995523e+00	 3.662891555251408e-01	 1.476901527210457e+01
 1.529960212355005e+00	 3.801294817060977e-01	 1.476827075431326e+01
 1.526453932497416e+00	 3.939734745272339e-01	 1.476646694490079e+01
 1.522813225969685e+00	 4.078193207593640e-01	 1.476361007190033e+01
 1.564834684825360e+00	 2.716702935894773e-01	 1.468787916601660e+01
 1.562363629522107e+00	 2.855385942691462e-01	 1.468742841119034e+01
 1.559762305909978e+00	 2.994228077071328e-01	 1.468692150785076e+01
 1.557029972625388e+00	 3.133212527517060e-01	 1.468641758784261e+01
 1.554165914454477e+00	 3.272322260185064e-01	 1.468599421395164e+01
 1.551169443004019e+00	 3.411540023317315e-01	 1.468574484319868e+01
 1.548039897365635e+00	 3.550848351868721e-01	 1.468577589527312e+01
 1.544776644772575e+00	 3.690229572349770e-01	 1.468620339886628e+01
 1.541379081248321e+00	 3.829665807884041e-01	 1.468645180962672e+01
 1.537846632246248e+00	 3.969138983479809e-01	 1.468560332223455e+01
 1.534178753279604e+00	 4.108630831514755e-01	 1.468373973557308e+01
 1.420523480177602e+00	 3.804254592336176e-01	 1.568675428984761e+01
 1.417001453146457e+00	 3.933412786777279e-01	 1.566420277832048e+01
 1.413353108435399e+00	 4.062553938922251e-01	 1.564121065768726e+01
 1.409578030655553e+00	 4.191660643235230e-01	 1.561766271167794e+01
 1.405675834484585e+00	 4.320715338573337e-01	 1.559343688453261e+01
 1.401646165192779e+00	 4.449700314227842e-01	 1.556840397768915e+01
 1.397488699155860e+00	 4.578597716150684e-01	 1.554242735516798e+01
 1.393203144353878e+00	 4.707389553363442e-01	 1.551536266212022e+01
 1.388789240855448e+00	 4.836057704545642e-01	 1.548705756131826e+01
 1.384246761286669e+00	 4.964583924798877e-01	 1.545735149266553e+01
 1.379575511284022e+00	 5.092949852583083e-01	 1.542607546108177e+01
 1.431889007488290e+00	 3.834692216264620e-01	 1.557998908303860e+01
 1.428338800919665e+00	 3.964883798050145e-01	 1.555961618079058e+01
 1.424661266010587e+00	 4.095058201185343e-01	 1.553866555641564e+01
 1.420855984048679e+00	 4.225197880873635e-01	 1.551704946966984e+01
 1.416922566628667e+00	 4.355285135466418e-01	 1.549467157640915e+01
 1.412860656182660e+00	 4.485302112552576e-01	 1.547142651731202e+01
 1.408669926497085e+00	 4.615230815234799e-01	 1.544719951435908e+01
 1.404350083215555e+00	 4.745053108589862e-01	 1.542186597987596e+01
 1.399900864326991e+00	 4.874750726309612e-01	 1.539529114328257e+01
 1.395322040638285e+00	 5.004305277519233e-01	 1.536732970101292e+01
 1.390613416230826e+00	 5.133698253769001e-01	 1.533782549537294e+01
 1.443254534798823e+00	 3.865129840187634e-01	 1.547346339116884e+01
 1.439676148692759e+00	 3.996354809316790e-01	 1.545569920537430e+01
 1.435969423585697e+00	 4.127562463441570e-01	 1.543718317122250e+01
 1.432133937441757e+00	 4.258735118504671e-01	 1.541785199138367e+01
 1.428169298772725e+00	 4.389854932351760e-01	 1.539763253013691e+01
 1.424075147172540e+00	 4.520903910869322e-01	 1.537644130403584e+01
 1.419851153838330e+00	 4.651863914310804e-01	 1.535418397873605e+01
 1.415497022077277e+00	 4.782716663808160e-01	 1.533075487711053e+01
 1.411012487798607e+00	 4.913443748065560e-01	 1.530603650413978e+01
 1.406397319990007e+00	 5.044026630231767e-01	 1.527989909441103e+01
 1.401651321177777e+00	 5.174446654947399e-01	 1.525220018838922e+01
 1.454620062109220e+00	 3.895567464106375e-01	 1.536668912163434e+01
 1.451013496465755e+00	 4.027825820578503e-01	 1.535190564971134e+01
 1.447277581160737e+00	 4.160066725692304e-01	 1.533617226334949e+01
 1.443411890834791e+00	 4.292272356129745e-01	 1.531944722543604e+01
 1.439416030916761e+00	 4.424424729230767e-01	 1.530167824927024e+01
 1.435289638162419e+00	 4.556505709179459e-01	 1.528280190079126e+01
 1.431032381179595e+00	 4.688497013380011e-01	 1.526274300471585e+01
 1.426643960939042e+00	 4.820380219019564e-01	 1.524141406000946e+01
 1.422124111270289e+00	 4.952136769814600e-01	 1.521871467050352e+01
 1.417472599341824e+00	 5.083747982937468e-01	 1.519453099684620e+01
 1.412689226124860e+00	 5.215195056119116e-01	 1.516873523632771e+01
 1.465985589419497e+00	 3.926005088021993e-01	 1.525917885649320e+01
 1.462350844238662e+00	 4.059296831836564e-01	 1.524769043887072e+01
 1.458585738735717e+00	 4.192570987938907e-01	 1.523504276064384e+01
 1.454689844227786e+00	 4.325809593750269e-01	 1.522121291044064e+01
 1.450662763060778e+00	 4.458994526104859e-01	 1.520616723307643e+01
 1.446504129152296e+00	 4.592107507484366e-01	 1.518986065267916e+01
 1.442213608520877e+00	 4.725130112443742e-01	 1.517223599681128e+01
 1.437790899800840e+00	 4.858043774225300e-01	 1.515322332728869e+01
 1.433235734742029e+00	 4.990829791557852e-01	 1.513273928381806e+01
 1.428547878693725e+00	 5.123469335637322e-01	 1.511068644697531e+01
 1.423727131072057e+00	 5.255943457284998e-01	 1.508695272743096e+01
 1.477351116729672e+00	 3.956442711935644e-01	 1.515044507054823e+01
 1.473688192011495e+00	 4.090767843092256e-01	 1.514250878538089e+01
 1.469893896310645e+00	 4.225075250182750e-01	 1.513320487478572e+01
 1.465967797620749e+00	 4.359346831367648e-01	 1.512252666482440e+01
 1.461909495204779e+00	 4.493564322975439e-01	 1.511045705446586e+01
 1.457718620142173e+00	 4.627709305785424e-01	 1.509696776866386e+01
 1.453394835862173e+00	 4.761763211503309e-01	 1.508201860885127e+01
 1.448937838662671e+00	 4.895707329426601e-01	 1.506555670681158e+01
 1.444347358213817e+00	 5.029522813296432e-01	 1.504751578833739e+01
 1.439623158045697e+00	 5.163190688332315e-01	 1.502781545351950e+01
 1.434765036019352e+00	 5.296691858445887e-01	 1.500636048092203e+01
 1.488716644039760e+00	 3.986880335848481e-01	 1.504223450330679e+01
 1.485025539784265e+00	 4.122238854346867e-01	 1.503635393625476e+01
 1.481202053885529e+00	 4.257579512425198e-01	 1.503006825060507e+01
 1.477245751013684e+00	 4.392884068983293e-01	 1.502276510946442e+01
 1.473156227348767e+00	 4.528134119843924e-01	 1.501390347075060e+01
 1.468933111132048e+00	 4.663311104084011e-01	 1.500347043537372e+01
 1.464576063203481e+00	 4.798396310560034e-01	 1.499144187585511e+01
 1.460084777524526e+00	 4.933370884624690e-01	 1.497778162066948e+01
 1.455458981685646e+00	 5.068215835031454e-01	 1.496244064463703e+01
 1.450698437397728e+00	 5.202912041023439e-01	 1.494535627251421e+01
 1.445802940966729e+00	 5.337440259602625e-01	 1.492645140337457e+01
 1.500082171349781e+00	 4.017317959761657e-01	 1.494194004587636e+01
 1.496362887556985e+00	 4.153709865601674e-01	 1.493645763229397e+01
 1.492510211460379e+00	 4.290083774667620e-01	 1.493022550842612e+01
 1.488523704406598e+00	 4.426421306598610e-01	 1.492342388291603e+01
 1.484402959492743e+00	 4.562703916711724e-01	 1.491622475471702e+01
 1.480147602121924e+00	 4.698912902381509e-01	 1.490871196131062e+01
 1.475757290544798e+00	 4.835029409615231e-01	 1.489985137493888e+01
 1.471231716386402e+00	 4.971034439820800e-01	 1.488925807721968e+01
 1.466570605157508e+00	 5.106908856764041e-01	 1.487690056730709e+01
 1.461773716749807e+00	 5.242633393711676e-01	 1.486273470526102e+01
 1.456840845914170e+00	 5.378188660756057e-01	 1.484670286159692e+01
 1.511447698659750e+00	 4.047755583676325e-01	 1.484937250699287e+01
 1.507700235329668e+00	 4.185180876857967e-01	 1.484449426086195e+01
 1.503818369035203e+00	 4.322588036911382e-01	 1.483853807388322e+01
 1.499801657799494e+00	 4.459958544215009e-01	 1.483170417041019e+01
 1.495649691636712e+00	 4.597273713580248e-01	 1.482418806380766e+01
 1.491362093111799e+00	 4.734514700679295e-01	 1.481617782353561e+01
 1.486938517886123e+00	 4.871662508670218e-01	 1.480785107187975e+01
 1.482378655248293e+00	 5.008697995016157e-01	 1.479937169881698e+01
 1.477682228629395e+00	 5.145601878495307e-01	 1.479027178555808e+01
 1.472848996101921e+00	 5.282354746398016e-01	 1.477936341589490e+01
 1.467878750861661e+00	 5.418937061907029e-01	 1.476657607116544e+01
 1.522813225969685e+00	 4.078193207593640e-01	 1.476361007190033e+01
 1.519037583102326e+00	 4.216651888117025e-01	 1.475949779252820e+01
 1.515126526610010e+00	 4.355092299157851e-01	 1.475401005968340e+01
 1.511079611192381e+00	 4.493495781833898e-01	 1.474736419474071e+01
 1.506896423780675e+00	 4.631843510450908e-01	 1.473977682465014e+01
 1.502576584101673e+00	 4.770116498978749e-01	 1.473146121078781e+01
 1.498119745227452e+00	 4.908295607726313e-01	 1.472262429757126e+01
 1.493525594110195e+00	 5.046361550211990e-01	 1.471346346833796e+01
 1.488793852101298e+00	 5.184294900226365e-01	 1.470416299645181e+01
 1.483924275454060e+00	 5.322076099083447e-01	 1.469489018018822e+01
 1.478916655809186e+00	 5.459685463056383e-01	 1.468551549979307e+01
 1.534178753279604e+00	 4.108630831514755e-01	 1.468373973557308e+01
 1.530374930874972e+00	 4.248122899380132e-01	 1.468051247435676e+01
 1.526434684184807e+00	 4.387596561408393e-01	 1.467565351024196e+01
 1.522357564585261e+00	 4.527033019456688e-01	 1.466939437478898e+01
 1.518143155924636e+00	 4.666413307325117e-01	 1.466197043254270e+01
 1.513791075091548e+00	 4.805718297281252e-01	 1.465361828949857e+01
 1.509300972568784e+00	 4.944928706784833e-01	 1.464457291103810e+01
 1.504672532972101e+00	 5.084025105409528e-01	 1.463506443577527e+01
 1.499905475573210e+00	 5.222987921958340e-01	 1.462531467220647e+01
 1.494999554806210e+00	 5.361797451768957e-01	 1.461553326563592e+01
 1.489954560756725e+00	 5.500433864204961e-01	 1.460591352355577e+01
 1.379575511284022e+00	 5.092949852583083e-01	 1.542607546108177e+01
 1.374774502726036e+00	 5.221158792691480e-01	 1.539335859371782e+01
 1.369844390929617e+00	 5.349170319520559e-01	 1.535932208933873e+01
 1.364785082139539e+00	 5.476965748998992e-01	 1.532375675153232e+01
 1.359596517274411e+00	 5.604526309494831e-01	 1.528644606675351e+01
 1.354278672290895e+00	 5.731833149554840e-01	 1.524716625583935e+01
 1.348831558528028e+00	 5.858867345788147e-01	 1.520568638874459e+01
 1.343255223031063e+00	 5.985609910888490e-01	 1.516176856899285e+01
 1.337549748854247e+00	 6.112041801789182e-01	 1.511516819436973e+01
 1.331715255341965e+00	 6.238143927944543e-01	 1.506563430037291e+01
 1.325751898387718e+00	 6.363897159731350e-01	 1.501290999287539e+01
 1.390613416230826e+00	 5.133698253769001e-01	 1.533782549537294e+01
 1.385773995077242e+00	 5.262932986293574e-01	 1.530694580454378e+01
 1.380804437737593e+00	 5.391968726046419e-01	 1.527484156495852e+01
 1.375704649706526e+00	 5.520786639465944e-01	 1.524130162390867e+01
 1.370474571429948e+00	 5.649367804729372e-01	 1.520610584273767e+01
 1.365114178672153e+00	 5.777693219553979e-01	 1.516902507519325e+01
 1.359623482862906e+00	 5.905743809143844e-01	 1.512982121119665e+01
 1.354002531423868e+00	 6.033500434276267e-01	 1.508824729299529e+01
 1.348251408073803e+00	 6.160943899521998e-01	 1.504404771071111e+01
 1.342370233111966e+00	 6.288054961592900e-01	 1.499695848429135e+01
 1.336359163679157e+00	 6.414814337810655e-01	 1.494670763881957e+01
 1.401651321177777e+00	 5.174446654947399e-01	 1.525220018838922e+01
 1.396773487428644e+00	 5.304707179888531e-01	 1.522315549148204e+01
 1.391764484545820e+00	 5.434767132565594e-01	 1.519295661002785e+01
 1.386624217273826e+00	 5.564607529926712e-01	 1.516139252231765e+01
 1.381352625585863e+00	 5.694209299958239e-01	 1.512824127678460e+01
 1.375949685053855e+00	 5.823553289547957e-01	 1.509326988846724e+01
 1.370415407198293e+00	 5.952620272494858e-01	 1.505623430332997e+01
 1.364749839817246e+00	 6.081390957659796e-01	 1.501687943791276e+01
 1.358953067293991e+00	 6.209845997250919e-01	 1.497493930183585e+01
 1.353025210882653e+00	 6.337965995237623e-01	 1.493013721069345e+01
 1.346966428971327e+00	 6.465731515886453e-01	 1.488218609682485e+01
 1.412689226124860e+00	 5.215195056119116e-01	 1.516873523632771e+01
 1.407772979780220e+00	 5.346481373477039e-01	 1.514159219113029e+01
 1.402724531354271e+00	 5.477565539078616e-01	 1.511333539901133e+01
 1.397543784841403e+00	 5.608428420381663e-01	 1.508375609132495e+01
 1.392230679742111e+00	 5.739050795181659e-01	 1.505263235450213e+01
 1.386785191435949e+00	 5.869413359536861e-01	 1.501972893577582e+01
 1.381207331534129e+00	 5.999496735841174e-01	 1.498479711944161e+01
 1.375497148211128e+00	 6.129281481038968e-01	 1.494757468166012e+01
 1.369654726514733e+00	 6.258748094975783e-01	 1.490778593187610e+01
 1.363680188653936e+00	 6.387877028878521e-01	 1.486514184894423e+01
 1.357573694264129e+00	 6.516648693958577e-01	 1.481934032001594e+01
 1.423727131072057e+00	 5.255943457284998e-01	 1.508695272743097e+01
 1.418772472131947e+00	 5.388255567059789e-01	 1.506184338781692e+01
 1.413684578162918e+00	 5.520363945586018e-01	 1.503562579135580e+01
 1.408463352409224e+00	 5.652249310831179e-01	 1.500809558137963e+01
 1.403108733898651e+00	 5.783892290399859e-01	 1.497903277391941e+01
 1.397620697818384e+00	 5.915273429520789e-01	 1.494820146371510e+01
 1.391999255870354e+00	 6.046373199182765e-01	 1.491534960366868e+01
 1.386244456605443e+00	 6.177172004413670e-01	 1.488020886631314e+01
 1.380356385735947e+00	 6.307650192696411e-01	 1.484249459595152e+01
 1.374335166425726e+00	 6.437788062515395e-01	 1.480190586014762e+01
 1.368180959557462e+00	 6.567565872026854e-01	 1.475812560921961e+01
 1.434765036019352e+00	 5.296691858445887e-01	 1.500636048092202e+01
 1.429771964483806e+00	 5.430029760637471e-01	 1.498347894070597e+01
 1.424644624971731e+00	 5.563162352088330e-01	 1.495945483981461e+01
 1.419382919977251e+00	 5.696070201275633e-01	 1.493409043140970e+01
 1.413986788055440e+00	 5.828733785613074e-01	 1.490716959541153e+01
 1.408456204201107e+00	 5.961133499499832e-01	 1.487845743568486e+01
 1.402791180206906e+00	 6.093249662519611e-01	 1.484769995379528e+01
 1.396991765000120e+00	 6.225062527783782e-01	 1.481462380850807e+01
 1.391058044957556e+00	 6.356552290412635e-01	 1.477893617029750e+01
 1.384990144197934e+00	 6.487699096148057e-01	 1.474032468017112e+01
 1.378788224851229e+00	 6.618483050091122e-01	 1.469845752209289e+01
 1.445802940966729e+00	 5.337440259602625e-01	 1.492645140337457e+01
 1.440771456835773e+00	 5.471803954210774e-01	 1.490605052369548e+01
 1.435604671780685e+00	 5.605960758586087e-01	 1.488442830723778e+01
 1.430302487545450e+00	 5.739891091715401e-01	 1.486139585586768e+01
 1.424864842212432e+00	 5.873575280821519e-01	 1.483674289237225e+01
 1.419291710584068e+00	 6.006993569474089e-01	 1.481023723957278e+01
 1.413583104543726e+00	 6.140126125851685e-01	 1.478162437934791e+01
 1.407739073395092e+00	 6.272953051149204e-01	 1.475062710137155e+01
 1.401759704179478e+00	 6.405454388124285e-01	 1.471694525147944e+01
 1.395645121970468e+00	 6.537610129776319e-01	 1.468025558962742e+01
 1.389395490145328e+00	 6.669400228151209e-01	 1.464021176739105e+01
 1.456840845914170e+00	 5.378188660756057e-01	 1.484670286159692e+01
 1.451770949187827e+00	 5.513578147780392e-01	 1.482909107743618e+01
 1.446564718589749e+00	 5.648759165079817e-01	 1.481013019138274e+01
 1.441222055113786e+00	 5.783711982150859e-01	 1.478964243599511e+01
 1.435742896369588e+00	 5.918416776025432e-01	 1.476742540260088e+01
 1.430127216967215e+00	 6.052853639443645e-01	 1.474325139294437e+01
 1.424375028880752e+00	 6.187002589178967e-01	 1.471686685428766e+01
 1.418486381790286e+00	 6.320843574509810e-01	 1.468799190843537e+01
 1.412461363401635e+00	 6.454356485831190e-01	 1.465631998527800e+01
 1.406300099743242e+00	 6.587521163399989e-01	 1.462151757150906e+01
 1.400002755439661e+00	 6.720317406206949e-01	 1.458322408516806e+01
 1.467878750861661e+00	 5.418937061907029e-01	 1.476657607116544e+01
 1.462770441539947e+00	 5.555352341347010e-01	 1.475211427283555e+01
 1.457524765398896e+00	 5.691557571570056e-01	 1.473612225732805e+01
 1.452141622682223e+00	 5.827532872582385e-01	 1.471843571508791e+01
 1.446620950526861e+00	 5.963258271225037e-01	 1.469886218036944e+01
 1.440962723350495e+00	 6.098713709408592e-01	 1.467718024587547e+01
 1.435166953217925e+00	 6.233879052501433e-01	 1.465313886458833e+01
 1.429233690185635e+00	 6.368734097865494e-01	 1.462645674996317e+01
 1.423163022623946e+00	 6.503258583533178e-01	 1.459682188579348e+01
 1.416955077516165e+00	 6.637432197018873e-01	 1.456389115713197e+01
 1.410610020734128e+00	 6.771234584258173e-01	 1.452729011365616e+01
 1.478916655809186e+00	 5.459685463056383e-01	 1.468551549979307e+01
 1.473769933892109e+00	 5.597126534911321e-01	 1.467461398545231e+01
 1.468484812208098e+00	 5.734355978057335e-01	 1.466194357709746e+01
 1.463061190250726e+00	 5.871353763010356e-01	 1.464735579755827e+01
 1.457499004684211e+00	 6.008099766420557e-01	 1.463067024913991e+01
 1.451798229733859e+00	 6.144573779369025e-01	 1.461167368155484e+01
 1.445958877555184e+00	 6.280755515819062e-01	 1.459011915097249e+01
 1.439980998581067e+00	 6.416624621216144e-01	 1.456572528209010e+01
 1.433864681846334e+00	 6.552160681230077e-01	 1.453817564528627e+01
 1.427610055289146e+00	 6.687343230632778e-01	 1.450711826100381e+01
 1.421217286028630e+00	 6.822151762304715e-01	 1.447216524352541e+01
 1.489954560756725e+00	 5.500433864204961e-01	 1.460591352355577e+01
 1.484769426244294e+00	 5.638900728474014e-01	 1.459650695413662e+01
 1.479444859017328e+00	 5.777154384542192e-01	 1.458711007612458e+01
 1.473980757819261e+00	 5.915174653435146e-01	 1.457595695160106e+01
 1.468377058841594e+00	 6.052941261612226e-01	 1.456243825490195e+01
 1.462633736117254e+00	 6.190433849325040e-01	 1.454635081477743e+01
 1.456750801892469e+00	 6.327631979131833e-01	 1.452745344706177e+01
 1.450728306976514e+00	 6.464515144561647e-01	 1.450546606915372e+01
 1.444566341068717e+00	 6.601062778921717e-01	 1.448006893523808e+01
 1.438265033062099e+00	 6.737254264241521e-01	 1.445090200519680e+01
 1.431824551323068e+00	 6.873068940346405e-01	 1.441756446018329e+01
 1.325751898387718e+00	 6.363897159731350e-01	 1.501290999287539e+01
 1.319660916968172e+00	 6.489261055084165e-01	 1.495823013968775e+01
 1.313441537155469e+00	 6.614237841935542e-01	 1.490280990624813e+01
 1.307094024747808e+00	 6.738808327793185e-01	 1.484638915836506e+01
 1.300618682876617e+00	 6.862953315521974e-01	 1.478871209600957e+01
 1.294015852148202e+00	 6.986653612236192e-01	 1.472952824560313e+01
 1.287285910760487e+00	 7.109890038268447e-01	 1.466859356493758e+01
 1.280429274594478e+00	 7.232643436207272e-01	 1.460567166518246e+01
 1.273446397280105e+00	 7.354894679995237e-01	 1.454053515397820e+01
 1.266337770236125e+00	 7.476624684079233e-01	 1.447336849823934e+01
 1.259103922683822e+00	 7.597814412604398e-01	 1.440624476602619e+01
 1.336359163679157e+00	 6.414814337810655e-01	 1.494670763881957e+01
 1.330219448665025e+00	 6.541181262535120e-01	 1.489460401262454e+01
 1.323950307949550e+00	 6.667157981524544e-01	 1.484191454403935e+01
 1.317552009457561e+00	 6.792725148728771e-01	 1.478832650808251e+01
 1.311024858745813e+00	 6.917863413417671e-01	 1.473352970231221e+01
 1.304369199145774e+00	 7.042553429144524e-01	 1.467721745793179e+01
 1.297585411881298e+00	 7.166775862786687e-01	 1.461908777052994e+01
 1.290673916160824e+00	 7.290511403655522e-01	 1.455884455530087e+01
 1.283635169243737e+00	 7.413740772667282e-01	 1.449620134890712e+01
 1.276469666480600e+00	 7.536444731566623e-01	 1.443195312913949e+01
 1.269177941326954e+00	 7.658604092194066e-01	 1.436749027443495e+01
 1.346966428971327e+00	 6.465731515886453e-01	 1.488218609682485e+01
 1.340777980362644e+00	 6.593101469982556e-01	 1.483247756343420e+01
 1.334459078744425e+00	 6.720078121109903e-01	 1.478234611137274e+01
 1.328009994168128e+00	 6.846641969660511e-01	 1.473143671587711e+01
 1.321431034615835e+00	 6.972773511309287e-01	 1.467939500111337e+01
 1.314722546144177e+00	 7.098453246048533e-01	 1.462586825298122e+01
 1.307884913002944e+00	 7.223661687300409e-01	 1.457050655858359e+01
 1.300918557728002e+00	 7.348379371099130e-01	 1.451296407763602e+01
 1.293823941208196e+00	 7.472586865334682e-01	 1.445304594773547e+01
 1.286601562725896e+00	 7.596264779049497e-01	 1.439164267798632e+01
 1.279251959970902e+00	 7.719393771779559e-01	 1.432965898262859e+01
 1.357573694264129e+00	 6.516648693958577e-01	 1.481934032001594e+01
 1.351336512060920e+00	 6.645021677426378e-01	 1.477186707037400e+01
 1.344967849539975e+00	 6.772998260691631e-01	 1.472414235944812e+01
 1.338467978879377e+00	 6.900558790588558e-01	 1.467577896831936e+01
 1.331837210486543e+00	 7.027683609197120e-01	 1.462638838911992e+01
 1.325075893143265e+00	 7.154353062948676e-01	 1.457558182239944e+01
 1.318184414125266e+00	 7.280547511810207e-01	 1.452297130821569e+01
 1.311163199295847e+00	 7.406247338538811e-01	 1.446817099670199e+01
 1.304012713173312e+00	 7.531432957998223e-01	 1.441104313928785e+01
 1.296733458971837e+00	 7.656084826528712e-01	 1.435222914998376e+01
 1.289325978615484e+00	 7.780183451361701e-01	 1.429255006988412e+01
 1.368180959557462e+00	 6.567565872026854e-01	 1.475812560921961e+01
 1.361895043759744e+00	 6.696941884866487e-01	 1.471274753434789e+01
 1.355476620336080e+00	 6.825918400269740e-01	 1.466729818426467e+01
 1.348925963591181e+00	 6.954475611513059e-01	 1.462136807484970e+01
 1.342243386357797e+00	 7.082593707081467e-01	 1.457454442860055e+01
 1.335429240142889e+00	 7.210252879845405e-01	 1.452641213939279e+01
 1.328483915248110e+00	 7.337433336316673e-01	 1.447655487805963e+01
 1.321407840864195e+00	 7.464115305975276e-01	 1.442451063146744e+01
 1.314201485138914e+00	 7.590279050658723e-01	 1.436993254190423e+01
 1.306865355218245e+00	 7.715904874005106e-01	 1.431346242991559e+01
 1.299399997260518e+00	 7.840973130941332e-01	 1.425592105871576e+01
 1.378788224851229e+00	 6.618483050091122e-01	 1.469845752209289e+01
 1.372453575459007e+00	 6.748862092302783e-01	 1.465505261037146e+01
 1.365985391132619e+00	 6.878838539844243e-01	 1.461176557949619e+01
 1.359383948303412e+00	 7.008392432434155e-01	 1.456817444089053e+01
 1.352649562229462e+00	 7.137503804962626e-01	 1.452385183931078e+01
 1.345782587142901e+00	 7.266152696739158e-01	 1.447836596779281e+01
 1.338783416371318e+00	 7.394319160820397e-01	 1.443128163055165e+01
 1.331652482432884e+00	 7.521983273409247e-01	 1.438174514778647e+01
 1.324390257104829e+00	 7.649125143316977e-01	 1.432941449934332e+01
 1.316997251464943e+00	 7.775724921479537e-01	 1.427505364379119e+01
 1.309474015905819e+00	 7.901762810519288e-01	 1.421949123151680e+01
 1.389395490145328e+00	 6.669400228151209e-01	 1.464021176739105e+01
 1.383012107158598e+00	 6.800782299735171e-01	 1.459867452253474e+01
 1.376494161929475e+00	 6.931758679415148e-01	 1.455745357126969e+01
 1.369841933015937e+00	 7.062309253351999e-01	 1.451612402132470e+01
 1.363055738101398e+00	 7.192413902840890e-01	 1.447425346932035e+01
 1.356135934143155e+00	 7.322052513630396e-01	 1.443140284864384e+01
 1.349082917494735e+00	 7.451204985321979e-01	 1.438701076177434e+01
 1.341897124001749e+00	 7.579851240841440e-01	 1.433952522866631e+01
 1.334579029070887e+00	 7.707971235973802e-01	 1.428915335576353e+01
 1.327129147711753e+00	 7.835544968952843e-01	 1.423667849353789e+01
 1.319548034551204e+00	 7.962552490096396e-01	 1.418294501947540e+01
 1.400002755439661e+00	 6.720317406206949e-01	 1.458322408516806e+01
 1.393570638858409e+00	 6.852702507163552e-01	 1.454346396334365e+01
 1.387002932726528e+00	 6.984678818982466e-01	 1.450422813581209e+01
 1.380299917728630e+00	 7.116226074266732e-01	 1.446509825538819e+01
 1.373461913973466e+00	 7.247324000716562e-01	 1.442564624586725e+01
 1.366489281143502e+00	 7.377952330519563e-01	 1.438543506551004e+01
 1.359382418618206e+00	 7.508090809822008e-01	 1.434323984519705e+01
 1.352141765570625e+00	 7.637719208272564e-01	 1.429746816166218e+01
 1.344767801036917e+00	 7.766817328629994e-01	 1.424878070604917e+01
 1.337261043958498e+00	 7.895365016425880e-01	 1.419798056616705e+01
 1.329622053196491e+00	 8.023342169673497e-01	 1.414593536523082e+01
 1.410610020734128e+00	 6.771234584258173e-01	 1.452729011365617e+01
 1.404129170558331e+00	 6.904622714587834e-01	 1.448922997826789e+01
 1.397511703523658e+00	 7.037598958546208e-01	 1.445191210087264e+01
 1.390757902441361e+00	 7.170142895178504e-01	 1.441493398396014e+01
 1.383868089845527e+00	 7.302234098589930e-01	 1.437788110729598e+01
 1.376842628143796e+00	 7.433852147407112e-01	 1.434025395348887e+01
 1.369681919741573e+00	 7.564976634321076e-01	 1.429953193902865e+01
 1.362386407139349e+00	 7.695587175703341e-01	 1.425516100547607e+01
 1.354956573002748e+00	 7.825663421286359e-01	 1.420789862277587e+01
 1.347392940204998e+00	 7.955185063899490e-01	 1.415857461875364e+01
 1.339696071841496e+00	 8.084131849251418e-01	 1.410808706064913e+01
 1.421217286028630e+00	 6.822151762304715e-01	 1.447216524352541e+01
 1.414687702258252e+00	 6.956542922007910e-01	 1.443573983627362e+01
 1.408020474320746e+00	 7.090519098106390e-01	 1.440028503177439e+01
 1.401215887154002e+00	 7.224059716087463e-01	 1.436542335017666e+01
 1.394274265717444e+00	 7.357144196461298e-01	 1.433076291707342e+01
 1.387195975143888e+00	 7.489751964293486e-01	 1.429509235273085e+01
 1.379981420864682e+00	 7.621862458819784e-01	 1.425542921800318e+01
 1.372631048707756e+00	 7.753455143134483e-01	 1.421216373276162e+01
 1.365145344968207e+00	 7.884509513943702e-01	 1.416608286103147e+01
 1.357524836451078e+00	 8.015005111374526e-01	 1.411804984048967e+01
 1.349770090486036e+00	 8.144921528830997e-01	 1.406900006101562e+01
 1.431824551323068e+00	 6.873068940346405e-01	 1.441756446018329e+01
 1.425246233958065e+00	 7.008463129423691e-01	 1.438271888707347e+01
 1.418529245117673e+00	 7.143439237663018e-01	 1.434908310289753e+01
 1.411673871866421e+00	 7.277976536993750e-01	 1.431631368423784e+01
 1.404680441589078e+00	 7.412054294330963e-01	 1.428404685352728e+01
 1.397549322143632e+00	 7.545651781179148e-01	 1.424937353118965e+01
 1.390280921987376e+00	 7.678748283318717e-01	 1.421044904010644e+01
 1.382875690275684e+00	 7.811323110566710e-01	 1.416801235277930e+01
 1.375334116933126e+00	 7.943355606602831e-01	 1.412288604223724e+01
 1.367656732696560e+00	 8.074825158851837e-01	 1.407597309299577e+01
 1.359844109129928e+00	 8.205711208413069e-01	 1.402825277686175e+01
 1.259103922683822e+00	 7.597814412604398e-01	 1.440624476602620e+01
 1.251745421938413e+00	 7.718444891048214e-01	 1.433528320142388e+01
 1.244262874276892e+00	 7.838497222840011e-01	 1.425661355568445e+01
 1.236656923949025e+00	 7.957952591674481e-01	 1.417147224909552e+01
 1.228928252776675e+00	 8.076792268415427e-01	 1.408112871866127e+01
 1.221077580031405e+00	 8.194997620365576e-01	 1.398687815940779e+01
 1.213105662284877e+00	 8.312550120525702e-01	 1.389003369979492e+01
 1.205013293232002e+00	 8.429431356833911e-01	 1.379191802877713e+01
 1.196801303486830e+00	 8.545623041375685e-01	 1.369385449631353e+01
 1.188470560351207e+00	 8.661107019555532e-01	 1.359715771340029e+01
 1.180021967556269e+00	 8.775865279220734e-01	 1.350312368195202e+01
 1.269177941326954e+00	 7.658604092194066e-01	 1.436749027443495e+01
 1.261760565637068e+00	 7.780199728213146e-01	 1.429882881672682e+01
 1.254218150538722e+00	 7.901212591862683e-01	 1.422225494124112e+01
 1.246551345436297e+00	 8.021623716288990e-01	 1.413908560229953e+01
 1.238760837606874e+00	 8.141414222504918e-01	 1.405067569388908e+01
 1.230847352076872e+00	 8.260565328733857e-01	 1.395841052826670e+01
 1.222811651471243e+00	 8.379058359742925e-01	 1.386369771030483e+01
 1.214654535835211e+00	 8.496874756156165e-01	 1.376795842529647e+01
 1.206376842428524e+00	 8.613996083738310e-01	 1.367261816243088e+01
 1.197979445492267e+00	 8.730404042639783e-01	 1.357909690066320e+01
 1.189463255988278e+00	 8.846080476593465e-01	 1.348879878819733e+01
 1.279251959970902e+00	 7.719393771779559e-01	 1.432965898262859e+01
 1.271775709336534e+00	 7.841954565374454e-01	 1.426322644334934e+01
 1.264173426801361e+00	 7.963927960882465e-01	 1.418879545105861e+01
 1.256445766924368e+00	 8.085294840901468e-01	 1.410774382718666e+01
 1.248593422437860e+00	 8.206036176593346e-01	 1.402149173496451e+01
 1.240617124123107e+00	 8.326133037102080e-01	 1.393149391694631e+01
 1.232517640658352e+00	 8.445566598961091e-01	 1.383923128935010e+01
 1.224295778439128e+00	 8.564318155480318e-01	 1.374620191105453e+01
 1.215952381370882e+00	 8.682369126103691e-01	 1.365391134982756e+01
 1.207488330633933e+00	 8.799701065727497e-01	 1.356386247311977e+01
 1.198904544420823e+00	 8.916295673970175e-01	 1.347754469550089e+01
 1.289325978615484e+00	 7.780183451361701e-01	 1.429255006988412e+01
 1.281790853036625e+00	 7.903709402532882e-01	 1.422827366845252e+01
 1.274128703064615e+00	 8.026643329899960e-01	 1.415601663460864e+01
 1.266340188413046e+00	 8.148965965512360e-01	 1.407719836259036e+01
 1.258426007269441e+00	 8.270658130680929e-01	 1.399328449367288e+01
 1.250386896169923e+00	 8.391700745470237e-01	 1.390577893421118e+01
 1.242223629846023e+00	 8.512074838179957e-01	 1.381621519094050e+01
 1.233937021043579e+00	 8.631761554805888e-01	 1.372614704143889e+01
 1.225527920313739e+00	 8.750742168471137e-01	 1.363713856264150e+01
 1.216997215776054e+00	 8.868998088817817e-01	 1.355075354530734e+01
 1.208345832853770e+00	 8.986510871349879e-01	 1.346854432734543e+01
 1.299399997260518e+00	 7.840973130941332e-01	 1.425592105871575e+01
 1.291805996737153e+00	 7.965464239689187e-01	 1.419372707746854e+01
 1.284083979328294e+00	 8.089358698915794e-01	 1.412366005572673e+01
 1.276234609902137e+00	 8.212637090122091e-01	 1.404716202161624e+01
 1.268258592101425e+00	 8.335280084767889e-01	 1.396572468258999e+01
 1.260156668217129e+00	 8.457268453838307e-01	 1.388088124559381e+01
 1.251929619034067e+00	 8.578583077399263e-01	 1.379419751421714e+01
 1.243578263648386e+00	 8.699204954132403e-01	 1.370726228073785e+01
 1.235103459256929e+00	 8.819115210839950e-01	 1.362167703621602e+01
 1.226506100918479e+00	 8.938295111909862e-01	 1.353904502706469e+01
 1.217787121286983e+00	 9.056726068731569e-01	 1.346095969179673e+01
 1.309474015905819e+00	 7.901762810519288e-01	 1.421949123151680e+01
 1.301821140437930e+00	 8.027219076844123e-01	 1.415930571282203e+01
 1.294039255592206e+00	 8.152074067930574e-01	 1.409143077374169e+01
 1.286129031391450e+00	 8.276308214731098e-01	 1.401731247596490e+01
 1.278091176933618e+00	 8.399902038854442e-01	 1.393844954385878e+01
 1.269926440264535e+00	 8.522836162206289e-01	 1.385638500838470e+01
 1.261635608222301e+00	 8.645091316618769e-01	 1.377269708693026e+01
 1.253219506253373e+00	 8.766648353459368e-01	 1.368898931691520e+01
 1.244678998200285e+00	 8.887488253209456e-01	 1.360687996653700e+01
 1.236014986061055e+00	 9.007592135002778e-01	 1.352799075156910e+01
 1.227228409720330e+00	 9.126941266114263e-01	 1.345393489267137e+01
 1.319548034551204e+00	 7.962552490096396e-01	 1.418294501947540e+01
 1.311836284138769e+00	 8.088973913998443e-01	 1.412469450462808e+01
 1.303994531856163e+00	 8.214789436944923e-01	 1.405900079706622e+01
 1.296023452880792e+00	 8.339979339339815e-01	 1.398729571395843e+01
 1.287923761765831e+00	 8.464523992940818e-01	 1.391106629364819e+01
 1.279696212311951e+00	 8.588403870574161e-01	 1.383184628498893e+01
 1.271341597410540e+00	 8.711599555838214e-01	 1.375120683065097e+01
 1.262860748858361e+00	 8.834091752786311e-01	 1.367074636214395e+01
 1.254254537143642e+00	 8.955861295578947e-01	 1.359207973008116e+01
 1.245523871203632e+00	 9.076889158095690e-01	 1.351682659903918e+01
 1.236669698153677e+00	 9.197156463496955e-01	 1.344659914219705e+01
 1.329622053196491e+00	 8.023342169673497e-01	 1.414593536523082e+01
 1.321851427839482e+00	 8.150728751152899e-01	 1.408954767484873e+01
 1.313949808119972e+00	 8.277504805959452e-01	 1.402601251070595e+01
 1.305917874369971e+00	 8.403650463948674e-01	 1.395672947366366e+01
 1.297756346597869e+00	 8.529145947027229e-01	 1.388315554358048e+01
 1.289465984359188e+00	 8.653971578941912e-01	 1.380679643579619e+01
 1.281047586598601e+00	 8.778107795057360e-01	 1.372919710868636e+01
 1.272501991463175e+00	 8.901535152112754e-01	 1.365193143985291e+01
 1.263830076086834e+00	 9.024234337947747e-01	 1.357659109458392e+01
 1.255032756346057e+00	 9.146186181187735e-01	 1.350477361633205e+01
 1.246110986586891e+00	 9.267371660878644e-01	 1.343806977508506e+01
 1.339696071841496e+00	 8.084131849251418e-01	 1.410808706064913e+01
 1.331866571539882e+00	 8.212483588308245e-01	 1.405349211630319e+01
 1.323905084383443e+00	 8.340220174974785e-01	 1.399208207905731e+01
 1.315812295858793e+00	 8.467321588558110e-01	 1.392520665242027e+01
 1.307588931429541e+00	 8.593767901113897e-01	 1.385427470033804e+01
 1.299235756406057e+00	 8.719539287309537e-01	 1.378074549263873e+01
 1.290753575786298e+00	 8.844616034275951e-01	 1.370611905760450e+01
 1.282143234067638e+00	 8.968978551438213e-01	 1.363192565899441e+01
 1.273405615029695e+00	 9.092607380315157e-01	 1.355971442120260e+01
 1.264541641488179e+00	 9.215483204278050e-01	 1.349104113265056e+01
 1.255552275019837e+00	 9.337586858258343e-01	 1.342745526394125e+01
 1.349770090486036e+00	 8.144921528830997e-01	 1.406900006101562e+01
 1.341881715239779e+00	 8.274238425465237e-01	 1.401613074784147e+01
 1.333860360646383e+00	 8.402935543991528e-01	 1.395680282528246e+01
 1.325706717347068e+00	 8.530992713168556e-01	 1.389229869400318e+01
 1.317421516260656e+00	 8.658389855201040e-01	 1.382396134458634e+01
 1.309005528452367e+00	 8.785106995677018e-01	 1.375318551385043e+01
 1.300459564973445e+00	 8.911124273493735e-01	 1.368140790322512e+01
 1.291784476671571e+00	 9.036421950762200e-01	 1.361009647620007e+01
 1.282981153972058e+00	 9.160980422680488e-01	 1.354073885852502e+01
 1.274050526629846e+00	 9.284780227365759e-01	 1.347482987156318e+01
 1.264993563452382e+00	 9.407802055635061e-01	 1.341385823594373e+01
 1.359844109129928e+00	 8.205711208413069e-01	 1.402825277686175e+01
 1.351896858938988e+00	 8.335993262624624e-01	 1.397704584691444e+01
 1.343815636908605e+00	 8.465650913010301e-01	 1.391974858847177e+01
 1.335601138834602e+00	 8.594663837780450e-01	 1.385755895457689e+01
 1.327254101091020e+00	 8.723011809288884e-01	 1.379173659028330e+01
 1.318775300497929e+00	 8.850674704044346e-01	 1.372359392187784e+01
 1.310165554159860e+00	 8.977632512710468e-01	 1.365448626187875e+01
 1.301425719274800e+00	 9.103865350084249e-01	 1.358580094644996e+01
 1.292556692913758e+00	 9.229353465043052e-01	 1.351894552884319e+01
 1.283559411770906e+00	 9.354077250450006e-01	 1.345533505952612e+01
 1.274434851884392e+00	 9.478017253007789e-01	 1.339637849072285e+01
 1.180021967556269e+00	 8.775865279220734e-01	 1.350312368195202e+01
 1.171454999673932e+00	 8.889899268341032e-01	 1.340822746752160e+01
 1.162772063296821e+00	 9.003171651262384e-01	 1.330850682904250e+01
 1.153974175008058e+00	 9.115664823039090e-01	 1.320446516371070e+01
 1.145062386564489e+00	 9.227361356821143e-01	 1.309650474921345e+01
 1.136037784502430e+00	 9.338244012640450e-01	 1.298491599021120e+01
 1.126901489717312e+00	 9.448295746094201e-01	 1.286986652332785e+01
 1.117654657017580e+00	 9.557499716916212e-01	 1.275139023675538e+01
 1.108298474653183e+00	 9.665839297427430e-01	 1.262932307449847e+01
 1.098834163819044e+00	 9.773298080856726e-01	 1.250241861657507e+01
 1.089262978133934e+00	 9.879859889523319e-01	 1.236953729932866e+01
 1.189463255988278e+00	 8.846080476593465e-01	 1.348879878819733e+01
 1.180827744284563e+00	 8.961026845154068e-01	 1.339781469939759e+01
 1.172075336228755e+00	 9.075205513947190e-01	 1.330170208397085e+01
 1.163207056537606e+00	 9.188598737171100e-01	 1.320092996405373e+01
 1.154223965383014e+00	 9.301188948544667e-01	 1.309586298991051e+01
 1.145127157994611e+00	 9.412958770163939e-01	 1.298675028203131e+01
 1.135917764236053e+00	 9.523891021254933e-01	 1.287371411239036e+01
 1.126596948155347e+00	 9.633968726813590e-01	 1.275673848318680e+01
 1.117165907509565e+00	 9.743175126123873e-01	 1.263565766449397e+01
 1.107625873264343e+00	 9.851493681145139e-01	 1.251005451347924e+01
 1.097978109068591e+00	 9.958908084760038e-01	 1.237828847318478e+01
 1.198904544420823e+00	 8.916295673970175e-01	 1.347754469550089e+01
 1.190200488895640e+00	 9.032154421971377e-01	 1.339061652171199e+01
 1.181378609161038e+00	 9.147239376636347e-01	 1.329813779285598e+01
 1.172439938067396e+00	 9.261532651307329e-01	 1.320056737131635e+01
 1.163385544201668e+00	 9.375016540272129e-01	 1.309825773926503e+01
 1.154216531486810e+00	 9.487673527690934e-01	 1.299144339032497e+01
 1.144934038754706e+00	 9.599486296418621e-01	 1.288022903785674e+01
 1.135539239292925e+00	 9.710437736713268e-01	 1.276457770052594e+01
 1.126033340365670e+00	 9.820510954821891e-01	 1.264429872911385e+01
 1.116417582709295e+00	 9.929689281434350e-01	 1.251903584153347e+01
 1.106693240002849e+00	 1.003795627999676e+00	 1.238809746838723e+01
 1.208345832853770e+00	 8.986510871349879e-01	 1.346854432734543e+01
 1.199573233507054e+00	 9.103281998791897e-01	 1.338570573858191e+01
 1.190681882093581e+00	 9.219273239328765e-01	 1.329679893488179e+01
 1.181672819597366e+00	 9.334466565446737e-01	 1.320229634601297e+01
 1.172547123020421e+00	 9.448844132002550e-01	 1.310256325159978e+01
 1.163305904979024e+00	 9.562388285220559e-01	 1.299784567626945e+01
 1.153950313273292e+00	 9.675081571584520e-01	 1.288825807565204e+01
 1.144481530430362e+00	 9.786906746614670e-01	 1.277377087633993e+01
 1.134900773221568e+00	 9.897846783521094e-01	 1.265419793644286e+01
 1.125209292153986e+00	 1.000788488172418e+00	 1.252918399657589e+01
 1.115408370936807e+00	 1.011700447523349e+00	 1.239819219397830e+01
 1.217787121286983e+00	 9.056726068731569e-01	 1.346095969179673e+01
 1.208945978118692e+00	 9.174409575614552e-01	 1.338213723071880e+01
 1.199985155026300e+00	 9.291307102023361e-01	 1.329665475923963e+01
 1.190905701127458e+00	 9.407400479588263e-01	 1.320502153115610e+01
 1.181708701839238e+00	 9.522671723734940e-01	 1.310764011396278e+01
 1.172395278471246e+00	 9.637103042751941e-01	 1.300479374135498e+01
 1.162966587791832e+00	 9.750676846751893e-01	 1.289663342752844e+01
 1.153423821567705e+00	 9.863375756517226e-01	 1.278316490895529e+01
 1.143768206077328e+00	 9.975182612221077e-01	 1.266423548307347e+01
 1.134001001598503e+00	 1.008608048201439e+00	 1.253952081675418e+01
 1.124123501870566e+00	 1.019605267047022e+00	 1.240851180047473e+01
 1.227228409720330e+00	 9.126941266114263e-01	 1.345393489267137e+01
 1.218318722730441e+00	 9.245537152438273e-01	 1.337895085433156e+01
 1.209288427959105e+00	 9.363340964719037e-01	 1.329666159565360e+01
 1.200138582657610e+00	 9.480334393730839e-01	 1.320763599763784e+01
 1.190870280658087e+00	 9.596499315468315e-01	 1.311233794893017e+01
 1.181484651963473e+00	 9.711817800284193e-01	 1.301111310948987e+01
 1.171982862310352e+00	 9.826272121920009e-01	 1.290417540366226e+01
 1.162366112705002e+00	 9.939844766420358e-01	 1.279159331102687e+01
 1.152635638933020e+00	 1.005251844092146e+00	 1.267327602739881e+01
 1.142792711042934e+00	 1.016427608230481e+00	 1.254895957202130e+01
 1.132838632804225e+00	 1.027510086570695e+00	 1.241819292026784e+01
 1.236669698153677e+00	 9.197156463496955e-01	 1.344659914219705e+01
 1.227691467342190e+00	 9.316664729261999e-01	 1.337517434700096e+01
 1.218591700891910e+00	 9.435374827414718e-01	 1.329576567612591e+01
 1.209371464187762e+00	 9.553268307873420e-01	 1.320902400387757e+01
 1.200031859476937e+00	 9.670326907201693e-01	 1.311549813354955e+01
 1.190574025455701e+00	 9.786532557816453e-01	 1.301562092598493e+01
 1.180999136828871e+00	 9.901867397088124e-01	 1.290969512175947e+01
 1.171308403842298e+00	 1.001631377632349e+00	 1.279787892817269e+01
 1.161503071788712e+00	 1.012985426962185e+00	 1.268017144649984e+01
 1.151584420487364e+00	 1.024247168259523e+00	 1.255639801886729e+01
 1.141553763737885e+00	 1.035414906094369e+00	 1.242619557762791e+01
 1.246110986586891e+00	 9.267371660878644e-01	 1.343806977508507e+01
 1.237064211953828e+00	 9.387792306084650e-01	 1.336982624015580e+01
 1.227894973824628e+00	 9.507408690109311e-01	 1.329290596730708e+01
 1.218604345717853e+00	 9.626202222014941e-01	 1.320806376897960e+01
 1.209193438295753e+00	 9.744154498934081e-01	 1.311595653357091e+01
 1.199663398947923e+00	 9.861247315347828e-01	 1.301712867252210e+01
 1.190015411347413e+00	 9.977462672255500e-01	 1.291199722179723e+01
 1.180250694979641e+00	 1.009278278622604e+00	 1.280083667187986e+01
 1.170370504644472e+00	 1.020719009832183e+00	 1.268376360495361e+01
 1.160376129931881e+00	 1.032066728288545e+00	 1.256072122210727e+01
 1.150268894671644e+00	 1.043319725618042e+00	 1.243146384716426e+01
 1.255552275019837e+00	 9.337586858258343e-01	 1.342745526394125e+01
 1.246436956565242e+00	 9.458919882905171e-01	 1.336191877780331e+01
 1.237198246757172e+00	 9.579442552801728e-01	 1.328701701293131e+01
 1.227837227247824e+00	 9.699136136154347e-01	 1.320363025869049e+01
 1.218355017114505e+00	 9.817982090664498e-01	 1.311254625216075e+01
 1.208752772440136e+00	 9.935962072877453e-01	 1.301444489726906e+01
 1.199031685865999e+00	 1.005305794742140e+00	 1.290988259557961e+01
 1.189192986117078e+00	 1.016925179612745e+00	 1.279927626593031e+01
 1.179237937500371e+00	 1.028452592702103e+00	 1.268288713493747e+01
 1.169167839376572e+00	 1.039886288317527e+00	 1.256080438483965e+01
 1.158984025605602e+00	 1.051224545141715e+00	 1.243292874917449e+01
 1.264993563452382e+00	 9.407802055635061e-01	 1.341385823594373e+01
 1.255809701176319e+00	 9.530047459722480e-01	 1.335046084118671e+01
 1.246501519689454e+00	 9.651476415490885e-01	 1.327703178579308e+01
 1.237070108777613e+00	 9.772070050290580e-01	 1.319459798348832e+01
 1.227516595933160e+00	 9.891809682391963e-01	 1.310410039234442e+01
 1.217842145932335e+00	 1.001067683040445e+00	 1.300637795934946e+01
 1.208047960384651e+00	 1.012865322258508e+00	 1.290215113033612e+01
 1.198135277254657e+00	 1.024572080602713e+00	 1.279200500564519e+01
 1.188105370356476e+00	 1.036186175571905e+00	 1.267637222704302e+01
 1.177959548821524e+00	 1.047705848346449e+00	 1.255551568615230e+01
 1.167699156539860e+00	 1.059129364665387e+00	 1.242951114895661e+01
 1.274434851884392e+00	 9.478017253007789e-01	 1.339637849072285e+01
 1.265182445786950e+00	 9.601175036535516e-01	 1.333446087906301e+01
 1.255804792621388e+00	 9.723510278175695e-01	 1.326188454876893e+01
 1.246302990307163e+00	 9.845003964422588e-01	 1.317984380817551e+01
 1.236678174751684e+00	 9.965637274115486e-01	 1.308945483246470e+01
 1.226931519424516e+00	 1.008539158792794e+00	 1.299173878692464e+01
 1.217064234903393e+00	 1.020424849774582e+00	 1.288760446563601e+01
 1.207077568392424e+00	 1.032218981592451e+00	 1.277783052928288e+01
 1.196972803212857e+00	 1.043919758441550e+00	 1.266304743124446e+01
 1.186751258266824e+00	 1.055525408375290e+00	 1.254371912617703e+01
 1.176414287474517e+00	 1.067034184189059e+00	 1.242012465988235e+01
 1.089262978133934e+00	 9.879859889523319e-01	 1.236953729932866e+01
 1.079587853994817e+00	 9.985490931701331e-01	 1.223390478224610e+01
 1.069808475305903e+00	 1.009019385353652e+00	 1.209904650649126e+01
 1.059926171668588e+00	 1.019395339229837e+00	 1.196445725580243e+01
 1.049942302767113e+00	 1.029675454534610e+00	 1.182956616944937e+01
 1.039858257740744e+00	 1.039858257740744e+00	 1.169374258082655e+01
 1.029675454534610e+00	 1.049942302767114e+00	 1.155630225253902e+01
 1.019395339229837e+00	 1.059926171668588e+00	 1.141651397498537e+01
 1.009019385353652e+00	 1.069808475305903e+00	 1.127360649341308e+01
 9.985490931701325e-01	 1.079587853994817e+00	 1.112677572658550e+01
 9.879859889523319e-01	 1.089262978133934e+00	 1.097519223856870e+01
 1.097978109068591e+00	 9.958908084760038e-01	 1.237828847318478e+01
 1.088225574813219e+00	 1.006538427487712e+00	 1.224361851599456e+01
 1.078367951873376e+00	 1.017092491881384e+00	 1.210995669725576e+01
 1.068406580488521e+00	 1.027551463172343e+00	 1.197685184667462e+01
 1.058342831221654e+00	 1.037913829092980e+00	 1.184378535137206e+01
 1.048178104326464e+00	 1.048178104326464e+00	 1.171017716164146e+01
 1.037913829092981e+00	 1.058342831221654e+00	 1.157539221099415e+01
 1.027551463172342e+00	 1.068406580488521e+00	 1.143874721614922e+01
 1.017092491881384e+00	 1.078367951873376e+00	 1.129951782050241e+01
 1.006538427487712e+00	 1.088225574813219e+00	 1.115694604268431e+01
 9.958908084760038e-01	 1.097978109068591e+00	 1.101024799011167e+01
 1.106693240002849e+00	 1.003795627999676e+00	 1.238809746838723e+01
 1.096863295631194e+00	 1.014527761805213e+00	 1.225448640961286e+01
 1.086927428440413e+00	 1.025165598408960e+00	 1.212232124540633e+01
 1.076886989308031e+00	 1.035707587114619e+00	 1.199118570972478e+01
 1.066743359675800e+00	 1.046152203651057e+00	 1.186059343291678e+01
 1.056497950911835e+00	 1.056497950911835e+00	 1.172999415158806e+01
 1.046152203651056e+00	 1.066743359675800e+00	 1.159878035233250e+01
 1.035707587114618e+00	 1.076886989308031e+00	 1.146629431353563e+01
 1.025165598408960e+00	 1.086927428440413e+00	 1.133183550723473e+01
 1.014527761805213e+00	 1.096863295631194e+00	 1.119466832100578e+01
 1.003795627999676e+00	 1.106693240002849e+00	 1.105403005805839e+01
 1.115408370936807e+00	 1.011700447523349e+00	 1.239819219397831e+01
 1.105501016448848e+00	 1.022517096122654e+00	 1.226567993076142e+01
 1.095486905007125e+00	 1.033238704936418e+00	 1.213539306669628e+01
 1.085367398127224e+00	 1.043863711056723e+00	 1.200678249880040e+01
 1.075143888129652e+00	 1.054390578208912e+00	 1.187937446442561e+01
 1.064817797496942e+00	 1.064817797496942e+00	 1.175262802614203e+01
 1.054390578208912e+00	 1.075143888129652e+00	 1.162594197792015e+01
 1.043863711056723e+00	 1.085367398127224e+00	 1.149866216921042e+01
 1.033238704936418e+00	 1.095486905007125e+00	 1.137008920724394e+01
 1.022517096122654e+00	 1.105501016448848e+00	 1.123948649577008e+01
 1.011700447523349e+00	 1.115408370936808e+00	 1.110478827330479e+01
 1.124123501870566e+00	 1.019605267047022e+00	 1.240851180047473e+01
 1.114138737266288e+00	 1.030506430440056e+00	 1.227639565358372e+01
 1.104046381573619e+00	 1.041311811463798e+00	 1.214836878235673e+01
 1.093847806946207e+00	 1.052019834998713e+00	 1.202290835168406e+01
 1.083544416583307e+00	 1.062628952766621e+00	 1.189945421551323e+01
 1.073137644081875e+00	 1.073137644081875e+00	 1.177745465609070e+01
 1.062628952766620e+00	 1.083544416583308e+00	 1.165629388454884e+01
 1.052019834998713e+00	 1.093847806946207e+00	 1.153529968779943e+01
 1.041311811463798e+00	 1.104046381573619e+00	 1.141375147341583e+01
 1.030506430440055e+00	 1.114138737266288e+00	 1.129021252104327e+01
 1.019605267047022e+00	 1.124123501870566e+00	 1.115378201285520e+01
 1.132838632804225e+00	 1.027510086570695e+00	 1.241819292026784e+01
 1.122776458083621e+00	 1.038495764757437e+00	 1.228663707718583e+01
 1.112605858140004e+00	 1.049384917991139e+00	 1.216040856679705e+01
 1.102328215765082e+00	 1.060175958940645e+00	 1.203877108784375e+01
 1.091944945036864e+00	 1.070867327324255e+00	 1.192009943577438e+01
 1.081457490666720e+00	 1.081457490666720e+00	 1.180379061755546e+01
 1.070867327324255e+00	 1.091944945036864e+00	 1.168919371065666e+01
 1.060175958940645e+00	 1.102328215765083e+00	 1.157559714632434e+01
 1.049384917991139e+00	 1.112605858140005e+00	 1.146206545719088e+01
 1.038495764757437e+00	 1.122776458083621e+00	 1.133813184331800e+01
 1.027510086570695e+00	 1.132838632804225e+00	 1.119851614472168e+01
 1.141553763737885e+00	 1.035414906094369e+00	 1.242619557762791e+01
 1.131414178900954e+00	 1.046485099074819e+00	 1.229570152389161e+01
 1.121165334706390e+00	 1.057458024518480e+00	 1.217146784195239e+01
 1.110808624583959e+00	 1.068332082882578e+00	 1.205351939914912e+01
 1.100345473490421e+00	 1.079105701881890e+00	 1.194051710604368e+01
 1.089777337251565e+00	 1.089777337251565e+00	 1.183089249081535e+01
 1.079105701881890e+00	 1.100345473490421e+00	 1.172393927023505e+01
 1.068332082882578e+00	 1.110808624583959e+00	 1.161888555122323e+01
 1.057458024518480e+00	 1.121165334706390e+00	 1.150708236553897e+01
 1.046485099074819e+00	 1.131414178900954e+00	 1.137984388675478e+01
 1.035414906094369e+00	 1.141553763737885e+00	 1.123785205061720e+01
 1.150268894671644e+00	 1.043319725618042e+00	 1.243146384716426e+01
 1.140051899718393e+00	 1.054474433392220e+00	 1.230259395023162e+01
 1.129724811272884e+00	 1.065531131045861e+00	 1.218105984201043e+01
 1.119289033402941e+00	 1.076488206824568e+00	 1.206689458921490e+01
 1.108746001944076e+00	 1.087344076439598e+00	 1.195985368069965e+01
 1.098097183836498e+00	 1.098097183836498e+00	 1.185795614851567e+01
 1.087344076439598e+00	 1.108746001944076e+00	 1.175976787506776e+01
 1.076488206824568e+00	 1.119289033402941e+00	 1.165912410779250e+01
 1.065531131045860e+00	 1.129724811272884e+00	 1.154393939317619e+01
 1.054474433392220e+00	 1.140051899718393e+00	 1.141423608838334e+01
 1.043319725618042e+00	 1.150268894671644e+00	 1.127067099624134e+01
 1.158984025605602e+00	 1.051224545141715e+00	 1.243292874917449e+01
 1.148689620536047e+00	 1.062463767709662e+00	 1.230630293087810e+01
 1.138284287839596e+00	 1.073604237573319e+00	 1.218821958028458e+01
 1.127769442222135e+00	 1.084644330766673e+00	 1.207870728173677e+01
 1.117146530397928e+00	 1.095582450997453e+00	 1.197756425394030e+01
 1.106417030421606e+00	 1.106417030421605e+00	 1.188411603381345e+01
 1.095582450997453e+00	 1.117146530397928e+00	 1.179290755023171e+01
 1.084644330766672e+00	 1.127769442222135e+00	 1.168924313347494e+01
 1.073604237573318e+00	 1.138284287839596e+00	 1.157154259774732e+01
 1.062463767709661e+00	 1.148689620536048e+00	 1.144021810542680e+01
 1.051224545141715e+00	 1.158984025605602e+00	 1.129587627401499e+01
 1.167699156539860e+00	 1.059129364665387e+00	 1.242951114895661e+01
 1.157327341354022e+00	 1.070453102027162e+00	 1.230580361851150e+01
 1.146843764406633e+00	 1.081677344100894e+00	 1.219196563819458e+01
 1.136249851041645e+00	 1.092800454708949e+00	 1.208801002029268e+01
 1.125547058852075e+00	 1.103820825555530e+00	 1.199370997665098e+01
 1.114736877006975e+00	 1.114736877006976e+00	 1.190750524918428e+01
 1.103820825555530e+00	 1.125547058852075e+00	 1.181437693811095e+01
 1.092800454708948e+00	 1.136249851041645e+00	 1.170815308020885e+01
 1.081677344100894e+00	 1.146843764406633e+00	 1.158882286172373e+01
 1.070453102027162e+00	 1.157327341354022e+00	 1.145672400624047e+01
 1.059129364665387e+00	 1.167699156539860e+00	 1.131239533663799e+01
 1.176414287474517e+00	 1.067034184189059e+00	 1.242012465988234e+01
 1.165965062172424e+00	 1.078442436344742e+00	 1.230006070378579e+01
 1.155403240974106e+00	 1.089750450628627e+00	 1.219130316665350e+01
 1.144730259861578e+00	 1.100956578651454e+00	 1.209383833314714e+01
 1.133947587306615e+00	 1.112059200113900e+00	 1.200732859658942e+01
 1.123056723592695e+00	 1.123056723592695e+00	 1.191978094327383e+01
 1.112059200113900e+00	 1.133947587306615e+00	 1.182266042187746e+01
 1.100956578651454e+00	 1.144730259861578e+00	 1.171479899479302e+01
 1.089750450628627e+00	 1.155403240974106e+00	 1.159473811943515e+01
 1.078442436344741e+00	 1.165965062172425e+00	 1.146271445160388e+01
 1.067034184189059e+00	 1.176414287474517e+00	 1.131918192193930e+01
 9.879859889523319e-01	 1.089262978133934e+00	 1.097519223856870e+01
 9.773298080856730e-01	 1.098834163819043e+00	 1.082344223468555e+01
 9.665839297427435e-01	 1.108298474653183e+00	 1.067624797204679e+01
 9.557499716916213e-01	 1.117654657017579e+00	 1.053041665292985e+01
 9.448295746094204e-01	 1.126901489717312e+00	 1.037897452380793e+01
 9.338244012640456e-01	 1.136037784502430e+00	 1.022266641715056e+01
 9.227361356821150e-01	 1.145062386564489e+00	 1.006281759986844e+01
 9.115664823039097e-01	 1.153974175008057e+00	 9.900846312127138e+00
 9.003171651262387e-01	 1.162772063296821e+00	 9.738253941050361e+00
 8.889899268341038e-01	 1.171454999673932e+00	 9.576615027222262e+00
 8.775865279220734e-01	 1.180021967556268e+00	 9.417567165060930e+00
 9.958908084760038e-01	 1.097978109068591e+00	 1.101024799011167e+01
 9.851493681145143e-01	 1.107625873264342e+00	 1.086418514653242e+01
 9.743175126123879e-01	 1.117165907509564e+00	 1.072121061626935e+01
 9.633968726813591e-01	 1.126596948155346e+00	 1.057296597294288e+01
 9.523891021254937e-01	 1.135917764236052e+00	 1.041965597484818e+01
 9.412958770163944e-01	 1.145127157994610e+00	 1.026238346484821e+01
 9.301188948544672e-01	 1.154223965383014e+00	 1.010235393968631e+01
 9.188598737171103e-01	 1.163207056537606e+00	 9.940865660286741e+00
 9.075205513947194e-01	 1.172075336228755e+00	 9.779299529637823e+00
 8.961026845154073e-01	 1.180827744284562e+00	 9.619108802221103e+00
 8.846080476593464e-01	 1.189463255988279e+00	 9.461808688884695e+00
 1.003795627999676e+00	 1.106693240002849e+00	 1.105403005805839e+01
 9.929689281434357e-01	 1.116417582709294e+00	 1.091290254661585e+01
 9.820510954821895e-01	 1.126033340365669e+00	 1.076733961443340e+01
 9.710437736713273e-01	 1.135539239292925e+00	 1.061675966841510e+01
 9.599486296418624e-01	 1.144934038754705e+00	 1.046204234239164e+01
 9.487673527690939e-01	 1.154216531486810e+00	 1.030418017128154e+01
 9.375016540272133e-01	 1.163385544201668e+00	 1.014426867802646e+01
 9.261532651307338e-01	 1.172439938067395e+00	 9.983496157045298e+00
 9.147239376636350e-01	 1.181378609161037e+00	 9.823133220836251e+00
 9.032154421971383e-01	 1.190200488895640e+00	 9.664522176693383e+00
 8.916295673970179e-01	 1.198904544420824e+00	 9.509066300415487e+00
 1.011700447523349e+00	 1.115408370936808e+00	 1.110478827330479e+01
 1.000788488172418e+00	 1.125209292153985e+00	 1.096123869277805e+01
 9.897846783521095e-01	 1.134900773221568e+00	 1.081295514854995e+01
 9.786906746614681e-01	 1.144481530430363e+00	 1.066059174125972e+01
 9.675081571584525e-01	 1.153950313273291e+00	 1.050492630286147e+01
 9.562388285220564e-01	 1.163305904979023e+00	 1.034685050920075e+01
 9.448844132002553e-01	 1.172547123020420e+00	 1.018735961216174e+01
 9.334466565446744e-01	 1.181672819597366e+00	 1.002754186039663e+01
 9.219273239328771e-01	 1.190681882093581e+00	 9.868567678428292e+00
 9.103281998791902e-01	 1.199573233507054e+00	 9.711678674254783e+00
 8.986510871349880e-01	 1.208345832853769e+00	 9.558176545471989e+00
 1.019605267047022e+00	 1.124123501870566e+00	 1.115378201285520e+01
 1.008608048201440e+00	 1.134001001598503e+00	 1.100722610390442e+01
 9.975182612221085e-01	 1.143768206077328e+00	 1.085686857735731e+01
 9.863375756517234e-01	 1.153423821567705e+00	 1.070326918956988e+01
 9.750676846751899e-01	 1.162966587791832e+00	 1.054711304278180e+01
 9.637103042751943e-01	 1.172395278471246e+00	 1.038920031850682e+01
 9.522671723734947e-01	 1.181708701839237e+00	 1.023043561874187e+01
 9.407400479588266e-01	 1.190905701127458e+00	 1.007181698731080e+01
 9.291307102023363e-01	 1.199985155026299e+00	 9.914424684461832e+00
 9.174409575614556e-01	 1.208945978118691e+00	 9.759409788170883e+00
 9.056726068731570e-01	 1.217787121286983e+00	 9.607982695474476e+00
 1.027510086570695e+00	 1.132838632804225e+00	 1.119851614472169e+01
 1.016427608230482e+00	 1.142792711042933e+00	 1.104969869349264e+01
 1.005251844092147e+00	 1.152635638933020e+00	 1.089790661737190e+01
 9.939844766420365e-01	 1.162366112705001e+00	 1.074361399226368e+01
 9.826272121920017e-01	 1.171982862310352e+00	 1.058742218690104e+01
 9.711817800284199e-01	 1.181484651963473e+00	 1.043004918078774e+01
 9.596499315468319e-01	 1.190870280658087e+00	 1.027231847751705e+01
 9.480334393730846e-01	 1.200138582657610e+00	 1.011514768925806e+01
 9.363340964719044e-01	 1.209288427959104e+00	 9.959536869023923e+00
 9.245537152438279e-01	 1.218318722730441e+00	 9.806556667669234e+00
 9.126941266114263e-01	 1.227228409720330e+00	 9.657336392413834e+00
 1.035414906094369e+00	 1.141553763737885e+00	 1.123785205061720e+01
 1.024247168259524e+00	 1.151584420487364e+00	 1.108750803028110e+01
 1.012985426962185e+00	 1.161503071788711e+00	 1.093491337878280e+01
 1.001631377632350e+00	 1.171308403842297e+00	 1.078046508625624e+01
 9.901867397088128e-01	 1.180999136828871e+00	 1.062468971954137e+01
 9.786532557816454e-01	 1.190574025455700e+00	 1.046823228759817e+01
 9.670326907201692e-01	 1.200031859476936e+00	 1.031184468915234e+01
 9.553268307873423e-01	 1.209371464187761e+00	 1.015637382201172e+01
 9.435374827414722e-01	 1.218591700891910e+00	 1.000274943433588e+01
 9.316664729262003e-01	 1.227691467342190e+00	 9.851971798476592e+00
 9.197156463496954e-01	 1.236669698153677e+00	 9.705099287829364e+00
 1.043319725618042e+00	 1.150268894671644e+00	 1.127067099624134e+01
 1.032066728288546e+00	 1.160376129931881e+00	 1.111952542694509e+01
 1.020719009832183e+00	 1.170370504644471e+00	 1.096675239341869e+01
 1.009278278622605e+00	 1.180250694979640e+00	 1.081268033655009e+01
 9.977462672255503e-01	 1.190015411347412e+00	 1.065776989952916e+01
 9.861247315347834e-01	 1.199663398947923e+00	 1.050260230280942e+01
 9.744154498934084e-01	 1.209193438295753e+00	 1.034786728743919e+01
 9.626202222014945e-01	 1.218604345717853e+00	 1.019435071002582e+01
 9.507408690109316e-01	 1.227894973824628e+00	 1.004292187346239e+01
 9.387792306084657e-01	 1.237064211953828e+00	 9.894520677882447e+00
 9.267371660878647e-01	 1.246110986586891e+00	 9.750144676108878e+00
 1.051224545141715e+00	 1.158984025605602e+00	 1.129587627401498e+01
 1.039886288317527e+00	 1.169167839376572e+00	 1.114464402029409e+01
 1.028452592702104e+00	 1.179237937500370e+00	 1.099230863520066e+01
 1.016925179612745e+00	 1.189192986117077e+00	 1.083913849961135e+01
 1.005305794742141e+00	 1.199031685865998e+00	 1.068553716903689e+01
 9.935962072877459e-01	 1.208752772440136e+00	 1.053203121933452e+01
 9.817982090664507e-01	 1.218355017114505e+00	 1.037925764619411e+01
 9.699136136154354e-01	 1.227837227247824e+00	 1.022795090566901e+01
 9.579442552801736e-01	 1.237198246757172e+00	 1.007892968391173e+01
 9.458919882905173e-01	 1.246436956565242e+00	 9.933083484610592e+00
 9.337586858258345e-01	 1.255552275019836e+00	 9.791359122400197e+00
 1.059129364665387e+00	 1.167699156539860e+00	 1.131239533663799e+01
 1.047705848346449e+00	 1.177959548821524e+00	 1.116178084340801e+01
 1.036186175571906e+00	 1.188105370356475e+00	 1.101049053346576e+01
 1.024572080602713e+00	 1.198135277254656e+00	 1.085874118037482e+01
 1.012865322258509e+00	 1.208047960384650e+00	 1.070688805664912e+01
 1.001067683040445e+00	 1.217842145932335e+00	 1.055541221051676e+01
 9.891809682391967e-01	 1.227516595933159e+00	 1.040490728111440e+01
 9.772070050290587e-01	 1.237070108777613e+00	 1.025606594357481e+01
 9.651476415490891e-01	 1.246501519689454e+00	 1.010966607638986e+01
 9.530047459722486e-01	 1.255809701176320e+00	 9.966556743762240e+00
 9.407802055635059e-01	 1.264993563452382e+00	 9.827644085412686e+00
 1.067034184189059e+00	 1.176414287474517e+00	 1.131918192193930e+01
 1.055525408375290e+00	 1.186751258266823e+00	 1.116987889012403e+01
 1.043919758441550e+00	 1.196972803212857e+00	 1.102023197952605e+01
 1.032218981592451e+00	 1.207077568392423e+00	 1.087041478320450e+01
 1.020424849774582e+00	 1.217064234903392e+00	 1.072074307494626e+01
 1.008539158792795e+00	 1.226931519424516e+00	 1.057166147645259e+01
 9.965637274115494e-01	 1.236678174751684e+00	 1.042372964684730e+01
 9.845003964422594e-01	 1.246302990307162e+00	 1.027760809035595e+01
 9.723510278175699e-01	 1.255804792621388e+00	 1.013404367894957e+01
 9.601175036535523e-01	 1.265182445786950e+00	 9.993854987080875e+00
 9.478017253007789e-01	 1.274434851884392e+00	 9.857917535363708e+00
 8.775865279220734e-01	 1.180021967556268e+00	 9.417567165060934e+00
 8.661107019555532e-01	 1.188470560351208e+00	 9.257850145095578e+00
 8.545623041375688e-01	 1.196801303486830e+00	 9.093700150268244e+00
 8.429431356833911e-01	 1.205013293232002e+00	 8.926126616338484e+00
 8.312550120525709e-01	 1.213105662284877e+00	 8.756140036727437e+00
 8.194997620365579e-01	 1.221077580031405e+00	 8.584743649285631e+00
 8.076792268415429e-01	 1.228928252776675e+00	 8.412925382993919e+00
 7.957952591674486e-01	 1.236656923949024e+00	 8.241650112504086e+00
 7.838497222840017e-01	 1.244262874276892e+00	 8.071852265688058e+00
 7.718444891048222e-01	 1.251745421938413e+00	 7.904428826375226e+00
 7.597814412604397e-01	 1.259103922683821e+00	 7.740232771246029e+00
 8.846080476593464e-01	 1.189463255988279e+00	 9.461808688884695e+00
 8.730404042639780e-01	 1.197979445492267e+00	 9.303755644619176e+00
 8.613996083738314e-01	 1.206376842428524e+00	 9.140940817106813e+00
 8.496874756156167e-01	 1.214654535835211e+00	 8.974458536824329e+00
 8.379058359742927e-01	 1.222811651471243e+00	 8.805406100152538e+00
 8.260565328733862e-01	 1.230847352076872e+00	 8.634874896055951e+00
 8.141414222504922e-01	 1.238760837606874e+00	 8.463941806566599e+00
 8.021623716288993e-01	 1.246551345436297e+00	 8.293660931725874e+00
 7.901212591862693e-01	 1.254218150538722e+00	 8.125055686753484e+00
 7.780199728213157e-01	 1.261760565637067e+00	 7.959111316067774e+00
 7.658604092194067e-01	 1.269177941326953e+00	 7.796767865400279e+00
 8.916295673970179e-01	 1.198904544420824e+00	 9.509066300415487e+00
 8.799701065727497e-01	 1.207488330633932e+00	 9.352797105930897e+00
 8.682369126103692e-01	 1.215952381370882e+00	 9.191500096921200e+00
 8.564318155480319e-01	 1.224295778439128e+00	 9.026336071615408e+00
 8.445566598961094e-01	 1.232517640658352e+00	 8.858470188495616e+00
 8.326133037102086e-01	 1.240617124123107e+00	 8.689062540553790e+00
 8.206036176593348e-01	 1.248593422437860e+00	 8.519259018416635e+00
 8.085294840901474e-01	 1.256445766924367e+00	 8.350182515794092e+00
 7.963927960882471e-01	 1.264173426801360e+00	 8.182924527676452e+00
 7.841954565374464e-01	 1.271775709336533e+00	 8.018537188390400e+00
 7.719393771779559e-01	 1.279251959970902e+00	 7.858025793074741e+00
 8.986510871349880e-01	 1.208345832853769e+00	 9.558176545471991e+00
 8.868998088817815e-01	 1.216997215776054e+00	 9.403819184408723e+00
 8.750742168471137e-01	 1.225527920313739e+00	 9.244219220151653e+00
 8.631761554805891e-01	 1.233937021043579e+00	 9.080586075731542e+00
 8.512074838179959e-01	 1.242223629846022e+00	 8.914134419280572e+00
 8.391700745470240e-01	 1.250386896169923e+00	 8.746074192281442e+00
 8.270658130680932e-01	 1.258426007269441e+00	 8.577600942957835e+00
 8.148965965512365e-01	 1.266340188413045e+00	 8.409886521133592e+00
 8.026643329899964e-01	 1.274128703064614e+00	 8.244070187690955e+00
 7.903709402532891e-01	 1.281790853036624e+00	 8.081250188280318e+00
 7.780183451361700e-01	 1.289325978615484e+00	 7.922475837193412e+00
 9.056726068731570e-01	 1.217787121286983e+00	 9.607982695474476e+00
 8.938295111909862e-01	 1.226506100918479e+00	 9.455672150718041e+00
 8.819115210839953e-01	 1.235103459256929e+00	 9.297944270707859e+00
 8.699204954132406e-01	 1.243578263648386e+00	 9.136039835666265e+00
 8.578583077399269e-01	 1.251929619034067e+00	 8.971205250362567e+00
 8.457268453838311e-01	 1.260156668217128e+00	 8.804682031504591e+00
 8.335280084767893e-01	 1.268258592101424e+00	 8.637696617782979e+00
 8.212637090122098e-01	 1.276234609902137e+00	 8.471450561831332e+00
 8.089358698915800e-01	 1.284083979328293e+00	 8.307111160001355e+00
 7.965464239689195e-01	 1.291805996737152e+00	 8.145802572196692e+00
 7.840973130941332e-01	 1.299399997260518e+00	 7.988597480078553e+00
 9.126941266114263e-01	 1.227228409720330e+00	 9.657336392413834e+00
 9.007592135002779e-01	 1.236014986061055e+00	 9.507213488072530e+00
 8.887488253209458e-01	 1.244678998200285e+00	 9.351527721192408e+00
 8.766648353459370e-01	 1.253219506253372e+00	 9.191534528887274e+00
 8.645091316618770e-01	 1.261635608222300e+00	 9.028494850668768e+00
 8.522836162206291e-01	 1.269926440264534e+00	 8.863664078856889e+00
 8.399902038854451e-01	 1.278091176933618e+00	 8.698281350418453e+00
 8.276308214731105e-01	 1.286129031391450e+00	 8.533559242498765e+00
 8.152074067930583e-01	 1.294039255592206e+00	 8.370673930381528e+00
 8.027219076844132e-01	 1.301821140437929e+00	 8.210755862767545e+00
 7.901762810519287e-01	 1.309474015905818e+00	 8.054881005136210e+00
 9.197156463496954e-01	 1.236669698153677e+00	 9.705099287829364e+00
 9.076889158095692e-01	 1.245523871203632e+00	 9.557309483558969e+00
 8.955861295578948e-01	 1.254254537143642e+00	 9.403829962880945e+00
 8.834091752786316e-01	 1.262860748858361e+00	 9.245914679400501e+00
 8.711599555838220e-01	 1.271341597410540e+00	 9.084822468900242e+00
 8.588403870574164e-01	 1.279696212311950e+00	 8.921805465364921e+00
 8.464523992940823e-01	 1.287923761765830e+00	 8.758097878495942e+00
 8.339979339339820e-01	 1.296023452880792e+00	 8.594905198055947e+00
 8.214789436944931e-01	 1.303994531856163e+00	 8.433393886686408e+00
 8.088973913998450e-01	 1.311836284138768e+00	 8.274681618794057e+00
 7.962552490096396e-01	 1.319548034551204e+00	 8.119828118774011e+00
 9.267371660878647e-01	 1.246110986586891e+00	 9.750144676108874e+00
 9.146186181187737e-01	 1.255032756346057e+00	 9.604836813832694e+00
 9.024234337947747e-01	 1.263830076086834e+00	 9.453720830731035e+00
 8.901535152112756e-01	 1.272501991463175e+00	 9.298033609581568e+00
 8.778107795057360e-01	 1.281047586598600e+00	 9.139015800296578e+00
 8.653971578941918e-01	 1.289465984359188e+00	 8.977899702865027e+00
 8.529145947027233e-01	 1.297756346597869e+00	 8.815897533152491e+00
 8.403650463948679e-01	 1.305917874369970e+00	 8.654190140065362e+00
 8.277504805959461e-01	 1.313949808119971e+00	 8.493916238691556e+00
 8.150728751152907e-01	 1.321851427839482e+00	 8.336162219792859e+00
 8.023342169673497e-01	 1.329622053196491e+00	 8.181952591472708e+00
 9.337586858258345e-01	 1.255552275019836e+00	 9.791359122400197e+00
 9.215483204278049e-01	 1.264541641488179e+00	 9.648684125475796e+00
 9.092607380315159e-01	 1.273405615029695e+00	 9.500081123674939e+00
 8.968978551438210e-01	 1.282143234067637e+00	 9.346754888463717e+00
 8.844616034275953e-01	 1.290753575786297e+00	 9.189912351559672e+00
 8.719539287309540e-01	 1.299235756406056e+00	 9.030749954784984e+00
 8.593767901113905e-01	 1.307588931429541e+00	 8.870441405485261e+00
 8.467321588558119e-01	 1.315812295858793e+00	 8.710125909265834e+00
 8.340220174974788e-01	 1.323905084383442e+00	 8.550896947711545e+00
 8.212483588308254e-01	 1.331866571539881e+00	 8.393791664306860e+00
 8.084131849251418e-01	 1.339696071841495e+00	 8.239780916999226e+00
 9.407802055635059e-01	 1.264993563452382e+00	 9.827644085412686e+00
 9.284780227365758e-01	 1.274050526629845e+00	 9.687753610289757e+00
 9.160980422680488e-01	 1.282981153972057e+00	 9.541804120436211e+00
 9.036421950762203e-01	 1.291784476671571e+00	 9.390953776662769e+00
 8.911124273493740e-01	 1.300459564973445e+00	 9.236360804025848e+00
 8.785106995677024e-01	 1.309005528452367e+00	 9.079170307267631e+00
 8.658389855201042e-01	 1.317421516260655e+00	 8.920501515893594e+00
 8.530992713168561e-01	 1.325706717347068e+00	 8.761435533976115e+00
 8.402935543991537e-01	 1.333860360646383e+00	 8.603003665481513e+00
 8.274238425465245e-01	 1.341881715239779e+00	 8.446176381258049e+00
 8.144921528830998e-01	 1.349770090486035e+00	 8.291852988807264e+00
 9.478017253007789e-01	 1.274434851884392e+00	 9.857917535363711e+00
 9.354077250450006e-01	 1.283559411770906e+00	 9.720962575776865e+00
 9.229353465043052e-01	 1.292556692913758e+00	 9.577797091095297e+00
 9.103865350084254e-01	 1.301425719274800e+00	 9.429518668104830e+00
 8.977632512710472e-01	 1.310165554159859e+00	 9.277222375171000e+00
 8.850674704044351e-01	 1.318775300497929e+00	 9.121987040608749e+00
 8.723011809288889e-01	 1.327254101091019e+00	 8.964861986154158e+00
 8.594663837780459e-01	 1.335601138834602e+00	 8.806854294057224e+00
 8.465650913010312e-01	 1.343815636908605e+00	 8.648916681813082e+00
 8.335993262624637e-01	 1.351896858938988e+00	 8.491936053661592e+00
 8.205711208413068e-01	 1.359844109129928e+00	 8.336722792729660e+00
 7.597814412604397e-01	 1.259103922683821e+00	 7.740232771246029e+00
 7.476624684079234e-01	 1.266337770236125e+00	 7.576845626277216e+00
 7.354894679995240e-01	 1.273446397280105e+00	 7.411890999477286e+00
 7.232643436207274e-01	 1.280429274594478e+00	 7.246406535595332e+00
 7.109890038268452e-01	 1.287285910760486e+00	 7.080939216529146e+00
 6.986653612236197e-01	 1.294015852148201e+00	 6.915894690601478e+00
 6.862953315521984e-01	 1.300618682876617e+00	 6.751629417470560e+00
 6.738808327793194e-01	 1.307094024747807e+00	 6.588450114921573e+00
 6.614237841935553e-01	 1.313441537155469e+00	 6.426613500540691e+00
 6.489261055084177e-01	 1.319660916968172e+00	 6.266326330845732e+00
 6.363897159731353e-01	 1.325751898387718e+00	 6.107745738448351e+00
 7.658604092194067e-01	 1.269177941326953e+00	 7.796767865400279e+00
 7.536444731566623e-01	 1.276469666480599e+00	 7.635639360217443e+00
 7.413740772667287e-01	 1.283635169243736e+00	 7.473228684767701e+00
 7.290511403655525e-01	 1.290673916160824e+00	 7.310369368700789e+00
 7.166775862786695e-01	 1.297585411881298e+00	 7.147700746491026e+00
 7.042553429144529e-01	 1.304369199145774e+00	 6.985530857111129e+00
 6.917863413417679e-01	 1.311024858745813e+00	 6.824114265720239e+00
 6.792725148728778e-01	 1.317552009457561e+00	 6.663652207414705e+00
 6.667157981524553e-01	 1.323950307949550e+00	 6.504292431498966e+00
 6.541181262535132e-01	 1.330219448665024e+00	 6.346129360594770e+00
 6.414814337810656e-01	 1.336359163679157e+00	 6.189204565114742e+00
 7.719393771779559e-01	 1.279251959970902e+00	 7.858025793074741e+00
 7.596264779049500e-01	 1.286601562725896e+00	 7.698985285223281e+00
 7.472586865334683e-01	 1.293823941208196e+00	 7.538823493847987e+00
 7.348379371099135e-01	 1.300918557728002e+00	 7.378201945715631e+00
 7.223661687300414e-01	 1.307884913002943e+00	 7.217782604117785e+00
 7.098453246048539e-01	 1.314722546144177e+00	 7.057852193201505e+00
 6.972773511309294e-01	 1.321431034615834e+00	 6.898592753875041e+00
 6.846641969660521e-01	 1.328009994168127e+00	 6.740129842279810e+00
 6.720078121109915e-01	 1.334459078744425e+00	 6.582532425388861e+00
 6.593101469982569e-01	 1.340777980362643e+00	 6.425813109502842e+00
 6.465731515886454e-01	 1.346966428971327e+00	 6.269928702215415e+00
 7.780183451361700e-01	 1.289325978615484e+00	 7.922475837193412e+00
 7.656084826528715e-01	 1.296733458971837e+00	 7.765285122436643e+00
 7.531432957998226e-01	 1.304012713173312e+00	 7.606985436429701e+00
 7.406247338538814e-01	 1.311163199295847e+00	 7.448182844748811e+00
 7.280547511810210e-01	 1.318184414125266e+00	 7.289457117502277e+00
 7.154353062948683e-01	 1.325075893143264e+00	 7.131142019792925e+00
 7.027683609197126e-01	 1.331837210486542e+00	 6.973375726703170e+00
 6.900558790588570e-01	 1.338467978879377e+00	 6.816237194023007e+00
 6.772998260691644e-01	 1.344967849539975e+00	 6.659746054294207e+00
 6.645021677426389e-01	 1.351336512060919e+00	 6.503862864523593e+00
 6.516648693958578e-01	 1.357573694264129e+00	 6.348489706275084e+00
 7.840973130941332e-01	 1.299399997260518e+00	 7.988597480078553e+00
 7.715904874005111e-01	 1.306865355218245e+00	 7.832952332394310e+00
 7.590279050658725e-01	 1.314201485138914e+00	 7.676081207445241e+00
 7.464115305975280e-01	 1.321407840864195e+00	 7.518590660309602e+00
 7.337433336316675e-01	 1.328483915248109e+00	 7.361008338455981e+00
 7.210252879845409e-01	 1.335429240142888e+00	 7.203695213333430e+00
 7.082593707081474e-01	 1.342243386357797e+00	 7.046784949482497e+00
 6.954475611513069e-01	 1.348925963591181e+00	 6.890338281289869e+00
 6.825918400269751e-01	 1.355476620336079e+00	 6.734354242267903e+00
 6.696941884866500e-01	 1.361895043759744e+00	 6.578770382210475e+00
 6.567565872026853e-01	 1.368180959557462e+00	 6.423463356470808e+00
 7.901762810519287e-01	 1.309474015905818e+00	 8.054881005136210e+00
 7.775724921479539e-01	 1.316997251464943e+00	 7.900412571082527e+00
 7.649125143316983e-01	 1.324390257104829e+00	 7.744490572908159e+00
 7.521983273409253e-01	 1.331652482432883e+00	 7.587748396072506e+00
 7.394319160820404e-01	 1.338783416371318e+00	 7.430732233320709e+00
 7.266152696739167e-01	 1.345782587142901e+00	 7.273818346036808e+00
 7.137503804962633e-01	 1.352649562229462e+00	 7.117153216692095e+00
 7.008392432434165e-01	 1.359383948303410e+00	 6.960807062209213e+00
 6.878838539844252e-01	 1.365985391132619e+00	 6.804786364686828e+00
 6.748862092302792e-01	 1.372453575459006e+00	 6.649034008587964e+00
 6.618483050091121e-01	 1.378788224851228e+00	 6.493429810667387e+00
 7.962552490096396e-01	 1.319548034551204e+00	 8.119828118774011e+00
 7.835544968952843e-01	 1.327129147711753e+00	 7.966104170780241e+00
 7.707971235973806e-01	 1.334579029070888e+00	 7.810606731374814e+00
 7.579851240841443e-01	 1.341897124001748e+00	 7.654021784554258e+00
 7.451204985321983e-01	 1.349082917494735e+00	 7.496944892141453e+00
 7.322052513630402e-01	 1.356135934143154e+00	 7.339829859368431e+00
 7.192413902840898e-01	 1.363055738101397e+00	 7.182824493815802e+00
 7.062309253352006e-01	 1.369841933015936e+00	 7.026027561895475e+00
 6.931758679415158e-01	 1.376494161929475e+00	 6.869480378030239e+00
 6.800782299735184e-01	 1.383012107158598e+00	 6.713158826978558e+00
 6.669400228151211e-01	 1.389395490145328e+00	 6.556973786243042e+00
 8.023342169673497e-01	 1.329622053196491e+00	 8.181952591472708e+00
 7.895365016425879e-01	 1.337261043958497e+00	 8.028478644375596e+00
 7.766817328629998e-01	 1.344767801036918e+00	 7.872836702231197e+00
 7.637719208272572e-01	 1.352141765570625e+00	 7.715790570758404e+00
 7.508090809822011e-01	 1.359382418618206e+00	 7.558010512401550e+00
 7.377952330519568e-01	 1.366489281143502e+00	 7.400060269014031e+00
 7.247324000716566e-01	 1.373461913973465e+00	 7.242154090502224e+00
 7.116226074266740e-01	 1.380299917728629e+00	 7.084394030400921e+00
 6.984678818982474e-01	 1.387002932726527e+00	 6.926882978470275e+00
 6.852702507163566e-01	 1.393570638858409e+00	 6.769656832300598e+00
 6.720317406206950e-01	 1.400002755439662e+00	 6.612684764387167e+00
 8.084131849251418e-01	 1.339696071841495e+00	 8.239780916999226e+00
 7.955185063899491e-01	 1.347392940204998e+00	 8.086001211911395e+00
 7.825663421286360e-01	 1.354956573002748e+00	 7.929601739389827e+00
 7.695587175703347e-01	 1.362386407139349e+00	 7.771448828090213e+00
 7.564976634321084e-01	 1.369681919741574e+00	 7.612312492326882e+00
 7.433852147407117e-01	 1.376842628143796e+00	 7.452860488915782e+00
 7.302234098589937e-01	 1.383868089845526e+00	 7.293508863423643e+00
 7.170142895178514e-01	 1.390757902441360e+00	 7.134311129513170e+00
 7.037598958546218e-01	 1.397511703523657e+00	 6.975449787750694e+00
 6.904622714587847e-01	 1.404129170558330e+00	 6.817047130440320e+00
 6.771234584258173e-01	 1.410610020734129e+00	 6.659157216636313e+00
 8.144921528830998e-01	 1.349770090486035e+00	 8.291852988807264e+00
 8.015005111374528e-01	 1.357524836451078e+00	 8.137151348195877e+00
 7.884509513943704e-01	 1.365145344968207e+00	 7.979337769061431e+00
 7.753455143134489e-01	 1.372631048707756e+00	 7.819405304618069e+00
 7.621862458819787e-01	 1.379981420864682e+00	 7.658248253199123e+00
 7.489751964293493e-01	 1.387195975143888e+00	 7.496655708129763e+00
 7.357144196461305e-01	 1.394274265717444e+00	 7.335267447282387e+00
 7.224059716087471e-01	 1.401215887154000e+00	 7.174194146888299e+00
 7.090519098106400e-01	 1.408020474320745e+00	 7.013645564928620e+00
 6.956542922007924e-01	 1.414687702258252e+00	 6.853856161387650e+00
 6.822151762304715e-01	 1.421217286028630e+00	 6.694990852479890e+00
 8.205711208413068e-01	 1.359844109129928e+00	 8.336722792729660e+00
 8.074825158851835e-01	 1.367656732696559e+00	 8.180423350380575e+00
 7.943355606602834e-01	 1.375334116933126e+00	 8.020495850350153e+00
 7.811323110566714e-01	 1.382875690275684e+00	 7.858083794226220e+00
 7.678748283318723e-01	 1.390280921987376e+00	 7.694229799165116e+00
 7.545651781179151e-01	 1.397549322143632e+00	 7.529868584914603e+00
 7.412054294330972e-01	 1.404680441589078e+00	 7.365820955179490e+00
 7.277976536993761e-01	 1.411673871866421e+00	 7.202469236097496e+00
 7.143439237663031e-01	 1.418529245117672e+00	 7.039944442635020e+00
 7.008463129423703e-01	 1.425246233958064e+00	 6.878617944900140e+00
 6.873068940346406e-01	 1.431824551323068e+00	 6.718790886944685e+00
 6.363897159731353e-01	 1.325751898387718e+00	 6.107745738448351e+00
 6.238143927944546e-01	 1.331715255341965e+00	 5.949983061978610e+00
 6.112041801789185e-01	 1.337549748854247e+00	 5.792382370787028e+00
 5.985609910888493e-01	 1.343255223031063e+00	 5.635300638757133e+00
 5.858867345788151e-01	 1.348831558528027e+00	 5.479053128624365e+00
 5.731833149554847e-01	 1.354278672290895e+00	 5.323914749761866e+00
 5.604526309494833e-01	 1.359596517274411e+00	 5.170121678486275e+00
 5.476965748998995e-01	 1.364785082139538e+00	 5.017873229225460e+00
 5.349170319520563e-01	 1.369844390929616e+00	 4.867333963357529e+00
 5.221158792691485e-01	 1.374774502726036e+00	 4.718636021095767e+00
 5.092949852583081e-01	 1.379575511284022e+00	 4.571881660484460e+00
 6.414814337810656e-01	 1.336359163679157e+00	 6.189204565114740e+00
 6.288054961592907e-01	 1.342370233111966e+00	 6.032610549278449e+00
 6.160943899522002e-01	 1.348251408073803e+00	 5.875754811404038e+00
 6.033500434276269e-01	 1.354002531423868e+00	 5.718999620926433e+00
 5.905743809143847e-01	 1.359623482862905e+00	 5.562664324956463e+00
 5.777693219553985e-01	 1.365114178672153e+00	 5.407026725947877e+00
 5.649367804729376e-01	 1.370474571429947e+00	 5.252324737950069e+00
 5.520786639465950e-01	 1.375704649706526e+00	 5.098758309344998e+00
 5.391968726046424e-01	 1.380804437737592e+00	 4.946491598338346e+00
 5.262932986293579e-01	 1.385773995077241e+00	 4.795655385959474e+00
 5.133698253769002e-01	 1.390613416230827e+00	 4.646349709925378e+00
 6.465731515886454e-01	 1.346966428971327e+00	 6.269928702215415e+00
 6.337965995237628e-01	 1.353025210882653e+00	 6.114006560675998e+00
 6.209845997250926e-01	 1.358953067293991e+00	 5.957557230393639e+00
 6.081390957659799e-01	 1.364749839817246e+00	 5.800957858056874e+00
 5.952620272494861e-01	 1.370415407198292e+00	 5.644541438903641e+00
 5.823553289547959e-01	 1.375949685053855e+00	 5.488598198977195e+00
 5.694209299958243e-01	 1.381352625585862e+00	 5.333377272948086e+00
 5.564607529926715e-01	 1.386624217273826e+00	 5.179088664961427e+00
 5.434767132565599e-01	 1.391764484545820e+00	 5.025905478247413e+00
 5.304707179888535e-01	 1.396773487428643e+00	 4.873966397623982e+00
 5.174446654947398e-01	 1.401651321177778e+00	 4.723378407537247e+00
 6.516648693958578e-01	 1.357573694264129e+00	 6.348489706275083e+00
 6.387877028878524e-01	 1.363680188653936e+00	 6.192838272819353e+00
 6.258748094975788e-01	 1.369654726514733e+00	 6.036557872516912e+00
 6.129281481038973e-01	 1.375497148211128e+00	 5.880049832949394e+00
 5.999496735841178e-01	 1.381207331534129e+00	 5.723670074728911e+00
 5.869413359536866e-01	 1.386785191435949e+00	 5.567730483244508e+00
 5.739050795181665e-01	 1.392230679742111e+00	 5.412500593896398e+00
 5.608428420381667e-01	 1.397543784841404e+00	 5.258209577849548e+00
 5.477565539078623e-01	 1.402724531354271e+00	 5.105048513512934e+00
 5.346481373477043e-01	 1.407772979780219e+00	 4.953172927245164e+00
 5.215195056119116e-01	 1.412689226124860e+00	 4.802705585216392e+00
 6.567565872026853e-01	 1.368180959557462e+00	 6.423463356470810e+00
 6.437788062515399e-01	 1.374335166425726e+00	 6.267774605557886e+00
 6.307650192696416e-01	 1.380356385735947e+00	 6.111524135975499e+00
 6.177172004413672e-01	 1.386244456605442e+00	 5.955146491257898e+00
 6.046373199182772e-01	 1.391999255870354e+00	 5.799029517493018e+00
 5.915273429520796e-01	 1.397620697818384e+00	 5.643515709642526e+00
 5.783892290399865e-01	 1.403108733898651e+00	 5.488903890248338e+00
 5.652249310831182e-01	 1.408463352409224e+00	 5.335451207131667e+00
 5.520363945586024e-01	 1.413684578162918e+00	 5.183375434764580e+00
 5.388255567059793e-01	 1.418772472131947e+00	 5.032857562185255e+00
 5.255943457284998e-01	 1.423727131072057e+00	 4.884044648659526e+00
 6.618483050091121e-01	 1.378788224851228e+00	 6.493429810667389e+00
 6.487699096148062e-01	 1.384990144197934e+00	 6.337486424815834e+00
 6.356552290412640e-01	 1.391058044957555e+00	 6.181222828214688e+00
 6.225062527783789e-01	 1.396991765000120e+00	 6.025115556043756e+00
 6.093249662519614e-01	 1.402791180206906e+00	 5.869593111909905e+00
 5.961133499499839e-01	 1.408456204201107e+00	 5.715037273996124e+00
 5.828733785613076e-01	 1.413986788055439e+00	 5.561784753501641e+00
 5.696070201275637e-01	 1.419382919977251e+00	 5.410129191565312e+00
 5.563162352088334e-01	 1.424644624971731e+00	 5.260323478822205e+00
 5.430029760637477e-01	 1.429771964483805e+00	 5.112582379830552e+00
 5.296691858445886e-01	 1.434765036019351e+00	 4.967085442839762e+00
 6.669400228151211e-01	 1.389395490145328e+00	 6.556973786243042e+00
 6.537610129776324e-01	 1.395645121970468e+00	 6.400646766625349e+00
 6.405454388124290e-01	 1.401759704179478e+00	 6.244420438998409e+00
 6.272953051149205e-01	 1.407739073395091e+00	 6.088821855478928e+00
 6.140126125851687e-01	 1.413583104543725e+00	 5.934328650006227e+00
 6.006993569474094e-01	 1.419291710584067e+00	 5.781370289738826e+00
 5.873575280821524e-01	 1.424864842212432e+00	 5.630329699689827e+00
 5.739891091715404e-01	 1.430302487545450e+00	 5.481545246378237e+00
 5.605960758586094e-01	 1.435604671780685e+00	 5.335313064125675e+00
 5.471803954210783e-01	 1.440771456835773e+00	 5.191889705590258e+00
 5.337440259602624e-01	 1.445802940966728e+00	 5.051495096267211e+00
 6.720317406206950e-01	 1.400002755439662e+00	 6.612684764387168e+00
 6.587521163399993e-01	 1.406300099743242e+00	 6.455931081193812e+00
 6.454356485831195e-01	 1.412461363401635e+00	 6.299883429843767e+00
 6.320843574509815e-01	 1.418486381790286e+00	 6.145127663002343e+00
 6.187002589178972e-01	 1.424375028880752e+00	 5.992198767111111e+00
 6.052853639443648e-01	 1.430127216967215e+00	 5.841582044604252e+00
 5.918416776025437e-01	 1.435742896369587e+00	 5.693714691385635e+00
 5.783711982150863e-01	 1.441222055113786e+00	 5.548987754938545e+00
 5.648759165079825e-01	 1.446564718589748e+00	 5.407748456166516e+00
 5.513578147780399e-01	 1.451770949187827e+00	 5.270302855918160e+00
 5.378188660756057e-01	 1.456840845914170e+00	 5.136918845162497e+00
 6.771234584258173e-01	 1.410610020734129e+00	 6.659157216636311e+00
 6.637432197018879e-01	 1.416955077516164e+00	 6.502017495950076e+00
 6.503258583533182e-01	 1.423163022623947e+00	 6.346378538947247e+00
 6.368734097865499e-01	 1.429233690185635e+00	 6.192893049270369e+00
 6.233879052501440e-01	 1.435166953217925e+00	 6.042161345742478e+00
 6.098713709408596e-01	 1.440962723350495e+00	 5.894732461120983e+00
 5.963258271225040e-01	 1.446620950526861e+00	 5.751105659242325e+00
 5.827532872582389e-01	 1.452141622682223e+00	 5.611732355531961e+00
 5.691557571570063e-01	 1.457524765398896e+00	 5.477018423445876e+00
 5.555352341347017e-01	 1.462770441539946e+00	 5.347326867143751e+00
 5.418937061907029e-01	 1.467878750861661e+00	 5.222980838598024e+00
 6.822151762304715e-01	 1.421217286028630e+00	 6.694990852479893e+00
 6.687343230632783e-01	 1.427610055289146e+00	 6.537587096576608e+00
 6.552160681230083e-01	 1.433864681846334e+00	 6.382673100796296e+00
 6.416624621216148e-01	 1.439980998581067e+00	 6.230976245285401e+00
 6.280755515819070e-01	 1.445958877555184e+00	 6.083169926972783e+00
 6.144573779369029e-01	 1.451798229733859e+00	 5.939874560712514e+00
 6.008099766420562e-01	 1.457499004684210e+00	 5.801659023094299e+00
 5.871353763010360e-01	 1.463061190250726e+00	 5.669042523503315e+00
 5.734355978057343e-01	 1.468484812208098e+00	 5.542496884454959e+00
 5.597126534911326e-01	 1.473769933892109e+00	 5.422449210855738e+00
 5.459685463056382e-01	 1.478916655809186e+00	 5.309284925604446e+00
 6.873068940346406e-01	 1.431824551323068e+00	 6.718790886944687e+00
 6.737254264241525e-01	 1.438265033062098e+00	 6.561324225093060e+00
 6.601062778921720e-01	 1.444566341068717e+00	 6.407535379700151e+00
 6.464515144561652e-01	 1.450728306976514e+00	 6.258234016121274e+00
 6.327631979131837e-01	 1.456750801892468e+00	 6.114174128886543e+00
 6.190433849325042e-01	 1.462633736117254e+00	 5.976054931212645e+00
 6.052941261612230e-01	 1.468377058841594e+00	 5.844522212642424e+00
 5.915174653435150e-01	 1.473980757819260e+00	 5.720170148997552e+00
 5.777154384542195e-01	 1.479444859017327e+00	 5.603543546142598e+00
 5.638900728474020e-01	 1.484769426244293e+00	 5.492831041425024e+00
 5.500433864204959e-01	 1.489954560756726e+00	 5.379905837833535e+00
 5.092949852583081e-01	 1.379575511284022e+00	 4.571881660484462e+00
 4.964583924798878e-01	 1.384246761286669e+00	 4.426951614808542e+00
 4.836057704545645e-01	 1.388789240855448e+00	 4.283751335484513e+00
 4.707389553363446e-01	 1.393203144353878e+00	 4.142459880829028e+00
 4.578597716150689e-01	 1.397488699155860e+00	 4.003240299846521e+00
 4.449700314227850e-01	 1.401646165192779e+00	 3.866242731970219e+00
 4.320715338573344e-01	 1.405675834484585e+00	 3.731607598459588e+00
 4.191660643235239e-01	 1.409578030655552e+00	 3.599468864233671e+00
 4.062553938922261e-01	 1.413353108435399e+00	 3.469957348670106e+00
 3.933412786777291e-01	 1.417001453146457e+00	 3.343204063777051e+00
 3.804254592336176e-01	 1.420523480177601e+00	 3.219343558160329e+00
 5.133698253769002e-01	 1.390613416230827e+00	 4.646349709925379e+00
 5.004305277519234e-01	 1.395322040638285e+00	 4.498521468257207e+00
 4.874750726309615e-01	 1.399900864326991e+00	 4.352209700037018e+00
 4.745053108589865e-01	 1.404350083215554e+00	 4.207693650311313e+00
 4.615230815234805e-01	 1.408669926497085e+00	 4.065237139260324e+00
 4.485302112552582e-01	 1.412860656182660e+00	 3.925091654168931e+00
 4.355285135466425e-01	 1.416922566628667e+00	 3.787499542805373e+00
 4.225197880873644e-01	 1.420855984048679e+00	 3.652697286109925e+00
 4.095058201185353e-01	 1.424661266010587e+00	 3.520918827810577e+00
 3.964883798050155e-01	 1.428338800919664e+00	 3.392398938431137e+00
 3.834692216264620e-01	 1.431889007488289e+00	 3.267376591150799e+00
 5.174446654947398e-01	 1.401651321177778e+00	 4.723378407537245e+00
 5.044026630231767e-01	 1.406397319990007e+00	 4.574175018065967e+00
 4.913443748065563e-01	 1.411012487798607e+00	 4.426520242741857e+00
 4.782716663808163e-01	 1.415497022077278e+00	 4.280757853070272e+00
 4.651863914310808e-01	 1.419851153838330e+00	 4.137216226746736e+00
 4.520903910869327e-01	 1.424075147172540e+00	 3.996211491023494e+00
 4.389854932351768e-01	 1.428169298772725e+00	 3.858050777417714e+00
 4.258735118504680e-01	 1.432133937441757e+00	 3.723035564670476e+00
 4.127562463441580e-01	 1.435969423585697e+00	 3.591465086538885e+00
 3.996354809316801e-01	 1.439676148692759e+00	 3.463639780825626e+00
 3.865129840187634e-01	 1.443254534798823e+00	 3.339864756027663e+00
 5.215195056119116e-01	 1.412689226124860e+00	 4.802705585216392e+00
 5.083747982937470e-01	 1.417472599341824e+00	 4.653776446972791e+00
 4.952136769814603e-01	 1.422124111270289e+00	 4.506656031331657e+00
 4.820380219019567e-01	 1.426643960939041e+00	 4.361717701426304e+00
 4.688497013380016e-01	 1.431032381179596e+00	 4.219318904546902e+00
 4.556505709179464e-01	 1.435289638162418e+00	 4.079804425649241e+00
 4.424424729230777e-01	 1.439416030916761e+00	 3.943509762354313e+00
 4.292272356129755e-01	 1.443411890834791e+00	 3.810764597228219e+00
 4.160066725692314e-01	 1.447277581160737e+00	 3.681896342771285e+00
 4.027825820578515e-01	 1.451013496465754e+00	 3.557233734344096e+00
 3.895567464106375e-01	 1.454620062109220e+00	 3.437110446210515e+00
 5.255943457284998e-01	 1.423727131072057e+00	 4.884044648659526e+00
 5.123469335637324e-01	 1.428547878693726e+00	 4.737162657302564e+00
 4.990829791557854e-01	 1.433235734742028e+00	 4.592560590313171e+00
 4.858043774225305e-01	 1.437790899800841e+00	 4.450607167598567e+00
 4.725130112443745e-01	 1.442213608520877e+00	 4.311654118040217e+00
 4.592107507484372e-01	 1.446504129152296e+00	 4.176039601501538e+00
 4.458994526104865e-01	 1.450662763060777e+00	 4.044091762713650e+00
 4.325809593750277e-01	 1.454689844227786e+00	 3.916132391589352e+00
 4.192570987938917e-01	 1.458585738735717e+00	 3.792480664120911e+00
 4.059296831836575e-01	 1.462350844238661e+00	 3.673456937787657e+00
 3.926005088021993e-01	 1.465985589419497e+00	 3.559386575337771e+00
 5.296691858445886e-01	 1.434765036019351e+00	 4.967085442839764e+00
 5.163190688332316e-01	 1.439623158045696e+00	 4.824144219390814e+00
 5.029522813296435e-01	 1.444347358213817e+00	 4.684148911966959e+00
 4.895707329426604e-01	 1.448937838662670e+00	 4.547430037887148e+00
 4.761763211503314e-01	 1.453394835862173e+00	 4.414299494700284e+00
 4.627709305785431e-01	 1.457718620142173e+00	 4.285054208677558e+00
 4.493564322975449e-01	 1.461909495204779e+00	 4.159979925841451e+00
 4.359346831367658e-01	 1.465967797620749e+00	 4.039355118715502e+00
 4.225075250182760e-01	 1.469893896310645e+00	 3.923454981553358e+00
 4.090767843092269e-01	 1.473688192011494e+00	 3.812555486554217e+00
 3.956442711935644e-01	 1.477351116729671e+00	 3.706937473489044e+00
 5.337440259602624e-01	 1.445802940966728e+00	 5.051495096267215e+00
 5.202912041023439e-01	 1.450698437397728e+00	 4.914506293834362e+00
 5.068215835031458e-01	 1.455458981685646e+00	 4.781308437188250e+00
 4.933370884624695e-01	 1.460084777524526e+00	 4.652160933640606e+00
 4.798396310560039e-01	 1.464576063203480e+00	 4.527302387657992e+00
 4.663311104084019e-01	 1.468933111132048e+00	 4.406954533487080e+00
 4.528134119843933e-01	 1.473156227348766e+00	 4.291326321265582e+00
 4.392884068983303e-01	 1.477245751013684e+00	 4.180618128319757e+00
 4.257579512425210e-01	 1.481202053885529e+00	 4.075026066887656e+00
 4.122238854346877e-01	 1.485025539784264e+00	 3.971932228755015e+00
 3.986880335848481e-01	 1.488716644039760e+00	 3.868253055754388e+00
 5.378188660756057e-01	 1.456840845914170e+00	 5.136918845162495e+00
 5.242633393711678e-01	 1.461773716749807e+00	 5.008009528955695e+00
 5.106908856764045e-01	 1.466570605157509e+00	 4.883900007767885e+00
 4.971034439820804e-01	 1.471231716386402e+00	 4.764746300763361e+00
 4.835029409615236e-01	 1.475757290544798e+00	 4.650680885746942e+00
 4.698912902381515e-01	 1.480147602121923e+00	 4.541816973242821e+00
 4.562703916711732e-01	 1.484402959492743e+00	 4.436344904620760e+00
 4.426421306598621e-01	 1.488523704406598e+00	 4.328949272164460e+00
 4.290083774667631e-01	 1.492510211460379e+00	 4.220050928750008e+00
 4.153709865601687e-01	 1.496362887556985e+00	 4.110489084221863e+00
 4.017317959761657e-01	 1.500082171349781e+00	 4.001118307884505e+00
 5.418937061907029e-01	 1.467878750861661e+00	 5.222980838598024e+00
 5.282354746398018e-01	 1.472848996101922e+00	 5.104390934790178e+00
 5.145601878495307e-01	 1.477682228629395e+00	 4.991758791615869e+00
 5.008697995016161e-01	 1.482378655248293e+00	 4.884929065740029e+00
 4.871662508670224e-01	 1.486938517886123e+00	 4.777803559127825e+00
 4.734514700679301e-01	 1.491362093111798e+00	 4.667883011301271e+00
 4.597273713580255e-01	 1.495649691636712e+00	 4.555879792094247e+00
 4.459958544215021e-01	 1.499801657799494e+00	 4.442523442439521e+00
 4.322588036911392e-01	 1.503818369035203e+00	 4.328559034355756e+00
 4.185180876857978e-01	 1.507700235329668e+00	 4.214745732937859e+00
 4.047755583676326e-01	 1.511447698659750e+00	 4.101855554507988e+00
 5.459685463056382e-01	 1.478916655809186e+00	 5.309284925604450e+00
 5.322076099083448e-01	 1.483924275454060e+00	 5.202066240545663e+00
 5.184294900226367e-01	 1.488793852101298e+00	 5.092944316465587e+00
 5.046361550211993e-01	 1.493525594110194e+00	 4.981045416141557e+00
 4.908295607726318e-01	 1.498119745227452e+00	 4.866948494400942e+00
 4.770116498978756e-01	 1.502576584101673e+00	 4.751250037371895e+00
 4.631843510450916e-01	 1.506896423780675e+00	 4.634562136005036e+00
 4.493495781833907e-01	 1.511079611192379e+00	 4.517510782026821e+00
 4.355092299157862e-01	 1.515126526610009e+00	 4.400734381880580e+00
 4.216651888117037e-01	 1.519037583102326e+00	 4.284882483125780e+00
 4.078193207593641e-01	 1.522813225969685e+00	 4.170614706760777e+00
 5.500433864204959e-01	 1.489954560756726e+00	 5.379905837833544e+00
 5.361797451768958e-01	 1.494999554806210e+00	 5.264804289799877e+00
 5.222987921958342e-01	 1.499905475573210e+00	 5.147983913656481e+00
 5.084025105409531e-01	 1.504672532972101e+00	 5.029887996923532e+00
 4.944928706784839e-01	 1.509300972568784e+00	 4.910975305254443e+00
 4.805718297281260e-01	 1.513791075091548e+00	 4.791718093888693e+00
 4.666413307325125e-01	 1.518143155924636e+00	 4.672600357339151e+00
 4.527033019456697e-01	 1.522357564585261e+00	 4.554116313375754e+00
 4.387596561408405e-01	 1.526434684184807e+00	 4.436769116159363e+00
 4.248122899380145e-01	 1.530374930874972e+00	 4.321069792260115e+00
 4.108630831514755e-01	 1.534178753279604e+00	 4.207536392256332e+00
 3.804254592336176e-01	 1.420523480177601e+00	 3.219343558160329e+00
 3.675096601437041e-01	 1.423919634754187e+00	 3.100412592772076e+00
 3.545955899680540e-01	 1.427190392310364e+00	 2.988245001974850e+00
 3.416849401385289e-01	 1.430336256996070e+00	 2.882307497048382e+00
 3.287793842509794e-01	 1.433357760794212e+00	 2.782000251484655e+00
 3.158805775574047e-01	 1.436255462937365e+00	 2.686801544738296e+00
 3.029901564778462e-01	 1.439029949315489e+00	 2.596266753251367e+00
 2.901097381321041e-01	 1.441681831875385e+00	 2.510026644577430e+00
 2.772409198913460e-01	 1.444211748012564e+00	 2.427785027965496e+00
 2.643852789496531e-01	 1.446620359956241e+00	 2.349315815852405e+00
 2.515443719155165e-01	 1.448908354148126e+00	 2.274459551434923e+00
 3.834692216264620e-01	 1.431889007488289e+00	 3.267376591150799e+00
 3.704500839649841e-01	 1.435312334504038e+00	 3.147882611461961e+00
 3.574326890507335e-01	 1.438609261204984e+00	 3.035583370537742e+00
 3.444187418486147e-01	 1.441780295774739e+00	 2.929973151518865e+00
 3.314099293448155e-01	 1.444825974452573e+00	 2.830388750413088e+00
 3.184079200349058e-01	 1.447746860945449e+00	 2.736252158644950e+00
 3.054143634318232e-01	 1.450543545831001e+00	 2.647069335774211e+00
 2.924308895938444e-01	 1.453216645952178e+00	 2.562428247675117e+00
 2.794591086726059e-01	 1.455766803804257e+00	 2.481996229387852e+00
 2.665006104812223e-01	 1.458194686914912e+00	 2.405516730194313e+00
 2.535569640825138e-01	 1.460500987218032e+00	 2.332805499209446e+00
 3.865129840187634e-01	 1.443254534798823e+00	 3.339864756027663e+00
 3.733905077858144e-01	 1.446705034253686e+00	 3.222114856793170e+00
 3.602697881330664e-01	 1.450028130099345e+00	 3.111827953375103e+00
 3.471525435584618e-01	 1.453224334553088e+00	 3.008516194959612e+00
 3.340404744385219e-01	 1.456294188110554e+00	 2.911469449194431e+00
 3.209352625123814e-01	 1.459238258953095e+00	 2.820060039578101e+00
 3.078385703858699e-01	 1.462057142346018e+00	 2.733751552127916e+00
 2.947520410557355e-01	 1.464751460028430e+00	 2.652096589686269e+00
 2.816772974540797e-01	 1.467321859595372e+00	 2.574733818106426e+00
 2.686159420130451e-01	 1.469769013872977e+00	 2.501384365123777e+00
 2.555695562497768e-01	 1.472093620287320e+00	 2.431847633471185e+00
 3.895567464106375e-01	 1.454620062109220e+00	 3.437110446210515e+00
 3.763309316062926e-01	 1.458097734003153e+00	 3.323392676238357e+00
 3.631068872151288e-01	 1.461446998993474e+00	 3.217270110459288e+00
 3.498863452681232e-01	 1.464668373331152e+00	 3.118224955520076e+00
 3.366710195321268e-01	 1.467762401768196e+00	 3.025525306896919e+00
 3.234626049898354e-01	 1.470729656960348e+00	 2.938500433645787e+00
 3.102627773399675e-01	 1.473570738860594e+00	 2.856578600306408e+00
 2.970731925177395e-01	 1.476286274104195e+00	 2.779284508632583e+00
 2.838954862357138e-01	 1.478876915385962e+00	 2.706235997378025e+00
 2.707312735450582e-01	 1.481343340830491e+00	 2.637140064347067e+00
 2.575821484172393e-01	 1.483686253356042e+00	 2.570776408146853e+00
 3.926005088021993e-01	 1.465985589419497e+00	 3.559386575337771e+00
 3.792713554265160e-01	 1.469490433752461e+00	 3.451980952859915e+00
 3.659439862969972e-01	 1.472865867887402e+00	 3.352173153155841e+00
 3.526201469776516e-01	 1.476112412108968e+00	 3.259362492087903e+00
 3.393015646256579e-01	 1.479230615425539e+00	 3.172816623916358e+00
 3.259899474672715e-01	 1.482221054967254e+00	 3.091710583222155e+00
 3.126869842940973e-01	 1.485084335374778e+00	 3.012990083121578e+00
 2.993943439798180e-01	 1.487821088179525e+00	 2.935595697929380e+00
 2.861136750174543e-01	 1.490431971176081e+00	 2.859659355057103e+00
 2.728466050771978e-01	 1.492917667787505e+00	 2.785374549289588e+00
 2.595947405848349e-01	 1.495278886424245e+00	 2.712988020177394e+00
 3.956442711935644e-01	 1.477351116729671e+00	 3.706937473489044e+00
 3.822117792465828e-01	 1.480883133501633e+00	 3.608117607471307e+00
 3.687810853787477e-01	 1.484284736781155e+00	 3.515029063063562e+00
 3.553539486870996e-01	 1.487556450886568e+00	 3.424001804210854e+00
 3.419321097191435e-01	 1.490698829082625e+00	 3.334885104812245e+00
 3.285172899446940e-01	 1.493712452973862e+00	 3.247573290373940e+00
 3.151111912482407e-01	 1.496597931888618e+00	 3.162049650647027e+00
 3.017154954419323e-01	 1.499355902254474e+00	 3.078376311286800e+00
 2.883318637992477e-01	 1.501987026965785e+00	 2.996684787751653e+00
 2.749619366094011e-01	 1.504491994744074e+00	 2.917167187040453e+00
 2.616073327524969e-01	 1.506871519491980e+00	 2.840068021063233e+00
 3.986880335848481e-01	 1.488716644039760e+00	 3.868253055754388e+00
 3.851522030665901e-01	 1.492275833250692e+00	 3.765971650848545e+00
 3.716181844604566e-01	 1.495703605674763e+00	 3.666228640425614e+00
 3.580877503965198e-01	 1.499000489663989e+00	 3.568822254510558e+00
 3.445626548126118e-01	 1.502167042739496e+00	 3.473736811014867e+00
 3.310446324221063e-01	 1.505203850980214e+00	 3.380874791577853e+00
 3.175353982023790e-01	 1.508111528402169e+00	 3.290224801427550e+00
 3.040366469040447e-01	 1.510890716329097e+00	 3.201852884346057e+00
 2.905500525810407e-01	 1.513542082755127e+00	 3.115893173755278e+00
 2.770772681416043e-01	 1.516066321700252e+00	 3.032539220719193e+00
 2.636199249201588e-01	 1.518464152559296e+00	 2.952035959438826e+00
 4.017317959761657e-01	 1.500082171349781e+00	 4.001118307884505e+00
 3.880926268866360e-01	 1.503668532999661e+00	 3.893744601038414e+00
 3.744552835422004e-01	 1.507122474568255e+00	 3.789314113242757e+00
 3.608215521059651e-01	 1.510444528441264e+00	 3.687507136399363e+00
 3.471931999060908e-01	 1.513635256396190e+00	 3.588316213105913e+00
 3.335719748995123e-01	 1.516695248986361e+00	 3.491666609842879e+00
 3.199596051564935e-01	 1.519625124915480e+00	 3.397555470839795e+00
 3.063577983661165e-01	 1.522425530403446e+00	 3.306055741179978e+00
 2.927682413627793e-01	 1.525097138544163e+00	 3.217306930045198e+00
 2.791925996737437e-01	 1.527640648656090e+00	 3.131506581201502e+00
 2.656325170877544e-01	 1.530056785626242e+00	 3.048902407923100e+00
 4.047755583676326e-01	 1.511447698659750e+00	 4.101855554507988e+00
 3.910330507068179e-01	 1.515061232748561e+00	 3.991480711012095e+00
 3.772923826240555e-01	 1.518541343461659e+00	 3.884377177024807e+00
 3.635553538154879e-01	 1.521888567218431e+00	 3.780126510943311e+00
 3.498237449996084e-01	 1.525103470052751e+00	 3.678677256219758e+00
 3.360993173769159e-01	 1.528186646992345e+00	 3.579989138282327e+00
 3.223838121105653e-01	 1.531138721428600e+00	 3.484070815528761e+00
 3.086789498281097e-01	 1.533960344477575e+00	 3.391004855416253e+00
 2.949864301444101e-01	 1.536652194332947e+00	 3.300938625965732e+00
 2.813079312057564e-01	 1.539214975611644e+00	 3.214075926104969e+00
 2.676451092552170e-01	 1.541649418692869e+00	 3.130669308511722e+00
 4.078193207593641e-01	 1.522813225969685e+00	 4.170614706760777e+00
 3.939734745272337e-01	 1.526453932497416e+00	 4.059296713625001e+00
 3.801294817060978e-01	 1.529960212355005e+00	 3.951503732616333e+00
 3.662891555251410e-01	 1.533332605995523e+00	 3.846739618156078e+00
 3.524542900931930e-01	 1.536571683709219e+00	 3.744863182202091e+00
 3.386266598543213e-01	 1.539678044998216e+00	 3.645872269471763e+00
 3.248080190645760e-01	 1.542652317941583e+00	 3.549789777365924e+00
 3.110001012899857e-01	 1.545495158551538e+00	 3.456710352291090e+00
 2.972046189258793e-01	 1.548207250121534e+00	 3.366791426675912e+00
 2.834232627375787e-01	 1.550789302566964e+00	 3.280245027733513e+00
 2.696577014224801e-01	 1.553242051759224e+00	 3.197330307919858e+00
 4.108630831514755e-01	 1.534178753279604e+00	 4.207536392256332e+00
 3.969138983479809e-01	 1.537846632246248e+00	 4.097300754996064e+00
 3.829665807884041e-01	 1.541379081248321e+00	 3.990771767907393e+00
 3.690229572349771e-01	 1.544776644772575e+00	 3.887395627856886e+00
 3.550848351868724e-01	 1.548039897365635e+00	 3.786907209246992e+00
 3.411540023317319e-01	 1.551169443004019e+00	 3.689336007674310e+00
 3.272322260185069e-01	 1.554165914454477e+00	 3.594721631889529e+00
 3.133212527517066e-01	 1.557029972625388e+00	 3.503172996747089e+00
 2.994228077071335e-01	 1.559762305909978e+00	 3.414859524161117e+00
 2.855385942691472e-01	 1.562363629522107e+00	 3.330003150060202e+00
 2.716702935894773e-01	 1.564834684825360e+00	 3.248871083398396e+00
 2.515443719155165e-01	 1.448908354148126e+00	 2.274459551434923e+00
 2.387175561371741e-01	 1.451076798878608e+00	 2.203521279287390e+00
 2.259085338537614e-01	 1.453126027390339e+00	 2.136771416778498e+00
 2.131188017159814e-01	 1.455056794311961e+00	 2.074048337618761e+00
 2.003498342687041e-01	 1.456869875982436e+00	 2.015238991582064e+00
 1.876030836411861e-01	 1.458566069807820e+00	 1.960273743074942e+00
 1.748799792569427e-01	 1.460146193615771e+00	 1.909120999962250e+00
 1.621819275631317e-01	 1.461611085008422e+00	 1.861781684001033e+00
 1.495103117792889e-01	 1.462961600714222e+00	 1.818283592642235e+00
 1.368664916652325e-01	 1.464198615939344e+00	 1.778675700165039e+00
 1.242518033079388e-01	 1.465323023719231e+00	 1.743022444118267e+00
 2.535569640825138e-01	 1.460500987218032e+00	 2.332805499209446e+00
 2.406275216828946e-01	 1.462686781551333e+00	 2.264118578564198e+00
 2.277160151429138e-01	 1.464752405823712e+00	 2.199667372990682e+00
 2.148239530879028e-01	 1.466698620701535e+00	 2.139258686555521e+00
 2.019528218604935e-01	 1.468526208735194e+00	 2.082751694958640e+00
 1.891040852083573e-01	 1.470235973710731e+00	 2.030052395871604e+00
 1.762791839917568e-01	 1.471828739999181e+00	 1.981107841605947e+00
 1.634795359107653e-01	 1.473305351904271e+00	 1.935900208223762e+00
 1.507065352519902e-01	 1.474666673009069e+00	 1.894440753507283e+00
 1.379615526546217e-01	 1.475913585522211e+00	 1.856763714309515e+00
 1.252459348956028e-01	 1.477046989624252e+00	 1.822920191701679e+00
 2.555695562497768e-01	 1.472093620287320e+00	 2.431847633471185e+00
 2.425374872288631e-01	 1.474296764223446e+00	 2.366332211950568e+00
 2.295234964322704e-01	 1.476378784256492e+00	 2.304991823348125e+00
 2.165291044599656e-01	 1.478340447090548e+00	 2.247610766257925e+00
 2.035558094523476e-01	 1.480182541487432e+00	 2.194029792634388e+00
 1.906050867755093e-01	 1.481905877613169e+00	 2.144105116150588e+00
 1.776783887264672e-01	 1.483511286382172e+00	 2.097066049501802e+00
 1.647771442582150e-01	 1.484999618799755e+00	 2.052790555462439e+00
 1.519027587244381e-01	 1.486371745303609e+00	 2.011501519681024e+00
 1.390566136437045e-01	 1.487628555104825e+00	 1.973419218105735e+00
 1.262400664829298e-01	 1.488770955529069e+00	 1.938756703561118e+00
 2.575821484172393e-01	 1.483686253356042e+00	 2.570776408146851e+00
 2.444474527750176e-01	 1.485906746894990e+00	 2.506296634866267e+00
 2.313309777217804e-01	 1.488005162688714e+00	 2.444187071666528e+00
 2.182342558321343e-01	 1.489982273479022e+00	 2.384574398883951e+00
 2.051587970442504e-01	 1.491838874239161e+00	 2.327609843496740e+00
 1.921060883426473e-01	 1.493575781515136e+00	 2.273463312388599e+00
 1.790775934610996e-01	 1.495193832764732e+00	 2.222317884963133e+00
 1.660747526055266e-01	 1.496693885694854e+00	 2.174364631647337e+00
 1.530989821966960e-01	 1.498076817597809e+00	 2.129797725533179e+00
 1.401516746325576e-01	 1.499343524687146e+00	 2.088809815331458e+00
 1.272341980700039e-01	 1.500494921433641e+00	 2.051587628950428e+00
 2.595947405848349e-01	 1.495278886424245e+00	 2.712988020177390e+00
 2.463574183212962e-01	 1.497516729566007e+00	 2.643035751488249e+00
 2.331384590113924e-01	 1.499631541120409e+00	 2.575941054101636e+00
 2.199394072043734e-01	 1.501624099866981e+00	 2.511802477902448e+00
 2.067617846361854e-01	 1.503495206990391e+00	 2.450743114206785e+00
 1.936070899097757e-01	 1.505245685416628e+00	 2.392904955978970e+00
 1.804767981956802e-01	 1.506876379146848e+00	 2.338443623383250e+00
 1.673723609527464e-01	 1.508388152589544e+00	 2.287523418566065e+00
 1.542952056688272e-01	 1.509781889891639e+00	 2.240312674357460e+00
 1.412467356212576e-01	 1.511058494269139e+00	 2.196979362638507e+00
 1.282283296569094e-01	 1.512218887337924e+00	 2.157686929367214e+00
 2.616073327524969e-01	 1.506871519491980e+00	 2.840068021063237e+00
 2.482673838676367e-01	 1.509126712236541e+00	 2.765868529586410e+00
 2.349459403010556e-01	 1.511257919551613e+00	 2.694923579519297e+00
 2.216445585766480e-01	 1.513265926254448e+00	 2.627305986315055e+00
 2.083647722281366e-01	 1.515151539741136e+00	 2.563113098143145e+00
 1.951080914768994e-01	 1.516915589317647e+00	 2.502461399336047e+00
 1.818760029302347e-01	 1.518558925528509e+00	 2.445481485253771e+00
 1.686699692999202e-01	 1.520082419483803e+00	 2.392313369680035e+00
 1.554914291408951e-01	 1.521486962185067e+00	 2.343102086779349e+00
 1.423417966098809e-01	 1.522773463850762e+00	 2.297993550801806e+00
 1.292224612437307e-01	 1.523942853241877e+00	 2.257130638112947e+00
 2.636199249201588e-01	 1.518464152559296e+00	 2.952035959438826e+00
 2.501773494139772e-01	 1.520736694906633e+00	 2.874810471215214e+00
 2.367534215907187e-01	 1.522884297982359e+00	 2.801149051375364e+00
 2.233497099489224e-01	 1.524907752641445e+00	 2.731100862402587e+00
 2.099677598200879e-01	 1.526807872491407e+00	 2.664739580805314e+00
 1.966090930440230e-01	 1.528585493218192e+00	 2.602158261274112e+00
 1.832752076647893e-01	 1.530241471909704e+00	 2.543464578427457e+00
 1.699675776470939e-01	 1.531776686377608e+00	 2.488776404353596e+00
 1.566876526129630e-01	 1.533192034478061e+00	 2.438217681181846e+00
 1.434368575985043e-01	 1.534488433431979e+00	 2.391914549208612e+00
 1.302165928305520e-01	 1.535666819145457e+00	 2.349991692614152e+00
 2.656325170877544e-01	 1.530056785626242e+00	 3.048902407923104e+00
 2.520873149602557e-01	 1.532346677576327e+00	 2.969868823485174e+00
 2.385609028803309e-01	 1.534510676412681e+00	 2.894624322056344e+00
 2.250548613211617e-01	 1.536549579027997e+00	 2.823196176189601e+00
 2.115707474120230e-01	 1.538464205241215e+00	 2.755636137141961e+00
 1.981100946111516e-01	 1.540255397118264e+00	 2.692015578453530e+00
 1.846744123993699e-01	 1.541924018290419e+00	 2.632421023367651e+00
 1.712651859943136e-01	 1.543470953270937e+00	 2.576950011258506e+00
 1.578838760850942e-01	 1.544897106770591e+00	 2.525707259382348e+00
 1.445319185872043e-01	 1.546203403012751e+00	 2.478801077680053e+00
 1.312107244174576e-01	 1.547390785048624e+00	 2.436339996022762e+00
 2.676451092552170e-01	 1.541649418692869e+00	 3.130669308511722e+00
 2.539972805064102e-01	 1.543956660245666e+00	 3.051042873970993e+00
 2.403683841698408e-01	 1.546137054842613e+00	 2.975348943655487e+00
 2.267600126933303e-01	 1.548191405414127e+00	 2.903594340720129e+00
 2.131737350039256e-01	 1.550120537990571e+00	 2.835810308236249e+00
 1.996110961782895e-01	 1.551925301017860e+00	 2.772047952159657e+00
 1.860736171340023e-01	 1.553606564670643e+00	 2.712374074468973e+00
 1.725627943416254e-01	 1.555165220163767e+00	 2.656867348463138e+00
 1.590800995573521e-01	 1.556602179062623e+00	 2.605614789476374e+00
 1.456269795760573e-01	 1.557918372593041e+00	 2.558708475823168e+00
 1.322048560045317e-01	 1.559114750951333e+00	 2.516242476594801e+00
 2.696577014224801e-01	 1.553242051759224e+00	 3.197330307919858e+00
 2.559072460523787e-01	 1.555566642914692e+00	 3.118324237493284e+00
 2.421758654591974e-01	 1.557763433272189e+00	 3.043315411389278e+00
 2.284651640653930e-01	 1.559833231799856e+00	 2.972291317092549e+00
 2.147767225957797e-01	 1.561776870739488e+00	 2.905263772723525e+00
 2.011120977454416e-01	 1.563595204916981e+00	 2.842264690647880e+00
 1.874728218687126e-01	 1.565289111050365e+00	 2.783342237655712e+00
 1.738604026890750e-01	 1.566859487056076e+00	 2.728557340375741e+00
 1.602763230298000e-01	 1.568307251354127e+00	 2.677980485995456e+00
 1.467220405651402e-01	 1.569633342172807e+00	 2.631688770042771e+00
 1.331989875918587e-01	 1.570838716853544e+00	 2.589763144960761e+00
 2.716702935894773e-01	 1.564834684825360e+00	 3.248871083398400e+00
 2.578172115980992e-01	 1.567176625583449e+00	 3.171697134720674e+00
 2.439833467483498e-01	 1.569389811701443e+00	 3.098509400036326e+00
 2.301703154373145e-01	 1.571475058185210e+00	 3.029276813575802e+00
 2.163797101875692e-01	 1.573433203487976e+00	 2.963992513216073e+00
 2.026130993126127e-01	 1.575265108815627e+00	 2.902669947293139e+00
 1.888720266035268e-01	 1.576971657429571e+00	 2.845339384448270e+00
 1.751580110367086e-01	 1.578553753947840e+00	 2.792044771707712e+00
 1.614725465025013e-01	 1.580012323645071e+00	 2.742840887520556e+00
 1.478171015545294e-01	 1.581348311752016e+00	 2.697790738332115e+00
 1.341931191795227e-01	 1.582562682755214e+00	 2.656963149399370e+00
 1.242518033079388e-01	 1.465323023719231e+00	 1.743022444118263e+00
 1.116696904196614e-01	 1.466335571524587e+00	 1.711306357415589e+00
 9.911926934291848e-02	 1.467237386077836e+00	 1.683353061973856e+00
 8.660177479563987e-02	 1.468029409246025e+00	 1.659016984324869e+00
 7.411841795324856e-02	 1.468712598121092e+00	 1.638148461067888e+00
 6.167038632298136e-02	 1.469287924389820e+00	 1.620588750180003e+00
 4.925884363504747e-02	 1.469756373706776e+00	 1.606165245274787e+00
 3.688492975034444e-02	 1.470118945070700e+00	 1.594686921115974e+00
 2.454976058444095e-02	 1.470376650204790e+00	 1.585940035984343e+00
 1.225442804752438e-02	 1.470530512941336e+00	 1.579684113784414e+00
 0.000000000000000e+00	 1.470581568611112e+00	 1.575648226270197e+00
 1.252459348956028e-01	 1.477046989624252e+00	 1.822920191701679e+00
 1.125631532401378e-01	 1.478067638766360e+00	 1.792875037882942e+00
 9.991231696063546e-02	 1.478976668685831e+00	 1.766438082122626e+00
 8.729467065391183e-02	 1.479775028785571e+00	 1.743453491543666e+00
 7.471143518591403e-02	 1.480463683815191e+00	 1.723761476328416e+00
 6.216380756503552e-02	 1.481043613235921e+00	 1.707192940136663e+00
 4.965296083240388e-02	 1.481515810588529e+00	 1.693564188110588e+00
 3.718004396885809e-02	 1.481881282864719e+00	 1.682642748491810e+00
 2.474618181832358e-02	 1.482141049882465e+00	 1.674208236950638e+00
 1.235247502727892e-02	 1.482296143665712e+00	 1.668036900871726e+00
 0.000000000000000e+00	 1.482347607828890e+00	 1.663860416187088e+00
 1.262400664829298e-01	 1.488770955529069e+00	 1.938756703561118e+00
 1.134566160602724e-01	 1.489799706007974e+00	 1.907617156984573e+00
 1.007053645780284e-01	 1.490715951293703e+00	 1.879929414368917e+00
 8.798756651189467e-02	 1.491520648325025e+00	 1.855640362897585e+00
 7.530445241833708e-02	 1.492214769509225e+00	 1.834676123476819e+00
 6.265722880690074e-02	 1.492799302081979e+00	 1.816938405683908e+00
 5.004707802962619e-02	 1.493275247470256e+00	 1.802300946753692e+00
 3.747515818728901e-02	 1.493643620658724e+00	 1.790606016800742e+00
 2.494260305216620e-02	 1.493905449560133e+00	 1.781660974354603e+00
 1.245052200702267e-02	 1.494061774390086e+00	 1.775234858199606e+00
 0.000000000000000e+00	 1.494113647046668e+00	 1.771055003642570e+00
 1.272341980700039e-01	 1.500494921433641e+00	 2.051587628950430e+00
 1.143500788801507e-01	 1.501531773249384e+00	 2.018211587667925e+00
 1.014984121951784e-01	 1.502455233901412e+00	 1.988591345283571e+00
 8.868046236966064e-02	 1.503266267864353e+00	 1.962656731131305e+00
 7.589746965057841e-02	 1.503965855203165e+00	 1.940319049072848e+00
 6.315065004862422e-02	 1.504554990927970e+00	 1.921467597260954e+00
 5.044119522674795e-02	 1.505034684351938e+00	 1.905966257900997e+00
 3.777027240565787e-02	 1.505405958452705e+00	 1.893650137985970e+00
 2.513902428597881e-02	 1.505669849237790e+00	 1.884322244032188e+00
 1.254856898675830e-02	 1.505827405114457e+00	 1.877750175887123e+00
 0.000000000000000e+00	 1.505879686264445e+00	 1.873662826976854e+00
 1.282283296569094e-01	 1.512218887337924e+00	 2.157686929367214e+00
 1.152435416998581e-01	 1.513263840490549e+00	 2.122498691728778e+00
 1.022914598121663e-01	 1.514194516508917e+00	 2.091312013552992e+00
 8.937335822728204e-02	 1.515011887403517e+00	 2.064044467811921e+00
 7.649048688269849e-02	 1.515716940896979e+00	 2.040597428992389e+00
 6.364407129025317e-02	 1.516310679773870e+00	 2.020852768627614e+00
 5.083531242380266e-02	 1.516794121233559e+00	 2.004669606029988e+00
 3.806538662398533e-02	 1.517168296246649e+00	 1.991881093933054e+00
 2.533544551977141e-02	 1.517434248915432e+00	 1.982291220953773e+00
 1.264661596648854e-02	 1.517593035838824e+00	 1.975671614995181e+00
 0.000000000000000e+00	 1.517645725482223e+00	 1.971758334160881e+00
 1.292224612437307e-01	 1.523942853241877e+00	 2.257130638112947e+00
 1.161370045194800e-01	 1.524995907731425e+00	 2.220564366151764e+00
 1.030845074290733e-01	 1.525933799116178e+00	 2.188185835694910e+00
 9.006625408483117e-02	 1.526757506942481e+00	 2.159904812520874e+00
 7.708350411475801e-02	 1.527468026590638e+00	 2.135617282733890e+00
 6.413749253183493e-02	 1.528066368619655e+00	 2.115202335955677e+00
 5.122942962082386e-02	 1.528553558115104e+00	 2.098519088129552e+00
 3.836050084229211e-02	 1.528930634040548e+00	 2.085403622314390e+00
 2.553186675355400e-02	 1.529198648593051e+00	 2.075665928215440e+00
 1.274466294621607e-02	 1.529358666563186e+00	 2.069086823572672e+00
 0.000000000000000e+00	 1.529411764700000e+00	 2.065414843136405e+00
 1.302165928305520e-01	 1.535666819145457e+00	 2.349991692614152e+00
 1.170304673391019e-01	 1.536727974971971e+00	 2.312491793721515e+00
 1.038775550459802e-01	 1.537673081723154e+00	 2.279304864147747e+00
 9.075914994238028e-02	 1.538503126481211e+00	 2.250336955979787e+00
 7.767652134681756e-02	 1.539219112284110e+00	 2.225482857942669e+00
 6.463091377341666e-02	 1.539822057465303e+00	 2.204623179108901e+00
 5.162354681784505e-02	 1.540312994996554e+00	 2.187621455791398e+00
 3.865561506059888e-02	 1.540692971834390e+00	 2.174321258614071e+00
 2.572828798733660e-02	 1.540963048270644e+00	 2.164543279280397e+00
 1.284270992594360e-02	 1.541124297287540e+00	 2.158082379115804e+00
 0.000000000000000e+00	 1.541177803917777e+00	 2.154704584236178e+00
 1.312107244174576e-01	 1.547390785048624e+00	 2.436339996022766e+00
 1.179239301588093e-01	 1.548460042212142e+00	 2.398361497188186e+00
 1.046706026629681e-01	 1.549412364329805e+00	 2.364758835919337e+00
 9.145204580000167e-02	 1.550248746019667e+00	 2.335438084817999e+00
 7.826953857893763e-02	 1.550970197977365e+00	 2.310296672659884e+00
 6.512433501504562e-02	 1.551577746310789e+00	 2.289220682457374e+00
 5.201766401489977e-02	 1.552072431877894e+00	 2.272082155406489e+00
 3.895072927892636e-02	 1.552455309628167e+00	 2.258736376248516e+00
 2.592470922112920e-02	 1.552727447948206e+00	 2.249019118296470e+00
 1.294075690567383e-02	 1.552889928011886e+00	 2.242743829099261e+00
 0.000000000000000e+00	 1.552943843135555e+00	 2.239698740678776e+00
 1.322048560045317e-01	 1.559114750951333e+00	 2.516242476594801e+00
 1.188173929786876e-01	 1.560192109451897e+00	 2.478251391376655e+00
 1.054636502801181e-01	 1.561151646936090e+00	 2.444635219294004e+00
 9.214494165776767e-02	 1.561994365557816e+00	 2.415303424478189e+00
 7.886255581117897e-02	 1.562721283670376e+00	 2.390159555752115e+00
 6.561775625676909e-02	 1.563333435156090e+00	 2.369098773894537e+00
 5.241178121202154e-02	 1.563831868759107e+00	 2.352005366562491e+00
 3.924584349729521e-02	 1.564217647421867e+00	 2.338750224878252e+00
 2.612113045494181e-02	 1.564491847625732e+00	 2.329188258596878e+00
 1.303880388540947e-02	 1.564655558736223e+00	 2.323155729679258e+00
 0.000000000000000e+00	 1.564709882353332e+00	 2.320467487236573e+00
 1.331989875918587e-01	 1.570838716853544e+00	 2.589763144960761e+00
 1.197108557988222e-01	 1.571924176691193e+00	 2.552236833344759e+00
 1.062566978975110e-01	 1.572890929541969e+00	 2.519019258702698e+00
 9.283783751575048e-02	 1.573739985095622e+00	 2.490026280354965e+00
 7.945557304360203e-02	 1.574472369363108e+00	 2.465170685618706e+00
 6.611117749863429e-02	 1.575089124001182e+00	 2.444359962148359e+00
 5.280589840924383e-02	 1.575591305640174e+00	 2.427494038738849e+00
 3.954095771572612e-02	 1.575979985215479e+00	 2.414462967008423e+00
 2.631755168878442e-02	 1.576256247303216e+00	 2.405144519476002e+00
 1.313685086515321e-02	 1.576421189460549e+00	 2.399401682664186e+00
 0.000000000000000e+00	 1.576475921571110e+00	 2.397080027174361e+00
 1.341931191795227e-01	 1.582562682755214e+00	 2.656963149399370e+00
 1.206043186192986e-01	 1.583656243929987e+00	 2.620390670694421e+00
 1.070497455152280e-01	 1.584630212147401e+00	 2.587994017850363e+00
 9.353073337402246e-02	 1.585485604633047e+00	 2.559698077262496e+00
 8.004859027626750e-02	 1.586223455055534e+00	 2.535427627266598e+00
 6.660459874068848e-02	 1.586844812846041e+00	 2.515105372477881e+00
 5.320001560660024e-02	 1.587350742521082e+00	 2.498649926388196e+00
 3.983607193423978e-02	 1.587742323008995e+00	 2.485973712967758e+00
 2.651397292266706e-02	 1.588020646980655e+00	 2.476980761331502e+00
 1.323489784490775e-02	 1.588186820184863e+00	 2.471564370843867e+00
 0.000000000000000e+00	 1.588241960788888e+00	 2.469604627547433e+00
 1.588241960788888e+00	 0.000000000000000e+00	 1.468001185387223e+01
 1.588186820184863e+00	 1.323489784490688e-02	 1.467379757649441e+01
 1.588020646980655e+00	 2.651397292266631e-02	 1.467041395052819e+01
 1.587742323008995e+00	 3.983607193423917e-02	 1.466927032321972e+01
 1.587350742521082e+00	 5.320001560659974e-02	 1.466979728974797e+01
 1.586844812846042e+00	 6.660459874068812e-02	 1.467144777176765e+01
 1.586223455055534e+00	 8.004859027626729e-02	 1.467369806018975e+01
 1.585485604633047e+00	 9.353073337402233e-02	 1.467604881479924e+01
 1.584630212147402e+00	 1.070497455152281e-01	 1.467802601213314e+01
 1.583656243929986e+00	 1.206043186192988e-01	 1.467918183200395e+01
 1.582562682755214e+00	 1.341931191795227e-01	 1.467909547197287e+01
 1.600006000000016e+00	 0.000000000000000e+00	 1.458029720124202e+01
 1.599950450971950e+00	 1.333292815852097e-02	 1.457405147066019e+01
 1.599783046930085e+00	 2.671036076865937e-02	 1.457075605974317e+01
 1.599502661424930e+00	 4.013113598895202e-02	 1.456980424757675e+01
 1.599108180517441e+00	 5.359406581156111e-02	 1.457061165326856e+01
 1.598598503443373e+00	 6.709793611058179e-02	 1.457261736839258e+01
 1.597972543282802e+00	 8.064150670737973e-02	 1.457528505999573e+01
 1.597229227634382e+00	 9.422351145329827e-02	 1.457810403687953e+01
 1.596367499293834e+00	 1.078426583300645e-01	 1.458059027061496e+01
 1.595386316936202e+00	 1.214976295682094e-01	 1.458228736165029e+01
 1.594284655801342e+00	 1.351870817838079e-01	 1.458276743972611e+01
 1.611770039211243e+00	 0.000000000000000e+00	 1.448365814929341e+01
 1.611714081759124e+00	 1.343095847214723e-02	 1.447740206506784e+01
 1.611545446879569e+00	 2.690674861469758e-02	 1.447419917899826e+01
 1.611262999840867e+00	 4.042620004375836e-02	 1.447342862121984e+01
 1.610865618513740e+00	 5.398811601667425e-02	 1.447449289486836e+01
 1.610352194040572e+00	 6.759127348069000e-02	 1.447681906036490e+01
 1.609721631509864e+00	 8.123442313876822e-02	 1.447985989710644e+01
 1.608972850635437e+00	 9.491628953290494e-02	 1.448309503541523e+01
 1.608104786439920e+00	 1.086355711452735e-01	 1.448603205026060e+01
 1.607116389942014e+00	 1.223909405175161e-01	 1.448820750710796e+01
 1.606006628847030e+00	 1.361810443884884e-01	 1.448918794903517e+01
 1.623534078422672e+00	 0.000000000000000e+00	 1.438993115059550e+01
 1.623477712546487e+00	 1.352898878578433e-02	 1.438368556881767e+01
 1.623307846829212e+00	 2.710313646077602e-02	 1.438058033121387e+01
 1.623023338256918e+00	 4.072126409864829e-02	 1.437998234693453e+01
 1.622623056510094e+00	 5.438216622192349e-02	 1.438128286529110e+01
 1.622105884637762e+00	 6.808461085099109e-02	 1.438389870971072e+01
 1.621470719736848e+00	 8.182733957040586e-02	 1.438727349648743e+01
 1.620716473636348e+00	 9.560906761281156e-02	 1.439087883134536e+01
 1.619842073585799e+00	 1.094284839608229e-01	 1.439421547540836e+01
 1.618846462947568e+00	 1.232842514671880e-01	 1.439681447094430e+01
 1.617728601892419e+00	 1.371750069935380e-01	 1.439823821596964e+01
 1.635298117634399e+00	 0.000000000000000e+00	 1.429896617139534e+01
 1.635241343334142e+00	 1.362701909943093e-02	 1.429274896753020e+01
 1.635070246779118e+00	 2.729952430688985e-02	 1.428974468813449e+01
 1.634783676673192e+00	 4.101632815361188e-02	 1.428930995917244e+01
 1.634380494506621e+00	 5.477621642729304e-02	 1.429082664116596e+01
 1.633859575235067e+00	 6.857794822146342e-02	 1.429370311053826e+01
 1.633219807963886e+00	 8.242025600226588e-02	 1.429737553371470e+01
 1.632460096637251e+00	 9.630184569298754e-02	 1.430130912718639e+01
 1.631579360731613e+00	 1.102213967766804e-01	 1.430499939523534e+01
 1.630576535953006e+00	 1.241775624171940e-01	 1.430797333572474e+01
 1.629450574937652e+00	 1.381689695989312e-01	 1.430979060300341e+01
 1.647062156846527e+00	 0.000000000000000e+00	 1.421062620932682e+01
 1.647004974122187e+00	 1.372504941308569e-02	 1.420444958947847e+01
 1.646832646729393e+00	 2.749591215303418e-02	 1.420154518635350e+01
 1.646544015089798e+00	 4.131139220863921e-02	 1.420126129141307e+01
 1.646137932503437e+00	 5.517026663276717e-02	 1.420297224512477e+01
 1.645613265832610e+00	 6.907128559208542e-02	 1.420607976329729e+01
 1.644968896191108e+00	 8.301317243432141e-02	 1.421001426472967e+01
 1.644203719638282e+00	 9.699462377340233e-02	 1.421423619359838e+01
 1.643316647877502e+00	 1.110143095928138e-01	 1.421823732841022e+01
 1.642306608958469e+00	 1.250708733675034e-01	 1.422154206798272e+01
 1.641172547982870e+00	 1.391629322046416e-01	 1.422370868348499e+01
 1.658826196059155e+00	 0.000000000000000e+00	 1.412478683165342e+01
 1.658768604910726e+00	 1.382307972674727e-02	 1.411865469023032e+01
 1.658595046680142e+00	 2.769229999920414e-02	 1.411584215984117e+01
 1.658304353506849e+00	 4.160645626372036e-02	 1.411569115804070e+01
 1.657895370500659e+00	 5.556431683833013e-02	 1.411757037846406e+01
 1.657366956430516e+00	 6.956462296283542e-02	 1.412087665963350e+01
 1.656717984418644e+00	 8.360608886654561e-02	 1.412503636426001e+01
 1.655947342639578e+00	 9.768740185402516e-02	 1.412950676270989e+01
 1.655053935023607e+00	 1.118072224091907e-01	 1.413377741261943e+01
 1.654036681964102e+00	 1.259641843180850e-01	 1.413737152520197e+01
 1.652894521028216e+00	 1.401568948106434e-01	 1.413984730728327e+01
 1.670590235272382e+00	 0.000000000000000e+00	 1.404133573303215e+01
 1.670532235699859e+00	 1.392111004041436e-02	 1.403524105488819e+01
 1.670357446631470e+00	 2.788868784539486e-02	 1.403250298816208e+01
 1.670064691924455e+00	 4.190152031884545e-02	 1.403245905001952e+01
 1.669652808498404e+00	 5.595836704396619e-02	 1.403447416573284e+01
 1.669120647028907e+00	 7.005796033369184e-02	 1.403794207731488e+01
 1.668467072646625e+00	 8.419900529891165e-02	 1.404228677247819e+01
 1.667690965641275e+00	 9.838017993482549e-02	 1.404696392786696e+01
 1.666791222170067e+00	 1.126001352257789e-01	 1.405146235872626e+01
 1.665766754970046e+00	 1.268574952689079e-01	 1.405530546566193e+01
 1.664616494073832e+00	 1.411508574169108e-01	 1.405805266755065e+01
 1.682354274486310e+00	 0.000000000000000e+00	 1.396017231184372e+01
 1.682295866489688e+00	 1.401914035408561e-02	 1.395409461706450e+01
 1.682119846583481e+00	 2.808507569160146e-02	 1.395140175961389e+01
 1.681825030342725e+00	 4.219658437400454e-02	 1.395142884369216e+01
 1.681410246496788e+00	 5.635241724965963e-02	 1.395353891066262e+01
 1.680874337627908e+00	 7.055129770463296e-02	 1.395712438473691e+01
 1.680216160875180e+00	 8.479192173139266e-02	 1.396160854949482e+01
 1.679434588643507e+00	 9.907295801577265e-02	 1.396644704949221e+01
 1.678528509317023e+00	 1.133930480425462e-01	 1.397112940933536e+01
 1.677496827976445e+00	 1.277508062199412e-01	 1.397518056100634e+01
 1.676338467119861e+00	 1.421448200234176e-01	 1.397816236854826e+01
 1.694118313701038e+00	 0.000000000000000e+00	 1.388120726418599e+01
 1.694059497280314e+00	 1.411717066775969e-02	 1.387511009377978e+01
 1.693882246536281e+00	 2.828146353781906e-02	 1.387241894856212e+01
 1.693585368761770e+00	 4.249164842918772e-02	 1.387246852206309e+01
 1.693167684495929e+00	 5.674646745539469e-02	 1.387462186288743e+01
 1.692628028227641e+00	 7.104463507563726e-02	 1.387827185454070e+01
 1.691965249104439e+00	 8.538483816396182e-02	 1.388284273730469e+01
 1.691178211646414e+00	 9.976573609683601e-02	 1.388779166675603e+01
 1.690265796464615e+00	 1.141859608594602e-01	 1.389261030154803e+01
 1.689226900983441e+00	 1.286441171711538e-01	 1.389682641140088e+01
 1.688060440166442e+00	 1.431387826301380e-01	 1.390000549448070e+01
 1.705882352916666e+00	 0.000000000000000e+00	 1.380436219467822e+01
 1.705823128071838e+00	 1.421520098143525e-02	 1.379819063551411e+01
 1.705644646489975e+00	 2.847785138404280e-02	 1.379544110628528e+01
 1.705345707181702e+00	 4.278671248438510e-02	 1.379544990796382e+01
 1.704925122495943e+00	 5.714051766115563e-02	 1.379758199493314e+01
 1.704381718828230e+00	 7.153797244668304e-02	 1.380123248590325e+01
 1.703714337334535e+00	 8.597775459659229e-02	 1.380582822882632e+01
 1.702921834650128e+00	 1.004585141779849e-01	 1.381082941477910e+01
 1.702003083612986e+00	 1.149788736764887e-01	 1.381573123370583e+01
 1.700956973991177e+00	 1.295374281225149e-01	 1.382006556315563e+01
 1.699782413213720e+00	 1.441327452370459e-01	 1.382340267929151e+01
 1.582562682755214e+00	 1.341931191795227e-01	 1.467909547197287e+01
 1.581348311752016e+00	 1.478171015545287e-01	 1.467880208433405e+01
 1.580012323645071e+00	 1.614725465025007e-01	 1.467939534884678e+01
 1.578553753947841e+00	 1.751580110367080e-01	 1.468058568752585e+01
 1.576971657429571e+00	 1.888720266035264e-01	 1.468211468201129e+01
 1.575265108815627e+00	 2.026130993126123e-01	 1.468375531447782e+01
 1.573433203487976e+00	 2.163797101875688e-01	 1.468531204509939e+01
 1.571475058185210e+00	 2.301703154373143e-01	 1.468662070712383e+01
 1.569389811701443e+00	 2.439833467483496e-01	 1.468754819945372e+01
 1.567176625583449e+00	 2.578172115980991e-01	 1.468799195550290e+01
 1.564834684825360e+00	 2.716702935894773e-01	 1.468787916601660e+01
 1.594284655801342e+00	 1.351870817838079e-01	 1.458276743972612e+01
 1.593061290004873e+00	 1.489119764043924e-01	 1.458308573570626e+01
 1.591715406292023e+00	 1.626685666398839e-01	 1.458435549420820e+01
 1.590246033032350e+00	 1.764553988154092e-01	 1.458628179792945e+01
 1.588652217993827e+00	 1.902709934998277e-01	 1.458860232654524e+01
 1.586933029048354e+00	 2.041138457376127e-01	 1.459108770456926e+01
 1.585087554877443e+00	 2.179824253013717e-01	 1.459354169043928e+01
 1.583114905677412e+00	 2.318751769652266e-01	 1.459580118725594e+01
 1.581014213863468e+00	 2.457905207992454e-01	 1.459773605435455e+01
 1.578784634772008e+00	 2.597268524851038e-01	 1.459924869767236e+01
 1.576425347360458e+00	 2.736825436531301e-01	 1.460027341570127e+01
 1.606006628847030e+00	 1.361810443884884e-01	 1.448918794903517e+01
 1.604774268257270e+00	 1.500068512546220e-01	 1.449004463225874e+01
 1.603418488938515e+00	 1.638645867775796e-01	 1.449190655382696e+01
 1.601938312116416e+00	 1.777527865943507e-01	 1.449447516780907e+01
 1.600332778557666e+00	 1.916699603962856e-01	 1.449748589705836e+01
 1.598600949280705e+00	 2.056145921626794e-01	 1.450070859118125e+01
 1.596741906266578e+00	 2.195851404151514e-01	 1.450394783103625e+01
 1.594754753169331e+00	 2.335800384930332e-01	 1.450704305955750e+01
 1.592638616025262e+00	 2.475976948499659e-01	 1.450986851735569e+01
 1.590392643960385e+00	 2.616364933718832e-01	 1.451233296023593e+01
 1.588016009895419e+00	 2.756947937165342e-01	 1.451437913450403e+01
 1.617728601892419e+00	 1.371750069935380e-01	 1.439823821596963e+01
 1.616487246509347e+00	 1.511017261052009e-01	 1.439956973735393e+01
 1.615121571584678e+00	 1.650606069155833e-01	 1.440194975357022e+01
 1.613630591200159e+00	 1.790501743735434e-01	 1.440507773022733e+01
 1.612013339121201e+00	 1.930689272929266e-01	 1.440868840149727e+01
 1.610268869512776e+00	 2.071153385878557e-01	 1.441255234154098e+01
 1.608396257655466e+00	 2.211878555289660e-01	 1.441647638843677e+01
 1.606394600661041e+00	 2.352849000208043e-01	 1.442030389976671e+01
 1.604263018186884e+00	 2.494048689005907e-01	 1.442391481757330e+01
 1.602000653148627e+00	 2.635461342585221e-01	 1.442722551898996e+01
 1.599606672430276e+00	 2.777070437797732e-01	 1.443018842747634e+01
 1.629450574937652e+00	 1.381689695989312e-01	 1.430979060300341e+01
 1.628200224761240e+00	 1.521966009561122e-01	 1.431154154175123e+01
 1.626824654230644e+00	 1.662566270538911e-01	 1.431437434614085e+01
 1.625322870283702e+00	 1.803475621529980e-01	 1.431798806185672e+01
 1.623693899684542e+00	 1.944678941897775e-01	 1.432211822416187e+01
 1.621936789744666e+00	 2.086160850131840e-01	 1.432653754632261e+01
 1.620050609044193e+00	 2.227905706428732e-01	 1.433105646720997e+01
 1.618034448152610e+00	 2.369897615486109e-01	 1.433552353658609e+01
 1.615887420348390e+00	 2.512120429512001e-01	 1.433982561503940e+01
 1.613608662336778e+00	 2.654557751451051e-01	 1.434388786401594e+01
 1.611197334965065e+00	 2.797192938429308e-01	 1.434767349992049e+01
 1.641172547982870e+00	 1.391629322046416e-01	 1.422370868348500e+01
 1.639913203013088e+00	 1.532914758073392e-01	 1.422583018955907e+01
 1.638527736876545e+00	 1.674526471924987e-01	 1.422905779925945e+01
 1.637015149367167e+00	 1.816449499327250e-01	 1.423309163407083e+01
 1.635374460247800e+00	 1.958668610868651e-01	 1.423766944031365e+01
 1.633604709976475e+00	 2.101168314387074e-01	 1.424256739830491e+01
 1.631704960432843e+00	 2.243932857569308e-01	 1.424760079810678e+01
 1.629674295644112e+00	 2.386946230765234e-01	 1.425262455971565e+01
 1.627511822509841e+00	 2.530192170018740e-01	 1.425753357389580e+01
 1.625216671524883e+00	 2.673654160317170e-01	 1.426226283823480e+01
 1.622787997499820e+00	 2.817315439060905e-01	 1.426678736141313e+01
 1.652894521028216e+00	 1.401568948106434e-01	 1.413984730728326e+01
 1.651626181265029e+00	 1.543863506588651e-01	 1.414229560355799e+01
 1.650230819522511e+00	 1.686486673314019e-01	 1.414586598145318e+01
 1.648707428450677e+00	 1.829423377127354e-01	 1.415026105992065e+01
 1.647055020811086e+00	 1.972658279842160e-01	 1.415522212498901e+01
 1.645272630208299e+00	 2.116175778644685e-01	 1.416053006359804e+01
 1.643359311821501e+00	 2.259960008711967e-01	 1.416600617220029e+01
 1.641314143135618e+00	 2.403994846046124e-01	 1.417151281732485e+01
 1.639136224671292e+00	 2.548263910526921e-01	 1.417695392353384e+01
 1.636824680712989e+00	 2.692750569184423e-01	 1.418227526246329e+01
 1.634378660034575e+00	 2.837437939693360e-01	 1.418746451493862e+01
 1.664616494073832e+00	 1.411508574169108e-01	 1.405805266755065e+01
 1.663339159517203e+00	 1.554812255106730e-01	 1.406078760992498e+01
 1.661933902168675e+00	 1.698446874705965e-01	 1.406465334556876e+01
 1.660399707534353e+00	 1.842397254930395e-01	 1.406935633719645e+01
 1.658735581374511e+00	 1.986647948818570e-01	 1.407464265630266e+01
 1.656940550440240e+00	 2.131183242905103e-01	 1.408029904580649e+01
 1.655013663210253e+00	 2.275987159857287e-01	 1.408615386645071e+01
 1.652953990627199e+00	 2.421043461329486e-01	 1.409207790348379e+01
 1.650760626832801e+00	 2.566335651037344e-01	 1.409798500827299e+01
 1.648432689901140e+00	 2.711846978053658e-01	 1.410383254763689e+01
 1.645969322569364e+00	 2.857560440327510e-01	 1.410962163186472e+01
 1.676338467119861e+00	 1.421448200234176e-01	 1.397816236854826e+01
 1.675052137769746e+00	 1.565761003627464e-01	 1.398114606238846e+01
 1.673636984815167e+00	 1.710407076100783e-01	 1.398526311012059e+01
 1.672091986618317e+00	 1.855371132736481e-01	 1.399022508776826e+01
 1.670416141938185e+00	 2.000637617798147e-01	 1.399578401350971e+01
 1.668608470672392e+00	 2.146190707168755e-01	 1.400173354347278e+01
 1.666668014599182e+00	 2.292014311005847e-01	 1.400791006111476e+01
 1.664593838118926e+00	 2.438092076616025e-01	 1.401419363604465e+01
 1.662385028994429e+00	 2.584407391550810e-01	 1.402050882613973e+01
 1.660040699089382e+00	 2.730943386925720e-01	 1.402682529482759e+01
 1.657559985104222e+00	 2.877682940964189e-01	 1.403315821345433e+01
 1.688060440166442e+00	 1.431387826301380e-01	 1.390000549448069e+01
 1.686765116022797e+00	 1.576709752150682e-01	 1.390320096584019e+01
 1.685340067462120e+00	 1.722367277498431e-01	 1.390752743857829e+01
 1.683784265702693e+00	 1.868345010545720e-01	 1.391270279338347e+01
 1.682096702502221e+00	 2.014627286781161e-01	 1.391848607008177e+01
 1.680276390904855e+00	 2.161198171436070e-01	 1.392467880112819e+01
 1.678322365988376e+00	 2.308041462158224e-01	 1.393112624939514e+01
 1.676233685610870e+00	 2.455140691906446e-01	 1.393771852543657e+01
 1.674009431156230e+00	 2.602479132068117e-01	 1.394439155727544e+01
 1.671648708277761e+00	 2.750039795801458e-01	 1.395112788364917e+01
 1.669150647639183e+00	 2.897805441604235e-01	 1.395795723956692e+01
 1.699782413213720e+00	 1.441327452370459e-01	 1.382340267929151e+01
 1.698478094276495e+00	 1.587658500676220e-01	 1.382677259943048e+01
 1.697043150109665e+00	 1.734327478898867e-01	 1.383126761669315e+01
 1.695476544787600e+00	 1.881318888358217e-01	 1.383661302809340e+01
 1.693777263066728e+00	 2.028616955767876e-01	 1.384257588203601e+01
 1.691944311137729e+00	 2.176205635707476e-01	 1.384896645425894e+01
 1.689976717377917e+00	 2.324068613314997e-01	 1.385563963970446e+01
 1.687873533103103e+00	 2.472189307201458e-01	 1.386249623481327e+01
 1.685633833318265e+00	 2.620550872590064e-01	 1.386948408247426e+01
 1.683256717466321e+00	 2.769136204681718e-01	 1.387659904961087e+01
 1.680741310174281e+00	 2.917927942248484e-01	 1.388388580516852e+01
 1.564834684825360e+00	 2.716702935894773e-01	 1.468787916601660e+01
 1.562363629522107e+00	 2.855385942691462e-01	 1.468742841119035e+01
 1.559762305909978e+00	 2.994228077071328e-01	 1.468692150785076e+01
 1.557029972625388e+00	 3.133212527517060e-01	 1.468641758784261e+01
 1.554165914454477e+00	 3.272322260185064e-01	 1.468599421395165e+01
 1.551169443004019e+00	 3.411540023317315e-01	 1.468574484319868e+01
 1.548039897365635e+00	 3.550848351868721e-01	 1.468577589527311e+01
 1.544776644772575e+00	 3.690229572349770e-01	 1.468620339886628e+01
 1.541379081248321e+00	 3.829665807884041e-01	 1.468645180962672e+01
 1.537846632246248e+00	 3.969138983479809e-01	 1.468560332223455e+01
 1.534178753279604e+00	 4.108630831514755e-01	 1.468373973557308e+01
 1.576425347360458e+00	 2.736825436531301e-01	 1.460027341570127e+01
 1.573935989057953e+00	 2.876535662336125e-01	 1.460097464645413e+01
 1.571315397554899e+00	 3.016406194375204e-01	 1.460158306420785e+01
 1.568562825996456e+00	 3.156420096608994e-01	 1.460217242698354e+01
 1.565677553871200e+00	 3.296560209024911e-01	 1.460283760788263e+01
 1.562658887686997e+00	 3.436809152081860e-01	 1.460369217258309e+01
 1.559506161640144e+00	 3.577149331371864e-01	 1.460486555627411e+01
 1.556218738277005e+00	 3.717562942498587e-01	 1.460649165334887e+01
 1.552796009147428e+00	 3.858031976172314e-01	 1.460767562608004e+01
 1.549237395449139e+00	 3.998538223520587e-01	 1.460779266427922e+01
 1.545542348662388e+00	 4.139063281613546e-01	 1.460694464079907e+01
 1.588016009895419e+00	 2.756947937165342e-01	 1.451437913450403e+01
 1.585508348593699e+00	 2.897685381978380e-01	 1.451611920868640e+01
 1.582868489199749e+00	 3.038584311677021e-01	 1.451773464302533e+01
 1.580095679367477e+00	 3.179627665699445e-01	 1.451931525085977e+01
 1.577189193287892e+00	 3.320798157864019e-01	 1.452097461159653e+01
 1.574148332369958e+00	 3.462078280846521e-01	 1.452284777032390e+01
 1.570972425914643e+00	 3.603450310876036e-01	 1.452508853154457e+01
 1.567660831781430e+00	 3.744896312649352e-01	 1.452779136705358e+01
 1.564212937046534e+00	 3.886398144463393e-01	 1.452984132171732e+01
 1.560628158652031e+00	 4.027937463564916e-01	 1.453088306937570e+01
 1.556905944045173e+00	 4.169495731716460e-01	 1.453103147532954e+01
 1.599606672430276e+00	 2.777070437797732e-01	 1.443018842747634e+01
 1.597080708129370e+00	 2.918835101618982e-01	 1.443286488489106e+01
 1.594421580844547e+00	 3.060762428977405e-01	 1.443538863206546e+01
 1.591628532738462e+00	 3.202835234788861e-01	 1.443786683858512e+01
 1.588700832704562e+00	 3.345036106702631e-01	 1.444043305518813e+01
 1.585637777052906e+00	 3.487347409611321e-01	 1.444324504392450e+01
 1.582438690189135e+00	 3.629751290381036e-01	 1.444648219752442e+01
 1.579102925285853e+00	 3.772229682801647e-01	 1.445013333588423e+01
 1.575629864945639e+00	 3.914764312756678e-01	 1.445299479516241e+01
 1.572018921854921e+00	 4.057336703612052e-01	 1.445492546992165e+01
 1.568269539427957e+00	 4.199928181822672e-01	 1.445605433958914e+01
 1.611197334965065e+00	 2.797192938429308e-01	 1.434767349992049e+01
 1.608653067664990e+00	 2.939984821258692e-01	 1.435119405692327e+01
 1.605974672489309e+00	 3.082940546276985e-01	 1.435453662292125e+01
 1.603161386109424e+00	 3.226042803877696e-01	 1.435782689316002e+01
 1.600212472121218e+00	 3.369274055540992e-01	 1.436121952026277e+01
 1.597127221735845e+00	 3.512616538376283e-01	 1.436489608388785e+01
 1.593904954463623e+00	 3.656052269886667e-01	 1.436906264512073e+01
 1.590545018790275e+00	 3.799563052955068e-01	 1.437353815019075e+01
 1.587046792844743e+00	 3.943130481051578e-01	 1.437716349976563e+01
 1.583409685057811e+00	 4.086735943661262e-01	 1.437995249211706e+01
 1.579633134810741e+00	 4.230360631931352e-01	 1.438204925376686e+01
 1.622787997499820e+00	 2.817315439060905e-01	 1.426678736141313e+01
 1.620225427200585e+00	 2.961134540898270e-01	 1.427106947066599e+01
 1.617527764134053e+00	 3.105118663576386e-01	 1.427515024461915e+01
 1.614694239480373e+00	 3.249250372966396e-01	 1.427917493866980e+01
 1.611724111537865e+00	 3.393512004379345e-01	 1.428332029979428e+01
 1.608616666418780e+00	 3.537885667141431e-01	 1.428779268519075e+01
 1.605371218738109e+00	 3.682353249392727e-01	 1.429282576164569e+01
 1.601987112294695e+00	 3.826896423109198e-01	 1.429800882922674e+01
 1.598463720743847e+00	 3.971496649347493e-01	 1.430235741274057e+01
 1.594800448260701e+00	 4.116135183711803e-01	 1.430597946846921e+01
 1.590996730193526e+00	 4.260793082041673e-01	 1.430903521209830e+01
 1.634378660034575e+00	 2.837437939693360e-01	 1.418746451493863e+01
 1.631797786736181e+00	 2.982284260538476e-01	 1.419243498898925e+01
 1.629080855778798e+00	 3.127296780876233e-01	 1.419718197975919e+01
 1.626227092851323e+00	 3.272457942055415e-01	 1.420187119885779e+01
 1.623235750954513e+00	 3.417749953217939e-01	 1.420670233827899e+01
 1.620106111101715e+00	 3.563154795906788e-01	 1.421190734806063e+01
 1.616837483012595e+00	 3.708654228899017e-01	 1.421774738623447e+01
 1.613429205799115e+00	 3.854229793263630e-01	 1.422353172298718e+01
 1.609880648642951e+00	 3.999862817643831e-01	 1.422856998115450e+01
 1.606191211463592e+00	 4.145534423762935e-01	 1.423300542651062e+01
 1.602360325576310e+00	 4.291225532152809e-01	 1.423701521281198e+01
 1.645969322569364e+00	 2.857560440327510e-01	 1.410962163186472e+01
 1.643370146271801e+00	 3.003433980180070e-01	 1.411521632929158e+01
 1.640633947423560e+00	 3.149474898177157e-01	 1.412056596405314e+01
 1.637759946222284e+00	 3.295665511145203e-01	 1.412585745799118e+01
 1.634747390371168e+00	 3.441987902057013e-01	 1.413131415315700e+01
 1.631595555784654e+00	 3.588423924672377e-01	 1.413719425907545e+01
 1.628303747287083e+00	 3.734955208405339e-01	 1.414374978866160e+01
 1.624871299303536e+00	 3.881563163417951e-01	 1.415007739273414e+01
 1.621297576542056e+00	 4.028228985939995e-01	 1.415577904591265e+01
 1.617581974666483e+00	 4.174933663813924e-01	 1.416101405490282e+01
 1.613723920959095e+00	 4.321657982263932e-01	 1.416597726493950e+01
 1.657559985104222e+00	 2.877682940964189e-01	 1.403315821345433e+01
 1.654942505807471e+00	 3.024583699823811e-01	 1.403932178637787e+01
 1.652187039068358e+00	 3.171653015479785e-01	 1.404521877007377e+01
 1.649292799593269e+00	 3.318873080236212e-01	 1.405105790488665e+01
 1.646259029787839e+00	 3.466225850896819e-01	 1.405708673841815e+01
 1.643085000467601e+00	 3.613693053438221e-01	 1.406359025354990e+01
 1.639770011561576e+00	 3.761256187911489e-01	 1.407075976050878e+01
 1.636313392807959e+00	 3.908896533571750e-01	 1.407760147125530e+01
 1.632714504441160e+00	 4.056595154235390e-01	 1.408394774481476e+01
 1.628972737869374e+00	 4.204332903864027e-01	 1.408997464803284e+01
 1.625087516341879e+00	 4.352090432374213e-01	 1.409589537312294e+01
 1.669150647639183e+00	 2.897805441604235e-01	 1.395795723956692e+01
 1.666514865343216e+00	 3.045733419470461e-01	 1.396464294138659e+01
 1.663740130713208e+00	 3.193831132784736e-01	 1.397104017598207e+01
 1.660825652964290e+00	 3.342080649328890e-01	 1.397737996091419e+01
 1.657770669204531e+00	 3.490463799737598e-01	 1.398393445125832e+01
 1.654574445150562e+00	 3.638962182204347e-01	 1.399101576011856e+01
 1.651236275836075e+00	 3.787557167417269e-01	 1.399870990699641e+01
 1.647755486312385e+00	 3.936229903724618e-01	 1.400604550383972e+01
 1.644131432340266e+00	 4.084961322529420e-01	 1.401302539570093e+01
 1.640363501072265e+00	 4.233732143912502e-01	 1.401984303014900e+01
 1.636451111724664e+00	 4.382522882482825e-01	 1.402673050148894e+01
 1.680741310174281e+00	 2.917927942248484e-01	 1.388388580516852e+01
 1.678087224879063e+00	 3.066883139120778e-01	 1.389105535743942e+01
 1.675293222358129e+00	 3.216009250092646e-01	 1.389791391995813e+01
 1.672358506335359e+00	 3.365288218423690e-01	 1.390471509275316e+01
 1.669282308621254e+00	 3.514701748579594e-01	 1.391175588260546e+01
 1.666063889833540e+00	 3.664231310970775e-01	 1.391937572837504e+01
 1.662702540110584e+00	 3.813858146922481e-01	 1.392751934294379e+01
 1.659197579816814e+00	 3.963563273876144e-01	 1.393533777090279e+01
 1.655548360239373e+00	 4.113327490821487e-01	 1.394294836064820e+01
 1.651754264275156e+00	 4.263131383958614e-01	 1.395056246002332e+01
 1.647814707107448e+00	 4.412955332588941e-01	 1.395843151760051e+01
 1.534178753279604e+00	 4.108630831514755e-01	 1.468373973557308e+01
 1.530374930874972e+00	 4.248122899380132e-01	 1.468051247435676e+01
 1.526434684184807e+00	 4.387596561408393e-01	 1.467565351024196e+01
 1.522357564585261e+00	 4.527033019456688e-01	 1.466939437478898e+01
 1.518143155924636e+00	 4.666413307325117e-01	 1.466197043254270e+01
 1.513791075091548e+00	 4.805718297281252e-01	 1.465361828949857e+01
 1.509300972568784e+00	 4.944928706784833e-01	 1.464457291103810e+01
 1.504672532972101e+00	 5.084025105409528e-01	 1.463506443577527e+01
 1.499905475573210e+00	 5.222987921958340e-01	 1.462531467220647e+01
 1.494999554806210e+00	 5.361797451768957e-01	 1.461553326563592e+01
 1.489954560756725e+00	 5.500433864204961e-01	 1.460591352355577e+01
 1.545542348662388e+00	 4.139063281613546e-01	 1.460694464079907e+01
 1.541710351510479e+00	 4.279588561164745e-01	 1.460466249210109e+01
 1.537740919584256e+00	 4.420095298547193e-01	 1.460055569612041e+01
 1.533633600936938e+00	 4.560564556381108e-01	 1.459486941840684e+01
 1.529387976334423e+00	 4.700977227984866e-01	 1.458785715325562e+01
 1.525003659827642e+00	 4.841314043947850e-01	 1.457977821796874e+01
 1.520480299310535e+00	 4.981555578904963e-01	 1.457089494640815e+01
 1.515817577062827e+00	 5.121682258509638e-01	 1.456146956718347e+01
 1.511015210276898e+00	 5.261674366601978e-01	 1.455176075225330e+01
 1.506072951567957e+00	 5.401512052568188e-01	 1.454201982228708e+01
 1.500990589466813e+00	 5.541175338887292e-01	 1.453248659584028e+01
 1.556905944045173e+00	 4.169495731716460e-01	 1.453103147532954e+01
 1.553045772145987e+00	 4.311054222953839e-01	 1.452972038473152e+01
 1.549047154983703e+00	 4.452594035690622e-01	 1.452646076775924e+01
 1.544909637288616e+00	 4.594096093310115e-01	 1.452151305742338e+01
 1.540632796744209e+00	 4.735541148648991e-01	 1.451514994887199e+01
 1.536216244563737e+00	 4.876909790618466e-01	 1.450765397420750e+01
 1.531659626052284e+00	 5.018182451028615e-01	 1.449931476705409e+01
 1.526962621153553e+00	 5.159339411612679e-01	 1.449042600110551e+01
 1.522124944980584e+00	 5.300360811247867e-01	 1.448128198730160e+01
 1.517146348329705e+00	 5.441226653368927e-01	 1.447217391483796e+01
 1.512026618176902e+00	 5.581916813570345e-01	 1.446338572191253e+01
 1.568269539427957e+00	 4.199928181822672e-01	 1.445605433958914e+01
 1.564381192781494e+00	 4.342519884746564e-01	 1.445573567599777e+01
 1.560353390383151e+00	 4.485092772837870e-01	 1.445340001539275e+01
 1.556185673640293e+00	 4.627627630242990e-01	 1.444932456057805e+01
 1.551877617153995e+00	 4.770105069316905e-01	 1.444380215556486e+01
 1.547428829299831e+00	 4.912505537292683e-01	 1.443713893621662e+01
 1.542838952794035e+00	 5.054809323155584e-01	 1.442965166174366e+01
 1.538107665244278e+00	 5.196996564718652e-01	 1.442166471014906e+01
 1.533234679684272e+00	 5.339047255896229e-01	 1.441350672112609e+01
 1.528219745091452e+00	 5.480941254171615e-01	 1.440550687044615e+01
 1.523062646886989e+00	 5.622658288254768e-01	 1.439799076057090e+01
 1.579633134810741e+00	 4.230360631931352e-01	 1.438204925376686e+01
 1.575716613417001e+00	 4.373985546542071e-01	 1.438274028667620e+01
 1.571659625782599e+00	 4.517591509988125e-01	 1.438138802008102e+01
 1.567461709991970e+00	 4.661159167179016e-01	 1.437828779654532e+01
 1.563122437563782e+00	 4.804668989988032e-01	 1.437375343230699e+01
 1.558641414035925e+00	 4.948101283970089e-01	 1.436811493954035e+01
 1.554018279535785e+00	 5.091436195285645e-01	 1.436171592121232e+01
 1.549252709335003e+00	 5.234653717827554e-01	 1.435491062049083e+01
 1.544344414387959e+00	 5.377733700547285e-01	 1.434806060703383e+01
 1.539293141853199e+00	 5.520655854976699e-01	 1.434153108301463e+01
 1.534098675597078e+00	 5.663399762941220e-01	 1.433568679241709e+01
 1.590996730193526e+00	 4.260793082041673e-01	 1.430903521209831e+01
 1.587052034052508e+00	 4.405451208339511e-01	 1.431074962301059e+01
 1.582965861182047e+00	 4.550090247140578e-01	 1.431042376262963e+01
 1.578737746343648e+00	 4.694690704117471e-01	 1.430837234953141e+01
 1.574367257973569e+00	 4.839232910661785e-01	 1.430493086922952e+01
 1.569853998772019e+00	 4.983697030650276e-01	 1.430045336436494e+01
 1.565197606277535e+00	 5.128063067418591e-01	 1.429530988988639e+01
 1.560397753425730e+00	 5.272310870939388e-01	 1.428988361401499e+01
 1.555454149091646e+00	 5.416420145201258e-01	 1.428456754613145e+01
 1.550366538614946e+00	 5.560370455784611e-01	 1.427976087322937e+01
 1.545134704307166e+00	 5.704141237630351e-01	 1.427586488724424e+01
 1.602360325576310e+00	 4.291225532152809e-01	 1.423701521281198e+01
 1.598387454688016e+00	 4.436916870138034e-01	 1.423976364061443e+01
 1.594272096581494e+00	 4.582588984294418e-01	 1.424049170836873e+01
 1.590013782695326e+00	 4.728222241057639e-01	 1.423953461173350e+01
 1.585612078383355e+00	 4.873796831337585e-01	 1.423725007445287e+01
 1.581066583508113e+00	 5.019292777332832e-01	 1.423401620330990e+01
 1.576376933019286e+00	 5.164689939554206e-01	 1.423022900112606e+01
 1.571542797516455e+00	 5.309968024054149e-01	 1.422629951741427e+01
 1.566563883795333e+00	 5.455106589858367e-01	 1.422265061660955e+01
 1.561439935376693e+00	 5.600085056595803e-01	 1.421971334428245e+01
 1.556170733017254e+00	 5.744882712322809e-01	 1.421792287239287e+01
 1.613723920959095e+00	 4.321657982263932e-01	 1.416597726493950e+01
 1.609722875323523e+00	 4.468382531936791e-01	 1.416976788504390e+01
 1.605578331980943e+00	 4.615087721448836e-01	 1.417156286898215e+01
 1.601289819047003e+00	 4.761753777998801e-01	 1.417171885380226e+01
 1.596856898793141e+00	 4.908360752014844e-01	 1.417061624045140e+01
 1.592279168244207e+00	 5.054888524017342e-01	 1.416865711086186e+01
 1.587556259761036e+00	 5.201316811692273e-01	 1.416626279680257e+01
 1.582687841607181e+00	 5.347625177171842e-01	 1.416387107889657e+01
 1.577673618499020e+00	 5.493793034518835e-01	 1.416193299448743e+01
 1.572513332138440e+00	 5.639799657410712e-01	 1.416090923349425e+01
 1.567206761727342e+00	 5.785624187019254e-01	 1.416126610202754e+01
 1.625087516341879e+00	 4.352090432374213e-01	 1.409589537312294e+01
 1.621058295959030e+00	 4.499848193734930e-01	 1.410073451018429e+01
 1.616884567380390e+00	 4.647586458603018e-01	 1.410359584251014e+01
 1.612565855398680e+00	 4.795285314940240e-01	 1.410485827438471e+01
 1.608101719202928e+00	 4.942924672692982e-01	 1.410492519095441e+01
 1.603491752980302e+00	 5.090484270703399e-01	 1.410422243535148e+01
 1.598735586502786e+00	 5.237943683832579e-01	 1.410319593197623e+01
 1.593832885697907e+00	 5.385282330292464e-01	 1.410230893310471e+01
 1.588783353202707e+00	 5.532479479182885e-01	 1.410203886623821e+01
 1.583586728900187e+00	 5.679514258229781e-01	 1.410287376003662e+01
 1.578242790437430e+00	 5.826365661720331e-01	 1.410530822729002e+01
 1.636451111724664e+00	 4.382522882482825e-01	 1.402673050148893e+01
 1.632393716594537e+00	 4.531313855531602e-01	 1.403262327552882e+01
 1.628190802779839e+00	 4.680085195756160e-01	 1.403653783258723e+01
 1.623841891750358e+00	 4.828816851881236e-01	 1.403887602976548e+01
 1.619346539612715e+00	 4.977488593371419e-01	 1.404006440932981e+01
 1.614704337716396e+00	 5.126080017390591e-01	 1.404055223432186e+01
 1.609914913244536e+00	 5.274570555974909e-01	 1.404080916540033e+01
 1.604977929788632e+00	 5.422939483416014e-01	 1.404132255482318e+01
 1.599893087906394e+00	 5.571165923850736e-01	 1.404259433368826e+01
 1.594660125661934e+00	 5.719228859053455e-01	 1.404513746894646e+01
 1.589278819147518e+00	 5.867107136426698e-01	 1.404947196728733e+01
 1.647814707107448e+00	 4.412955332588941e-01	 1.395843151760051e+01
 1.643729137230044e+00	 4.562779517325960e-01	 1.396538252336927e+01
 1.639497038179286e+00	 4.712583932907444e-01	 1.397032564791848e+01
 1.635117928102035e+00	 4.862348388821072e-01	 1.397368624456705e+01
 1.630591360022501e+00	 5.012052514049571e-01	 1.397591404934558e+01
 1.625916922452490e+00	 5.161675764078502e-01	 1.397748127409123e+01
 1.621094239986286e+00	 5.311197428119052e-01	 1.397888033653652e+01
 1.616122973879358e+00	 5.460596636542491e-01	 1.398062120201377e+01
 1.611002822610082e+00	 5.609852368522614e-01	 1.398322831156559e+01
 1.605733522423682e+00	 5.758943459882176e-01	 1.398723707161075e+01
 1.600314847857605e+00	 5.907848611139003e-01	 1.399318988087521e+01
 1.489954560756725e+00	 5.500433864204961e-01	 1.460591352355577e+01
 1.484769426244294e+00	 5.638900728474014e-01	 1.459650695413662e+01
 1.479444859017328e+00	 5.777154384542192e-01	 1.458711007612458e+01
 1.473980757819261e+00	 5.915174653435146e-01	 1.457595695160106e+01
 1.468377058841594e+00	 6.052941261612226e-01	 1.456243825490195e+01
 1.462633736117254e+00	 6.190433849325040e-01	 1.454635081477743e+01
 1.456750801892469e+00	 6.327631979131833e-01	 1.452745344706177e+01
 1.450728306976514e+00	 6.464515144561647e-01	 1.450546606915373e+01
 1.444566341068717e+00	 6.601062778921717e-01	 1.448006893523808e+01
 1.438265033062099e+00	 6.737254264241521e-01	 1.445090200519680e+01
 1.431824551323068e+00	 6.873068940346405e-01	 1.441756446018329e+01
 1.500990589466813e+00	 5.541175338887292e-01	 1.453248659584028e+01
 1.495767048888450e+00	 5.680667821203990e-01	 1.452298091423330e+01
 1.490403042823533e+00	 5.819945516096362e-01	 1.451323760716786e+01
 1.484898469265483e+00	 5.958988095125246e-01	 1.450330991584838e+01
 1.479253263933164e+00	 6.097775134584708e-01	 1.449299029926574e+01
 1.473467400667155e+00	 6.236286123922532e-01	 1.448026779203483e+01
 1.467540891804378e+00	 6.374500474317689e-01	 1.446444061844393e+01
 1.461473788530443e+00	 6.512397527408631e-01	 1.444523190702369e+01
 1.455266181209063e+00	 6.649956564165962e-01	 1.442232081447962e+01
 1.448918199687955e+00	 6.787156813902689e-01	 1.439534175597115e+01
 1.442430013580597e+00	 6.923977463415106e-01	 1.436388378890467e+01
 1.512026618176902e+00	 5.581916813570345e-01	 1.446338572191254e+01
 1.506764671532605e+00	 5.722434913933883e-01	 1.445445109123771e+01
 1.501361226629737e+00	 5.862736647649656e-01	 1.444481850845474e+01
 1.495816180711701e+00	 6.002801536813704e-01	 1.443458868246029e+01
 1.490129469024726e+00	 6.142609007554840e-01	 1.442380010359462e+01
 1.484301065217039e+00	 6.282138398517069e-01	 1.441242257229143e+01
 1.478330981716259e+00	 6.421368969500094e-01	 1.439996591000145e+01
 1.472219270084326e+00	 6.560279910251823e-01	 1.438413224097716e+01
 1.465966021349343e+00	 6.698850349406237e-01	 1.436429313467249e+01
 1.459571366313715e+00	 6.837059363559914e-01	 1.434008166239213e+01
 1.453035475837994e+00	 6.974885986480125e-01	 1.431108183417538e+01
 1.523062646886989e+00	 5.622658288254768e-01	 1.439799076057090e+01
 1.517762294176761e+00	 5.764202006664534e-01	 1.439016778119981e+01
 1.512319410435941e+00	 5.905527779203084e-01	 1.438116220281727e+01
 1.506733892157918e+00	 6.046614978501672e-01	 1.437112071482702e+01
 1.501005674116281e+00	 6.187442880523901e-01	 1.436012870744733e+01
 1.495134729766911e+00	 6.327990673110012e-01	 1.434820370552502e+01
 1.489121071628119e+00	 6.468237464680480e-01	 1.433528839668924e+01
 1.482964751638177e+00	 6.608162293092673e-01	 1.432124324925362e+01
 1.476665861489572e+00	 6.747744134643993e-01	 1.430497420422020e+01
 1.470224532939403e+00	 6.886961913214616e-01	 1.428412480196020e+01
 1.463640938095293e+00	 7.025794509542805e-01	 1.425819642791042e+01
 1.534098675597078e+00	 5.663399762941220e-01	 1.433568679241709e+01
 1.528759916820917e+00	 5.805969099396785e-01	 1.432939057905150e+01
 1.523277594242143e+00	 5.948318910757650e-01	 1.432142059080452e+01
 1.517651603604132e+00	 6.090428420190314e-01	 1.431196799886477e+01
 1.511881879207832e+00	 6.232276753493178e-01	 1.430116456432076e+01
 1.505968394316775e+00	 6.373842947702740e-01	 1.428907599602409e+01
 1.499911161539966e+00	 6.515105959860275e-01	 1.427569488442754e+01
 1.493710233192005e+00	 6.656044675932650e-01	 1.426093320580327e+01
 1.487365701629767e+00	 6.796637919880688e-01	 1.424461439325422e+01
 1.480877699565044e+00	 6.936864462868207e-01	 1.422645145815788e+01
 1.474246400352526e+00	 7.076703032604474e-01	 1.420424025942738e+01
 1.545134704307166e+00	 5.704141237630351e-01	 1.427586488724424e+01
 1.539757539465072e+00	 5.847736192131490e-01	 1.427138905574388e+01
 1.534235778048346e+00	 5.991110042314375e-01	 1.426475899881034e+01
 1.528569315050346e+00	 6.134241861880784e-01	 1.425620885431357e+01
 1.522758084299382e+00	 6.277110626463935e-01	 1.424591619966830e+01
 1.516802058866634e+00	 6.419695222296615e-01	 1.423399535287662e+01
 1.510701251451805e+00	 6.561974455040910e-01	 1.422049022971111e+01
 1.504455714745822e+00	 6.703927058773204e-01	 1.420536675034180e+01
 1.498065541769946e+00	 6.845531705117783e-01	 1.418850479077621e+01
 1.491530866190661e+00	 6.986767012522102e-01	 1.416968967673076e+01
 1.484851862609727e+00	 7.127611555666480e-01	 1.414860321997588e+01
 1.556170733017254e+00	 5.744882712322809e-01	 1.421792287239287e+01
 1.550755162109227e+00	 5.889503284869481e-01	 1.421544344153005e+01
 1.545193961854548e+00	 6.033901173874269e-01	 1.421035679574365e+01
 1.539487026496560e+00	 6.178055303574242e-01	 1.420293850324368e+01
 1.533634289390931e+00	 6.321944499437460e-01	 1.419341137321318e+01
 1.527635723416494e+00	 6.465547496893009e-01	 1.418193871942477e+01
 1.521491341363644e+00	 6.608842950223818e-01	 1.416861715869573e+01
 1.515201196299639e+00	 6.751809441615803e-01	 1.415346893628727e+01
 1.508765381910125e+00	 6.894425490356728e-01	 1.413643377247770e+01
 1.502184032816278e+00	 7.036669562177718e-01	 1.411736022685384e+01
 1.495457324866927e+00	 7.178520078730153e-01	 1.409599657937116e+01
 1.567206761727342e+00	 5.785624187019254e-01	 1.416126610202753e+01
 1.561752784753383e+00	 5.931270377611605e-01	 1.416084531509121e+01
 1.556152145660751e+00	 6.076692305438347e-01	 1.415740801967975e+01
 1.550404737942774e+00	 6.221868745271846e-01	 1.415126965189262e+01
 1.544510494482482e+00	 6.366778372415025e-01	 1.414269763360582e+01
 1.538469387966358e+00	 6.511399771493296e-01	 1.413190461833606e+01
 1.532281431275490e+00	 6.655711445410427e-01	 1.411904124917957e+01
 1.525946677853467e+00	 6.799691824461903e-01	 1.410418841963358e+01
 1.519465222050321e+00	 6.943319275598984e-01	 1.408734903029227e+01
 1.512837199441919e+00	 7.086572111836473e-01	 1.406843923679611e+01
 1.506062787124161e+00	 7.229428601796831e-01	 1.404727918699698e+01
 1.578242790437430e+00	 5.826365661720331e-01	 1.410530822729002e+01
 1.572750407397539e+00	 5.973037470358710e-01	 1.410689829822077e+01
 1.567110329466955e+00	 6.119483437007623e-01	 1.410512201400479e+01
 1.561322449388990e+00	 6.265682186974755e-01	 1.410033308518236e+01
 1.555386699574038e+00	 6.411612245397912e-01	 1.409284288819663e+01
 1.549303052516229e+00	 6.557252046098838e-01	 1.408291371347574e+01
 1.543071521187350e+00	 6.702579940602171e-01	 1.407075150136682e+01
 1.536692159407317e+00	 6.847574207312970e-01	 1.405649805533161e+01
 1.530165062190550e+00	 6.992213060846002e-01	 1.404022272405856e+01
 1.523490366067607e+00	 7.136474661499779e-01	 1.402191354660689e+01
 1.516668249381460e+00	 7.280337124867856e-01	 1.400146785736403e+01
 1.589278819147518e+00	 5.867107136426698e-01	 1.404947196728733e+01
 1.583748030041694e+00	 6.014804563111636e-01	 1.405291875579735e+01
 1.578068513273159e+00	 6.162274568583105e-01	 1.405272407259234e+01
 1.572240160835209e+00	 6.309495628684132e-01	 1.404927827330000e+01
 1.566262904665600e+00	 6.456446118387394e-01	 1.404293598719143e+01
 1.560136717066113e+00	 6.603104320711006e-01	 1.403400938776533e+01
 1.553861611099232e+00	 6.749448435800481e-01	 1.402276092550521e+01
 1.547437640961201e+00	 6.895456590170462e-01	 1.400939551071922e+01
 1.540864902330829e+00	 7.041106846099245e-01	 1.399405213667996e+01
 1.534143532693368e+00	 7.186377211169055e-01	 1.397679493581551e+01
 1.527273711638857e+00	 7.331245647944562e-01	 1.395760366445858e+01
 1.600314847857605e+00	 5.907848611139003e-01	 1.399318988087521e+01
 1.594745652685851e+00	 6.056571655871229e-01	 1.399823650079231e+01
 1.589026697079364e+00	 6.205065700165809e-01	 1.399945609357808e+01
 1.583157872281432e+00	 6.353309070401123e-01	 1.399727398976126e+01
 1.577139109757170e+00	 6.501279991384755e-01	 1.399208732149506e+01
 1.570970381616014e+00	 6.648956595331169e-01	 1.398425833625570e+01
 1.564651701011141e+00	 6.796316931006786e-01	 1.397410714558478e+01
 1.558183122515130e+00	 6.943338973035839e-01	 1.396190389517807e+01
 1.551564742471175e+00	 7.090000631360164e-01	 1.394786034499744e+01
 1.544796699319223e+00	 7.236279760845715e-01	 1.393212085069353e+01
 1.537879173896386e+00	 7.382154171028289e-01	 1.391475274047113e+01
 1.431824551323068e+00	 6.873068940346405e-01	 1.441756446018329e+01
 1.425246233958065e+00	 7.008463129423691e-01	 1.438271888707347e+01
 1.418529245117673e+00	 7.143439237663018e-01	 1.434908310289753e+01
 1.411673871866421e+00	 7.277976536993750e-01	 1.431631368423784e+01
 1.404680441589078e+00	 7.412054294330963e-01	 1.428404685352728e+01
 1.397549322143632e+00	 7.545651781179148e-01	 1.424937353118965e+01
 1.390280921987376e+00	 7.678748283318717e-01	 1.421044904010644e+01
 1.382875690275684e+00	 7.811323110566710e-01	 1.416801235277930e+01
 1.375334116933126e+00	 7.943355606602831e-01	 1.412288604223724e+01
 1.367656732696560e+00	 8.074825158851837e-01	 1.407597309299577e+01
 1.359844109129928e+00	 8.205711208413069e-01	 1.402825277686175e+01
 1.442430013580597e+00	 6.923977463415106e-01	 1.436388378890467e+01
 1.435802970904718e+00	 7.060374511370837e-01	 1.433087665952911e+01
 1.429036229619805e+00	 7.196350381782060e-01	 1.429933942024639e+01
 1.422130078916667e+00	 7.331884193046224e-01	 1.426896333237738e+01
 1.415084848605003e+00	 7.466955058509356e-01	 1.423886485992000e+01
 1.407900909267517e+00	 7.601542096140885e-01	 1.420482934680173e+01
 1.400578672386932e+00	 7.735624438291906e-01	 1.416661329232448e+01
 1.393118590445504e+00	 7.869181241528190e-01	 1.412498392219054e+01
 1.385521156996658e+00	 8.002191696528964e-01	 1.408079629058809e+01
 1.377786906708405e+00	 8.134635038042548e-01	 1.403499014717157e+01
 1.369916415378241e+00	 8.266490554889405e-01	 1.398858582300238e+01
 1.453035475837994e+00	 6.974885986480125e-01	 1.431108183417538e+01
 1.446359707851197e+00	 7.112285893314807e-01	 1.428050954133763e+01
 1.439543214121713e+00	 7.249261525898629e-01	 1.425169560672054e+01
 1.432586285966634e+00	 7.385791849097076e-01	 1.422435846032119e+01
 1.425489255620591e+00	 7.521855822687058e-01	 1.419598652324747e+01
 1.418252496391005e+00	 7.657432411102886e-01	 1.416287931417342e+01
 1.410876422786031e+00	 7.792500593266273e-01	 1.412564672447926e+01
 1.403361490614810e+00	 7.927039372491645e-01	 1.408507208679238e+01
 1.395708197059620e+00	 8.061027786457712e-01	 1.404203083757058e+01
 1.387917080719628e+00	 8.194444917236290e-01	 1.399748746690818e+01
 1.379988721625888e+00	 8.327269901368904e-01	 1.395249143996381e+01
 1.463640938095293e+00	 7.025794509542805e-01	 1.425819642791042e+01
 1.456916444797544e+00	 7.164197275256823e-01	 1.423069829986650e+01
 1.450050198623452e+00	 7.302172670013811e-01	 1.420527191933034e+01
 1.443042493016391e+00	 7.439699505147216e-01	 1.418145722445761e+01
 1.435893662635926e+00	 7.576756586864792e-01	 1.415439535757358e+01
 1.428604083514194e+00	 7.713322726065672e-01	 1.412255484880513e+01
 1.421174173184788e+00	 7.849376748242153e-01	 1.408662466895494e+01
 1.413604390783727e+00	 7.984897503457246e-01	 1.404739212754534e+01
 1.405895237122155e+00	 8.119863876389105e-01	 1.400574097693505e+01
 1.398047254730386e+00	 8.254254796432973e-01	 1.396264847241252e+01
 1.390061027873038e+00	 8.388049247851400e-01	 1.391918135505748e+01
 1.474246400352526e+00	 7.076703032604474e-01	 1.420424025942738e+01
 1.467473181743805e+00	 7.216108657198115e-01	 1.418049602897908e+01
 1.460557183125079e+00	 7.355083814128671e-01	 1.415915856635004e+01
 1.453498700066008e+00	 7.493607161197543e-01	 1.413850520551297e+01
 1.446298069651092e+00	 7.631657351043277e-01	 1.411307216044002e+01
 1.438955670637186e+00	 7.769213041029787e-01	 1.408288516653420e+01
 1.431471923583316e+00	 7.906252903219890e-01	 1.404862081212706e+01
 1.423847290952389e+00	 8.042755634425174e-01	 1.401105825715414e+01
 1.416082277184404e+00	 8.178699966323166e-01	 1.397107752357523e+01
 1.408177428740835e+00	 8.314064675632519e-01	 1.392965669390165e+01
 1.400133334119855e+00	 8.448828594336726e-01	 1.388786798205367e+01
 1.484851862609727e+00	 7.127611555666480e-01	 1.414860321997589e+01
 1.478029918690021e+00	 7.268020039139889e-01	 1.412892741724692e+01
 1.471064167626650e+00	 7.407994958244283e-01	 1.411241483886101e+01
 1.463954907115556e+00	 7.547514817248965e-01	 1.409435067741575e+01
 1.456702476666175e+00	 7.686558115223228e-01	 1.407099740995665e+01
 1.449307257760079e+00	 7.825103355995747e-01	 1.404289977287767e+01
 1.441769673981731e+00	 7.963129058199840e-01	 1.401070976992150e+01
 1.434090191120921e+00	 8.100613765395606e-01	 1.397518627592145e+01
 1.426269317246511e+00	 8.237536056259932e-01	 1.393719354388083e+01
 1.418307602751128e+00	 8.373874554834829e-01	 1.389769857078788e+01
 1.410205640366506e+00	 8.509607940824724e-01	 1.385776728367751e+01
 1.495457324866927e+00	 7.178520078730153e-01	 1.409599657937116e+01
 1.488586655636238e+00	 7.319931421083368e-01	 1.407674261756216e+01
 1.481571152128220e+00	 7.460906102361723e-01	 1.406343422935485e+01
 1.474411114165103e+00	 7.601422473302376e-01	 1.404792262091100e+01
 1.467106883681257e+00	 7.741458879405366e-01	 1.402715366817219e+01
 1.459658844882972e+00	 7.880993670964097e-01	 1.400163095683032e+01
 1.452067424380145e+00	 8.020005213182337e-01	 1.397196966617223e+01
 1.444333091289453e+00	 8.158471896368713e-01	 1.393889622890499e+01
 1.436456357308618e+00	 8.296372146199423e-01	 1.390324708604661e+01
 1.428437776761421e+00	 8.433684434039816e-01	 1.386596624961836e+01
 1.420277946613157e+00	 8.570387287315223e-01	 1.382810163178478e+01
 1.506062787124161e+00	 7.229428601796831e-01	 1.404727918699698e+01
 1.499143392582498e+00	 7.371842803029787e-01	 1.402853524453548e+01
 1.492078136629847e+00	 7.513817246482063e-01	 1.401435829672498e+01
 1.484867321214721e+00	 7.655330129358683e-01	 1.399853066176972e+01
 1.477511290696423e+00	 7.796359643590411e-01	 1.398052799040970e+01
 1.470010432005963e+00	 7.936883985935356e-01	 1.395811628889162e+01
 1.462365174778673e+00	 8.076881368167742e-01	 1.393148471363357e+01
 1.454575991458114e+00	 8.216330027344679e-01	 1.390131506430615e+01
 1.446643397370867e+00	 8.355208236141672e-01	 1.386840391033547e+01
 1.438567950771870e+00	 8.493494313247395e-01	 1.383366038082256e+01
 1.430350252859974e+00	 8.631166633808069e-01	 1.379810266532848e+01
 1.516668249381460e+00	 7.280337124867856e-01	 1.400146785736402e+01
 1.509700129528845e+00	 7.423754184980355e-01	 1.398370694187793e+01
 1.502585121131586e+00	 7.566728390606372e-01	 1.396784814830819e+01
 1.495323528264478e+00	 7.709237785418795e-01	 1.395033942332826e+01
 1.487915697711758e+00	 7.851260407779082e-01	 1.393144101455212e+01
 1.480362019129153e+00	 7.992774300910059e-01	 1.391140112310868e+01
 1.472662925177430e+00	 8.133757523156395e-01	 1.388834779751067e+01
 1.464818891627033e+00	 8.274188158323678e-01	 1.386157929302448e+01
 1.456830437433401e+00	 8.414044326086710e-01	 1.383184021929034e+01
 1.448698124782629e+00	 8.553304192457478e-01	 1.379999291432110e+01
 1.440422559107123e+00	 8.691945980303091e-01	 1.376701414621665e+01
 1.527273711638857e+00	 7.331245647944562e-01	 1.395760366445857e+01
 1.520256866475324e+00	 7.475665566936294e-01	 1.394040839693153e+01
 1.513092105633494e+00	 7.619639534735728e-01	 1.392295567077493e+01
 1.505779735314445e+00	 7.763145441483601e-01	 1.390409910359196e+01
 1.498320104727346e+00	 7.906161171972096e-01	 1.388408817784691e+01
 1.490713606252641e+00	 8.048664615888741e-01	 1.386319683025955e+01
 1.482960675576530e+00	 8.190633678148646e-01	 1.384172808197509e+01
 1.475061791796338e+00	 8.332046289305882e-01	 1.381883764931417e+01
 1.467017477496364e+00	 8.472880416034556e-01	 1.379274538789154e+01
 1.458828298793853e+00	 8.613114071669977e-01	 1.376418989404448e+01
 1.450494865354772e+00	 8.752725326800128e-01	 1.373409481315868e+01
 1.537879173896386e+00	 7.382154171028289e-01	 1.391475274047112e+01
 1.530813603421978e+00	 7.527576948898829e-01	 1.389740303309305e+01
 1.523599090135626e+00	 7.672550678871202e-01	 1.387878775169962e+01
 1.516235942364691e+00	 7.817053097554018e-01	 1.385897124416081e+01
 1.508724511743272e+00	 7.961061936170177e-01	 1.383818503947262e+01
 1.501065193376526e+00	 8.104554930871929e-01	 1.381668221361362e+01
 1.493258425976086e+00	 8.247509833144834e-01	 1.379474215313092e+01
 1.485304691966158e+00	 8.389904420291471e-01	 1.377267564032419e+01
 1.477204517559897e+00	 8.531716505985247e-01	 1.375032469365525e+01
 1.468958472805698e+00	 8.672923950884804e-01	 1.372549425140830e+01
 1.460567171603085e+00	 8.813504673299019e-01	 1.369862123359057e+01
 1.359844109129928e+00	 8.205711208413069e-01	 1.402825277686175e+01
 1.351896858938988e+00	 8.335993262624624e-01	 1.397704584691444e+01
 1.343815636908605e+00	 8.465650913010301e-01	 1.391974858847177e+01
 1.335601138834602e+00	 8.594663837780450e-01	 1.385755895457689e+01
 1.327254101091020e+00	 8.723011809288884e-01	 1.379173659028330e+01
 1.318775300497929e+00	 8.850674704044346e-01	 1.372359392187784e+01
 1.310165554159860e+00	 8.977632512710468e-01	 1.365448626187874e+01
 1.301425719274800e+00	 9.103865350084249e-01	 1.358580094644996e+01
 1.292556692913758e+00	 9.229353465043052e-01	 1.351894552884319e+01
 1.283559411770906e+00	 9.354077250450006e-01	 1.345533505952612e+01
 1.274434851884392e+00	 9.478017253007789e-01	 1.339637849072285e+01
 1.369916415378241e+00	 8.266490554889405e-01	 1.398858582300237e+01
 1.361910300250216e+00	 8.397737602619377e-01	 1.393900152758368e+01
 1.353769220959157e+00	 8.528355621591508e-01	 1.388364390045432e+01
 1.345493878454619e+00	 8.658324139493463e-01	 1.382362544372208e+01
 1.337085014564933e+00	 8.787622778853702e-01	 1.376012158559501e+01
 1.328543411864044e+00	 8.916231267127077e-01	 1.369436170541037e+01
 1.319869893508739e+00	 9.044129446768869e-01	 1.362761912612540e+01
 1.311065323046236e+00	 9.171297285287177e-01	 1.356120009048815e+01
 1.302130604192108e+00	 9.297714885263579e-01	 1.349643174440616e+01
 1.293066680578582e+00	 9.423362494331938e-01	 1.343464915840482e+01
 1.283874535473280e+00	 9.548220515105140e-01	 1.337718142547562e+01
 1.379988721625888e+00	 8.327269901368904e-01	 1.395249143996381e+01
 1.371923741560741e+00	 8.459481942617090e-01	 1.390452951544842e+01
 1.363722805008980e+00	 8.591060330175175e-01	 1.385100713839532e+01
 1.355386618073890e+00	 8.721984441208229e-01	 1.379296600729991e+01
 1.346915928038094e+00	 8.852233748419395e-01	 1.373151256420721e+01
 1.338311523229411e+00	 8.981787830209702e-01	 1.366780893962144e+01
 1.329574232856888e+00	 9.110626380826142e-01	 1.360306281370334e+01
 1.320704926816972e+00	 9.238729220487975e-01	 1.353851620953314e+01
 1.311704515469803e+00	 9.366076305481075e-01	 1.347543324185456e+01
 1.302573949385665e+00	 9.492647738210092e-01	 1.341508685243546e+01
 1.293314219061649e+00	 9.618423777198173e-01	 1.335874457094262e+01
 1.390061027873038e+00	 8.388049247851400e-01	 1.391918135505749e+01
 1.381937182870741e+00	 8.521226282617564e-01	 1.387286955549820e+01
 1.373676389058257e+00	 8.653765038761142e-01	 1.382110895584956e+01
 1.365279357692601e+00	 8.785644742924618e-01	 1.376488466338833e+01
 1.356746841510691e+00	 8.916844717985913e-01	 1.370524894235078e+01
 1.348079634594220e+00	 9.047344393292275e-01	 1.364331206341816e+01
 1.339278572204493e+00	 9.177123314882462e-01	 1.358023201538300e+01
 1.330344530587190e+00	 9.306161155686957e-01	 1.351720309431021e+01
 1.321278426747018e+00	 9.434437725695983e-01	 1.345544339349751e+01
 1.312081218192316e+00	 9.561932982085023e-01	 1.339618122562278e+01
 1.302753902649651e+00	 9.688627039287562e-01	 1.334064051659285e+01
 1.400133334119855e+00	 8.448828594336726e-01	 1.388786798205367e+01
 1.391950624180391e+00	 8.582970622620616e-01	 1.384326253252112e+01
 1.383629973107170e+00	 8.716469747349218e-01	 1.379322137664166e+01
 1.375172097310942e+00	 8.849305044642513e-01	 1.373868681311581e+01
 1.366577754982916e+00	 8.981455687553217e-01	 1.368067132014443e+01
 1.357847745958660e+00	 9.112900956374858e-01	 1.362024829481449e+01
 1.348982911551742e+00	 9.243620248938010e-01	 1.355854159754834e+01
 1.339984134357072e+00	 9.373593090884430e-01	 1.349671391644245e+01
 1.330852338023927e+00	 9.502799145908728e-01	 1.343595397467899e+01
 1.321588486998700e+00	 9.631218225957283e-01	 1.337746261265318e+01
 1.312193586237435e+00	 9.758830301373957e-01	 1.332243778496991e+01
 1.410205640366506e+00	 8.509607940824724e-01	 1.385776728367751e+01
 1.401964065489865e+00	 8.644714962626052e-01	 1.381495339507450e+01
 1.393583557155902e+00	 8.779174455939237e-01	 1.376662078179857e+01
 1.385064836929097e+00	 8.912965346361785e-01	 1.371368229163479e+01
 1.376408668454955e+00	 9.046066657121258e-01	 1.365712459728530e+01
 1.367615857322920e+00	 9.178457519457507e-01	 1.359799881161345e+01
 1.358687250898822e+00	 9.310117182992963e-01	 1.353740984774667e+01
 1.349623738126801e+00	 9.441025026080689e-01	 1.347650453834916e+01
 1.340426249300704e+00	 9.571160566119742e-01	 1.341645853711245e+01
 1.331095755804981e+00	 9.700503469827426e-01	 1.335846203436599e+01
 1.321633269825152e+00	 9.829033563458029e-01	 1.330370432761794e+01
 1.420277946613157e+00	 8.570387287315223e-01	 1.382810163178478e+01
 1.411977506799340e+00	 8.706459302633682e-01	 1.378719407603642e+01
 1.403537141204634e+00	 8.841879164531017e-01	 1.374059089178773e+01
 1.394957576547255e+00	 8.976625648082308e-01	 1.368918841296829e+01
 1.386239581927000e+00	 9.110677626689994e-01	 1.363396108103609e+01
 1.377383968687192e+00	 9.244014082540285e-01	 1.357595192267960e+01
 1.368391590245920e+00	 9.376614117047498e-01	 1.351626170900761e+01
 1.359263341896557e+00	 9.508456961276045e-01	 1.345603680999150e+01
 1.350000160577523e+00	 9.639521986329453e-01	 1.339645576705769e+01
 1.340603024611323e+00	 9.769788713696007e-01	 1.333871461599300e+01
 1.331072953412952e+00	 9.899236825540438e-01	 1.328401100164630e+01
 1.430350252859974e+00	 8.631166633808069e-01	 1.379810266532849e+01
 1.421990948108990e+00	 8.768203642643310e-01	 1.375924640989989e+01
 1.413490725253550e+00	 8.904583873124383e-01	 1.371442574428816e+01
 1.404850316165601e+00	 9.040285949803952e-01	 1.366453300902791e+01
 1.396070495399240e+00	 9.175288596259382e-01	 1.361054358688428e+01
 1.387152080051663e+00	 9.309570645623244e-01	 1.355350623026161e+01
 1.378095929593222e+00	 9.443111051101787e-01	 1.349453200348144e+01
 1.368902945666525e+00	 9.575888896470798e-01	 1.343478185311246e+01
 1.359574071854559e+00	 9.707883406538305e-01	 1.337545282908583e+01
 1.350110293417888e+00	 9.839073957563580e-01	 1.331776298901347e+01
 1.340512637000984e+00	 9.969440087621851e-01	 1.326293502788591e+01
 1.440422559107123e+00	 8.691945980303091e-01	 1.376701414621665e+01
 1.432004389418991e+00	 8.829947982654747e-01	 1.373038504696409e+01
 1.423444309302830e+00	 8.967288581719157e-01	 1.368743266770681e+01
 1.414743055784325e+00	 9.103946251526607e-01	 1.363905746308225e+01
 1.405901408871865e+00	 9.239899565829374e-01	 1.358624853222714e+01
 1.396920191416523e+00	 9.375127208706447e-01	 1.353007378379900e+01
 1.387800268940917e+00	 9.509607985156014e-01	 1.347166864591540e+01
 1.378542549436885e+00	 9.643320831665253e-01	 1.341222333357903e+01
 1.369147983131986e+00	 9.776244826746716e-01	 1.335296869613348e+01
 1.359617562224842e+00	 9.908359201430703e-01	 1.329516067742286e+01
 1.349952320589401e+00	 1.003964334970293e+00	 1.324006343153526e+01
 1.450494865354772e+00	 8.752725326800128e-01	 1.373409481315868e+01
 1.442017830729517e+00	 8.891692322667797e-01	 1.369990036456799e+01
 1.433397893352658e+00	 9.029993290315165e-01	 1.365893525064209e+01
 1.424635795403611e+00	 9.167606553250132e-01	 1.361211973794066e+01
 1.415732322345062e+00	 9.304510535399931e-01	 1.356046902341703e+01
 1.406688302781963e+00	 9.440683771789954e-01	 1.350508322562149e+01
 1.397504608289191e+00	 9.576104919210350e-01	 1.344713584745779e+01
 1.388182153207819e+00	 9.710752766859712e-01	 1.338786072240020e+01
 1.378721894409978e+00	 9.844606246955129e-01	 1.332853746650978e+01
 1.369124831032346e+00	 9.977644445297921e-01	 1.327047546917104e+01
 1.359392004178351e+00	 1.010984661178434e+00	 1.321499646614505e+01
 1.460567171603085e+00	 8.813504673299019e-01	 1.369862123359057e+01
 1.452031272040745e+00	 8.953436662682277e-01	 1.366710137550217e+01
 1.443351477403216e+00	 9.092697998912228e-01	 1.362827630748402e+01
 1.434528535023649e+00	 9.231266854974409e-01	 1.358309739910304e+01
 1.425563235819023e+00	 9.369121504971000e-01	 1.353261793648154e+01
 1.416456414148170e+00	 9.506240334873818e-01	 1.347798292892869e+01
 1.407208947638231e+00	 9.642601853264977e-01	 1.342041731025265e+01
 1.397821756979511e+00	 9.778184702054483e-01	 1.336121254596535e+01
 1.388295805688710e+00	 9.912967667163964e-01	 1.330171166848254e+01
 1.378632099840567e+00	 1.004692968916580e+00	 1.324329277348220e+01
 1.368831687767985e+00	 1.018004987386675e+00	 1.318735102174396e+01
 1.274434851884392e+00	 9.478017253007789e-01	 1.339637849072285e+01
 1.265182445786950e+00	 9.601175036535516e-01	 1.333446087906301e+01
 1.255804792621388e+00	 9.723510278175695e-01	 1.326188454876893e+01
 1.246302990307163e+00	 9.845003964422588e-01	 1.317984380817551e+01
 1.236678174751684e+00	 9.965637274115486e-01	 1.308945483246470e+01
 1.226931519424516e+00	 1.008539158792794e+00	 1.299173878692464e+01
 1.217064234903393e+00	 1.020424849774582e+00	 1.288760446563601e+01
 1.207077568392424e+00	 1.032218981592451e+00	 1.277783052928287e+01
 1.196972803212857e+00	 1.043919758441550e+00	 1.266304743124446e+01
 1.186751258266824e+00	 1.055525408375290e+00	 1.254371912617703e+01
 1.176414287474517e+00	 1.067034184189059e+00	 1.242012465988235e+01
 1.283874535473280e+00	 9.548220515105140e-01	 1.337718142547562e+01
 1.274553597205729e+00	 9.672290522985399e-01	 1.331625808257259e+01
 1.265106484170474e+00	 9.795531896445617e-01	 1.324418878308422e+01
 1.255534302419211e+00	 9.917925481147943e-01	 1.316233945579395e+01
 1.245838196272968e+00	 1.003945231652423e+00	 1.307200614123867e+01
 1.236019347893142e+00	 1.016009364533558e+00	 1.297439726812111e+01
 1.226078976824164e+00	 1.027983092311983e+00	 1.287061539273236e+01
 1.216018339508131e+00	 1.039864582751739e+00	 1.276163848849056e+01
 1.205838728771790e+00	 1.051652026746532e+00	 1.264830087850702e+01
 1.195541473286323e+00	 1.063343639225051e+00	 1.253127390946057e+01
 1.185127937000350e+00	 1.074937660041227e+00	 1.241104646995124e+01
 1.293314219061649e+00	 9.618423777198173e-01	 1.335874457094262e+01
 1.283924748624081e+00	 9.743406009430686e-01	 1.329858599762938e+01
 1.274408175719239e+00	 9.867553514710929e-01	 1.322701374799420e+01
 1.264765614531054e+00	 9.990846997868891e-01	 1.314555361194708e+01
 1.254998217794163e+00	 1.011326735892896e+00	 1.305566937413009e+01
 1.245107176361800e+00	 1.023479570273975e+00	 1.295874423852431e+01
 1.235093718745083e+00	 1.035541334849107e+00	 1.285606166225680e+01
 1.224959110624089e+00	 1.047510183910826e+00	 1.274878568919852e+01
 1.214704654331069e+00	 1.059384295051399e+00	 1.263794088009327e+01
 1.204331688306246e+00	 1.071161870074788e+00	 1.252439194166314e+01
 1.193841586526665e+00	 1.082841135893459e+00	 1.240882316233953e+01
 1.302753902649651e+00	 9.688627039287562e-01	 1.334064051659285e+01
 1.293295900042142e+00	 9.814521495872147e-01	 1.328104937961417e+01
 1.283709867267799e+00	 9.939575132972456e-01	 1.320998233181674e+01
 1.273996926642784e+00	 1.006376851458630e+00	 1.312911363997693e+01
 1.264158239315346e+00	 1.018708240133057e+00	 1.304006311288884e+01
 1.254195004830542e+00	 1.030949776014137e+00	 1.294437666851910e+01
 1.244108460666181e+00	 1.043099577386042e+00	 1.284350625506928e+01
 1.233899881740319e+00	 1.055155785069802e+00	 1.273878922008789e+01
 1.223570579890698e+00	 1.067116563356235e+00	 1.263142722828592e+01
 1.213121903326587e+00	 1.078980100924576e+00	 1.252246483475947e+01
 1.202555236053445e+00	 1.090744611745825e+00	 1.241276782585389e+01
 1.312193586237435e+00	 9.758830301373957e-01	 1.332243778496991e+01
 1.302667051460046e+00	 9.885636982310526e-01	 1.326324763988437e+01
 1.293011558816270e+00	 1.001159675123102e+00	 1.319271103646344e+01
 1.283228238754502e+00	 1.013669003130105e+00	 1.311263970094332e+01
 1.273318260836591e+00	 1.026089744372998e+00	 1.302479813963409e+01
 1.263282833299425e+00	 1.038419981754135e+00	 1.293088334229359e+01
 1.253123202587498e+00	 1.050657819922880e+00	 1.283250378253233e+01
 1.242840652856837e+00	 1.062801386228752e+00	 1.273115781301853e+01
 1.232436505450681e+00	 1.074848831661121e+00	 1.262821156013493e+01
 1.221912118347334e+00	 1.086798331774491e+00	 1.252487642914651e+01
 1.211268885580675e+00	 1.098648087598390e+00	 1.242218633680708e+01
 1.321633269825152e+00	 9.829033563458029e-01	 1.330370432761793e+01
 1.312038202877926e+00	 9.956752468746579e-01	 1.324477839309558e+01
 1.302313250364767e+00	 1.008361836948746e+00	 1.317481356015551e+01
 1.292459550866298e+00	 1.020961154801402e+00	 1.309574835604686e+01
 1.282478282357972e+00	 1.033471248612808e+00	 1.300948104363230e+01
 1.272370661768503e+00	 1.045890187494062e+00	 1.291784845396586e+01
 1.262137944509065e+00	 1.058216062459713e+00	 1.282260405734618e+01
 1.251781423973660e+00	 1.070446987387767e+00	 1.272539537431375e+01
 1.241302431011017e+00	 1.082581099966142e+00	 1.262774083532917e+01
 1.230702333368479e+00	 1.094616562624607e+00	 1.253100620464929e+01
 1.219982535108338e+00	 1.106551563451221e+00	 1.243638069013474e+01
 1.331072953412952e+00	 9.899236825540438e-01	 1.328401100164629e+01
 1.321409354295916e+00	 1.002786795518106e+00	 1.322524098329139e+01
 1.311614941913405e+00	 1.015563998774258e+00	 1.315590435759109e+01
 1.301690862978269e+00	 1.028253306472608e+00	 1.307805614572891e+01
 1.291638303879567e+00	 1.040852752852579e+00	 1.299371780450086e+01
 1.281458490237831e+00	 1.053360393234008e+00	 1.290485518039805e+01
 1.271152686430919e+00	 1.065774304996630e+00	 1.281335564183015e+01
 1.260722195090806e+00	 1.078092588546931e+00	 1.272100449473006e+01
 1.250168356571712e+00	 1.090313368271379e+00	 1.262946079445755e+01
 1.239492548390013e+00	 1.102434793475003e+00	 1.254023267407414e+01
 1.228696184636418e+00	 1.114455039304385e+00	 1.245380859157765e+01
 1.340512637000984e+00	 9.969440087621851e-01	 1.326293502788591e+01
 1.330780505714150e+00	 1.009898344161473e+00	 1.320423998980655e+01
 1.320916633462300e+00	 1.022766160599722e+00	 1.313560217867494e+01
 1.310922175090513e+00	 1.035545458143811e+00	 1.305918314659565e+01
 1.300798325401448e+00	 1.048234257092401e+00	 1.297711735299886e+01
 1.290546318707462e+00	 1.060830598974066e+00	 1.289148923184663e+01
 1.280167428353095e+00	 1.073332547533721e+00	 1.280430937476036e+01
 1.269662966208293e+00	 1.085738189706334e+00	 1.271748993916406e+01
 1.259034282132766e+00	 1.098045636576915e+00	 1.263281939863054e+01
 1.248282763411927e+00	 1.110253024325751e+00	 1.255193676017067e+01
 1.237409834164896e+00	 1.122358515157947e+00	 1.246692157145514e+01
 1.349952320589401e+00	 1.003964334970293e+00	 1.324006343153526e+01
 1.340151657132761e+00	 1.017009892804833e+00	 1.318138871397009e+01
 1.330218325011568e+00	 1.029968322425220e+00	 1.311353358685880e+01
 1.320153487203123e+00	 1.042837609815098e+00	 1.303875650725125e+01
 1.309958346923691e+00	 1.055615761332365e+00	 1.295929511050204e+01
 1.299634147177452e+00	 1.068300804714327e+00	 1.287734238153423e+01
 1.289182170275628e+00	 1.080890790071078e+00	 1.279502187781739e+01
 1.278603737326139e+00	 1.093383790866064e+00	 1.271436211708929e+01
 1.267900207694183e+00	 1.105777904882833e+00	 1.263727025137519e+01
 1.257072978434212e+00	 1.118071255176929e+00	 1.256204772367549e+01
 1.246123483693758e+00	 1.130261991011976e+00	 1.247388421028706e+01
 1.359392004178351e+00	 1.010984661178434e+00	 1.321499646614505e+01
 1.349522808551885e+00	 1.024121441448263e+00	 1.315631264754003e+01
 1.339520016561322e+00	 1.037170484250834e+00	 1.308933645808164e+01
 1.329384799316195e+00	 1.050129761486556e+00	 1.301641396406503e+01
 1.319118368446371e+00	 1.062997265572561e+00	 1.293987650819700e+01
 1.308721975647854e+00	 1.075771010454883e+00	 1.286201597516710e+01
 1.298196912198553e+00	 1.088449032608791e+00	 1.278505904263155e+01
 1.287544508444359e+00	 1.101029392026207e+00	 1.271114053466091e+01
 1.276766133255965e+00	 1.113510173189215e+00	 1.264188231458964e+01
 1.265863193456858e+00	 1.125889486028612e+00	 1.256504824843352e+01
 1.254837133222987e+00	 1.138165466866538e+00	 1.247449888134100e+01
 1.368831687767985e+00	 1.018004987386675e+00	 1.318735102174396e+01
 1.358893959971655e+00	 1.031232990091837e+00	 1.312865292374853e+01
 1.348821708111680e+00	 1.044372646076648e+00	 1.306266346124450e+01
 1.338616111429825e+00	 1.057421913158274e+00	 1.299180733783904e+01
 1.328278389969562e+00	 1.070378769813079e+00	 1.291850048697375e+01
 1.317809804118724e+00	 1.083241216195824e+00	 1.284512442136658e+01
 1.307211654121906e+00	 1.096007275146951e+00	 1.277399949936636e+01
 1.296485279562974e+00	 1.108674993186852e+00	 1.270735722937397e+01
 1.285632058818115e+00	 1.121242441496144e+00	 1.264046499186817e+01
 1.274653408479857e+00	 1.133707716880876e+00	 1.256080640809178e+01
 1.263550782752567e+00	 1.146068942721700e+00	 1.246862317402689e+01
 1.176414287474517e+00	 1.067034184189059e+00	 1.242012465988234e+01
 1.165965062172424e+00	 1.078442436344742e+00	 1.230006070378579e+01
 1.155403240974106e+00	 1.089750450628627e+00	 1.219130316665349e+01
 1.144730259861578e+00	 1.100956578651454e+00	 1.209383833314713e+01
 1.133947587306615e+00	 1.112059200113900e+00	 1.200732859658942e+01
 1.123056723592695e+00	 1.123056723592695e+00	 1.191978094327384e+01
 1.112059200113900e+00	 1.133947587306615e+00	 1.182266042187746e+01
 1.100956578651454e+00	 1.144730259861578e+00	 1.171479899479302e+01
 1.089750450628627e+00	 1.155403240974106e+00	 1.159473811943515e+01
 1.078442436344741e+00	 1.165965062172425e+00	 1.146271445160388e+01
 1.067034184189059e+00	 1.176414287474517e+00	 1.131918192193930e+01
 1.185127937000350e+00	 1.074937660041227e+00	 1.241104646995124e+01
 1.174601314740309e+00	 1.086430412624977e+00	 1.229568995083634e+01
 1.163961262591129e+00	 1.097822184879396e+00	 1.219310078237216e+01
 1.153209227171086e+00	 1.109111316205673e+00	 1.210323590198822e+01
 1.142346687828866e+00	 1.120296174302995e+00	 1.201888500506912e+01
 1.131375155960484e+00	 1.131375155960484e+00	 1.192654793242502e+01
 1.120296174302995e+00	 1.142346687828865e+00	 1.182573525252103e+01
 1.109111316205673e+00	 1.153209227171086e+00	 1.171625807429893e+01
 1.097822184879396e+00	 1.163961262591129e+00	 1.159631142556938e+01
 1.086430412624976e+00	 1.174601314740310e+00	 1.146513216584265e+01
 1.074937660041227e+00	 1.185127937000350e+00	 1.132308244242947e+01
 1.193841586526665e+00	 1.082841135893459e+00	 1.240882316233953e+01
 1.183237567308709e+00	 1.094418388905366e+00	 1.229949062772645e+01
 1.172519284208677e+00	 1.105893919130404e+00	 1.220433470983894e+01
 1.161688194481110e+00	 1.117266053760210e+00	 1.212020764937515e+01
 1.150745788351603e+00	 1.128533148492475e+00	 1.203122982440818e+01
 1.139693588328715e+00	 1.139693588328715e+00	 1.193499251657964e+01
 1.128533148492475e+00	 1.150745788351603e+00	 1.183128716248512e+01
 1.117266053760210e+00	 1.161688194481110e+00	 1.171992239388980e+01
 1.105893919130404e+00	 1.172519284208678e+00	 1.160044459850538e+01
 1.094418388905366e+00	 1.183237567308709e+00	 1.147078099899399e+01
 1.082841135893459e+00	 1.193841586526665e+00	 1.133079427786294e+01
 1.202555236053445e+00	 1.090744611745825e+00	 1.241276782585389e+01
 1.191873819877605e+00	 1.102406365185965e+00	 1.231069409446624e+01
 1.181077305826734e+00	 1.113965653381696e+00	 1.222350379231680e+01
 1.170167161791637e+00	 1.125420791315094e+00	 1.213652650793291e+01
 1.159144888874825e+00	 1.136770122682359e+00	 1.204351042860851e+01
 1.148012020697396e+00	 1.148012020697396e+00	 1.194419563416786e+01
 1.136770122682359e+00	 1.159144888874824e+00	 1.183833306794751e+01
 1.125420791315094e+00	 1.170167161791637e+00	 1.172568970644254e+01
 1.113965653381695e+00	 1.181077305826734e+00	 1.160605370915363e+01
 1.102406365185965e+00	 1.191873819877606e+00	 1.147846501787715e+01
 1.090744611745825e+00	 1.202555236053445e+00	 1.134109843559043e+01
 1.211268885580675e+00	 1.098648087598390e+00	 1.242218633680708e+01
 1.200510072446978e+00	 1.110394341466832e+00	 1.232852503772183e+01
 1.189635327445283e+00	 1.122037387633313e+00	 1.224223382702748e+01
 1.178646129102655e+00	 1.133575528870356e+00	 1.215115371242464e+01
 1.167543989398525e+00	 1.145007096872666e+00	 1.205494453263128e+01
 1.156330453066533e+00	 1.156330453066533e+00	 1.195330981889592e+01
 1.145007096872666e+00	 1.167543989398525e+00	 1.184596264898262e+01
 1.133575528870356e+00	 1.178646129102655e+00	 1.173263116003646e+01
 1.122037387633313e+00	 1.189635327445282e+00	 1.161306404707862e+01
 1.110394341466832e+00	 1.200510072446978e+00	 1.148703068445347e+01
 1.098648087598390e+00	 1.211268885580675e+00	 1.135281822233496e+01
 1.219982535108338e+00	 1.106551563451221e+00	 1.243638069013474e+01
 1.209146325016810e+00	 1.118382317748020e+00	 1.234810088282471e+01
 1.198193349064303e+00	 1.130109121885301e+00	 1.225775829912830e+01
 1.187125096414152e+00	 1.141730266426028e+00	 1.216344191102706e+01
 1.175943089922701e+00	 1.153244071063413e+00	 1.206481851950811e+01
 1.164648885436133e+00	 1.164648885436133e+00	 1.196155749906006e+01
 1.153244071063413e+00	 1.175943089922701e+00	 1.185333662618673e+01
 1.141730266426028e+00	 1.187125096414153e+00	 1.173984794663890e+01
 1.130109121885300e+00	 1.198193349064303e+00	 1.162080363386175e+01
 1.118382317748020e+00	 1.209146325016810e+00	 1.149594179040839e+01
 1.106551563451221e+00	 1.219982535108339e+00	 1.136482105782232e+01
 1.228696184636418e+00	 1.114455039304385e+00	 1.245380859157765e+01
 1.217782577587080e+00	 1.126370294029586e+00	 1.236310961905538e+01
 1.206751370683780e+00	 1.138180856137702e+00	 1.226956285599513e+01
 1.195604063726117e+00	 1.149885003982141e+00	 1.217280946637311e+01
 1.184342190447347e+00	 1.161481045254618e+00	 1.207248576211867e+01
 1.172967317806201e+00	 1.172967317806201e+00	 1.196822929360730e+01
 1.161481045254618e+00	 1.184342190447348e+00	 1.185968503597921e+01
 1.149885003982140e+00	 1.195604063726117e+00	 1.174651162244817e+01
 1.138180856137701e+00	 1.206751370683780e+00	 1.162838757459715e+01
 1.126370294029586e+00	 1.217782577587080e+00	 1.150501747884229e+01
 1.114455039304384e+00	 1.228696184636418e+00	 1.137613805778944e+01
 1.237409834164896e+00	 1.122358515157947e+00	 1.246692157145514e+01
 1.226418830157769e+00	 1.134358270311586e+00	 1.237312826004116e+01
 1.215309392303695e+00	 1.146252590390560e+00	 1.227719588941891e+01
 1.204083031038536e+00	 1.158039741538724e+00	 1.217873880089954e+01
 1.192741290972462e+00	 1.169718019446300e+00	 1.207736493989136e+01
 1.181285750176744e+00	 1.181285750176744e+00	 1.197268230510058e+01
 1.169718019446299e+00	 1.192741290972462e+00	 1.186430550464162e+01
 1.158039741538724e+00	 1.204083031038535e+00	 1.175186236771246e+01
 1.146252590390560e+00	 1.215309392303695e+00	 1.163500055923610e+01
 1.134358270311586e+00	 1.226418830157770e+00	 1.151339414398498e+01
 1.122358515157948e+00	 1.237409834164897e+00	 1.138675004619481e+01
 1.246123483693758e+00	 1.130261991011976e+00	 1.247388421028706e+01
 1.235055082728860e+00	 1.142346246594075e+00	 1.237783321527859e+01
 1.223867413924031e+00	 1.154324324643919e+00	 1.228026690558494e+01
 1.212561998351396e+00	 1.166194479095810e+00	 1.218077473533998e+01
 1.201140391498039e+00	 1.177954993638477e+00	 1.207893835067124e+01
 1.189604182547768e+00	 1.189604182547768e+00	 1.197433840973178e+01
 1.177954993638476e+00	 1.201140391498038e+00	 1.186656152114998e+01
 1.166194479095810e+00	 1.212561998351396e+00	 1.175520724695103e+01
 1.154324324643919e+00	 1.223867413924031e+00	 1.163989511465857e+01
 1.142346246594075e+00	 1.235055082728860e+00	 1.152027158232884e+01
 1.130261991011976e+00	 1.246123483693758e+00	 1.139601689970128e+01
 1.254837133222987e+00	 1.138165466866538e+00	 1.247449888134100e+01
 1.243691335300331e+00	 1.150334222877110e+00	 1.237695905760739e+01
 1.232425435544770e+00	 1.162396058897822e+00	 1.227844488646697e+01
 1.221040965664687e+00	 1.174349216653428e+00	 1.217852282069065e+01
 1.209539492024075e+00	 1.186191967831166e+00	 1.207675021798600e+01
 1.197922614919280e+00	 1.197922614919279e+00	 1.197268254452532e+01
 1.186191967831166e+00	 1.209539492024075e+00	 1.186588070885637e+01
 1.174349216653428e+00	 1.221040965664687e+00	 1.175591846955379e+01
 1.162396058897822e+00	 1.232425435544770e+00	 1.164238985852569e+01
 1.150334222877109e+00	 1.243691335300331e+00	 1.152491656085820e+01
 1.138165466866538e+00	 1.254837133222988e+00	 1.140315519145661e+01
 1.263550782752567e+00	 1.146068942721700e+00	 1.246862317402688e+01
 1.252327587872164e+00	 1.158322199160746e+00	 1.237029690857841e+01
 1.240983457165895e+00	 1.170467793152314e+00	 1.227145664304621e+01
 1.229519932978395e+00	 1.182503954211610e+00	 1.217164766396217e+01
 1.217938592550565e+00	 1.194428942024386e+00	 1.207040499392905e+01
 1.206241047291285e+00	 1.206241047291284e+00	 1.196726099186189e+01
 1.194428942024386e+00	 1.217938592550565e+00	 1.186175309606992e+01
 1.182503954211610e+00	 1.229519932978395e+00	 1.175343165073745e+01
 1.170467793152314e+00	 1.240983457165895e+00	 1.164186775482311e+01
 1.158322199160745e+00	 1.252327587872164e+00	 1.152666107128463e+01
 1.146068942721699e+00	 1.263550782752567e+00	 1.140744753384910e+01
 1.067034184189059e+00	 1.176414287474517e+00	 1.131918192193930e+01
 1.055525408375290e+00	 1.186751258266823e+00	 1.116987889012404e+01
 1.043919758441550e+00	 1.196972803212857e+00	 1.102023197952605e+01
 1.032218981592451e+00	 1.207077568392423e+00	 1.087041478320450e+01
 1.020424849774582e+00	 1.217064234903392e+00	 1.072074307494626e+01
 1.008539158792795e+00	 1.226931519424516e+00	 1.057166147645259e+01
 9.965637274115494e-01	 1.236678174751684e+00	 1.042372964684730e+01
 9.845003964422594e-01	 1.246302990307162e+00	 1.027760809035595e+01
 9.723510278175699e-01	 1.255804792621388e+00	 1.013404367894957e+01
 9.601175036535523e-01	 1.265182445786950e+00	 9.993854987080878e+00
 9.478017253007789e-01	 1.274434851884392e+00	 9.857917535363711e+00
 1.074937660041227e+00	 1.185127937000350e+00	 1.132308244242947e+01
 1.063343639225052e+00	 1.195541473286321e+00	 1.117568446912243e+01
 1.051652026746532e+00	 1.205838728771789e+00	 1.102817802101242e+01
 1.039864582751739e+00	 1.216018339508130e+00	 1.088069793355536e+01
 1.027983092311984e+00	 1.226078976824164e+00	 1.073352520626550e+01
 1.016009364533558e+00	 1.236019347893142e+00	 1.058707302465613e+01
 1.003945231652424e+00	 1.245838196272967e+00	 1.044187228767844e+01
 9.917925481147947e-01	 1.255534302419210e+00	 1.029855674107813e+01
 9.795531896445622e-01	 1.265106484170474e+00	 1.015784781806846e+01
 9.672290522985402e-01	 1.274553597205728e+00	 1.002053928904284e+01
 9.548220515105140e-01	 1.283874535473279e+00	 9.887481821752631e+00
 1.082841135893459e+00	 1.193841586526665e+00	 1.133079427786294e+01
 1.071161870074789e+00	 1.204331688306246e+00	 1.118578733336664e+01
 1.059384295051399e+00	 1.214704654331069e+00	 1.104080771388694e+01
 1.047510183910827e+00	 1.224959110624089e+00	 1.089595202703905e+01
 1.035541334849107e+00	 1.235093718745083e+00	 1.075146727619869e+01
 1.023479570273975e+00	 1.245107176361799e+00	 1.060773620615418e+01
 1.011326735892897e+00	 1.254998217794163e+00	 1.046526213675868e+01
 9.990846997868893e-01	 1.264765614531053e+00	 1.032465338975976e+01
 9.867553514710935e-01	 1.274408175719239e+00	 1.018660741498713e+01
 9.743406009430693e-01	 1.283924748624081e+00	 1.005189472240802e+01
 9.618423777198175e-01	 1.293314219061649e+00	 9.921342726226996e+00
 1.090744611745825e+00	 1.202555236053445e+00	 1.134109843559043e+01
 1.078980100924577e+00	 1.213121903326587e+00	 1.119894520532170e+01
 1.067116563356235e+00	 1.223570579890698e+00	 1.105685392737105e+01
 1.055155785069802e+00	 1.233899881740318e+00	 1.091488368340210e+01
 1.043099577386043e+00	 1.244108460666182e+00	 1.077324843881596e+01
 1.030949776014137e+00	 1.254195004830542e+00	 1.063230167992004e+01
 1.018708240133057e+00	 1.264158239315345e+00	 1.049252052090626e+01
 1.006376851458630e+00	 1.273996926642784e+00	 1.035448939076272e+01
 9.939575132972461e-01	 1.283709867267799e+00	 1.021888341127305e+01
 9.814521495872152e-01	 1.293295900042142e+00	 1.008645157758557e+01
 9.688627039287562e-01	 1.302753902649651e+00	 9.957999852471332e+00
 1.098648087598390e+00	 1.211268885580675e+00	 1.135281822233496e+01
 1.086798331774491e+00	 1.221912118347333e+00	 1.121395787383980e+01
 1.074848831661122e+00	 1.232436505450680e+00	 1.107509127562652e+01
 1.062801386228753e+00	 1.242840652856836e+00	 1.093624086292403e+01
 1.050657819922882e+00	 1.253123202587497e+00	 1.079758870703536e+01
 1.038419981754135e+00	 1.263282833299425e+00	 1.065946041064675e+01
 1.026089744372998e+00	 1.273318260836590e+00	 1.052230845404951e+01
 1.013669003130106e+00	 1.283228238754501e+00	 1.038669510753329e+01
 1.001159675123103e+00	 1.293011558816269e+00	 1.025327502627592e+01
 9.885636982310529e-01	 1.302667051460046e+00	 1.012277764437860e+01
 9.758830301373959e-01	 1.312193586237435e+00	 9.995989484303493e+00
 1.106551563451221e+00	 1.219982535108339e+00	 1.136482105782232e+01
 1.094616562624608e+00	 1.230702333368479e+00	 1.122966894047510e+01
 1.082581099966142e+00	 1.241302431011017e+00	 1.109433779566659e+01
 1.070446987387767e+00	 1.251781423973660e+00	 1.095881447494485e+01
 1.058216062459713e+00	 1.262137944509064e+00	 1.082325049088872e+01
 1.045890187494062e+00	 1.272370661768503e+00	 1.068794513598297e+01
 1.033471248612809e+00	 1.282478282357973e+00	 1.055332803277396e+01
 1.020961154801402e+00	 1.292459550866297e+00	 1.041994123591004e+01
 1.008361836948746e+00	 1.302313250364766e+00	 1.028842100775664e+01
 9.956752468746581e-01	 1.312038202877925e+00	 1.015947938960601e+01
 9.829033563458031e-01	 1.321633269825152e+00	 1.003388569007100e+01
 1.114455039304384e+00	 1.228696184636418e+00	 1.137613805778944e+01
 1.102434793475003e+00	 1.239492548390012e+00	 1.124496757222968e+01
 1.090313368271379e+00	 1.250168356571711e+00	 1.111345663295435e+01
 1.078092588546932e+00	 1.260722195090806e+00	 1.098143999532127e+01
 1.065774304996630e+00	 1.271152686430919e+00	 1.084904014595250e+01
 1.053360393234009e+00	 1.281458490237830e+00	 1.071653184515718e+01
 1.040852752852580e+00	 1.291638303879567e+00	 1.058432384446805e+01
 1.028253306472608e+00	 1.301690862978269e+00	 1.045294014122855e+01
 1.015563998774259e+00	 1.311614941913405e+00	 1.032300089749920e+01
 1.002786795518107e+00	 1.321409354295915e+00	 1.019520315087660e+01
 9.899236825540439e-01	 1.331072953412952e+00	 1.007030144435570e+01
 1.122358515157948e+00	 1.237409834164897e+00	 1.138675004619481e+01
 1.110253024325751e+00	 1.248282763411927e+00	 1.125879026040716e+01
 1.098045636576915e+00	 1.259034282132766e+00	 1.113135773429905e+01
 1.085738189706335e+00	 1.269662966208293e+00	 1.100299909236700e+01
 1.073332547533721e+00	 1.280167428353095e+00	 1.087380953143206e+01
 1.060830598974067e+00	 1.290546318707462e+00	 1.074404126841787e+01
 1.048234257092401e+00	 1.300798325401447e+00	 1.061408438743611e+01
 1.035545458143811e+00	 1.310922175090512e+00	 1.048444720853305e+01
 1.022766160599723e+00	 1.320916633462300e+00	 1.035573631115443e+01
 1.009898344161473e+00	 1.330780505714150e+00	 1.022863634571156e+01
 9.969440087621851e-01	 1.340512637000984e+00	 1.010388976612672e+01
 1.130261991011976e+00	 1.246123483693758e+00	 1.139601689970128e+01
 1.118071255176929e+00	 1.257072978434211e+00	 1.127062764014876e+01
 1.105777904882833e+00	 1.267900207694183e+00	 1.114699954768674e+01
 1.093383790866064e+00	 1.278603737326138e+00	 1.102242126084910e+01
 1.080890790071078e+00	 1.289182170275627e+00	 1.089645757741997e+01
 1.068300804714327e+00	 1.299634147177450e+00	 1.076934037675206e+01
 1.055615761332365e+00	 1.309958346923690e+00	 1.064144350238448e+01
 1.042837609815098e+00	 1.320153487203122e+00	 1.051326220524364e+01
 1.029968322425221e+00	 1.330218325011567e+00	 1.038539223161245e+01
 1.017009892804834e+00	 1.340151657132761e+00	 1.025850869525218e+01
 1.003964334970293e+00	 1.349952320589401e+00	 1.013334487252629e+01
 1.138165466866538e+00	 1.254837133222988e+00	 1.140315519145661e+01
 1.125889486028612e+00	 1.265863193456857e+00	 1.128035658096011e+01
 1.113510173189215e+00	 1.276766133255965e+00	 1.115944782561139e+01
 1.101029392026208e+00	 1.287544508444359e+00	 1.103868546364285e+01
 1.088449032608791e+00	 1.298196912198553e+00	 1.091593186087254e+01
 1.075771010454884e+00	 1.308721975647853e+00	 1.079134389137370e+01
 1.062997265572561e+00	 1.319118368446370e+00	 1.066528181471719e+01
 1.050129761486557e+00	 1.329384799316195e+00	 1.053823065566520e+01
 1.037170484250835e+00	 1.339520016561322e+00	 1.041077831523547e+01
 1.024121441448263e+00	 1.349522808551885e+00	 1.028359346183742e+01
 1.010984661178434e+00	 1.359392004178351e+00	 1.015740334751903e+01
 1.146068942721699e+00	 1.263550782752567e+00	 1.140744753384910e+01
 1.133707716880876e+00	 1.274653408479857e+00	 1.128721791063396e+01
 1.121242441496144e+00	 1.285632058818114e+00	 1.116864402917211e+01
 1.108674993186852e+00	 1.296485279562974e+00	 1.105082178066365e+01
 1.096007275146951e+00	 1.307211654121905e+00	 1.093123018987256e+01
 1.083241216195826e+00	 1.317809804118724e+00	 1.080901580249908e+01
 1.070378769813079e+00	 1.328278389969561e+00	 1.068452818711191e+01
 1.057421913158275e+00	 1.338616111429825e+00	 1.055824522675498e+01
 1.044372646076649e+00	 1.348821708111680e+00	 1.043075021031936e+01
 1.031232990091838e+00	 1.358893959971655e+00	 1.030270869976876e+01
 1.018004987386674e+00	 1.368831687767984e+00	 1.017484532467753e+01
 9.478017253007789e-01	 1.274434851884392e+00	 9.857917535363706e+00
 9.354077250450006e-01	 1.283559411770906e+00	 9.720962575776865e+00
 9.229353465043052e-01	 1.292556692913758e+00	 9.577797091095297e+00
 9.103865350084254e-01	 1.301425719274800e+00	 9.429518668104830e+00
 8.977632512710472e-01	 1.310165554159859e+00	 9.277222375171002e+00
 8.850674704044351e-01	 1.318775300497929e+00	 9.121987040608753e+00
 8.723011809288889e-01	 1.327254101091019e+00	 8.964861986154155e+00
 8.594663837780459e-01	 1.335601138834602e+00	 8.806854294057226e+00
 8.465650913010312e-01	 1.343815636908605e+00	 8.648916681813075e+00
 8.335993262624637e-01	 1.351896858938988e+00	 8.491936053661590e+00
 8.205711208413068e-01	 1.359844109129928e+00	 8.336722792729658e+00
 9.548220515105140e-01	 1.283874535473279e+00	 9.887481821752631e+00
 9.423362494331937e-01	 1.293066680578582e+00	 9.753317254472346e+00
 9.297714885263579e-01	 1.302130604192108e+00	 9.612747474777990e+00
 9.171297285287177e-01	 1.311065323046235e+00	 9.466818298205556e+00
 9.044129446768869e-01	 1.319869893508739e+00	 9.316570561359308e+00
 8.916231267127083e-01	 1.328543411864044e+00	 9.163025823634317e+00
 8.787622778853706e-01	 1.337085014564933e+00	 9.007172550355810e+00
 8.658324139493470e-01	 1.345493878454618e+00	 8.849952859437886e+00
 8.528355621591517e-01	 1.353769220959157e+00	 8.692249908961866e+00
 8.397737602619391e-01	 1.361910300250215e+00	 8.534875997933991e+00
 8.266490554889407e-01	 1.369916415378241e+00	 8.378561446991970e+00
 9.618423777198175e-01	 1.293314219061649e+00	 9.921342726226998e+00
 9.492647738210092e-01	 1.302573949385665e+00	 9.789515745220260e+00
 9.366076305481080e-01	 1.311704515469803e+00	 9.651041441780805e+00
 9.238729220487978e-01	 1.320704926816971e+00	 9.506944743718815e+00
 9.110626380826142e-01	 1.329574232856887e+00	 9.358243857724784e+00
 8.981787830209705e-01	 1.338311523229411e+00	 9.205935318337005e+00
 8.852233748419400e-01	 1.346915928038094e+00	 9.050979544952925e+00
 8.721984441208234e-01	 1.355386618073889e+00	 8.894286992810851e+00
 8.591060330175186e-01	 1.363722805008979e+00	 8.736704978933611e+00
 8.459481942617098e-01	 1.371923741560740e+00	 8.579005258653932e+00
 8.327269901368906e-01	 1.379988721625888e+00	 8.421872422577625e+00
 9.688627039287562e-01	 1.302753902649651e+00	 9.957999852471332e+00
 9.561932982085020e-01	 1.312081218192316e+00	 9.828036231928277e+00
 9.434437725695983e-01	 1.321278426747018e+00	 9.691153892410817e+00
 9.306161155686958e-01	 1.330344530587189e+00	 9.548387314966192e+00
 9.177123314882466e-01	 1.339278572204493e+00	 9.400763220602197e+00
 9.047344393292281e-01	 1.348079634594220e+00	 9.249284889864347e+00
 8.916844717985917e-01	 1.356746841510691e+00	 9.094917017442015e+00
 8.785644742924624e-01	 1.365279357692601e+00	 8.938571191788599e+00
 8.653765038761148e-01	 1.373676389058256e+00	 8.781092084566344e+00
 8.521226282617574e-01	 1.381937182870741e+00	 8.623244429106945e+00
 8.388049247851399e-01	 1.390061027873037e+00	 8.465700861045459e+00
 9.758830301373959e-01	 1.312193586237435e+00	 9.995989484303498e+00
 9.631218225957282e-01	 1.321588486998700e+00	 9.867392463156953e+00
 9.502799145908729e-01	 1.330852338023927e+00	 9.731593636385014e+00
 9.373593090884433e-01	 1.339984134357072e+00	 9.589667061239417e+00
 9.243620248938015e-01	 1.348982911551742e+00	 9.442678684472410e+00
 9.112900956374862e-01	 1.357847745958659e+00	 9.291669855321262e+00
 8.981455687553223e-01	 1.366577754982915e+00	 9.137641400910553e+00
 8.849305044642519e-01	 1.375172097310941e+00	 8.981538358348175e+00
 8.716469747349227e-01	 1.383629973107170e+00	 8.824235452379636e+00
 8.582970622620626e-01	 1.391950624180390e+00	 8.666523401579193e+00
 8.448828594336726e-01	 1.400133334119855e+00	 8.509096129748853e+00
 9.829033563458031e-01	 1.321633269825152e+00	 1.003388569007100e+01
 9.700503469827427e-01	 1.331095755804981e+00	 9.906134792539582e+00
 9.571160566119742e-01	 1.340426249300704e+00	 9.770904387535547e+00
 9.441025026080693e-01	 1.349623738126801e+00	 9.629337737503205e+00
 9.310117182992966e-01	 1.358687250898822e+00	 9.482570317812090e+00
 9.178457519457515e-01	 1.367615857322920e+00	 9.331712445342543e+00
 9.046066657121263e-01	 1.376408668454955e+00	 9.177832497321287e+00
 8.912965346361792e-01	 1.385064836929096e+00	 9.021940819216525e+00
 8.779174455939244e-01	 1.393583557155901e+00	 8.864974414843527e+00
 8.644714962626062e-01	 1.401964065489865e+00	 8.707782505670545e+00
 8.509607940824725e-01	 1.410205640366506e+00	 8.551113039722932e+00
 9.899236825540439e-01	 1.331072953412952e+00	 1.007030144435570e+01
 9.769788713696008e-01	 1.340603024611323e+00	 9.942851237255862e+00
 9.639521986329457e-01	 1.350000160577523e+00	 9.807665776521544e+00
 9.508456961276048e-01	 1.359263341896557e+00	 9.665986788290812e+00
 9.376614117047500e-01	 1.368391590245920e+00	 9.519049194586140e+00
 9.244014082540287e-01	 1.377383968687191e+00	 9.368062779048090e+00
 9.110677626690004e-01	 1.386239581927000e+00	 9.214194471239626e+00
 8.976625648082315e-01	 1.394957576547254e+00	 9.058551353110206e+00
 8.841879164531026e-01	 1.403537141204634e+00	 8.902164485290250e+00
 8.706459302633693e-01	 1.411977506799340e+00	 8.745973644448371e+00
 8.570387287315222e-01	 1.420277946613156e+00	 8.590813056049567e+00
 9.969440087621851e-01	 1.340512637000984e+00	 1.010388976612672e+01
 9.839073957563581e-01	 1.350110293417888e+00	 9.976168553660813e+00
 9.707883406538305e-01	 1.359574071854559e+00	 9.840494380648751e+00
 9.575888896470800e-01	 1.368902945666525e+00	 9.698236347934909e+00
 9.443111051101795e-01	 1.378095929593222e+00	 9.550758380601678e+00
 9.309570645623250e-01	 1.387152080051663e+00	 9.399399851712650e+00
 9.175288596259389e-01	 1.396070495399240e+00	 9.245456853482128e+00
 9.040285949803967e-01	 1.404850316165601e+00	 9.090164224483521e+00
 8.904583873124389e-01	 1.413490725253549e+00	 8.934678435331698e+00
 8.768203642643321e-01	 1.421990948108989e+00	 8.780061428542139e+00
 8.631166633808068e-01	 1.430350252859974e+00	 8.627265501065050e+00
 1.003964334970293e+00	 1.349952320589401e+00	 1.013334487252628e+01
 9.908359201430701e-01	 1.359617562224841e+00	 1.000475332922045e+01
 9.776244826746714e-01	 1.369147983131985e+00	 9.868044769953704e+00
 9.643320831665254e-01	 1.378542549436885e+00	 9.724744256328277e+00
 9.509607985156020e-01	 1.387800268940917e+00	 9.576373933989220e+00
 9.375127208706451e-01	 1.396920191416523e+00	 9.424432534520152e+00
 9.239899565829383e-01	 1.405901408871864e+00	 9.270375554190345e+00
 9.103946251526613e-01	 1.414743055784324e+00	 9.115596223456365e+00
 8.967288581719166e-01	 1.423444309302829e+00	 8.961407374650179e+00
 8.829947982654758e-01	 1.432004389418990e+00	 8.809024308270340e+00
 8.691945980303090e-01	 1.440422559107123e+00	 8.659548750752416e+00
 1.010984661178434e+00	 1.359392004178351e+00	 1.015740334751903e+01
 9.977644445297922e-01	 1.369124831032347e+00	 1.002731308995061e+01
 9.844606246955124e-01	 1.378721894409978e+00	 9.889010568750113e+00
 9.710752766859714e-01	 1.388182153207819e+00	 9.744205089445277e+00
 9.576104919210355e-01	 1.397504608289191e+00	 9.594605919113425e+00
 9.440683771789959e-01	 1.406688302781962e+00	 9.441900585804436e+00
 9.304510535399934e-01	 1.415732322345062e+00	 9.287733884866403e+00
 9.167606553250138e-01	 1.424635795403611e+00	 9.133687711616027e+00
 9.029993290315174e-01	 1.433397893352658e+00	 8.981261833039873e+00
 8.891692322667810e-01	 1.442017830729517e+00	 8.831855703887475e+00
 8.752725326800128e-01	 1.450494865354771e+00	 8.686751424642221e+00
 1.018004987386674e+00	 1.368831687767984e+00	 1.017484532467753e+01
 1.004692968916580e+00	 1.378632099840567e+00	 1.004259742260139e+01
 9.912967667163965e-01	 1.388295805688710e+00	 9.902125531880781e+00
 9.778184702054483e-01	 1.397821756979510e+00	 9.755351203906793e+00
 9.642601853264984e-01	 1.407208947638231e+00	 9.604199433255948e+00
 9.506240334873820e-01	 1.416456414148170e+00	 9.450575673213802e+00
 9.369121504971005e-01	 1.425563235819023e+00	 9.296343588923623e+00
 9.231266854974417e-01	 1.434528535023648e+00	 9.143303673396572e+00
 9.092697998912239e-01	 1.443351477403215e+00	 8.993172844581302e+00
 8.953436662682289e-01	 1.452031272040745e+00	 8.847565134035307e+00
 8.813504673299017e-01	 1.460567171603084e+00	 8.707973569526304e+00
 8.205711208413068e-01	 1.359844109129928e+00	 8.336722792729658e+00
 8.074825158851835e-01	 1.367656732696559e+00	 8.180423350380572e+00
 7.943355606602834e-01	 1.375334116933126e+00	 8.020495850350155e+00
 7.811323110566714e-01	 1.382875690275684e+00	 7.858083794226220e+00
 7.678748283318723e-01	 1.390280921987376e+00	 7.694229799165116e+00
 7.545651781179151e-01	 1.397549322143632e+00	 7.529868584914605e+00
 7.412054294330972e-01	 1.404680441589078e+00	 7.365820955179487e+00
 7.277976536993761e-01	 1.411673871866421e+00	 7.202469236097496e+00
 7.143439237663031e-01	 1.418529245117672e+00	 7.039944442635020e+00
 7.008463129423703e-01	 1.425246233958064e+00	 6.878617944900141e+00
 6.873068940346406e-01	 1.431824551323068e+00	 6.718790886944685e+00
 8.266490554889407e-01	 1.369916415378241e+00	 8.378561446991970e+00
 8.134635038042548e-01	 1.377786906708404e+00	 8.220554023490884e+00
 8.002191696528969e-01	 1.385521156996658e+00	 8.058573158651598e+00
 7.869181241528193e-01	 1.393118590445504e+00	 7.893916539120122e+00
 7.735624438291916e-01	 1.400578672386932e+00	 7.727778573299092e+00
 7.601542096140893e-01	 1.407900909267516e+00	 7.561242793720788e+00
 7.466955058509366e-01	 1.415084848605003e+00	 7.395275303071113e+00
 7.331884193046234e-01	 1.422130078916667e+00	 7.230598392172380e+00
 7.196350381782067e-01	 1.429036229619804e+00	 7.067301679131420e+00
 7.060374511370847e-01	 1.435802970904718e+00	 6.905824087149822e+00
 6.923977463415106e-01	 1.442430013580597e+00	 6.746605083402763e+00
 8.327269901368906e-01	 1.379988721625888e+00	 8.421872422577625e+00
 8.194444917236294e-01	 1.387917080719628e+00	 8.262737953182279e+00
 8.061027786457717e-01	 1.395708197059620e+00	 8.099632044018737e+00
 7.927039372491650e-01	 1.403361490614809e+00	 7.933991014388253e+00
 7.792500593266278e-01	 1.410876422786032e+00	 7.767144680553706e+00
 7.657432411102892e-01	 1.418252496391004e+00	 7.600308184951626e+00
 7.521855822687064e-01	 1.425489255620590e+00	 7.434574920837154e+00
 7.385791849097086e-01	 1.432586285966633e+00	 7.270899889854741e+00
 7.249261525898641e-01	 1.439543214121713e+00	 7.109543270402213e+00
 7.112285893314820e-01	 1.446359707851197e+00	 6.950838347333413e+00
 6.974885986480126e-01	 1.453035475837994e+00	 6.795342476358279e+00
 8.388049247851399e-01	 1.390061027873037e+00	 8.465700861045459e+00
 8.254254796432977e-01	 1.398047254730387e+00	 8.306146374480793e+00
 8.119863876389108e-01	 1.405895237122155e+00	 8.142959492175519e+00
 7.984897503457251e-01	 1.413604390783727e+00	 7.977700111014538e+00
 7.849376748242157e-01	 1.421174173184788e+00	 7.811817562947852e+00
 7.713322726065679e-01	 1.428604083514194e+00	 7.646641881601641e+00
 7.576756586864802e-01	 1.435893662635926e+00	 7.483376218638576e+00
 7.439699505147226e-01	 1.443042493016390e+00	 7.323090436171405e+00
 7.302172670013822e-01	 1.450050198623451e+00	 7.166426391842775e+00
 7.164197275256837e-01	 1.456916444797544e+00	 7.013477929018598e+00
 7.025794509542805e-01	 1.463640938095293e+00	 6.864872836819112e+00
 8.448828594336726e-01	 1.400133334119855e+00	 8.509096129748853e+00
 8.314064675632521e-01	 1.408177428740835e+00	 8.349949708023573e+00
 8.178699966323169e-01	 1.416082277184404e+00	 8.187837017705712e+00
 8.042755634425178e-01	 1.423847290952388e+00	 8.024426968938347e+00
 7.906252903219897e-01	 1.431471923583316e+00	 7.861273001346964e+00
 7.769213041029793e-01	 1.438955670637186e+00	 7.699803797676422e+00
 7.631657351043283e-01	 1.446298069651092e+00	 7.541315204095865e+00
 7.493607161197554e-01	 1.453498700066008e+00	 7.386963384983826e+00
 7.355083814128680e-01	 1.460557183125078e+00	 7.237682709596661e+00
 7.216108657198125e-01	 1.467473181743804e+00	 7.093532594992653e+00
 7.076703032604474e-01	 1.474246400352526e+00	 6.955036845964566e+00
 8.509607940824725e-01	 1.410205640366506e+00	 8.551113039722932e+00
 8.373874554834830e-01	 1.418307602751128e+00	 8.393318858047136e+00
 8.237536056259933e-01	 1.426269317246510e+00	 8.233542030415192e+00
 8.100613765395609e-01	 1.434090191120921e+00	 8.073546400540589e+00
 7.963129058199845e-01	 1.441769673981731e+00	 7.914974585303305e+00
 7.825103355995754e-01	 1.449307257760078e+00	 7.759338144106055e+00
 7.686558115223234e-01	 1.456702476666174e+00	 7.608009014476059e+00
 7.547514817248974e-01	 1.463954907115555e+00	 7.462212243248947e+00
 7.407994958244295e-01	 1.471064167626649e+00	 7.323020034352513e+00
 7.268020039139899e-01	 1.478029918690021e+00	 7.190766301906704e+00
 7.127611555666480e-01	 1.484851862609726e+00	 7.063588605675177e+00
 8.570387287315222e-01	 1.420277946613156e+00	 8.590813056049567e+00
 8.433684434039821e-01	 1.428437776761421e+00	 8.435426497489885e+00
 8.296372146199424e-01	 1.436456357308617e+00	 8.279349183961967e+00
 8.158471896368719e-01	 1.444333091289453e+00	 8.124426292053800e+00
 8.020005213182346e-01	 1.452067424380145e+00	 7.972375156966566e+00
 7.880993670964104e-01	 1.459658844882971e+00	 7.824774905338984e+00
 7.741458879405371e-01	 1.467106883681256e+00	 7.683057416627183e+00
 7.601422473302385e-01	 1.474411114165103e+00	 7.548499643905275e+00
 7.460906102361734e-01	 1.481571152128220e+00	 7.422216098795484e+00
 7.319931421083381e-01	 1.488586655636237e+00	 7.296030121812093e+00
 7.178520078730154e-01	 1.495457324866928e+00	 7.161269264002152e+00
 8.631166633808068e-01	 1.430350252859974e+00	 8.627265501065050e+00
 8.493494313247396e-01	 1.438567950771870e+00	 8.475448340833079e+00
 8.355208236141675e-01	 1.446643397370867e+00	 8.324531707619116e+00
 8.216330027344682e-01	 1.454575991458114e+00	 8.176428983979344e+00
 8.076881368167752e-01	 1.462365174778673e+00	 8.032918230333891e+00
 7.936883985935362e-01	 1.470010432005963e+00	 7.895631288057287e+00
 7.796359643590420e-01	 1.477511290696423e+00	 7.766044276239938e+00
 7.655330129358693e-01	 1.484867321214720e+00	 7.643572480539378e+00
 7.513817246482072e-01	 1.492078136629846e+00	 7.515922423732636e+00
 7.371842803029798e-01	 1.499143392582497e+00	 7.381193575154972e+00
 7.229428601796833e-01	 1.506062787124161e+00	 7.239181065827441e+00
 8.691945980303090e-01	 1.440422559107123e+00	 8.659548750752416e+00
 8.553304192457482e-01	 1.448698124782628e+00	 8.512564405276880e+00
 8.414044326086711e-01	 1.456830437433401e+00	 8.368362721990078e+00
 8.274188158323681e-01	 1.464818891627033e+00	 8.228912631532134e+00
 8.133757523156402e-01	 1.472662925177430e+00	 8.096039387043094e+00
 7.992774300910065e-01	 1.480362019129153e+00	 7.971413143372024e+00
 7.851260407779089e-01	 1.487915697711758e+00	 7.849938976770945e+00
 7.709237785418802e-01	 1.495323528264477e+00	 7.721278703894164e+00
 7.566728390606383e-01	 1.502585121131586e+00	 7.585992919595451e+00
 7.423754184980365e-01	 1.509700129528844e+00	 7.444838333312090e+00
 7.280337124867856e-01	 1.516668249381459e+00	 7.298028446295648e+00
 8.752725326800128e-01	 1.450494865354771e+00	 8.686751424642221e+00
 8.613114071669979e-01	 1.458828298793852e+00	 8.545960260807025e+00
 8.472880416034562e-01	 1.467017477496364e+00	 8.410116539451224e+00
 8.332046289305887e-01	 1.475061791796338e+00	 8.281232546075170e+00
 8.190633678148649e-01	 1.482960675576530e+00	 8.160845810727963e+00
 8.048664615888746e-01	 1.490713606252640e+00	 8.038580638830380e+00
 7.906161171972107e-01	 1.498320104727346e+00	 7.909336108176596e+00
 7.763145441483611e-01	 1.505779735314444e+00	 7.773920549114790e+00
 7.619639534735739e-01	 1.513092105633493e+00	 7.633140706435229e+00
 7.475665566936308e-01	 1.520256866475324e+00	 7.487803085744617e+00
 7.331245647944563e-01	 1.527273711638857e+00	 7.338511883558345e+00
 8.813504673299017e-01	 1.460567171603084e+00	 8.707973569526304e+00
 8.672923950884808e-01	 1.468958472805697e+00	 8.574828269684854e+00
 8.531716505985251e-01	 1.477204517559897e+00	 8.449069950046564e+00
 8.389904420291475e-01	 1.485304691966158e+00	 8.330683288583407e+00
 8.247509833144842e-01	 1.493258425976087e+00	 8.207449424660584e+00
 8.104554930871936e-01	 1.501065193376526e+00	 8.077724764278120e+00
 7.961061936170186e-01	 1.508724511743271e+00	 7.942358153962500e+00
 7.817053097554028e-01	 1.516235942364690e+00	 7.802194766813242e+00
 7.672550678871213e-01	 1.523599090135625e+00	 7.658077642208804e+00
 7.527576948898844e-01	 1.530813603421977e+00	 7.510849028188117e+00
 7.382154171028291e-01	 1.537879173896387e+00	 7.361328690159521e+00
 6.873068940346406e-01	 1.431824551323068e+00	 6.718790886944685e+00
 6.737254264241525e-01	 1.438265033062098e+00	 6.561324225093058e+00
 6.601062778921720e-01	 1.444566341068717e+00	 6.407535379700152e+00
 6.464515144561652e-01	 1.450728306976514e+00	 6.258234016121270e+00
 6.327631979131837e-01	 1.456750801892468e+00	 6.114174128886543e+00
 6.190433849325042e-01	 1.462633736117254e+00	 5.976054931212643e+00
 6.052941261612230e-01	 1.468377058841594e+00	 5.844522212642428e+00
 5.915174653435150e-01	 1.473980757819260e+00	 5.720170148997552e+00
 5.777154384542195e-01	 1.479444859017327e+00	 5.603543546142598e+00
 5.638900728474020e-01	 1.484769426244293e+00	 5.492831041425024e+00
 5.500433864204959e-01	 1.489954560756726e+00	 5.379905837833539e+00
 6.923977463415106e-01	 1.442430013580597e+00	 6.746605083402759e+00
 6.787156813902694e-01	 1.448918199687955e+00	 6.590825837503246e+00
 6.649956564165967e-01	 1.455266181209063e+00	 6.440077007833874e+00
 6.512397527408638e-01	 1.461473788530443e+00	 6.295233931410971e+00
 6.374500474317693e-01	 1.467540891804378e+00	 6.157114093458040e+00
 6.236286123922536e-01	 1.473467400667154e+00	 6.026477929419858e+00
 6.097775134584712e-01	 1.479253263933164e+00	 5.904030121759586e+00
 5.958988095125252e-01	 1.484898469265483e+00	 5.787988420951150e+00
 5.819945516096370e-01	 1.490403042823533e+00	 5.669440019353593e+00
 5.680667821203996e-01	 1.495767048888449e+00	 5.548492292951431e+00
 5.541175338887292e-01	 1.500990589466814e+00	 5.426319324640020e+00
 6.974885986480126e-01	 1.453035475837994e+00	 6.795342476358275e+00
 6.837059363559921e-01	 1.459571366313715e+00	 6.644525244213760e+00
 6.698850349406240e-01	 1.465966021349343e+00	 6.500205282918463e+00
 6.560279910251827e-01	 1.472219270084326e+00	 6.363283511764632e+00
 6.421368969500098e-01	 1.478330981716259e+00	 6.234599926230317e+00
 6.282138398517073e-01	 1.484301065217039e+00	 6.113329049366076e+00
 6.142609007554847e-01	 1.490129469024726e+00	 5.989653302838333e+00
 6.002801536813709e-01	 1.495816180711701e+00	 5.862727492207247e+00
 5.862736647649663e-01	 1.501361226629736e+00	 5.733740937441020e+00
 5.722434913933888e-01	 1.506764671532605e+00	 5.603923215702176e+00
 5.581916813570343e-01	 1.512026618176901e+00	 5.474539327515753e+00
 7.025794509542805e-01	 1.463640938095293e+00	 6.864872836819119e+00
 6.886961913214621e-01	 1.470224532939403e+00	 6.722331380507772e+00
 6.747744134643996e-01	 1.476665861489572e+00	 6.587849208392534e+00
 6.608162293092680e-01	 1.482964751638177e+00	 6.461886925520255e+00
 6.468237464680484e-01	 1.489121071628119e+00	 6.334969560622786e+00
 6.327990673110018e-01	 1.495134729766910e+00	 6.203729151384975e+00
 6.187442880523907e-01	 1.501005674116280e+00	 6.069315053099338e+00
 6.046614978501677e-01	 1.506733892157918e+00	 5.932926401122023e+00
 5.905527779203087e-01	 1.512319410435940e+00	 5.795806535063764e+00
 5.764202006664539e-01	 1.517762294176761e+00	 5.659237695575608e+00
 5.622658288254769e-01	 1.523062646886989e+00	 5.524536002696421e+00
 7.076703032604474e-01	 1.474246400352526e+00	 6.955036845964562e+00
 6.936864462868211e-01	 1.480877699565044e+00	 6.824122898930754e+00
 6.796637919880694e-01	 1.487365701629767e+00	 6.696315115764962e+00
 6.656044675932653e-01	 1.493710233192005e+00	 6.563201612202676e+00
 6.515105959860279e-01	 1.499911161539966e+00	 6.425766733257733e+00
 6.373842947702746e-01	 1.505968394316774e+00	 6.285124839057456e+00
 6.232276753493182e-01	 1.511881879207832e+00	 6.142444561304533e+00
 6.090428420190318e-01	 1.517651603604132e+00	 5.998942783012541e+00
 5.948318910757657e-01	 1.523277594242143e+00	 5.855878896294236e+00
 5.805969099396792e-01	 1.528759916820916e+00	 5.714549349302304e+00
 5.663399762941219e-01	 1.534098675597078e+00	 5.576282491379920e+00
 7.127611555666480e-01	 1.484851862609726e+00	 7.063588605675173e+00
 6.986767012522107e-01	 1.491530866190661e+00	 6.931009420836913e+00
 6.845531705117786e-01	 1.498065541769946e+00	 6.793158800330641e+00
 6.703927058773208e-01	 1.504455714745822e+00	 6.651012307442714e+00
 6.561974455040918e-01	 1.510701251451805e+00	 6.505610913537057e+00
 6.419695222296617e-01	 1.516802058866634e+00	 6.358054300052044e+00
 6.277110626463940e-01	 1.522758084299382e+00	 6.209494426583264e+00
 6.134241861880788e-01	 1.528569315050346e+00	 6.061129380551629e+00
 5.991110042314381e-01	 1.534235778048345e+00	 5.914197521790990e+00
 5.847736192131494e-01	 1.539757539465072e+00	 5.769971933240031e+00
 5.704141237630350e-01	 1.545134704307166e+00	 5.629755186795300e+00
 7.178520078730154e-01	 1.495457324866928e+00	 7.161269264002155e+00
 7.036669562177725e-01	 1.502184032816278e+00	 7.020019731235906e+00
 6.894425490356733e-01	 1.508765381910124e+00	 6.874610656358173e+00
 6.751809441615806e-01	 1.515201196299638e+00	 6.725973448180525e+00
 6.608842950223821e-01	 1.521491341363644e+00	 6.575102493557193e+00
 6.465547496893017e-01	 1.527635723416493e+00	 6.423048346878628e+00
 6.321944499437465e-01	 1.533634289390931e+00	 6.270911202754237e+00
 6.178055303574248e-01	 1.539487026496560e+00	 6.119834667564739e+00
 6.033901173874275e-01	 1.545193961854548e+00	 5.970999843304839e+00
 5.889503284869487e-01	 1.550755162109227e+00	 5.825619734893165e+00
 5.744882712322809e-01	 1.556170733017253e+00	 5.684933989915145e+00
 7.229428601796833e-01	 1.506062787124161e+00	 7.239181065827436e+00
 7.086572111836473e-01	 1.512837199441918e+00	 7.091790016971666e+00
 6.943319275598988e-01	 1.519465222050320e+00	 6.941355216640735e+00
 6.799691824461909e-01	 1.525946677853467e+00	 6.788731736797912e+00
 6.655711445410435e-01	 1.532281431275490e+00	 6.634834455063134e+00
 6.511399771493299e-01	 1.538469387966357e+00	 6.480631181596246e+00
 6.366778372415031e-01	 1.544510494482482e+00	 6.327136086974678e+00
 6.221868745271851e-01	 1.550404737942774e+00	 6.175403446833298e+00
 6.076692305438354e-01	 1.556152145660751e+00	 6.026521716685332e+00
 5.931270377611613e-01	 1.561752784753383e+00	 5.881607948006396e+00
 5.785624187019252e-01	 1.567206761727342e+00	 5.741802554374923e+00
 7.280337124867856e-01	 1.516668249381459e+00	 7.298028446295652e+00
 7.136474661499782e-01	 1.523490366067607e+00	 7.147019921062293e+00
 6.992213060846009e-01	 1.530165062190550e+00	 6.994070311832779e+00
 6.847574207312976e-01	 1.536692159407317e+00	 6.839926974748591e+00
 6.702579940602178e-01	 1.543071521187350e+00	 6.685393160769992e+00
 6.557252046098843e-01	 1.549303052516229e+00	 6.531321129079751e+00
 6.411612245397917e-01	 1.555386699574038e+00	 6.378605579998018e+00
 6.265682186974761e-01	 1.561322449388991e+00	 6.228177423181908e+00
 6.119483437007626e-01	 1.567110329466954e+00	 6.080997894436782e+00
 5.973037470358717e-01	 1.572750407397539e+00	 5.938053032043644e+00
 5.826365661720331e-01	 1.578242790437430e+00	 5.800348521125426e+00
 7.331245647944563e-01	 1.527273711638857e+00	 7.338511883558349e+00
 7.186377211169059e-01	 1.534143532693367e+00	 7.186403917337494e+00
 7.041106846099251e-01	 1.540864902330829e+00	 7.033427895176750e+00
 6.895456590170468e-01	 1.547437640961201e+00	 6.880192862411507e+00
 6.749448435800485e-01	 1.553861611099231e+00	 6.727359113510243e+00
 6.603104320711010e-01	 1.560136717066113e+00	 6.575631340378161e+00
 6.456446118387401e-01	 1.566262904665600e+00	 6.425752119417986e+00
 6.309495628684133e-01	 1.572240160835209e+00	 6.278495753047739e+00
 6.162274568583110e-01	 1.578068513273159e+00	 6.134662478823913e+00
 6.014804563111643e-01	 1.583748030041694e+00	 5.995073056805268e+00
 5.867107136426697e-01	 1.589278819147518e+00	 5.860563743322008e+00
 7.382154171028291e-01	 1.537879173896387e+00	 7.361328690159521e+00
 7.236279760845722e-01	 1.544796699319223e+00	 7.210632110291772e+00
 7.090000631360169e-01	 1.551564742471175e+00	 7.060094834227627e+00
 6.943338973035842e-01	 1.558183122515130e+00	 6.910157766801833e+00
 6.796316931006791e-01	 1.564651701011141e+00	 6.761307684761088e+00
 6.648956595331175e-01	 1.570970381616013e+00	 6.614070467607675e+00
 6.501279991384760e-01	 1.577139109757170e+00	 6.469004687204718e+00
 6.353309070401131e-01	 1.583157872281432e+00	 6.326695571671925e+00
 6.205065700165817e-01	 1.589026697079364e+00	 6.187749356463822e+00
 6.056571655871235e-01	 1.594745652685850e+00	 6.052788032907607e+00
 5.907848611139003e-01	 1.600314847857605e+00	 5.922444501920800e+00
 5.500433864204959e-01	 1.489954560756726e+00	 5.379905837833538e+00
 5.361797451768958e-01	 1.494999554806210e+00	 5.264804289799877e+00
 5.222987921958342e-01	 1.499905475573210e+00	 5.147983913656485e+00
 5.084025105409531e-01	 1.504672532972101e+00	 5.029887996923532e+00
 4.944928706784839e-01	 1.509300972568784e+00	 4.910975305254439e+00
 4.805718297281260e-01	 1.513791075091548e+00	 4.791718093888696e+00
 4.666413307325125e-01	 1.518143155924636e+00	 4.672600357339151e+00
 4.527033019456697e-01	 1.522357564585261e+00	 4.554116313375754e+00
 4.387596561408405e-01	 1.526434684184807e+00	 4.436769116159367e+00
 4.248122899380145e-01	 1.530374930874972e+00	 4.321069792260106e+00
 4.108630831514755e-01	 1.534178753279604e+00	 4.207536392256332e+00
 5.541175338887292e-01	 1.500990589466814e+00	 5.426319324640019e+00
 5.401512052568189e-01	 1.506072951567957e+00	 5.303746672273192e+00
 5.261674366601982e-01	 1.511015210276897e+00	 5.180971472014642e+00
 5.121682258509642e-01	 1.515817577062827e+00	 5.058322008146306e+00
 4.981555578904969e-01	 1.520480299310534e+00	 4.936137803544987e+00
 4.841314043947857e-01	 1.525003659827642e+00	 4.814767794303657e+00
 4.700977227984875e-01	 1.529387976334422e+00	 4.694568755525411e+00
 4.560564556381118e-01	 1.533633600936938e+00	 4.575903973671324e+00
 4.420095298547204e-01	 1.537740919584255e+00	 4.459142159605862e+00
 4.279588561164758e-01	 1.541710351510479e+00	 4.344656595310948e+00
 4.139063281613547e-01	 1.545542348662388e+00	 4.232824506182118e+00
 5.581916813570343e-01	 1.512026618176901e+00	 5.474539327515758e+00
 5.441226653368929e-01	 1.517146348329705e+00	 5.346240528607007e+00
 5.300360811247872e-01	 1.522124944980584e+00	 5.218931044722821e+00
 5.159339411612685e-01	 1.526962621153553e+00	 5.092851539504977e+00
 5.018182451028620e-01	 1.531659626052284e+00	 4.968250140517517e+00
 4.876909790618474e-01	 1.536216244563737e+00	 4.845380732061137e+00
 4.735541148648998e-01	 1.540632796744208e+00	 4.724501512702529e+00
 4.594096093310125e-01	 1.544909637288616e+00	 4.605873812281649e+00
 4.452594035690634e-01	 1.549047154983703e+00	 4.489761161858256e+00
 4.311054222953851e-01	 1.553045772145986e+00	 4.376428608867908e+00
 4.169495731716461e-01	 1.556905944045173e+00	 4.266142268642687e+00
 5.622658288254769e-01	 1.523062646886989e+00	 5.524536002696421e+00
 5.480941254171618e-01	 1.528219745091452e+00	 5.392115860425028e+00
 5.339047255896233e-01	 1.533234679684272e+00	 5.261570960404964e+00
 5.196996564718657e-01	 1.538107665244278e+00	 5.133081110352565e+00
 5.054809323155588e-01	 1.542838952794035e+00	 5.006830261502619e+00
 4.912505537292688e-01	 1.547428829299830e+00	 4.883004875233740e+00
 4.770105069316913e-01	 1.551877617153995e+00	 4.761792568577586e+00
 4.627627630243001e-01	 1.556185673640293e+00	 4.643381032791330e+00
 4.485092772837882e-01	 1.560353390383151e+00	 4.527957217832935e+00
 4.342519884746577e-01	 1.564381192781493e+00	 4.415706774332726e+00
 4.199928181822671e-01	 1.568269539427957e+00	 4.306813743509350e+00
 5.663399762941219e-01	 1.534098675597078e+00	 5.576282491379920e+00
 5.520655854976700e-01	 1.539293141853199e+00	 5.441208852626881e+00
 5.377733700547289e-01	 1.544344414387959e+00	 5.308608445453836e+00
 5.234653717827561e-01	 1.549252709335004e+00	 5.178626387165054e+00
 5.091436195285651e-01	 1.554018279535785e+00	 5.051409061959903e+00
 4.948101283970097e-01	 1.558641414035925e+00	 4.927102517574745e+00
 4.804668989988041e-01	 1.563122437563782e+00	 4.805851155607632e+00
 4.661159167179024e-01	 1.567461709991970e+00	 4.687796709173117e+00
 4.517591509988137e-01	 1.571659625782598e+00	 4.573077500141023e+00
 4.373985546542084e-01	 1.575716613417001e+00	 4.461827966923514e+00
 4.230360631931351e-01	 1.579633134810741e+00	 4.354178452583183e+00
 5.704141237630350e-01	 1.545134704307166e+00	 5.629755186795300e+00
 5.560370455784613e-01	 1.550366538614946e+00	 5.493362001725359e+00
 5.416420145201259e-01	 1.555454149091645e+00	 5.359769631923413e+00
 5.272310870939392e-01	 1.560397753425729e+00	 5.229114088610260e+00
 5.128063067418598e-01	 1.565197606277535e+00	 5.101530206677758e+00
 4.983697030650283e-01	 1.569853998772018e+00	 4.977150028124083e+00
 4.839232910661794e-01	 1.574367257973569e+00	 4.856101494611597e+00
 4.694690704117480e-01	 1.578737746343648e+00	 4.738507442309115e+00
 4.550090247140590e-01	 1.582965861182047e+00	 4.624484890735418e+00
 4.405451208339524e-01	 1.587052034052508e+00	 4.514144615966460e+00
 4.260793082041675e-01	 1.590996730193526e+00	 4.407590997346897e+00
 5.744882712322809e-01	 1.556170733017253e+00	 5.684933989915145e+00
 5.600085056595804e-01	 1.561439935376693e+00	 5.548424238630348e+00
 5.455106589858369e-01	 1.566563883795333e+00	 5.414789564901289e+00
 5.309968024054156e-01	 1.571542797516456e+00	 5.284181894390115e+00
 5.164689939554211e-01	 1.576376933019285e+00	 5.156749956327026e+00
 5.019292777332837e-01	 1.581066583508113e+00	 5.032637611067731e+00
 4.873796831337592e-01	 1.585612078383355e+00	 4.911982502871604e+00
 4.728222241057648e-01	 1.590013782695325e+00	 4.794915030619790e+00
 4.582588984294430e-01	 1.594272096581494e+00	 4.681557627684048e+00
 4.436916870138047e-01	 1.598387454688015e+00	 4.572024340761954e+00
 4.291225532152809e-01	 1.602360325576310e+00	 4.466420696201907e+00
 5.785624187019252e-01	 1.567206761727342e+00	 5.741802554374923e+00
 5.639799657410713e-01	 1.572513332138440e+00	 5.606251046157827e+00
 5.493793034518839e-01	 1.577673618499020e+00	 5.473412209389410e+00
 5.347625177171846e-01	 1.582687841607180e+00	 5.343478357672889e+00
 5.201316811692278e-01	 1.587556259761036e+00	 5.216637001006792e+00
 5.054888524017349e-01	 1.592279168244207e+00	 5.093069075340247e+00
 4.908360752014852e-01	 1.596856898793142e+00	 4.972947514113952e+00
 4.761753777998811e-01	 1.601289819047003e+00	 4.856436154103712e+00
 4.615087721448847e-01	 1.605578331980942e+00	 4.743688966320693e+00
 4.468382531936804e-01	 1.609722875323522e+00	 4.634849601256093e+00
 4.321657982263931e-01	 1.613723920959095e+00	 4.530051236430885e+00
 5.826365661720331e-01	 1.578242790437430e+00	 5.800348521125430e+00
 5.679514258229781e-01	 1.583586728900187e+00	 5.666704571516313e+00
 5.532479479182887e-01	 1.588783353202707e+00	 5.535390456717380e+00
 5.385282330292469e-01	 1.593832885697907e+00	 5.406662820939084e+00
 5.237943683832585e-01	 1.598735586502786e+00	 5.280772300442923e+00
 5.090484270703407e-01	 1.603491752980301e+00	 5.157961613500862e+00
 4.942924672692992e-01	 1.608101719202928e+00	 5.038464009782486e+00
 4.795285314940250e-01	 1.612565855398680e+00	 4.922502071134122e+00
 4.647586458603031e-01	 1.616884567380390e+00	 4.810286854071297e+00
 4.499848193734943e-01	 1.621058295959029e+00	 4.702017362797589e+00
 4.352090432374212e-01	 1.625087516341879e+00	 4.597880340160213e+00
 5.867107136426697e-01	 1.589278819147518e+00	 5.860563743322009e+00
 5.719228859053457e-01	 1.594660125661935e+00	 5.729653734023466e+00
 5.571165923850737e-01	 1.599893087906394e+00	 5.600486130512369e+00
 5.422939483416018e-01	 1.604977929788633e+00	 5.473405335076130e+00
 5.274570555974916e-01	 1.609914913244536e+00	 5.348748930514211e+00
 5.126080017390597e-01	 1.614704337716396e+00	 5.226845589425619e+00
 4.977488593371427e-01	 1.619346539612714e+00	 5.108013361062722e+00
 4.828816851881247e-01	 1.623841891750358e+00	 4.992558327390398e+00
 4.680085195756170e-01	 1.628190802779838e+00	 4.880773618293563e+00
 4.531313855531617e-01	 1.632393716594537e+00	 4.772938774290258e+00
 4.382522882482824e-01	 1.636451111724664e+00	 4.669319443647375e+00
 5.907848611139003e-01	 1.600314847857605e+00	 5.922444501920800e+00
 5.758943459882178e-01	 1.605733522423682e+00	 5.794974328278999e+00
 5.609852368522615e-01	 1.611002822610082e+00	 5.668469992248646e+00
 5.460596636542495e-01	 1.616122973879358e+00	 5.543386581567489e+00
 5.311197428119059e-01	 1.621094239986286e+00	 5.420171935802692e+00
 5.161675764078507e-01	 1.625916922452490e+00	 5.299264334398845e+00
 5.012052514049579e-01	 1.630591360022500e+00	 5.181090581133618e+00
 4.862348388821082e-01	 1.635117928102035e+00	 5.066064476342568e+00
 4.712583932907454e-01	 1.639497038179286e+00	 4.954585666500446e+00
 4.562779517325974e-01	 1.643729137230044e+00	 4.847038859100639e+00
 4.412955332588941e-01	 1.647814707107448e+00	 4.743793389248020e+00
 4.108630831514755e-01	 1.534178753279604e+00	 4.207536392256332e+00
 3.969138983479809e-01	 1.537846632246248e+00	 4.097300754996072e+00
 3.829665807884041e-01	 1.541379081248321e+00	 3.990771767907397e+00
 3.690229572349771e-01	 1.544776644772575e+00	 3.887395627856886e+00
 3.550848351868724e-01	 1.548039897365635e+00	 3.786907209246988e+00
 3.411540023317319e-01	 1.551169443004019e+00	 3.689336007674310e+00
 3.272322260185069e-01	 1.554165914454477e+00	 3.594721631889529e+00
 3.133212527517066e-01	 1.557029972625388e+00	 3.503172996747081e+00
 2.994228077071335e-01	 1.559762305909978e+00	 3.414859524161113e+00
 2.855385942691472e-01	 1.562363629522107e+00	 3.330003150060207e+00
 2.716702935894773e-01	 1.564834684825360e+00	 3.248871083398392e+00
 4.139063281613547e-01	 1.545542348662388e+00	 4.232824506182118e+00
 3.998538223520587e-01	 1.549237395449139e+00	 4.124565212094955e+00
 3.858031976172314e-01	 1.552796009147428e+00	 4.020145249763362e+00
 3.717562942498590e-01	 1.556218738277005e+00	 3.918970177810310e+00
 3.577149331371867e-01	 1.559506161640143e+00	 3.820638098484397e+00
 3.436809152081863e-01	 1.562658887686996e+00	 3.725189715472620e+00
 3.296560209024917e-01	 1.565677553871199e+00	 3.632686503972268e+00
 3.156420096609002e-01	 1.568562825996456e+00	 3.543255237895548e+00
 3.016406194375212e-01	 1.571315397554899e+00	 3.457080632235050e+00
 2.876535662336136e-01	 1.573935989057953e+00	 3.374397567472052e+00
 2.736825436531301e-01	 1.576425347360457e+00	 3.295484097626284e+00
 4.169495731716461e-01	 1.556905944045173e+00	 4.266142268642687e+00
 4.027937463564913e-01	 1.560628158652031e+00	 4.159651575259122e+00
 3.886398144463393e-01	 1.564212937046534e+00	 4.057107650747111e+00
 3.744896312649353e-01	 1.567660831781430e+00	 3.957883198786432e+00
 3.603450310876039e-01	 1.570972425914643e+00	 3.861463656387417e+00
 3.462078280846526e-01	 1.574148332369958e+00	 3.767853105413907e+00
 3.320798157864023e-01	 1.577189193287891e+00	 3.677146689087957e+00
 3.179627665699451e-01	 1.580095679367477e+00	 3.589493996205313e+00
 3.038584311677029e-01	 1.582868489199749e+00	 3.505099679843728e+00
 2.897685381978390e-01	 1.585508348593698e+00	 3.424215918096169e+00
 2.756947937165342e-01	 1.588016009895418e+00	 3.347135691337998e+00
 4.199928181822671e-01	 1.568269539427957e+00	 4.306813743509350e+00
 4.057336703612052e-01	 1.572018921854921e+00	 4.201895046334770e+00
 3.914764312756679e-01	 1.575629864945639e+00	 4.101008417021649e+00
 3.772229682801649e-01	 1.579102925285853e+00	 4.003499790763732e+00
 3.629751290381039e-01	 1.582438690189135e+00	 3.908771066566921e+00
 3.487347409611325e-01	 1.585637777052906e+00	 3.816744957240968e+00
 3.345036106702636e-01	 1.588700832704562e+00	 3.727555946980512e+00
 3.202835234788868e-01	 1.591628532738462e+00	 3.641381063427897e+00
 3.060762428977414e-01	 1.594421580844547e+00	 3.558449196288509e+00
 2.918835101618991e-01	 1.597080708129370e+00	 3.479033814591720e+00
 2.777070437797732e-01	 1.599606672430276e+00	 3.403446534713538e+00
 4.230360631931351e-01	 1.579633134810741e+00	 4.354178452583183e+00
 4.086735943661261e-01	 1.583409685057811e+00	 4.250645628044125e+00
 3.943130481051578e-01	 1.587046792844743e+00	 4.151211097976847e+00
 3.799563052955068e-01	 1.590545018790274e+00	 4.055199959801992e+00
 3.656052269886670e-01	 1.593904954463623e+00	 3.961957879758544e+00
 3.512616538376286e-01	 1.597127221735845e+00	 3.871293009930548e+00
 3.369274055540997e-01	 1.600212472121217e+00	 3.783375671492309e+00
 3.226042803877701e-01	 1.603161386109424e+00	 3.698414621380968e+00
 3.082940546276994e-01	 1.605974672489309e+00	 3.616666935933497e+00
 2.939984821258702e-01	 1.608653067664990e+00	 3.538431006241629e+00
 2.797192938429308e-01	 1.611197334965065e+00	 3.464040419853359e+00
 4.260793082041675e-01	 1.590996730193526e+00	 4.407590997346897e+00
 4.116135183711802e-01	 1.594800448260702e+00	 4.305267754606108e+00
 3.971496649347493e-01	 1.598463720743847e+00	 4.207092988095651e+00
 3.826896423109200e-01	 1.601987112294695e+00	 4.112376736020988e+00
 3.682353249392730e-01	 1.605371218738109e+00	 4.020431975410104e+00
 3.537885667141435e-01	 1.608616666418779e+00	 3.930933909098900e+00
 3.393512004379350e-01	 1.611724111537865e+00	 3.844074827804645e+00
 3.249250372966404e-01	 1.614694239480373e+00	 3.760099172819916e+00
 3.105118663576394e-01	 1.617527764134053e+00	 3.679295806282616e+00
 2.961134540898279e-01	 1.620225427200585e+00	 3.601991307578976e+00
 2.817315439060905e-01	 1.622787997499820e+00	 3.528544193067125e+00
 4.291225532152809e-01	 1.602360325576310e+00	 4.466420696201907e+00
 4.145534423762935e-01	 1.606191211463593e+00	 4.365139937451390e+00
 3.999862817643832e-01	 1.609880648642951e+00	 4.268044783416352e+00
 3.854229793263630e-01	 1.613429205799115e+00	 4.174435842937262e+00
 3.708654228899020e-01	 1.616837483012595e+00	 4.083611428983180e+00
 3.563154795906791e-01	 1.620106111101715e+00	 3.995113167019238e+00
 3.417749953217944e-01	 1.623235750954513e+00	 3.909129901485549e+00
 3.272457942055423e-01	 1.626227092851323e+00	 3.825945483249603e+00
 3.127296780876241e-01	 1.629080855778798e+00	 3.745883806071295e+00
 2.982284260538486e-01	 1.631797786736180e+00	 3.669302536055767e+00
 2.837437939693361e-01	 1.634378660034575e+00	 3.596587695187189e+00
 4.321657982263931e-01	 1.613723920959095e+00	 4.530051236430885e+00
 4.174933663813922e-01	 1.617581974666483e+00	 4.429654425280164e+00
 4.028228985939995e-01	 1.621297576542055e+00	 4.333470251874841e+00
 3.881563163417952e-01	 1.624871299303536e+00	 4.240795380131956e+00
 3.734955208405342e-01	 1.628303747287084e+00	 4.150921965652763e+00
 3.588423924672382e-01	 1.631595555784654e+00	 4.063285134631451e+00
 3.441987902057020e-01	 1.634747390371168e+00	 3.978024858762323e+00
 3.295665511145211e-01	 1.637759946222284e+00	 3.895470533137426e+00
 3.149474898177166e-01	 1.640633947423560e+00	 3.815983972882143e+00
 3.003433980180080e-01	 1.643370146271800e+00	 3.739956458307533e+00
 2.857560440327510e-01	 1.645969322569364e+00	 3.667803709512903e+00
 4.352090432374212e-01	 1.625087516341879e+00	 4.597880340160213e+00
 4.204332903864024e-01	 1.628972737869374e+00	 4.498216877765666e+00
 4.056595154235390e-01	 1.632714504441160e+00	 4.402785916848906e+00
 3.908896533571752e-01	 1.636313392807959e+00	 4.310885518592623e+00
 3.761256187911491e-01	 1.639770011561576e+00	 4.221806929089898e+00
 3.613693053438228e-01	 1.643085000467601e+00	 4.134912984958342e+00
 3.466225850896826e-01	 1.646259029787838e+00	 4.050251117472572e+00
 3.318873080236220e-01	 1.649292799593269e+00	 3.968197480015996e+00
 3.171653015479791e-01	 1.652187039068357e+00	 3.889154339816289e+00
 3.024583699823821e-01	 1.654942505807471e+00	 3.813548744595599e+00
 2.877682940964190e-01	 1.657559985104222e+00	 3.741827917009857e+00
 4.382522882482824e-01	 1.636451111724664e+00	 4.669319443647375e+00
 4.233732143912499e-01	 1.640363501072264e+00	 4.570246052238564e+00
 4.084961322529420e-01	 1.644131432340266e+00	 4.475420753258021e+00
 3.936229903724620e-01	 1.647755486312385e+00	 4.384148208119237e+00
 3.787557167417271e-01	 1.651236275836075e+00	 4.295723858531398e+00
 3.638962182204351e-01	 1.654574445150562e+00	 4.209468707371514e+00
 3.490463799737604e-01	 1.657770669204531e+00	 4.125307528172796e+00
 3.342080649328897e-01	 1.660825652964290e+00	 4.043655630001327e+00
 3.193831132784746e-01	 1.663740130713207e+00	 3.964957900781503e+00
 3.045733419470470e-01	 1.666514865343217e+00	 3.889678931026651e+00
 2.897805441604236e-01	 1.669150647639183e+00	 3.818298858413623e+00
 4.412955332588941e-01	 1.647814707107448e+00	 4.743793389248020e+00
 4.263131383958613e-01	 1.651754264275155e+00	 4.645173502727101e+00
 4.113327490821488e-01	 1.655548360239373e+00	 4.550815895620025e+00
 3.963563273876144e-01	 1.659197579816815e+00	 4.460036896207090e+00
 3.813858146922484e-01	 1.662702540110583e+00	 4.372141107046775e+00
 3.664231310970779e-01	 1.666063889833540e+00	 4.286433112188488e+00
 3.514701748579600e-01	 1.669282308621254e+00	 4.202700364915810e+00
 3.365288218423697e-01	 1.672358506335358e+00	 4.121380418265285e+00
 3.216009250092655e-01	 1.675293222358128e+00	 4.042962583981879e+00
 3.066883139120787e-01	 1.678087224879062e+00	 3.967950389177201e+00
 2.917927942248484e-01	 1.680741310174281e+00	 3.896857902904951e+00
 2.716702935894773e-01	 1.564834684825360e+00	 3.248871083398400e+00
 2.578172115980992e-01	 1.567176625583449e+00	 3.171697134720677e+00
 2.439833467483498e-01	 1.569389811701443e+00	 3.098509400036326e+00
 2.301703154373145e-01	 1.571475058185210e+00	 3.029276813575802e+00
 2.163797101875692e-01	 1.573433203487976e+00	 2.963992513216077e+00
 2.026130993126127e-01	 1.575265108815627e+00	 2.902669947293139e+00
 1.888720266035268e-01	 1.576971657429571e+00	 2.845339384448277e+00
 1.751580110367086e-01	 1.578553753947840e+00	 2.792044771707708e+00
 1.614725465025013e-01	 1.580012323645071e+00	 2.742840887520556e+00
 1.478171015545294e-01	 1.581348311752016e+00	 2.697790738332115e+00
 1.341931191795227e-01	 1.582562682755214e+00	 2.656963149399370e+00
 2.736825436531301e-01	 1.576425347360457e+00	 3.295484097626284e+00
 2.597268524851039e-01	 1.578784634772008e+00	 3.220536857525064e+00
 2.457905207992456e-01	 1.581014213863468e+00	 3.149529199132238e+00
 2.318751769652268e-01	 1.583114905677411e+00	 3.082413863977121e+00
 2.179824253013720e-01	 1.585087554877443e+00	 3.019167525800523e+00
 2.041138457376130e-01	 1.586933029048355e+00	 2.959787264345275e+00
 1.902709934998282e-01	 1.588652217993827e+00	 2.904287448825378e+00
 1.764553988154097e-01	 1.590246033032350e+00	 2.852696972640949e+00
 1.626685666398845e-01	 1.591715406292023e+00	 2.805056782577973e+00
 1.489119764043930e-01	 1.593061290004873e+00	 2.761417647744970e+00
 1.351870817838078e-01	 1.594284655801342e+00	 2.721838115788312e+00
 2.756947937165342e-01	 1.588016009895418e+00	 3.347135691337998e+00
 2.616364933718834e-01	 1.590392643960385e+00	 3.274025164986388e+00
 2.475976948499660e-01	 1.592638616025262e+00	 3.204809917992482e+00
 2.335800384930334e-01	 1.594754753169332e+00	 3.139430385495347e+00
 2.195851404151517e-01	 1.596741906266578e+00	 3.077850413705995e+00
 2.056145921626799e-01	 1.598600949280704e+00	 3.020054125813416e+00
 1.916699603962860e-01	 1.600332778557666e+00	 2.966043204498472e+00
 1.777527865943512e-01	 1.601938312116415e+00	 2.915834528834600e+00
 1.638645867775801e-01	 1.603418488938515e+00	 2.869458105166573e+00
 1.500068512546227e-01	 1.604774268257270e+00	 2.826955233736677e+00
 1.361810443884883e-01	 1.606006628847030e+00	 2.788376855300177e+00
 2.777070437797732e-01	 1.599606672430276e+00	 3.403446534713538e+00
 2.635461342585222e-01	 1.602000653148627e+00	 3.331828619481956e+00
 2.494048689005910e-01	 1.604263018186884e+00	 3.264063676093784e+00
 2.352849000208046e-01	 1.606394600661040e+00	 3.200083313047015e+00
 2.211878555289663e-01	 1.608396257655466e+00	 3.139841773785169e+00
 2.071153385878561e-01	 1.610268869512776e+00	 3.083313221245883e+00
 1.930689272929270e-01	 1.612013339121201e+00	 3.030489446235304e+00
 1.790501743735440e-01	 1.613630591200159e+00	 2.981377933435783e+00
 1.650606069155839e-01	 1.615121571584678e+00	 2.936000220831293e+00
 1.511017261052016e-01	 1.616487246509346e+00	 2.894390490685150e+00
 1.371750069935380e-01	 1.617728601892419e+00	 2.856594332850546e+00
 2.797192938429308e-01	 1.611197334965065e+00	 3.464040419853359e+00
 2.654557751451053e-01	 1.613608662336778e+00	 3.393615983044818e+00
 2.512120429512003e-01	 1.615887420348391e+00	 3.327003981628010e+00
 2.369897615486111e-01	 1.618034448152610e+00	 3.264130267105284e+00
 2.227905706428735e-01	 1.620050609044192e+00	 3.204942289247000e+00
 2.086160850131844e-01	 1.621936789744667e+00	 3.149406827238794e+00
 1.944678941897779e-01	 1.623693899684542e+00	 3.097508152143565e+00
 1.803475621529985e-01	 1.625322870283701e+00	 3.049246550340836e+00
 1.662566270538917e-01	 1.626824654230644e+00	 3.004637139753070e+00
 1.521966009561128e-01	 1.628200224761239e+00	 2.963708913188192e+00
 1.381689695989311e-01	 1.629450574937652e+00	 2.926503945977796e+00
 2.817315439060905e-01	 1.622787997499820e+00	 3.528544193067118e+00
 2.673654160317170e-01	 1.625216671524883e+00	 3.459058155408187e+00
 2.530192170018741e-01	 1.627511822509840e+00	 3.393345676362070e+00
 2.386946230765236e-01	 1.629674295644112e+00	 3.331329506189080e+00
 2.243932857569311e-01	 1.631704960432842e+00	 3.272952690343616e+00
 2.101168314387078e-01	 1.633604709976475e+00	 3.218176776633022e+00
 1.958668610868655e-01	 1.635374460247800e+00	 3.166980461441468e+00
 1.816449499327256e-01	 1.637015149367168e+00	 3.119358600358150e+00
 1.674526471924993e-01	 1.638527736876545e+00	 3.075321510866755e+00
 1.532914758073398e-01	 1.639913203013088e+00	 3.034894497458901e+00
 1.391629322046416e-01	 1.641172547982870e+00	 2.998117532586539e+00
 2.837437939693361e-01	 1.634378660034575e+00	 3.596587695187189e+00
 2.692750569184424e-01	 1.636824680712989e+00	 3.527828119053362e+00
 2.548263910526922e-01	 1.639136224671292e+00	 3.462804886519129e+00
 2.403994846046127e-01	 1.641314143135618e+00	 3.401439884431586e+00
 2.259960008711971e-01	 1.643359311821501e+00	 3.343673719237803e+00
 2.116175778644689e-01	 1.645272630208300e+00	 3.289464431053017e+00
 1.972658279842164e-01	 1.647055020811086e+00	 3.238786654795933e+00
 1.829423377127359e-01	 1.648707428450677e+00	 3.191631149225964e+00
 1.686486673314025e-01	 1.650230819522511e+00	 3.148004617201111e+00
 1.543863506588658e-01	 1.651626181265029e+00	 3.107929743384288e+00
 1.401568948106434e-01	 1.652894521028216e+00	 3.071445378882580e+00
 2.857560440327510e-01	 1.645969322569364e+00	 3.667803709512903e+00
 2.711846978053659e-01	 1.648432689901140e+00	 3.599600890914538e+00
 2.566335651037346e-01	 1.650760626832802e+00	 3.535098979377396e+00
 2.421043461329488e-01	 1.652953990627199e+00	 3.474220813972005e+00
 2.275987159857290e-01	 1.655013663210252e+00	 3.416906098848785e+00
 2.131183242905107e-01	 1.656940550440239e+00	 3.363110656626858e+00
 1.986647948818574e-01	 1.658735581374510e+00	 3.312806137101219e+00
 1.842397254930400e-01	 1.660399707534353e+00	 3.265980097397837e+00
 1.698446874705971e-01	 1.661933902168675e+00	 3.222636372380657e+00
 1.554812255106737e-01	 1.663339159517203e+00	 3.182795657217211e+00
 1.411508574169107e-01	 1.664616494073832e+00	 3.146496227494799e+00
 2.877682940964190e-01	 1.657559985104222e+00	 3.741827917009857e+00
 2.730943386925722e-01	 1.660040699089383e+00	 3.674053480420159e+00
 2.584407391550811e-01	 1.662385028994428e+00	 3.609946525316152e+00
 2.438092076616027e-01	 1.664593838118926e+00	 3.549432231940465e+00
 2.292014311005850e-01	 1.666668014599182e+00	 3.492450505478486e+00
 2.146190707168759e-01	 1.668608470672391e+00	 3.438955802728652e+00
 2.000637617798152e-01	 1.670416141938185e+00	 3.388917422576862e+00
 1.855371132736487e-01	 1.672091986618318e+00	 3.342320171506163e+00
 1.710407076100789e-01	 1.673636984815168e+00	 3.299165318230876e+00
 1.565761003627471e-01	 1.675052137769746e+00	 3.259471754868477e+00
 1.421448200234176e-01	 1.676338467119861e+00	 3.223277285769894e+00
 2.897805441604236e-01	 1.669150647639183e+00	 3.818298858413631e+00
 2.750039795801460e-01	 1.671648708277761e+00	 3.750864853556707e+00
 2.602479132068118e-01	 1.674009431156230e+00	 3.687067265036121e+00
 2.455140691906449e-01	 1.676233685610870e+00	 3.626834571806556e+00
 2.308041462158228e-01	 1.678322365988375e+00	 3.570107545036625e+00
 2.161198171436074e-01	 1.680276390904855e+00	 3.516839683598064e+00
 2.014627286781165e-01	 1.682096702502220e+00	 3.466998122076965e+00
 1.868345010545726e-01	 1.683784265702692e+00	 3.420564917424006e+00
 1.722367277498437e-01	 1.685340067462120e+00	 3.377538623433094e+00
 1.576709752150690e-01	 1.686765116022797e+00	 3.337936065771610e+00
 1.431387826301379e-01	 1.688060440166442e+00	 3.301794234234113e+00
 2.917927942248484e-01	 1.680741310174281e+00	 3.896857902904958e+00
 2.769136204681719e-01	 1.683256717466321e+00	 3.829715902667822e+00
 2.620550872590066e-01	 1.685633833318265e+00	 3.766182081708469e+00
 2.472189307201460e-01	 1.687873533103103e+00	 3.706188738885396e+00
 2.324068613315001e-01	 1.689976717377917e+00	 3.649677732687941e+00
 2.176205635707480e-01	 1.691944311137728e+00	 3.596601562696131e+00
 2.028616955767880e-01	 1.693777263066728e+00	 3.546924932495817e+00
 1.881318888358223e-01	 1.695476544787600e+00	 3.500626694846084e+00
 1.734327478898873e-01	 1.697043150109664e+00	 3.457702083181326e+00
 1.587658500676227e-01	 1.698478094276495e+00	 3.418165137289706e+00
 1.441327452370459e-01	 1.699782413213720e+00	 3.382051235212759e+00
 1.341931191795227e-01	 1.582562682755214e+00	 2.656963149399370e+00
 1.206043186192986e-01	 1.583656243929987e+00	 2.620390670694425e+00
 1.070497455152280e-01	 1.584630212147401e+00	 2.587994017850359e+00
 9.353073337402246e-02	 1.585485604633047e+00	 2.559698077262503e+00
 8.004859027626750e-02	 1.586223455055534e+00	 2.535427627266602e+00
 6.660459874068848e-02	 1.586844812846041e+00	 2.515105372477881e+00
 5.320001560660024e-02	 1.587350742521082e+00	 2.498649926388196e+00
 3.983607193423978e-02	 1.587742323008995e+00	 2.485973712967758e+00
 2.651397292266706e-02	 1.588020646980655e+00	 2.476980761331495e+00
 1.323489784490775e-02	 1.588186820184863e+00	 2.471564370843871e+00
 0.000000000000000e+00	 1.588241960788888e+00	 2.469604627547433e+00
 1.351870817838078e-01	 1.594284655801342e+00	 2.721838115788309e+00
 1.214976295682092e-01	 1.595386316936202e+00	 2.686350779248648e+00
 1.078426583300645e-01	 1.596367499293834e+00	 2.654887484949605e+00
 9.422351145329841e-02	 1.597229227634382e+00	 2.627382675353922e+00
 8.064150670737996e-02	 1.597972543282802e+00	 2.603773737415189e+00
 6.709793611058217e-02	 1.598598503443372e+00	 2.583999319729304e+00
 5.359406581156159e-02	 1.599108180517441e+00	 2.567997576640630e+00
 4.013113598895264e-02	 1.599502661424930e+00	 2.555704308316280e+00
 2.671036076866013e-02	 1.599783046930085e+00	 2.547050969318930e+00
 1.333292815852185e-02	 1.599950450971949e+00	 2.541962521735305e+00
 0.000000000000000e+00	 1.600006000000016e+00	 2.540355112636561e+00
 1.361810443884883e-01	 1.606006628847030e+00	 2.788376855300185e+00
 1.223909405175159e-01	 1.607116389942014e+00	 2.753756634008203e+00
 1.086355711452735e-01	 1.608104786439920e+00	 2.723035722100835e+00
 9.491628953290504e-02	 1.608972850635437e+00	 2.696156594569006e+00
 8.123442313876844e-02	 1.609721631509863e+00	 2.673067781514497e+00
 6.759127348069037e-02	 1.610352194040572e+00	 2.653722492876627e+00
 5.398811601667477e-02	 1.610865618513740e+00	 2.638077147638723e+00
 4.042620004375899e-02	 1.611262999840868e+00	 2.626089774710505e+00
 2.690674861469834e-02	 1.611545446879569e+00	 2.617718256410689e+00
 1.343095847214812e-02	 1.611714081759124e+00	 2.612918389231011e+00
 0.000000000000000e+00	 1.611770039211243e+00	 2.611641740491021e+00
 1.371750069935380e-01	 1.617728601892419e+00	 2.856594332850546e+00
 1.232842514671878e-01	 1.618846462947569e+00	 2.822647165845992e+00
 1.094284839608230e-01	 1.619842073585800e+00	 2.792497348807754e+00
 9.560906761281165e-02	 1.620716473636348e+00	 2.766093555234256e+00
 8.182733957040610e-02	 1.621470719736848e+00	 2.743393689017937e+00
 6.808461085099146e-02	 1.622105884637762e+00	 2.724363842566063e+00
 5.438216622192400e-02	 1.622623056510094e+00	 2.708977135708587e+00
 4.072126409864890e-02	 1.623023338256917e+00	 2.697212400678289e+00
 2.710313646077679e-02	 1.623307846829212e+00	 2.689052682414158e+00
 1.352898878578523e-02	 1.623477712546488e+00	 2.684483527424023e+00
 0.000000000000000e+00	 1.623534078422672e+00	 2.683491038587966e+00
 1.381689695989311e-01	 1.629450574937652e+00	 2.926503945977796e+00
 1.241775624171939e-01	 1.630576535953006e+00	 2.893059740555985e+00
 1.102213967766804e-01	 1.631579360731613e+00	 2.863329483006121e+00
 9.630184569298766e-02	 1.632460096637251e+00	 2.837265893269018e+00
 8.242025600226614e-02	 1.633219807963887e+00	 2.814834168251891e+00
 6.857794822146382e-02	 1.633859575235067e+00	 2.796011300245170e+00
 5.477621642729353e-02	 1.634380494506620e+00	 2.780785251162589e+00
 4.101632815361250e-02	 1.634783676673191e+00	 2.769153945892195e+00
 2.729952430689063e-02	 1.635070246779118e+00	 2.761124052259234e+00
 1.362701909943183e-02	 1.635241343334142e+00	 2.756709519320439e+00
 0.000000000000000e+00	 1.635298117634399e+00	 2.755929850089974e+00
 1.391629322046416e-01	 1.641172547982870e+00	 2.998117532586539e+00
 1.250708733675032e-01	 1.642306608958470e+00	 2.965030171841727e+00
 1.110143095928138e-01	 1.643316647877503e+00	 2.935587758083585e+00
 9.699462377340244e-02	 1.644203719638282e+00	 2.909744579872681e+00
 8.301317243432166e-02	 1.644968896191108e+00	 2.887470727260730e+00
 6.907128559208581e-02	 1.645613265832611e+00	 2.868751798508084e+00
 5.517026663276768e-02	 1.646137932503437e+00	 2.853588436345540e+00
 4.131139220863984e-02	 1.646544015089798e+00	 2.841995654976035e+00
 2.749591215303495e-02	 1.646832646729393e+00	 2.834001923483780e+00
 1.372504941308659e-02	 1.647004974122187e+00	 2.829647975791628e+00
 0.000000000000000e+00	 1.647062156846527e+00	 2.828985321916066e+00
 1.401568948106434e-01	 1.652894521028216e+00	 3.071445378882572e+00
 1.259641843180848e-01	 1.654036681964102e+00	 3.038592734114287e+00
 1.118072224091907e-01	 1.655053935023606e+00	 3.009326339412551e+00
 9.768740185402533e-02	 1.655947342639578e+00	 2.983599240522443e+00
 8.360608886654584e-02	 1.656717984418644e+00	 2.961383693847410e+00
 6.956462296283582e-02	 1.657366956430516e+00	 2.942671290615030e+00
 5.556431683833065e-02	 1.657895370500659e+00	 2.927472882927752e+00
 4.160645626372102e-02	 1.658304353506849e+00	 2.915818270724910e+00
 2.769229999920493e-02	 1.658595046680142e+00	 2.907755613400962e+00
 1.382307972674819e-02	 1.658768604910726e+00	 2.903350534571278e+00
 0.000000000000000e+00	 1.658826196059155e+00	 2.902684893321283e+00
 1.411508574169107e-01	 1.664616494073832e+00	 3.146496227494791e+00
 1.268574952689077e-01	 1.665766754970047e+00	 3.113780175110158e+00
 1.126001352257789e-01	 1.666791222170067e+00	 3.084597940425932e+00
 9.838017993482560e-02	 1.667690965641274e+00	 3.058898173313479e+00
 8.419900529891189e-02	 1.668467072646624e+00	 3.036652234849402e+00
 7.005796033369220e-02	 1.669120647028907e+00	 3.017854769227599e+00
 5.595836704396671e-02	 1.669652808498404e+00	 3.002524048482924e+00
 4.190152031884609e-02	 1.670064691924455e+00	 2.990702046771875e+00
 2.788868784539565e-02	 1.670357446631470e+00	 2.982454205963429e+00
 1.392111004041528e-02	 1.670532235699859e+00	 2.977868859295246e+00
 0.000000000000000e+00	 1.670590235272382e+00	 2.977056284961765e+00
 1.421448200234176e-01	 1.676338467119861e+00	 3.223277285769894e+00
 1.277508062199410e-01	 1.677496827976445e+00	 3.190623728338284e+00
 1.133930480425462e-01	 1.678528509317023e+00	 3.161453838251837e+00
 9.907295801577277e-02	 1.679434588643507e+00	 3.135708366678051e+00
 8.479192173139288e-02	 1.680216160875179e+00	 3.113354374686693e+00
 7.055129770463339e-02	 1.680874337627908e+00	 3.094386284396861e+00
 5.635241724966015e-02	 1.681410246496788e+00	 3.078826672384336e+00
 4.219658437400520e-02	 1.681825030342726e+00	 3.066726759725773e+00
 2.808507569160225e-02	 1.682119846583481e+00	 3.058166558340226e+00
 1.401914035408654e-02	 1.682295866489688e+00	 3.053254638583427e+00
 0.000000000000000e+00	 1.682354274486310e+00	 3.052127488417874e+00
 1.431387826301379e-01	 1.688060440166442e+00	 3.301794234234109e+00
 1.286441171711537e-01	 1.689226900983441e+00	 3.269153125362888e+00
 1.141859608594602e-01	 1.690265796464615e+00	 3.239943888931157e+00
 9.976573609683613e-02	 1.691178211646414e+00	 3.214095516506680e+00
 8.538483816396208e-02	 1.691965249104439e+00	 3.191567013218868e+00
 7.104463507563764e-02	 1.692628028227641e+00	 3.172348960840902e+00
 5.674646745539521e-02	 1.693167684495929e+00	 3.156464791055666e+00
 4.249164842918840e-02	 1.693585368761771e+00	 3.143971720806884e+00
 2.828146353781986e-02	 1.693882246536281e+00	 3.134961307219206e+00
 1.411717066776062e-02	 1.694059497280314e+00	 3.129559585160098e+00
 0.000000000000000e+00	 1.694118313701038e+00	 3.127926756157151e+00
 1.441327452370459e-01	 1.699782413213720e+00	 3.382051235212752e+00
 1.295374281225147e-01	 1.700956973991177e+00	 3.349396607931403e+00
 1.149788736764887e-01	 1.702003083612986e+00	 3.320116542238816e+00
 1.004585141779850e-01	 1.702921834650128e+00	 3.294124042706894e+00
 8.597775459659256e-02	 1.703714337334534e+00	 3.271365942942414e+00
 7.153797244668345e-02	 1.704381718828231e+00	 3.251825014547296e+00
 5.714051766115616e-02	 1.704925122495943e+00	 3.235521752602899e+00
 4.278671248438577e-02	 1.705345707181702e+00	 3.222515787003584e+00
 2.847785138404361e-02	 1.705644646489975e+00	 3.212906874848762e+00
 1.421520098143619e-02	 1.705823128071838e+00	 3.206835435012416e+00
 0.000000000000000e+00	 1.705882352916666e+00	 3.204482591913034e+00
 1.705882352916666e+00	 0.000000000000000e+00	 1.380436219467823e+01
 1.705823128071838e+00	 1.421520098143525e-02	 1.379819063551412e+01
 1.705644646489975e+00	 2.847785138404280e-02	 1.379544110628528e+01
 1.705345707181702e+00	 4.278671248438510e-02	 1.379544990796382e+01
 1.704925122495943e+00	 5.714051766115563e-02	 1.379758199493314e+01
 1.704381718828230e+00	 7.153797244668304e-02	 1.380123248590325e+01
 1.703714337334535e+00	 8.597775459659229e-02	 1.380582822882632e+01
 1.702921834650128e+00	 1.004585141779849e-01	 1.381082941477910e+01
 1.702003083612986e+00	 1.149788736764887e-01	 1.381573123370583e+01
 1.700956973991177e+00	 1.295374281225149e-01	 1.382006556315563e+01
 1.699782413213720e+00	 1.441327452370459e-01	 1.382340267929151e+01
 1.717646392133243e+00	 0.000000000000000e+00	 1.373005265685459e+01
 1.717586758864313e+00	 1.431323129511096e-02	 1.372377695737392e+01
 1.717407046444617e+00	 2.867423923026773e-02	 1.372092461872762e+01
 1.717106045602576e+00	 4.308177653958646e-02	 1.372083719316394e+01
 1.716682560496894e+00	 5.753456786692603e-02	 1.372288501785307e+01
 1.716135409429748e+00	 7.203130981774739e-02	 1.372646875095862e+01
 1.715463425565541e+00	 8.657067102925493e-02	 1.373102097440642e+01
 1.714665457654735e+00	 1.011512922591850e-01	 1.373600785873188e+01
 1.713740370762221e+00	 1.157717864935940e-01	 1.374093088320714e+01
 1.712687046999744e+00	 1.304307390739856e-01	 1.374532860260604e+01
 1.711504386261788e+00	 1.451267078441047e-01	 1.374877845000963e+01
 1.729410431350621e+00	 0.000000000000000e+00	 1.365855014546893e+01
 1.729350389657586e+00	 1.441126160878544e-02	 1.365220062061826e+01
 1.729169446400057e+00	 2.887062707648853e-02	 1.364924975340700e+01
 1.728866384024248e+00	 4.337684059478045e-02	 1.364904957650501e+01
 1.728439998498639e+00	 5.792861807268682e-02	 1.365098082539920e+01
 1.727889100032050e+00	 7.252464718880205e-02	 1.365445449084067e+01
 1.727212513797325e+00	 8.716358746191143e-02	 1.365891345145021e+01
 1.726409080660103e+00	 1.018440703403875e-01	 1.366383418231700e+01
 1.725477657912199e+00	 1.165646993107163e-01	 1.366872853314475e+01
 1.724417120009028e+00	 1.313240500254958e-01	 1.367314556756248e+01
 1.723226359310542e+00	 1.461206704512346e-01	 1.367667345316656e+01
 1.741174470568598e+00	 0.000000000000000e+00	 1.358958014691780e+01
 1.741114020451461e+00	 1.450929192245727e-02	 1.358321627738719e+01
 1.740931846356097e+00	 2.906701492269983e-02	 1.358019962189812e+01
 1.740626722446518e+00	 4.367190464995548e-02	 1.357989788050962e+01
 1.740197436500979e+00	 5.832266827841812e-02	 1.358170715221934e+01
 1.739642790634945e+00	 7.301798455981741e-02	 1.358505349491539e+01
 1.738961602029694e+00	 8.775650389452111e-02	 1.358939457973935e+01
 1.738152703666049e+00	 1.025368484215396e-01	 1.359422143619520e+01
 1.737214945062743e+00	 1.173576121277906e-01	 1.359906028195355e+01
 1.736147193018866e+00	 1.322173609769676e-01	 1.360347442926803e+01
 1.734948332359832e+00	 1.471146330583449e-01	 1.360706625777037e+01
 1.752938509786976e+00	 0.000000000000000e+00	 1.352288373659428e+01
 1.752877651245734e+00	 1.460732223612507e-02	 1.351659036396565e+01
 1.752694246312537e+00	 2.926340276889626e-02	 1.351356551844849e+01
 1.752387060869187e+00	 4.396696870509991e-02	 1.351319771478372e+01
 1.751954874503718e+00	 5.871671848410018e-02	 1.351490333254484e+01
 1.751396481238239e+00	 7.351132193076394e-02	 1.351812817462336e+01
 1.750710690262460e+00	 8.834942032704340e-02	 1.352234913520365e+01
 1.749896326672389e+00	 1.032296265025889e-01	 1.352707597410698e+01
 1.748952232213680e+00	 1.181505249447515e-01	 1.353185319189386e+01
 1.747877266029092e+00	 1.331106719283230e-01	 1.353626199798240e+01
 1.746670305409506e+00	 1.481085956653449e-01	 1.353992236178632e+01
 1.764702549005553e+00	 0.000000000000000e+00	 1.345821705968540e+01
 1.764641282040208e+00	 1.470535254978743e-02	 1.345210066270500e+01
 1.764456646269177e+00	 2.945979061507243e-02	 1.344914656201282e+01
 1.764147399292058e+00	 4.426203276020212e-02	 1.344876919708269e+01
 1.763712312506659e+00	 5.911076868971320e-02	 1.345041009913271e+01
 1.763150171841735e+00	 7.400465930161204e-02	 1.345353943906776e+01
 1.762459778495432e+00	 8.894233675943765e-02	 1.345765770084683e+01
 1.761639949678941e+00	 1.039224045834827e-01	 1.346229747774842e+01
 1.760689519364833e+00	 1.189434377615342e-01	 1.346702538640664e+01
 1.759607339039541e+00	 1.340039828794841e-01	 1.347144409126126e+01
 1.758392278459412e+00	 1.491025582721442e-01	 1.347519442969905e+01
 1.776466588224131e+00	 0.000000000000000e+00	 1.339535083261011e+01
 1.776404912834682e+00	 1.480338286344297e-02	 1.338953588139520e+01
 1.776219046225818e+00	 2.965617846122297e-02	 1.338674935266286e+01
 1.775907737714931e+00	 4.455709681525048e-02	 1.338643668579419e+01
 1.775469750509605e+00	 5.950481889523737e-02	 1.338806939078688e+01
 1.774903862445242e+00	 7.449799667233210e-02	 1.339114657646611e+01
 1.774208866728422e+00	 8.953525319166321e-02	 1.339519662094615e+01
 1.773383572685520e+00	 1.046151826641683e-01	 1.339977898245784e+01
 1.772426806516027e+00	 1.197363505780732e-01	 1.340448614594741e+01
 1.771337412050049e+00	 1.348972938303729e-01	 1.340894569851540e+01
 1.770114251509398e+00	 1.500965208786520e-01	 1.341282252429037e+01
 1.788230627442508e+00	 0.000000000000000e+00	 1.333406986414709e+01
 1.788168543628956e+00	 1.490141317709028e-02	 1.332869524928383e+01
 1.787981446182261e+00	 2.985256630734251e-02	 1.332618764171041e+01
 1.787668076137607e+00	 4.485216087023342e-02	 1.332602852331232e+01
 1.787227188512360e+00	 5.989886910065293e-02	 1.332772416806313e+01
 1.786657553048565e+00	 7.499133404289458e-02	 1.333080714119550e+01
 1.785957954961239e+00	 9.012816962367949e-02	 1.333483795837387e+01
 1.785127195691943e+00	 1.053079607445933e-01	 1.333940690367607e+01
 1.784164093667087e+00	 1.205292633943035e-01	 1.334413600236894e+01
 1.783067485060452e+00	 1.357906047809115e-01	 1.334868114202036e+01
 1.781836224559314e+00	 1.510904834847778e-01	 1.335273433289858e+01
 1.799994666660487e+00	 0.000000000000000e+00	 1.327417259535204e+01
 1.799932174422830e+00	 1.499944349072795e-02	 1.326938812898029e+01
 1.799743846138304e+00	 3.004895415342566e-02	 1.326728201491569e+01
 1.799428414559887e+00	 4.514722492513925e-02	 1.326737678980468e+01
 1.798984626514725e+00	 6.029291930594001e-02	 1.326921823678317e+01
 1.798411243651510e+00	 7.548467141326991e-02	 1.327237684617455e+01
 1.797707043193695e+00	 9.072108605544585e-02	 1.327644945489856e+01
 1.796870818698026e+00	 1.060007388247049e-01	 1.328106106414397e+01
 1.795901380817838e+00	 1.213221762101600e-01	 1.328586683191847e+01
 1.794797558070583e+00	 1.366839157310219e-01	 1.329055423453891e+01
 1.793558197609008e+00	 1.520844460904311e-01	 1.329484538841136e+01
 1.811758705877864e+00	 0.000000000000000e+00	 1.321547065740973e+01
 1.811695805216105e+00	 1.509747380435461e-02	 1.321143364352322e+01
 1.811506246093749e+00	 3.024534199946705e-02	 1.320985958818653e+01
 1.811188752981575e+00	 4.544228897995641e-02	 1.321031706689898e+01
 1.810742064516506e+00	 6.068696951107889e-02	 1.321239607900240e+01
 1.810164934253883e+00	 7.597800878342847e-02	 1.321570946033964e+01
 1.809456131425599e+00	 9.131400248692170e-02	 1.321989449432903e+01
 1.808614441703588e+00	 1.066935169044507e-01	 1.322461472180369e+01
 1.807638667968104e+00	 1.221150890255774e-01	 1.322956194691206e+01
 1.806527631080279e+00	 1.375772266806263e-01	 1.323445843370915e+01
 1.805280170658329e+00	 1.530784086955211e-01	 1.323905928523138e+01
 1.823522745094442e+00	 0.000000000000000e+00	 1.315778844661170e+01
 1.823459436008580e+00	 1.519550411796885e-02	 1.315466031792599e+01
 1.823268646048397e+00	 3.044172984546130e-02	 1.315375371520371e+01
 1.822949091402470e+00	 4.573735303467325e-02	 1.315468821084214e+01
 1.822499502517502e+00	 6.108101971604972e-02	 1.315710269109466e+01
 1.821918624855489e+00	 7.647134615334071e-02	 1.316065671098519e+01
 1.821205219656762e+00	 9.190691891806632e-02	 1.316503206837318e+01
 1.820358064708441e+00	 1.073862949837780e-01	 1.316993459837132e+01
 1.819375955117709e+00	 1.229080018404906e-01	 1.317509618614562e+01
 1.818257704089375e+00	 1.384705376296465e-01	 1.318027699334485e+01
 1.817002143707124e+00	 1.540723712999574e-01	 1.318526789044101e+01
 1.699782413213720e+00	 1.441327452370459e-01	 1.382340267929151e+01
 1.698478094276495e+00	 1.587658500676220e-01	 1.382677259943048e+01
 1.697043150109665e+00	 1.734327478898867e-01	 1.383126761669315e+01
 1.695476544787600e+00	 1.881318888358217e-01	 1.383661302809340e+01
 1.693777263066728e+00	 2.028616955767876e-01	 1.384257588203601e+01
 1.691944311137729e+00	 2.176205635707476e-01	 1.384896645425894e+01
 1.689976717377917e+00	 2.324068613314997e-01	 1.385563963970447e+01
 1.687873533103103e+00	 2.472189307201458e-01	 1.386249623481327e+01
 1.685633833318265e+00	 2.620550872590064e-01	 1.386948408247426e+01
 1.683256717466321e+00	 2.769136204681718e-01	 1.387659904961086e+01
 1.680741310174281e+00	 2.917927942248484e-01	 1.388388580516852e+01
 1.711504386261788e+00	 1.451267078441047e-01	 1.374877845000963e+01
 1.710191072530931e+00	 1.598607249203763e-01	 1.375228233303454e+01
 1.708746232757889e+00	 1.746287680301865e-01	 1.375690513056005e+01
 1.707168823873126e+00	 1.894292766173856e-01	 1.376238102817812e+01
 1.705457823631786e+00	 2.042606624758296e-01	 1.376848633055343e+01
 1.703612231371085e+00	 2.191213099983100e-01	 1.377504108232364e+01
 1.701631068767872e+00	 2.340095764476414e-01	 1.378191061757861e+01
 1.699513380595683e+00	 2.489237922501410e-01	 1.378900701173024e+01
 1.697258235480582e+00	 2.638622613117090e-01	 1.379629040718205e+01
 1.694864726655104e+00	 2.788232613566988e-01	 1.380377018181665e+01
 1.692331972709550e+00	 2.938050442897436e-01	 1.381150592695725e+01
 1.723226359310542e+00	 1.461206704512346e-01	 1.367667345316657e+01
 1.721904050786017e+00	 1.609555997732429e-01	 1.368028184934091e+01
 1.720449315406720e+00	 1.758247881706469e-01	 1.368500320676550e+01
 1.718861102959210e+00	 1.907266643991619e-01	 1.369058241460805e+01
 1.717138384197351e+00	 2.056596293751366e-01	 1.369680652569479e+01
 1.715280151604894e+00	 2.206220564261863e-01	 1.370350652266979e+01
 1.713285420158227e+00	 2.356122915641393e-01	 1.371055902650221e+01
 1.711153228088607e+00	 2.506286537805246e-01	 1.371788792047511e+01
 1.708882637643193e+00	 2.656694353648179e-01	 1.372546586024241e+01
 1.706472735844135e+00	 2.807329022456326e-01	 1.373331563800147e+01
 1.703922635245023e+00	 2.958172943550246e-01	 1.374151136631720e+01
 1.734948332359832e+00	 1.471146330583449e-01	 1.360706625777037e+01
 1.733617029041618e+00	 1.620504746261189e-01	 1.361076842450928e+01
 1.732152398056040e+00	 1.770208083111538e-01	 1.361557531768428e+01
 1.730553382045755e+00	 1.920240521810271e-01	 1.362124423662487e+01
 1.728818944763347e+00	 2.070585962745763e-01	 1.362757435897590e+01
 1.726948071839103e+00	 2.221228028542388e-01	 1.363440865269021e+01
 1.724939771548947e+00	 2.372150066808525e-01	 1.364163574529769e+01
 1.722793075581866e+00	 2.523335153111553e-01	 1.364919172291092e+01
 1.720507039806105e+00	 2.674766094181954e-01	 1.365706182873116e+01
 1.718080745033433e+00	 2.826425431348432e-01	 1.366528202812467e+01
 1.715513297780732e+00	 2.978295444205739e-01	 1.367394040467178e+01
 1.746670305409506e+00	 1.481085956653449e-01	 1.353992236178632e+01
 1.745330007297596e+00	 1.631453494789017e-01	 1.354372458175673e+01
 1.743855480705732e+00	 1.782168284515932e-01	 1.354861874243270e+01
 1.742245661132664e+00	 1.933214399628569e-01	 1.355437615037533e+01
 1.740499505329699e+00	 2.084575631740170e-01	 1.356080936800384e+01
 1.738615992073657e+00	 2.236235492823294e-01	 1.356777427227117e+01
 1.736594122940001e+00	 2.388177217976396e-01	 1.357517208674402e+01
 1.734432923075444e+00	 2.540383768418919e-01	 1.358295135888083e+01
 1.732131441969320e+00	 2.692837834717040e-01	 1.359110985144664e+01
 1.729688754223018e+00	 2.845521840242005e-01	 1.359969631415152e+01
 1.727103960316710e+00	 2.998417944862732e-01	 1.360881209876788e+01
 1.758392278459412e+00	 1.491025582721442e-01	 1.347519442969905e+01
 1.757042985553817e+00	 1.642402243314883e-01	 1.347911839602690e+01
 1.755558563355679e+00	 1.794128485918511e-01	 1.348411493591779e+01
 1.753937940219841e+00	 1.946188277445274e-01	 1.348997084953446e+01
 1.752180065896329e+00	 2.098565300733262e-01	 1.349651322578862e+01
 1.750283912308500e+00	 2.251242957103201e-01	 1.350361164882491e+01
 1.748248474331355e+00	 2.404204369143597e-01	 1.351118039528004e+01
 1.746072770569328e+00	 2.557432383725932e-01	 1.351918059344836e+01
 1.743755844132845e+00	 2.710909575252059e-01	 1.352762231246896e+01
 1.741296763412910e+00	 2.864618249135744e-01	 1.353656654662914e+01
 1.738694622852988e+00	 3.018540445520046e-01	 1.354612705687936e+01
 1.770114251509398e+00	 1.500965208786520e-01	 1.341282252429037e+01
 1.768755963810146e+00	 1.653350991837761e-01	 1.341690379096561e+01
 1.767261646005764e+00	 1.806088687318135e-01	 1.342202988846030e+01
 1.765630219307188e+00	 1.959162155259148e-01	 1.342800448494807e+01
 1.763860626463164e+00	 2.112554969723722e-01	 1.343467021769780e+01
 1.761951832543580e+00	 2.266250421380730e-01	 1.344191104876964e+01
 1.759902825722974e+00	 2.420231520308715e-01	 1.344965463014148e+01
 1.757712618063504e+00	 2.574480999031181e-01	 1.345787464874172e+01
 1.755380246296682e+00	 2.728981315785637e-01	 1.346659311867853e+01
 1.752904772603130e+00	 2.883714658028348e-01	 1.347588258476165e+01
 1.750285285389600e+00	 3.038662946176504e-01	 1.348586819823739e+01
 1.781836224559314e+00	 1.510904834847778e-01	 1.335273433289858e+01
 1.780468942066446e+00	 1.664299740356621e-01	 1.335702082855764e+01
 1.778964728655870e+00	 1.818048888713662e-01	 1.336231447642601e+01
 1.777322498394609e+00	 1.972136033068952e-01	 1.336843707379921e+01
 1.775541187030126e+00	 2.126544638710228e-01	 1.337524770662248e+01
 1.773619752778842e+00	 2.281257885654502e-01	 1.338264525608058e+01
 1.771557177114827e+00	 2.436258671470340e-01	 1.339057093460303e+01
 1.769352465557958e+00	 2.591529614333252e-01	 1.339901082111146e+01
 1.767004648460838e+00	 2.747053056316394e-01	 1.340799836197191e+01
 1.764512781793697e+00	 2.902811066918518e-01	 1.341761680074458e+01
 1.761875947926577e+00	 3.058785446830924e-01	 1.342800149645973e+01
 1.793558197609008e+00	 1.520844460904311e-01	 1.329484538841136e+01
 1.792181920322584e+00	 1.675248488870438e-01	 1.329939599175971e+01
 1.790667811305880e+00	 1.830009090103953e-01	 1.330490480427519e+01
 1.789014777482006e+00	 1.985109910873445e-01	 1.331121289877785e+01
 1.787221747597140e+00	 2.140534307691460e-01	 1.331819658689411e+01
 1.785287673014230e+00	 2.296265349923139e-01	 1.332577007850356e+01
 1.783211528506877e+00	 2.452285822627059e-01	 1.333388819196051e+01
 1.780992313052679e+00	 2.608578229630735e-01	 1.334254908427275e+01
 1.778629050625316e+00	 2.765124796842955e-01	 1.335179696687566e+01
 1.776120790984632e+00	 2.921907475804952e-01	 1.336172476907882e+01
 1.773466610463951e+00	 3.078907947482129e-01	 1.337247670771162e+01
 1.805280170658329e+00	 1.530784086955211e-01	 1.323905928523138e+01
 1.803894898578423e+00	 1.686197237378182e-01	 1.324394246044722e+01
 1.802370893955676e+00	 1.841969291487867e-01	 1.324972253842121e+01
 1.800707056569283e+00	 1.998083788671388e-01	 1.325626089770775e+01
 1.798902308164130e+00	 2.154523976666097e-01	 1.326345172746248e+01
 1.796955593249691e+00	 2.311272814185258e-01	 1.327122484199172e+01
 1.794865879899094e+00	 2.468312973777461e-01	 1.327954856885536e+01
 1.792632160547651e+00	 2.625626844922217e-01	 1.328843267906957e+01
 1.790253452790121e+00	 2.783196537363944e-01	 1.329793132422081e+01
 1.787728800175954e+00	 2.941003884686350e-01	 1.330814594154708e+01
 1.785057273001756e+00	 3.099030448128939e-01	 1.331922808429237e+01
 1.817002143707124e+00	 1.540723712999574e-01	 1.318526789044101e+01
 1.815607876833829e+00	 1.697145985878827e-01	 1.319056038097704e+01
 1.814073976605143e+00	 1.853929492864264e-01	 1.319667523326686e+01
 1.812399335656343e+00	 2.011057666461542e-01	 1.320349504406104e+01
 1.810582868731020e+00	 2.168513645632819e-01	 1.321093240482042e+01
 1.808623513485171e+00	 2.326280278439484e-01	 1.321893287389674e+01
 1.806520231291444e+00	 2.484340124920137e-01	 1.322747804651378e+01
 1.804272008042861e+00	 2.642675460206286e-01	 1.323658869046452e+01
 1.801877854955257e+00	 2.801268277877985e-01	 1.324632791150899e+01
 1.799336809367684e+00	 2.960100293561412e-01	 1.325680430849981e+01
 1.796647935540022e+00	 3.119152948770172e-01	 1.326817507430554e+01
 1.680741310174281e+00	 2.917927942248484e-01	 1.388388580516852e+01
 1.678087224879063e+00	 3.066883139120778e-01	 1.389105535743943e+01
 1.675293222358129e+00	 3.216009250092646e-01	 1.389791391995812e+01
 1.672358506335359e+00	 3.365288218423690e-01	 1.390471509275316e+01
 1.669282308621254e+00	 3.514701748579594e-01	 1.391175588260546e+01
 1.666063889833540e+00	 3.664231310970775e-01	 1.391937572837504e+01
 1.662702540110584e+00	 3.813858146922481e-01	 1.392751934294379e+01
 1.659197579816814e+00	 3.963563273876144e-01	 1.393533777090279e+01
 1.655548360239373e+00	 4.113327490821487e-01	 1.394294836064820e+01
 1.651754264275156e+00	 4.263131383958614e-01	 1.395056246002332e+01
 1.647814707107448e+00	 4.412955332588941e-01	 1.395843151760051e+01
 1.692331972709550e+00	 2.938050442897436e-01	 1.381150592695725e+01
 1.689659584415037e+00	 3.088032858775226e-01	 1.381915434695720e+01
 1.686846314003143e+00	 3.238187367403900e-01	 1.382647086382100e+01
 1.683891359706492e+00	 3.388495787520890e-01	 1.383373166338123e+01
 1.680793948038021e+00	 3.538939697422958e-01	 1.384125846433580e+01
 1.677553334516549e+00	 3.689500439737511e-01	 1.384941775982332e+01
 1.674168804385110e+00	 3.840159126426979e-01	 1.385798652907788e+01
 1.670639673321255e+00	 3.990896644026038e-01	 1.386632194252464e+01
 1.666965288138487e+00	 4.141693659111186e-01	 1.387460489346873e+01
 1.663145027478052e+00	 4.292530624001850e-01	 1.388306441483727e+01
 1.659178302490238e+00	 4.443387782691983e-01	 1.389197093940317e+01
 1.703922635245023e+00	 2.958172943550246e-01	 1.374151136631720e+01
 1.701231943951178e+00	 3.109182578433092e-01	 1.374965331054872e+01
 1.698399405648291e+00	 3.260365484717931e-01	 1.375744429709328e+01
 1.695424213077733e+00	 3.411703356620088e-01	 1.376518278762993e+01
 1.692305587454873e+00	 3.563177646267455e-01	 1.377321467868155e+01
 1.689042779199623e+00	 3.714769568504486e-01	 1.378192932961212e+01
 1.685635068659691e+00	 3.866460105930850e-01	 1.379093066028951e+01
 1.682081766825741e+00	 4.018230014174528e-01	 1.379983632298032e+01
 1.678382216037640e+00	 4.170059827398836e-01	 1.380884972584542e+01
 1.674535790680984e+00	 4.321929864042604e-01	 1.381821663539944e+01
 1.670541897873062e+00	 4.473820232792364e-01	 1.382822527605254e+01
 1.715513297780732e+00	 2.978295444205739e-01	 1.367394040467178e+01
 1.712804303487524e+00	 3.130332298093362e-01	 1.368257889993277e+01
 1.709952497293619e+00	 3.282543602033935e-01	 1.369084617300270e+01
 1.706957066449130e+00	 3.434910925720713e-01	 1.369906247500010e+01
 1.703817226871859e+00	 3.587415595112756e-01	 1.370759716677107e+01
 1.700532223882811e+00	 3.740038697271612e-01	 1.371683291520661e+01
 1.697101332934369e+00	 3.892761085434236e-01	 1.372628297264265e+01
 1.693523860330311e+00	 4.045563384321952e-01	 1.373578342961281e+01
 1.689799143936868e+00	 4.198425995684952e-01	 1.374555267557369e+01
 1.685926553883985e+00	 4.351329104081495e-01	 1.375585215190742e+01
 1.681905493255952e+00	 4.504252682890754e-01	 1.376698657467635e+01
 1.727103960316710e+00	 2.998417944862732e-01	 1.360881209876788e+01
 1.724376663024119e+00	 3.151482017755028e-01	 1.361793917377886e+01
 1.721505588939174e+00	 3.304721719351107e-01	 1.362667067710324e+01
 1.718489919820730e+00	 3.458118494822186e-01	 1.363534798244779e+01
 1.715328866289025e+00	 3.611653543958530e-01	 1.364436301779783e+01
 1.712021668566161e+00	 3.765307826038805e-01	 1.365406479010020e+01
 1.708567597209189e+00	 3.919062064937282e-01	 1.366396288076747e+01
 1.704965953835006e+00	 4.072896754468663e-01	 1.367405539003499e+01
 1.701216071836208e+00	 4.226792163970039e-01	 1.368457476686728e+01
 1.697317317087089e+00	 4.380728344119143e-01	 1.369579695885574e+01
 1.693269088638942e+00	 4.534685132987810e-01	 1.370804176339007e+01
 1.738694622852988e+00	 3.018540445520046e-01	 1.354612705687935e+01
 1.735949022561003e+00	 3.172631737417078e-01	 1.355572441041721e+01
 1.733058680584999e+00	 3.326899836668644e-01	 1.356489507363978e+01
 1.730022773192580e+00	 3.481326063923937e-01	 1.357400069145058e+01
 1.726840505706422e+00	 3.635891492804447e-01	 1.358345467373329e+01
 1.723511113249717e+00	 3.790576954805976e-01	 1.359355560051677e+01
 1.720033861484194e+00	 3.945363044440128e-01	 1.360387872432817e+01
 1.716408047339867e+00	 4.100230124615005e-01	 1.361453469357632e+01
 1.712632999735696e+00	 4.255158332254609e-01	 1.362576898325148e+01
 1.708708080290330e+00	 4.410127584156171e-01	 1.363787076577935e+01
 1.704632684022066e+00	 4.565117583084204e-01	 1.365117339623163e+01
 1.750285285389600e+00	 3.038662946176504e-01	 1.348586819823739e+01
 1.747521382098216e+00	 3.193781457078502e-01	 1.349590790367595e+01
 1.744611772231142e+00	 3.349077953985735e-01	 1.350548053510087e+01
 1.741555626564732e+00	 3.504533633025392e-01	 1.351496696848441e+01
 1.738352145124095e+00	 3.660129441650175e-01	 1.352480081783535e+01
 1.735000557933525e+00	 3.815846083573037e-01	 1.353522436688180e+01
 1.731500125759427e+00	 3.971664023942920e-01	 1.354592849955032e+01
 1.727850140844932e+00	 4.127563494761322e-01	 1.355709492866732e+01
 1.724049927635370e+00	 4.283524500539172e-01	 1.356898100743858e+01
 1.720098843493745e+00	 4.439526824193195e-01	 1.358188773619077e+01
 1.715996279405356e+00	 4.595550033180599e-01	 1.359616038766839e+01
 1.761875947926577e+00	 3.058785446830924e-01	 1.342800149645973e+01
 1.759093741635798e+00	 3.214931176738287e-01	 1.343844674262286e+01
 1.756164863877648e+00	 3.371256071301584e-01	 1.344837295573424e+01
 1.753088479937229e+00	 3.527741202125975e-01	 1.345817900967540e+01
 1.749863784542093e+00	 3.684367390495386e-01	 1.346831724770012e+01
 1.746490002617633e+00	 3.841115212339904e-01	 1.347897919125876e+01
 1.742966390034930e+00	 3.997965003445799e-01	 1.349000057649636e+01
 1.739292234350241e+00	 4.154896864907961e-01	 1.350160150680975e+01
 1.735466855535267e+00	 4.311890668824238e-01	 1.351404994878533e+01
 1.731489606697366e+00	 4.468926064230841e-01	 1.352765721525448e+01
 1.727359874788847e+00	 4.625982483277655e-01	 1.354277873715703e+01
 1.773466610463951e+00	 3.078907947482129e-01	 1.337247670771162e+01
 1.770666101173792e+00	 3.236080896395424e-01	 1.338328257594821e+01
 1.767717955524564e+00	 3.393434188615381e-01	 1.339350374975932e+01
 1.764621333310123e+00	 3.550948771225116e-01	 1.340355567035193e+01
 1.761375423960465e+00	 3.708605339339750e-01	 1.341390749366640e+01
 1.757979447302085e+00	 3.866384341106487e-01	 1.342471795053687e+01
 1.754432654310748e+00	 4.024265982948906e-01	 1.343597440274128e+01
 1.750734327855836e+00	 4.182230235055269e-01	 1.344791237374681e+01
 1.746883783435424e+00	 4.340256837110318e-01	 1.346080905890090e+01
 1.742880369901227e+00	 4.498325304269725e-01	 1.347498444671531e+01
 1.738723470172572e+00	 4.656414933376044e-01	 1.349080224421260e+01
 1.785057273001756e+00	 3.099030448128939e-01	 1.331922808429237e+01
 1.782238460712237e+00	 3.257230616048901e-01	 1.333034236168732e+01
 1.779271047171934e+00	 3.415612305926323e-01	 1.334079063497257e+01
 1.776154186683460e+00	 3.574156340322239e-01	 1.335100328018271e+01
 1.772887063379257e+00	 3.732843288182937e-01	 1.336145784826918e+01
 1.769468891986929e+00	 3.891653469872702e-01	 1.337232897601876e+01
 1.765898918586925e+00	 4.050566962452386e-01	 1.338372119406800e+01
 1.762176421361756e+00	 4.209563605203590e-01	 1.339587870841540e+01
 1.758300711335877e+00	 4.368623005397919e-01	 1.340908643594542e+01
 1.754271133105366e+00	 4.527724544310472e-01	 1.342367127956927e+01
 1.750087065556563e+00	 4.686847383476424e-01	 1.344000321441835e+01
 1.796647935540022e+00	 3.119152948770172e-01	 1.326817507430554e+01
 1.793810820251175e+00	 3.278380335697709e-01	 1.327953910294522e+01
 1.790824138819805e+00	 3.437790423233604e-01	 1.329013840240620e+01
 1.787687040057288e+00	 3.597363909416772e-01	 1.330041644455363e+01
 1.784398702798519e+00	 3.757081237024615e-01	 1.331085541308475e+01
 1.780958336672210e+00	 3.916922598638460e-01	 1.332169172002279e+01
 1.777365182863503e+00	 4.076867941956382e-01	 1.333310461276811e+01
 1.773618514868042e+00	 4.236896975353275e-01	 1.334534561023368e+01
 1.769717639236662e+00	 4.396989173687552e-01	 1.335870571812936e+01
 1.765661896309814e+00	 4.557123784353700e-01	 1.337351686494126e+01
 1.761450660940856e+00	 4.717279833579464e-01	 1.339015315678682e+01
 1.647814707107448e+00	 4.412955332588941e-01	 1.395843151760051e+01
 1.643729137230044e+00	 4.562779517325960e-01	 1.396538252336927e+01
 1.639497038179286e+00	 4.712583932907444e-01	 1.397032564791848e+01
 1.635117928102035e+00	 4.862348388821072e-01	 1.397368624456705e+01
 1.630591360022501e+00	 5.012052514049571e-01	 1.397591404934558e+01
 1.625916922452490e+00	 5.161675764078502e-01	 1.397748127409123e+01
 1.621094239986286e+00	 5.311197428119052e-01	 1.397888033653652e+01
 1.616122973879358e+00	 5.460596636542491e-01	 1.398062120201377e+01
 1.611002822610082e+00	 5.609852368522614e-01	 1.398322831156559e+01
 1.605733522423682e+00	 5.758943459882176e-01	 1.398723707161075e+01
 1.600314847857605e+00	 5.907848611139003e-01	 1.399318988087521e+01
 1.659178302490238e+00	 4.443387782691983e-01	 1.389197093940317e+01
 1.655064557865557e+00	 4.594245179117398e-01	 1.390001986231330e+01
 1.650803273578740e+00	 4.745082670056289e-01	 1.390599102162387e+01
 1.646393964453719e+00	 4.895879925759211e-01	 1.391033143440464e+01
 1.641836180432295e+00	 5.046616434726979e-01	 1.391351221478862e+01
 1.637129507188592e+00	 5.197271510766786e-01	 1.391602673558329e+01
 1.632273566728046e+00	 5.347824300264780e-01	 1.391838842283744e+01
 1.627268017970093e+00	 5.498253789671809e-01	 1.392112815664174e+01
 1.622112557313779e+00	 5.648538813198570e-01	 1.392479125156382e+01
 1.616806919185440e+00	 5.798658060716148e-01	 1.392993399044078e+01
 1.611350876567704e+00	 5.948590085857598e-01	 1.393711968578179e+01
 1.670541897873062e+00	 4.473820232792364e-01	 1.382822527605254e+01
 1.666399978501104e+00	 4.625710840906305e-01	 1.383742093986401e+01
 1.662109508978231e+00	 4.777581407203000e-01	 1.384443253448564e+01
 1.657670000805443e+00	 4.929411462695849e-01	 1.384972462027039e+01
 1.653081000842133e+00	 5.081180355403707e-01	 1.385378609995660e+01
 1.648342091924744e+00	 5.232867257455337e-01	 1.385712847168268e+01
 1.643452893469860e+00	 5.384451172411817e-01	 1.386028371063615e+01
 1.638413062060889e+00	 5.535910942803525e-01	 1.386380175118430e+01
 1.633222292017540e+00	 5.687225257878007e-01	 1.386824754140946e+01
 1.627880315947264e+00	 5.838372661554626e-01	 1.387419764225333e+01
 1.622386905277870e+00	 5.989331560581634e-01	 1.388223634397169e+01
 1.681905493255952e+00	 4.504252682890754e-01	 1.376698657467635e+01
 1.677735399136720e+00	 4.657176502693312e-01	 1.377734027903004e+01
 1.673415744377795e+00	 4.810080144348118e-01	 1.378537836371778e+01
 1.668946037157248e+00	 4.962942999631370e-01	 1.379157879560677e+01
 1.664325821252061e+00	 5.115744276079934e-01	 1.379644465191766e+01
 1.659554676660995e+00	 5.268463004144117e-01	 1.380050248782704e+01
 1.654632220211782e+00	 5.421078044559882e-01	 1.380430032811861e+01
 1.649558106151801e+00	 5.573568095937108e-01	 1.380840525321334e+01
 1.644332026721426e+00	 5.725911702560159e-01	 1.381340054993229e+01
 1.638953712709219e+00	 5.878087262396635e-01	 1.381988239758441e+01
 1.633422933988169e+00	 6.030073035309952e-01	 1.382845606043556e+01
 1.693269088638942e+00	 4.534685132987810e-01	 1.370804176339007e+01
 1.689070819772437e+00	 4.688642164479052e-01	 1.371952914784247e+01
 1.684721979777468e+00	 4.842578881492173e-01	 1.372855502955293e+01
 1.680222073509173e+00	 4.996474536566152e-01	 1.373560662295662e+01
 1.675570641662122e+00	 5.150308196755844e-01	 1.374119753522654e+01
 1.670767261397395e+00	 5.304058750833082e-01	 1.374586627195796e+01
 1.665811546953868e+00	 5.457704916708691e-01	 1.375017436207385e+01
 1.660703150242891e+00	 5.611225249072030e-01	 1.375470407067310e+01
 1.655441761425501e+00	 5.764598147244262e-01	 1.376005566851511e+01
 1.650027109471370e+00	 5.917801863241199e-01	 1.376684422702572e+01
 1.644458962698668e+00	 6.070814510041398e-01	 1.377569590813842e+01
 1.704632684022066e+00	 4.565117583084204e-01	 1.365117339623163e+01
 1.700406240408292e+00	 4.720107826264162e-01	 1.366373630170468e+01
 1.696028215177287e+00	 4.875077618635700e-01	 1.367368814517237e+01
 1.691498109861259e+00	 5.030006073500575e-01	 1.368152120165952e+01
 1.686815462072363e+00	 5.184872117431623e-01	 1.368775592758571e+01
 1.681979846133993e+00	 5.339654497522190e-01	 1.369293962835200e+01
 1.676990873696172e+00	 5.494331788857959e-01	 1.369764474009752e+01
 1.671848194334217e+00	 5.648882402207763e-01	 1.370246669264977e+01
 1.666551496129827e+00	 5.803284591929543e-01	 1.370802132060665e+01
 1.661100506233783e+00	 5.957516464087337e-01	 1.371494178963369e+01
 1.655494991409433e+00	 6.111555984774816e-01	 1.372387500544629e+01
 1.715996279405356e+00	 4.595550033180599e-01	 1.359616038766839e+01
 1.711741661044317e+00	 4.751573488049272e-01	 1.360970871658492e+01
 1.707334450577289e+00	 4.907576355779235e-01	 1.362050315836419e+01
 1.702774146213545e+00	 5.063537610435019e-01	 1.362903682777240e+01
 1.698060282482826e+00	 5.219436038107453e-01	 1.363583330783625e+01
 1.693192430870838e+00	 5.375250244211398e-01	 1.364144550349223e+01
 1.688170200438748e+00	 5.530958661007401e-01	 1.364645410415121e+01
 1.682993238425839e+00	 5.686539555343774e-01	 1.365146562041406e+01
 1.677661230834468e+00	 5.841971036615243e-01	 1.365710996002514e+01
 1.672173902996524e+00	 5.997231064934067e-01	 1.366403750824562e+01
 1.666531020120531e+00	 6.152297459509052e-01	 1.367291567817425e+01
 1.727359874788847e+00	 4.625982483277655e-01	 1.354277873715703e+01
 1.723077081680547e+00	 4.783039149835014e-01	 1.355719231347465e+01
 1.718640685977510e+00	 4.940075092923306e-01	 1.356872608529139e+01
 1.714050182566072e+00	 5.097069147369866e-01	 1.357786974657359e+01
 1.709305102893557e+00	 5.253999958783518e-01	 1.358514623663244e+01
 1.704405015607980e+00	 5.410845990900665e-01	 1.359111080434836e+01
 1.699349527181652e+00	 5.567585533156738e-01	 1.359634967587685e+01
 1.694138282517814e+00	 5.724196708479531e-01	 1.360147828918636e+01
 1.688770965539486e+00	 5.880657481300594e-01	 1.360713905856961e+01
 1.683247299759658e+00	 6.036945665780413e-01	 1.361399863230710e+01
 1.677567048832029e+00	 6.193038934242949e-01	 1.362274460696581e+01
 1.738723470172572e+00	 4.656414933376044e-01	 1.349080224421260e+01
 1.734412502317016e+00	 4.814504811622025e-01	 1.350593267451260e+01
 1.729946921377988e+00	 4.972573830068455e-01	 1.351808423673155e+01
 1.725326218918881e+00	 5.130600684305496e-01	 1.352773889799118e+01
 1.720549923304600e+00	 5.288563879460003e-01	 1.353541513013575e+01
 1.715617600345469e+00	 5.446441737589949e-01	 1.354166720941338e+01
 1.710528853924936e+00	 5.604212405305675e-01	 1.354708411404442e+01
 1.705283326610203e+00	 5.761853861614510e-01	 1.355228798104921e+01
 1.699880700244945e+00	 5.919343925984832e-01	 1.355793208343004e+01
 1.694320696523252e+00	 6.076660266625400e-01	 1.356469828878357e+01
 1.688603077543993e+00	 6.233780408975358e-01	 1.357329396067563e+01
 1.750087065556563e+00	 4.686847383476424e-01	 1.344000321441836e+01
 1.745747922953758e+00	 4.845970473410935e-01	 1.345567575115476e+01
 1.741253156778757e+00	 5.005072567215215e-01	 1.346830693713198e+01
 1.736602255272012e+00	 5.164132221242286e-01	 1.347836665527736e+01
 1.731794743716000e+00	 5.323127800137091e-01	 1.348636502704699e+01
 1.726830185083354e+00	 5.482037484279210e-01	 1.349285197282729e+01
 1.721708180668656e+00	 5.640839277453941e-01	 1.349841636449212e+01
 1.716428370703065e+00	 5.799511014748177e-01	 1.350368472941150e+01
 1.710990434950906e+00	 5.958030370667189e-01	 1.350931946486062e+01
 1.705394093287369e+00	 6.116374867468044e-01	 1.351601652169895e+01
 1.699639106256490e+00	 6.274521883705115e-01	 1.352450251639333e+01
 1.761450660940856e+00	 4.717279833579464e-01	 1.339015315678681e+01
 1.757083343590808e+00	 4.877436135202380e-01	 1.340616856474991e+01
 1.752559392179855e+00	 5.037571304364113e-01	 1.341912623680479e+01
 1.747878291625502e+00	 5.197663758180620e-01	 1.342947955723561e+01
 1.743039564127802e+00	 5.357691720814967e-01	 1.343772634927809e+01
 1.738042769821685e+00	 5.517633230968403e-01	 1.344440872190144e+01
 1.732887507412867e+00	 5.677466149601242e-01	 1.345011250289868e+01
 1.727573414796459e+00	 5.837168167880002e-01	 1.345546621540688e+01
 1.722100169657434e+00	 5.996716815346897e-01	 1.346113955455792e+01
 1.716467490052077e+00	 6.156089468307370e-01	 1.346784132081637e+01
 1.710675134969587e+00	 6.315263358431071e-01	 1.347631676671345e+01
 1.600314847857605e+00	 5.907848611139003e-01	 1.399318988087521e+01
 1.594745652685851e+00	 6.056571655871229e-01	 1.399823650079232e+01
 1.589026697079364e+00	 6.205065700165809e-01	 1.399945609357808e+01
 1.583157872281432e+00	 6.353309070401123e-01	 1.399727398976126e+01
 1.577139109757170e+00	 6.501279991384755e-01	 1.399208732149506e+01
 1.570970381616014e+00	 6.648956595331169e-01	 1.398425833625570e+01
 1.564651701011141e+00	 6.796316931006786e-01	 1.397410714558478e+01
 1.558183122515130e+00	 6.943338973035839e-01	 1.396190389517807e+01
 1.551564742471175e+00	 7.090000631360164e-01	 1.394786034499744e+01
 1.544796699319223e+00	 7.236279760845715e-01	 1.393212085069353e+01
 1.537879173896386e+00	 7.382154171028289e-01	 1.391475274047112e+01
 1.611350876567704e+00	 5.948590085857598e-01	 1.393711968578179e+01
 1.605743275330017e+00	 6.098338748637973e-01	 1.394340191463250e+01
 1.599984880885581e+00	 6.247856831756352e-01	 1.394576976275295e+01
 1.594075583727669e+00	 6.397122512126473e-01	 1.394468506575197e+01
 1.588015314848758e+00	 6.546113864390817e-01	 1.394058915688915e+01
 1.581804046165941e+00	 6.694808869960238e-01	 1.393389623132973e+01
 1.575441790923091e+00	 6.843185426222049e-01	 1.392498611770738e+01
 1.568928604069118e+00	 6.991221355910093e-01	 1.391419644161895e+01
 1.562264582611605e+00	 7.138894416629761e-01	 1.390181416811514e+01
 1.555449865945195e+00	 7.286182310530733e-01	 1.388806651293898e+01
 1.548484636154071e+00	 7.433062694119952e-01	 1.387294698190174e+01
 1.622386905277870e+00	 5.989331560581634e-01	 1.388223634397169e+01
 1.616740897974250e+00	 6.140105841410943e-01	 1.388938938044631e+01
 1.610943064691862e+00	 6.290647963353762e-01	 1.389262722893924e+01
 1.604993295173968e+00	 6.440935953859177e-01	 1.389245286127456e+01
 1.598891519940410e+00	 6.590947737404603e-01	 1.388935587252770e+01
 1.592637710715933e+00	 6.740661144597253e-01	 1.388380589033762e+01
 1.586231880835110e+00	 6.890053921445348e-01	 1.387624536401904e+01
 1.579674085623184e+00	 7.039103738792354e-01	 1.386708171637965e+01
 1.572964422752130e+00	 7.187788201907207e-01	 1.385667884365144e+01
 1.566103032571284e+00	 7.336084860223336e-01	 1.384534795171214e+01
 1.559090098411904e+00	 7.483971217218806e-01	 1.383189605649050e+01
 1.633422933988169e+00	 6.030073035309952e-01	 1.382845606043556e+01
 1.627738520618615e+00	 6.181872934188855e-01	 1.383617458744594e+01
 1.621901248498271e+00	 6.333439094956668e-01	 1.384004802156623e+01
 1.615911006620389e+00	 6.484749395597837e-01	 1.384062490743327e+01
 1.609767725032176e+00	 6.635781610424678e-01	 1.383844698138508e+01
 1.603471375266034e+00	 6.786513419240793e-01	 1.383404262102432e+01
 1.597021970747235e+00	 6.936922416675305e-01	 1.382791964728901e+01
 1.590419567177356e+00	 7.086986121681289e-01	 1.382055746017232e+01
 1.583664262892763e+00	 7.236681987191222e-01	 1.381239849180106e+01
 1.576756199197490e+00	 7.385987409922286e-01	 1.380383896342929e+01
 1.569695560669870e+00	 7.534879740323673e-01	 1.379123937366532e+01
 1.644458962698668e+00	 6.070814510041398e-01	 1.377569590813842e+01
 1.638736143263177e+00	 6.223640026970420e-01	 1.378373339850810e+01
 1.632859432304870e+00	 6.376230226563697e-01	 1.378805153727262e+01
 1.626828718066988e+00	 6.528562837341019e-01	 1.378924868264251e+01
 1.620643930124110e+00	 6.680615483449618e-01	 1.378792240886798e+01
 1.614305039816288e+00	 6.832365693889444e-01	 1.378466299195004e+01
 1.607812060659499e+00	 6.983790911910533e-01	 1.378004622076751e+01
 1.601165048731655e+00	 7.134868504575549e-01	 1.377462551295131e+01
 1.594364103033515e+00	 7.285575772480526e-01	 1.376892331747069e+01
 1.587409365823811e+00	 7.435889959626362e-01	 1.376322190001334e+01
 1.580301022927953e+00	 7.585788263433393e-01	 1.375080173167284e+01
 1.655494991409433e+00	 6.111555984774816e-01	 1.372387500544629e+01
 1.649733765908002e+00	 6.265407119754359e-01	 1.373204311497695e+01
 1.643817616111722e+00	 6.419021358173480e-01	 1.373665837856925e+01
 1.637746429513827e+00	 6.572376279087319e-01	 1.373837301147994e+01
 1.631520135216261e+00	 6.725449356477982e-01	 1.373784393804645e+01
 1.625138704366740e+00	 6.878217968541788e-01	 1.373572631015300e+01
 1.618602150571938e+00	 7.030659407149642e-01	 1.373266632420871e+01
 1.611910530286107e+00	 7.182750887473801e-01	 1.372929331411031e+01
 1.605063943174399e+00	 7.334469557773833e-01	 1.372621110035814e+01
 1.598062532450246e+00	 7.485792509334346e-01	 1.372251033954454e+01
 1.590906485186136e+00	 7.636696786546787e-01	 1.371044257435340e+01
 1.666531020120531e+00	 6.152297459509052e-01	 1.367291567817425e+01
 1.660731388553156e+00	 6.307174212539383e-01	 1.368108372386613e+01
 1.654775799918890e+00	 6.461812489784653e-01	 1.368589167321059e+01
 1.648664140960962e+00	 6.616189720835313e-01	 1.368804944309410e+01
 1.642396340308684e+00	 6.770283229508346e-01	 1.368827663382453e+01
 1.635972368917433e+00	 6.924070243196402e-01	 1.368729607767821e+01
 1.629392240484587e+00	 7.077527902391247e-01	 1.368582665923104e+01
 1.622656011840735e+00	 7.230633270374709e-01	 1.368457538303424e+01
 1.615763783315426e+00	 7.383363343069859e-01	 1.368422866695400e+01
 1.608715699076793e+00	 7.535695059045007e-01	 1.368154333203263e+01
 1.601511947444404e+00	 7.687605309662698e-01	 1.367005530578600e+01
 1.677567048832029e+00	 6.193038934242949e-01	 1.362274460696581e+01
 1.671729011198705e+00	 6.348941305324208e-01	 1.363083912827171e+01
 1.665733983726438e+00	 6.504603621395838e-01	 1.363577837516426e+01
 1.659581852408452e+00	 6.660003162583588e-01	 1.363833361010898e+01
 1.653272545401431e+00	 6.815117102539279e-01	 1.363929024702060e+01
 1.646806033468412e+00	 6.969922517851864e-01	 1.363944142794646e+01
 1.640182330397480e+00	 7.124396397633962e-01	 1.363958084496799e+01
 1.633401493395563e+00	 7.278515653276934e-01	 1.364049478091382e+01
 1.626463623456608e+00	 7.432257128367324e-01	 1.364280830402823e+01
 1.619368865703452e+00	 7.585597608757128e-01	 1.364029920228676e+01
 1.612117409702741e+00	 7.738513832779945e-01	 1.362956659232384e+01
 1.688603077543993e+00	 6.233780408975358e-01	 1.357329396067563e+01
 1.682726633844714e+00	 6.390708398107552e-01	 1.358129836176565e+01
 1.676692167534428e+00	 6.547394753005669e-01	 1.358635054802289e+01
 1.670499563856355e+00	 6.703816604330723e-01	 1.358928656891961e+01
 1.664148750494553e+00	 6.859950975569346e-01	 1.359096059927916e+01
 1.657639698019721e+00	 7.015774792506765e-01	 1.359223854288822e+01
 1.650972420310652e+00	 7.171264892876404e-01	 1.359399085491184e+01
 1.644146974950616e+00	 7.326398036179129e-01	 1.359708455467948e+01
 1.637163463597958e+00	 7.481150913664947e-01	 1.360114382478438e+01
 1.630022032330220e+00	 7.635500158469478e-01	 1.359878723762235e+01
 1.622722871961131e+00	 7.789422355897359e-01	 1.358893565259828e+01
 1.699639106256490e+00	 6.274521883705115e-01	 1.352450251639333e+01
 1.693724256491250e+00	 6.432475490888127e-01	 1.353245678749904e+01
 1.687650351342924e+00	 6.590185884612781e-01	 1.353764663165683e+01
 1.681417275304731e+00	 6.747630046075307e-01	 1.354097612222615e+01
 1.675024955588103e+00	 6.904784848597116e-01	 1.354337094968610e+01
 1.668473362571405e+00	 7.061627067159683e-01	 1.354577205171702e+01
 1.661762510224138e+00	 7.218133388117184e-01	 1.354912843580795e+01
 1.654892456505917e+00	 7.374280419079965e-01	 1.355438916387072e+01
 1.647863303739486e+00	 7.530044698961444e-01	 1.355917850464313e+01
 1.640675198957095e+00	 7.685402708180837e-01	 1.355704704804347e+01
 1.633328334219558e+00	 7.840330879013777e-01	 1.354815353603908e+01
 1.710675134969587e+00	 6.315263358431071e-01	 1.347631676671345e+01
 1.704721879138378e+00	 6.474242583664651e-01	 1.348431728270760e+01
 1.698608535151988e+00	 6.632977016215796e-01	 1.348971269286675e+01
 1.692334986753636e+00	 6.791443487815920e-01	 1.349347812460960e+01
 1.685901160682133e+00	 6.949618721621165e-01	 1.349661334391549e+01
 1.679307027123508e+00	 7.107479341809196e-01	 1.350013641217420e+01
 1.672552600137973e+00	 7.265001883354917e-01	 1.350507650941040e+01
 1.665637938061490e+00	 7.422162801978104e-01	 1.351241827938680e+01
 1.658563143881206e+00	 7.578938484255533e-01	 1.351701496412577e+01
 1.651328365584077e+00	 7.735305257889979e-01	 1.351514791324742e+01
 1.643933796478007e+00	 7.891239402128026e-01	 1.350724239043071e+01
 1.537879173896386e+00	 7.382154171028289e-01	 1.391475274047112e+01
 1.530813603421978e+00	 7.527576948898829e-01	 1.389740303309305e+01
 1.523599090135626e+00	 7.672550678871202e-01	 1.387878775169962e+01
 1.516235942364691e+00	 7.817053097554018e-01	 1.385897124416081e+01
 1.508724511743272e+00	 7.961061936170177e-01	 1.383818503947262e+01
 1.501065193376526e+00	 8.104554930871929e-01	 1.381668221361362e+01
 1.493258425976086e+00	 8.247509833144834e-01	 1.379474215313092e+01
 1.485304691966158e+00	 8.389904420291471e-01	 1.377267564032418e+01
 1.477204517559897e+00	 8.531716505985247e-01	 1.375032469365525e+01
 1.468958472805698e+00	 8.672923950884804e-01	 1.372549425140830e+01
 1.460567171603085e+00	 8.813504673299019e-01	 1.369862123359057e+01
 1.548484636154071e+00	 7.433062694119952e-01	 1.387294698190174e+01
 1.541370340368837e+00	 7.579488330868787e-01	 1.385489035117105e+01
 1.534106074638022e+00	 7.725461823013511e-01	 1.383559866855953e+01
 1.526692149415264e+00	 7.870960753630617e-01	 1.381526666965855e+01
 1.519128918759591e+00	 8.015962700373751e-01	 1.379410315595753e+01
 1.511416780500874e+00	 8.160445245859896e-01	 1.377233555045037e+01
 1.503556176376176e+00	 8.304385988145097e-01	 1.375021480063599e+01
 1.495547592136579e+00	 8.447762551280431e-01	 1.372802062430031e+01
 1.487391557624094e+00	 8.590552595938650e-01	 1.370606709083150e+01
 1.479088646818267e+00	 8.732733830101741e-01	 1.368455612114233e+01
 1.470639477852173e+00	 8.874284019799485e-01	 1.366140152570001e+01
 1.559090098411904e+00	 7.483971217218806e-01	 1.383189605649051e+01
 1.551927077315883e+00	 7.631399712845437e-01	 1.381347473003052e+01
 1.544613059140650e+00	 7.778372967161923e-01	 1.379396823107241e+01
 1.537148356466121e+00	 7.924868409712668e-01	 1.377354893192531e+01
 1.529533325776252e+00	 8.070863464582083e-01	 1.375240046474557e+01
 1.521768367625622e+00	 8.216335560851900e-01	 1.373072239971490e+01
 1.513853926776723e+00	 8.361262143148671e-01	 1.370873529169748e+01
 1.505790492307516e+00	 8.505620682272005e-01	 1.368668609122359e+01
 1.497578597688863e+00	 8.649388685894007e-01	 1.366485391289314e+01
 1.489218820831457e+00	 8.792543709320034e-01	 1.364355615142472e+01
 1.480711784101927e+00	 8.935063366300805e-01	 1.362313966660622e+01
 1.569695560669870e+00	 7.534879740323673e-01	 1.379123937366533e+01
 1.562483814263086e+00	 7.683311094827654e-01	 1.377288114377333e+01
 1.555120043643466e+00	 7.831284111315361e-01	 1.375356211145348e+01
 1.547604563517200e+00	 7.978776065799122e-01	 1.373342967475920e+01
 1.539937732793172e+00	 8.125764228794143e-01	 1.371263991623931e+01
 1.532119954750672e+00	 8.272225875846941e-01	 1.369136240727542e+01
 1.524151677177615e+00	 8.418138298154585e-01	 1.366978540233896e+01
 1.516033392478840e+00	 8.563478813265243e-01	 1.364812141950446e+01
 1.507765637754059e+00	 8.708224775850402e-01	 1.362661320067944e+01
 1.499348994845113e+00	 8.852353588538808e-01	 1.360554004202072e+01
 1.490784090352179e+00	 8.995842712802143e-01	 1.358522448190913e+01
 1.580301022927953e+00	 7.585788263433393e-01	 1.375080173167283e+01
 1.573040551210413e+00	 7.735222476814317e-01	 1.373287195357697e+01
 1.565627028146419e+00	 7.884195255472731e-01	 1.371408527983639e+01
 1.558060770568436e+00	 8.032683721888926e-01	 1.369456159370563e+01
 1.550342139810273e+00	 8.180664993008911e-01	 1.367442711089875e+01
 1.542471541875926e+00	 8.328116190844018e-01	 1.365381931334095e+01
 1.534449427578739e+00	 8.475014453161862e-01	 1.363289229466238e+01
 1.526276292650423e+00	 8.621336944259201e-01	 1.361182251428723e+01
 1.517952677819542e+00	 8.767060865806915e-01	 1.359081495397565e+01
 1.509479168859079e+00	 8.912163467757184e-01	 1.357010966755373e+01
 1.500856396602764e+00	 9.056622059302668e-01	 1.354998871133247e+01
 1.590906485186136e+00	 7.636696786546787e-01	 1.371044257435340e+01
 1.583597288157833e+00	 7.787133858804297e-01	 1.369324614040759e+01
 1.576134012649463e+00	 7.937106399632951e-01	 1.367528114800749e+01
 1.568516977619766e+00	 8.086591377981015e-01	 1.365663749706673e+01
 1.560746546827473e+00	 8.235565757225356e-01	 1.363740928385407e+01
 1.552823129001289e+00	 8.384006505842126e-01	 1.361769986707516e+01
 1.544747177979981e+00	 8.531890608169527e-01	 1.359762736792405e+01
 1.536519192822136e+00	 8.679195075252925e-01	 1.357733060150728e+01
 1.528139717885166e+00	 8.825896955762632e-01	 1.355697543392248e+01
 1.519609342873200e+00	 8.971973346974277e-01	 1.353676155601859e+01
 1.510928702853515e+00	 9.117401405801541e-01	 1.351692966148977e+01
 1.601511947444404e+00	 7.687605309662698e-01	 1.367005530578600e+01
 1.594154025105315e+00	 7.839045240796476e-01	 1.365383852735039e+01
 1.586640997152551e+00	 7.990017543794934e-01	 1.363693070537887e+01
 1.578973184671124e+00	 8.140499034074347e-01	 1.361938936155351e+01
 1.571150953844690e+00	 8.290466521442450e-01	 1.360127428634766e+01
 1.563174716126661e+00	 8.439896820840271e-01	 1.358265274000655e+01
 1.555044928381229e+00	 8.588766763176603e-01	 1.356360511015518e+01
 1.546762092993852e+00	 8.737053206245466e-01	 1.354423102402013e+01
 1.538326757950792e+00	 8.884733045716633e-01	 1.352465591000300e+01
 1.529739516887322e+00	 9.031783226189212e-01	 1.350503799995113e+01
 1.521001009104267e+00	 9.178180752297926e-01	 1.348557575995237e+01
 1.612117409702741e+00	 7.738513832779945e-01	 1.362956659232384e+01
 1.604710762052828e+00	 7.890956622789731e-01	 1.361451899203600e+01
 1.597147981655635e+00	 8.042928687957592e-01	 1.359885164755794e+01
 1.589429391722448e+00	 8.194406690167861e-01	 1.358258738282819e+01
 1.581555360861846e+00	 8.345367285659173e-01	 1.356574956415177e+01
 1.573526303251948e+00	 8.495787135837448e-01	 1.354836743829180e+01
 1.565342678782370e+00	 8.645642918182118e-01	 1.353048195030245e+01
 1.557004993165442e+00	 8.794911337235879e-01	 1.351215203970781e+01
 1.548513798016276e+00	 8.943569135668004e-01	 1.349346141025402e+01
 1.539869690901289e+00	 9.091593105401106e-01	 1.347452576492757e+01
 1.531073315354851e+00	 9.238960098790990e-01	 1.345550049426650e+01
 1.622722871961131e+00	 7.789422355897359e-01	 1.358893565259829e+01
 1.615267499000340e+00	 7.942868004782929e-01	 1.357519166961782e+01
 1.607654966158667e+00	 8.095839832119845e-01	 1.356089749785360e+01
 1.599885598773673e+00	 8.248314346260509e-01	 1.354603902117194e+01
 1.591959767878859e+00	 8.400268049874494e-01	 1.353060113310148e+01
 1.583877890377051e+00	 8.551677450832657e-01	 1.351457321388497e+01
 1.575640429183289e+00	 8.702519073185095e-01	 1.349795511086566e+01
 1.567247893336778e+00	 8.852769468223217e-01	 1.348076362147283e+01
 1.558700838081476e+00	 9.002405225615825e-01	 1.346303947455407e+01
 1.549999864914945e+00	 9.151402984609078e-01	 1.344485480212916e+01
 1.541145621605104e+00	 9.299739445279900e-01	 1.342632108981533e+01
 1.633328334219558e+00	 7.840330879013777e-01	 1.354815353603908e+01
 1.625824235947820e+00	 7.994779386774957e-01	 1.353579414673074e+01
 1.618161950661601e+00	 8.148750976280604e-01	 1.352295672204125e+01
 1.610341805824736e+00	 8.302222002351233e-01	 1.350958804249979e+01
 1.602364174895648e+00	 8.455168814087390e-01	 1.349563255187529e+01
 1.594229477501874e+00	 8.607567765824896e-01	 1.348103797466353e+01
 1.585938179583875e+00	 8.759395228184557e-01	 1.346576146101084e+01
 1.577490793507731e+00	 8.910627599206533e-01	 1.344977625903442e+01
 1.568887878146250e+00	 9.061241315559182e-01	 1.343307891084948e+01
 1.560130038928136e+00	 9.211212863812254e-01	 1.341569696478784e+01
 1.551217927854857e+00	 9.360518791763817e-01	 1.339769719231289e+01
 1.643933796478007e+00	 7.891239402128026e-01	 1.350724239043071e+01
 1.636380972895236e+00	 8.046690768764690e-01	 1.349629664683845e+01
 1.628668935164389e+00	 8.201662120438783e-01	 1.348495183669123e+01
 1.620798012875571e+00	 8.356129658438981e-01	 1.347311355493452e+01
 1.612768581912134e+00	 8.510069578296831e-01	 1.346068389214725e+01
 1.604581064626318e+00	 8.663458080813164e-01	 1.344756719355905e+01
 1.596235929984014e+00	 8.816271383179534e-01	 1.343367637013742e+01
 1.587733693678174e+00	 8.968485730184873e-01	 1.341893976244663e+01
 1.579074918210454e+00	 9.120077405497156e-01	 1.340330855418582e+01
 1.570260212940706e+00	 9.271022743009750e-01	 1.338676472833824e+01
 1.561290234103947e+00	 9.421298138241913e-01	 1.336932955472146e+01
 1.460567171603085e+00	 8.813504673299019e-01	 1.369862123359057e+01
 1.452031272040745e+00	 8.953436662682277e-01	 1.366710137550216e+01
 1.443351477403216e+00	 9.092697998912228e-01	 1.362827630748402e+01
 1.434528535023649e+00	 9.231266854974409e-01	 1.358309739910303e+01
 1.425563235819023e+00	 9.369121504971000e-01	 1.353261793648154e+01
 1.416456414148170e+00	 9.506240334873818e-01	 1.347798292892869e+01
 1.407208947638231e+00	 9.642601853264977e-01	 1.342041731025265e+01
 1.397821756979511e+00	 9.778184702054483e-01	 1.336121254596535e+01
 1.388295805688710e+00	 9.912967667163964e-01	 1.330171166848254e+01
 1.378632099840567e+00	 1.004692968916580e+00	 1.324329277348221e+01
 1.368831687767985e+00	 1.018004987386675e+00	 1.318735102174396e+01
 1.470639477852173e+00	 8.874284019799485e-01	 1.366140152570001e+01
 1.462044713352791e+00	 9.015181002697895e-01	 1.363298195792264e+01
 1.453305061454624e+00	 9.155402707510079e-01	 1.359665989236919e+01
 1.444421274644560e+00	 9.294927156699223e-01	 1.355342129457882e+01
 1.435394149293874e+00	 9.433732474542451e-01	 1.350436187920504e+01
 1.426224525515273e+00	 9.571796897957997e-01	 1.345067673307692e+01
 1.416913286988161e+00	 9.709098787319956e-01	 1.339364825236802e+01
 1.407461360752077e+00	 9.845616637249736e-01	 1.333463240432344e+01
 1.397869716968294e+00	 9.981329087373515e-01	 1.327504333536505e+01
 1.388139368649607e+00	 1.011621493303471e+00	 1.321633635895219e+01
 1.378271371358397e+00	 1.025025313595061e+00	 1.315998936823709e+01
 1.480711784101927e+00	 8.935063366300805e-01	 1.362313966660622e+01
 1.472058154665538e+00	 9.076925342713960e-01	 1.359840828097815e+01
 1.463258645506763e+00	 9.218107416108092e-01	 1.356514232875390e+01
 1.454314014266221e+00	 9.358587458424004e-01	 1.352435826553539e+01
 1.445225062769486e+00	 9.498343444113772e-01	 1.347719111943062e+01
 1.435992636883139e+00	 9.637353461042059e-01	 1.342488394314716e+01
 1.426617626338851e+00	 9.775595721374902e-01	 1.336877549572123e+01
 1.417100964525390e+00	 9.913048572445134e-01	 1.331028616348243e+01
 1.407443628248601e+00	 1.004969050758347e+00	 1.325090214172660e+01
 1.397646637459339e+00	 1.018550017690437e+00	 1.319215791063651e+01
 1.387711054949461e+00	 1.032045639803564e+00	 1.313561705117715e+01
 1.490784090352179e+00	 8.995842712802143e-01	 1.358522448190913e+01
 1.482071595978812e+00	 9.138669682729705e-01	 1.356254738109198e+01
 1.473212229559449e+00	 9.280812124705544e-01	 1.353288780691489e+01
 1.464206753888444e+00	 9.422247760148094e-01	 1.349508408087444e+01
 1.455055976245666e+00	 9.562954413684368e-01	 1.345029903702273e+01
 1.445760748251577e+00	 9.702910024125447e-01	 1.339982150247782e+01
 1.436321965690104e+00	 9.842092655429314e-01	 1.334504543568999e+01
 1.426740568299254e+00	 9.980480507640209e-01	 1.328745551163412e+01
 1.417017539529440e+00	 1.011805192779338e+00	 1.322861087788700e+01
 1.407153906269574e+00	 1.025478542077431e+00	 1.317012711524468e+01
 1.397150738540992e+00	 1.039065966012132e+00	 1.311365644926137e+01
 1.500856396602764e+00	 9.056622059302668e-01	 1.354998871133247e+01
 1.492085037292435e+00	 9.200414022744333e-01	 1.352734102300213e+01
 1.483165813612498e+00	 9.343516833301713e-01	 1.349916360126908e+01
 1.474099493511041e+00	 9.485908061870835e-01	 1.346481364033535e+01
 1.464886889722225e+00	 9.627565383253645e-01	 1.342291902578068e+01
 1.455528859620391e+00	 9.768466587207622e-01	 1.337474687200713e+01
 1.446026305041729e+00	 9.908589589482695e-01	 1.332174510551276e+01
 1.436380172073478e+00	 1.004791244283449e+00	 1.326546250844408e+01
 1.426591450810619e+00	 1.018641334800278e+00	 1.320753205010412e+01
 1.416661175080125e+00	 1.032407066464406e+00	 1.314965232898846e+01
 1.406590422132806e+00	 1.046086292220716e+00	 1.309356717235529e+01
 1.510928702853515e+00	 9.117401405801541e-01	 1.351692966148977e+01
 1.502098478606234e+00	 9.262158362757075e-01	 1.349438726297349e+01
 1.493119397665730e+00	 9.406221541895875e-01	 1.346620089266837e+01
 1.483992233133823e+00	 9.549568363591563e-01	 1.343294163969650e+01
 1.474717803198971e+00	 9.692176352820997e-01	 1.339432728073948e+01
 1.465296970989389e+00	 9.834023150288040e-01	 1.334896085792589e+01
 1.455730644393530e+00	 9.975086523534547e-01	 1.329820504920512e+01
 1.446019775847865e+00	 1.011534437802751e+00	 1.324367250811705e+01
 1.436165362091947e+00	 1.025477476821122e+00	 1.318707085864426e+01
 1.426168443890803e+00	 1.039335590851316e+00	 1.313018361548452e+01
 1.416030105724721e+00	 1.053106618429265e+00	 1.307484916403020e+01
 1.521001009104267e+00	 9.178180752297926e-01	 1.348557575995237e+01
 1.512111919920033e+00	 9.323902702767147e-01	 1.346320682631497e+01
 1.503072981718960e+00	 9.468926250487314e-01	 1.343507758740844e+01
 1.493884972756603e+00	 9.613228665309628e-01	 1.340179250649287e+01
 1.484548716675711e+00	 9.756787322385837e-01	 1.336404050471907e+01
 1.475065082358377e+00	 9.899579713366159e-01	 1.332181044452038e+01
 1.465434983745314e+00	 1.004158345758437e+00	 1.327380219874997e+01
 1.455659379622225e+00	 1.018277631321881e+00	 1.322149708551032e+01
 1.445739273373232e+00	 1.032313618841824e+00	 1.316667817736661e+01
 1.435675712701421e+00	 1.046264115238116e+00	 1.311121578333027e+01
 1.425469789316554e+00	 1.060126944637731e+00	 1.305704580162369e+01
 1.531073315354851e+00	 9.238960098790990e-01	 1.345550049426650e+01
 1.522125361233657e+00	 9.385647042773769e-01	 1.343336593163799e+01
 1.513026565772008e+00	 9.531630959075308e-01	 1.340535969090913e+01
 1.503777712379192e+00	 9.676888967024360e-01	 1.337211739261412e+01
 1.494379630152255e+00	 9.821398291947554e-01	 1.333436157444974e+01
 1.484833193727160e+00	 9.965136276441438e-01	 1.329291108121612e+01
 1.475139323096885e+00	 1.010808039163166e+00	 1.324796275535803e+01
 1.465298983396362e+00	 1.025020824840790e+00	 1.319839696514916e+01
 1.455313184654284e+00	 1.039149760862339e+00	 1.314585353474740e+01
 1.445182981511790e+00	 1.053192639624757e+00	 1.309229142336357e+01
 1.434909472908120e+00	 1.067147270846063e+00	 1.303974699393365e+01
 1.541145621605104e+00	 9.299739445279900e-01	 1.342632108981533e+01
 1.532138802546930e+00	 9.447391382776156e-01	 1.340447494096668e+01
 1.522980149824690e+00	 9.594335667659135e-01	 1.337665758490418e+01
 1.513670452001405e+00	 9.740549268735115e-01	 1.334353361756243e+01
 1.504210543628409e+00	 9.886009261505551e-01	 1.330585736533515e+01
 1.494601305095546e+00	 1.003069283951332e+00	 1.326448257101339e+01
 1.484843662448050e+00	 1.017457732567592e+00	 1.322037238201319e+01
 1.474938587170085e+00	 1.031764018359434e+00	 1.317388495300632e+01
 1.464887095934911e+00	 1.045985902882622e+00	 1.312414809627417e+01
 1.454690250321724e+00	 1.060121164011194e+00	 1.307300394561593e+01
 1.444349156499237e+00	 1.074167597054211e+00	 1.302259227665066e+01
 1.551217927854857e+00	 9.360518791763817e-01	 1.339769719231289e+01
 1.542152243859677e+00	 9.509135722773528e-01	 1.337618701500386e+01
 1.532933733876825e+00	 9.657040376238079e-01	 1.334862466311984e+01
 1.523563191623051e+00	 9.804209570441222e-01	 1.331570156127576e+01
 1.514041457103984e+00	 9.950620231059238e-01	 1.327820202077039e+01
 1.504369416463341e+00	 1.009624940258128e+00	 1.323701323220085e+01
 1.494548001798615e+00	 1.024107425971665e+00	 1.319313558072237e+01
 1.484578190943199e+00	 1.038507211877763e+00	 1.314769324292692e+01
 1.474461007214922e+00	 1.052822044902626e+00	 1.310116764814069e+01
 1.464197519131034e+00	 1.067049688397380e+00	 1.305300061596964e+01
 1.453788840089721e+00	 1.081187923262125e+00	 1.300527390562659e+01
 1.561290234103947e+00	 9.421298138241913e-01	 1.336932955472146e+01
 1.552165685171722e+00	 9.570880062765114e-01	 1.334819677332085e+01
 1.542887317928228e+00	 9.719745084811410e-01	 1.332095597212513e+01
 1.533455931243943e+00	 9.867869872142032e-01	 1.328832329308635e+01
 1.523872370578788e+00	 1.001523120060801e+00	 1.325111125283601e+01
 1.514137527830351e+00	 1.016180596564476e+00	 1.321023905257859e+01
 1.504252341148385e+00	 1.030757119375336e+00	 1.316674323158323e+01
 1.494217794715511e+00	 1.045250405395732e+00	 1.312178862232167e+01
 1.484034918494126e+00	 1.059658186922306e+00	 1.307667956089821e+01
 1.473704787939532e+00	 1.073978212783269e+00	 1.303198559252496e+01
 1.463228523679388e+00	 1.088208249469755e+00	 1.298753994807366e+01
 1.368831687767985e+00	 1.018004987386675e+00	 1.318735102174396e+01
 1.358893959971655e+00	 1.031232990091837e+00	 1.312865292374853e+01
 1.348821708111680e+00	 1.044372646076648e+00	 1.306266346124450e+01
 1.338616111429825e+00	 1.057421913158274e+00	 1.299180733783905e+01
 1.328278389969562e+00	 1.070378769813079e+00	 1.291850048697375e+01
 1.317809804118724e+00	 1.083241216195824e+00	 1.284512442136658e+01
 1.307211654121906e+00	 1.096007275146951e+00	 1.277399949936636e+01
 1.296485279562974e+00	 1.108674993186852e+00	 1.270735722937397e+01
 1.285632058818115e+00	 1.121242441496144e+00	 1.264046499186817e+01
 1.274653408479857e+00	 1.133707716880876e+00	 1.256080640809178e+01
 1.263550782752567e+00	 1.146068942721700e+00	 1.246862317402688e+01
 1.378271371358397e+00	 1.025025313595061e+00	 1.315998936823709e+01
 1.368265111392153e+00	 1.038344538735610e+00	 1.310136648455332e+01
 1.358123399662709e+00	 1.051574807902718e+00	 1.303651969768133e+01
 1.347847423544064e+00	 1.064714064830312e+00	 1.296794895600957e+01
 1.337438411493300e+00	 1.077760274053982e+00	 1.289815126737252e+01
 1.326897632590082e+00	 1.090711421937213e+00	 1.282959411394285e+01
 1.316226396045690e+00	 1.103565517685614e+00	 1.276468771321791e+01
 1.305426050681972e+00	 1.116320594348051e+00	 1.270404084560322e+01
 1.294497984380612e+00	 1.128974709803667e+00	 1.263421219573147e+01
 1.283443623503179e+00	 1.141525947733760e+00	 1.255238153412099e+01
 1.272264432282461e+00	 1.153972418577491e+00	 1.245920822395058e+01
 1.387711054949461e+00	 1.032045639803564e+00	 1.313561705117715e+01
 1.377636262813253e+00	 1.045456087379546e+00	 1.307727140202090e+01
 1.367425091214284e+00	 1.058776969729005e+00	 1.301378893699222e+01
 1.357078735658791e+00	 1.072006216502622e+00	 1.294774689338056e+01
 1.346598433017467e+00	 1.085141778295210e+00	 1.288172529518580e+01
 1.335985461061809e+00	 1.098181627678979e+00	 1.281827940716139e+01
 1.325241137969791e+00	 1.111123760224703e+00	 1.275991094204133e+01
 1.314366821801241e+00	 1.123966195509714e+00	 1.269887202735986e+01
 1.303363909943341e+00	 1.136706978111685e+00	 1.262629037498506e+01
 1.292233838526709e+00	 1.149344178587156e+00	 1.254284542408928e+01
 1.280978081812554e+00	 1.161875894433798e+00	 1.244922874062755e+01
 1.397150738540992e+00	 1.039065966012132e+00	 1.311365644926137e+01
 1.387007414234777e+00	 1.052567636023589e+00	 1.305583913761768e+01
 1.376726782766234e+00	 1.065979131555443e+00	 1.299397873628355e+01
 1.366310047773841e+00	 1.079298368175126e+00	 1.293073192030236e+01
 1.355758454541903e+00	 1.092523282536676e+00	 1.286876380594507e+01
 1.345073289533754e+00	 1.105651833421023e+00	 1.281071941707593e+01
 1.334255879894062e+00	 1.118682002764106e+00	 1.275588608855249e+01
 1.323307592920638e+00	 1.131611796671719e+00	 1.269154459720043e+01
 1.312229835506167e+00	 1.144439246420063e+00	 1.261675111279311e+01
 1.301024053550315e+00	 1.157162409440922e+00	 1.253221500790357e+01
 1.289691731342716e+00	 1.169779370290472e+00	 1.243865656695213e+01
 1.406590422132806e+00	 1.046086292220716e+00	 1.309356717235529e+01
 1.396378565656546e+00	 1.059679184667684e+00	 1.303657680638293e+01
 1.386028474318387e+00	 1.073181293381967e+00	 1.297663084252830e+01
 1.375541359889048e+00	 1.086590519847751e+00	 1.291646764697360e+01
 1.364918476066450e+00	 1.099904786778295e+00	 1.285883963887008e+01
 1.354161118005766e+00	 1.113122039163247e+00	 1.280626557143587e+01
 1.343270621818357e+00	 1.126240245303709e+00	 1.274928441934721e+01
 1.332248364040022e+00	 1.139257397833941e+00	 1.268218297343338e+01
 1.321095761068952e+00	 1.152171514728668e+00	 1.260569478971539e+01
 1.309814268573861e+00	 1.164980640294915e+00	 1.252055641908229e+01
 1.298405380872812e+00	 1.177682846147362e+00	 1.242751346006184e+01
 1.416030105724721e+00	 1.053106618429265e+00	 1.307484916403020e+01
 1.405749717078383e+00	 1.066790733311774e+00	 1.301903034044719e+01
 1.395330165870572e+00	 1.080383455208512e+00	 1.296132440496582e+01
 1.384772672004246e+00	 1.093882671520421e+00	 1.290455377264581e+01
 1.374078497590949e+00	 1.107286291019977e+00	 1.285156051084086e+01
 1.363248946477689e+00	 1.120592244905549e+00	 1.280050627035770e+01
 1.352285363742529e+00	 1.133798487843400e+00	 1.274029135870894e+01
 1.341189135159254e+00	 1.146902998996256e+00	 1.267095862551373e+01
 1.329961686631559e+00	 1.159903783037364e+00	 1.259326893543136e+01
 1.318604483597213e+00	 1.172798871148991e+00	 1.250798333945018e+01
 1.307119030402707e+00	 1.185586322004319e+00	 1.241586942209066e+01
 1.425469789316554e+00	 1.060126944637731e+00	 1.305704580162369e+01
 1.415120868500111e+00	 1.073902281955802e+00	 1.300278764795284e+01
 1.404631857422615e+00	 1.087585617035014e+00	 1.294767918114219e+01
 1.394003984119272e+00	 1.101174823193059e+00	 1.289462932706855e+01
 1.383238519115241e+00	 1.114667795261635e+00	 1.284596558265910e+01
 1.372336774949374e+00	 1.128062450647830e+00	 1.279202885773606e+01
 1.361300105666432e+00	 1.141356730383069e+00	 1.272913792336631e+01
 1.350129906278190e+00	 1.154548600158541e+00	 1.265808841581405e+01
 1.338827612193852e+00	 1.167636051346016e+00	 1.257966657081326e+01
 1.327394698620237e+00	 1.180617102003005e+00	 1.249465533490220e+01
 1.315832679932269e+00	 1.193489797861193e+00	 1.240384102305427e+01
 1.434909472908120e+00	 1.067147270846063e+00	 1.303974699393365e+01
 1.424492019921550e+00	 1.081013830599713e+00	 1.298748176758301e+01
 1.413933548974347e+00	 1.094787778861407e+00	 1.293535873688073e+01
 1.403235296233958e+00	 1.108466974865591e+00	 1.288637590453170e+01
 1.392398540639168e+00	 1.122049299503183e+00	 1.283805165197441e+01
 1.381424603420668e+00	 1.135532656389990e+00	 1.278111314682146e+01
 1.370314847589920e+00	 1.148914972922602e+00	 1.271609904772734e+01
 1.359070677396691e+00	 1.162194201320671e+00	 1.264383293183461e+01
 1.347693537755692e+00	 1.175368319654492e+00	 1.256512454079331e+01
 1.336184913642798e+00	 1.188435332856815e+00	 1.248077618264576e+01
 1.324546329461365e+00	 1.201393273717834e+00	 1.239158971623024e+01
 1.444349156499237e+00	 1.074167597054211e+00	 1.302259227665066e+01
 1.433863171342524e+00	 1.088125379243450e+00	 1.297279401889799e+01
 1.423235240525593e+00	 1.101989940687626e+00	 1.292407364045859e+01
 1.412466608348141e+00	 1.115759126537940e+00	 1.287861255598676e+01
 1.401558562162571e+00	 1.129430803744532e+00	 1.282741367613653e+01
 1.390512431891419e+00	 1.143002862131930e+00	 1.276808165833413e+01
 1.379329589512847e+00	 1.156473215461888e+00	 1.270149189997256e+01
 1.368011448514615e+00	 1.169839802482521e+00	 1.262849480929054e+01
 1.356559463316944e+00	 1.183100587962653e+00	 1.254992183844443e+01
 1.344975128664764e+00	 1.196253563710278e+00	 1.246659219031324e+01
 1.333259978989861e+00	 1.209296749574091e+00	 1.237932014637544e+01
 1.453788840089721e+00	 1.081187923262125e+00	 1.300527390562659e+01
 1.443234322762854e+00	 1.095236927886956e+00	 1.295845714866516e+01
 1.432536932076184e+00	 1.109192102513607e+00	 1.291358465124902e+01
 1.421697920461654e+00	 1.123051278210031e+00	 1.286810924028134e+01
 1.410718583685292e+00	 1.136812307985596e+00	 1.281441202366459e+01
 1.399600260361474e+00	 1.150473067873550e+00	 1.275329791509358e+01
 1.388344331435068e+00	 1.164031458000813e+00	 1.268567418942451e+01
 1.376952219631822e+00	 1.177485403643969e+00	 1.261241704649332e+01
 1.365425388877470e+00	 1.190832856270369e+00	 1.253437792067839e+01
 1.353765343685996e+00	 1.204071794563249e+00	 1.245239050731417e+01
 1.341973628517624e+00	 1.217200225429816e+00	 1.236727845110944e+01
 1.463228523679388e+00	 1.088208249469755e+00	 1.298753994807366e+01
 1.452605474182361e+00	 1.102348476530176e+00	 1.294425847336000e+01
 1.441838623625946e+00	 1.116394264339283e+00	 1.290269284898755e+01
 1.430929232574332e+00	 1.130343429881789e+00	 1.285495063191908e+01
 1.419878605207170e+00	 1.144193812226286e+00	 1.279944707934476e+01
 1.408688088830681e+00	 1.157943273614750e+00	 1.273716472859649e+01
 1.397359073356433e+00	 1.171589700539267e+00	 1.266904246558801e+01
 1.385892990748171e+00	 1.185131004804891e+00	 1.259598131041854e+01
 1.374291314437133e+00	 1.198565124577502e+00	 1.251885101593786e+01
 1.362555558706364e+00	 1.211890025415586e+00	 1.243849742878105e+01
 1.350687278044521e+00	 1.225103701284858e+00	 1.235575055577308e+01
 1.263550782752567e+00	 1.146068942721700e+00	 1.246862317402688e+01
 1.252327587872164e+00	 1.158322199160746e+00	 1.237029690857841e+01
 1.240983457165895e+00	 1.170467793152314e+00	 1.227145664304622e+01
 1.229519932978395e+00	 1.182503954211610e+00	 1.217164766396217e+01
 1.217938592550565e+00	 1.194428942024386e+00	 1.207040499392905e+01
 1.206241047291285e+00	 1.206241047291284e+00	 1.196726099186190e+01
 1.194428942024386e+00	 1.217938592550565e+00	 1.186175309606991e+01
 1.182503954211610e+00	 1.229519932978395e+00	 1.175343165073745e+01
 1.170467793152314e+00	 1.240983457165895e+00	 1.164186775482311e+01
 1.158322199160745e+00	 1.252327587872164e+00	 1.152666107128463e+01
 1.146068942721699e+00	 1.263550782752567e+00	 1.140744753384910e+01
 1.272264432282461e+00	 1.153972418577491e+00	 1.245920822395059e+01
 1.260963840444322e+00	 1.166310175445004e+00	 1.236069799034384e+01
 1.249541478787367e+00	 1.178539527407404e+00	 1.226206678152961e+01
 1.237998900292488e+00	 1.190658691770356e+00	 1.216283918484246e+01
 1.226337693077483e+00	 1.202665916218128e+00	 1.206252838041429e+01
 1.214559479663764e+00	 1.214559479663763e+00	 1.196064415390234e+01
 1.202665916218128e+00	 1.226337693077483e+00	 1.185670106515950e+01
 1.190658691770356e+00	 1.237998900292488e+00	 1.175022671050160e+01
 1.178539527407404e+00	 1.249541478787368e+00	 1.164077001458569e+01
 1.166310175445003e+00	 1.260963840444322e+00	 1.152790948671446e+01
 1.153972418577490e+00	 1.272264432282461e+00	 1.141126137563340e+01
 1.280978081812554e+00	 1.161875894433798e+00	 1.244922874062755e+01
 1.269600093016688e+00	 1.174298151729765e+00	 1.235104647342671e+01
 1.258099500409073e+00	 1.186611261662972e+00	 1.225308014935137e+01
 1.246477867606846e+00	 1.198813429329542e+00	 1.215483279255261e+01
 1.234736793604708e+00	 1.210902890412267e+00	 1.205579481105206e+01
 1.222877912036596e+00	 1.222877912036596e+00	 1.195545244026481e+01
 1.210902890412267e+00	 1.234736793604708e+00	 1.185329635636559e+01
 1.198813429329542e+00	 1.246477867606846e+00	 1.174883039413676e+01
 1.186611261662972e+00	 1.258099500409073e+00	 1.164158030218675e+01
 1.174298151729764e+00	 1.269600093016688e+00	 1.153110246714406e+01
 1.161875894433798e+00	 1.280978081812555e+00	 1.141699253761132e+01
 1.289691731342716e+00	 1.169779370290472e+00	 1.243865656695213e+01
 1.278236345589129e+00	 1.182286128014876e+00	 1.234126344741511e+01
 1.266657522030872e+00	 1.194682995918862e+00	 1.224436611485130e+01
 1.254956834921330e+00	 1.206968166889016e+00	 1.214744516822138e+01
 1.243135894132096e+00	 1.219139864606653e+00	 1.204996731066275e+01
 1.231196344409631e+00	 1.231196344409631e+00	 1.195139424266178e+01
 1.219139864606653e+00	 1.243135894132095e+00	 1.185119173980015e+01
 1.206968166889015e+00	 1.254956834921330e+00	 1.174883884658447e+01
 1.194682995918862e+00	 1.266657522030872e+00	 1.164383711600224e+01
 1.182286128014876e+00	 1.278236345589129e+00	 1.153571982307001e+01
 1.169779370290472e+00	 1.289691731342716e+00	 1.142406107975436e+01
 1.298405380872812e+00	 1.177682846147362e+00	 1.242751346006184e+01
 1.286872598161509e+00	 1.190274104300183e+00	 1.233132080133668e+01
 1.275215543652630e+00	 1.202754730174920e+00	 1.223584577698812e+01
 1.263435802235798e+00	 1.215122904448623e+00	 1.214054569793827e+01
 1.251534994659502e+00	 1.227376838801135e+00	 1.204486262348198e+01
 1.239514776782723e+00	 1.239514776782723e+00	 1.194823272351908e+01
 1.227376838801135e+00	 1.251534994659502e+00	 1.185009584095885e+01
 1.215122904448622e+00	 1.263435802235798e+00	 1.174990518255375e+01
 1.202754730174919e+00	 1.275215543652630e+00	 1.164713706443900e+01
 1.190274104300183e+00	 1.286872598161510e+00	 1.154130063717805e+01
 1.177682846147362e+00	 1.298405380872811e+00	 1.143194751414990e+01
 1.307119030402707e+00	 1.185586322004319e+00	 1.241586942209066e+01
 1.295508850733696e+00	 1.198262080585534e+00	 1.232123953779172e+01
 1.283773565274210e+00	 1.210826464430992e+00	 1.222749026435848e+01
 1.271914769550112e+00	 1.223277642008209e+00	 1.213405475814574e+01
 1.259934095186783e+00	 1.235613812995560e+00	 1.204034948638862e+01
 1.247833209155723e+00	 1.247833209155723e+00	 1.194578407847712e+01
 1.235613812995560e+00	 1.259934095186783e+00	 1.184977139390169e+01
 1.223277642008209e+00	 1.271914769550112e+00	 1.175173773175344e+01
 1.210826464430991e+00	 1.283773565274210e+00	 1.165113310456001e+01
 1.198262080585534e+00	 1.295508850733697e+00	 1.154744149765911e+01
 1.185586322004319e+00	 1.307119030402707e+00	 1.144019103426751e+01
 1.315832679932269e+00	 1.193489797861193e+00	 1.240384102305428e+01
 1.304145103305555e+00	 1.206250056870774e+00	 1.231108808045815e+01
 1.292331586895474e+00	 1.218898198686921e+00	 1.221931902883583e+01
 1.280393736864130e+00	 1.231432379567622e+00	 1.212794199690563e+01
 1.268333195713795e+00	 1.243850787189779e+00	 1.203634689926770e+01
 1.256151641528484e+00	 1.256151641528484e+00	 1.194391579729069e+01
 1.243850787189779e+00	 1.268333195713795e+00	 1.185003349410131e+01
 1.231432379567622e+00	 1.280393736864131e+00	 1.175409828506723e+01
 1.218898198686921e+00	 1.292331586895474e+00	 1.165553278292476e+01
 1.206250056870774e+00	 1.304145103305556e+00	 1.155379473501874e+01
 1.193489797861193e+00	 1.315832679932269e+00	 1.144838774899812e+01
 1.324546329461365e+00	 1.201393273717834e+00	 1.239158971623024e+01
 1.312781355876951e+00	 1.214238033155751e+00	 1.230098057527262e+01
 1.300889608516286e+00	 1.226969932942555e+00	 1.221139813407519e+01
 1.288872704177714e+00	 1.239587117126707e+00	 1.212222461122661e+01
 1.276732296240394e+00	 1.252087761383638e+00	 1.203282239263659e+01
 1.264470073900858e+00	 1.264470073900858e+00	 1.194254492320025e+01
 1.252087761383638e+00	 1.276732296240393e+00	 1.185074785097438e+01
 1.239587117126707e+00	 1.288872704177715e+00	 1.175680034162578e+01
 1.226969932942555e+00	 1.300889608516286e+00	 1.166009647854539e+01
 1.214238033155750e+00	 1.312781355876951e+00	 1.156006666222032e+01
 1.201393273717833e+00	 1.324546329461365e+00	 1.145618892124548e+01
 1.333259978989861e+00	 1.209296749574091e+00	 1.237932014637544e+01
 1.321417608447750e+00	 1.222226009440309e+00	 1.229107518557870e+01
 1.309447630136510e+00	 1.235041667197740e+00	 1.220383853912001e+01
 1.297351671490723e+00	 1.247741854685311e+00	 1.211696562063699e+01
 1.285131396766435e+00	 1.260324735576988e+00	 1.202979029266198e+01
 1.272788506272696e+00	 1.272788506272696e+00	 1.194163631084581e+01
 1.260324735576988e+00	 1.285131396766435e+00	 1.185182904011057e+01
 1.247741854685311e+00	 1.297351671490724e+00	 1.175970735673392e+01
 1.235041667197739e+00	 1.309447630136510e+00	 1.166463564785964e+01
 1.222226009440309e+00	 1.321417608447750e+00	 1.156601581800819e+01
 1.209296749574091e+00	 1.333259978989862e+00	 1.146329921086084e+01
 1.341973628517624e+00	 1.217200225429816e+00	 1.236727845110944e+01
 1.330053861017818e+00	 1.230213985724297e+00	 1.228157238151748e+01
 1.318005651756009e+00	 1.243113401452318e+00	 1.219679437733497e+01
 1.305830638803017e+00	 1.255896592243279e+00	 1.211227213717128e+01
 1.293530497291775e+00	 1.268561709769677e+00	 1.202730998368776e+01
 1.281106938643851e+00	 1.281106938643851e+00	 1.194120088278996e+01
 1.268561709769677e+00	 1.293530497291775e+00	 1.185323875521386e+01
 1.255896592243279e+00	 1.305830638803016e+00	 1.176273099061761e+01
 1.243113401452318e+00	 1.318005651756009e+00	 1.166901107162983e+01
 1.230213985724297e+00	 1.330053861017819e+00	 1.157145121326614e+01
 1.217200225429816e+00	 1.341973628517624e+00	 1.146947492172395e+01
 1.350687278044521e+00	 1.225103701284858e+00	 1.235575055577308e+01
 1.338690113587021e+00	 1.238201962007561e+00	 1.227271322392071e+01
 1.326563673374646e+00	 1.251185135706137e+00	 1.219046123087683e+01
 1.314309606114455e+00	 1.264051329800459e+00	 1.210829363193618e+01
 1.301929597816270e+00	 1.276798683961553e+00	 1.202548416838553e+01
 1.289425371014175e+00	 1.289425371014175e+00	 1.194129388471358e+01
 1.276798683961554e+00	 1.301929597816271e+00	 1.185498405977021e+01
 1.264051329800459e+00	 1.314309606114455e+00	 1.176582935795258e+01
 1.251185135706137e+00	 1.326563673374646e+00	 1.167313110368321e+01
 1.238201962007560e+00	 1.338690113587021e+00	 1.157623058027615e+01
 1.225103701284858e+00	 1.350687278044521e+00	 1.147452225278481e+01
 1.146068942721699e+00	 1.263550782752567e+00	 1.140744753384910e+01
 1.133707716880876e+00	 1.274653408479857e+00	 1.128721791063396e+01
 1.121242441496144e+00	 1.285632058818114e+00	 1.116864402917211e+01
 1.108674993186852e+00	 1.296485279562974e+00	 1.105082178066365e+01
 1.096007275146951e+00	 1.307211654121905e+00	 1.093123018987256e+01
 1.083241216195826e+00	 1.317809804118724e+00	 1.080901580249908e+01
 1.070378769813079e+00	 1.328278389969561e+00	 1.068452818711190e+01
 1.057421913158275e+00	 1.338616111429825e+00	 1.055824522675498e+01
 1.044372646076649e+00	 1.348821708111680e+00	 1.043075021031936e+01
 1.031232990091838e+00	 1.358893959971655e+00	 1.030270869976876e+01
 1.018004987386674e+00	 1.368831687767984e+00	 1.017484532467753e+01
 1.153972418577490e+00	 1.272264432282461e+00	 1.141126137563340e+01
 1.141525947733760e+00	 1.283443623503178e+00	 1.129354253448611e+01
 1.128974709803667e+00	 1.294497984380611e+00	 1.117716197689622e+01
 1.116320594348051e+00	 1.305426050681972e+00	 1.106127094579485e+01
 1.103565517685615e+00	 1.316226396045690e+00	 1.094457271219134e+01
 1.090711421937214e+00	 1.326897632590081e+00	 1.082465865637409e+01
 1.077760274053982e+00	 1.337438411493300e+00	 1.070162126687883e+01
 1.064714064830313e+00	 1.347847423544064e+00	 1.057594691857832e+01
 1.051574807902719e+00	 1.358123399662709e+00	 1.044823045062436e+01
 1.038344538735610e+00	 1.368265111392152e+00	 1.031915094665537e+01
 1.025025313595061e+00	 1.378271371358397e+00	 1.018944744417803e+01
 1.161875894433798e+00	 1.280978081812555e+00	 1.141699253761132e+01
 1.149344178587157e+00	 1.292233838526709e+00	 1.130168671707805e+01
 1.136706978111685e+00	 1.303363909943341e+00	 1.118733874211374e+01
 1.123966195509715e+00	 1.314366821801240e+00	 1.107312182995851e+01
 1.111123760224704e+00	 1.325241137969791e+00	 1.095825038379321e+01
 1.098181627678979e+00	 1.335985461061809e+00	 1.084068445499345e+01
 1.085141778295210e+00	 1.346598433017467e+00	 1.071915786088642e+01
 1.072006216502622e+00	 1.357078735658791e+00	 1.059419333450506e+01
 1.058776969729005e+00	 1.367425091214284e+00	 1.046642603659499e+01
 1.045456087379546e+00	 1.377636262813252e+00	 1.033657816280914e+01
 1.032045639803564e+00	 1.387711054949461e+00	 1.020543348412950e+01
 1.169779370290472e+00	 1.289691731342716e+00	 1.142406107975435e+01
 1.157162409440923e+00	 1.301024053550314e+00	 1.131101821391102e+01
 1.144439246420064e+00	 1.312229835506167e+00	 1.119850546435232e+01
 1.131611796671720e+00	 1.323307592920637e+00	 1.108573884532620e+01
 1.118682002764106e+00	 1.334255879894061e+00	 1.097197922725784e+01
 1.105651833421024e+00	 1.345073289533754e+00	 1.085629814237060e+01
 1.092523282536677e+00	 1.355758454541902e+00	 1.073637758407293e+01
 1.079298368175126e+00	 1.366310047773840e+00	 1.061227190783679e+01
 1.065979131555443e+00	 1.376726782766234e+00	 1.048468515257841e+01
 1.052567636023590e+00	 1.387007414234776e+00	 1.035441199416760e+01
 1.039065966012132e+00	 1.397150738540992e+00	 1.022231103203890e+01
 1.177682846147362e+00	 1.298405380872811e+00	 1.143194751414990e+01
 1.164980640294915e+00	 1.309814268573860e+00	 1.132096619697481e+01
 1.152171514728669e+00	 1.321095761068952e+00	 1.121005522231413e+01
 1.139257397833942e+00	 1.332248364040022e+00	 1.109849377080945e+01
 1.126240245303709e+00	 1.343270621818356e+00	 1.098561054343270e+01
 1.113122039163247e+00	 1.354161118005765e+00	 1.087079243304646e+01
 1.099904786778295e+00	 1.364918476066450e+00	 1.075256997138573e+01
 1.086590519847752e+00	 1.375541359889048e+00	 1.062951628498185e+01
 1.073181293381967e+00	 1.386028474318387e+00	 1.050239805707970e+01
 1.059679184667685e+00	 1.396378565656545e+00	 1.037211161027995e+01
 1.046086292220716e+00	 1.406590422132806e+00	 1.023962025761166e+01
 1.185586322004319e+00	 1.307119030402707e+00	 1.144019103426751e+01
 1.172798871148991e+00	 1.318604483597212e+00	 1.133101948882335e+01
 1.159903783037364e+00	 1.329961686631559e+00	 1.122144128896028e+01
 1.146902998996257e+00	 1.341189135159253e+00	 1.111081870470694e+01
 1.133798487843401e+00	 1.352285363742528e+00	 1.099856917445763e+01
 1.120592244905549e+00	 1.363248946477688e+00	 1.088417432636698e+01
 1.107286291019977e+00	 1.374078497590948e+00	 1.076707611540640e+01
 1.093882671520421e+00	 1.384772672004246e+00	 1.064530797898142e+01
 1.080383455208513e+00	 1.395330165870572e+00	 1.051899876410538e+01
 1.066790733311775e+00	 1.405749717078383e+00	 1.038917542505111e+01
 1.053106618429265e+00	 1.416030105724721e+00	 1.025693568413662e+01
 1.193489797861193e+00	 1.315832679932269e+00	 1.144838774899812e+01
 1.180617102003005e+00	 1.327394698620236e+00	 1.134072480239765e+01
 1.167636051346017e+00	 1.338827612193851e+00	 1.123217539272041e+01
 1.154548600158541e+00	 1.350129906278190e+00	 1.112220436247655e+01
 1.141356730383070e+00	 1.361300105666432e+00	 1.101033834465751e+01
 1.128062450647831e+00	 1.372336774949374e+00	 1.089617512498680e+01
 1.114667795261635e+00	 1.383238519115241e+00	 1.077939244526191e+01
 1.101174823193060e+00	 1.394003984119271e+00	 1.065907802269879e+01
 1.087585617035015e+00	 1.404631857422616e+00	 1.053396672128138e+01
 1.073902281955803e+00	 1.415120868500110e+00	 1.040514281088800e+01
 1.060126944637731e+00	 1.425469789316554e+00	 1.027386794943367e+01
 1.201393273717833e+00	 1.324546329461365e+00	 1.145618892124548e+01
 1.188435332856816e+00	 1.336184913642798e+00	 1.134968498633138e+01
 1.175368319654492e+00	 1.347693537755692e+00	 1.124182598454335e+01
 1.162194201320671e+00	 1.359070677396690e+00	 1.113219838015140e+01
 1.148914972922603e+00	 1.370314847589920e+00	 1.102045801452194e+01
 1.135532656389991e+00	 1.381424603420668e+00	 1.090633980138485e+01
 1.122049299503183e+00	 1.392398540639167e+00	 1.078966683792420e+01
 1.108466974865591e+00	 1.403235296233957e+00	 1.067030862167304e+01
 1.094787778861408e+00	 1.413933548974346e+00	 1.054682848488493e+01
 1.081013830599713e+00	 1.424492019921550e+00	 1.041959580654185e+01
 1.067147270846063e+00	 1.434909472908120e+00	 1.029006555683295e+01
 1.209296749574091e+00	 1.333259978989862e+00	 1.146329921086083e+01
 1.196253563710278e+00	 1.344975128664763e+00	 1.135755727548685e+01
 1.183100587962654e+00	 1.356559463316943e+00	 1.125001651052147e+01
 1.169839802482522e+00	 1.368011448514615e+00	 1.114040362314178e+01
 1.156473215461888e+00	 1.379329589512847e+00	 1.102852323936437e+01
 1.143002862131931e+00	 1.390512431891419e+00	 1.091426792563887e+01
 1.129430803744532e+00	 1.401558562162570e+00	 1.079762759948252e+01
 1.115759126537940e+00	 1.412466608348141e+00	 1.067869824539123e+01
 1.101989940687627e+00	 1.423235240525593e+00	 1.055715939191755e+01
 1.088125379243450e+00	 1.433863171342523e+00	 1.043216081892148e+01
 1.074167597054211e+00	 1.444349156499237e+00	 1.030521661662916e+01
 1.217200225429816e+00	 1.341973628517624e+00	 1.146947492172394e+01
 1.204071794563250e+00	 1.353765343685996e+00	 1.136405154648397e+01
 1.190832856270369e+00	 1.365425388877469e+00	 1.125642368983532e+01
 1.177485403643970e+00	 1.376952219631822e+00	 1.114647650017811e+01
 1.164031458000814e+00	 1.388344331435067e+00	 1.103418253244933e+01
 1.150473067873550e+00	 1.399600260361473e+00	 1.091961209051618e+01
 1.136812307985596e+00	 1.410718583685290e+00	 1.080294293031727e+01
 1.123051278210032e+00	 1.421697920461653e+00	 1.068446923626757e+01
 1.109192102513608e+00	 1.432536932076184e+00	 1.056458522934226e+01
 1.095236927886956e+00	 1.443234322762853e+00	 1.044251031914168e+01
 1.081187923262125e+00	 1.453788840089721e+00	 1.031905057843212e+01
 1.225103701284858e+00	 1.350687278044521e+00	 1.147452225278481e+01
 1.211890025415587e+00	 1.362555558706364e+00	 1.136892857799837e+01
 1.198565124577503e+00	 1.374291314437132e+00	 1.126077579777856e+01
 1.185131004804892e+00	 1.385892990748170e+00	 1.115012528216137e+01
 1.171589700539268e+00	 1.397359073356434e+00	 1.103713623238486e+01
 1.157943273614751e+00	 1.408688088830681e+00	 1.092207633972960e+01
 1.144193812226287e+00	 1.419878605207170e+00	 1.080533177531299e+01
 1.130343429881790e+00	 1.430929232574333e+00	 1.068741641952396e+01
 1.116394264339284e+00	 1.441838623625946e+00	 1.056898024379379e+01
 1.102348476530177e+00	 1.452605474182361e+00	 1.045036453305112e+01
 1.088208249469755e+00	 1.463228523679388e+00	 1.033133995481213e+01
 1.018004987386674e+00	 1.368831687767984e+00	 1.017484532467753e+01
 1.004692968916580e+00	 1.378632099840567e+00	 1.004259742260139e+01
 9.912967667163965e-01	 1.388295805688710e+00	 9.902125531880777e+00
 9.778184702054483e-01	 1.397821756979510e+00	 9.755351203906789e+00
 9.642601853264984e-01	 1.407208947638231e+00	 9.604199433255948e+00
 9.506240334873820e-01	 1.416456414148170e+00	 9.450575673213802e+00
 9.369121504971005e-01	 1.425563235819023e+00	 9.296343588923625e+00
 9.231266854974417e-01	 1.434528535023648e+00	 9.143303673396575e+00
 9.092697998912239e-01	 1.443351477403215e+00	 8.993172844581302e+00
 8.953436662682289e-01	 1.452031272040745e+00	 8.847565134035314e+00
 8.813504673299017e-01	 1.460567171603084e+00	 8.707973569526297e+00
 1.025025313595061e+00	 1.378271371358397e+00	 1.018944744417803e+01
 1.011621493303471e+00	 1.388139368649607e+00	 1.005498047239717e+01
 9.981329087373513e-01	 1.397869716968293e+00	 9.912466309007133e+00
 9.845616637249737e-01	 1.407461360752077e+00	 9.764044150374952e+00
 9.709098787319960e-01	 1.416913286988161e+00	 9.611859899209442e+00
 9.571796897958004e-01	 1.426224525515272e+00	 9.458041851972634e+00
 9.433732474542456e-01	 1.435394149293874e+00	 9.304677156168312e+00
 9.294927156699231e-01	 1.444421274644560e+00	 9.153789168743339e+00
 9.155402707510089e-01	 1.453305061454624e+00	 9.007315839489497e+00
 9.015181002697905e-01	 1.462044713352791e+00	 8.867089235349097e+00
 8.874284019799485e-01	 1.470639477852173e+00	 8.734816312953864e+00
 1.032045639803564e+00	 1.387711054949461e+00	 1.020543348412950e+01
 1.018550017690437e+00	 1.397646637459339e+00	 1.006936219432951e+01
 1.004969050758347e+00	 1.407443628248601e+00	 9.925691877242414e+00
 9.913048572445138e-01	 1.417100964525390e+00	 9.776762835176836e+00
 9.775595721374907e-01	 1.426617626338850e+00	 9.624924312882355e+00
 9.637353461042063e-01	 1.435992636883139e+00	 9.472508849224301e+00
 9.498343444113779e-01	 1.445225062769485e+00	 9.321807433377799e+00
 9.358587458424015e-01	 1.454314014266221e+00	 9.175045602907289e+00
 9.218107416108101e-01	 1.463258645506763e+00	 9.034360613430874e+00
 9.076925342713974e-01	 1.472058154665538e+00	 8.901779801237701e+00
 8.935063366300805e-01	 1.480711784101927e+00	 8.779200251288337e+00
 1.039065966012132e+00	 1.397150738540992e+00	 1.022231103203889e+01
 1.025478542077431e+00	 1.407153906269574e+00	 1.008533278400482e+01
 1.011805192779338e+00	 1.417017539529440e+00	 9.941456563680600e+00
 9.980480507640210e-01	 1.426740568299254e+00	 9.793207967817308e+00
 9.842092655429320e-01	 1.436321965690104e+00	 9.643122751935342e+00
 9.702910024125454e-01	 1.445760748251577e+00	 9.493719836866410e+00
 9.562954413684375e-01	 1.455055976245666e+00	 9.347475156880327e+00
 9.422247760148100e-01	 1.464206753888444e+00	 9.206796493029097e+00
 9.280812124705554e-01	 1.473212229559448e+00	 9.073999427343438e+00
 9.138669682729712e-01	 1.482071595978811e+00	 8.951245425373637e+00
 8.995842712802146e-01	 1.490784090352179e+00	 8.830367519699648e+00
 1.046086292220716e+00	 1.406590422132806e+00	 1.023962025761166e+01
 1.032407066464406e+00	 1.416661175080125e+00	 1.010251012642747e+01
 1.018641334800278e+00	 1.426591450810619e+00	 9.959437961124793e+00
 1.004791244283449e+00	 1.436380172073477e+00	 9.813099563691072e+00
 9.908589589482699e-01	 1.446026305041729e+00	 9.666201098320034e+00
 9.768466587207626e-01	 1.455528859620391e+00	 9.521430741640163e+00
 9.627565383253651e-01	 1.464886889722225e+00	 9.381431214046776e+00
 9.485908061870841e-01	 1.474099493511040e+00	 9.248773342181355e+00
 9.343516833301719e-01	 1.483165813612497e+00	 9.125628829301558e+00
 9.200414022744343e-01	 1.492085037292435e+00	 9.002633603020708e+00
 9.056622059302669e-01	 1.500856396602764e+00	 8.874816554933737e+00
 1.053106618429265e+00	 1.416030105724721e+00	 1.025693568413662e+01
 1.039335590851317e+00	 1.426168443890803e+00	 1.012054161498841e+01
 1.025477476821122e+00	 1.436165362091947e+00	 9.979338777950806e+00
 1.011534437802752e+00	 1.446019775847865e+00	 9.836178808612297e+00
 9.975086523534547e-01	 1.455730644393530e+00	 9.693922901795890e+00
 9.834023150288044e-01	 1.465296970989389e+00	 9.555412092490375e+00
 9.692176352821006e-01	 1.474717803198971e+00	 9.423438459894383e+00
 9.549568363591572e-01	 1.483992233133823e+00	 9.300090914698258e+00
 9.406221541895883e-01	 1.493119397665729e+00	 9.175649875624716e+00
 9.262158362757085e-01	 1.502098478606234e+00	 9.046500273581016e+00
 9.117401405801542e-01	 1.510928702853515e+00	 8.913331458272403e+00
 1.060126944637731e+00	 1.425469789316554e+00	 1.027386794943368e+01
 1.046264115238116e+00	 1.435675712701421e+00	 1.013910595627809e+01
 1.032313618841824e+00	 1.445739273373232e+00	 1.000088867070843e+01
 1.018277631321881e+00	 1.455659379622224e+00	 9.862209903629621e+00
 1.004158345758437e+00	 1.465434983745314e+00	 9.726071221892685e+00
 9.899579713366164e-01	 1.475065082358376e+00	 9.595450845132468e+00
 9.756787322385841e-01	 1.484548716675711e+00	 9.472405849477358e+00
 9.613228665309635e-01	 1.493884972756603e+00	 9.347364339330756e+00
 9.468926250487323e-01	 1.503072981718960e+00	 9.217552981641848e+00
 9.323902702767158e-01	 1.512111919920033e+00	 9.083768612812285e+00
 9.178180752297926e-01	 1.521001009104266e+00	 8.946772916957194e+00
 1.067147270846063e+00	 1.434909472908120e+00	 1.029006555683295e+01
 1.053192639624757e+00	 1.445182981511791e+00	 1.015791496136417e+01
 1.039149760862339e+00	 1.455313184654283e+00	 1.002384606024348e+01
 1.025020824840791e+00	 1.465298983396362e+00	 9.890981891019788e+00
 1.010808039163166e+00	 1.475139323096885e+00	 9.762450449302740e+00
 9.965136276441440e-01	 1.484833193727160e+00	 9.640395977088740e+00
 9.821398291947556e-01	 1.494379630152254e+00	 9.515695462980027e+00
 9.676888967024372e-01	 1.503777712379192e+00	 9.386038457823075e+00
 9.531630959075313e-01	 1.513026565772008e+00	 9.252312390539529e+00
 9.385647042773780e-01	 1.522125361233656e+00	 9.115364301262712e+00
 9.238960098790993e-01	 1.531073315354851e+00	 8.976005083889440e+00
 1.074167597054211e+00	 1.444349156499237e+00	 1.030521661662916e+01
 1.060121164011194e+00	 1.454690250321724e+00	 1.017671532414386e+01
 1.045985902882622e+00	 1.464887095934911e+00	 1.004799993208158e+01
 1.031764018359434e+00	 1.474938587170084e+00	 9.922310462312700e+00
 1.017457732567592e+00	 1.484843662448050e+00	 9.802004946020467e+00
 1.003069283951333e+00	 1.494601305095546e+00	 9.678615287286823e+00
 9.886009261505561e-01	 1.504210543628409e+00	 9.550000386991812e+00
 9.740549268735124e-01	 1.513670452001405e+00	 9.417124284427233e+00
 9.594335667659144e-01	 1.522980149824690e+00	 9.280904298906416e+00
 9.447391382776166e-01	 1.532138802546929e+00	 9.142215600019604e+00
 9.299739445279901e-01	 1.541145621605104e+00	 9.001895639535764e+00
 1.081187923262125e+00	 1.453788840089721e+00	 1.031905057843212e+01
 1.067049688397380e+00	 1.464197519131034e+00	 1.019529038734353e+01
 1.052822044902626e+00	 1.474461007214922e+00	 1.007317162177953e+01
 1.038507211877764e+00	 1.484578190943199e+00	 9.955355955003746e+00
 1.024107425971666e+00	 1.494548001798615e+00	 9.834217990180262e+00
 1.009624940258128e+00	 1.504369416463341e+00	 9.707540944116889e+00
 9.950620231059248e-01	 1.514041457103985e+00	 9.576354617108160e+00
 9.804209570441232e-01	 1.523563191623050e+00	 9.441634542380601e+00
 9.657040376238087e-01	 1.532933733876824e+00	 9.304306914953099e+00
 9.509135722773541e-01	 1.542152243859676e+00	 9.165253407362055e+00
 9.360518791763819e-01	 1.551217927854858e+00	 9.025315836016176e+00
 1.088208249469755e+00	 1.463228523679388e+00	 1.033133995481213e+01
 1.073978212783269e+00	 1.473704787939532e+00	 1.021346189671297e+01
 1.059658186922306e+00	 1.484034918494126e+00	 1.009879476324079e+01
 1.045250405395733e+00	 1.494217794715511e+00	 9.980773554464967e+00
 1.030757119375336e+00	 1.504252341148384e+00	 9.856884827871671e+00
 1.016180596564476e+00	 1.514137527830351e+00	 9.728216638580172e+00
 1.001523120060802e+00	 1.523872370578788e+00	 9.595793899654485e+00
 9.867869872142039e-01	 1.533455931243943e+00	 9.460583692909680e+00
 9.719745084811420e-01	 1.542887317928227e+00	 9.323500497696587e+00
 9.570880062765122e-01	 1.552165685171722e+00	 9.185411297182048e+00
 9.421298138241911e-01	 1.561290234103947e+00	 9.047140524183888e+00
 8.813504673299017e-01	 1.460567171603084e+00	 8.707973569526297e+00
 8.672923950884808e-01	 1.468958472805697e+00	 8.574828269684858e+00
 8.531716505985251e-01	 1.477204517559897e+00	 8.449069950046560e+00
 8.389904420291475e-01	 1.485304691966158e+00	 8.330683288583405e+00
 8.247509833144842e-01	 1.493258425976087e+00	 8.207449424660581e+00
 8.104554930871936e-01	 1.501065193376526e+00	 8.077724764278116e+00
 7.961061936170186e-01	 1.508724511743271e+00	 7.942358153962500e+00
 7.817053097554028e-01	 1.516235942364690e+00	 7.802194766813242e+00
 7.672550678871213e-01	 1.523599090135625e+00	 7.658077642208799e+00
 7.527576948898844e-01	 1.530813603421977e+00	 7.510849028188117e+00
 7.382154171028291e-01	 1.537879173896387e+00	 7.361328690159525e+00
 8.874284019799485e-01	 1.470639477852173e+00	 8.734816312953864e+00
 8.732733830101742e-01	 1.479088646818267e+00	 8.611305816018721e+00
 8.590552595938652e-01	 1.487391557624094e+00	 8.493074164068613e+00
 8.447762551280438e-01	 1.495547592136579e+00	 8.368668088670647e+00
 8.304385988145104e-01	 1.503556176376176e+00	 8.238229894920362e+00
 8.160445245859902e-01	 1.511416780500874e+00	 8.102635971782757e+00
 8.015962700373760e-01	 1.519128918759591e+00	 7.962756462687551e+00
 7.870960753630630e-01	 1.526692149415263e+00	 7.819457046232957e+00
 7.725461823013522e-01	 1.534106074638021e+00	 7.673600512556844e+00
 7.579488330868802e-01	 1.541370340368837e+00	 7.526048129382849e+00
 7.433062694119952e-01	 1.548484636154071e+00	 7.377660793992836e+00
 8.935063366300805e-01	 1.480711784101927e+00	 8.779200251288337e+00
 8.792543709320035e-01	 1.489218820831457e+00	 8.660153644695448e+00
 8.649388685894009e-01	 1.497578597688862e+00	 8.534572061025933e+00
 8.505620682272012e-01	 1.505790492307516e+00	 8.403282917874122e+00
 8.361262143148677e-01	 1.513853926776723e+00	 8.267175233644117e+00
 8.216335560851904e-01	 1.521768367625621e+00	 8.127128696183487e+00
 8.070863464582093e-01	 1.529533325776251e+00	 7.984015733886213e+00
 7.924868409712681e-01	 1.537148356466121e+00	 7.838703377457245e+00
 7.778372967161935e-01	 1.544613059140650e+00	 7.692054903769144e+00
 7.631399712845450e-01	 1.551927077315883e+00	 7.544931255614425e+00
 7.483971217218806e-01	 1.559090098411905e+00	 7.398192233505344e+00
 8.995842712802146e-01	 1.490784090352179e+00	 8.830367519699648e+00
 8.852353588538810e-01	 1.499348994845113e+00	 8.703799140438079e+00
 8.708224775850404e-01	 1.507765637754059e+00	 8.571756157124582e+00
 8.563478813265247e-01	 1.516033392478839e+00	 8.435126812932122e+00
 8.418138298154593e-01	 1.524151677177614e+00	 8.294786304957075e+00
 8.272225875846949e-01	 1.532119954750671e+00	 8.151599193498852e+00
 8.125764228794151e-01	 1.539937732793172e+00	 8.006421599498751e+00
 7.978776065799132e-01	 1.547604563517200e+00	 7.860103178693953e+00
 7.831284111315374e-01	 1.555120043643465e+00	 7.713488863535943e+00
 7.683311094827668e-01	 1.562483814263085e+00	 7.567420366415288e+00
 7.534879740323673e-01	 1.569695560669870e+00	 7.422737440202621e+00
 9.056622059302669e-01	 1.500856396602764e+00	 8.874816554933737e+00
 8.912163467757186e-01	 1.509479168859079e+00	 8.742278880447632e+00
 8.767060865806919e-01	 1.517952677819541e+00	 8.605322736838412e+00
 8.621336944259204e-01	 1.526276292650423e+00	 8.464806380626085e+00
 8.475014453161869e-01	 1.534449427578739e+00	 8.321573352956580e+00
 8.328116190844025e-01	 1.542471541875925e+00	 8.176455061162120e+00
 8.180664993008917e-01	 1.550342139810273e+00	 8.030273134379945e+00
 8.032683721888931e-01	 1.558060770568436e+00	 7.883841541216779e+00
 7.884195255472742e-01	 1.565627028146418e+00	 7.737968460067334e+00
 7.735222476814329e-01	 1.573040551210412e+00	 7.593457895316615e+00
 7.585788263433394e-01	 1.580301022927953e+00	 7.451111035252177e+00
 9.117401405801542e-01	 1.510928702853515e+00	 8.913331458272403e+00
 8.971973346974279e-01	 1.519609342873201e+00	 8.776376291540258e+00
 8.825896955762635e-01	 1.528139717885166e+00	 8.635974065589458e+00
 8.679195075252928e-01	 1.536519192822136e+00	 8.492935814096194e+00
 8.531890608169531e-01	 1.544747177979981e+00	 8.348055970192707e+00
 8.384006505842134e-01	 1.552823129001288e+00	 8.202115152671505e+00
 8.235565757225364e-01	 1.560746546827471e+00	 8.055882711453837e+00
 8.086591377981025e-01	 1.568516977619765e+00	 7.910119019687873e+00
 7.937106399632963e-01	 1.576134012649463e+00	 7.765577502583375e+00
 7.787133858804310e-01	 1.583597288157833e+00	 7.623006395848419e+00
 7.636696786546789e-01	 1.590906485186136e+00	 7.483150229321874e+00
 9.178180752297926e-01	 1.521001009104266e+00	 8.946772916957194e+00
 9.031783226189212e-01	 1.529739516887322e+00	 8.806879418006066e+00
 8.884733045716638e-01	 1.538326757950793e+00	 8.664418431052836e+00
 8.737053206245469e-01	 1.546762092993852e+00	 8.520136895003859e+00
 8.588766763176608e-01	 1.555044928381229e+00	 8.374763054610714e+00
 8.439896820840277e-01	 1.563174716126660e+00	 8.229009483541029e+00
 8.290466521442460e-01	 1.571150953844690e+00	 8.083575851215166e+00
 8.140499034074358e-01	 1.578973184671124e+00	 7.939151420072356e+00
 7.990017543794944e-01	 1.586640997152551e+00	 7.796417262826751e+00
 7.839045240796491e-01	 1.594154025105315e+00	 7.656048192155323e+00
 7.687605309662698e-01	 1.601511947444404e+00	 7.518714398138247e+00
 9.238960098790993e-01	 1.531073315354851e+00	 8.976005083889440e+00
 9.091593105401110e-01	 1.539869690901289e+00	 8.834580977879536e+00
 8.943569135668006e-01	 1.548513798016276e+00	 8.691370168693858e+00
 8.794911337235884e-01	 1.557004993165442e+00	 8.547038982194769e+00
 8.645642918182125e-01	 1.565342678782369e+00	 8.402232755483221e+00
 8.495787135837455e-01	 1.573526303251948e+00	 8.257579128948509e+00
 8.345367285659182e-01	 1.581555360861846e+00	 8.113691065837630e+00
 8.194406690167874e-01	 1.589429391722447e+00	 7.971169585256664e+00
 8.042928687957606e-01	 1.597147981655634e+00	 7.830606197547340e+00
 7.890956622789742e-01	 1.604710762052827e+00	 7.692585034019120e+00
 7.738513832779944e-01	 1.612117409702741e+00	 7.557684666026576e+00
 9.299739445279901e-01	 1.541145621605104e+00	 9.001895639535764e+00
 9.151402984609079e-01	 1.549999864914945e+00	 8.860278402233153e+00
 9.002405225615827e-01	 1.558700838081477e+00	 8.717549672262500e+00
 8.852769468223221e-01	 1.567247893336778e+00	 8.574278987476383e+00
 8.702519073185101e-01	 1.575640429183288e+00	 8.431012408840518e+00
 8.551677450832662e-01	 1.583877890377051e+00	 8.288276113464960e+00
 8.400268049874504e-01	 1.591959767878859e+00	 8.146579698140904e+00
 8.248314346260520e-01	 1.599885598773673e+00	 8.006419178479058e+00
 8.095839832119860e-01	 1.607654966158667e+00	 7.868279671920226e+00
 7.942868004782945e-01	 1.615267499000339e+00	 7.732637756083561e+00
 7.789422355897361e-01	 1.622722871961131e+00	 7.599963497068554e+00
 9.360518791763819e-01	 1.551217927854858e+00	 9.025315836016176e+00
 9.211212863812259e-01	 1.560130038928136e+00	 8.884773858268581e+00
 9.061241315559183e-01	 1.568887878146250e+00	 8.743683389927961e+00
 8.910627599206535e-01	 1.577490793507730e+00	 8.602501339102496e+00
 8.759395228184563e-01	 1.585938179583875e+00	 8.461658462875437e+00
 8.607567765824902e-01	 1.594229477501873e+00	 8.321563293225209e+00
 8.455168814087400e-01	 1.602364174895649e+00	 8.182605755645465e+00
 8.302222002351246e-01	 1.610341805824735e+00	 8.045160464669458e+00
 8.148750976280617e-01	 1.618161950661601e+00	 7.909589683851435e+00
 7.994779386774973e-01	 1.625824235947819e+00	 7.776245941094493e+00
 7.840330879013778e-01	 1.633328334219558e+00	 7.645474293531571e+00
 9.421298138241911e-01	 1.561290234103947e+00	 9.047140524183888e+00
 9.271022743009752e-01	 1.570260212940706e+00	 8.908874256935897e+00
 9.120077405497161e-01	 1.579074918210454e+00	 8.770503806701443e+00
 8.968485730184877e-01	 1.587733693678173e+00	 8.632357933515614e+00
 8.816271383179539e-01	 1.596235929984013e+00	 8.494736393775677e+00
 8.663458080813169e-01	 1.604581064626318e+00	 8.357914230882539e+00
 8.510069578296842e-01	 1.612768581912134e+00	 8.222145739943034e+00
 8.356129658438992e-01	 1.620798012875571e+00	 8.087668089797230e+00
 8.201662120438797e-01	 1.628668935164389e+00	 7.954704589135172e+00
 8.046690768764703e-01	 1.636380972895235e+00	 7.823467586974107e+00
 7.891239402128029e-01	 1.643933796478007e+00	 7.694161001244832e+00
 7.382154171028291e-01	 1.537879173896387e+00	 7.361328690159521e+00
 7.236279760845722e-01	 1.544796699319223e+00	 7.210632110291772e+00
 7.090000631360169e-01	 1.551564742471175e+00	 7.060094834227627e+00
 6.943338973035842e-01	 1.558183122515130e+00	 6.910157766801836e+00
 6.796316931006791e-01	 1.564651701011141e+00	 6.761307684761097e+00
 6.648956595331175e-01	 1.570970381616013e+00	 6.614070467607668e+00
 6.501279991384760e-01	 1.577139109757170e+00	 6.469004687204714e+00
 6.353309070401131e-01	 1.583157872281432e+00	 6.326695571671928e+00
 6.205065700165817e-01	 1.589026697079364e+00	 6.187749356463822e+00
 6.056571655871235e-01	 1.594745652685850e+00	 6.052788032907607e+00
 5.907848611139003e-01	 1.600314847857605e+00	 5.922444501920795e+00
 7.433062694119952e-01	 1.548484636154071e+00	 7.377660793992837e+00
 7.286182310530740e-01	 1.555449865945195e+00	 7.229803790395888e+00
 7.138894416629766e-01	 1.562264582611605e+00	 7.082974556681261e+00
 6.991221355910099e-01	 1.568928604069117e+00	 6.937426508699179e+00
 6.843185426222054e-01	 1.575441790923091e+00	 6.793479346351024e+00
 6.694808869960243e-01	 1.581804046165940e+00	 6.651486580790998e+00
 6.546113864390823e-01	 1.588015314848759e+00	 6.511829214909165e+00
 6.397122512126476e-01	 1.594075583727669e+00	 6.374909818619864e+00
 6.247856831756360e-01	 1.599984880885581e+00	 6.241147011590676e+00
 6.098338748637979e-01	 1.605743275330016e+00	 6.110970363346659e+00
 5.948590085857599e-01	 1.611350876567704e+00	 5.984815718019915e+00
 7.483971217218806e-01	 1.559090098411905e+00	 7.398192233505340e+00
 7.336084860223341e-01	 1.566103032571284e+00	 7.253315286382400e+00
 7.187788201907214e-01	 1.572964422752130e+00	 7.110219314170449e+00
 7.039103738792361e-01	 1.579674085623184e+00	 6.968829762483714e+00
 6.890053921445356e-01	 1.586231880835110e+00	 6.829341652959027e+00
 6.740661144597255e-01	 1.592637710715933e+00	 6.691979206139901e+00
 6.590947737404607e-01	 1.598891519940410e+00	 6.556989542028722e+00
 6.440935953859185e-01	 1.604993295173967e+00	 6.424636796642953e+00
 6.290647963353766e-01	 1.610943064691862e+00	 6.295196667060887e+00
 6.140105841410952e-01	 1.616740897974249e+00	 6.168951394640125e+00
 5.989331560581634e-01	 1.622386905277870e+00	 6.046185193331921e+00
 7.534879740323673e-01	 1.569695560669870e+00	 7.422737440202622e+00
 7.385987409922289e-01	 1.576756199197490e+00	 7.280819222836886e+00
 7.236681987191226e-01	 1.583664262892763e+00	 7.141386518406927e+00
 7.086986121681291e-01	 1.590419567177356e+00	 7.003852234095337e+00
 6.936922416675310e-01	 1.597021970747234e+00	 6.868328318567798e+00
 6.786513419240797e-01	 1.603471375266033e+00	 6.734951972079743e+00
 6.635781610424684e-01	 1.609767725032176e+00	 6.603879296939990e+00
 6.484749395597842e-01	 1.615911006620389e+00	 6.475279385878505e+00
 6.333439094956671e-01	 1.621901248498271e+00	 6.349328860761210e+00
 6.181872934188862e-01	 1.627738520618614e+00	 6.226206871178878e+00
 6.030073035309952e-01	 1.633422933988169e+00	 6.106090559572696e+00
 7.585788263433394e-01	 1.580301022927953e+00	 7.451111035252177e+00
 7.435889959626369e-01	 1.587409365823811e+00	 7.312027080595410e+00
 7.285575772480534e-01	 1.594364103033515e+00	 7.176060854843435e+00
 7.134868504575554e-01	 1.601165048731655e+00	 7.042006461886885e+00
 6.983790911910537e-01	 1.607812060659499e+00	 6.909900905218202e+00
 6.832365693889447e-01	 1.614305039816288e+00	 6.779835851980875e+00
 6.680615483449621e-01	 1.620643930124109e+00	 6.651918455512121e+00
 6.528562837341026e-01	 1.626828718066988e+00	 6.526265346717262e+00
 6.376230226563703e-01	 1.632859432304870e+00	 6.402997098470751e+00
 6.223640026970428e-01	 1.638736143263176e+00	 6.282233172512449e+00
 6.070814510041397e-01	 1.644458962698668e+00	 6.164087355335169e+00
 7.636696786546789e-01	 1.590906485186136e+00	 7.483150229321870e+00
 7.485792509334349e-01	 1.598062532450246e+00	 7.346796014390754e+00
 7.334469557773836e-01	 1.605063943174398e+00	 7.213853948483322e+00
 7.182750887473806e-01	 1.611910530286107e+00	 7.082832432318130e+00
 7.030659407149648e-01	 1.618602150571938e+00	 6.953548407559639e+00
 6.878217968541790e-01	 1.625138704366739e+00	 6.826088735760287e+00
 6.725449356477986e-01	 1.631520135216260e+00	 6.700552917171908e+00
 6.572376279087323e-01	 1.637746429513827e+00	 6.577046916947230e+00
 6.419021358173488e-01	 1.643817616111722e+00	 6.455677487893837e+00
 6.265407119754367e-01	 1.649733765908001e+00	 6.336546999280229e+00
 6.111555984774816e-01	 1.655494991409433e+00	 6.219748778112812e+00
 7.687605309662698e-01	 1.601511947444404e+00	 7.518714398138250e+00
 7.535695059045012e-01	 1.608715699076793e+00	 7.384888328169374e+00
 7.383363343069864e-01	 1.615763783315426e+00	 7.254404044055380e+00
 7.230633270374713e-01	 1.622656011840734e+00	 7.125897211841227e+00
 7.077527902391253e-01	 1.629392240484587e+00	 6.998786854674820e+00
 6.924070243196403e-01	 1.635972368917432e+00	 6.873195019128128e+00
 6.770283229508351e-01	 1.642396340308684e+00	 6.749254098295005e+00
 6.616189720835317e-01	 1.648664140960961e+00	 6.627100425254831e+00
 6.461812489784656e-01	 1.654775799918890e+00	 6.506868387468869e+00
 6.307174212539389e-01	 1.660731388553156e+00	 6.388685071744806e+00
 6.152297459509051e-01	 1.666531020120531e+00	 6.272665446194635e+00
 7.738513832779944e-01	 1.612117409702741e+00	 7.557684666026580e+00
 7.585597608757133e-01	 1.619368865703451e+00	 7.426073115360753e+00
 7.432257128367330e-01	 1.626463623456608e+00	 7.297400477673300e+00
 7.278515653276937e-01	 1.633401493395563e+00	 7.170794594236854e+00
 7.124396397633967e-01	 1.640182330397479e+00	 7.045158928385808e+00
 6.969922517851872e-01	 1.646806033468412e+00	 6.920665209662184e+00
 6.815117102539282e-01	 1.653272545401431e+00	 6.797518542128207e+00
 6.660003162583593e-01	 1.659581852408452e+00	 6.675925920336287e+00
 6.504603621395847e-01	 1.665733983726438e+00	 6.556090069270649e+00
 6.348941305324215e-01	 1.671729011198705e+00	 6.438203840345111e+00
 6.193038934242949e-01	 1.677567048832029e+00	 6.322445169977325e+00
 7.789422355897361e-01	 1.622722871961131e+00	 7.599963497068554e+00
 7.635500158469481e-01	 1.630022032330219e+00	 7.470142816094457e+00
 7.481150913664953e-01	 1.637163463597958e+00	 7.342678105311768e+00
 7.326398036179134e-01	 1.644146974950616e+00	 7.217144762691468e+00
 7.171264892876409e-01	 1.650972420310651e+00	 7.092233597287755e+00
 7.015774792506771e-01	 1.657639698019721e+00	 6.968035548948246e+00
 6.859950975569350e-01	 1.664148750494553e+00	 6.844867544486643e+00
 6.703816604330730e-01	 1.670499563856354e+00	 6.723046814902816e+00
 6.547394753005679e-01	 1.676692167534428e+00	 6.602884395364630e+00
 6.390708398107557e-01	 1.682726633844714e+00	 6.484679207723323e+00
 6.233780408975355e-01	 1.688603077543992e+00	 6.368712732265919e+00
 7.840330879013778e-01	 1.633328334219558e+00	 7.645474293531572e+00
 7.685402708180841e-01	 1.640675198957095e+00	 7.516912757647846e+00
 7.530044698961450e-01	 1.647863303739486e+00	 7.389984997155871e+00
 7.374280419079974e-01	 1.654892456505917e+00	 7.264593965952214e+00
 7.218133388117188e-01	 1.661762510224138e+00	 7.139605765796748e+00
 7.061627067159686e-01	 1.668473362571404e+00	 7.014867650052054e+00
 6.904784848597121e-01	 1.675024955588102e+00	 6.890846794510967e+00
 6.747630046075314e-01	 1.681417275304731e+00	 6.768009543906106e+00
 6.590185884612787e-01	 1.687650351342924e+00	 6.646814507001688e+00
 6.432475490888134e-01	 1.693724256491250e+00	 6.527706261702579e+00
 6.274521883705115e-01	 1.699639106256490e+00	 6.411109677155350e+00
 7.891239402128029e-01	 1.643933796478007e+00	 7.694161001244828e+00
 7.735305257889983e-01	 1.651328365584077e+00	 7.566220704668161e+00
 7.578938484255537e-01	 1.658563143881206e+00	 7.439071526308743e+00
 7.422162801978108e-01	 1.665637938061490e+00	 7.312822731806315e+00
 7.265001883354923e-01	 1.672552600137973e+00	 7.186895937537830e+00
 7.107479341809201e-01	 1.679307027123507e+00	 7.060748149635847e+00
 6.949618721621169e-01	 1.685901160682133e+00	 6.935026029805261e+00
 6.791443487815924e-01	 1.692334986753636e+00	 6.810383236342805e+00
 6.632977016215802e-01	 1.698608535151988e+00	 6.687464526075970e+00
 6.474242583664658e-01	 1.704721879138377e+00	 6.566899018722690e+00
 6.315263358431070e-01	 1.710675134969586e+00	 6.449294107105860e+00
 5.907848611139003e-01	 1.600314847857605e+00	 5.922444501920791e+00
 5.758943459882178e-01	 1.605733522423682e+00	 5.794974328278999e+00
 5.609852368522615e-01	 1.611002822610082e+00	 5.668469992248639e+00
 5.460596636542495e-01	 1.616122973879358e+00	 5.543386581567492e+00
 5.311197428119059e-01	 1.621094239986286e+00	 5.420171935802699e+00
 5.161675764078507e-01	 1.625916922452490e+00	 5.299264334398840e+00
 5.012052514049579e-01	 1.630591360022500e+00	 5.181090581133614e+00
 4.862348388821082e-01	 1.635117928102035e+00	 5.066064476342564e+00
 4.712583932907454e-01	 1.639497038179286e+00	 4.954585666500440e+00
 4.562779517325974e-01	 1.643729137230044e+00	 4.847038859100627e+00
 4.412955332588941e-01	 1.647814707107448e+00	 4.743793389248020e+00
 5.948590085857599e-01	 1.611350876567704e+00	 5.984815718019918e+00
 5.798658060716148e-01	 1.616806919185440e+00	 5.860750032452879e+00
 5.648538813198575e-01	 1.622112557313779e+00	 5.736885218861834e+00
 5.498253789671815e-01	 1.627268017970094e+00	 5.613785791505076e+00
 5.347824300264785e-01	 1.632273566728045e+00	 5.492008477136435e+00
 5.197271510766792e-01	 1.637129507188592e+00	 5.372099682399413e+00
 5.046616434726989e-01	 1.641836180432294e+00	 5.254593377053731e+00
 4.895879925759221e-01	 1.646393964453719e+00	 5.140009384100098e+00
 4.745082670056299e-01	 1.650803273578740e+00	 5.028852066010930e+00
 4.594245179117412e-01	 1.655064557865557e+00	 4.921609394563564e+00
 4.443387782691983e-01	 1.659178302490238e+00	 4.818752390184045e+00
 5.989331560581634e-01	 1.622386905277870e+00	 6.046185193331917e+00
 5.838372661554627e-01	 1.627880315947264e+00	 5.924870252554601e+00
 5.687225257878011e-01	 1.633222292017539e+00	 5.803184907416290e+00
 5.535910942803529e-01	 1.638413062060889e+00	 5.681778375225234e+00
 5.384451172411823e-01	 1.643452893469859e+00	 5.561290949053333e+00
 5.232867257455345e-01	 1.648342091924744e+00	 5.442351285584524e+00
 5.081180355403717e-01	 1.653081000842133e+00	 5.325574128696238e+00
 4.929411462695859e-01	 1.657670000805443e+00	 5.211558459452712e+00
 4.777581407203013e-01	 1.662109508978231e+00	 5.100886061261497e+00
 4.625710840906318e-01	 1.666399978501104e+00	 4.994120487155516e+00
 4.473820232792365e-01	 1.670541897873062e+00	 4.891806414519662e+00
 6.030073035309952e-01	 1.633422933988169e+00	 6.106090559572692e+00
 5.878087262396637e-01	 1.638953712709218e+00	 5.986936095836257e+00
 5.725911702560161e-01	 1.644332026721426e+00	 5.867021131673093e+00
 5.573568095937115e-01	 1.649558106151801e+00	 5.747055446167304e+00
 5.421078044559886e-01	 1.654632220211782e+00	 5.627738160113296e+00
 5.268463004144125e-01	 1.659554676660995e+00	 5.509754885001607e+00
 5.115744276079944e-01	 1.664325821252061e+00	 5.393775328128813e+00
 4.962942999631381e-01	 1.668946037157248e+00	 5.280451344039395e+00
 4.810080144348131e-01	 1.673415744377795e+00	 5.170415420509718e+00
 4.657176502693326e-01	 1.677735399136720e+00	 5.064279585418157e+00
 4.504252682890754e-01	 1.681905493255952e+00	 4.962634719149375e+00
 6.070814510041397e-01	 1.644458962698668e+00	 6.164087355335161e+00
 5.917801863241201e-01	 1.650027109471369e+00	 6.046563859224191e+00
 5.764598147244263e-01	 1.655441761425501e+00	 5.928058828278716e+00
 5.611225249072036e-01	 1.660703150242891e+00	 5.809319029533137e+00
 5.457704916708697e-01	 1.665811546953868e+00	 5.691078240221045e+00
 5.304058750833087e-01	 1.670767261397395e+00	 5.574054298171169e+00
 5.150308196755853e-01	 1.675570641662122e+00	 5.458946629224755e+00
 4.996474536566162e-01	 1.680222073509173e+00	 5.346434241330256e+00
 4.842578881492185e-01	 1.684721979777467e+00	 5.237174172896625e+00
 4.688642164479067e-01	 1.689070819772437e+00	 5.131800381053829e+00
 4.534685132987810e-01	 1.693269088638942e+00	 5.030923053704393e+00
 6.111555984774816e-01	 1.655494991409433e+00	 6.219748778112812e+00
 5.957516464087337e-01	 1.661100506233783e+00	 6.103384848086835e+00
 5.803284591929545e-01	 1.666551496129827e+00	 5.985975670289635e+00
 5.648882402207768e-01	 1.671848194334217e+00	 5.868281979074361e+00
 5.494331788857965e-01	 1.676990873696172e+00	 5.751048589682068e+00
 5.339654497522196e-01	 1.681979846133992e+00	 5.635001389919672e+00
 5.184872117431631e-01	 1.686815462072363e+00	 5.520844830284938e+00
 5.030006073500586e-01	 1.691498109861258e+00	 5.409259901557013e+00
 4.875077618635713e-01	 1.696028215177286e+00	 5.300902586719103e+00
 4.720107826264174e-01	 1.700406240408292e+00	 5.196402772081532e+00
 4.565117583084204e-01	 1.704632684022066e+00	 5.096363600643047e+00
 6.152297459509051e-01	 1.666531020120531e+00	 6.272665446194639e+00
 5.997231064934070e-01	 1.672173902996524e+00	 6.157045202127976e+00
 5.841971036615244e-01	 1.677661230834468e+00	 6.040461945560207e+00
 5.686539555343777e-01	 1.682993238425838e+00	 5.923667896948567e+00
 5.530958661007407e-01	 1.688170200438748e+00	 5.807395829976914e+00
 5.375250244211405e-01	 1.693192430870838e+00	 5.692356044003784e+00
 5.219436038107462e-01	 1.698060282482826e+00	 5.579233856929928e+00
 5.063537610435030e-01	 1.702774146213545e+00	 5.468687606778732e+00
 4.907576355779246e-01	 1.707334450577289e+00	 5.361347148059752e+00
 4.751573488049286e-01	 1.711741661044317e+00	 5.257812826915449e+00
 4.595550033180598e-01	 1.715996279405357e+00	 5.158654917159846e+00
 6.193038934242949e-01	 1.677567048832029e+00	 6.322445169977321e+00
 6.036945665780417e-01	 1.683247299759659e+00	 6.207205728077443e+00
 5.880657481300596e-01	 1.688770965539487e+00	 6.091220439770974e+00
 5.724196708479538e-01	 1.694138282517814e+00	 5.975211056500761e+00
 5.567585533156743e-01	 1.699349527181652e+00	 5.859875756171225e+00
 5.410845990900672e-01	 1.704405015607980e+00	 5.745886135487501e+00
 5.253999958783526e-01	 1.709305102893556e+00	 5.633884745246759e+00
 5.097069147369876e-01	 1.714050182566072e+00	 5.524483156069233e+00
 4.940075092923318e-01	 1.718640685977510e+00	 5.418260539757494e+00
 4.783039149835028e-01	 1.723077081680547e+00	 5.315762749330364e+00
 4.625982483277656e-01	 1.727359874788847e+00	 5.217501878826132e+00
 6.233780408975355e-01	 1.688603077543992e+00	 6.368712732265912e+00
 6.076660266625402e-01	 1.694320696523252e+00	 6.253541738869812e+00
 5.919343925984832e-01	 1.699880700244945e+00	 6.137966323887474e+00
 5.761853861614515e-01	 1.705283326610204e+00	 6.022656327839233e+00
 5.604212405305682e-01	 1.710528853924935e+00	 5.908253290890019e+00
 5.446441737589958e-01	 1.715617600345469e+00	 5.795367503840137e+00
 5.288563879460012e-01	 1.720549923304600e+00	 5.684575625182197e+00
 5.130600684305504e-01	 1.725326218918880e+00	 5.576418850825601e+00
 4.972573830068468e-01	 1.729946921377987e+00	 5.471401620702171e+00
 4.814504811622040e-01	 1.734412502317016e+00	 5.369990844267760e+00
 4.656414933376042e-01	 1.738723470172572e+00	 5.272615624888574e+00
 6.274521883705115e-01	 1.699639106256490e+00	 6.411109677155353e+00
 6.116374867468045e-01	 1.705394093287369e+00	 6.295742899018464e+00
 5.958030370667190e-01	 1.710990434950906e+00	 6.180427045847205e+00
 5.799511014748180e-01	 1.716428370703065e+00	 6.065759106080549e+00
 5.640839277453947e-01	 1.721708180668656e+00	 5.952302439786575e+00
 5.482037484279217e-01	 1.726830185083354e+00	 5.840583926721271e+00
 5.323127800137100e-01	 1.731794743716000e+00	 5.731091704168934e+00
 5.164132221242296e-01	 1.736602255272011e+00	 5.624273480190614e+00
 5.005072567215226e-01	 1.741253156778757e+00	 5.520535405441892e+00
 4.845970473410950e-01	 1.745747922953758e+00	 5.420241484449875e+00
 4.686847383476425e-01	 1.750087065556563e+00	 5.323713505145635e+00
 6.315263358431070e-01	 1.710675134969586e+00	 6.449294107105869e+00
 6.156089468307369e-01	 1.716467490052076e+00	 6.333513075903550e+00
 5.996716815346901e-01	 1.722100169657433e+00	 6.218342226285788e+00
 5.837168167880008e-01	 1.727573414796458e+00	 6.104285242141176e+00
 5.677466149601248e-01	 1.732887507412866e+00	 5.991806248436817e+00
 5.517633230968413e-01	 1.738042769821685e+00	 5.881327094426020e+00
 5.357691720814975e-01	 1.743039564127802e+00	 5.773225250977815e+00
 5.197663758180630e-01	 1.747878291625503e+00	 5.667832306586150e+00
 5.037571304364127e-01	 1.752559392179855e+00	 5.565433044088154e+00
 4.877436135202395e-01	 1.757083343590808e+00	 5.466265077761725e+00
 4.717279833579465e-01	 1.761450660940855e+00	 5.370519028336197e+00
 4.412955332588941e-01	 1.647814707107448e+00	 4.743793389248020e+00
 4.263131383958613e-01	 1.651754264275155e+00	 4.645173502727098e+00
 4.113327490821488e-01	 1.655548360239373e+00	 4.550815895620029e+00
 3.963563273876144e-01	 1.659197579816815e+00	 4.460036896207079e+00
 3.813858146922484e-01	 1.662702540110583e+00	 4.372141107046763e+00
 3.664231310970779e-01	 1.666063889833540e+00	 4.286433112188492e+00
 3.514701748579600e-01	 1.669282308621254e+00	 4.202700364915806e+00
 3.365288218423697e-01	 1.672358506335358e+00	 4.121380418265280e+00
 3.216009250092655e-01	 1.675293222358128e+00	 4.042962583981883e+00
 3.066883139120787e-01	 1.678087224879062e+00	 3.967950389177197e+00
 2.917927942248484e-01	 1.680741310174281e+00	 3.896857902904961e+00
 4.443387782691983e-01	 1.659178302490238e+00	 4.818752390184045e+00
 4.292530624001848e-01	 1.663145027478052e+00	 4.720579672609845e+00
 4.141693659111186e-01	 1.666965288138488e+00	 4.626650066354191e+00
 3.990896644026040e-01	 1.670639673321255e+00	 4.536299983036524e+00
 3.840159126426982e-01	 1.674168804385110e+00	 4.448851519664075e+00
 3.689500439737515e-01	 1.677553334516547e+00	 4.363615709957436e+00
 3.538939697422965e-01	 1.680793948038021e+00	 4.280248370620100e+00
 3.388495787520897e-01	 1.683891359706492e+00	 4.199186417612493e+00
 3.238187367403909e-01	 1.686846314003143e+00	 4.120968564551266e+00
 3.088032858775237e-01	 1.689659584415037e+00	 4.046141824879194e+00
 2.938050442897437e-01	 1.692331972709550e+00	 3.975258349275543e+00
 4.473820232792365e-01	 1.670541897873062e+00	 4.891806414519662e+00
 4.321929864042602e-01	 1.674535790680983e+00	 4.794180884770939e+00
 4.170059827398837e-01	 1.678382216037640e+00	 4.700715543849207e+00
 4.018230014174529e-01	 1.682081766825740e+00	 4.610778552278068e+00
 3.866460105930853e-01	 1.685635068659691e+00	 4.523721102645079e+00
 3.714769568504490e-01	 1.689042779199622e+00	 4.438879872041229e+00
 3.563177646267461e-01	 1.692305587454873e+00	 4.355806544083485e+00
 3.411703356620096e-01	 1.695424213077733e+00	 4.274907765027368e+00
 3.260365484717940e-01	 1.698399405648291e+00	 4.196779952758777e+00
 3.109182578433103e-01	 1.701231943951178e+00	 4.122021206097937e+00
 2.958172943550248e-01	 1.703922635245023e+00	 4.051228934888233e+00
 4.504252682890754e-01	 1.681905493255952e+00	 4.962634719149375e+00
 4.351329104081492e-01	 1.685926553883985e+00	 4.865627108013584e+00
 4.198425995684951e-01	 1.689799143936868e+00	 4.772638121310894e+00
 4.045563384321955e-01	 1.693523860330311e+00	 4.683079053712927e+00
 3.892761085434238e-01	 1.697101332934369e+00	 4.596341510429282e+00
 3.740038697271617e-01	 1.700532223882811e+00	 4.511799912784072e+00
 3.587415595112762e-01	 1.703817226871858e+00	 4.428945823533561e+00
 3.434910925720721e-01	 1.706957066449130e+00	 4.348118013570058e+00
 3.282543602033944e-01	 1.709952497293619e+00	 4.269977972555802e+00
 3.130332298093373e-01	 1.712804303487524e+00	 4.195181939169205e+00
 2.978295444205739e-01	 1.715513297780732e+00	 4.124379200258868e+00
 4.534685132987810e-01	 1.693269088638942e+00	 5.030923053704393e+00
 4.380728344119140e-01	 1.697317317087088e+00	 4.934575138183768e+00
 4.226792163970038e-01	 1.701216071836208e+00	 4.842050670496515e+00
 4.072896754468666e-01	 1.704965953835006e+00	 4.752815190892406e+00
 3.919062064937286e-01	 1.708567597209189e+00	 4.666311756608954e+00
 3.765307826038808e-01	 1.712021668566160e+00	 4.581963488973129e+00
 3.611653543958536e-01	 1.715328866289025e+00	 4.499243484509094e+00
 3.458118494822195e-01	 1.718489919820730e+00	 4.418396318029425e+00
 3.304721719351116e-01	 1.721505588939173e+00	 4.340148788848138e+00
 3.151482017755040e-01	 1.724376663024119e+00	 4.265221784962164e+00
 2.998417944862733e-01	 1.727103960316710e+00	 4.194322527493263e+00
 4.565117583084204e-01	 1.704632684022066e+00	 5.096363600643047e+00
 4.410127584156169e-01	 1.708708080290330e+00	 5.000688513317283e+00
 4.255158332254609e-01	 1.712632999735696e+00	 4.908593035595805e+00
 4.100230124615005e-01	 1.716408047339867e+00	 4.819607797193643e+00
 3.945363044440132e-01	 1.720033861484193e+00	 4.733238075350775e+00
 3.790576954805981e-01	 1.723511113249717e+00	 4.648966372219189e+00
 3.635891492804451e-01	 1.726840505706422e+00	 4.566283210421934e+00
 3.481326063923944e-01	 1.730022773192581e+00	 4.485327471883597e+00
 3.326899836668651e-01	 1.733058680584999e+00	 4.406883515233803e+00
 3.172631737417088e-01	 1.735949022561002e+00	 4.331742841459151e+00
 3.018540445520047e-01	 1.738694622852988e+00	 4.260676101461391e+00
 4.595550033180598e-01	 1.715996279405357e+00	 5.158654917159846e+00
 4.439526824193196e-01	 1.720098843493745e+00	 5.063637431574027e+00
 4.283524500539173e-01	 1.724049927635371e+00	 4.971911930737162e+00
 4.127563494761323e-01	 1.727850140844932e+00	 4.883084716196485e+00
 3.971664023942922e-01	 1.731500125759426e+00	 4.796733787723712e+00
 3.815846083573042e-01	 1.735000557933526e+00	 4.712411440086949e+00
 3.660129441650181e-01	 1.738352145124095e+00	 4.629655168854408e+00
 3.504533633025400e-01	 1.741555626564731e+00	 4.548501950265666e+00
 3.349077953985746e-01	 1.744611772231142e+00	 4.469778227931373e+00
 3.193781457078512e-01	 1.747521382098216e+00	 4.394351532638958e+00
 3.038662946176505e-01	 1.750285285389600e+00	 4.323060877319442e+00
 4.625982483277656e-01	 1.727359874788847e+00	 5.217501878826132e+00
 4.468926064230839e-01	 1.731489606697366e+00	 5.123098671837905e+00
 4.311890668824238e-01	 1.735466855535267e+00	 5.031660840945348e+00
 4.154896864907963e-01	 1.739292234350241e+00	 4.942880686190843e+00
 3.997965003445801e-01	 1.742966390034930e+00	 4.856419172706538e+00
 3.841115212339909e-01	 1.746490002617633e+00	 4.771908536337711e+00
 3.684367390495392e-01	 1.749863784542093e+00	 4.688956093327128e+00
 3.527741202125984e-01	 1.753088479937229e+00	 4.607515958657467e+00
 3.371256071301594e-01	 1.756164863877649e+00	 4.528433985614595e+00
 3.214931176738298e-01	 1.759093741635799e+00	 4.452658603372105e+00
 3.058785446830924e-01	 1.761875947926576e+00	 4.381101554086347e+00
 4.656414933376042e-01	 1.738723470172572e+00	 5.272615624888574e+00
 4.498325304269724e-01	 1.742880369901228e+00	 5.178755516854686e+00
 4.340256837110318e-01	 1.746883783435424e+00	 5.087499926402825e+00
 4.182230235055271e-01	 1.750734327855837e+00	 4.998637228617860e+00
 4.024265982948910e-01	 1.754432654310749e+00	 4.911921342661318e+00
 3.866384341106492e-01	 1.757979447302085e+00	 4.827074336063374e+00
 3.708605339339758e-01	 1.761375423960465e+00	 4.743789360250990e+00
 3.550948771225124e-01	 1.764621333310122e+00	 4.661971487052909e+00
 3.393434188615390e-01	 1.767717955524563e+00	 4.582456854884025e+00
 3.236080896395434e-01	 1.770666101173792e+00	 4.506279120052590e+00
 3.078907947482129e-01	 1.773466610463951e+00	 4.434426554001037e+00
 4.686847383476425e-01	 1.750087065556563e+00	 5.323713505145635e+00
 4.527724544310470e-01	 1.754271133105365e+00	 5.230297678796180e+00
 4.368623005397919e-01	 1.758300711335877e+00	 5.139095929857446e+00
 4.209563605203593e-01	 1.762176421361757e+00	 5.050002540272680e+00
 4.050566962452389e-01	 1.765898918586924e+00	 4.962874123070440e+00
 3.891653469872708e-01	 1.769468891986929e+00	 4.877532215492711e+00
 3.732843288182943e-01	 1.772887063379257e+00	 4.793766220641221e+00
 3.574156340322248e-01	 1.776154186683460e+00	 4.711476369338655e+00
 3.415612305926332e-01	 1.779271047171934e+00	 4.631457941120793e+00
 3.257230616048912e-01	 1.782238460712237e+00	 4.554832476709280e+00
 3.099030448128938e-01	 1.785057273001755e+00	 4.482668007394317e+00
 4.717279833579465e-01	 1.761450660940855e+00	 5.370519028336197e+00
 4.557123784353697e-01	 1.765661896309813e+00	 5.277421227142521e+00
 4.396989173687552e-01	 1.769717639236662e+00	 5.186122087037693e+00
 4.236896975353276e-01	 1.773618514868042e+00	 5.096631389095979e+00
 4.076867941956385e-01	 1.777365182863502e+00	 5.008917936345618e+00
 3.916922598638465e-01	 1.780958336672210e+00	 4.922912126256099e+00
 3.757081237024623e-01	 1.784398702798519e+00	 4.838508889721231e+00
 3.597363909416780e-01	 1.787687040057288e+00	 4.755644347663135e+00
 3.437790423233613e-01	 1.790824138819805e+00	 4.675053424476094e+00
 3.278380335697721e-01	 1.793810820251175e+00	 4.597942406344774e+00
 3.119152948770174e-01	 1.796647935540022e+00	 4.525461742828030e+00
 2.917927942248484e-01	 1.680741310174281e+00	 3.896857902904954e+00
 2.769136204681719e-01	 1.683256717466321e+00	 3.829715902667822e+00
 2.620550872590066e-01	 1.685633833318265e+00	 3.766182081708473e+00
 2.472189307201460e-01	 1.687873533103103e+00	 3.706188738885400e+00
 2.324068613315001e-01	 1.689976717377917e+00	 3.649677732687945e+00
 2.176205635707480e-01	 1.691944311137728e+00	 3.596601562696128e+00
 2.028616955767880e-01	 1.693777263066728e+00	 3.546924932495817e+00
 1.881318888358223e-01	 1.695476544787600e+00	 3.500626694846083e+00
 1.734327478898873e-01	 1.697043150109664e+00	 3.457702083181322e+00
 1.587658500676227e-01	 1.698478094276495e+00	 3.418165137289702e+00
 1.441327452370459e-01	 1.699782413213720e+00	 3.382051235212756e+00
 2.938050442897437e-01	 1.692331972709550e+00	 3.975258349275535e+00
 2.788232613566990e-01	 1.694864726655104e+00	 3.908332835282900e+00
 2.638622613117091e-01	 1.697258235480582e+00	 3.844989051732637e+00
 2.489237922501414e-01	 1.699513380595683e+00	 3.785164359533149e+00
 2.340095764476418e-01	 1.701631068767872e+00	 3.728802689287522e+00
 2.191213099983104e-01	 1.703612231371084e+00	 3.675856304824435e+00
 2.042606624758301e-01	 1.705457823631785e+00	 3.626288057329812e+00
 1.894292766173861e-01	 1.707168823873126e+00	 3.580074025342408e+00
 1.746287680301871e-01	 1.708746232757889e+00	 3.537206439383112e+00
 1.598607249203770e-01	 1.710191072530931e+00	 3.497696793985785e+00
 1.451267078441047e-01	 1.711504386261788e+00	 3.461579054355777e+00
 2.958172943550248e-01	 1.703922635245023e+00	 4.051228934888233e+00
 2.807329022456327e-01	 1.706472735844135e+00	 3.984404877491896e+00
 2.656694353648181e-01	 1.708882637643193e+00	 3.921138853639210e+00
 2.506286537805249e-01	 1.711153228088607e+00	 3.861375204021802e+00
 2.356122915641397e-01	 1.713285420158226e+00	 3.805061633165971e+00
 2.206220564261868e-01	 1.715280151604894e+00	 3.752151690163719e+00
 2.056596293751370e-01	 1.717138384197351e+00	 3.702607749351040e+00
 1.907266643991626e-01	 1.718861102959210e+00	 3.656404380451534e+00
 1.758247881706475e-01	 1.720449315406720e+00	 3.613532001435526e+00
 1.609555997732436e-01	 1.721904050786017e+00	 3.574000711589713e+00
 1.461206704512346e-01	 1.723226359310543e+00	 3.537844207018225e+00
 2.978295444205739e-01	 1.715513297780732e+00	 4.124379200258868e+00
 2.826425431348434e-01	 1.718080745033433e+00	 4.057561459136467e+00
 2.674766094181956e-01	 1.720507039806105e+00	 3.994284403516750e+00
 2.523335153111556e-01	 1.722793075581866e+00	 3.934500760380161e+00
 2.372150066808528e-01	 1.724939771548947e+00	 3.878163189488512e+00
 2.221228028542392e-01	 1.726948071839103e+00	 3.825227518210321e+00
 2.070585962745768e-01	 1.728818944763348e+00	 3.775656485837866e+00
 1.920240521810276e-01	 1.730553382045755e+00	 3.729423880943219e+00
 1.770208083111545e-01	 1.732152398056041e+00	 3.686518959291724e+00
 1.620504746261197e-01	 1.733617029041617e+00	 3.646951034329005e+00
 1.471146330583449e-01	 1.734948332359832e+00	 3.610754137270629e+00
 2.998417944862733e-01	 1.727103960316710e+00	 4.194322527493263e+00
 2.845521840242006e-01	 1.729688754223018e+00	 4.127435400844925e+00
 2.692837834717042e-01	 1.732131441969320e+00	 4.064081606527453e+00
 2.540383768418922e-01	 1.734432923075444e+00	 4.004223148903666e+00
 2.388177217976400e-01	 1.736594122940001e+00	 3.947818299333455e+00
 2.236235492823298e-01	 1.738615992073657e+00	 3.894825623794167e+00
 2.084575631740174e-01	 1.740499505329698e+00	 3.845208529719936e+00
 1.933214399628574e-01	 1.742245661132664e+00	 3.798940209411608e+00
 1.782168284515939e-01	 1.743855480705733e+00	 3.756008861577325e+00
 1.631453494789024e-01	 1.745330007297595e+00	 3.716423077346610e+00
 1.481085956653449e-01	 1.746670305409506e+00	 3.680217282377984e+00
 3.018540445520047e-01	 1.738694622852988e+00	 4.260676101461391e+00
 2.864618249135745e-01	 1.741296763412910e+00	 4.193662857561468e+00
 2.710909575252061e-01	 1.743755844132844e+00	 4.130189286625050e+00
 2.557432383725935e-01	 1.746072770569328e+00	 4.070227041637828e+00
 2.404204369143600e-01	 1.748248474331355e+00	 4.013740132271774e+00
 2.251242957103205e-01	 1.750283912308501e+00	 3.960689785831888e+00
 2.098565300733267e-01	 1.752180065896329e+00	 3.911039837326989e+00
 1.946188277445280e-01	 1.753937940219841e+00	 3.864762519579840e+00
 1.794128485918518e-01	 1.755558563355679e+00	 3.821844528760998e+00
 1.642402243314890e-01	 1.757042985553816e+00	 3.782293245784312e+00
 1.491025582721442e-01	 1.758392278459411e+00	 3.746142999590938e+00
 3.038662946176505e-01	 1.750285285389600e+00	 4.323060877319442e+00
 2.883714658028350e-01	 1.752904772603130e+00	 4.255883268401123e+00
 2.728981315785638e-01	 1.755380246296682e+00	 4.192269122493143e+00
 2.574480999031184e-01	 1.757712618063504e+00	 4.132199587914108e+00
 2.420231520308719e-01	 1.759902825722974e+00	 4.075644004764710e+00
 2.266250421380735e-01	 1.761951832543580e+00	 4.022565641603057e+00
 2.112554969723727e-01	 1.763860626463164e+00	 3.972927971311123e+00
 1.959162155259154e-01	 1.765630219307188e+00	 3.926701350393156e+00
 1.806088687318141e-01	 1.767261646005764e+00	 3.883869970680923e+00
 1.653350991837768e-01	 1.768755963810145e+00	 3.844438957759430e+00
 1.500965208786520e-01	 1.770114251509398e+00	 3.808441496331670e+00
 3.058785446830924e-01	 1.761875947926576e+00	 4.381101554086346e+00
 2.902811066918519e-01	 1.764512781793698e+00	 4.313739312535345e+00
 2.747053056316396e-01	 1.767004648460838e+00	 4.249985589420397e+00
 2.591529614333254e-01	 1.769352465557959e+00	 4.189830345655826e+00
 2.436258671470343e-01	 1.771557177114826e+00	 4.133247304107426e+00
 2.281257885654507e-01	 1.773619752778842e+00	 4.080200606295452e+00
 2.126544638710233e-01	 1.775541187030125e+00	 4.030652018513122e+00
 1.972136033068958e-01	 1.777322498394609e+00	 3.984568544675945e+00
 1.818048888713669e-01	 1.778964728655870e+00	 3.941930308224770e+00
 1.664299740356628e-01	 1.780468942066447e+00	 3.902738571048546e+00
 1.510904834847778e-01	 1.781836224559314e+00	 3.867023763618729e+00
 3.078907947482129e-01	 1.773466610463951e+00	 4.434426554001046e+00
 2.921907475804953e-01	 1.776120790984632e+00	 4.366876870832898e+00
 2.765124796842957e-01	 1.778629050625316e+00	 4.303005906838619e+00
 2.608578229630738e-01	 1.780992313052679e+00	 4.242811218196029e+00
 2.452285822627063e-01	 1.783211528506878e+00	 4.186269417669476e+00
 2.296265349923142e-01	 1.785287673014229e+00	 4.133343797576622e+00
 2.140534307691466e-01	 1.787221747597140e+00	 4.083992512538880e+00
 1.985109910873451e-01	 1.789014777482005e+00	 4.038177172147793e+00
 1.830009090103959e-01	 1.790667811305880e+00	 3.995871698975564e+00
 1.675248488870446e-01	 1.792181920322584e+00	 3.957071313314751e+00
 1.520844460904311e-01	 1.793558197609008e+00	 3.921801512585583e+00
 3.099030448128938e-01	 1.785057273001755e+00	 4.482668007394324e+00
 2.941003884686351e-01	 1.787728800175954e+00	 4.414944992997093e+00
 2.783196537363946e-01	 1.790253452790121e+00	 4.350999991268790e+00
 2.625626844922219e-01	 1.792632160547651e+00	 4.290836396349121e+00
 2.468312973777466e-01	 1.794865879899094e+00	 4.234431667185135e+00
 2.311272814185263e-01	 1.796955593249691e+00	 4.181745964965388e+00
 2.154523976666103e-01	 1.798902308164130e+00	 4.132731360836843e+00
 1.998083788671394e-01	 1.800707056569282e+00	 4.087341456597247e+00
 1.841969291487873e-01	 1.802370893955677e+00	 4.045541266640371e+00
 1.686197237378191e-01	 1.803894898578423e+00	 4.007317215712739e+00
 1.530784086955211e-01	 1.805280170658329e+00	 3.972687113945507e+00
 3.119152948770174e-01	 1.796647935540022e+00	 4.525461742828030e+00
 2.960100293561413e-01	 1.799336809367684e+00	 4.457595869948470e+00
 2.801268277877987e-01	 1.801877854955257e+00	 4.393640414429077e+00
 2.642675460206290e-01	 1.804272008042861e+00	 4.333602305507023e+00
 2.484340124920141e-01	 1.806520231291444e+00	 4.277457247874519e+00
 2.326280278439488e-01	 1.808623513485171e+00	 4.225159423785271e+00
 2.168513645632824e-01	 1.810582868731020e+00	 4.176651776068592e+00
 2.011057666461548e-01	 1.812399335656343e+00	 4.131876707027446e+00
 1.853929492864271e-01	 1.814073976605143e+00	 4.090787034092704e+00
 1.697145985878835e-01	 1.815607876833829e+00	 4.053357049720240e+00
 1.540723712999572e-01	 1.817002143707124e+00	 4.019593540277700e+00
 1.441327452370459e-01	 1.699782413213720e+00	 3.382051235212756e+00
 1.295374281225147e-01	 1.700956973991177e+00	 3.349396607931399e+00
 1.149788736764887e-01	 1.702003083612986e+00	 3.320116542238813e+00
 1.004585141779850e-01	 1.702921834650128e+00	 3.294124042706894e+00
 8.597775459659256e-02	 1.703714337334534e+00	 3.271365942942417e+00
 7.153797244668345e-02	 1.704381718828231e+00	 3.251825014547293e+00
 5.714051766115616e-02	 1.704925122495943e+00	 3.235521752602903e+00
 4.278671248438577e-02	 1.705345707181702e+00	 3.222515787003584e+00
 2.847785138404361e-02	 1.705644646489975e+00	 3.212906874848766e+00
 1.421520098143619e-02	 1.705823128071838e+00	 3.206835435012412e+00
 0.000000000000000e+00	 1.705882352916666e+00	 3.204482591913034e+00
 1.451267078441047e-01	 1.711504386261788e+00	 3.461579054355777e+00
 1.304307390739854e-01	 1.712687046999744e+00	 3.428885392024565e+00
 1.157717864935940e-01	 1.713740370762221e+00	 3.399515078221429e+00
 1.011512922591851e-01	 1.714665457654735e+00	 3.373365588687264e+00
 8.657067102925520e-02	 1.715463425565542e+00	 3.350372126245350e+00
 7.203130981774779e-02	 1.716135409429747e+00	 3.330510305440312e+00
 5.753456786692657e-02	 1.716682560496894e+00	 3.313798478590530e+00
 4.308177653958713e-02	 1.717106045602576e+00	 3.300299649894212e+00
 2.867423923026853e-02	 1.717407046444616e+00	 3.290122930438445e+00
 1.431323129511191e-02	 1.717586758864312e+00	 3.283424493184270e+00
 0.000000000000000e+00	 1.717646392133243e+00	 3.280407993202900e+00
 1.461206704512346e-01	 1.723226359310543e+00	 3.537844207018217e+00
 1.313240500254957e-01	 1.724417120009029e+00	 3.505091759861449e+00
 1.165646993107163e-01	 1.725477657912198e+00	 3.475630316408694e+00
 1.018440703403876e-01	 1.726409080660103e+00	 3.449346817172922e+00
 8.716358746191169e-02	 1.727212513797325e+00	 3.426169882043495e+00
 7.252464718880246e-02	 1.727889100032050e+00	 3.406073096374806e+00
 5.792861807268735e-02	 1.728439998498639e+00	 3.389077902048481e+00
 4.337684059478112e-02	 1.728866384024248e+00	 3.375256037363320e+00
 2.887062707648934e-02	 1.729169446400057e+00	 3.364731476150438e+00
 1.441126160878639e-02	 1.729350389657586e+00	 3.357681823050775e+00
 0.000000000000000e+00	 1.729410431350621e+00	 3.354339128421752e+00
 1.471146330583449e-01	 1.734948332359832e+00	 3.610754137270629e+00
 1.322173609769674e-01	 1.736147193018866e+00	 3.577955100646741e+00
 1.173576121277905e-01	 1.737214945062743e+00	 3.548431501954064e+00
 1.025368484215398e-01	 1.738152703666049e+00	 3.522064139618636e+00
 8.775650389452135e-02	 1.738961602029694e+00	 3.498779506248460e+00
 7.301798455981781e-02	 1.739642790634945e+00	 3.478553703385113e+00
 5.832266827841865e-02	 1.740197436500978e+00	 3.461415923401398e+00
 4.367190464995616e-02	 1.740626722446518e+00	 3.447451439507406e+00
 2.906701492270065e-02	 1.740931846356097e+00	 3.436804051702463e+00
 1.450929192245823e-02	 1.741114020451460e+00	 3.429677943414448e+00
 0.000000000000000e+00	 1.741174470568598e+00	 3.426338910383495e+00
 1.481085956653449e-01	 1.746670305409506e+00	 3.680217282377980e+00
 1.331106719283228e-01	 1.747877266029092e+00	 3.647415627972399e+00
 1.181505249447515e-01	 1.748952232213680e+00	 3.617888544642221e+00
 1.032296265025890e-01	 1.749896326672389e+00	 3.591514477992731e+00
 8.834942032704367e-02	 1.750710690262460e+00	 3.568221653406224e+00
 7.351132193076435e-02	 1.751396481238238e+00	 3.547992648136311e+00
 5.871671848410073e-02	 1.751954874503718e+00	 3.530868491278119e+00
 4.396696870510058e-02	 1.752387060869188e+00	 3.516952229556366e+00
 2.926340276889708e-02	 1.752694246312537e+00	 3.506411904129962e+00
 1.460732223612604e-02	 1.752877651245734e+00	 3.499482890852150e+00
 0.000000000000000e+00	 1.752938509786976e+00	 3.496469563577504e+00
 1.491025582721442e-01	 1.758392278459411e+00	 3.746142999590941e+00
 1.340039828794840e-01	 1.759607339039541e+00	 3.713414315703305e+00
 1.189434377615341e-01	 1.760689519364833e+00	 3.683971964817120e+00
 1.039224045834828e-01	 1.761639949678940e+00	 3.657695221375385e+00
 8.894233675943791e-02	 1.762459778495433e+00	 3.634517304269878e+00
 7.400465930161242e-02	 1.763150171841735e+00	 3.614430636463013e+00
 5.911076868971374e-02	 1.763712312506659e+00	 3.597491591687441e+00
 4.426203276020280e-02	 1.764147399292058e+00	 3.583824663057923e+00
 2.945979061507327e-02	 1.764456646269178e+00	 3.573625996032033e+00
 1.470535254978841e-02	 1.764641282040208e+00	 3.567166235782338e+00
 0.000000000000000e+00	 1.764702549005553e+00	 3.564792646514102e+00
 1.500965208786520e-01	 1.770114251509398e+00	 3.808441496331663e+00
 1.348972938303727e-01	 1.771337412050050e+00	 3.775892836747519e+00
 1.197363505780732e-01	 1.772426806516028e+00	 3.746652841683430e+00
 1.046151826641685e-01	 1.773383572685520e+00	 3.720604184417765e+00
 8.953525319166349e-02	 1.774208866728423e+00	 3.697687734740516e+00
 7.449799667233251e-02	 1.774903862445242e+00	 3.677908537796719e+00
 5.950481889523793e-02	 1.775469750509605e+00	 3.661341237641213e+00
 4.455709681525118e-02	 1.775907737714931e+00	 3.648134877095752e+00
 2.965617846122382e-02	 1.776219046225818e+00	 3.638517013493642e+00
 1.480338286344395e-02	 1.776404912834682e+00	 3.632797097895161e+00
 0.000000000000000e+00	 1.776466588224131e+00	 3.631369073182302e+00
 1.510904834847778e-01	 1.781836224559314e+00	 3.867023763618729e+00
 1.357906047809113e-01	 1.783067485060451e+00	 3.834793504580491e+00
 1.205292633943035e-01	 1.784164093667087e+00	 3.805902763866345e+00
 1.053079607445934e-01	 1.785127195691942e+00	 3.780239567577508e+00
 9.012816962367975e-02	 1.785957954961240e+00	 3.757754486105366e+00
 7.499133404289500e-02	 1.786657553048565e+00	 3.738467365443127e+00
 5.989886910065347e-02	 1.787227188512359e+00	 3.722473459200606e+00
 4.485216087023410e-02	 1.787668076137607e+00	 3.709948889543587e+00
 2.985256630734336e-02	 1.787981446182261e+00	 3.701155373690522e+00
 1.490141317709126e-02	 1.788168543628956e+00	 3.696444160973722e+00
 0.000000000000000e+00	 1.788230627442508e+00	 3.696259133664425e+00
 1.520844460904311e-01	 1.793558197609008e+00	 3.921801512585583e+00
 1.366839157310218e-01	 1.794797558070583e+00	 3.890059217393247e+00
 1.213221762101600e-01	 1.795901380817838e+00	 3.861693782132075e+00
 1.060007388247051e-01	 1.796870818698026e+00	 3.836599919047993e+00
 9.072108605544614e-02	 1.797707043193696e+00	 3.814739336520996e+00
 7.548467141327031e-02	 1.798411243651510e+00	 3.796148257668528e+00
 6.029291930594056e-02	 1.798984626514725e+00	 3.780944293925431e+00
 4.514722492513995e-02	 1.799428414559888e+00	 3.769332598349497e+00
 3.004895415342651e-02	 1.799743846138304e+00	 3.761611232199289e+00
 1.499944349072895e-02	 1.799932174422830e+00	 3.758175687134830e+00
 0.000000000000000e+00	 1.799994666660487e+00	 3.759522513940196e+00
 1.530784086955211e-01	 1.805280170658329e+00	 3.972687113945507e+00
 1.375772266806261e-01	 1.806527631080278e+00	 3.941633404748509e+00
 1.221150890255774e-01	 1.807638667968104e+00	 3.913998364166966e+00
 1.066935169044508e-01	 1.808614441703587e+00	 3.889684098304859e+00
 9.131400248692195e-02	 1.809456131425599e+00	 3.868664273683533e+00
 7.597800878342889e-02	 1.810164934253882e+00	 3.850992459557870e+00
 6.068696951107944e-02	 1.810742064516506e+00	 3.836809777708942e+00
 4.544228897995711e-02	 1.811188752981575e+00	 3.826351780852028e+00
 3.024534199946790e-02	 1.811506246093749e+00	 3.819954490021605e+00
 1.509747380435561e-02	 1.811695805216105e+00	 3.818059530516700e+00
 0.000000000000000e+00	 1.811758705877864e+00	 3.821218314923790e+00
 1.540723712999572e-01	 1.817002143707124e+00	 4.019593540277700e+00
 1.384705376296464e-01	 1.818257704089375e+00	 3.989459976631214e+00
 1.229080018404906e-01	 1.819375955117709e+00	 3.962789351323973e+00
 1.073862949837781e-01	 1.820358064708441e+00	 3.939491241196261e+00
 9.190691891806659e-02	 1.821205219656762e+00	 3.919551468627480e+00
 7.647134615334115e-02	 1.821918624855489e+00	 3.903041305614133e+00
 6.108101971605030e-02	 1.822499502517503e+00	 3.890125935981435e+00
 4.573735303467397e-02	 1.822949091402470e+00	 3.881072093124627e+00
 3.044172984546216e-02	 1.823268646048397e+00	 3.876254800335657e+00
 1.519550411796986e-02	 1.823459436008580e+00	 3.876163150436866e+00
 0.000000000000000e+00	 1.823522745094442e+00	 3.881405070763571e+00
 1.823522745094442e+00	 0.000000000000000e+00	 1.315778844661170e+01
 1.823459436008580e+00	 1.519550411796885e-02	 1.315466031792599e+01
 1.823268646048397e+00	 3.044172984546130e-02	 1.315375371520371e+01
 1.822949091402470e+00	 4.573735303467325e-02	 1.315468821084215e+01
 1.822499502517502e+00	 6.108101971604972e-02	 1.315710269109466e+01
 1.821918624855489e+00	 7.647134615334071e-02	 1.316065671098519e+01
 1.821205219656762e+00	 9.190691891806632e-02	 1.316503206837318e+01
 1.820358064708441e+00	 1.073862949837780e-01	 1.316993459837132e+01
 1.819375955117709e+00	 1.229080018404906e-01	 1.317509618614562e+01
 1.818257704089375e+00	 1.384705376296465e-01	 1.318027699334485e+01
 1.817002143707124e+00	 1.540723712999574e-01	 1.318526789044101e+01
 1.835288783205465e+00	 0.000000000000000e+00	 1.310038580098807e+01
 1.835225065626103e+00	 1.529355108846296e-02	 1.309815852367895e+01
 1.835033044618957e+00	 3.063815106079127e-02	 1.309791598207466e+01
 1.834711428088995e+00	 4.603246722531015e-02	 1.309933123880676e+01
 1.834258938291317e+00	 6.147513687617329e-02	 1.310209426701715e+01
 1.833674312593190e+00	 7.696476734877399e-02	 1.310591324054679e+01
 1.832956304242033e+00	 9.249993609469066e-02	 1.311051606514067e+01
 1.832103683138816e+00	 1.080791907765564e-01	 1.311565215277569e+01
 1.831115236616327e+00	 1.237010493832296e-01	 1.312109443792948e+01
 1.829989770221754e+00	 1.393640003656282e-01	 1.312664163170043e+01
 1.828726108502977e+00	 1.550665027935774e-01	 1.313212070659299e+01
 1.847054814647955e+00	 0.000000000000000e+00	 1.304312970242005e+01
 1.846990688575326e+00	 1.539159800338430e-02	 1.304156442885498e+01
 1.846797436521919e+00	 3.083457216477031e-02	 1.304178400660437e+01
 1.846473758109103e+00	 4.632758124862077e-02	 1.304351505509037e+01
 1.846018367400375e+00	 6.186925381280638e-02	 1.304649840177897e+01
 1.845429993668283e+00	 7.745818826437224e-02	 1.305049030335877e+01
 1.844707382167336e+00	 9.309295293496372e-02	 1.305526393102348e+01
 1.843849294912362e+00	 1.087720861763045e-01	 1.306061112292320e+01
 1.842854511461762e+00	 1.244940964761050e-01	 1.306634440344034e+01
 1.841721829705106e+00	 1.402574625947683e-01	 1.307229926591071e+01
 1.840450066654472e+00	 1.560606337232426e-01	 1.307833671217889e+01
 1.858820832754377e+00	 0.000000000000000e+00	 1.298694859732164e+01
 1.858756298188947e+00	 1.548964480717391e-02	 1.298576863752251e+01
 1.858561815090684e+00	 3.103099304610006e-02	 1.298619359444132e+01
 1.858236074797366e+00	 4.662269493739085e-02	 1.298800028077869e+01
 1.857777783180897e+00	 6.226337030264646e-02	 1.299097941017964e+01
 1.857185661419118e+00	 7.795160862057643e-02	 1.299493694118859e+01
 1.856458446773637e+00	 9.368596910290622e-02	 1.299969552003119e+01
 1.855594893373147e+00	 1.094649807904630e-01	 1.300509602845996e+01
 1.854593773001668e+00	 1.252871426698230e-01	 1.301099924282950e+01
 1.853453875891167e+00	 1.411509238108880e-01	 1.301728761110586e+01
 1.852174011517927e+00	 1.570547635257429e-01	 1.302386715506987e+01
 1.870586830857200e+00	 0.000000000000000e+00	 1.293312328973398e+01
 1.870521887799667e+00	 1.558769144427286e-02	 1.293225316926561e+01
 1.870326173658654e+00	 3.122741359348212e-02	 1.293280933576931e+01
 1.869998371488359e+00	 4.691780812440609e-02	 1.293461280301471e+01
 1.869537178969109e+00	 6.265748612239093e-02	 1.293749766446781e+01
 1.868941309184048e+00	 7.844502813782754e-02	 1.294131239081175e+01
 1.868209491401899e+00	 9.427898426253863e-02	 1.294592122396905e+01
 1.867340471865230e+00	 1.101578742264727e-01	 1.295120567393847e+01
 1.866333014583699e+00	 1.260801875150896e-01	 1.295706612472232e+01
 1.865185902131675e+00	 1.420443835078078e-01	 1.296342355619790e+01
 1.863897936449663e+00	 1.580488916378681e-01	 1.297022138938070e+01
 1.882352802288888e+00	 0.000000000000000e+00	 1.288161672051760e+01
 1.882287450740185e+00	 1.568573785912217e-02	 1.288101839572609e+01
 1.882090505559228e+00	 3.142383369561811e-02	 1.288167644497536e+01
 1.881760641516655e+00	 4.721292064245217e-02	 1.288345455428225e+01
 1.881296548101231e+00	 6.305160104873718e-02	 1.288622864130063e+01
 1.880696930301424e+00	 7.893844653656656e-02	 1.288988810685770e+01
 1.879960509393085e+00	 9.487199807788176e-02	 1.289433718046878e+01
 1.879086023732677e+00	 1.108507660917745e-01	 1.289949636621374e+01
 1.878072229555507e+00	 1.268732305626107e-01	 1.290530399535354e+01
 1.876917901778367e+00	 1.429378411793486e-01	 1.291171789268613e+01
 1.875621834805996e+00	 1.590430174964081e-01	 1.291871716427509e+01
 1.894118740381910e+00	 0.000000000000000e+00	 1.283225108294400e+01
 1.894052980343200e+00	 1.578378399616292e-02	 1.283189570234994e+01
 1.893854804125807e+00	 3.162025324120965e-02	 1.283263459366677e+01
 1.893522878216829e+00	 4.750803232431484e-02	 1.283437258351022e+01
 1.893055883913489e+00	 6.344571485838270e-02	 1.283702585835346e+01
 1.892452518109599e+00	 7.943186353723450e-02	 1.284052317056254e+01
 1.891711494088160e+00	 9.546501021295616e-02	 1.284480713568010e+01
 1.890831542319550e+00	 1.115436559938091e-01	 1.284983562739923e+01
 1.889811411264745e+00	 1.276662713630924e-01	 1.285558327670547e+01
 1.888649868182980e+00	 1.438312963193313e-01	 1.286204308232382e+01
 1.887345699943246e+00	 1.600371405381526e-01	 1.286922814028963e+01
 1.905884638468732e+00	 0.000000000000000e+00	 1.278483934929215e+01
 1.905818469941414e+00	 1.588182979983615e-02	 1.278470852995082e+01
 1.905619062691791e+00	 3.181667211895835e-02	 1.278551676154021e+01
 1.905285074923452e+00	 4.780314300277978e-02	 1.278720847615683e+01
 1.904815179742103e+00	 6.383982732802491e-02	 1.278973857342593e+01
 1.904208065946924e+00	 7.992527886027220e-02	 1.279307358155652e+01
 1.903462438828087e+00	 9.605802033178250e-02	 1.279719290669319e+01
 1.902577020969913e+00	 1.122365435400175e-01	 1.280209017705773e+01
 1.901550553059068e+00	 1.284593094672407e-01	 1.280777468844976e+01
 1.900381794697252e+00	 1.447247484215766e-01	 1.281427295837839e+01
 1.899069525217733e+00	 1.610312601998917e-01	 1.282163039682267e+01
 1.917650489881821e+00	 0.000000000000000e+00	 1.273918555556473e+01
 1.917583912867523e+00	 1.597987521458290e-02	 1.273927264762806e+01
 1.917383274590582e+00	 3.201309021756584e-02	 1.274014949644834e+01
 1.917047224971100e+00	 4.809825251063270e-02	 1.274179860038989e+01
 1.916574428923298e+00	 6.423393823436122e-02	 1.274421201572212e+01
 1.915963567151750e+00	 8.041869222612082e-02	 1.274739247325078e+01
 1.915213336953833e+00	 9.665102809838146e-02	 1.275135458006267e+01
 1.914322453027828e+00	 1.129294283378405e-01	 1.275612611291696e+01
 1.913289648286128e+00	 1.292523444257616e-01	 1.276174940993734e+01
 1.912113674672920e+00	 1.456181969799055e-01	 1.276828286800603e+01
 1.910793303985774e+00	 1.620253759184152e-01	 1.277580255403254e+01
 1.929416287953643e+00	 0.000000000000000e+00	 1.269508507592272e+01
 1.929349302454229e+00	 1.607792018484423e-02	 1.269539641580542e+01
 1.929147433155579e+00	 3.220950742573373e-02	 1.269635316500418e+01
 1.928809321694347e+00	 4.839336068065934e-02	 1.269797434423693e+01
 1.928333624793296e+00	 6.462804735408906e-02	 1.270028760854509e+01
 1.927719015062430e+00	 8.091210335522123e-02	 1.270333032009690e+01
 1.926964181806358e+00	 9.724403317677364e-02	 1.270715070267532e+01
 1.926067831837361e+00	 1.136223099947188e-01	 1.271180908441389e+01
 1.925028690293579e+00	 1.300453757893613e-01	 1.271737923551204e+01
 1.923845501461721e+00	 1.465116414881385e-01	 1.272394980845476e+01
 1.922517029603688e+00	 1.630194871305129e-01	 1.273162588908066e+01
 1.941182026016666e+00	 0.000000000000000e+00	 1.265232488727343e+01
 1.941114632034230e+00	 1.617596465506120e-02	 1.265288103980783e+01
 1.940911531720184e+00	 3.240592363216365e-02	 1.265394219412283e+01
 1.940571358427765e+00	 4.868846734564537e-02	 1.265556234408499e+01
 1.940092760688320e+00	 6.502215446390586e-02	 1.265780318376772e+01
 1.939474403017316e+00	 8.140551196801439e-02	 1.266073513706213e+01
 1.938714966726629e+00	 9.783703523097975e-02	 1.266443846528523e+01
 1.937813150742574e+00	 1.143151881180935e-01	 1.266900445936808e+01
 1.936767672429075e+00	 1.308384031087457e-01	 1.267453672342676e+01
 1.935577268415393e+00	 1.474050814400968e-01	 1.268115255735595e+01
 1.934240695427796e+00	 1.640135932729748e-01	 1.268898444695733e+01
 1.817002143707124e+00	 1.540723712999574e-01	 1.318526789044101e+01
 1.815607876833829e+00	 1.697145985878827e-01	 1.319056038097704e+01
 1.814073976605143e+00	 1.853929492864264e-01	 1.319667523326687e+01
 1.812399335656343e+00	 2.011057666461542e-01	 1.320349504406104e+01
 1.810582868731020e+00	 2.168513645632819e-01	 1.321093240482042e+01
 1.808623513485171e+00	 2.326280278439484e-01	 1.321893287389674e+01
 1.806520231291444e+00	 2.484340124920137e-01	 1.322747804651378e+01
 1.804272008042861e+00	 2.642675460206286e-01	 1.323658869046452e+01
 1.801877854955257e+00	 2.801268277877985e-01	 1.324632791150900e+01
 1.799336809367684e+00	 2.960100293561412e-01	 1.325680430849981e+01
 1.796647935540022e+00	 3.119152948770172e-01	 1.326817507430554e+01
 1.828726108502977e+00	 1.550665027935774e-01	 1.313212070659300e+01
 1.827322845308037e+00	 1.708096594736457e-01	 1.313792575189145e+01
 1.825779047792110e+00	 1.865891726458913e-01	 1.314447276458740e+01
 1.824093601445333e+00	 2.024033748709181e-01	 1.315166553060336e+01
 1.822265414008812e+00	 2.182505691655745e-01	 1.315943478299524e+01
 1.820293416283891e+00	 2.341290292689321e-01	 1.316774133903259e+01
 1.818176562941601e+00	 2.500369999319410e-01	 1.317657936073120e+01
 1.815913833331557e+00	 2.659726972310091e-01	 1.318597970612205e+01
 1.813504232289580e+00	 2.819343089057313e-01	 1.319601333440370e+01
 1.810946790943262e+00	 2.979199947209696e-01	 1.320679472395873e+01
 1.808240567514731e+00	 3.139278868534603e-01	 1.321848525804194e+01
 1.840450066654472e+00	 1.560606337232426e-01	 1.307833671217888e+01
 1.839037807143078e+00	 1.719047197382040e-01	 1.308474190055805e+01
 1.837484112345622e+00	 1.877853953267819e-01	 1.309181545152000e+01
 1.835787860607103e+00	 2.037009823596247e-01	 1.309948138568783e+01
 1.833947952666138e+00	 2.196497729742202e-01	 1.310768754540192e+01
 1.831963312469425e+00	 2.356300298425793e-01	 1.311640890858697e+01
 1.829832887986372e+00	 2.516399864627486e-01	 1.312565105306276e+01
 1.827555652023189e+00	 2.676778474744003e-01	 1.313545373793835e+01
 1.825130603035681e+00	 2.837417889987263e-01	 1.314589456438104e+01
 1.822556765939984e+00	 2.998299590028388e-01	 1.315709267366564e+01
 1.819833192920468e+00	 3.159404776888578e-01	 1.316921243601579e+01
 1.852174011517927e+00	 1.570547635257429e-01	 1.302386715506987e+01
 1.850752755700353e+00	 1.729997787611660e-01	 1.303090381702101e+01
 1.849189163632671e+00	 1.889816166513901e-01	 1.303855011613619e+01
 1.847482106514744e+00	 2.049985883771202e-01	 1.304674835112816e+01
 1.845630478082710e+00	 2.210489751964960e-01	 1.305546234084837e+01
 1.843633195428621e+00	 2.371310287144807e-01	 1.306468001078453e+01
 1.841489199820270e+00	 2.532429711762308e-01	 1.307441707462062e+01
 1.839197457520466e+00	 2.693829957846958e-01	 1.308472086060658e+01
 1.836756960605004e+00	 2.855492670426776e-01	 1.309567424415508e+01
 1.834166727778566e+00	 3.017399211195533e-01	 1.310739964346868e+01
 1.831425805187769e+00	 3.179530662428399e-01	 1.312006303037720e+01
 1.863897936449663e+00	 1.580488916378681e-01	 1.297022138938071e+01
 1.862467684341267e+00	 1.740948359221403e-01	 1.297752302282989e+01
 1.860894195020248e+00	 1.901778359420076e-01	 1.298539853941805e+01
 1.859176332541350e+00	 2.062961921882503e-01	 1.299383364075668e+01
 1.857312983638236e+00	 2.224481750396788e-01	 1.300282997732505e+01
 1.855303058548327e+00	 2.386320250342277e-01	 1.301240744020234e+01
 1.853145491837810e+00	 2.548459531641822e-01	 1.302260664594936e+01
 1.850839243226099e+00	 2.710881411957890e-01	 1.303348147308260e+01
 1.848383298408991e+00	 2.873567420134804e-01	 1.304504594936753e+01
 1.845776669879722e+00	 3.036498799889182e-01	 1.305740867214063e+01
 1.843018397747167e+00	 3.199656513750367e-01	 1.307073564306726e+01
 1.875621834805996e+00	 1.590430174964081e-01	 1.291871716427510e+01
 1.874182586427219e+00	 1.751898906007349e-01	 1.292624341935862e+01
 1.872599199875346e+00	 1.913740525209261e-01	 1.293424353437803e+01
 1.870870532060013e+00	 2.075937930578611e-01	 1.294273480107639e+01
 1.868995462712429e+00	 2.238473717110457e-01	 1.295174879176705e+01
 1.866972895215394e+00	 2.401330179514110e-01	 1.296133358148069e+01
 1.864801757433505e+00	 2.564489315183971e-01	 1.297155616355953e+01
 1.862481002542800e+00	 2.727932827415736e-01	 1.298250507146359e+01
 1.860009609859086e+00	 2.891642128870293e-01	 1.299429322009644e+01
 1.857386585664170e+00	 3.055598345287379e-01	 1.300706098045707e+01
 1.854610964029197e+00	 3.219782319450786e-01	 1.302097950186599e+01
 1.887345699943246e+00	 1.600371405381526e-01	 1.286922814028963e+01
 1.885897455319614e+00	 1.762849421765587e-01	 1.287695494385802e+01
 1.884304171564957e+00	 1.925702657104375e-01	 1.288504499421363e+01
 1.882564698443828e+00	 2.088913902507985e-01	 1.289354731006575e+01
 1.880677908684997e+00	 2.252465644178736e-01	 1.290252368715653e+01
 1.878642698816670e+00	 2.416340066156219e-01	 1.291205085095731e+01
 1.876457990001869e+00	 2.580519053306700e-01	 1.292222280269672e+01
 1.874122728873276e+00	 2.744984194559428e-01	 1.293315337202704e+01
 1.871635888366731e+00	 2.909716786392191e-01	 1.294497899023473e+01
 1.868996468552627e+00	 3.074697836568170e-01	 1.295786169844962e+01
 1.866203497464394e+00	 3.239908068125952e-01	 1.297199240580466e+01
 1.899069525217733e+00	 1.610312601998917e-01	 1.282163039682267e+01
 1.897612284379851e+00	 1.773799900292197e-01	 1.282953685050573e+01
 1.896009103456072e+00	 1.937664748328335e-01	 1.283768806114452e+01
 1.894258825065884e+00	 2.101889830319084e-01	 1.284616491682903e+01
 1.892360314935652e+00	 2.266457523674395e-01	 1.285505974444911e+01
 1.890312462739004e+00	 2.431349901764515e-01	 1.286447839294961e+01
 1.888114182937418e+00	 2.596548736927952e-01	 1.287454250937410e+01
 1.885764415620243e+00	 2.762035503727905e-01	 1.288539202155100e+01
 1.883262127343370e+00	 2.927791382459445e-01	 1.289718784192813e+01
 1.880606311965806e+00	 3.093797262909606e-01	 1.291011480766953e+01
 1.877795991483292e+00	 3.260033748372170e-01	 1.292438487267854e+01
 1.910793303985774e+00	 1.620253759184152e-01	 1.277580255403253e+01
 1.909327066969337e+00	 1.784750335383265e-01	 1.278387189045891e+01
 1.907713988915684e+00	 1.949626792104059e-01	 1.279206221671054e+01
 1.905952905299278e+00	 2.114865706660368e-01	 1.280048643903560e+01
 1.904042674844103e+00	 2.280449347670205e-01	 1.280926773024095e+01
 1.901982180369245e+00	 2.446359677834907e-01	 1.281854154338705e+01
 1.899770329634665e+00	 2.612578356965675e-01	 1.282845781729081e+01
 1.897406056186406e+00	 2.779086745260100e-01	 1.283918338823626e+01
 1.894888320200446e+00	 2.945865906831003e-01	 1.285090462300822e+01
 1.892216109324424e+00	 3.112896613489732e-01	 1.286383028902759e+01
 1.889388439516424e+00	 3.280159348785739e-01	 1.287819467797724e+01
 1.922517029603688e+00	 1.630194871305129e-01	 1.273162588908066e+01
 1.921041796449470e+00	 1.795700720834874e-01	 1.273984640864233e+01
 1.919418821310783e+00	 1.961588781654463e-01	 1.274806136096181e+01
 1.917646932517101e+00	 2.127841524180296e-01	 1.275641582638718e+01
 1.915724981790061e+00	 2.294441108238935e-01	 1.276506414640268e+01
 1.913651845094242e+00	 2.461369385863307e-01	 1.277417186751918e+01
 1.911426423488125e+00	 2.628607904337812e-01	 1.278391787553555e+01
 1.909047643974479e+00	 2.796137909494947e-01	 1.279449673512558e+01
 1.906514460349399e+00	 2.963940349265809e-01	 1.280612125047625e+01
 1.903825854049197e+00	 3.131995877486596e-01	 1.281902526343262e+01
 1.900980834994326e+00	 3.300284857962962e-01	 1.283346670627144e+01
 1.934240695427796e+00	 1.640135932729748e-01	 1.268898444695732e+01
 1.932756466181655e+00	 1.806651050443109e-01	 1.269735043557428e+01
 1.931123594008364e+00	 1.973550710202468e-01	 1.270558388705560e+01
 1.929340900092446e+00	 2.140817275527329e-01	 1.271386221977144e+01
 1.927407229153236e+00	 2.308432797453356e-01	 1.272237127559455e+01
 1.925321450300846e+00	 2.476379017345626e-01	 1.273130719361081e+01
 1.923082457892312e+00	 2.644637369962307e-01	 1.274087847229777e+01
 1.920689172387171e+00	 2.813188986771385e-01	 1.275130823568073e+01
 1.918140541201675e+00	 2.982014699522815e-01	 1.276283671981240e+01
 1.915435539560843e+00	 3.151095044078244e-01	 1.277572399671290e+01
 1.912573171347531e+00	 3.320410264500140e-01	 1.279025295364123e+01
 1.796647935540022e+00	 3.119152948770172e-01	 1.326817507430554e+01
 1.793810820251175e+00	 3.278380335697709e-01	 1.327953910294522e+01
 1.790824138819805e+00	 3.437790423233604e-01	 1.329013840240620e+01
 1.787687040057288e+00	 3.597363909416772e-01	 1.330041644455363e+01
 1.784398702798519e+00	 3.757081237024615e-01	 1.331085541308475e+01
 1.780958336672210e+00	 3.916922598638460e-01	 1.332169172002279e+01
 1.777365182863503e+00	 4.076867941956382e-01	 1.333310461276811e+01
 1.773618514868042e+00	 4.236896975353275e-01	 1.334534561023368e+01
 1.769717639236662e+00	 4.396989173687552e-01	 1.335870571812936e+01
 1.765661896309814e+00	 4.557123784353700e-01	 1.337351686494126e+01
 1.761450660940856e+00	 4.717279833579464e-01	 1.339015315678681e+01
 1.808240567514731e+00	 3.139278868534603e-01	 1.321848525804194e+01
 1.805385146116623e+00	 3.299533649011396e-01	 1.323011767605393e+01
 1.802379193520280e+00	 3.459972308947850e-01	 1.324087230174522e+01
 1.799221853044913e+00	 3.620575421839547e-01	 1.325120191871495e+01
 1.795912298226970e+00	 3.781323304273514e-01	 1.326159822961806e+01
 1.792449733595413e+00	 3.942196021026342e-01	 1.327238389370278e+01
 1.788833395439249e+00	 4.103173390411302e-01	 1.328377802307017e+01
 1.785062552566464e+00	 4.264234989874278e-01	 1.329603672466679e+01
 1.781136507053520e+00	 4.425360161837939e-01	 1.330945424001397e+01
 1.777054594984515e+00	 4.586528019793344e-01	 1.332436455396738e+01
 1.772816187179151e+00	 4.747717454637772e-01	 1.334114283094353e+01
 1.819833192920468e+00	 3.159404776888578e-01	 1.316921243601579e+01
 1.816959465423504e+00	 3.320686950333279e-01	 1.318121931250160e+01
 1.813934241673121e+00	 3.482154182088389e-01	 1.319222788283179e+01
 1.810756659496367e+00	 3.643786921106178e-01	 1.320269456315262e+01
 1.807425887131256e+00	 3.805565357783327e-01	 1.321313410511213e+01
 1.803941124007006e+00	 3.967469429091711e-01	 1.322395823516142e+01
 1.800301601516492e+00	 4.129478823959823e-01	 1.323539903079381e+01
 1.796506583780050e+00	 4.291572988904558e-01	 1.324771315291575e+01
 1.792555368399777e+00	 4.453731133912872e-01	 1.326119404973266e+01
 1.788447287203424e+00	 4.615932238572423e-01	 1.327617375507226e+01
 1.784181706977044e+00	 4.778155058450044e-01	 1.329302452346877e+01
 1.831425805187769e+00	 3.179530662428399e-01	 1.312006303037720e+01
 1.828533771612720e+00	 3.341840227677234e-01	 1.313256042135361e+01
 1.825489276730145e+00	 3.504336030085975e-01	 1.314393559487575e+01
 1.822291452874942e+00	 3.666998394063685e-01	 1.315464278629985e+01
 1.818939462986697e+00	 3.829807383816797e-01	 1.316524337230388e+01
 1.815432501394892e+00	 3.992742808512590e-01	 1.317622090815199e+01
 1.811769794596282e+00	 4.155784227694879e-01	 1.318780304454294e+01
 1.807950602023559e+00	 4.318910956951686e-01	 1.320024290608917e+01
 1.803974216804461e+00	 4.482102073834358e-01	 1.321382905611491e+01
 1.799839966510405e+00	 4.645336424027267e-01	 1.322888750167367e+01
 1.795547213893798e+00	 4.808592627766917e-01	 1.324578354535084e+01
 1.843018397747167e+00	 3.199656513750367e-01	 1.307073564306726e+01
 1.840108058125170e+00	 3.362993469057142e-01	 1.308385024170933e+01
 1.837044292143170e+00	 3.526517840371368e-01	 1.309571940589587e+01
 1.833826226643928e+00	 3.690209827559089e-01	 1.310678923556483e+01
 1.830453019268610e+00	 3.854049368636679e-01	 1.311770093152950e+01
 1.826923859246977e+00	 4.018016144967010e-01	 1.312897299180652e+01
 1.823237968179668e+00	 4.182089586709413e-01	 1.314082073643518e+01
 1.819394600811747e+00	 4.346248878523228e-01	 1.315348960249533e+01
 1.815393045796600e+00	 4.510472965524398e-01	 1.316725910948923e+01
 1.811232626449322e+00	 4.674740559494211e-01	 1.318244508853918e+01
 1.806912701488677e+00	 4.839030145339032e-01	 1.319940176915478e+01
 1.854610964029197e+00	 3.219782319450786e-01	 1.302097950186599e+01
 1.851682318401755e+00	 3.384146662486879e-01	 1.303479139592288e+01
 1.848599281364017e+00	 3.548699600375324e-01	 1.304729740505284e+01
 1.845360974266615e+00	 3.713421208439409e-01	 1.305887245795645e+01
 1.841966549452316e+00	 3.878291298505721e-01	 1.307027678028604e+01
 1.838415191051164e+00	 4.043289424132995e-01	 1.308201105433395e+01
 1.834706115767703e+00	 4.208394886096361e-01	 1.309427866229392e+01
 1.830838573659373e+00	 4.373586738126758e-01	 1.310731313668779e+01
 1.826811848905226e+00	 4.538843792905004e-01	 1.312138072194095e+01
 1.822625260564037e+00	 4.704144628309586e-01	 1.313678284561183e+01
 1.818278163320947e+00	 4.869467593917030e-01	 1.315385845876456e+01
 1.866203497464394e+00	 3.239908068125952e-01	 1.297199240580466e+01
 1.863256545883375e+00	 3.405299795980326e-01	 1.298605490610841e+01
 1.860154237844501e+00	 3.570881297528602e-01	 1.299884704467154e+01
 1.856895689206295e+00	 3.736632523551667e-01	 1.301078854289650e+01
 1.853480047013132e+00	 3.902533159686676e-01	 1.302274978227293e+01
 1.849906490295360e+00	 4.068562631688579e-01	 1.303512771825602e+01
 1.846174230861437e+00	 4.234700110948664e-01	 1.304799987261862e+01
 1.842282514081197e+00	 4.400924520269842e-01	 1.306157033846652e+01
 1.838230619659364e+00	 4.567214539898172e-01	 1.307608777663849e+01
 1.834017862398414e+00	 4.733548613809720e-01	 1.309183489995064e+01
 1.829643592949868e+00	 4.899904956251547e-01	 1.310913108622037e+01
 1.877795991483292e+00	 3.260033748372170e-01	 1.292438487267854e+01
 1.874830734010930e+00	 3.426452857551357e-01	 1.293862021566773e+01
 1.871709155036443e+00	 3.593062919261958e-01	 1.295154329421251e+01
 1.868430364926257e+00	 3.759843759742884e-01	 1.296360799507390e+01
 1.864993505426376e+00	 3.926774938442286e-01	 1.297582544088463e+01
 1.861397750467469e+00	 4.093835753311783e-01	 1.298855570256549e+01
 1.857642306961921e+00	 4.261005246359261e-01	 1.300193886639211e+01
 1.853726415591975e+00	 4.428262209460050e-01	 1.301612642085806e+01
 1.849649351588045e+00	 4.595585190425912e-01	 1.303127222668787e+01
 1.845410425496316e+00	 4.762952499330948e-01	 1.304753392628721e+01
 1.841008983934707e+00	 4.930342215093225e-01	 1.306519613619454e+01
 1.889388439516424e+00	 3.280159348785739e-01	 1.287819467797724e+01
 1.886404876225323e+00	 3.447605835213853e-01	 1.289255510357466e+01
 1.883264026391660e+00	 3.615244453006153e-01	 1.290555280051516e+01
 1.879964994889792e+00	 3.783054903860081e-01	 1.291770448349966e+01
 1.876506918167368e+00	 3.951016621035309e-01	 1.293013719831879e+01
 1.872888965055394e+00	 4.119108774680638e-01	 1.294314769028268e+01
 1.869110337570206e+00	 4.287310277421092e-01	 1.295687328259276e+01
 1.865170271706467e+00	 4.455599790204953e-01	 1.297145999582395e+01
 1.861068038220298e+00	 4.623955728410227e-01	 1.298706495277911e+01
 1.856802943401607e+00	 4.792356268209602e-01	 1.300385908335073e+01
 1.852374329834726e+00	 4.960779353192702e-01	 1.302203014874141e+01
 1.900980834994326e+00	 3.300284857962962e-01	 1.283346670627144e+01
 1.897978965967451e+00	 3.468758716981692e-01	 1.284793405395184e+01
 1.894818845361971e+00	 3.637425886191941e-01	 1.286098081495135e+01
 1.891499572560190e+00	 3.806265942750278e-01	 1.287322266989637e+01
 1.888020278711428e+00	 3.975258193728491e-01	 1.288586192678449e+01
 1.884380127547044e+00	 4.144381681473174e-01	 1.289913113331026e+01
 1.880578316187343e+00	 4.313615189227097e-01	 1.291316296288352e+01
 1.876614075939431e+00	 4.482937247012120e-01	 1.292809613410763e+01
 1.872486673085151e+00	 4.652326137773122e-01	 1.294407774863355e+01
 1.868195409658150e+00	 4.821759903782011e-01	 1.296126593490668e+01
 1.863739624209190e+00	 4.991216353300618e-01	 1.297983281819942e+01
 1.912573171347531e+00	 3.320410264500140e-01	 1.279025295364123e+01
 1.909552996678217e+00	 3.489911490868752e-01	 1.280483854873858e+01
 1.906373605399194e+00	 3.659607206250082e-01	 1.281793941126001e+01
 1.903034091400743e+00	 3.829476863260496e-01	 1.283031322403444e+01
 1.899533580533872e+00	 3.999499642784583e-01	 1.284318212310800e+01
 1.895871231430321e+00	 4.169654459367418e-01	 1.285672153194467e+01
 1.892046236314383e+00	 4.339919966870214e-01	 1.287105766876646e+01
 1.888057821805625e+00	 4.510274564389121e-01	 1.288632019838372e+01
 1.883905249711631e+00	 4.680696402436603e-01	 1.290264450162225e+01
 1.879587817809810e+00	 4.851163389384514e-01	 1.292017425636078e+01
 1.875104860617363e+00	 5.021653198167612e-01	 1.293906435163900e+01
 1.761450660940856e+00	 4.717279833579464e-01	 1.339015315678681e+01
 1.757083343590808e+00	 4.877436135202380e-01	 1.340616856474991e+01
 1.752559392179855e+00	 5.037571304364113e-01	 1.341912623680479e+01
 1.747878291625502e+00	 5.197663758180620e-01	 1.342947955723561e+01
 1.743039564127802e+00	 5.357691720814967e-01	 1.343772634927809e+01
 1.738042769821685e+00	 5.517633230968403e-01	 1.344440872190144e+01
 1.732887507412867e+00	 5.677466149601242e-01	 1.345011250289867e+01
 1.727573414796459e+00	 5.837168167880002e-01	 1.345546621540688e+01
 1.722100169657434e+00	 5.996716815346897e-01	 1.346113955455792e+01
 1.716467490052077e+00	 6.156089468307370e-01	 1.346784132081637e+01
 1.710675134969587e+00	 6.315263358431071e-01	 1.347631676671345e+01
 1.772816187179151e+00	 4.747717454637772e-01	 1.334114283094353e+01
 1.768420690294535e+00	 4.908907143507864e-01	 1.335734462832458e+01
 1.763867548688623e+00	 5.070075563562346e-01	 1.337052055643147e+01
 1.759156243955404e+00	 5.231200992656506e-01	 1.338110615650899e+01
 1.754286295211976e+00	 5.392261514447739e-01	 1.338958554515744e+01
 1.749257259755087e+00	 5.553235025934953e-01	 1.339649156095459e+01
 1.744068733701138e+00	 5.714099245229273e-01	 1.340240549193229e+01
 1.738720352608795e+00	 5.874831719552452e-01	 1.340795633878500e+01
 1.733211792083320e+00	 6.035409833459082e-01	 1.341381956818650e+01
 1.727542768361779e+00	 6.195810817278247e-01	 1.342071531037849e+01
 1.721713038878266e+00	 6.356011755769997e-01	 1.342940595529192e+01
 1.784181706977044e+00	 4.778155058450044e-01	 1.329302452346877e+01
 1.779758030573836e+00	 4.940378133981526e-01	 1.330933951897443e+01
 1.775175698789525e+00	 5.102579804342778e-01	 1.332269682861379e+01
 1.770434189894584e+00	 5.264738208128549e-01	 1.333351577267632e+01
 1.765533019923158e+00	 5.426831288490700e-01	 1.334226779575100e+01
 1.760471743333804e+00	 5.588836800725934e-01	 1.334947691454842e+01
 1.755249953653613e+00	 5.750732320096322e-01	 1.335571974202570e+01
 1.749867284104799e+00	 5.912495249879003e-01	 1.336162504040174e+01
 1.744323408212913e+00	 6.074102829641083e-01	 1.336787275506600e+01
 1.738618040395802e+00	 6.235532143735429e-01	 1.337519248110034e+01
 1.732750936532453e+00	 6.396760130012636e-01	 1.338436131416715e+01
 1.795547213893798e+00	 4.808592627766917e-01	 1.324578354535084e+01
 1.791095358003940e+00	 4.971849088788378e-01	 1.326217669848264e+01
 1.786483836074326e+00	 5.135084008284927e-01	 1.327570515720597e+01
 1.781712123051919e+00	 5.298275385590979e-01	 1.328677341522290e+01
 1.776779731887904e+00	 5.461401023353060e-01	 1.329584105707181e+01
 1.771686214202656e+00	 5.624438535165880e-01	 1.330342350922904e+01
 1.766431160933948e+00	 5.787365353442659e-01	 1.331009236387644e+01
 1.761014202967549e+00	 5.950158737516134e-01	 1.331647522558735e+01
 1.755435011749296e+00	 6.112795781966136e-01	 1.332325503051056e+01
 1.749693299877816e+00	 6.275253425169530e-01	 1.333116878726972e+01
 1.743788821676983e+00	 6.437508458067653e-01	 1.334100568876636e+01
 1.806912701488677e+00	 4.839030145339032e-01	 1.319940176915478e+01
 1.802432666160078e+00	 5.003319990093437e-01	 1.321587664670880e+01
 1.797791954134799e+00	 5.167588156968319e-01	 1.322959345518050e+01
 1.792990037036286e+00	 5.331812506038027e-01	 1.324094302641589e+01
 1.788026424732776e+00	 5.495970699444033e-01	 1.325037367198763e+01
 1.782900666006460e+00	 5.660040209079324e-01	 1.325839224038038e+01
 1.777612349205803e+00	 5.823998324508554e-01	 1.326556474413702e+01
 1.772161102880123e+00	 5.987822161120320e-01	 1.327251650483357e+01
 1.766546596395548e+00	 6.151488668507471e-01	 1.327993176298476e+01
 1.760768540531483e+00	 6.314974639071147e-01	 1.328855269953994e+01
 1.754826688056700e+00	 6.478256716843727e-01	 1.329917781552665e+01
 1.818278163320947e+00	 4.869467593917030e-01	 1.315385845876456e+01
 1.813769948617484e+00	 5.034790820061711e-01	 1.317045774392682e+01
 1.809100046562708e+00	 5.200092231972467e-01	 1.318440837049111e+01
 1.804267925456560e+00	 5.365349550463926e-01	 1.319608844149921e+01
 1.799273092084333e+00	 5.530540297172839e-01	 1.320593535543505e+01
 1.794115092390039e+00	 5.695641802290805e-01	 1.321444717303219e+01
 1.788793512132835e+00	 5.860631212534271e-01	 1.322218355228302e+01
 1.783307977525598e+00	 6.025485499348034e-01	 1.322976619708322e+01
 1.777658155854749e+00	 6.190181467338320e-01	 1.323787876408064e+01
 1.771843756080475e+00	 6.354695762930891e-01	 1.324726617176747e+01
 1.765864529416441e+00	 6.519004883249518e-01	 1.325873325567947e+01
 1.829643592949868e+00	 4.899904956251547e-01	 1.310913108622037e+01
 1.825107198951387e+00	 5.066261560858212e-01	 1.312593713937965e+01
 1.820408106949822e+00	 5.232596214876897e-01	 1.314019619762838e+01
 1.815545781921620e+00	 5.398886499862909e-01	 1.315227433441226e+01
 1.810519727569134e+00	 5.565109796948686e-01	 1.316259816534879e+01
 1.805329486998210e+00	 5.731243294624865e-01	 1.317165652893525e+01
 1.799974643378702e+00	 5.897263996760075e-01	 1.318000173466273e+01
 1.794454820587051e+00	 6.063148730855757e-01	 1.318825032148271e+01
 1.788769683829977e+00	 6.228874156531911e-01	 1.319708326860353e+01
 1.782918940248454e+00	 6.394416774239363e-01	 1.320724559997182e+01
 1.776902339501046e+00	 6.559752934193704e-01	 1.321954532354116e+01
 1.841008983934707e+00	 4.930342215093225e-01	 1.306519613619454e+01
 1.836444410737019e+00	 5.097732194647950e-01	 1.308233160663077e+01
 1.831716128887909e+00	 5.265100087261126e-01	 1.309700377546872e+01
 1.826823600040341e+00	 5.432423335229207e-01	 1.310956714964083e+01
 1.821766324813741e+00	 5.599679179180792e-01	 1.312043745990440e+01
 1.816543843475792e+00	 5.766844665906030e-01	 1.313009366047670e+01
 1.811155736607063e+00	 5.933896656426235e-01	 1.313907949626192e+01
 1.805601625747560e+00	 6.100811834299960e-01	 1.314800457807242e+01
 1.799881174024313e+00	 6.267566714161483e-01	 1.315754490517029e+01
 1.793994086759088e+00	 6.434137650487178e-01	 1.316844277373455e+01
 1.787940112055354e+00	 6.600500846584951e-01	 1.318150600952141e+01
 1.852374329834726e+00	 4.960779353192702e-01	 1.302203014874142e+01
 1.847781577549611e+00	 5.129202703595942e-01	 1.303965838626467e+01
 1.843024105968737e+00	 5.297603830704678e-01	 1.305487937198963e+01
 1.838101373421600e+00	 5.465960037557052e-01	 1.306803602077738e+01
 1.833012877444711e+00	 5.634248424278371e-01	 1.307953284164270e+01
 1.827758155467607e+00	 5.802445895958848e-01	 1.308983801198078e+01
 1.822336785481576e+00	 5.970529170773018e-01	 1.309948527068933e+01
 1.816748386690204e+00	 6.138474788337117e-01	 1.310907531786776e+01
 1.810992620140839e+00	 6.306259118300264e-01	 1.311927665770412e+01
 1.805069189336045e+00	 6.473858369164935e-01	 1.313082582033656e+01
 1.798977840824205e+00	 6.641248597331932e-01	 1.314452689805018e+01
 1.863739624209190e+00	 4.991216353300618e-01	 1.297983281819942e+01
 1.859118692964392e+00	 5.160673069867195e-01	 1.299797131721670e+01
 1.854332031784074e+00	 5.330107426787070e-01	 1.301387210296716e+01
 1.849379095674273e+00	 5.499496587840677e-01	 1.302775367633963e+01
 1.844259379088606e+00	 5.668817512650639e-01	 1.303996908901635e+01
 1.838972416618473e+00	 5.838046964607846e-01	 1.305097606891146e+01
 1.833517783665896e+00	 6.007161519040687e-01	 1.306129667886324e+01
 1.827895097098059e+00	 6.176137571623707e-01	 1.307152050276069e+01
 1.822104015882631e+00	 6.344951347021481e-01	 1.308230581818902e+01
 1.816144241702990e+00	 6.513578907763246e-01	 1.309438014191854e+01
 1.810015519552439e+00	 6.681996163343314e-01	 1.310854008061340e+01
 1.875104860617363e+00	 5.021653198167612e-01	 1.293906435163900e+01
 1.870455750556598e+00	 5.192143275626727e-01	 1.295760365912301e+01
 1.865639899925688e+00	 5.362610857087825e-01	 1.297409437071111e+01
 1.860656760407239e+00	 5.533032967074312e-01	 1.298874833205272e+01
 1.855505823371985e+00	 5.703386424706809e-01	 1.300181673000101e+01
 1.850186620573209e+00	 5.873647851677567e-01	 1.301360229547034e+01
 1.844698724823686e+00	 6.043793680469519e-01	 1.302460147685677e+01
 1.839041750654203e+00	 6.213800162816208e-01	 1.303541065564949e+01
 1.833215354952771e+00	 6.383643378398375e-01	 1.304667493103124e+01
 1.827219237583592e+00	 6.553299243772711e-01	 1.305910934593407e+01
 1.821053141984896e+00	 6.722743521527772e-01	 1.307349906407810e+01
 1.710675134969587e+00	 6.315263358431071e-01	 1.347631676671345e+01
 1.704721879138378e+00	 6.474242583664651e-01	 1.348431728270760e+01
 1.698608535151988e+00	 6.632977016215796e-01	 1.348971269286676e+01
 1.692334986753636e+00	 6.791443487815920e-01	 1.349347812460960e+01
 1.685901160682133e+00	 6.949618721621165e-01	 1.349661334391549e+01
 1.679307027123508e+00	 7.107479341809196e-01	 1.350013641217420e+01
 1.672552600137973e+00	 7.265001883354917e-01	 1.350507650941040e+01
 1.665637938061490e+00	 7.422162801978104e-01	 1.351241827938680e+01
 1.658563143881206e+00	 7.578938484255533e-01	 1.351701496412577e+01
 1.651328365584077e+00	 7.735305257889979e-01	 1.351514791324742e+01
 1.643933796478007e+00	 7.891239402128026e-01	 1.350724239043071e+01
 1.721713038878266e+00	 6.356011755769997e-01	 1.342940595529192e+01
 1.715721370455285e+00	 6.516016773322439e-01	 1.343767781402548e+01
 1.709568580929526e+00	 6.675775418700273e-01	 1.344346509179897e+01
 1.703254553294084e+00	 6.835264374144651e-01	 1.344781117867636e+01
 1.696779213815067e+00	 6.994460212620887e-01	 1.345178724537083e+01
 1.690142532486141e+00	 7.153339407477166e-01	 1.345648594251163e+01
 1.683344523458246e+00	 7.311878342283354e-01	 1.346301423964791e+01
 1.676385245443754e+00	 7.470053320842787e-01	 1.347168039049897e+01
 1.669264802094332e+00	 7.627840577369681e-01	 1.347587553803066e+01
 1.661983342351809e+00	 7.785216286824370e-01	 1.347424857112246e+01
 1.654541060771386e+00	 7.942156575398336e-01	 1.346725854216759e+01
 1.732750936532453e+00	 6.396760130012636e-01	 1.338436131416715e+01
 1.726720855539454e+00	 6.557790939302289e-01	 1.339316914219344e+01
 1.720528620496652e+00	 6.718573796926270e-01	 1.339957901270125e+01
 1.714174113647016e+00	 6.879085235635510e-01	 1.340469408140347e+01
 1.707657260783958e+00	 7.039301678204545e-01	 1.340964912758645e+01
 1.700978031708780e+00	 7.199199447152125e-01	 1.341560432658464e+01
 1.694136440663151e+00	 7.358754774643116e-01	 1.342373813427017e+01
 1.687132546735858e+00	 7.517943812564475e-01	 1.343282505505651e+01
 1.679966454243084e+00	 7.676742642767898e-01	 1.343663404064015e+01
 1.672638313081535e+00	 7.835127287471313e-01	 1.343519428304996e+01
 1.665148319053712e+00	 7.993073719811156e-01	 1.342899580766198e+01
 1.743788821676983e+00	 6.437508458067653e-01	 1.334100568876636e+01
 1.737720328157489e+00	 6.599565057931599e-01	 1.335053922369300e+01
 1.731488647642321e+00	 6.761372126640763e-01	 1.335773725004611e+01
 1.725093661624332e+00	 6.922906047456013e-01	 1.336375418873727e+01
 1.718535295424234e+00	 7.084143092961228e-01	 1.336978062507828e+01
 1.711813518650968e+00	 7.245059434845879e-01	 1.337703718573296e+01
 1.704928345636938e+00	 7.405631153869973e-01	 1.338676749887800e+01
 1.697879835847342e+00	 7.565834250004217e-01	 1.339545328255037e+01
 1.690668094262884e+00	 7.725644652737935e-01	 1.339890096567379e+01
 1.683293271735145e+00	 7.885038231546798e-01	 1.339761536503671e+01
 1.675755565313928e+00	 8.043990806512339e-01	 1.339211481676460e+01
 1.754826688056700e+00	 6.478256716843727e-01	 1.329917781552665e+01
 1.748719782075991e+00	 6.641339105537768e-01	 1.330955529810727e+01
 1.742448656155489e+00	 6.804170383590747e-01	 1.331764499299128e+01
 1.736013191037926e+00	 6.966726784773676e-01	 1.332464407438775e+01
 1.729413311571318e+00	 7.128984431480037e-01	 1.333179111690076e+01
 1.722648987172250e+00	 7.290919344570245e-01	 1.334036010872601e+01
 1.715720232263855e+00	 7.452507453399682e-01	 1.335128870210856e+01
 1.708627106687749e+00	 7.613724606023058e-01	 1.335920682997894e+01
 1.701369716089155e+00	 7.774546579567549e-01	 1.336232739905415e+01
 1.693948212274529e+00	 7.934949090766829e-01	 1.336118228734664e+01
 1.686362793540975e+00	 8.094907806647733e-01	 1.335631563414336e+01
 1.765864529416441e+00	 6.519004883249518e-01	 1.325873325567947e+01
 1.759719211061567e+00	 6.683113058448201e-01	 1.327000478793546e+01
 1.753408639825113e+00	 6.846968543523200e-01	 1.327903069940047e+01
 1.746932695699695e+00	 7.010547422756018e-01	 1.328704238627605e+01
 1.740291303060638e+00	 7.173825668350061e-01	 1.329531857378073e+01
 1.733484431132166e+00	 7.336779150337025e-01	 1.330517949787533e+01
 1.726512094428151e+00	 7.499383646668004e-01	 1.331653850773225e+01
 1.719374353166620e+00	 7.661614853482039e-01	 1.332376713199290e+01
 1.712071313657320e+00	 7.823448395544507e-01	 1.332660391792051e+01
 1.704603128661576e+00	 7.984859836847386e-01	 1.332560455188646e+01
 1.696969997723794e+00	 8.145824691363190e-01	 1.332133662466308e+01
 1.776902339501046e+00	 6.559752934193704e-01	 1.321954532354116e+01
 1.770718608880819e+00	 6.724886892990289e-01	 1.323169619532841e+01
 1.764368592440146e+00	 6.889766582185101e-01	 1.324164696889269e+01
 1.757852169421535e+00	 7.054367936570552e-01	 1.325065470380599e+01
 1.751169263727617e+00	 7.218666778160396e-01	 1.326003040755408e+01
 1.744319844390262e+00	 7.382638826158038e-01	 1.327113341860998e+01
 1.737303926014075e+00	 7.546259707110706e-01	 1.328223700578793e+01
 1.730121569193500e+00	 7.709504965242212e-01	 1.328885423588039e+01
 1.722772880902801e+00	 7.872350072956555e-01	 1.329145949468458e+01
 1.715258014858176e+00	 8.034770441504471e-01	 1.329062957450526e+01
 1.707577171851328e+00	 8.196741431804564e-01	 1.328695332321585e+01
 1.787940112055354e+00	 6.600500846584951e-01	 1.318150600952141e+01
 1.781717969300350e+00	 6.766660585491440e-01	 1.319445999585237e+01
 1.775328507789548e+00	 6.932564475323441e-01	 1.320527141493412e+01
 1.768771606015344e+00	 7.098188301384799e-01	 1.321521439589409e+01
 1.762047187407682e+00	 7.263507735500137e-01	 1.322562432277554e+01
 1.755155220806080e+00	 7.428498346045087e-01	 1.323782463061329e+01
 1.748095720905876e+00	 7.593135608163555e-01	 1.324814221340321e+01
 1.740868748677928e+00	 7.757394914164621e-01	 1.325422574118632e+01
 1.733474411761020e+00	 7.921251584091458e-01	 1.325666040591467e+01
 1.725912864826218e+00	 8.084680876454071e-01	 1.325604157199912e+01
 1.718184309912520e+00	 8.247657999117703e-01	 1.325297730881518e+01
 1.798977840824205e+00	 6.641248597331932e-01	 1.314452689805018e+01
 1.792717286086765e+00	 6.808434112279048e-01	 1.315814952938052e+01
 1.786288379662272e+00	 6.975362198685199e-01	 1.316970753598605e+01
 1.779690999293017e+00	 7.142008492366275e-01	 1.318048347969725e+01
 1.772925067936260e+00	 7.308348514958376e-01	 1.319182917037828e+01
 1.765990554239164e+00	 7.474357684009993e-01	 1.320452774525410e+01
 1.758887472987802e+00	 7.640011323262301e-01	 1.321404867459487e+01
 1.751615885529448e+00	 7.805284673110314e-01	 1.321967574377103e+01
 1.744175900167401e+00	 7.970152901236969e-01	 1.322200914584588e+01
 1.736567672527593e+00	 8.134591113412186e-01	 1.322166045362492e+01
 1.728791405896309e+00	 8.298574364448461e-01	 1.321925508277560e+01
 1.810015519552439e+00	 6.681996163343314e-01	 1.310854008061340e+01
 1.803716553006667e+00	 6.850207449680513e-01	 1.312264188820807e+01
 1.797248201847274e+00	 7.018159728017360e-01	 1.313478558571904e+01
 1.790610343066452e+00	 7.185828484682493e-01	 1.314625347997716e+01
 1.783802899148775e+00	 7.353189091124209e-01	 1.315840580326370e+01
 1.776825838549056e+00	 7.520216814064553e-01	 1.317098880993240e+01
 1.769679176144102e+00	 7.686886825842719e-01	 1.317978644709851e+01
 1.762362973657603e+00	 7.853174214940337e-01	 1.318503378412339e+01
 1.754877340057366e+00	 8.019053996680845e-01	 1.318734334432338e+01
 1.747222431924189e+00	 8.184501124094804e-01	 1.318734071693572e+01
 1.739398453791639e+00	 8.349490498942684e-01	 1.318566695081097e+01
 1.821053141984896e+00	 6.722743521527772e-01	 1.307349906407810e+01
 1.814715763826660e+00	 6.891980574023240e-01	 1.308783880247941e+01
 1.808207968133511e+00	 7.060957039066909e-01	 1.310036344230504e+01
 1.801529631147544e+00	 7.229648253500973e-01	 1.311234628904468e+01
 1.794680674880653e+00	 7.398029438586731e-01	 1.312514793370866e+01
 1.787661067595300e+00	 7.566075710220593e-01	 1.313708120310610e+01
 1.780470824259027e+00	 7.733762089340569e-01	 1.314522009282950e+01
 1.773110006971933e+00	 7.901063512515735e-01	 1.315016379975277e+01
 1.765578725366338e+00	 8.067954842710848e-01	 1.315253468899738e+01
 1.757877136977896e+00	 8.234410880217923e-01	 1.315297034776236e+01
 1.750005447587452e+00	 8.400406373746231e-01	 1.315212590889152e+01
 1.643933796478007e+00	 7.891239402128026e-01	 1.350724239043071e+01
 1.636380972895236e+00	 8.046690768764690e-01	 1.349629664683845e+01
 1.628668935164389e+00	 8.201662120438783e-01	 1.348495183669123e+01
 1.620798012875571e+00	 8.356129658438981e-01	 1.347311355493452e+01
 1.612768581912134e+00	 8.510069578296831e-01	 1.346068389214725e+01
 1.604581064626318e+00	 8.663458080813164e-01	 1.344756719355905e+01
 1.596235929984014e+00	 8.816271383179534e-01	 1.343367637013742e+01
 1.587733693678174e+00	 8.968485730184873e-01	 1.341893976244663e+01
 1.579074918210454e+00	 9.120077405497156e-01	 1.340330855418582e+01
 1.570260212940706e+00	 9.271022743009750e-01	 1.338676472833824e+01
 1.561290234103947e+00	 9.421298138241913e-01	 1.336932955472146e+01
 1.654541060771386e+00	 7.942156575398336e-01	 1.346725854216760e+01
 1.646939503598293e+00	 8.098610971311907e-01	 1.345762116417939e+01
 1.639177704968999e+00	 8.254582255029543e-01	 1.344764996277199e+01
 1.631255996600250e+00	 8.410046474282020e-01	 1.343721327959775e+01
 1.623174756800732e+00	 8.564979671005838e-01	 1.342617490626716e+01
 1.614934410647861e+00	 8.719357892440781e-01	 1.341439997755056e+01
 1.606535430133464e+00	 8.873157202323121e-01	 1.340176144183832e+01
 1.597978334277936e+00	 9.026353692164572e-01	 1.338814711035859e+01
 1.589263689212401e+00	 9.178923492606749e-01	 1.337346728271399e+01
 1.580392108228523e+00	 9.330842784840746e-01	 1.335766294216418e+01
 1.571364251795587e+00	 9.482087812081160e-01	 1.334071450977521e+01
 1.665148319053712e+00	 7.993073719811156e-01	 1.342899580766197e+01
 1.657498028317827e+00	 8.150531144433218e-01	 1.342048510461945e+01
 1.649686468818204e+00	 8.307502359627623e-01	 1.341166944694153e+01
 1.641713974398222e+00	 8.463963259567350e-01	 1.340238975318277e+01
 1.633580925791908e+00	 8.619889732593983e-01	 1.339248141241980e+01
 1.625287750801845e+00	 8.775257672386373e-01	 1.338178029590545e+01
 1.616834924445802e+00	 8.930042989225621e-01	 1.337012937173708e+01
 1.608222969071612e+00	 9.084221621346344e-01	 1.335738592490916e+01
 1.599452454439867e+00	 9.237769546363921e-01	 1.334342938103206e+01
 1.590523997774039e+00	 9.390662792767277e-01	 1.332816972770735e+01
 1.581438263777688e+00	 9.542877451466498e-01	 1.331155652306887e+01
 1.675755565313928e+00	 8.043990806512339e-01	 1.339211481676460e+01
 1.668056541070415e+00	 8.202451258706150e-01	 1.338458522602218e+01
 1.660195220756794e+00	 8.360422404244010e-01	 1.337674415768907e+01
 1.652171940343076e+00	 8.517879983741306e-01	 1.336841482892730e+01
 1.643987082988622e+00	 8.674799731944890e-01	 1.335941400792315e+01
 1.635641079221188e+00	 8.831157388972882e-01	 1.334955812801411e+01
 1.627134407084476e+00	 8.986928711651410e-01	 1.333867003118094e+01
 1.618467592253756e+00	 9.142089484938191e-01	 1.332658634421993e+01
 1.609641208119081e+00	 9.296615533422559e-01	 1.331316548667018e+01
 1.600655875835736e+00	 9.450482732891473e-01	 1.329829630511338e+01
 1.591512264341539e+00	 9.603667021950679e-01	 1.328190732380987e+01
 1.686362793540975e+00	 8.094907806647733e-01	 1.335631563414335e+01
 1.678615035872630e+00	 8.254371284708224e-01	 1.334965684265780e+01
 1.670703954829555e+00	 8.413342358889687e-01	 1.334264560877430e+01
 1.662629888508394e+00	 8.571796616250210e-01	 1.333509706867796e+01
 1.654393222493839e+00	 8.729709637942181e-01	 1.332681904364217e+01
 1.645994390038806e+00	 8.887057010523256e-01	 1.331761824038827e+01
 1.637433872212933e+00	 9.043814337364871e-01	 1.330730710778396e+01
 1.628712198018920e+00	 9.199957250148106e-01	 1.329571135421724e+01
 1.619829944476277e+00	 9.355461420436542e-01	 1.328267812558639e+01
 1.610787736672089e+00	 9.510302571315430e-01	 1.326808483922020e+01
 1.601586247778435e+00	 9.664456489086460e-01	 1.325184866420925e+01
 1.696969997723794e+00	 8.145824691363190e-01	 1.332133662466308e+01
 1.689173506741047e+00	 8.306291193016955e-01	 1.331547268452405e+01
 1.681212665081280e+00	 8.466262193575650e-01	 1.330918181463067e+01
 1.673087812967764e+00	 8.625713126540392e-01	 1.330228059643265e+01
 1.664799338410518e+00	 8.784619419469472e-01	 1.329457747763985e+01
 1.656347677387615e+00	 8.942956505360437e-01	 1.328587904229995e+01
 1.647733313994621e+00	 9.100699834130376e-01	 1.327599696483959e+01
 1.638956780561657e+00	 9.257824884184096e-01	 1.326475565350602e+01
 1.630018657737683e+00	 9.414307174059748e-01	 1.325200058409092e+01
 1.620919574541577e+00	 9.570122274141259e-01	 1.323760732001704e+01
 1.611660208379663e+00	 9.725245818426584e-01	 1.322149120985221e+01
 1.707577171851328e+00	 8.196741431804564e-01	 1.328695332321585e+01
 1.699731947692237e+00	 8.358210954209866e-01	 1.328184176046007e+01
 1.691721345556754e+00	 8.519181878312871e-01	 1.327619614885185e+01
 1.683545707794770e+00	 8.679629484058180e-01	 1.326984395420978e+01
 1.675205424841622e+00	 8.839529045410384e-01	 1.326260373035688e+01
 1.666700935400535e+00	 8.998855841807372e-01	 1.325429144211376e+01
 1.658032726592989e+00	 9.157585169712309e-01	 1.324472750055888e+01
 1.649201334076521e+00	 9.315692354254153e-01	 1.323374451717606e+01
 1.640207342129530e+00	 9.473152760946073e-01	 1.322119577878629e+01
 1.631051383702676e+00	 9.629941807471065e-01	 1.320696444018675e+01
 1.621734140436518e+00	 9.786034975523807e-01	 1.319097342621023e+01
 1.718184309912520e+00	 8.247657999117703e-01	 1.325297730881518e+01
 1.710290352742778e+00	 8.410130538864479e-01	 1.324860822489464e+01
 1.702229990300769e+00	 8.572101383112354e-01	 1.324356620563392e+01
 1.694003567062998e+00	 8.733545658249897e-01	 1.323769896014966e+01
 1.685611475890113e+00	 8.894438484648542e-01	 1.323084454126008e+01
 1.677054158210479e+00	 9.054754988187005e-01	 1.322283770428878e+01
 1.668332104171484e+00	 9.214470311875046e-01	 1.321351700714936e+01
 1.659445852758067e+00	 9.373559627566278e-01	 1.320273265959330e+01
 1.650395991878050e+00	 9.531998147749388e-01	 1.319035512461744e+01
 1.641183158413865e+00	 9.689761137406958e-01	 1.317628446986712e+01
 1.631808038240291e+00	 9.846823925930890e-01	 1.316046046146898e+01
 1.728791405896309e+00	 8.298574364448461e-01	 1.321925508277560e+01
 1.720848715909240e+00	 8.462049917558314e-01	 1.321565024807933e+01
 1.712738593358112e+00	 8.625020677985072e-01	 1.321120266405411e+01
 1.704461384846034e+00	 8.787461618561870e-01	 1.320578956876069e+01
 1.696017485658952e+00	 8.949347706067565e-01	 1.319927782690450e+01
 1.687407339950366e+00	 9.110653912822284e-01	 1.319153030703054e+01
 1.678631440893555e+00	 9.271355228382968e-01	 1.318241302974978e+01
 1.669690330800845e+00	 9.431426671328469e-01	 1.317180309622942e+01
 1.660584601209473e+00	 9.590843301123578e-01	 1.315959740112187e+01
 1.651314892933620e+00	 9.749580230051048e-01	 1.314572212875949e+01
 1.641881896082272e+00	 9.907612635200577e-01	 1.313014302584086e+01
 1.739398453791639e+00	 8.349490498942684e-01	 1.318566695081097e+01
 1.731407031208200e+00	 8.513969060868890e-01	 1.318287888966431e+01
 1.723247148773573e+00	 8.677939732942018e-01	 1.317904815507112e+01
 1.714919155217462e+00	 8.841377334440430e-01	 1.317409073322539e+01
 1.706423448251104e+00	 9.004256678551075e-01	 1.316791154035784e+01
 1.697760474753113e+00	 9.166552584036155e-01	 1.316041080057321e+01
 1.688930730922648e+00	 9.328239887000448e-01	 1.315149122523660e+01
 1.679934762399409e+00	 9.489293452748720e-01	 1.314106600458043e+01
 1.670773164350029e+00	 9.649688187722524e-01	 1.312906761696746e+01
 1.661446581520421e+00	 9.809399051505445e-01	 1.311545745570830e+01
 1.651955708253753e+00	 9.968401068885626e-01	 1.310023626752292e+01
 1.750005447587452e+00	 8.400406373746231e-01	 1.315212590889152e+01
 1.741965292656229e+00	 8.565887939373730e-01	 1.315023697548371e+01
 1.733755650591940e+00	 8.730858517994177e-01	 1.314707613114153e+01
 1.725376872250870e+00	 8.895292775331912e-01	 1.314260726968906e+01
 1.716829357769529e+00	 9.059165370982691e-01	 1.313678253193812e+01
 1.708113556751636e+00	 9.222450970151561e-01	 1.312954866607616e+01
 1.699229968422212e+00	 9.385124255491870e-01	 1.312085422091804e+01
 1.690179141748315e+00	 9.547159939035038e-01	 1.311065758422335e+01
 1.680961675525948e+00	 9.708532774200115e-01	 1.309893587286080e+01
 1.671578218432743e+00	 9.869217567872253e-01	 1.308569467587051e+01
 1.662029469046026e+00	 1.002918919253879e+00	 1.307097864545351e+01
 1.561290234103947e+00	 9.421298138241913e-01	 1.336932955472146e+01
 1.552165685171722e+00	 9.570880062765114e-01	 1.334819677332085e+01
 1.542887317928228e+00	 9.719745084811410e-01	 1.332095597212513e+01
 1.533455931243943e+00	 9.867869872142032e-01	 1.328832329308635e+01
 1.523872370578788e+00	 1.001523120060801e+00	 1.325111125283601e+01
 1.514137527830351e+00	 1.016180596564476e+00	 1.321023905257858e+01
 1.504252341148385e+00	 1.030757119375336e+00	 1.316674323158323e+01
 1.494217794715511e+00	 1.045250405395732e+00	 1.312178862232167e+01
 1.484034918494126e+00	 1.059658186922306e+00	 1.307667956089821e+01
 1.473704787939532e+00	 1.073978212783269e+00	 1.303198559252496e+01
 1.463228523679388e+00	 1.088208249469755e+00	 1.298753994807366e+01
 1.571364251795587e+00	 9.482087812081160e-01	 1.334071450977522e+01
 1.562180827924198e+00	 9.632634894085526e-01	 1.331992185492234e+01
 1.552842593249338e+00	 9.782460447895558e-01	 1.329301998537913e+01
 1.543350351796090e+00	 9.931540990724317e-01	 1.326074575907086e+01
 1.533704954479592e+00	 1.007985314857214e+00	 1.322393577853549e+01
 1.523907298952281e+00	 1.022737366779528e+00	 1.318353702873389e+01
 1.513958329417197e+00	 1.037407942666142e+00	 1.314061788067523e+01
 1.503859036407268e+00	 1.051994744688022e+00	 1.309637941796889e+01
 1.493610456530583e+00	 1.066495490509756e+00	 1.305216703880947e+01
 1.483213672181678e+00	 1.080907914434171e+00	 1.300948228140139e+01
 1.472669811218911e+00	 1.095229768540981e+00	 1.296894197037881e+01
 1.581438263777688e+00	 9.542877451466498e-01	 1.331155652306887e+01
 1.572195965000467e+00	 9.694389690405253e-01	 1.329101636447385e+01
 1.562797862928143e+00	 9.845175775434994e-01	 1.326444001797065e+01
 1.553244766740402e+00	 9.995212073220678e-01	 1.323257920579758e+01
 1.543537532807594e+00	 1.014447505991195e+00	 1.319628820290228e+01
 1.533677064536999e+00	 1.029294133278602e+00	 1.315653481323092e+01
 1.523664312184940e+00	 1.044058762187716e+00	 1.311441173596515e+01
 1.513500272634650e+00	 1.058739080158126e+00	 1.307114827787637e+01
 1.503185989139903e+00	 1.073332790222370e+00	 1.302812236315014e+01
 1.492722551034463e+00	 1.087837612157895e+00	 1.298687278732283e+01
 1.482111093407384e+00	 1.102251283633004e+00	 1.294911165740193e+01
 1.591512264341539e+00	 9.603667021950679e-01	 1.328190732380987e+01
 1.582211090725197e+00	 9.756144416730195e-01	 1.326156824818587e+01
 1.572753121323253e+00	 9.907891031891350e-01	 1.323533190175159e+01
 1.563139170469986e+00	 1.005888308355113e+00	 1.320395912557496e+01
 1.553370099990951e+00	 1.020909689800865e+00	 1.316831555916557e+01
 1.543446819048270e+00	 1.035850892346218e+00	 1.312938296572242e+01
 1.533370283951536e+00	 1.050709574171276e+00	 1.308827097341196e+01
 1.523141497934274e+00	 1.065483407984262e+00	 1.304622918789763e+01
 1.512761510895944e+00	 1.080170082185681e+00	 1.300465962630942e+01
 1.502231419109526e+00	 1.094767302027610e+00	 1.296512941790624e+01
 1.491552364894759e+00	 1.109272790766951e+00	 1.292938371189438e+01
 1.601586247778435e+00	 9.664456489086460e-01	 1.325184866420925e+01
 1.592226199423060e+00	 9.817899038066252e-01	 1.323169468387768e+01
 1.582708362793277e+00	 9.970606181726250e-01	 1.320584014243224e+01
 1.573033557377949e+00	 1.012255398563571e+00	 1.317504935913604e+01
 1.563202650457827e+00	 1.027371862624344e+00	 1.314019313417308e+01
 1.553216556949860e+00	 1.042407640266901e+00	 1.310226043324894e+01
 1.543076239216903e+00	 1.057360374848044e+00	 1.306237051628715e+01
 1.532782706842763e+00	 1.072227724344653e+00	 1.302178546449272e+01
 1.522337016372569e+00	 1.087007362525221e+00	 1.298192305479141e+01
 1.511740271018506e+00	 1.101696980116480e+00	 1.294436992548825e+01
 1.500993620330984e+00	 1.116294285963954e+00	 1.291019870411282e+01
 1.611660208379663e+00	 9.725245818426584e-01	 1.322149120985221e+01
 1.602241285418722e+00	 9.879653519419309e-01	 1.320154097933945e+01
 1.592663581696822e+00	 1.003332118940131e+00	 1.317613682085901e+01
 1.582927921857398e+00	 1.018622474339444e+00	 1.314604099486412e+01
 1.573035178636381e+00	 1.033834020799752e+00	 1.311212336070635e+01
 1.562986272705535e+00	 1.048964373325173e+00	 1.307537343089610e+01
 1.552782172480962e+00	 1.064011160449239e+00	 1.303691289954141e+01
 1.542423893896736e+00	 1.078972025417519e+00	 1.299800859828615e+01
 1.531912500143638e+00	 1.093844627366525e+00	 1.296008582756458e+01
 1.521249101373040e+00	 1.108626642497673e+00	 1.292474200558188e+01
 1.510434854366011e+00	 1.123315765245141e+00	 1.289011745869893e+01
 1.621734140436518e+00	 9.786034975523807e-01	 1.319097342621022e+01
 1.612256343036857e+00	 9.941407825795266e-01	 1.317127946600520e+01
 1.602618772392500e+00	 1.009603601937817e+00	 1.314642048900461e+01
 1.592822258301440e+00	 1.024989532074736e+00	 1.311715126235930e+01
 1.582867678954775e+00	 1.040296160665209e+00	 1.308433470399042e+01
 1.572755960779062e+00	 1.055521087805558e+00	 1.304895431672304e+01
 1.562488078243634e+00	 1.070661927206081e+00	 1.301212712873629e+01
 1.552065053632811e+00	 1.085716307381080e+00	 1.297511709269911e+01
 1.541487956783010e+00	 1.100681872835124e+00	 1.293934889020365e+01
 1.530757904784769e+00	 1.115556285244355e+00	 1.290599720833380e+01
 1.519876061649789e+00	 1.130337224631643e+00	 1.286959619396733e+01
 1.631808038240291e+00	 9.846823925930890e-01	 1.316046046146898e+01
 1.622271366602130e+00	 1.000316192220002e+00	 1.314110838814808e+01
 1.612573929238919e+00	 1.015875063611843e+00	 1.311691506090656e+01
 1.602716561103183e+00	 1.031356568161449e+00	 1.308862242059962e+01
 1.592700145841168e+00	 1.046758278558836e+00	 1.305708054265922e+01
 1.582525615634207e+00	 1.062077779992577e+00	 1.302326046121876e+01
 1.572193951004839e+00	 1.077312671349791e+00	 1.298826753378571e+01
 1.561706180587611e+00	 1.092460566413558e+00	 1.295335529787732e+01
 1.551063380864548e+00	 1.107519095056553e+00	 1.291993976501632e+01
 1.540266675865330e+00	 1.122485904429694e+00	 1.288700098957188e+01
 1.529317236832269e+00	 1.137358660144589e+00	 1.284918203609569e+01
 1.641881896082272e+00	 9.907612635200577e-01	 1.313014302584086e+01
 1.632286350439214e+00	 1.006491577363946e+00	 1.311125078780009e+01
 1.622529046594686e+00	 1.022146500408374e+00	 1.308786869878288e+01
 1.612610824655732e+00	 1.037723578991586e+00	 1.306072064093934e+01
 1.602532573723720e+00	 1.053220370818752e+00	 1.303063804442447e+01
 1.592295231734734e+00	 1.068634446170753e+00	 1.299857311153191e+01
 1.581899785264497e+00	 1.083963389111587e+00	 1.296561261773997e+01
 1.571347269297754e+00	 1.099204798693171e+00	 1.293299224012820e+01
 1.560638766962110e+00	 1.114356290156345e+00	 1.290192602016357e+01
 1.549775409226364e+00	 1.129415496126855e+00	 1.286819418059436e+01
 1.538758374563401e+00	 1.144380067805108e+00	 1.282942091227951e+01
 1.651955708253753e+00	 9.968401068885626e-01	 1.310023626752292e+01
 1.642301288872777e+00	 1.012666934511949e+00	 1.308195338558973e+01
 1.632484118818413e+00	 1.028417908773572e+00	 1.305955269454024e+01
 1.622505043352197e+00	 1.044090560957151e+00	 1.303373488517583e+01
 1.612364957030594e+00	 1.059682433783077e+00	 1.300530703668615e+01
 1.602064803544412e+00	 1.075191082624610e+00	 1.297519625070917e+01
 1.591605575522529e+00	 1.090614076722691e+00	 1.294446390083664e+01
 1.580988314299859e+00	 1.105949000398141e+00	 1.291432044707057e+01
 1.570214109649559e+00	 1.121193454260032e+00	 1.288447048686210e+01
 1.559284099479508e+00	 1.136345056409006e+00	 1.285015521805565e+01
 1.548199469493137e+00	 1.151401443634331e+00	 1.281085727599574e+01
 1.662029469046026e+00	 1.002918919253879e+00	 1.307097864545351e+01
 1.652316176227489e+00	 1.018842260164601e+00	 1.305348545768243e+01
 1.642439140268708e+00	 1.034689285153598e+00	 1.303226034688387e+01
 1.632399211585683e+00	 1.050457510450146e+00	 1.300797577890674e+01
 1.622197290189948e+00	 1.066144463789932e+00	 1.298140887231155e+01
 1.611834325527006e+00	 1.081747685638670e+00	 1.295345545216593e+01
 1.601311316278856e+00	 1.097264730414323e+00	 1.292514476003118e+01
 1.590629310130548e+00	 1.112693167706690e+00	 1.289761921741729e+01
 1.579789403500755e+00	 1.128030583493148e+00	 1.286793579155305e+01
 1.568792741236402e+00	 1.143274581349313e+00	 1.283345996991712e+01
 1.557640516271426e+00	 1.158422783653388e+00	 1.279403383072548e+01
 1.463228523679388e+00	 1.088208249469755e+00	 1.298753994807366e+01
 1.452605474182361e+00	 1.102348476530176e+00	 1.294425847336000e+01
 1.441838623625946e+00	 1.116394264339283e+00	 1.290269284898755e+01
 1.430929232574332e+00	 1.130343429881789e+00	 1.285495063191907e+01
 1.419878605207170e+00	 1.144193812226286e+00	 1.279944707934476e+01
 1.408688088830681e+00	 1.157943273614750e+00	 1.273716472859649e+01
 1.397359073356433e+00	 1.171589700539267e+00	 1.266904246558801e+01
 1.385892990748171e+00	 1.185131004804891e+00	 1.259598131041854e+01
 1.374291314437133e+00	 1.198565124577502e+00	 1.251885101593785e+01
 1.362555558706364e+00	 1.211890025415586e+00	 1.243849742878105e+01
 1.350687278044521e+00	 1.225103701284858e+00	 1.235575055577308e+01
 1.472669811218911e+00	 1.095229768540981e+00	 1.296894197037881e+01
 1.461978217907031e+00	 1.109461233537111e+00	 1.292980998705833e+01
 1.451141895678545e+00	 1.123597649925256e+00	 1.288870430596477e+01
 1.440162113231274e+00	 1.137636820604494e+00	 1.283934902470962e+01
 1.429040183159917e+00	 1.151576570700283e+00	 1.278273293788325e+01
 1.417777461464020e+00	 1.165414748660979e+00	 1.271987638257424e+01
 1.406375347023375e+00	 1.179149227341524e+00	 1.265174867131513e+01
 1.394835281041288e+00	 1.192777905073157e+00	 1.257927413176751e+01
 1.383158746456127e+00	 1.206298706718029e+00	 1.250333900903244e+01
 1.371347267321650e+00	 1.219709584707646e+00	 1.242479917808319e+01
 1.359402408156652e+00	 1.233008520064037e+00	 1.234448860687914e+01
 1.482111093407384e+00	 1.102251283633004e+00	 1.294911165740193e+01
 1.471350956319498e+00	 1.116573986513125e+00	 1.291381655094215e+01
 1.460445162458314e+00	 1.130801031428919e+00	 1.287161173501680e+01
 1.449394988655276e+00	 1.144930207193845e+00	 1.282141627325573e+01
 1.438201755920133e+00	 1.158959324990227e+00	 1.276434989490643e+01
 1.426866828945746e+00	 1.172886219472822e+00	 1.270146861218999e+01
 1.415391615580128e+00	 1.186708749859435e+00	 1.263377006836896e+01
 1.403777566266142e+00	 1.200424801007497e+00	 1.256219984674810e+01
 1.392026173449274e+00	 1.214032284475445e+00	 1.248765869359048e+01
 1.380138970953998e+00	 1.227529139567815e+00	 1.241101060035517e+01
 1.368117533329237e+00	 1.240913334362961e+00	 1.233309168339060e+01
 1.491552364894759e+00	 1.109272790766951e+00	 1.292938371189438e+01
 1.480723684108561e+00	 1.123686731427640e+00	 1.289431062659922e+01
 1.469748418693422e+00	 1.138004404768335e+00	 1.285175135932731e+01
 1.458627853614402e+00	 1.152223585516892e+00	 1.280144398489697e+01
 1.447363318296289e+00	 1.166342070912529e+00	 1.274454945361469e+01
 1.435956186125248e+00	 1.180357681816413e+00	 1.268215743821478e+01
 1.424407873917503e+00	 1.194268263809234e+00	 1.261529191187925e+01
 1.412719841355465e+00	 1.208071688274636e+00	 1.254491774197999e+01
 1.400893590391729e+00	 1.221765853467357e+00	 1.247194825071551e+01
 1.388930664621468e+00	 1.235348685564983e+00	 1.239725368588300e+01
 1.376832648623727e+00	 1.248818139702206e+00	 1.232167053740615e+01
 1.500993620330984e+00	 1.116294285963954e+00	 1.291019870411282e+01
 1.490096395963016e+00	 1.130799464250077e+00	 1.287257449603771e+01
 1.479051659112038e+00	 1.145207765861563e+00	 1.282949838811128e+01
 1.467860702876713e+00	 1.159516951440691e+00	 1.277976310232389e+01
 1.456524865096853e+00	 1.173724804283596e+00	 1.272362274914004e+01
 1.445045527851912e+00	 1.187829131457885e+00	 1.266219875517870e+01
 1.433424116926312e+00	 1.201827764907159e+00	 1.259653951554892e+01
 1.421662101241993e+00	 1.215718562541300e+00	 1.252762728795361e+01
 1.409760992258645e+00	 1.229499409311372e+00	 1.245638610842653e+01
 1.397722343342122e+00	 1.243168218268035e+00	 1.238369066969866e+01
 1.385547749101575e+00	 1.256722931602350e+00	 1.231037609521271e+01
 1.510434854366011e+00	 1.123315765245141e+00	 1.289011745869893e+01
 1.499469086571661e+00	 1.137912180949860e+00	 1.285038195699617e+01
 1.488354878442334e+00	 1.152411110626665e+00	 1.280581731457423e+01
 1.477093531210274e+00	 1.166810300832295e+00	 1.275674195063503e+01
 1.465686391130296e+00	 1.181107520919837e+00	 1.270189857726656e+01
 1.454134848975128e+00	 1.195300564163373e+00	 1.264188634744409e+01
 1.442440339497366e+00	 1.209387248869448e+00	 1.257777626080994e+01
 1.430604340858462e+00	 1.223365419474213e+00	 1.251056614703419e+01
 1.418628374025175e+00	 1.237232947625096e+00	 1.244118895430410e+01
 1.406514002134022e+00	 1.250987733245860e+00	 1.237052205468575e+01
 1.394262829824233e+00	 1.264627705583968e+00	 1.229939749668018e+01
 1.519876061649789e+00	 1.130337224631643e+00	 1.286959619396733e+01
 1.508841750623294e+00	 1.145024877496410e+00	 1.282825080464056e+01
 1.497658071412477e+00	 1.159614434981701e+00	 1.278256908434654e+01
 1.486326333383142e+00	 1.174103629558758e+00	 1.273303526084345e+01
 1.474847891205085e+00	 1.188490216637662e+00	 1.267974142467020e+01
 1.463224144344282e+00	 1.202771975699011e+00	 1.262154990741399e+01
 1.451456536521478e+00	 1.216946711412335e+00	 1.255930160858555e+01
 1.439546555137606e+00	 1.231012254740101e+00	 1.249400818439723e+01
 1.427495730666473e+00	 1.244966464026134e+00	 1.242660975124581e+01
 1.415305636015228e+00	 1.258807226067346e+00	 1.235798463781819e+01
 1.402977885853157e+00	 1.272532457167641e+00	 1.228896013766398e+01
 1.529317236832269e+00	 1.137358660144589e+00	 1.284918203609569e+01
 1.518214382806713e+00	 1.152137549859148e+00	 1.280669147342259e+01
 1.506961232750639e+00	 1.166817734844732e+00	 1.276030070328436e+01
 1.495559104163383e+00	 1.181396933487134e+00	 1.271044852315673e+01
 1.484009360129694e+00	 1.195872887253479e+00	 1.265761181175413e+01
 1.472313408808763e+00	 1.210243361830932e+00	 1.260155305580956e+01
 1.460472702889457e+00	 1.224506148252059e+00	 1.254144911357315e+01
 1.448488739012160e+00	 1.238659064005688e+00	 1.247826148179593e+01
 1.436363057157693e+00	 1.252699954132093e+00	 1.241293575622084e+01
 1.424097240003804e+00	 1.266626692301383e+00	 1.234634953942608e+01
 1.411692912249796e+00	 1.280437181873942e+00	 1.227932371531274e+01
 1.538758374563401e+00	 1.144380067805108e+00	 1.282942091227951e+01
 1.527586977810716e+00	 1.159250194007498e+00	 1.278621411128027e+01
 1.516264357184988e+00	 1.174021006133818e+00	 1.273949065897780e+01
 1.504791838319056e+00	 1.188690208484474e+00	 1.268963913029279e+01
 1.493170792712589e+00	 1.203255528583696e+00	 1.263708439033766e+01
 1.481402637217958e+00	 1.217714718325271e+00	 1.258229136395919e+01
 1.469488833492115e+00	 1.232065555104857e+00	 1.252458444097056e+01
 1.457430887414860e+00	 1.246305842937700e+00	 1.246366635406831e+01
 1.445230348473988e+00	 1.260433413560581e+00	 1.240048654192655e+01
 1.432888809117809e+00	 1.274446127516855e+00	 1.233592023538394e+01
 1.420407904075605e+00	 1.288341875223451e+00	 1.227078027618495e+01
 1.548199469493137e+00	 1.151401443634331e+00	 1.281085727599574e+01
 1.536959530324098e+00	 1.166362805910881e+00	 1.276732827773224e+01
 1.525567439443695e+00	 1.181224244767021e+00	 1.272061765270116e+01
 1.514024530618225e+00	 1.195983450417835e+00	 1.267105901893265e+01
 1.502332183762240e+00	 1.210638136444723e+00	 1.261902067703081e+01
 1.490491824421255e+00	 1.225186040948160e+00	 1.256490966686558e+01
 1.478504923220264e+00	 1.239624927686964e+00	 1.250910338557116e+01
 1.466372995278441e+00	 1.253952587202861e+00	 1.245059336829921e+01
 1.454097599590512e+00	 1.268166837929201e+00	 1.238961202125334e+01
 1.441680338375306e+00	 1.282265527282652e+00	 1.232703059213215e+01
 1.429122856392036e+00	 1.296246532736743e+00	 1.226365226708618e+01
 1.557640516271426e+00	 1.158422783653388e+00	 1.279403383072548e+01
 1.546332035035660e+00	 1.173475381538720e+00	 1.275054264140852e+01
 1.534870474254929e+00	 1.188427446662400e+00	 1.270416027407877e+01
 1.523257175828953e+00	 1.203276655154268e+00	 1.265516071158910e+01
 1.511493528087118e+00	 1.218020706652967e+00	 1.260385118991415e+01
 1.499580965268043e+00	 1.232657325465735e+00	 1.255057648965117e+01
 1.487520966964716e+00	 1.247184261714619e+00	 1.249572334696093e+01
 1.475315057535638e+00	 1.261599292467898e+00	 1.243944136555783e+01
 1.462964805482420e+00	 1.275900222855563e+00	 1.238069047447357e+01
 1.450471822794356e+00	 1.290084887167662e+00	 1.232004290444203e+01
 1.437837764260544e+00	 1.304151149934398e+00	 1.225829058854354e+01
 1.350687278044521e+00	 1.225103701284858e+00	 1.235575055577308e+01
 1.338690113587021e+00	 1.238201962007561e+00	 1.227271322392071e+01
 1.326563673374646e+00	 1.251185135706137e+00	 1.219046123087683e+01
 1.314309606114455e+00	 1.264051329800459e+00	 1.210829363193618e+01
 1.301929597816270e+00	 1.276798683961553e+00	 1.202548416838553e+01
 1.289425371014175e+00	 1.289425371014175e+00	 1.194129388471358e+01
 1.276798683961554e+00	 1.301929597816271e+00	 1.185498405977021e+01
 1.264051329800459e+00	 1.314309606114455e+00	 1.176582935795258e+01
 1.251185135706137e+00	 1.326563673374646e+00	 1.167313110368322e+01
 1.238201962007560e+00	 1.338690113587021e+00	 1.157623058027615e+01
 1.225103701284858e+00	 1.350687278044521e+00	 1.147452225278481e+01
 1.359402408156652e+00	 1.233008520064037e+00	 1.234448860687914e+01
 1.347327833590497e+00	 1.246191295572870e+00	 1.226409910730566e+01
 1.335123149134887e+00	 1.259258241473765e+00	 1.218428467497253e+01
 1.322790014134929e+00	 1.272207452974987e+00	 1.210432473144047e+01
 1.310330125479183e+00	 1.285037057744056e+00	 1.202347155673028e+01
 1.297745216816138e+00	 1.297745216816138e+00	 1.194096351458925e+01
 1.285037057744056e+00	 1.310330125479183e+00	 1.185603861406768e+01
 1.272207452974987e+00	 1.322790014134929e+00	 1.176794830932889e+01
 1.259258241473765e+00	 1.335123149134887e+00	 1.167597143664605e+01
 1.246191295572870e+00	 1.347327833590497e+00	 1.157942818523497e+01
 1.233008520064037e+00	 1.359402408156653e+00	 1.147769399696382e+01
 1.368117533329237e+00	 1.240913334362961e+00	 1.233309168339060e+01
 1.355965548698286e+00	 1.254180624609991e+00	 1.225520373003976e+01
 1.343682620043777e+00	 1.267331342665701e+00	 1.217761334857800e+01
 1.331270417348855e+00	 1.280363571526758e+00	 1.209959904166162e+01
 1.318730648380813e+00	 1.293275426857178e+00	 1.202041067357445e+01
 1.306065057902542e+00	 1.306065057902541e+00	 1.193928330057802e+01
 1.293275426857178e+00	 1.318730648380814e+00	 1.185545136045015e+01
 1.280363571526758e+00	 1.331270417348855e+00	 1.176816311888698e+01
 1.267331342665701e+00	 1.343682620043777e+00	 1.167669526730027e+01
 1.254180624609990e+00	 1.355965548698287e+00	 1.158036756410213e+01
 1.240913334362961e+00	 1.368117533329237e+00	 1.147855740985208e+01
 1.376832648623727e+00	 1.248818139702206e+00	 1.232167053740615e+01
 1.364603254015706e+00	 1.262169944591612e+00	 1.224613287456323e+01
 1.352242081250964e+00	 1.275404434707170e+00	 1.217055538136374e+01
 1.339750810950681e+00	 1.288519680833957e+00	 1.209423397676258e+01
 1.327131161760869e+00	 1.301513786632500e+00	 1.201643476175535e+01
 1.314384889558808e+00	 1.314384889558808e+00	 1.193640845280498e+01
 1.301513786632500e+00	 1.327131161760869e+00	 1.185340519790679e+01
 1.288519680833957e+00	 1.339750810950681e+00	 1.176668966860912e+01
 1.275404434707169e+00	 1.352242081250965e+00	 1.167555631799278e+01
 1.262169944591611e+00	 1.364603254015706e+00	 1.157934469203089e+01
 1.248818139702206e+00	 1.376832648623727e+00	 1.147745467991570e+01
 1.385547749101575e+00	 1.256722931602350e+00	 1.231037609521271e+01
 1.373240944648068e+00	 1.270159250990423e+00	 1.223703232274526e+01
 1.360801527906097e+00	 1.283477513023392e+00	 1.216325859380859e+01
 1.348231190134854e+00	 1.296675776274769e+00	 1.208838620509796e+01
 1.335531660859057e+00	 1.309752132401605e+00	 1.201171575943817e+01
 1.322704707070359e+00	 1.322704707070359e+00	 1.193253220125539e+01
 1.309752132401605e+00	 1.335531660859058e+00	 1.185012025875644e+01
 1.296675776274769e+00	 1.348231190134854e+00	 1.176378018166442e+01
 1.283477513023393e+00	 1.360801527906097e+00	 1.167284365987480e+01
 1.270159250990423e+00	 1.373240944648069e+00	 1.157668980565751e+01
 1.256722931602350e+00	 1.385547749101575e+00	 1.147476108008384e+01
 1.394262829824233e+00	 1.264627705583968e+00	 1.229939749668018e+01
 1.381878615700689e+00	 1.278148539279113e+00	 1.222808591841745e+01
 1.369360955158822e+00	 1.291550573039594e+00	 1.215590859054301e+01
 1.356711550095821e+00	 1.304831853227380e+00	 1.208224978073497e+01
 1.343932140915086e+00	 1.317990459496077e+00	 1.200646247687126e+01
 1.331024505722615e+00	 1.331024505722615e+00	 1.192788402449970e+01
 1.317990459496077e+00	 1.343932140915086e+00	 1.184585219575158e+01
 1.304831853227380e+00	 1.356711550095822e+00	 1.175972157397053e+01
 1.291550573039594e+00	 1.369360955158823e+00	 1.166888013465686e+01
 1.278148539279113e+00	 1.381878615700689e+00	 1.157276590043878e+01
 1.264627705583969e+00	 1.394262829824233e+00	 1.147088354570888e+01
 1.402977885853157e+00	 1.272532457167641e+00	 1.228896013766398e+01
 1.390516262278881e+00	 1.286137804930372e+00	 1.221951363259862e+01
 1.377920358158790e+00	 1.299623610180997e+00	 1.214872685584523e+01
 1.365191886028031e+00	 1.312987907069975e+00	 1.207605427637477e+01
 1.352332597168661e+00	 1.326228763247498e+00	 1.200091877358519e+01
 1.339344280800996e+00	 1.339344280800996e+00	 1.192272787771389e+01
 1.326228763247497e+00	 1.352332597168661e+00	 1.184089046714899e+01
 1.312987907069975e+00	 1.365191886028031e+00	 1.175483380221643e+01
 1.299623610180997e+00	 1.377920358158790e+00	 1.166402077115871e+01
 1.286137804930372e+00	 1.390516262278882e+00	 1.156796722096972e+01
 1.272532457167640e+00	 1.402977885853157e+00	 1.146625924355074e+01
 1.411692912249796e+00	 1.280437181873942e+00	 1.227932371531274e+01
 1.399153879487961e+00	 1.294127043416889e+00	 1.221156963132172e+01
 1.386479732055645e+00	 1.307696619872825e+00	 1.214196885122147e+01
 1.373672193125931e+00	 1.321143933180739e+00	 1.207006291763718e+01
 1.360733024859491e+00	 1.334467038987448e+00	 1.199536173604083e+01
 1.347664027590925e+00	 1.347664027590925e+00	 1.191736042005011e+01
 1.334467038987449e+00	 1.360733024859490e+00	 1.183555661985344e+01
 1.321143933180740e+00	 1.373672193125931e+00	 1.174946820852064e+01
 1.307696619872825e+00	 1.386479732055646e+00	 1.165865119690278e+01
 1.294127043416888e+00	 1.399153879487961e+00	 1.156271774460593e+01
 1.280437181873942e+00	 1.411692912249796e+00	 1.146135413219165e+01
 1.420407904075605e+00	 1.288341875223451e+00	 1.227078027618495e+01
 1.407791462433241e+00	 1.302116250211353e+00	 1.220454034597849e+01
 1.395039071999039e+00	 1.315769597540301e+00	 1.213592211501015e+01
 1.382152466583969e+00	 1.329299926937859e+00	 1.206457071867932e+01
 1.369133419227282e+00	 1.342705282047512e+00	 1.199009985573401e+01
 1.355983741377820e+00	 1.355983741377821e+00	 1.191210924141009e+01
 1.342705282047513e+00	 1.369133419227281e+00	 1.183020257074608e+01
 1.329299926937859e+00	 1.382152466583969e+00	 1.174400586189487e+01
 1.315769597540301e+00	 1.395039071999040e+00	 1.165318604498444e+01
 1.302116250211353e+00	 1.407791462433242e+00	 1.155746965869870e+01
 1.288341875223450e+00	 1.420407904075605e+00	 1.145666151427192e+01
 1.429122856392036e+00	 1.296246532736743e+00	 1.226365226708618e+01
 1.416429006220038e+00	 1.310105420786453e+00	 1.219874254610584e+01
 1.403598373138617e+00	 1.323842538608647e+00	 1.213090436395256e+01
 1.390632701596592e+00	 1.337455883719519e+00	 1.205990261911928e+01
 1.377533775511741e+00	 1.350943487759273e+00	 1.198547120776683e+01
 1.364303417447105e+00	 1.364303417447105e+00	 1.190733108867509e+01
 1.350943487759273e+00	 1.377533775511741e+00	 1.182520888629841e+01
 1.337455883719518e+00	 1.390632701596592e+00	 1.173885589667293e+01
 1.323842538608648e+00	 1.403598373138618e+00	 1.164806735644659e+01
 1.310105420786454e+00	 1.416429006220038e+00	 1.155270183173819e+01
 1.296246532736743e+00	 1.429122856392036e+00	 1.145270058091589e+01
 1.437837764260544e+00	 1.304151149934398e+00	 1.225829058854353e+01
 1.425066505953664e+00	 1.318094550614880e+00	 1.219452141454267e+01
 1.412157630624030e+00	 1.331915438503088e+00	 1.212726159667950e+01
 1.399112893358248e+00	 1.345611798903905e+00	 1.205641162224109e+01
 1.385934088952579e+00	 1.359181651454312e+00	 1.198184162989385e+01
 1.372623051084200e+00	 1.372623051084200e+00	 1.190341009144617e+01
 1.359181651454312e+00	 1.385934088952578e+00	 1.182098306057594e+01
 1.345611798903904e+00	 1.399112893358248e+00	 1.173445384806387e+01
 1.331915438503089e+00	 1.412157630624030e+00	 1.164376297837581e+01
 1.318094550614880e+00	 1.425066505953664e+00	 1.154891827869092e+01
 1.304151149934398e+00	 1.437837764260543e+00	 1.145001494870510e+01
 1.225103701284858e+00	 1.350687278044521e+00	 1.147452225278481e+01
 1.211890025415587e+00	 1.362555558706364e+00	 1.136892857799836e+01
 1.198565124577503e+00	 1.374291314437132e+00	 1.126077579777857e+01
 1.185131004804892e+00	 1.385892990748170e+00	 1.115012528216137e+01
 1.171589700539268e+00	 1.397359073356434e+00	 1.103713623238487e+01
 1.157943273614751e+00	 1.408688088830681e+00	 1.092207633972960e+01
 1.144193812226287e+00	 1.419878605207170e+00	 1.080533177531300e+01
 1.130343429881790e+00	 1.430929232574333e+00	 1.068741641952396e+01
 1.116394264339284e+00	 1.441838623625946e+00	 1.056898024379379e+01
 1.102348476530177e+00	 1.452605474182361e+00	 1.045036453305112e+01
 1.088208249469755e+00	 1.463228523679388e+00	 1.033133995481213e+01
 1.233008520064037e+00	 1.359402408156653e+00	 1.147769399696382e+01
 1.219709584707646e+00	 1.371347267321650e+00	 1.137171013226328e+01
 1.206298706718029e+00	 1.383158746456126e+00	 1.126294406274280e+01
 1.192777905073157e+00	 1.394835281041288e+00	 1.115163131273821e+01
 1.179149227341525e+00	 1.406375347023375e+00	 1.103811578779200e+01
 1.165414748660979e+00	 1.417777461464019e+00	 1.092286077808233e+01
 1.151576570700284e+00	 1.429040183159917e+00	 1.080645926250464e+01
 1.137636820604495e+00	 1.440162113231273e+00	 1.068964341809189e+01
 1.123597649925256e+00	 1.451141895678545e+00	 1.057329324361811e+01
 1.109461233537111e+00	 1.461978217907031e+00	 1.045842744366606e+01
 1.095229768540982e+00	 1.472669811218911e+00	 1.034499815079001e+01
 1.240913334362961e+00	 1.368117533329237e+00	 1.147855740985208e+01
 1.227529139567816e+00	 1.380138970953998e+00	 1.137228952566470e+01
 1.214032284475445e+00	 1.392026173449274e+00	 1.126320917921800e+01
 1.200424801007498e+00	 1.403777566266140e+00	 1.115170459124356e+01
 1.186708749859435e+00	 1.415391615580127e+00	 1.103828223704921e+01
 1.172886219472822e+00	 1.426866828945746e+00	 1.092357825463960e+01
 1.158959324990228e+00	 1.438201755920133e+00	 1.080836912366640e+01
 1.144930207193845e+00	 1.449394988655275e+00	 1.069358151567210e+01
 1.130801031428919e+00	 1.460445162458313e+00	 1.058030122038467e+01
 1.116573986513125e+00	 1.471350956319498e+00	 1.046978105780854e+01
 1.102251283633004e+00	 1.482111093407385e+00	 1.036300057320803e+01
 1.248818139702206e+00	 1.376832648623727e+00	 1.147745467991570e+01
 1.235348685564983e+00	 1.388930664621468e+00	 1.137104889630291e+01
 1.221765853467358e+00	 1.400893590391729e+00	 1.126197726568867e+01
 1.208071688274637e+00	 1.412719841355464e+00	 1.115075960109036e+01
 1.194268263809235e+00	 1.424407873917502e+00	 1.103804317776733e+01
 1.180357681816413e+00	 1.435956186125247e+00	 1.092461460669386e+01
 1.166342070912529e+00	 1.447363318296289e+00	 1.081141094951135e+01
 1.152223585516892e+00	 1.458627853614402e+00	 1.069952997096425e+01
 1.138004404768335e+00	 1.469748418693421e+00	 1.059023942926337e+01
 1.123686731427640e+00	 1.480723684108561e+00	 1.048498530998303e+01
 1.109272790766951e+00	 1.491552364894759e+00	 1.038021873488895e+01
 1.256722931602350e+00	 1.385547749101575e+00	 1.147476108008384e+01
 1.243168218268035e+00	 1.397722343342122e+00	 1.136840245092395e+01
 1.229499409311373e+00	 1.409760992258645e+00	 1.125968589228012e+01
 1.215718562541301e+00	 1.421662101241993e+00	 1.114924204352210e+01
 1.201827764907160e+00	 1.433424116926312e+00	 1.103783755880969e+01
 1.187829131457885e+00	 1.445045527851911e+00	 1.092638750717094e+01
 1.173724804283597e+00	 1.456524865096853e+00	 1.081596698517020e+01
 1.159516951440692e+00	 1.467860702876713e+00	 1.070782183347021e+01
 1.145207765861564e+00	 1.479051659112038e+00	 1.060337835318652e+01
 1.130799464250078e+00	 1.490096395963015e+00	 1.050088094712544e+01
 1.116294285963954e+00	 1.500993620330983e+00	 1.039353400992156e+01
 1.264627705583969e+00	 1.394262829824233e+00	 1.147088354570888e+01
 1.250987733245861e+00	 1.406514002134021e+00	 1.136479512051028e+01
 1.237232947625096e+00	 1.418628374025174e+00	 1.125680280335400e+01
 1.223365419474214e+00	 1.430604340858462e+00	 1.114762761686318e+01
 1.209387248869448e+00	 1.442440339497367e+00	 1.103813450613171e+01
 1.195300564163374e+00	 1.454134848975127e+00	 1.092934532728409e+01
 1.181107520919838e+00	 1.465686391130295e+00	 1.082245102018182e+01
 1.166810300832295e+00	 1.477093531210272e+00	 1.071882285164506e+01
 1.152411110626666e+00	 1.488354878442333e+00	 1.061811620634666e+01
 1.137912180949860e+00	 1.499469086571660e+00	 1.051363420803201e+01
 1.123315765245141e+00	 1.510434854366011e+00	 1.040435841761023e+01
 1.272532457167640e+00	 1.402977885853157e+00	 1.146625924355074e+01
 1.258807226067347e+00	 1.415305636015228e+00	 1.136070120509719e+01
 1.244966464026135e+00	 1.427495730666472e+00	 1.125382462796789e+01
 1.231012254740101e+00	 1.439546555137605e+00	 1.114642078269637e+01
 1.216946711412336e+00	 1.451456536521478e+00	 1.103943213502350e+01
 1.202771975699012e+00	 1.463224144344281e+00	 1.093396598546451e+01
 1.188490216637663e+00	 1.474847891205086e+00	 1.083130726501973e+01
 1.174103629558759e+00	 1.486326333383142e+00	 1.073209326653074e+01
 1.159614434981701e+00	 1.497658071412477e+00	 1.063033977041199e+01
 1.145024877496410e+00	 1.508841750623294e+00	 1.052431484505178e+01
 1.130337224631643e+00	 1.519876061649789e+00	 1.041374847695145e+01
 1.280437181873942e+00	 1.411692912249796e+00	 1.146135413219165e+01
 1.266626692301383e+00	 1.424097240003804e+00	 1.135662300829852e+01
 1.252699954132094e+00	 1.436363057157693e+00	 1.125127557873871e+01
 1.238659064005689e+00	 1.448488739012159e+00	 1.114615351954753e+01
 1.224506148252060e+00	 1.460472702889456e+00	 1.104225634935666e+01
 1.210243361830933e+00	 1.472313408808762e+00	 1.094075578317546e+01
 1.195872887253479e+00	 1.484009360129693e+00	 1.084280915702348e+01
 1.181396933487134e+00	 1.495559104163382e+00	 1.074377547660816e+01
 1.166817734844733e+00	 1.506961232750638e+00	 1.064093762769515e+01
 1.152137549859149e+00	 1.518214382806713e+00	 1.053401259066442e+01
 1.137358660144589e+00	 1.529317236832269e+00	 1.042273559065831e+01
 1.288341875223450e+00	 1.420407904075605e+00	 1.145666151427192e+01
 1.274446127516856e+00	 1.432888809117809e+00	 1.135308946200024e+01
 1.260433413560581e+00	 1.445230348473987e+00	 1.124970613962697e+01
 1.246305842937701e+00	 1.457430887414860e+00	 1.114738406463126e+01
 1.232065555104858e+00	 1.469488833492115e+00	 1.104715962840769e+01
 1.217714718325271e+00	 1.481402637217957e+00	 1.095024822818501e+01
 1.203255528583697e+00	 1.493170792712588e+00	 1.085394604440242e+01
 1.188690208484475e+00	 1.504791838319056e+00	 1.075431594620281e+01
 1.174021006133819e+00	 1.516264357184987e+00	 1.065103849300113e+01
 1.159250194007499e+00	 1.527586977810715e+00	 1.054380961552042e+01
 1.144380067805108e+00	 1.538758374563402e+00	 1.043234517069199e+01
 1.296246532736743e+00	 1.429122856392036e+00	 1.145270058091589e+01
 1.282265527282653e+00	 1.441680338375306e+00	 1.135065474166598e+01
 1.268166837929202e+00	 1.454097599590512e+00	 1.124969174313474e+01
 1.253952587202862e+00	 1.466372995278441e+00	 1.115069564418422e+01
 1.239624927686965e+00	 1.478504923220263e+00	 1.105471980180810e+01
 1.225186040948161e+00	 1.490491824421254e+00	 1.096087157418521e+01
 1.210638136444723e+00	 1.502332183762239e+00	 1.086445085415401e+01
 1.195983450417836e+00	 1.514024530618225e+00	 1.076486933936129e+01
 1.181224244767021e+00	 1.525567439443694e+00	 1.066176214848923e+01
 1.166362805910882e+00	 1.536959530324098e+00	 1.055478045476523e+01
 1.151401443634331e+00	 1.548199469493137e+00	 1.044359653435728e+01
 1.304151149934398e+00	 1.437837764260543e+00	 1.145001494870510e+01
 1.290084887167663e+00	 1.450471822794356e+00	 1.134989687267337e+01
 1.275900222855564e+00	 1.462964805482419e+00	 1.125183143738636e+01
 1.261599292467899e+00	 1.475315057535638e+00	 1.115669519289255e+01
 1.247184261714619e+00	 1.487520966964715e+00	 1.106470936157640e+01
 1.232657325465736e+00	 1.499580965268043e+00	 1.097138657217695e+01
 1.218020706652968e+00	 1.511493528087118e+00	 1.087549159355476e+01
 1.203276655154269e+00	 1.523257175828953e+00	 1.077658030018723e+01
 1.188427446662401e+00	 1.534870474254928e+00	 1.067421938335677e+01
 1.173475381538720e+00	 1.546332035035660e+00	 1.056799192606331e+01
 1.158422783653388e+00	 1.557640516271426e+00	 1.045750279349114e+01
 1.088208249469755e+00	 1.463228523679388e+00	 1.033133995481213e+01
 1.073978212783269e+00	 1.473704787939532e+00	 1.021346189671297e+01
 1.059658186922306e+00	 1.484034918494126e+00	 1.009879476324079e+01
 1.045250405395733e+00	 1.494217794715511e+00	 9.980773554464967e+00
 1.030757119375336e+00	 1.504252341148384e+00	 9.856884827871667e+00
 1.016180596564476e+00	 1.514137527830351e+00	 9.728216638580172e+00
 1.001523120060802e+00	 1.523872370578788e+00	 9.595793899654490e+00
 9.867869872142039e-01	 1.533455931243943e+00	 9.460583692909680e+00
 9.719745084811420e-01	 1.542887317928227e+00	 9.323500497696587e+00
 9.570880062765122e-01	 1.552165685171722e+00	 9.185411297182050e+00
 9.421298138241911e-01	 1.561290234103947e+00	 9.047140524183888e+00
 1.095229768540982e+00	 1.472669811218911e+00	 1.034499815079002e+01
 1.080907914434171e+00	 1.483213672181679e+00	 1.023405079712551e+01
 1.066495490509756e+00	 1.493610456530584e+00	 1.011981940756510e+01
 1.051994744688022e+00	 1.503859036407268e+00	 9.999295166101799e+00
 1.037407942666142e+00	 1.513958329417197e+00	 9.873631408040637e+00
 1.022737366779529e+00	 1.523907298952281e+00	 9.743908532470183e+00
 1.007985314857214e+00	 1.533704954479591e+00	 9.611139689746093e+00
 9.931540990724328e-01	 1.543350351796090e+00	 9.476276423889306e+00
 9.782460447895563e-01	 1.552842593249338e+00	 9.340214225092145e+00
 9.632634894085536e-01	 1.562180827924198e+00	 9.203797949934422e+00
 9.482087812081160e-01	 1.571364251795587e+00	 9.067827069581952e+00
 1.102251283633004e+00	 1.482111093407385e+00	 1.036300057320803e+01
 1.087837612157895e+00	 1.492722551034464e+00	 1.025338729025421e+01
 1.073332790222370e+00	 1.503185989139902e+00	 1.013684025588954e+01
 1.058739080158126e+00	 1.513500272634650e+00	 1.001459740046923e+01
 1.044058762187716e+00	 1.523664312184941e+00	 9.887813497175767e+00
 1.029294133278602e+00	 1.533677064536999e+00	 9.757566193899450e+00
 1.014447505991195e+00	 1.543537532807593e+00	 9.624862042562611e+00
 9.995212073220686e-01	 1.553244766740401e+00	 9.490642476733255e+00
 9.845175775435008e-01	 1.562797862928143e+00	 9.355789690638986e+00
 9.694389690405263e-01	 1.572195965000466e+00	 9.221132375220346e+00
 9.542877451466500e-01	 1.581438263777688e+00	 9.087451269664417e+00
 1.109272790766951e+00	 1.491552364894759e+00	 1.038021873488895e+01
 1.094767302027610e+00	 1.502231419109526e+00	 1.026867375156342e+01
 1.080170082185681e+00	 1.512761510895944e+00	 1.015065219405223e+01
 1.065483407984262e+00	 1.523141497934274e+00	 1.002740224597517e+01
 1.050709574171276e+00	 1.533370283951536e+00	 9.900084646478835e+00
 1.035850892346219e+00	 1.543446819048270e+00	 9.769779074051876e+00
 1.020909689800865e+00	 1.553370099990950e+00	 9.637490522611969e+00
 1.005888308355114e+00	 1.563139170469986e+00	 9.504155618460157e+00
 9.907891031891354e-01	 1.572753121323252e+00	 9.370648829073016e+00
 9.756144416730209e-01	 1.582211090725197e+00	 9.237788517360009e+00
 9.603667021950679e-01	 1.591512264341539e+00	 9.106342797944842e+00
 1.116294285963954e+00	 1.500993620330983e+00	 1.039353400992156e+01
 1.101696980116480e+00	 1.511740271018506e+00	 1.028079070111331e+01
 1.087007362525221e+00	 1.522337016372569e+00	 1.016205980132480e+01
 1.072227724344654e+00	 1.532782706842763e+00	 1.003844280382303e+01
 1.057360374848044e+00	 1.543076239216903e+00	 9.911110820168672e+00
 1.042407640266902e+00	 1.553216556949859e+00	 9.781150218409127e+00
 1.027371862624345e+00	 1.563202650457827e+00	 9.649569351374105e+00
 1.012255398563572e+00	 1.573033557377948e+00	 9.517305217604841e+00
 9.970606181726257e-01	 1.582708362793277e+00	 9.385230003685116e+00
 9.817899038066261e-01	 1.592226199423058e+00	 9.254157459539989e+00
 9.664456489086460e-01	 1.601586247778434e+00	 9.124849061331446e+00
 1.123315765245141e+00	 1.510434854366011e+00	 1.040435841761023e+01
 1.108626642497673e+00	 1.521249101373040e+00	 1.029062641332905e+01
 1.093844627366525e+00	 1.531912500143637e+00	 1.017187692614723e+01
 1.078972025417520e+00	 1.542423893896736e+00	 1.004846284377079e+01
 1.064011160449239e+00	 1.552782172480962e+00	 9.921569934949016e+00
 1.048964373325174e+00	 1.562986272705535e+00	 9.792295793497773e+00
 1.033834020799753e+00	 1.573035178636381e+00	 9.661656924783955e+00
 1.018622474339445e+00	 1.582927921857397e+00	 9.530595755775854e+00
 1.003332118940132e+00	 1.592663581696822e+00	 9.399987515175487e+00
 9.879653519419319e-01	 1.602241285418722e+00	 9.270646933071074e+00
 9.725245818426584e-01	 1.611660208379663e+00	 9.143334712766027e+00
 1.130337224631643e+00	 1.519876061649789e+00	 1.041374847695144e+01
 1.115556285244355e+00	 1.530757904784769e+00	 1.029918595590328e+01
 1.100681872835124e+00	 1.541487956783010e+00	 1.018092625687451e+01
 1.085716307381080e+00	 1.552065053632812e+00	 1.005821635637434e+01
 1.070661927206082e+00	 1.562488078243634e+00	 9.932151397296817e+00
 1.055521087805558e+00	 1.572755960779062e+00	 9.803844612662184e+00
 1.040296160665210e+00	 1.582867678954774e+00	 9.674325330813236e+00
 1.024989532074737e+00	 1.592822258301440e+00	 9.544546340260855e+00
 1.009603601937818e+00	 1.602618772392499e+00	 9.415391112379702e+00
 9.941407825795280e-01	 1.612256343036856e+00	 9.287680829213596e+00
 9.786034975523807e-01	 1.621734140436518e+00	 9.162181167019936e+00
 1.137358660144589e+00	 1.529317236832269e+00	 1.042273559065831e+01
 1.122485904429694e+00	 1.540266675865331e+00	 1.030778730905053e+01
 1.107519095056553e+00	 1.551063380864548e+00	 1.019003888775610e+01
 1.092460566413558e+00	 1.561706180587611e+00	 1.006846710187234e+01
 1.077312671349791e+00	 1.572193951004839e+00	 9.943555638671235e+00
 1.062077779992577e+00	 1.582525615634206e+00	 9.816437660907214e+00
 1.046758278558836e+00	 1.592700145841167e+00	 9.688159867150640e+00
 1.031356568161450e+00	 1.602716561103182e+00	 9.559690217633385e+00
 1.015875063611845e+00	 1.612573929238918e+00	 9.431925504782468e+00
 1.000316192220003e+00	 1.622271366602130e+00	 9.305698713468070e+00
 9.846823925930893e-01	 1.631808038240291e+00	 9.181786119511285e+00
 1.144380067805108e+00	 1.538758374563402e+00	 1.043234517069199e+01
 1.129415496126855e+00	 1.549775409226364e+00	 1.031742861780609e+01
 1.114356290156345e+00	 1.560638766962110e+00	 1.020010794514012e+01
 1.099204798693171e+00	 1.571347269297754e+00	 1.007998815585950e+01
 1.083963389111588e+00	 1.581899785264497e+00	 9.956493648734138e+00
 1.068634446170754e+00	 1.592295231734734e+00	 9.830727618855271e+00
 1.053220370818752e+00	 1.602532573723720e+00	 9.703758558978263e+00
 1.037723578991587e+00	 1.612610824655732e+00	 9.576574288324466e+00
 1.022146500408375e+00	 1.622529046594686e+00	 9.450089876750026e+00
 1.006491577363947e+00	 1.632286350439214e+00	 9.325155342223148e+00
 9.907612635200578e-01	 1.641881896082272e+00	 9.202563068015568e+00
 1.151401443634331e+00	 1.548199469493137e+00	 1.044359653435728e+01
 1.136345056409006e+00	 1.559284099479508e+00	 1.032907104191487e+01
 1.121193454260032e+00	 1.570214109649559e+00	 1.021235838074845e+01
 1.105949000398142e+00	 1.580988314299859e+00	 1.009356145189283e+01
 1.090614076722692e+00	 1.591605575522529e+00	 9.971686506673002e+00
 1.075191082624610e+00	 1.602064803544412e+00	 9.847378385861161e+00
 1.059682433783077e+00	 1.612364957030593e+00	 9.721731676845328e+00
 1.044090560957152e+00	 1.622505043352197e+00	 9.595758622119455e+00
 1.028417908773573e+00	 1.632484118818412e+00	 9.470397403408677e+00
 1.012666934511950e+00	 1.642301288872776e+00	 9.346520181665383e+00
 9.968401068885626e-01	 1.651955708253753e+00	 9.224940837149493e+00
 1.158422783653388e+00	 1.557640516271426e+00	 1.045750279349114e+01
 1.143274581349313e+00	 1.568792741236402e+00	 1.034367111133851e+01
 1.128030583493148e+00	 1.579789403500755e+00	 1.022775683004362e+01
 1.112693167706690e+00	 1.590629310130548e+00	 1.010998931788845e+01
 1.097264730414323e+00	 1.601311316278856e+00	 9.989864910713196e+00
 1.081747685638671e+00	 1.611834325527005e+00	 9.867064602322831e+00
 1.066144463789933e+00	 1.622197290189948e+00	 9.742701254639423e+00
 1.050457510450147e+00	 1.632399211585682e+00	 9.617815974546556e+00
 1.034689285153599e+00	 1.642439140268708e+00	 9.493374768102479e+00
 1.018842260164602e+00	 1.652316176227488e+00	 9.370276928857614e+00
 1.002918919253879e+00	 1.662029469046026e+00	 9.249363105513446e+00
 9.421298138241911e-01	 1.561290234103947e+00	 9.047140524183888e+00
 9.271022743009752e-01	 1.570260212940706e+00	 8.908874256935897e+00
 9.120077405497161e-01	 1.579074918210454e+00	 8.770503806701443e+00
 8.968485730184877e-01	 1.587733693678173e+00	 8.632357933515610e+00
 8.816271383179539e-01	 1.596235929984013e+00	 8.494736393775684e+00
 8.663458080813169e-01	 1.604581064626318e+00	 8.357914230882535e+00
 8.510069578296842e-01	 1.612768581912134e+00	 8.222145739943034e+00
 8.356129658438992e-01	 1.620798012875571e+00	 8.087668089797230e+00
 8.201662120438797e-01	 1.628668935164389e+00	 7.954704589135172e+00
 8.046690768764703e-01	 1.636380972895235e+00	 7.823467586974101e+00
 7.891239402128029e-01	 1.643933796478007e+00	 7.694161001244832e+00
 9.482087812081160e-01	 1.571364251795587e+00	 9.067827069581952e+00
 9.330842784840748e-01	 1.580392108228522e+00	 8.932372456382074e+00
 9.178923492606752e-01	 1.589263689212401e+00	 8.797146367054577e+00
 9.026353692164577e-01	 1.597978334277936e+00	 8.662352637441847e+00
 8.873157202323126e-01	 1.606535430133464e+00	 8.528163422006944e+00
 8.719357892440790e-01	 1.614934410647860e+00	 8.394723852001308e+00
 8.564979671005849e-01	 1.623174756800733e+00	 8.262156348046243e+00
 8.410046474282029e-01	 1.631255996600249e+00	 8.130564569431494e+00
 8.254582255029554e-01	 1.639177704968998e+00	 8.000036986103089e+00
 8.098610971311923e-01	 1.646939503598292e+00	 7.870650062988355e+00
 7.942156575398336e-01	 1.654541060771386e+00	 7.742471049949108e+00
 9.542877451466500e-01	 1.581438263777688e+00	 9.087451269664417e+00
 9.390662792767278e-01	 1.590523997774040e+00	 8.954698324050824e+00
 9.237769546363925e-01	 1.599452454439867e+00	 8.822412820136705e+00
 9.084221621346349e-01	 1.608222969071612e+00	 8.690695202494002e+00
 8.930042989225625e-01	 1.616834924445802e+00	 8.559612080193755e+00
 8.775257672386380e-01	 1.625287750801844e+00	 8.429201226575721e+00
 8.619889732593994e-01	 1.633580925791908e+00	 8.299476212597654e+00
 8.463963259567362e-01	 1.641713974398222e+00	 8.170430655139645e+00
 8.307502359627632e-01	 1.649686468818204e+00	 8.042042065481766e+00
 8.150531144433233e-01	 1.657498028317827e+00	 7.914275287024237e+00
 7.993073719811155e-01	 1.665148319053712e+00	 7.787085515137841e+00
 9.603667021950679e-01	 1.591512264341539e+00	 9.106342797944842e+00
 9.450482732891479e-01	 1.600655875835736e+00	 8.976144057390615e+00
 9.296615533422561e-01	 1.609641208119082e+00	 8.846567574389473e+00
 9.142089484938195e-01	 1.618467592253755e+00	 8.717631538938120e+00
 8.986928711651415e-01	 1.627134407084475e+00	 8.589318674402620e+00
 8.831157388972892e-01	 1.635641079221187e+00	 8.461581553526107e+00
 8.674799731944900e-01	 1.643987082988622e+00	 8.334347525966425e+00
 8.517879983741319e-01	 1.652171940343076e+00	 8.207523237841105e+00
 8.360422404244020e-01	 1.660195220756792e+00	 8.080998727787247e+00
 8.202451258706165e-01	 1.668056541070414e+00	 7.954651088066212e+00
 8.043990806512339e-01	 1.675755565313928e+00	 7.828347683249203e+00
 9.664456489086460e-01	 1.601586247778434e+00	 9.124849061331446e+00
 9.510302571315431e-01	 1.610787736672089e+00	 8.997019986687732e+00
 9.355461420436545e-01	 1.619829944476277e+00	 8.869893300998674e+00
 9.199957250148114e-01	 1.628712198018920e+00	 8.743425688679872e+00
 9.043814337364877e-01	 1.637433872212933e+00	 8.617537259011867e+00
 8.887057010523263e-01	 1.645994390038805e+00	 8.492117153577661e+00
 8.729709637942189e-01	 1.654393222493839e+00	 8.367028741935163e+00
 8.571796616250220e-01	 1.662629888508394e+00	 8.242114385138905e+00
 8.413342358889699e-01	 1.670703954829555e+00	 8.117199750937889e+00
 8.254371284708238e-01	 1.678615035872630e+00	 7.992097668691951e+00
 8.094907806647734e-01	 1.686362793540975e+00	 7.866611516232153e+00
 9.725245818426584e-01	 1.611660208379663e+00	 9.143334712766027e+00
 9.570122274141263e-01	 1.620919574541578e+00	 9.017654096465002e+00
 9.414307174059755e-01	 1.630018657737683e+00	 8.892690471675085e+00
 9.257824884184102e-01	 1.638956780561657e+00	 8.768359386709085e+00
 9.100699834130385e-01	 1.647733313994621e+00	 8.644539228756145e+00
 8.942956505360445e-01	 1.656347677387615e+00	 8.521077098493468e+00
 8.784619419469480e-01	 1.664799338410517e+00	 8.397794248365217e+00
 8.625713126540403e-01	 1.673087812967764e+00	 8.274491063305771e+00
 8.466262193575662e-01	 1.681212665081280e+00	 8.150951567098236e+00
 8.306291193016968e-01	 1.689173506741046e+00	 8.026947441956663e+00
 8.145824691363192e-01	 1.696969997723794e+00	 7.902241553301498e+00
 9.786034975523807e-01	 1.621734140436518e+00	 9.162181167019936e+00
 9.629941807471067e-01	 1.631051383702676e+00	 9.038391550414445e+00
 9.473152760946075e-01	 1.640207342129530e+00	 8.915276900053179e+00
 9.315692354254156e-01	 1.649201334076521e+00	 8.792731625964759e+00
 9.157585169712318e-01	 1.658032726592989e+00	 8.670612913726217e+00
 8.998855841807382e-01	 1.666700935400535e+00	 8.548746842543352e+00
 8.839529045410393e-01	 1.675205424841621e+00	 8.426934041126021e+00
 8.679629484058191e-01	 1.683545707794770e+00	 8.304954859332600e+00
 8.519181878312886e-01	 1.691721345556754e+00	 8.182574038163274e+00
 8.358210954209880e-01	 1.699731947692237e+00	 8.059544865290475e+00
 8.196741431804566e-01	 1.707577171851328e+00	 7.935612807877529e+00
 9.846823925930893e-01	 1.631808038240291e+00	 9.181786119511285e+00
 9.689761137406960e-01	 1.641183158413865e+00	 9.059594219710878e+00
 9.531998147749391e-01	 1.650395991878050e+00	 8.937987286552499e+00
 9.373559627566281e-01	 1.659445852758066e+00	 8.816858225476325e+00
 9.214470311875054e-01	 1.668332104171484e+00	 8.696063177199051e+00
 9.054754988187015e-01	 1.677054158210479e+00	 8.575427856107176e+00
 8.894438484648554e-01	 1.685611475890112e+00	 8.454753399236727e+00
 8.733545658249908e-01	 1.694003567062998e+00	 8.333821703039476e+00
 8.572101383112365e-01	 1.702229990300768e+00	 8.212400229944780e+00
 8.410130538864495e-01	 1.710290352742777e+00	 8.090246271533173e+00
 8.247657999117705e-01	 1.718184309912520e+00	 7.967110659918986e+00
 9.907612635200578e-01	 1.641881896082272e+00	 9.202563068015568e+00
 9.749580230051050e-01	 1.651314892933620e+00	 9.081640214565114e+00
 9.590843301123582e-01	 1.660584601209472e+00	 8.961172766555157e+00
 9.431426671328472e-01	 1.669690330800844e+00	 8.841071401637674e+00
 9.271355228382971e-01	 1.678631440893554e+00	 8.721211016173617e+00
 9.110653912822295e-01	 1.687407339950366e+00	 8.601437261324936e+00
 8.949347706067574e-01	 1.696017485658952e+00	 8.481572561163720e+00
 8.787461618561880e-01	 1.704461384846033e+00	 8.361421589244271e+00
 8.625020677985085e-01	 1.712738593358112e+00	 8.240776185111105e+00
 8.462049917558327e-01	 1.720848715909239e+00	 8.119419697232679e+00
 8.298574364448463e-01	 1.728791405896309e+00	 7.997130743842726e+00
 9.968401068885626e-01	 1.651955708253753e+00	 9.224940837149493e+00
 9.809399051505447e-01	 1.661446581520420e+00	 9.104923418878595e+00
 9.649688187722526e-01	 1.670773164350029e+00	 8.985200461756877e+00
 9.489293452748726e-01	 1.679934762399409e+00	 8.865719342485741e+00
 9.328239887000457e-01	 1.688930730922647e+00	 8.746393164502409e+00
 9.166552584036162e-01	 1.697760474753112e+00	 8.627107469705939e+00
 9.004256678551085e-01	 1.706423448251104e+00	 8.507726402230400e+00
 8.841377334440444e-01	 1.714919155217461e+00	 8.388098299985467e+00
 8.677939732942032e-01	 1.723247148773572e+00	 8.268060694934929e+00
 8.513969060868903e-01	 1.731407031208199e+00	 8.147444708317783e+00
 8.349490498942687e-01	 1.739398453791639e+00	 8.026078832217250e+00
 1.002918919253879e+00	 1.662029469046026e+00	 9.249363105513446e+00
 9.869217567872255e-01	 1.671578218432743e+00	 9.129853027871276e+00
 9.708532774200117e-01	 1.680961675525948e+00	 9.010453034563602e+00
 9.547159939035045e-01	 1.690179141748315e+00	 8.891165784854103e+00
 9.385124255491877e-01	 1.699229968422211e+00	 8.771961698505530e+00
 9.222450970151566e-01	 1.708113556751635e+00	 8.652785821613493e+00
 9.059165370982701e-01	 1.716829357769528e+00	 8.533564113086307e+00
 8.895292775331920e-01	 1.725376872250868e+00	 8.414209126797243e+00
 8.730858517994192e-01	 1.733755650591940e+00	 8.294625069899054e+00
 8.565887939373744e-01	 1.741965292656229e+00	 8.174712223260642e+00
 8.400406373746230e-01	 1.750005447587452e+00	 8.054370715409860e+00
 7.891239402128029e-01	 1.643933796478007e+00	 7.694161001244828e+00
 7.735305257889983e-01	 1.651328365584077e+00	 7.566220704668161e+00
 7.578938484255537e-01	 1.658563143881206e+00	 7.439071526308751e+00
 7.422162801978108e-01	 1.665637938061490e+00	 7.312822731806329e+00
 7.265001883354923e-01	 1.672552600137973e+00	 7.186895937537830e+00
 7.107479341809201e-01	 1.679307027123507e+00	 7.060748149635854e+00
 6.949618721621169e-01	 1.685901160682133e+00	 6.935026029805268e+00
 6.791443487815924e-01	 1.692334986753636e+00	 6.810383236342812e+00
 6.632977016215802e-01	 1.698608535151988e+00	 6.687464526075969e+00
 6.474242583664658e-01	 1.704721879138377e+00	 6.566899018722690e+00
 6.315263358431070e-01	 1.710675134969586e+00	 6.449294107105869e+00
 7.942156575398336e-01	 1.654541060771386e+00	 7.742471049949108e+00
 7.785216286824372e-01	 1.661983342351808e+00	 7.614798550928643e+00
 7.627840577369690e-01	 1.669264802094332e+00	 7.487121863899956e+00
 7.470053320842793e-01	 1.676385245443754e+00	 7.359719054695062e+00
 7.311878342283357e-01	 1.683344523458246e+00	 7.232554094537663e+00
 7.153339407477171e-01	 1.690142532486140e+00	 7.104880380670295e+00
 6.994460212620891e-01	 1.696779213815067e+00	 6.977392915971986e+00
 6.835264374144656e-01	 1.703254553294083e+00	 6.850934841523699e+00
 6.675775418700279e-01	 1.709568580929526e+00	 6.726339066966495e+00
 6.516016773322446e-01	 1.715721370455284e+00	 6.604421087153051e+00
 6.356011755769997e-01	 1.721713038878267e+00	 6.485972474461057e+00
 7.993073719811155e-01	 1.665148319053712e+00	 7.787085515137838e+00
 7.835127287471317e-01	 1.672638313081534e+00	 7.659702109168881e+00
 7.676742642767904e-01	 1.679966454243085e+00	 7.531710413534861e+00
 7.517943812564479e-01	 1.687132546735858e+00	 7.403526943199164e+00
 7.358754774643120e-01	 1.694136440663150e+00	 7.275485339225269e+00
 7.199199447152130e-01	 1.700978031708779e+00	 7.146921684917183e+00
 7.039301678204548e-01	 1.707657260783958e+00	 7.018367580220972e+00
 6.879085235635516e-01	 1.714174113647016e+00	 6.890822663894093e+00
 6.718573796926276e-01	 1.720528620496652e+00	 6.765274317929199e+00
 6.557790939302297e-01	 1.726720855539454e+00	 6.642690085282086e+00
 6.396760130012635e-01	 1.732750936532453e+00	 6.524010793828610e+00
 8.043990806512339e-01	 1.675755565313928e+00	 7.828347683249206e+00
 7.885038231546807e-01	 1.683293271735145e+00	 7.701304198827074e+00
 7.725644652737941e-01	 1.690668094262884e+00	 7.573221858760124e+00
 7.565834250004222e-01	 1.697879835847341e+00	 7.444625981972986e+00
 7.405631153869976e-01	 1.704928345636938e+00	 7.316041801490641e+00
 7.245059434845886e-01	 1.711813518650968e+00	 7.187186849181665e+00
 7.084143092961231e-01	 1.718535295424233e+00	 7.058213655046973e+00
 6.922906047456019e-01	 1.725093661624332e+00	 6.930246114584545e+00
 6.761372126640771e-01	 1.731488647642321e+00	 6.804393146056487e+00
 6.599565057931607e-01	 1.737720328157489e+00	 6.681740757446090e+00
 6.437508458067654e-01	 1.743788821676984e+00	 6.563344850994610e+00
 8.094907806647734e-01	 1.686362793540975e+00	 7.866611516232153e+00
 7.934949090766831e-01	 1.693948212274529e+00	 7.739986736390195e+00
 7.774546579567556e-01	 1.701369716089155e+00	 7.612048817850801e+00
 7.613724606023062e-01	 1.708627106687748e+00	 7.483402927612433e+00
 7.452507453399686e-01	 1.715720232263854e+00	 7.354656069037352e+00
 7.290919344570246e-01	 1.722648987172249e+00	 7.225998157689475e+00
 7.128984431480043e-01	 1.729413311571319e+00	 7.097202094775165e+00
 6.966726784773685e-01	 1.736013191037926e+00	 6.969412132945997e+00
 6.804170383590754e-01	 1.742448656155489e+00	 6.843826518222211e+00
 6.641339105537777e-01	 1.748719782075991e+00	 6.721616867456417e+00
 6.478256716843726e-01	 1.754826688056700e+00	 6.603920701791960e+00
 8.145824691363192e-01	 1.696969997723794e+00	 7.902241553301498e+00
 7.984859836847392e-01	 1.704603128661576e+00	 7.776140697011980e+00
 7.823448395544512e-01	 1.712071313657320e+00	 7.648591850987955e+00
 7.661614853482046e-01	 1.719374353166620e+00	 7.520251747587587e+00
 7.499383646668006e-01	 1.726512094428151e+00	 7.391780224817300e+00
 7.336779150337031e-01	 1.733484431132166e+00	 7.263685622985156e+00
 7.173825668350067e-01	 1.740291303060637e+00	 7.135611383870390e+00
 7.010547422756023e-01	 1.746932695699694e+00	 7.008535361300041e+00
 6.846968543523205e-01	 1.753408639825112e+00	 6.883713631839249e+00
 6.683113058448207e-01	 1.759719211061567e+00	 6.762371275475147e+00
 6.519004883249518e-01	 1.765864529416441e+00	 6.645694685758276e+00
 8.196741431804566e-01	 1.707577171851328e+00	 7.935612807877529e+00
 8.034770441504475e-01	 1.715258014858176e+00	 7.810166069658738e+00
 7.872350072956563e-01	 1.722772880902800e+00	 7.683259459819975e+00
 7.709504965242218e-01	 1.730121569193500e+00	 7.555573650912892e+00
 7.546259707110712e-01	 1.737303926014074e+00	 7.427793123368133e+00
 7.382638826158042e-01	 1.744319844390263e+00	 7.300587208658730e+00
 7.218666778160401e-01	 1.751169263727616e+00	 7.173727737801056e+00
 7.054367936570559e-01	 1.757852169421535e+00	 7.047838313382227e+00
 6.889766582185107e-01	 1.764368592440147e+00	 6.924202040848053e+00
 6.724886892990299e-01	 1.770718608880818e+00	 6.804066012038128e+00
 6.559752934193703e-01	 1.776902339501046e+00	 6.688633439205452e+00
 8.247657999117705e-01	 1.718184309912520e+00	 7.967110659918986e+00
 8.084680876454077e-01	 1.725912864826218e+00	 7.842471806060586e+00
 7.921251584091462e-01	 1.733474411761020e+00	 7.716468079736648e+00
 7.757394914164627e-01	 1.740868748677928e+00	 7.589777110906088e+00
 7.593135608163558e-01	 1.748095720905875e+00	 7.463080486059518e+00
 7.428498346045093e-01	 1.755155220806080e+00	 7.337063517411194e+00
 7.263507735500144e-01	 1.762047187407683e+00	 7.211845296772722e+00
 7.098188301384807e-01	 1.768771606015344e+00	 7.087551536748896e+00
 6.932564475323448e-01	 1.775328507789548e+00	 6.965447777138529e+00
 6.766660585491447e-01	 1.781717969300350e+00	 6.846772349338815e+00
 6.600500846584950e-01	 1.787940112055354e+00	 6.732713907723080e+00
 8.298574364448463e-01	 1.728791405896309e+00	 7.997130743842726e+00
 8.134591113412190e-01	 1.736567672527593e+00	 7.873475763730996e+00
 7.970152901236971e-01	 1.744175900167400e+00	 7.748642065163773e+00
 7.805284673110319e-01	 1.751615885529449e+00	 7.623277880376953e+00
 7.640011323262307e-01	 1.758887472987801e+00	 7.498035006663417e+00
 7.474357684009997e-01	 1.765990554239164e+00	 7.373568581922163e+00
 7.308348514958384e-01	 1.772925067936260e+00	 7.250266312629959e+00
 7.142008492366281e-01	 1.779690999293017e+00	 7.127913769397509e+00
 6.975362198685205e-01	 1.786288379662271e+00	 7.007615467595362e+00
 6.808434112279056e-01	 1.792717286086765e+00	 6.890570869889093e+00
 6.641248597331929e-01	 1.798977840824205e+00	 6.777923358133214e+00
 8.349490498942687e-01	 1.739398453791639e+00	 8.026078832217250e+00
 8.184501124094812e-01	 1.747222431924189e+00	 7.903604643308377e+00
 8.019053996680851e-01	 1.754877340057366e+00	 7.780213668175136e+00
 7.853174214940342e-01	 1.762362973657602e+00	 7.656498999561961e+00
 7.686886825842723e-01	 1.769679176144102e+00	 7.533056377098710e+00
 7.520216814064559e-01	 1.776825838549055e+00	 7.410484013408121e+00
 7.353189091124215e-01	 1.783802899148774e+00	 7.289301329214496e+00
 7.185828484682498e-01	 1.790610343066452e+00	 7.169172090846740e+00
 7.018159728017367e-01	 1.797248201847274e+00	 7.050878446948305e+00
 6.850207449680522e-01	 1.803716553006666e+00	 6.935551532663228e+00
 6.681996163343316e-01	 1.810015519552439e+00	 6.824259389917062e+00
 8.400406373746230e-01	 1.750005447587452e+00	 8.054370715409867e+00
 8.234410880217928e-01	 1.757877136977895e+00	 7.933293920456623e+00
 8.067954842710855e-01	 1.765578725366338e+00	 7.811623010704631e+00
 7.901063512515739e-01	 1.773110006971933e+00	 7.689870797115218e+00
 7.733762089340573e-01	 1.780470824259026e+00	 7.568551306086114e+00
 7.566075710220594e-01	 1.787661067595299e+00	 7.448179699725205e+00
 7.398029438586736e-01	 1.794680674880653e+00	 7.329269356449704e+00
 7.229648253500979e-01	 1.801529631147544e+00	 7.211582067899794e+00
 7.060957039066916e-01	 1.808207968133511e+00	 7.095418866603863e+00
 6.891980574023246e-01	 1.814715763826659e+00	 6.981813736826551e+00
 6.722743521527770e-01	 1.821053141984895e+00	 6.871729946135125e+00
 6.315263358431070e-01	 1.710675134969586e+00	 6.449294107105869e+00
 6.156089468307369e-01	 1.716467490052076e+00	 6.333513075903543e+00
 5.996716815346901e-01	 1.722100169657433e+00	 6.218342226285788e+00
 5.837168167880008e-01	 1.727573414796458e+00	 6.104285242141172e+00
 5.677466149601248e-01	 1.732887507412866e+00	 5.991806248436824e+00
 5.517633230968413e-01	 1.738042769821685e+00	 5.881327094426027e+00
 5.357691720814975e-01	 1.743039564127802e+00	 5.773225250977806e+00
 5.197663758180630e-01	 1.747878291625503e+00	 5.667832306586157e+00
 5.037571304364127e-01	 1.752559392179855e+00	 5.565433044088145e+00
 4.877436135202395e-01	 1.757083343590808e+00	 5.466265077761725e+00
 4.717279833579465e-01	 1.761450660940855e+00	 5.370519028336197e+00
 6.356011755769997e-01	 1.721713038878267e+00	 6.485972474461057e+00
 6.195810817278249e-01	 1.727542768361778e+00	 6.369950409019484e+00
 6.035409833459083e-01	 1.733211792083319e+00	 6.255057364280724e+00
 5.874831719552458e-01	 1.738720352608795e+00	 6.141708376594918e+00
 5.714099245229278e-01	 1.744068733701138e+00	 6.030272838770633e+00
 5.553235025934961e-01	 1.749257259755087e+00	 5.921071914923979e+00
 5.392261514447748e-01	 1.754286295211976e+00	 5.814376594606976e+00
 5.231200992656517e-01	 1.759156243955404e+00	 5.710406369688325e+00
 5.070075563562360e-01	 1.763867548688623e+00	 5.609328514842847e+00
 4.908907143507876e-01	 1.768420690294536e+00	 5.511257950085310e+00
 4.747717454637773e-01	 1.772816187179151e+00	 5.416257661574070e+00
 6.396760130012635e-01	 1.732750936532453e+00	 6.524010793828603e+00
 6.235532143735432e-01	 1.738618040395801e+00	 6.408218645028805e+00
 6.074102829641086e-01	 1.744323408212913e+00	 6.293906406109163e+00
 5.912495249879007e-01	 1.749867284104799e+00	 6.181429574606655e+00
 5.750732320096330e-01	 1.755249953653613e+00	 6.071092210263275e+00
 5.588836800725940e-01	 1.760471743333804e+00	 5.963144436964160e+00
 5.426831288490710e-01	 1.765533019923157e+00	 5.857780610117064e+00
 5.264738208128561e-01	 1.770434189894584e+00	 5.755138131902112e+00
 5.102579804342791e-01	 1.775175698789524e+00	 5.655296894104438e+00
 4.940378133981540e-01	 1.779758030573835e+00	 5.558279325756885e+00
 4.778155058450043e-01	 1.784181706977044e+00	 5.464051020528898e+00
 6.437508458067654e-01	 1.743788821676984e+00	 6.563344850994610e+00
 6.275253425169530e-01	 1.749693299877816e+00	 6.448157376104821e+00
 6.112795781966138e-01	 1.755435011749296e+00	 6.334648226187106e+00
 5.950158737516138e-01	 1.761014202967548e+00	 6.223141920527063e+00
 5.787365353442666e-01	 1.766431160933948e+00	 6.113906026060368e+00
 5.624438535165888e-01	 1.771686214202656e+00	 6.007148702407081e+00
 5.461401023353069e-01	 1.776779731887904e+00	 5.903016939536640e+00
 5.298275385590989e-01	 1.781712123051919e+00	 5.801595469473914e+00
 5.135084008284940e-01	 1.786483836074326e+00	 5.702906330652774e+00
 4.971849088788394e-01	 1.791095358003939e+00	 5.606909060950349e+00
 4.808592627766917e-01	 1.795547213893798e+00	 5.513501493081174e+00
 6.478256716843726e-01	 1.754826688056700e+00	 6.603920701791969e+00
 6.314974639071149e-01	 1.760768540531484e+00	 6.489617705154420e+00
 6.151488668507475e-01	 1.766546596395548e+00	 6.377054121574719e+00
 5.987822161120323e-01	 1.772161102880122e+00	 6.266551519213939e+00
 5.823998324508561e-01	 1.777612349205803e+00	 6.158369268398886e+00
 5.660040209079333e-01	 1.782900666006461e+00	 6.052702086311846e+00
 5.495970699444043e-01	 1.788026424732776e+00	 5.949678302541425e+00
 5.331812506038038e-01	 1.792990037036285e+00	 5.849358825917995e+00
 5.167588156968331e-01	 1.797791954134799e+00	 5.751736790155403e+00
 5.003319990093450e-01	 1.802432666160078e+00	 5.656737853168895e+00
 4.839030145339031e-01	 1.806912701488678e+00	 5.564221122506837e+00
 6.519004883249518e-01	 1.765864529416441e+00	 6.645694685758267e+00
 6.354695762930893e-01	 1.771843756080475e+00	 6.532462197577428e+00
 6.190181467338323e-01	 1.777658155854749e+00	 6.420907713125691e+00
 6.025485499348041e-01	 1.783307977525597e+00	 6.311377357406421e+00
 5.860631212534275e-01	 1.788793512132835e+00	 6.204150070579871e+00
 5.695641802290812e-01	 1.794115092390038e+00	 6.099435109413294e+00
 5.530540297172848e-01	 1.799273092084333e+00	 5.997370298877781e+00
 5.365349550463939e-01	 1.804267925456561e+00	 5.898021013353052e+00
 5.200092231972481e-01	 1.809100046562708e+00	 5.801379863914240e+00
 5.034790820061724e-01	 1.813769948617484e+00	 5.707367065419367e+00
 4.869467593917029e-01	 1.818278163320946e+00	 5.615831454613938e+00
 6.559752934193703e-01	 1.776902339501046e+00	 6.688633439205452e+00
 6.394416774239364e-01	 1.782918940248454e+00	 6.576564834663649e+00
 6.228874156531916e-01	 1.788769683829977e+00	 6.466004850089049e+00
 6.063148730855762e-01	 1.794454820587051e+00	 6.357351169966885e+00
 5.897263996760077e-01	 1.799974643378703e+00	 6.250929554844841e+00
 5.731243294624870e-01	 1.805329486998209e+00	 6.146991257183123e+00
 5.565109796948695e-01	 1.810519727569134e+00	 6.045711217701312e+00
 5.398886499862922e-01	 1.815545781921620e+00	 5.947187020762192e+00
 5.232596214876910e-01	 1.820408106949822e+00	 5.851438584229801e+00
 5.066261560858226e-01	 1.825107198951387e+00	 5.758408556403614e+00
 4.899904956251547e-01	 1.829643592949868e+00	 5.667963390027878e+00
 6.600500846584950e-01	 1.787940112055354e+00	 6.732713907723073e+00
 6.434137650487181e-01	 1.793994086759089e+00	 6.621810968551697e+00
 6.267566714161485e-01	 1.799881174024314e+00	 6.512153518006901e+00
 6.100811834299964e-01	 1.805601625747560e+00	 6.404217310777286e+00
 5.933896656426241e-01	 1.811155736607063e+00	 6.298401675904037e+00
 5.766844665906040e-01	 1.816543843475793e+00	 6.195026805186857e+00
 5.599679179180802e-01	 1.821766324813741e+00	 6.094331853531781e+00
 5.432423335229216e-01	 1.826823600040341e+00	 5.996473828871685e+00
 5.265100087261140e-01	 1.831716128887908e+00	 5.901527246094048e+00
 5.097732194647965e-01	 1.836444410737018e+00	 5.809484516471691e+00
 4.930342215093226e-01	 1.841008983934707e+00	 5.720257041404647e+00
 6.641248597331929e-01	 1.798977840824205e+00	 6.777923358133214e+00
 6.473858369164937e-01	 1.805069189336045e+00	 6.668097278680568e+00
 6.306259118300268e-01	 1.810992620140839e+00	 6.559173749764671e+00
 6.138474788337120e-01	 1.816748386690203e+00	 6.451732628087276e+00
 5.970529170773023e-01	 1.822336785481575e+00	 6.346273069863909e+00
 5.802445895958854e-01	 1.827758155467607e+00	 6.243210650464396e+00
 5.634248424278380e-01	 1.833012877444711e+00	 6.142875328535866e+00
 5.465960037557064e-01	 1.838101373421600e+00	 6.045510231366676e+00
 5.297603830704691e-01	 1.843024105968736e+00	 5.951271234940021e+00
 5.129202703595956e-01	 1.847781577549610e+00	 5.860227309085597e+00
 4.960779353192702e-01	 1.852374329834726e+00	 5.772359047953272e+00
 6.681996163343316e-01	 1.810015519552439e+00	 6.824259389917069e+00
 6.513578907763246e-01	 1.816144241702991e+00	 6.715331729664003e+00
 6.344951347021485e-01	 1.822104015882630e+00	 6.606897539658250e+00
 6.176137571623712e-01	 1.827895097098059e+00	 6.499666344119921e+00
 6.007161519040695e-01	 1.833517783665896e+00	 6.394262908328237e+00
 5.838046964607855e-01	 1.838972416618472e+00	 6.291224148675970e+00
 5.668817512650650e-01	 1.844259379088606e+00	 6.190996920866894e+00
 5.499496587840688e-01	 1.849379095674273e+00	 6.093936662166126e+00
 5.330107426787083e-01	 1.854332031784073e+00	 6.000287946935215e+00
 5.160673069867211e-01	 1.859118692964392e+00	 5.909932817717435e+00
 4.991216353300618e-01	 1.863739624209190e+00	 5.822516190592388e+00
 6.722743521527770e-01	 1.821053141984895e+00	 6.871729946135125e+00
 6.553299243772712e-01	 1.827219237583592e+00	 6.763433530527976e+00
 6.383643378398380e-01	 1.833215354952771e+00	 6.655168760343811e+00
 6.213800162816212e-01	 1.839041750654204e+00	 6.547799938754832e+00
 6.043793680469526e-01	 1.844698724823686e+00	 6.442102757447318e+00
 5.873647851677576e-01	 1.850186620573209e+00	 6.338760956766649e+00
 5.703386424706818e-01	 1.855505823371984e+00	 6.238420494789668e+00
 5.533032967074321e-01	 1.860656760407238e+00	 6.141473710456473e+00
 5.362610857087838e-01	 1.865639899925688e+00	 6.047795598349627e+00
 5.192143275626742e-01	 1.870455750556598e+00	 5.957206277227222e+00
 5.021653198167613e-01	 1.875104860617363e+00	 5.869497143927484e+00
 4.717279833579465e-01	 1.761450660940855e+00	 5.370519028336197e+00
 4.557123784353697e-01	 1.765661896309813e+00	 5.277421227142521e+00
 4.396989173687552e-01	 1.769717639236662e+00	 5.186122087037700e+00
 4.236896975353276e-01	 1.773618514868042e+00	 5.096631389095970e+00
 4.076867941956385e-01	 1.777365182863502e+00	 5.008917936345618e+00
 3.916922598638465e-01	 1.780958336672210e+00	 4.922912126256114e+00
 3.757081237024623e-01	 1.784398702798519e+00	 4.838508889721216e+00
 3.597363909416780e-01	 1.787687040057288e+00	 4.755644347663135e+00
 3.437790423233613e-01	 1.790824138819805e+00	 4.675053424476101e+00
 3.278380335697721e-01	 1.793810820251175e+00	 4.597942406344782e+00
 3.119152948770174e-01	 1.796647935540022e+00	 4.525461742828022e+00
 4.747717454637773e-01	 1.772816187179151e+00	 5.416257661574070e+00
 4.586528019793342e-01	 1.777054594984514e+00	 5.323471237326697e+00
 4.425360161837940e-01	 1.781136507053520e+00	 5.232129357254016e+00
 4.264234989874279e-01	 1.785062552566464e+00	 5.142352553349768e+00
 4.103173390411306e-01	 1.788833395439250e+00	 5.054216916020469e+00
 3.942196021026348e-01	 1.792449733595414e+00	 4.967756656399988e+00
 3.781323304273522e-01	 1.795912298226969e+00	 4.882967053484546e+00
 3.620575421839555e-01	 1.799221853044912e+00	 4.799840204211741e+00
 3.459972308947860e-01	 1.802379193520280e+00	 4.719031162626479e+00
 3.299533649011407e-01	 1.805385146116623e+00	 4.641807542650618e+00
 3.139278868534603e-01	 1.808240567514731e+00	 4.569390206085375e+00
 4.778155058450043e-01	 1.784181706977044e+00	 5.464051020528898e+00
 4.615932238572422e-01	 1.788447287203425e+00	 5.371724997532683e+00
 4.453731133912872e-01	 1.792555368399776e+00	 5.280631831117820e+00
 4.291572988904560e-01	 1.796506583780050e+00	 5.190984055050120e+00
 4.129478823959827e-01	 1.800301601516492e+00	 5.102946086269633e+00
 3.967469429091716e-01	 1.803941124007006e+00	 5.016636807195458e+00
 3.805565357783333e-01	 1.807425887131256e+00	 4.932132551155210e+00
 3.643786921106186e-01	 1.810756659496367e+00	 4.849481092684728e+00
 3.482154182088398e-01	 1.813934241673121e+00	 4.769237929029408e+00
 3.320686950333289e-01	 1.816959465423504e+00	 4.692689434231105e+00
 3.159404776888579e-01	 1.819833192920468e+00	 4.621100549632304e+00
 4.808592627766917e-01	 1.795547213893798e+00	 5.513501493081174e+00
 4.645336424027267e-01	 1.799839966510405e+00	 5.421810890673932e+00
 4.482102073834358e-01	 1.803974216804461e+00	 5.331280619833722e+00
 4.318910956951687e-01	 1.807950602023558e+00	 5.242196794522728e+00
 4.155784227694881e-01	 1.811769794596281e+00	 5.154793520472847e+00
 3.992742808512595e-01	 1.815432501394892e+00	 5.069255527592253e+00
 3.829807383816805e-01	 1.818939462986697e+00	 4.985721223801406e+00
 3.666998394063692e-01	 1.822291452874942e+00	 4.904287893483682e+00
 3.504336030085984e-01	 1.825489276730145e+00	 4.825405006122515e+00
 3.341840227677246e-01	 1.828533771612719e+00	 4.750331347671152e+00
 3.179530662428400e-01	 1.831425805187769e+00	 4.680349568158020e+00
 4.839030145339031e-01	 1.806912701488678e+00	 5.564221122506837e+00
 4.674740559494209e-01	 1.811232626449321e+00	 5.473365743178006e+00
 4.510472965524400e-01	 1.815393045796600e+00	 5.383734208571714e+00
 4.346248878523230e-01	 1.819394600811747e+00	 5.295668109347053e+00
 4.182089586709415e-01	 1.823237968179668e+00	 5.209452915842101e+00
 4.018016144967014e-01	 1.826923859246977e+00	 5.125320690648234e+00
 3.854049368636686e-01	 1.830453019268610e+00	 5.043453240946209e+00
 3.690209827559097e-01	 1.833826226643928e+00	 4.963985623037106e+00
 3.526517840371378e-01	 1.837044292143171e+00	 4.887266595556785e+00
 3.362993469057154e-01	 1.840108058125170e+00	 4.814478460759322e+00
 3.199656513750367e-01	 1.843018397747167e+00	 4.746895150977648e+00
 4.869467593917029e-01	 1.818278163320946e+00	 5.615831454613938e+00
 4.704144628309583e-01	 1.822625260564037e+00	 5.526034696841807e+00
 4.538843792905004e-01	 1.826811848905225e+00	 5.437658349508844e+00
 4.373586738126761e-01	 1.830838573659373e+00	 5.351081685326244e+00
 4.208394886096365e-01	 1.834706115767703e+00	 5.266623519323014e+00
 4.043289424133000e-01	 1.838415191051165e+00	 5.184545031637888e+00
 3.878291298505730e-01	 1.841966549452316e+00	 5.105053048422671e+00
 3.713421208439417e-01	 1.845360974266615e+00	 5.028303742414369e+00
 3.548699600375334e-01	 1.848599281364017e+00	 4.954559957118567e+00
 3.384146662486890e-01	 1.851682318401755e+00	 4.884877982465171e+00
 3.219782319450786e-01	 1.854610964029197e+00	 4.820167532618661e+00
 4.899904956251547e-01	 1.829643592949868e+00	 5.667963390027878e+00
 4.733548613809718e-01	 1.834017862398414e+00	 5.579471084905020e+00
 4.567214539898173e-01	 1.838230619659364e+00	 5.492725958298688e+00
 4.400924520269844e-01	 1.842282514081196e+00	 5.408127470212096e+00
 4.234700110948667e-01	 1.846174230861437e+00	 5.326010055702524e+00
 4.068562631688585e-01	 1.849906490295360e+00	 5.246646087916942e+00
 3.902533159686681e-01	 1.853480047013132e+00	 5.170168413588639e+00
 3.736632523551676e-01	 1.856895689206295e+00	 5.096100126786760e+00
 3.570881297528612e-01	 1.860154237844501e+00	 5.024419235020745e+00
 3.405299795980337e-01	 1.863256545883375e+00	 4.955960644821219e+00
 3.239908068125952e-01	 1.866203497464394e+00	 4.891892867930084e+00
 4.930342215093226e-01	 1.841008983934707e+00	 5.720257041404647e+00
 4.762952499330946e-01	 1.845410425496316e+00	 5.633336312159994e+00
 4.595585190425912e-01	 1.849649351588045e+00	 5.548617013814498e+00
 4.428262209460052e-01	 1.853726415591975e+00	 5.466428896403001e+00
 4.261005246359265e-01	 1.857642306961922e+00	 5.386500320964956e+00
 4.093835753311790e-01	 1.861397750467469e+00	 5.308799915143869e+00
 3.926774938442295e-01	 1.864993505426376e+00	 5.233376632496959e+00
 3.759843759742892e-01	 1.868430364926256e+00	 5.160271565555160e+00
 3.593062919261969e-01	 1.871709155036443e+00	 5.089558396465458e+00
 3.426452857551368e-01	 1.874830734010930e+00	 5.021935759106548e+00
 3.260033748372170e-01	 1.877795991483292e+00	 4.958544031923104e+00
 4.960779353192702e-01	 1.852374329834726e+00	 5.772359047953272e+00
 4.792356268209600e-01	 1.856802943401607e+00	 5.686958727752497e+00
 4.623955728410227e-01	 1.861068038220298e+00	 5.603539028780966e+00
 4.455599790204955e-01	 1.865170271706468e+00	 5.522205412135568e+00
 4.287310277421095e-01	 1.869110337570206e+00	 5.443047984799674e+00
 4.119108774680645e-01	 1.872888965055395e+00	 5.366143718029255e+00
 3.951016621035315e-01	 1.876506918167368e+00	 5.291558474578379e+00
 3.783054903860089e-01	 1.879964994889792e+00	 5.219348871565201e+00
 3.615244453006163e-01	 1.883264026391660e+00	 5.149577647476224e+00
 3.447605835213865e-01	 1.886404876225322e+00	 5.082798574275420e+00
 3.280159348785739e-01	 1.889388439516424e+00	 5.020099266725296e+00
 4.991216353300618e-01	 1.863739624209190e+00	 5.822516190592388e+00
 4.821759903782011e-01	 1.868195409658150e+00	 5.737427369833999e+00
 4.652326137773123e-01	 1.872486673085151e+00	 5.654390478498764e+00
 4.482937247012122e-01	 1.876614075939431e+00	 5.573517440346350e+00
 4.313615189227100e-01	 1.880578316187343e+00	 5.494903856099810e+00
 4.144381681473179e-01	 1.884380127547044e+00	 5.418631088447840e+00
 3.975258193728497e-01	 1.888020278711427e+00	 5.344768150018706e+00
 3.806265942750287e-01	 1.891499572560190e+00	 5.273373422771508e+00
 3.637425886191952e-01	 1.894818845361971e+00	 5.204498291819290e+00
 3.468758716981703e-01	 1.897978965967451e+00	 5.138551669243208e+00
 3.300284857962963e-01	 1.900980834994326e+00	 5.076542109982383e+00
 5.021653198167613e-01	 1.875104860617363e+00	 5.869497143927484e+00
 4.851163389384512e-01	 1.879587817809810e+00	 5.784224125243319e+00
 4.680696402436603e-01	 1.883905249711631e+00	 5.701174684359925e+00
 4.510274564389124e-01	 1.888057821805625e+00	 5.620453887803849e+00
 4.339919966870219e-01	 1.892046236314383e+00	 5.542149481161517e+00
 4.169654459367423e-01	 1.895871231430321e+00	 5.466333851135123e+00
 3.999499642784590e-01	 1.899533580533871e+00	 5.393065784062195e+00
 3.829476863260505e-01	 1.903034091400742e+00	 5.322392051043771e+00
 3.659607206250092e-01	 1.906373605399194e+00	 5.254347520919479e+00
 3.489911490868764e-01	 1.909552996678217e+00	 5.189203175012329e+00
 3.320410264500140e-01	 1.912573171347531e+00	 5.127861331649049e+00
 3.119152948770174e-01	 1.796647935540022e+00	 4.525461742828022e+00
 2.960100293561413e-01	 1.799336809367684e+00	 4.457595869948477e+00
 2.801268277877987e-01	 1.801877854955257e+00	 4.393640414429077e+00
 2.642675460206290e-01	 1.804272008042861e+00	 4.333602305507016e+00
 2.484340124920141e-01	 1.806520231291444e+00	 4.277457247874519e+00
 2.326280278439488e-01	 1.808623513485171e+00	 4.225159423785271e+00
 2.168513645632824e-01	 1.810582868731020e+00	 4.176651776068584e+00
 2.011057666461548e-01	 1.812399335656343e+00	 4.131876707027446e+00
 1.853929492864271e-01	 1.814073976605143e+00	 4.090787034092704e+00
 1.697145985878835e-01	 1.815607876833829e+00	 4.053357049720255e+00
 1.540723712999572e-01	 1.817002143707124e+00	 4.019593540277700e+00
 3.139278868534603e-01	 1.808240567514731e+00	 4.569390206085375e+00
 2.979199947209699e-01	 1.810946790943263e+00	 4.501756639372147e+00
 2.819343089057315e-01	 1.813504232289579e+00	 4.438155847123011e+00
 2.659726972310094e-01	 1.815913833331557e+00	 4.378593701051527e+00
 2.500369999319414e-01	 1.818176562941601e+00	 4.323039227792561e+00
 2.341290292689325e-01	 1.820293416283891e+00	 4.271435431033821e+00
 2.182505691655750e-01	 1.822265414008812e+00	 4.223710705253716e+00
 2.024033748709187e-01	 1.824093601445333e+00	 4.179790668050085e+00
 1.865891726458920e-01	 1.825779047792110e+00	 4.139610244245397e+00
 1.708096594736464e-01	 1.827322845308037e+00	 4.103125841930810e+00
 1.550665027935773e-01	 1.828726108502976e+00	 4.070327468235704e+00
 3.159404776888579e-01	 1.819833192920468e+00	 4.621100549632304e+00
 2.998299590028389e-01	 1.822556765939984e+00	 4.554419285036522e+00
 2.837417889987264e-01	 1.825130603035680e+00	 4.491838651806331e+00
 2.676778474744006e-01	 1.827555652023189e+00	 4.433356627658549e+00
 2.516399864627489e-01	 1.829832887986371e+00	 4.378928361894141e+00
 2.356300298425797e-01	 1.831963312469425e+00	 4.328478177669851e+00
 2.196497729742208e-01	 1.833947952666138e+00	 4.281912176608949e+00
 2.037009823596254e-01	 1.835787860607103e+00	 4.239131264435176e+00
 1.877853953267826e-01	 1.837484112345622e+00	 4.200044422863731e+00
 1.719047197382048e-01	 1.839037807143078e+00	 4.164582060308265e+00
 1.560606337232426e-01	 1.840450066654472e+00	 4.132709281980278e+00
 3.179530662428400e-01	 1.831425805187769e+00	 4.680349568158027e+00
 3.017399211195534e-01	 1.834166727778565e+00	 4.615356199351498e+00
 2.855492670426778e-01	 1.836756960605004e+00	 4.554479127164882e+00
 2.693829957846961e-01	 1.839197457520465e+00	 4.497701112761563e+00
 2.532429711762312e-01	 1.841489199820270e+00	 4.444955731349072e+00
 2.371310287144812e-01	 1.843633195428620e+00	 4.396140616759293e+00
 2.210489751964965e-01	 1.845630478082710e+00	 4.351131319105051e+00
 2.049985883771209e-01	 1.847482106514744e+00	 4.309795585617761e+00
 1.889816166513908e-01	 1.849189163632670e+00	 4.272007881642712e+00
 1.729997787611668e-01	 1.850752755700354e+00	 4.237663976484633e+00
 1.570547635257428e-01	 1.852174011517927e+00	 4.206690794247613e+00
 3.199656513750367e-01	 1.843018397747167e+00	 4.746895150977663e+00
 3.036498799889183e-01	 1.845776669879722e+00	 4.684340211774247e+00
 2.873567420134806e-01	 1.848383298408991e+00	 4.625867484536574e+00
 2.710881411957893e-01	 1.850839243226099e+00	 4.571436696882458e+00
 2.548459531641826e-01	 1.853145491837809e+00	 4.520866833995847e+00
 2.386320250342281e-01	 1.855303058548327e+00	 4.473634028417977e+00
 2.224481750396793e-01	 1.857312983638237e+00	 4.429594844849111e+00
 2.062961921882510e-01	 1.859176332541350e+00	 4.388672453002672e+00
 1.901778359420083e-01	 1.860894195020248e+00	 4.350810756764073e+00
 1.740948359221410e-01	 1.862467684341267e+00	 4.315984671915421e+00
 1.580488916378680e-01	 1.863897936449663e+00	 4.284210118512655e+00
 3.219782319450786e-01	 1.854610964029197e+00	 4.820167532618661e+00
 3.055598345287380e-01	 1.857386585664170e+00	 4.759725097389089e+00
 2.891642128870295e-01	 1.860009609859086e+00	 4.702538565844517e+00
 2.727932827415739e-01	 1.862481002542800e+00	 4.648594449609906e+00
 2.564489315183975e-01	 1.864801757433504e+00	 4.597852614271444e+00
 2.401330179514115e-01	 1.866972895215394e+00	 4.550257807617088e+00
 2.238473717110462e-01	 1.868995462712429e+00	 4.505750837045345e+00
 2.075937930578618e-01	 1.870870532060013e+00	 4.464279415743774e+00
 1.913740525209268e-01	 1.872599199875346e+00	 4.425808696548851e+00
 1.751898906007358e-01	 1.874182586427219e+00	 4.390331511537859e+00
 1.590430174964080e-01	 1.875621834805996e+00	 4.357878334362139e+00
 3.239908068125952e-01	 1.866203497464394e+00	 4.891892867930084e+00
 3.074697836568172e-01	 1.868996468552627e+00	 4.831874693674275e+00
 2.909716786392192e-01	 1.871635888366731e+00	 4.774879816075914e+00
 2.744984194559432e-01	 1.874122728873277e+00	 4.720935293820607e+00
 2.580519053306704e-01	 1.876457990001869e+00	 4.670038337771189e+00
 2.416340066156224e-01	 1.878642698816670e+00	 4.622167768443379e+00
 2.252465644178741e-01	 1.880677908684997e+00	 4.577295124858659e+00
 2.088913902507991e-01	 1.882564698443827e+00	 4.535395446157348e+00
 1.925702657104382e-01	 1.884304171564957e+00	 4.496457746580745e+00
 1.762849421765594e-01	 1.885897455319613e+00	 4.460495203447609e+00
 1.600371405381526e-01	 1.887345699943246e+00	 4.427555076604878e+00
 3.260033748372170e-01	 1.877795991483292e+00	 4.958544031923104e+00
 3.093797262909608e-01	 1.880606311965805e+00	 4.898985795830835e+00
 2.927791382459448e-01	 1.883262127343371e+00	 4.842222886876334e+00
 2.762035503727909e-01	 1.885764415620243e+00	 4.788326294847209e+00
 2.596548736927958e-01	 1.888114182937418e+00	 4.737333850132421e+00
 2.431349901764520e-01	 1.890312462739003e+00	 4.689261594512352e+00
 2.266457523674400e-01	 1.892360314935651e+00	 4.644114805885211e+00
 2.101889830319090e-01	 1.894258825065884e+00	 4.601898700187571e+00
 1.937664748328342e-01	 1.896009103456072e+00	 4.562628832886212e+00
 1.773799900292205e-01	 1.897612284379852e+00	 4.526341221319475e+00
 1.610312601998917e-01	 1.899069525217733e+00	 4.493102207900789e+00
 3.280159348785739e-01	 1.889388439516424e+00	 5.020099266725296e+00
 3.112896613489733e-01	 1.892216109324424e+00	 4.961018527574944e+00
 2.945865906831004e-01	 1.894888320200445e+00	 4.904511079034763e+00
 2.779086745260103e-01	 1.897406056186406e+00	 4.850695297548516e+00
 2.612578356965680e-01	 1.899770329634666e+00	 4.799652980113652e+00
 2.446359677834911e-01	 1.901982180369245e+00	 4.751440611870025e+00
 2.280449347670211e-01	 1.904042674844103e+00	 4.706100290545025e+00
 2.114865706660373e-01	 1.905952905299278e+00	 4.663670332976587e+00
 1.949626792104066e-01	 1.907713988915684e+00	 4.624195587933854e+00
 1.784750335383273e-01	 1.909327066969337e+00	 4.587737478249858e+00
 1.620253759184152e-01	 1.910793303985774e+00	 4.554383793879488e+00
 3.300284857962963e-01	 1.900980834994326e+00	 5.076542109982382e+00
 3.131995877486596e-01	 1.903825854049197e+00	 5.017937980010194e+00
 2.963940349265812e-01	 1.906514460349399e+00	 4.961692323331405e+00
 2.796137909494950e-01	 1.909047643974478e+00	 4.907974434900389e+00
 2.628607904337816e-01	 1.911426423488125e+00	 4.856913503077235e+00
 2.461369385863311e-01	 1.913651845094242e+00	 4.808609756889295e+00
 2.294441108238941e-01	 1.915724981790061e+00	 4.763145273442630e+00
 2.127841524180303e-01	 1.917646932517100e+00	 4.720594472745178e+00
 1.961588781654470e-01	 1.919418821310783e+00	 4.681034326099955e+00
 1.795700720834882e-01	 1.921041796449470e+00	 4.644554302886810e+00
 1.630194871305129e-01	 1.922517029603688e+00	 4.611266079025028e+00
 3.320410264500140e-01	 1.912573171347531e+00	 5.127861331649042e+00
 3.151095044078245e-01	 1.915435539560843e+00	 5.069714156658696e+00
 2.982014699522818e-01	 1.918140541201675e+00	 5.013719132846290e+00
 2.813188986771387e-01	 1.920689172387171e+00	 4.960100086623237e+00
 2.644637369962311e-01	 1.923082457892312e+00	 4.909037104980431e+00
 2.476379017345631e-01	 1.925321450300846e+00	 4.860677544679130e+00
 2.308432797453361e-01	 1.927407229153235e+00	 4.815146705252033e+00
 2.140817275527335e-01	 1.929340900092446e+00	 4.772558195226085e+00
 1.973550710202475e-01	 1.931123594008364e+00	 4.733024019732766e+00
 1.806651050443117e-01	 1.932756466181655e+00	 4.696664416217708e+00
 1.640135932729747e-01	 1.934240695427795e+00	 4.663617463294188e+00
 1.540723712999572e-01	 1.817002143707124e+00	 4.019593540277692e+00
 1.384705376296464e-01	 1.818257704089375e+00	 3.989459976631214e+00
 1.229080018404906e-01	 1.819375955117709e+00	 3.962789351323973e+00
 1.073862949837781e-01	 1.820358064708441e+00	 3.939491241196269e+00
 9.190691891806659e-02	 1.821205219656762e+00	 3.919551468627472e+00
 7.647134615334115e-02	 1.821918624855489e+00	 3.903041305614148e+00
 6.108101971605030e-02	 1.822499502517503e+00	 3.890125935981428e+00
 4.573735303467397e-02	 1.822949091402470e+00	 3.881072093124619e+00
 3.044172984546216e-02	 1.823268646048397e+00	 3.876254800335665e+00
 1.519550411796986e-02	 1.823459436008580e+00	 3.876163150436851e+00
 0.000000000000000e+00	 1.823522745094442e+00	 3.881405070763571e+00
 1.550665027935773e-01	 1.828726108502976e+00	 4.070327468235696e+00
 1.393640003656280e-01	 1.829989770221755e+00	 4.041152016704004e+00
 1.237010493832296e-01	 1.831115236616327e+00	 4.015415320620986e+00
 1.080791907765566e-01	 1.832103683138815e+00	 3.993028377432609e+00
 9.249993609469094e-02	 1.832956304242033e+00	 3.973983311412044e+00
 7.696476734877444e-02	 1.833674312593190e+00	 3.958363484848390e+00
 6.147513687617386e-02	 1.834258938291317e+00	 3.946352815882793e+00
 4.603246722531085e-02	 1.834711428088995e+00	 3.938244216508459e+00
 3.063815106079213e-02	 1.835033044618957e+00	 3.934447074365392e+00
 1.529355108846397e-02	 1.835225065626103e+00	 3.935493712076007e+00
 0.000000000000000e+00	 1.835288783205465e+00	 3.942044767606114e+00
 1.560606337232426e-01	 1.840450066654472e+00	 4.132709281980278e+00
 1.402574625947682e-01	 1.841721829705106e+00	 4.104325856968670e+00
 1.244940964761051e-01	 1.842854511461763e+00	 4.079217136926333e+00
 1.087720861763046e-01	 1.843849294912362e+00	 4.057283502811877e+00
 9.309295293496402e-02	 1.844707382167337e+00	 4.038511612429030e+00
 7.745818826437267e-02	 1.845429993668283e+00	 4.022985471020702e+00
 6.186925381280697e-02	 1.846018367400374e+00	 4.010896654602874e+00
 4.632758124862148e-02	 1.846473758109103e+00	 4.002553595532897e+00
 3.083457216477120e-02	 1.846797436521919e+00	 3.998389850394173e+00
 1.539159800338532e-02	 1.846990688575325e+00	 3.998971280856148e+00
 0.000000000000000e+00	 1.847054814647955e+00	 4.005002088340269e+00
 1.570547635257428e-01	 1.852174011517927e+00	 4.206690794247621e+00
 1.411509238108878e-01	 1.853453875891167e+00	 4.178820610065355e+00
 1.252871426698230e-01	 1.854593773001668e+00	 4.153797655657940e+00
 1.094649807904631e-01	 1.855594893373146e+00	 4.131570085302802e+00
 9.368596910290647e-02	 1.856458446773637e+00	 4.112169605090755e+00
 7.795160862057686e-02	 1.857185661419117e+00	 4.095720477938507e+00
 6.226337030264703e-02	 1.857777783180897e+00	 4.082448290573748e+00
 4.662269493739159e-02	 1.858236074797366e+00	 4.072688488452134e+00
 3.103099304610094e-02	 1.858561815090684e+00	 4.066894683195672e+00
 1.548964480717494e-02	 1.858756298188947e+00	 4.065646735764574e+00
 0.000000000000000e+00	 1.858820832754377e+00	 4.069658616835923e+00
 1.580488916378680e-01	 1.863897936449663e+00	 4.284210118512640e+00
 1.420443835078076e-01	 1.865185902131675e+00	 4.255404739815313e+00
 1.260801875150896e-01	 1.866333014583699e+00	 4.229369201174412e+00
 1.101578742264728e-01	 1.867340471865230e+00	 4.206050669188339e+00
 9.427898426253890e-02	 1.868209491401899e+00	 4.185476616955184e+00
 7.844502813782799e-02	 1.868941309184048e+00	 4.167763872561113e+00
 6.265748612239150e-02	 1.869537178969109e+00	 4.153127442461267e+00
 4.691780812440681e-02	 1.869998371488359e+00	 4.141889116221646e+00
 3.122741359348300e-02	 1.870326173658654e+00	 4.134485857590096e+00
 1.558769144427389e-02	 1.870521887799667e+00	 4.131477985379421e+00
 0.000000000000000e+00	 1.870586830857200e+00	 4.133557145743323e+00
 1.590430174964080e-01	 1.875621834805996e+00	 4.357878334362139e+00
 1.429378411793484e-01	 1.876917901778367e+00	 4.328356454679970e+00
 1.268732305626107e-01	 1.878072229555507e+00	 4.301547358030108e+00
 1.108507660917746e-01	 1.879086023732677e+00	 4.277394758698799e+00
 9.487199807788203e-02	 1.879960509393085e+00	 4.255919256736624e+00
 7.893844653656704e-02	 1.880696930301424e+00	 4.237227425069022e+00
 6.305160104873779e-02	 1.881296548101231e+00	 4.221520685151731e+00
 4.721292064245292e-02	 1.881760641516656e+00	 4.209103978173745e+00
 3.142383369561900e-02	 1.882090505559228e+00	 4.200394237179294e+00
 1.568573785912321e-02	 1.882287450740185e+00	 4.195928663873329e+00
 0.000000000000000e+00	 1.882352802288888e+00	 4.196372811820307e+00
 1.600371405381526e-01	 1.887345699943246e+00	 4.427555076604878e+00
 1.438312963193311e-01	 1.888649868182980e+00	 4.397533914640097e+00
 1.276662713630924e-01	 1.889811411264746e+00	 4.370190848044808e+00
 1.115436559938092e-01	 1.890831542319550e+00	 4.345463798850161e+00
 9.546501021295645e-02	 1.891711494088160e+00	 4.323363973960568e+00
 7.943186353723493e-02	 1.892452518109599e+00	 4.303984985589176e+00
 6.344571485838330e-02	 1.893055883913489e+00	 4.287511774653408e+00
 4.750803232431557e-02	 1.893522878216829e+00	 4.274229344683739e+00
 3.162025324121054e-02	 1.893854804125807e+00	 4.264531312051730e+00
 1.578378399616397e-02	 1.894052980343201e+00	 4.258928276579184e+00
 0.000000000000000e+00	 1.894118740381910e+00	 4.258056014376587e+00
 1.610312601998917e-01	 1.899069525217733e+00	 4.493102207900789e+00
 1.447247484215765e-01	 1.900381794697252e+00	 4.462797306866450e+00
 1.284593094672407e-01	 1.901550553059069e+00	 4.435160257616308e+00
 1.122365435400176e-01	 1.902577020969912e+00	 4.410120977451907e+00
 9.605802033178278e-02	 1.903462438828087e+00	 4.387678882704049e+00
 7.992527886027267e-02	 1.904208065946923e+00	 4.367912036749347e+00
 6.383982732802548e-02	 1.904815179742103e+00	 4.350986116178337e+00
 4.780314300278052e-02	 1.905285074923452e+00	 4.337163203260709e+00
 3.181667211895926e-02	 1.905619062691791e+00	 4.326810410963843e+00
 1.588182979983720e-02	 1.905818469941414e+00	 4.320408344902654e+00
 0.000000000000000e+00	 1.905884638468732e+00	 4.318559404225295e+00
 1.620253759184152e-01	 1.910793303985774e+00	 4.554383793879488e+00
 1.456181969799053e-01	 1.912113674672920e+00	 4.524008819624162e+00
 1.292523444257616e-01	 1.913289648286128e+00	 4.496318009595498e+00
 1.129294283378406e-01	 1.914322453027829e+00	 4.471231194206661e+00
 9.665102809838172e-02	 1.915213336953832e+00	 4.448733727249009e+00
 8.041869222612129e-02	 1.915963567151750e+00	 4.428885655277833e+00
 6.423393823436183e-02	 1.916574428923298e+00	 4.411830721154413e+00
 4.809825251063345e-02	 1.917047224971101e+00	 4.397805210508995e+00
 3.201309021756675e-02	 1.917383274590582e+00	 4.387146647852688e+00
 1.597987521458396e-02	 1.917583912867523e+00	 4.380302347057723e+00
 0.000000000000000e+00	 1.917650489881821e+00	 4.377837818379049e+00
 1.630194871305129e-01	 1.922517029603688e+00	 4.611266079025028e+00
 1.465116414881384e-01	 1.923845501461721e+00	 4.581032617039170e+00
 1.300453757893613e-01	 1.925028690293579e+00	 4.553528336136921e+00
 1.136223099947190e-01	 1.926067831837361e+00	 4.528661030919186e+00
 9.724403317677395e-02	 1.926964181806358e+00	 4.506399848987609e+00
 8.091210335522166e-02	 1.927719015062430e+00	 4.486784475016684e+00
 6.462804735408965e-02	 1.928333624793296e+00	 4.469934165824916e+00
 4.839336068066007e-02	 1.928809321694346e+00	 4.456056645857429e+00
 3.220950742573464e-02	 1.929147433155579e+00	 4.445456870309768e+00
 1.607792018484530e-02	 1.929349302454229e+00	 4.438545660967215e+00
 0.000000000000000e+00	 1.929416287953643e+00	 4.435848217122159e+00
 1.640135932729747e-01	 1.934240695427795e+00	 4.663617463294188e+00
 1.474050814400966e-01	 1.935577268415393e+00	 4.633734814690960e+00
 1.308384031087456e-01	 1.936767672429075e+00	 4.606657252485320e+00
 1.143151881180937e-01	 1.937813150742575e+00	 4.582278722762340e+00
 9.783703523098004e-02	 1.938714966726629e+00	 4.560550154524930e+00
 8.140551196801486e-02	 1.939474403017315e+00	 4.541488651283462e+00
 6.502215446390647e-02	 1.940092760688320e+00	 4.525186551358434e+00
 4.868846734564613e-02	 1.940571358427765e+00	 4.511820366977550e+00
 3.240592363216457e-02	 1.940911531720184e+00	 4.501659609931201e+00
 1.617596465506226e-02	 1.941114632034230e+00	 4.495075509233256e+00
 0.000000000000000e+00	 1.941182026016666e+00	 4.492549623360371e+00
 1.941182026016666e+00	 0.000000000000000e+00	 1.265232488727343e+01
 1.941114632034230e+00	 1.617596465506120e-02	 1.265288103980783e+01
 1.940911531720184e+00	 3.240592363216365e-02	 1.265394219412283e+01
 1.940571358427765e+00	 4.868846734564537e-02	 1.265556234408499e+01
 1.940092760688320e+00	 6.502215446390586e-02	 1.265780318376772e+01
 1.939474403017316e+00	 8.140551196801439e-02	 1.266073513706213e+01
 1.938714966726629e+00	 9.783703523097975e-02	 1.266443846528522e+01
 1.937813150742574e+00	 1.143151881180935e-01	 1.266900445936808e+01
 1.936767672429075e+00	 1.308384031087457e-01	 1.267453672342676e+01
 1.935577268415393e+00	 1.474050814400968e-01	 1.268115255735596e+01
 1.934240695427796e+00	 1.640135932729748e-01	 1.268898444695733e+01
 1.952945700797734e+00	 0.000000000000000e+00	 1.261072121765402e+01
 1.952877898403924e+00	 1.627399193186208e-02	 1.261151531931346e+01
 1.952673567290391e+00	 3.260230539439448e-02	 1.261267878293087e+01
 1.952331332528406e+00	 4.898352225977672e-02	 1.261429967022620e+01
 1.951849834459329e+00	 6.541619246186763e-02	 1.261647280363065e+01
 1.951227729505504e+00	 8.189883405516908e-02	 1.261930075259092e+01
 1.950463690987471e+00	 9.842993329457587e-02	 1.262289489388906e+01
 1.949556409946954e+00	 1.150079447363272e-01	 1.262737655257153e+01
 1.948504595975017e+00	 1.316312913605606e-01	 1.263287823035077e+01
 1.947306978044814e+00	 1.482983647158543e-01	 1.263954492923115e+01
 1.945962305348289e+00	 1.650075250861300e-01	 1.264753557903326e+01
 1.964709322255868e+00	 0.000000000000000e+00	 1.257019159273954e+01
 1.964641111452544e+00	 1.637201876433276e-02	 1.257118652702889e+01
 1.964435549545133e+00	 3.279868626650406e-02	 1.257242053105417e+01
 1.964091253322970e+00	 4.927857583656967e-02	 1.257401546681628e+01
 1.963606854937459e+00	 6.581022867388360e-02	 1.257609901699599e+01
 1.962981002717852e+00	 8.239215390641670e-02	 1.257880562708470e+01
 1.962212361993386e+00	 9.902282867098712e-02	 1.258227751721865e+01
 1.961299615921224e+00	 1.157006982148199e-01	 1.258666577031047e+01
 1.960241466319601e+00	 1.324241760188387e-01	 1.259213150339505e+01
 1.959036634505589e+00	 1.491916439430796e-01	 1.259884713004684e+01
 1.957683862136844e+00	 1.660014523945987e-01	 1.260699772270167e+01
 1.976472903721802e+00	 0.000000000000000e+00	 1.253068137388028e+01
 1.976404284510362e+00	 1.647004526355750e-02	 1.253185182464299e+01
 1.976197491813278e+00	 3.299506647102907e-02	 1.253313505402153e+01
 1.975851134137975e+00	 4.957362841037230e-02	 1.253468642433552e+01
 1.975363835445926e+00	 6.620426354646239e-02	 1.253666618158445e+01
 1.974734235973316e+00	 8.288547208076595e-02	 1.253924035259715e+01
 1.973960993058102e+00	 9.961572203205186e-02	 1.254258170722839e+01
 1.973042781972904e+00	 1.163934493385587e-01	 1.254687079218662e+01
 1.971978296763153e+00	 1.332170579820253e-01	 1.255229704345536e+01
 1.970766251089866e+00	 1.500849201339740e-01	 1.255905998526415e+01
 1.969405379076423e+00	 1.669953763246250e-01	 1.256737052459660e+01
 1.988236458526268e+00	 0.000000000000000e+00	 1.249212430947799e+01
 1.988167430907642e+00	 1.656807154062056e-02	 1.249345810520891e+01
 1.987959407423689e+00	 3.319144623050625e-02	 1.249478101825630e+01
 1.987610988299941e+00	 4.986868031553267e-02	 1.249628157897287e+01
 1.987120789307952e+00	 6.659829752611274e-02	 1.249815227108522e+01
 1.986487442590857e+00	 8.337878913722578e-02	 1.250059038311346e+01
 1.985709597495345e+00	 1.002086140496086e-01	 1.250379891982447e+01
 1.984785921409516e+00	 1.170861988925312e-01	 1.250798758028206e+01
 1.983715100606007e+00	 1.340099381485652e-01	 1.251337380949263e+01
 1.982495841089791e+00	 1.509781943007386e-01	 1.252018393169463e+01
 1.981126869449992e+00	 1.679892980024538e-01	 1.252865437443003e+01
 2.000000000000000e+00	 0.000000000000000e+00	 1.245444287313587e+01
 1.999930563974655e+00	 1.666609770660620e-02	 1.245594231826416e+01
 1.999721309705235e+00	 3.338782576747232e-02	 1.245730845201749e+01
 1.999370829135385e+00	 5.016373188639879e-02	 1.245876260823693e+01
 1.998877729846754e+00	 6.699233105934323e-02	 1.246052915428381e+01
 1.998240635889430e+00	 8.387210563480479e-02	 1.246283629604212e+01
 1.997458188618843e+00	 1.008015053954956e-01	 1.246591693756995e+01
 1.996529047538579e+00	 1.177789476617244e-01	 1.247000960193005e+01
 1.995451891148490e+00	 1.348028174169037e-01	 1.247535942022666e+01
 1.994225417797510e+00	 1.518714674555742e-01	 1.248221919698111e+01
 1.992848346540516e+00	 1.689832185543294e-01	 1.249085056113042e+01
 2.011763541473733e+00	 0.000000000000000e+00	 1.241754858966053e+01
 2.011693697041668e+00	 1.676412387259866e-02	 1.241923178328287e+01
 2.011483211986780e+00	 3.358420530446406e-02	 1.242065904516980e+01
 2.011130669970827e+00	 5.045878345731877e-02	 1.242208411590765e+01
 2.010634670385550e+00	 6.738636459266258e-02	 1.242376286405922e+01
 2.009993829187993e+00	 8.436542213251182e-02	 1.242595404412222e+01
 2.009206779742325e+00	 1.013943967415512e-01	 1.242892010336788e+01
 2.008272173667615e+00	 1.184716964311258e-01	 1.243292804404357e+01
 2.007188681690931e+00	 1.355956966854857e-01	 1.243825034798492e+01
 2.005954994505170e+00	 1.527647406106821e-01	 1.244516597184802e+01
 2.004569823630959e+00	 1.699771391064964e-01	 1.245396142238404e+01
 2.023527096278199e+00	 0.000000000000000e+00	 1.238134234941291e+01
 2.023456843438948e+00	 1.686215014968222e-02	 1.238324449193843e+01
 2.023245127597191e+00	 3.378058506401813e-02	 1.238476643823962e+01
 2.022890524132786e+00	 5.075383536264064e-02	 1.238619390676677e+01
 2.022391624247561e+00	 6.778039857257943e-02	 1.238781385666808e+01
 2.021747035805503e+00	 8.485873918935563e-02	 1.238991519814113e+01
 2.020955384179517e+00	 1.019872887596139e-01	 1.239278954549534e+01
 2.020015313104144e+00	 1.191644459857225e-01	 1.239673201935160e+01
 2.018925485533661e+00	 1.363885768527564e-01	 1.240204210503244e+01
 2.017684584504919e+00	 1.536580147782634e-01	 1.240902457542220e+01
 2.016291314004286e+00	 1.709710607851994e-01	 1.241799048785326e+01
 2.035290677744133e+00	 0.000000000000000e+00	 1.234571471148211e+01
 2.035220016496765e+00	 1.696017664894111e-02	 1.234788939963170e+01
 2.035007069865332e+00	 3.397696526867129e-02	 1.234955650119559e+01
 2.034650404947781e+00	 5.104888793671245e-02	 1.235103325152517e+01
 2.034148604756004e+00	 6.817443344560249e-02	 1.235263726171361e+01
 2.033500269060919e+00	 8.535205736434498e-02	 1.235468718084037e+01
 2.032704015244146e+00	 1.025801821215220e-01	 1.235750339434383e+01
 2.031758479155687e+00	 1.198571971105019e-01	 1.236140876487621e+01
 2.030662315977009e+00	 1.371814588171607e-01	 1.236672942269238e+01
 2.029414201088902e+00	 1.545512909705192e-01	 1.237379561391134e+01
 2.028012830943460e+00	 1.719649847166828e-01	 1.238294261633513e+01
 2.047054299202267e+00	 0.000000000000000e+00	 1.231054619613406e+01
 2.046983229545385e+00	 1.705820348145961e-02	 1.231306670672078e+01
 2.046769052120070e+00	 3.417334614096028e-02	 1.231494760237021e+01
 2.046410325742330e+00	 5.134394151388225e-02	 1.231653714234590e+01
 2.045905625234098e+00	 6.856846965824033e-02	 1.231818312317866e+01
 2.045253542273198e+00	 8.584537721648870e-02	 1.232023349236920e+01
 2.044452686249941e+00	 1.031730774991140e-01	 1.232303699120607e+01
 2.043501685129764e+00	 1.205499505904514e-01	 1.232694383296896e+01
 2.042399186321305e+00	 1.379743434771438e-01	 1.233230642355431e+01
 2.041143857549266e+00	 1.554445701996505e-01	 1.233948013291366e+01
 2.039734387731449e+00	 1.729589120271914e-01	 1.234882412711012e+01
 2.058817973983335e+00	 0.000000000000000e+00	 1.227570756696587e+01
 2.058746495915078e+00	 1.715623075832196e-02	 1.227866812986615e+01
 2.058531087690270e+00	 3.436972790342178e-02	 1.228085086792013e+01
 2.058170299842951e+00	 5.163899642849809e-02	 1.228263453934260e+01
 2.057662699005061e+00	 6.896250765700164e-02	 1.228439663188539e+01
 2.057006868761296e+00	 8.633869930479546e-02	 1.228651392762908e+01
 2.056201410510627e+00	 1.037659755642281e-01	 1.228936308943206e+01
 2.055244944333897e+00	 1.212427072105579e-01	 1.229332127520945e+01
 2.054136109866877e+00	 1.387672317311508e-01	 1.229876678705217e+01
 2.052873567178158e+00	 1.563378534778584e-01	 1.230607976361921e+01
 2.051455997651216e+00	 1.739528438429693e-01	 1.231564292571954e+01
 1.934240695427796e+00	 1.640135932729748e-01	 1.268898444695732e+01
 1.932756466181655e+00	 1.806651050443109e-01	 1.269735043557427e+01
 1.931123594008364e+00	 1.973550710202468e-01	 1.270558388705560e+01
 1.929340900092446e+00	 2.140817275527329e-01	 1.271386221977144e+01
 1.927407229153236e+00	 2.308432797453356e-01	 1.272237127559455e+01
 1.925321450300846e+00	 2.476379017345626e-01	 1.273130719361081e+01
 1.923082457892312e+00	 2.644637369962307e-01	 1.274087847229777e+01
 1.920689172387171e+00	 2.813188986771385e-01	 1.275130823568073e+01
 1.918140541201675e+00	 2.982014699522815e-01	 1.276283671981240e+01
 1.915435539560843e+00	 3.151095044078244e-01	 1.277572399671290e+01
 1.912573171347531e+00	 3.320410264500140e-01	 1.279025295364123e+01
 1.945962305348289e+00	 1.650075250861300e-01	 1.264753557903326e+01
 1.944469081587777e+00	 1.817599459770037e-01	 1.265605264973465e+01
 1.942826314115400e+00	 1.985510541072049e-01	 1.266431797952606e+01
 1.941032816971987e+00	 2.153790751408685e-01	 1.267254009056641e+01
 1.939087427875806e+00	 2.322422033043786e-01	 1.268093515087765e+01
 1.936989009083709e+00	 2.491386016693982e-01	 1.268972877667562e+01
 1.934736448252470e+00	 2.660664024610937e-01	 1.269915802090631e+01
 1.932328659299550e+00	 2.830237073918179e-01	 1.270947356405914e+01
 1.929764583262477e+00	 3.000085880204891e-01	 1.272094212423286e+01
 1.927043189156075e+00	 3.170190861378848e-01	 1.273384910428768e+01
 1.924163474826671e+00	 3.340532141780329e-01	 1.274850149471590e+01
 1.957683862136844e+00	 1.660014523945987e-01	 1.260699772270167e+01
 1.956181643902696e+00	 1.828547819476604e-01	 1.261567606025841e+01
 1.954528981176024e+00	 1.997470317737066e-01	 1.262399683501231e+01
 1.952724680854007e+00	 2.166764168491053e-01	 1.263219707560783e+01
 1.950767573653880e+00	 2.336411205231072e-01	 1.264052063269855e+01
 1.948656514979272e+00	 2.506392948025807e-01	 1.264921990786265e+01
 1.946390385786732e+00	 2.676690606620928e-01	 1.265855776620508e+01
 1.943968093451673e+00	 2.847285083796020e-01	 1.266880964929366e+01
 1.941388572632945e+00	 3.018156978980023e-01	 1.268026590604729e+01
 1.938650786135202e+00	 3.189286592127375e-01	 1.269323436012431e+01
 1.935753725768280e+00	 3.360653927856707e-01	 1.270804313322498e+01
 1.969405379076423e+00	 1.669953763246250e-01	 1.256737052459660e+01
 1.967894166399183e+00	 1.839496141968647e-01	 1.257621761813697e+01
 1.966231608451805e+00	 2.009430053749401e-01	 1.258461320970672e+01
 1.964416504987845e+00	 2.179737541474889e-01	 1.259282028186190e+01
 1.962447679723532e+00	 2.350400329866658e-01	 1.260110777299990e+01
 1.960323981209301e+00	 2.521399828345827e-01	 1.260975223070965e+01
 1.958044283701504e+00	 2.692717134152460e-01	 1.261903964601800e+01
 1.955607488033535e+00	 2.864333035722588e-01	 1.262926748576559e+01
 1.953012522485584e+00	 3.036228016325310e-01	 1.264074694138952e+01
 1.950258343652171e+00	 3.208382257962130e-01	 1.265380541339133e+01
 1.947343937306657e+00	 3.380775645530442e-01	 1.266878925170591e+01
 1.981126869449992e+00	 1.679892980024538e-01	 1.252865437443003e+01
 1.979606662350013e+00	 1.850444439652005e-01	 1.253767612887116e+01
 1.977934209204312e+00	 2.021389762660932e-01	 1.254616280579544e+01
 1.976108302622837e+00	 2.192710885060645e-01	 1.255440083390238e+01
 1.974127759320835e+00	 2.364389422801988e-01	 1.256268169323246e+01
 1.971991420995564e+00	 2.536406674658771e-01	 1.257130349068728e+01
 1.969698155203193e+00	 2.708743625365713e-01	 1.258057271336528e+01
 1.967246856235124e+00	 2.881380949015563e-01	 1.259080617754491e+01
 1.964636445992900e+00	 3.054299012717845e-01	 1.260233319226614e+01
 1.961865874860923e+00	 3.227477880521414e-01	 1.261549795753650e+01
 1.958934122576103e+00	 3.400897317602701e-01	 1.263066221820132e+01
 1.992848346540516e+00	 1.689832185543294e-01	 1.249085056113041e+01
 1.991319145027961e+00	 1.861392724932513e-01	 1.250005238413707e+01
 1.989636796695113e+00	 2.033349458023540e-01	 1.250864437754773e+01
 1.987800087008321e+00	 2.205684213948779e-01	 1.251693395335903e+01
 1.985807825681861e+00	 2.378378499888507e-01	 1.252523263614139e+01
 1.983658847559824e+00	 2.551413503969365e-01	 1.253385755834614e+01
 1.981352013498210e+00	 2.724770098420865e-01	 1.254313313004115e+01
 1.978886211246429e+00	 2.898428842992621e-01	 1.255339290151577e+01
 1.976260356327397e+00	 3.072369988634730e-01	 1.256498163839536e+01
 1.973473392915404e+00	 3.246573481443531e-01	 1.257825763005708e+01
 1.970524294710916e+00	 3.421018966874651e-01	 1.259359525323120e+01
 2.004569823630959e+00	 1.699771391064964e-01	 1.245396142238404e+01
 2.003031627705802e+00	 1.872341010216011e-01	 1.246334928750590e+01
 2.001339384185775e+00	 2.045309153389103e-01	 1.247205983212674e+01
 1.999491871393635e+00	 2.218657542839744e-01	 1.248041903377353e+01
 1.997487892042684e+00	 2.392367576977659e-01	 1.248875601366220e+01
 1.995326274123848e+00	 2.566420333282335e-01	 1.249740444929148e+01
 1.993005871792960e+00	 2.740796571478102e-01	 1.250670415775058e+01
 1.990525566257443e+00	 2.915476736971446e-01	 1.251700286880574e+01
 1.987884266661582e+00	 3.090440964553056e-01	 1.252865820810882e+01
 1.985080910969558e+00	 3.265669082366781e-01	 1.254203991210325e+01
 1.982114466845396e+00	 3.441140616147459e-01	 1.255753229737851e+01
 2.016291314004286e+00	 1.709710607851994e-01	 1.241799048785326e+01
 2.014744123656310e+00	 1.883289307908334e-01	 1.242757197446462e+01
 2.013041984937867e+00	 2.057268862309501e-01	 1.243641432534412e+01
 2.011183669028116e+00	 2.231630886433996e-01	 1.244485971105653e+01
 2.009167971639376e+00	 2.406356669920889e-01	 1.245325245109135e+01
 2.006993713909402e+00	 2.581427179602412e-01	 1.246194034112027e+01
 2.004659743293852e+00	 2.756823062697602e-01	 1.247127614691069e+01
 2.002164934458154e+00	 2.932524650269716e-01	 1.248161928459547e+01
 1.999508190167957e+00	 3.108511960949922e-01	 1.249333770836006e+01
 1.996688442177329e+00	 3.284764704929469e-01	 1.250681002792622e+01
 1.993704652113842e+00	 3.461262288222291e-01	 1.252242787946834e+01
 2.028012830943460e+00	 1.719649847166828e-01	 1.238294261633513e+01
 2.026456646152258e+00	 1.894237630415322e-01	 1.239272792697663e+01
 2.024744612212959e+00	 2.069228598336615e-01	 1.240171635256884e+01
 2.022875493161102e+00	 2.244604259431990e-01	 1.241026392973093e+01
 2.020848077708011e+00	 2.420345794569641e-01	 1.241872782768883e+01
 2.018661180138253e+00	 2.596434059934322e-01	 1.242746758745064e+01
 2.016313641207294e+00	 2.772849590239546e-01	 1.243684652321778e+01
 2.013804329038555e+00	 2.949572602205109e-01	 1.244723330637893e+01
 2.011132140019031e+00	 3.126582998302425e-01	 1.245900375388159e+01
 2.008295999692660e+00	 3.303860370769897e-01	 1.247254284418267e+01
 2.005294863650555e+00	 3.481384005900315e-01	 1.248824698532144e+01
 2.039734387731449e+00	 1.729589120271914e-01	 1.234882412711013e+01
 2.038169208466424e+00	 1.905185990142811e-01	 1.235882708280718e+01
 2.036447279272619e+00	 2.081188375022325e-01	 1.236797783499228e+01
 2.034567357041930e+00	 2.257577676534180e-01	 1.237664400513660e+01
 2.032528223484660e+00	 2.434334966775361e-01	 1.238519331386246e+01
 2.030328686032164e+00	 2.611440991282792e-01	 1.239399472916638e+01
 2.027967578739693e+00	 2.788876172264116e-01	 1.240341977207545e+01
 2.025443763188632e+00	 2.966620612095306e-01	 1.241384400074319e+01
 2.022756129387306e+00	 3.144654097087659e-01	 1.242564869552966e+01
 2.019903596669497e+00	 3.322956101526367e-01	 1.243922276910667e+01
 2.016885114589833e+00	 3.501505791982698e-01	 1.245496492706308e+01
 2.051455997651216e+00	 1.739528438429693e-01	 1.231564292571954e+01
 2.049881823871578e+00	 1.916134399496638e-01	 1.232588193982994e+01
 2.048149999378412e+00	 2.093148205918507e-01	 1.233521420144165e+01
 2.046259273919937e+00	 2.270551152441022e-01	 1.234401668176505e+01
 2.044208422205398e+00	 2.448324202389492e-01	 1.235266540507687e+01
 2.041996244812904e+00	 2.626447990652550e-01	 1.236153650299376e+01
 2.039621569097458e+00	 2.804902826931491e-01	 1.237100742097494e+01
 2.037083250098380e+00	 2.983668699257985e-01	 1.238145829873176e+01
 2.034380171445287e+00	 3.162725277782721e-01	 1.239327354785484e+01
 2.031511246261782e+00	 3.342051918837181e-01	 1.240684365155841e+01
 2.028475418065975e+00	 3.521627669270606e-01	 1.242256721296976e+01
 1.912573171347531e+00	 3.320410264500140e-01	 1.279025295364123e+01
 1.909552996678217e+00	 3.489911490868752e-01	 1.280483854873858e+01
 1.906373605399194e+00	 3.659607206250082e-01	 1.281793941126001e+01
 1.903034091400743e+00	 3.829476863260496e-01	 1.283031322403444e+01
 1.899533580533872e+00	 3.999499642784583e-01	 1.284318212310801e+01
 1.895871231430321e+00	 4.169654459367418e-01	 1.285672153194467e+01
 1.892046236314383e+00	 4.339919966870214e-01	 1.287105766876646e+01
 1.888057821805625e+00	 4.510274564389121e-01	 1.288632019838372e+01
 1.883905249711631e+00	 4.680696402436603e-01	 1.290264450162225e+01
 1.879587817809810e+00	 4.851163389384514e-01	 1.292017425636078e+01
 1.875104860617363e+00	 5.021653198167612e-01	 1.293906435163900e+01
 1.924163474826671e+00	 3.340532141780329e-01	 1.274850149471590e+01
 1.921124997725024e+00	 3.511060555334997e-01	 1.276323415435564e+01
 1.917926339151822e+00	 3.681784636516719e-01	 1.277640434010566e+01
 1.914566587506274e+00	 3.852683713423543e-01	 1.278896259609642e+01
 1.911044863342008e+00	 4.023736840775030e-01	 1.280208338684571e+01
 1.907360320192034e+00	 4.194922805337196e-01	 1.281590118942431e+01
 1.903512145385482e+00	 4.366220131612434e-01	 1.283053575928088e+01
 1.899499560855201e+00	 4.537607087794185e-01	 1.284610780735109e+01
 1.895321823935296e+00	 4.709061691985772e-01	 1.286274119774615e+01
 1.890978228147675e+00	 4.880561718682523e-01	 1.288056546248244e+01
 1.886468103976684e+00	 5.052084705515906e-01	 1.289971865580862e+01
 1.935753725768280e+00	 3.360653927856707e-01	 1.270804313322498e+01
 1.932696946317232e+00	 3.532209523940446e-01	 1.272294013672813e+01
 1.929479020537177e+00	 3.703961966260117e-01	 1.273617698783990e+01
 1.926099031336278e+00	 3.875890458396052e-01	 1.274895518722533e+01
 1.922556093970797e+00	 4.047973928903398e-01	 1.276232302207520e+01
 1.918849356875031e+00	 4.220191036769730e-01	 1.277639872308773e+01
 1.914978002482971e+00	 4.392520177139246e-01	 1.279129732294165e+01
 1.910941248040764e+00	 4.564939487303308e-01	 1.280713247838098e+01
 1.906738346409047e+00	 4.737426852956738e-01	 1.282401859096177e+01
 1.902368586854246e+00	 4.909959914718983e-01	 1.284207324986945e+01
 1.897831295827866e+00	 5.082516074918878e-01	 1.286142002048762e+01
 1.947343937306657e+00	 3.380775645530442e-01	 1.266878925170591e+01
 1.944268855568408e+00	 3.553358420650451e-01	 1.268385434849369e+01
 1.941031662646999e+00	 3.726139220611191e-01	 1.269715981267009e+01
 1.937631435959561e+00	 3.899097124475733e-01	 1.271017424231500e+01
 1.934067285465004e+00	 4.072210934635257e-01	 1.272377671811909e+01
 1.930338354498927e+00	 4.245459182299358e-01	 1.273808458592193e+01
 1.926443820600197e+00	 4.418820133254513e-01	 1.275320990752492e+01
 1.922382896328263e+00	 4.592271793890477e-01	 1.276926119680109e+01
 1.918154830070316e+00	 4.765791917494051e-01	 1.278634545804879e+01
 1.913758906837304e+00	 4.939358010809284e-01	 1.280457055103179e+01
 1.909194449047900e+00	 5.112947340862863e-01	 1.282404790754481e+01
 1.958934122576103e+00	 3.400897317602701e-01	 1.263066221820132e+01
 1.955840738592121e+00	 3.574507269430371e-01	 1.264588651206429e+01
 1.952584278573027e+00	 3.748316424700868e-01	 1.265927182286444e+01
 1.949163814444930e+00	 3.922303737960292e-01	 1.267251574538443e+01
 1.945578450869398e+00	 4.096447885436170e-01	 1.268633341770864e+01
 1.941827326083341e+00	 4.270727270560422e-01	 1.270084290250164e+01
 1.937909612730504e+00	 4.445120029762107e-01	 1.271615505685396e+01
 1.933824518683654e+00	 4.619604038529689e-01	 1.273237517723054e+01
 1.929571287856534e+00	 4.794156917742264e-01	 1.274960494972705e+01
 1.925149201004627e+00	 4.968756040268811e-01	 1.276794473120455e+01
 1.920557576513781e+00	 5.143378537834191e-01	 1.278749618733126e+01
 1.970524294710916e+00	 3.421018966874651e-01	 1.259359525323121e+01
 1.967412608501936e+00	 3.595656094245562e-01	 1.260895805431493e+01
 1.964136881406999e+00	 3.770493603660064e-01	 1.262243017498281e+01
 1.960696179861192e+00	 3.945510325147440e-01	 1.263588818530281e+01
 1.957089603228747e+00	 4.120684808771706e-01	 1.264989505434309e+01
 1.953316284647886e+00	 4.295995330187257e-01	 1.266457117964116e+01
 1.949375391867238e+00	 4.471419896465889e-01	 1.268002799640847e+01
 1.945266128072887e+00	 4.646936252194933e-01	 1.269636952582002e+01
 1.940987732705136e+00	 4.822521885845933e-01	 1.271369423121007e+01
 1.936539482263998e+00	 4.998154036412951e-01	 1.273209720890349e+01
 1.931920691102501e+00	 5.173809700319186e-01	 1.275167274093259e+01
 1.982114466845396e+00	 3.441140616147459e-01	 1.255753229737851e+01
 1.978984478411422e+00	 3.616804919061379e-01	 1.257300194263461e+01
 1.975689484240653e+00	 3.792670782619703e-01	 1.258656374549508e+01
 1.972228545277155e+00	 3.968716912334886e-01	 1.260021232413590e+01
 1.968600755587819e+00	 4.144921732107427e-01	 1.261437629279834e+01
 1.964805243212179e+00	 4.321263389814198e-01	 1.262918002064881e+01
 1.960841171003743e+00	 4.497719763169726e-01	 1.264473732291943e+01
 1.956707737461916e+00	 4.674268465860200e-01	 1.266115290679051e+01
 1.952404177553551e+00	 4.850886853949609e-01	 1.267852412729926e+01
 1.947929763523198e+00	 5.027552032557093e-01	 1.269694308119439e+01
 1.943283805691055e+00	 5.204240862804185e-01	 1.271649906724095e+01
 1.993704652113842e+00	 3.461262288222291e-01	 1.252242787946834e+01
 1.990556361434147e+00	 3.637953767843181e-01	 1.253796252228855e+01
 1.987242100165728e+00	 3.814847986710703e-01	 1.255161293054935e+01
 1.983760923761626e+00	 3.991923525820336e-01	 1.256542096800953e+01
 1.980111920991381e+00	 4.169158682908903e-01	 1.257970427265700e+01
 1.976294214795834e+00	 4.346531478075589e-01	 1.259459284303897e+01
 1.972306963133367e+00	 4.524019659677486e-01	 1.261020469778860e+01
 1.968149359816692e+00	 4.701600710499483e-01	 1.262664721309551e+01
 1.963820635339214e+00	 4.879251854197844e-01	 1.264401877183357e+01
 1.959320057690005e+00	 5.056950062016622e-01	 1.266241075348385e+01
 1.954646933156435e+00	 5.234672059775513e-01	 1.268190989464843e+01
 2.005294863650555e+00	 3.481384005900315e-01	 1.248824698532144e+01
 2.002128270683677e+00	 3.659102664556321e-01	 1.250379535504289e+01
 1.998794742273964e+00	 3.837025241063988e-01	 1.251752944754103e+01
 1.995293328383411e+00	 4.015130191901499e-01	 1.253145874039097e+01
 1.991623112484203e+00	 4.193395688641698e-01	 1.254581835473965e+01
 1.987783212418468e+00	 4.371799623605763e-01	 1.256074559956259e+01
 1.983772781249452e+00	 4.550319615793033e-01	 1.257636454417744e+01
 1.979591008103168e+00	 4.728933017086770e-01	 1.259278724103897e+01
 1.975237118999554e+00	 4.907616918735194e-01	 1.261011526131663e+01
 1.970710377672201e+00	 5.086348158106928e-01	 1.262844157364561e+01
 1.966010086375635e+00	 5.265103325719497e-01	 1.264785279717190e+01
 2.016885114589833e+00	 3.501505791982698e-01	 1.245496492706308e+01
 2.013700219273580e+00	 3.680251633166159e-01	 1.247046705900478e+01
 2.010347423657098e+00	 3.859202570810475e-01	 1.248427613847621e+01
 2.006825772211319e+00	 4.038336936876085e-01	 1.249828185769294e+01
 2.003134343111051e+00	 4.217632776771379e-01	 1.251266987032253e+01
 1.999272249099697e+00	 4.397067855039058e-01	 1.252758650242282e+01
 1.995238638345346e+00	 4.576619661320238e-01	 1.254316374761818e+01
 1.991032695287295e+00	 4.756265416596058e-01	 1.255952036868913e+01
 1.986653641472005e+00	 4.935982079706207e-01	 1.257676331255222e+01
 1.982100736377565e+00	 5.115746354143396e-01	 1.259498947030661e+01
 1.977373278225648e+00	 5.295534695122474e-01	 1.261428781482793e+01
 2.028475418065975e+00	 3.521627669270606e-01	 1.242256721296976e+01
 2.025272220317423e+00	 3.701400697638046e-01	 1.243795514963346e+01
 2.021900157406867e+00	 3.881380001081085e-01	 1.245182677505997e+01
 2.018358268314155e+00	 4.061543787041801e-01	 1.246585790710828e+01
 2.014645625916693e+00	 4.241869974763511e-01	 1.248022187302999e+01
 2.010761337859134e+00	 4.422336201009812e-01	 1.249507575054947e+01
 2.006704547414394e+00	 4.602919826062957e-01	 1.251056136000540e+01
 2.002474434335026e+00	 4.783597940001332e-01	 1.252680623793513e+01
 1.998070215693998e+00	 4.964347369255439e-01	 1.254392492412532e+01
 1.993491146713879e+00	 5.145144683441411e-01	 1.256202059512230e+01
 1.988736521583468e+00	 5.325966202470763e-01	 1.258118707808410e+01
 1.875104860617363e+00	 5.021653198167612e-01	 1.293906435163900e+01
 1.870455750556598e+00	 5.192143275626727e-01	 1.295760365912301e+01
 1.865639899925688e+00	 5.362610857087825e-01	 1.297409437071111e+01
 1.860656760407239e+00	 5.533032967074312e-01	 1.298874833205273e+01
 1.855505823371985e+00	 5.703386424706809e-01	 1.300181673000101e+01
 1.850186620573209e+00	 5.873647851677567e-01	 1.301360229547034e+01
 1.844698724823686e+00	 6.043793680469519e-01	 1.302460147685677e+01
 1.839041750654203e+00	 6.213800162816208e-01	 1.303541065564949e+01
 1.833215354952771e+00	 6.383643378398375e-01	 1.304667493103125e+01
 1.827219237583592e+00	 6.553299243772711e-01	 1.305910934593407e+01
 1.821053141984896e+00	 6.722743521527772e-01	 1.307349906407810e+01
 1.886468103976684e+00	 5.052084705515906e-01	 1.289971865580862e+01
 1.881790820041482e+00	 5.223607962653324e-01	 1.291856791879295e+01
 1.876945785078724e+00	 5.395108587465561e-01	 1.293550920275925e+01
 1.871932447448167e+00	 5.566563465243364e-01	 1.295075525377245e+01
 1.866750295438207e+00	 5.737949274629943e-01	 1.296455348870883e+01
 1.861398857964515e+00	 5.909242495643722e-01	 1.297719104921866e+01
 1.855877705251066e+00	 6.080419417947174e-01	 1.298900031685943e+01
 1.850186449492671e+00	 6.251456149358035e-01	 1.300037567877625e+01
 1.844324745498048e+00	 6.422328624598597e-01	 1.301198715508868e+01
 1.838292291312541e+00	 6.593012614278553e-01	 1.302457996841342e+01
 1.832088828819590e+00	 6.763483734106405e-01	 1.303892492867812e+01
 1.897831295827866e+00	 5.082516074918878e-01	 1.286142002048762e+01
 1.893125838145927e+00	 5.255072507051053e-01	 1.288048947434491e+01
 1.888251618983586e+00	 5.427606170531698e-01	 1.289775318630697e+01
 1.883208083377769e+00	 5.600093811419495e-01	 1.291342262302937e+01
 1.877994716534552e+00	 5.772511967880850e-01	 1.292773967687256e+01
 1.872611044532003e+00	 5.944836978260947e-01	 1.294098164939476e+01
 1.867056635005322e+00	 6.117044989402421e-01	 1.295346671081236e+01
 1.861331097813352e+00	 6.289111965207811e-01	 1.296555985626550e+01
 1.855434085685526e+00	 6.461013695441570e-01	 1.297767937854823e+01
 1.849365294848351e+00	 6.632725804767013e-01	 1.299033540844767e+01
 1.843124465630476e+00	 6.804223762013227e-01	 1.300441970267763e+01
 1.909194449047900e+00	 5.112947340862863e-01	 1.282404790754481e+01
 1.904460817714999e+00	 5.286536944477129e-01	 1.284325984607382e+01
 1.899557414452273e+00	 5.460103643114130e-01	 1.286073865423370e+01
 1.894483680973827e+00	 5.633624043600935e-01	 1.287669244829736e+01
 1.889239099403433e+00	 5.807074543627582e-01	 1.289135594469521e+01
 1.883823192981571e+00	 5.980431339866480e-01	 1.290499537683551e+01
 1.878235526754670e+00	 6.153670436340866e-01	 1.291791390234570e+01
 1.872475708245618e+00	 6.326767653038550e-01	 1.293045752304308e+01
 1.866543388104580e+00	 6.499698634766609e-01	 1.294302153876657e+01
 1.860438260739223e+00	 6.672438860242450e-01	 1.295605755478408e+01
 1.854160064923426e+00	 6.844963651416198e-01	 1.297008106081919e+01
 1.920557576513781e+00	 5.143378537834191e-01	 1.278749618733126e+01
 1.915795771593767e+00	 5.318001310588769e-01	 1.280678478393446e+01
 1.910863184296781e+00	 5.492601042040766e-01	 1.282439176255087e+01
 1.905759253014122e+00	 5.667154199785915e-01	 1.284051992762044e+01
 1.900483456787264e+00	 5.841637041038201e-01	 1.285539527218718e+01
 1.895035316019105e+00	 6.016025620797547e-01	 1.286927183141355e+01
 1.889414393167320e+00	 6.190295800268109e-01	 1.288243704062545e+01
 1.883620293418844e+00	 6.364423255523264e-01	 1.289521762169441e+01
 1.877652665344578e+00	 6.538383486413024e-01	 1.290798602039304e+01
 1.871511201533363e+00	 6.712151825709198e-01	 1.292116741593728e+01
 1.865195639204305e+00	 6.885703448483264e-01	 1.293524732224251e+01
 1.931920691102501e+00	 5.173809700319186e-01	 1.275167274093260e+01
 1.927130712627296e+00	 5.349465641043195e-01	 1.277098385538356e+01
 1.922168941329109e+00	 5.525098404139496e-01	 1.278865206997266e+01
 1.917034812276435e+00	 5.700684317972665e-01	 1.280487302612859e+01
 1.911727801428457e+00	 5.876199499280762e-01	 1.281986255091544e+01
 1.906247426350502e+00	 6.051619861391383e-01	 1.283386145017501e+01
 1.900593246911485e+00	 6.226921122689748e-01	 1.284714081996095e+01
 1.894764865962400e+00	 6.402078815334964e-01	 1.286000790160290e+01
 1.888761929994890e+00	 6.577068294220125e-01	 1.287281250457334e+01
 1.882584129778971e+00	 6.751864746171602e-01	 1.288595401990371e+01
 1.876231200978983e+00	 6.926443199382381e-01	 1.289988904519631e+01
 1.943283805691055e+00	 5.204240862804185e-01	 1.271649906724095e+01
 1.938465653660655e+00	 5.380929971497619e-01	 1.273579003800242e+01
 1.933474698361254e+00	 5.557595766238232e-01	 1.275347212200653e+01
 1.928310371538547e+00	 5.734214436159416e-01	 1.276973205758667e+01
 1.922972146069429e+00	 5.910761957523324e-01	 1.278477416907496e+01
 1.917459536681650e+00	 6.087214101985218e-01	 1.279882510206469e+01
 1.911772100655377e+00	 6.263546445111388e-01	 1.281213909037946e+01
 1.905909438505661e+00	 6.439734375146664e-01	 1.282500378164804e+01
 1.899871194644888e+00	 6.615753102027230e-01	 1.283774664723027e+01
 1.893657058024251e+00	 6.791577666634006e-01	 1.285074200080891e+01
 1.887266762753327e+00	 6.967182950281493e-01	 1.286441864825294e+01
 1.954646933156435e+00	 5.234672059775513e-01	 1.268190989464843e+01
 1.949800607538910e+00	 5.412394337609260e-01	 1.270114931670313e+01
 1.944780468205213e+00	 5.590093165164866e-01	 1.271881703937442e+01
 1.939585943578240e+00	 5.767744592344396e-01	 1.273508926980874e+01
 1.934216503452590e+00	 5.945324454933940e-01	 1.275015759974219e+01
 1.928671659718442e+00	 6.122808382916284e-01	 1.276423368493315e+01
 1.922950967067209e+00	 6.300171809038632e-01	 1.277755446936473e+01
 1.917054023678001e+00	 6.477389977631379e-01	 1.279038798271284e+01
 1.910980471883943e+00	 6.654437953673645e-01	 1.280303973843255e+01
 1.904729998817408e+00	 6.831290632100755e-01	 1.281585975838638e+01
 1.898302337033207e+00	 7.007922747348558e-01	 1.282925024821542e+01
 1.966010086375635e+00	 5.265103325719497e-01	 1.264785279717190e+01
 1.961135587107129e+00	 5.443858775035336e-01	 1.266702028532799e+01
 1.956086263672986e+00	 5.622590637747301e-01	 1.268466411058630e+01
 1.950861541173294e+00	 5.801274824525838e-01	 1.270094843377542e+01
 1.945460886320356e+00	 5.979887030680673e-01	 1.271605099217676e+01
 1.939883808166771e+00	 6.158402744521819e-01	 1.273016772472806e+01
 1.934129858815195e+00	 6.336797255977076e-01	 1.274351795470582e+01
 1.928198634108790e+00	 6.515045665462115e-01	 1.275635016001672e+01
 1.922089774301424e+00	 6.693122892998684e-01	 1.276894836009527e+01
 1.915802964706641e+00	 6.871003687576189e-01	 1.278163914697875e+01
 1.909337936324491e+00	 7.048662636751527e-01	 1.279479938640053e+01
 1.977373278225648e+00	 5.295534695122474e-01	 1.261428781482793e+01
 1.972470605210379e+00	 5.475323319433066e-01	 1.263337375246320e+01
 1.967392097576570e+00	 5.655088220813436e-01	 1.265100238849373e+01
 1.962137177101491e+00	 5.834805170701969e-01	 1.266732443630052e+01
 1.956705307415139e+00	 6.014449723931580e-01	 1.268250276604185e+01
 1.951095994732528e+00	 6.193997227139046e-01	 1.269671697677381e+01
 1.945308788567545e+00	 6.373422827432322e-01	 1.271016853840339e+01
 1.939343282427404e+00	 6.552701481311893e-01	 1.272308653527449e+01
 1.933199114486702e+00	 6.731807963841657e-01	 1.273573404207000e+01
 1.926875968240157e+00	 6.910716878064654e-01	 1.274841516129035e+01
 1.920373573133048e+00	 7.089402664658355e-01	 1.276148274983161e+01
 1.988736521583468e+00	 5.325966202470763e-01	 1.258118707808410e+01
 1.983805674693726e+00	 5.506788006459663e-01	 1.260019235129206e+01
 1.978697982727961e+00	 5.687585951191172e-01	 1.261783229065907e+01
 1.973412864140612e+00	 5.868335668871020e-01	 1.263424287609909e+01
 1.967949779479354e+00	 6.049012573854715e-01	 1.264957120842041e+01
 1.962308232121603e+00	 6.229591871105197e-01	 1.266398002904993e+01
 1.956487768992474e+00	 6.410048564909977e-01	 1.267765282158417e+01
 1.950487981263214e+00	 6.590357467853719e-01	 1.269079952867795e+01
 1.944308505029148e+00	 6.770493210041877e-01	 1.270366291668030e+01
 1.937949021966157e+00	 6.950430248570493e-01	 1.271652561901203e+01
 1.931409259964744e+00	 7.130142877236989e-01	 1.272971788753542e+01
 1.821053141984896e+00	 6.722743521527772e-01	 1.307349906407810e+01
 1.814715763826660e+00	 6.891980574023240e-01	 1.308783880247941e+01
 1.808207968133511e+00	 7.060957039066909e-01	 1.310036344230504e+01
 1.801529631147544e+00	 7.229648253500973e-01	 1.311234628904467e+01
 1.794680674880653e+00	 7.398029438586731e-01	 1.312514793370866e+01
 1.787661067595300e+00	 7.566075710220593e-01	 1.313708120310610e+01
 1.780470824259027e+00	 7.733762089340569e-01	 1.314522009282950e+01
 1.773110006971933e+00	 7.901063512515735e-01	 1.315016379975277e+01
 1.765578725366338e+00	 8.067954842710848e-01	 1.315253468899738e+01
 1.757877136977896e+00	 8.234410880217923e-01	 1.315297034776236e+01
 1.750005447587452e+00	 8.400406373746231e-01	 1.315212590889152e+01
 1.832088828819590e+00	 6.763483734106405e-01	 1.303892492867812e+01
 1.825713045784844e+00	 6.933746372878031e-01	 1.305321449439784e+01
 1.819165812475041e+00	 7.103746845023261e-01	 1.306587611822682e+01
 1.812447004382308e+00	 7.273460337924089e-01	 1.307816867116409e+01
 1.805556543045941e+00	 7.442861922681194e-01	 1.309130616239899e+01
 1.798494396536087e+00	 7.611926564391864e-01	 1.310229527754478e+01
 1.791260579911007e+00	 7.780629132619514e-01	 1.310985884556003e+01
 1.783855155647144e+00	 7.948944412047356e-01	 1.311461074151045e+01
 1.776278234041211e+00	 8.116847113308225e-01	 1.311718021326354e+01
 1.768529973583554e+00	 8.284311883982425e-01	 1.311821350688665e+01
 1.760610581302076e+00	 8.451313319754912e-01	 1.311837610943871e+01
 1.843124465630476e+00	 6.804223762013227e-01	 1.300441970267763e+01
 1.836710277893270e+00	 6.975511982412133e-01	 1.301842565878202e+01
 1.830123607145550e+00	 7.146536457017066e-01	 1.303102414935701e+01
 1.823364328129484e+00	 7.317272223750561e-01	 1.304345739388714e+01
 1.816432361911772e+00	 7.487694203553393e-01	 1.305640469335489e+01
 1.809327676370243e+00	 7.657777210724440e-01	 1.306651938327676e+01
 1.802050286653878e+00	 7.827495963453258e-01	 1.307361581056339e+01
 1.794600255615463e+00	 7.996825094537918e-01	 1.307831060538345e+01
 1.786977694216101e+00	 8.165739162280071e-01	 1.308123645207935e+01
 1.779182761900823e+00	 8.334212661549040e-01	 1.308304359333270e+01
 1.771215666944585e+00	 8.502220035006200e-01	 1.308440197168349e+01
 1.854160064923426e+00	 6.844963651416198e-01	 1.297008106081919e+01
 1.847707472614293e+00	 7.017277449955710e-01	 1.298370040648275e+01
 1.841081364562715e+00	 7.189325923538961e-01	 1.299611852913088e+01
 1.834281614760897e+00	 7.361083960629548e-01	 1.300858641224765e+01
 1.827308143802943e+00	 7.532526332008886e-01	 1.302093996396153e+01
 1.820160919374367e+00	 7.703627701177993e-01	 1.303027985439431e+01
 1.812839956714869e+00	 7.874362634953100e-01	 1.303701752832531e+01
 1.805345319053575e+00	 8.044705614247686e-01	 1.304177026355794e+01
 1.797677118015977e+00	 8.214631045032770e-01	 1.304517089118471e+01
 1.789835514001786e+00	 8.384113269467234e-01	 1.304786915551466e+01
 1.781820716533008e+00	 8.553126577189438e-01	 1.305053373333991e+01
 1.865195639204305e+00	 6.885703448483264e-01	 1.293524732224251e+01
 1.858704642410274e+00	 7.059042822838940e-01	 1.294901910224428e+01
 1.852039097144212e+00	 7.232115293079582e-01	 1.296149252296114e+01
 1.845198876648368e+00	 7.404895598210208e-01	 1.297395267271587e+01
 1.838183901044251e+00	 7.577358358853249e-01	 1.298543614717309e+01
 1.830994137825059e+00	 7.749478087712195e-01	 1.299412038493744e+01
 1.823629602321209e+00	 7.921229200230339e-01	 1.300060763393442e+01
 1.816090358138168e+00	 8.092586025436925e-01	 1.300551386077691e+01
 1.808376517565810e+00	 8.263522816972703e-01	 1.300946891305067e+01
 1.800488241958528e+00	 8.434013764286487e-01	 1.301311771150123e+01
 1.792425742085373e+00	 8.604033003993983e-01	 1.301712212556849e+01
 1.876231200978983e+00	 6.926443199382381e-01	 1.289988904519631e+01
 1.869701799743567e+00	 7.100808148391995e-01	 1.291371506667404e+01
 1.862996817307717e+00	 7.274904614129568e-01	 1.292673240082813e+01
 1.856116126163722e+00	 7.448707186141712e-01	 1.293972095954043e+01
 1.849059645960495e+00	 7.622190334892042e-01	 1.295043494374291e+01
 1.841827343998921e+00	 7.795328422286727e-01	 1.295860146790056e+01
 1.834419235700129e+00	 7.968095712396277e-01	 1.296494625994809e+01
 1.826835385045925e+00	 8.140466382365900e-01	 1.297008216850300e+01
 1.819075904990571e+00	 8.312414533506254e-01	 1.297463308986493e+01
 1.811140957843134e+00	 8.483914202556270e-01	 1.297923496844462e+01
 1.803030755619707e+00	 8.654939373109171e-01	 1.298453750657347e+01
 1.887266762753327e+00	 6.967182950281493e-01	 1.286441864825294e+01
 1.880698957076532e+00	 7.142573473945053e-01	 1.287817756738001e+01
 1.873954537470907e+00	 7.317693935179552e-01	 1.289160848252971e+01
 1.867033375678781e+00	 7.492518774073215e-01	 1.290505763224685e+01
 1.859935390876473e+00	 7.667022310930831e-01	 1.291602175404750e+01
 1.852660550172550e+00	 7.841178756861252e-01	 1.292429511712974e+01
 1.845208869078856e+00	 8.014962224562215e-01	 1.293060942912507e+01
 1.837580411953535e+00	 8.188346739294873e-01	 1.293603192973238e+01
 1.829775292415230e+00	 8.361306250039804e-01	 1.294118246841032e+01
 1.821793673727686e+00	 8.533814640826048e-01	 1.294668403560207e+01
 1.813635769154038e+00	 8.705845742224366e-01	 1.295316899094841e+01
 1.898302337033207e+00	 7.007922747348558e-01	 1.282925024821542e+01
 1.891696126871525e+00	 7.184338846828283e-01	 1.284290233601364e+01
 1.884912270051457e+00	 7.360483304720172e-01	 1.285668124095668e+01
 1.877950637565368e+00	 7.536330411653878e-01	 1.287031967256307e+01
 1.870811148116984e+00	 7.711854337775192e-01	 1.288163252725397e+01
 1.863493768622547e+00	 7.887029143395453e-01	 1.289077039214779e+01
 1.855998514684619e+00	 8.061828789839453e-01	 1.289805018807936e+01
 1.848325451037683e+00	 8.236227150484114e-01	 1.290393519482987e+01
 1.840474691964759e+00	 8.410198021979739e-01	 1.290965184715488e+01
 1.832446401684270e+00	 8.583715135645305e-01	 1.291594463119782e+01
 1.824240794706395e+00	 8.756752169028909e-01	 1.292342357492761e+01
 1.909337936324491e+00	 7.048662636751527e-01	 1.279479938640053e+01
 1.902693321590906e+00	 7.226104314371863e-01	 1.280838460296387e+01
 1.895870027467044e+00	 7.403272771242070e-01	 1.282250912481248e+01
 1.888867924195309e+00	 7.580142148532862e-01	 1.283617283657698e+01
 1.881686930006825e+00	 7.756686466230688e-01	 1.284789463137148e+01
 1.874327011625514e+00	 7.932879633849008e-01	 1.285791213143255e+01
 1.866788184744651e+00	 8.108695461339295e-01	 1.286649356099086e+01
 1.859070514475055e+00	 8.284107670193882e-01	 1.287393965082066e+01
 1.851174115764128e+00	 8.459089904732435e-01	 1.288059104585454e+01
 1.843099153784971e+00	 8.633615743563502e-01	 1.288751228335814e+01
 1.834845844294805e+00	 8.807658711212150e-01	 1.289572525769106e+01
 1.920373573133048e+00	 7.089402664658355e-01	 1.276148274983161e+01
 1.913690553697028e+00	 7.267869923905961e-01	 1.277511885132873e+01
 1.906827822135345e+00	 7.446062383235879e-01	 1.278957266443297e+01
 1.899785247940425e+00	 7.623954034359333e-01	 1.280327250902544e+01
 1.892562748870793e+00	 7.801518747102884e-01	 1.281548415663539e+01
 1.885160291458050e+00	 7.978730280181584e-01	 1.282640099910308e+01
 1.877577891486179e+00	 8.155562292173040e-01	 1.283623983982570e+01
 1.869815614442336e+00	 8.331988352684446e-01	 1.284524358170412e+01
 1.861873575938307e+00	 8.507981953704284e-01	 1.285368416949953e+01
 1.853751942101872e+00	 8.683516521130118e-01	 1.286186579188933e+01
 1.845450929937295e+00	 8.858565426463436e-01	 1.287051415886193e+01
 1.931409259964744e+00	 7.130142877236989e-01	 1.272971788753542e+01
 1.924687835652253e+00	 7.309635722760757e-01	 1.274359856431919e+01
 1.917785666474032e+00	 7.488852189192228e-01	 1.275835229679458e+01
 1.910702621172539e+00	 7.667766118782449e-01	 1.277226380688040e+01
 1.903438617033687e+00	 7.846351231197349e-01	 1.278506630173050e+01
 1.895993620396753e+00	 8.024581134352855e-01	 1.279690652215623e+01
 1.888367647136432e+00	 8.202429335451988e-01	 1.280794716105422e+01
 1.880560763116213e+00	 8.379869252216063e-01	 1.281836952773638e+01
 1.872573084612268e+00	 8.556874224301662e-01	 1.282837648497141e+01
 1.864404778707057e+00	 8.733417524894618e-01	 1.283819566473655e+01
 1.856056063651895e+00	 8.909472372472116e-01	 1.284808296726900e+01
 1.750005447587452e+00	 8.400406373746231e-01	 1.315212590889152e+01
 1.741965292656229e+00	 8.565887939373730e-01	 1.315023697548371e+01
 1.733755650591940e+00	 8.730858517994177e-01	 1.314707613114153e+01
 1.725376872250870e+00	 8.895292775331912e-01	 1.314260726968906e+01
 1.716829357769529e+00	 9.059165370982691e-01	 1.313678253193812e+01
 1.708113556751636e+00	 9.222450970151561e-01	 1.312954866607617e+01
 1.699229968422212e+00	 9.385124255491870e-01	 1.312085422091804e+01
 1.690179141748315e+00	 9.547159939035038e-01	 1.311065758422335e+01
 1.680961675525948e+00	 9.708532774200115e-01	 1.309893587286080e+01
 1.671578218432743e+00	 9.869217567872253e-01	 1.308569467587051e+01
 1.662029469046026e+00	 1.002918919253879e+00	 1.307097864545351e+01
 1.760610581302076e+00	 8.451313319754912e-01	 1.311837610943871e+01
 1.752521702569001e+00	 8.617797713193983e-01	 1.311755733092851e+01
 1.744262309601136e+00	 8.783768023015395e-01	 1.311521072100918e+01
 1.735832755380974e+00	 8.949198761416328e-01	 1.311135172884685e+01
 1.727233442469877e+00	 9.114064434428268e-01	 1.310598360791217e+01
 1.718464823196185e+00	 9.278339553725957e-01	 1.309910374943047e+01
 1.709527399810252e+00	 9.441998648538202e-01	 1.309071088059784e+01
 1.700421724605905e+00	 9.605016277649889e-01	 1.308081314136815e+01
 1.691148400007889e+00	 9.767367041484362e-01	 1.306943704801199e+01
 1.681708078624853e+00	 9.929025594255068e-01	 1.305663734571597e+01
 1.672101463267545e+00	 1.008996665617521e+00	 1.304250774625330e+01
 1.771215666944585e+00	 8.502220035006200e-01	 1.308440197168349e+01
 1.763078064630569e+00	 8.669707251711679e-01	 1.308483755275507e+01
 1.754768920984702e+00	 8.836677288203120e-01	 1.308347104008724e+01
 1.746288591115675e+00	 9.003104503151228e-01	 1.308036770944035e+01
 1.737637480009687e+00	 9.168963249023847e-01	 1.307558066135704e+01
 1.728816042719690e+00	 9.334227883966089e-01	 1.306915712665247e+01
 1.719824784521352e+00	 9.498872783782853e-01	 1.306114566896149e+01
 1.710664261035258e+00	 9.662872354013169e-01	 1.305160429981227e+01
 1.701335078314870e+00	 9.826201042085314e-01	 1.304060951590417e+01
 1.691837892899842e+00	 9.988833349541693e-01	 1.302826626212875e+01
 1.682173411834322e+00	 1.015074384432199e+00	 1.301471881741423e+01
 1.781820716533008e+00	 8.553126577189438e-01	 1.305053373333991e+01
 1.773634390803747e+00	 8.721616613752454e-01	 1.305232456673107e+01
 1.765275496649070e+00	 8.889586373515738e-01	 1.305203000835567e+01
 1.756744391303859e+00	 9.057010061623990e-01	 1.304976355536122e+01
 1.748041482179140e+00	 9.223861876981926e-01	 1.304562700070164e+01
 1.739167227052467e+00	 9.390116024205514e-01	 1.303971670909140e+01
 1.730122134224812e+00	 9.555746725676244e-01	 1.303213082273084e+01
 1.720906762643504e+00	 9.720728233687765e-01	 1.302297741400282e+01
 1.711521721990710e+00	 9.885034842673797e-01	 1.301238359635420e+01
 1.701967672737074e+00	 1.004864090150617e+00	 1.300050559822730e+01
 1.692245326160126e+00	 1.021152082585156e+00	 1.298753979822076e+01
 1.792425742085373e+00	 8.604033003993983e-01	 1.301712212556849e+01
 1.784190693051346e+00	 8.773525858141951e-01	 1.302028743277961e+01
 1.775782048500671e+00	 8.942495338911610e-01	 1.302108410478820e+01
 1.767200167794412e+00	 9.110915497921991e-01	 1.301967238113873e+01
 1.758445460768420e+00	 9.278760380515009e-01	 1.301620170615705e+01
 1.749518387924836e+00	 9.446004037777807e-01	 1.301081697322665e+01
 1.740419460589935e+00	 9.612620538668797e-01	 1.300366573201147e+01
 1.731149241037775e+00	 9.778583982236579e-01	 1.299490637762100e+01
 1.721708342579225e+00	 9.943868509920624e-01	 1.298471733453191e+01
 1.712097429615909e+00	 1.010844831792254e+00	 1.297330724151373e+01
 1.702317217658725e+00	 1.027229766963630e+00	 1.296092613689080e+01
 1.803030755619707e+00	 8.654939373109171e-01	 1.298453750657347e+01
 1.794746983336180e+00	 8.825435043705805e-01	 1.298901639046177e+01
 1.786288588445937e+00	 8.995404244349108e-01	 1.299085233237505e+01
 1.777655932436223e+00	 9.164820873132618e-01	 1.299025096423003e+01
 1.768849427567704e+00	 9.333658821835595e-01	 1.298740845706654e+01
 1.759869537067114e+00	 9.501891988016528e-01	 1.298251773092981e+01
 1.750716775286017e+00	 9.669494287210928e-01	 1.297577566137025e+01
 1.741391707825206e+00	 9.836439665222496e-01	 1.296739130342411e+01
 1.731894951624237e+00	 1.000270211049664e+00	 1.295759514755261e+01
 1.722227175015709e+00	 1.016825566656487e+00	 1.294664941523353e+01
 1.712389097743889e+00	 1.033307444454865e+00	 1.293485939474258e+01
 1.813635769154038e+00	 8.705845742224366e-01	 1.295316899094841e+01
 1.805303273621062e+00	 8.877344229269662e-01	 1.295882190246820e+01
 1.796795128391300e+00	 9.048313149786610e-01	 1.296157518317206e+01
 1.788111697078176e+00	 9.218726248343240e-01	 1.296167863910962e+01
 1.779253394367176e+00	 9.388557263156178e-01	 1.295937436258383e+01
 1.770220686209618e+00	 9.557779938255254e-01	 1.295490290433759e+01
 1.761014089982363e+00	 9.726368035753058e-01	 1.294851047656198e+01
 1.751634174612928e+00	 9.894295348208414e-01	 1.294045720952863e+01
 1.742081560669562e+00	 1.006153571107264e+00	 1.293102647805842e+01
 1.732356920415838e+00	 1.022806301520719e+00	 1.292053530702699e+01
 1.722460977829384e+00	 1.039385121946100e+00	 1.290934585771081e+01
 1.824240794706395e+00	 8.756752169028909e-01	 1.292342357492761e+01
 1.815859575868803e+00	 8.929253473659154e-01	 1.293003369618349e+01
 1.807301680243190e+00	 9.101222115182482e-01	 1.293351360335577e+01
 1.798567473569159e+00	 9.272631684641247e-01	 1.293415619306371e+01
 1.789657372957016e+00	 9.443455766689257e-01	 1.293224879551988e+01
 1.780571847082668e+00	 9.613667951827543e-01	 1.292807930512335e+01
 1.771311416348271e+00	 9.783241848745610e-01	 1.292194337664822e+01
 1.761876653008074e+00	 9.952151096757229e-01	 1.291415271184528e+01
 1.752268181259019e+00	 1.012036937831947e+00	 1.290504445447483e+01
 1.742486677295656e+00	 1.028787043162357e+00	 1.289499170454483e+01
 1.732532869328983e+00	 1.045462806324575e+00	 1.288441515488223e+01
 1.834845844294805e+00	 8.807658711212150e-01	 1.289572525769106e+01
 1.826415902042217e+00	 8.981162835699928e-01	 1.290299980338075e+01
 1.817808255908039e+00	 9.154131200495098e-01	 1.290694795826179e+01
 1.809023273758059e+00	 9.326537243114008e-01	 1.290790476359668e+01
 1.800061375127405e+00	 9.498354394647338e-01	 1.290620222920565e+01
 1.790923031416582e+00	 9.669556092066969e-01	 1.290217541796200e+01
 1.781608766053044e+00	 9.840115790639002e-01	 1.289616963126231e+01
 1.772119154617777e+00	 1.001000697643183e+00	 1.288854872238618e+01
 1.762454824936427e+00	 1.017920317890796e+00	 1.287970455764171e+01
 1.752616457134526e+00	 1.034767798358804e+00	 1.287006763771410e+01
 1.742604783656452e+00	 1.051540504477532e+00	 1.286011888373304e+01
 1.845450929937295e+00	 8.858565426463436e-01	 1.287051415886192e+01
 1.836972264104116e+00	 9.033072374217627e-01	 1.287808559810057e+01
 1.828314867292277e+00	 9.207040465682823e-01	 1.288217699738389e+01
 1.819479109493761e+00	 9.380442984848910e-01	 1.288316473735896e+01
 1.810465412668525e+00	 9.553253209242918e-01	 1.288142507722160e+01
 1.801274250941677e+00	 9.725444422307099e-01	 1.287734018799072e+01
 1.791906150765980e+00	 9.896989925883656e-01	 1.287130532278265e+01
 1.782361691049169e+00	 1.006786305279511e+00	 1.286373715317721e+01
 1.772641503245602e+00	 1.023803717950891e+00	 1.285508329352846e+01
 1.762746271411811e+00	 1.040748573887466e+00	 1.284583302735308e+01
 1.752676732225560e+00	 1.057618223292210e+00	 1.283652924176411e+01
 1.856056063651895e+00	 8.909472372472116e-01	 1.284808296726900e+01
 1.847528674017312e+00	 9.084982148037878e-01	 1.285567283276290e+01
 1.838821526302338e+00	 9.259949970704037e-01	 1.285951681930988e+01
 1.829934992625154e+00	 9.434348970933321e-01	 1.286019465050889e+01
 1.820869497370557e+00	 9.608152272688492e-01	 1.285812653585002e+01
 1.811625517388271e+00	 9.781333005881501e-01	 1.285374181207500e+01
 1.802203582156380e+00	 9.953864318929987e-01	 1.284748609318603e+01
 1.792604273909383e+00	 1.012571939140996e+00	 1.283982962551686e+01
 1.782828227730364e+00	 1.029687144679315e+00	 1.283127687175590e+01
 1.772876131606872e+00	 1.046729376525748e+00	 1.282237733984453e+01
 1.762748726450076e+00	 1.063695969655851e+00	 1.281373766423942e+01
 1.662029469046026e+00	 1.002918919253879e+00	 1.307097864545351e+01
 1.652316176227489e+00	 1.018842260164601e+00	 1.305348545768244e+01
 1.642439140268708e+00	 1.034689285153598e+00	 1.303226034688387e+01
 1.632399211585683e+00	 1.050457510450146e+00	 1.300797577890674e+01
 1.622197290189948e+00	 1.066144463789932e+00	 1.298140887231155e+01
 1.611834325527006e+00	 1.081747685638670e+00	 1.295345545216593e+01
 1.601311316278856e+00	 1.097264730414323e+00	 1.292514476003118e+01
 1.590629310130548e+00	 1.112693167706690e+00	 1.289761921741729e+01
 1.579789403500755e+00	 1.128030583493148e+00	 1.286793579155305e+01
 1.568792741236402e+00	 1.143274581349313e+00	 1.283345996991711e+01
 1.557640516271426e+00	 1.158422783653388e+00	 1.279403383072548e+01
 1.672101463267545e+00	 1.008996665617521e+00	 1.304250774625330e+01
 1.662329307335798e+00	 1.025016502890748e+00	 1.302587850335176e+01
 1.652392415970992e+00	 1.040959561763390e+00	 1.300587726747177e+01
 1.642291644742687e+00	 1.056823343412916e+00	 1.298314863194059e+01
 1.632027899116528e+00	 1.072605360592937e+00	 1.295843985418433e+01
 1.621602134291702e+00	 1.088303138864240e+00	 1.293261533350142e+01
 1.611015355002269e+00	 1.103914217824407e+00	 1.290667178752408e+01
 1.600268615282299e+00	 1.119436152334801e+00	 1.288084374599420e+01
 1.589363018194816e+00	 1.134866513743672e+00	 1.285109901277336e+01
 1.578299715524570e+00	 1.150202891104154e+00	 1.281662328287972e+01
 1.567079907434738e+00	 1.165442892385915e+00	 1.277721553365943e+01
 1.682173411834322e+00	 1.015074384432199e+00	 1.301471881741423e+01
 1.672342393056262e+00	 1.031190717630603e+00	 1.299890896061848e+01
 1.662345646556822e+00	 1.047229809951639e+00	 1.298002817171990e+01
 1.652184033059100e+00	 1.063189147521044e+00	 1.295869877653718e+01
 1.641858463482828e+00	 1.079066228110422e+00	 1.293564384039231e+01
 1.631369898780848e+00	 1.094858562375695e+00	 1.291170206874662e+01
 1.620719349739254e+00	 1.110563675094139e+00	 1.288784345033494e+01
 1.609907876741105e+00	 1.126179106398744e+00	 1.286241970000652e+01
 1.598936589493746e+00	 1.141702413008702e+00	 1.283255260150831e+01
 1.587806646719724e+00	 1.157131169454733e+00	 1.279801246241720e+01
 1.576519255811419e+00	 1.172462969298033e+00	 1.275856248223177e+01
 1.692245326160126e+00	 1.021152082585156e+00	 1.298753979822076e+01
 1.682355444735923e+00	 1.037364911380737e+00	 1.297251525041078e+01
 1.672298843305391e+00	 1.053500036823732e+00	 1.295466542190621e+01
 1.662076387745146e+00	 1.069554929988191e+00	 1.293459589300015e+01
 1.651688994428985e+00	 1.085527073663764e+00	 1.291301111128614e+01
 1.641137630063392e+00	 1.101413963601565e+00	 1.289072971402404e+01
 1.630423311486468e+00	 1.117213109758605e+00	 1.286831789979501e+01
 1.619547105430247e+00	 1.132922037539561e+00	 1.284265534953082e+01
 1.608510128246366e+00	 1.148538289034611e+00	 1.281263007115823e+01
 1.597313545595146e+00	 1.164059424252114e+00	 1.277798913362652e+01
 1.585958572098148e+00	 1.179483022344844e+00	 1.273846715851440e+01
 1.702317217658725e+00	 1.027229766963630e+00	 1.296092613689079e+01
 1.692368473721825e+00	 1.043539091137725e+00	 1.294666298110756e+01
 1.682252017495891e+00	 1.059770249485053e+00	 1.292976820964304e+01
 1.671968720011044e+00	 1.075920698028017e+00	 1.291083610009869e+01
 1.661519503095138e+00	 1.091987904574345e+00	 1.289055796577314e+01
 1.650905339208281e+00	 1.107969349970376e+00	 1.286973789860145e+01
 1.640127251240572e+00	 1.123862529352895e+00	 1.284777254054482e+01
 1.629186312273003e+00	 1.139664953398293e+00	 1.282186142659042e+01
 1.618083645301493e+00	 1.155374149567774e+00	 1.279166674577113e+01
 1.606820422924118e+00	 1.170987663347363e+00	 1.275691603430982e+01
 1.595397866991604e+00	 1.186503059481451e+00	 1.271732241550494e+01
 1.712389097743889e+00	 1.033307444454865e+00	 1.293485939474258e+01
 1.702381491361014e+00	 1.049713263898140e+00	 1.292134354133627e+01
 1.692205180407514e+00	 1.066040455040989e+00	 1.290534114087770e+01
 1.681861041067017e+00	 1.082286458854183e+00	 1.288744053579917e+01
 1.671350000621423e+00	 1.098448728163547e+00	 1.286832530126051e+01
 1.660673037284462e+00	 1.114524728910659e+00	 1.284869908427072e+01
 1.649831179998226e+00	 1.130511941412098e+00	 1.282649580153733e+01
 1.638825508192654e+00	 1.146407861615984e+00	 1.280035069310243e+01
 1.627657151507943e+00	 1.162210002354564e+00	 1.276999934508006e+01
 1.616327289479920e+00	 1.177915894591548e+00	 1.273515661931221e+01
 1.604837151188465e+00	 1.193523088662955e+00	 1.269552110289305e+01
 1.722460977829384e+00	 1.039385121946100e+00	 1.290934585771081e+01
 1.712394509000530e+00	 1.055887436658555e+00	 1.289657270001349e+01
 1.702158343319454e+00	 1.072310660596925e+00	 1.288141282794397e+01
 1.691753362123285e+00	 1.088652219680348e+00	 1.286445394477436e+01
 1.681180498147979e+00	 1.104909551752748e+00	 1.284637720002460e+01
 1.670440735360884e+00	 1.121080107850942e+00	 1.282726613666151e+01
 1.659535108756087e+00	 1.137161353471299e+00	 1.280478155140439e+01
 1.648464704112481e+00	 1.153150769833674e+00	 1.277843751321789e+01
 1.637230657714536e+00	 1.169045855141352e+00	 1.274796557328817e+01
 1.625834156035832e+00	 1.184844125835732e+00	 1.271307466789669e+01
 1.614276435385410e+00	 1.200543117844459e+00	 1.267345569508975e+01
 1.732532869328983e+00	 1.045462806324575e+00	 1.288441515488222e+01
 1.722407537987419e+00	 1.062061616415543e+00	 1.287238921330119e+01
 1.712111517510902e+00	 1.078580873258246e+00	 1.285803448834558e+01
 1.701645694390071e+00	 1.095017987720174e+00	 1.284194327238249e+01
 1.691011006814942e+00	 1.111370382663330e+00	 1.282479911921594e+01
 1.680208444506494e+00	 1.127635494219754e+00	 1.280563355212069e+01
 1.669239048510817e+00	 1.143810773065590e+00	 1.278292539668767e+01
 1.658103910955762e+00	 1.159893685692407e+00	 1.275643742986059e+01
 1.646804174770090e+00	 1.175881715674516e+00	 1.272590371143531e+01
 1.635341033365139e+00	 1.191772364930981e+00	 1.269103389401836e+01
 1.623715730279118e+00	 1.207563154981066e+00	 1.265151792141417e+01
 1.742604783656452e+00	 1.051540504477532e+00	 1.286011888373305e+01
 1.732420589668723e+00	 1.068235810165678e+00	 1.284885343816524e+01
 1.722064714261050e+00	 1.084851100130339e+00	 1.283527854996437e+01
 1.711538049077596e+00	 1.101383770187321e+00	 1.281999626481761e+01
 1.700841537762451e+00	 1.117831228216672e+00	 1.280346560550838e+01
 1.689976175790241e+00	 1.134190895445623e+00	 1.278408171202936e+01
 1.678943010259074e+00	 1.150460207730057e+00	 1.276122424924945e+01
 1.667743139645779e+00	 1.166636616833224e+00	 1.273466674528076e+01
 1.656377713523421e+00	 1.182717591700425e+00	 1.270415221318562e+01
 1.644847932241119e+00	 1.198700619728363e+00	 1.266939755936611e+01
 1.633155046566267e+00	 1.214583208027877e+00	 1.263009839833493e+01
 1.752676732225560e+00	 1.057618223292210e+00	 1.283652924176411e+01
 1.742433675391487e+00	 1.074410024905533e+00	 1.282604595223455e+01
 1.732017944849091e+00	 1.091121348318588e+00	 1.281323726239757e+01
 1.721430437396080e+00	 1.107749574295449e+00	 1.279872007514695e+01
 1.710672102130643e+00	 1.124292095734156e+00	 1.278240097781669e+01
 1.699743940281072e+00	 1.140746318957079e+00	 1.276289236705133e+01
 1.688647004997517e+00	 1.157109664999788e+00	 1.273997589802928e+01
 1.677382401105811e+00	 1.173379570897167e+00	 1.271344210544652e+01
 1.665951284823348e+00	 1.189553490965455e+00	 1.268304930388407e+01
 1.654354863437054e+00	 1.205628898078941e+00	 1.264852808904562e+01
 1.642594394943537e+00	 1.221603284939995e+00	 1.260958626366973e+01
 1.762748726450076e+00	 1.063695969655851e+00	 1.281373766423942e+01
 1.752446806502753e+00	 1.080584267631680e+00	 1.280406617967006e+01
 1.741971220554216e+00	 1.097391624928380e+00	 1.279202131414066e+01
 1.731322870555746e+00	 1.114115407258218e+00	 1.277820800028051e+01
 1.720502711059656e+00	 1.130752992537162e+00	 1.276187523367995e+01
 1.709511749047935e+00	 1.147301772182649e+00	 1.274234820293630e+01
 1.698351043722806e+00	 1.163759152409872e+00	 1.271947858495749e+01
 1.687021706259139e+00	 1.180122555525278e+00	 1.269308008810407e+01
 1.675524899518690e+00	 1.196389421215979e+00	 1.266293258273524e+01
 1.663861837726224e+00	 1.212557207833782e+00	 1.262878668978241e+01
 1.652033786107606e+00	 1.228623393672523e+00	 1.259036881264957e+01
 1.557640516271426e+00	 1.158422783653388e+00	 1.279403383072548e+01
 1.546332035035660e+00	 1.173475381538720e+00	 1.275054264140852e+01
 1.534870474254929e+00	 1.188427446662400e+00	 1.270416027407877e+01
 1.523257175828953e+00	 1.203276655154268e+00	 1.265516071158910e+01
 1.511493528087118e+00	 1.218020706652967e+00	 1.260385118991415e+01
 1.499580965268043e+00	 1.232657325465735e+00	 1.255057648965116e+01
 1.487520966964716e+00	 1.247184261714619e+00	 1.249572334696093e+01
 1.475315057535638e+00	 1.261599292467898e+00	 1.243944136555783e+01
 1.462964805482420e+00	 1.275900222855563e+00	 1.238069047447357e+01
 1.450471822794356e+00	 1.290084887167662e+00	 1.232004290444203e+01
 1.437837764260544e+00	 1.304151149934398e+00	 1.225829058854353e+01
 1.567079907434738e+00	 1.165442892385915e+00	 1.277721553365942e+01
 1.555702896152070e+00	 1.180586709880574e+00	 1.273389487557028e+01
 1.544171877653534e+00	 1.195629385379191e+00	 1.268795814145634e+01
 1.532488201970846e+00	 1.210568580928830e+00	 1.263961703945943e+01
 1.520653265846756e+00	 1.225401982227827e+00	 1.258911508164344e+01
 1.508668512211454e+00	 1.240127299792604e+00	 1.253673211889365e+01
 1.496535429624356e+00	 1.254742270110832e+00	 1.248278900738145e+01
 1.484255551681668e+00	 1.269244656779711e+00	 1.242765237985527e+01
 1.471830456390217e+00	 1.283632251628205e+00	 1.237110529198183e+01
 1.459261765508050e+00	 1.297902875822050e+00	 1.231237772860152e+01
 1.446551143852389e+00	 1.312054380950392e+00	 1.225219323538671e+01
 1.576519255811419e+00	 1.172462969298033e+00	 1.275856248223177e+01
 1.565073714792516e+00	 1.187698005988492e+00	 1.271536120096660e+01
 1.553473238891041e+00	 1.202831291451272e+00	 1.266982875090163e+01
 1.541719186270669e+00	 1.217860473650733e+00	 1.262211390989512e+01
 1.529812962087472e+00	 1.232783224344965e+00	 1.257239559535418e+01
 1.517756017963176e+00	 1.247597240259642e+00	 1.252088764847923e+01
 1.505549851423582e+00	 1.262300244248123e+00	 1.246784376289805e+01
 1.493196005302560e+00	 1.276889986436588e+00	 1.241356252994538e+01
 1.480696067112107e+00	 1.291364245353042e+00	 1.235838840564200e+01
 1.468051668378985e+00	 1.305720829038969e+00	 1.230161393785226e+01
 1.455264483948489e+00	 1.319957576142518e+00	 1.224302188389744e+01
 1.585958572098148e+00	 1.179483022344844e+00	 1.273846715851440e+01
 1.574444501576006e+00	 1.194809277920956e+00	 1.269536514195532e+01
 1.562774568507737e+00	 1.210033173039821e+00	 1.265022437107438e+01
 1.550950139188946e+00	 1.225152341583140e+00	 1.260313004152424e+01
 1.538972627189002e+00	 1.240164441368812e+00	 1.255419560802653e+01
 1.526843492821136e+00	 1.255067155331808e+00	 1.250356782399822e+01
 1.514564242577501e+00	 1.269858192691220e+00	 1.245143193910116e+01
 1.502136428529598e+00	 1.284535290102263e+00	 1.239801702594093e+01
 1.489561647694569e+00	 1.299096212792024e+00	 1.234360140528961e+01
 1.476841541367849e+00	 1.313538755677785e+00	 1.228838727246508e+01
 1.463977794422778e+00	 1.327860744466745e+00	 1.223140808592083e+01
 1.595397866991604e+00	 1.186503059481451e+00	 1.271732241550494e+01
 1.583815267121545e+00	 1.201920533736452e+00	 1.267432986854838e+01
 1.572075877043905e+00	 1.217235038306015e+00	 1.262959626595370e+01
 1.560181071186203e+00	 1.232444192989220e+00	 1.258314257234326e+01
 1.548132271531081e+00	 1.247545641663799e+00	 1.253501591378025e+01
 1.535930947083257e+00	 1.262537053474057e+00	 1.248529487890314e+01
 1.523578613301214e+00	 1.277416124004856e+00	 1.243409499223852e+01
 1.511076831494069e+00	 1.292180576440471e+00	 1.238157432986665e+01
 1.498427208184079e+00	 1.306828162707105e+00	 1.232793924566814e+01
 1.485631394435334e+00	 1.321356664597867e+00	 1.227345017458805e+01
 1.472691085149193e+00	 1.335763894879038e+00	 1.221799895190975e+01
 1.604837151188465e+00	 1.193523088662955e+00	 1.269552110289305e+01
 1.593186022048140e+00	 1.209031781493463e+00	 1.265267784395805e+01
 1.581377175039832e+00	 1.224436895411033e+00	 1.260839436279288e+01
 1.569411992722964e+00	 1.239736036132133e+00	 1.256262674671911e+01
 1.557291905493443e+00	 1.254926833594355e+00	 1.251535492857166e+01
 1.545018391047462e+00	 1.270006943151349e+00	 1.246658825555861e+01
 1.532592973809828e+00	 1.284974046753760e+00	 1.241637124528961e+01
 1.520017224327257e+00	 1.299825854114944e+00	 1.236478949807061e+01
 1.507292758627112e+00	 1.314560103860235e+00	 1.231197573251892e+01
 1.494421237542128e+00	 1.329174564658582e+00	 1.225811590967269e+01
 1.481404366001672e+00	 1.343667036335363e+00	 1.220345537253894e+01
 1.614276435385410e+00	 1.200543117844459e+00	 1.267345569508974e+01
 1.602556776974795e+00	 1.216143029250475e+00	 1.263083047363164e+01
 1.590678473035801e+00	 1.231638752516050e+00	 1.258706692084788e+01
 1.578642914259754e+00	 1.247027879275047e+00	 1.254205560250973e+01
 1.566451539455824e+00	 1.262308025524912e+00	 1.249570839441432e+01
 1.554105835011679e+00	 1.277476832828641e+00	 1.244796432528000e+01
 1.541607334318448e+00	 1.292531969502666e+00	 1.239879562254853e+01
 1.528957617160447e+00	 1.307471131789418e+00	 1.234821392909036e+01
 1.516158309070147e+00	 1.322292045013365e+00	 1.229627665666331e+01
 1.503211080648923e+00	 1.336992464719297e+00	 1.224309344000252e+01
 1.490117646854151e+00	 1.351570177791688e+00	 1.218883265362872e+01
 1.623715730279118e+00	 1.207563154981066e+00	 1.265151792141417e+01
 1.611927542520518e+00	 1.223254285065970e+00	 1.260920775569958e+01
 1.599979781572099e+00	 1.238840617782244e+00	 1.256606020083453e+01
 1.587873846257097e+00	 1.254319730681125e+00	 1.252189965828532e+01
 1.575611183797957e+00	 1.269689225819899e+00	 1.247656908312845e+01
 1.563193289273831e+00	 1.284946730970891e+00	 1.242993610738493e+01
 1.550621705042178e+00	 1.300089900816302e+00	 1.238189938276279e+01
 1.537898020124924e+00	 1.315116418127625e+00	 1.233239510967351e+01
 1.525023869559659e+00	 1.330023994928446e+00	 1.228140371714229e+01
 1.512000933716407e+00	 1.344810373639379e+00	 1.222895665616093e+01
 1.498830937580566e+00	 1.359473328203981e+00	 1.217514326714796e+01
 1.633155046566267e+00	 1.214583208027877e+00	 1.263009839833493e+01
 1.621298329304314e+00	 1.230365556998435e+00	 1.258822793276734e+01
 1.609281111189010e+00	 1.246042499370794e+00	 1.254581813507153e+01
 1.597104799175519e+00	 1.261611598613534e+00	 1.250262660063323e+01
 1.584770848899578e+00	 1.277070442843746e+00	 1.245842649962694e+01
 1.572280764131842e+00	 1.292416646043056e+00	 1.241301298728920e+01
 1.559636096196123e+00	 1.307647849259399e+00	 1.236620985087558e+01
 1.546838443351974e+00	 1.322761721793301e+00	 1.231787635901295e+01
 1.533889450142124e+00	 1.337755962367429e+00	 1.226791427680427e+01
 1.520790806705272e+00	 1.352628300278196e+00	 1.221627500787241e+01
 1.507544248054855e+00	 1.367376496528208e+00	 1.216296682255120e+01
 1.642594394943537e+00	 1.221603284939995e+00	 1.260958626366974e+01
 1.630669147945189e+00	 1.237476853106352e+00	 1.256830714498017e+01
 1.618582472426820e+00	 1.253244405442876e+00	 1.252678199826630e+01
 1.606335783475544e+00	 1.268903491335436e+00	 1.248470097152775e+01
 1.593930545140422e+00	 1.284451684960884e+00	 1.244176658474102e+01
 1.581368269883639e+00	 1.299886586510095e+00	 1.239770043366764e+01
 1.568650517995387e+00	 1.315205823396689e+00	 1.235225014841202e+01
 1.555778896972882e+00	 1.330407051450177e+00	 1.230519657125743e+01
 1.542755060864020e+00	 1.345487956092266e+00	 1.225636111584642e+01
 1.529580709576207e+00	 1.360446253495114e+00	 1.220561326749428e+01
 1.516257588150955e+00	 1.375279691720334e+00	 1.215287818234926e+01
 1.652033786107606e+00	 1.228623393672523e+00	 1.259036881264957e+01
 1.640040009062151e+00	 1.244588181448207e+00	 1.254985908429690e+01
 1.627883875825812e+00	 1.260446344159665e+00	 1.250939007890433e+01
 1.615566809617697e+00	 1.276195417109997e+00	 1.246858385574947e+01
 1.603090282900223e+00	 1.291832960535744e+00	 1.242707141759096e+01
 1.590455816827145e+00	 1.307356560836963e+00	 1.238449971470701e+01
 1.577664980655075e+00	 1.322763831792902e+00	 1.234053892255209e+01
 1.564719391118932e+00	 1.338052415761990e+00	 1.229488995635208e+01
 1.551620711771823e+00	 1.353219984864907e+00	 1.224729218337995e+01
 1.538370652289902e+00	 1.368264242149501e+00	 1.219753129127067e+01
 1.524970967742801e+00	 1.383182922736329e+00	 1.214544726855454e+01
 1.437837764260544e+00	 1.304151149934398e+00	 1.225829058854353e+01
 1.425066505953664e+00	 1.318094550614880e+00	 1.219452141454267e+01
 1.412157630624030e+00	 1.331915438503088e+00	 1.212726159667950e+01
 1.399112893358248e+00	 1.345611798903905e+00	 1.205641162224109e+01
 1.385934088952579e+00	 1.359181651454312e+00	 1.198184162989385e+01
 1.372623051084200e+00	 1.372623051084200e+00	 1.190341009144617e+01
 1.359181651454312e+00	 1.385934088952578e+00	 1.182098306057593e+01
 1.345611798903904e+00	 1.399112893358248e+00	 1.173445384806387e+01
 1.331915438503089e+00	 1.412157630624030e+00	 1.164376297837581e+01
 1.318094550614880e+00	 1.425066505953664e+00	 1.154891827869092e+01
 1.304151149934398e+00	 1.437837764260543e+00	 1.145001494870510e+01
 1.446551143852389e+00	 1.312054380950392e+00	 1.225219323538670e+01
 1.433702490985146e+00	 1.326082279441219e+00	 1.218949216047750e+01
 1.420715387128079e+00	 1.339986922705247e+00	 1.212275818300172e+01
 1.407591598003729e+00	 1.353766283838187e+00	 1.205203236354199e+01
 1.394332929284925e+00	 1.367418370475903e+00	 1.197732601053314e+01
 1.380941225761043e+00	 1.380941225761043e+00	 1.189863999966117e+01
 1.367418370475903e+00	 1.394332929284925e+00	 1.181598469043601e+01
 1.353766283838187e+00	 1.407591598003729e+00	 1.172940029410836e+01
 1.339986922705247e+00	 1.420715387128080e+00	 1.163897754217583e+01
 1.326082279441218e+00	 1.433702490985147e+00	 1.154487850078314e+01
 1.312054380950392e+00	 1.446551143852389e+00	 1.144735737340305e+01
 1.455264483948489e+00	 1.319957576142518e+00	 1.224302188389744e+01
 1.442338436871656e+00	 1.334069972060681e+00	 1.218143380620344e+01
 1.429273104841706e+00	 1.348058370320901e+00	 1.211531659250787e+01
 1.416070264217061e+00	 1.361920731809767e+00	 1.204484631907494e+01
 1.402731731547083e+00	 1.375655052162077e+00	 1.197016957685388e+01
 1.389259362733291e+00	 1.389259362733291e+00	 1.189142346518568e+01
 1.375655052162077e+00	 1.402731731547083e+00	 1.180875621466653e+01
 1.361920731809767e+00	 1.416070264217062e+00	 1.172234828777164e+01
 1.348058370320900e+00	 1.429273104841706e+00	 1.163243380068056e+01
 1.334069972060680e+00	 1.442338436871656e+00	 1.153932210561025e+01
 1.319957576142519e+00	 1.455264483948489e+00	 1.144341936987217e+01
 1.463977794422778e+00	 1.327860744466745e+00	 1.223140808592083e+01
 1.450974353399435e+00	 1.342057637524986e+00	 1.217097185521583e+01
 1.437830793462513e+00	 1.356129790496675e+00	 1.210555436675787e+01
 1.424548901606284e+00	 1.370075152059319e+00	 1.203546118466795e+01
 1.411130505256602e+00	 1.383891705846691e+00	 1.196096831609535e+01
 1.397577471427094e+00	 1.397577471427093e+00	 1.188234291667570e+01
 1.383891705846690e+00	 1.411130505256601e+00	 1.179986465895034e+01
 1.370075152059319e+00	 1.424548901606284e+00	 1.171384760658598e+01
 1.356129790496675e+00	 1.437830793462513e+00	 1.162466243182630e+01
 1.342057637524986e+00	 1.450974353399436e+00	 1.153275880926037e+01
 1.327860744466744e+00	 1.463977794422778e+00	 1.143868781573648e+01
 1.472691085149193e+00	 1.335763894879038e+00	 1.221799895190975e+01
 1.459610250354728e+00	 1.350045284885854e+00	 1.215874741455805e+01
 1.446388462688109e+00	 1.364201192379197e+00	 1.209410482398049e+01
 1.433027519779434e+00	 1.378229553827521e+00	 1.202450072869529e+01
 1.419529259931027e+00	 1.392128340863597e+00	 1.195033470091932e+01
 1.405895561268600e+00	 1.405895561268601e+00	 1.187199779200769e+01
 1.392128340863597e+00	 1.419529259931027e+00	 1.178989468653363e+01
 1.378229553827521e+00	 1.433027519779434e+00	 1.170446639188107e+01
 1.364201192379197e+00	 1.446388462688109e+00	 1.161621329455797e+01
 1.350045284885854e+00	 1.459610250354729e+00	 1.152571840987125e+01
 1.335763894879037e+00	 1.472691085149193e+00	 1.143367064817768e+01
 1.481404366001672e+00	 1.343667036335363e+00	 1.220345537253894e+01
 1.468246137523778e+00	 1.358032923195002e+00	 1.214541543648217e+01
 1.454946122216097e+00	 1.372272585115093e+00	 1.208161532088413e+01
 1.441506128344547e+00	 1.386383946355048e+00	 1.201260307417241e+01
 1.427928005087904e+00	 1.400364966546649e+00	 1.193889599194937e+01
 1.414213641683958e+00	 1.414213641683958e+00	 1.186100286144751e+01
 1.400364966546649e+00	 1.427928005087905e+00	 1.177944694223405e+01
 1.386383946355048e+00	 1.441506128344547e+00	 1.169478951386035e+01
 1.372272585115093e+00	 1.454946122216097e+00	 1.160765381522233e+01
 1.358032923195002e+00	 1.468246137523778e+00	 1.151874919560498e+01
 1.343667036335363e+00	 1.481404366001672e+00	 1.142889529377176e+01
 1.490117646854151e+00	 1.351570177791688e+00	 1.218883265362872e+01
 1.476882024692827e+00	 1.366020561504152e+00	 1.213164295751485e+01
 1.463503781744086e+00	 1.380343977850990e+00	 1.206874551173656e+01
 1.449984736909660e+00	 1.394538338882576e+00	 1.200041897803764e+01
 1.436326750244783e+00	 1.408601592229701e+00	 1.192729253746747e+01
 1.422531722099315e+00	 1.422531722099315e+00	 1.184998654799828e+01
 1.408601592229700e+00	 1.436326750244782e+00	 1.176913639369585e+01
 1.394538338882575e+00	 1.449984736909660e+00	 1.168541693403688e+01
 1.380343977850989e+00	 1.463503781744087e+00	 1.159956737147545e+01
 1.366020561504151e+00	 1.476882024692828e+00	 1.151241635033011e+01
 1.351570177791689e+00	 1.490117646854151e+00	 1.142413628583177e+01
 1.498830937580566e+00	 1.359473328203981e+00	 1.217514326714796e+01
 1.485517921648121e+00	 1.374008208865019e+00	 1.211818293123263e+01
 1.472061450969681e+00	 1.388415379733511e+00	 1.205616560477709e+01
 1.458463355082810e+00	 1.402692740650777e+00	 1.198861010769019e+01
 1.444725504919207e+00	 1.416838227246606e+00	 1.191617607034165e+01
 1.430849811940822e+00	 1.430849811940822e+00	 1.183958924500058e+01
 1.416838227246607e+00	 1.444725504919207e+00	 1.175959066996336e+01
 1.402692740650777e+00	 1.458463355082811e+00	 1.167696206509742e+01
 1.388415379733511e+00	 1.472061450969682e+00	 1.159255167376606e+01
 1.374008208865019e+00	 1.485517921648121e+00	 1.150716352042522e+01
 1.359473328203981e+00	 1.498830937580566e+00	 1.141936474084249e+01
 1.507544248054855e+00	 1.367376496528208e+00	 1.216296682255120e+01
 1.494153838175901e+00	 1.381995874329325e+00	 1.210620351339943e+01
 1.480619139590489e+00	 1.396486799909287e+00	 1.204455461602402e+01
 1.466941992472033e+00	 1.410847160900331e+00	 1.197784731484951e+01
 1.453124278628725e+00	 1.425074880931220e+00	 1.190620800224952e+01
 1.439167920634625e+00	 1.439167920634625e+00	 1.183046163105084e+01
 1.425074880931220e+00	 1.453124278628725e+00	 1.175144839743881e+01
 1.410847160900331e+00	 1.466941992472033e+00	 1.167005012825703e+01
 1.396486799909286e+00	 1.480619139590489e+00	 1.158721714445625e+01
 1.381995874329324e+00	 1.494153838175901e+00	 1.150274508547948e+01
 1.367376496528208e+00	 1.507544248054855e+00	 1.141545754801122e+01
 1.516257588150955e+00	 1.375279691720334e+00	 1.215287818234926e+01
 1.502789784062410e+00	 1.389983566948787e+00	 1.209639102339842e+01
 1.489176857304114e+00	 1.404558247524940e+00	 1.203483503339610e+01
 1.475420658685366e+00	 1.419001608871911e+00	 1.196880890679359e+01
 1.461523080890884e+00	 1.433311562617396e+00	 1.189805771526018e+01
 1.447486057606874e+00	 1.447486057606873e+00	 1.182326298229936e+01
 1.433311562617395e+00	 1.461523080890884e+00	 1.174535753328426e+01
 1.419001608871910e+00	 1.475420658685366e+00	 1.166531650816134e+01
 1.404558247524940e+00	 1.489176857304114e+00	 1.158382180780098e+01
 1.389983566948787e+00	 1.502789784062411e+00	 1.149984625422909e+01
 1.375279691720334e+00	 1.516257588150954e+00	 1.141328271937906e+01
 1.524970967742801e+00	 1.383182922736329e+00	 1.214544726855454e+01
 1.511425769093892e+00	 1.397971295775124e+00	 1.208932353766798e+01
 1.497734613808164e+00	 1.412629731727097e+00	 1.202797835055107e+01
 1.483899363330846e+00	 1.427156093806193e+00	 1.196220009977111e+01
 1.469921921223230e+00	 1.441548281638985e+00	 1.189240085082800e+01
 1.455804232283716e+00	 1.455804232283716e+00	 1.181865948218398e+01
 1.441548281638985e+00	 1.469921921223230e+00	 1.174197369632092e+01
 1.427156093806192e+00	 1.483899363330846e+00	 1.166337780093640e+01
 1.412629731727097e+00	 1.497734613808164e+00	 1.158260829984499e+01
 1.397971295775124e+00	 1.511425769093892e+00	 1.149933497861792e+01
 1.383182922736329e+00	 1.524970967742801e+00	 1.141369901887953e+01
 1.304151149934398e+00	 1.437837764260543e+00	 1.145001494870510e+01
 1.290084887167663e+00	 1.450471822794356e+00	 1.134989687267336e+01
 1.275900222855564e+00	 1.462964805482419e+00	 1.125183143738636e+01
 1.261599292467899e+00	 1.475315057535638e+00	 1.115669519289255e+01
 1.247184261714619e+00	 1.487520966964715e+00	 1.106470936157640e+01
 1.232657325465736e+00	 1.499580965268043e+00	 1.097138657217694e+01
 1.218020706652968e+00	 1.511493528087118e+00	 1.087549159355475e+01
 1.203276655154269e+00	 1.523257175828953e+00	 1.077658030018723e+01
 1.188427446662401e+00	 1.534870474254928e+00	 1.067421938335678e+01
 1.173475381538720e+00	 1.546332035035660e+00	 1.056799192606331e+01
 1.158422783653388e+00	 1.557640516271426e+00	 1.045750279349113e+01
 1.312054380950392e+00	 1.446551143852389e+00	 1.144735737340305e+01
 1.297902875822050e+00	 1.459261765508050e+00	 1.134948523622856e+01
 1.283632251628205e+00	 1.471830456390216e+00	 1.125463599578292e+01
 1.269244656779712e+00	 1.484255551681668e+00	 1.116352176971737e+01
 1.254742270110833e+00	 1.496535429624355e+00	 1.107272204339965e+01
 1.240127299792605e+00	 1.508668512211454e+00	 1.098006556177003e+01
 1.225401982227828e+00	 1.520653265846755e+00	 1.088502717832812e+01
 1.210568580928831e+00	 1.532488201970846e+00	 1.078708622452347e+01
 1.195629385379192e+00	 1.544171877653532e+00	 1.068573260329393e+01
 1.180586709880574e+00	 1.555702896152070e+00	 1.058047273466655e+01
 1.165442892385915e+00	 1.567079907434738e+00	 1.047083531119632e+01
 1.319957576142519e+00	 1.455264483948489e+00	 1.144341936987216e+01
 1.305720829038970e+00	 1.468051668378985e+00	 1.134799022826969e+01
 1.291364245353043e+00	 1.480696067112107e+00	 1.125648957999162e+01
 1.276889986436589e+00	 1.493196005302559e+00	 1.116722028960012e+01
 1.262300244248123e+00	 1.505549851423582e+00	 1.107692237424240e+01
 1.247597240259643e+00	 1.517756017963176e+00	 1.098499238495979e+01
 1.232783224344966e+00	 1.529812962087472e+00	 1.089083472898189e+01
 1.217860473650733e+00	 1.541719186270669e+00	 1.079385778069500e+01
 1.202831291451272e+00	 1.553473238891041e+00	 1.069348035186532e+01
 1.187698005988492e+00	 1.565073714792516e+00	 1.058913800989593e+01
 1.172462969298033e+00	 1.576519255811419e+00	 1.048028919996623e+01
 1.327860744466744e+00	 1.463977794422778e+00	 1.143868781573648e+01
 1.313538755677786e+00	 1.476841541367849e+00	 1.134587577599359e+01
 1.299096212792025e+00	 1.489561647694569e+00	 1.125680338525019e+01
 1.284535290102263e+00	 1.502136428529598e+00	 1.116789330148707e+01
 1.269858192691221e+00	 1.514564242577500e+00	 1.107819343026401e+01
 1.255067155331808e+00	 1.526843492821135e+00	 1.098704644981495e+01
 1.240164441368813e+00	 1.538972627189002e+00	 1.089379164387478e+01
 1.225152341583141e+00	 1.550950139188946e+00	 1.079777186012801e+01
 1.210033173039821e+00	 1.562774568507736e+00	 1.069834035967317e+01
 1.194809277920956e+00	 1.574444501576006e+00	 1.059486751029591e+01
 1.179483022344845e+00	 1.585958572098149e+00	 1.048674727742843e+01
 1.335763894879037e+00	 1.472691085149193e+00	 1.143367064817768e+01
 1.321356664597867e+00	 1.485631394435333e+00	 1.134339920912032e+01
 1.306828162707106e+00	 1.498427208184078e+00	 1.125485034744822e+01
 1.292180576440471e+00	 1.511076831494068e+00	 1.116642310989203e+01
 1.277416124004856e+00	 1.523578613301213e+00	 1.107741238304704e+01
 1.262537053474058e+00	 1.535930947083256e+00	 1.098710157307137e+01
 1.247545641663800e+00	 1.548132271531081e+00	 1.089477000998639e+01
 1.232444192989220e+00	 1.560181071186202e+00	 1.079970029069137e+01
 1.217235038306016e+00	 1.572075877043904e+00	 1.070118551062274e+01
 1.201920533736452e+00	 1.583815267121545e+00	 1.059853633479992e+01
 1.186503059481451e+00	 1.595397866991604e+00	 1.049108786011790e+01
 1.343667036335363e+00	 1.481404366001672e+00	 1.142889529377176e+01
 1.329174564658583e+00	 1.494421237542127e+00	 1.133965961149162e+01
 1.314560103860235e+00	 1.507292758627112e+00	 1.125150245242468e+01
 1.299825854114945e+00	 1.520017224327256e+00	 1.116368549209001e+01
 1.284974046753761e+00	 1.532592973809827e+00	 1.107545023056890e+01
 1.270006943151350e+00	 1.545018391047462e+00	 1.098602571859304e+01
 1.254926833594356e+00	 1.557291905493443e+00	 1.089463635031170e+01
 1.239736036132134e+00	 1.569411992722963e+00	 1.080050959437450e+01
 1.224436895411033e+00	 1.581377175039831e+00	 1.070288361113879e+01
 1.209031781493464e+00	 1.593186022048139e+00	 1.060101470464418e+01
 1.193523088662955e+00	 1.604837151188464e+00	 1.049418455915331e+01
 1.351570177791689e+00	 1.490117646854151e+00	 1.142413628583177e+01
 1.336992464719297e+00	 1.503211080648922e+00	 1.133523534427769e+01
 1.322292045013366e+00	 1.516158309070147e+00	 1.124763495558006e+01
 1.307471131789418e+00	 1.528957617160446e+00	 1.116054942091248e+01
 1.292531969502666e+00	 1.541607334318448e+00	 1.107317152600145e+01
 1.277476832828642e+00	 1.554105835011679e+00	 1.098468073366566e+01
 1.262308025524913e+00	 1.566451539455823e+00	 1.089425136904973e+01
 1.247027879275047e+00	 1.578642914259752e+00	 1.080106074267971e+01
 1.231638752516050e+00	 1.590678473035801e+00	 1.070429715697725e+01
 1.216143029250475e+00	 1.602556776974794e+00	 1.060316774272470e+01
 1.200543117844460e+00	 1.614276435385410e+00	 1.049690607316536e+01
 1.359473328203981e+00	 1.498830937580566e+00	 1.141936474084249e+01
 1.344810373639379e+00	 1.512000933716407e+00	 1.133100204667601e+01
 1.330023994928446e+00	 1.525023869559658e+00	 1.124411563198405e+01
 1.315116418127626e+00	 1.537898020124923e+00	 1.115787678539198e+01
 1.300089900816302e+00	 1.550621705042177e+00	 1.107143410441046e+01
 1.284946730970892e+00	 1.563193289273830e+00	 1.098392208319657e+01
 1.269689225819899e+00	 1.575611183797957e+00	 1.089446969466075e+01
 1.254319730681126e+00	 1.587873846257096e+00	 1.080220890980693e+01
 1.238840617782245e+00	 1.599979781572099e+00	 1.070628309771896e+01
 1.223254285065971e+00	 1.611927542520518e+00	 1.060585525048499e+01
 1.207563154981066e+00	 1.623715730279118e+00	 1.050011597857998e+01
 1.367376496528208e+00	 1.507544248054855e+00	 1.141545754801123e+01
 1.352628300278196e+00	 1.520790806705272e+00	 1.132782716020692e+01
 1.337755962367429e+00	 1.533889450142124e+00	 1.124180449032317e+01
 1.322761721793301e+00	 1.546838443351973e+00	 1.115652210932668e+01
 1.307647849259399e+00	 1.559636096196122e+00	 1.107108880742234e+01
 1.292416646043057e+00	 1.572280764131842e+00	 1.098459858188776e+01
 1.277070442843746e+00	 1.584770848899578e+00	 1.089613962086463e+01
 1.261611598613535e+00	 1.597104799175518e+00	 1.080480322370719e+01
 1.246042499370795e+00	 1.609281111189010e+00	 1.070969259902013e+01
 1.230365556998435e+00	 1.621298329304314e+00	 1.060993148242359e+01
 1.214583208027878e+00	 1.633155046566267e+00	 1.050467251734747e+01
 1.375279691720334e+00	 1.516257588150954e+00	 1.141328271937906e+01
 1.360446253495114e+00	 1.529580709576206e+00	 1.132656963737234e+01
 1.345487956092266e+00	 1.542755060864019e+00	 1.124155348474338e+01
 1.330407051450178e+00	 1.555778896972881e+00	 1.115733226782904e+01
 1.315205823396690e+00	 1.568650517995386e+00	 1.107297920592524e+01
 1.299886586510095e+00	 1.581368269883639e+00	 1.098755212444978e+01
 1.284451684960885e+00	 1.593930545140421e+00	 1.090010284564501e+01
 1.268903491335437e+00	 1.606335783475543e+00	 1.080968651507294e+01
 1.253244405442876e+00	 1.618582472426819e+00	 1.071537080270043e+01
 1.237476853106353e+00	 1.630669147945189e+00	 1.061624491830174e+01
 1.221603284939996e+00	 1.642594394943537e+00	 1.051142838220937e+01
 1.383182922736329e+00	 1.524970967742801e+00	 1.141369901887953e+01
 1.368264242149502e+00	 1.538370652289902e+00	 1.132807964814369e+01
 1.353219984864908e+00	 1.551620711771822e+00	 1.124420622465159e+01
 1.338052415761991e+00	 1.564719391118931e+00	 1.116114620192367e+01
 1.322763831792903e+00	 1.577664980655074e+00	 1.107794132086280e+01
 1.307356560836964e+00	 1.590455816827145e+00	 1.099361741391468e+01
 1.291832960535745e+00	 1.603090282900222e+00	 1.090719420832383e+01
 1.276195417109999e+00	 1.615566809617696e+00	 1.081769506433398e+01
 1.260446344159666e+00	 1.627883875825811e+00	 1.072415658473680e+01
 1.244588181448208e+00	 1.640040009062151e+00	 1.062563803312937e+01
 1.228623393672523e+00	 1.652033786107606e+00	 1.052123049958661e+01
 1.158422783653388e+00	 1.557640516271426e+00	 1.045750279349114e+01
 1.143274581349313e+00	 1.568792741236402e+00	 1.034367111133851e+01
 1.128030583493148e+00	 1.579789403500755e+00	 1.022775683004362e+01
 1.112693167706690e+00	 1.590629310130548e+00	 1.010998931788845e+01
 1.097264730414323e+00	 1.601311316278856e+00	 9.989864910713196e+00
 1.081747685638671e+00	 1.611834325527005e+00	 9.867064602322824e+00
 1.066144463789933e+00	 1.622197290189948e+00	 9.742701254639423e+00
 1.050457510450147e+00	 1.632399211585682e+00	 9.617815974546556e+00
 1.034689285153599e+00	 1.642439140268708e+00	 9.493374768102488e+00
 1.018842260164602e+00	 1.652316176227488e+00	 9.370276928857614e+00
 1.002918919253879e+00	 1.662029469046026e+00	 9.249363105513439e+00
 1.165442892385915e+00	 1.567079907434738e+00	 1.047083531119632e+01
 1.150202891104154e+00	 1.578299715524569e+00	 1.035779709137808e+01
 1.134866513743672e+00	 1.589363018194816e+00	 1.024272943808544e+01
 1.119436152334801e+00	 1.600268615282298e+00	 1.012586802498154e+01
 1.103914217824407e+00	 1.611015355002269e+00	 1.000728043399455e+01
 1.088303138864240e+00	 1.621602134291702e+00	 9.886056507526959e+00
 1.072605360592938e+00	 1.632027899116527e+00	 9.763011443463991e+00
 1.056823343412917e+00	 1.642291644742687e+00	 9.639217926820550e+00
 1.040959561763390e+00	 1.652392415970992e+00	 9.515672701882242e+00
 1.025016502890749e+00	 1.662329307335797e+00	 9.393305318327613e+00
 1.008996665617520e+00	 1.672101463267545e+00	 9.272986534873743e+00
 1.172462969298033e+00	 1.576519255811419e+00	 1.048028919996623e+01
 1.157131169454733e+00	 1.587806646719724e+00	 1.036798074908862e+01
 1.141702413008702e+00	 1.598936589493746e+00	 1.025370372084828e+01
 1.126179106398744e+00	 1.609907876741105e+00	 1.013770002632755e+01
 1.110563675094139e+00	 1.620719349739254e+00	 1.002026617440987e+01
 1.094858562375696e+00	 1.631369898780848e+00	 9.900738504714131e+00
 1.079066228110422e+00	 1.641858463482828e+00	 9.779151395327357e+00
 1.063189147521045e+00	 1.652184033059101e+00	 9.656610155715647e+00
 1.047229809951640e+00	 1.662345646556821e+00	 9.534143444368549e+00
 1.031190717630604e+00	 1.672342393056261e+00	 9.412712385971147e+00
 1.015074384432199e+00	 1.682173411834322e+00	 9.293219323239207e+00
 1.179483022344845e+00	 1.585958572098149e+00	 1.048674727742843e+01
 1.164059424252114e+00	 1.597313545595146e+00	 1.037510878163796e+01
 1.148538289034612e+00	 1.608510128246367e+00	 1.026157094200715e+01
 1.132922037539561e+00	 1.619547105430247e+00	 1.014638179596097e+01
 1.117213109758606e+00	 1.630423311486468e+00	 1.002984790201215e+01
 1.101413963601566e+00	 1.641137630063392e+00	 9.911957266099861e+00
 1.085527073663765e+00	 1.651688994428985e+00	 9.791961526465014e+00
 1.069554929988191e+00	 1.662076387745146e+00	 9.670827556863090e+00
 1.053500036823733e+00	 1.672298843305390e+00	 9.549617057876027e+00
 1.037364911380739e+00	 1.682355444735922e+00	 9.429324003341847e+00
 1.021152082585156e+00	 1.692245326160126e+00	 9.310883753022557e+00
 1.186503059481451e+00	 1.595397866991604e+00	 1.049108786011791e+01
 1.170987663347363e+00	 1.606820422924118e+00	 1.038006351750765e+01
 1.155374149567775e+00	 1.618083645301493e+00	 1.026721810360416e+01
 1.139664953398294e+00	 1.629186312273003e+00	 1.015280562662516e+01
 1.123862529352896e+00	 1.640127251240572e+00	 1.003714138078341e+01
 1.107969349970377e+00	 1.650905339208281e+00	 9.920564433122745e+00
 1.091987904574347e+00	 1.661519503095138e+00	 9.802287201114044e+00
 1.075920698028017e+00	 1.671968720011044e+00	 9.682709917585843e+00
 1.059770249485054e+00	 1.682252017495891e+00	 9.562928402805223e+00
 1.043539091137727e+00	 1.692368473721824e+00	 9.443970707087100e+00
 1.027229766963631e+00	 1.702317217658724e+00	 9.326806597387860e+00
 1.193523088662955e+00	 1.604837151188464e+00	 1.049418455915330e+01
 1.177915894591547e+00	 1.616327289479919e+00	 1.038372272685536e+01
 1.162210002354564e+00	 1.627657151507943e+00	 1.027152777194508e+01
 1.146407861615984e+00	 1.638825508192653e+00	 1.015785947203029e+01
 1.130511941412098e+00	 1.649831179998225e+00	 1.004304180683691e+01
 1.114524728910660e+00	 1.660673037284462e+00	 9.927467055510562e+00
 1.098448728163548e+00	 1.671350000621422e+00	 9.810978392606078e+00
 1.082286458854183e+00	 1.681861041067016e+00	 9.693101608097791e+00
 1.066040455040990e+00	 1.692205180407515e+00	 9.574916859577170e+00
 1.049713263898141e+00	 1.702381491361012e+00	 9.457487452206328e+00
 1.033307444454865e+00	 1.712389097743888e+00	 9.341818905381260e+00
 1.200543117844460e+00	 1.614276435385410e+00	 1.049690607316536e+01
 1.184844125835732e+00	 1.625834156035833e+00	 1.038695942891465e+01
 1.169045855141352e+00	 1.637230657714536e+00	 1.027537790028913e+01
 1.153150769833674e+00	 1.648464704112480e+00	 1.016242678563399e+01
 1.137161353471300e+00	 1.659535108756087e+00	 1.004843865376199e+01
 1.121080107850943e+00	 1.670440735360884e+00	 9.933817671357890e+00
 1.104909551752749e+00	 1.681180498147979e+00	 9.818889340235360e+00
 1.088652219680349e+00	 1.691753362123285e+00	 9.702851268102666e+00
 1.072310660596926e+00	 1.702158343319454e+00	 9.586426045564384e+00
 1.055887436658556e+00	 1.712394509000529e+00	 9.470713359876292e+00
 1.039385121946099e+00	 1.722460977829384e+00	 9.356755781173620e+00
 1.207563154981066e+00	 1.623715730279118e+00	 1.050011597857999e+01
 1.191772364930981e+00	 1.635341033365139e+00	 1.039064169654020e+01
 1.175881715674515e+00	 1.646804174770089e+00	 1.027964164845179e+01
 1.159893685692407e+00	 1.658103910955762e+00	 1.016738635607611e+01
 1.143810773065590e+00	 1.669239048510817e+00	 1.005421683327111e+01
 1.127635494219755e+00	 1.680208444506494e+00	 9.940549152680967e+00
 1.111370382663330e+00	 1.691011006814942e+00	 9.826878492054560e+00
 1.095017987720175e+00	 1.701645694390070e+00	 9.712811488971548e+00
 1.078580873258247e+00	 1.712111517510902e+00	 9.598303527215464e+00
 1.062061616415544e+00	 1.722407537987418e+00	 9.484491460059830e+00
 1.045462806324574e+00	 1.732532869328982e+00	 9.372456157647651e+00
 1.214583208027878e+00	 1.633155046566267e+00	 1.050467251734747e+01
 1.198700619728363e+00	 1.644847932241118e+00	 1.039563245800339e+01
 1.182717591700425e+00	 1.656377713523421e+00	 1.028518719943409e+01
 1.166636616833224e+00	 1.667743139645779e+00	 1.017361213939343e+01
 1.150460207730057e+00	 1.678943010259074e+00	 1.006125654373060e+01
 1.134190895445624e+00	 1.689976175790240e+00	 9.948548361847459e+00
 1.117831228216673e+00	 1.700841537762451e+00	 9.835998502119287e+00
 1.101383770187321e+00	 1.711538049077594e+00	 9.723838491672389e+00
 1.084851100130340e+00	 1.722064714261049e+00	 9.611400527560818e+00
 1.068235810165679e+00	 1.732420589668723e+00	 9.499668429099936e+00
 1.051540504477531e+00	 1.742604783656452e+00	 9.389762564554950e+00
 1.221603284939996e+00	 1.642594394943537e+00	 1.051142838220937e+01
 1.205628898078941e+00	 1.654354863437054e+00	 1.040278929613357e+01
 1.189553490965455e+00	 1.665951284823348e+00	 1.029287757318657e+01
 1.173379570897167e+00	 1.677382401105812e+00	 1.018197308813090e+01
 1.157109664999789e+00	 1.688647004997517e+00	 1.007043311532598e+01
 1.140746318957079e+00	 1.699743940281072e+00	 9.958697402738325e+00
 1.124292095734157e+00	 1.710672102130643e+00	 9.847292685615551e+00
 1.107749574295450e+00	 1.721430437396080e+00	 9.736791800607783e+00
 1.091121348318589e+00	 1.732017944849090e+00	 9.626571629275801e+00
 1.074410024905534e+00	 1.742433675391487e+00	 9.517094322496385e+00
 1.057618223292210e+00	 1.752676732225560e+00	 9.409520891453511e+00
 1.228623393672523e+00	 1.652033786107606e+00	 1.052123049958661e+01
 1.212557207833782e+00	 1.663861837726225e+00	 1.041296424490189e+01
 1.196389421215979e+00	 1.675524899518690e+00	 1.030357043760881e+01
 1.180122555525278e+00	 1.687021706259139e+00	 1.019333297746356e+01
 1.163759152409873e+00	 1.698351043722806e+00	 1.008261685199108e+01
 1.147301772182650e+00	 1.709511749047934e+00	 9.971873479146510e+00
 1.130752992537162e+00	 1.720502711059654e+00	 9.861645468693684e+00
 1.114115407258219e+00	 1.731322870555745e+00	 9.752570763232960e+00
 1.097391624928381e+00	 1.741971220554215e+00	 9.644674473470191e+00
 1.080584267631681e+00	 1.752446806502753e+00	 9.537622303047417e+00
 1.063695969655851e+00	 1.762748726450076e+00	 9.432580145630052e+00
 1.002918919253879e+00	 1.662029469046026e+00	 9.249363105513439e+00
 9.869217567872255e-01	 1.671578218432743e+00	 9.129853027871272e+00
 9.708532774200117e-01	 1.680961675525948e+00	 9.010453034563602e+00
 9.547159939035045e-01	 1.690179141748315e+00	 8.891165784854103e+00
 9.385124255491877e-01	 1.699229968422211e+00	 8.771961698505519e+00
 9.222450970151566e-01	 1.708113556751635e+00	 8.652785821613501e+00
 9.059165370982701e-01	 1.716829357769528e+00	 8.533564113086305e+00
 8.895292775331920e-01	 1.725376872250868e+00	 8.414209126797239e+00
 8.730858517994192e-01	 1.733755650591940e+00	 8.294625069899043e+00
 8.565887939373744e-01	 1.741965292656229e+00	 8.174712223260638e+00
 8.400406373746230e-01	 1.750005447587452e+00	 8.054370715409867e+00
 1.008996665617520e+00	 1.672101463267545e+00	 9.272986534873743e+00
 9.929025594255072e-01	 1.681708078624853e+00	 9.153907393864040e+00
 9.767367041484367e-01	 1.691148400007888e+00	 9.034762476908140e+00
 9.605016277649898e-01	 1.700421724605906e+00	 8.915611477301436e+00
 9.441998648538209e-01	 1.709527399810251e+00	 8.796483929861614e+00
 9.278339553725964e-01	 1.718464823196184e+00	 8.677386237959274e+00
 9.114064434428278e-01	 1.727233442469876e+00	 8.558308088678249e+00
 8.949198761416337e-01	 1.735832755380973e+00	 8.439228230402982e+00
 8.783768023015407e-01	 1.744262309601135e+00	 8.320119592830968e+00
 8.617797713194000e-01	 1.752521702569001e+00	 8.200953735110922e+00
 8.451313319754912e-01	 1.760610581302076e+00	 8.081704613462374e+00
 1.015074384432199e+00	 1.682173411834322e+00	 9.293219323239207e+00
 9.988833349541696e-01	 1.691837892899842e+00	 9.174833289906164e+00
 9.826201042085320e-01	 1.701335078314870e+00	 9.056233188273758e+00
 9.662872354013176e-01	 1.710664261035258e+00	 8.937521102211452e+00
 9.498872783782859e-01	 1.719824784521351e+00	 8.818770615150584e+00
 9.334227883966095e-01	 1.728816042719689e+00	 8.700034033692731e+00
 9.168963249023858e-01	 1.737637480009687e+00	 8.581348966004212e+00
 9.003104503151237e-01	 1.746288591115674e+00	 8.462744228491770e+00
 8.836677288203131e-01	 1.754768920984701e+00	 8.344245060196869e+00
 8.669707251711695e-01	 1.763078064630568e+00	 8.225877630288249e+00
 8.502220035006200e-01	 1.771215666944585e+00	 8.107672829924013e+00
 1.021152082585156e+00	 1.692245326160126e+00	 9.310883753022557e+00
 1.004864090150617e+00	 1.701967672737074e+00	 9.193443966214634e+00
 9.885034842673800e-01	 1.711521721990709e+00	 9.075658103075051e+00
 9.720728233687771e-01	 1.720906762643504e+00	 8.957656272290670e+00
 9.555746725676250e-01	 1.730122134224812e+00	 8.839541329656031e+00
 9.390116024205521e-01	 1.739167227052466e+00	 8.721396333623549e+00
 9.223861876981939e-01	 1.748041482179140e+00	 8.603291321433300e+00
 9.057010061624000e-01	 1.756744391303858e+00	 8.485289378437981e+00
 8.889586373515750e-01	 1.765275496649070e+00	 8.367451979426846e+00
 8.721616613752472e-01	 1.773634390803746e+00	 8.249843586950062e+00
 8.553126577189440e-01	 1.781820716533008e+00	 8.132535497773521e+00
 1.027229766963631e+00	 1.702317217658724e+00	 9.326806597387860e+00
 1.010844831792254e+00	 1.712097429615909e+00	 9.210557088441327e+00
 9.943868509920633e-01	 1.721708342579226e+00	 9.093834730737786e+00
 9.778583982236584e-01	 1.731149241037775e+00	 8.976783561081486e+00
 9.612620538668802e-01	 1.740419460589934e+00	 8.859521212912401e+00
 9.446004037777813e-01	 1.749518387924835e+00	 8.742146639162371e+00
 9.278760380515019e-01	 1.758445460768419e+00	 8.624747120581150e+00
 9.110915497922005e-01	 1.767200167794412e+00	 8.507404531186673e+00
 8.942495338911621e-01	 1.775782048500671e+00	 8.390200838945404e+00
 8.773525858141964e-01	 1.784190693051346e+00	 8.273222826238054e+00
 8.604033003993983e-01	 1.792425742085373e+00	 8.156566021056511e+00
 1.033307444454865e+00	 1.712389097743888e+00	 9.341818905381260e+00
 1.016825566656487e+00	 1.722227175015709e+00	 9.226994551004106e+00
 1.000270211049664e+00	 1.731894951624236e+00	 9.111564989474168e+00
 9.836439665222504e-01	 1.741391707825206e+00	 8.995674349597502e+00
 9.669494287210934e-01	 1.750716775286017e+00	 8.879440820798649e+00
 9.501891988016536e-01	 1.759869537067113e+00	 8.762964678658754e+00
 9.333658821835604e-01	 1.768849427567704e+00	 8.646335559867467e+00
 9.164820873132627e-01	 1.777655932436222e+00	 8.529638957205218e+00
 8.995404244349122e-01	 1.786288588445936e+00	 8.412961911892397e+00
 8.825435043705818e-01	 1.794746983336180e+00	 8.296397887355242e+00
 8.654939373109174e-01	 1.803030755619707e+00	 8.180050815111789e+00
 1.039385121946099e+00	 1.722460977829384e+00	 9.356755781173620e+00
 1.022806301520719e+00	 1.732356920415837e+00	 9.243582284192467e+00
 1.006153571107265e+00	 1.742081560669562e+00	 9.129655033758571e+00
 9.894295348208419e-01	 1.751634174612928e+00	 9.015104666846959e+00
 9.726368035753066e-01	 1.761014089982363e+00	 8.900035971958195e+00
 9.557779938255262e-01	 1.770220686209618e+00	 8.784536252742260e+00
 9.388557263156188e-01	 1.779253394367175e+00	 8.668682903988664e+00
 9.218726248343254e-01	 1.788111697078175e+00	 8.552550169486706e+00
 9.048313149786624e-01	 1.796795128391299e+00	 8.436215058254001e+00
 8.877344229269672e-01	 1.805303273621061e+00	 8.319762402614550e+00
 8.705845742224367e-01	 1.813635769154039e+00	 8.203289048539247e+00
 1.045462806324574e+00	 1.732532869328982e+00	 9.372456157647651e+00
 1.028787043162357e+00	 1.742486677295656e+00	 9.261150055298586e+00
 1.012036937831948e+00	 1.752268181259019e+00	 9.148915075765974e+00
 9.952151096757235e-01	 1.761876653008074e+00	 9.035855024496039e+00
 9.783241848745621e-01	 1.771311416348271e+00	 8.922047588774101e+00
 9.613667951827555e-01	 1.780571847082668e+00	 8.807553074869844e+00
 9.443455766689268e-01	 1.789657372957015e+00	 8.692422319472286e+00
 9.272631684641258e-01	 1.798567473569159e+00	 8.576703743727922e+00
 9.101222115182498e-01	 1.807301680243189e+00	 8.460449525465664e+00
 8.929253473659170e-01	 1.815859575868802e+00	 8.343720872466951e+00
 8.756752169028911e-01	 1.824240794706395e+00	 8.226592386843038e+00
 1.051540504477531e+00	 1.742604783656452e+00	 9.389762564554950e+00
 1.034767798358804e+00	 1.752616457134527e+00	 9.280531264011094e+00
 1.017920317890796e+00	 1.762454824936426e+00	 9.170159201005502e+00
 1.001000697643183e+00	 1.772119154617777e+00	 9.058710245903971e+00
 9.840115790639008e-01	 1.781608766053043e+00	 8.946221533121486e+00
 9.669556092066978e-01	 1.790923031416581e+00	 8.832712607273589e+00
 9.498354394647349e-01	 1.800061375127404e+00	 8.718193704471577e+00
 9.326537243114020e-01	 1.809023273758058e+00	 8.602673135795730e+00
 9.154131200495113e-01	 1.817808255908038e+00	 8.486163747556427e+00
 8.981162835699945e-01	 1.826415902042216e+00	 8.368688440508354e+00
 8.807658711212150e-01	 1.834845844294805e+00	 8.250284737682620e+00
 1.057618223292210e+00	 1.752676732225560e+00	 9.409520891453511e+00
 1.040748573887467e+00	 1.762746271411811e+00	 9.302562732298874e+00
 1.023803717950891e+00	 1.772641503245603e+00	 9.194205178386907e+00
 1.006786305279511e+00	 1.782361691049168e+00	 9.084459289754809e+00
 9.896989925883661e-01	 1.791906150765979e+00	 8.973308437101100e+00
 9.725444422307108e-01	 1.801274250941676e+00	 8.860717892493657e+00
 9.553253209242929e-01	 1.810465412668524e+00	 8.746643514951669e+00
 9.380442984848919e-01	 1.819479109493761e+00	 8.631039496591724e+00
 9.207040465682842e-01	 1.828314867292277e+00	 8.513865142888674e+00
 9.033072374217640e-01	 1.836972264104116e+00	 8.395090668471500e+00
 8.858565426463437e-01	 1.845450929937296e+00	 8.274701997669961e+00
 1.063695969655851e+00	 1.762748726450076e+00	 9.432580145630052e+00
 1.046729376525748e+00	 1.772876131606872e+00	 9.328084488996309e+00
 1.029687144679316e+00	 1.782828227730364e+00	 9.221874264932449e+00
 1.012571939140996e+00	 1.792604273909383e+00	 9.113895068497264e+00
 9.953864318929994e-01	 1.802203582156380e+00	 9.004063528956907e+00
 9.781333005881508e-01	 1.811625517388269e+00	 8.892277380668512e+00
 9.608152272688503e-01	 1.820869497370556e+00	 8.778424587411550e+00
 9.434348970933334e-01	 1.829934992625153e+00	 8.662391484420402e+00
 9.259949970704054e-01	 1.838821526302337e+00	 8.544069910552931e+00
 9.084982148037896e-01	 1.847528674017312e+00	 8.423363311200239e+00
 8.909472372472118e-01	 1.856056063651895e+00	 8.301085643738610e+00
 8.400406373746230e-01	 1.750005447587452e+00	 8.054370715409860e+00
 8.234410880217928e-01	 1.757877136977895e+00	 7.933293920456623e+00
 8.067954842710855e-01	 1.765578725366338e+00	 7.811623010704631e+00
 7.901063512515739e-01	 1.773110006971933e+00	 7.689870797115215e+00
 7.733762089340573e-01	 1.780470824259026e+00	 7.568551306086123e+00
 7.566075710220594e-01	 1.787661067595299e+00	 7.448179699725205e+00
 7.398029438586736e-01	 1.794680674880653e+00	 7.329269356449712e+00
 7.229648253500979e-01	 1.801529631147544e+00	 7.211582067899794e+00
 7.060957039066916e-01	 1.808207968133511e+00	 7.095418866603856e+00
 6.891980574023246e-01	 1.814715763826659e+00	 6.981813736826551e+00
 6.722743521527770e-01	 1.821053141984895e+00	 6.871729946135116e+00
 8.451313319754912e-01	 1.760610581302076e+00	 8.081704613462374e+00
 8.284311883982431e-01	 1.768529973583554e+00	 7.962075956405084e+00
 8.116847113308230e-01	 1.776278234041211e+00	 7.842117883494451e+00
 7.948944412047361e-01	 1.783855155647144e+00	 7.722266497913646e+00
 7.780629132619520e-01	 1.791260579911007e+00	 7.602957909509286e+00
 7.611926564391870e-01	 1.798494396536087e+00	 7.484628243102437e+00
 7.442861922681204e-01	 1.805556543045941e+00	 7.367713045981406e+00
 7.273460337924097e-01	 1.812447004382308e+00	 7.252214760282004e+00
 7.103746845023271e-01	 1.819165812475041e+00	 7.137936579999712e+00
 6.933746372878039e-01	 1.825713045784843e+00	 7.025783462056669e+00
 6.763483734106404e-01	 1.832088828819590e+00	 6.916617238267238e+00
 8.502220035006200e-01	 1.771215666944585e+00	 8.107672829924013e+00
 8.334212661549043e-01	 1.779182761900822e+00	 7.989300900269749e+00
 8.165739162280078e-01	 1.786977694216102e+00	 7.870708984113978e+00
 7.996825094537925e-01	 1.794600255615463e+00	 7.752288000548602e+00
 7.827495963453265e-01	 1.802050286653877e+00	 7.634428614445871e+00
 7.657777210724446e-01	 1.809327676370243e+00	 7.517521277650845e+00
 7.487694203553398e-01	 1.816432361911771e+00	 7.401955639029930e+00
 7.317272223750566e-01	 1.823364328129484e+00	 7.287924721144492e+00
 7.146536457017074e-01	 1.830123607145550e+00	 7.174971638117629e+00
 6.975511982412144e-01	 1.836710277893269e+00	 7.063799443884891e+00
 6.804223762013230e-01	 1.843124465630477e+00	 6.955203812859293e+00
 8.553126577189440e-01	 1.781820716533008e+00	 8.132535497773521e+00
 8.384113269467240e-01	 1.789835514001785e+00	 8.015133663939032e+00
 8.214631045032778e-01	 1.797677118015976e+00	 7.897482819896506e+00
 8.044705614247695e-01	 1.805345319053576e+00	 7.779959720781820e+00
 7.874362634953103e-01	 1.812839956714869e+00	 7.662941552965941e+00
 7.703627701177997e-01	 1.820160919374367e+00	 7.546805953381440e+00
 7.532526332008895e-01	 1.827308143802943e+00	 7.431930365834777e+00
 7.361083960629553e-01	 1.834281614760896e+00	 7.318639887706155e+00
 7.189325923538969e-01	 1.841081364562715e+00	 7.206461409558218e+00
 7.017277449955721e-01	 1.847707472614294e+00	 7.095823164828397e+00
 6.844963651416198e-01	 1.854160064923426e+00	 6.987621646330068e+00
 8.604033003993983e-01	 1.792425742085373e+00	 8.156566021056504e+00
 8.434013764286491e-01	 1.800488241958527e+00	 8.039754016229331e+00
 8.263522816972709e-01	 1.808376517565810e+00	 7.922541903756622e+00
 8.092586025436930e-01	 1.816090358138168e+00	 7.805322804171203e+00
 7.921229200230343e-01	 1.823629602321209e+00	 7.688491899846718e+00
 7.749478087712200e-01	 1.830994137825059e+00	 7.572446378108141e+00
 7.577358358853254e-01	 1.838183901044251e+00	 7.457584677882772e+00
 7.404895598210213e-01	 1.845198876648367e+00	 7.344304957117854e+00
 7.232115293079590e-01	 1.852039097144211e+00	 7.232359026136812e+00
 7.059042822838949e-01	 1.858704642410273e+00	 7.123181952521548e+00
 6.885703448483265e-01	 1.865195639204305e+00	 7.018129049626779e+00
 8.654939373109174e-01	 1.803030755619707e+00	 8.180050815111786e+00
 8.483914202556274e-01	 1.811140957843133e+00	 8.063356291098929e+00
 8.312414533506262e-01	 1.819075904990570e+00	 7.946004441878848e+00
 8.140466382365904e-01	 1.826835385045925e+00	 7.828434804314675e+00
 7.968095712396281e-01	 1.834419235700128e+00	 7.711091552048179e+00
 7.795328422286730e-01	 1.841827343998920e+00	 7.594423308428320e+00
 7.622190334892045e-01	 1.849059645960495e+00	 7.478882227921318e+00
 7.448707186141715e-01	 1.856116126163721e+00	 7.365550045021417e+00
 7.274904614129574e-01	 1.862996817307717e+00	 7.256639212835079e+00
 7.100808148392007e-01	 1.869701799743567e+00	 7.151245556401820e+00
 6.926443199382378e-01	 1.876231200978983e+00	 7.049138278474187e+00
 8.705845742224367e-01	 1.813635769154039e+00	 8.203289048539247e+00
 8.533814640826053e-01	 1.821793673727685e+00	 8.086149099257906e+00
 8.361306250039811e-01	 1.829775292415230e+00	 7.968004026025898e+00
 8.188346739294878e-01	 1.837580411953535e+00	 7.849369366531358e+00
 8.014962224562220e-01	 1.845208869078855e+00	 7.730768814050510e+00
 7.841178756861255e-01	 1.852660550172549e+00	 7.612758117846944e+00
 7.667022310930837e-01	 1.859935390876473e+00	 7.498271985741177e+00
 7.492518774073219e-01	 1.867033375678780e+00	 7.388706553011936e+00
 7.317693935179559e-01	 1.873954537470907e+00	 7.283384481390142e+00
 7.142573473945061e-01	 1.880698957076532e+00	 7.180979332768553e+00
 6.967182950281494e-01	 1.887266762753328e+00	 7.081156569200784e+00
 8.756752169028911e-01	 1.824240794706395e+00	 8.226592386843034e+00
 8.583715135645310e-01	 1.832446401684270e+00	 8.108355043033288e+00
 8.410198021979743e-01	 1.840474691964758e+00	 7.988689330282746e+00
 8.236227150484120e-01	 1.848325451037684e+00	 7.868215916764116e+00
 8.061828789839458e-01	 1.855998514684620e+00	 7.748296513088984e+00
 7.887029143395459e-01	 1.863493768622547e+00	 7.632909963974912e+00
 7.711854337775199e-01	 1.870811148116984e+00	 7.522204382183247e+00
 7.536330411653885e-01	 1.877950637565369e+00	 7.415745245252318e+00
 7.360483304720182e-01	 1.884912270051457e+00	 7.313044377305287e+00
 7.184338846828290e-01	 1.891696126871526e+00	 7.212858809506979e+00
 7.007922747348558e-01	 1.898302337033208e+00	 7.114696394474864e+00
 8.807658711212150e-01	 1.834845844294805e+00	 8.250284737682616e+00
 8.633615743563505e-01	 1.843099153784970e+00	 8.130210434363214e+00
 8.459089904732440e-01	 1.851174115764127e+00	 8.008223812058560e+00
 8.284107670193888e-01	 1.859070514475054e+00	 7.887430474016639e+00
 8.108695461339298e-01	 1.866788184744651e+00	 7.771234760393877e+00
 7.932879633849009e-01	 1.874327011625514e+00	 7.659339035405904e+00
 7.756686466230691e-01	 1.881686930006824e+00	 7.551409314741795e+00
 7.580142148532869e-01	 1.888867924195309e+00	 7.447103630658537e+00
 7.403272771242078e-01	 1.895870027467044e+00	 7.346075540158327e+00
 7.226104314371870e-01	 1.902693321590905e+00	 7.247365730811902e+00
 7.048662636751530e-01	 1.909337936324492e+00	 7.150275267050259e+00
 8.858565426463437e-01	 1.845450929937296e+00	 8.274701997669961e+00
 8.683516521130121e-01	 1.853751942101872e+00	 8.152137341671224e+00
 8.507981953704288e-01	 1.861873575938307e+00	 8.031557286200107e+00
 8.331988352684450e-01	 1.869815614442336e+00	 7.914889886855412e+00
 8.155562292173046e-01	 1.877577891486179e+00	 7.801936743287036e+00
 7.978730280181586e-01	 1.885160291458049e+00	 7.692487266531854e+00
 7.801518747102892e-01	 1.892562748870793e+00	 7.586323673321574e+00
 7.623954034359340e-01	 1.899785247940425e+00	 7.483225317176049e+00
 7.446062383235884e-01	 1.906827822135344e+00	 7.382972357563649e+00
 7.267869923905969e-01	 1.913690553697029e+00	 7.284987807044074e+00
 7.089402664658354e-01	 1.920373573133048e+00	 7.188415544160533e+00
 8.909472372472118e-01	 1.856056063651895e+00	 8.301085643738615e+00
 8.733417524894620e-01	 1.864404778707057e+00	 8.181706806476550e+00
 8.556874224301664e-01	 1.872573084612268e+00	 8.065249567583681e+00
 8.379869252216069e-01	 1.880560763116212e+00	 7.951658694848891e+00
 8.202429335451992e-01	 1.888367647136431e+00	 7.840867338648899e+00
 8.024581134352861e-01	 1.895993620396753e+00	 7.732802602665933e+00
 7.846351231197355e-01	 1.903438617033687e+00	 7.627390420986776e+00
 7.667766118782452e-01	 1.910702621172538e+00	 7.524559738479409e+00
 7.488852189192234e-01	 1.917785666474032e+00	 7.424245996460177e+00
 7.309635722760763e-01	 1.924687835652253e+00	 7.326218466589713e+00
 7.130142877236986e-01	 1.931409259964744e+00	 7.229644232530653e+00
 6.722743521527770e-01	 1.821053141984895e+00	 6.871729946135116e+00
 6.553299243772712e-01	 1.827219237583592e+00	 6.763433530527985e+00
 6.383643378398380e-01	 1.833215354952771e+00	 6.655168760343818e+00
 6.213800162816212e-01	 1.839041750654204e+00	 6.547799938754840e+00
 6.043793680469526e-01	 1.844698724823686e+00	 6.442102757447318e+00
 5.873647851677576e-01	 1.850186620573209e+00	 6.338760956766650e+00
 5.703386424706818e-01	 1.855505823371984e+00	 6.238420494789668e+00
 5.533032967074321e-01	 1.860656760407238e+00	 6.141473710456473e+00
 5.362610857087838e-01	 1.865639899925688e+00	 6.047795598349627e+00
 5.192143275626742e-01	 1.870455750556598e+00	 5.957206277227222e+00
 5.021653198167613e-01	 1.875104860617363e+00	 5.869497143927476e+00
 6.763483734106404e-01	 1.832088828819590e+00	 6.916617238267245e+00
 6.593012614278556e-01	 1.838292291312541e+00	 6.808701630298760e+00
 6.422328624598602e-01	 1.844324745498048e+00	 6.700455789088540e+00
 6.251456149358041e-01	 1.850186449492671e+00	 6.592899309183096e+00
 6.080419417947179e-01	 1.855877705251066e+00	 6.487145136839562e+00
 5.909242495643728e-01	 1.861398857964514e+00	 6.384220260291544e+00
 5.737949274629952e-01	 1.866750295438206e+00	 6.284243108787194e+00
 5.566563465243375e-01	 1.871932447448166e+00	 6.187249087050734e+00
 5.395108587465575e-01	 1.876945785078724e+00	 6.093238148316875e+00
 5.223607962653339e-01	 1.881790820041482e+00	 6.002178836002728e+00
 5.052084705515905e-01	 1.886468103976685e+00	 5.914011930891353e+00
 6.804223762013230e-01	 1.843124465630477e+00	 6.955203812859293e+00
 6.632725804767016e-01	 1.849365294848351e+00	 6.847521863578585e+00
 6.461013695441572e-01	 1.855434085685527e+00	 6.739621107181631e+00
 6.289111965207814e-01	 1.861331097813352e+00	 6.633334844333860e+00
 6.117044989402426e-01	 1.867056635005323e+00	 6.529088164951267e+00
 5.944836978260957e-01	 1.872611044532003e+00	 6.427118945456074e+00
 5.772511967880862e-01	 1.877994716534552e+00	 6.327622038379225e+00
 5.600093811419506e-01	 1.883208083377769e+00	 6.230753956482523e+00
 5.427606170531710e-01	 1.888251618983586e+00	 6.136637096448450e+00
 5.255072507051068e-01	 1.893125838145927e+00	 6.045363525808014e+00
 5.082516074918878e-01	 1.897831295827866e+00	 5.956998359168017e+00
 6.844963651416198e-01	 1.854160064923426e+00	 6.987621646330068e+00
 6.672438860242450e-01	 1.860438260739223e+00	 6.881584039860158e+00
 6.499698634766612e-01	 1.866543388104580e+00	 6.776203968457684e+00
 6.326767653038555e-01	 1.872475708245618e+00	 6.671912120954606e+00
 6.153670436340872e-01	 1.878235526754670e+00	 6.569087155975810e+00
 5.980431339866490e-01	 1.883823192981570e+00	 6.468061229315760e+00
 5.807074543627593e-01	 1.889239099403433e+00	 6.369124997497829e+00
 5.633624043600948e-01	 1.894483680973827e+00	 6.272532117121818e+00
 5.460103643114145e-01	 1.899557414452273e+00	 6.178503262726013e+00
 5.286536944477144e-01	 1.904460817714999e+00	 6.087229688683347e+00
 5.112947340862865e-01	 1.909194449047900e+00	 5.998876363110866e+00
 6.885703448483265e-01	 1.865195639204305e+00	 7.018129049626779e+00
 6.712151825709201e-01	 1.871511201533362e+00	 6.914929554392028e+00
 6.538383486413026e-01	 1.877652665344577e+00	 6.811805522389520e+00
 6.364423255523265e-01	 1.883620293418843e+00	 6.709256070463978e+00
 6.190295800268116e-01	 1.889414393167320e+00	 6.607729788757469e+00
 6.016025620797557e-01	 1.895035316019105e+00	 6.507630164057182e+00
 5.841637041038212e-01	 1.900483456787263e+00	 6.409320453754786e+00
 5.667154199785925e-01	 1.905759253014122e+00	 6.313128031663554e+00
 5.492601042040779e-01	 1.910863184296781e+00	 6.219348230179536e+00
 5.318001310588786e-01	 1.915795771593767e+00	 6.128247706163864e+00
 5.143378537834191e-01	 1.920557576513781e+00	 6.040067360460631e+00
 6.926443199382378e-01	 1.876231200978983e+00	 7.049138278474178e+00
 6.751864746171605e-01	 1.882584129778971e+00	 6.948238252215194e+00
 6.577068294220129e-01	 1.888761929994889e+00	 6.846993835705221e+00
 6.402078815334965e-01	 1.894764865962399e+00	 6.745950721762352e+00
 6.226921122689755e-01	 1.900593246911484e+00	 6.645605269991941e+00
 6.051619861391389e-01	 1.906247426350501e+00	 6.546409859027648e+00
 5.876199499280771e-01	 1.911727801428458e+00	 6.448777662645211e+00
 5.700684317972678e-01	 1.917034812276435e+00	 6.353086872651495e+00
 5.525098404139512e-01	 1.922168941329108e+00	 6.259684394803289e+00
 5.349465641043210e-01	 1.927130712627296e+00	 6.168889047005164e+00
 5.173809700319189e-01	 1.931920691102502e+00	 6.080994291661648e+00
 6.967182950281494e-01	 1.887266762753328e+00	 7.081156569200784e+00
 6.791577666634009e-01	 1.893657058024251e+00	 6.982055066384360e+00
 6.615753102027233e-01	 1.899871194644889e+00	 6.882340000215907e+00
 6.439734375146670e-01	 1.905909438505661e+00	 6.782582265883992e+00
 6.263546445111395e-01	 1.911772100655376e+00	 6.683304319531970e+00
 6.087214101985226e-01	 1.917459536681650e+00	 6.584985491722104e+00
 5.910761957523333e-01	 1.922972146069429e+00	 6.488066696845902e+00
 5.734214436159426e-01	 1.928310371538547e+00	 6.392954563045681e+00
 5.557595766238247e-01	 1.933474698361253e+00	 6.300025010686137e+00
 5.380929971497636e-01	 1.938465653660655e+00	 6.209626310514656e+00
 5.204240862804185e-01	 1.943283805691055e+00	 6.122081655367605e+00
 7.007922747348558e-01	 1.898302337033208e+00	 7.114696394474864e+00
 6.831290632100757e-01	 1.904729998817408e+00	 7.016928901938973e+00
 6.654437953673650e-01	 1.910980471883943e+00	 6.918418041182125e+00
 6.477389977631384e-01	 1.917054023678000e+00	 6.819739004754421e+00
 6.300171809038636e-01	 1.922950967067209e+00	 6.721419151769001e+00
 6.122808382916292e-01	 1.928671659718442e+00	 6.623943314337953e+00
 5.945324454933950e-01	 1.934216503452590e+00	 6.527758470808262e+00
 5.767744592344408e-01	 1.939585943578240e+00	 6.433277812040008e+00
 5.590093165164879e-01	 1.944780468205213e+00	 6.340884230565466e+00
 5.412394337609276e-01	 1.949800607538910e+00	 6.250933265674513e+00
 5.234672059775513e-01	 1.954646933156435e+00	 6.163755540300645e+00
 7.048662636751530e-01	 1.909337936324492e+00	 7.150275267050263e+00
 6.871003687576190e-01	 1.915802964706641e+00	 7.053412494981200e+00
 6.693122892998686e-01	 1.922089774301424e+00	 6.955804823617695e+00
 6.515045665462122e-01	 1.928198634108790e+00	 6.858011296905936e+00
 6.336797255977082e-01	 1.934129858815194e+00	 6.760543453248467e+00
 6.158402744521826e-01	 1.939883808166771e+00	 6.663870656077077e+00
 5.979887030680684e-01	 1.945460886320355e+00	 6.568424760839371e+00
 5.801274824525848e-01	 1.950861541173294e+00	 6.474604146324666e+00
 5.622590637747314e-01	 1.956086263672985e+00	 6.382777141982415e+00
 5.443858775035354e-01	 1.961135587107130e+00	 6.293284886225035e+00
 5.265103325719498e-01	 1.966010086375636e+00	 6.206443653610062e+00
 7.089402664658354e-01	 1.920373573133048e+00	 7.188415544160529e+00
 6.910716878064658e-01	 1.926875968240157e+00	 7.092062270954658e+00
 6.731807963841659e-01	 1.933199114486702e+00	 6.995079956609365e+00
 6.552701481311898e-01	 1.939343282427404e+00	 6.897991500278073e+00
 6.373422827432331e-01	 1.945308788567546e+00	 6.801272356673013e+00
 6.193997227139053e-01	 1.951095994732527e+00	 6.705355921368190e+00
 6.014449723931590e-01	 1.956705307415139e+00	 6.610638220855911e+00
 5.834805170701981e-01	 1.962137177101490e+00	 6.517481936977234e+00
 5.655088220813451e-01	 1.967392097576570e+00	 6.426219799226899e+00
 5.475323319433082e-01	 1.972470605210379e+00	 6.337157381875144e+00
 5.295534695122472e-01	 1.977373278225648e+00	 6.250575345876736e+00
 7.130142877236986e-01	 1.931409259964744e+00	 7.229644232530653e+00
 6.950430248570494e-01	 1.937949021966157e+00	 7.133438202158134e+00
 6.770493210041880e-01	 1.944308505029148e+00	 7.036825695734882e+00
 6.590357467853725e-01	 1.950487981263214e+00	 6.940273912216341e+00
 6.410048564909983e-01	 1.956487768992473e+00	 6.844202411437882e+00
 6.229591871105207e-01	 1.962308232121603e+00	 6.748988584173413e+00
 6.049012573854723e-01	 1.967949779479353e+00	 6.654972393978789e+00
 5.868335668871032e-01	 1.973412864140612e+00	 6.562460422161497e+00
 5.687585951191186e-01	 1.978697982727961e+00	 6.471729251236227e+00
 5.506788006459680e-01	 1.983805674693726e+00	 6.383028225800833e+00
 5.325966202470764e-01	 1.988736521583468e+00	 6.296581632900291e+00
 5.021653198167613e-01	 1.875104860617363e+00	 5.869497143927476e+00
 4.851163389384512e-01	 1.879587817809810e+00	 5.784224125243305e+00
 4.680696402436603e-01	 1.883905249711631e+00	 5.701174684359911e+00
 4.510274564389124e-01	 1.888057821805625e+00	 5.620453887803857e+00
 4.339919966870219e-01	 1.892046236314383e+00	 5.542149481161517e+00
 4.169654459367423e-01	 1.895871231430321e+00	 5.466333851135109e+00
 3.999499642784590e-01	 1.899533580533871e+00	 5.393065784062202e+00
 3.829476863260505e-01	 1.903034091400742e+00	 5.322392051043764e+00
 3.659607206250092e-01	 1.906373605399194e+00	 5.254347520919486e+00
 3.489911490868764e-01	 1.909552996678217e+00	 5.189203175012322e+00
 3.320410264500140e-01	 1.912573171347531e+00	 5.127861331649049e+00
 5.052084705515905e-01	 1.886468103976685e+00	 5.914011930891353e+00
 4.880561718682521e-01	 1.890978228147675e+00	 5.828435964348955e+00
 4.709061691985773e-01	 1.895321823935296e+00	 5.745274864565487e+00
 4.537607087794186e-01	 1.899499560855201e+00	 5.664623758467371e+00
 4.366220131612438e-01	 1.903512145385482e+00	 5.586559493441834e+00
 4.194922805337201e-01	 1.907360320192033e+00	 5.511142471997050e+00
 4.023736840775035e-01	 1.911044863342009e+00	 5.438418275970295e+00
 3.852683713423552e-01	 1.914566587506275e+00	 5.368419112187985e+00
 3.681784636516729e-01	 1.917926339151821e+00	 5.301164279338728e+00
 3.511060555335009e-01	 1.921124997725023e+00	 5.236809162143318e+00
 3.340532141780330e-01	 1.924163474826671e+00	 5.176132580607508e+00
 5.082516074918878e-01	 1.897831295827866e+00	 5.956998359168017e+00
 4.909959914718982e-01	 1.902368586854245e+00	 5.871341767951444e+00
 4.737426852956738e-01	 1.906738346409047e+00	 5.788234479133502e+00
 4.564939487303308e-01	 1.910941248040763e+00	 5.707768573980361e+00
 4.392520177139249e-01	 1.914978002482971e+00	 5.630017002712541e+00
 4.220191036769735e-01	 1.918849356875031e+00	 5.555035272572480e+00
 4.047973928903404e-01	 1.922556093970796e+00	 5.482862918340059e+00
 3.875890458396061e-01	 1.926099031336278e+00	 5.413524789048513e+00
 3.703961966260126e-01	 1.929479020537177e+00	 5.347032184532077e+00
 3.532209523940457e-01	 1.932696946317231e+00	 5.283460828032341e+00
 3.360653927856707e-01	 1.935753725768280e+00	 5.223459106200362e+00
 5.112947340862865e-01	 1.909194449047900e+00	 5.998876363110866e+00
 4.939358010809283e-01	 1.913758906837303e+00	 5.913309640091590e+00
 4.765791917494051e-01	 1.918154830070316e+00	 5.830372495853020e+00
 4.592271793890479e-01	 1.922382896328263e+00	 5.750160850664509e+00
 4.418820133254516e-01	 1.926443820600196e+00	 5.672750751898761e+00
 4.245459182299364e-01	 1.930338354498928e+00	 5.598199895997586e+00
 4.072210934635264e-01	 1.934067285465004e+00	 5.526548925593110e+00
 3.899097124475742e-01	 1.937631435959561e+00	 5.457822537467084e+00
 3.726139220611202e-01	 1.941031662646999e+00	 5.392030436887806e+00
 3.553358420650463e-01	 1.944268855568408e+00	 5.329201747370781e+00
 3.380775645530443e-01	 1.947343937306657e+00	 5.269853252223967e+00
 5.143378537834191e-01	 1.920557576513781e+00	 6.040067360460631e+00
 4.968756040268810e-01	 1.925149201004627e+00	 5.954709652613279e+00
 4.794156917742265e-01	 1.929571287856534e+00	 5.872010257655634e+00
 4.619604038529690e-01	 1.933824518683654e+00	 5.792075814125974e+00
 4.445120029762110e-01	 1.937909612730504e+00	 5.714992458151584e+00
 4.270727270560427e-01	 1.941827326083341e+00	 5.640827159477881e+00
 4.096447885436177e-01	 1.945578450869398e+00	 5.569628825161075e+00
 3.922303737960301e-01	 1.949163814444929e+00	 5.501429208618747e+00
 3.748316424700877e-01	 1.952584278573027e+00	 5.436243661567993e+00
 3.574507269430383e-01	 1.955840738592121e+00	 5.374079668287662e+00
 3.400897317602701e-01	 1.958934122576103e+00	 5.315331517248534e+00
 5.173809700319189e-01	 1.931920691102502e+00	 6.080994291661648e+00
 4.998154036412950e-01	 1.936539482263999e+00	 5.995913873634027e+00
 4.822521885845933e-01	 1.940987732705136e+00	 5.913471501324395e+00
 4.646936252194934e-01	 1.945266128072887e+00	 5.833791409235978e+00
 4.471419896465892e-01	 1.949375391867237e+00	 5.756976815074775e+00
 4.295995330187262e-01	 1.953316284647886e+00	 5.683111049683186e+00
 4.120684808771713e-01	 1.957089603228747e+00	 5.612258446924240e+00
 3.945510325147450e-01	 1.960696179861192e+00	 5.544465033320632e+00
 3.770493603660075e-01	 1.964136881406999e+00	 5.479759057052539e+00
 3.595656094245575e-01	 1.967412608501936e+00	 5.418146456764848e+00
 3.421018966874652e-01	 1.970524294710916e+00	 5.359914500341583e+00
 5.204240862804185e-01	 1.943283805691055e+00	 6.122081655367605e+00
 5.027552032557092e-01	 1.947929763523198e+00	 6.037296392859400e+00
 4.850886853949610e-01	 1.952404177553552e+00	 5.955082373643564e+00
 4.674268465860201e-01	 1.956707737461916e+00	 5.875588308083177e+00
 4.497719763169730e-01	 1.960841171003743e+00	 5.798941493407229e+00
 4.321263389814204e-01	 1.964805243212179e+00	 5.725248717035942e+00
 4.144921732107434e-01	 1.968600755587819e+00	 5.654596911930980e+00
 3.968716912334894e-01	 1.972228545277154e+00	 5.587053605957760e+00
 3.792670782619713e-01	 1.975689484240653e+00	 5.522667207034852e+00
 3.616804919061392e-01	 1.978984478411421e+00	 5.461458041237467e+00
 3.441140616147461e-01	 1.982114466845396e+00	 5.403626847201497e+00
 5.234672059775513e-01	 1.954646933156435e+00	 6.163755540300645e+00
 5.056950062016622e-01	 1.959320057690005e+00	 6.079233343874024e+00
 4.879251854197845e-01	 1.963820635339214e+00	 5.997171445087442e+00
 4.701600710499483e-01	 1.968149359816692e+00	 5.917749915989605e+00
 4.524019659677490e-01	 1.972306963133367e+00	 5.841127140234168e+00
 4.346531478075594e-01	 1.976294214795834e+00	 5.767440468943435e+00
 4.169158682908911e-01	 1.980111920991381e+00	 5.696806620428768e+00
 3.991923525820344e-01	 1.983760923761625e+00	 5.629321868047273e+00
 3.814847986710714e-01	 1.987242100165728e+00	 5.565062060214628e+00
 3.637953767843192e-01	 1.990556361434146e+00	 5.504074357384214e+00
 3.461262288222292e-01	 1.993704652113843e+00	 5.446497196683450e+00
 5.265103325719498e-01	 1.966010086375636e+00	 6.206443653610062e+00
 5.086348158106927e-01	 1.970710377672201e+00	 6.122102923530070e+00
 4.907616918735195e-01	 1.975237118999554e+00	 6.040069721160037e+00
 4.728933017086773e-01	 1.979591008103167e+00	 5.960562375665456e+00
 4.550319615793038e-01	 1.983772781249453e+00	 5.883777376785257e+00
 4.371799623605768e-01	 1.987783212418468e+00	 5.809889762014768e+00
 4.193395688641706e-01	 1.991623112484202e+00	 5.739053239237565e+00
 4.015130191901508e-01	 1.995293328383411e+00	 5.671400091459243e+00
 3.837025241063999e-01	 1.998794742273964e+00	 5.607040910013945e+00
 3.659102664556333e-01	 2.002128270683676e+00	 5.546059293092209e+00
 3.481384005900315e-01	 2.005294863650555e+00	 5.488558127706280e+00
 5.295534695122472e-01	 1.977373278225648e+00	 6.250575345876736e+00
 5.115746354143395e-01	 1.982100736377565e+00	 6.166285408560287e+00
 4.935982079706208e-01	 1.986653641472005e+00	 6.084110651480204e+00
 4.756265416596059e-01	 1.991032695287294e+00	 6.004314569587716e+00
 4.576619661320239e-01	 1.995238638345346e+00	 5.927138794879610e+00
 4.397067855039064e-01	 1.999272249099697e+00	 5.852803193311743e+00
 4.217632776771387e-01	 2.003134343111051e+00	 5.781505688495360e+00
 4.038336936876094e-01	 2.006825772211318e+00	 5.713421861308463e+00
 3.859202570810485e-01	 2.010347423657098e+00	 5.648704374226696e+00
 3.680251633166172e-01	 2.013700219273580e+00	 5.587480633598505e+00
 3.501505791982698e-01	 2.016885114589833e+00	 5.529846106526704e+00
 5.325966202470764e-01	 1.988736521583468e+00	 6.296581632900291e+00
 5.145144683441411e-01	 1.993491146713879e+00	 6.212163169524087e+00
 4.964347369255440e-01	 1.998070215693998e+00	 6.129630136701174e+00
 4.783597940001335e-01	 2.002474434335026e+00	 6.049298120669209e+00
 4.602919826062961e-01	 2.006704547414393e+00	 5.971460952079832e+00
 4.422336201009818e-01	 2.010761337859134e+00	 5.896390490672049e+00
 4.241869974763519e-01	 2.014645625916694e+00	 5.824336127804468e+00
 4.061543787041809e-01	 2.018358268314155e+00	 5.755524058535654e+00
 3.881380001081096e-01	 2.021900157406867e+00	 5.690156374607959e+00
 3.701400697638060e-01	 2.025272220317423e+00	 5.628410006798970e+00
 3.521627669270607e-01	 2.028475418065975e+00	 5.570401434367692e+00
 3.320410264500140e-01	 1.912573171347531e+00	 5.127861331649049e+00
 3.151095044078245e-01	 1.915435539560843e+00	 5.069714156658703e+00
 2.982014699522818e-01	 1.918140541201675e+00	 5.013719132846290e+00
 2.813188986771387e-01	 1.920689172387171e+00	 4.960100086623237e+00
 2.644637369962311e-01	 1.923082457892312e+00	 4.909037104980445e+00
 2.476379017345631e-01	 1.925321450300846e+00	 4.860677544679138e+00
 2.308432797453361e-01	 1.927407229153235e+00	 4.815146705252047e+00
 2.140817275527335e-01	 1.929340900092446e+00	 4.772558195226078e+00
 1.973550710202475e-01	 1.931123594008364e+00	 4.733024019732766e+00
 1.806651050443117e-01	 1.932756466181655e+00	 4.696664416217708e+00
 1.640135932729747e-01	 1.934240695427795e+00	 4.663617463294202e+00
 3.340532141780330e-01	 1.924163474826671e+00	 5.176132580607508e+00
 3.170190861378849e-01	 1.927043189156075e+00	 5.118452910311494e+00
 3.000085880204894e-01	 1.929764583262477e+00	 5.062735989164552e+00
 2.830237073918181e-01	 1.932328659299550e+00	 5.009258725415034e+00
 2.660664024610943e-01	 1.934736448252470e+00	 4.958250629984215e+00
 2.491386016693988e-01	 1.936989009083708e+00	 4.909904673931733e+00
 2.322422033043792e-01	 1.939087427875805e+00	 4.864387813567276e+00
 2.153790751408692e-01	 1.941032816971986e+00	 4.821851214845672e+00
 1.985510541072056e-01	 1.942826314115399e+00	 4.782440207318776e+00
 1.817599459770045e-01	 1.944469081587777e+00	 4.746303996327230e+00
 1.650075250861300e-01	 1.945962305348290e+00	 4.713605160304231e+00
 3.360653927856707e-01	 1.935753725768280e+00	 5.223459106200362e+00
 3.189286592127377e-01	 1.938650786135202e+00	 5.166281186953965e+00
 3.018156978980026e-01	 1.941388572632945e+00	 5.110902260868601e+00
 2.847285083796023e-01	 1.943968093451674e+00	 5.057645948190649e+00
 2.676690606620932e-01	 1.946390385786731e+00	 5.006784866795166e+00
 2.506392948025812e-01	 1.948656514979271e+00	 4.958551328244969e+00
 2.336411205231078e-01	 1.950767573653879e+00	 4.913147705297168e+00
 2.166764168491060e-01	 1.952724680854007e+00	 4.870756504814910e+00
 1.997470317737074e-01	 1.954528981176024e+00	 4.831550178555740e+00
 1.828547819476612e-01	 1.956181643902695e+00	 4.795700702569788e+00
 1.660014523945986e-01	 1.957683862136844e+00	 4.763388953994030e+00
 3.380775645530443e-01	 1.947343937306657e+00	 5.269853252223952e+00
 3.208382257962132e-01	 1.950258343652171e+00	 5.213182296596504e+00
 3.036228016325314e-01	 1.953012522485585e+00	 5.158174026856619e+00
 2.864333035722590e-01	 1.955607488033535e+00	 5.105192675323751e+00
 2.692717134152464e-01	 1.958044283701503e+00	 5.054547919201855e+00
 2.521399828345833e-01	 1.960323981209301e+00	 5.006505404803780e+00
 2.350400329866664e-01	 1.962447679723532e+00	 4.961296946995452e+00
 2.179737541474896e-01	 1.964416504987844e+00	 4.919130440242630e+00
 2.009430053749408e-01	 1.966231608451805e+00	 4.880199516016943e+00
 1.839496141968656e-01	 1.967894166399182e+00	 4.844692979436884e+00
 1.669953763246250e-01	 1.969405379076423e+00	 4.812804055918861e+00
 3.400897317602701e-01	 1.958934122576103e+00	 5.315331517248541e+00
 3.227477880521417e-01	 1.961865874860923e+00	 5.259143642540064e+00
 3.054299012717848e-01	 1.964636445992899e+00	 5.204511371433915e+00
 2.881380949015565e-01	 1.967246856235123e+00	 5.151833719002779e+00
 2.708743625365717e-01	 1.969698155203194e+00	 5.101451644315555e+00
 2.536406674658776e-01	 1.971991420995564e+00	 5.053658391625460e+00
 2.364389422801994e-01	 1.974127759320835e+00	 5.008709510544995e+00
 2.192710885060652e-01	 1.976108302622837e+00	 4.966832594103645e+00
 2.021389762660940e-01	 1.977934209204312e+00	 4.928236771831216e+00
 1.850444439652013e-01	 1.979606662350012e+00	 4.893121992972997e+00
 1.679892980024537e-01	 1.981126869449992e+00	 4.861688132680900e+00
 3.421018966874652e-01	 1.970524294710916e+00	 5.359914500341590e+00
 3.246573481443532e-01	 1.973473392915404e+00	 5.304156668234489e+00
 3.072369988634731e-01	 1.976260356327397e+00	 5.249878331787151e+00
 2.898428842992624e-01	 1.978886211246429e+00	 5.197507730947192e+00
 2.724770098420869e-01	 1.981352013498210e+00	 5.147411600281374e+00
 2.551413503969369e-01	 1.983658847559824e+00	 5.099905315155450e+00
 2.378378499888513e-01	 1.985807825681862e+00	 5.055262720659667e+00
 2.205684213948786e-01	 1.987800087008321e+00	 5.013725684804734e+00
 2.033349458023547e-01	 1.989636796695112e+00	 4.975513415603828e+00
 1.861392724932521e-01	 1.991319145027961e+00	 4.940831579471292e+00
 1.689832185543293e-01	 1.992848346540515e+00	 4.909881255949658e+00
 3.441140616147461e-01	 1.982114466845396e+00	 5.403626847201497e+00
 3.265669082366782e-01	 1.985080910969558e+00	 5.348216804738565e+00
 3.090440964553058e-01	 1.987884266661582e+00	 5.294242846253427e+00
 2.915476736971449e-01	 1.990525566257443e+00	 5.242157151090069e+00
 2.740796571478106e-01	 1.993005871792960e+00	 5.192346995118024e+00
 2.566420333282342e-01	 1.995326274123848e+00	 5.145144689133780e+00
 2.392367576977665e-01	 1.997487892042684e+00	 5.100837203781664e+00
 2.218657542839751e-01	 1.999491871393635e+00	 5.059675525244511e+00
 2.045309153389110e-01	 2.001339384185775e+00	 5.021883783895661e+00
 1.872341010216019e-01	 2.003031627705802e+00	 4.987668195767457e+00
 1.699771391064964e-01	 2.004569823630958e+00	 4.957225854090992e+00
 3.461262288222292e-01	 1.993704652113843e+00	 5.446497196683457e+00
 3.284764704929471e-01	 1.996688442177329e+00	 5.391323418762862e+00
 3.108511960949925e-01	 1.999508190167958e+00	 5.337576703348683e+00
 2.932524650269719e-01	 2.002164934458154e+00	 5.285728157193766e+00
 2.756823062697607e-01	 2.004659743293852e+00	 5.236180636643303e+00
 2.581427179602418e-01	 2.006993713909403e+00	 5.189278464685949e+00
 2.406356669920895e-01	 2.009167971639376e+00	 5.145316838317742e+00
 2.231630886434003e-01	 2.011183669028116e+00	 5.104550973302805e+00
 2.057268862309509e-01	 2.013041984937867e+00	 5.067205031207887e+00
 1.883289307908342e-01	 2.014744123656309e+00	 5.033480871076983e+00
 1.709710607851994e-01	 2.016291314004285e+00	 5.003566665343391e+00
 3.481384005900315e-01	 2.005294863650555e+00	 5.488558127706272e+00
 3.303860370769898e-01	 2.008295999692660e+00	 5.433479761274990e+00
 3.126582998302427e-01	 2.011132140019031e+00	 5.379855491533679e+00
 2.949572602205113e-01	 2.013804329038554e+00	 5.328170615360994e+00
 2.772849590239550e-01	 2.016313641207294e+00	 5.278838883444402e+00
 2.596434059934327e-01	 2.018661180138253e+00	 5.232211981588698e+00
 2.420345794569647e-01	 2.020848077708011e+00	 5.188588706161509e+00
 2.244604259431997e-01	 2.022875493161102e+00	 5.148223883709043e+00
 2.069228598336623e-01	 2.024744612212960e+00	 5.111337082402992e+00
 1.894237630415330e-01	 2.026456646152258e+00	 5.078121160304583e+00
 1.719649847166828e-01	 2.028012830943460e+00	 5.048750692475107e+00
 3.501505791982698e-01	 2.016885114589833e+00	 5.529846106526711e+00
 3.322956101526368e-01	 2.019903596669496e+00	 5.474692916644035e+00
 3.144654097087660e-01	 2.022756129387305e+00	 5.421058549683490e+00
 2.966620612095309e-01	 2.025443763188632e+00	 5.369438031407046e+00
 2.788876172264120e-01	 2.027967578739693e+00	 5.320251596850848e+00
 2.611440991282797e-01	 2.030328686032164e+00	 5.273853920664238e+00
 2.434334966775367e-01	 2.032528223484661e+00	 5.230543045455049e+00
 2.257577676534187e-01	 2.034567357041930e+00	 5.190569061232702e+00
 2.081188375022332e-01	 2.036447279272618e+00	 5.154142586512942e+00
 1.905185990142819e-01	 2.038169208466424e+00	 5.121443098779054e+00
 1.729589120271913e-01	 2.039734387731449e+00	 5.092627158869753e+00
 3.521627669270607e-01	 2.028475418065975e+00	 5.570401434367692e+00
 3.342051918837182e-01	 2.031511246261781e+00	 5.514973752306320e+00
 3.162725277782722e-01	 2.034380171445287e+00	 5.461168918238526e+00
 2.983668699257989e-01	 2.037083250098379e+00	 5.409487503061484e+00
 2.804902826931495e-01	 2.039621569097458e+00	 5.360352093872851e+00
 2.626447990652556e-01	 2.041996244812904e+00	 5.314116257262107e+00
 2.448324202389498e-01	 2.044208422205397e+00	 5.271073204535967e+00
 2.270551152441029e-01	 2.046259273919937e+00	 5.231464215144451e+00
 2.093148205918515e-01	 2.048149999378412e+00	 5.195486871875397e+00
 1.916134399496647e-01	 2.049881823871578e+00	 5.163303158345505e+00
 1.739528438429692e-01	 2.051455997651216e+00	 5.135047465977980e+00
 1.640135932729747e-01	 1.934240695427795e+00	 4.663617463294195e+00
 1.474050814400966e-01	 1.935577268415393e+00	 4.633734814690953e+00
 1.308384031087456e-01	 1.936767672429075e+00	 4.606657252485327e+00
 1.143151881180937e-01	 1.937813150742575e+00	 4.582278722762340e+00
 9.783703523098004e-02	 1.938714966726629e+00	 4.560550154524938e+00
 8.140551196801486e-02	 1.939474403017315e+00	 4.541488651283455e+00
 6.502215446390647e-02	 1.940092760688320e+00	 4.525186551358434e+00
 4.868846734564613e-02	 1.940571358427765e+00	 4.511820366977565e+00
 3.240592363216457e-02	 1.940911531720184e+00	 4.501659609931201e+00
 1.617596465506226e-02	 1.941114632034230e+00	 4.495075509233256e+00
 0.000000000000000e+00	 1.941182026016666e+00	 4.492549623360364e+00
 1.650075250861300e-01	 1.945962305348290e+00	 4.713605160304245e+00
 1.482983647158541e-01	 1.947306978044813e+00	 4.684181045316746e+00
 1.316312913605605e-01	 1.948504595975018e+00	 4.657637877218647e+00
 1.150079447363273e-01	 1.949556409946954e+00	 4.633856718782966e+00
 9.842993329457617e-02	 1.950463690987471e+00	 4.612771085540888e+00
 8.189883405516954e-02	 1.951227729505503e+00	 4.594376133124837e+00
 6.541619246186824e-02	 1.951849834459330e+00	 4.578737731973045e+00
 4.898352225977747e-02	 1.952331332528406e+00	 4.566001440199969e+00
 3.260230539439540e-02	 1.952673567290390e+00	 4.556401382953569e+00
 1.627399193186315e-02	 1.952877898403924e+00	 4.550269044106528e+00
 0.000000000000000e+00	 1.952945700797734e+00	 4.548041973084410e+00
 1.660014523945986e-01	 1.957683862136844e+00	 4.763388953994030e+00
 1.491916439430795e-01	 1.959036634505589e+00	 4.734432427220622e+00
 1.324241760188387e-01	 1.960241466319601e+00	 4.708403901688428e+00
 1.157006982148200e-01	 1.961299615921224e+00	 4.685175234148598e+00
 9.902282867098743e-02	 1.962212361993386e+00	 4.664666081448261e+00
 8.239215390641715e-02	 1.962981002717852e+00	 4.646853067294884e+00
 6.581022867388420e-02	 1.963606854937458e+00	 4.631778856065068e+00
 4.927857583657042e-02	 1.964091253322970e+00	 4.619561145223383e+00
 3.279868626650498e-02	 1.964435549545133e+00	 4.610401585262517e+00
 1.637201876433384e-02	 1.964641111452544e+00	 4.604594633447139e+00
 0.000000000000000e+00	 1.964709322255868e+00	 4.602536344421735e+00
 1.669953763246250e-01	 1.969405379076423e+00	 4.812804055918861e+00
 1.500849201339739e-01	 1.970766251089866e+00	 4.784325650760326e+00
 1.332170579820252e-01	 1.971978296763154e+00	 4.758798885523114e+00
 1.163934493385589e-01	 1.973042781972904e+00	 4.736090139574864e+00
 9.961572203205218e-02	 1.973960993058101e+00	 4.716108811339343e+00
 8.288547208076642e-02	 1.974734235973317e+00	 4.698816447715364e+00
 6.620426354646300e-02	 1.975363835445926e+00	 4.684235801283521e+00
 4.957362841037307e-02	 1.975851134137975e+00	 4.672459827666419e+00
 3.299506647103000e-02	 1.976197491813277e+00	 4.663660632587120e+00
 1.647004526355860e-02	 1.976404284510362e+00	 4.658098375369817e+00
 0.000000000000000e+00	 1.976472903721802e+00	 4.656130132223752e+00
 1.679892980024537e-01	 1.981126869449992e+00	 4.861688132680915e+00
 1.509781943007384e-01	 1.982495841089791e+00	 4.833699564278390e+00
 1.340099381485652e-01	 1.983715100606007e+00	 4.808668209407799e+00
 1.170861988925313e-01	 1.984785921409516e+00	 4.786458755471742e+00
 1.002086140496089e-01	 1.985709597495345e+00	 4.766973993588722e+00
 8.337878913722624e-02	 1.986487442590857e+00	 4.750163893455055e+00
 6.659829752611336e-02	 1.987120789307952e+00	 4.736034627817245e+00
 4.986868031553342e-02	 1.987610988299940e+00	 4.724657559781742e+00
 3.319144623050720e-02	 1.987959407423689e+00	 4.716178203160616e+00
 1.656807154062166e-02	 1.988167430907643e+00	 4.710825163106209e+00
 0.000000000000000e+00	 1.988236458526268e+00	 4.708919060674055e+00
 1.689832185543293e-01	 1.992848346540515e+00	 4.909881255949658e+00
 1.518714674555740e-01	 1.994225417797510e+00	 4.882395126520252e+00
 1.348028174169037e-01	 1.995451891148490e+00	 4.857859031409736e+00
 1.177789476617246e-01	 1.996529047538578e+00	 4.836139813684792e+00
 1.008015053954959e-01	 1.997458188618843e+00	 4.817137364521330e+00
 8.387210563480528e-02	 1.998240635889430e+00	 4.800793625830415e+00
 6.699233105934385e-02	 1.998877729846754e+00	 4.787101565440340e+00
 5.016373188639956e-02	 1.999370829135384e+00	 4.776114138948427e+00
 3.338782576747328e-02	 1.999721309705235e+00	 4.767953249162708e+00
 1.666609770660730e-02	 1.999930563974655e+00	 4.762818710900222e+00
 0.000000000000000e+00	 2.000000000000000e+00	 4.760997225126173e+00
 1.699771391064964e-01	 2.004569823630958e+00	 4.957225854090992e+00
 1.527647406106819e-01	 2.005954994505170e+00	 4.930255360620116e+00
 1.355956966854857e-01	 2.007188681690931e+00	 4.906220244765585e+00
 1.184716964311259e-01	 2.008272173667615e+00	 4.884993420531715e+00
 1.013943967415515e-01	 2.009206779742325e+00	 4.866475648145644e+00
 8.436542213251229e-02	 2.009993829187993e+00	 4.850604446291265e+00
 6.738636459266323e-02	 2.010634670385551e+00	 4.837363000995468e+00
 5.045878345731954e-02	 2.011130669970827e+00	 4.826789086208548e+00
 3.358420530446499e-02	 2.011483211986780e+00	 4.818984007757630e+00
 1.676412387259978e-02	 2.011693697041668e+00	 4.814121578993134e+00
 0.000000000000000e+00	 2.011763541473733e+00	 4.812457132483130e+00
 1.709710607851994e-01	 2.016291314004285e+00	 5.003566665343391e+00
 1.536580147782632e-01	 2.017684584504919e+00	 4.977125309593442e+00
 1.363885768527563e-01	 2.018925485533661e+00	 4.953602437071696e+00
 1.191644459857227e-01	 2.020015313104143e+00	 4.932881021081284e+00
 1.019872887596142e-01	 2.020955384179517e+00	 4.914866526912713e+00
 8.485873918935612e-02	 2.021747035805503e+00	 4.899495715052296e+00
 6.778039857258007e-02	 2.022391624247561e+00	 4.886745466300310e+00
 5.075383536264143e-02	 2.022890524132786e+00	 4.876641644843088e+00
 3.378058506401908e-02	 2.023245127597190e+00	 4.869268011739342e+00
 1.686215014968334e-02	 2.023456843438948e+00	 4.864775197738105e+00
 0.000000000000000e+00	 2.023527096278199e+00	 4.863389740177311e+00
 1.719649847166828e-01	 2.028012830943460e+00	 5.048750692475114e+00
 1.545512909705190e-01	 2.029414201088902e+00	 5.022851993270615e+00
 1.371814588171607e-01	 2.030662315977009e+00	 4.999857850822105e+00
 1.198571971105021e-01	 2.031758479155687e+00	 4.979665364622610e+00
 1.025801821215224e-01	 2.032704015244146e+00	 4.962188613457957e+00
 8.535205736434548e-02	 2.033500269060919e+00	 4.947367330446992e+00
 6.817443344560312e-02	 2.034148604756004e+00	 4.935175626457282e+00
 5.104888793671323e-02	 2.034650404947781e+00	 4.925630778987935e+00
 3.397696526867226e-02	 2.035007069865332e+00	 4.918802099804914e+00
 1.696017664894223e-02	 2.035220016496764e+00	 4.914819890879819e+00
 0.000000000000000e+00	 2.035290677744133e+00	 4.913884493807547e+00
 1.729589120271913e-01	 2.039734387731449e+00	 5.092627158869753e+00
 1.554445701996503e-01	 2.041143857549267e+00	 5.067284366618040e+00
 1.379743434771439e-01	 2.042399186321305e+00	 5.044840345236878e+00
 1.205499505904515e-01	 2.043501685129765e+00	 5.025210471281051e+00
 1.031730774991143e-01	 2.044452686249940e+00	 5.008321423284869e+00
 8.584537721648917e-02	 2.045253542273197e+00	 4.994119708971414e+00
 6.856846965824097e-02	 2.045905625234098e+00	 4.982580268553129e+00
 5.134394151388306e-02	 2.046410325742331e+00	 4.973715172287720e+00
 3.417334614096124e-02	 2.046769052120070e+00	 4.967582426464562e+00
 1.705820348146074e-02	 2.046983229545386e+00	 4.964294898030590e+00
 0.000000000000000e+00	 2.047054299202267e+00	 4.964029363489233e+00
 1.739528438429692e-01	 2.051455997651216e+00	 5.135047465977964e+00
 1.563378534778582e-01	 2.052873567178158e+00	 5.110273279394431e+00
 1.387672317311507e-01	 2.054136109866877e+00	 5.088405359335090e+00
 1.212427072105581e-01	 2.055244944333897e+00	 5.069381599734104e+00
 1.037659755642284e-01	 2.056201410510627e+00	 5.053145348355484e+00
 8.633869930479596e-02	 2.057006868761296e+00	 5.039653765992496e+00
 6.896250765700229e-02	 2.057662699005061e+00	 5.028886290730620e+00
 5.163899642849889e-02	 2.058170299842952e+00	 5.020853226585948e+00
 3.436972790342276e-02	 2.058531087690270e+00	 5.015604471611363e+00
 1.715623075832310e-02	 2.058746495915078e+00	 5.013238396379280e+00
 0.000000000000000e+00	 2.058817973983335e+00	 5.013910878967209e+00
 2.058817973983335e+00	 0.000000000000000e+00	 1.227570756696587e+01
 2.058746495915078e+00	 1.715623075832196e-02	 1.227866812986615e+01
 2.058531087690270e+00	 3.436972790342178e-02	 1.228085086792013e+01
 2.058170299842951e+00	 5.163899642849809e-02	 1.228263453934260e+01
 2.057662699005061e+00	 6.896250765700164e-02	 1.228439663188539e+01
 2.057006868761296e+00	 8.633869930479546e-02	 1.228651392762908e+01
 2.056201410510627e+00	 1.037659755642281e-01	 1.228936308943206e+01
 2.055244944333897e+00	 1.212427072105579e-01	 1.229332127520945e+01
 2.054136109866877e+00	 1.387672317311508e-01	 1.229876678705216e+01
 2.052873567178158e+00	 1.563378534778584e-01	 1.230607976361921e+01
 2.051455997651216e+00	 1.739528438429693e-01	 1.231564292571954e+01
 2.070583712046356e+00	 0.000000000000000e+00	 1.224109673191276e+01
 2.070511825495077e+00	 1.725427522861338e-02	 1.224452785858181e+01
 2.070295186254868e+00	 3.456614411013111e-02	 1.224705066871144e+01
 2.069932336576346e+00	 5.193410309407101e-02	 1.224907234631444e+01
 2.069421834900029e+00	 6.935661476778701e-02	 1.225099804057905e+01
 2.068762256716072e+00	 8.683210791898419e-02	 1.225323138335668e+01
 2.067952195430709e+00	 1.043589776202730e-01	 1.225617502042404e+01
 2.066990263238809e+00	 1.219355853362013e-01	 1.226023116257426e+01
 2.065875092001923e+00	 1.395602590531905e-01	 1.226580216350781e+01
 2.064605334131188e+00	 1.572312934327849e-01	 1.227329113298473e+01
 2.063179663474439e+00	 1.749469499886080e-01	 1.228310259525856e+01
 2.082349510118179e+00	 0.000000000000000e+00	 1.220684529457375e+01
 2.082277215081782e+00	 1.735232019895875e-02	 1.221068531147297e+01
 2.082059344819857e+00	 3.476256131861432e-02	 1.221350898954029e+01
 2.081694433299565e+00	 5.222921126475995e-02	 1.221574833764023e+01
 2.081181030769963e+00	 6.975072388860780e-02	 1.221783262164791e+01
 2.080517704626626e+00	 8.732551904965948e-02	 1.222018883821358e+01
 2.079703040283019e+00	 1.049519827007402e-01	 1.222324219400893e+01
 2.078735642047997e+00	 1.226284669956398e-01	 1.222741659637338e+01
 2.077614134008858e+00	 1.403532904197865e-01	 1.223313516227514e+01
 2.076337160919253e+00	 1.581247379443676e-01	 1.224082075406224e+01
 2.074903389091340e+00	 1.759410612042909e-01	 1.225089655211384e+01
 2.094115361531267e+00	 0.000000000000000e+00	 1.217313709354350e+01
 2.094042658007891e+00	 1.745036561379500e-02	 1.217730545784098e+01
 2.093823556718639e+00	 3.495897941755763e-02	 1.218037152031538e+01
 2.093456583347185e+00	 5.252432077331826e-02	 1.218278852708617e+01
 2.092940279951089e+00	 7.014483479610818e-02	 1.218500633364928e+01
 2.092273205831316e+00	 8.781893241718532e-02	 1.218747183853112e+01
 2.091453938408526e+00	 1.055449904695492e-01	 1.219062941370460e+01
 2.090481074105537e+00	 1.233213517961895e-01	 1.219492133753342e+01
 2.089353229235354e+00	 1.411463253814988e-01	 1.220078823708231e+01
 2.088069040894114e+00	 1.590181865062640e-01	 1.220866954826691e+01
 2.086627167858271e+00	 1.769351769266326e-01	 1.221900400403181e+01
 2.105881259618090e+00	 0.000000000000000e+00	 1.214013953451929e+01
 2.105808147606102e+00	 1.754841141755908e-02	 1.214453903970687e+01
 2.105587815284615e+00	 3.515539829564730e-02	 1.214777186631774e+01
 2.105218780053777e+00	 5.281943145249939e-02	 1.215030892252992e+01
 2.104699575779629e+00	 7.053894726693223e-02	 1.215261714324091e+01
 2.104028753668496e+00	 8.831234774192601e-02	 1.215515988725778e+01
 2.103204883148205e+00	 1.061380005906193e-01	 1.215839732208815e+01
 2.102226552755500e+00	 1.240142393451662e-01	 1.216278680192333e+01
 2.101092371029079e+00	 1.419393634888872e-01	 1.216878324555861e+01
 2.099800967407532e+00	 1.599116386121313e-01	 1.217683952270551e+01
 2.098350993131583e+00	 1.779292965922483e-01	 1.218740685894895e+01
 2.117647197711111e+00	 0.000000000000000e+00	 1.210800404869855e+01
 2.117573677209117e+00	 1.764645755468797e-02	 1.211252299347233e+01
 2.117352113851185e+00	 3.535181784156954e-02	 1.211583193289536e+01
 2.116981016753919e+00	 5.311454313505665e-02	 1.211841587348365e+01
 2.116458911591810e+00	 7.093306107772404e-02	 1.212075533535584e+01
 2.115784341476523e+00	 8.880576474424560e-02	 1.212332671664159e+01
 2.114955867843021e+00	 1.067310127278700e-01	 1.212660263587103e+01
 2.113972071341963e+00	 1.247071292498859e-01	 1.213105225773975e+01
 2.112831552737703e+00	 1.427324042925115e-01	 1.213714160888137e+01
 2.111532933811268e+00	 1.608050937556270e-01	 1.214533389207023e+01
 2.110074858267626e+00	 1.789234196377529e-01	 1.215608980915405e+01
 2.129413169142801e+00	 0.000000000000000e+00	 1.207686653613239e+01
 2.129339240149633e+00	 1.774450396961858e-02	 1.208138085772421e+01
 2.129116445751750e+00	 3.554823794401060e-02	 1.208466229747194e+01
 2.128743286782182e+00	 5.340965565374349e-02	 1.208720640708968e+01
 2.128218280723859e+00	 7.132717600512779e-02	 1.208950381299495e+01
 2.127539962593751e+00	 8.929918314450826e-02	 1.209204055165760e+01
 2.126706885833951e+00	 1.073240265452207e-01	 1.209529837283066e+01
 2.125717623208999e+00	 1.254000211176646e-01	 1.209975501584233e+01
 2.124570767708897e+00	 1.435254473429316e-01	 1.210588446544838e+01
 2.123264933457083e+00	 1.616985514304085e-01	 1.211415719561509e+01
 2.121798756622753e+00	 1.799175454997614e-01	 1.212504041156965e+01
 2.141179167245623e+00	 0.000000000000000e+00	 1.204684779461140e+01
 2.141104829760352e+00	 1.784255060678789e-02	 1.205122316771113e+01
 2.140880804319710e+00	 3.574465849165670e-02	 1.205436256935712e+01
 2.140505583473144e+00	 5.370476884131332e-02	 1.205676855303094e+01
 2.139977676511996e+00	 7.172129182578744e-02	 1.205893838703329e+01
 2.139295610358537e+00	 8.979260266307812e-02	 1.206136436453314e+01
 2.138457930461961e+00	 1.079170417065907e-01	 1.206453407090728e+01
 2.137463201700684e+00	 1.260929145558181e-01	 1.206893061330732e+01
 2.136310009290330e+00	 1.443184921907073e-01	 1.207503281880251e+01
 2.134996959696737e+00	 1.625920111301332e-01	 1.208331540940032e+01
 2.133522681553313e+00	 1.809116736148887e-01	 1.209424916429854e+01
 2.152945185352045e+00	 0.000000000000000e+00	 1.201805393463613e+01
 2.152870439373973e+00	 1.794059741063284e-02	 1.202214783700150e+01
 2.152645182888466e+00	 3.594107937319407e-02	 1.202502173782094e+01
 2.152267900161378e+00	 5.399988253051952e-02	 1.202718165777797e+01
 2.151737092292449e+00	 7.211540831634720e-02	 1.202912805641950e+01
 2.151051278109236e+00	 9.028602302031938e-02	 1.203135612070950e+01
 2.150208995068025e+00	 1.085100578758995e-01	 1.203435599976561e+01
 2.149208800161092e+00	 1.267858091716624e-01	 1.203861299045535e+01
 2.148049270829671e+00	 1.451115383863983e-01	 1.204460768002604e+01
 2.146729005881991e+00	 1.634854723484585e-01	 1.205281605398349e+01
 2.145246626415659e+00	 1.819058034197497e-01	 1.206370957957698e+01
 2.164711216794534e+00	 0.000000000000000e+00	 1.199057678099929e+01
 2.164636062323194e+00	 1.803864432559038e-02	 1.199424052680813e+01
 2.164409574791420e+00	 3.613750047730896e-02	 1.199671850887847e+01
 2.164030230181460e+00	 5.429499655411548e-02	 1.199851668857457e+01
 2.163496521401442e+00	 7.250952525345118e-02	 1.200013527913183e+01
 2.162806959184203e+00	 9.077944393659608e-02	 1.200206901656207e+01
 2.161960072993113e+00	 1.091030747170666e-01	 1.200480736510235e+01
 2.160954411934294e+00	 1.274787045725134e-01	 1.200883466159968e+01
 2.159788545674591e+00	 1.459045854805648e-01	 1.201463020481130e+01
 2.158461065364607e+00	 1.643789345790418e-01	 1.202266829772759e+01
 2.156970584566140e+00	 1.828999343509594e-01	 1.203341825326664e+01
 2.176477254905558e+00	 0.000000000000000e+00	 1.196449426148476e+01
 2.176401691940717e+00	 1.813669129609746e-02	 1.196757500344380e+01
 2.176173973361973e+00	 3.633392169268761e-02	 1.196952163120842e+01
 2.175792566867962e+00	 5.459011074485461e-02	 1.197083652754984e+01
 2.175255957175201e+00	 7.290364241374346e-02	 1.197201623423771e+01
 2.174562646921796e+00	 9.127286513227247e-02	 1.197355170918955e+01
 2.173711157578196e+00	 1.096960918940113e-01	 1.197592850597391e+01
 2.172700030364369e+00	 1.281716003656871e-01	 1.197962687974977e+01
 2.171527827172760e+00	 1.466976330237663e-01	 1.198512182540718e+01
 2.170193131496345e+00	 1.652723973155404e-01	 1.199288305588934e+01
 2.168694549361110e+00	 1.838940658451328e-01	 1.200337493101500e+01
 2.051455997651216e+00	 1.739528438429693e-01	 1.231564292571954e+01
 2.049881823871578e+00	 1.916134399496638e-01	 1.232588193982994e+01
 2.048149999378412e+00	 2.093148205918507e-01	 1.233521420144166e+01
 2.046259273919937e+00	 2.270551152441022e-01	 1.234401668176505e+01
 2.044208422205398e+00	 2.448324202389492e-01	 1.235266540507686e+01
 2.041996244812904e+00	 2.626447990652550e-01	 1.236153650299376e+01
 2.039621569097458e+00	 2.804902826931491e-01	 1.237100742097494e+01
 2.037083250098380e+00	 2.983668699257985e-01	 1.238145829873175e+01
 2.034380171445287e+00	 3.162725277782721e-01	 1.239327354785484e+01
 2.031511246261782e+00	 3.342051918837181e-01	 1.240684365155841e+01
 2.028475418065975e+00	 3.521627669270606e-01	 1.242256721296976e+01
 2.063179663474439e+00	 1.749469499886080e-01	 1.228310259525856e+01
 2.061596493602586e+00	 1.927084729137458e-01	 1.229360399668496e+01
 2.059854772074485e+00	 2.105110134498736e-01	 1.230314591567234e+01
 2.057953241493418e+00	 2.283526903818925e-01	 1.231211277728888e+01
 2.055890669566347e+00	 2.462315891632621e-01	 1.232088709276536e+01
 2.053665850016926e+00	 2.641457622160792e-01	 1.232985041805738e+01
 2.051277603498734e+00	 2.820932292578687e-01	 1.233938445892899e+01
 2.048724778507875e+00	 3.000719776553665e-01	 1.234987234491464e+01
 2.046006252294137e+00	 3.180799628055458e-01	 1.236170009624773e+01
 2.043120931769846e+00	 3.361151085441197e-01	 1.237525830952942e+01
 2.040067754415538e+00	 3.541753075817132e-01	 1.239094408953861e+01
 2.074903389091340e+00	 1.759410612042909e-01	 1.225089655211384e+01
 2.073311223081371e+00	 1.938035114625836e-01	 1.226167610712025e+01
 2.071559604467855e+00	 2.117072124085504e-01	 1.227144843459051e+01
 2.069647268709105e+00	 2.296502721373690e-01	 1.228060384875038e+01
 2.067572976509752e+00	 2.476307652233747e-01	 1.228952995317381e+01
 2.065335514738966e+00	 2.656467330218446e-01	 1.229861250312082e+01
 2.062933697348859e+00	 2.836961839976446e-01	 1.230823640808264e+01
 2.060366366292284e+00	 3.017770940810228e-01	 1.231878689757670e+01
 2.057632392439164e+00	 3.198874070508019e-01	 1.233065087506436e+01
 2.054730676490516e+00	 3.380250349452019e-01	 1.234421848665101e+01
 2.051660149889264e+00	 3.561878585004907e-01	 1.235988493295670e+01
 2.086627167858271e+00	 1.769351769266326e-01	 1.221900400403181e+01
 2.085026005669378e+00	 1.948985549756067e-01	 1.223005636873515e+01
 2.083264489925573e+00	 2.129034167899958e-01	 1.224006013467003e+01
 2.081341348940157e+00	 2.309478597752077e-01	 1.224940997944207e+01
 2.079255336415407e+00	 2.490299476264061e-01	 1.225849724607910e+01
 2.077005232365967e+00	 2.671477106319995e-01	 1.226771070846881e+01
 2.074589844042452e+00	 2.852991460041455e-01	 1.227743747006555e+01
 2.072008006854432e+00	 3.034822182365550e-01	 1.228806401959946e+01
 2.069258585291935e+00	 3.216948594898484e-01	 1.229997746945157e+01
 2.066340473844638e+00	 3.399349700047011e-01	 1.231356700425398e+01
 2.063252597917822e+00	 3.582004185429714e-01	 1.232922556910570e+01
 2.098350993131583e+00	 1.779292965922483e-01	 1.218740685894895e+01
 2.096740834728053e+00	 1.959936028322438e-01	 1.219870711022557e+01
 2.094969421814683e+00	 2.140996259163238e-01	 1.220892505432282e+01
 2.093035475559738e+00	 2.322454525600846e-01	 1.221845824599207e+01
 2.090937742663102e+00	 2.504291355794752e-01	 1.222770045731081e+01
 2.088674996284871e+00	 2.686486941959922e-01	 1.223704234538064e+01
 2.086246036974134e+00	 2.869021143690413e-01	 1.224687224571418e+01
 2.083649693597148e+00	 3.051873491557506e-01	 1.225757711573542e+01
 2.080884824264020e+00	 3.235023190984935e-01	 1.226954365485981e+01
 2.077950317253058e+00	 3.418449126403538e-01	 1.228315962962229e+01
 2.074845091931879e+00	 3.602129865687341e-01	 1.229881543426362e+01
 2.110074858267626e+00	 1.789234196377529e-01	 1.215608980915405e+01
 2.108455703618840e+00	 1.970886544119239e-01	 1.216759493832587e+01
 2.106674393502234e+00	 2.152958391096491e-01	 1.217799290462871e+01
 2.104729641941006e+00	 2.335430497566756e-01	 1.218768269391914e+01
 2.102620188632630e+00	 2.518283282897008e-01	 1.219705924019731e+01
 2.100344799882623e+00	 2.701496828632713e-01	 1.220651399456279e+01
 2.097902269538526e+00	 2.885050881840014e-01	 1.221643561161381e+01
 2.095291419923259e+00	 3.068924858723974e-01	 1.222721077841273e+01
 2.092511102766986e+00	 3.253097848525453e-01	 1.223922521329346e+01
 2.089560200136624e+00	 3.437548617698970e-01	 1.225286486390137e+01
 2.086437625362100e+00	 3.622255614373574e-01	 1.226851733591221e+01
 2.121798756622753e+00	 1.799175454997614e-01	 1.212504041156966e+01
 2.120170605703186e+00	 1.981837090940761e-01	 1.213669078187102e+01
 2.118379398355272e+00	 2.164920556920857e-01	 1.214721907813670e+01
 2.116423841457125e+00	 2.348406506296568e-01	 1.215702431215779e+01
 2.114302667703782e+00	 2.532275249642020e-01	 1.216650135682879e+01
 2.112014636546165e+00	 2.716506757832848e-01	 1.217604141519121e+01
 2.109558535130247e+00	 2.901080665406952e-01	 1.218603259799170e+01
 2.106933179235593e+00	 3.085976274202827e-01	 1.219686063557905e+01
 2.104137414212402e+00	 3.271172557278118e-01	 1.220890975223429e+01
 2.101170115916182e+00	 3.456648163110670e-01	 1.222256373325996e+01
 2.098030191639157e+00	 3.642381420084200e-01	 1.223820721732641e+01
 2.133522681553313e+00	 1.809116736148887e-01	 1.209424916429854e+01
 2.131885534342535e+00	 1.992787662581293e-01	 1.210596993308833e+01
 2.130084429740844e+00	 2.176882749857482e-01	 1.211656465580859e+01
 2.128118067481254e+00	 2.361382544437040e-01	 1.212643100659043e+01
 2.125985173256349e+00	 2.546267248100977e-01	 1.213596261914082e+01
 2.123684499662442e+00	 2.731516721054814e-01	 1.214554945453827e+01
 2.121214827143920e+00	 2.917110485307918e-01	 1.215557826790722e+01
 2.118574964936977e+00	 3.103027728331942e-01	 1.216643320050380e+01
 2.115763752011835e+00	 3.289247307001011e-01	 1.217849652613441e+01
 2.112780058012580e+00	 3.475747751816005e-01	 1.219214958318033e+01
 2.109622784193714e+00	 3.662507271415004e-01	 1.220777392579787e+01
 2.145246626415659e+00	 1.819058034197497e-01	 1.206370957957698e+01
 2.143600482898333e+00	 2.003738252835127e-01	 1.207541208622035e+01
 2.141789481025998e+00	 2.188844963127509e-01	 1.208599641217417e+01
 2.139812313386553e+00	 2.374358604634934e-01	 1.209585757262137e+01
 2.137667698670125e+00	 2.560259270345067e-01	 1.210538682982282e+01
 2.135354382618396e+00	 2.746526709793091e-01	 1.211497195815875e+01
 2.132871138974163e+00	 2.933140332459612e-01	 1.212499759768689e+01
 2.130216770430239e+00	 3.120079211449198e-01	 1.213584572346240e+01
 2.127390109576856e+00	 3.307322087452216e-01	 1.214789626037741e+01
 2.124390019846665e+00	 3.494847372992343e-01	 1.216152787575485e+01
 2.121215396456440e+00	 3.682633156961773e-01	 1.217711898435310e+01
 2.156970584566140e+00	 1.828999343509594e-01	 1.203341825326664e+01
 2.155315444732026e+00	 2.014688855496551e-01	 1.204500137357963e+01
 2.153494545577781e+00	 2.200807189952082e-01	 1.205548681876235e+01
 2.151506572546187e+00	 2.387334679537010e-01	 1.206526566682691e+01
 2.149350237324899e+00	 2.574251308445480e-01	 1.207472572305592e+01
 2.147024278800972e+00	 2.761536715542165e-01	 1.208425168061213e+01
 2.144527464015599e+00	 2.949170197778726e-01	 1.209422535855539e+01
 2.141858589118207e+00	 3.137130713892465e-01	 1.210502604522827e+01
 2.139016480319029e+00	 3.325396888389814e-01	 1.211703097761345e+01
 2.135999994839282e+00	 3.513947015817047e-01	 1.213061598987307e+01
 2.132808021858002e+00	 3.702759065320294e-01	 1.214615636683222e+01
 2.168694549361110e+00	 1.838940658451328e-01	 1.200337493101500e+01
 2.167030413205057e+00	 2.025639464359857e-01	 1.201472639912821e+01
 2.165199616763239e+00	 2.212769423552345e-01	 1.202501404587144e+01
 2.163200838333315e+00	 2.400310761790027e-01	 1.203462377771437e+01
 2.161032782600464e+00	 2.588243354473408e-01	 1.204393890508478e+01
 2.158694181597113e+00	 2.776546729796520e-01	 1.205334019669848e+01
 2.156183795662848e+00	 2.965200072181955e-01	 1.206320599941506e+01
 2.153500414403706e+00	 3.154182225999622e-01	 1.207391245230335e+01
 2.150642857649927e+00	 3.343471699571884e-01	 1.208583382637564e+01
 2.147609976411281e+00	 3.533046669467487e-01	 1.209934302418867e+01
 2.144400653829069e+00	 3.722884985086354e-01	 1.211483051585721e+01
 2.028475418065975e+00	 3.521627669270606e-01	 1.242256721296976e+01
 2.025272220317423e+00	 3.701400697638046e-01	 1.243795514963346e+01
 2.021900157406867e+00	 3.881380001081085e-01	 1.245182677505997e+01
 2.018358268314155e+00	 4.061543787041801e-01	 1.246585790710828e+01
 2.014645625916693e+00	 4.241869974763511e-01	 1.248022187302999e+01
 2.010761337859134e+00	 4.422336201009812e-01	 1.249507575054947e+01
 2.006704547414394e+00	 4.602919826062957e-01	 1.251056136000540e+01
 2.002474434335026e+00	 4.783597940001332e-01	 1.252680623793513e+01
 1.998070215693998e+00	 4.964347369255439e-01	 1.254392492412532e+01
 1.993491146713879e+00	 5.145144683441411e-01	 1.256202059512230e+01
 1.988736521583468e+00	 5.325966202470763e-01	 1.258118707808410e+01
 2.040067754415538e+00	 3.541753075817132e-01	 1.239094408953861e+01
 2.036846251024587e+00	 3.722553471531941e-01	 1.240621089496098e+01
 2.033454917440619e+00	 3.903561321144038e-01	 1.242017157426144e+01
 2.029892787151433e+00	 4.084754707555253e-01	 1.243423230227309e+01
 2.026158927736106e+00	 4.266111423821643e-01	 1.244857650724692e+01
 2.022252441739647e+00	 4.447608978905238e-01	 1.246337103176978e+01
 2.018172467538940e+00	 4.629224603706680e-01	 1.247876669483757e+01
 2.013918180198979e+00	 4.810935257378590e-01	 1.249489913380137e+01
 2.009488792318448e+00	 4.992717633918995e-01	 1.251188995938944e+01
 2.004883554863653e+00	 5.174548169043921e-01	 1.252984825815149e+01
 2.000101757989816e+00	 5.356403047337758e-01	 1.254887247763862e+01
 2.051660149889264e+00	 3.561878585004907e-01	 1.235988493295670e+01
 2.048420340762587e+00	 3.743706353307492e-01	 1.237509675823954e+01
 2.045009736406950e+00	 3.925742754335259e-01	 1.238920199742011e+01
 2.041427364818078e+00	 4.107965746449097e-01	 1.240335327129660e+01
 2.037672288276689e+00	 4.290352996517129e-01	 1.241774061261211e+01
 2.033743604228129e+00	 4.472881885699112e-01	 1.243253698263866e+01
 2.029640446153219e+00	 4.655529515513372e-01	 1.244789870321326e+01
 2.025361984429373e+00	 4.838272714186048e-01	 1.246396616657403e+01
 2.020907427180972e+00	 5.021088043281977e-01	 1.248086485748639e+01
 2.016276021118036e+00	 5.203951804616342e-01	 1.249870672338294e+01
 2.011467052362186e+00	 5.386840047445671e-01	 1.251759192929879e+01
 2.063252597917822e+00	 3.582004185429714e-01	 1.232922556910570e+01
 2.059994482972456e+00	 3.764859330978205e-01	 1.234444623120003e+01
 2.056564607757807e+00	 3.947924288085239e-01	 1.235874613613986e+01
 2.052961994777501e+00	 4.131176890570182e-01	 1.237304563032724e+01
 2.049185701013875e+00	 4.314594679112606e-01	 1.238753768123865e+01
 2.045234818812585e+00	 4.498154907069390e-01	 1.240239785145144e+01
 2.041108476758374e+00	 4.681834546575934e-01	 1.241778460026448e+01
 2.036805840541050e+00	 4.865610294931259e-01	 1.243383986060553e+01
 2.032326113810674e+00	 5.049458581266384e-01	 1.245068992702791e+01
 2.027668539020960e+00	 5.233355573495008e-01	 1.246844669192886e+01
 2.022832398259913e+00	 5.417277185545148e-01	 1.248720926827032e+01
 2.074845091931879e+00	 3.602129865687341e-01	 1.229881543426362e+01
 2.071568671095225e+00	 3.786012392557576e-01	 1.231410615959092e+01
 2.068119524945134e+00	 3.970105909824470e-01	 1.232864613428931e+01
 2.064496670493110e+00	 4.154388126765344e-01	 1.234314854849639e+01
 2.060699159423090e+00	 4.338836457870710e-01	 1.235780576164919e+01
 2.056726078981020e+00	 4.523428028694041e-01	 1.237279254932445e+01
 2.052576552855544e+00	 4.708139681987273e-01	 1.238826627373187e+01
 2.048249742048850e+00	 4.892947984121782e-01	 1.240436732652231e+01
 2.043744845736655e+00	 5.077829231794216e-01	 1.242121988105323e+01
 2.039061102116356e+00	 5.262759459016246e-01	 1.243893299268250e+01
 2.034197789242327e+00	 5.447714444386825e-01	 1.245760208690464e+01
 2.086437625362100e+00	 3.622255614373574e-01	 1.226851733591221e+01
 2.083142898571928e+00	 3.807165526059113e-01	 1.228393677079100e+01
 2.079674481420878e+00	 3.992287606983446e-01	 1.229875789000103e+01
 2.076031385428316e+00	 4.177599441881429e-01	 1.231351522571599e+01
 2.072212656979766e+00	 4.363078319054078e-01	 1.232839711377609e+01
 2.068217378221441e+00	 4.548701236251026e-01	 1.234357428387341e+01
 2.064044667945874e+00	 4.734444906840297e-01	 1.235919989786881e+01
 2.059693682467612e+00	 4.920285766265169e-01	 1.237540985697553e+01
 2.055163616488019e+00	 5.106199978787477e-01	 1.239232341631854e+01
 2.050453703948159e+00	 5.292163444516391e-01	 1.241004414691099e+01
 2.045563218868756e+00	 5.478151806721345e-01	 1.242866128643071e+01
 2.098030191639157e+00	 3.642381420084200e-01	 1.223820721732641e+01
 2.094717158843594e+00	 3.828318719496313e-01	 1.225381140559946e+01
 2.091229470636982e+00	 4.014469366992658e-01	 1.226895076234571e+01
 2.087566133046532e+00	 4.200810822765280e-01	 1.228401257551196e+01
 2.083726187159331e+00	 4.387320248925350e-01	 1.229917786929896e+01
 2.079708710021855e+00	 4.573974515418306e-01	 1.231461019847027e+01
 2.075512815530505e+00	 4.760750206227910e-01	 1.233045555310368e+01
 2.071137655312178e+00	 4.947623625868979e-01	 1.234684252826539e+01
 2.066582419593871e+00	 5.134570806168164e-01	 1.236388279851088e+01
 2.061846338060300e+00	 5.321567513331776e-01	 1.238167193875729e+01
 2.056928680698532e+00	 5.508589255299341e-01	 1.240029063451395e+01
 2.109622784193714e+00	 3.662507271415004e-01	 1.220777392579787e+01
 2.106291445351257e+00	 3.849471960882680e-01	 1.222361625411915e+01
 2.102784486045393e+00	 4.036651177282600e-01	 1.223910728250170e+01
 2.099100906811165e+00	 4.224022256263740e-01	 1.225452091269920e+01
 2.095239743437215e+00	 4.411562233747162e-01	 1.227002769711382e+01
 2.091200067870266e+00	 4.599247851873845e-01	 1.228578101686420e+01
 2.086980989110578e+00	 4.787055565243017e-01	 1.230191685123921e+01
 2.082581654097388e+00	 4.974961547440767e-01	 1.231855380761442e+01
 2.078001248583311e+00	 5.162941697858278e-01	 1.233579345316086e+01
 2.073238997996711e+00	 5.350971648798728e-01	 1.235372099142639e+01
 2.068294168290986e+00	 5.539026772871459e-01	 1.237240632841987e+01
 2.121215396456440e+00	 3.682633156961773e-01	 1.217711898435310e+01
 2.117865751535949e+00	 3.870625238231714e-01	 1.219325009557528e+01
 2.114339521098057e+00	 4.058833025283764e-01	 1.220912286924658e+01
 2.110635700185628e+00	 4.247233729223649e-01	 1.222493364571355e+01
 2.106753319288848e+00	 4.435804259782151e-01	 1.224083947373881e+01
 2.102691445254681e+00	 4.624521231295605e-01	 1.225698069296255e+01
 2.098449182187236e+00	 4.813360968978526e-01	 1.227348056597803e+01
 2.094025672338081e+00	 5.002299515488086e-01	 1.229044516587528e+01
 2.089420096985444e+00	 5.191312637779820e-01	 1.230796356203728e+01
 2.084631677301325e+00	 5.380375834253581e-01	 1.232610834884059e+01
 2.079659675205448e+00	 5.569464342188332e-01	 1.234493656357052e+01
 2.132808021858002e+00	 3.702759065320294e-01	 1.214615636683222e+01
 2.129440070838703e+00	 3.891778539556919e-01	 1.216262404191975e+01
 2.125894569246917e+00	 4.081014898426642e-01	 1.217890554860686e+01
 2.122170506633328e+00	 4.270445228491853e-01	 1.219515697342263e+01
 2.118266908189661e+00	 4.460046313292955e-01	 1.221151895846844e+01
 2.114182835663106e+00	 4.649794639361549e-01	 1.222811606557602e+01
 2.109917388261621e+00	 4.839666402527339e-01	 1.224505626857311e+01
 2.105469703549097e+00	 5.029637514518490e-01	 1.226243069546697e+01
 2.100838958329372e+00	 5.219683609854791e-01	 1.228031366481756e+01
 2.096024369518074e+00	 5.409780053032666e-01	 1.229876306255774e+01
 2.091025195001249e+00	 5.599901946000603e-01	 1.231782110729201e+01
 2.144400653829069e+00	 3.722884985086354e-01	 1.211483051585722e+01
 2.141014396700550e+00	 3.912931852871798e-01	 1.213166128507638e+01
 2.137449623943922e+00	 4.103196784141728e-01	 1.214837567750785e+01
 2.133705319617679e+00	 4.293656740915193e-01	 1.216510958624678e+01
 2.129780503615081e+00	 4.484288380542209e-01	 1.218198447309686e+01
 2.125674232583547e+00	 4.675068061749640e-01	 1.219910651794114e+01
 2.121385600834877e+00	 4.865971850982369e-01	 1.221656596841044e+01
 2.116913741245279e+00	 5.056975529039539e-01	 1.223443673334454e+01
 2.112257826144199e+00	 5.248054598005191e-01	 1.225277626583598e+01
 2.107417068190891e+00	 5.439184288472313e-01	 1.227162578375626e+01
 2.102390721237720e+00	 5.630339567058911e-01	 1.229101087755891e+01
 1.988736521583468e+00	 5.325966202470763e-01	 1.258118707808410e+01
 1.983805674693726e+00	 5.506788006459663e-01	 1.260019235129206e+01
 1.978697982727961e+00	 5.687585951191172e-01	 1.261783229065907e+01
 1.973412864140612e+00	 5.868335668871020e-01	 1.263424287609908e+01
 1.967949779479354e+00	 6.049012573854715e-01	 1.264957120842041e+01
 1.962308232121603e+00	 6.229591871105197e-01	 1.266398002904993e+01
 1.956487768992474e+00	 6.410048564909977e-01	 1.267765282158417e+01
 1.950487981263214e+00	 6.590357467853719e-01	 1.269079952867795e+01
 1.944308505029148e+00	 6.770493210041877e-01	 1.270366291668031e+01
 1.937949021966157e+00	 6.950430248570493e-01	 1.271652561901203e+01
 1.931409259964744e+00	 7.130142877236989e-01	 1.272971788753542e+01
 2.000101757989816e+00	 5.356403047337758e-01	 1.254887247763861e+01
 1.995142732284064e+00	 5.538258212219193e-01	 1.256779150803545e+01
 1.990005850867577e+00	 5.720089381491925e-01	 1.258545101647639e+01
 1.984690528871381e+00	 5.901872048104653e-01	 1.260197321783725e+01
 1.979196223760292e+00	 6.083581485910883e-01	 1.261749051059953e+01
 1.973522436073631e+00	 6.265192758174912e-01	 1.263214993668586e+01
 1.967668710147284e+00	 6.446680726338799e-01	 1.264611823500202e+01
 1.961634634816128e+00	 6.628020059046205e-01	 1.265958752396398e+01
 1.955419844095850e+00	 6.809185241418754e-01	 1.267278164720736e+01
 1.949024017843175e+00	 6.990150584579939e-01	 1.268596321527007e+01
 1.942446882393558e+00	 7.170890235421413e-01	 1.269944137429011e+01
 2.011467052362186e+00	 5.386840047445671e-01	 1.251759192929879e+01
 2.006479847696705e+00	 5.569728578490446e-01	 1.253641467287680e+01
 2.001313776680623e+00	 5.752592977574315e-01	 1.255407886350542e+01
 1.995968251121537e+00	 5.935408598388275e-01	 1.257069611269939e+01
 1.990442725401389e+00	 6.118150574283138e-01	 1.258638709622112e+01
 1.984736697221393e+00	 6.300793826823889e-01	 1.260128593847245e+01
 1.978849708328192e+00	 6.483313074606432e-01	 1.261554520259412e+01
 1.972781345220281e+00	 6.665682842332732e-01	 1.262934152339649e+01
 1.966531239833701e+00	 6.847877470139876e-01	 1.264288191918563e+01
 1.960099070206013e+00	 7.029871123178112e-01	 1.265641081715084e+01
 1.953484561117617e+00	 7.211637801432608e-01	 1.267021782523127e+01
 2.022832398259913e+00	 5.417277185545148e-01	 1.248720926827032e+01
 2.017817014506952e+00	 5.601199087438438e-01	 1.250593864558119e+01
 2.012621753758942e+00	 5.785096721017864e-01	 1.252360243827092e+01
 2.007246024500037e+00	 5.968945300716101e-01	 1.254030483522893e+01
 2.001689278029295e+00	 6.152719819380683e-01	 1.255615778997079e+01
 1.995951009209807e+00	 6.336395056876641e-01	 1.257128531370774e+01
 1.990030757198963e+00	 6.519945588953102e-01	 1.258582838623956e+01
 1.983928106158869e+00	 6.703345796369715e-01	 1.259995052371699e+01
 1.977642685945907e+00	 6.886569874278393e-01	 1.261384404128471e+01
 1.971174172778467e+00	 7.069591841855489e-01	 1.262773704723003e+01
 1.964522289881895e+00	 7.252385552179070e-01	 1.264190120351242e+01
 2.034197789242327e+00	 5.447714444386825e-01	 1.245760208690464e+01
 2.029154226290101e+00	 5.632669721228177e-01	 1.247625358737428e+01
 2.023929775694373e+00	 5.817600593402086e-01	 1.249392135877158e+01
 2.018523842615840e+00	 6.002482136082373e-01	 1.251070537075167e+01
 2.012935875270659e+00	 6.187289201612726e-01	 1.252671187951598e+01
 2.007165365683790e+00	 6.371996428157684e-01	 1.254205761334889e+01
 2.001211850423364e+00	 6.556578248619046e-01	 1.255687458819906e+01
 1.995074911315086e+00	 6.741008899813573e-01	 1.257131559435486e+01
 1.988754176135672e+00	 6.925262431907449e-01	 1.258556039425322e+01
 1.982249319284339e+00	 7.109312718102569e-01	 1.259982267009041e+01
 1.975560062431362e+00	 7.293133464569309e-01	 1.261435775815316e+01
 2.045563218868756e+00	 5.478151806721345e-01	 1.242866128643071e+01
 2.040491476621454e+00	 5.664140462024676e-01	 1.244726255983276e+01
 2.035237836078758e+00	 5.850104576306504e-01	 1.246494777868198e+01
 2.029801699077899e+00	 6.036019085481310e-01	 1.248181592304313e+01
 2.024182510752128e+00	 6.221858701388469e-01	 1.249797060479586e+01
 2.018379760288262e+00	 6.407597920491538e-01	 1.251352412908501e+01
 2.012392981665164e+00	 6.593211032844495e-01	 1.252860219813659e+01
 2.006221754372129e+00	 6.778672131320728e-01	 1.254334930057027e+01
 1.999865704106204e+00	 6.963955121100194e-01	 1.255793482836240e+01
 1.993324503447424e+00	 7.149033729409833e-01	 1.257255996225520e+01
 1.986597872510992e+00	 7.333881515511831e-01	 1.258746536466217e+01
 2.056928680698532e+00	 5.508589255299341e-01	 1.240029063451395e+01
 2.051828759076308e+00	 5.695611291992945e-01	 1.241888106951196e+01
 2.046545928503937e+00	 5.882608651310630e-01	 1.243660591725797e+01
 2.041079587495174e+00	 6.069556129907144e-01	 1.245356642772377e+01
 2.035429178100353e+00	 6.256428299117115e-01	 1.246986665312039e+01
 2.029594186668142e+00	 6.443199513702712e-01	 1.248561736835988e+01
 2.023574144588127e+00	 6.629843920869678e-01	 1.250094064629096e+01
 2.017368629013192e+00	 6.816335469547596e-01	 1.251597513300787e+01
 2.010977263560708e+00	 7.002647919929780e-01	 1.253088206758389e+01
 2.004399718991519e+00	 7.188754853267774e-01	 1.254585208924118e+01
 1.997635713865758e+00	 7.374629681915142e-01	 1.256111287322744e+01
 2.068294168290986e+00	 5.539026772871459e-01	 1.237240632841987e+01
 2.063166067229965e+00	 5.727082193298001e-01	 1.239103661809228e+01
 2.057854046561754e+00	 5.915112799993993e-01	 1.240883159472990e+01
 2.052357501476622e+00	 6.103093250354102e-01	 1.242589807116416e+01
 2.046675870941981e+00	 6.290997975207872e-01	 1.244234365985896e+01
 2.040808638468348e+00	 6.478801187615731e-01	 1.245828053511973e+01
 2.034755332856023e+00	 6.666476891934829e-01	 1.247382986256624e+01
 2.028515528921474e+00	 6.853998893150605e-01	 1.248912694342091e+01
 2.022088848202389e+00	 7.041340806469349e-01	 1.250432712024827e+01
 2.015474959640425e+00	 7.228476067166871e-01	 1.251961248946317e+01
 2.008673580240634e+00	 7.415377940687754e-01	 1.253519837192538e+01
 2.079659675205448e+00	 5.569464342188332e-01	 1.234493656357052e+01
 2.074503394657724e+00	 5.758553148104850e-01	 1.236366825783747e+01
 2.069162183844047e+00	 5.947617003936106e-01	 1.238157177297671e+01
 2.063635434631199e+00	 6.136630427816412e-01	 1.239876281469468e+01
 2.057922582903663e+00	 6.325567710069941e-01	 1.241535571450906e+01
 2.052023109333797e+00	 6.514402922055105e-01	 1.243146701607191e+01
 2.045936540132618e+00	 6.703109925280184e-01	 1.244721974131908e+01
 2.039662447780168e+00	 6.891662380786167e-01	 1.246274838633504e+01
 2.033200451734453e+00	 7.080033758792050e-01	 1.247820469594291e+01
 2.026550219117937e+00	 7.268197348597617e-01	 1.249376426473525e+01
 2.019711465380590e+00	 7.456126268738168e-01	 1.250960177967431e+01
 2.091025195001249e+00	 5.599901946000603e-01	 1.231782110729201e+01
 2.085840734934884e+00	 5.790024138578507e-01	 1.233672615216429e+01
 2.080470333942658e+00	 5.980121244716493e-01	 1.235478410128358e+01
 2.074913380567861e+00	 6.170167643288296e-01	 1.237212292392050e+01
 2.069169307612047e+00	 6.360137484112527e-01	 1.238886687194470e+01
 2.063237592909410e+00	 6.550004696845351e-01	 1.240513987225022e+01
 2.057117760081678e+00	 6.739743000145965e-01	 1.242106961163259e+01
 2.050809379272470e+00	 6.929325911110702e-01	 1.243679236643203e+01
 2.044312067860106e+00	 7.118726754971039e-01	 1.245245862841874e+01
 2.037625491147852e+00	 7.307918675050501e-01	 1.246823957712454e+01
 2.030749363030602e+00	 7.496874642974891e-01	 1.248424444294536e+01
 2.102390721237720e+00	 5.630339567058911e-01	 1.229101087755891e+01
 2.097178081636744e+00	 5.821495146883980e-01	 1.231017114113491e+01
 2.091778490449427e+00	 6.012625503914667e-01	 1.232843646699502e+01
 2.086191332895567e+00	 6.203704877763986e-01	 1.234595050295401e+01
 2.080416038693782e+00	 6.394707277744834e-01	 1.236285066865386e+01
 2.074452082840105e+00	 6.585606491810990e-01	 1.237927133569095e+01
 2.068298986366972e+00	 6.776376095772416e-01	 1.239534771287397e+01
 2.061956317081577e+00	 6.966989462780632e-01	 1.241122049144324e+01
 2.055423690282554e+00	 7.157419773079460e-01	 1.242704130428411e+01
 2.048700769453971e+00	 7.347640024016007e-01	 1.244297905192420e+01
 2.041787266935640e+00	 7.537623040306431e-01	 1.245907156864271e+01
 1.931409259964744e+00	 7.130142877236989e-01	 1.272971788753542e+01
 1.924687835652253e+00	 7.309635722760757e-01	 1.274359856431919e+01
 1.917785666474032e+00	 7.488852189192228e-01	 1.275835229679458e+01
 1.910702621172539e+00	 7.667766118782449e-01	 1.277226380688040e+01
 1.903438617033687e+00	 7.846351231197349e-01	 1.278506630173050e+01
 1.895993620396753e+00	 8.024581134352855e-01	 1.279690652215623e+01
 1.888367647136432e+00	 8.202429335451988e-01	 1.280794716105422e+01
 1.880560763116213e+00	 8.379869252216063e-01	 1.281836952773638e+01
 1.872573084612268e+00	 8.556874224301662e-01	 1.282837648497141e+01
 1.864404778707057e+00	 8.733417524894618e-01	 1.283819566473654e+01
 1.856056063651895e+00	 8.909472372472116e-01	 1.284808296726900e+01
 1.942446882393558e+00	 7.170890235421413e-01	 1.269944137429011e+01
 1.935687046468648e+00	 7.351408847103440e-01	 1.271369354887341e+01
 1.928745432756818e+00	 7.531649500241731e-01	 1.272868013563336e+01
 1.921621909250412e+00	 7.711585887600872e-01	 1.274286644668251e+01
 1.914316392762656e+00	 7.891191578659799e-01	 1.275623029910426e+01
 1.906828849440465e+00	 8.070440030508812e-01	 1.276887253222314e+01
 1.899159295249256e+00	 8.249304598949745e-01	 1.278090237242998e+01
 1.891307796428922e+00	 8.427758549791364e-01	 1.279244007008460e+01
 1.883274469920130e+00	 8.605775070331557e-01	 1.280361982776870e+01
 1.875059483760187e+00	 8.783327281017622e-01	 1.281459302662416e+01
 1.866663057447675e+00	 8.960388247275548e-01	 1.282553175604993e+01
 1.953484561117617e+00	 7.211637801432608e-01	 1.267021782523127e+01
 1.946686313384429e+00	 7.393182184504655e-01	 1.268484589250483e+01
 1.939705254937863e+00	 7.574447029573567e-01	 1.269991965778416e+01
 1.932541253020156e+00	 7.755405879916687e-01	 1.271431544951492e+01
 1.925194223971835e+00	 7.936032154825157e-01	 1.272808549046794e+01
 1.917664133747452e+00	 8.116299160562822e-01	 1.274128784716077e+01
 1.909950998403147e+00	 8.296180101529538e-01	 1.275398224847086e+01
 1.902054884555211e+00	 8.475648091620700e-01	 1.276623270025362e+01
 1.893975909808813e+00	 8.654676165774701e-01	 1.277811040910360e+01
 1.885714243156110e+00	 8.833237291699477e-01	 1.278969702272438e+01
 1.877270105342954e+00	 9.011304381768996e-01	 1.280108819286227e+01
 1.964522289881895e+00	 7.252385552179070e-01	 1.264190120351242e+01
 1.957685630166325e+00	 7.434955711291574e-01	 1.265687750475155e+01
 1.950665126806249e+00	 7.617244752934442e-01	 1.267195879699159e+01
 1.943460646293782e+00	 7.799226070897068e-01	 1.268651078612678e+01
 1.936072104496754e+00	 7.980872934282093e-01	 1.270055841542724e+01
 1.928499467177349e+00	 8.162158498526220e-01	 1.271412011366515e+01
 1.920742750482426e+00	 8.343055816626592e-01	 1.272721007588805e+01
 1.912802021404677e+00	 8.523537850564531e-01	 1.273984086067566e+01
 1.904677398213774e+00	 8.703577482918222e-01	 1.275202631349932e+01
 1.896369050856724e+00	 8.883147528655514e-01	 1.276378482437748e+01
 1.887877201326654e+00	 9.062220747097642e-01	 1.277514292646136e+01
 1.975560062431362e+00	 7.293133464569309e-01	 1.261435775815316e+01
 1.968684990581076e+00	 7.476729403791382e-01	 1.262958793471083e+01
 1.961625042151061e+00	 7.660042646071064e-01	 1.264469198568730e+01
 1.954380082883310e+00	 7.843046435709200e-01	 1.265935846796147e+01
 1.946950028172947e+00	 8.025713891619306e-01	 1.267358088060831e+01
 1.939334843589788e+00	 8.208018018410346e-01	 1.268734115729854e+01
 1.931534545371415e+00	 8.389931717676141e-01	 1.270061191904045e+01
 1.923549200886917e+00	 8.571427799483325e-01	 1.271335905877768e+01
 1.915378929070468e+00	 8.752478994049253e-01	 1.272554466822984e+01
 1.907023900823928e+00	 8.933057963601072e-01	 1.273713031589521e+01
 1.898484339387706e+00	 9.113137314406674e-01	 1.274808068352606e+01
 1.986597872510992e+00	 7.333881515511831e-01	 1.258746536466217e+01
 1.979684388395416e+00	 7.518503238331263e-01	 1.260287399717966e+01
 1.972584994761379e+00	 7.702840684730135e-01	 1.261801976868781e+01
 1.965299556600748e+00	 7.886866949520241e-01	 1.263277016379875e+01
 1.957827988835944e+00	 8.070555001425473e-01	 1.264708958822363e+01
 1.950170256844406e+00	 8.253877694226528e-01	 1.266092663195873e+01
 1.942326376954436e+00	 8.436807778113409e-01	 1.267421629927976e+01
 1.934296416911525e+00	 8.619317911237531e-01	 1.268688258516133e+01
 1.926080496314348e+00	 8.801380671454914e-01	 1.269884140927402e+01
 1.917678787019622e+00	 8.982968568251491e-01	 1.271000391720161e+01
 1.909091513515033e+00	 9.164054054841274e-01	 1.272028015686502e+01
 1.997635713865758e+00	 7.374629681915142e-01	 1.256111287322744e+01
 1.990683817376079e+00	 7.560277191238394e-01	 1.257664489011188e+01
 1.983544978426286e+00	 7.745638844658362e-01	 1.259184842490854e+01
 1.976219061258115e+00	 7.930687587497373e-01	 1.260666282415468e+01
 1.968705980321273e+00	 8.115396238289276e-01	 1.262102577184282e+01
 1.961005700800834e+00	 8.299737499986110e-01	 1.263485567570550e+01
 1.953118239115812e+00	 8.483683971373622e-01	 1.264805387951135e+01
 1.945043663388099e+00	 8.667208158687614e-01	 1.266050723556482e+01
 1.936782093880870e+00	 8.850282487422341e-01	 1.267209104932537e+01
 1.928333703405703e+00	 9.032879314322104e-01	 1.268267240651173e+01
 1.919698717697563e+00	 9.214970939546626e-01	 1.269211389135411e+01
 2.008673580240634e+00	 7.415377940687754e-01	 1.253519837192538e+01
 2.001683271289801e+00	 7.602051238839962e-01	 1.255081533429184e+01
 1.994504986934862e+00	 7.788437101602447e-01	 1.256608959678974e+01
 1.987138590667419e+00	 7.974508324807760e-01	 1.258095831314528e+01
 1.979583996464469e+00	 8.160237576799404e-01	 1.259533483909554e+01
 1.971841169318707e+00	 8.345597409700426e-01	 1.260911057270469e+01
 1.963910125739865e+00	 8.530560270892013e-01	 1.262215715377571e+01
 1.955790934226232e+00	 8.715098514694032e-01	 1.263432903646564e+01
 1.947483715705490e+00	 8.899184414238660e-01	 1.264546644778229e+01
 1.938988643944069e+00	 9.082790173528249e-01	 1.265539874305164e+01
 1.930305945924224e+00	 9.265887939667918e-01	 1.266394816769632e+01
 2.019711465380590e+00	 7.456126268738168e-01	 1.250960177967431e+01
 2.012682743903317e+00	 7.643825357463149e-01	 1.252530521610481e+01
 2.005465014076192e+00	 7.831235431309101e-01	 1.254065992714391e+01
 1.998058138640678e+00	 8.018329136618582e-01	 1.255558304753318e+01
 1.990462031101061e+00	 8.205078991544539e-01	 1.256996602104613e+01
 1.982676656257658e+00	 8.391457397380806e-01	 1.258367642106029e+01
 1.974702030710916e+00	 8.577436650103808e-01	 1.259656014166240e+01
 1.966538223335522e+00	 8.762988952117241e-01	 1.260844397418965e+01
 1.958185355723661e+00	 8.948086424191003e-01	 1.261913858264811e+01
 1.949643602596621e+00	 9.132701117585271e-01	 1.262844188982176e+01
 1.940913192183940e+00	 9.316805026350335e-01	 1.263614288409220e+01
 2.030749363030602e+00	 7.496874642974891e-01	 1.248424444294536e+01
 2.023682228983363e+00	 7.685599523435130e-01	 1.250003923741851e+01
 2.016425053639356e+00	 7.874033809525026e-01	 1.251548070314721e+01
 2.008977698989906e+00	 8.062149998097010e-01	 1.253046764268875e+01
 2.001340078066580e+00	 8.249920457113363e-01	 1.254487202799100e+01
 1.993512155477321e+00	 8.437317437038593e-01	 1.255854080631579e+01
 1.985493947913288e+00	 8.624313082444232e-01	 1.257129808737802e+01
 1.977285524625564e+00	 8.810879443817706e-01	 1.258294772739801e+01
 1.968887007870838e+00	 8.996988489566495e-01	 1.259327632427308e+01
 1.960298573325255e+00	 9.182612118208499e-01	 1.260205663640754e+01
 1.951520450465639e+00	 9.367722170739057e-01	 1.260905143590443e+01
 2.041787266935640e+00	 7.537623040306431e-01	 1.245907156864272e+01
 2.034681720296674e+00	 7.727373713083103e-01	 1.247494657231042e+01
 2.027385099413437e+00	 7.916832211996929e-01	 1.249047750720850e+01
 2.019897265527114e+00	 8.105970884410222e-01	 1.250554656520847e+01
 2.012218131196559e+00	 8.294761948094564e-01	 1.252000871144050e+01
 2.004347660837330e+00	 8.483177502685121e-01	 1.253369348041484e+01
 1.996285871231303e+00	 8.671189541348516e-01	 1.254640716329679e+01
 1.988032832005955e+00	 8.858769962655885e-01	 1.255793540282903e+01
 1.979588666082477e+00	 9.045890582652273e-01	 1.256804621087317e+01
 1.970953550091872e+00	 9.232523147113274e-01	 1.257649342183996e+01
 1.962127714758247e+00	 9.418639343979274e-01	 1.258302059339729e+01
 1.856056063651895e+00	 8.909472372472116e-01	 1.284808296726900e+01
 1.847528674017312e+00	 9.084982148037878e-01	 1.285567283276290e+01
 1.838821526302338e+00	 9.259949970704037e-01	 1.285951681930988e+01
 1.829934992625154e+00	 9.434348970933321e-01	 1.286019465050889e+01
 1.820869497370557e+00	 9.608152272688492e-01	 1.285812653585002e+01
 1.811625517388271e+00	 9.781333005881501e-01	 1.285374181207500e+01
 1.802203582156380e+00	 9.953864318929987e-01	 1.284748609318603e+01
 1.792604273909383e+00	 1.012571939140996e+00	 1.283982962551686e+01
 1.782828227730364e+00	 1.029687144679315e+00	 1.283127687175590e+01
 1.772876131606872e+00	 1.046729376525748e+00	 1.282237733984453e+01
 1.762748726450076e+00	 1.063695969655851e+00	 1.281373766423942e+01
 1.866663057447675e+00	 8.960388247275548e-01	 1.282553175604993e+01
 1.858086935465855e+00	 9.136901026542606e-01	 1.283393483780097e+01
 1.849330028121752e+00	 9.312868755756089e-01	 1.283741941427314e+01
 1.840392709660119e+00	 9.488264411824696e-01	 1.283739018542856e+01
 1.831275406891021e+00	 9.663060965120016e-01	 1.283467822780429e+01
 1.821978599389269e+00	 9.837231391996819e-01	 1.282975813589868e+01
 1.812502819658802e+00	 1.001074868742133e+00	 1.282312333053486e+01
 1.802848653261464e+00	 1.018358587769621e+00	 1.281529442234862e+01
 1.793016738909704e+00	 1.035571603327070e+00	 1.280682884746390e+01
 1.783007768522767e+00	 1.052711228162425e+00	 1.279833179316853e+01
 1.772822487245980e+00	 1.069774782021164e+00	 1.279046842269365e+01
 1.877270105342954e+00	 9.011304381768996e-01	 1.280108819286227e+01
 1.868645250765381e+00	 9.188820169852413e-01	 1.280992144986973e+01
 1.859838583538385e+00	 9.365787810712302e-01	 1.281393731684167e+01
 1.850850480033302e+00	 9.542180127702568e-01	 1.281344964866829e+01
 1.841681369485469e+00	 9.717969937602895e-01	 1.280981818008366e+01
 1.832331734194807e+00	 9.893130063210124e-01	 1.280417697414199e+01
 1.822802109691121e+00	 1.006763334603832e+00	 1.279706178754807e+01
 1.813093084863614e+00	 1.024145265911606e+00	 1.278903647792377e+01
 1.803205302054118e+00	 1.041456091986931e+00	 1.278070267849913e+01
 1.793139457113599e+00	 1.058693110307838e+00	 1.277271081163356e+01
 1.782896299421558e+00	 1.075853625389650e+00	 1.276577245199798e+01
 1.887877201326654e+00	 9.062220747097642e-01	 1.277514292646136e+01
 1.879203613932423e+00	 9.240739548544166e-01	 1.278395266826771e+01
 1.870347186596961e+00	 9.418707105583015e-01	 1.278821008744101e+01
 1.861308297818194e+00	 9.596096088012669e-01	 1.278820848192817e+01
 1.852087379256750e+00	 9.772879159020201e-01	 1.278430942131640e+01
 1.842684915937664e+00	 9.949028987843879e-01	 1.277778535889134e+01
 1.833101446416624e+00	 1.012451826254493e+00	 1.277009062137254e+01
 1.823337562910209e+00	 1.029931970287713e+00	 1.276182581254205e+01
 1.813393911389648e+00	 1.047340607324259e+00	 1.275362820328564e+01
 1.803271191637650e+00	 1.064675019572177e+00	 1.274618323016912e+01
 1.792970157267903e+00	 1.081932496316565e+00	 1.274023699151856e+01
 1.898484339387706e+00	 9.113137314406674e-01	 1.274808068352606e+01
 1.889762018983515e+00	 9.292659133194723e-01	 1.275652053498056e+01
 1.880855831342201e+00	 9.471626610378598e-01	 1.276075285745572e+01
 1.871766157088290e+00	 9.650012262200732e-01	 1.276105779056334e+01
 1.862493430307707e+00	 9.827788598255017e-01	 1.275778489585030e+01
 1.853038138750618e+00	 1.000492813422054e+00	 1.275135878393858e+01
 1.843400823998602e+00	 1.018140340470508e+00	 1.274300017496540e+01
 1.833582081595628e+00	 1.035718697618709e+00	 1.273443353841114e+01
 1.823582561142339e+00	 1.053225146004415e+00	 1.272633678158409e+01
 1.813402966353200e+00	 1.070656952565628e+00	 1.271942035726855e+01
 1.803044055076105e+00	 1.088011391357169e+00	 1.271445322808209e+01
 1.909091513515033e+00	 9.164054054841274e-01	 1.272028015686502e+01
 1.900320459935190e+00	 9.344578894380949e-01	 1.272810858468956e+01
 1.891364511818828e+00	 9.524546295109397e-01	 1.273213346265887e+01
 1.882224051917083e+00	 9.703928619712493e-01	 1.273261870892124e+01
 1.872899516741188e+00	 9.882698224190428e-01	 1.272989739689197e+01
 1.863391396766446e+00	 1.006082747066256e+00	 1.272437748206249e+01
 1.853700236600343e+00	 1.023828874028277e+00	 1.271654783928187e+01
 1.843826635114248e+00	 1.041505444625357e+00	 1.270763096096127e+01
 1.833771245538231e+00	 1.059109704692756e+00	 1.269956035177248e+01
 1.823534775518529e+00	 1.076638905898381e+00	 1.269309497616914e+01
 1.813117987137258e+00	 1.094090307066720e+00	 1.268901522912393e+01
 1.919698717697563e+00	 9.214970939546626e-01	 1.269211389135411e+01
 1.910878930803980e+00	 9.396498802679703e-01	 1.269919179174945e+01
 1.901873222071564e+00	 9.577466129785766e-01	 1.270290923899392e+01
 1.892681976378068e+00	 9.757845129993687e-01	 1.270351092371881e+01
 1.883305632660037e+00	 9.937608005709503e-01	 1.270130902080244e+01
 1.873744684117928e+00	 1.011672696549243e+00	 1.269668900711200e+01
 1.863999678385135e+00	 1.029517423704193e+00	 1.269011580583505e+01
 1.854071217660447e+00	 1.047292208028423e+00	 1.268214024938548e+01
 1.843959958803368e+00	 1.064994280054644e+00	 1.267403048029154e+01
 1.833666613391918e+00	 1.082620876180624e+00	 1.266788033950544e+01
 1.823191947742451e+00	 1.100169240000477e+00	 1.266451887104784e+01
 1.930305945924224e+00	 9.265887939667918e-01	 1.266394816769632e+01
 1.921437425606420e+00	 9.448418828667851e-01	 1.267023651284759e+01
 1.912381956145133e+00	 9.630386084418063e-01	 1.267362701160594e+01
 1.903139924544737e+00	 9.811761762490052e-01	 1.267434217770461e+01
 1.893711772167104e+00	 9.992517911695330e-01	 1.267266894599019e+01
 1.884097994937841e+00	 1.017262658703259e+00	 1.266896457235695e+01
 1.874299143516272e+00	 1.035205986274654e+00	 1.266366287861208e+01
 1.864315823428603e+00	 1.053078984548671e+00	 1.265728083453165e+01
 1.854148695163791e+00	 1.070878868755438e+00	 1.265042546673310e+01
 1.843798474231648e+00	 1.088602860022546e+00	 1.264444915770008e+01
 1.833265931182776e+00	 1.106248186713696e+00	 1.264156076299569e+01
 1.940913192183940e+00	 9.316805026350335e-01	 1.263614288409220e+01
 1.931995938359042e+00	 9.500338942922255e-01	 1.264170042551387e+01
 1.922890708084255e+00	 9.683306129016638e-01	 1.264482307807810e+01
 1.913597890490585e+00	 9.865678486647314e-01	 1.264570828554502e+01
 1.904117929365230e+00	 1.004742791103098e+00	 1.264461346941465e+01
 1.894451323358963e+00	 1.022852630360551e+00	 1.264186200230605e+01
 1.884598626157039e+00	 1.040894558516056e+00	 1.263784954682756e+01
 1.874560446613094e+00	 1.058865770906865e+00	 1.263305075252417e+01
 1.864337448845543e+00	 1.076763467460496e+00	 1.262802630075898e+01
 1.853930352295999e+00	 1.094584854034335e+00	 1.262343028457913e+01
 1.843339931749326e+00	 1.112327143761639e+00	 1.262073742544910e+01
 1.951520450465639e+00	 9.367722170739057e-01	 1.260905143590443e+01
 1.942554463078380e+00	 9.552259116019777e-01	 1.261403246264367e+01
 1.933399471933654e+00	 9.736226233591848e-01	 1.261702318609795e+01
 1.924055868289105e+00	 9.919595271911219e-01	 1.261819314295423e+01
 1.914524098357264e+00	 1.010233797259954e+00	 1.261776603554412e+01
 1.904804663514075e+00	 1.028442608353365e+00	 1.261602576990847e+01
 1.894898120470727e+00	 1.046583137204793e+00	 1.261332288212842e+01
 1.884805081408298e+00	 1.064652563823771e+00	 1.261008134588552e+01
 1.874526214074665e+00	 1.082648072835180e+00	 1.260680575138607e+01
 1.864062241843254e+00	 1.100566854826179e+00	 1.260408884287302e+01
 1.853413943733192e+00	 1.118406107699562e+00	 1.260263943579549e+01
 1.962127714758247e+00	 9.418639343979274e-01	 1.258302059339729e+01
 1.953112993780966e+00	 9.604179318537284e-01	 1.258767274318947e+01
 1.943908241738054e+00	 9.789146368154056e-01	 1.259074250576905e+01
 1.934513852013791e+00	 9.973512087727491e-01	 1.259236872932818e+01
 1.924930273246052e+00	 1.015724806528408e+00	 1.259273725805715e+01
 1.915158009535952e+00	 1.034032589513948e+00	 1.259208702611893e+01
 1.905197620620626e+00	 1.052271719117264e+00	 1.259071656487727e+01
 1.895049722008594e+00	 1.070439360020153e+00	 1.258899091676879e+01
 1.884714985077202e+00	 1.088532681544849e+00	 1.258734894627743e+01
 1.874194137131692e+00	 1.106548859008267e+00	 1.258631103545035e+01
 1.863487961425465e+00	 1.124485075082724e+00	 1.258658778765504e+01
 1.762748726450076e+00	 1.063695969655851e+00	 1.281373766423942e+01
 1.752446806502753e+00	 1.080584267631680e+00	 1.280406617967006e+01
 1.741971220554216e+00	 1.097391624928380e+00	 1.279202131414066e+01
 1.731322870555746e+00	 1.114115407258218e+00	 1.277820800028051e+01
 1.720502711059656e+00	 1.130752992537162e+00	 1.276187523367994e+01
 1.709511749047935e+00	 1.147301772182649e+00	 1.274234820293630e+01
 1.698351043722806e+00	 1.163759152409872e+00	 1.271947858495749e+01
 1.687021706259139e+00	 1.180122555525278e+00	 1.269308008810407e+01
 1.675524899518690e+00	 1.196389421215979e+00	 1.266293258273523e+01
 1.663861837726224e+00	 1.212557207833782e+00	 1.262878668978242e+01
 1.652033786107606e+00	 1.228623393672523e+00	 1.259036881264957e+01
 1.772822487245980e+00	 1.069774782021164e+00	 1.279046842269366e+01
 1.762461693861049e+00	 1.086759593284329e+00	 1.278173005419922e+01
 1.751926242007952e+00	 1.103663001308404e+00	 1.277053287989734e+01
 1.741217038792456e+00	 1.120482356751212e+00	 1.275726641291578e+01
 1.730335044221956e+00	 1.137215022544016e+00	 1.274104489929111e+01
 1.719281271033151e+00	 1.153858375196708e+00	 1.272164772448015e+01
 1.708056784481405e+00	 1.170409806101503e+00	 1.269895473307135e+01
 1.696662702091738e+00	 1.186866722833825e+00	 1.267280645424864e+01
 1.685100193371437e+00	 1.203226550449093e+00	 1.264300829950185e+01
 1.673370479484333e+00	 1.219486732774087e+00	 1.260933523727700e+01
 1.661474832886810e+00	 1.235644733691576e+00	 1.257153692964802e+01
 1.782896299421558e+00	 1.075853625389650e+00	 1.276577245199798e+01
 1.772476632298655e+00	 1.092934950432318e+00	 1.275811625910000e+01
 1.761881314235565e+00	 1.109934409673591e+00	 1.274787803835375e+01
 1.751111257492559e+00	 1.126849338716770e+00	 1.273508529730386e+01
 1.740167427532153e+00	 1.143677085508335e+00	 1.271915413000429e+01
 1.729050842845789e+00	 1.160415011650560e+00	 1.270003396983260e+01
 1.717762574742001e+00	 1.177060493712601e+00	 1.267763341040454e+01
 1.706303747095998e+00	 1.193610924538788e+00	 1.265182096584045e+01
 1.694675536060637e+00	 1.210063714552771e+00	 1.262242933881785e+01
 1.682879169738848e+00	 1.226416293056223e+00	 1.258926018421018e+01
 1.670915927817580e+00	 1.242666109520780e+00	 1.255208935316617e+01
 1.792970157267903e+00	 1.081932496316565e+00	 1.274023699151857e+01
 1.782491616140045e+00	 1.099110335576223e+00	 1.273372555341068e+01
 1.771836431595470e+00	 1.116205846470095e+00	 1.272443464514693e+01
 1.761005521048985e+00	 1.133216349546887e+00	 1.271211663072728e+01
 1.749999855418247e+00	 1.150139177768236e+00	 1.269659288032134e+01
 1.738820458949470e+00	 1.166971677828723e+00	 1.267784539990933e+01
 1.727468409004391e+00	 1.183711211474383e+00	 1.265581210753107e+01
 1.715944835808436e+00	 1.200355156818382e+00	 1.263039064913607e+01
 1.704250922160065e+00	 1.216900909652535e+00	 1.260144274012085e+01
 1.692387903101342e+00	 1.233345884753346e+00	 1.256879902085732e+01
 1.680357065549814e+00	 1.249687517181247e+00	 1.253226441083311e+01
 1.803044055076105e+00	 1.088011391357169e+00	 1.271445322808209e+01
 1.792506639709692e+00	 1.105285745216622e+00	 1.270906429169131e+01
 1.781791588446089e+00	 1.122477308144067e+00	 1.270058721091726e+01
 1.770899823854663e+00	 1.139583385633562e+00	 1.268880827302331e+01
 1.759832322308235e+00	 1.156601295661834e+00	 1.267374819246981e+01
 1.748590113807815e+00	 1.173528370015716e+00	 1.265541856040580e+01
 1.737174281768368e+00	 1.190361955618064e+00	 1.263378718947914e+01
 1.725585962765565e+00	 1.207099415850821e+00	 1.260878198797254e+01
 1.713826346243496e+00	 1.223738131873911e+00	 1.258029537793205e+01
 1.701896674183387e+00	 1.240275503938611e+00	 1.254818924547731e+01
 1.689798240733412e+00	 1.256708952694090e+00	 1.251230040767047e+01
 1.813117987137258e+00	 1.094090307066720e+00	 1.268901522912393e+01
 1.802521697332066e+00	 1.111461175854092e+00	 1.268464318325510e+01
 1.791746779145840e+00	 1.128748791141663e+00	 1.267684592615607e+01
 1.780794160302521e+00	 1.145950443368790e+00	 1.266560365055810e+01
 1.769664822630115e+00	 1.163063435527242e+00	 1.265100384113600e+01
 1.758359801884447e+00	 1.180085084496057e+00	 1.263308769392989e+01
 1.746880187533730e+00	 1.197012722374859e+00	 1.261185348189706e+01
 1.735227122503902e+00	 1.213843697814320e+00	 1.258726049058784e+01
 1.723401802884705e+00	 1.230575377342423e+00	 1.255923351593594e+01
 1.711405477596553e+00	 1.247205146685170e+00	 1.252766791223205e+01
 1.699239448018276e+00	 1.263730412080424e+00	 1.249243517440492e+01
 1.823191947742451e+00	 1.100169240000477e+00	 1.266451887104784e+01
 1.812536783331641e+00	 1.117636623989211e+00	 1.266095361298497e+01
 1.801701998053145e+00	 1.135020291909036e+00	 1.265371790920067e+01
 1.790688524785491e+00	 1.152317519144568e+00	 1.264294144052302e+01
 1.779497350811887e+00	 1.169525593702579e+00	 1.262873997973864e+01
 1.768129517642987e+00	 1.186641817554266e+00	 1.261118435468419e+01
 1.756586120800270e+00	 1.203663507975983e+00	 1.259030386056923e+01
 1.744868309559959e+00	 1.220587998887093e+00	 1.256609026038401e+01
 1.732977286657468e+00	 1.237412642183596e+00	 1.253850236538631e+01
 1.720914307952414e+00	 1.254134809066179e+00	 1.250747118360945e+01
 1.708680682054302e+00	 1.270751891361360e+00	 1.247290562025452e+01
 1.833265931182776e+00	 1.106248186713696e+00	 1.264156076299569e+01
 1.822551892032889e+00	 1.123812086122555e+00	 1.263853524678361e+01
 1.811657239526421e+00	 1.141291806892340e+00	 1.263170393331336e+01
 1.800582911696502e+00	 1.158684609352894e+00	 1.262125525554602e+01
 1.789329901281547e+00	 1.175987766525958e+00	 1.260733278819102e+01
 1.777899255547056e+00	 1.193198565474861e+00	 1.259003702560849e+01
 1.766292076067785e+00	 1.210314308652653e+00	 1.256942884416227e+01
 1.754509518470253e+00	 1.227332315247355e+00	 1.254553357048929e+01
 1.742552792135559e+00	 1.244249922522954e+00	 1.251834564768104e+01
 1.730423159862542e+00	 1.261064487154794e+00	 1.248783388718542e+01
 1.718121937491393e+00	 1.277773386558011e+00	 1.245394729002543e+01
 1.843339931749326e+00	 1.112327143761639e+00	 1.262073742544910e+01
 1.832567017760283e+00	 1.129987558754702e+00	 1.261795768674358e+01
 1.821612497924088e+00	 1.147563332537727e+00	 1.261129815336369e+01
 1.810477315428481e+00	 1.165051710385763e+00	 1.260097332861603e+01
 1.799162468467095e+00	 1.182449950335495e+00	 1.258715412210351e+01
 1.787669010060277e+00	 1.199755324542360e+00	 1.256997073789648e+01
 1.775998047836069e+00	 1.216965120636082e+00	 1.254951619008625e+01
 1.764150743771297e+00	 1.234076643073319e+00	 1.252585044198367e+01
 1.752128313892753e+00	 1.251087214486021e+00	 1.249900516095493e+01
 1.739932027938508e+00	 1.267994177024168e+00	 1.246898907656724e+01
 1.727563208979448e+00	 1.284794893691492e+00	 1.243579392536397e+01
 1.853413943733192e+00	 1.118406107699562e+00	 1.260263943579549e+01
 1.842582154838293e+00	 1.136163038386228e+00	 1.259978226588187e+01
 1.831567767604568e+00	 1.153834865291353e+00	 1.259298783154748e+01
 1.820371730374361e+00	 1.171418818635172e+00	 1.258251819831531e+01
 1.808995046796528e+00	 1.188912141469306e+00	 1.256857116337971e+01
 1.797438775646269e+00	 1.206312091041281e+00	 1.255130669280503e+01
 1.785704030604917e+00	 1.223615940157487e+00	 1.253085049336168e+01
 1.773791979999606e+00	 1.240820978543200e+00	 1.250729822565655e+01
 1.761703846502827e+00	 1.257924514198324e+00	 1.248072035054747e+01
 1.749440906791884e+00	 1.274923874747455e+00	 1.245116759637017e+01
 1.737004491168368e+00	 1.291816408782914e+00	 1.241867703001503e+01
 1.863487961425465e+00	 1.124485075082724e+00	 1.258658778765504e+01
 1.852597297591393e+00	 1.142338521517712e+00	 1.258455675704784e+01
 1.841523042926277e+00	 1.160106401599370e+00	 1.257725306218626e+01
 1.830266150927070e+00	 1.177785930493119e+00	 1.256630639435683e+01
 1.818827630697846e+00	 1.195374336265505e+00	 1.255194607216235e+01
 1.807208546768658e+00	 1.212868861256145e+00	 1.253436188567903e+01
 1.795410018874126e+00	 1.230266763448083e+00	 1.251371278838698e+01
 1.783433221691696e+00	 1.247565317835213e+00	 1.249013118717291e+01
 1.771279384539555e+00	 1.264761817785385e+00	 1.246372788320806e+01
 1.758949791034242e+00	 1.281853576397811e+00	 1.243459765108260e+01
 1.746445778708052e+00	 1.298837927853393e+00	 1.240282543894491e+01
 1.652033786107606e+00	 1.228623393672523e+00	 1.259036881264957e+01
 1.640040009062151e+00	 1.244588181448207e+00	 1.254985908429690e+01
 1.627883875825812e+00	 1.260446344159665e+00	 1.250939007890433e+01
 1.615566809617697e+00	 1.276195417109997e+00	 1.246858385574947e+01
 1.603090282900223e+00	 1.291832960535744e+00	 1.242707141759097e+01
 1.590455816827145e+00	 1.307356560836963e+00	 1.238449971470702e+01
 1.577664980655075e+00	 1.322763831792902e+00	 1.234053892255209e+01
 1.564719391118932e+00	 1.338052415761990e+00	 1.229488995635208e+01
 1.551620711771823e+00	 1.353219984864907e+00	 1.224729218337996e+01
 1.538370652289902e+00	 1.368264242149501e+00	 1.219753129127067e+01
 1.524970967742801e+00	 1.383182922736329e+00	 1.214544726855455e+01
 1.661474832886810e+00	 1.235644733691576e+00	 1.257153692964802e+01
 1.649412513774380e+00	 1.251700757076041e+00	 1.253187435266775e+01
 1.637186910637515e+00	 1.267649546055040e+00	 1.249250526058176e+01
 1.624799454828739e+00	 1.283488621846425e+00	 1.245298832581127e+01
 1.612251627225300e+00	 1.299215530743982e+00	 1.241288770576805e+01
 1.599544957674047e+00	 1.314827845354530e+00	 1.237178034685614e+01
 1.586681024399585e+00	 1.330323165820548e+00	 1.232926358148315e+01
 1.573661453376152e+00	 1.345699121027017e+00	 1.228496298017345e+01
 1.560487917663735e+00	 1.360953369791258e+00	 1.223854041818488e+01
 1.547162136708951e+00	 1.376083602034500e+00	 1.218970231352969e+01
 1.533685875611304e+00	 1.391087539933971e+00	 1.213820799102233e+01
 1.670915927817580e+00	 1.242666109520780e+00	 1.255208935316617e+01
 1.658785066288519e+00	 1.258813368979399e+00	 1.251323925567574e+01
 1.646489992896752e+00	 1.274852784688210e+00	 1.247487771288073e+01
 1.634032147128263e+00	 1.290781863779745e+00	 1.243650995583844e+01
 1.621413018275174e+00	 1.306598138604960e+00	 1.239764340595219e+01
 1.608634144877471e+00	 1.322299167977364e+00	 1.235779527169498e+01
 1.595697114127796e+00	 1.337882538402592e+00	 1.231650045797002e+01
 1.582603561239755e+00	 1.353345865292110e+00	 1.227331974896901e+01
 1.569355168780258e+00	 1.368686794159805e+00	 1.222784822257635e+01
 1.555953665966435e+00	 1.383903001800221e+00	 1.217972385175403e+01
 1.542400827927715e+00	 1.398992197447186e+00	 1.212863624595488e+01
 1.680357065549814e+00	 1.249687517181247e+00	 1.253226441083311e+01
 1.668157661293324e+00	 1.265926013127679e+00	 1.249420016510347e+01
 1.655793117331666e+00	 1.282056055977207e+00	 1.245676579850005e+01
 1.643264881284314e+00	 1.298075138776977e+00	 1.241942286429972e+01
 1.630574450858304e+00	 1.313980779935046e+00	 1.238163196896931e+01
 1.617723373286798e+00	 1.329770524471552e+00	 1.234286065460244e+01
 1.604713244730514e+00	 1.345441945255220e+00	 1.230259161387709e+01
 1.591545709642467e+00	 1.360992644223935e+00	 1.226033119715798e+01
 1.578222460096536e+00	 1.376420253588093e+00	 1.221561816842680e+01
 1.564745235080402e+00	 1.391722437015485e+00	 1.216803266399804e+01
 1.551115819753472e+00	 1.406896890796484e+00	 1.211720530547645e+01
 1.689798240733412e+00	 1.256708952694090e+00	 1.251230040767047e+01
 1.677530293477559e+00	 1.273038685490282e+00	 1.247500326693099e+01
 1.665096278670400e+00	 1.289259355840064e+00	 1.243842747106633e+01
 1.652497652064936e+00	 1.305368442705138e+00	 1.240200048082357e+01
 1.639735919783147e+00	 1.321363450550607e+00	 1.236514582410458e+01
 1.626812637751406e+00	 1.337241910603177e+00	 1.232729125733677e+01
 1.613729411098543e+00	 1.353001382094612e+00	 1.228787727952883e+01
 1.600487893517016e+00	 1.368639453489158e+00	 1.224636595738659e+01
 1.587089786587711e+00	 1.384153743693664e+00	 1.220225001679914e+01
 1.573536839068903e+00	 1.399541903249116e+00	 1.215506215316062e+01
 1.559830846150009e+00	 1.414801615502374e+00	 1.210438451037676e+01
 1.699239448018276e+00	 1.263730412080424e+00	 1.249243517440492e+01
 1.686902957529983e+00	 1.280151382036608e+00	 1.245589411462364e+01
 1.674399471641097e+00	 1.296462680194814e+00	 1.242011983596203e+01
 1.661730454238173e+00	 1.312661771431248e+00	 1.238451511702694e+01
 1.648897419858161e+00	 1.328746146268012e+00	 1.234847596228328e+01
 1.635901933120676e+00	 1.344713322138330e+00	 1.231140003581116e+01
 1.622745608122686e+00	 1.360560844636953e+00	 1.227269546821028e+01
 1.609430107796131e+00	 1.376286288754447e+00	 1.223178999376860e+01
 1.595957143228931e+00	 1.391887260094062e+00	 1.218814037182528e+01
 1.582328472949988e+00	 1.407361396069935e+00	 1.214124204328013e+01
 1.568545902178763e+00	 1.422706367085369e+00	 1.209063897048123e+01
 1.708680682054302e+00	 1.270751891361360e+00	 1.247290562025452e+01
 1.696275648139358e+00	 1.287264098736057e+00	 1.243711718672310e+01
 1.683702690971904e+00	 1.303666024959489e+00	 1.240209871521257e+01
 1.670963282572070e+00	 1.319955120822326e+00	 1.236723754108645e+01
 1.658058945891804e+00	 1.336128862903626e+00	 1.233191152261174e+01
 1.644991254243985e+00	 1.352184754843093e+00	 1.229549774078271e+01
 1.631761830693750e+00	 1.368120328598426e+00	 1.225738159307257e+01
 1.618372347412540e+00	 1.383933145686467e+00	 1.221696623696668e+01
 1.604824524995340e+00	 1.399620798406830e+00	 1.217368233580788e+01
 1.591120131741705e+00	 1.415180911046765e+00	 1.212699805638712e+01
 1.577260982901169e+00	 1.430611141065978e+00	 1.207642926486664e+01
 1.718121937491393e+00	 1.277773386558011e+00	 1.245394729002543e+01
 1.705648359994444e+00	 1.294376831558028e+00	 1.241891544858581e+01
 1.693005931390962e+00	 1.310869386052121e+00	 1.238461821628463e+01
 1.680196131834669e+00	 1.327248486745391e+00	 1.235043655591786e+01
 1.667220492692533e+00	 1.343511596273818e+00	 1.231573938215762e+01
 1.654080595970714e+00	 1.359656204483553e+00	 1.227989252134958e+01
 1.640778073702539e+00	 1.375679829695214e+00	 1.224226808636008e+01
 1.627314607298972e+00	 1.391580019951883e+00	 1.220225422105155e+01
 1.613691926862082e+00	 1.407354354249511e+00	 1.215926516550734e+01
 1.599911810462103e+00	 1.423000443748428e+00	 1.211275158990096e+01
 1.585976083378664e+00	 1.438515932964711e+00	 1.206221114193714e+01
 1.727563208979448e+00	 1.284794893691492e+00	 1.243579392536397e+01
 1.715021087784002e+00	 1.301489576471923e+00	 1.240152991811847e+01
 1.702309187626415e+00	 1.318072759390745e+00	 1.236793030465562e+01
 1.689428996794017e+00	 1.334541865067461e+00	 1.233437858083440e+01
 1.676382055068806e+00	 1.350894342194955e+00	 1.230024374885447e+01
 1.663169953150242e+00	 1.367127666825798e+00	 1.226488953116036e+01
 1.649794332039858e+00	 1.383239343643499e+00	 1.222768402087870e+01
 1.636256882388152e+00	 1.399226907217362e+00	 1.218800972208201e+01
 1.622559343804303e+00	 1.415087923239649e+00	 1.214527392957738e+01
 1.608703504129232e+00	 1.430819989743745e+00	 1.209891939455914e+01
 1.594691198672685e+00	 1.446420738302079e+00	 1.204843521937356e+01
 1.737004491168368e+00	 1.291816408782914e+00	 1.241867703001503e+01
 1.724393826196794e+00	 1.308602329447141e+00	 1.238519923536884e+01
 1.711612454406407e+00	 1.325276140893389e+00	 1.235228438002079e+01
 1.698661872218156e+00	 1.341835251655556e+00	 1.231932723656174e+01
 1.685543627829080e+00	 1.358277096483405e+00	 1.228570575742191e+01
 1.672259320631949e+00	 1.374599137635912e+00	 1.225079053723971e+01
 1.658810600596508e+00	 1.390798866159464e+00	 1.221395473362958e+01
 1.645199167612811e+00	 1.406873803149572e+00	 1.217458439834767e+01
 1.631426770797145e+00	 1.422821500994787e+00	 1.213208916711529e+01
 1.617495207761140e+00	 1.438639544601540e+00	 1.208591325286712e+01
 1.603406323844666e+00	 1.454325552598593e+00	 1.203554668397088e+01
 1.746445778708052e+00	 1.298837927853393e+00	 1.240282543894491e+01
 1.733766569921580e+00	 1.315715086453082e+00	 1.237015923583516e+01
 1.720915726459082e+00	 1.332479526478090e+00	 1.233792685600904e+01
 1.707894752875131e+00	 1.349128642376694e+00	 1.230554293349143e+01
 1.694705205781814e+00	 1.365659854955533e+00	 1.227240306819662e+01
 1.681348693265214e+00	 1.382070612679982e+00	 1.223789353134268e+01
 1.667826874263298e+00	 1.398358392959293e+00	 1.220140145153663e+01
 1.654141457905676e+00	 1.414520703415176e+00	 1.216232543222151e+01
 1.640294202815756e+00	 1.430555083132469e+00	 1.212008654729268e+01
 1.626286916375878e+00	 1.446459103890634e+00	 1.207413965805922e+01
 1.612121453956046e+00	 1.462230371374763e+00	 1.202398499137535e+01
 1.524970967742801e+00	 1.383182922736329e+00	 1.214544726855455e+01
 1.511425769093892e+00	 1.397971295775124e+00	 1.208932353766798e+01
 1.497734613808164e+00	 1.412629731727097e+00	 1.202797835055107e+01
 1.483899363330846e+00	 1.427156093806193e+00	 1.196220009977111e+01
 1.469921921223230e+00	 1.441548281638985e+00	 1.189240085082800e+01
 1.455804232283716e+00	 1.455804232283716e+00	 1.181865948218398e+01
 1.441548281638985e+00	 1.469921921223230e+00	 1.174197369632092e+01
 1.427156093806192e+00	 1.483899363330846e+00	 1.166337780093640e+01
 1.412629731727097e+00	 1.497734613808164e+00	 1.158260829984500e+01
 1.397971295775124e+00	 1.511425769093892e+00	 1.149933497861792e+01
 1.383182922736329e+00	 1.524970967742801e+00	 1.141369901887953e+01
 1.533685875611304e+00	 1.391087539933971e+00	 1.213820799102234e+01
 1.520063268827515e+00	 1.405960425603541e+00	 1.208242022461484e+01
 1.506293871293571e+00	 1.420702631621528e+00	 1.202131401455329e+01
 1.492379555092497e+00	 1.435312008990568e+00	 1.195571476919467e+01
 1.478322234664059e+00	 1.449786445334015e+00	 1.188652162045107e+01
 1.464123865920802e+00	 1.464123865920802e+00	 1.181387471403466e+01
 1.449786445334015e+00	 1.478322234664060e+00	 1.173846614270891e+01
 1.435312008990568e+00	 1.492379555092496e+00	 1.166093416070958e+01
 1.420702631621528e+00	 1.506293871293571e+00	 1.158085947639880e+01
 1.405960425603540e+00	 1.520063268827515e+00	 1.149844115782280e+01
 1.391087539933971e+00	 1.533685875611304e+00	 1.141386601776115e+01
 1.542400827927715e+00	 1.398992197447186e+00	 1.212863624595488e+01
 1.528700812614286e+00	 1.413949596178564e+00	 1.207305979105026e+01
 1.514853172433117e+00	 1.428775572689802e+00	 1.201214231816224e+01
 1.500859790105078e+00	 1.443467965772159e+00	 1.194673277190841e+01
 1.486722590948472e+00	 1.458024651045713e+00	 1.187779051674688e+01
 1.472443541990032e+00	 1.472443541990032e+00	 1.180613983068254e+01
 1.458024651045712e+00	 1.486722590948472e+00	 1.173193365302871e+01
 1.443467965772158e+00	 1.500859790105078e+00	 1.165512769430241e+01
 1.428775572689801e+00	 1.514853172433117e+00	 1.157585611165663e+01
 1.413949596178564e+00	 1.528700812614286e+00	 1.149438283744409e+01
 1.398992197447186e+00	 1.542400827927716e+00	 1.141092434673166e+01
 1.551115819753472e+00	 1.406896890796484e+00	 1.211720530547644e+01
 1.537338395559496e+00	 1.421938802972820e+00	 1.206174983665749e+01
 1.523412512376421e+00	 1.436848550357078e+00	 1.200099876758890e+01
 1.509340063563005e+00	 1.451623959529091e+00	 1.193581127842856e+01
 1.495122985316132e+00	 1.466262894105606e+00	 1.186715978366585e+01
 1.480763255776776e+00	 1.480763255776776e+00	 1.179613615407146e+01
 1.466262894105606e+00	 1.495122985316131e+00	 1.172282566835086e+01
 1.451623959529091e+00	 1.509340063563006e+00	 1.164681760022248e+01
 1.436848550357078e+00	 1.523412512376421e+00	 1.156844775403691e+01
 1.421938802972820e+00	 1.537338395559496e+00	 1.148799543276165e+01
 1.406896890796484e+00	 1.551115819753472e+00	 1.140569100489864e+01
 1.559830846150009e+00	 1.414801615502374e+00	 1.210438451037676e+01
 1.545976012768439e+00	 1.429928041458932e+00	 1.204899352103397e+01
 1.531971886273102e+00	 1.444921560048516e+00	 1.198841408057738e+01
 1.517820370660691e+00	 1.459779985639493e+00	 1.192350247695559e+01
 1.503523413006705e+00	 1.474501169845225e+00	 1.185523062830216e+01
 1.489083002566409e+00	 1.489083002566409e+00	 1.178460893035069e+01
 1.474501169845225e+00	 1.503523413006705e+00	 1.171196022498866e+01
 1.459779985639492e+00	 1.517820370660691e+00	 1.163685138511659e+01
 1.444921560048517e+00	 1.531971886273103e+00	 1.155947271770701e+01
 1.429928041458932e+00	 1.545976012768439e+00	 1.148010371189010e+01
 1.414801615502374e+00	 1.559830846150009e+00	 1.139897305382556e+01
 1.568545902178763e+00	 1.422706367085369e+00	 1.209063897048123e+01
 1.554613659346406e+00	 1.437917307109523e+00	 1.203528928701050e+01
 1.540531289272782e+00	 1.452994597189278e+00	 1.197491392893524e+01
 1.526300706592547e+00	 1.467936039481487e+00	 1.191035333150995e+01
 1.511923869259859e+00	 1.482739473596097e+00	 1.184256470301312e+01
 1.497402777644303e+00	 1.497402777644303e+00	 1.177235578711412e+01
 1.482739473596098e+00	 1.511923869259859e+00	 1.170018087292267e+01
 1.467936039481487e+00	 1.526300706592548e+00	 1.162606454244283e+01
 1.452994597189278e+00	 1.540531289272782e+00	 1.154975776194748e+01
 1.437917307109522e+00	 1.554613659346407e+00	 1.147152147313162e+01
 1.422706367085369e+00	 1.568545902178763e+00	 1.139156729031292e+01
 1.577260982901169e+00	 1.430611141065978e+00	 1.207642926486664e+01
 1.563251330398692e+00	 1.445906595397217e+00	 1.202113058314957e+01
 1.549090716525079e+00	 1.461067657204524e+00	 1.196101867971317e+01
 1.534781066552987e+00	 1.476092116433203e+00	 1.189690533831034e+01
 1.520324349315257e+00	 1.490977800689752e+00	 1.182970417534471e+01
 1.505722576295832e+00	 1.505722576295832e+00	 1.176009289076846e+01
 1.490977800689753e+00	 1.520324349315258e+00	 1.168849466136137e+01
 1.476092116433203e+00	 1.534781066552987e+00	 1.161528022902677e+01
 1.461067657204524e+00	 1.549090716525079e+00	 1.154011776856192e+01
 1.445906595397217e+00	 1.563251330398693e+00	 1.146305122063662e+01
 1.430611141065978e+00	 1.577260982901169e+00	 1.138425991784139e+01
 1.585976083378664e+00	 1.438515932964711e+00	 1.206221114193714e+01
 1.571889021030586e+00	 1.453895901794638e+00	 1.200700558546558e+01
 1.557650163179613e+00	 1.469140735519413e+00	 1.194724313509023e+01
 1.543261445736423e+00	 1.484248211872766e+00	 1.188369890811286e+01
 1.528724848412568e+00	 1.499216146457718e+00	 1.181729267611025e+01
 1.514042393806368e+00	 1.514042393806368e+00	 1.174851993948879e+01
 1.499216146457718e+00	 1.528724848412569e+00	 1.167773792861575e+01
 1.484248211872766e+00	 1.543261445736423e+00	 1.160532394879995e+01
 1.469140735519412e+00	 1.557650163179614e+00	 1.153135541741775e+01
 1.453895901794637e+00	 1.571889021030587e+00	 1.145548383844631e+01
 1.438515932964711e+00	 1.585976083378664e+00	 1.137782621673930e+01
 1.594691198672685e+00	 1.446420738302079e+00	 1.204843521937356e+01
 1.580526726347383e+00	 1.461885221774408e+00	 1.199339691840203e+01
 1.566209624386005e+00	 1.477213827559105e+00	 1.193409627102583e+01
 1.551741839337268e+00	 1.492404321178303e+00	 1.187135758518711e+01
 1.537125361791456e+00	 1.507454506231523e+00	 1.180600127661610e+01
 1.522362225461285e+00	 1.522362225461285e+00	 1.173832073519236e+01
 1.507454506231523e+00	 1.537125361791456e+00	 1.166860251663610e+01
 1.492404321178303e+00	 1.551741839337268e+00	 1.159715191222132e+01
 1.477213827559104e+00	 1.566209624386005e+00	 1.152426086020137e+01
 1.461885221774408e+00	 1.580526726347383e+00	 1.144959826299112e+01
 1.446420738302079e+00	 1.594691198672685e+00	 1.137303021313447e+01
 1.603406323844666e+00	 1.454325552598593e+00	 1.203554668397088e+01
 1.589164441454373e+00	 1.469874550809154e+00	 1.198078137510386e+01
 1.574769095293873e+00	 1.485286928748760e+00	 1.192210361709508e+01
 1.560222242549934e+00	 1.500560439727940e+00	 1.186052787328872e+01
 1.545525884691587e+00	 1.515692875342696e+00	 1.179648523719004e+01
 1.530682066545956e+00	 1.530682066545956e+00	 1.173016324377582e+01
 1.515692875342696e+00	 1.545525884691587e+00	 1.166176452267153e+01
 1.500560439727939e+00	 1.560222242549935e+00	 1.159150872478086e+01
 1.485286928748760e+00	 1.574769095293874e+00	 1.151963451202116e+01
 1.469874550809153e+00	 1.589164441454374e+00	 1.144616115411477e+01
 1.454325552598593e+00	 1.603406323844667e+00	 1.137062434674606e+01
 1.612121453956046e+00	 1.462230371374763e+00	 1.202398499137535e+01
 1.597802161456851e+00	 1.477863884371496e+00	 1.196962963702137e+01
 1.583328571052838e+00	 1.493360034513541e+00	 1.191195050772034e+01
 1.568702650568837e+00	 1.508716562899803e+00	 1.185183195101641e+01
 1.553926412352627e+00	 1.523931249122766e+00	 1.178938406252750e+01
 1.539001912345755e+00	 1.539001912345755e+00	 1.172469965357398e+01
 1.523931249122766e+00	 1.553926412352627e+00	 1.165788435791382e+01
 1.508716562899803e+00	 1.568702650568837e+00	 1.158905874403849e+01
 1.493360034513540e+00	 1.583328571052839e+00	 1.151836049759954e+01
 1.477863884371496e+00	 1.597802161456851e+00	 1.144592656468988e+01
 1.462230371374764e+00	 1.612121453956046e+00	 1.137134913757280e+01
 1.383182922736329e+00	 1.524970967742801e+00	 1.141369901887953e+01
 1.368264242149502e+00	 1.538370652289902e+00	 1.132807964814369e+01
 1.353219984864908e+00	 1.551620711771822e+00	 1.124420622465159e+01
 1.338052415761991e+00	 1.564719391118931e+00	 1.116114620192367e+01
 1.322763831792903e+00	 1.577664980655074e+00	 1.107794132086280e+01
 1.307356560836964e+00	 1.590455816827145e+00	 1.099361741391467e+01
 1.291832960535745e+00	 1.603090282900222e+00	 1.090719420832383e+01
 1.276195417109999e+00	 1.615566809617696e+00	 1.081769506433399e+01
 1.260446344159666e+00	 1.627883875825811e+00	 1.072415658473680e+01
 1.244588181448208e+00	 1.640040009062151e+00	 1.062563803312937e+01
 1.228623393672523e+00	 1.652033786107606e+00	 1.052123049958661e+01
 1.391087539933971e+00	 1.533685875611304e+00	 1.141386601776115e+01
 1.376083602034501e+00	 1.547162136708950e+00	 1.132943295996155e+01
 1.360953369791258e+00	 1.560487917663734e+00	 1.124674634687809e+01
 1.345699121027017e+00	 1.573661453376152e+00	 1.116485173902417e+01
 1.330323165820548e+00	 1.586681024399584e+00	 1.108276829147102e+01
 1.314827845354531e+00	 1.599544957674046e+00	 1.099949896770961e+01
 1.299215530743982e+00	 1.612251627225299e+00	 1.091404075395837e+01
 1.283488621846426e+00	 1.624799454828738e+00	 1.082539480731187e+01
 1.267649546055041e+00	 1.637186910637515e+00	 1.073257647169888e+01
 1.251700757076041e+00	 1.649412513774379e+00	 1.063462509659503e+01
 1.235644733691576e+00	 1.661474832886810e+00	 1.053061359482575e+01
 1.398992197447186e+00	 1.542400827927716e+00	 1.141092434673166e+01
 1.383903001800222e+00	 1.555953665966434e+00	 1.132767982078082e+01
 1.368686794159806e+00	 1.569355168780257e+00	 1.124612865538998e+01
 1.353345865292110e+00	 1.582603561239754e+00	 1.116530772541731e+01
 1.337882538402593e+00	 1.595697114127795e+00	 1.108422719027401e+01
 1.322299167977364e+00	 1.608634144877471e+00	 1.100188110918580e+01
 1.306598138604960e+00	 1.621413018275173e+00	 1.091725805786284e+01
 1.290781863779746e+00	 1.634032147128262e+00	 1.082935167749011e+01
 1.274852784688210e+00	 1.646489992896751e+00	 1.073717108752945e+01
 1.258813368979399e+00	 1.658785066288518e+00	 1.063975109483715e+01
 1.242666109520780e+00	 1.670915927817580e+00	 1.053616213302656e+01
 1.406896890796484e+00	 1.551115819753472e+00	 1.140569100489864e+01
 1.391722437015486e+00	 1.564745235080401e+00	 1.132362024777586e+01
 1.376420253588093e+00	 1.578222460096534e+00	 1.124314301146850e+01
 1.360992644223935e+00	 1.591545709642466e+00	 1.116330038965020e+01
 1.345441945255220e+00	 1.604713244730513e+00	 1.108310682731896e+01
 1.329770524471552e+00	 1.617723373286798e+00	 1.100156112971735e+01
 1.313980779935046e+00	 1.630574450858303e+00	 1.091765747324768e+01
 1.298075138776977e+00	 1.643264881284313e+00	 1.083039634676997e+01
 1.282056055977207e+00	 1.655793117331664e+00	 1.073879535226688e+01
 1.265926013127679e+00	 1.668157661293323e+00	 1.064189979489528e+01
 1.249687517181247e+00	 1.680357065549814e+00	 1.053879299392167e+01
 1.414801615502374e+00	 1.559830846150009e+00	 1.139897305382556e+01
 1.399541903249117e+00	 1.573536839068903e+00	 1.131804502244832e+01
 1.384153743693665e+00	 1.587089786587711e+00	 1.123857061167903e+01
 1.368639453489159e+00	 1.600487893517015e+00	 1.115960773967935e+01
 1.353001382094613e+00	 1.613729411098542e+00	 1.108018811350089e+01
 1.337241910603178e+00	 1.626812637751406e+00	 1.099932862448731e+01
 1.321363450550608e+00	 1.639735919783146e+00	 1.091604274588806e+01
 1.305368442705138e+00	 1.652497652064935e+00	 1.082935185851112e+01
 1.289259355840065e+00	 1.665096278670399e+00	 1.073829643084588e+01
 1.273038685490282e+00	 1.677530293477559e+00	 1.064194698116643e+01
 1.256708952694091e+00	 1.689798240733413e+00	 1.053941475063279e+01
 1.422706367085369e+00	 1.568545902178763e+00	 1.139156729031292e+01
 1.407361396069936e+00	 1.582328472949987e+00	 1.131173535984131e+01
 1.391887260094062e+00	 1.595957143228931e+00	 1.123318365789051e+01
 1.376286288754447e+00	 1.609430107796131e+00	 1.115499923789815e+01
 1.360560844636954e+00	 1.622745608122686e+00	 1.107624374462969e+01
 1.344713322138330e+00	 1.635901933120674e+00	 1.099596518945054e+01
 1.328746146268012e+00	 1.648897419858161e+00	 1.091320972766655e+01
 1.312661771431249e+00	 1.661730454238173e+00	 1.082703336115248e+01
 1.296462680194814e+00	 1.674399471641097e+00	 1.073651349011852e+01
 1.280151382036608e+00	 1.686902957529983e+00	 1.064076023896034e+01
 1.263730412080424e+00	 1.699239448018275e+00	 1.053892748270825e+01
 1.430611141065978e+00	 1.577260982901169e+00	 1.138425991784139e+01
 1.415180911046765e+00	 1.591120131741704e+00	 1.130546257674855e+01
 1.399620798406830e+00	 1.604824524995339e+00	 1.122774502648370e+01
 1.383933145686467e+00	 1.618372347412540e+00	 1.115023547541611e+01
 1.368120328598427e+00	 1.631761830693750e+00	 1.107203788468664e+01
 1.352184754843093e+00	 1.644991254243984e+00	 1.099224411730636e+01
 1.336128862903627e+00	 1.658058945891804e+00	 1.090994608882388e+01
 1.319955120822327e+00	 1.670963282572069e+00	 1.082424784013676e+01
 1.303666024959489e+00	 1.683702690971904e+00	 1.073427745366406e+01
 1.287264098736058e+00	 1.696275648139357e+00	 1.063919873523181e+01
 1.270751891361359e+00	 1.708680682054302e+00	 1.053822258563451e+01
 1.438515932964711e+00	 1.585976083378664e+00	 1.137782621673930e+01
 1.423000443748428e+00	 1.599911810462103e+00	 1.129998775896378e+01
 1.407354354249512e+00	 1.613691926862082e+00	 1.122300793678831e+01
 1.391580019951884e+00	 1.627314607298971e+00	 1.114606784562922e+01
 1.375679829695214e+00	 1.640778073702539e+00	 1.106832584831292e+01
 1.359656204483554e+00	 1.654080595970713e+00	 1.098893009252445e+01
 1.343511596273819e+00	 1.667220492692533e+00	 1.090703102898033e+01
 1.327248486745392e+00	 1.680196131834669e+00	 1.082179384820883e+01
 1.310869386052122e+00	 1.693005931390962e+00	 1.073241075448216e+01
 1.294376831558029e+00	 1.705648359994443e+00	 1.063811299660912e+01
 1.277773386558011e+00	 1.718121937491393e+00	 1.053818257696368e+01
 1.446420738302079e+00	 1.594691198672685e+00	 1.137303021313447e+01
 1.430819989743746e+00	 1.608703504129231e+00	 1.129606142762233e+01
 1.415087923239650e+00	 1.622559343804302e+00	 1.121971561879036e+01
 1.399226907217362e+00	 1.636256882388152e+00	 1.114323821711801e+01
 1.383239343643499e+00	 1.649794332039856e+00	 1.106585378256663e+01
 1.367127666825798e+00	 1.663169953150242e+00	 1.098677888547189e+01
 1.350894342194956e+00	 1.676382055068806e+00	 1.090523498697832e+01
 1.334541865067462e+00	 1.689428996794016e+00	 1.082046123416105e+01
 1.318072759390745e+00	 1.702309187626414e+00	 1.073172708565594e+01
 1.301489576471924e+00	 1.715021087784002e+00	 1.063834468482502e+01
 1.284794893691493e+00	 1.727563208979449e+00	 1.053968089919360e+01
 1.454325552598593e+00	 1.603406323844667e+00	 1.137062434674606e+01
 1.438639544601540e+00	 1.617495207761139e+00	 1.129442320467505e+01
 1.422821500994788e+00	 1.631426770797145e+00	 1.121860098014545e+01
 1.406873803149572e+00	 1.645199167612811e+00	 1.114247860590837e+01
 1.390798866159464e+00	 1.658810600596508e+00	 1.106535834798767e+01
 1.374599137635912e+00	 1.672259320631949e+00	 1.098653704568285e+01
 1.358277096483405e+00	 1.685543627829080e+00	 1.090531934960389e+01
 1.341835251655557e+00	 1.698661872218155e+00	 1.082103087009051e+01
 1.325276140893390e+00	 1.711612454406406e+00	 1.073303114907228e+01
 1.308602329447142e+00	 1.724393826196793e+00	 1.064072636966111e+01
 1.291816408782914e+00	 1.737004491168367e+00	 1.054358171953161e+01
 1.462230371374764e+00	 1.612121453956046e+00	 1.137134913757280e+01
 1.446459103890635e+00	 1.626286916375878e+00	 1.129580147754124e+01
 1.430555083132470e+00	 1.640294202815756e+00	 1.122038627253673e+01
 1.414520703415176e+00	 1.654141457905675e+00	 1.114451084712986e+01
 1.398358392959294e+00	 1.667826874263297e+00	 1.106756639900402e+01
 1.382070612679982e+00	 1.681348693265214e+00	 1.098894159431332e+01
 1.365659854955534e+00	 1.694705205781814e+00	 1.090803615923494e+01
 1.349128642376695e+00	 1.707894752875131e+00	 1.082427437723476e+01
 1.332479526478091e+00	 1.720915726459082e+00	 1.073711840227901e+01
 1.315715086453082e+00	 1.733766569921579e+00	 1.064608129950311e+01
 1.298837927853393e+00	 1.746445778708051e+00	 1.055073972666509e+01
 1.228623393672523e+00	 1.652033786107606e+00	 1.052123049958661e+01
 1.212557207833782e+00	 1.663861837726225e+00	 1.041296424490189e+01
 1.196389421215979e+00	 1.675524899518690e+00	 1.030357043760881e+01
 1.180122555525278e+00	 1.687021706259139e+00	 1.019333297746356e+01
 1.163759152409873e+00	 1.698351043722806e+00	 1.008261685199107e+01
 1.147301772182650e+00	 1.709511749047934e+00	 9.971873479146517e+00
 1.130752992537162e+00	 1.720502711059654e+00	 9.861645468693684e+00
 1.114115407258219e+00	 1.731322870555745e+00	 9.752570763232960e+00
 1.097391624928381e+00	 1.741971220554215e+00	 9.644674473470188e+00
 1.080584267631681e+00	 1.752446806502753e+00	 9.537622303047414e+00
 1.063695969655851e+00	 1.762748726450076e+00	 9.432580145630055e+00
 1.235644733691576e+00	 1.661474832886810e+00	 1.053061359482575e+01
 1.219486732774087e+00	 1.673370479484332e+00	 1.042274616469739e+01
 1.203226550449093e+00	 1.685100193371438e+00	 1.031393103137753e+01
 1.186866722833825e+00	 1.696662702091737e+00	 1.020444234067060e+01
 1.170409806101503e+00	 1.708056784481405e+00	 1.009463873653435e+01
 1.153858375196709e+00	 1.719281271033150e+00	 9.984969004812495e+00
 1.137215022544017e+00	 1.730335044221955e+00	 9.875977114516315e+00
 1.120482356751213e+00	 1.741217038792455e+00	 9.768306615893479e+00
 1.103663001308405e+00	 1.751926242007952e+00	 9.662489795552919e+00
 1.086759593284331e+00	 1.762461693861048e+00	 9.557857052026526e+00
 1.069774782021165e+00	 1.772822487245980e+00	 9.455273830376424e+00
 1.242666109520780e+00	 1.670915927817580e+00	 1.053616213302657e+01
 1.226416293056223e+00	 1.682879169738848e+00	 1.042878874781683e+01
 1.210063714552771e+00	 1.694675536060637e+00	 1.032069453706827e+01
 1.193610924538788e+00	 1.706303747095998e+00	 1.021211709325846e+01
 1.177060493712602e+00	 1.717762574742001e+00	 1.010338121025926e+01
 1.160415011650560e+00	 1.729050842845788e+00	 9.994904882524152e+00
 1.143677085508336e+00	 1.740167427532153e+00	 9.887204680855412e+00
 1.126849338716771e+00	 1.751111257492559e+00	 9.780900462167656e+00
 1.109934409673592e+00	 1.761881314235563e+00	 9.676713959306937e+00
 1.092934950432319e+00	 1.772476632298655e+00	 9.574262819016683e+00
 1.075853625389650e+00	 1.782896299421558e+00	 9.473731605717557e+00
 1.249687517181247e+00	 1.680357065549814e+00	 1.053879299392167e+01
 1.233345884753346e+00	 1.692387903101342e+00	 1.043203679953716e+01
 1.216900909652535e+00	 1.704250922160065e+00	 1.032481954094905e+01
 1.200355156818382e+00	 1.715944835808435e+00	 1.021731585642872e+01
 1.183711211474384e+00	 1.727468409004390e+00	 1.010978959238626e+01
 1.166971677828724e+00	 1.738820458949470e+00	 1.000260021231250e+01
 1.150139177768237e+00	 1.749999855418247e+00	 9.896208561512903e+00
 1.133216349546888e+00	 1.761005521048984e+00	 9.791181943098128e+00
 1.116205846470095e+00	 1.771836431595469e+00	 9.688198464952935e+00
 1.099110335576224e+00	 1.782491616140044e+00	 9.587501108690308e+00
 1.081932496316565e+00	 1.792970157267903e+00	 9.488518739056964e+00
 1.256708952694091e+00	 1.689798240733413e+00	 1.053941475063279e+01
 1.240275503938611e+00	 1.701896674183386e+00	 1.043342660642386e+01
 1.223738131873910e+00	 1.713826346243496e+00	 1.032725620766131e+01
 1.207099415850822e+00	 1.725585962765565e+00	 1.022098922420748e+01
 1.190361955618064e+00	 1.737174281768368e+00	 1.011480185478526e+01
 1.173528370015717e+00	 1.748590113807815e+00	 1.000896769990267e+01
 1.156601295661834e+00	 1.759832322308234e+00	 9.903863969952203e+00
 1.139583385633563e+00	 1.770899823854662e+00	 9.799976981852339e+00
 1.122477308144068e+00	 1.781791588446088e+00	 9.697906902009986e+00
 1.105285745216623e+00	 1.792506639709690e+00	 9.598240305183289e+00
 1.088011391357169e+00	 1.803044055076106e+00	 9.500209578474333e+00
 1.263730412080424e+00	 1.699239448018275e+00	 1.053892748270825e+01
 1.247205146685170e+00	 1.711405477596553e+00	 1.043388577595033e+01
 1.230575377342422e+00	 1.723401802884705e+00	 1.032894613798029e+01
 1.213843697814321e+00	 1.735227122503901e+00	 1.022407963117318e+01
 1.197012722374860e+00	 1.746880187533730e+00	 1.011934849176464e+01
 1.180085084496058e+00	 1.758359801884447e+00	 1.001491352093705e+01
 1.163063435527244e+00	 1.769664822630115e+00	 9.911040790605959e+00
 1.145950443368791e+00	 1.780794160302520e+00	 9.808107615050178e+00
 1.128748791141664e+00	 1.791746779145840e+00	 9.706607744082465e+00
 1.111461175854094e+00	 1.802521697332065e+00	 9.607155738262133e+00
 1.094090307066720e+00	 1.813117987137258e+00	 9.509387093576251e+00
 1.270751891361359e+00	 1.708680682054302e+00	 1.053822258563451e+01
 1.254134809066180e+00	 1.720914307952415e+00	 1.043433307198595e+01
 1.237412642183595e+00	 1.732977286657467e+00	 1.033082222212376e+01
 1.220587998887094e+00	 1.744868309559959e+00	 1.022752121568080e+01
 1.203663507975984e+00	 1.756586120800270e+00	 1.012435238557098e+01
 1.186641817554267e+00	 1.768129517642987e+00	 1.002133718137200e+01
 1.169525593702580e+00	 1.779497350811886e+00	 9.918603427066419e+00
 1.152317519144569e+00	 1.790688524785490e+00	 9.816391821919058e+00
 1.135020291909037e+00	 1.801701998053144e+00	 9.715061637976641e+00
 1.117636623989212e+00	 1.812536783331640e+00	 9.615095572633320e+00
 1.100169240000477e+00	 1.823191947742451e+00	 9.516642418230791e+00
 1.277773386558011e+00	 1.718121937491393e+00	 1.053818257696368e+01
 1.261064487154794e+00	 1.730423159862542e+00	 1.043567824631955e+01
 1.244249922522954e+00	 1.742552792135558e+00	 1.033380848878105e+01
 1.227332315247355e+00	 1.754509518470252e+00	 1.023223967875909e+01
 1.210314308652654e+00	 1.766292076067784e+00	 1.013072866776454e+01
 1.193198565474861e+00	 1.777899255547056e+00	 1.002913137420140e+01
 1.175987766525959e+00	 1.789329901281546e+00	 9.927410647285249e+00
 1.158684609352895e+00	 1.800582911696500e+00	 9.825643351366239e+00
 1.141291806892341e+00	 1.811657239526420e+00	 9.724026621793275e+00
 1.123812086122556e+00	 1.822551892032888e+00	 9.622883248582685e+00
 1.106248186713697e+00	 1.833265931182776e+00	 9.522574395112938e+00
 1.284794893691493e+00	 1.727563208979449e+00	 1.053968089919359e+01
 1.267994177024167e+00	 1.739932027938508e+00	 1.043882186637300e+01
 1.251087214486021e+00	 1.752128313892753e+00	 1.033881995003697e+01
 1.234076643073319e+00	 1.764150743771297e+00	 1.023915213885406e+01
 1.216965120636083e+00	 1.775998047836068e+00	 1.013938457663755e+01
 1.199755324542360e+00	 1.787669010060276e+00	 1.003918183265149e+01
 1.182449950335496e+00	 1.799162468467095e+00	 9.938315425900930e+00
 1.165051710385764e+00	 1.810477315428481e+00	 9.836671547049054e+00
 1.147563332537728e+00	 1.821612497924088e+00	 9.734257926615129e+00
 1.129987558754703e+00	 1.832567017760281e+00	 9.631209803406207e+00
 1.112327143761639e+00	 1.843339931749326e+00	 9.527794952670348e+00
 1.291816408782914e+00	 1.737004491168367e+00	 1.054358171953161e+01
 1.274923874747455e+00	 1.749440906791884e+00	 1.044465513925993e+01
 1.257924514198324e+00	 1.761703846502827e+00	 1.034676244234884e+01
 1.240820978543201e+00	 1.773791979999606e+00	 1.024916698257973e+01
 1.223615940157487e+00	 1.785704030604916e+00	 1.015121931082807e+01
 1.206312091041282e+00	 1.797438775646270e+00	 1.005236717998708e+01
 1.188912141469307e+00	 1.808995046796528e+00	 9.952164783808211e+00
 1.171418818635173e+00	 1.820371730374361e+00	 9.850281170527310e+00
 1.153834865291354e+00	 1.831567767604567e+00	 9.746507777313173e+00
 1.136163038386230e+00	 1.842582154838292e+00	 9.640765037043046e+00
 1.118406107699562e+00	 1.853413943733192e+00	 9.533248177325049e+00
 1.298837927853393e+00	 1.746445778708051e+00	 1.055073972666509e+01
 1.281853576397811e+00	 1.758949791034243e+00	 1.045405973233219e+01
 1.264761817785386e+00	 1.771279384539555e+00	 1.035853246373440e+01
 1.247565317835213e+00	 1.783433221691696e+00	 1.026318371163593e+01
 1.230266763448083e+00	 1.795410018874125e+00	 1.016712387928188e+01
 1.212868861256146e+00	 1.807208546768657e+00	 1.006955877606128e+01
 1.195374336265506e+00	 1.818827630697845e+00	 9.969799625076421e+00
 1.177785930493120e+00	 1.830266150927069e+00	 9.867272222572197e+00
 1.160106401599371e+00	 1.841523042926277e+00	 9.761525192507968e+00
 1.142338521517714e+00	 1.852597297591393e+00	 9.652267635463847e+00
 1.124485075082724e+00	 1.863487961425464e+00	 9.547303539704650e+00
 1.063695969655851e+00	 1.762748726450076e+00	 9.432580145630055e+00
 1.046729376525748e+00	 1.772876131606872e+00	 9.328084488996312e+00
 1.029687144679316e+00	 1.782828227730364e+00	 9.221874264932449e+00
 1.012571939140996e+00	 1.792604273909383e+00	 9.113895068497262e+00
 9.953864318929994e-01	 1.802203582156380e+00	 9.004063528956900e+00
 9.781333005881508e-01	 1.811625517388269e+00	 8.892277380668508e+00
 9.608152272688503e-01	 1.820869497370556e+00	 8.778424587411550e+00
 9.434348970933334e-01	 1.829934992625153e+00	 8.662391484420398e+00
 9.259949970704054e-01	 1.838821526302337e+00	 8.544069910552935e+00
 9.084982148037896e-01	 1.847528674017312e+00	 8.423363311200239e+00
 8.909472372472118e-01	 1.856056063651895e+00	 8.301085643738615e+00
 1.069774782021165e+00	 1.772822487245980e+00	 9.455273830376424e+00
 1.052711228162425e+00	 1.783007768522767e+00	 9.353052823595661e+00
 1.035571603327070e+00	 1.793016738909703e+00	 9.248656351717379e+00
 1.018358587769622e+00	 1.802848653261464e+00	 9.141978058203032e+00
 1.001074868742134e+00	 1.812502819658802e+00	 9.032881827683404e+00
 9.837231391996830e-01	 1.821978599389269e+00	 8.921212327701246e+00
 9.663060965120025e-01	 1.831275406891020e+00	 8.806804560693811e+00
 9.488264411824711e-01	 1.840392709660118e+00	 8.689492389036849e+00
 9.312868755756103e-01	 1.849330028121751e+00	 8.569116004468746e+00
 9.136901026542621e-01	 1.858086935465854e+00	 8.447571249372828e+00
 8.960388247275549e-01	 1.866663057447675e+00	 8.329917360538058e+00
 1.075853625389650e+00	 1.782896299421558e+00	 9.473731605717557e+00
 1.058693110307839e+00	 1.793139457113599e+00	 9.373163290610062e+00
 1.041456091986932e+00	 1.803205302054117e+00	 9.269743473568200e+00
 1.024145265911606e+00	 1.813093084863614e+00	 9.163352922481671e+00
 1.006763334603834e+00	 1.822802109691121e+00	 9.053843132652332e+00
 9.893130063210133e-01	 1.832331734194806e+00	 8.941047285558938e+00
 9.717969937602905e-01	 1.841681369485469e+00	 8.824790172275218e+00
 9.542180127702580e-01	 1.850850480033301e+00	 8.704897043003692e+00
 9.365787810712317e-01	 1.859838583538385e+00	 8.584658604960174e+00
 9.188820169852432e-01	 1.868645250765380e+00	 8.468585493808089e+00
 9.011304381768995e-01	 1.877270105342953e+00	 8.355487498100519e+00
 1.081932496316565e+00	 1.792970157267903e+00	 9.488518739056964e+00
 1.064675019572177e+00	 1.803271191637650e+00	 9.388889785381966e+00
 1.047340607324260e+00	 1.813393911389648e+00	 9.285537616367112e+00
 1.029931970287714e+00	 1.823337562910208e+00	 9.178368480844616e+00
 1.012451826254493e+00	 1.833101446416624e+00	 9.067261116785446e+00
 9.949028987843886e-01	 1.842684915937664e+00	 8.952078074205208e+00
 9.772879159020211e-01	 1.852087379256749e+00	 8.832678278612034e+00
 9.596096088012682e-01	 1.861308297818193e+00	 8.713886819996848e+00
 9.418707105583030e-01	 1.870347186596960e+00	 8.599419211270167e+00
 9.240739548544181e-01	 1.879203613932422e+00	 8.488054072172194e+00
 9.062220747097643e-01	 1.887877201326654e+00	 8.378517555872268e+00
 1.088011391357169e+00	 1.803044055076106e+00	 9.500209578474333e+00
 1.070656952565628e+00	 1.813402966353200e+00	 9.400717340394005e+00
 1.053225146004415e+00	 1.823582561142338e+00	 9.296453485489819e+00
 1.035718697618710e+00	 1.833582081595627e+00	 9.187387393829361e+00
 1.018140340470509e+00	 1.843400823998601e+00	 9.073463968438633e+00
 1.000492813422055e+00	 1.853038138750618e+00	 8.954692154071147e+00
 9.827788598255031e-01	 1.862493430307707e+00	 8.837201864050556e+00
 9.650012262200746e-01	 1.871766157088289e+00	 8.724132008468237e+00
 9.471626610378610e-01	 1.880855831342200e+00	 8.614341152790534e+00
 9.292659133194738e-01	 1.889762018983514e+00	 8.506624857880523e+00
 9.113137314406673e-01	 1.898484339387705e+00	 8.399727748050909e+00
 1.094090307066720e+00	 1.813117987137258e+00	 9.509387093576251e+00
 1.076638905898381e+00	 1.823534775518528e+00	 9.409141640445130e+00
 1.059109704692757e+00	 1.833771245538231e+00	 9.302918007585548e+00
 1.041505444625358e+00	 1.843826635114247e+00	 9.190785663206693e+00
 1.023828874028277e+00	 1.853700236600342e+00	 9.072987086340072e+00
 1.006082747066257e+00	 1.863391396766445e+00	 8.956675668944650e+00
 9.882698224190437e-01	 1.872899516741187e+00	 8.844763132445490e+00
 9.703928619712505e-01	 1.882224051917082e+00	 8.736237830208406e+00
 9.524546295109407e-01	 1.891364511818826e+00	 8.630014134049455e+00
 9.344578894380962e-01	 1.900320459935189e+00	 8.524945488831676e+00
 9.164054054841274e-01	 1.909091513515033e+00	 8.419836748499758e+00
 1.100169240000477e+00	 1.823191947742451e+00	 9.516642418230791e+00
 1.082620876180624e+00	 1.833666613391918e+00	 9.414668541180212e+00
 1.064994280054645e+00	 1.843959958803368e+00	 9.305369836767046e+00
 1.047292208028424e+00	 1.854071217660447e+00	 9.189235291186577e+00
 1.029517423704194e+00	 1.863999678385135e+00	 9.074245091144139e+00
 1.011672696549244e+00	 1.873744684117927e+00	 8.963404445030010e+00
 9.937608005709515e-01	 1.883305632660038e+00	 8.855879436884640e+00
 9.757845129993701e-01	 1.892681976378067e+00	 8.750750859776854e+00
 9.577466129785781e-01	 1.901873222071563e+00	 8.647028221359136e+00
 9.396498802679716e-01	 1.910878930803979e+00	 8.543663048095318e+00
 9.214970939546627e-01	 1.919698717697563e+00	 8.439561435474602e+00
 1.106248186713697e+00	 1.833265931182776e+00	 9.522574395112938e+00
 1.088602860022546e+00	 1.843798474231648e+00	 9.417813590847560e+00
 1.070878868755438e+00	 1.854148695163792e+00	 9.304564621860454e+00
 1.053078984548671e+00	 1.864315823428603e+00	 9.191471299524874e+00
 1.035205986274655e+00	 1.874299143516271e+00	 9.081947264597163e+00
 1.017262658703260e+00	 1.884097994937840e+00	 8.975382169854175e+00
 9.992517911695340e-01	 1.893711772167103e+00	 8.871068841310636e+00
 9.811761762490063e-01	 1.903139924544736e+00	 8.768218193857326e+00
 9.630386084418076e-01	 1.912381956145131e+00	 8.665973470760967e+00
 9.448418828667866e-01	 1.921437425606419e+00	 8.563423746093166e+00
 9.265887939667919e-01	 1.930305945924224e+00	 8.459616636175873e+00
 1.112327143761639e+00	 1.843339931749326e+00	 9.527794952670348e+00
 1.094584854034335e+00	 1.853930352295999e+00	 9.419352169220176e+00
 1.076763467460496e+00	 1.864337448845543e+00	 9.309320114576705e+00
 1.058865770906866e+00	 1.874560446613094e+00	 9.201849742530415e+00
 1.040894558516056e+00	 1.884598626157039e+00	 9.096597811510630e+00
 1.022852630360552e+00	 1.894451323358963e+00	 8.993112597007134e+00
 1.004742791103099e+00	 1.904117929365229e+00	 8.890849670766844e+00
 9.865678486647327e-01	 1.913597890490583e+00	 8.789187037371324e+00
 9.683306129016651e-01	 1.922890708084255e+00	 8.687439558742646e+00
 9.500338942922271e-01	 1.931995938359041e+00	 8.584872604220074e+00
 9.316805026350337e-01	 1.940913192183940e+00	 8.480714871138611e+00
 1.118406107699562e+00	 1.853413943733192e+00	 9.533248177325049e+00
 1.100566854826179e+00	 1.864062241843254e+00	 9.427963783192018e+00
 1.082648072835181e+00	 1.874526214074665e+00	 9.323925290151351e+00
 1.064652563823772e+00	 1.884805081408298e+00	 9.220889095603129e+00
 1.046583137204794e+00	 1.894898120470727e+00	 9.118699958468103e+00
 1.028442608353366e+00	 1.904804663514073e+00	 9.017099074489423e+00
 1.010233797259955e+00	 1.914524098357264e+00	 8.915740066033942e+00
 9.919595271911228e-01	 1.924055868289104e+00	 8.814204293267998e+00
 9.736226233591865e-01	 1.933399471933654e+00	 8.712015415627194e+00
 9.552259116019792e-01	 1.942554463078378e+00	 8.608653139858815e+00
 9.367722170739058e-01	 1.951520450465639e+00	 8.503566098469211e+00
 1.124485075082724e+00	 1.863487961425464e+00	 9.547303539704650e+00
 1.106548859008268e+00	 1.874194137131692e+00	 9.448152528744441e+00
 1.088532681544850e+00	 1.884714985077202e+00	 9.348926223489448e+00
 1.070439360020154e+00	 1.895049722008594e+00	 9.249105428479492e+00
 1.052271719117264e+00	 1.905197620620626e+00	 9.148755469877962e+00
 1.034032589513949e+00	 1.915158009535951e+00	 9.047844077685157e+00
 1.015724806528409e+00	 1.924930273246052e+00	 8.946257542497264e+00
 9.973512087727507e-01	 1.934513852013791e+00	 8.843816155858319e+00
 9.789146368154070e-01	 1.943908241738053e+00	 8.740288861542096e+00
 9.604179318537297e-01	 1.953112993780964e+00	 8.635407052739620e+00
 9.418639343979274e-01	 1.962127714758247e+00	 8.528877457943306e+00
 8.909472372472118e-01	 1.856056063651895e+00	 8.301085643738610e+00
 8.733417524894620e-01	 1.864404778707057e+00	 8.181706806476559e+00
 8.556874224301664e-01	 1.872573084612268e+00	 8.065249567583685e+00
 8.379869252216069e-01	 1.880560763116212e+00	 7.951658694848899e+00
 8.202429335451992e-01	 1.888367647136431e+00	 7.840867338648899e+00
 8.024581134352861e-01	 1.895993620396753e+00	 7.732802602665933e+00
 7.846351231197355e-01	 1.903438617033687e+00	 7.627390420986769e+00
 7.667766118782452e-01	 1.910702621172538e+00	 7.524559738479402e+00
 7.488852189192234e-01	 1.917785666474032e+00	 7.424245996460177e+00
 7.309635722760763e-01	 1.924687835652253e+00	 7.326218466589721e+00
 7.130142877236986e-01	 1.931409259964744e+00	 7.229644232530653e+00
 8.960388247275549e-01	 1.866663057447675e+00	 8.329917360538058e+00
 8.783327281017631e-01	 1.875059483760187e+00	 8.214860785347835e+00
 8.605775070331566e-01	 1.883274469920130e+00	 8.101654632322649e+00
 8.427758549791369e-01	 1.891307796428921e+00	 7.990367708845262e+00
 8.249304598949749e-01	 1.899159295249256e+00	 7.881063587843157e+00
 8.070440030508818e-01	 1.906828849440464e+00	 7.773806099598612e+00
 7.891191578659806e-01	 1.914316392762656e+00	 7.668664094690584e+00
 7.711585887600876e-01	 1.921621909250412e+00	 7.565715475524627e+00
 7.531649500241736e-01	 1.928745432756817e+00	 7.465050499208870e+00
 7.351408847103448e-01	 1.935687046468649e+00	 7.366717714367119e+00
 7.170890235421415e-01	 1.942446882393559e+00	 7.270054296416133e+00
 9.011304381768995e-01	 1.877270105342953e+00	 8.355487498100519e+00
 8.833237291699483e-01	 1.885714243156110e+00	 8.243883446775468e+00
 8.654676165774703e-01	 1.893975909808813e+00	 8.133298460258160e+00
 8.475648091620704e-01	 1.902054884555210e+00	 8.023898423950593e+00
 8.296180101529544e-01	 1.909950998403147e+00	 7.915849809646333e+00
 8.116299160562825e-01	 1.917664133747452e+00	 7.809325138859148e+00
 7.936032154825161e-01	 1.925194223971835e+00	 7.704507681091023e+00
 7.755405879916694e-01	 1.932541253020156e+00	 7.601595384981301e+00
 7.574447029573573e-01	 1.939705254937862e+00	 7.500804045785998e+00
 7.393182184504663e-01	 1.946686313384428e+00	 7.402366238738223e+00
 7.211637801432608e-01	 1.953484561117617e+00	 7.305900092516863e+00
 9.062220747097643e-01	 1.887877201326654e+00	 8.378517555872271e+00
 8.883147528655522e-01	 1.896369050856724e+00	 8.269568608730692e+00
 8.703577482918227e-01	 1.904677398213774e+00	 8.161031435714072e+00
 8.523537850564539e-01	 1.912802021404677e+00	 8.053142512561930e+00
 8.343055816626599e-01	 1.920742750482425e+00	 7.946144173471666e+00
 8.162158498526226e-01	 1.928499467177349e+00	 7.840290096017234e+00
 7.980872934282098e-01	 1.936072104496754e+00	 7.735849983833019e+00
 7.799226070897077e-01	 1.943460646293782e+00	 7.633113445427905e+00
 7.617244752934450e-01	 1.950665126806249e+00	 7.532393073209635e+00
 7.434955711291581e-01	 1.957685630166325e+00	 7.434026732305795e+00
 7.252385552179070e-01	 1.964522289881895e+00	 7.337975080293197e+00
 9.113137314406673e-01	 1.898484339387705e+00	 8.399727748050903e+00
 8.933057963601078e-01	 1.907023900823928e+00	 8.292707428971040e+00
 8.752478994049255e-01	 1.915378929070468e+00	 8.185700222309359e+00
 8.571427799483328e-01	 1.923549200886916e+00	 8.078987167974452e+00
 8.389931717676146e-01	 1.931534545371415e+00	 7.972859900909684e+00
 8.208018018410354e-01	 1.939334843589788e+00	 7.867626207325136e+00
 8.025713891619309e-01	 1.946950028172947e+00	 7.763614740511155e+00
 7.843046435709207e-01	 1.954380082883310e+00	 7.661178894953145e+00
 7.660042646071072e-01	 1.961625042151061e+00	 7.560699843397724e+00
 7.476729403791390e-01	 1.968684990581076e+00	 7.462588747236758e+00
 7.293133464569308e-01	 1.975560062431362e+00	 7.367071468784513e+00
 9.164054054841274e-01	 1.909091513515033e+00	 8.419836748499758e+00
 8.982968568251494e-01	 1.917678787019621e+00	 8.314088215038486e+00
 8.801380671454917e-01	 1.926080496314348e+00	 8.208147628441909e+00
 8.619317911237537e-01	 1.934296416911525e+00	 8.102315016045324e+00
 8.436807778113415e-01	 1.942326376954436e+00	 7.996905214563552e+00
 8.253877694226532e-01	 1.950170256844405e+00	 7.892253547024278e+00
 8.070555001425479e-01	 1.957827988835943e+00	 7.788720620056054e+00
 7.886866949520247e-01	 1.965299556600748e+00	 7.686696240542428e+00
 7.702840684730142e-01	 1.972584994761379e+00	 7.586602456798526e+00
 7.518503238331270e-01	 1.979684388395415e+00	 7.488895735367464e+00
 7.333881515511831e-01	 1.986597872510992e+00	 7.393980169477398e+00
 9.214970939546627e-01	 1.919698717697563e+00	 8.439561435474598e+00
 9.032879314322109e-01	 1.928333703405703e+00	 8.334496232353388e+00
 8.850282487422346e-01	 1.936782093880871e+00	 8.229212469455442e+00
 8.667208158687619e-01	 1.945043663388098e+00	 8.124004022427437e+00
 8.483683971373629e-01	 1.953118239115812e+00	 8.019183281631982e+00
 8.299737499986116e-01	 1.961005700800834e+00	 7.915086998849689e+00
 8.115396238289284e-01	 1.968705980321273e+00	 7.812081214035764e+00
 7.930687587497375e-01	 1.976219061258114e+00	 7.710565261356765e+00
 7.745638844658369e-01	 1.983544978426285e+00	 7.610974860130406e+00
 7.560277191238404e-01	 1.990683817376078e+00	 7.513784302433187e+00
 7.374629681915144e-01	 1.997635713865758e+00	 7.419490744397438e+00
 9.265887939667919e-01	 1.930305945924224e+00	 8.459616636175879e+00
 9.082790173528255e-01	 1.938988643944069e+00	 8.354713510477582e+00
 8.899184414238664e-01	 1.947483715705489e+00	 8.249729426621595e+00
 8.715098514694037e-01	 1.955790934226231e+00	 8.144927395547104e+00
 8.530560270892021e-01	 1.963910125739865e+00	 8.040592152438972e+00
 8.345597409700429e-01	 1.971841169318707e+00	 7.937036221958532e+00
 8.160237576799413e-01	 1.979583996464469e+00	 7.834605022109963e+00
 7.974508324807765e-01	 1.987138590667419e+00	 7.733681006136843e+00
 7.788437101602457e-01	 1.994504986934862e+00	 7.634686848459012e+00
 7.602051238839972e-01	 2.001683271289801e+00	 7.538087687054976e+00
 7.415377940687753e-01	 2.008673580240634e+00	 7.444392440787773e+00
 9.316805026350337e-01	 1.940913192183940e+00	 8.480714871138607e+00
 9.132701117585275e-01	 1.949643602596620e+00	 8.375518647625182e+00
 8.948086424191010e-01	 1.958185355723661e+00	 8.270528903061104e+00
 8.762988952117248e-01	 1.966538223335522e+00	 8.165953485491141e+00
 8.577436650103814e-01	 1.974702030710916e+00	 8.062024694113074e+00
 8.391457397380810e-01	 1.982676656257657e+00	 7.959005611493616e+00
 8.205078991544545e-01	 1.990462031101061e+00	 7.857195431861109e+00
 8.018329136618587e-01	 1.998058138640678e+00	 7.756933784959957e+00
 7.831235431309109e-01	 2.005465014076191e+00	 7.658604061830204e+00
 7.643825357463157e-01	 2.012682743903317e+00	 7.562635755487660e+00
 7.456126268738167e-01	 2.019711465380591e+00	 7.469505835819508e+00
 9.367722170739058e-01	 1.951520450465639e+00	 8.503566098469207e+00
 9.182612118208505e-01	 1.960298573325256e+00	 8.397686613490370e+00
 8.996988489566499e-01	 1.968887007870837e+00	 8.292436876726246e+00
 8.810879443817712e-01	 1.977285524625564e+00	 8.187945678964594e+00
 8.624313082444237e-01	 1.985493947913288e+00	 8.084368519597854e+00
 8.437317437038598e-01	 1.993512155477321e+00	 7.981894253997346e+00
 8.249920457113369e-01	 2.001340078066580e+00	 7.880750693219895e+00
 8.062149998097018e-01	 2.008977698989905e+00	 7.781209155569862e+00
 7.874033809525032e-01	 2.016425053639356e+00	 7.683587976667109e+00
 7.685599523435139e-01	 2.023682228983363e+00	 7.588254991533941e+00
 7.496874642974889e-01	 2.030749363030602e+00	 7.495629008781886e+00
 9.418639343979274e-01	 1.962127714758247e+00	 8.528877457943306e+00
 9.232523147113282e-01	 1.970953550091872e+00	 8.421988550461366e+00
 9.045890582652280e-01	 1.979588666082477e+00	 8.316274750560625e+00
 8.858769962655891e-01	 1.988032832005955e+00	 8.211762290469231e+00
 8.671189541348524e-01	 1.996285871231303e+00	 8.108505912177543e+00
 8.483177502685127e-01	 2.004347660837330e+00	 8.006595877863329e+00
 8.294761948094571e-01	 2.012218131196559e+00	 7.906163887690861e+00
 8.105970884410230e-01	 2.019897265527114e+00	 7.807387904479777e+00
 7.916832211996931e-01	 2.027385099413436e+00	 7.710495892130978e+00
 7.727373713083109e-01	 2.034681720296674e+00	 7.615768481810825e+00
 7.537623040306429e-01	 2.041787266935640e+00	 7.523540586709518e+00
 7.130142877236986e-01	 1.931409259964744e+00	 7.229644232530660e+00
 6.950430248570494e-01	 1.937949021966157e+00	 7.133438202158130e+00
 6.770493210041880e-01	 1.944308505029148e+00	 7.036825695734882e+00
 6.590357467853725e-01	 1.950487981263214e+00	 6.940273912216341e+00
 6.410048564909983e-01	 1.956487768992473e+00	 6.844202411437882e+00
 6.229591871105207e-01	 1.962308232121603e+00	 6.748988584173413e+00
 6.049012573854723e-01	 1.967949779479353e+00	 6.654972393978782e+00
 5.868335668871032e-01	 1.973412864140612e+00	 6.562460422161482e+00
 5.687585951191186e-01	 1.978697982727961e+00	 6.471729251236220e+00
 5.506788006459680e-01	 1.983805674693726e+00	 6.383028225800817e+00
 5.325966202470764e-01	 1.988736521583468e+00	 6.296581632900298e+00
 7.170890235421415e-01	 1.942446882393559e+00	 7.270054296416133e+00
 6.990150584579942e-01	 1.949024017843174e+00	 7.173967472157855e+00
 6.809185241418757e-01	 1.955419844095850e+00	 7.077707585043406e+00
 6.628020059046211e-01	 1.961634634816128e+00	 6.981684771201909e+00
 6.446680726338807e-01	 1.967668710147284e+00	 6.886261438179487e+00
 6.265192758174923e-01	 1.973522436073631e+00	 6.791757818977734e+00
 6.083581485910893e-01	 1.979196223760291e+00	 6.698456763672109e+00
 5.901872048104664e-01	 1.984690528871380e+00	 6.606607801733666e+00
 5.720089381491938e-01	 1.990005850867577e+00	 6.516430512342824e+00
 5.538258212219209e-01	 1.995142732284064e+00	 6.428117243699219e+00
 5.356403047337758e-01	 2.000101757989816e+00	 6.341835225561269e+00
 7.211637801432608e-01	 1.953484561117617e+00	 7.305900092516870e+00
 7.029871123178112e-01	 1.960099070206012e+00	 7.210178221019618e+00
 6.847877470139879e-01	 1.966531239833701e+00	 7.114443041155630e+00
 6.665682842332737e-01	 1.972781345220282e+00	 7.019064031176516e+00
 6.483313074606438e-01	 1.978849708328191e+00	 6.924363313467915e+00
 6.300793826823898e-01	 1.984736697221393e+00	 6.830621261350259e+00
 6.118150574283150e-01	 1.990442725401390e+00	 6.738081308089079e+00
 5.935408598388285e-01	 1.995968251121537e+00	 6.646953993132051e+00
 5.752592977574328e-01	 2.001313776680623e+00	 6.557420284906427e+00
 5.569728578490463e-01	 2.006479847696705e+00	 6.469634223364080e+00
 5.386840047445672e-01	 2.011467052362187e+00	 6.383724928803289e+00
 7.252385552179070e-01	 1.964522289881895e+00	 7.337975080293201e+00
 7.069591841855493e-01	 1.971174172778468e+00	 7.242806214246954e+00
 6.886569874278397e-01	 1.977642685945907e+00	 7.147716618100014e+00
 6.703345796369719e-01	 1.983928106158869e+00	 7.053051285098151e+00
 6.519945588953110e-01	 1.990030757198962e+00	 6.959108692572430e+00
 6.336395056876650e-01	 1.995951009209806e+00	 6.866146430289508e+00
 6.152719819380692e-01	 2.001689278029295e+00	 6.774385994440727e+00
 5.968945300716114e-01	 2.007246024500037e+00	 6.684016784293051e+00
 5.785096721017876e-01	 2.012621753758942e+00	 6.595199343004030e+00
 5.601199087438453e-01	 2.017817014506951e+00	 6.508067888082771e+00
 5.417277185545150e-01	 2.022832398259914e+00	 6.422732180446298e+00
 7.293133464569308e-01	 1.975560062431362e+00	 7.367071468784513e+00
 7.109312718102569e-01	 1.982249319284339e+00	 7.272587030164958e+00
 6.925262431907452e-01	 1.988754176135672e+00	 7.178213549848314e+00
 6.741008899813579e-01	 1.995074911315086e+00	 7.084287483196214e+00
 6.556578248619054e-01	 2.001211850423363e+00	 6.991100082138263e+00
 6.371996428157691e-01	 2.007165365683790e+00	 6.898903013851465e+00
 6.187289201612740e-01	 2.012935875270659e+00	 6.807913107274039e+00
 6.002482136082387e-01	 2.018523842615839e+00	 6.718316266597158e+00
 5.817600593402098e-01	 2.023929775694373e+00	 6.630270595525158e+00
 5.632669721228191e-01	 2.029154226290101e+00	 6.543908780198214e+00
 5.447714444386826e-01	 2.034197789242327e+00	 6.459339782277116e+00
 7.333881515511831e-01	 1.986597872510992e+00	 7.393980169477398e+00
 7.149033729409834e-01	 1.993324503447423e+00	 7.300256005213395e+00
 6.963955121100197e-01	 1.999865704106204e+00	 7.206619691842053e+00
 6.778672131320733e-01	 2.006221754372129e+00	 7.113414874373777e+00
 6.593211032844498e-01	 2.012392981665163e+00	 7.020941784933646e+00
 6.407597920491543e-01	 2.018379760288262e+00	 6.929462820538194e+00
 6.221858701388477e-01	 2.024182510752128e+00	 6.839207209627034e+00
 6.036019085481324e-01	 2.029801699077899e+00	 6.750374808742073e+00
 5.850104576306514e-01	 2.035237836078757e+00	 6.663139075541086e+00
 5.664140462024690e-01	 2.040491476621453e+00	 6.577649268587165e+00
 5.478151806721345e-01	 2.045563218868756e+00	 6.494031928080054e+00
 7.374629681915144e-01	 1.997635713865758e+00	 7.419490744397438e+00
 7.188754853267775e-01	 2.004399718991520e+00	 7.326548175166673e+00
 7.002647919929784e-01	 2.010977263560708e+00	 7.233621459014671e+00
 6.816335469547604e-01	 2.017368629013192e+00	 7.141076944531115e+00
 6.629843920869686e-01	 2.023574144588127e+00	 7.049239841810441e+00
 6.443199513702722e-01	 2.029594186668142e+00	 6.958399728062018e+00
 6.256428299117126e-01	 2.035429178100352e+00	 6.868815101599092e+00
 6.069556129907158e-01	 2.041079587495174e+00	 6.780717027954298e+00
 5.882608651310646e-01	 2.046545928503937e+00	 6.694311926829956e+00
 5.695611291992961e-01	 2.051828759076308e+00	 6.609783553003822e+00
 5.508589255299340e-01	 2.056928680698532e+00	 6.527294228138652e+00
 7.415377940687753e-01	 2.008673580240634e+00	 7.444392440787770e+00
 7.228476067166877e-01	 2.015474959640425e+00	 7.352198212448526e+00
 7.041340806469353e-01	 2.022088848202389e+00	 7.259905760445576e+00
 6.853998893150609e-01	 2.028515528921473e+00	 7.167918351930671e+00
 6.666476891934837e-01	 2.034755332856023e+00	 7.076601970983387e+00
 6.478801187615737e-01	 2.040808638468346e+00	 6.986289629586700e+00
 6.290997975207883e-01	 2.046675870941980e+00	 6.897285776437956e+00
 6.103093250354112e-01	 2.052357501476621e+00	 6.809869758645279e+00
 5.915112799994008e-01	 2.057854046561753e+00	 6.724298387666772e+00
 5.727082193298015e-01	 2.063166067229965e+00	 6.640807665406117e+00
 5.539026772871459e-01	 2.068294168290986e+00	 6.559613730344857e+00
 7.456126268738167e-01	 2.019711465380591e+00	 7.469505835819502e+00
 7.268197348597617e-01	 2.026550219117936e+00	 7.377940359683445e+00
 7.080033758792058e-01	 2.033200451734453e+00	 7.286159930776891e+00
 6.891662380786171e-01	 2.039662447780167e+00	 7.194584859714640e+00
 6.703109925280187e-01	 2.045936540132617e+00	 7.103637504734541e+00
 6.514402922055113e-01	 2.052023109333797e+00	 7.013710377543197e+00
 6.325567710069953e-01	 2.057922582903662e+00	 6.925170374236625e+00
 6.136630427816420e-01	 2.063635434631199e+00	 6.838362018608377e+00
 5.947617003936122e-01	 2.069162183844046e+00	 6.753609771978132e+00
 5.758553148104867e-01	 2.074503394657724e+00	 6.671219468380230e+00
 5.569464342188331e-01	 2.079659675205448e+00	 6.591478938047024e+00
 7.496874642974889e-01	 2.030749363030602e+00	 7.495629008781886e+00
 7.307918675050503e-01	 2.037625491147852e+00	 7.404508359635960e+00
 7.118726754971041e-01	 2.044312067860106e+00	 7.313071658516348e+00
 6.929325911110704e-01	 2.050809379272470e+00	 7.221723265687589e+00
 6.739743000145972e-01	 2.057117760081678e+00	 7.130957323637809e+00
 6.550004696845358e-01	 2.063237592909410e+00	 7.041241725110208e+00
 6.360137484112538e-01	 2.069169307612046e+00	 6.953022133333272e+00
 6.170167643288306e-01	 2.074913380567861e+00	 6.866724972847353e+00
 5.980121244716508e-01	 2.080470333942657e+00	 6.782759447966481e+00
 5.790024138578522e-01	 2.085840734934883e+00	 6.701518650770719e+00
 5.599901946000603e-01	 2.091025195001249e+00	 6.623379824753334e+00
 7.537623040306429e-01	 2.041787266935640e+00	 7.523540586709518e+00
 7.347640024016007e-01	 2.048700769453971e+00	 7.432635381671001e+00
 7.157419773079462e-01	 2.055423690282553e+00	 7.341328911342740e+00
 6.966989462780636e-01	 2.061956317081577e+00	 7.249981329464560e+00
 6.776376095772423e-01	 2.068298986366972e+00	 7.159173788398730e+00
 6.585606491811000e-01	 2.074452082840105e+00	 7.069465265448970e+00
 6.394707277744844e-01	 2.080416038693781e+00	 6.981396339498612e+00
 6.203704877764000e-01	 2.086191332895567e+00	 6.895491895130396e+00
 6.012625503914683e-01	 2.091778490449427e+00	 6.812262814296659e+00
 5.821495146883998e-01	 2.097178081636743e+00	 6.732206720625547e+00
 5.630339567058910e-01	 2.102390721237719e+00	 6.655807845816055e+00
 5.325966202470764e-01	 1.988736521583468e+00	 6.296581632900298e+00
 5.145144683441411e-01	 1.993491146713879e+00	 6.212163169524072e+00
 4.964347369255440e-01	 1.998070215693998e+00	 6.129630136701174e+00
 4.783597940001335e-01	 2.002474434335026e+00	 6.049298120669202e+00
 4.602919826062961e-01	 2.006704547414393e+00	 5.971460952079832e+00
 4.422336201009818e-01	 2.010761337859134e+00	 5.896390490672041e+00
 4.241869974763519e-01	 2.014645625916694e+00	 5.824336127804460e+00
 4.061543787041809e-01	 2.018358268314155e+00	 5.755524058535654e+00
 3.881380001081096e-01	 2.021900157406867e+00	 5.690156374607959e+00
 3.701400697638060e-01	 2.025272220317423e+00	 5.628410006798963e+00
 3.521627669270607e-01	 2.028475418065975e+00	 5.570401434367692e+00
 5.356403047337758e-01	 2.000101757989816e+00	 6.341835225561269e+00
 5.174548169043919e-01	 2.004883554863653e+00	 6.257336963844850e+00
 4.992717633918996e-01	 2.009488792318448e+00	 6.174526429231467e+00
 4.810935257378592e-01	 2.013918180198979e+00	 6.093764152726985e+00
 4.629224603706686e-01	 2.018172467538940e+00	 6.015389078511273e+00
 4.447608978905244e-01	 2.022252441739647e+00	 5.939718033891764e+00
 4.266111423821651e-01	 2.026158927736105e+00	 5.867044907563844e+00
 4.084754707555260e-01	 2.029892787151434e+00	 5.797639590519453e+00
 3.903561321144050e-01	 2.033454917440619e+00	 5.731746733574809e+00
 3.722553471531954e-01	 2.036846251024587e+00	 5.669584374736364e+00
 3.541753075817133e-01	 2.040067754415539e+00	 5.611299890832929e+00
 5.386840047445672e-01	 2.011467052362187e+00	 6.383724928803289e+00
 5.203951804616339e-01	 2.016276021118036e+00	 6.299450891713245e+00
 5.021088043281977e-01	 2.020907427180972e+00	 6.216763257915058e+00
 4.838272714186049e-01	 2.025361984429373e+00	 6.136046602245551e+00
 4.655529515513377e-01	 2.029640446153220e+00	 6.057664073706563e+00
 4.472881885699116e-01	 2.033743604228130e+00	 5.981956567555367e+00
 4.290352996517137e-01	 2.037672288276690e+00	 5.909241595184657e+00
 4.107965746449107e-01	 2.041427364818078e+00	 5.839811908841858e+00
 3.925742754335271e-01	 2.045009736406950e+00	 5.773933937832789e+00
 3.743706353307506e-01	 2.048420340762587e+00	 5.711846092062819e+00
 3.561878585004907e-01	 2.051660149889265e+00	 5.653714399758661e+00
 5.417277185545150e-01	 2.022832398259914e+00	 6.422732180446298e+00
 5.233355573495007e-01	 2.027668539020960e+00	 6.338978452066170e+00
 5.049458581266384e-01	 2.032326113810674e+00	 6.256800583447411e+00
 4.865610294931261e-01	 2.036805840541050e+00	 6.176586810693308e+00
 4.681834546575939e-01	 2.041108476758374e+00	 6.098704101470915e+00
 4.498154907069396e-01	 2.045234818812585e+00	 6.023497045324111e+00
 4.314594679112613e-01	 2.049185701013874e+00	 5.951286430286993e+00
 4.131176890570191e-01	 2.052961994777500e+00	 5.882367565615475e+00
 3.947924288085252e-01	 2.056564607757807e+00	 5.817008410025809e+00
 3.764859330978217e-01	 2.059994482972456e+00	 5.755447563976812e+00
 3.582004185429714e-01	 2.063252597917823e+00	 5.697854900205343e+00
 5.447714444386826e-01	 2.034197789242327e+00	 6.459339782277116e+00
 5.262759459016244e-01	 2.039061102116356e+00	 6.376394038109045e+00
 5.077829231794215e-01	 2.043744845736655e+00	 6.295098890797457e+00
 4.892947984121784e-01	 2.048249742048850e+00	 6.215826365933227e+00
 4.708139681987278e-01	 2.052576552855544e+00	 6.138927378768193e+00
 4.523428028694046e-01	 2.056726078981020e+00	 6.064730358063931e+00
 4.338836457870717e-01	 2.060699159423090e+00	 5.993539543776130e+00
 4.154388126765353e-01	 2.064496670493109e+00	 5.925633021223349e+00
 3.970105909824482e-01	 2.068119524945134e+00	 5.861260553931062e+00
 3.786012392557589e-01	 2.071568671095225e+00	 5.800641276444988e+00
 3.602129865687342e-01	 2.074845091931879e+00	 5.743932131085841e+00
 5.478151806721345e-01	 2.045563218868756e+00	 6.494031928080054e+00
 5.292163444516392e-01	 2.050453703948159e+00	 6.412172984921140e+00
 5.106199978787477e-01	 2.055163616488020e+00	 6.332119252301183e+00
 4.920285766265172e-01	 2.059693682467613e+00	 6.254207176979906e+00
 4.734444906840301e-01	 2.064044667945874e+00	 6.178752258584281e+00
 4.548701236251030e-01	 2.068217378221441e+00	 6.106047421532932e+00
 4.363078319054087e-01	 2.072212656979766e+00	 6.036361047347492e+00
 4.177599441881438e-01	 2.076031385428316e+00	 5.969934732899031e+00
 3.992287606983457e-01	 2.079674481420878e+00	 5.906980839646608e+00
 3.807165526059124e-01	 2.083142898571927e+00	 5.847679897991602e+00
 3.622255614373575e-01	 2.086437625362101e+00	 5.792157675761070e+00
 5.508589255299340e-01	 2.056928680698532e+00	 6.527294228138652e+00
 5.321567513331774e-01	 2.061846338060299e+00	 6.446791613161605e+00
 5.134570806168165e-01	 2.066582419593872e+00	 6.368323386590943e+00
 4.947623625868982e-01	 2.071137655312178e+00	 6.292171544439165e+00
 4.760750206227913e-01	 2.075512815530504e+00	 6.218597308426802e+00
 4.573974515418311e-01	 2.079708710021855e+00	 6.147839259749818e+00
 4.387320248925359e-01	 2.083726187159331e+00	 6.080111118792775e+00
 4.200810822765291e-01	 2.087566133046532e+00	 6.015599239307311e+00
 4.014469366992670e-01	 2.091229470636982e+00	 5.954459885049419e+00
 3.828318719496324e-01	 2.094717158843593e+00	 5.896816355893087e+00
 3.642381420084201e-01	 2.098030191639157e+00	 5.842744003597766e+00
 5.539026772871459e-01	 2.068294168290986e+00	 6.559613730344857e+00
 5.350971648798726e-01	 2.073238997996710e+00	 6.480727269016318e+00
 5.162941697858279e-01	 2.078001248583312e+00	 6.404173713523115e+00
 4.974961547440768e-01	 2.082581654097387e+00	 6.330162226803446e+00
 4.787055565243021e-01	 2.086980989110578e+00	 6.258881384629245e+00
 4.599247851873850e-01	 2.091200067870266e+00	 6.190497084204170e+00
 4.411562233747170e-01	 2.095239743437215e+00	 6.125150083269992e+00
 4.224022256263749e-01	 2.099100906811165e+00	 6.062953241283048e+00
 4.036651177282611e-01	 2.102784486045393e+00	 6.003988533662060e+00
 3.849471960882692e-01	 2.106291445351256e+00	 5.948303909097264e+00
 3.662507271415004e-01	 2.109622784193714e+00	 5.895904508600642e+00
 5.569464342188331e-01	 2.079659675205448e+00	 6.591478938047024e+00
 5.380375834253580e-01	 2.084631677301325e+00	 6.514458360536449e+00
 5.191312637779820e-01	 2.089420096985444e+00	 6.440133405251404e+00
 5.002299515488086e-01	 2.094025672338080e+00	 6.368622502752668e+00
 4.813360968978528e-01	 2.098449182187236e+00	 6.300023702616430e+00
 4.624521231295610e-01	 2.102691445254680e+00	 6.234412369068664e+00
 4.435804259782157e-01	 2.106753319288849e+00	 6.171838490691549e+00
 4.247233729223659e-01	 2.110635700185627e+00	 6.112323678869293e+00
 4.058833025283775e-01	 2.114339521098056e+00	 6.055857929070905e+00
 3.870625238231729e-01	 2.117865751535950e+00	 6.002396217991068e+00
 3.682633156961775e-01	 2.121215396456440e+00	 5.951853545232851e+00
 5.599901946000603e-01	 2.091025195001249e+00	 6.623379824753334e+00
 5.409780053032661e-01	 2.096024369518074e+00	 6.548464390499025e+00
 5.219683609854791e-01	 2.100838958329372e+00	 6.476666433594217e+00
 5.029637514518491e-01	 2.105469703549098e+00	 6.407996229615834e+00
 4.839666402527343e-01	 2.109917388261621e+00	 6.342443903283974e+00
 4.649794639361555e-01	 2.114182835663105e+00	 6.279976922561252e+00
 4.460046313292961e-01	 2.118266908189660e+00	 6.220537189371350e+00
 4.270445228491862e-01	 2.122170506633328e+00	 6.164037804796558e+00
 4.081014898426654e-01	 2.125894569246918e+00	 6.110359586017441e+00
 3.891778539556934e-01	 2.129440070838703e+00	 6.059347411130100e+00
 3.702759065320294e-01	 2.132808021858001e+00	 6.010806461527968e+00
 5.630339567058910e-01	 2.102390721237719e+00	 6.655807845816055e+00
 5.439184288472311e-01	 2.107417068190891e+00	 6.583225985921421e+00
 5.248054598005191e-01	 2.112257826144199e+00	 6.514237613833900e+00
 5.056975529039541e-01	 2.116913741245279e+00	 6.448727898134229e+00
 4.865971850982373e-01	 2.121385600834876e+00	 6.386562115638545e+00
 4.675068061749644e-01	 2.125674232583547e+00	 6.327582954603515e+00
 4.484288380542216e-01	 2.129780503615080e+00	 6.271607396078508e+00
 4.293656740915203e-01	 2.133705319617679e+00	 6.218423254536706e+00
 4.103196784141740e-01	 2.137449623943922e+00	 6.167785458293642e+00
 3.912931852871813e-01	 2.141014396700550e+00	 6.119412149051650e+00
 3.722884985086354e-01	 2.144400653829069e+00	 6.072980678242168e+00
 3.521627669270607e-01	 2.028475418065975e+00	 5.570401434367684e+00
 3.342051918837182e-01	 2.031511246261781e+00	 5.514973752306313e+00
 3.162725277782722e-01	 2.034380171445287e+00	 5.461168918238533e+00
 2.983668699257989e-01	 2.037083250098379e+00	 5.409487503061484e+00
 2.804902826931495e-01	 2.039621569097458e+00	 5.360352093872859e+00
 2.626447990652556e-01	 2.041996244812904e+00	 5.314116257262114e+00
 2.448324202389498e-01	 2.044208422205397e+00	 5.271073204535975e+00
 2.270551152441029e-01	 2.046259273919937e+00	 5.231464215144451e+00
 2.093148205918515e-01	 2.048149999378412e+00	 5.195486871875397e+00
 1.916134399496647e-01	 2.049881823871578e+00	 5.163303158345505e+00
 1.739528438429692e-01	 2.051455997651216e+00	 5.135047465977980e+00
 3.541753075817133e-01	 2.040067754415539e+00	 5.611299890832922e+00
 3.361151085441200e-01	 2.043120931769846e+00	 5.555682820583943e+00
 3.180799628055461e-01	 2.046006252294137e+00	 5.501777731740161e+00
 3.000719776553668e-01	 2.048724778507874e+00	 5.450090950614276e+00
 2.820932292578692e-01	 2.051277603498734e+00	 5.401047642485862e+00
 2.641457622160797e-01	 2.053665850016926e+00	 5.355000486561397e+00
 2.462315891632627e-01	 2.055890669566346e+00	 5.312238057011236e+00
 2.283526903818932e-01	 2.057953241493418e+00	 5.272992969659993e+00
 2.105110134498744e-01	 2.059854772074485e+00	 5.237449851017550e+00
 1.927084729137466e-01	 2.061596493602586e+00	 5.205753183113352e+00
 1.749469499886080e-01	 2.063179663474438e+00	 5.178015074062404e+00
 3.561878585004907e-01	 2.051660149889265e+00	 5.653714399758654e+00
 3.380250349452021e-01	 2.054730676490516e+00	 5.598269492571342e+00
 3.198874070508022e-01	 2.057632392439164e+00	 5.544556782231041e+00
 3.017770940810230e-01	 2.060366366292282e+00	 5.493092864082987e+00
 2.836961839976451e-01	 2.062933697348859e+00	 5.444309977521235e+00
 2.656467330218451e-01	 2.065335514738967e+00	 5.398564366240786e+00
 2.476307652233754e-01	 2.067572976509752e+00	 5.356144349100514e+00
 2.296502721373698e-01	 2.069647268709105e+00	 5.317278164607037e+00
 2.117072124085513e-01	 2.071559604467855e+00	 5.282141648946217e+00
 1.938035114625846e-01	 2.073311223081371e+00	 5.250865804081130e+00
 1.759410612042908e-01	 2.074903389091340e+00	 5.223544308679711e+00
 3.582004185429714e-01	 2.063252597917823e+00	 5.697854900205343e+00
 3.399349700047012e-01	 2.066340473844638e+00	 5.642901730601909e+00
 3.216948594898487e-01	 2.069258585291936e+00	 5.589633918610699e+00
 3.034822182365552e-01	 2.072008006854432e+00	 5.538582990304307e+00
 2.852991460041460e-01	 2.074589844042452e+00	 5.490192905071680e+00
 2.671477106319999e-01	 2.077005232365967e+00	 5.444828073965856e+00
 2.490299476264068e-01	 2.079255336415407e+00	 5.402781093596166e+00
 2.309478597752084e-01	 2.081341348940157e+00	 5.364280262129269e+00
 2.129034167899966e-01	 2.083264489925573e+00	 5.329496940710639e+00
 1.948985549756075e-01	 2.085026005669377e+00	 5.298552819971704e+00
 1.769351769266325e-01	 2.086627167858271e+00	 5.271527147351663e+00
 3.602129865687342e-01	 2.074845091931879e+00	 5.743932131085841e+00
 3.418449126403540e-01	 2.077950317253057e+00	 5.689748531428707e+00
 3.235023190984938e-01	 2.080884824264019e+00	 5.637138217680617e+00
 3.051873491557510e-01	 2.083649693597148e+00	 5.586652461286370e+00
 2.869021143690418e-01	 2.086246036974134e+00	 5.538751742413971e+00
 2.686486941959927e-01	 2.088674996284871e+00	 5.493813398364781e+00
 2.504291355794759e-01	 2.090937742663102e+00	 5.452138992866779e+00
 2.322454525600854e-01	 2.093035475559738e+00	 5.413961476510562e+00
 2.140996259163247e-01	 2.094969421814683e+00	 5.379452205135388e+00
 1.959936028322447e-01	 2.096740834728053e+00	 5.348727879122038e+00
 1.779292965922483e-01	 2.098350993131583e+00	 5.321857462374675e+00
 3.622255614373575e-01	 2.086437625362101e+00	 5.792157675761070e+00
 3.437548617698971e-01	 2.089560200136624e+00	 5.738979966366795e+00
 3.253097848525456e-01	 2.092511102766986e+00	 5.687200019444568e+00
 3.068924858723978e-01	 2.095291419923259e+00	 5.637393824298044e+00
 2.885050881840018e-01	 2.097902269538525e+00	 5.590043342539297e+00
 2.701496828632718e-01	 2.100344799882622e+00	 5.545543757674025e+00
 2.518283282897015e-01	 2.102620188632630e+00	 5.504210451324016e+00
 2.335430497566764e-01	 2.104729641941006e+00	 5.466285780179570e+00
 2.152958391096499e-01	 2.106674393502234e+00	 5.431945724117613e+00
 1.970886544119248e-01	 2.108455703618840e+00	 5.401306471848271e+00
 1.789234196377529e-01	 2.110074858267626e+00	 5.374431006055044e+00
 3.642381420084201e-01	 2.098030191639157e+00	 5.842744003597759e+00
 3.456648163110672e-01	 2.101170115916182e+00	 5.790767218786979e+00
 3.271172557278121e-01	 2.104137414212402e+00	 5.739950960135555e+00
 3.085976274202831e-01	 2.106933179235593e+00	 5.690901070048609e+00
 2.901080665406955e-01	 2.109558535130247e+00	 5.644126117127632e+00
 2.716506757832854e-01	 2.112014636546165e+00	 5.600044217173009e+00
 2.532275249642026e-01	 2.114302667703782e+00	 5.558989587003571e+00
 2.348406506296575e-01	 2.116423841457124e+00	 5.521218909158477e+00
 2.164920556920865e-01	 2.118379398355271e+00	 5.486917581678825e+00
 1.981837090940770e-01	 2.120170605703186e+00	 5.456205922869923e+00
 1.799175454997614e-01	 2.121798756622752e+00	 5.429145396299116e+00
 3.662507271415004e-01	 2.109622784193714e+00	 5.895904508600642e+00
 3.475747751816008e-01	 2.112780058012580e+00	 5.845282619055988e+00
 3.289247307001015e-01	 2.115763752011836e+00	 5.795524003052872e+00
 3.103027728331947e-01	 2.118574964936977e+00	 5.747269659029433e+00
 2.917110485307923e-01	 2.121214827143919e+00	 5.701060058023566e+00
 2.731516721054818e-01	 2.123684499662441e+00	 5.657341505449324e+00
 2.546267248100982e-01	 2.125985173256349e+00	 5.616472242300206e+00
 2.361382544437048e-01	 2.128118067481254e+00	 5.578728367969253e+00
 2.176882749857490e-01	 2.130084429740844e+00	 5.544309662779549e+00
 1.992787662581302e-01	 2.131885534342535e+00	 5.513345383789845e+00
 1.809116736148886e-01	 2.133522681553313e+00	 5.485900102549409e+00
 3.682633156961775e-01	 2.121215396456440e+00	 5.951853545232866e+00
 3.494847372992345e-01	 2.124390019846665e+00	 5.902699677028229e+00
 3.307322087452220e-01	 2.127390109576855e+00	 5.854053467295697e+00
 3.120079211449201e-01	 2.130216770430239e+00	 5.806596546086203e+00
 2.933140332459617e-01	 2.132871138974163e+00	 5.760906757270522e+00
 2.746526709793097e-01	 2.135354382618397e+00	 5.717464029539058e+00
 2.560259270345073e-01	 2.137667698670125e+00	 5.676655993884271e+00
 2.374358604634942e-01	 2.139812313386554e+00	 5.638783434025584e+00
 2.188844963127517e-01	 2.141789481025998e+00	 5.604065651906754e+00
 2.003738252835136e-01	 2.143600482898333e+00	 5.572645825631662e+00
 1.819058034197497e-01	 2.145246626415659e+00	 5.544596432046965e+00
 3.702759065320294e-01	 2.132808021858001e+00	 6.010806461527975e+00
 3.513947015817049e-01	 2.135999994839283e+00	 5.963193112169935e+00
 3.325396888389815e-01	 2.139016480319029e+00	 5.915675054467707e+00
 3.137130713892468e-01	 2.141858589118207e+00	 5.868980203290775e+00
 2.949170197778730e-01	 2.144527464015599e+00	 5.823729425757275e+00
 2.761536715542172e-01	 2.147024278800973e+00	 5.780441888983987e+00
 2.574251308445487e-01	 2.149350237324899e+00	 5.739540161831457e+00
 2.387334679537018e-01	 2.151506572546188e+00	 5.701355161521645e+00
 2.200807189952091e-01	 2.153494545577781e+00	 5.666131031440218e+00
 2.014688855496560e-01	 2.155315444732026e+00	 5.634030031425542e+00
 1.828999343509593e-01	 2.156970584566141e+00	 5.605137516412356e+00
 3.722884985086354e-01	 2.144400653829069e+00	 6.072980678242160e+00
 3.533046669467489e-01	 2.147609976411282e+00	 6.026938881414996e+00
 3.343471699571886e-01	 2.150642857649927e+00	 5.980525873431847e+00
 3.154182225999625e-01	 2.153500414403706e+00	 5.934520641172295e+00
 2.965200072181960e-01	 2.156183795662848e+00	 5.889592910527503e+00
 2.776546729796525e-01	 2.158694181597113e+00	 5.846306888845727e+00
 2.588243354473414e-01	 2.161032782600465e+00	 5.805125817994623e+00
 2.400310761790034e-01	 2.163200838333315e+00	 5.766416384842566e+00
 2.212769423552353e-01	 2.165199616763240e+00	 5.730453079808087e+00
 2.025639464359865e-01	 2.167030413205057e+00	 5.697422588844541e+00
 1.838940658451328e-01	 2.168694549361110e+00	 5.667428298529528e+00
 1.739528438429692e-01	 2.051455997651216e+00	 5.135047465977964e+00
 1.563378534778582e-01	 2.052873567178158e+00	 5.110273279394438e+00
 1.387672317311507e-01	 2.054136109866877e+00	 5.088405359335090e+00
 1.212427072105581e-01	 2.055244944333897e+00	 5.069381599734111e+00
 1.037659755642284e-01	 2.056201410510627e+00	 5.053145348355492e+00
 8.633869930479596e-02	 2.057006868761296e+00	 5.039653765992496e+00
 6.896250765700229e-02	 2.057662699005061e+00	 5.028886290730628e+00
 5.163899642849889e-02	 2.058170299842952e+00	 5.020853226585948e+00
 3.436972790342276e-02	 2.058531087690270e+00	 5.015604471611363e+00
 1.715623075832310e-02	 2.058746495915078e+00	 5.013238396379280e+00
 0.000000000000000e+00	 2.058817973983335e+00	 5.013910878967209e+00
 1.749469499886080e-01	 2.063179663474438e+00	 5.178015074062412e+00
 1.572312934327847e-01	 2.064605334131188e+00	 5.153756645496550e+00
 1.395602590531904e-01	 2.065875092001923e+00	 5.132406310023866e+00
 1.219355853362014e-01	 2.066990263238809e+00	 5.113925321014216e+00
 1.043589776202733e-01	 2.067952195430709e+00	 5.098274361042405e+00
 8.683210791898467e-02	 2.068762256716072e+00	 5.085421716638595e+00
 6.935661476778764e-02	 2.069421834900029e+00	 5.075351588265975e+00
 5.193410309407182e-02	 2.069932336576346e+00	 5.068072556040519e+00
 3.456614411013208e-02	 2.070295186254868e+00	 5.063626217242696e+00
 1.725427522861453e-02	 2.070511825495078e+00	 5.062096007267322e+00
 0.000000000000000e+00	 2.070583712046356e+00	 5.063616210655582e+00
 1.759410612042908e-01	 2.074903389091340e+00	 5.223544308679711e+00
 1.581247379443675e-01	 2.076337160919253e+00	 5.199672366879867e+00
 1.403532904197865e-01	 2.077614134008858e+00	 5.178684406442178e+00
 1.226284669956400e-01	 2.078735642047998e+00	 5.160562564197509e+00
 1.049519827007405e-01	 2.079703040283018e+00	 5.145282201311822e+00
 8.732551904965996e-02	 2.080517704626627e+00	 5.132819880881525e+00
 6.975072388860847e-02	 2.081181030769963e+00	 5.123161512035663e+00
 5.222921126476075e-02	 2.081694433299565e+00	 5.116310682302062e+00
 3.476256131861531e-02	 2.082059344819858e+00	 5.112297195292438e+00
 1.735232019895990e-02	 2.082277215081783e+00	 5.111185826121577e+00
 0.000000000000000e+00	 2.082349510118179e+00	 5.113085301754437e+00
 1.769351769266325e-01	 2.086627167858271e+00	 5.271527147351663e+00
 1.590181865062638e-01	 2.088069040894114e+00	 5.247895679221879e+00
 1.411463253814988e-01	 2.089353229235353e+00	 5.227101300619226e+00
 1.233213517961896e-01	 2.090481074105537e+00	 5.209144784384132e+00
 1.055449904695495e-01	 2.091453938408527e+00	 5.194013736073602e+00
 8.781893241718584e-02	 2.092273205831316e+00	 5.181690361043426e+00
 7.014483479610883e-02	 2.092940279951089e+00	 5.172159430466170e+00
 5.252432077331909e-02	 2.093456583347185e+00	 5.165416469331501e+00
 3.495897941755863e-02	 2.093823556718639e+00	 5.161476184532081e+00
 1.745036561379615e-02	 2.094042658007892e+00	 5.160381146252144e+00
 0.000000000000000e+00	 2.094115361531267e+00	 5.162210730431729e+00
 1.779292965922483e-01	 2.098350993131583e+00	 5.321857462374675e+00
 1.599116386121311e-01	 2.099800967407532e+00	 5.298303765196179e+00
 1.419393634888872e-01	 2.101092371029078e+00	 5.277520657111434e+00
 1.240142393451663e-01	 2.102226552755500e+00	 5.259525530856550e+00
 1.061380005906196e-01	 2.103204883148204e+00	 5.244316026961354e+00
 8.831234774192651e-02	 2.104028753668496e+00	 5.231877576302344e+00
 7.053894726693290e-02	 2.104699575779630e+00	 5.222191175199280e+00
 5.281943145250017e-02	 2.105218780053777e+00	 5.215241417447515e+00
 3.515539829564829e-02	 2.105587815284615e+00	 5.211024802480372e+00
 1.754841141756025e-02	 2.105808147606103e+00	 5.209558333714201e+00
 0.000000000000000e+00	 2.105881259618090e+00	 5.210888415462575e+00
 1.789234196377529e-01	 2.110074858267626e+00	 5.374431006055044e+00
 1.608050937556268e-01	 2.111532933811268e+00	 5.350775732335466e+00
 1.427324042925115e-01	 2.112831552737703e+00	 5.329808123246304e+00
 1.247071292498861e-01	 2.113972071341964e+00	 5.311560409538441e+00
 1.067310127278703e-01	 2.114955867843022e+00	 5.296038284931788e+00
 8.880576474424610e-02	 2.115784341476523e+00	 5.283228209444752e+00
 7.093306107772471e-02	 2.116458911591811e+00	 5.273104980095191e+00
 5.311454313505747e-02	 2.116981016753919e+00	 5.265639594762732e+00
 3.535181784157055e-02	 2.117352113851185e+00	 5.260807429537596e+00
 1.764645755468914e-02	 2.117573677209116e+00	 5.258596744492323e+00
 0.000000000000000e+00	 2.117647197711111e+00	 5.259017526892083e+00
 1.799175454997614e-01	 2.121798756622752e+00	 5.429145396299116e+00
 1.616985514304083e-01	 2.123264933457083e+00	 5.405192591543170e+00
 1.435254473429316e-01	 2.124570767708897e+00	 5.383831300298483e+00
 1.254000211176648e-01	 2.125717623209000e+00	 5.365107046670593e+00
 1.073240265452210e-01	 2.126706885833951e+00	 5.349031826358978e+00
 8.929918314450877e-02	 2.127539962593751e+00	 5.335591155383234e+00
 7.132717600512842e-02	 2.128218280723858e+00	 5.324751422263395e+00
 5.340965565374431e-02	 2.128743286782182e+00	 5.316467570896778e+00
 3.554823794401161e-02	 2.129116445751749e+00	 5.310691135637020e+00
 1.774450396961976e-02	 2.129339240149633e+00	 5.307378644422057e+00
 0.000000000000000e+00	 2.129413169142801e+00	 5.306500399645790e+00
 1.809116736148886e-01	 2.133522681553313e+00	 5.485900102549409e+00
 1.625920111301330e-01	 2.134996959696737e+00	 5.461437236227949e+00
 1.443184921907072e-01	 2.136310009290329e+00	 5.439459715569618e+00
 1.260929145558183e-01	 2.137463201700684e+00	 5.420025053664078e+00
 1.079170417065910e-01	 2.138457930461962e+00	 5.403150030573381e+00
 8.979260266307865e-02	 2.139295610358537e+00	 5.388817471375773e+00
 7.172129182578811e-02	 2.139977676511996e+00	 5.376983365039790e+00
 5.370476884131416e-02	 2.140505583473145e+00	 5.367584352876302e+00
 3.574465849165770e-02	 2.140880804319710e+00	 5.360545609307598e+00
 1.784255060678907e-02	 2.141104829760352e+00	 5.355789131742956e+00
 0.000000000000000e+00	 2.141179167245623e+00	 5.353242449971528e+00
 1.819058034197497e-01	 2.145246626415659e+00	 5.544596432046965e+00
 1.634854723484583e-01	 2.146729005881991e+00	 5.519394422038660e+00
 1.451115383863983e-01	 2.148049270829670e+00	 5.496564795334328e+00
 1.267858091716626e-01	 2.149208800161091e+00	 5.476175993080942e+00
 1.085100578758998e-01	 2.150208995068026e+00	 5.458248298783698e+00
 9.028602302031989e-02	 2.151051278109236e+00	 5.442760328878994e+00
 7.211540831634791e-02	 2.151737092292449e+00	 5.429655902841935e+00
 5.399988253052035e-02	 2.152267900161379e+00	 5.418851323143303e+00
 3.594107937319509e-02	 2.152645182888466e+00	 5.410243089067843e+00
 1.794059741063403e-02	 2.152870439373973e+00	 5.403716062184455e+00
 0.000000000000000e+00	 2.152945185352045e+00	 5.399152094606738e+00
 1.828999343509593e-01	 2.156970584566141e+00	 5.605137516412356e+00
 1.643789345790415e-01	 2.158461065364607e+00	 5.578950747175015e+00
 1.459045854805647e-01	 2.159788545674591e+00	 5.555019838619843e+00
 1.274787045725136e-01	 2.160954411934294e+00	 5.533423345700731e+00
 1.091030747170669e-01	 2.161960072993113e+00	 5.514184014331475e+00
 9.077944393659658e-02	 2.162806959184203e+00	 5.497274966973341e+00
 7.250952525345188e-02	 2.163496521401443e+00	 5.482626307828681e+00
 5.429499655411632e-02	 2.164030230181460e+00	 5.470132179586573e+00
 3.613750047730999e-02	 2.164409574791420e+00	 5.459658297052594e+00
 1.803864432559157e-02	 2.164636062323194e+00	 5.451049976486617e+00
 0.000000000000000e+00	 2.164711216794534e+00	 5.444140672566204e+00
 1.838940658451328e-01	 2.168694549361110e+00	 5.667428298529528e+00
 1.652723973155402e-01	 2.170193131496345e+00	 5.639994633254679e+00
 1.466976330237662e-01	 2.171527827172759e+00	 5.614699991786641e+00
 1.281716003656873e-01	 2.172700030364369e+00	 5.591632478632097e+00
 1.096960918940116e-01	 2.173711157578196e+00	 5.570816504230157e+00
 9.127286513227294e-02	 2.174562646921796e+00	 5.552218647302126e+00
 7.290364241374417e-02	 2.175255957175201e+00	 5.535753978292649e+00
 5.459011074485547e-02	 2.175792566867963e+00	 5.521292877526387e+00
 3.633392169268865e-02	 2.176173973361974e+00	 5.508668374793777e+00
 1.813669129609866e-02	 2.176401691940717e+00	 5.497684030264282e+00
 0.000000000000000e+00	 2.176477254905558e+00	 5.488122369454150e+00
 2.176477254905558e+00	 0.000000000000000e+00	 1.196449426148476e+01
 2.176401691940717e+00	 1.813669129609746e-02	 1.196757500344380e+01
 2.176173973361973e+00	 3.633392169268761e-02	 1.196952163120842e+01
 2.175792566867962e+00	 5.459011074485461e-02	 1.197083652754984e+01
 2.175255957175201e+00	 7.290364241374346e-02	 1.197201623423771e+01
 2.174562646921796e+00	 9.127286513227247e-02	 1.197355170918955e+01
 2.173711157578196e+00	 1.096960918940113e-01	 1.197592850597391e+01
 2.172700030364369e+00	 1.281716003656871e-01	 1.197962687974977e+01
 2.171527827172760e+00	 1.466976330237663e-01	 1.198512182540718e+01
 2.170193131496345e+00	 1.652723973155404e-01	 1.199288305588934e+01
 2.168694549361110e+00	 1.838940658451328e-01	 1.200337493101500e+01
 2.188241294122136e+00	 0.000000000000000e+00	 1.194000073043742e+01
 2.188165322733192e+00	 1.823472160969870e-02	 1.194255680427976e+01
 2.187936373316615e+00	 3.653030953863312e-02	 1.194402627452775e+01
 2.187552905288838e+00	 5.488517479946910e-02	 1.194490510803985e+01
 2.187013395176153e+00	 7.329769261854537e-02	 1.194568347626198e+01
 2.186316337523313e+00	 9.176620250194129e-02	 1.194684600284914e+01
 2.185460245809202e+00	 1.102890083248351e-01	 1.194887192084596e+01
 2.184443653368976e+00	 1.288643784446186e-01	 1.195223514317583e+01
 2.183265114321995e+00	 1.474905458382164e-01	 1.195740425195959e+01
 2.181923204504910e+00	 1.661657082640429e-01	 1.196484241450076e+01
 2.180416522409176e+00	 1.848880284490149e-01	 1.197500723620558e+01
 2.200005333339514e+00	 0.000000000000000e+00	 1.191687795934500e+01
 2.199928953526466e+00	 1.833275192328915e-02	 1.191921007635985e+01
 2.199698773272057e+00	 3.672669738453863e-02	 1.192047800831961e+01
 2.199313243710509e+00	 5.518023885400081e-02	 1.192116914228838e+01
 2.198770833177897e+00	 7.369174282321322e-02	 1.192176529798194e+01
 2.198070028125613e+00	 9.225953987142113e-02	 1.192274297041786e+01
 2.197209334040982e+00	 1.108819247554167e-01	 1.192457346867007e+01
 2.196187276374337e+00	 1.295571565232611e-01	 1.192772295411146e+01
 2.195002401471962e+00	 1.482834586523424e-01	 1.193265238340149e+01
 2.193653277514182e+00	 1.670590192122038e-01	 1.193981736388268e+01
 2.192138495457911e+00	 1.858819910525599e-01	 1.194966793158821e+01
 2.211769372557491e+00	 0.000000000000000e+00	 1.189458756372097e+01
 2.211692584320340e+00	 1.843078223687149e-02	 1.189704160927082e+01
 2.211461173228096e+00	 3.692308523041412e-02	 1.189842869255080e+01
 2.211073582132779e+00	 5.547530290847050e-02	 1.189922545316454e+01
 2.210528271180233e+00	 7.408579302778058e-02	 1.189990337878620e+01
 2.209823718728503e+00	 9.275287724075938e-02	 1.190092904744327e+01
 2.208958422273340e+00	 1.114748411858165e-01	 1.190276425176538e+01
 2.207930899380266e+00	 1.302499346016868e-01	 1.190586600819200e+01
 2.206739688622481e+00	 1.490763714662256e-01	 1.191068645610268e+01
 2.205383350523982e+00	 1.679523301601083e-01	 1.191767265433928e+01
 2.203860468507150e+00	 1.868759536558522e-01	 1.192726628523184e+01
 2.223533411775869e+00	 0.000000000000000e+00	 1.187258607274868e+01
 2.223456215114613e+00	 1.852881255044843e-02	 1.187555124407116e+01
 2.223223573184535e+00	 3.711947307626963e-02	 1.187742453918166e+01
 2.222833920555445e+00	 5.577036696289884e-02	 1.187866966010879e+01
 2.222285709182967e+00	 7.447984323228089e-02	 1.187974242063464e+01
 2.221577409331783e+00	 9.324621461000313e-02	 1.188109441087405e+01
 2.220707510506085e+00	 1.120677576160953e-01	 1.188317964697179e+01
 2.219674522386573e+00	 1.309427126799680e-01	 1.188644472147198e+01
 2.218476975773366e+00	 1.498692842799468e-01	 1.189133178572980e+01
 2.217113423534136e+00	 1.688456411078421e-01	 1.189827838767308e+01
 2.215582441556724e+00	 1.878699162589760e-01	 1.190771710272126e+01
 2.235297450994446e+00	 0.000000000000000e+00	 1.185003365882735e+01
 2.235219845909088e+00	 1.862684286402269e-02	 1.185359163128265e+01
 2.234985973141174e+00	 3.731586092211512e-02	 1.185605026964370e+01
 2.234594258978312e+00	 5.606543101730651e-02	 1.185787984404016e+01
 2.234043147185897e+00	 7.487389343674769e-02	 1.185954160731448e+01
 2.233331099935260e+00	 9.373955197919968e-02	 1.186148681035925e+01
 2.232456598739022e+00	 1.126606740463134e-01	 1.186415575843008e+01
 2.231418145393068e+00	 1.316354907581769e-01	 1.186797692020647e+01
 2.230214262924436e+00	 1.506621970935871e-01	 1.187336610197126e+01
 2.228843496544465e+00	 1.697389520554904e-01	 1.188072570026692e+01
 2.227304414606465e+00	 1.888638788620157e-01	 1.189044404738152e+01
 2.247061490213023e+00	 0.000000000000000e+00	 1.182671334050445e+01
 2.246983476703560e+00	 1.872487317759692e-02	 1.183071230616931e+01
 2.246748373097813e+00	 3.751224876796063e-02	 1.183360231773853e+01
 2.246354597401177e+00	 5.636049507171415e-02	 1.183585959397557e+01
 2.245800585188828e+00	 7.526794364121453e-02	 1.183795028487880e+01
 2.245084790538736e+00	 9.423288934839623e-02	 1.184032940450502e+01
 2.244205686971961e+00	 1.132535904765316e-01	 1.184343980130994e+01
 2.243161768399564e+00	 1.323282688363859e-01	 1.184771117795826e+01
 2.241951550075505e+00	 1.514551099072274e-01	 1.185355917320701e+01
 2.240573569554795e+00	 1.706322630031388e-01	 1.186138451948672e+01
 2.239026387656207e+00	 1.898578414650553e-01	 1.187157229084730e+01
 2.258825529431401e+00	 0.000000000000000e+00	 1.180279193493228e+01
 2.258747107497834e+00	 1.882290349117387e-02	 1.180707690000170e+01
 2.258510773054252e+00	 3.770863661381613e-02	 1.181024226823692e+01
 2.258114935823844e+00	 5.665555912614251e-02	 1.181276961855126e+01
 2.257558023191561e+00	 7.566199384571488e-02	 1.181512948813287e+01
 2.256838481142017e+00	 9.472622671764003e-02	 1.181778022371921e+01
 2.255954775204704e+00	 1.138465069068104e-01	 1.182116686669221e+01
 2.254905391405870e+00	 1.330210469146671e-01	 1.182572008412605e+01
 2.253688837226391e+00	 1.522480227209486e-01	 1.183185515861118e+01
 2.252303642564949e+00	 1.715255739508726e-01	 1.183997105074709e+01
 2.250748360705780e+00	 1.908518040681791e-01	 1.185044954927730e+01
 2.270589568649378e+00	 0.000000000000000e+00	 1.177843605294513e+01
 2.270510738291708e+00	 1.892093380475621e-02	 1.178284892521706e+01
 2.270273173010292e+00	 3.790502445969164e-02	 1.178613163156684e+01
 2.269875274246113e+00	 5.695062318061222e-02	 1.178877055330097e+01
 2.269315461193897e+00	 7.605604405028225e-02	 1.179124013656605e+01
 2.268592171744905e+00	 9.521956408697826e-02	 1.179400166300301e+01
 2.267703863437063e+00	 1.144394233372103e-01	 1.179750205028428e+01
 2.266649014411799e+00	 1.337138249930929e-01	 1.180217269483642e+01
 2.265426124376910e+00	 1.530409355348319e-01	 1.180842836978869e+01
 2.264033715574749e+00	 1.724188848987774e-01	 1.181666619229998e+01
 2.262470333755018e+00	 1.918457666714716e-01	 1.182726467554318e+01
 2.282353607866756e+00	 0.000000000000000e+00	 1.175381210437655e+01
 2.282274369084981e+00	 1.901896411834667e-02	 1.175819177900999e+01
 2.282035572965733e+00	 3.810141230559717e-02	 1.176143184619528e+01
 2.281635612667784e+00	 5.724568723514398e-02	 1.176402296235825e+01
 2.281072899195641e+00	 7.645009425495015e-02	 1.176644303591463e+01
 2.280345862347205e+00	 9.571290145645822e-02	 1.176915591819866e+01
 2.279452951668841e+00	 1.150323397677920e-01	 1.177261012008851e+01
 2.278392637417161e+00	 1.344066030717355e-01	 1.177723756679375e+01
 2.277163411526878e+00	 1.538338483489582e-01	 1.178345240405591e+01
 2.275763788584020e+00	 1.733121958469383e-01	 1.179164987017115e+01
 2.274192306803754e+00	 1.928397292750167e-01	 1.180220524941370e+01
 2.294117647083334e+00	 0.000000000000000e+00	 1.172908630321283e+01
 2.294037999877456e+00	 1.911699443194793e-02	 1.173326874680881e+01
 2.293797972920375e+00	 3.829780015154270e-02	 1.173630428092306e+01
 2.293395951088659e+00	 5.754075128975850e-02	 1.173868734007603e+01
 2.292830337196592e+00	 7.684414445975213e-02	 1.174089887962337e+01
 2.292099552948724e+00	 9.620623882612718e-02	 1.174340498782075e+01
 2.291202039899849e+00	 1.156252561986160e-01	 1.174665551914319e+01
 2.290136260421767e+00	 1.350993811506671e-01	 1.175108276147996e+01
 2.288900698676113e+00	 1.546267611634085e-01	 1.175710015066093e+01
 2.287493861592586e+00	 1.742055067954411e-01	 1.176510104697306e+01
 2.285914279851820e+00	 1.938336918788990e-01	 1.177545758954443e+01
 2.168694549361110e+00	 1.838940658451328e-01	 1.200337493101500e+01
 2.167030413205057e+00	 2.025639464359857e-01	 1.201472639912821e+01
 2.165199616763239e+00	 2.212769423552345e-01	 1.202501404587145e+01
 2.163200838333315e+00	 2.400310761790027e-01	 1.203462377771437e+01
 2.161032782600464e+00	 2.588243354473408e-01	 1.204393890508478e+01
 2.158694181597113e+00	 2.776546729796520e-01	 1.205334019669848e+01
 2.156183795662848e+00	 2.965200072181955e-01	 1.206320599941506e+01
 2.153500414403706e+00	 3.154182225999622e-01	 1.207391245230334e+01
 2.150642857649927e+00	 3.343471699571884e-01	 1.208583382637564e+01
 2.147609976411281e+00	 3.533046669467487e-01	 1.209934302418867e+01
 2.144400653829069e+00	 3.722884985086354e-01	 1.211483051585721e+01
 2.180416522409176e+00	 1.848880284490149e-01	 1.197500723620558e+01
 2.178743391459491e+00	 2.036588212854817e-01	 1.198604657581861e+01
 2.176902699411461e+00	 2.224729624923121e-01	 1.199605602037897e+01
 2.174893117418836e+00	 2.413284639574795e-01	 1.200541511243975e+01
 2.172713343165517e+00	 2.602233023435121e-01	 1.201450156136023e+01
 2.170362101830462e+00	 2.791554194046220e-01	 1.202369118712307e+01
 2.167838147052795e+00	 2.981227223320665e-01	 1.203335791710401e+01
 2.165140261896276e+00	 3.171230841280325e-01	 1.204387386521216e+01
 2.162267259812233e+00	 3.361543440083166e-01	 1.205560952572942e+01
 2.159217985600053e+00	 3.552143078340370e-01	 1.206893411705742e+01
 2.155991316364327e+00	 3.743007485725930e-01	 1.208429411363850e+01
 2.192138495457911e+00	 1.858819910525599e-01	 1.194966793158821e+01
 2.190456369714552e+00	 2.047536961346715e-01	 1.196038152667100e+01
 2.188605782060261e+00	 2.236689826291363e-01	 1.197008309541710e+01
 2.186585396504880e+00	 2.426258517357720e-01	 1.197914466556718e+01
 2.184393903731034e+00	 2.616222692395784e-01	 1.198793717245682e+01
 2.182030022064215e+00	 2.806561658295709e-01	 1.199683028569473e+01
 2.179492498443087e+00	 2.997254374459984e-01	 1.200619227560193e+01
 2.176780109389134e+00	 3.188279456562385e-01	 1.201638994958112e+01
 2.173891661974771e+00	 3.379615180596408e-01	 1.202778869163589e+01
 2.170825994789008e+00	 3.571239487215617e-01	 1.204075264128391e+01
 2.167581978899722e+00	 3.763129986368002e-01	 1.205582427748789e+01
 2.203860468507150e+00	 1.868759536558522e-01	 1.192726628523184e+01
 2.202169347970084e+00	 2.058485709836317e-01	 1.193768321026947e+01
 2.200308864709493e+00	 2.248650027657702e-01	 1.194708625187926e+01
 2.198277675591317e+00	 2.439232395139259e-01	 1.195583881935165e+01
 2.196074464296902e+00	 2.630212361355649e-01	 1.196430395506282e+01
 2.193697942298275e+00	 2.821569122545017e-01	 1.197284403725279e+01
 2.191146849833639e+00	 3.013281525599721e-01	 1.198182050873040e+01
 2.188419956882206e+00	 3.205328071845392e-01	 1.199159366244058e+01
 2.185516064137484e+00	 3.397686921111017e-01	 1.200252251802855e+01
 2.182434003978098e+00	 3.590335896092485e-01	 1.201496482670525e+01
 2.179172641435220e+00	 3.783252487011745e-01	 1.202959851872250e+01
 2.215582441556724e+00	 1.878699162589760e-01	 1.190771710272126e+01
 2.213882326225930e+00	 2.069434458324388e-01	 1.191790926285565e+01
 2.212011947359015e+00	 2.260610229022771e-01	 1.192706228297375e+01
 2.209969954678016e+00	 2.452206272919864e-01	 1.193552989840783e+01
 2.207755024863002e+00	 2.644202030314964e-01	 1.194366619462377e+01
 2.205365862532538e+00	 2.836576586794170e-01	 1.195182517920119e+01
 2.202801201224365e+00	 3.029308676739679e-01	 1.196036036523659e+01
 2.200059804375425e+00	 3.222376687128939e-01	 1.196962439789042e+01
 2.197140466300314e+00	 3.415758661626396e-01	 1.197996875914653e+01
 2.194042013167280e+00	 3.609432304970240e-01	 1.199174358917836e+01
 2.190763303970788e+00	 3.803374987656328e-01	 1.200580064814499e+01
 2.227304414606465e+00	 1.888638788620157e-01	 1.189044404738152e+01
 2.225595304481932e+00	 2.080383206811691e-01	 1.190078916569582e+01
 2.223715030008681e+00	 2.272570430387203e-01	 1.190996434908905e+01
 2.221662233764846e+00	 2.465180150699993e-01	 1.191825615690864e+01
 2.219435585429219e+00	 2.658191699273980e-01	 1.192609422681944e+01
 2.217033782766902e+00	 2.851584051043196e-01	 1.193387261562965e+01
 2.214455552615178e+00	 3.045335827879658e-01	 1.194193587395712e+01
 2.211699651868714e+00	 3.239425302412620e-01	 1.195062794173733e+01
 2.208764868463201e+00	 3.433830402141960e-01	 1.196029167211223e+01
 2.205650022356506e+00	 3.628528713848143e-01	 1.197126845960125e+01
 2.202353966506389e+00	 3.823497488300930e-01	 1.198462068359649e+01
 2.239026387656207e+00	 1.898578414650553e-01	 1.187157229084730e+01
 2.237308282737935e+00	 2.091331955298994e-01	 1.188244977885328e+01
 2.235418112658347e+00	 2.284530631751628e-01	 1.189227540660598e+01
 2.233354512851677e+00	 2.478154028480100e-01	 1.190131790106354e+01
 2.231116145995435e+00	 2.672181368232944e-01	 1.190983702382404e+01
 2.228701703001266e+00	 2.866591515292121e-01	 1.191808378437093e+01
 2.226109904005989e+00	 3.061362979019465e-01	 1.192630084831512e+01
 2.223339499362003e+00	 3.256473917696024e-01	 1.193472316170177e+01
 2.220389270626089e+00	 3.451902142657108e-01	 1.194366195817622e+01
 2.217258031545733e+00	 3.647625122725456e-01	 1.195372551169478e+01
 2.213944629041991e+00	 3.843619988944719e-01	 1.196625475639440e+01
 2.250748360705780e+00	 1.908518040681791e-01	 1.185044954927730e+01
 2.249021260993779e+00	 2.102280703787061e-01	 1.186167954677295e+01
 2.247121195307870e+00	 2.296490833116679e-01	 1.187197655727195e+01
 2.245046791938375e+00	 2.491127906260643e-01	 1.188159692570681e+01
 2.242796706561536e+00	 2.686171037192107e-01	 1.189078624273659e+01
 2.240369623235528e+00	 2.881598979540975e-01	 1.189977946184372e+01
 2.237764255396716e+00	 3.077390130158902e-01	 1.190880121157599e+01
 2.234979346855220e+00	 3.273522532978744e-01	 1.191806632463249e+01
 2.232013672788917e+00	 3.469973883171251e-01	 1.192778060637325e+01
 2.228866040734914e+00	 3.666721531601440e-01	 1.193814186614097e+01
 2.225535291577557e+00	 3.863742489586868e-01	 1.195060782528362e+01
 2.262470333755018e+00	 1.918457666714716e-01	 1.182726467554318e+01
 2.260734239249311e+00	 2.113229452276660e-01	 1.183867499819177e+01
 2.258824277957102e+00	 2.308451034482987e-01	 1.184927007838231e+01
 2.256739071024812e+00	 2.504101784042073e-01	 1.185929321163041e+01
 2.254477267127403e+00	 2.700160706151717e-01	 1.186897502322452e+01
 2.252037543469588e+00	 2.896606443789783e-01	 1.187853348410953e+01
 2.249418606787268e+00	 3.093417281297772e-01	 1.188817412198887e+01
 2.246619194348293e+00	 3.290571148260373e-01	 1.189809044999613e+01
 2.243638074951630e+00	 3.488045623683794e-01	 1.190846463621108e+01
 2.240474049924004e+00	 3.685817940475358e-01	 1.191946843815892e+01
 2.237125954113055e+00	 3.883864990226553e-01	 1.193284929895919e+01
 2.274192306803754e+00	 1.928397292750167e-01	 1.180220524941370e+01
 2.272447217504372e+00	 2.124178200768554e-01	 1.181363107981266e+01
 2.270527360605901e+00	 2.320411235851185e-01	 1.182435638325057e+01
 2.268431350110856e+00	 2.517075661824849e-01	 1.183461077952090e+01
 2.266157827692920e+00	 2.714150375112024e-01	 1.184460917766922e+01
 2.263705463703342e+00	 2.911613908038574e-01	 1.185455168552408e+01
 2.261072958177560e+00	 3.109444432435880e-01	 1.186462371444024e+01
 2.258259041841151e+00	 3.307619763540500e-01	 1.187499630226872e+01
 2.255262477114169e+00	 3.506117364194144e-01	 1.188582667854740e+01
 2.252082059112959e+00	 3.704914349346475e-01	 1.189725913575317e+01
 2.248716616648450e+00	 3.903987490862945e-01	 1.191135538416723e+01
 2.285914279851820e+00	 1.938336918788990e-01	 1.177545758954443e+01
 2.284160195758806e+00	 2.135126949263510e-01	 1.178674117117526e+01
 2.282230443254122e+00	 2.332371437221905e-01	 1.179743403778362e+01
 2.280123629196377e+00	 2.530049539609426e-01	 1.180775154848348e+01
 2.277838388257972e+00	 2.728140044073278e-01	 1.181789218903775e+01
 2.275373383936691e+00	 2.926621372287375e-01	 1.182803736982352e+01
 2.272727309567507e+00	 3.125471583573031e-01	 1.183835141891243e+01
 2.269898889333721e+00	 3.324668378818721e-01	 1.184898179396222e+01
 2.266886879276476e+00	 3.524189104701708e-01	 1.186005953764778e+01
 2.263690068301732e+00	 3.724010758214052e-01	 1.187171866085020e+01
 2.260307279183708e+00	 3.924109991495220e-01	 1.188630024712212e+01
 2.144400653829069e+00	 3.722884985086354e-01	 1.211483051585721e+01
 2.141014396700550e+00	 3.912931852871798e-01	 1.213166128507639e+01
 2.137449623943922e+00	 4.103196784141728e-01	 1.214837567750785e+01
 2.133705319617679e+00	 4.293656740915193e-01	 1.216510958624678e+01
 2.129780503615081e+00	 4.484288380542209e-01	 1.218198447309686e+01
 2.125674232583547e+00	 4.675068061749640e-01	 1.219910651794114e+01
 2.121385600834877e+00	 4.865971850982369e-01	 1.221656596841044e+01
 2.116913741245279e+00	 5.056975529039539e-01	 1.223443673334454e+01
 2.112257826144199e+00	 5.248054598005191e-01	 1.225277626583597e+01
 2.107417068190891e+00	 5.439184288472313e-01	 1.227162578375626e+01
 2.102390721237720e+00	 5.630339567058911e-01	 1.229101087755891e+01
 2.155991316364327e+00	 3.743007485725930e-01	 1.208429411363850e+01
 2.152586756236513e+00	 3.934081572519377e-01	 1.210137734101518e+01
 2.149002715588926e+00	 4.125374901448124e-01	 1.211842197359290e+01
 2.145238172988802e+00	 4.316864310009104e-01	 1.213554575552591e+01
 2.141292143031838e+00	 4.508526329383465e-01	 1.215285299663864e+01
 2.137163677266546e+00	 4.700337190515112e-01	 1.217043357573496e+01
 2.132851865109395e+00	 4.892272830486170e-01	 1.218836213603871e+01
 2.128355834749713e+00	 5.084308899189082e-01	 1.220669751769025e+01
 2.123674754043307e+00	 5.276420766294706e-01	 1.222548247465483e+01
 2.118807831393782e+00	 5.468583528515428e-01	 1.224474372563454e+01
 2.113754316620504e+00	 5.660772017161841e-01	 1.226449239059682e+01
 2.167581978899722e+00	 3.763129986368002e-01	 1.205582427748789e+01
 2.164159115772576e+00	 3.955231292169279e-01	 1.207294143082135e+01
 2.160555807234000e+00	 4.147553018756401e-01	 1.209008966388623e+01
 2.156771026359973e+00	 4.340071879104255e-01	 1.210737532813943e+01
 2.152803782448625e+00	 4.532764278225183e-01	 1.212489229489408e+01
 2.148653121949561e+00	 4.725606319280197e-01	 1.214272079284241e+01
 2.144318129383923e+00	 4.918573809988733e-01	 1.216092642884117e+01
 2.139797928254151e+00	 5.111642269336595e-01	 1.217955943837056e+01
 2.135091681942417e+00	 5.304786934581538e-01	 1.219865421464593e+01
 2.130198594596674e+00	 5.497982768555406e-01	 1.221822916773264e+01
 2.125117912003289e+00	 5.691204467261443e-01	 1.223828696716422e+01
 2.179172641435220e+00	 3.783252487011745e-01	 1.202959851872250e+01
 2.175731475308716e+00	 3.976381011820653e-01	 1.204653693493498e+01
 2.172108898879127e+00	 4.169731136065745e-01	 1.206356352183417e+01
 2.168303879731180e+00	 4.363279448199909e-01	 1.208077995722676e+01
 2.164315421865436e+00	 4.557002227066737e-01	 1.209827635571917e+01
 2.160142566632590e+00	 4.750875448044404e-01	 1.211612992053429e+01
 2.155784393658457e+00	 4.944874789489699e-01	 1.213440376899926e+01
 2.151240021758591e+00	 5.138975639481856e-01	 1.215314597965559e+01
 2.146508609841527e+00	 5.333153102865574e-01	 1.217238891165581e+01
 2.141589357799564e+00	 5.527382008592209e-01	 1.219214884962045e+01
 2.136481507386073e+00	 5.721636917357722e-01	 1.221242602941425e+01
 2.190763303970788e+00	 3.803374987656328e-01	 1.200580064814499e+01
 2.187303834844904e+00	 3.997530731472648e-01	 1.202235359176754e+01
 2.183661990524289e+00	 4.191909253375335e-01	 1.203903476126893e+01
 2.179836733102411e+00	 4.386487017295332e-01	 1.205594784685425e+01
 2.175827061282260e+00	 4.581240175907501e-01	 1.207318586084462e+01
 2.171632011315628e+00	 4.776144576807235e-01	 1.209082958366730e+01
 2.167250657932995e+00	 4.971175768988718e-01	 1.210894617317897e+01
 2.162682115263034e+00	 5.166309009624644e-01	 1.212758798687154e+01
 2.157925537740637e+00	 5.361519271146702e-01	 1.214679166936843e+01
 2.152980121002456e+00	 5.556781248625806e-01	 1.216657756027706e+01
 2.147845102768857e+00	 5.752069367450671e-01	 1.218694947988689e+01
 2.202353966506389e+00	 3.823497488300930e-01	 1.198462068359649e+01
 2.198876194381117e+00	 4.018680451124413e-01	 1.200058738752715e+01
 2.195215082169469e+00	 4.214087370684362e-01	 1.201670090636228e+01
 2.191369586473652e+00	 4.409694586389781e-01	 1.203307359991922e+01
 2.187338700699093e+00	 4.605478124746853e-01	 1.204980800952098e+01
 2.183121455998670e+00	 4.801413705568197e-01	 1.206699507782966e+01
 2.178716922207537e+00	 4.997476748485428e-01	 1.208471252090872e+01
 2.174124208767478e+00	 5.193642379764731e-01	 1.210302340371492e+01
 2.169342465639748e+00	 5.389885439424804e-01	 1.212197497323502e+01
 2.164370884205347e+00	 5.586180488656161e-01	 1.214159780629218e+01
 2.159208698151642e+00	 5.782501817540291e-01	 1.216190533161525e+01
 2.213944629041991e+00	 3.843619988944719e-01	 1.196625475639440e+01
 2.210448553917332e+00	 4.039830170775099e-01	 1.198144044509709e+01
 2.206768173814649e+00	 4.236265487992005e-01	 1.199676566085441e+01
 2.202902439844895e+00	 4.432902155482523e-01	 1.201235806560739e+01
 2.198850340115925e+00	 4.629716073584162e-01	 1.202833634205131e+01
 2.194610900681712e+00	 4.826682834326795e-01	 1.204480816676840e+01
 2.190183186482078e+00	 5.023777727979473e-01	 1.206186832369306e+01
 2.185566302271921e+00	 5.220975749901888e-01	 1.207959701081958e+01
 2.180759393538859e+00	 5.418251607699774e-01	 1.209805839623760e+01
 2.175761647408239e+00	 5.615579728683241e-01	 1.211729948254734e+01
 2.170572293534426e+00	 5.812934267626582e-01	 1.213734934142615e+01
 2.225535291577557e+00	 3.863742489586868e-01	 1.195060782528362e+01
 2.222020913453520e+00	 4.060979890423855e-01	 1.196512091200215e+01
 2.218321265459812e+00	 4.258443605297446e-01	 1.197943877658511e+01
 2.214435293216125e+00	 4.456109724572817e-01	 1.199400818641930e+01
 2.210361979532751e+00	 4.653954022418809e-01	 1.200897056321614e+01
 2.206100345364749e+00	 4.851951963082535e-01	 1.202445688008806e+01
 2.201649450756616e+00	 5.050078707470496e-01	 1.204058549483528e+01
 2.197008395776363e+00	 5.248309120035896e-01	 1.205746016553024e+01
 2.192176321437969e+00	 5.446617775971496e-01	 1.207516830641862e+01
 2.187152410611130e+00	 5.644978968707013e-01	 1.209377954528632e+01
 2.181935888917211e+00	 5.843366717709539e-01	 1.211334464631743e+01
 2.237125954113055e+00	 3.883864990226553e-01	 1.193284929895919e+01
 2.233593272989659e+00	 4.082129610069832e-01	 1.194834215650508e+01
 2.229874357104939e+00	 4.280621722599871e-01	 1.196333131689424e+01
 2.225968146587332e+00	 4.479317293659930e-01	 1.197784646616896e+01
 2.221873618949560e+00	 4.678191971250160e-01	 1.199191636559415e+01
 2.217589790047778e+00	 4.877221091834920e-01	 1.200613531121055e+01
 2.213115715031151e+00	 5.076379686958142e-01	 1.202104211994363e+01
 2.208450489280803e+00	 5.275642490166526e-01	 1.203677054283945e+01
 2.203593249337080e+00	 5.474983944239856e-01	 1.205343757611290e+01
 2.198543173814021e+00	 5.674378208727441e-01	 1.207114168748817e+01
 2.193299484299995e+00	 5.873799167789164e-01	 1.208996140280074e+01
 2.248716616648450e+00	 3.903987490862945e-01	 1.191135538416722e+01
 2.245165632525722e+00	 4.103279329712173e-01	 1.192757897680355e+01
 2.241427448750013e+00	 4.302799839898463e-01	 1.194338930617101e+01
 2.237500999958503e+00	 4.502524862743121e-01	 1.195882784219517e+01
 2.233385258366349e+00	 4.702429920077595e-01	 1.197393186276656e+01
 2.229079234730794e+00	 4.902490220583459e-01	 1.198873446634775e+01
 2.224581979305677e+00	 5.102680666442053e-01	 1.200326465203665e+01
 2.219892582785241e+00	 5.302975860293554e-01	 1.201769187744501e+01
 2.215010177236189e+00	 5.503350112504741e-01	 1.203300529282042e+01
 2.209933937016912e+00	 5.703777448744491e-01	 1.204949601645990e+01
 2.204663079682779e+00	 5.904231617865453e-01	 1.206727642910335e+01
 2.260307279183708e+00	 3.924109991495220e-01	 1.188630024712212e+01
 2.256737992061686e+00	 4.124429049350039e-01	 1.190299259050733e+01
 2.252980540395017e+00	 4.324977957192407e-01	 1.191935508860399e+01
 2.249033853329628e+00	 4.525732431821655e-01	 1.193544599283399e+01
 2.244896897783106e+00	 4.726667868900488e-01	 1.195131868351072e+01
 2.240568679413793e+00	 4.927759349327657e-01	 1.196702164067108e+01
 2.236048243580198e+00	 5.128981645921877e-01	 1.198259848396100e+01
 2.231334676289676e+00	 5.330309230416758e-01	 1.199808808411234e+01
 2.226427105135298e+00	 5.531716280766042e-01	 1.201352474831714e+01
 2.221324700219804e+00	 5.733176688758135e-01	 1.202895873356895e+01
 2.216026675065565e+00	 5.934664067938409e-01	 1.204537285012539e+01
 2.102390721237720e+00	 5.630339567058911e-01	 1.229101087755891e+01
 2.097178081636744e+00	 5.821495146883980e-01	 1.231017114113491e+01
 2.091778490449427e+00	 6.012625503914667e-01	 1.232843646699502e+01
 2.086191332895567e+00	 6.203704877763986e-01	 1.234595050295401e+01
 2.080416038693782e+00	 6.394707277744834e-01	 1.236285066865386e+01
 2.074452082840105e+00	 6.585606491810990e-01	 1.237927133569095e+01
 2.068298986366972e+00	 6.776376095772416e-01	 1.239534771287397e+01
 2.061956317081577e+00	 6.966989462780632e-01	 1.241122049144324e+01
 2.055423690282554e+00	 7.157419773079460e-01	 1.242704130428411e+01
 2.048700769453971e+00	 7.347640024016007e-01	 1.244297905192420e+01
 2.041787266935640e+00	 7.537623040306431e-01	 1.245907156864272e+01
 2.113754316620504e+00	 5.660772017161841e-01	 1.226449239059682e+01
 2.108513502272252e+00	 5.852960808675308e-01	 1.228395335386549e+01
 2.103084725848876e+00	 6.045124241063392e-01	 1.230246253213810e+01
 2.097467369247245e+00	 6.237236414701983e-01	 1.232017840572256e+01
 2.091660859103569e+00	 6.429271198422059e-01	 1.233725075357358e+01
 2.085664667576199e+00	 6.621202238499000e-01	 1.235382361128095e+01
 2.079478313108722e+00	 6.813002967917740e-01	 1.237003894678655e+01
 2.073101361172303e+00	 7.004646615909365e-01	 1.238604111125059e+01
 2.066533424986241e+00	 7.196106217754579e-01	 1.240198212173544e+01
 2.059774166215718e+00	 7.387354624848811e-01	 1.241802783116155e+01
 2.052823295645728e+00	 7.578364515023451e-01	 1.243415116884947e+01
 2.125117912003289e+00	 5.691204467261443e-01	 1.223828696716422e+01
 2.119848922907758e+00	 5.884426470463442e-01	 1.225802770781872e+01
 2.114390961248323e+00	 6.077622978209333e-01	 1.227677587792454e+01
 2.108743405598922e+00	 6.270767951637815e-01	 1.229469978958546e+01
 2.102905679513356e+00	 6.463835119097877e-01	 1.231195681943532e+01
 2.096877252312293e+00	 6.656797985186452e-01	 1.232869614301344e+01
 2.090657639850471e+00	 6.849629840063356e-01	 1.234506219925504e+01
 2.084246405263029e+00	 7.042303769039190e-01	 1.236119894516815e+01
 2.077643159689928e+00	 7.234792662431473e-01	 1.237725496006443e+01
 2.070847562977466e+00	 7.427069225683876e-01	 1.239338731857804e+01
 2.063859324355815e+00	 7.619105989742955e-01	 1.240952596810422e+01
 2.136481507386073e+00	 5.721636917357722e-01	 1.221242602941425e+01
 2.131184343543266e+00	 5.915892132248358e-01	 1.223239032737453e+01
 2.125697196647771e+00	 6.110121715352393e-01	 1.225134213466863e+01
 2.120019441950600e+00	 6.304299488571278e-01	 1.226945479261627e+01
 2.114150499923141e+00	 6.498399039771960e-01	 1.228688870973246e+01
 2.108089837048387e+00	 6.692393731872879e-01	 1.230379387043911e+01
 2.101836966592222e+00	 6.886256712208673e-01	 1.232031308605812e+01
 2.095391449353754e+00	 7.079960922169398e-01	 1.233658605087199e+01
 2.088752894393615e+00	 7.273479107109336e-01	 1.235275426538323e+01
 2.081920959739212e+00	 7.466783826520358e-01	 1.236895262765580e+01
 2.074895353065903e+00	 7.659847464464110e-01	 1.238512215487450e+01
 2.147845102768857e+00	 5.752069367450671e-01	 1.218694947988689e+01
 2.142519764178773e+00	 5.947357794030030e-01	 1.220704621390879e+01
 2.137003432047219e+00	 6.142620452492477e-01	 1.222613607541477e+01
 2.131295478302277e+00	 6.337831025502172e-01	 1.224439283109242e+01
 2.125395320332928e+00	 6.532962960443991e-01	 1.226197555209052e+01
 2.119302421784480e+00	 6.727989478557813e-01	 1.227903089443284e+01
 2.113016293333972e+00	 6.922883584353089e-01	 1.229569613365187e+01
 2.106536493444480e+00	 7.117618075299271e-01	 1.231210301920807e+01
 2.099862629097302e+00	 7.312165551787368e-01	 1.232838251365833e+01
 2.092994356500960e+00	 7.506498427357404e-01	 1.234464270904473e+01
 2.085931381775992e+00	 7.700588939186089e-01	 1.236086969179982e+01
 2.159208698151642e+00	 5.782501817540291e-01	 1.216190533161525e+01
 2.153855184814280e+00	 5.978823455808435e-01	 1.218200883800879e+01
 2.148309667446667e+00	 6.175119189629487e-01	 1.220114117310852e+01
 2.142571514653954e+00	 6.371362562430298e-01	 1.221947212455827e+01
 2.136640140742714e+00	 6.567526881113629e-01	 1.223715525424755e+01
 2.130515006520575e+00	 6.763585225240792e-01	 1.225432994720392e+01
 2.124195620075723e+00	 6.959510456496003e-01	 1.227112422640787e+01
 2.117681537535205e+00	 7.155275228428090e-01	 1.228765840194112e+01
 2.110972363800989e+00	 7.350851996464769e-01	 1.230404962233518e+01
 2.104067753262707e+00	 7.546213028194173e-01	 1.232038312991482e+01
 2.096967410486079e+00	 7.741330413908043e-01	 1.233670199986039e+01
 2.170572293534426e+00	 5.812934267626582e-01	 1.213734934142615e+01
 2.165190605449787e+00	 6.010289117583549e-01	 1.215729973558340e+01
 2.159615902846115e+00	 6.207617926763336e-01	 1.217634916226956e+01
 2.153847551005632e+00	 6.404894099355453e-01	 1.219465922590165e+01
 2.147884961152501e+00	 6.602090801780552e-01	 1.221237400546102e+01
 2.141727591256669e+00	 6.799180971921350e-01	 1.222962186804626e+01
 2.135374946817472e+00	 6.996137328636814e-01	 1.224651805980398e+01
 2.128826581625930e+00	 7.192932381555143e-01	 1.226316814556541e+01
 2.122082098504676e+00	 7.389538441140727e-01	 1.227967236802982e+01
 2.115141150024454e+00	 7.585927629029811e-01	 1.229610309142973e+01
 2.108003439196168e+00	 7.782071888629152e-01	 1.231255564830354e+01
 2.181935888917211e+00	 5.843366717709539e-01	 1.211334464631743e+01
 2.176526026085295e+00	 6.041754779355353e-01	 1.213294810772672e+01
 2.170922138245563e+00	 6.240116663893918e-01	 1.215175960500336e+01
 2.165123587357309e+00	 6.438425636277439e-01	 1.216992855626069e+01
 2.159129781562288e+00	 6.636654722444431e-01	 1.218758578314357e+01
 2.152940175992763e+00	 6.834776718599017e-01	 1.220484508461962e+01
 2.146554273559222e+00	 7.032764200774926e-01	 1.222180559935047e+01
 2.139971625716656e+00	 7.230589534679711e-01	 1.223855503095647e+01
 2.133191833208363e+00	 7.428224885814448e-01	 1.225517359175377e+01
 2.126214546786201e+00	 7.625642229863471e-01	 1.227173512304730e+01
 2.119039467906256e+00	 7.822813363348573e-01	 1.228837005011739e+01
 2.193299484299995e+00	 5.873799167789164e-01	 1.208996140280074e+01
 2.187861446720801e+00	 6.073220441123809e-01	 1.210899042419883e+01
 2.182228373645010e+00	 6.272615401021149e-01	 1.212737946119331e+01
 2.176399623708986e+00	 6.471957173196052e-01	 1.214526194458668e+01
 2.170374601972074e+00	 6.671218643104933e-01	 1.216275186453774e+01
 2.164152760728857e+00	 6.870372465273334e-01	 1.217994509956107e+01
 2.157733600300973e+00	 7.069391072909739e-01	 1.219692154504363e+01
 2.151116669807382e+00	 7.268246687801081e-01	 1.221374811865224e+01
 2.144301567912049e+00	 7.466911330485119e-01	 1.223048294940518e+01
 2.137287943547947e+00	 7.665356830694310e-01	 1.224721478235980e+01
 2.130075496616343e+00	 7.863554838065470e-01	 1.226408716285121e+01
 2.204663079682779e+00	 5.904231617865453e-01	 1.206727642910335e+01
 2.199196867356308e+00	 6.104686102888907e-01	 1.208547003039266e+01
 2.193534609044458e+00	 6.305114138144927e-01	 1.210322266272315e+01
 2.187675660060663e+00	 6.505488710111096e-01	 1.212064817169398e+01
 2.181619422381860e+00	 6.705782563761734e-01	 1.213784034324834e+01
 2.175365345464952e+00	 6.905968211943828e-01	 1.215487398223456e+01
 2.168912927042723e+00	 7.106017945040651e-01	 1.217180680114763e+01
 2.162261713898108e+00	 7.305903840918534e-01	 1.218868219956012e+01
 2.155411302615736e+00	 7.505597775151940e-01	 1.220553795000699e+01
 2.148361340309695e+00	 7.705071431521482e-01	 1.222248036027376e+01
 2.141111525326431e+00	 7.904296312779013e-01	 1.223965119458896e+01
 2.216026675065565e+00	 5.934664067938409e-01	 1.204537285012539e+01
 2.210532287991817e+00	 6.136151764650616e-01	 1.206243675766297e+01
 2.204840844443907e+00	 6.337612875265163e-01	 1.207930969158484e+01
 2.198951696412342e+00	 6.539020247022370e-01	 1.209608251863667e+01
 2.192864242791646e+00	 6.740346484414506e-01	 1.211282565045755e+01
 2.186577930201046e+00	 6.941563958610044e-01	 1.212958986543420e+01
 2.180092253784474e+00	 7.142644817167068e-01	 1.214640795111314e+01
 2.173406757988834e+00	 7.343560994031355e-01	 1.216329725089601e+01
 2.166521037319425e+00	 7.544284219814117e-01	 1.218027927590834e+01
 2.159434737071443e+00	 7.744786032344135e-01	 1.219747259133806e+01
 2.152147554036520e+00	 7.945037787488365e-01	 1.221500831489115e+01
 2.041787266935640e+00	 7.537623040306431e-01	 1.245907156864272e+01
 2.034681720296674e+00	 7.727373713083103e-01	 1.247494657231042e+01
 2.027385099413437e+00	 7.916832211996929e-01	 1.249047750720850e+01
 2.019897265527114e+00	 8.105970884410222e-01	 1.250554656520847e+01
 2.012218131196559e+00	 8.294761948094564e-01	 1.252000871144050e+01
 2.004347660837330e+00	 8.483177502685121e-01	 1.253369348041484e+01
 1.996285871231303e+00	 8.671189541348516e-01	 1.254640716329679e+01
 1.988032832005955e+00	 8.858769962655885e-01	 1.255793540282903e+01
 1.979588666082477e+00	 9.045890582652273e-01	 1.256804621087317e+01
 1.970953550091872e+00	 9.232523147113274e-01	 1.257649342183996e+01
 1.962127714758247e+00	 9.418639343979274e-01	 1.258302059339729e+01
 2.052823295645728e+00	 7.578364515023451e-01	 1.243415116884947e+01
 2.045679342940829e+00	 7.769140805847754e-01	 1.245009198160504e+01
 2.038343283219642e+00	 7.959623343584754e-01	 1.246571291208348e+01
 2.030814976973337e+00	 8.149784326132097e-01	 1.248088166295398e+01
 2.023094336288130e+00	 8.339595821096257e-01	 1.249543858058921e+01
 2.015181325387231e+00	 8.529029777308761e-01	 1.250919843923881e+01
 2.007075961143213e+00	 8.718058036557115e-01	 1.252195262610864e+01
 1.998778313559882e+00	 8.906652345522039e-01	 1.253347174465712e+01
 1.990288506222822e+00	 9.094784367912130e-01	 1.254350865186812e+01
 1.981606716717726e+00	 9.282425696786688e-01	 1.255180194352111e+01
 1.972733177015774e+00	 9.469547867057219e-01	 1.255807989955613e+01
 2.063859324355815e+00	 7.619105989742955e-01	 1.240952596810422e+01
 2.056676965584986e+00	 7.810907898614818e-01	 1.242553304641931e+01
 2.049301467025846e+00	 8.002414475174638e-01	 1.244125061535840e+01
 2.041732688419556e+00	 8.193597767855478e-01	 1.245653438137280e+01
 2.033970541379689e+00	 8.384429694098768e-01	 1.247121236147773e+01
 2.026014989937112e+00	 8.574882051932458e-01	 1.248508664642412e+01
 2.017866051055089e+00	 8.764926531765002e-01	 1.249793557489880e+01
 2.009523795113761e+00	 8.954534728386787e-01	 1.250951633692385e+01
 2.000988346363092e+00	 9.143678153169997e-01	 1.251956802304339e+01
 1.992259883343473e+00	 9.332328246457730e-01	 1.252781513410899e+01
 1.983338639273152e+00	 9.520456390132667e-01	 1.253397156450989e+01
 2.074895353065903e+00	 7.659847464464110e-01	 1.238512215487450e+01
 2.067674588229141e+00	 7.852674991383524e-01	 1.240120671443201e+01
 2.060259650832049e+00	 8.045205606765958e-01	 1.241703589823435e+01
 2.052650399865770e+00	 8.237411209579922e-01	 1.243245591136979e+01
 2.044846746471242e+00	 8.429263567101865e-01	 1.244728473320647e+01
 2.036848654486977e+00	 8.620734326556199e-01	 1.246131385038596e+01
 2.028656140966938e+00	 8.811795026972392e-01	 1.247431041134136e+01
 2.020269276667594e+00	 9.002417111250541e-01	 1.248601982141125e+01
 2.011688186503293e+00	 9.192571938426473e-01	 1.249616879600756e+01
 2.002913049969123e+00	 9.382230796127137e-01	 1.250446888748195e+01
 1.993944101530399e+00	 9.571364913206455e-01	 1.251062049932300e+01
 2.085931381775992e+00	 7.700588939186089e-01	 1.236086969179982e+01
 2.078672210873296e+00	 7.894442084153122e-01	 1.237705318361236e+01
 2.071217834638251e+00	 8.087996738358088e-01	 1.239301682705433e+01
 2.063568111311982e+00	 8.281224651304984e-01	 1.240859982421547e+01
 2.055722951562787e+00	 8.474097440105300e-01	 1.242361241242682e+01
 2.047682319036829e+00	 8.666586601179966e-01	 1.243783755777506e+01
 2.039446230878762e+00	 8.858663522179491e-01	 1.245103308101090e+01
 2.031014758221386e+00	 9.050299494113715e-01	 1.246293423586743e+01
 2.022388026643438e+00	 9.241465723682164e-01	 1.247325675815899e+01
 2.013566216594690e+00	 9.432133345795660e-01	 1.248170040217827e+01
 2.004549563787530e+00	 9.622273436279400e-01	 1.248795297885334e+01
 2.096967410486079e+00	 7.741330413908043e-01	 1.233670199986039e+01
 2.089669833517451e+00	 7.936209176922858e-01	 1.235301558901288e+01
 2.082176018444452e+00	 8.130787869950411e-01	 1.236914394132951e+01
 2.074485822758191e+00	 8.325038093030221e-01	 1.238492175940532e+01
 2.066599156654325e+00	 8.518931313108841e-01	 1.240015383962758e+01
 2.058515983586667e+00	 8.712438875803743e-01	 1.241461671677875e+01
 2.050236320790566e+00	 8.905532017386504e-01	 1.242806075228024e+01
 2.041760239775146e+00	 9.098181876976732e-01	 1.244021268707971e+01
 2.033087866783531e+00	 9.290359508937668e-01	 1.245077867850793e+01
 2.024219383220185e+00	 9.482035895464036e-01	 1.245944783853912e+01
 2.015155026044564e+00	 9.673181959352343e-01	 1.246589628878669e+01
 2.108003439196168e+00	 7.782071888629152e-01	 1.231255564830354e+01
 2.100667456161606e+00	 7.977976269691975e-01	 1.232903969508067e+01
 2.093134202250653e+00	 8.173579001542303e-01	 1.234536994708787e+01
 2.085403534204398e+00	 8.368851534755184e-01	 1.236137911769285e+01
 2.077475361745859e+00	 8.563765186112248e-01	 1.237686887049161e+01
 2.069349648136496e+00	 8.758291150427517e-01	 1.239161140543534e+01
 2.061026410702351e+00	 8.952400512593637e-01	 1.240535150022226e+01
 2.052505721328878e+00	 9.146064259840002e-01	 1.241780902898900e+01
 2.043787706923583e+00	 9.339253294193584e-01	 1.242868197862658e+01
 2.034872549845620e+00	 9.531938445133008e-01	 1.243764998111447e+01
 2.025760488301515e+00	 9.724090482426103e-01	 1.244437837811686e+01
 2.119039467906256e+00	 7.822813363348573e-01	 1.228837005011739e+01
 2.111665078805762e+00	 8.019743362459711e-01	 1.230507359328440e+01
 2.104092386056853e+00	 8.216370133133141e-01	 1.232164941535175e+01
 2.096321245650603e+00	 8.412664976479426e-01	 1.233793075910682e+01
 2.088351566837388e+00	 8.608599059115288e-01	 1.235371847213740e+01
 2.080183312686316e+00	 8.804143425051268e-01	 1.236878252477929e+01
 2.071816500614122e+00	 8.999269007801095e-01	 1.238286399533337e+01
 2.063251202882588e+00	 9.193946642703950e-01	 1.239567754566306e+01
 2.054487547063601e+00	 9.388147079450511e-01	 1.240691440854055e+01
 2.045525716471008e+00	 9.581840994803325e-01	 1.241624590613972e+01
 2.036365950558401e+00	 9.774999005501516e-01	 1.242332751687319e+01
 2.130075496616343e+00	 7.863554838065470e-01	 1.226408716285121e+01
 2.122662701449917e+00	 8.061510455225310e-01	 1.228106740486522e+01
 2.115050569863053e+00	 8.259161264722303e-01	 1.229793848555737e+01
 2.107238957096807e+00	 8.456478418202510e-01	 1.231453670577246e+01
 2.099227771928914e+00	 8.653432932117714e-01	 1.233066442406865e+01
 2.091016977236131e+00	 8.849995699674982e-01	 1.234609149664141e+01
 2.082606590525884e+00	 9.046137503009094e-01	 1.236055719690310e+01
 2.073996684436279e+00	 9.241829025568986e-01	 1.237377263895099e+01
 2.065187387203594e+00	 9.437040864709049e-01	 1.238542372738196e+01
 2.056178883096360e+00	 9.631743544475717e-01	 1.239517465389862e+01
 2.046971412815237e+00	 9.825907528579407e-01	 1.240267195890471e+01
 2.141111525326431e+00	 7.904296312779013e-01	 1.223965119458896e+01
 2.133660324094072e+00	 8.103277547988020e-01	 1.225697298852590e+01
 2.126008753669252e+00	 8.301952396309167e-01	 1.227419457373873e+01
 2.118156668543010e+00	 8.500291859923989e-01	 1.229115784936279e+01
 2.110103977020438e+00	 8.698266805119291e-01	 1.230766902366148e+01
 2.101850641785941e+00	 8.895847974298635e-01	 1.232349996593634e+01
 2.093396680437638e+00	 9.093005998217829e-01	 1.233839005086238e+01
 2.084742165989961e+00	 9.289711408435533e-01	 1.235204852065086e+01
 2.075887227343570e+00	 9.485934649969803e-01	 1.236415738863193e+01
 2.066832049721688e+00	 9.681646094150937e-01	 1.237437490579658e+01
 2.057576875072040e+00	 9.876816051660610e-01	 1.238233960953822e+01
 2.152147554036520e+00	 7.945037787488365e-01	 1.221500831489115e+01
 2.144657946738228e+00	 8.145044640747083e-01	 1.223274365288127e+01
 2.136966937475452e+00	 8.344743527893113e-01	 1.225037608530406e+01
 2.129074379989214e+00	 8.544105301643420e-01	 1.226775566301393e+01
 2.120980182111962e+00	 8.743100678119787e-01	 1.228469479602663e+01
 2.112684306335750e+00	 8.941700248922227e-01	 1.230096950727578e+01
 2.104186770349388e+00	 9.139874493427518e-01	 1.231632119194972e+01
 2.095487647543637e+00	 9.337593791304005e-01	 1.233045890902742e+01
 2.086587067483539e+00	 9.534828435233371e-01	 1.234306222978826e+01
 2.077485216347004e+00	 9.731548643829726e-01	 1.235378466597443e+01
 2.068182337328828e+00	 9.927724574745949e-01	 1.236225769793510e+01
 1.962127714758247e+00	 9.418639343979274e-01	 1.258302059339729e+01
 1.953112993780966e+00	 9.604179318537284e-01	 1.258767274318947e+01
 1.943908241738054e+00	 9.789146368154056e-01	 1.259074250576905e+01
 1.934513852013791e+00	 9.973512087727491e-01	 1.259236872932818e+01
 1.924930273246052e+00	 1.015724806528408e+00	 1.259273725805715e+01
 1.915158009535952e+00	 1.034032589513948e+00	 1.259208702611893e+01
 1.905197620620626e+00	 1.052271719117264e+00	 1.259071656487727e+01
 1.895049722008594e+00	 1.070439360020153e+00	 1.258899091676879e+01
 1.884714985077202e+00	 1.088532681544849e+00	 1.258734894627743e+01
 1.874194137131692e+00	 1.106548859008267e+00	 1.258631103545035e+01
 1.863487961425465e+00	 1.124485075082724e+00	 1.258658778765504e+01
 1.972733177015774e+00	 9.469547867057219e-01	 1.255807989955613e+01
 1.963669730727616e+00	 9.656090700491167e-01	 1.256260694779149e+01
 1.954415226240183e+00	 9.842057512277784e-01	 1.256588819706534e+01
 1.944970059064035e+00	 1.002741974378295e+00	 1.256803127890820e+01
 1.935334680261980e+00	 1.021214882946401e+00	 1.256918325528477e+01
 1.925509596659849e+00	 1.039621621010146e+00	 1.256953676557088e+01
 1.915495371020207e+00	 1.057959334614483e+00	 1.256933661270877e+01
 1.905292622178457e+00	 1.076225173116072e+00	 1.256888678238644e+01
 1.894902025140802e+00	 1.094416290537089e+00	 1.256855788604858e+01
 1.884324311143638e+00	 1.112529846926797e+00	 1.256879678542615e+01
 1.873560267673920e+00	 1.130563009729613e+00	 1.257040352457128e+01
 1.983338639273152e+00	 9.520456390132667e-01	 1.253397156450988e+01
 1.974226467674069e+00	 9.708002082442748e-01	 1.253846744457559e+01
 1.964922210742062e+00	 9.894968656399666e-01	 1.254196707429599e+01
 1.955426266113973e+00	 1.008132739983724e+00	 1.254454854478574e+01
 1.945739087277546e+00	 1.026704959364360e+00	 1.254632236126591e+01
 1.935861183783333e+00	 1.045210652506403e+00	 1.254743764593778e+01
 1.925793121419333e+00	 1.063646950111858e+00	 1.254808880564597e+01
 1.915535522347837e+00	 1.082010986212242e+00	 1.254852265863716e+01
 1.905089065203905e+00	 1.100299899529668e+00	 1.254904601157405e+01
 1.894454485155090e+00	 1.118510834845738e+00	 1.255008920241315e+01
 1.883632573921909e+00	 1.136640944376966e+00	 1.255251664174041e+01
 1.993944101530399e+00	 9.571364913206455e-01	 1.251062049932300e+01
 1.984783204620348e+00	 9.759913464392869e-01	 1.251517200566886e+01
 1.975429195243717e+00	 9.947879800520512e-01	 1.251889986221298e+01
 1.965882473163637e+00	 1.013523505589108e+00	 1.252185429522690e+01
 1.956143494292790e+00	 1.032195035782345e+00	 1.252411146827507e+01
 1.946212770906448e+00	 1.050799684002764e+00	 1.252577974373456e+01
 1.936090871818053e+00	 1.069334565609418e+00	 1.252700643441917e+01
 1.925778422516779e+00	 1.087796799308674e+00	 1.252798504007969e+01
 1.915276105266555e+00	 1.106183508522578e+00	 1.252896296029692e+01
 1.904584659166089e+00	 1.124491822765069e+00	 1.253045372671644e+01
 1.893704880169463e+00	 1.142718879024751e+00	 1.253325557023677e+01
 2.004549563787530e+00	 9.622273436279400e-01	 1.248795297885334e+01
 1.995339941566475e+00	 9.811824846342388e-01	 1.249263976535543e+01
 1.985936179745177e+00	 1.000079094464114e+00	 1.249660845416739e+01
 1.976338680213062e+00	 1.018914271194520e+00	 1.249988308263734e+01
 1.966547901307751e+00	 1.037685112200416e+00	 1.250250767849283e+01
 1.956564358029239e+00	 1.056388715499274e+00	 1.250455258260884e+01
 1.946388622216412e+00	 1.075022181107189e+00	 1.250612128691670e+01
 1.936021322685333e+00	 1.093582612405378e+00	 1.250735778269694e+01
 1.925463145328798e+00	 1.112067117515816e+00	 1.250845563632233e+01
 1.914714833176678e+00	 1.130472810684770e+00	 1.251012966254988e+01
 1.903777186416617e+00	 1.148796813672935e+00	 1.251293590879326e+01
 2.015155026044564e+00	 9.673181959352343e-01	 1.246589628878669e+01
 2.005896678512470e+00	 9.863736228292147e-01	 1.247079085905015e+01
 1.996443164246470e+00	 1.005370208876235e+00	 1.247501554854860e+01
 1.986794887262281e+00	 1.024305036800032e+00	 1.247856988299280e+01
 1.976952308322466e+00	 1.043175188618633e+00	 1.248146795194855e+01
 1.966915945151750e+00	 1.061977746995977e+00	 1.248374479530774e+01
 1.956686372614456e+00	 1.080709796605201e+00	 1.248546332967456e+01
 1.946264222853545e+00	 1.099368425502365e+00	 1.248672181038984e+01
 1.935650185390682e+00	 1.117950726509373e+00	 1.248772794571890e+01
 1.924845007186896e+00	 1.136453798604820e+00	 1.248934524378413e+01
 1.913849492663404e+00	 1.154874748321484e+00	 1.249186062656815e+01
 2.025760488301515e+00	 9.724090482426103e-01	 1.244437837811686e+01
 2.016453415458355e+00	 9.915647610242995e-01	 1.244954606784155e+01
 2.006950148747623e+00	 1.010661323288495e+00	 1.245404429074669e+01
 1.997251094311327e+00	 1.029695802405717e+00	 1.245784974057732e+01
 1.987356715336977e+00	 1.048665265037056e+00	 1.246094875938716e+01
 1.977267532274021e+00	 1.067566778492917e+00	 1.246334379001718e+01
 1.966984123012234e+00	 1.086397412103480e+00	 1.246506039301994e+01
 1.956507123021465e+00	 1.105154238599646e+00	 1.246615482423908e+01
 1.945837225452250e+00	 1.123834335503245e+00	 1.246696285370845e+01
 1.934975181196787e+00	 1.142434786525198e+00	 1.246831779058542e+01
 1.923921798909858e+00	 1.160952682970366e+00	 1.247032026505865e+01
 2.036365950558401e+00	 9.774999005501516e-01	 1.242332751687319e+01
 2.027010152404154e+00	 9.967558992195787e-01	 1.242882646840048e+01
 2.017457133248665e+00	 1.015952437700977e+00	 1.243361792043582e+01
 2.007707301360235e+00	 1.035086568011646e+00	 1.243765741783551e+01
 1.997761122351320e+00	 1.054155341455744e+00	 1.244090573988027e+01
 1.987619119396098e+00	 1.073155809990141e+00	 1.244333542091437e+01
 1.977281873409790e+00	 1.092085027602056e+00	 1.244493785973487e+01
 1.966750023189138e+00	 1.110940051697232e+00	 1.244573101443450e+01
 1.956024265513550e+00	 1.129717944497425e+00	 1.244630414004351e+01
 1.945105355206391e+00	 1.148415774445882e+00	 1.244725386656014e+01
 1.933994105156013e+00	 1.167030617619549e+00	 1.244859313919259e+01
 2.046971412815237e+00	 9.825907528579407e-01	 1.240267195890471e+01
 2.037566889349888e+00	 1.001947037415137e+00	 1.240855308805954e+01
 2.027964117749621e+00	 1.021243552113760e+00	 1.241365942398576e+01
 2.018163508409038e+00	 1.040477333617892e+00	 1.241792705015327e+01
 2.008165529365536e+00	 1.059645417874757e+00	 1.242129336300952e+01
 1.997970706518026e+00	 1.078744841487692e+00	 1.242370366277985e+01
 1.987579623807170e+00	 1.097772643100954e+00	 1.242511835711228e+01
 1.976992923356612e+00	 1.116725864795133e+00	 1.242557153257253e+01
 1.966211305574629e+00	 1.135601553491907e+00	 1.242588623573021e+01
 1.955235529215751e+00	 1.154396762366854e+00	 1.242634943638772e+01
 1.944066411401902e+00	 1.173108552268999e+00	 1.242694553762803e+01
 2.057576875072040e+00	 9.876816051660610e-01	 1.238233960953822e+01
 2.048123626295577e+00	 1.007138175611059e+00	 1.238864656487662e+01
 2.038471102250521e+00	 1.026534666526927e+00	 1.239409119181597e+01
 2.028619715457769e+00	 1.045868099224527e+00	 1.239859180538810e+01
 2.018569936379664e+00	 1.065135494294154e+00	 1.240206459545632e+01
 2.008322293639845e+00	 1.084333872985614e+00	 1.240443028952262e+01
 1.997877374204422e+00	 1.103460258600203e+00	 1.240562145228132e+01
 1.987235823523935e+00	 1.122511677893359e+00	 1.240580350026801e+01
 1.976398345635531e+00	 1.141485162486686e+00	 1.240583434414537e+01
 1.965365703224908e+00	 1.160377750288090e+00	 1.240579002392380e+01
 1.954138717647560e+00	 1.179186486918684e+00	 1.240563192228990e+01
 2.068182337328828e+00	 9.927724574745949e-01	 1.236225769793510e+01
 2.058680363241245e+00	 1.012329313807431e+00	 1.236902681250325e+01
 2.048978086751394e+00	 1.031825780940557e+00	 1.237483468051461e+01
 2.039075922506463e+00	 1.051258864831625e+00	 1.237958354797906e+01
 2.028974343393743e+00	 1.070625570713998e+00	 1.238317057183992e+01
 2.018673880761600e+00	 1.089922904483952e+00	 1.238549455647728e+01
 2.008175124601594e+00	 1.109147874099833e+00	 1.238646335068460e+01
 1.997478723691154e+00	 1.128297490991921e+00	 1.238649243995729e+01
 1.986585385696304e+00	 1.147368771481755e+00	 1.238626456365606e+01
 1.975495877233903e+00	 1.166358738209571e+00	 1.238575087075754e+01
 1.964211023893019e+00	 1.185264421568570e+00	 1.238489512717119e+01
 1.863487961425465e+00	 1.124485075082724e+00	 1.258658778765503e+01
 1.852597297591393e+00	 1.142338521517712e+00	 1.258455675704784e+01
 1.841523042926277e+00	 1.160106401599370e+00	 1.257725306218626e+01
 1.830266150927070e+00	 1.177785930493119e+00	 1.256630639435683e+01
 1.818827630697846e+00	 1.195374336265505e+00	 1.255194607216235e+01
 1.807208546768658e+00	 1.212868861256145e+00	 1.253436188567903e+01
 1.795410018874126e+00	 1.230266763448083e+00	 1.251371278838698e+01
 1.783433221691696e+00	 1.247565317835213e+00	 1.249013118717291e+01
 1.771279384539555e+00	 1.264761817785385e+00	 1.246372788320806e+01
 1.758949791034242e+00	 1.281853576397811e+00	 1.243459765108260e+01
 1.746445778708052e+00	 1.298837927853393e+00	 1.240282543894491e+01
 1.873560267673920e+00	 1.130563009729613e+00	 1.257040352457128e+01
 1.862610738902814e+00	 1.148512955516198e+00	 1.256962040583985e+01
 1.851476626977081e+00	 1.166376872456224e+00	 1.256245497410636e+01
 1.840158890547399e+00	 1.184151960662858e+00	 1.255060109811136e+01
 1.828658544172135e+00	 1.201835433220125e+00	 1.253548140356795e+01
 1.816976658135210e+00	 1.219424517562265e+00	 1.251731371981896e+01
 1.805114358223499e+00	 1.236916456851500e+00	 1.249628812201783e+01
 1.793072825463675e+00	 1.254308511352848e+00	 1.247257129947869e+01
 1.780853295818487e+00	 1.271597959804595e+00	 1.244631159361406e+01
 1.768457059842527e+00	 1.288782100783039e+00	 1.241764469269984e+01
 1.755885462297556e+00	 1.305858254060117e+00	 1.238669996592571e+01
 1.883632573921909e+00	 1.136640944376966e+00	 1.255251664174041e+01
 1.872624180213818e+00	 1.154687389515176e+00	 1.255248989271176e+01
 1.861430211027540e+00	 1.172647343313577e+00	 1.254611840152242e+01
 1.850051630167477e+00	 1.190517990833084e+00	 1.253381916640341e+01
 1.838489457646276e+00	 1.208296530175203e+00	 1.251758779372779e+01
 1.826744769501726e+00	 1.225980173868801e+00	 1.249858647280300e+01
 1.814818697572954e+00	 1.243566150255282e+00	 1.247703166775712e+01
 1.802712429235853e+00	 1.261051704870794e+00	 1.245311845802242e+01
 1.790427207097734e+00	 1.278434101824060e+00	 1.242702567567896e+01
 1.777964328651231e+00	 1.295710625168468e+00	 1.239892172050099e+01
 1.765325145887574e+00	 1.312878580266992e+00	 1.236897103488230e+01
 1.893704880169463e+00	 1.142718879024751e+00	 1.253325557023677e+01
 1.882637621524428e+00	 1.160861823514606e+00	 1.253356913442719e+01
 1.871383795077664e+00	 1.178917814171383e+00	 1.252767667468270e+01
 1.859944369787291e+00	 1.196884021003748e+00	 1.251595406554657e+01
 1.848320371120238e+00	 1.214757627130691e+00	 1.249893361848004e+01
 1.836512880868155e+00	 1.232535830175709e+00	 1.247886200652499e+01
 1.824523036922419e+00	 1.250215843659393e+00	 1.245662471750299e+01
 1.812352033008139e+00	 1.267794898389017e+00	 1.243243942399893e+01
 1.800001118377180e+00	 1.285270243843751e+00	 1.240650850113562e+01
 1.787471597460223e+00	 1.302639149554075e+00	 1.237902496653184e+01
 1.774764829477958e+00	 1.319898906474002e+00	 1.235017910305437e+01
 1.903777186416617e+00	 1.148796813672935e+00	 1.251293590879326e+01
 1.892651062834666e+00	 1.167036257514448e+00	 1.251324766921451e+01
 1.881337379127458e+00	 1.185188285029597e+00	 1.250757745425609e+01
 1.869837109406830e+00	 1.203250051174802e+00	 1.249629034149701e+01
 1.858151284593991e+00	 1.221218724086542e+00	 1.247978893553914e+01
 1.846280992234448e+00	 1.239091486482945e+00	 1.245880844456382e+01
 1.834227376271821e+00	 1.256865537063790e+00	 1.243573467553213e+01
 1.821991636780437e+00	 1.274538091907484e+00	 1.241118725286434e+01
 1.809575029656713e+00	 1.292106385863642e+00	 1.238538524723690e+01
 1.796978866269370e+00	 1.309567673939837e+00	 1.235853830685843e+01
 1.784204513068556e+00	 1.326919232681130e+00	 1.233085343498807e+01
 1.913849492663404e+00	 1.154874748321484e+00	 1.249186062656815e+01
 1.902664504144553e+00	 1.173210691514659e+00	 1.249190090449580e+01
 1.891290963176929e+00	 1.191458755888172e+00	 1.248625472288728e+01
 1.879729849026086e+00	 1.209616081346201e+00	 1.247527396934679e+01
 1.867982198067503e+00	 1.227679821042710e+00	 1.245934989714567e+01
 1.856049103600550e+00	 1.245647142790466e+00	 1.243891320395474e+01
 1.843931715621086e+00	 1.263515230468435e+00	 1.241501490614837e+01
 1.831631240552654e+00	 1.281281285426161e+00	 1.239000113373008e+01
 1.819148940936219e+00	 1.298942527883703e+00	 1.236426772017786e+01
 1.806486135078538e+00	 1.316496198325734e+00	 1.233803306136121e+01
 1.793644196659219e+00	 1.333939558888358e+00	 1.231151187111327e+01
 1.923921798909858e+00	 1.160952682970366e+00	 1.247032026505865e+01
 1.912677945454111e+00	 1.179385125515198e+00	 1.246989036243283e+01
 1.901244547226085e+00	 1.197729226747062e+00	 1.246412741820303e+01
 1.889622588645045e+00	 1.215982111517895e+00	 1.245336775970381e+01
 1.877813111540746e+00	 1.234140917999149e+00	 1.243798794194400e+01
 1.865817214966412e+00	 1.252202799098228e+00	 1.241840485779881e+01
 1.853636054970145e+00	 1.270164923873289e+00	 1.239507573053861e+01
 1.841270844324695e+00	 1.288024478945012e+00	 1.236950622400445e+01
 1.828722852215582e+00	 1.305778669903906e+00	 1.234375417423175e+01
 1.815993403887596e+00	 1.323424722711742e+00	 1.231806778996044e+01
 1.803083880249798e+00	 1.340959885095671e+00	 1.229266059371791e+01
 1.933994105156013e+00	 1.167030617619549e+00	 1.244859313919259e+01
 1.922691386763363e+00	 1.185559559516026e+00	 1.244756392336993e+01
 1.911198131274931e+00	 1.203999697606223e+00	 1.244159971070672e+01
 1.899515328263698e+00	 1.222348141689837e+00	 1.243101891950874e+01
 1.887644025013688e+00	 1.240602014955811e+00	 1.241618009172024e+01
 1.875585326331982e+00	 1.258758455406186e+00	 1.239748203350500e+01
 1.863340394318922e+00	 1.276814617278312e+00	 1.237536383475716e+01
 1.850910448096468e+00	 1.294767672464004e+00	 1.235031347945569e+01
 1.838296763494688e+00	 1.312614811924224e+00	 1.232442912675759e+01
 1.825500672696408e+00	 1.330353247097839e+00	 1.229918808540413e+01
 1.812523563840144e+00	 1.347980211303051e+00	 1.227479389041481e+01
 1.944066411401902e+00	 1.173108552268999e+00	 1.242694553762803e+01
 1.932704828072329e+00	 1.191733993517100e+00	 1.242525606725025e+01
 1.921151715323477e+00	 1.210270168465609e+00	 1.241906127865238e+01
 1.909408067882032e+00	 1.228714171861980e+00	 1.240865935272379e+01
 1.897474938486298e+00	 1.247063111912650e+00	 1.239438753431903e+01
 1.885353437697208e+00	 1.265314111714297e+00	 1.237662230224042e+01
 1.873044733667344e+00	 1.283464310683464e+00	 1.235577941592576e+01
 1.860550051867877e+00	 1.301510865983104e+00	 1.233231383471482e+01
 1.847870674773423e+00	 1.319450953944627e+00	 1.230686316922865e+01
 1.835007941504842e+00	 1.337281771484003e+00	 1.228192636274296e+01
 1.821963247430106e+00	 1.355000537510481e+00	 1.225839391519304e+01
 1.954138717647560e+00	 1.179186486918684e+00	 1.240563192228990e+01
 1.942718269381033e+00	 1.197908427518378e+00	 1.240328811307903e+01
 1.931105299371725e+00	 1.216540639325172e+00	 1.239688758000791e+01
 1.919300807500039e+00	 1.235080202034276e+00	 1.238670595738439e+01
 1.907305851958547e+00	 1.253524208869619e+00	 1.237305593839240e+01
 1.895121549062040e+00	 1.271869768022517e+00	 1.235628747357395e+01
 1.882749073015340e+00	 1.290114004088706e+00	 1.233678784495799e+01
 1.870189655638830e+00	 1.308254059502276e+00	 1.231498161147428e+01
 1.857444586051673e+00	 1.326287095965088e+00	 1.229133042225157e+01
 1.844515210312767e+00	 1.344210295870212e+00	 1.226680164561345e+01
 1.831402931019537e+00	 1.362020863717945e+00	 1.224393044714137e+01
 1.964211023893019e+00	 1.185264421568570e+00	 1.238489512717119e+01
 1.952731710689496e+00	 1.204082861519823e+00	 1.238196845650360e+01
 1.941058883419687e+00	 1.222811110184868e+00	 1.237544012161193e+01
 1.929193547117707e+00	 1.241446232206679e+00	 1.236556091914425e+01
 1.917136765430405e+00	 1.259985305826672e+00	 1.235261576416495e+01
 1.904889660426426e+00	 1.278425424330803e+00	 1.233692391631862e+01
 1.892453412362837e+00	 1.296763697493999e+00	 1.231883908173531e+01
 1.879829259409232e+00	 1.314997253021487e+00	 1.229874938608061e+01
 1.867018497329324e+00	 1.333123237985579e+00	 1.227707721514381e+01
 1.854022479120047e+00	 1.351138820256444e+00	 1.225427892040784e+01
 1.840842614608285e+00	 1.369041189925426e+00	 1.223186064692858e+01
 1.746445778708052e+00	 1.298837927853393e+00	 1.240282543894490e+01
 1.733766569921580e+00	 1.315715086453082e+00	 1.237015923583516e+01
 1.720915726459082e+00	 1.332479526478090e+00	 1.233792685600904e+01
 1.707894752875131e+00	 1.349128642376694e+00	 1.230554293349143e+01
 1.694705205781814e+00	 1.365659854955533e+00	 1.227240306819662e+01
 1.681348693265214e+00	 1.382070612679982e+00	 1.223789353134268e+01
 1.667826874263298e+00	 1.398358392959293e+00	 1.220140145153663e+01
 1.654141457905676e+00	 1.414520703415176e+00	 1.216232543222151e+01
 1.640294202815756e+00	 1.430555083132469e+00	 1.212008654729268e+01
 1.626286916375878e+00	 1.446459103890634e+00	 1.207413965805921e+01
 1.612121453956046e+00	 1.462230371374763e+00	 1.202398499137535e+01
 1.755885462297556e+00	 1.305858254060117e+00	 1.238669996592571e+01
 1.743137721340967e+00	 1.322826635095099e+00	 1.235497282528655e+01
 1.730217418008751e+00	 1.339681688302228e+00	 1.232352264713567e+01
 1.717126064987724e+00	 1.356420794046556e+00	 1.229178630455491e+01
 1.703865227303593e+00	 1.373041359193965e+00	 1.225917963963831e+01
 1.690436521734280e+00	 1.389540818418569e+00	 1.222510741487944e+01
 1.676841616184449e+00	 1.405916635494808e+00	 1.218897376779392e+01
 1.663082229021698e+00	 1.422166304572876e+00	 1.215019311813629e+01
 1.649160128374942e+00	 1.438287351436158e+00	 1.210820147303630e+01
 1.635077131395572e+00	 1.454277334739380e+00	 1.206246807160813e+01
 1.620835103482022e+00	 1.470133847226162e+00	 1.201250730709846e+01
 1.765325145887574e+00	 1.312878580266992e+00	 1.236897103488230e+01
 1.752508872760945e+00	 1.329938183737226e+00	 1.233836809757000e+01
 1.739519109559072e+00	 1.346883850126445e+00	 1.230785959909621e+01
 1.726357377101017e+00	 1.363712945716473e+00	 1.227690094541920e+01
 1.713025248826103e+00	 1.380422863432436e+00	 1.224492483395846e+01
 1.699524350204093e+00	 1.397011024157191e+00	 1.221135146221482e+01
 1.685856358106353e+00	 1.413474878030362e+00	 1.217559926238326e+01
 1.672023000138466e+00	 1.429811905730625e+00	 1.213709610994251e+01
 1.658026053934857e+00	 1.446019619739916e+00	 1.209529095002406e+01
 1.643867346415967e+00	 1.462095565588223e+00	 1.204966578144215e+01
 1.629548753008663e+00	 1.478037323077692e+00	 1.199974793464518e+01
 1.774764829477958e+00	 1.319898906474002e+00	 1.235017910305437e+01
 1.761880024181350e+00	 1.337049732379451e+00	 1.232082633037727e+01
 1.748820801109871e+00	 1.354086011950730e+00	 1.229136659146233e+01
 1.735588689214825e+00	 1.371005097386439e+00	 1.226127013414831e+01
 1.722185270349154e+00	 1.387804367670944e+00	 1.222998313071512e+01
 1.708612178674465e+00	 1.404481229895843e+00	 1.219693815508282e+01
 1.694871100028818e+00	 1.421033120565943e+00	 1.216156520897588e+01
 1.680963771255794e+00	 1.437457506888413e+00	 1.212330324362283e+01
 1.666891979495317e+00	 1.453751888043726e+00	 1.208161211922613e+01
 1.652657561436889e+00	 1.469913796437140e+00	 1.203598494036610e+01
 1.638262402535804e+00	 1.485940798929323e+00	 1.198602023234124e+01
 1.784204513068556e+00	 1.326919232681130e+00	 1.233085343498807e+01
 1.771251175602021e+00	 1.344161281021763e+00	 1.230281888008178e+01
 1.758122492660975e+00	 1.361288173775077e+00	 1.227446374601157e+01
 1.744820001328967e+00	 1.378297249056446e+00	 1.224526944580744e+01
 1.731345291872561e+00	 1.395185871909481e+00	 1.221469225166959e+01
 1.717700007145204e+00	 1.411951435634517e+00	 1.218217405217963e+01
 1.703885841951659e+00	 1.428591363101549e+00	 1.214715368168842e+01
 1.689904542373493e+00	 1.445103108046226e+00	 1.210907876699930e+01
 1.675757905056143e+00	 1.461484156347572e+00	 1.206741803196611e+01
 1.661447776458164e+00	 1.477732027286105e+00	 1.202167399640703e+01
 1.646976052063280e+00	 1.493844274781020e+00	 1.197188114315146e+01
 1.793644196659219e+00	 1.333939558888358e+00	 1.231151187111327e+01
 1.780622327022794e+00	 1.351272829664147e+00	 1.228480691721194e+01
 1.767424184212209e+00	 1.368490335599476e+00	 1.225756213288716e+01
 1.754051313443262e+00	 1.385589400726491e+00	 1.222926643311683e+01
 1.740505313396137e+00	 1.402567376148042e+00	 1.219938281975508e+01
 1.726787835616122e+00	 1.419421641373208e+00	 1.216735943027690e+01
 1.712900583874683e+00	 1.436149605637168e+00	 1.213264118217718e+01
 1.698845313491377e+00	 1.452748709204053e+00	 1.209468195664805e+01
 1.684623830617151e+00	 1.469216424651436e+00	 1.205295726049533e+01
 1.670237991479612e+00	 1.485550258135094e+00	 1.200703508010061e+01
 1.655689701590921e+00	 1.501747750632751e+00	 1.195767293887444e+01
 1.803083880249798e+00	 1.340959885095671e+00	 1.229266059371791e+01
 1.789993478443505e+00	 1.358384378306593e+00	 1.226724116035589e+01
 1.776725875763401e+00	 1.375692497423918e+00	 1.224106347611570e+01
 1.763282625557528e+00	 1.392881552396563e+00	 1.221362030728035e+01
 1.749665334919695e+00	 1.409948880386621e+00	 1.218437801892581e+01
 1.735875664087030e+00	 1.426891847111910e+00	 1.215278792681140e+01
 1.721915325797702e+00	 1.443707848172792e+00	 1.211829826869367e+01
 1.707786084609259e+00	 1.460394310361883e+00	 1.208036673714941e+01
 1.693489756178158e+00	 1.476948692955300e+00	 1.203847351116543e+01
 1.679028206501062e+00	 1.493368488984084e+00	 1.199264882198869e+01
 1.664403351118562e+00	 1.509651226484481e+00	 1.194369333366962e+01
 1.812523563840144e+00	 1.347980211303051e+00	 1.227479389041481e+01
 1.799364629863992e+00	 1.365495926949089e+00	 1.225056160855649e+01
 1.786027567314376e+00	 1.382894659248395e+00	 1.222535985850695e+01
 1.772513937671584e+00	 1.400173704066657e+00	 1.219868161898246e+01
 1.758825356443047e+00	 1.417330384625213e+00	 1.216999325485575e+01
 1.744963492557738e+00	 1.434362052850617e+00	 1.213874618389863e+01
 1.730930067720526e+00	 1.451266090708413e+00	 1.210438918703222e+01
 1.716726855726951e+00	 1.468039911519702e+00	 1.206638130259060e+01
 1.702355681738982e+00	 1.484680961259148e+00	 1.202424473758932e+01
 1.687818421522335e+00	 1.501186719833049e+00	 1.197884635113499e+01
 1.673117000646037e+00	 1.517554702336179e+00	 1.193022891752276e+01
 1.821963247430106e+00	 1.355000537510481e+00	 1.225839391519304e+01
 1.808735781284091e+00	 1.372607475591621e+00	 1.223519727225158e+01
 1.795329258864959e+00	 1.390096821072896e+00	 1.221083342595938e+01
 1.781745249785247e+00	 1.407465855736768e+00	 1.218479193954917e+01
 1.767985377966007e+00	 1.424711888863811e+00	 1.215653581645738e+01
 1.754051321028057e+00	 1.441832258589321e+00	 1.212551349371982e+01
 1.739944809642965e+00	 1.458824333244023e+00	 1.209117150330083e+01
 1.725667626844267e+00	 1.475685512677501e+00	 1.205296774023939e+01
 1.711221607299440e+00	 1.492413229562962e+00	 1.201086082514646e+01
 1.696608636543256e+00	 1.509004950681966e+00	 1.196590026338116e+01
 1.681830650173179e+00	 1.525458178187809e+00	 1.191755508528211e+01
 1.831402931019537e+00	 1.362020863717945e+00	 1.224393044714137e+01
 1.818106932703639e+00	 1.379719024234178e+00	 1.222156590281346e+01
 1.804630950414978e+00	 1.397298982897414e+00	 1.219785609119346e+01
 1.790976561898336e+00	 1.414758007406887e+00	 1.217228354226825e+01
 1.777145399488388e+00	 1.432093393102410e+00	 1.214430453819188e+01
 1.763139149497796e+00	 1.449302464328017e+00	 1.211336144523373e+01
 1.748959551564832e+00	 1.466382575779614e+00	 1.207889573845234e+01
 1.734608397961019e+00	 1.483331113835267e+00	 1.204037571004690e+01
 1.720087532859350e+00	 1.500145497866725e+00	 1.199866342390261e+01
 1.705398851563651e+00	 1.516823181530810e+00	 1.195407177420592e+01
 1.690544299699820e+00	 1.533361654039340e+00	 1.190593596815297e+01
 1.840842614608285e+00	 1.369041189925426e+00	 1.223186064692858e+01
 1.827478084122475e+00	 1.386830572876746e+00	 1.221007372073838e+01
 1.813932641964259e+00	 1.404501144721940e+00	 1.218678923693503e+01
 1.800207874010670e+00	 1.422050159077008e+00	 1.216147908386339e+01
 1.786305421010004e+00	 1.439474897341005e+00	 1.213358946314323e+01
 1.772226977966766e+00	 1.456772670066699e+00	 1.210255357216752e+01
 1.757974293485933e+00	 1.473940818315178e+00	 1.206780500451243e+01
 1.743549169077021e+00	 1.490976714992988e+00	 1.202917160577224e+01
 1.728953458418529e+00	 1.507877766170420e+00	 1.198790523176813e+01
 1.714189066583344e+00	 1.524641412379558e+00	 1.194361065458752e+01
 1.699257949225795e+00	 1.541265129890738e+00	 1.189562436756082e+01
 1.612121453956046e+00	 1.462230371374763e+00	 1.202398499137535e+01
 1.597802161456851e+00	 1.477863884371496e+00	 1.196962963702137e+01
 1.583328571052838e+00	 1.493360034513541e+00	 1.191195050772034e+01
 1.568702650568837e+00	 1.508716562899803e+00	 1.185183195101641e+01
 1.553926412352627e+00	 1.523931249122766e+00	 1.178938406252750e+01
 1.539001912345755e+00	 1.539001912345755e+00	 1.172469965357398e+01
 1.523931249122766e+00	 1.553926412352627e+00	 1.165788435791382e+01
 1.508716562899803e+00	 1.568702650568837e+00	 1.158905874403849e+01
 1.493360034513540e+00	 1.583328571052839e+00	 1.151836049759954e+01
 1.477863884371496e+00	 1.597802161456851e+00	 1.144592656468988e+01
 1.462230371374764e+00	 1.612121453956046e+00	 1.137134913757279e+01
 1.620835103482022e+00	 1.470133847226162e+00	 1.201250730709845e+01
 1.606438414024834e+00	 1.485851860651166e+00	 1.195857982810579e+01
 1.591886592669919e+00	 1.501431768763909e+00	 1.190213899493331e+01
 1.577181617878362e+00	 1.516871300453752e+00	 1.184350687318278e+01
 1.562325512874847e+00	 1.532168223311692e+00	 1.178267397813737e+01
 1.547320344713452e+00	 1.547320344713452e+00	 1.171963912079892e+01
 1.532168223311691e+00	 1.562325512874846e+00	 1.165441162123113e+01
 1.516871300453752e+00	 1.577181617878363e+00	 1.158701360684590e+01
 1.501431768763909e+00	 1.591886592669920e+00	 1.151748238800227e+01
 1.485851860651165e+00	 1.606438414024835e+00	 1.144587290262411e+01
 1.470133847226162e+00	 1.620835103482022e+00	 1.137206734257930e+01
 1.629548753008663e+00	 1.478037323077692e+00	 1.199974793464518e+01
 1.615074666593440e+00	 1.493839836931012e+00	 1.194634487761643e+01
 1.600444614287574e+00	 1.509503503014504e+00	 1.189099321746804e+01
 1.585660585188405e+00	 1.525026038007983e+00	 1.183363510234336e+01
 1.570724613397526e+00	 1.540405197500957e+00	 1.177418302479638e+01
 1.555638777081549e+00	 1.555638777081549e+00	 1.171255560303987e+01
 1.540405197500957e+00	 1.570724613397526e+00	 1.164867995452900e+01
 1.525026038007982e+00	 1.585660585188406e+00	 1.158249416164996e+01
 1.509503503014504e+00	 1.600444614287575e+00	 1.151394982159199e+01
 1.493839836931011e+00	 1.615074666593440e+00	 1.144301467179280e+01
 1.478037323077692e+00	 1.629548753008663e+00	 1.136966044052557e+01
 1.638262402535804e+00	 1.485940798929323e+00	 1.198602023234124e+01
 1.623710919162513e+00	 1.501827813210991e+00	 1.193329210075744e+01
 1.609002635905658e+00	 1.517575237265270e+00	 1.187886696490784e+01
 1.594139552498838e+00	 1.533180775562425e+00	 1.182259067757975e+01
 1.579123713920550e+00	 1.548642171690478e+00	 1.176431095452371e+01
 1.563957209449945e+00	 1.563957209449945e+00	 1.170387978385060e+01
 1.548642171690478e+00	 1.579123713920550e+00	 1.164115594179421e+01
 1.533180775562424e+00	 1.594139552498838e+00	 1.157600760740296e+01
 1.517575237265270e+00	 1.609002635905659e+00	 1.150831506798258e+01
 1.501827813210990e+00	 1.623710919162513e+00	 1.143797350639477e+01
 1.485940798929323e+00	 1.638262402535804e+00	 1.136489586061301e+01
 1.646976052063280e+00	 1.493844274781020e+00	 1.197188114315146e+01
 1.632347171731897e+00	 1.509815789491058e+00	 1.191974985332875e+01
 1.617560657524028e+00	 1.525646971516149e+00	 1.186610303819386e+01
 1.602618519809528e+00	 1.541335513117008e+00	 1.181073644367826e+01
 1.587522814443804e+00	 1.556879145880168e+00	 1.175344601956633e+01
 1.572275641818543e+00	 1.572275641818542e+00	 1.169403044650031e+01
 1.556879145880168e+00	 1.587522814443804e+00	 1.163229377603964e+01
 1.541335513117007e+00	 1.602618519809528e+00	 1.156804817614119e+01
 1.525646971516148e+00	 1.617560657524029e+00	 1.150111677366190e+01
 1.509815789491057e+00	 1.632347171731898e+00	 1.143133658473578e+01
 1.493844274781020e+00	 1.646976052063279e+00	 1.135856152314741e+01
 1.655689701590921e+00	 1.501747750632751e+00	 1.195767293887444e+01
 1.640983424301437e+00	 1.517803765771170e+00	 1.190603552584581e+01
 1.626118679142542e+00	 1.533718705767085e+00	 1.185303317609834e+01
 1.611097487120348e+00	 1.549490250671661e+00	 1.179842398479137e+01
 1.595921914967174e+00	 1.565116120069944e+00	 1.174196491608300e+01
 1.580594074187240e+00	 1.580594074187240e+00	 1.168341443039109e+01
 1.565116120069944e+00	 1.595921914967173e+00	 1.162253523103906e+01
 1.549490250671661e+00	 1.611097487120348e+00	 1.155909712249259e+01
 1.533718705767085e+00	 1.626118679142543e+00	 1.149287997159857e+01
 1.517803765771169e+00	 1.640983424301438e+00	 1.142367676245908e+01
 1.501747750632751e+00	 1.655689701590921e+00	 1.135129673481749e+01
 1.664403351118562e+00	 1.509651226484481e+00	 1.194369333366962e+01
 1.649619676870978e+00	 1.525791742051281e+00	 1.189245546846584e+01
 1.634676700761056e+00	 1.541790440018020e+00	 1.183997798421926e+01
 1.619576454431168e+00	 1.557644988226314e+00	 1.178599356036380e+01
 1.604321015490542e+00	 1.573353094259720e+00	 1.173023272974858e+01
 1.588912506555936e+00	 1.588912506555936e+00	 1.167242658896482e+01
 1.573353094259720e+00	 1.604321015490542e+00	 1.161230963403998e+01
 1.557644988226315e+00	 1.619576454431168e+00	 1.154962271357482e+01
 1.541790440018020e+00	 1.634676700761056e+00	 1.148411609057751e+01
 1.525791742051280e+00	 1.649619676870978e+00	 1.141555260344357e+01
 1.509651226484481e+00	 1.664403351118562e+00	 1.134371091574545e+01
 1.673117000646037e+00	 1.517554702336179e+00	 1.193022891752276e+01
 1.658255929440362e+00	 1.533779718331349e+00	 1.187930491849828e+01
 1.643234722379426e+00	 1.549862174268900e+00	 1.182724686640251e+01
 1.628055421741858e+00	 1.565799725780898e+00	 1.177377404324065e+01
 1.612720116013796e+00	 1.581590068449410e+00	 1.171860288320640e+01
 1.597230938924534e+00	 1.597230938924533e+00	 1.166144974904419e+01
 1.581590068449410e+00	 1.612720116013796e+00	 1.160203383941841e+01
 1.565799725780897e+00	 1.628055421741858e+00	 1.154008021926724e+01
 1.549862174268899e+00	 1.643234722379426e+00	 1.147532296427119e+01
 1.533779718331348e+00	 1.658255929440362e+00	 1.140750840973323e+01
 1.517554702336178e+00	 1.673117000646037e+00	 1.133639849335286e+01
 1.681830650173179e+00	 1.525458178187809e+00	 1.191755508528211e+01
 1.666892182009435e+00	 1.541767694611327e+00	 1.186686793040596e+01
 1.651792743997509e+00	 1.557933908519665e+00	 1.181513795850321e+01
 1.636534389052290e+00	 1.573954463335340e+00	 1.176208285987670e+01
 1.621119216536820e+00	 1.589827042638931e+00	 1.170741708530324e+01
 1.605549371292930e+00	 1.605549371292931e+00	 1.165085467155638e+01
 1.589827042638931e+00	 1.621119216536820e+00	 1.159211220323969e+01
 1.573954463335340e+00	 1.636534389052290e+00	 1.153091190284267e+01
 1.557933908519664e+00	 1.651792743997510e+00	 1.146698484005771e+01
 1.541767694611326e+00	 1.666892182009436e+00	 1.140007425053468e+01
 1.525458178187809e+00	 1.681830650173179e+00	 1.132993895341138e+01
 1.690544299699820e+00	 1.533361654039340e+00	 1.190593596815296e+01
 1.675528434578041e+00	 1.549755670891174e+00	 1.185541730820511e+01
 1.660350765615163e+00	 1.566005642770260e+00	 1.180393806440148e+01
 1.645013356362333e+00	 1.582109200889571e+00	 1.175122593257140e+01
 1.629518317059499e+00	 1.598064016828197e+00	 1.169700528203977e+01
 1.613867803661027e+00	 1.613867803661027e+00	 1.164100001358705e+01
 1.598064016828197e+00	 1.629518317059499e+00	 1.158293655869335e+01
 1.582109200889570e+00	 1.645013356362333e+00	 1.152254701194645e+01
 1.566005642770260e+00	 1.660350765615164e+00	 1.145957238759167e+01
 1.549755670891173e+00	 1.675528434578042e+00	 1.139376599031491e+01
 1.533361654039340e+00	 1.690544299699820e+00	 1.132489688948116e+01
 1.699257949225795e+00	 1.541265129890738e+00	 1.189562436756082e+01
 1.684164687146025e+00	 1.557743647170843e+00	 1.184521454017823e+01
 1.668908787232245e+00	 1.574077377020629e+00	 1.179392259418980e+01
 1.653492323671859e+00	 1.590263938443519e+00	 1.174149762365469e+01
 1.637917417581719e+00	 1.606300991017122e+00	 1.168768560917514e+01
 1.622186236028725e+00	 1.622186236028724e+00	 1.163223229171748e+01
 1.606300991017122e+00	 1.637917417581719e+00	 1.157488619236876e+01
 1.590263938443519e+00	 1.653492323671859e+00	 1.151540176990740e+01
 1.574077377020629e+00	 1.668908787232246e+00	 1.145354270713841e+01
 1.557743647170843e+00	 1.684164687146025e+00	 1.138908531603061e+01
 1.541265129890738e+00	 1.699257949225795e+00	 1.132182205079668e+01
 1.462230371374764e+00	 1.612121453956046e+00	 1.137134913757279e+01
 1.446459103890635e+00	 1.626286916375878e+00	 1.129580147754124e+01
 1.430555083132470e+00	 1.640294202815756e+00	 1.122038627253673e+01
 1.414520703415176e+00	 1.654141457905675e+00	 1.114451084712986e+01
 1.398358392959294e+00	 1.667826874263297e+00	 1.106756639900402e+01
 1.382070612679982e+00	 1.681348693265214e+00	 1.098894159431332e+01
 1.365659854955534e+00	 1.694705205781814e+00	 1.090803615923494e+01
 1.349128642376695e+00	 1.707894752875131e+00	 1.082427437723476e+01
 1.332479526478091e+00	 1.720915726459082e+00	 1.073711840227902e+01
 1.315715086453082e+00	 1.733766569921579e+00	 1.064608129950311e+01
 1.298837927853393e+00	 1.746445778708051e+00	 1.055073972666509e+01
 1.470133847226162e+00	 1.620835103482022e+00	 1.137206734257930e+01
 1.454277334739381e+00	 1.635077131395571e+00	 1.129704515717762e+01
 1.438287351436158e+00	 1.649160128374941e+00	 1.122197223859831e+01
 1.422166304572876e+00	 1.663082229021697e+00	 1.114633262632061e+01
 1.405916635494809e+00	 1.676841616184449e+00	 1.106959640924195e+01
 1.389540818418569e+00	 1.690436521734279e+00	 1.099123370499392e+01
 1.373041359193965e+00	 1.703865227303593e+00	 1.091072863414059e+01
 1.356420794046557e+00	 1.717126064987724e+00	 1.082759319582546e+01
 1.339681688302228e+00	 1.730217418008750e+00	 1.074138095217153e+01
 1.322826635095099e+00	 1.743137721340967e+00	 1.065170043005269e+01
 1.305858254060117e+00	 1.755885462297555e+00	 1.055822815072603e+01
 1.478037323077692e+00	 1.629548753008663e+00	 1.136966044052558e+01
 1.462095565588224e+00	 1.643867346415967e+00	 1.129505838223027e+01
 1.446019619739917e+00	 1.658026053934856e+00	 1.122033727456697e+01
 1.429811905730626e+00	 1.672023000138465e+00	 1.114502810926404e+01
 1.413474878030362e+00	 1.685856358106352e+00	 1.106864905114719e+01
 1.397011024157192e+00	 1.699524350204093e+00	 1.099071986212907e+01
 1.380422863432437e+00	 1.713025248826102e+00	 1.091077632012055e+01
 1.363712945716474e+00	 1.726357377101017e+00	 1.082838453630915e+01
 1.346883850126445e+00	 1.739519109559071e+00	 1.074315507501430e+01
 1.329938183737227e+00	 1.752508872760945e+00	 1.065475678166794e+01
 1.312878580266992e+00	 1.765325145887574e+00	 1.056293022640507e+01
 1.485940798929323e+00	 1.638262402535804e+00	 1.136489586061301e+01
 1.469913796437140e+00	 1.652657561436889e+00	 1.129063130400318e+01
 1.453751888043728e+00	 1.666891979495317e+00	 1.121629920976963e+01
 1.437457506888413e+00	 1.680963771255793e+00	 1.114142837905413e+01
 1.421033120565945e+00	 1.694871100028818e+00	 1.106555463604594e+01
 1.404481229895843e+00	 1.708612178674464e+00	 1.098821598701447e+01
 1.387804367670945e+00	 1.722185270349153e+00	 1.090896754601845e+01
 1.371005097386439e+00	 1.735588689214823e+00	 1.082739635708349e+01
 1.354086011950731e+00	 1.748820801109871e+00	 1.074313601378091e+01
 1.337049732379452e+00	 1.761880024181350e+00	 1.065588097852519e+01
 1.319898906474002e+00	 1.774764829477957e+00	 1.056540050588672e+01
 1.493844274781020e+00	 1.646976052063279e+00	 1.135856152314741e+01
 1.477732027286106e+00	 1.661447776458163e+00	 1.128453937678741e+01
 1.461484156347574e+00	 1.675757905056143e+00	 1.121066108206270e+01
 1.445103108046226e+00	 1.689904542373492e+00	 1.113634996294057e+01
 1.428591363101550e+00	 1.703885841951658e+00	 1.106112947346796e+01
 1.411951435634518e+00	 1.717700007145203e+00	 1.098452485970473e+01
 1.395185871909481e+00	 1.731345291872561e+00	 1.090607865435368e+01
 1.378297249056447e+00	 1.744820001328966e+00	 1.082536606712963e+01
 1.361288173775078e+00	 1.758122492660974e+00	 1.074201016835690e+01
 1.344161281021763e+00	 1.771251175602021e+00	 1.065569676469996e+01
 1.326919232681130e+00	 1.784204513068555e+00	 1.056618886796845e+01
 1.501747750632751e+00	 1.655689701590921e+00	 1.135129673481749e+01
 1.485550258135096e+00	 1.670237991479612e+00	 1.127755555366834e+01
 1.469216424651437e+00	 1.684623830617150e+00	 1.120421087785311e+01
 1.452748709204054e+00	 1.698845313491377e+00	 1.113059458472400e+01
 1.436149605637169e+00	 1.712900583874683e+00	 1.105617562819960e+01
 1.419421641373209e+00	 1.726787835616122e+00	 1.098043587326198e+01
 1.402567376148042e+00	 1.740505313396136e+00	 1.090287374555739e+01
 1.385589400726491e+00	 1.754051313443262e+00	 1.082302025329477e+01
 1.368490335599477e+00	 1.767424184212209e+00	 1.074045479919192e+01
 1.351272829664148e+00	 1.780622327022794e+00	 1.065482067778640e+01
 1.333939558888358e+00	 1.793644196659219e+00	 1.056584015552019e+01
 1.509651226484481e+00	 1.664403351118562e+00	 1.134371091574545e+01
 1.493368488984085e+00	 1.679028206501061e+00	 1.127045950042486e+01
 1.476948692955301e+00	 1.693489756178157e+00	 1.119772126923336e+01
 1.460394310361883e+00	 1.707786084609259e+00	 1.112494891409614e+01
 1.443707848172792e+00	 1.721915325797702e+00	 1.105148067436301e+01
 1.426891847111911e+00	 1.735875664087029e+00	 1.097672478535161e+01
 1.409948880386622e+00	 1.749665334919694e+00	 1.090010442011291e+01
 1.392881552396563e+00	 1.763282625557528e+00	 1.082107440625696e+01
 1.375692497423919e+00	 1.776725875763400e+00	 1.073913773062886e+01
 1.358384378306594e+00	 1.789993478443505e+00	 1.065386172339151e+01
 1.340959885095671e+00	 1.803083880249799e+00	 1.056489381521228e+01
 1.517554702336178e+00	 1.673117000646037e+00	 1.133639849335286e+01
 1.501186719833050e+00	 1.687818421522334e+00	 1.126390465370158e+01
 1.484680961259149e+00	 1.702355681738981e+00	 1.119195497470145e+01
 1.468039911519703e+00	 1.716726855726951e+00	 1.112018431303590e+01
 1.451266090708414e+00	 1.730930067720525e+00	 1.104781744662971e+01
 1.434362052850617e+00	 1.744963492557738e+00	 1.097415346728311e+01
 1.417330384625214e+00	 1.758825356443046e+00	 1.089850951867501e+01
 1.400173704066658e+00	 1.772513937671583e+00	 1.082023264521848e+01
 1.382894659248395e+00	 1.786027567314375e+00	 1.073871705391721e+01
 1.365495926949089e+00	 1.799364629863992e+00	 1.065342105046988e+01
 1.347980211303050e+00	 1.812523563840144e+00	 1.056388353943037e+01
 1.525458178187809e+00	 1.681830650173179e+00	 1.132993895341138e+01
 1.509004950681967e+00	 1.696608636543256e+00	 1.125851479265893e+01
 1.492413229562962e+00	 1.711221607299439e+00	 1.118767342320781e+01
 1.475685512677503e+00	 1.725667626844267e+00	 1.111705657936885e+01
 1.458824333244024e+00	 1.739944809642965e+00	 1.104594378867245e+01
 1.441832258589322e+00	 1.754051321028056e+00	 1.097346965058895e+01
 1.424711888863812e+00	 1.767985377966006e+00	 1.089881486024132e+01
 1.407465855736768e+00	 1.781745249785246e+00	 1.082118744137493e+01
 1.390096821072897e+00	 1.795329258864958e+00	 1.073984082992566e+01
 1.372607475591622e+00	 1.808735781284091e+00	 1.065409162746984e+01
 1.355000537510481e+00	 1.821963247430107e+00	 1.056333691029518e+01
 1.533361654039340e+00	 1.690544299699820e+00	 1.132489688948117e+01
 1.516823181530811e+00	 1.705398851563651e+00	 1.125489823554233e+01
 1.500145497866725e+00	 1.720087532859348e+00	 1.118553184236793e+01
 1.483331113835268e+00	 1.734608397961019e+00	 1.111630698118874e+01
 1.466382575779615e+00	 1.748959551564830e+00	 1.104660229895507e+01
 1.449302464328018e+00	 1.763139149497795e+00	 1.097540667122841e+01
 1.432093393102411e+00	 1.777145399488388e+00	 1.090173297844662e+01
 1.414758007406887e+00	 1.790976561898335e+00	 1.082461934020371e+01
 1.397298982897415e+00	 1.804630950414977e+00	 1.074314679156190e+01
 1.379719024234178e+00	 1.818106932703639e+00	 1.065645791926043e+01
 1.362020863717944e+00	 1.831402931019537e+00	 1.056377504571360e+01
 1.541265129890738e+00	 1.699257949225795e+00	 1.132182205079668e+01
 1.524641412379558e+00	 1.714189066583344e+00	 1.125364790538780e+01
 1.507877766170421e+00	 1.728953458418528e+00	 1.118615346165721e+01
 1.490976714992988e+00	 1.743549169077020e+00	 1.111866861670552e+01
 1.473940818315178e+00	 1.757974293485932e+00	 1.105052007395452e+01
 1.456772670066700e+00	 1.772226977966766e+00	 1.098068321150387e+01
 1.439474897341006e+00	 1.786305421010003e+00	 1.090796285604686e+01
 1.422050159077009e+00	 1.800207874010670e+00	 1.083119668261309e+01
 1.404501144721941e+00	 1.813932641964258e+00	 1.074926204591046e+01
 1.386830572876747e+00	 1.827478084122474e+00	 1.066109556481067e+01
 1.369041189925425e+00	 1.840842614608285e+00	 1.056571224738570e+01
 1.298837927853393e+00	 1.746445778708051e+00	 1.055073972666509e+01
 1.281853576397811e+00	 1.758949791034243e+00	 1.045405973233219e+01
 1.264761817785386e+00	 1.771279384539555e+00	 1.035853246373441e+01
 1.247565317835213e+00	 1.783433221691696e+00	 1.026318371163593e+01
 1.230266763448083e+00	 1.795410018874125e+00	 1.016712387928187e+01
 1.212868861256146e+00	 1.807208546768657e+00	 1.006955877606128e+01
 1.195374336265506e+00	 1.818827630697845e+00	 9.969799625076424e+00
 1.177785930493120e+00	 1.830266150927069e+00	 9.867272222572195e+00
 1.160106401599371e+00	 1.841523042926277e+00	 9.761525192507968e+00
 1.142338521517714e+00	 1.852597297591393e+00	 9.652267635463847e+00
 1.124485075082724e+00	 1.863487961425464e+00	 9.547303539704650e+00
 1.305858254060117e+00	 1.755885462297555e+00	 1.055822815072604e+01
 1.288782100783038e+00	 1.768457059842526e+00	 1.046375493601003e+01
 1.271597959804595e+00	 1.780853295818487e+00	 1.037037637389058e+01
 1.254308511352848e+00	 1.793072825463674e+00	 1.027688787491922e+01
 1.236916456851500e+00	 1.805114358223498e+00	 1.018216724620805e+01
 1.219424517562265e+00	 1.816976658135208e+00	 1.008518627665046e+01
 1.201835433220126e+00	 1.828658544172134e+00	 9.985021515117193e+00
 1.184151960662859e+00	 1.840158890547399e+00	 9.880864176617314e+00
 1.166376872456225e+00	 1.851476626977081e+00	 9.772029116912362e+00
 1.148512955516199e+00	 1.862610738902813e+00	 9.664847855135536e+00
 1.130563009729614e+00	 1.873560267673921e+00	 9.566463180625409e+00
 1.312878580266992e+00	 1.765325145887574e+00	 1.056293022640507e+01
 1.295710625168467e+00	 1.777964328651231e+00	 1.047020417106021e+01
 1.278434101824060e+00	 1.790427207097734e+00	 1.037824020481089e+01
 1.261051704870794e+00	 1.802712429235853e+00	 1.028564086799961e+01
 1.243566150255283e+00	 1.814818697572953e+00	 1.019109023116407e+01
 1.225980173868801e+00	 1.826744769501725e+00	 1.009336622423418e+01
 1.208296530175204e+00	 1.838489457646274e+00	 9.991352135878707e+00
 1.190517990833085e+00	 1.850051630167476e+00	 9.884047215071066e+00
 1.172647343313578e+00	 1.861430211027539e+00	 9.775998196945125e+00
 1.154687389515177e+00	 1.872624180213817e+00	 9.675935794517965e+00
 1.136640944376967e+00	 1.883632573921909e+00	 9.582863480939796e+00
 1.319898906474002e+00	 1.774764829477957e+00	 1.056540050588672e+01
 1.302639149554074e+00	 1.787471597460222e+00	 1.047389049622717e+01
 1.285270243843752e+00	 1.800001118377180e+00	 1.038255532172718e+01
 1.267794898389018e+00	 1.812352033008139e+00	 1.028984143677531e+01
 1.250215843659393e+00	 1.824523036922419e+00	 1.019427729867987e+01
 1.232535830175710e+00	 1.836512880868155e+00	 1.009448639422472e+01
 1.214757627130691e+00	 1.848320371120237e+00	 9.989199411649105e+00
 1.196884021003749e+00	 1.859944369787291e+00	 9.881097973328334e+00
 1.178917814171384e+00	 1.871383795077663e+00	 9.780267269161724e+00
 1.160861823514608e+00	 1.882637621524427e+00	 9.686076299916545e+00
 1.142718879024751e+00	 1.893704880169463e+00	 9.597142229633382e+00
 1.326919232681130e+00	 1.784204513068555e+00	 1.056618886796845e+01
 1.309567673939837e+00	 1.796978866269370e+00	 1.047529440455013e+01
 1.292106385863642e+00	 1.809575029656714e+00	 1.038375220745214e+01
 1.274538091907484e+00	 1.821991636780437e+00	 1.028988871568805e+01
 1.256865537063790e+00	 1.834227376271820e+00	 1.019211417283347e+01
 1.239091486482946e+00	 1.846280992234447e+00	 1.008893630527781e+01
 1.221218724086543e+00	 1.858151284593990e+00	 9.981263942212383e+00
 1.203250051174803e+00	 1.869837109406830e+00	 9.879948999889855e+00
 1.185188285029598e+00	 1.881337379127457e+00	 9.785300822863588e+00
 1.167036257514449e+00	 1.892651062834665e+00	 9.695801300156424e+00
 1.148796813672935e+00	 1.903777186416617e+00	 9.609922954829077e+00
 1.333939558888358e+00	 1.793644196659219e+00	 1.056584015552019e+01
 1.316496198325733e+00	 1.806486135078538e+00	 1.047489342748672e+01
 1.298942527883703e+00	 1.819148940936219e+00	 1.038226004449106e+01
 1.281281285426161e+00	 1.831631240552654e+00	 1.028618179876846e+01
 1.263515230468435e+00	 1.843931715621086e+00	 1.018498740778637e+01
 1.245647142790467e+00	 1.856049103600550e+00	 1.007810430144863e+01
 1.227679821042711e+00	 1.867982198067503e+00	 9.976165622379206e+00
 1.209616081346202e+00	 1.879729849026085e+00	 9.881179807643141e+00
 1.191458755888173e+00	 1.891290963176929e+00	 9.791541407370957e+00
 1.173210691514660e+00	 1.902664504144551e+00	 9.705629722016401e+00
 1.154874748321484e+00	 1.913849492663404e+00	 9.621814884351215e+00
 1.340959885095671e+00	 1.803083880249799e+00	 1.056489381521228e+01
 1.323424722711742e+00	 1.815993403887595e+00	 1.047316174261412e+01
 1.305778669903906e+00	 1.828722852215582e+00	 1.037850630168985e+01
 1.288024478945012e+00	 1.841270844324695e+00	 1.027911931583427e+01
 1.270164923873289e+00	 1.853636054970145e+00	 1.017345740627420e+01
 1.252202799098228e+00	 1.865817214966412e+00	 1.007052113619127e+01
 1.234140917999150e+00	 1.877813111540746e+00	 9.974970989107652e+00
 1.215982111517896e+00	 1.889622588645045e+00	 9.885159787815759e+00
 1.197729226747064e+00	 1.901244547226084e+00	 9.799419454991318e+00
 1.179385125515200e+00	 1.912677945454111e+00	 9.716067408018562e+00
 1.160952682970367e+00	 1.923921798909858e+00	 9.633412907208108e+00
 1.347980211303050e+00	 1.812523563840144e+00	 1.056388353943037e+01
 1.330353247097839e+00	 1.825500672696408e+00	 1.047056978477930e+01
 1.312614811924224e+00	 1.838296763494687e+00	 1.037291632525375e+01
 1.294767672464004e+00	 1.850910448096467e+00	 1.026909901365048e+01
 1.276814617278312e+00	 1.863340394318921e+00	 1.016478571869949e+01
 1.258758455406187e+00	 1.875585326331981e+00	 1.006828119587799e+01
 1.240602014955812e+00	 1.887644025013687e+00	 9.977992225352294e+00
 1.222348141689839e+00	 1.899515328263697e+00	 9.892246739270442e+00
 1.203999697606225e+00	 1.911198131274931e+00	 9.809353166455494e+00
 1.185559559516027e+00	 1.922691386763362e+00	 9.727607036487914e+00
 1.167030617619549e+00	 1.933994105156013e+00	 9.645297535958147e+00
 1.355000537510481e+00	 1.821963247430107e+00	 1.056333691029518e+01
 1.337281771484003e+00	 1.835007941504843e+00	 1.046758386057128e+01
 1.319450953944627e+00	 1.847870674773423e+00	 1.036591293397674e+01
 1.301510865983104e+00	 1.860550051867877e+00	 1.026066384702854e+01
 1.283464310683464e+00	 1.873044733667345e+00	 1.016282122188585e+01
 1.265314111714297e+00	 1.885353437697208e+00	 1.007165512225065e+01
 1.247063111912651e+00	 1.897474938486298e+00	 9.985530099370418e+00
 1.228714171861981e+00	 1.909408067882032e+00	 9.902786731519338e+00
 1.210270168465609e+00	 1.921151715323475e+00	 9.821748399642264e+00
 1.191733993517101e+00	 1.932704828072329e+00	 9.740728043799317e+00
 1.173108552268999e+00	 1.944066411401903e+00	 9.658034869929285e+00
 1.362020863717944e+00	 1.831402931019537e+00	 1.056377504571360e+01
 1.344210295870212e+00	 1.844515210312767e+00	 1.046466576599684e+01
 1.326287095965088e+00	 1.857444586051673e+00	 1.035958432100729e+01
 1.308254059502276e+00	 1.870189655638830e+00	 1.026018206564828e+01
 1.290114004088706e+00	 1.882749073015340e+00	 1.016780839059277e+01
 1.271869768022518e+00	 1.895121549062039e+00	 1.008090198641743e+01
 1.253524208869620e+00	 1.907305851958547e+00	 9.997873814757073e+00
 1.235080202034277e+00	 1.919300807500038e+00	 9.917113971723250e+00
 1.216540639325173e+00	 1.931105299371725e+00	 9.836998561467523e+00
 1.197908427518380e+00	 1.942718269381032e+00	 9.755896548734956e+00
 1.179186486918684e+00	 1.954138717647560e+00	 9.672176559260485e+00
 1.369041189925425e+00	 1.840842614608285e+00	 1.056571224738570e+01
 1.351138820256443e+00	 1.854022479120048e+00	 1.046251275294720e+01
 1.333123237985579e+00	 1.867018497329324e+00	 1.036163312503520e+01
 1.314997253021487e+00	 1.879829259409232e+00	 1.026793977214070e+01
 1.296763697493999e+00	 1.892453412362836e+00	 1.017997965272801e+01
 1.278425424330804e+00	 1.904889660426426e+00	 1.009626913487780e+01
 1.259985305826673e+00	 1.917136765430404e+00	 1.001530086486780e+01
 1.241446232206680e+00	 1.929193547117706e+00	 9.935550675533037e+00
 1.222811110184869e+00	 1.941058883419686e+00	 9.855484502829597e+00
 1.204082861519824e+00	 1.952731710689495e+00	 9.773565278874505e+00
 1.185264421568571e+00	 1.964211023893019e+00	 9.688259769736069e+00
 1.124485075082724e+00	 1.863487961425464e+00	 9.547303539704650e+00
 1.106548859008268e+00	 1.874194137131692e+00	 9.448152528744441e+00
 1.088532681544850e+00	 1.884714985077202e+00	 9.348926223489451e+00
 1.070439360020154e+00	 1.895049722008594e+00	 9.249105428479492e+00
 1.052271719117264e+00	 1.905197620620626e+00	 9.148755469877962e+00
 1.034032589513949e+00	 1.915158009535951e+00	 9.047844077685154e+00
 1.015724806528409e+00	 1.924930273246052e+00	 8.946257542497261e+00
 9.973512087727507e-01	 1.934513852013791e+00	 8.843816155858320e+00
 9.789146368154070e-01	 1.943908241738053e+00	 8.740288861542096e+00
 9.604179318537297e-01	 1.953112993780964e+00	 8.635407052739620e+00
 9.418639343979274e-01	 1.962127714758247e+00	 8.528877457943310e+00
 1.130563009729614e+00	 1.873560267673921e+00	 9.566463180625409e+00
 1.112529846926797e+00	 1.884324311143638e+00	 9.472022450698432e+00
 1.094416290537089e+00	 1.894902025140802e+00	 9.376564088530571e+00
 1.076225173116073e+00	 1.905292622178456e+00	 9.279039320118462e+00
 1.057959334614484e+00	 1.915495371020206e+00	 9.179729806581127e+00
 1.039621621010147e+00	 1.925509596659848e+00	 9.078833718059030e+00
 1.021214882946402e+00	 1.935334680261980e+00	 8.976474169295781e+00
 1.002741974378296e+00	 1.944970059064035e+00	 8.872714793831138e+00
 9.842057512277800e-01	 1.954415226240182e+00	 8.767574488429629e+00
 9.656090700491183e-01	 1.963669730727615e+00	 8.661041261375985e+00
 9.469547867057221e-01	 1.972733177015775e+00	 8.553085126371039e+00
 1.136640944376967e+00	 1.883632573921909e+00	 9.582863480939796e+00
 1.118510834845738e+00	 1.894454485155090e+00	 9.491971995682222e+00
 1.100299899529668e+00	 1.905089065203904e+00	 9.399272594240301e+00
 1.082010986212243e+00	 1.915535522347836e+00	 9.303483043235817e+00
 1.063646950111859e+00	 1.925793121419333e+00	 9.204880317610572e+00
 1.045210652506404e+00	 1.935861183783332e+00	 9.103867972291017e+00
 1.026704959364361e+00	 1.945739087277545e+00	 9.000780399461304e+00
 1.008132739983725e+00	 1.955426266113972e+00	 8.895898590797216e+00
 9.894968656399681e-01	 1.964922210742061e+00	 8.789465028278254e+00
 9.708002082442767e-01	 1.974226467674069e+00	 8.681697635750657e+00
 9.520456390132666e-01	 1.983338639273152e+00	 8.572802731806927e+00
 1.142718879024751e+00	 1.893704880169463e+00	 9.597142229633382e+00
 1.124491822765070e+00	 1.904584659166089e+00	 9.508813400493747e+00
 1.106183508522579e+00	 1.915276105266554e+00	 9.417859560251774e+00
 1.087796799308674e+00	 1.925778422516778e+00	 9.323302421001550e+00
 1.069334565609419e+00	 1.936090871818053e+00	 9.225118697906378e+00
 1.050799684002765e+00	 1.946212770906448e+00	 9.123892588225029e+00
 1.032195035782346e+00	 1.956143494292790e+00	 9.020144539111433e+00
 1.013523505589109e+00	 1.965882473163636e+00	 8.914347252123124e+00
 9.947879800520528e-01	 1.975429195243716e+00	 8.806940773655459e+00
 9.759913464392886e-01	 1.984783204620347e+00	 8.698346601895041e+00
 9.571364913206453e-01	 1.993944101530399e+00	 8.588980749584055e+00
 1.148796813672935e+00	 1.903777186416617e+00	 9.609922954829077e+00
 1.130472810684771e+00	 1.914714833176677e+00	 9.523262325221754e+00
 1.112067117515816e+00	 1.925463145328798e+00	 9.433124825390200e+00
 1.093582612405379e+00	 1.936021322685333e+00	 9.339351233542841e+00
 1.075022181107190e+00	 1.946388622216412e+00	 9.241344361342367e+00
 1.056388715499275e+00	 1.956564358029239e+00	 9.139841021986395e+00
 1.037685112200418e+00	 1.966547901307750e+00	 9.035522808610038e+00
 1.018914271194521e+00	 1.976338680213061e+00	 8.929028809232991e+00
 1.000079094464115e+00	 1.985936179745176e+00	 8.820970950065341e+00
 9.811824846342405e-01	 1.995339941566473e+00	 8.711948309955048e+00
 9.622273436279402e-01	 2.004549563787530e+00	 8.602560343877164e+00
 1.154874748321484e+00	 1.913849492663404e+00	 9.621814884351215e+00
 1.136453798604821e+00	 1.924845007186896e+00	 9.536018822766293e+00
 1.117950726509373e+00	 1.935650185390681e+00	 9.446021780422384e+00
 1.099368425502366e+00	 1.946264222853546e+00	 9.352470952151947e+00
 1.080709796605202e+00	 1.956686372614457e+00	 9.254444215416481e+00
 1.061977746995978e+00	 1.966915945151748e+00	 9.152634246714445e+00
 1.043175188618634e+00	 1.976952308322466e+00	 9.047859179106698e+00
 1.024305036800034e+00	 1.986794887262280e+00	 8.940899477923628e+00
 1.005370208876236e+00	 1.996443164246469e+00	 8.832513590222373e+00
 9.863736228292165e-01	 2.005896678512468e+00	 8.723452518819279e+00
 9.673181959352345e-01	 2.015155026044564e+00	 8.614473257301363e+00
 1.160952682970367e+00	 1.923921798909858e+00	 9.633412907208108e+00
 1.142434786525198e+00	 1.934975181196787e+00	 9.547767344430845e+00
 1.123834335503245e+00	 1.945837225452250e+00	 9.457407250605891e+00
 1.105154238599647e+00	 1.956507123021465e+00	 9.363490470695925e+00
 1.086397412103481e+00	 1.966984123012233e+00	 9.265292432331803e+00
 1.067566778492918e+00	 1.977267532274020e+00	 9.163180557071353e+00
 1.048665265037056e+00	 1.987356715336976e+00	 9.058085204424650e+00
 1.029695802405718e+00	 1.997251094311326e+00	 8.950903511786915e+00
 1.010661323288497e+00	 2.006950148747623e+00	 8.842515403365262e+00
 9.915647610243012e-01	 2.016453415458355e+00	 8.733798475892684e+00
 9.724090482426108e-01	 2.025760488301515e+00	 8.625641695923196e+00
 1.167030617619549e+00	 1.933994105156013e+00	 9.645297535958147e+00
 1.148415774445883e+00	 1.945105355206391e+00	 9.559176745001395e+00
 1.129717944497425e+00	 1.956024265513551e+00	 9.468026775996254e+00
 1.110940051697233e+00	 1.966750023189138e+00	 9.373225834333962e+00
 1.092085027602056e+00	 1.977281873409788e+00	 9.274750216599942e+00
 1.073155809990142e+00	 1.987619119396098e+00	 9.172375369678003e+00
 1.054155341455745e+00	 1.997761122351320e+00	 9.067119848467755e+00
 1.035086568011647e+00	 2.007707301360234e+00	 8.959973050917487e+00
 1.015952437700979e+00	 2.017457133248663e+00	 8.851911639793551e+00
 9.967558992195807e-01	 2.027010152404154e+00	 8.743914792189864e+00
 9.774999005501517e-01	 2.036365950558400e+00	 8.636978209845321e+00
 1.173108552268999e+00	 1.944066411401903e+00	 9.658034869929285e+00
 1.154396762366854e+00	 1.955235529215751e+00	 9.570900287331716e+00
 1.135601553491908e+00	 1.966211305574629e+00	 9.478609369166241e+00
 1.116725864795133e+00	 1.976992923356612e+00	 9.382600276843256e+00
 1.097772643100954e+00	 1.987579623807169e+00	 9.283665569290426e+00
 1.078744841487692e+00	 1.997970706518024e+00	 9.181101019626183e+00
 1.059645417874758e+00	 2.008165529365536e+00	 9.075869308307766e+00
 1.040477333617893e+00	 2.018163508409037e+00	 8.969027966075656e+00
 1.021243552113761e+00	 2.027964117749620e+00	 8.861625950799294e+00
 1.001947037415139e+00	 2.037566889349887e+00	 8.754719312920095e+00
 9.825907528579411e-01	 2.046971412815237e+00	 8.649385569527929e+00
 1.179186486918684e+00	 1.954138717647560e+00	 9.672176559260485e+00
 1.160377750288090e+00	 1.965365703224908e+00	 9.583575646452607e+00
 1.141485162486686e+00	 1.976398345635532e+00	 9.489867553296783e+00
 1.122511677893359e+00	 1.987235823523935e+00	 9.392528842655635e+00
 1.103460258600204e+00	 1.997877374204422e+00	 9.292873049049415e+00
 1.084333872985614e+00	 2.008322293639844e+00	 9.190226553206283e+00
 1.065135494294156e+00	 2.018569936379664e+00	 9.085226833107217e+00
 1.045868099224528e+00	 2.028619715457768e+00	 8.978975698471860e+00
 1.026534666526928e+00	 2.038471102250521e+00	 8.872570244158448e+00
 1.007138175611061e+00	 2.048123626295577e+00	 8.767118983726007e+00
 9.876816051660614e-01	 2.057576875072041e+00	 8.663756638000761e+00
 1.185264421568571e+00	 1.964211023893019e+00	 9.688259769736069e+00
 1.166358738209572e+00	 1.975495877233904e+00	 9.597824913223080e+00
 1.147368771481756e+00	 1.986585385696304e+00	 9.502497398746895e+00
 1.128297490991922e+00	 1.997478723691154e+00	 9.403771024040894e+00
 1.109147874099834e+00	 2.008175124601593e+00	 9.303193530002524e+00
 1.089922904483954e+00	 2.018673880761600e+00	 9.200607516988597e+00
 1.070625570713999e+00	 2.028974343393743e+00	 9.096072539028036e+00
 1.051258864831626e+00	 2.039075922506462e+00	 8.990711095324656e+00
 1.031825780940558e+00	 2.048978086751392e+00	 8.885644535344088e+00
 1.012329313807433e+00	 2.058680363241244e+00	 8.782009712729909e+00
 9.927724574745952e-01	 2.068182337328829e+00	 8.680974239112096e+00
 9.418639343979274e-01	 1.962127714758247e+00	 8.528877457943310e+00
 9.232523147113282e-01	 1.970953550091872e+00	 8.421988550461361e+00
 9.045890582652280e-01	 1.979588666082477e+00	 8.316274750560622e+00
 8.858769962655891e-01	 1.988032832005955e+00	 8.211762290469235e+00
 8.671189541348524e-01	 1.996285871231303e+00	 8.108505912177540e+00
 8.483177502685127e-01	 2.004347660837330e+00	 8.006595877863337e+00
 8.294761948094571e-01	 2.012218131196559e+00	 7.906163887690868e+00
 8.105970884410230e-01	 2.019897265527114e+00	 7.807387904479777e+00
 7.916832211996931e-01	 2.027385099413436e+00	 7.710495892130973e+00
 7.727373713083109e-01	 2.034681720296674e+00	 7.615768481810829e+00
 7.537623040306429e-01	 2.041787266935640e+00	 7.523540586709514e+00
 9.469547867057221e-01	 1.972733177015775e+00	 8.553085126371039e+00
 9.282425696786692e-01	 1.981606716717726e+00	 8.445292554615717e+00
 9.094784367912139e-01	 1.990288506222822e+00	 8.339243297858124e+00
 8.906652345522050e-01	 1.998778313559883e+00	 8.234853349636300e+00
 8.718058036557117e-01	 2.007075961143212e+00	 8.132069036429804e+00
 8.529029777308769e-01	 2.015181325387230e+00	 8.030874410530956e+00
 8.339595821096265e-01	 2.023094336288129e+00	 7.931297503887826e+00
 8.149784326132106e-01	 2.030814976973337e+00	 7.833415442379087e+00
 7.959623343584763e-01	 2.038343283219642e+00	 7.737358427641597e+00
 7.769140805847764e-01	 2.045679342940829e+00	 7.643312600942345e+00
 7.578364515023448e-01	 2.052823295645728e+00	 7.551521810651972e+00
 9.520456390132666e-01	 1.983338639273152e+00	 8.572802731806927e+00
 9.332328246457735e-01	 1.992259883343472e+00	 8.464585943988475e+00
 9.143678153170006e-01	 2.000988346363092e+00	 8.358616348434989e+00
 8.954534728386794e-01	 2.009523795113760e+00	 8.254707428488221e+00
 8.764926531765006e-01	 2.017866051055089e+00	 8.152705318673974e+00
 8.574882051932465e-01	 2.026014989937112e+00	 8.052496571387564e+00
 8.384429694098776e-01	 2.033970541379689e+00	 7.954014736473733e+00
 8.193597767855487e-01	 2.041732688419555e+00	 7.857245753161640e+00
 8.002414475174646e-01	 2.049301467025846e+00	 7.762232161746889e+00
 7.810907898614825e-01	 2.056676965584986e+00	 7.669076150058599e+00
 7.619105989742954e-01	 2.063859324355816e+00	 7.577941457066397e+00
 9.571364913206453e-01	 1.993944101530399e+00	 8.588980749584055e+00
 9.382230796127143e-01	 2.002913049969123e+00	 8.480796450571665e+00
 9.192571938426478e-01	 2.011688186503293e+00	 8.375303027979612e+00
 9.002417111250547e-01	 2.020269276667593e+00	 8.272219009237647e+00
 8.811795026972400e-01	 2.028656140966938e+00	 8.171298390839114e+00
 8.620734326556205e-01	 2.036848654486977e+00	 8.072338770465363e+00
 8.429263567101868e-01	 2.044846746471241e+00	 7.975188242217927e+00
 8.237411209579930e-01	 2.052650399865770e+00	 7.879751054450736e+00
 8.045205606765966e-01	 2.060259650832049e+00	 7.785992037911214e+00
 7.852674991383533e-01	 2.067674588229141e+00	 7.693939819826093e+00
 7.659847464464111e-01	 2.074895353065904e+00	 7.603688847143105e+00
 9.622273436279402e-01	 2.004549563787530e+00	 8.602560343877164e+00
 9.432133345795666e-01	 2.013566216594690e+00	 8.494843476585215e+00
 9.241465723682172e-01	 2.022388026643437e+00	 8.390204981327706e+00
 9.050299494113719e-01	 2.031014758221386e+00	 8.288275811283411e+00
 8.858663522179498e-01	 2.039446230878762e+00	 8.188725710980583e+00
 8.666586601179971e-01	 2.047682319036828e+00	 8.091271705742896e+00
 8.474097440105306e-01	 2.055722951562786e+00	 7.995685302704207e+00
 8.281224651304991e-01	 2.063568111311982e+00	 7.901798402958162e+00
 8.087996738358098e-01	 2.071217834638251e+00	 7.809507932914842e+00
 7.894442084153132e-01	 2.078672210873296e+00	 7.718779211142779e+00
 7.700588939186087e-01	 2.085931381775991e+00	 7.629648074824442e+00
 9.673181959352345e-01	 2.015155026044564e+00	 8.614473257301363e+00
 9.482035895464045e-01	 2.024219383220185e+00	 8.507637987741372e+00
 9.290359508937674e-01	 2.033087866783531e+00	 8.404216271944460e+00
 9.098181876976738e-01	 2.041760239775146e+00	 8.303758699372610e+00
 8.905532017386508e-01	 2.050236320790566e+00	 8.205858482496172e+00
 8.712438875803746e-01	 2.058515983586666e+00	 8.110160295691745e+00
 8.518931313108851e-01	 2.066599156654326e+00	 8.016367772391778e+00
 8.325038093030227e-01	 2.074485822758191e+00	 7.924249660153960e+00
 8.130787869950420e-01	 2.082176018444451e+00	 7.833644642133862e+00
 7.936209176922869e-01	 2.089669833517452e+00	 7.744464841932138e+00
 7.741330413908042e-01	 2.096967410486080e+00	 7.656698036924170e+00
 9.724090482426108e-01	 2.025760488301515e+00	 8.625641695923196e+00
 9.531938445133016e-01	 2.034872549845621e+00	 8.520082402214426e+00
 9.339253294193588e-01	 2.043787706923583e+00	 8.418223277319836e+00
 9.146064259840007e-01	 2.052505721328878e+00	 8.319541587801096e+00
 8.952400512593643e-01	 2.061026410702351e+00	 8.223561569414576e+00
 8.758291150427522e-01	 2.069349648136496e+00	 8.129863607850362e+00
 8.563765186112259e-01	 2.077475361745858e+00	 8.038092022582024e+00
 8.368851534755187e-01	 2.085403534204398e+00	 7.947961453640366e+00
 8.173579001542310e-01	 2.093134202250653e+00	 7.859261860244889e+00
 7.977976269691983e-01	 2.100667456161607e+00	 7.771862149017762e+00
 7.782071888629151e-01	 2.108003439196168e+00	 7.685712457916654e+00
 9.774999005501517e-01	 2.036365950558400e+00	 8.636978209845321e+00
 9.581840994803328e-01	 2.045525716471007e+00	 8.533070475471867e+00
 9.388147079450515e-01	 2.054487547063601e+00	 8.433104580427877e+00
 9.193946642703956e-01	 2.063251202882587e+00	 8.336491340790499e+00
 8.999269007801104e-01	 2.071816500614122e+00	 8.242693407898171e+00
 8.804143425051275e-01	 2.080183312686316e+00	 8.151234783569670e+00
 8.608599059115293e-01	 2.088351566837388e+00	 8.061708881436891e+00
 8.412664976479436e-01	 2.096321245650603e+00	 7.973785134384389e+00
 8.216370133133147e-01	 2.104092386056852e+00	 7.887214157528369e+00
 8.019743362459719e-01	 2.111665078805761e+00	 7.801831485260257e+00
 7.822813363348572e-01	 2.119039467906256e+00	 7.717559909586206e+00
 9.825907528579411e-01	 2.046971412815237e+00	 8.649385569527929e+00
 9.631743544475722e-01	 2.056178883096359e+00	 8.547487181119756e+00
 9.437040864709056e-01	 2.065187387203593e+00	 8.449730857390909e+00
 9.241829025568995e-01	 2.073996684436280e+00	 8.355467669185352e+00
 9.046137503009100e-01	 2.082606590525883e+00	 8.264105914099366e+00
 8.849995699674983e-01	 2.091016977236130e+00	 8.175120959071002e+00
 8.653432932117717e-01	 2.099227771928914e+00	 8.088063570193572e+00
 8.456478418202520e-01	 2.107238957096807e+00	 8.002566729961558e+00
 8.259161264722311e-01	 2.115050569863052e+00	 7.918350951923791e+00
 8.061510455225320e-01	 2.122662701449916e+00	 7.835228112125874e+00
 7.863554838065469e-01	 2.130075496616343e+00	 7.753103825725635e+00
 9.876816051660614e-01	 2.057576875072041e+00	 8.663756638000757e+00
 9.681646094150942e-01	 2.066832049721687e+00	 8.564208587902749e+00
 9.485934649969808e-01	 2.075887227343570e+00	 8.468964761486056e+00
 9.289711408435539e-01	 2.084742165989961e+00	 8.377323023601264e+00
 9.093005998217837e-01	 2.093396680437637e+00	 8.288644388501288e+00
 8.895847974298644e-01	 2.101850641785941e+00	 8.202363182947137e+00
 8.698266805119296e-01	 2.110103977020438e+00	 8.117995635712461e+00
 8.500291859923996e-01	 2.118156668543010e+00	 8.035146893951627e+00
 8.301952396309176e-01	 2.126008753669252e+00	 7.953516476994265e+00
 8.103277547988030e-01	 2.133660324094071e+00	 7.872902187855074e+00
 7.904296312779013e-01	 2.141111525326432e+00	 7.793202512059987e+00
 9.927724574745952e-01	 2.068182337328829e+00	 8.680974239112096e+00
 9.731548643829736e-01	 2.077485216347005e+00	 8.584101732998102e+00
 9.534828435233381e-01	 2.086587067483538e+00	 8.491660803625638e+00
 9.337593791304013e-01	 2.095487647543637e+00	 8.402902484150420e+00
 9.139874493427524e-01	 2.104186770349388e+00	 8.317147416868984e+00
 8.941700248922229e-01	 2.112684306335749e+00	 8.233796330236849e+00
 8.743100678119793e-01	 2.120980182111962e+00	 8.152338879490264e+00
 8.544105301643428e-01	 2.129074379989214e+00	 8.072360851627291e+00
 8.344743527893120e-01	 2.136966937475452e+00	 7.993549745945096e+00
 8.145044640747093e-01	 2.144657946738227e+00	 7.915698751385406e+00
 7.945037787488365e-01	 2.152147554036520e+00	 7.838709151570423e+00
 7.537623040306429e-01	 2.041787266935640e+00	 7.523540586709515e+00
 7.347640024016007e-01	 2.048700769453971e+00	 7.432635381671001e+00
 7.157419773079462e-01	 2.055423690282553e+00	 7.341328911342747e+00
 6.966989462780636e-01	 2.061956317081577e+00	 7.249981329464556e+00
 6.776376095772423e-01	 2.068298986366972e+00	 7.159173788398730e+00
 6.585606491811000e-01	 2.074452082840105e+00	 7.069465265448975e+00
 6.394707277744844e-01	 2.080416038693781e+00	 6.981396339498608e+00
 6.203704877764000e-01	 2.086191332895567e+00	 6.895491895130403e+00
 6.012625503914683e-01	 2.091778490449427e+00	 6.812262814296659e+00
 5.821495146883998e-01	 2.097178081636743e+00	 6.732206720625547e+00
 5.630339567058910e-01	 2.102390721237719e+00	 6.655807845816055e+00
 7.578364515023448e-01	 2.052823295645728e+00	 7.551521810651972e+00
 7.387354624848814e-01	 2.059774166215719e+00	 7.460805585269193e+00
 7.196106217754582e-01	 2.066533424986240e+00	 7.369658116609593e+00
 7.004646615909370e-01	 2.073101361172302e+00	 7.278349957735334e+00
 6.813002967917747e-01	 2.079478313108722e+00	 7.187541287572879e+00
 6.621202238499010e-01	 2.085664667576198e+00	 7.097874380311498e+00
 6.429271198422069e-01	 2.091660859103568e+00	 7.009977141453182e+00
 6.237236414701997e-01	 2.097467369247245e+00	 6.924465526584307e+00
 6.045124241063408e-01	 2.103084725848876e+00	 6.841944906050869e+00
 5.852960808675325e-01	 2.108513502272251e+00	 6.763010443907567e+00
 5.660772017161841e-01	 2.113754316620504e+00	 6.688246564002222e+00
 7.619105989742954e-01	 2.063859324355816e+00	 7.577941457066397e+00
 7.427069225683878e-01	 2.070847562977465e+00	 7.487630575703325e+00
 7.234792662431474e-01	 2.077643159689928e+00	 7.396929510559058e+00
 7.042303769039197e-01	 2.084246405263028e+00	 7.305975016807368e+00
 6.849629840063365e-01	 2.090657639850471e+00	 7.215469964867142e+00
 6.656797985186461e-01	 2.096877252312292e+00	 7.126109206574836e+00
 6.463835119097886e-01	 2.102905679513355e+00	 7.038577211555702e+00
 6.270767951637828e-01	 2.108743405598922e+00	 6.953550237055135e+00
 6.077622978209347e-01	 2.114390961248322e+00	 6.871697400096903e+00
 5.884426470463459e-01	 2.119848922907758e+00	 6.793680723656522e+00
 5.691204467261444e-01	 2.125117912003288e+00	 6.720154233177068e+00
 7.659847464464111e-01	 2.074895353065904e+00	 7.603688847143101e+00
 7.466783826520360e-01	 2.081920959739212e+00	 7.514039509573776e+00
 7.273479107109340e-01	 2.088752894393615e+00	 7.424028753007423e+00
 7.079960922169404e-01	 2.095391449353754e+00	 7.333719524377582e+00
 6.886256712208684e-01	 2.101836966592222e+00	 7.243789497655395e+00
 6.692393731872889e-01	 2.108089837048387e+00	 7.154955990188249e+00
 6.498399039771974e-01	 2.114150499923141e+00	 7.067929891809957e+00
 6.304299488571289e-01	 2.120019441950599e+00	 6.983417621352373e+00
 6.110121715352407e-01	 2.125697196647771e+00	 6.902121939942755e+00
 5.915892132248374e-01	 2.131184343543265e+00	 6.824741696140981e+00
 5.721636917357721e-01	 2.136481507386073e+00	 6.751970582756799e+00
 7.700588939186087e-01	 2.085931381775991e+00	 7.629648074824442e+00
 7.506498427357406e-01	 2.092994356500959e+00	 7.540925993399505e+00
 7.312165551787373e-01	 2.099862629097302e+00	 7.451837109128078e+00
 7.117618075299277e-01	 2.106536493444479e+00	 7.362442463291602e+00
 6.922883584353097e-01	 2.113016293333973e+00	 7.273326052520526e+00
 6.727989478557823e-01	 2.119302421784480e+00	 7.185198143642761e+00
 6.532962960444001e-01	 2.125395320332927e+00	 7.098766510507081e+00
 6.337831025502186e-01	 2.131295478302277e+00	 7.014738212008551e+00
 6.142620452492490e-01	 2.137003432047218e+00	 6.933820179366244e+00
 5.947357794030047e-01	 2.142519764178772e+00	 6.856718691119675e+00
 5.752069367450672e-01	 2.147845102768857e+00	 6.784137819252075e+00
 7.741330413908042e-01	 2.096967410486080e+00	 7.656698036924170e+00
 7.546213028194171e-01	 2.104067753262706e+00	 7.569172669925210e+00
 7.350851996464773e-01	 2.110972363800989e+00	 7.481231475552863e+00
 7.155275228428098e-01	 2.117681537535205e+00	 7.392998819618354e+00
 6.959510456496008e-01	 2.124195620075722e+00	 7.304902329262884e+00
 6.763585225240802e-01	 2.130515006520575e+00	 7.217616290178673e+00
 6.567526881113640e-01	 2.136640140742713e+00	 7.131816421202885e+00
 6.371362562430309e-01	 2.142571514653953e+00	 7.048181507906257e+00
 6.175119189629501e-01	 2.148309667446666e+00	 6.967393795883077e+00
 5.978823455808454e-01	 2.153855184814280e+00	 6.890138225659002e+00
 5.782501817540290e-01	 2.159208698151641e+00	 6.817100596258335e+00
 7.782071888629151e-01	 2.108003439196168e+00	 7.685712457916653e+00
 7.585927629029812e-01	 2.115141150024454e+00	 7.599656960389199e+00
 7.389538441140731e-01	 2.122082098504676e+00	 7.513084400628107e+00
 7.192932381555148e-01	 2.128826581625931e+00	 7.426239614902511e+00
 6.996137328636820e-01	 2.135374946817472e+00	 7.339337599279419e+00
 6.799180971921360e-01	 2.141727591256669e+00	 7.252988302716525e+00
 6.602090801780561e-01	 2.147884961152501e+00	 7.167807036921951e+00
 6.404894099355467e-01	 2.153847551005631e+00	 7.084415998781021e+00
 6.207617926763349e-01	 2.159615902846114e+00	 7.003444500874004e+00
 6.010289117583568e-01	 2.165190605449786e+00	 6.925527995513482e+00
 5.812934267626582e-01	 2.170572293534426e+00	 6.851305983028464e+00
 7.822813363348572e-01	 2.119039467906256e+00	 7.717559909586202e+00
 7.625642229863472e-01	 2.126214546786201e+00	 7.633251104369508e+00
 7.428224885814450e-01	 2.133191833208363e+00	 7.548270050477012e+00
 7.230589534679719e-01	 2.139971625716656e+00	 7.463011932806385e+00
 7.032764200774930e-01	 2.146554273559222e+00	 7.377447738517400e+00
 6.834776718599028e-01	 2.152940175992763e+00	 7.292089337703141e+00
 6.636654722444441e-01	 2.159129781562287e+00	 7.207463859767098e+00
 6.438425636277451e-01	 2.165123587357308e+00	 7.124109185750880e+00
 6.240116663893936e-01	 2.170922138245561e+00	 7.042574046489396e+00
 6.041754779355367e-01	 2.176526026085294e+00	 6.963416864155003e+00
 5.843366717709541e-01	 2.181935888917211e+00	 6.887203431670796e+00
 7.863554838065469e-01	 2.130075496616343e+00	 7.753103825725635e+00
 7.665356830694315e-01	 2.137287943547948e+00	 7.670822194353350e+00
 7.466911330485122e-01	 2.144301567912049e+00	 7.587680351220641e+00
 7.268246687801087e-01	 2.151116669807382e+00	 7.504158940345825e+00
 7.069391072909746e-01	 2.157733600300973e+00	 7.420045255198787e+00
 6.870372465273342e-01	 2.164152760728857e+00	 7.335691864056574e+00
 6.671218643104944e-01	 2.170374601972073e+00	 7.251510506095185e+00
 6.471957173196067e-01	 2.176399623708986e+00	 7.167927598017899e+00
 6.272615401021165e-01	 2.182228373645010e+00	 7.085384229450852e+00
 6.073220441123829e-01	 2.187861446720801e+00	 7.004334849538437e+00
 5.873799167789164e-01	 2.193299484299995e+00	 6.925244743030476e+00
 7.904296312779013e-01	 2.141111525326432e+00	 7.793202512059987e+00
 7.705071431521484e-01	 2.148361340309695e+00	 7.713232205218443e+00
 7.505597775151944e-01	 2.155411302615736e+00	 7.632174415205508e+00
 7.305903840918537e-01	 2.162261713898108e+00	 7.550519903914069e+00
 7.106017945040657e-01	 2.168912927042723e+00	 7.467939312506401e+00
 6.905968211943839e-01	 2.175365345464951e+00	 7.384565687389863e+00
 6.705782563761742e-01	 2.181619422381859e+00	 7.300668727424361e+00
 6.505488710111110e-01	 2.187675660060663e+00	 7.216536805877470e+00
 6.305114138144940e-01	 2.193534609044458e+00	 7.132476891860769e+00
 6.104686102888924e-01	 2.199196867356308e+00	 7.048813108682459e+00
 5.904231617865453e-01	 2.204663079682779e+00	 6.965884031295433e+00
 7.945037787488365e-01	 2.152147554036520e+00	 7.838709151570419e+00
 7.744786032344139e-01	 2.159434737071443e+00	 7.761338018810947e+00
 7.544284219814120e-01	 2.166521037319425e+00	 7.682602224273439e+00
 7.343560994031362e-01	 2.173406757988834e+00	 7.602930200281415e+00
 7.142644817167075e-01	 2.180092253784474e+00	 7.521935746409911e+00
 6.941563958610053e-01	 2.186577930201046e+00	 7.439477969679137e+00
 6.740346484414517e-01	 2.192864242791646e+00	 7.355658427222074e+00
 6.539020247022385e-01	 2.198951696412341e+00	 7.270601430170624e+00
 6.337612875265176e-01	 2.204840844443906e+00	 7.184453919126311e+00
 6.136151764650631e-01	 2.210532287991816e+00	 7.097383920147406e+00
 5.934664067938410e-01	 2.216026675065565e+00	 7.009577687377186e+00
 5.630339567058910e-01	 2.102390721237719e+00	 6.655807845816055e+00
 5.439184288472311e-01	 2.107417068190891e+00	 6.583225985921428e+00
 5.248054598005191e-01	 2.112257826144199e+00	 6.514237613833900e+00
 5.056975529039541e-01	 2.116913741245279e+00	 6.448727898134229e+00
 4.865971850982373e-01	 2.121385600834876e+00	 6.386562115638554e+00
 4.675068061749644e-01	 2.125674232583547e+00	 6.327582954603515e+00
 4.484288380542216e-01	 2.129780503615080e+00	 6.271607396078507e+00
 4.293656740915203e-01	 2.133705319617679e+00	 6.218423254536706e+00
 4.103196784141740e-01	 2.137449623943922e+00	 6.167785458293634e+00
 3.912931852871813e-01	 2.141014396700550e+00	 6.119412149051635e+00
 3.722884985086354e-01	 2.144400653829069e+00	 6.072980678242160e+00
 5.660772017161841e-01	 2.113754316620504e+00	 6.688246564002222e+00
 5.468583528515428e-01	 2.118807831393782e+00	 6.617820791041378e+00
 5.276420766294706e-01	 2.123674754043307e+00	 6.551374099006107e+00
 5.084308899189083e-01	 2.128355834749713e+00	 6.488679190869568e+00
 4.892272830486175e-01	 2.132851865109395e+00	 6.429489315998515e+00
 4.700337190515117e-01	 2.137163677266545e+00	 6.373535351374417e+00
 4.508526329383473e-01	 2.141292143031838e+00	 6.320522442173640e+00
 4.316864310009114e-01	 2.145238172988802e+00	 6.270126286237678e+00
 4.125374901448134e-01	 2.149002715588925e+00	 6.221989146309018e+00
 3.934081572519390e-01	 2.152586756236513e+00	 6.175715672698241e+00
 3.743007485725930e-01	 2.155991316364327e+00	 6.130868617310911e+00
 5.691204467261444e-01	 2.125117912003288e+00	 6.720154233177068e+00
 5.497982768555405e-01	 2.130198594596674e+00	 6.651253716230280e+00
 5.304786934581540e-01	 2.135091681942417e+00	 6.586493015747214e+00
 5.111642269336597e-01	 2.139797928254151e+00	 6.525573905018331e+00
 4.918573809988738e-01	 2.144318129383923e+00	 6.468179470804976e+00
 4.725606319280202e-01	 2.148653121949561e+00	 6.413970900173807e+00
 4.532764278225189e-01	 2.152803782448625e+00	 6.362583808266693e+00
 4.340071879104265e-01	 2.156771026359973e+00	 6.313624195115880e+00
 4.147553018756412e-01	 2.160555807234001e+00	 6.266664118918614e+00
 3.955231292169292e-01	 2.164159115772575e+00	 6.221237171932053e+00
 3.763129986368002e-01	 2.167581978899722e+00	 6.176833843330189e+00
 5.721636917357721e-01	 2.136481507386073e+00	 6.751970582756799e+00
 5.527382008592205e-01	 2.141589357799565e+00	 6.683881937513584e+00
 5.333153102865573e-01	 2.146508609841526e+00	 6.619878814514005e+00
 5.138975639481858e-01	 2.151240021758591e+00	 6.559633090700859e+00
 4.944874789489704e-01	 2.155784393658457e+00	 6.502799057201478e+00
 4.750875448044410e-01	 2.160142566632591e+00	 6.449009839275004e+00
 4.557002227066744e-01	 2.164315421865435e+00	 6.397873339124026e+00
 4.363279448199919e-01	 2.168303879731180e+00	 6.348967793424882e+00
 4.169731136065755e-01	 2.172108898879126e+00	 6.301837036719768e+00
 3.976381011820666e-01	 2.175731475308715e+00	 6.255985560477849e+00
 3.783252487011746e-01	 2.179172641435221e+00	 6.210873455755111e+00
 5.752069367450672e-01	 2.147845102768857e+00	 6.784137819252075e+00
 5.556781248625806e-01	 2.152980121002456e+00	 6.716066310662066e+00
 5.361519271146702e-01	 2.157925537740637e+00	 6.651820582627995e+00
 5.166309009624647e-01	 2.162682115263033e+00	 6.591083161577618e+00
 4.971175768988722e-01	 2.167250657932996e+00	 6.533520427328369e+00
 4.776144576807240e-01	 2.171632011315628e+00	 6.478778593539841e+00
 4.581240175907509e-01	 2.175827061282260e+00	 6.426479193282388e+00
 4.386487017295343e-01	 2.179836733102411e+00	 6.376214165512589e+00
 4.191909253375348e-01	 2.183661990524289e+00	 6.327540637483133e+00
 3.997530731472660e-01	 2.187303834844903e+00	 6.279975496733812e+00
 3.803374987656328e-01	 2.190763303970787e+00	 6.232989844330900e+00
 5.782501817540290e-01	 2.159208698151641e+00	 6.817100596258335e+00
 5.586180488656159e-01	 2.164370884205347e+00	 6.748171318002349e+00
 5.389885439424804e-01	 2.169342465639748e+00	 6.682611972941194e+00
 5.193642379764732e-01	 2.174124208767478e+00	 6.620155810065754e+00
 4.997476748485431e-01	 2.178716922207537e+00	 6.560521714453418e+00
 4.801413705568202e-01	 2.183121455998670e+00	 6.503409675490007e+00
 4.605478124746861e-01	 2.187338700699093e+00	 6.448495742764569e+00
 4.409694586389792e-01	 2.191369586473653e+00	 6.395426569542523e+00
 4.214087370684373e-01	 2.195215082169469e+00	 6.343813642916875e+00
 4.018680451124427e-01	 2.198876194381118e+00	 6.293227298285506e+00
 3.823497488300930e-01	 2.202353966506389e+00	 6.243190613743289e+00
 5.812934267626582e-01	 2.170572293534426e+00	 6.851305983028464e+00
 5.615579728683241e-01	 2.175761647408239e+00	 6.780565014786396e+00
 5.418251607699776e-01	 2.180759393538859e+00	 6.712551132862774e+00
 5.220975749901891e-01	 2.185566302271921e+00	 6.647087923555986e+00
 5.023777727979476e-01	 2.190183186482077e+00	 6.583986740588010e+00
 4.826682834326801e-01	 2.194610900681712e+00	 6.523041588212886e+00
 4.629716073584172e-01	 2.198850340115925e+00	 6.464023474834899e+00
 4.432902155482533e-01	 2.202902439844895e+00	 6.406674341347101e+00
 4.236265487992016e-01	 2.206768173814649e+00	 6.350700667542706e+00
 4.039830170775113e-01	 2.210448553917332e+00	 6.295766858420448e+00
 3.843619988944718e-01	 2.213944629041990e+00	 6.241488510062674e+00
 5.843366717709541e-01	 2.181935888917211e+00	 6.887203431670796e+00
 5.644978968707011e-01	 2.187152410611129e+00	 6.813618975134504e+00
 5.446617775971497e-01	 2.192176321437970e+00	 6.741940633732508e+00
 5.248309120035898e-01	 2.197008395776363e+00	 6.672121501592903e+00
 5.050078707470499e-01	 2.201649450756616e+00	 6.604104925537524e+00
 4.851951963082540e-01	 2.206100345364749e+00	 6.537818730028636e+00
 4.653954022418815e-01	 2.210361979532750e+00	 6.473168895722764e+00
 4.456109724572827e-01	 2.214435293216125e+00	 6.410032800337920e+00
 4.258443605297458e-01	 2.218321265459812e+00	 6.348252129615968e+00
 4.060979890423869e-01	 2.222020913453520e+00	 6.287625564565840e+00
 3.863742489586869e-01	 2.225535291577557e+00	 6.229475568081280e+00
 5.873799167789164e-01	 2.193299484299995e+00	 6.925244743030476e+00
 5.674378208727440e-01	 2.198543173814021e+00	 6.847708237567134e+00
 5.474983944239855e-01	 2.203593249337080e+00	 6.771087400532215e+00
 5.275642490166527e-01	 2.208450489280803e+00	 6.695503573986759e+00
 5.076379686958147e-01	 2.213115715031150e+00	 6.621071197331659e+00
 4.877221091834925e-01	 2.217589790047778e+00	 6.547891300857705e+00
 4.678191971250169e-01	 2.221873618949560e+00	 6.476044436245374e+00
 4.479317293659939e-01	 2.225968146587332e+00	 6.407676688728730e+00
 4.280621722599883e-01	 2.229874357104938e+00	 6.345089742353753e+00
 4.082129610069845e-01	 2.233593272989659e+00	 6.287452496083638e+00
 3.883864990226553e-01	 2.237125954113055e+00	 6.233874821959168e+00
 5.904231617865453e-01	 2.204663079682779e+00	 6.965884031295433e+00
 5.703777448744490e-01	 2.209933937016912e+00	 6.883211250140109e+00
 5.503350112504742e-01	 2.215010177236188e+00	 6.800302641918220e+00
 5.302975860293556e-01	 2.219892582785241e+00	 6.717486119819886e+00
 5.102680666442058e-01	 2.224581979305678e+00	 6.635941135540465e+00
 4.902490220583465e-01	 2.229079234730794e+00	 6.560480019269061e+00
 4.702429920077602e-01	 2.233385258366347e+00	 6.491315129013782e+00
 4.502524862743129e-01	 2.237500999958502e+00	 6.427821843775522e+00
 4.302799839898476e-01	 2.241427448750013e+00	 6.369330169983725e+00
 4.103279329712188e-01	 2.245165632525722e+00	 6.315127253666351e+00
 3.903987490862946e-01	 2.248716616648450e+00	 6.264459408789192e+00
 5.934664067938410e-01	 2.216026675065565e+00	 7.009577687377186e+00
 5.733176688758133e-01	 2.221324700219804e+00	 6.920509815198898e+00
 5.531716280766041e-01	 2.226427105135298e+00	 6.832586531413071e+00
 5.330309230416759e-01	 2.231334676289676e+00	 6.750838778423867e+00
 5.128981645921882e-01	 2.236048243580198e+00	 6.675054622990141e+00
 4.927759349327663e-01	 2.240568679413793e+00	 6.604859553982695e+00
 4.726667868900497e-01	 2.244896897783107e+00	 6.539831660498304e+00
 4.525732431821664e-01	 2.249033853329627e+00	 6.479504955287380e+00
 4.324977957192420e-01	 2.252980540395017e+00	 6.423372163445939e+00
 4.124429049350053e-01	 2.256737992061686e+00	 6.370886993324095e+00
 3.924109991495222e-01	 2.260307279183709e+00	 6.321465908726578e+00
 3.722884985086354e-01	 2.144400653829069e+00	 6.072980678242160e+00
 3.533046669467489e-01	 2.147609976411282e+00	 6.026938881415004e+00
 3.343471699571886e-01	 2.150642857649927e+00	 5.980525873431847e+00
 3.154182225999625e-01	 2.153500414403706e+00	 5.934520641172279e+00
 2.965200072181960e-01	 2.156183795662848e+00	 5.889592910527503e+00
 2.776546729796525e-01	 2.158694181597113e+00	 5.846306888845727e+00
 2.588243354473414e-01	 2.161032782600465e+00	 5.805125817994631e+00
 2.400310761790034e-01	 2.163200838333315e+00	 5.766416384842559e+00
 2.212769423552353e-01	 2.165199616763240e+00	 5.730453079808079e+00
 2.025639464359865e-01	 2.167030413205057e+00	 5.697422588844533e+00
 1.838940658451328e-01	 2.168694549361110e+00	 5.667428298529535e+00
 3.743007485725930e-01	 2.155991316364327e+00	 6.130868617310896e+00
 3.552143078340372e-01	 2.159217985600053e+00	 6.085910116069604e+00
 3.361543440083168e-01	 2.162267259812232e+00	 6.040179854647552e+00
 3.171230841280328e-01	 2.165140261896275e+00	 5.994506398401942e+00
 2.981227223320668e-01	 2.167838147052795e+00	 5.949608881934545e+00
 2.791554194046225e-01	 2.170362101830462e+00	 5.906097089824399e+00
 2.602233023435127e-01	 2.172713343165517e+00	 5.864475433418772e+00
 2.413284639574803e-01	 2.174893117418836e+00	 5.825146798037518e+00
 2.224729624923129e-01	 2.176902699411461e+00	 5.788416355711977e+00
 2.036588212854826e-01	 2.178743391459491e+00	 5.754495433036841e+00
 1.848880284490148e-01	 2.180416522409176e+00	 5.723505517734540e+00
 3.763129986368002e-01	 2.167581978899722e+00	 6.176833843330189e+00
 3.571239487215619e-01	 2.170825994789008e+00	 6.131973001099058e+00
 3.379615180596410e-01	 2.173891661974771e+00	 6.086122937109295e+00
 3.188279456562388e-01	 2.176780109389134e+00	 6.040155915311898e+00
 2.997254374459988e-01	 2.179492498443087e+00	 5.994835880847423e+00
 2.806561658295715e-01	 2.182030022064215e+00	 5.950813603110498e+00
 2.616222692395789e-01	 2.184393903731034e+00	 5.908630053772252e+00
 2.426258517357728e-01	 2.186585396504880e+00	 5.868719668475957e+00
 2.236689826291371e-01	 2.188605782060260e+00	 5.831413591957070e+00
 2.047536961346725e-01	 2.190456369714552e+00	 5.796943000511076e+00
 1.858819910525598e-01	 2.192138495457912e+00	 5.765442589465597e+00
 3.783252487011746e-01	 2.179172641435221e+00	 6.210873455755111e+00
 3.590335896092486e-01	 2.182434003978098e+00	 6.165114564276605e+00
 3.397686921111019e-01	 2.185516064137484e+00	 6.118330987105787e+00
 3.205328071845396e-01	 2.188419956882207e+00	 6.071434240247986e+00
 3.013281525599726e-01	 2.191146849833639e+00	 6.025228851069350e+00
 2.821569122545022e-01	 2.193697942298276e+00	 5.980402351731731e+00
 2.630212361355656e-01	 2.196074464296901e+00	 5.937528034868443e+00
 2.439232395139267e-01	 2.198277675591317e+00	 5.897067606484140e+00
 2.248650027657711e-01	 2.200308864709493e+00	 5.859373840607757e+00
 2.058485709836327e-01	 2.202169347970084e+00	 5.824693334109935e+00
 1.868759536558521e-01	 2.203860468507150e+00	 5.793169453532139e+00
 3.803374987656328e-01	 2.190763303970787e+00	 6.232989844330893e+00
 3.609432304970242e-01	 2.194042013167280e+00	 6.185326978694055e+00
 3.415758661626400e-01	 2.197140466300314e+00	 6.136784599957993e+00
 3.222376687128943e-01	 2.200059804375425e+00	 6.088310722012131e+00
 3.029308676739683e-01	 2.202801201224364e+00	 6.040746597600665e+00
 2.836576586794176e-01	 2.205365862532538e+00	 5.994812671679827e+00
 2.644202030314971e-01	 2.207755024863001e+00	 5.951110690078485e+00
 2.452206272919872e-01	 2.209969954678016e+00	 5.910125719239508e+00
 2.260610229022780e-01	 2.212011947359015e+00	 5.872228186504074e+00
 2.069434458324397e-01	 2.213882326225930e+00	 5.837676043982253e+00
 1.878699162589760e-01	 2.215582441556724e+00	 5.806617152190579e+00
 3.823497488300930e-01	 2.202353966506389e+00	 6.243190613743289e+00
 3.628528713848144e-01	 2.205650022356506e+00	 6.192607474539953e+00
 3.433830402141963e-01	 2.208764868463201e+00	 6.141469025128737e+00
 3.239425302412623e-01	 2.211699651868713e+00	 6.090758947123645e+00
 3.045335827879662e-01	 2.214455552615177e+00	 6.041351734991332e+00
 2.851584051043201e-01	 2.217033782766901e+00	 5.993997270420005e+00
 2.658191699273987e-01	 2.219435585429220e+00	 5.949322258183825e+00
 2.465180150700000e-01	 2.221662233764846e+00	 5.907831587276783e+00
 2.272570430387212e-01	 2.223715030008682e+00	 5.870161266583462e+00
 2.080383206811700e-01	 2.225595304481932e+00	 5.837008651796490e+00
 1.888638788620157e-01	 2.227304414606465e+00	 5.808232070649924e+00
 3.843619988944718e-01	 2.213944629041990e+00	 6.241488510062674e+00
 3.647625122725457e-01	 2.217258031545733e+00	 6.186958252429646e+00
 3.451902142657111e-01	 2.220389270626089e+00	 6.132374092666515e+00
 3.256473917696028e-01	 2.223339499362003e+00	 6.078930350129593e+00
 3.061362979019469e-01	 2.226109904005990e+00	 6.028969133753812e+00
 2.866591515292127e-01	 2.228701703001266e+00	 5.983138264403629e+00
 2.672181368232951e-01	 2.231116145995435e+00	 5.941564863194394e+00
 2.478154028480108e-01	 2.233354512851676e+00	 5.904297061639516e+00
 2.284530631751636e-01	 2.235418112658348e+00	 5.871309001482971e+00
 2.091331955299003e-01	 2.237308282737934e+00	 5.842505120529154e+00
 1.898578414650552e-01	 2.239026387656207e+00	 5.817723812178263e+00
 3.863742489586869e-01	 2.225535291577557e+00	 6.229475568081287e+00
 3.666721531601441e-01	 2.228866040734914e+00	 6.174535495248380e+00
 3.469973883171253e-01	 2.232013672788918e+00	 6.122515046652378e+00
 3.273522532978749e-01	 2.234979346855221e+00	 6.073797298358299e+00
 3.077390130158907e-01	 2.237764255396716e+00	 6.028673744645218e+00
 2.881598979540981e-01	 2.240369623235528e+00	 5.987348445893804e+00
 2.686171037192113e-01	 2.242796706561535e+00	 5.949944362025675e+00
 2.491127906260650e-01	 2.245046791938375e+00	 5.916508769828171e+00
 2.296490833116687e-01	 2.247121195307870e+00	 5.887017858574193e+00
 2.102280703787071e-01	 2.249021260993780e+00	 5.861380597238152e+00
 1.908518040681791e-01	 2.250748360705780e+00	 5.839441964928158e+00
 3.883864990226553e-01	 2.237125954113055e+00	 6.233874821959176e+00
 3.685817940475360e-01	 2.240474049924004e+00	 6.183110862338248e+00
 3.488045623683796e-01	 2.243638074951630e+00	 6.135024869338153e+00
 3.290571148260376e-01	 2.246619194348293e+00	 6.089995679614814e+00
 3.093417281297777e-01	 2.249418606787268e+00	 6.048296725720442e+00
 2.896606443789790e-01	 2.252037543469589e+00	 6.010118346978678e+00
 2.700160706151724e-01	 2.254477267127402e+00	 5.975573746182640e+00
 2.504101784042081e-01	 2.256739071024812e+00	 5.944704006894257e+00
 2.308451034482996e-01	 2.258824277957102e+00	 5.917482270022646e+00
 2.113229452276669e-01	 2.260734239249310e+00	 5.893817167140595e+00
 1.918457666714715e-01	 2.262470333755019e+00	 5.873555606201407e+00
 3.903987490862946e-01	 2.248716616648450e+00	 6.264459408789192e+00
 3.704914349346478e-01	 2.252082059112959e+00	 6.216271726471261e+00
 3.506117364194147e-01	 2.255262477114169e+00	 6.170580046258920e+00
 3.307619763540504e-01	 2.258259041841150e+00	 6.127763234489572e+00
 3.109444432435885e-01	 2.261072958177560e+00	 6.088070748153687e+00
 2.911613908038580e-01	 2.263705463703342e+00	 6.051673584023120e+00
 2.714150375112031e-01	 2.266157827692921e+00	 6.018669842923534e+00
 2.517075661824857e-01	 2.268431350110856e+00	 5.989089332012156e+00
 2.320411235851193e-01	 2.270527360605901e+00	 5.962897306741814e+00
 2.124178200768563e-01	 2.272447217504372e+00	 5.939997454263464e+00
 1.928397292750167e-01	 2.274192306803755e+00	 5.920234218084582e+00
 3.924109991495222e-01	 2.260307279183709e+00	 6.321465908726578e+00
 3.724010758214055e-01	 2.263690068301732e+00	 6.274259790293490e+00
 3.524189104701712e-01	 2.266886879276476e+00	 6.229421593653356e+00
 3.324668378818725e-01	 2.269898889333720e+00	 6.187338260157988e+00
 3.125471583573035e-01	 2.272727309567507e+00	 6.148229123147459e+00
 2.926621372287381e-01	 2.275373383936691e+00	 6.112240461381215e+00
 2.728140044073286e-01	 2.277838388257973e+00	 6.079450179996112e+00
 2.530049539609434e-01	 2.280123629196378e+00	 6.049871982012742e+00
 2.332371437221915e-01	 2.282230443254122e+00	 6.023458659369751e+00
 2.135126949263519e-01	 2.284160195758806e+00	 6.000104609653864e+00
 1.938336918788989e-01	 2.285914279851820e+00	 5.979647682614945e+00
 1.838940658451328e-01	 2.168694549361110e+00	 5.667428298529535e+00
 1.652723973155402e-01	 2.170193131496345e+00	 5.639994633254679e+00
 1.466976330237662e-01	 2.171527827172759e+00	 5.614699991786633e+00
 1.281716003656873e-01	 2.172700030364369e+00	 5.591632478632089e+00
 1.096960918940116e-01	 2.173711157578196e+00	 5.570816504230150e+00
 9.127286513227294e-02	 2.174562646921796e+00	 5.552218647302118e+00
 7.290364241374417e-02	 2.175255957175201e+00	 5.535753978292657e+00
 5.459011074485547e-02	 2.175792566867963e+00	 5.521292877526387e+00
 3.633392169268865e-02	 2.176173973361974e+00	 5.508668374793769e+00
 1.813669129609866e-02	 2.176401691940717e+00	 5.497684030264267e+00
 0.000000000000000e+00	 2.176477254905558e+00	 5.488122369454150e+00
 1.848880284490148e-01	 2.180416522409176e+00	 5.723505517734547e+00
 1.661657082640428e-01	 2.181923204504911e+00	 5.695000457865985e+00
 1.474905458382163e-01	 2.183265114321994e+00	 5.668588195384069e+00
 1.288643784446188e-01	 2.184443653368975e+00	 5.644364603154019e+00
 1.102890083248354e-01	 2.185460245809202e+00	 5.622353753001973e+00
 9.176620250194176e-02	 2.186316337523313e+00	 5.602513437017310e+00
 7.329769261854603e-02	 2.187013395176153e+00	 5.584741192808950e+00
 5.488517479946993e-02	 2.187552905288837e+00	 5.568880868082988e+00
 3.653030953863416e-02	 2.187936373316615e+00	 5.554729752696825e+00
 1.823472160969992e-02	 2.188165322733191e+00	 5.542046299191923e+00
 0.000000000000000e+00	 2.188241294122136e+00	 5.530558445393374e+00
 1.858819910525598e-01	 2.192138495457912e+00	 5.765442589465605e+00
 1.670590192122036e-01	 2.193653277514183e+00	 5.736493446727730e+00
 1.482834586523424e-01	 2.195002401471962e+00	 5.709732506930163e+00
 1.295571565232612e-01	 2.196187276374336e+00	 5.685260446497245e+00
 1.108819247554170e-01	 2.197209334040982e+00	 5.663097820308780e+00
 9.225953987142164e-02	 2.198070028125613e+00	 5.643190224443905e+00
 7.369174282321389e-02	 2.198770833177896e+00	 5.625414007111662e+00
 5.518023885400166e-02	 2.199313243710509e+00	 5.609582564951384e+00
 3.672669738453967e-02	 2.199698773272057e+00	 5.595453254333897e+00
 1.833275192329037e-02	 2.199928953526466e+00	 5.582734939840530e+00
 0.000000000000000e+00	 2.200005333339514e+00	 5.571096194384923e+00
 1.868759536558521e-01	 2.203860468507150e+00	 5.793169453532147e+00
 1.679523301601082e-01	 2.205383350523982e+00	 5.764408637471851e+00
 1.490763714662256e-01	 2.206739688622480e+00	 5.738076526615127e+00
 1.302499346016870e-01	 2.207930899380265e+00	 5.714275935954223e+00
 1.114748411858169e-01	 2.208958422273341e+00	 5.693021017147781e+00
 9.275287724075990e-02	 2.209823718728503e+00	 5.674242044411405e+00
 7.408579302778125e-02	 2.210528271180234e+00	 5.657790794237006e+00
 5.547530290847136e-02	 2.211073582132779e+00	 5.643446558008377e+00
 3.692308523041517e-02	 2.211461173228096e+00	 5.630922818678788e+00
 1.843078223687272e-02	 2.211692584320339e+00	 5.619874614902730e+00
 0.000000000000000e+00	 2.211769372557491e+00	 5.609906608010244e+00
 1.878699162589760e-01	 2.215582441556724e+00	 5.806617152190572e+00
 1.688456411078419e-01	 2.217113423534136e+00	 5.778681709202065e+00
 1.498692842799468e-01	 2.218476975773366e+00	 5.753564042663860e+00
 1.309427126799682e-01	 2.219674522386572e+00	 5.731366743749278e+00
 1.120677576160956e-01	 2.220707510506085e+00	 5.712094969444886e+00
 9.324621461000365e-02	 2.221577409331783e+00	 5.695660832487214e+00
 7.447984323228156e-02	 2.222285709182966e+00	 5.681888904266453e+00
 5.577036696289970e-02	 2.222833920555446e+00	 5.670536762037054e+00
 3.711947307627067e-02	 2.223223573184536e+00	 5.661254291048736e+00
 1.852881255044967e-02	 2.223456215114614e+00	 5.653622785084559e+00
 0.000000000000000e+00	 2.223533411775869e+00	 5.647179004586065e+00
 1.888638788620157e-01	 2.227304414606465e+00	 5.808232070649923e+00
 1.697389520554903e-01	 2.228843496544465e+00	 5.783212877543707e+00
 1.506621970935871e-01	 2.230214262924436e+00	 5.761454678713666e+00
 1.316354907581771e-01	 2.231418145393068e+00	 5.742888628338656e+00
 1.126606740463138e-01	 2.232456598739023e+00	 5.727388908414090e+00
 9.373955197920020e-02	 2.233331099935260e+00	 5.714774603252286e+00
 7.487389343674838e-02	 2.234043147185897e+00	 5.704811414338448e+00
 5.606543101730738e-02	 2.234594258978311e+00	 5.697213278268274e+00
 3.731586092211618e-02	 2.234985973141174e+00	 5.691643946261786e+00
 1.862684286402392e-02	 2.235219845909088e+00	 5.687718579350209e+00
 0.000000000000000e+00	 2.235297450994446e+00	 5.685005408567333e+00
 1.898578414650552e-01	 2.239026387656207e+00	 5.817723812178263e+00
 1.706322630031386e-01	 2.240573569554795e+00	 5.796391108769685e+00
 1.514551099072274e-01	 2.241951550075506e+00	 5.778073176164547e+00
 1.323282688363860e-01	 2.243161768399564e+00	 5.762738998089956e+00
 1.132535904765320e-01	 2.244205686971960e+00	 5.750300653228486e+00
 9.423288934839673e-02	 2.245084790538737e+00	 5.740614748530877e+00
 7.526794364121522e-02	 2.245800585188828e+00	 5.733483703186014e+00
 5.636049507171503e-02	 2.246354597401178e+00	 5.728656948616700e+00
 3.751224876796169e-02	 2.246748373097813e+00	 5.725832105425797e+00
 1.872487317759816e-02	 2.246983476703560e+00	 5.724656193627780e+00
 0.000000000000000e+00	 2.247061490213023e+00	 5.724726927562088e+00
 1.908518040681791e-01	 2.250748360705780e+00	 5.839441964928151e+00
 1.715255739508725e-01	 2.252303642564949e+00	 5.820670818382998e+00
 1.522480227209486e-01	 2.253688837226391e+00	 5.804695282272253e+00
 1.330210469146673e-01	 2.254905391405870e+00	 5.791519952672015e+00
 1.138465069068107e-01	 2.255954775204704e+00	 5.781092700024135e+00
 9.472622671764054e-02	 2.256838481142017e+00	 5.773305644286851e+00
 7.566199384571558e-02	 2.257558023191562e+00	 5.767995991395805e+00
 5.665555912614336e-02	 2.258114935823844e+00	 5.764946799114115e+00
 3.770863661381720e-02	 2.258510773054252e+00	 5.763887735707340e+00
 1.882290349117511e-02	 2.258747107497833e+00	 5.764495890075586e+00
 0.000000000000000e+00	 2.258825529431401e+00	 5.766396686870968e+00
 1.918457666714715e-01	 2.262470333755019e+00	 5.873555606201406e+00
 1.724188848987771e-01	 2.264033715574748e+00	 5.856207631479964e+00
 1.530409355348319e-01	 2.265426124376909e+00	 5.841462915446984e+00
 1.337138249930930e-01	 2.266649014411799e+00	 5.829359680164959e+00
 1.144394233372106e-01	 2.267703863437063e+00	 5.819879713360298e+00
 9.521956408697881e-02	 2.268592171744905e+00	 5.812948867805877e+00
 7.605604405028298e-02	 2.269315461193897e+00	 5.808437433029889e+00
 5.695062318061309e-02	 2.269875274246112e+00	 5.806160450223390e+00
 3.790502445969272e-02	 2.270273173010292e+00	 5.805878036362873e+00
 1.892093380475747e-02	 2.270510738291708e+00	 5.807295778549597e+00
 0.000000000000000e+00	 2.270589568649378e+00	 5.810065254282054e+00
 1.928397292750167e-01	 2.274192306803755e+00	 5.920234218084575e+00
 1.733121958469380e-01	 2.275763788584020e+00	 5.903157411287179e+00
 1.538338483489582e-01	 2.277163411526879e+00	 5.888518034883331e+00
 1.344066030717356e-01	 2.278392637417161e+00	 5.876386182608713e+00
 1.150323397677923e-01	 2.279452951668842e+00	 5.866775916703083e+00
 9.571290145645879e-02	 2.280345862347206e+00	 5.859645273276292e+00
 7.645009425495088e-02	 2.281072899195640e+00	 5.854896151398971e+00
 5.724568723514487e-02	 2.281635612667783e+00	 5.852374159663423e+00
 3.810141230559825e-02	 2.282035572965733e+00	 5.851868488891733e+00
 1.901896411834792e-02	 2.282274369084982e+00	 5.853111874427762e+00
 0.000000000000000e+00	 2.282353607866756e+00	 5.855780705982339e+00
 1.938336918788989e-01	 2.285914279851820e+00	 5.979647682614938e+00
 1.742055067954408e-01	 2.287493861592585e+00	 5.961676261068787e+00
 1.546267611634085e-01	 2.288900698676113e+00	 5.946002649052127e+00
 1.350993811506673e-01	 2.290136260421766e+00	 5.932727290988949e+00
 1.156252561986164e-01	 2.291202039899849e+00	 5.921895113886074e+00
 9.620623882612772e-02	 2.292099552948723e+00	 5.913495019780430e+00
 7.684414445975285e-02	 2.292830337196592e+00	 5.907459273708080e+00
 5.754075128975939e-02	 2.293395951088660e+00	 5.903662863903990e+00
 3.829780015154378e-02	 2.293797972920375e+00	 5.901922905642200e+00
 1.911699443194919e-02	 2.294037999877456e+00	 5.901998154658810e+00
 0.000000000000000e+00	 2.294117647083334e+00	 5.903588690441292e+00
 2.294117647083334e+00	 0.000000000000000e+00	 1.172908630321283e+01
 2.294037999877456e+00	 1.911699443194793e-02	 1.173326874680881e+01
 2.293797972920375e+00	 3.829780015154270e-02	 1.173630428092306e+01
 2.293395951088659e+00	 5.754075128975850e-02	 1.173868734007603e+01
 2.292830337196592e+00	 7.684414445975213e-02	 1.174089887962337e+01
 2.292099552948724e+00	 9.620623882612718e-02	 1.174340498782075e+01
 2.291202039899849e+00	 1.156252561986160e-01	 1.174665551914319e+01
 2.290136260421767e+00	 1.350993811506671e-01	 1.175108276147996e+01
 2.288900698676113e+00	 1.546267611634085e-01	 1.175710015066093e+01
 2.287493861592586e+00	 1.742055067954411e-01	 1.176510104697306e+01
 2.285914279851820e+00	 1.938336918788990e-01	 1.177545758954443e+01
 2.305881686298962e+00	 0.000000000000000e+00	 1.170488769957877e+01
 2.305801630668981e+00	 1.921502474556201e-02	 1.170883916399249e+01
 2.305560372874068e+00	 3.849418799753572e-02	 1.171163840406479e+01
 2.305156289508589e+00	 5.783581534447124e-02	 1.171378248176878e+01
 2.304587775196607e+00	 7.723819466471327e-02	 1.171575432289968e+01
 2.303853243549313e+00	 9.669957619602043e-02	 1.171802125159997e+01
 2.302951128129945e+00	 1.162181726297278e-01	 1.172103354145763e+01
 2.301879883425482e+00	 1.357921592299420e-01	 1.172522299594394e+01
 2.300637985824484e+00	 1.554196739782433e-01	 1.173100157184633e+01
 2.299223934600324e+00	 1.750988177443495e-01	 1.173876006060006e+01
 2.297636252899101e+00	 1.948276544831813e-01	 1.174886684368887e+01
 2.317645725513689e+00	 0.000000000000000e+00	 1.168173519705642e+01
 2.317565261459606e+00	 1.931305505918824e-02	 1.168554140523318e+01
 2.317322772826869e+00	 3.869057584357376e-02	 1.168819188269541e+01
 2.316916627927636e+00	 5.813087939927705e-02	 1.169018452431630e+01
 2.316345213195748e+00	 7.763224486982517e-02	 1.169200249852752e+01
 2.315606934149049e+00	 9.719291356612624e-02	 1.169411270608972e+01
 2.314700216359208e+00	 1.168110890611121e-01	 1.169696425052706e+01
 2.313623506428394e+00	 1.364849373095421e-01	 1.170098693313305e+01
 2.312375272972086e+00	 1.562125867934426e-01	 1.170658978639332e+01
 2.310954007607332e+00	 1.759921286936424e-01	 1.171415966096956e+01
 2.309358225945702e+00	 1.958216170878427e-01	 1.172405988270286e+01
 2.329409764727617e+00	 0.000000000000000e+00	 1.165963200962362e+01
 2.329328892249435e+00	 1.941108537282528e-02	 1.166335990365348e+01
 2.329085172778880e+00	 3.888696368965178e-02	 1.166593127952420e+01
 2.328676966345907e+00	 5.842594345416558e-02	 1.166784311471917e+01
 2.328102651194136e+00	 7.802629507507115e-02	 1.166957713819788e+01
 2.327360624748055e+00	 9.768625093642093e-02	 1.167159821515798e+01
 2.326449304587775e+00	 1.174040054927388e-01	 1.167435273831937e+01
 2.325367129430645e+00	 1.371777153894313e-01	 1.167826703876807e+01
 2.324112560119068e+00	 1.570054996089659e-01	 1.168374583039237e+01
 2.322684080613768e+00	 1.768854396432770e-01	 1.169117070328631e+01
 2.321080198991780e+00	 1.968155796928412e-01	 1.170089868286464e+01
 2.341173803940845e+00	 0.000000000000000e+00	 1.163858443948438e+01
 2.341092523038569e+00	 1.950911568647178e-02	 1.164228258193688e+01
 2.340847572730208e+00	 3.908335153576482e-02	 1.164482700751089e+01
 2.340437304763515e+00	 5.872100750912652e-02	 1.164671206978445e+01
 2.339860089191887e+00	 7.842034528043439e-02	 1.164841642139149e+01
 2.339114315346458e+00	 9.817958830688100e-02	 1.165040132648481e+01
 2.338198392815776e+00	 1.179969219245775e-01	 1.165310897433704e+01
 2.337110752432374e+00	 1.378704934695733e-01	 1.165696080724191e+01
 2.335849847265579e+00	 1.577984124247726e-01	 1.166235587692455e+01
 2.334414153619785e+00	 1.777787505932105e-01	 1.166966924506372e+01
 2.332802172037496e+00	 1.978095422981344e-01	 1.167925044495033e+01
 2.352937843153472e+00	 0.000000000000000e+00	 1.161860179986781e+01
 2.352856153827107e+00	 1.960714600012638e-02	 1.162230076558616e+01
 2.352609972680958e+00	 3.927973938190786e-02	 1.162485323398828e+01
 2.352197643180570e+00	 5.901607156414949e-02	 1.162674927153407e+01
 2.351617527189119e+00	 7.881439548589819e-02	 1.162846286251195e+01
 2.350868005944384e+00	 9.867292567748276e-02	 1.163045015087498e+01
 2.349947481043346e+00	 1.185898383565979e-01	 1.163314767758338e+01
 2.348854375433725e+00	 1.385632715499322e-01	 1.163697062672908e+01
 2.347587134411766e+00	 1.585913252408223e-01	 1.164231109482158e+01
 2.346144226625538e+00	 1.786720615434004e-01	 1.164953639906038e+01
 2.344524145083007e+00	 1.988035049036805e-01	 1.165898744189082e+01
 2.364701882365600e+00	 0.000000000000000e+00	 1.159969634013090e+01
 2.364619784615152e+00	 1.970517631378773e-02	 1.160340909876765e+01
 2.364372372631235e+00	 3.947612722807591e-02	 1.160598778763400e+01
 2.363957981597184e+00	 5.931113561922417e-02	 1.160791656570675e+01
 2.363374965185951e+00	 7.920844569144575e-02	 1.160966320133622e+01
 2.362621696541958e+00	 9.916626304820257e-02	 1.161167724509322e+01
 2.361696569270620e+00	 1.191827547887698e-01	 1.161438819223408e+01
 2.360597998434840e+00	 1.392560496304717e-01	 1.161820364816321e+01
 2.359324421557781e+00	 1.593842380570745e-01	 1.162350751143676e+01
 2.357874299631178e+00	 1.795653724938038e-01	 1.163065819034752e+01
 2.356246118128470e+00	 1.997974675094372e-01	 1.163998687065695e+01
 2.376465921577328e+00	 0.000000000000000e+00	 1.158188317308622e+01
 2.376383415402807e+00	 1.980320662745448e-02	 1.158560546265156e+01
 2.376134772581144e+00	 3.967251507426396e-02	 1.158821206819234e+01
 2.375718320013467e+00	 5.960619967434024e-02	 1.159017966324502e+01
 2.375132403182499e+00	 7.960249589706032e-02	 1.159196829666713e+01
 2.374375387139305e+00	 9.965960041901686e-02	 1.159401949809854e+01
 2.373445657497731e+00	 1.197756712210629e-01	 1.159675436688619e+01
 2.372341621435860e+00	 1.399488277111558e-01	 1.160057165794984e+01
 2.371061708703769e+00	 1.601771508734886e-01	 1.160584587928673e+01
 2.369604372636864e+00	 1.804586834443781e-01	 1.161292541736362e+01
 2.367968091174044e+00	 2.007914301153624e-01	 1.162213070822692e+01
 2.388229960788756e+00	 0.000000000000000e+00	 1.156518020447720e+01
 2.388147046190171e+00	 1.990123694112529e-02	 1.156889089616311e+01
 2.387897172530790e+00	 3.986890292046700e-02	 1.157151095885136e+01
 2.387478658429529e+00	 5.990126372948731e-02	 1.157350804466517e+01
 2.386889841178882e+00	 7.999654610272518e-02	 1.157533302307857e+01
 2.386129077736550e+00	 1.001529377899020e-01	 1.157741802056137e+01
 2.385194745724813e+00	 1.203685876534468e-01	 1.158017443726087e+01
 2.384085244436926e+00	 1.406416057919483e-01	 1.158399095428513e+01
 2.382798995849880e+00	 1.609700636900242e-01	 1.158923154643251e+01
 2.381334445642749e+00	 1.813519943950805e-01	 1.159623351681940e+01
 2.379690064219889e+00	 2.017853927214139e-01	 1.160530557149430e+01
 2.399993999999984e+00	 0.000000000000000e+00	 1.154960806452786e+01
 2.399910676977346e+00	 1.999926725479879e-02	 1.155326951906043e+01
 2.399659572480278e+00	 4.006529076668006e-02	 1.155587274118435e+01
 2.399238996845481e+00	 6.019632778465506e-02	 1.155787486721113e+01
 2.398647279175215e+00	 8.039059630842353e-02	 1.155971617064528e+01
 2.397882768333822e+00	 1.006462751608344e-01	 1.156181803755019e+01
 2.396943833951998e+00	 1.209615040858913e-01	 1.156458091224230e+01
 2.395828867438179e+00	 1.413343838728130e-01	 1.156838222695689e+01
 2.394536282996263e+00	 1.617629765066408e-01	 1.157357433046952e+01
 2.393064518648987e+00	 1.822453053458684e-01	 1.158048243232030e+01
 2.391412037266161e+00	 2.027793553275497e-01	 1.158940258098248e+01
 2.411758039211112e+00	 0.000000000000000e+00	 1.153519004149536e+01
 2.411674307764434e+00	 2.009729756847366e-02	 1.153874845726121e+01
 2.411421972429715e+00	 4.026167861289813e-02	 1.154128901256809e+01
 2.410999335261436e+00	 6.049139183983320e-02	 1.154325687469705e+01
 2.410404717171623e+00	 8.078464651413869e-02	 1.154508034755777e+01
 2.409636458931244e+00	 1.011396125317904e-01	 1.154716878428027e+01
 2.408692922179424e+00	 1.215544205183662e-01	 1.154991046313729e+01
 2.407572490439763e+00	 1.420271619537140e-01	 1.155367044050869e+01
 2.406273570143068e+00	 1.625558893232980e-01	 1.155878839600467e+01
 2.404794591655733e+00	 1.831386162966989e-01	 1.156557648658032e+01
 2.403134010313020e+00	 2.037733179337277e-01	 1.157431722823476e+01
 2.285914279851820e+00	 1.938336918788990e-01	 1.177545758954443e+01
 2.284160195758806e+00	 2.135126949263510e-01	 1.178674117117526e+01
 2.282230443254122e+00	 2.332371437221905e-01	 1.179743403778362e+01
 2.280123629196377e+00	 2.530049539609426e-01	 1.180775154848348e+01
 2.277838388257972e+00	 2.728140044073278e-01	 1.181789218903775e+01
 2.275373383936691e+00	 2.926621372287375e-01	 1.182803736982352e+01
 2.272727309567507e+00	 3.125471583573031e-01	 1.183835141891243e+01
 2.269898889333721e+00	 3.324668378818721e-01	 1.184898179396222e+01
 2.266886879276476e+00	 3.524189104701708e-01	 1.186005953764778e+01
 2.263690068301732e+00	 3.724010758214052e-01	 1.187171866085020e+01
 2.260307279183708e+00	 3.924109991495220e-01	 1.188630024712212e+01
 2.297636252899101e+00	 1.948276544831813e-01	 1.174886684368887e+01
 2.295873174012506e+00	 2.146075697762100e-01	 1.175994794931732e+01
 2.293933525901670e+00	 2.344331638595621e-01	 1.177053509988157e+01
 2.291815908281291e+00	 2.543023417396145e-01	 1.178082953352897e+01
 2.289518948822486e+00	 2.742129713035668e-01	 1.179101346757124e+01
 2.287041304169572e+00	 2.941628836536210e-01	 1.180124978158580e+01
 2.284381660957057e+00	 3.141498734709083e-01	 1.181168189530916e+01
 2.281538736825964e+00	 3.341716994094740e-01	 1.182243386571081e+01
 2.278511281438520e+00	 3.542260845206059e-01	 1.183361072872180e+01
 2.275298077490303e+00	 3.743107167077562e-01	 1.184536890895696e+01
 2.271897941718819e+00	 3.944232492122796e-01	 1.186024971366992e+01
 2.309358225945702e+00	 1.958216170878427e-01	 1.172405988270286e+01
 2.307586152265584e+00	 2.157024446264134e-01	 1.173496658104240e+01
 2.305636608548654e+00	 2.356291839972176e-01	 1.174545773135299e+01
 2.303508187365705e+00	 2.555997295184897e-01	 1.175572130714720e+01
 2.301199509386569e+00	 2.756119381999143e-01	 1.176592426415292e+01
 2.298709224402089e+00	 2.956636300785098e-01	 1.177621210714001e+01
 2.296036012346312e+00	 3.157525885844127e-01	 1.178670865085671e+01
 2.293178584317975e+00	 3.358765609368728e-01	 1.179751600016040e+01
 2.290135683600395e+00	 3.560332585707454e-01	 1.180871477557032e+01
 2.286906086678758e+00	 3.762203575937341e-01	 1.182051564369835e+01
 2.283488604253856e+00	 3.964354992746081e-01	 1.183558554144993e+01
 2.321080198991780e+00	 1.968155796928412e-01	 1.170089868286464e+01
 2.319299130518194e+00	 2.167973194769230e-01	 1.171165200523964e+01
 2.317339691195236e+00	 2.368252041351257e-01	 1.172205220156738e+01
 2.315200466449778e+00	 2.568971172975464e-01	 1.173227486694636e+01
 2.312880069950372e+00	 2.770109050963594e-01	 1.174247273214717e+01
 2.310377144634391e+00	 2.971643765034055e-01	 1.175277511263794e+01
 2.307690363735411e+00	 3.173553036978319e-01	 1.176328755067175e+01
 2.304818431809887e+00	 3.375814224640977e-01	 1.177409167621900e+01
 2.301760085762221e+00	 3.578404326206309e-01	 1.178524531373318e+01
 2.298514095867207e+00	 3.781299984793929e-01	 1.179704247973366e+01
 2.295079266788925e+00	 3.984477493365736e-01	 1.181220480329196e+01
 2.332802172037496e+00	 1.978095422981344e-01	 1.167925044495033e+01
 2.331012108770500e+00	 2.178921943277005e-01	 1.168986435449604e+01
 2.329042773841569e+00	 2.380212242732549e-01	 1.170017388033571e+01
 2.326892745533664e+00	 2.581945050767622e-01	 1.171034315582023e+01
 2.324560630514047e+00	 2.784098719928914e-01	 1.172051175377418e+01
 2.322045064866622e+00	 2.986651229283100e-01	 1.173079401607972e+01
 2.319344715124489e+00	 3.189580188111805e-01	 1.174127857489793e+01
 2.316458279301830e+00	 3.392862839911767e-01	 1.175202809201828e+01
 2.313384487924118e+00	 3.596476066703047e-01	 1.176307924408807e+01
 2.310122105055762e+00	 3.800396393647878e-01	 1.177483549986571e+01
 2.306669929324125e+00	 4.004599993982415e-01	 1.179000659936552e+01
 2.344524145083007e+00	 1.988035049036805e-01	 1.165898744189082e+01
 2.342725087022662e+00	 2.189870691787077e-01	 1.166946879827846e+01
 2.340745856487816e+00	 2.392172444115739e-01	 1.167968307767865e+01
 2.338585024617520e+00	 2.594918928561151e-01	 1.168978389936737e+01
 2.336241191077748e+00	 2.798088388894992e-01	 1.169989877625094e+01
 2.333712985098928e+00	 3.001658693532245e-01	 1.171012832325003e+01
 2.330999066513690e+00	 3.205607339244738e-01	 1.172054565551608e+01
 2.328098126793928e+00	 3.409911455181390e-01	 1.173119600367999e+01
 2.325008890086205e+00	 3.614547807198085e-01	 1.174209657465852e+01
 2.321730114244533e+00	 3.819492802499733e-01	 1.175378314064033e+01
 2.318260591859557e+00	 4.024722494596774e-01	 1.176889195197020e+01
 2.356246118128470e+00	 1.997974675094372e-01	 1.163998687065696e+01
 2.354438065274835e+00	 2.200819440299062e-01	 1.165033539041250e+01
 2.352448939134135e+00	 2.404132645500511e-01	 1.166044488792107e+01
 2.350277303701501e+00	 2.607892806355828e-01	 1.167045944762994e+01
 2.347921751641623e+00	 2.812078057861718e-01	 1.168049565220640e+01
 2.345380905331452e+00	 3.016666157781511e-01	 1.169064166784779e+01
 2.342653417903147e+00	 3.221634490377266e-01	 1.170095651722879e+01
 2.339737974286318e+00	 3.426960070450129e-01	 1.171146956800057e+01
 2.336633292248605e+00	 3.632619547691848e-01	 1.172218026614634e+01
 2.333338123433632e+00	 3.838589211350036e-01	 1.173377608144025e+01
 2.329851254395322e+00	 4.044844995209472e-01	 1.174876370355364e+01
 2.367968091174044e+00	 2.007914301153624e-01	 1.162213070822692e+01
 2.366151043527184e+00	 2.211768188812580e-01	 1.163233892070835e+01
 2.364152021780684e+00	 2.416092846886553e-01	 1.164232903796389e+01
 2.361969582785767e+00	 2.620866684151434e-01	 1.165223662100284e+01
 2.359602312205826e+00	 2.826067726828984e-01	 1.166216848422470e+01
 2.357048825564341e+00	 3.031673622030910e-01	 1.167220165566382e+01
 2.354307769292999e+00	 3.237661641509539e-01	 1.168238252227838e+01
 2.351377821779126e+00	 3.444008685718272e-01	 1.169272618891778e+01
 2.348257694411438e+00	 3.650691288184754e-01	 1.170321608105953e+01
 2.344946132623168e+00	 3.857685620199337e-01	 1.171470713695284e+01
 2.341441916931521e+00	 4.064967495821165e-01	 1.172952641784472e+01
 2.379690064219889e+00	 2.017853927214139e-01	 1.160530557149430e+01
 2.377864021779865e+00	 2.222716937327246e-01	 1.161535877059107e+01
 2.375855104427625e+00	 2.428053048273549e-01	 1.162520973958806e+01
 2.373661861870469e+00	 2.633840561947746e-01	 1.163498656016859e+01
 2.371282872770508e+00	 2.840057395796680e-01	 1.164478747337275e+01
 2.368716745797741e+00	 3.046681086280461e-01	 1.165467971266750e+01
 2.365962120683385e+00	 3.253688792641707e-01	 1.166469851906248e+01
 2.363017669272480e+00	 3.461057300986109e-01	 1.167484636762971e+01
 2.359882096574824e+00	 3.668763028677224e-01	 1.168509243631221e+01
 2.356554141813254e+00	 3.876782029048179e-01	 1.169647115289491e+01
 2.353032579468255e+00	 4.085089996432510e-01	 1.171108628399515e+01
 2.391412037266161e+00	 2.027793553275497e-01	 1.158940258098248e+01
 2.389577000033041e+00	 2.233665685842679e-01	 1.159927877259827e+01
 2.387558187075115e+00	 2.440013249661186e-01	 1.160896554565360e+01
 2.385354140955767e+00	 2.646814439744545e-01	 1.161858457992093e+01
 2.382963433335819e+00	 2.854047064764696e-01	 1.162822677157618e+01
 2.380384666031798e+00	 3.061688550530177e-01	 1.163795093686768e+01
 2.377616472074445e+00	 3.269715943773921e-01	 1.164778269441695e+01
 2.374657516766514e+00	 3.478105916253922e-01	 1.165771355624016e+01
 2.371506498738885e+00	 3.686834769169681e-01	 1.166770025917614e+01
 2.368162151003999e+00	 3.895878437897107e-01	 1.167896490488309e+01
 2.364623242005624e+00	 4.105212497044163e-01	 1.169335102362579e+01
 2.403134010313020e+00	 2.037733179337277e-01	 1.157431722823476e+01
 2.401289978286870e+00	 2.244614434358497e-01	 1.158398707361198e+01
 2.399261269723313e+00	 2.451973451049151e-01	 1.159347921005943e+01
 2.397046420041816e+00	 2.659788317541608e-01	 1.160291002674320e+01
 2.394643993901913e+00	 2.868036733732925e-01	 1.161236433771216e+01
 2.392052586266658e+00	 3.076696014780080e-01	 1.162189395381968e+01
 2.389270823466315e+00	 3.285743094906335e-01	 1.163151642944094e+01
 2.386297364261357e+00	 3.495154531522003e-01	 1.164121401481002e+01
 2.383130900903740e+00	 3.704906509662543e-01	 1.165093287282902e+01
 2.379770160195517e+00	 3.914974846746673e-01	 1.166208700034208e+01
 2.376213904543731e+00	 4.125334997656784e-01	 1.167622980067883e+01
 2.260307279183708e+00	 3.924109991495220e-01	 1.188630024712212e+01
 2.256737992061686e+00	 4.124429049350039e-01	 1.190299259050733e+01
 2.252980540395017e+00	 4.324977957192407e-01	 1.191935508860399e+01
 2.249033853329628e+00	 4.525732431821655e-01	 1.193544599283399e+01
 2.244896897783106e+00	 4.726667868900488e-01	 1.195131868351072e+01
 2.240568679413793e+00	 4.927759349327657e-01	 1.196702164067108e+01
 2.236048243580198e+00	 5.128981645921877e-01	 1.198259848396100e+01
 2.231334676289676e+00	 5.330309230416758e-01	 1.199808808411234e+01
 2.226427105135298e+00	 5.531716280766042e-01	 1.201352474831714e+01
 2.221324700219804e+00	 5.733176688758135e-01	 1.202895873356895e+01
 2.216026675065565e+00	 5.934664067938409e-01	 1.204537285012539e+01
 2.271897941718819e+00	 3.944232492122796e-01	 1.186024971366991e+01
 2.268310351597542e+00	 4.145578768982835e-01	 1.187721065395013e+01
 2.264533632039950e+00	 4.347156074481158e-01	 1.189391593662651e+01
 2.260566706700706e+00	 4.548940000895061e-01	 1.191044090473897e+01
 2.256408537199838e+00	 4.750905817718468e-01	 1.192685529337121e+01
 2.252058124096780e+00	 4.953028478067258e-01	 1.194322315709094e+01
 2.247514507854713e+00	 5.155282625397475e-01	 1.195960286811656e+01
 2.242776769794111e+00	 5.357642600536110e-01	 1.197604718785534e+01
 2.237844033034410e+00	 5.560082449023823e-01	 1.199260341422222e+01
 2.232715463422698e+00	 5.762575928768499e-01	 1.200931360689766e+01
 2.227390270448351e+00	 5.965096518008189e-01	 1.202621489241709e+01
 2.283488604253856e+00	 3.964354992746081e-01	 1.183558554144993e+01
 2.279882711133366e+00	 4.166728488611051e-01	 1.185269546686475e+01
 2.276086723684874e+00	 4.369334191765263e-01	 1.186961511546105e+01
 2.272099560071795e+00	 4.572147569963952e-01	 1.188643265413728e+01
 2.267920176616594e+00	 4.775143766532202e-01	 1.190322992554408e+01
 2.263547568779797e+00	 4.978297606802980e-01	 1.192008233838829e+01
 2.258980772129261e+00	 5.181583604869600e-01	 1.193705883027370e+01
 2.254218863298579e+00	 5.384975970652401e-01	 1.195422190582352e+01
 2.249260960933549e+00	 5.588448617278902e-01	 1.197162775258965e+01
 2.244106226625616e+00	 5.791975168776422e-01	 1.198932643699596e+01
 2.238753865831157e+00	 5.995528968075634e-01	 1.200736218229008e+01
 2.295079266788925e+00	 3.984477493365736e-01	 1.181220480329196e+01
 2.291455070669244e+00	 4.187878208235428e-01	 1.182935968442358e+01
 2.287639815329871e+00	 4.391512309045553e-01	 1.184638245923116e+01
 2.283632413442970e+00	 4.595355139029212e-01	 1.186336992889595e+01
 2.279431816033437e+00	 4.799381715342619e-01	 1.188041187397007e+01
 2.275037013462899e+00	 5.003566735535774e-01	 1.189759091374030e+01
 2.270447036403887e+00	 5.207884584339235e-01	 1.191498244007619e+01
 2.265660956803113e+00	 5.412309340766621e-01	 1.193265462860177e+01
 2.260677888832745e+00	 5.616814785532275e-01	 1.195066852978238e+01
 2.255496989828579e+00	 5.821374408782893e-01	 1.196907824225440e+01
 2.250117461213994e+00	 6.025961418141741e-01	 1.198793117044686e+01
 2.306669929324125e+00	 4.004599993982415e-01	 1.179000659936552e+01
 2.303027430205271e+00	 4.209027927856723e-01	 1.180711751439609e+01
 2.299192906975025e+00	 4.413690426322843e-01	 1.182414885661014e+01
 2.295165266814297e+00	 4.618562708091720e-01	 1.184120194855761e+01
 2.290943455450427e+00	 4.823619664150641e-01	 1.185837041504227e+01
 2.286526458146137e+00	 5.028835864266606e-01	 1.187574001768284e+01
 2.281913300678635e+00	 5.234185563807353e-01	 1.189338856604534e+01
 2.277103050307753e+00	 5.439642710879760e-01	 1.191138590827068e+01
 2.272094816732027e+00	 5.645180953784936e-01	 1.192979400386928e+01
 2.266887753031608e+00	 5.850773648788923e-01	 1.194866708108152e+01
 2.261481056596884e+00	 6.056393868207508e-01	 1.196805188091958e+01
 2.318260591859557e+00	 4.024722494596774e-01	 1.176889195197020e+01
 2.314599789741535e+00	 4.230177647475682e-01	 1.178588462206877e+01
 2.310745998620412e+00	 4.435868543597961e-01	 1.180284616654296e+01
 2.306698120185851e+00	 4.641770277152355e-01	 1.181987839157247e+01
 2.302455094867627e+00	 4.847857612957192e-01	 1.183707474709198e+01
 2.298015902829565e+00	 5.054104992996424e-01	 1.185452014263168e+01
 2.293379564953549e+00	 5.260486543274936e-01	 1.187229084195346e+01
 2.288545143812533e+00	 5.466976080992811e-01	 1.189045443948562e+01
 2.283511744631425e+00	 5.673547122037887e-01	 1.190906992129895e+01
 2.278278516234730e+00	 5.880172888795503e-01	 1.192818781308758e+01
 2.272844651979842e+00	 6.086826318273938e-01	 1.194785041732523e+01
 2.329851254395322e+00	 4.044844995209472e-01	 1.174876370355364e+01
 2.326172149278130e+00	 4.251327367093056e-01	 1.176557803809806e+01
 2.322299090266118e+00	 4.458046660871730e-01	 1.178240713658537e+01
 2.318230973557702e+00	 4.664977846212003e-01	 1.179934932481044e+01
 2.313966734285101e+00	 4.872095561763199e-01	 1.181649393179692e+01
 2.309505347513235e+00	 5.079374121726187e-01	 1.183392109294410e+01
 2.304845829228674e+00	 5.286787522742957e-01	 1.185170163433172e+01
 2.299987237317491e+00	 5.494309451106760e-01	 1.186989704125802e+01
 2.294928672530966e+00	 5.701913290292122e-01	 1.188855951381695e+01
 2.289669279437963e+00	 5.909572128803634e-01	 1.190773211203411e+01
 2.284208247362886e+00	 6.117258768342028e-01	 1.192744899277880e+01
 2.341441916931521e+00	 4.064967495821165e-01	 1.172952641784473e+01
 2.337744508815142e+00	 4.272477086709588e-01	 1.174611606919330e+01
 2.333852181912220e+00	 4.480224778144971e-01	 1.176276532376914e+01
 2.329763826929922e+00	 4.688185415271542e-01	 1.177956513527518e+01
 2.325478373702909e+00	 4.896333510569589e-01	 1.179659683744482e+01
 2.320994792197201e+00	 5.104643250456853e-01	 1.181393194046722e+01
 2.316312093504052e+00	 5.313088502212400e-01	 1.183163201107230e+01
 2.311429330822661e+00	 5.521642821222602e-01	 1.184974863941453e+01
 2.306345600430681e+00	 5.730279458548637e-01	 1.186832349561810e+01
 2.301060042641332e+00	 5.938971368814320e-01	 1.188738847854968e+01
 2.295571842746032e+00	 6.147691218412781e-01	 1.190696595907520e+01
 2.353032579468255e+00	 4.085089996432510e-01	 1.171108628399515e+01
 2.349316868352668e+00	 4.293626806326035e-01	 1.172741821153326e+01
 2.345405273558802e+00	 4.502402895418510e-01	 1.174385501790663e+01
 2.341296680302582e+00	 4.711392984331855e-01	 1.176047646394415e+01
 2.336990013121110e+00	 4.920571459377280e-01	 1.177735208398899e+01
 2.332484236881517e+00	 5.129912379189376e-01	 1.179454098152247e+01
 2.327778357779731e+00	 5.339389481684236e-01	 1.181209171108788e+01
 2.322871424328083e+00	 5.548976191341326e-01	 1.183004224971070e+01
 2.317762528330598e+00	 5.758645626808434e-01	 1.184842006072608e+01
 2.312450805844860e+00	 5.968370608828556e-01	 1.186724225261930e+01
 2.306935438129298e+00	 6.178123668487192e-01	 1.188651583516440e+01
 2.364623242005624e+00	 4.105212497044163e-01	 1.169335102362579e+01
 2.360889227890794e+00	 4.314776525943141e-01	 1.170940506682119e+01
 2.356958365205944e+00	 4.524581012693169e-01	 1.172561116725086e+01
 2.352829533675753e+00	 4.734600553393820e-01	 1.174203414166115e+01
 2.348501652539770e+00	 4.944809408187205e-01	 1.175872798983371e+01
 2.343973681566232e+00	 5.155181507924713e-01	 1.177573569527612e+01
 2.339244622055753e+00	 5.365690461159445e-01	 1.179308911499180e+01
 2.334313517833790e+00	 5.576309561463920e-01	 1.181080896157651e+01
 2.329179456230747e+00	 5.787011795072508e-01	 1.182890488059225e+01
 2.323841569048569e+00	 5.997769848847340e-01	 1.184737562585526e+01
 2.318299033512701e+00	 6.208556118566271e-01	 1.186620933494496e+01
 2.376213904543731e+00	 4.125334997656784e-01	 1.167622980067883e+01
 2.372461587429615e+00	 4.335926245561659e-01	 1.169199826088984e+01
 2.368511456853728e+00	 4.546759129969773e-01	 1.170796930643074e+01
 2.364362387049507e+00	 4.757808122458326e-01	 1.172418912701181e+01
 2.360013291958952e+00	 4.969047357000286e-01	 1.174069252029094e+01
 2.355463126251404e+00	 5.180450636663827e-01	 1.175750270344907e+01
 2.350710886332164e+00	 5.391991440639006e-01	 1.177463121676397e+01
 2.345755611339822e+00	 5.603642931591379e-01	 1.179207792247261e+01
 2.340596384131158e+00	 5.815377963341853e-01	 1.180983110190616e+01
 2.335232332252483e+00	 6.027169088871681e-01	 1.182786765355736e+01
 2.329662628896259e+00	 6.238988568651009e-01	 1.184615339439844e+01
 2.216026675065565e+00	 5.934664067938409e-01	 1.204537285012539e+01
 2.210532287991817e+00	 6.136151764650616e-01	 1.206243675766297e+01
 2.204840844443907e+00	 6.337612875265163e-01	 1.207930969158484e+01
 2.198951696412342e+00	 6.539020247022370e-01	 1.209608251863667e+01
 2.192864242791646e+00	 6.740346484414506e-01	 1.211282565045755e+01
 2.186577930201046e+00	 6.941563958610044e-01	 1.212958986543420e+01
 2.180092253784474e+00	 7.142644817167068e-01	 1.214640795111314e+01
 2.173406757988834e+00	 7.343560994031355e-01	 1.216329725089601e+01
 2.166521037319425e+00	 7.544284219814117e-01	 1.218027927590834e+01
 2.159434737071443e+00	 7.744786032344135e-01	 1.219747259133806e+01
 2.152147554036520e+00	 7.945037787488365e-01	 1.221500831489115e+01
 2.227390270448351e+00	 5.965096518008189e-01	 1.202621489241709e+01
 2.221867708627325e+00	 6.167617426409076e-01	 1.204243175335298e+01
 2.216147079843355e+00	 6.370111612381935e-01	 1.205799889890191e+01
 2.210227732764019e+00	 6.572551783929866e-01	 1.207371885408893e+01
 2.204109063201433e+00	 6.774910405063135e-01	 1.208964267625264e+01
 2.197790514937141e+00	 6.977159705271742e-01	 1.210580102629089e+01
 2.191271580526224e+00	 7.179271689288642e-01	 1.212220554314697e+01
 2.184551802079559e+00	 7.381218147139094e-01	 1.213885113615808e+01
 2.177630772023111e+00	 7.582970664471108e-01	 1.215575361977574e+01
 2.170508133833188e+00	 7.784500633161693e-01	 1.217303909645813e+01
 2.163183582746605e+00	 7.985779262192939e-01	 1.219082818381206e+01
 2.238753865831157e+00	 5.995528968075634e-01	 1.200736218229008e+01
 2.233203129262848e+00	 6.199083088165126e-01	 1.202492415353655e+01
 2.227453315242814e+00	 6.402610349496061e-01	 1.204113674531442e+01
 2.221503769115704e+00	 6.606083320834382e-01	 1.205595923090564e+01
 2.215353883611225e+00	 6.809474325708386e-01	 1.207049469545064e+01
 2.209003099673235e+00	 7.012755451929646e-01	 1.208549617336140e+01
 2.202450907267970e+00	 7.215898561406046e-01	 1.210096430947656e+01
 2.195696846170279e+00	 7.418875300242366e-01	 1.211688129537445e+01
 2.188740506726788e+00	 7.621657109123473e-01	 1.213327272032103e+01
 2.181581530594921e+00	 7.824215233974645e-01	 1.215027097182680e+01
 2.174219611456674e+00	 8.026520736893163e-01	 1.216799355413643e+01
 2.250117461213994e+00	 6.025961418141741e-01	 1.198793117044686e+01
 2.244538549898394e+00	 6.230548749919759e-01	 1.200649762395893e+01
 2.238759550642289e+00	 6.435109086608543e-01	 1.202396181933098e+01
 2.232779805467398e+00	 6.639614857736904e-01	 1.204024186075724e+01
 2.226598704021018e+00	 6.844038246351233e-01	 1.205526285955346e+01
 2.220215684409329e+00	 7.048351198584721e-01	 1.206905543967614e+01
 2.213630234009714e+00	 7.252525433520214e-01	 1.208305772692089e+01
 2.206841890260988e+00	 7.456532453342070e-01	 1.209774804053942e+01
 2.199850241430449e+00	 7.660343553772051e-01	 1.211317224817057e+01
 2.192654927356630e+00	 7.863929834783756e-01	 1.212947149754510e+01
 2.185255640166710e+00	 8.067262211589704e-01	 1.214676752433564e+01
 2.261481056596884e+00	 6.056393868207508e-01	 1.196805188091958e+01
 2.255873970533978e+00	 6.262014411673978e-01	 1.198730934899471e+01
 2.250065786041791e+00	 6.467607823720376e-01	 1.200570144839243e+01
 2.244055841819109e+00	 6.673146394638428e-01	 1.202312585777158e+01
 2.237843524430820e+00	 6.878602166992660e-01	 1.203948752769685e+01
 2.231428269145424e+00	 7.083946945237924e-01	 1.205469977943472e+01
 2.224809560751449e+00	 7.289152305632075e-01	 1.206868548641889e+01
 2.217986934351682e+00	 7.494189606439091e-01	 1.208180578912392e+01
 2.210959976134085e+00	 7.699029998417674e-01	 1.209578178797917e+01
 2.203728324118305e+00	 7.903644435589791e-01	 1.211093811302975e+01
 2.196291668876697e+00	 8.108003686283238e-01	 1.212740775864710e+01
 2.272844651979842e+00	 6.086826318273938e-01	 1.194785041732523e+01
 2.267209391169613e+00	 6.293480073428784e-01	 1.196751466755209e+01
 2.261372021441326e+00	 6.500106560832549e-01	 1.198653391764063e+01
 2.255331878170842e+00	 6.706677931539944e-01	 1.200479385618002e+01
 2.249088344840634e+00	 6.913166087633645e-01	 1.202218732851150e+01
 2.242640853881519e+00	 7.119542691890216e-01	 1.203861546166040e+01
 2.235988887493174e+00	 7.325779177742555e-01	 1.205398887407390e+01
 2.229131978442356e+00	 7.531846759534315e-01	 1.206823709916510e+01
 2.222069710837689e+00	 7.737716443061171e-01	 1.208142476965560e+01
 2.214801720879931e+00	 7.943359036393506e-01	 1.209496232979540e+01
 2.207327697586619e+00	 8.148745160974439e-01	 1.211016637746804e+01
 2.284208247362886e+00	 6.117258768342028e-01	 1.192744899277880e+01
 2.278544811805308e+00	 6.324945735185170e-01	 1.194726437220108e+01
 2.272678256840905e+00	 6.532605297946076e-01	 1.196663244397587e+01
 2.266607914522603e+00	 6.740209468442443e-01	 1.198543520456306e+01
 2.260333165250463e+00	 6.947730008275167e-01	 1.200356131509553e+01
 2.253853438617616e+00	 7.155138438542552e-01	 1.202090723575626e+01
 2.247168214234888e+00	 7.362406049852589e-01	 1.203737844733959e+01
 2.240277022533003e+00	 7.569503912628631e-01	 1.205290239194715e+01
 2.233179445541252e+00	 7.776402887703380e-01	 1.206755764822266e+01
 2.225875117641498e+00	 7.983073637195667e-01	 1.208151770710921e+01
 2.218363726296459e+00	 8.189486635663977e-01	 1.209528984706424e+01
 2.295571842746032e+00	 6.147691218412781e-01	 1.190696595907520e+01
 2.289880232441080e+00	 6.356411396944140e-01	 1.192670475368461e+01
 2.283984492240537e+00	 6.565104035061939e-01	 1.194616523265126e+01
 2.277883950874395e+00	 6.773741005346916e-01	 1.196523386337166e+01
 2.271577985660306e+00	 6.982293928918205e-01	 1.198380291185366e+01
 2.265066023353713e+00	 7.190734185195895e-01	 1.200177156999853e+01
 2.258347540976588e+00	 7.399032921963108e-01	 1.201904717268761e+01
 2.251422066623622e+00	 7.607161065722933e-01	 1.203555938482316e+01
 2.244289180244765e+00	 7.815089332345136e-01	 1.205140825782444e+01
 2.236948514402993e+00	 8.022788237997035e-01	 1.206677644639863e+01
 2.229399755006201e+00	 8.230228110352527e-01	 1.208185468491685e+01
 2.306935438129298e+00	 6.178123668487192e-01	 1.188651583516440e+01
 2.301215653076938e+00	 6.387877058706697e-01	 1.190597764427637e+01
 2.295290727640229e+00	 6.597602772181144e-01	 1.192529553236347e+01
 2.289159987226227e+00	 6.807272542254356e-01	 1.194436846853314e+01
 2.282822806070167e+00	 7.016857849563738e-01	 1.196309998333465e+01
 2.276278608089811e+00	 7.226329931851203e-01	 1.198139927255528e+01
 2.269526867718270e+00	 7.435659794075035e-01	 1.199918173825514e+01
 2.262567110714203e+00	 7.644818218818099e-01	 1.201638298217914e+01
 2.255398914948221e+00	 7.853775776987265e-01	 1.203313295954343e+01
 2.248021911164406e+00	 8.062502838798371e-01	 1.204962805931307e+01
 2.240435783715828e+00	 8.270969585040764e-01	 1.206607239637145e+01
 2.318299033512701e+00	 6.208556118566271e-01	 1.186620933494496e+01
 2.312551073712897e+00	 6.419342720473834e-01	 1.188522046002532e+01
 2.306596963039990e+00	 6.630101509304689e-01	 1.190418168889061e+01
 2.300436023578102e+00	 6.840804079165751e-01	 1.192301239335917e+01
 2.294067626480051e+00	 7.051421770212747e-01	 1.194163490122299e+01
 2.287491192825910e+00	 7.261925678509435e-01	 1.195997556031187e+01
 2.280706194459934e+00	 7.472286666189301e-01	 1.197796160862480e+01
 2.273712154804744e+00	 7.682475371915027e-01	 1.199554222250245e+01
 2.266508649651612e+00	 7.892462221630604e-01	 1.201288296156379e+01
 2.259095307925723e+00	 8.102217439600440e-01	 1.203019924130903e+01
 2.251471812425324e+00	 8.311711059729350e-01	 1.204771346555196e+01
 2.329662628896259e+00	 6.238988568651009e-01	 1.184615339439845e+01
 2.323886494348968e+00	 6.450808382246555e-01	 1.186456624192461e+01
 2.317903198439830e+00	 6.662600246433569e-01	 1.188297719732737e+01
 2.311712059930027e+00	 6.874335616082095e-01	 1.190133380881520e+01
 2.305312446889960e+00	 7.085985690866213e-01	 1.191958460954771e+01
 2.298703777562011e+00	 7.297521425171559e-01	 1.193768012586547e+01
 2.291885521201577e+00	 7.508913538306845e-01	 1.195556107179336e+01
 2.284857198895240e+00	 7.720132525014604e-01	 1.197320039868509e+01
 2.277618384354929e+00	 7.931148666275991e-01	 1.199080410034169e+01
 2.270168704686935e+00	 8.141932040404006e-01	 1.200861182577595e+01
 2.262507841134675e+00	 8.352452534418977e-01	 1.202686905455007e+01
 2.152147554036520e+00	 7.945037787488365e-01	 1.221500831489115e+01
 2.144657946738228e+00	 8.145044640747083e-01	 1.223274365288127e+01
 2.136966937475452e+00	 8.344743527893113e-01	 1.225037608530406e+01
 2.129074379989214e+00	 8.544105301643420e-01	 1.226775566301393e+01
 2.120980182111962e+00	 8.743100678119787e-01	 1.228469479602663e+01
 2.112684306335750e+00	 8.941700248922227e-01	 1.230096950727578e+01
 2.104186770349388e+00	 9.139874493427518e-01	 1.231632119194972e+01
 2.095487647543637e+00	 9.337593791304005e-01	 1.233045890902742e+01
 2.086587067483539e+00	 9.534828435233371e-01	 1.234306222978826e+01
 2.077485216347004e+00	 9.731548643829726e-01	 1.235378466597443e+01
 2.068182337328828e+00	 9.927724574745949e-01	 1.236225769793510e+01
 2.163183582746605e+00	 7.985779262192939e-01	 1.219082818381206e+01
 2.155655569382379e+00	 8.186811733501960e-01	 1.220889353321899e+01
 2.147925121281647e+00	 8.387534659473693e-01	 1.222686102128443e+01
 2.139992091435411e+00	 8.587918743360475e-01	 1.224458951515205e+01
 2.131856387203478e+00	 8.787934551119019e-01	 1.226189826611927e+01
 2.123517970885551e+00	 8.987552523545728e-01	 1.227856805956709e+01
 2.114976860261130e+00	 9.186742988638299e-01	 1.229434288382967e+01
 2.106233129097304e+00	 9.385476174174703e-01	 1.230893214587618e+01
 2.097286907623495e+00	 9.583722220500179e-01	 1.232201345980044e+01
 2.088138382972310e+00	 9.781451193512603e-01	 1.233323603197348e+01
 2.078787799585604e+00	 9.978633097836000e-01	 1.234222466431361e+01
 2.174219611456674e+00	 8.026520736893163e-01	 1.216799355413643e+01
 2.166653192026510e+00	 8.228578826252994e-01	 1.218611689566160e+01
 2.158883305087813e+00	 8.430325791051163e-01	 1.220417832252268e+01
 2.150909802881574e+00	 8.631732185075340e-01	 1.222204433195014e+01
 2.142732592294954e+00	 8.832768424117089e-01	 1.223953997914585e+01
 2.134351635435306e+00	 9.033404798169151e-01	 1.225644992212270e+01
 2.125766950172821e+00	 9.233611483850099e-01	 1.227251999886766e+01
 2.116978610650916e+00	 9.433358557047453e-01	 1.228745936598319e+01
 2.107986747763398e+00	 9.632616005769981e-01	 1.230094322605161e+01
 2.098791549597561e+00	 9.831353743199241e-01	 1.231261616878274e+01
 2.089393261842330e+00	 1.002954162093036e+00	 1.232209614855341e+01
 2.185255640166710e+00	 8.067262211589704e-01	 1.214676752433564e+01
 2.177650814670595e+00	 8.270345919000750e-01	 1.216463450851804e+01
 2.169841488893925e+00	 8.473116922625977e-01	 1.218251002981883e+01
 2.161827514327669e+00	 8.675545626788315e-01	 1.220026710123418e+01
 2.153608797386350e+00	 8.877602297114151e-01	 1.221773561277206e+01
 2.145185299984970e+00	 9.079257072792513e-01	 1.223470326969760e+01
 2.136557040084413e+00	 9.280479979062769e-01	 1.225091707651423e+01
 2.127724092204423e+00	 9.481240939921974e-01	 1.226608539714809e+01
 2.118686587903192e+00	 9.681509791042345e-01	 1.227988061985850e+01
 2.109444716222705e+00	 9.881256292889085e-01	 1.229194245317031e+01
 2.099998724098955e+00	 1.008045014402836e+00	 1.230188187661887e+01
 2.196291668876697e+00	 8.108003686283238e-01	 1.212740775864710e+01
 2.188648437314616e+00	 8.312113011745795e-01	 1.214466216200202e+01
 2.180799672699954e+00	 8.515908054198573e-01	 1.216203359815758e+01
 2.172745225773661e+00	 8.719359068499705e-01	 1.217940055393611e+01
 2.164485002477627e+00	 8.922436170110366e-01	 1.219659685386365e+01
 2.156018964534497e+00	 9.125109347415808e-01	 1.221341249007395e+01
 2.147347129995854e+00	 9.327348474276177e-01	 1.222959501139369e+01
 2.138469573757770e+00	 9.529123322797984e-01	 1.224485150342055e+01
 2.129386428042823e+00	 9.730403576316856e-01	 1.225885118942561e+01
 2.120097882847688e+00	 9.931158842581588e-01	 1.227122867964139e+01
 2.110604186355431e+00	 1.013135866712935e+00	 1.228158789393913e+01
 2.207327697586619e+00	 8.148745160974439e-01	 1.211016637746804e+01
 2.199646059958550e+00	 8.353880104488697e-01	 1.212641053511530e+01
 2.191757856505871e+00	 8.558699185769384e-01	 1.214292174183580e+01
 2.183662937219519e+00	 8.763172510209816e-01	 1.215958298924448e+01
 2.175361207568743e+00	 8.967270043105889e-01	 1.217623120546246e+01
 2.166852629083844e+00	 9.170961622039060e-01	 1.219265797468629e+01
 2.158137219907097e+00	 9.374216969490181e-01	 1.220861082942272e+01
 2.149215055310906e+00	 9.577005705675196e-01	 1.222379514857595e+01
 2.140086268182237e+00	 9.779297361593082e-01	 1.223787669255884e+01
 2.130751049472457e+00	 9.981061392276200e-01	 1.225048480428752e+01
 2.121209648611704e+00	 1.018226719023265e+00	 1.226121630230543e+01
 2.218363726296459e+00	 8.189486635663977e-01	 1.209528984706424e+01
 2.210643682602376e+00	 8.395647197230021e-01	 1.211008506239757e+01
 2.202716040311650e+00	 8.601490317338856e-01	 1.212534227995724e+01
 2.194580648665208e+00	 8.806985951918953e-01	 1.214094810057186e+01
 2.186237412659660e+00	 9.012103916100889e-01	 1.215674179497639e+01
 2.177686293632962e+00	 9.216813896662269e-01	 1.217251591080564e+01
 2.168927309818089e+00	 9.421085464704639e-01	 1.218801746578059e+01
 2.159960536863776e+00	 9.624888088553316e-01	 1.220294976168190e+01
 2.150786108321377e+00	 9.828191146870602e-01	 1.221697485165667e+01
 2.141404216096958e+00	 1.003096394197237e+00	 1.222971669104648e+01
 2.131815110867727e+00	 1.023317571333762e+00	 1.224076499925876e+01
 2.229399755006201e+00	 8.230228110352527e-01	 1.208185468491685e+01
 2.221641305246070e+00	 8.437414289970320e-01	 1.209588580054711e+01
 2.213674224117262e+00	 8.644281448907429e-01	 1.210945798228190e+01
 2.205498360110691e+00	 8.850799393627413e-01	 1.212362480231022e+01
 2.197113617750338e+00	 9.056937789095519e-01	 1.213822718354097e+01
 2.188519958181809e+00	 9.262666171285457e-01	 1.215305807522855e+01
 2.179717399728782e+00	 9.467953959919415e-01	 1.216786354466608e+01
 2.170706018416327e+00	 9.672770471432065e-01	 1.218234450468300e+01
 2.161485948460192e+00	 9.877084932148998e-01	 1.219615911089934e+01
 2.152057382721138e+00	 1.008086649166954e+00	 1.220892586028882e+01
 2.142420573123450e+00	 1.028408423644359e+00	 1.222022741988096e+01
 2.240435783715828e+00	 8.270969585040764e-01	 1.206607239637145e+01
 2.232638927889614e+00	 8.479181382710171e-01	 1.208162850725036e+01
 2.224632407922682e+00	 8.687072580475540e-01	 1.209530118639166e+01
 2.216416071555939e+00	 8.894612835335508e-01	 1.210773705734736e+01
 2.207989822840735e+00	 9.101771662089934e-01	 1.212078117651236e+01
 2.199353622730337e+00	 9.308518445908623e-01	 1.213435162941853e+01
 2.190507489639125e+00	 9.514822455134369e-01	 1.214819316077997e+01
 2.181451499968507e+00	 9.720652854311156e-01	 1.216200404193415e+01
 2.172185788598626e+00	 9.925978717427837e-01	 1.217543839556044e+01
 2.162710549344943e+00	 1.013076904136718e+00	 1.218810923965083e+01
 2.153026035378820e+00	 1.033499275954990e+00	 1.219959228090660e+01
 2.251471812425324e+00	 8.311711059729350e-01	 1.204771346555196e+01
 2.243636550532983e+00	 8.520948475450134e-01	 1.206453822328230e+01
 2.235590591727878e+00	 8.729863712043635e-01	 1.207960329350820e+01
 2.227333783000915e+00	 8.938426277043539e-01	 1.209286627940855e+01
 2.218866027930813e+00	 9.146605535084300e-01	 1.210449263505219e+01
 2.210187287278502e+00	 9.354370720531778e-01	 1.211645891605050e+01
 2.201297579549069e+00	 9.561690950349360e-01	 1.212904566247297e+01
 2.192196981520263e+00	 9.768535237190308e-01	 1.214194831161507e+01
 2.182885628736624e+00	 9.974872502706699e-01	 1.215481687336749e+01
 2.173363715968318e+00	 1.018067159106472e+00	 1.216725891703624e+01
 2.163631497633790e+00	 1.038590128265588e+00	 1.217884332707510e+01
 2.262507841134675e+00	 8.352452534418977e-01	 1.202686905455007e+01
 2.254634173176159e+00	 8.562715568190782e-01	 1.204466713767019e+01
 2.246548775532828e+00	 8.772654843612157e-01	 1.206088506173980e+01
 2.238251494445587e+00	 8.982239718751815e-01	 1.207546061040273e+01
 2.229742233020532e+00	 9.191439408078782e-01	 1.208832714283450e+01
 2.221020951826259e+00	 9.400222995154943e-01	 1.209943725690947e+01
 2.212087669458564e+00	 9.608559445564251e-01	 1.211045543650260e+01
 2.202942463071542e+00	 9.816417620069235e-01	 1.212219229896187e+01
 2.193585468874133e+00	 1.002376628798517e+00	 1.213429371784155e+01
 2.184016882591212e+00	 1.023057414076162e+00	 1.214636189571263e+01
 2.174236959888308e+00	 1.043680980576090e+00	 1.215795907964705e+01
 2.068182337328828e+00	 9.927724574745949e-01	 1.236225769793510e+01
 2.058680363241245e+00	 1.012329313807431e+00	 1.236902681250325e+01
 2.048978086751394e+00	 1.031825780940557e+00	 1.237483468051461e+01
 2.039075922506463e+00	 1.051258864831625e+00	 1.237958354797906e+01
 2.028974343393743e+00	 1.070625570713998e+00	 1.238317057183992e+01
 2.018673880761600e+00	 1.089922904483952e+00	 1.238549455647728e+01
 2.008175124601594e+00	 1.109147874099833e+00	 1.238646335068460e+01
 1.997478723691154e+00	 1.128297490991921e+00	 1.238649243995729e+01
 1.986585385696304e+00	 1.147368771481755e+00	 1.238626456365606e+01
 1.975495877233903e+00	 1.166358738209571e+00	 1.238575087075754e+01
 1.964211023893019e+00	 1.185264421568570e+00	 1.238489512717119e+01
 2.078787799585604e+00	 9.978633097836000e-01	 1.234222466431361e+01
 2.069237100186901e+00	 1.017520452004309e+00	 1.234947162620111e+01
 2.059485071252253e+00	 1.037116895354705e+00	 1.235566254909654e+01
 2.049532129555141e+00	 1.056649630439229e+00	 1.236068311568418e+01
 2.039378750407802e+00	 1.076115647134320e+00	 1.236441116262853e+01
 2.029025467883328e+00	 1.095511935982729e+00	 1.236672349268829e+01
 2.018472874998724e+00	 1.114835489599849e+00	 1.236752612713004e+01
 2.007721623858316e+00	 1.134083304090814e+00	 1.236753199171438e+01
 1.996772425756993e+00	 1.153252380477096e+00	 1.236709930401129e+01
 1.985626051242782e+00	 1.172339726131267e+00	 1.236617751544696e+01
 1.974283330138320e+00	 1.191342356218620e+00	 1.236469411566025e+01
 2.089393261842330e+00	 1.002954162093036e+00	 1.232209614855341e+01
 2.079793837132514e+00	 1.022711590201646e+00	 1.232981775766914e+01
 2.069992055753076e+00	 1.042408009769316e+00	 1.233640342891759e+01
 2.059988336603793e+00	 1.062040396047280e+00	 1.234171963151151e+01
 2.049783157421841e+00	 1.081605723555057e+00	 1.234562217489546e+01
 2.039377055005039e+00	 1.101100967481875e+00	 1.234796309861001e+01
 2.028770625395838e+00	 1.120523105100181e+00	 1.234874301575578e+01
 2.017964524025454e+00	 1.139869117189966e+00	 1.234878419130176e+01
 2.006959465817648e+00	 1.159135989472637e+00	 1.234819901744782e+01
 1.995756225251608e+00	 1.178320714053110e+00	 1.234691876727820e+01
 1.984355636383539e+00	 1.197420290868771e+00	 1.234485199334450e+01
 2.099998724098955e+00	 1.008045014402836e+00	 1.230188187661887e+01
 2.090350574078038e+00	 1.027902728399366e+00	 1.231007011689397e+01
 2.080499040253828e+00	 1.047699124184307e+00	 1.231705903709345e+01
 2.070444543652391e+00	 1.067431161655690e+00	 1.232269330679533e+01
 2.060187564435846e+00	 1.087095799976117e+00	 1.232680406159597e+01
 2.049728642126736e+00	 1.106689998981299e+00	 1.232921587270017e+01
 2.039068375792954e+00	 1.126210720600739e+00	 1.233012442135546e+01
 2.028207424192607e+00	 1.145654930289289e+00	 1.233025579052790e+01
 2.017146505878321e+00	 1.165019598468298e+00	 1.232957479099637e+01
 2.005886399260449e+00	 1.184301701975024e+00	 1.232799180039105e+01
 1.994427942628759e+00	 1.203498225518957e+00	 1.232539379044510e+01
 2.110604186355431e+00	 1.013135866712935e+00	 1.228158789393913e+01
 2.100907311023430e+00	 1.033093866597394e+00	 1.229022980208792e+01
 2.091006024754474e+00	 1.052990238599596e+00	 1.229762714039055e+01
 2.080900750700914e+00	 1.072821927264372e+00	 1.230360025654402e+01
 2.070591971449808e+00	 1.092585876397410e+00	 1.230795302588079e+01
 2.060080229248424e+00	 1.112279030480910e+00	 1.231048201578602e+01
 2.049366126190091e+00	 1.131898336101432e+00	 1.231166747959110e+01
 2.038450324359808e+00	 1.151440743388695e+00	 1.231194653442550e+01
 2.027333545939064e+00	 1.170903207463994e+00	 1.231123068786400e+01
 2.016016573269371e+00	 1.190282689896935e+00	 1.230940672138133e+01
 2.004500248874062e+00	 1.209576160169112e+00	 1.230633739802788e+01
 2.121209648611704e+00	 1.018226719023265e+00	 1.226121630230543e+01
 2.111464047968648e+00	 1.038285004795656e+00	 1.227029383092472e+01
 2.101513009254978e+00	 1.058281353015101e+00	 1.227810128147770e+01
 2.091356957749336e+00	 1.078212692873238e+00	 1.228443222141354e+01
 2.080996378463716e+00	 1.098075952818846e+00	 1.228906073952731e+01
 2.070431816370105e+00	 1.117868061980614e+00	 1.229181742963622e+01
 2.059663876587268e+00	 1.137585951602170e+00	 1.229336239007537e+01
 2.048693224527092e+00	 1.157226556488097e+00	 1.229384924551227e+01
 2.037520585999926e+00	 1.176786816459643e+00	 1.229316383739045e+01
 2.026146747278441e+00	 1.196263677818765e+00	 1.229116666549784e+01
 2.014572555119531e+00	 1.215654094819166e+00	 1.228769367099859e+01
 2.131815110867727e+00	 1.023317571333762e+00	 1.224076499925876e+01
 2.122020784913644e+00	 1.043476142994075e+00	 1.225025487431068e+01
 2.112019993755305e+00	 1.063572467430739e+00	 1.225847050774166e+01
 2.101813164797635e+00	 1.083603458482200e+00	 1.226517629225796e+01
 2.091400785477559e+00	 1.103566029240334e+00	 1.227011406394298e+01
 2.080783403491782e+00	 1.123457093480322e+00	 1.227323485120416e+01
 2.069961626984504e+00	 1.143273567102861e+00	 1.227519249799765e+01
 2.058936124694493e+00	 1.163012369587407e+00	 1.227594991052007e+01
 2.047707626060960e+00	 1.182670425455162e+00	 1.227536452739330e+01
 2.036276921287728e+00	 1.202244665740440e+00	 1.227326789512890e+01
 2.024644861365248e+00	 1.221732029469054e+00	 1.226946653326765e+01
 2.142420573123450e+00	 1.028408423644359e+00	 1.222022741988096e+01
 2.132577521858378e+00	 1.048667281192577e+00	 1.223010099260299e+01
 2.122526978255422e+00	 1.068863581846429e+00	 1.223871910257840e+01
 2.112269371845786e+00	 1.088994224091173e+00	 1.224581463716693e+01
 2.101805192491326e+00	 1.109056105661783e+00	 1.225109477365060e+01
 2.091134990613459e+00	 1.129046124979941e+00	 1.225470981253415e+01
 2.080259377381817e+00	 1.148961182603414e+00	 1.225713437819061e+01
 2.069179024862049e+00	 1.168798182686537e+00	 1.225822776950702e+01
 2.057894666122218e+00	 1.188554034450469e+00	 1.225781629881984e+01
 2.046407095297298e+00	 1.208225653661882e+00	 1.225569990049931e+01
 2.034717167611297e+00	 1.227809964118710e+00	 1.225165308500925e+01
 2.153026035378820e+00	 1.033499275954990e+00	 1.219959228090659e+01
 2.143134258802804e+00	 1.053858419391087e+00	 1.220981537419047e+01
 2.133033962755292e+00	 1.074154696262087e+00	 1.221882631907336e+01
 2.122725578893765e+00	 1.094384989700067e+00	 1.222632423090426e+01
 2.112209599505005e+00	 1.114546182083103e+00	 1.223199463127801e+01
 2.101486577735140e+00	 1.134635156479380e+00	 1.223621111089791e+01
 2.090557127779227e+00	 1.154648798103740e+00	 1.223915792155313e+01
 2.079421925029791e+00	 1.174583995785399e+00	 1.224065540727033e+01
 2.068081706183748e+00	 1.194437643445478e+00	 1.224049604262556e+01
 2.056537269307219e+00	 1.214206641583016e+00	 1.223844550250158e+01
 2.044789473857760e+00	 1.233887898768065e+00	 1.223424371194261e+01
 2.163631497633790e+00	 1.038590128265588e+00	 1.217884332707510e+01
 2.153690995746879e+00	 1.059049557589528e+00	 1.218937607635545e+01
 2.143540947254881e+00	 1.079445810677632e+00	 1.219876611598923e+01
 2.133181785941549e+00	 1.099775755308796e+00	 1.220667658666463e+01
 2.122614006518587e+00	 1.120036258504204e+00	 1.221283798645888e+01
 2.111838164856828e+00	 1.140224187978546e+00	 1.221770089300488e+01
 2.100854878176752e+00	 1.160336413603747e+00	 1.222122642374934e+01
 2.089664825197756e+00	 1.180369808883906e+00	 1.222319884698130e+01
 2.078268746245604e+00	 1.200321252440110e+00	 1.222337409880361e+01
 2.066667443317557e+00	 1.220187629503767e+00	 1.222148095758827e+01
 2.054861780104720e+00	 1.239965833417054e+00	 1.221722219656650e+01
 2.174236959888308e+00	 1.043680980576090e+00	 1.215795907964705e+01
 2.164247732690560e+00	 1.064240695787828e+00	 1.216875576833863e+01
 2.154047931754155e+00	 1.084736925092982e+00	 1.217850689598177e+01
 2.143637992989115e+00	 1.105166520917272e+00	 1.218683749006926e+01
 2.133018413532060e+00	 1.125526334924995e+00	 1.219358639671653e+01
 2.122189751978528e+00	 1.145813219477350e+00	 1.219913474144630e+01
 2.111152628574412e+00	 1.166024029103345e+00	 1.220329667610563e+01
 2.099907725365980e+00	 1.186155621981970e+00	 1.220581764596676e+01
 2.088455786307836e+00	 1.206204861434281e+00	 1.220641435749171e+01
 2.076797617328380e+00	 1.226168617424059e+00	 1.220477606465547e+01
 2.064934086352260e+00	 1.246043768065609e+00	 1.220056583128017e+01
 1.964211023893019e+00	 1.185264421568570e+00	 1.238489512717119e+01
 1.952731710689496e+00	 1.204082861519823e+00	 1.238196845650360e+01
 1.941058883419687e+00	 1.222811110184868e+00	 1.237544012161193e+01
 1.929193547117707e+00	 1.241446232206679e+00	 1.236556091914425e+01
 1.917136765430405e+00	 1.259985305826672e+00	 1.235261576416495e+01
 1.904889660426426e+00	 1.278425424330803e+00	 1.233692391631862e+01
 1.892453412362837e+00	 1.296763697493999e+00	 1.231883908173531e+01
 1.879829259409232e+00	 1.314997253021487e+00	 1.229874938608061e+01
 1.867018497329324e+00	 1.333123237985579e+00	 1.227707721514381e+01
 1.854022479120047e+00	 1.351138820256444e+00	 1.225427892040784e+01
 1.840842614608285e+00	 1.369041189925426e+00	 1.223186064692858e+01
 1.974283330138320e+00	 1.191342356218620e+00	 1.236469411566025e+01
 1.962745151997752e+00	 1.210257295521387e+00	 1.236124788130813e+01
 1.951012467467384e+00	 1.229081581044651e+00	 1.235463174498267e+01
 1.939086286735047e+00	 1.247812262379142e+00	 1.234507112397289e+01
 1.926967678901865e+00	 1.266446402783765e+00	 1.233282219898260e+01
 1.914657771790347e+00	 1.284981080639116e+00	 1.231817216776587e+01
 1.902157751709800e+00	 1.303413390899310e+00	 1.230143937501853e+01
 1.889468863179031e+00	 1.321740446540712e+00	 1.228297331368962e+01
 1.876592408606307e+00	 1.339959380006081e+00	 1.226315449389698e+01
 1.863529747926602e+00	 1.358067344642686e+00	 1.224239417671006e+01
 1.850282298196257e+00	 1.376061516132918e+00	 1.222115592669092e+01
 1.984355636383539e+00	 1.197420290868771e+00	 1.234485199334450e+01
 1.972758593305885e+00	 1.216431729523018e+00	 1.234090474991986e+01
 1.960966051514909e+00	 1.235352051904477e+00	 1.233417572887920e+01
 1.948979026352158e+00	 1.254178292551631e+00	 1.232486613816837e+01
 1.936798592373040e+00	 1.272907499740880e+00	 1.231320469338905e+01
 1.924425883153917e+00	 1.291536736947449e+00	 1.229944789929533e+01
 1.911862091056345e+00	 1.310063084304644e+00	 1.228388020775548e+01
 1.899108466948349e+00	 1.328483640059966e+00	 1.226681404709403e+01
 1.886166319882749e+00	 1.346795522026619e+00	 1.224858971877902e+01
 1.873037016732559e+00	 1.364995869028971e+00	 1.222957515853037e+01
 1.859721981783579e+00	 1.383081842340459e+00	 1.221016556008695e+01
 1.994427942628759e+00	 1.203498225518957e+00	 1.232539379044510e+01
 1.982772034613994e+00	 1.222606163524660e+00	 1.232097377932088e+01
 1.970919635562374e+00	 1.241622522764301e+00	 1.231411833248948e+01
 1.958871765969168e+00	 1.260544322724120e+00	 1.230500557932822e+01
 1.946629505844060e+00	 1.279368596697998e+00	 1.229383799973792e+01
 1.934193994517279e+00	 1.298092393255796e+00	 1.228084273396540e+01
 1.921566430402628e+00	 1.316712777710010e+00	 1.226627176879147e+01
 1.908748070717349e+00	 1.335226833579270e+00	 1.225040199474016e+01
 1.895740231158819e+00	 1.353631664047228e+00	 1.223353513004478e+01
 1.882544285538094e+00	 1.371924393415345e+00	 1.221599750825249e+01
 1.869161665370436e+00	 1.390102168548100e+00	 1.219813972754596e+01
 2.004500248874062e+00	 1.209576160169112e+00	 1.230633739802788e+01
 1.992785475922176e+00	 1.228780597526258e+00	 1.230148244574633e+01
 1.980873219609891e+00	 1.247892993624081e+00	 1.229449844136497e+01
 1.968764505586196e+00	 1.266910352896574e+00	 1.228554152722757e+01
 1.956460419315063e+00	 1.285829693655103e+00	 1.227478913712708e+01
 1.943962105880582e+00	 1.304648049564158e+00	 1.226244033499564e+01
 1.931270769748804e+00	 1.323362471115420e+00	 1.224871602954773e+01
 1.918387674486195e+00	 1.341970027098649e+00	 1.223385905926089e+01
 1.905314142434687e+00	 1.360467806067940e+00	 1.221813414319180e+01
 1.892051554343384e+00	 1.378852917801847e+00	 1.220182769430581e+01
 1.878601348957011e+00	 1.397122494755890e+00	 1.218524749323429e+01
 2.014572555119531e+00	 1.215654094819166e+00	 1.228769367099858e+01
 2.002798917230527e+00	 1.234955031527753e+00	 1.228245109507037e+01
 1.990826803657568e+00	 1.254163464483772e+00	 1.227534768580657e+01
 1.978657245203370e+00	 1.273276383068966e+00	 1.226651865079821e+01
 1.966291332786183e+00	 1.292290790612178e+00	 1.225611752754815e+01
 1.953730217243968e+00	 1.311203705872531e+00	 1.224431655164804e+01
 1.940975109095028e+00	 1.330012164520884e+00	 1.223130690017917e+01
 1.928027278255050e+00	 1.348713220618125e+00	 1.221729880443833e+01
 1.914888053710527e+00	 1.367303948088791e+00	 1.220252152723900e+01
 1.901558823148609e+00	 1.385781442188523e+00	 1.218722320125447e+01
 1.888041032543486e+00	 1.404142820963880e+00	 1.217167052614547e+01
 2.024644861365248e+00	 1.221732029469054e+00	 1.226946653326765e+01
 2.012812358539145e+00	 1.241129465529091e+00	 1.226389305521983e+01
 2.000780387705519e+00	 1.260433935343332e+00	 1.225669056111327e+01
 1.988549984820809e+00	 1.279642413241263e+00	 1.224797433678351e+01
 1.976122246257555e+00	 1.298751887569209e+00	 1.223787513350323e+01
 1.963498328607584e+00	 1.317759362180912e+00	 1.222653956634518e+01
 1.950679448441455e+00	 1.336661857926412e+00	 1.221413038671756e+01
 1.937666882024078e+00	 1.355456414137723e+00	 1.220082662287908e+01
 1.924461964986508e+00	 1.374140090109815e+00	 1.218682358342551e+01
 1.911066091953944e+00	 1.392709966575415e+00	 1.217233271999432e+01
 1.897480716130046e+00	 1.411163147172119e+00	 1.215758134675143e+01
 2.034717167611297e+00	 1.227809964118710e+00	 1.225165308500925e+01
 2.022825799848127e+00	 1.247303899530216e+00	 1.224581475054473e+01
 2.010733971753852e+00	 1.266704406202714e+00	 1.223854454962905e+01
 1.998442724438638e+00	 1.286008443413436e+00	 1.222993882001098e+01
 1.985953159729313e+00	 1.305212984526176e+00	 1.222010659703764e+01
 1.973266439971576e+00	 1.324315018489298e+00	 1.220917004298190e+01
 1.960383787788240e+00	 1.343311551332018e+00	 1.219726474916541e+01
 1.947306485793442e+00	 1.362199607657466e+00	 1.218453990437789e+01
 1.934035876262802e+00	 1.380976232131046e+00	 1.217115832431499e+01
 1.920573360759569e+00	 1.399638490962568e+00	 1.215729633805286e+01
 1.906920399716873e+00	 1.418183473380656e+00	 1.214314352893792e+01
 2.044789473857760e+00	 1.233887898768065e+00	 1.223424371194261e+01
 2.032839241157571e+00	 1.253478333531070e+00	 1.222821581807896e+01
 2.020687555802680e+00	 1.272974877061879e+00	 1.222092024452618e+01
 2.008335464056981e+00	 1.292374473585454e+00	 1.221243531522743e+01
 1.995784073201594e+00	 1.311674081483064e+00	 1.220284938014041e+01
 1.983034551336089e+00	 1.330870674797688e+00	 1.219226127638994e+01
 1.970088127135538e+00	 1.349961244737709e+00	 1.218078066050828e+01
 1.956946089563307e+00	 1.368942801177376e+00	 1.216852820494550e+01
 1.943609787539580e+00	 1.387812374152519e+00	 1.215563565329146e+01
 1.930080629565661e+00	 1.406567015350024e+00	 1.214224572998986e+01
 1.916360083304151e+00	 1.425203799589542e+00	 1.212851190172977e+01
 2.054861780104720e+00	 1.239965833417054e+00	 1.221722219656650e+01
 2.042852682467575e+00	 1.259652767531600e+00	 1.221108922562593e+01
 2.030641139852112e+00	 1.279245347920778e+00	 1.220382147526547e+01
 2.018228203675961e+00	 1.298740503757288e+00	 1.219548015044225e+01
 2.005614986674530e+00	 1.318135178439857e+00	 1.218613390646532e+01
 1.992802662701268e+00	 1.337426331106078e+00	 1.217585934291597e+01
 1.979792466483504e+00	 1.356610938143500e+00	 1.216474136661406e+01
 1.966585693333835e+00	 1.375685994697478e+00	 1.215287341647839e+01
 1.953183698817012e+00	 1.394648516174267e+00	 1.214035754443350e+01
 1.939587898372396e+00	 1.413495539737826e+00	 1.212730434789445e+01
 1.925799766892061e+00	 1.432224125798826e+00	 1.211383275081443e+01
 2.064934086352260e+00	 1.246043768065609e+00	 1.220056583128017e+01
 2.052866123778235e+00	 1.265827201531747e+00	 1.219442139160711e+01
 2.040594723902261e+00	 1.285515818779371e+00	 1.218724543467612e+01
 2.028120943295701e+00	 1.305106533928906e+00	 1.217908290172837e+01
 2.015445900148261e+00	 1.324596275396539e+00	 1.216998370432746e+01
 2.002570774067260e+00	 1.343981987414467e+00	 1.216000325207493e+01
 1.989496805832294e+00	 1.363260631549399e+00	 1.214920284698874e+01
 1.976225297105190e+00	 1.382429188217795e+00	 1.213764993704825e+01
 1.962757610095272e+00	 1.401484658196326e+00	 1.212541822275366e+01
 1.949095167179954e+00	 1.420424064126019e+00	 1.211258761197558e+01
 1.935239450480789e+00	 1.439244452008559e+00	 1.209924401986954e+01
 1.840842614608285e+00	 1.369041189925426e+00	 1.223186064692858e+01
 1.827478084122475e+00	 1.386830572876746e+00	 1.221007372073838e+01
 1.813932641964259e+00	 1.404501144721940e+00	 1.218678923693503e+01
 1.800207874010670e+00	 1.422050159077008e+00	 1.216147908386339e+01
 1.786305421010004e+00	 1.439474897341005e+00	 1.213358946314323e+01
 1.772226977966766e+00	 1.456772670066699e+00	 1.210255357216752e+01
 1.757974293485933e+00	 1.473940818315178e+00	 1.206780500451243e+01
 1.743549169077021e+00	 1.490976714992988e+00	 1.202917160577224e+01
 1.728953458418529e+00	 1.507877766170420e+00	 1.198790523176813e+01
 1.714189066583344e+00	 1.524641412379558e+00	 1.194361065458752e+01
 1.699257949225795e+00	 1.541265129890738e+00	 1.189562436756082e+01
 1.850282298196257e+00	 1.376061516132918e+00	 1.222115592669092e+01
 1.836849235540490e+00	 1.393942121519326e+00	 1.219953076425358e+01
 1.823234333512687e+00	 1.411703306546475e+00	 1.217630238140139e+01
 1.809439186122128e+00	 1.429342310747135e+00	 1.215093025700173e+01
 1.795465442530730e+00	 1.446856401579599e+00	 1.212284866534915e+01
 1.781314806434843e+00	 1.464242875805369e+00	 1.209147971848491e+01
 1.766989035406145e+00	 1.481499060850714e+00	 1.205624715309533e+01
 1.752489940192146e+00	 1.498622316150660e+00	 1.201785206930712e+01
 1.737819383976855e+00	 1.515610034474041e+00	 1.197695785950886e+01
 1.722979281602217e+00	 1.532459643228195e+00	 1.193292623092124e+01
 1.707971598750992e+00	 1.549168605741983e+00	 1.188509360168513e+01
 1.859721981783579e+00	 1.383081842340459e+00	 1.221016556008695e+01
 1.846220386957816e+00	 1.401053670161958e+00	 1.218871041418162e+01
 1.832536025060395e+00	 1.418905468371063e+00	 1.216507031497502e+01
 1.818670498232841e+00	 1.436634462417312e+00	 1.213923009860927e+01
 1.804625464050697e+00	 1.454237905818234e+00	 1.211061175849544e+01
 1.790402634902155e+00	 1.471713081544069e+00	 1.207862557151553e+01
 1.776003777325596e+00	 1.489057303386262e+00	 1.204293413059941e+01
 1.761430711306521e+00	 1.506267917308321e+00	 1.200489997076903e+01
 1.746685309534451e+00	 1.523342302777621e+00	 1.196432159654376e+01
 1.731769496620385e+00	 1.540277874076757e+00	 1.192055702470369e+01
 1.716685248275522e+00	 1.557072081593112e+00	 1.187294078416324e+01
 1.869161665370436e+00	 1.390102168548100e+00	 1.219813972754596e+01
 1.855591538374641e+00	 1.408165218804698e+00	 1.217783059310244e+01
 1.841837716607572e+00	 1.426107630195759e+00	 1.215344526769346e+01
 1.827901810343004e+00	 1.443926614087592e+00	 1.212674672958093e+01
 1.813785485570100e+00	 1.461619410056963e+00	 1.209726006039996e+01
 1.799490463368896e+00	 1.479183287282847e+00	 1.206438292068358e+01
 1.785018519244476e+00	 1.496615545921869e+00	 1.202852656995511e+01
 1.770371482420333e+00	 1.513913518466018e+00	 1.199073907648556e+01
 1.755551235091499e+00	 1.531074571081207e+00	 1.195042130189404e+01
 1.740559711638029e+00	 1.548096104925291e+00	 1.190692605356193e+01
 1.725398897799552e+00	 1.564975557444173e+00	 1.185958415509753e+01
 1.878601348957011e+00	 1.397122494755890e+00	 1.218524749323429e+01
 1.864962689791151e+00	 1.415276767447597e+00	 1.216608493316240e+01
 1.851139408154410e+00	 1.433309792020619e+00	 1.214176726035155e+01
 1.837133122452809e+00	 1.451218765758031e+00	 1.211383584955525e+01
 1.822945507089132e+00	 1.469000914295839e+00	 1.208316235177834e+01
 1.808578291835260e+00	 1.486653493021756e+00	 1.204924915982125e+01
 1.794033261162979e+00	 1.504173788457584e+00	 1.201342800652894e+01
 1.779312253533772e+00	 1.521559119623795e+00	 1.197577698403593e+01
 1.764417160648181e+00	 1.538806839384843e+00	 1.193566578215265e+01
 1.749349926655319e+00	 1.555914335773843e+00	 1.189244047626407e+01
 1.734112547323249e+00	 1.572879033295219e+00	 1.184542636639408e+01
 1.888041032543486e+00	 1.404142820963880e+00	 1.217167052614547e+01
 1.874333841207535e+00	 1.422388316090711e+00	 1.215341458194437e+01
 1.860441099701100e+00	 1.440511953845696e+00	 1.212975809106699e+01
 1.846364434562448e+00	 1.458510917428682e+00	 1.210084045739635e+01
 1.832105528607989e+00	 1.476382418534915e+00	 1.206867460289276e+01
 1.817666120301442e+00	 1.494123698760843e+00	 1.203394923282486e+01
 1.803048003081294e+00	 1.511732030993453e+00	 1.199802582610570e+01
 1.788253024647025e+00	 1.529204720781698e+00	 1.196040517970724e+01
 1.773283086204682e+00	 1.546539107688575e+00	 1.192044784649877e+01
 1.758140141672435e+00	 1.563732566622459e+00	 1.187749164354155e+01
 1.742826196846779e+00	 1.580782509146298e+00	 1.183085452665005e+01
 1.897480716130046e+00	 1.411163147172119e+00	 1.215758134675143e+01
 1.883704992623981e+00	 1.429499864734092e+00	 1.214001508190039e+01
 1.869742791247833e+00	 1.447714115671045e+00	 1.211685060298001e+01
 1.855595746672118e+00	 1.465803069099600e+00	 1.208798166763673e+01
 1.841265550126863e+00	 1.483763922774242e+00	 1.205416269531748e+01
 1.826753948767634e+00	 1.501593904500160e+00	 1.201887086244042e+01
 1.812062744999616e+00	 1.519290273529525e+00	 1.198269132165009e+01
 1.797193795760280e+00	 1.536850321939773e+00	 1.194499909456472e+01
 1.782149011761184e+00	 1.554271375992447e+00	 1.190514436037322e+01
 1.766930356689551e+00	 1.571550797471186e+00	 1.186245514767091e+01
 1.751539846370308e+00	 1.588685984997461e+00	 1.181624024495018e+01
 1.906920399716873e+00	 1.418183473380656e+00	 1.214314352893792e+01
 1.893076144040675e+00	 1.436611413377793e+00	 1.212607270121883e+01
 1.879044482794801e+00	 1.454916277496721e+00	 1.210324627311645e+01
 1.864827058782009e+00	 1.473095220770837e+00	 1.207454799593723e+01
 1.850425571645949e+00	 1.491145427013872e+00	 1.204030327726243e+01
 1.835841777234030e+00	 1.509064110239757e+00	 1.200436250292812e+01
 1.821077486918135e+00	 1.526848516065847e+00	 1.196777974873480e+01
 1.806134566873725e+00	 1.544495923098067e+00	 1.192991815918429e+01
 1.791014937317868e+00	 1.562003644296507e+00	 1.189011629786067e+01
 1.775720571706842e+00	 1.579369028320070e+00	 1.184769087085738e+01
 1.760253495894005e+00	 1.596589460848757e+00	 1.180193967360973e+01
 1.916360083304151e+00	 1.425203799589542e+00	 1.212851190172977e+01
 1.902447295457806e+00	 1.443722962021868e+00	 1.211176464620354e+01
 1.888346174342193e+00	 1.462118439322780e+00	 1.208914175241734e+01
 1.874058370892316e+00	 1.480387372442451e+00	 1.206051711019430e+01
 1.859585593165444e+00	 1.498526931253860e+00	 1.202707742862788e+01
 1.844929605700823e+00	 1.516534315979684e+00	 1.199075665974003e+01
 1.830092228837042e+00	 1.534406758602466e+00	 1.195363037968135e+01
 1.815075337987550e+00	 1.552141524256625e+00	 1.191550585709246e+01
 1.799880862874919e+00	 1.569735912600798e+00	 1.187570879282265e+01
 1.784510786724485e+00	 1.587187259169159e+00	 1.183354303246038e+01
 1.768967145418034e+00	 1.604492936700237e+00	 1.178829354989882e+01
 1.925799766892061e+00	 1.432224125798826e+00	 1.211383275081443e+01
 1.911818446875561e+00	 1.450834510666371e+00	 1.209725927316639e+01
 1.897647865890202e+00	 1.469320601149275e+00	 1.207472459121444e+01
 1.883289683003232e+00	 1.487679524114493e+00	 1.204626228341122e+01
 1.868745614685537e+00	 1.505908435494256e+00	 1.201392558918510e+01
 1.854017434168209e+00	 1.524004521719990e+00	 1.197833667254466e+01
 1.839106970756530e+00	 1.541965001139432e+00	 1.194056655645633e+01
 1.824016109101940e+00	 1.559787125415492e+00	 1.190208977695704e+01
 1.808746788432519e+00	 1.577468180905366e+00	 1.186225118882366e+01
 1.793301001742654e+00	 1.595005490018497e+00	 1.182034023510062e+01
 1.777680794942564e+00	 1.612396412551951e+00	 1.177562723678327e+01
 1.935239450480789e+00	 1.439244452008559e+00	 1.209924401986954e+01
 1.921189598294129e+00	 1.457946059311356e+00	 1.208271629984920e+01
 1.906949557439019e+00	 1.476522762976261e+00	 1.206017345907719e+01
 1.892520995114950e+00	 1.494971675787019e+00	 1.203227547187164e+01
 1.877905636206428e+00	 1.513289939735114e+00	 1.200104296836049e+01
 1.863105262636381e+00	 1.531474727460727e+00	 1.196656229627610e+01
 1.848121712676791e+00	 1.549523243676792e+00	 1.192889574236521e+01
 1.832956880217087e+00	 1.567432726574716e+00	 1.188998166357085e+01
 1.817612713990852e+00	 1.585200449210257e+00	 1.185005708789007e+01
 1.802091216761528e+00	 1.602823720868133e+00	 1.180839550968573e+01
 1.786394444467762e+00	 1.620299888403949e+00	 1.176425076271406e+01
 1.699257949225795e+00	 1.541265129890738e+00	 1.189562436756082e+01
 1.684164687146025e+00	 1.557743647170843e+00	 1.184521454017823e+01
 1.668908787232245e+00	 1.574077377020629e+00	 1.179392259418980e+01
 1.653492323671859e+00	 1.590263938443519e+00	 1.174149762365469e+01
 1.637917417581719e+00	 1.606300991017122e+00	 1.168768560917514e+01
 1.622186236028725e+00	 1.622186236028724e+00	 1.163223229171748e+01
 1.606300991017122e+00	 1.637917417581719e+00	 1.157488619236876e+01
 1.590263938443519e+00	 1.653492323671859e+00	 1.151540176990740e+01
 1.574077377020629e+00	 1.668908787232246e+00	 1.145354270713841e+01
 1.557743647170843e+00	 1.684164687146025e+00	 1.138908531603061e+01
 1.541265129890738e+00	 1.699257949225795e+00	 1.132182205079668e+01
 1.707971598750992e+00	 1.549168605741983e+00	 1.188509360168513e+01
 1.692800939713280e+00	 1.565731623450308e+00	 1.183482074589421e+01
 1.677466808848658e+00	 1.582149111270733e+00	 1.178375550806649e+01
 1.661971290980780e+00	 1.598418675997140e+00	 1.173166935382386e+01
 1.646316518103403e+00	 1.614537965205652e+00	 1.167833087557547e+01
 1.630504668395955e+00	 1.630504668395954e+00	 1.162350868008326e+01
 1.614537965205651e+00	 1.646316518103402e+00	 1.156697442667814e+01
 1.598418675997140e+00	 1.661971290980781e+00	 1.150850600800946e+01
 1.582149111270733e+00	 1.677466808848659e+00	 1.144789086426079e+01
 1.565731623450307e+00	 1.692800939713280e+00	 1.138492942081957e+01
 1.549168605741983e+00	 1.707971598750992e+00	 1.131943863846795e+01
 1.716685248275522e+00	 1.557072081593112e+00	 1.187294078416324e+01
 1.701437192279913e+00	 1.573719599729607e+00	 1.182290994818476e+01
 1.686024830464499e+00	 1.590220845520620e+00	 1.177219783194022e+01
 1.670450258289184e+00	 1.606573413550484e+00	 1.172058903004800e+01
 1.654715618624627e+00	 1.622774939393843e+00	 1.166786526225692e+01
 1.638823100762787e+00	 1.638823100762787e+00	 1.161380828693706e+01
 1.622774939393843e+00	 1.654715618624627e+00	 1.155820297037803e+01
 1.606573413550484e+00	 1.670450258289185e+00	 1.150084050377073e+01
 1.590220845520619e+00	 1.686024830464500e+00	 1.144152175876433e+01
 1.573719599729607e+00	 1.701437192279914e+00	 1.138006077152294e+01
 1.557072081593112e+00	 1.716685248275522e+00	 1.131628834425120e+01
 1.725398897799552e+00	 1.564975557444173e+00	 1.185958415509753e+01
 1.710073444846079e+00	 1.581707576008800e+00	 1.180989300693039e+01
 1.694582852079910e+00	 1.598292579770352e+00	 1.175965084208873e+01
 1.678929225597200e+00	 1.614728151103627e+00	 1.170864624343300e+01
 1.663114719145509e+00	 1.631011913581788e+00	 1.165666467629429e+01
 1.647141533129323e+00	 1.647141533129323e+00	 1.160349143996988e+01
 1.631011913581788e+00	 1.663114719145509e+00	 1.154891478062954e+01
 1.614728151103627e+00	 1.678929225597200e+00	 1.149272915748338e+01
 1.598292579770352e+00	 1.694582852079910e+00	 1.143473865304625e+01
 1.581707576008798e+00	 1.710073444846079e+00	 1.137476051733897e+01
 1.564975557444174e+00	 1.725398897799552e+00	 1.131262883488011e+01
 1.734112547323249e+00	 1.572879033295219e+00	 1.184542636639408e+01
 1.718709697411933e+00	 1.589695552287939e+00	 1.179616553460952e+01
 1.703140873695035e+00	 1.606364314019997e+00	 1.174650097005790e+01
 1.687408192904958e+00	 1.622882888656648e+00	 1.169621620256567e+01
 1.671513819666164e+00	 1.639248887769573e+00	 1.164509116161294e+01
 1.655459965495668e+00	 1.655459965495668e+00	 1.159290517781586e+01
 1.639248887769573e+00	 1.671513819666164e+00	 1.153944015187071e+01
 1.622882888656648e+00	 1.687408192904959e+00	 1.148448388276393e+01
 1.606364314019997e+00	 1.703140873695035e+00	 1.142783354601588e+01
 1.589695552287938e+00	 1.718709697411933e+00	 1.136929931169052e+01
 1.572879033295219e+00	 1.734112547323249e+00	 1.130870809089253e+01
 1.742826196846779e+00	 1.580782509146298e+00	 1.183085452665005e+01
 1.727345949977632e+00	 1.597683528567083e+00	 1.178210793368414e+01
 1.711698895310017e+00	 1.614436048269620e+00	 1.173311983119037e+01
 1.695887160212589e+00	 1.631037626209620e+00	 1.168365975188897e+01
 1.679912920186708e+00	 1.647485861957287e+00	 1.163349290597702e+01
 1.663778397861919e+00	 1.663778397861919e+00	 1.158238324448442e+01
 1.647485861957287e+00	 1.679912920186709e+00	 1.153009669658601e+01
 1.631037626209620e+00	 1.695887160212590e+00	 1.147640457261914e+01
 1.614436048269620e+00	 1.711698895310018e+00	 1.142108712348205e+01
 1.597683528567082e+00	 1.727345949977632e+00	 1.136393724602517e+01
 1.580782509146298e+00	 1.742826196846779e+00	 1.130476432300222e+01
 1.751539846370308e+00	 1.588685984997461e+00	 1.181624024495018e+01
 1.735982202543330e+00	 1.605671504846288e+00	 1.176808543309193e+01
 1.720256916924999e+00	 1.622507782519285e+00	 1.171986425249555e+01
 1.704366127520223e+00	 1.639192363762622e+00	 1.167132338969308e+01
 1.688312020707258e+00	 1.655722836145019e+00	 1.162220424790609e+01
 1.672096830228181e+00	 1.672096830228181e+00	 1.157224608406502e+01
 1.655722836145020e+00	 1.688312020707259e+00	 1.152118932672779e+01
 1.639192363762621e+00	 1.704366127520223e+00	 1.146877906657379e+01
 1.622507782519285e+00	 1.720256916925000e+00	 1.141476871004142e+01
 1.605671504846288e+00	 1.735982202543331e+00	 1.135892378558335e+01
 1.588685984997461e+00	 1.751539846370309e+00	 1.130102589093068e+01
 1.760253495894005e+00	 1.596589460848757e+00	 1.180193967360973e+01
 1.744618455109185e+00	 1.613659481125611e+00	 1.175444812387304e+01
 1.728814938540127e+00	 1.630579516769058e+00	 1.170707629988306e+01
 1.712845094827988e+00	 1.647347101315728e+00	 1.165953928573552e+01
 1.696711121227930e+00	 1.663959810332859e+00	 1.161154568351953e+01
 1.680415262594555e+00	 1.680415262594555e+00	 1.156280083569590e+01
 1.663959810332858e+00	 1.696711121227930e+00	 1.151301023576698e+01
 1.647347101315728e+00	 1.712845094827988e+00	 1.146188311882359e+01
 1.630579516769058e+00	 1.728814938540127e+00	 1.140913622241617e+01
 1.613659481125610e+00	 1.744618455109185e+00	 1.135449770706529e+01
 1.596589460848757e+00	 1.760253495894005e+00	 1.129771122461263e+01
 1.768967145418034e+00	 1.604492936700237e+00	 1.178829354989882e+01
 1.753254707675350e+00	 1.621647457405107e+00	 1.174153099396161e+01
 1.737372960155541e+00	 1.638651251019005e+00	 1.169508330478109e+01
 1.721324062136015e+00	 1.655501838869015e+00	 1.164862529850198e+01
 1.705110221748838e+00	 1.672196784520893e+00	 1.160182387331268e+01
 1.688733694961144e+00	 1.688733694961144e+00	 1.155434132878570e+01
 1.672196784520893e+00	 1.705110221748839e+00	 1.150583888134985e+01
 1.655501838869015e+00	 1.721324062136015e+00	 1.145598036737677e+01
 1.638651251019005e+00	 1.737372960155541e+00	 1.140443612418906e+01
 1.621647457405107e+00	 1.753254707675351e+00	 1.135088703813103e+01
 1.604492936700237e+00	 1.768967145418035e+00	 1.129502874769194e+01
 1.777680794942564e+00	 1.612396412551951e+00	 1.177562723678328e+01
 1.761890960241984e+00	 1.629635433684834e+00	 1.172965396217006e+01
 1.745930981771386e+00	 1.646722985269191e+00	 1.168419789015968e+01
 1.729803029444434e+00	 1.663656576422560e+00	 1.163888499211896e+01
 1.713509322270101e+00	 1.680433758709212e+00	 1.159333164886518e+01
 1.697052127328050e+00	 1.697052127328049e+00	 1.154714807847907e+01
 1.680433758709212e+00	 1.713509322270101e+00	 1.149994196854036e+01
 1.663656576422560e+00	 1.729803029444435e+00	 1.145132230414946e+01
 1.646722985269191e+00	 1.745930981771386e+00	 1.140090338188829e+01
 1.629635433684833e+00	 1.761890960241984e+00	 1.134830899866873e+01
 1.612396412551951e+00	 1.777680794942565e+00	 1.129317680323027e+01
 1.786394444467762e+00	 1.620299888403949e+00	 1.176425076271406e+01
 1.770527212809241e+00	 1.637623409964848e+00	 1.171912191139256e+01
 1.754489003387805e+00	 1.654794719519682e+00	 1.167471799597919e+01
 1.738281996753376e+00	 1.671811313976439e+00	 1.163060765293072e+01
 1.721908422791832e+00	 1.688670732897904e+00	 1.158634801948322e+01
 1.705370559695375e+00	 1.705370559695375e+00	 1.154148828135707e+01
 1.688670732897904e+00	 1.721908422791833e+00	 1.149557343362605e+01
 1.671811313976439e+00	 1.738281996753376e+00	 1.144814824598175e+01
 1.654794719519682e+00	 1.754489003387805e+00	 1.139876142237448e+01
 1.637623409964847e+00	 1.770527212809241e+00	 1.134696994377222e+01
 1.620299888403949e+00	 1.786394444467762e+00	 1.129234358155043e+01
 1.541265129890738e+00	 1.699257949225795e+00	 1.132182205079668e+01
 1.524641412379558e+00	 1.714189066583344e+00	 1.125364790538780e+01
 1.507877766170421e+00	 1.728953458418528e+00	 1.118615346165721e+01
 1.490976714992988e+00	 1.743549169077020e+00	 1.111866861670552e+01
 1.473940818315178e+00	 1.757974293485932e+00	 1.105052007395452e+01
 1.456772670066700e+00	 1.772226977966766e+00	 1.098068321150387e+01
 1.439474897341006e+00	 1.786305421010003e+00	 1.090796285604686e+01
 1.422050159077009e+00	 1.800207874010670e+00	 1.083119668261309e+01
 1.404501144721941e+00	 1.813932641964258e+00	 1.074926204591046e+01
 1.386830572876747e+00	 1.827478084122474e+00	 1.066109556481067e+01
 1.369041189925425e+00	 1.840842614608285e+00	 1.056571224738570e+01
 1.549168605741983e+00	 1.707971598750992e+00	 1.131943863846795e+01
 1.532459643228195e+00	 1.722979281602216e+00	 1.125322683135098e+01
 1.515610034474042e+00	 1.737819383976854e+00	 1.118765945993705e+01
 1.498622316150662e+00	 1.752489940192145e+00	 1.112188005007951e+01
 1.481499060850714e+00	 1.766989035406144e+00	 1.105504985968987e+01
 1.464242875805370e+00	 1.781314806434842e+00	 1.098618397357603e+01
 1.446856401579600e+00	 1.795465442530729e+00	 1.091392147362257e+01
 1.429342310747136e+00	 1.809439186122127e+00	 1.083689090986567e+01
 1.411703306546475e+00	 1.823234333512687e+00	 1.075375714706062e+01
 1.393942121519327e+00	 1.836849235540490e+00	 1.066324192985444e+01
 1.376061516132917e+00	 1.850282298196257e+00	 1.056414398122471e+01
 1.557072081593112e+00	 1.716685248275522e+00	 1.131628834425120e+01
 1.540277874076758e+00	 1.731769496620385e+00	 1.125187333220467e+01
 1.523342302777622e+00	 1.746685309534450e+00	 1.118791809137637e+01
 1.506267917308323e+00	 1.761430711306520e+00	 1.112339153893424e+01
 1.489057303386262e+00	 1.776003777325595e+00	 1.105727511607625e+01
 1.471713081544069e+00	 1.790402634902154e+00	 1.098853547665486e+01
 1.454237905818235e+00	 1.804625464050697e+00	 1.091579156737101e+01
 1.436634462417312e+00	 1.818670498232841e+00	 1.083747503429469e+01
 1.418905468371064e+00	 1.832536025060395e+00	 1.075205146146700e+01
 1.401053670161959e+00	 1.846220386957816e+00	 1.065804140071424e+01
 1.383081842340459e+00	 1.859721981783579e+00	 1.055715935207412e+01
 1.564975557444174e+00	 1.725398897799552e+00	 1.131262883488012e+01
 1.548096104925292e+00	 1.740559711638028e+00	 1.124982511830247e+01
 1.531074571081207e+00	 1.755551235091498e+00	 1.118715531396357e+01
 1.513913518466019e+00	 1.770371482420333e+00	 1.112342525565402e+01
 1.496615545921870e+00	 1.785018519244475e+00	 1.105744859531146e+01
 1.479183287282848e+00	 1.799490463368896e+00	 1.098805188457326e+01
 1.461619410056965e+00	 1.813785485570099e+00	 1.091390462451135e+01
 1.443926614087593e+00	 1.827901810343003e+00	 1.083330482348765e+01
 1.426107630195760e+00	 1.841837716607572e+00	 1.074453166182688e+01
 1.408165218804698e+00	 1.855591538374640e+00	 1.064659334082642e+01
 1.390102168548100e+00	 1.869161665370436e+00	 1.055090883487522e+01
 1.572879033295219e+00	 1.734112547323249e+00	 1.130870809089253e+01
 1.555914335773844e+00	 1.749349926655319e+00	 1.124731096635394e+01
 1.538806839384844e+00	 1.764417160648181e+00	 1.118558875288968e+01
 1.521559119623795e+00	 1.779312253533772e+00	 1.112219549310222e+01
 1.504173788457585e+00	 1.794033261162978e+00	 1.105578883754349e+01
 1.486653493021757e+00	 1.808578291835260e+00	 1.098503608861058e+01
 1.469000914295840e+00	 1.822945507089132e+00	 1.090858403943851e+01
 1.451218765758032e+00	 1.837133122452808e+00	 1.082472822722702e+01
 1.433309792020619e+00	 1.851139408154409e+00	 1.073157675682607e+01
 1.415276767447598e+00	 1.864962689791150e+00	 1.063562548415216e+01
 1.397122494755891e+00	 1.878601348957011e+00	 1.054577008742674e+01
 1.580782509146298e+00	 1.742826196846779e+00	 1.130476432300222e+01
 1.563732566622460e+00	 1.758140141672434e+00	 1.124455062000083e+01
 1.546539107688576e+00	 1.773283086204682e+00	 1.118342758932722e+01
 1.529204720781699e+00	 1.788253024647025e+00	 1.111990854549756e+01
 1.511732030993454e+00	 1.803048003081294e+00	 1.105250669009982e+01
 1.494123698760843e+00	 1.817666120301441e+00	 1.097974147683576e+01
 1.476382418534916e+00	 1.832105528607988e+00	 1.090014467665514e+01
 1.458510917428683e+00	 1.846364434562449e+00	 1.081208495570749e+01
 1.440511953845696e+00	 1.860441099701100e+00	 1.071700182200902e+01
 1.422388316090712e+00	 1.874333841207535e+00	 1.062691276687676e+01
 1.404142820963880e+00	 1.888041032543487e+00	 1.054197289628397e+01
 1.588685984997461e+00	 1.751539846370309e+00	 1.130102589093068e+01
 1.571550797471187e+00	 1.766930356689550e+00	 1.124175469329555e+01
 1.554271375992448e+00	 1.782149011761183e+00	 1.118087245243608e+01
 1.536850321939774e+00	 1.797193795760280e+00	 1.111676259272703e+01
 1.519290273529526e+00	 1.812062744999616e+00	 1.104780518778205e+01
 1.501593904500161e+00	 1.826753948767633e+00	 1.097238363077293e+01
 1.483763922774243e+00	 1.841265550126862e+00	 1.088889139744610e+01
 1.465803069099600e+00	 1.855595746672117e+00	 1.079632940599914e+01
 1.447714115671046e+00	 1.869742791247832e+00	 1.070569518864872e+01
 1.429499864734092e+00	 1.883704992623980e+00	 1.062062276432229e+01
 1.411163147172119e+00	 1.897480716130046e+00	 1.053973052061670e+01
 1.596589460848757e+00	 1.760253495894005e+00	 1.129771122461263e+01
 1.579369028320072e+00	 1.775720571706841e+00	 1.123912457698244e+01
 1.562003644296508e+00	 1.791014937317867e+00	 1.117811531448432e+01
 1.544495923098068e+00	 1.806134566873725e+00	 1.111294758797321e+01
 1.526848516065848e+00	 1.821077486918135e+00	 1.104187943656864e+01
 1.509064110239758e+00	 1.835841777234029e+00	 1.096316974757427e+01
 1.491145427013874e+00	 1.850425571645949e+00	 1.087508531750301e+01
 1.473095220770838e+00	 1.864827058782009e+00	 1.078341584296634e+01
 1.454916277496722e+00	 1.879044482794800e+00	 1.069779534429866e+01
 1.436611413377794e+00	 1.893076144040674e+00	 1.061690678989670e+01
 1.418183473380656e+00	 1.906920399716873e+00	 1.053923962828094e+01
 1.604492936700237e+00	 1.768967145418035e+00	 1.129502874769194e+01
 1.587187259169160e+00	 1.784510786724484e+00	 1.123685234748207e+01
 1.569735912600799e+00	 1.799880862874919e+00	 1.117533938897496e+01
 1.552141524256626e+00	 1.815075337987549e+00	 1.110864514854366e+01
 1.534406758602468e+00	 1.830092228837041e+00	 1.103491650060837e+01
 1.516534315979683e+00	 1.844929605700822e+00	 1.095229915166960e+01
 1.498526931253861e+00	 1.859585593165443e+00	 1.086149090122840e+01
 1.480387372442451e+00	 1.874058370892316e+00	 1.077480184645523e+01
 1.462118439322781e+00	 1.888346174342193e+00	 1.069339823512205e+01
 1.443722962021869e+00	 1.902447295457805e+00	 1.061589981843215e+01
 1.425203799589542e+00	 1.916360083304151e+00	 1.054068023372337e+01
 1.612396412551951e+00	 1.777680794942565e+00	 1.129317680323027e+01
 1.595005490018498e+00	 1.793301001742653e+00	 1.123512067848730e+01
 1.577468180905367e+00	 1.808746788432519e+00	 1.117271903167632e+01
 1.559787125415493e+00	 1.824016109101939e+00	 1.110402844979006e+01
 1.541965001139433e+00	 1.839106970756529e+00	 1.102709529238946e+01
 1.524004521719990e+00	 1.854017434168208e+00	 1.094014974403512e+01
 1.505908435494258e+00	 1.868745614685538e+00	 1.085274073835904e+01
 1.487679524114493e+00	 1.883289683003230e+00	 1.077051564975394e+01
 1.469320601149275e+00	 1.897647865890201e+00	 1.069258359727785e+01
 1.450834510666372e+00	 1.911818446875560e+00	 1.061772041175194e+01
 1.432224125798826e+00	 1.925799766892061e+00	 1.054421563765765e+01
 1.620299888403949e+00	 1.786394444467762e+00	 1.129234358155043e+01
 1.602823720868134e+00	 1.802091216761527e+00	 1.123410275507925e+01
 1.585200449210258e+00	 1.817612713990852e+00	 1.117041964445419e+01
 1.567432726574717e+00	 1.832956880217085e+00	 1.109926212201118e+01
 1.549523243676792e+00	 1.848121712676790e+00	 1.101858646597669e+01
 1.531474727460727e+00	 1.863105262636380e+00	 1.093144390085995e+01
 1.513289939735115e+00	 1.877905636206427e+00	 1.084886861894102e+01
 1.494971675787019e+00	 1.892520995114949e+00	 1.077051884027897e+01
 1.476522762976262e+00	 1.906949557439018e+00	 1.069541487363828e+01
 1.457946059311357e+00	 1.921189598294128e+00	 1.062247064639037e+01
 1.439244452008559e+00	 1.935239450480789e+00	 1.054999236845104e+01
 1.369041189925425e+00	 1.840842614608285e+00	 1.056571224738570e+01
 1.351138820256443e+00	 1.854022479120048e+00	 1.046251275294720e+01
 1.333123237985579e+00	 1.867018497329324e+00	 1.036163312503520e+01
 1.314997253021487e+00	 1.879829259409232e+00	 1.026793977214070e+01
 1.296763697493999e+00	 1.892453412362836e+00	 1.017997965272801e+01
 1.278425424330804e+00	 1.904889660426426e+00	 1.009626913487780e+01
 1.259985305826673e+00	 1.917136765430404e+00	 1.001530086486780e+01
 1.241446232206680e+00	 1.929193547117706e+00	 9.935550675533037e+00
 1.222811110184869e+00	 1.941058883419686e+00	 9.855484502829597e+00
 1.204082861519824e+00	 1.952731710689495e+00	 9.773565278874505e+00
 1.185264421568571e+00	 1.964211023893019e+00	 9.688259769736069e+00
 1.376061516132917e+00	 1.850282298196257e+00	 1.056414398122472e+01
 1.358067344642686e+00	 1.863529747926603e+00	 1.046236422769901e+01
 1.339959380006082e+00	 1.876592408606307e+00	 1.036763030211250e+01
 1.321740446540713e+00	 1.889468863179030e+00	 1.027874455106689e+01
 1.303413390899311e+00	 1.902157751709799e+00	 1.019434491083721e+01
 1.284981080639117e+00	 1.914657771790347e+00	 1.011304313618061e+01
 1.266446402783767e+00	 1.926967678901865e+00	 1.003343168937007e+01
 1.247812262379142e+00	 1.939086286735046e+00	 9.954090667352977e+00
 1.229081581044652e+00	 1.951012467467382e+00	 9.873594734933031e+00
 1.210257295521388e+00	 1.962745151997751e+00	 9.790520031709583e+00
 1.191342356218620e+00	 1.974283330138320e+00	 9.703451020510236e+00
 1.383081842340459e+00	 1.859721981783579e+00	 1.055715935207412e+01
 1.364995869028972e+00	 1.873037016732559e+00	 1.046182161054619e+01
 1.346795522026620e+00	 1.886166319882748e+00	 1.037236029198058e+01
 1.328483640059966e+00	 1.899108466948349e+00	 1.028753471901023e+01
 1.310063084304645e+00	 1.911862091056344e+00	 1.020607545179703e+01
 1.291536736947449e+00	 1.924425883153916e+00	 1.012669112961279e+01
 1.272907499740881e+00	 1.936798592373040e+00	 1.004807538152198e+01
 1.254178292551633e+00	 1.948979026352158e+00	 9.968913773855398e+00
 1.235352051904478e+00	 1.960966051514908e+00	 9.887890761831295e+00
 1.216431729523020e+00	 1.972758593305884e+00	 9.803696612515502e+00
 1.197420290868771e+00	 1.984355636383539e+00	 9.715034266293232e+00
 1.390102168548100e+00	 1.869161665370436e+00	 1.055090883487522e+01
 1.371924393415344e+00	 1.882544285538094e+00	 1.046119687392451e+01
 1.353631664047228e+00	 1.895740231158819e+00	 1.037618313848619e+01
 1.335226833579270e+00	 1.908748070717349e+00	 1.029471704187160e+01
 1.316712777710010e+00	 1.921566430402627e+00	 1.021562332399992e+01
 1.298092393255797e+00	 1.934193994517279e+00	 1.013770891641553e+01
 1.279368596697999e+00	 1.946629505844060e+00	 1.005976987593159e+01
 1.260544322724121e+00	 1.958871765969167e+00	 9.980598354052562e+00
 1.241622522764302e+00	 1.970919635562374e+00	 9.898989568982703e+00
 1.222606163524661e+00	 1.982772034613993e+00	 9.813748746847917e+00
 1.203498225518957e+00	 1.994427942628759e+00	 9.723697998731497e+00
 1.397122494755891e+00	 1.878601348957011e+00	 1.054577008742674e+01
 1.378852917801847e+00	 1.892051554343384e+00	 1.046078518684788e+01
 1.360467806067940e+00	 1.905314142434687e+00	 1.037944171452892e+01
 1.341970027098649e+00	 1.918387674486195e+00	 1.030068078976662e+01
 1.323362471115420e+00	 1.931270769748805e+00	 1.022342279841984e+01
 1.304648049564158e+00	 1.943962105880581e+00	 1.014657428245335e+01
 1.285829693655104e+00	 1.956460419315063e+00	 1.006903489797222e+01
 1.266910352896575e+00	 1.968764505586196e+00	 9.989704408348794e+00
 1.247892993624081e+00	 1.980873219609889e+00	 9.907489678686941e+00
 1.228780597526259e+00	 1.992785475922175e+00	 9.821311637671036e+00
 1.209576160169111e+00	 2.004500248874062e+00	 9.730112172816181e+00
 1.404142820963880e+00	 1.888041032543487e+00	 1.054197289628397e+01
 1.385781442188523e+00	 1.901558823148609e+00	 1.046086486427599e+01
 1.367303948088791e+00	 1.914888053710527e+00	 1.038246168780815e+01
 1.348713220618125e+00	 1.928027278255050e+00	 1.030579771835451e+01
 1.330012164520884e+00	 1.940975109095028e+00	 1.022989036470083e+01
 1.311203705872531e+00	 1.953730217243967e+00	 1.015374700822187e+01
 1.292290790612179e+00	 1.966291332786183e+00	 1.007637198685268e+01
 1.273276383068967e+00	 1.978657245203369e+00	 9.996773613796060e+00
 1.254163464483773e+00	 1.990826803657567e+00	 9.913971196631149e+00
 1.234955031527754e+00	 2.002798917230526e+00	 9.827002022281771e+00
 1.215654094819166e+00	 2.014572555119531e+00	 9.734928273255003e+00
 1.411163147172119e+00	 1.897480716130046e+00	 1.053973052061669e+01
 1.392709966575415e+00	 1.911066091953944e+00	 1.046169731790528e+01
 1.374140090109815e+00	 1.924461964986508e+00	 1.038555148747802e+01
 1.355456414137723e+00	 1.937666882024078e+00	 1.031042205058030e+01
 1.336661857926413e+00	 1.950679448441454e+00	 1.023542472719311e+01
 1.317759362180912e+00	 1.963498328607584e+00	 1.015966887836498e+01
 1.298751887569209e+00	 1.976122246257554e+00	 1.008226451778336e+01
 1.279642413241264e+00	 1.988549984820808e+00	 1.000232935805733e+01
 1.260433935343333e+00	 2.000780387705518e+00	 9.918995856784115e+00
 1.241129465529093e+00	 2.012812358539144e+00	 9.831418227250090e+00
 1.221732029469055e+00	 2.024644861365248e+00	 9.738779378560084e+00
 1.418183473380656e+00	 1.906920399716873e+00	 1.053923962828094e+01
 1.399638490962568e+00	 1.920573360759569e+00	 1.046352700833716e+01
 1.380976232131046e+00	 1.934035876262802e+00	 1.038900227167965e+01
 1.362199607657467e+00	 1.947306485793443e+00	 1.031489045882004e+01
 1.343311551332018e+00	 1.960383787788239e+00	 1.024040680094121e+01
 1.324315018489299e+00	 1.973266439971575e+00	 1.016476369071689e+01
 1.305212984526177e+00	 1.985953159729313e+00	 1.008717772326546e+01
 1.286008443413438e+00	 1.998442724438638e+00	 1.000687677212199e+01
 1.266704406202716e+00	 2.010733971753851e+00	 9.923107064696797e+00
 1.247303899530217e+00	 2.022825799848126e+00	 9.835140221448665e+00
 1.227809964118710e+00	 2.034717167611297e+00	 9.742280222932289e+00
 1.425203799589542e+00	 1.916360083304151e+00	 1.054068023372337e+01
 1.406567015350024e+00	 1.930080629565660e+00	 1.046658139857436e+01
 1.387812374152519e+00	 1.943609787539580e+00	 1.039308789591992e+01
 1.368942801177376e+00	 1.956946089563306e+00	 1.031952204741433e+01
 1.349961244737710e+00	 1.970088127135537e+00	 1.024519970762487e+01
 1.330870674797689e+00	 1.983034551336089e+00	 1.016943726488745e+01
 1.311674081483065e+00	 1.995784073201593e+00	 1.009155871354000e+01
 1.292374473585456e+00	 2.008335464056981e+00	 1.001090276181838e+01
 1.272974877061880e+00	 2.020687555802679e+00	 9.926829939264429e+00
 1.253478333531072e+00	 2.032839241157571e+00	 9.838729667234077e+00
 1.233887898768065e+00	 2.044789473857760e+00	 9.746027256018026e+00
 1.432224125798826e+00	 1.925799766892061e+00	 1.054421563765766e+01
 1.413495539737827e+00	 1.939587898372396e+00	 1.047107090880197e+01
 1.394648516174267e+00	 1.953183698817012e+00	 1.039806488226917e+01
 1.375685994697478e+00	 1.966585693333835e+00	 1.032461833557667e+01
 1.356610938143500e+00	 1.979792466483504e+00	 1.025014877145590e+01
 1.337426331106079e+00	 1.992802662701268e+00	 1.017407745040560e+01
 1.318135178439859e+00	 2.005614986674530e+00	 1.009583649622008e+01
 1.298740503757289e+00	 2.018228203675960e+00	 1.001487603816317e+01
 1.279245347920779e+00	 2.030641139852112e+00	 9.930671353003223e+00
 1.259652767531601e+00	 2.042852682467574e+00	 9.842729969846831e+00
 1.239965833417054e+00	 2.054861780104719e+00	 9.750598700612166e+00
 1.439244452008559e+00	 1.935239450480789e+00	 1.054999236845104e+01
 1.420424064126019e+00	 1.949095167179954e+00	 1.047718887240855e+01
 1.401484658196326e+00	 1.962757610095271e+00	 1.040417238935033e+01
 1.382429188217795e+00	 1.976225297105190e+00	 1.033046324066585e+01
 1.363260631549399e+00	 1.989496805832294e+00	 1.025558151503137e+01
 1.343981987414468e+00	 2.002570774067260e+00	 1.017905413443691e+01
 1.324596275396540e+00	 2.015445900148260e+00	 1.010042199513943e+01
 1.305106533928907e+00	 2.028120943295701e+00	 1.001924714658881e+01
 1.285515818779372e+00	 2.040594723902260e+00	 9.935119970893153e+00
 1.265827201531748e+00	 2.052866123778234e+00	 9.847666325088808e+00
 1.246043768065609e+00	 2.064934086352260e+00	 9.756554608375845e+00
 1.185264421568571e+00	 1.964211023893019e+00	 9.688259769736069e+00
 1.166358738209572e+00	 1.975495877233904e+00	 9.597824913223080e+00
 1.147368771481756e+00	 1.986585385696304e+00	 9.502497398746895e+00
 1.128297490991922e+00	 1.997478723691154e+00	 9.403771024040894e+00
 1.109147874099834e+00	 2.008175124601593e+00	 9.303193530002524e+00
 1.089922904483954e+00	 2.018673880761600e+00	 9.200607516988597e+00
 1.070625570713999e+00	 2.028974343393743e+00	 9.096072539028036e+00
 1.051258864831626e+00	 2.039075922506462e+00	 8.990711095324656e+00
 1.031825780940558e+00	 2.048978086751392e+00	 8.885644535344088e+00
 1.012329313807433e+00	 2.058680363241244e+00	 8.782009712729909e+00
 9.927724574745952e-01	 2.068182337328829e+00	 8.680974239112096e+00
 1.191342356218620e+00	 1.974283330138320e+00	 9.703451020510236e+00
 1.172339726131267e+00	 1.985626051242782e+00	 9.611152505065865e+00
 1.153252380477096e+00	 1.996772425756992e+00	 9.514284261460134e+00
 1.134083304090815e+00	 2.007721623858315e+00	 9.414335002673711e+00
 1.114835489599850e+00	 2.018472874998724e+00	 9.312863690125745e+00
 1.095511935982730e+00	 2.029025467883328e+00	 9.210524125638965e+00
 1.076115647134321e+00	 2.039378750407801e+00	 9.106722173486427e+00
 1.056649630439230e+00	 2.049532129555141e+00	 9.002524393965373e+00
 1.037116895354707e+00	 2.059485071252253e+00	 8.899052345573910e+00
 1.017520452004310e+00	 2.069237100186900e+00	 8.797447143029210e+00
 9.978633097836004e-01	 2.078787799585604e+00	 8.698885225205061e+00
 1.197420290868771e+00	 1.984355636383539e+00	 9.715034266293232e+00
 1.178320714053110e+00	 1.995756225251608e+00	 9.621144881783344e+00
 1.159135989472638e+00	 2.006959465817648e+00	 9.523063835301803e+00
 1.139869117189967e+00	 2.017964524025454e+00	 9.422251288410655e+00
 1.120523105100182e+00	 2.028770625395837e+00	 9.320238939994198e+00
 1.101100967481877e+00	 2.039377055005039e+00	 9.218237619792664e+00
 1.081605723555058e+00	 2.049783157421840e+00	 9.115456010315903e+00
 1.062040396047281e+00	 2.059988336603792e+00	 9.012657530602286e+00
 1.042408009769318e+00	 2.069992055753075e+00	 8.910939730897262e+00
 1.022711590201647e+00	 2.079793837132514e+00	 8.811423941090384e+00
 1.002954162093036e+00	 2.089393261842329e+00	 8.715271599848618e+00
 1.203498225518957e+00	 1.994427942628759e+00	 9.723697998731497e+00
 1.184301701975024e+00	 2.005886399260449e+00	 9.628521611599473e+00
 1.165019598468298e+00	 2.017146505878320e+00	 9.529581603779853e+00
 1.145654930289289e+00	 2.028207424192606e+00	 9.428286398711926e+00
 1.126210720600740e+00	 2.039068375792953e+00	 9.326117036969784e+00
 1.106689998981301e+00	 2.049728642126737e+00	 9.224554298305609e+00
 1.087095799976118e+00	 2.060187564435844e+00	 9.123081178749210e+00
 1.067431161655691e+00	 2.070444543652390e+00	 9.021914298295169e+00
 1.047699124184308e+00	 2.080499040253827e+00	 8.922103230670288e+00
 1.027902728399367e+00	 2.090350574078038e+00	 8.824725732045568e+00
 1.008045014402836e+00	 2.099998724098955e+00	 8.730904678511159e+00
 1.209576160169111e+00	 2.004500248874062e+00	 9.730112172816181e+00
 1.190282689896935e+00	 2.016016573269371e+00	 9.633983790330950e+00
 1.170903207463994e+00	 2.027333545939063e+00	 9.534564748576182e+00
 1.151440743388696e+00	 2.038450324359808e+00	 9.433188818919296e+00
 1.131898336101434e+00	 2.049366126190091e+00	 9.331263262298309e+00
 1.112279030480911e+00	 2.060080229248423e+00	 9.230271414196713e+00
 1.092585876397411e+00	 2.070591971449807e+00	 9.130391549293142e+00
 1.072821927264373e+00	 2.080900750700913e+00	 9.031086249142994e+00
 1.052990238599598e+00	 2.091006024754472e+00	 8.933328200920487e+00
 1.033093866597396e+00	 2.100907311023430e+00	 8.838128046329095e+00
 1.013135866712935e+00	 2.110604186355430e+00	 8.746546792852843e+00
 1.215654094819166e+00	 2.014572555119531e+00	 9.734928273255003e+00
 1.196263677818765e+00	 2.026146747278441e+00	 9.638214115443581e+00
 1.176786816459644e+00	 2.037520585999926e+00	 9.538722228811375e+00
 1.157226556488098e+00	 2.048693224527091e+00	 9.437689084420654e+00
 1.137585951602171e+00	 2.059663876587268e+00	 9.336425309605616e+00
 1.117868061980615e+00	 2.070431816370104e+00	 9.236318606342232e+00
 1.098075952818847e+00	 2.080996378463715e+00	 9.138167514298280e+00
 1.078212692873239e+00	 2.091356957749335e+00	 9.040952484616364e+00
 1.058281353015103e+00	 2.101513009254977e+00	 8.945388612731442e+00
 1.038285004795658e+00	 2.111464047968647e+00	 8.852396124556371e+00
 1.018226719023265e+00	 2.121209648611704e+00	 8.762951100689694e+00
 1.221732029469055e+00	 2.024644861365248e+00	 9.738779378560084e+00
 1.202244665740440e+00	 2.036276921287728e+00	 9.641876957576114e+00
 1.182670425455163e+00	 2.047707626060960e+00	 9.542744857605246e+00
 1.163012369587408e+00	 2.058936124694493e+00	 9.442499860008686e+00
 1.143273567102861e+00	 2.069961626984503e+00	 9.342333364981188e+00
 1.123457093480323e+00	 2.080783403491782e+00	 9.243514681729721e+00
 1.103566029240335e+00	 2.091400785477559e+00	 9.147175765776122e+00
 1.083603458482202e+00	 2.101813164797634e+00	 9.052279443266997e+00
 1.063572467430741e+00	 2.112019993755305e+00	 8.959046848177991e+00
 1.043476142994077e+00	 2.122020784913644e+00	 8.868284720165503e+00
 1.023317571333762e+00	 2.131815110867727e+00	 8.780861393971728e+00
 1.227809964118710e+00	 2.034717167611297e+00	 9.742280222932289e+00
 1.208225653661882e+00	 2.046407095297298e+00	 9.645618429623152e+00
 1.188554034450469e+00	 2.057894666122217e+00	 9.547305376027991e+00
 1.168798182686538e+00	 2.069179024862048e+00	 9.448316016531635e+00
 1.148961182603415e+00	 2.080259377381816e+00	 9.349700184317166e+00
 1.129046124979942e+00	 2.091134990613458e+00	 9.252586291634941e+00
 1.109056105661784e+00	 2.101805192491326e+00	 9.158169070560062e+00
 1.088994224091174e+00	 2.112269371845785e+00	 9.065820685903939e+00
 1.068863581846430e+00	 2.122526978255422e+00	 8.975053493897475e+00
 1.048667281192579e+00	 2.132577521858377e+00	 8.886537899901979e+00
 1.028408423644359e+00	 2.142420573123449e+00	 8.801011904841097e+00
 1.233887898768065e+00	 2.044789473857760e+00	 9.746027256018026e+00
 1.214206641583017e+00	 2.056537269307218e+00	 9.650066453458653e+00
 1.194437643445479e+00	 2.068081706183748e+00	 9.553058524532901e+00
 1.174583995785400e+00	 2.079421925029791e+00	 9.455814704929972e+00
 1.154648798103741e+00	 2.090557127779226e+00	 9.359221167998740e+00
 1.134635156479380e+00	 2.101486577735139e+00	 9.264243173261848e+00
 1.114546182083104e+00	 2.112209599505005e+00	 9.171928935091673e+00
 1.094384989700068e+00	 2.122725578893765e+00	 9.082316678326276e+00
 1.074154696262089e+00	 2.133033962755292e+00	 8.994147132377609e+00
 1.053858419391089e+00	 2.143134258802803e+00	 8.907888842218227e+00
 1.033499275954990e+00	 2.153026035378820e+00	 8.824127109837882e+00
 1.239965833417054e+00	 2.054861780104719e+00	 9.750598700612166e+00
 1.220187629503768e+00	 2.066667443317556e+00	 9.655830824381727e+00
 1.200321252440111e+00	 2.078268746245604e+00	 9.560641111955846e+00
 1.180369808883907e+00	 2.089664825197756e+00	 9.465655427747897e+00
 1.160336413603748e+00	 2.100854878176751e+00	 9.371574433036269e+00
 1.140224187978547e+00	 2.111838164856827e+00	 9.279178220755384e+00
 1.120036258504205e+00	 2.122614006518586e+00	 9.189330665107306e+00
 1.099775755308797e+00	 2.133181785941548e+00	 9.102494571692969e+00
 1.079445810677634e+00	 2.143540947254881e+00	 9.017054131039275e+00
 1.059049557589530e+00	 2.153690995746878e+00	 8.933059633661447e+00
 1.038590128265588e+00	 2.163631497633789e+00	 8.850921532316846e+00
 1.246043768065609e+00	 2.064934086352260e+00	 9.756554608375845e+00
 1.226168617424059e+00	 2.076797617328380e+00	 9.663503273365020e+00
 1.206204861434282e+00	 2.088455786307836e+00	 9.570672082166205e+00
 1.186155621981970e+00	 2.099907725365980e+00	 9.478480108207194e+00
 1.166024029103347e+00	 2.111152628574411e+00	 9.387420882726831e+00
 1.145813219477351e+00	 2.122189751978526e+00	 9.298067553761474e+00
 1.125526334924996e+00	 2.133018413532060e+00	 9.211077754520225e+00
 1.105166520917274e+00	 2.143637992989114e+00	 9.127067980612368e+00
 1.084736925092983e+00	 2.154047931754155e+00	 9.044488429190066e+00
 1.064240695787830e+00	 2.164247732690559e+00	 8.962761063316083e+00
 1.043680980576090e+00	 2.174236959888308e+00	 8.882099543135036e+00
 9.927724574745952e-01	 2.068182337328829e+00	 8.680974239112096e+00
 9.731548643829736e-01	 2.077485216347005e+00	 8.584101732998102e+00
 9.534828435233381e-01	 2.086587067483538e+00	 8.491660803625638e+00
 9.337593791304013e-01	 2.095487647543637e+00	 8.402902484150420e+00
 9.139874493427524e-01	 2.104186770349388e+00	 8.317147416868984e+00
 8.941700248922229e-01	 2.112684306335749e+00	 8.233796330236849e+00
 8.743100678119793e-01	 2.120980182111962e+00	 8.152338879490264e+00
 8.544105301643428e-01	 2.129074379989214e+00	 8.072360851627291e+00
 8.344743527893120e-01	 2.136966937475452e+00	 7.993549745945096e+00
 8.145044640747093e-01	 2.144657946738227e+00	 7.915698751385406e+00
 7.945037787488365e-01	 2.152147554036520e+00	 7.838709151570423e+00
 9.978633097836004e-01	 2.078787799585604e+00	 8.698885225205061e+00
 9.781451193512608e-01	 2.088138382972309e+00	 8.604747442996556e+00
 9.583722220500188e-01	 2.097286907623495e+00	 8.515074716170190e+00
 9.385476174174707e-01	 2.106233129097303e+00	 8.429069439876105e+00
 9.186742988638307e-01	 2.114976860261130e+00	 8.346010368223169e+00
 8.987552523545732e-01	 2.123517970885550e+00	 8.265263413480483e+00
 8.787934551119025e-01	 2.131856387203478e+00	 8.186290744211677e+00
 8.587918743360485e-01	 2.139992091435410e+00	 8.108658183406391e+00
 8.387534659473699e-01	 2.147925121281646e+00	 8.032040918456586e+00
 8.186811733501969e-01	 2.155655569382378e+00	 7.956227545224507e+00
 7.985779262192938e-01	 2.163183582746605e+00	 7.881122478397637e+00
 1.002954162093036e+00	 2.089393261842329e+00	 8.715271599848618e+00
 9.831353743199249e-01	 2.098791549597561e+00	 8.623658442318815e+00
 9.632616005769988e-01	 2.107986747763398e+00	 8.536384598417081e+00
 9.433358557047462e-01	 2.116978610650916e+00	 8.452594012644353e+00
 9.233611483850106e-01	 2.125766950172821e+00	 8.371513785000699e+00
 9.033404798169157e-01	 2.134351635435306e+00	 8.292465315341037e+00
 8.832768424117095e-01	 2.142732592294954e+00	 8.214873680222798e+00
 8.631732185075350e-01	 2.150909802881574e+00	 8.138275243595304e+00
 8.430325791051174e-01	 2.158883305087814e+00	 8.062323513831160e+00
 8.228578826253004e-01	 2.166653192026509e+00	 7.986793270345263e+00
 8.026520736893163e-01	 2.174219611456674e+00	 7.911582993323138e+00
 1.008045014402836e+00	 2.099998724098955e+00	 8.730904678511159e+00
 9.881256292889092e-01	 2.109444716222704e+00	 8.641587004640119e+00
 9.681509791042355e-01	 2.118686587903193e+00	 8.556317494874436e+00
 9.481240939921984e-01	 2.127724092204422e+00	 8.474171924334634e+00
 9.280479979062777e-01	 2.136557040084413e+00	 8.394316078514009e+00
 9.079257072792518e-01	 2.145185299984969e+00	 8.316017265766909e+00
 8.877602297114157e-01	 2.153608797386350e+00	 8.238653994026182e+00
 8.675545626788320e-01	 2.161827514327669e+00	 8.161723813378979e+00
 8.473116922625988e-01	 2.169841488893925e+00	 8.084849337647713e+00
 8.270345919000761e-01	 2.177650814670594e+00	 8.007782469222445e+00
 8.067262211589703e-01	 2.185255640166710e+00	 7.930406862012738e+00
 1.013135866712935e+00	 2.110604186355430e+00	 8.746546792852843e+00
 9.931158842581593e-01	 2.120097882847688e+00	 8.659277576850444e+00
 9.730403576316862e-01	 2.129386428042823e+00	 8.575593852722939e+00
 9.529123322797988e-01	 2.138469573757769e+00	 8.494493597008313e+00
 9.327348474276183e-01	 2.147347129995854e+00	 8.415071721529660e+00
 9.125109347415816e-01	 2.156018964534497e+00	 8.336531976997414e+00
 8.922436170110373e-01	 2.164485002477627e+00	 8.258196950722429e+00
 8.719359068499710e-01	 2.172745225773661e+00	 8.179516160327147e+00
 8.515908054198579e-01	 2.180799672699953e+00	 8.100072257248042e+00
 8.312113011745809e-01	 2.188648437314616e+00	 8.019585365287130e+00
 8.108003686283236e-01	 2.196291668876697e+00	 7.937915590437990e+00
 1.018226719023265e+00	 2.121209648611704e+00	 8.762951100689694e+00
 9.981061392276208e-01	 2.130751049472457e+00	 8.677466592048244e+00
 9.779297361593088e-01	 2.140086268182237e+00	 8.594927335055528e+00
 9.577005705675198e-01	 2.149215055310905e+00	 8.514243963674083e+00
 9.374216969490186e-01	 2.158137219907097e+00	 8.434431053894755e+00
 9.170961622039066e-01	 2.166852629083844e+00	 8.354619441453295e+00
 8.967270043105898e-01	 2.175361207568744e+00	 8.274066561629082e+00
 8.763172510209825e-01	 2.183662937219519e+00	 8.192164813269383e+00
 8.558699185769392e-01	 2.191757856505871e+00	 8.108447961470862e+00
 8.353880104488711e-01	 2.199646059958551e+00	 8.022595605195828e+00
 8.148745160974435e-01	 2.207327697586619e+00	 7.934435747424706e+00
 1.023317571333762e+00	 2.131815110867727e+00	 8.780861393971728e+00
 1.003096394197238e+00	 2.141404216096958e+00	 8.696882280846545e+00
 9.828191146870612e-01	 2.150786108321377e+00	 8.615024632808886e+00
 9.624888088553322e-01	 2.159960536863775e+00	 8.534102278191844e+00
 9.421085464704645e-01	 2.168927309818089e+00	 8.453040087823300e+00
 9.216813896662279e-01	 2.177686293632962e+00	 8.370886729870470e+00
 9.012103916100896e-01	 2.186237412659660e+00	 8.286825372792283e+00
 8.806985951918960e-01	 2.194580648665208e+00	 8.200182338782259e+00
 8.601490317338863e-01	 2.202716040311650e+00	 8.110433722775348e+00
 8.395647197230027e-01	 2.210643682602376e+00	 8.017210004319839e+00
 8.189486635663976e-01	 2.218363726296459e+00	 7.920298691312783e+00
 1.028408423644359e+00	 2.142420573123449e+00	 8.801011904841097e+00
 1.008086649166955e+00	 2.152057382721138e+00	 8.718244481051258e+00
 9.877084932149003e-01	 2.161485948460192e+00	 8.636585275427715e+00
 9.672770471432074e-01	 2.170706018416327e+00	 8.554741924345731e+00
 9.467953959919423e-01	 2.179717399728782e+00	 8.471540312850738e+00
 9.262666171285465e-01	 2.188519958181808e+00	 8.385937789670120e+00
 9.056937789095525e-01	 2.197113617750338e+00	 8.297034254364689e+00
 8.850799393627422e-01	 2.205498360110692e+00	 8.204081119230882e+00
 8.644281448907437e-01	 2.213674224117262e+00	 8.106488161668235e+00
 8.437414289970331e-01	 2.221641305246070e+00	 8.003828295346752e+00
 8.230228110352524e-01	 2.229399755006201e+00	 7.902274023540098e+00
 1.033499275954990e+00	 2.153026035378820e+00	 8.824127109837882e+00
 1.013076904136718e+00	 2.162710549344942e+00	 8.742264445769376e+00
 9.925978717427845e-01	 2.172185788598625e+00	 8.660301440311084e+00
 9.720652854311164e-01	 2.181451499968507e+00	 8.576830224113497e+00
 9.514822455134376e-01	 2.190507489639125e+00	 8.490568500468200e+00
 9.308518445908628e-01	 2.199353622730337e+00	 8.400373243554601e+00
 9.101771662089940e-01	 2.207989822840734e+00	 8.305252190818582e+00
 8.894612835335514e-01	 2.216416071555939e+00	 8.204373132313329e+00
 8.687072580475547e-01	 2.224632407922680e+00	 8.097763612310239e+00
 8.479181382710183e-01	 2.232638927889614e+00	 7.995916042850562e+00
 8.270969585040763e-01	 2.240435783715828e+00	 7.902392247615087e+00
 1.038590128265588e+00	 2.163631497633789e+00	 8.850921532316844e+00
 1.018067159106473e+00	 2.173363715968319e+00	 8.769644649997234e+00
 9.974872502706706e-01	 2.182885628736624e+00	 8.686857761076977e+00
 9.768535237190316e-01	 2.192196981520263e+00	 8.601028245160263e+00
 9.561690950349365e-01	 2.201297579549069e+00	 8.510756508448921e+00
 9.354370720531788e-01	 2.210187287278502e+00	 8.414790188323527e+00
 9.146605535084308e-01	 2.218866027930812e+00	 8.312036071964691e+00
 8.938426277043542e-01	 2.227333783000914e+00	 8.204521191621374e+00
 8.729863712043645e-01	 2.235590591727878e+00	 8.103348548166860e+00
 8.520948475450146e-01	 2.243636550532983e+00	 8.009407269852078e+00
 8.311711059729351e-01	 2.251471812425325e+00	 7.922360879511254e+00
 1.043680980576090e+00	 2.174236959888308e+00	 8.882099543135036e+00
 1.023057414076163e+00	 2.184016882591212e+00	 8.801078595744530e+00
 1.002376628798517e+00	 2.193585468874133e+00	 8.716931134688878e+00
 9.816417620069242e-01	 2.202942463071542e+00	 8.627990607583882e+00
 9.608559445564259e-01	 2.212087669458564e+00	 8.532731084876625e+00
 9.400222995154951e-01	 2.221020951826259e+00	 8.429781993900887e+00
 9.191439408078784e-01	 2.229742233020532e+00	 8.324034992612731e+00
 8.982239718751820e-01	 2.238251494445587e+00	 8.224753242159307e+00
 8.772654843612165e-01	 2.246548775532827e+00	 8.131648152770859e+00
 8.562715568190792e-01	 2.254634173176159e+00	 8.044253319437255e+00
 8.352452534418976e-01	 2.262507841134675e+00	 7.962063089905145e+00
 7.945037787488365e-01	 2.152147554036520e+00	 7.838709151570419e+00
 7.744786032344139e-01	 2.159434737071443e+00	 7.761338018810947e+00
 7.544284219814120e-01	 2.166521037319425e+00	 7.682602224273439e+00
 7.343560994031362e-01	 2.173406757988834e+00	 7.602930200281415e+00
 7.142644817167075e-01	 2.180092253784474e+00	 7.521935746409911e+00
 6.941563958610053e-01	 2.186577930201046e+00	 7.439477969679137e+00
 6.740346484414517e-01	 2.192864242791646e+00	 7.355658427222074e+00
 6.539020247022385e-01	 2.198951696412341e+00	 7.270601430170624e+00
 6.337612875265176e-01	 2.204840844443906e+00	 7.184453919126311e+00
 6.136151764650631e-01	 2.210532287991816e+00	 7.097383920147406e+00
 5.934664067938410e-01	 2.216026675065565e+00	 7.009577687377186e+00
 7.985779262192938e-01	 2.163183582746605e+00	 7.881122478397637e+00
 7.784500633161697e-01	 2.170508133833188e+00	 7.805392148472423e+00
 7.582970664471111e-01	 2.177630772023110e+00	 7.727863636752152e+00
 7.381218147139097e-01	 2.184551802079559e+00	 7.648875038448043e+00
 7.179271689288651e-01	 2.191271580526224e+00	 7.568076125572435e+00
 6.977159705271749e-01	 2.197790514937140e+00	 7.485045845409030e+00
 6.774910405063147e-01	 2.204109063201433e+00	 7.399734290071366e+00
 6.572551783929880e-01	 2.210227732764019e+00	 7.312118791876824e+00
 6.370111612381949e-01	 2.216147079843355e+00	 7.222203718286708e+00
 6.167617426409095e-01	 2.221867708627326e+00	 7.130018789561857e+00
 5.965096518008191e-01	 2.227390270448351e+00	 7.039626496427461e+00
 8.026520736893163e-01	 2.174219611456674e+00	 7.911582993323141e+00
 7.824215233974647e-01	 2.181581530594921e+00	 7.835242471662180e+00
 7.621657109123476e-01	 2.188740506726787e+00	 7.756425108393537e+00
 7.418875300242371e-01	 2.195696846170279e+00	 7.675396612407951e+00
 7.215898561406054e-01	 2.202450907267970e+00	 7.591961148177020e+00
 7.012755451929656e-01	 2.209003099673235e+00	 7.505464499051844e+00
 6.809474325708398e-01	 2.215353883611224e+00	 7.415762053958583e+00
 6.606083320834397e-01	 2.221503769115703e+00	 7.322743457788463e+00
 6.402610349496075e-01	 2.227453315242814e+00	 7.230368916713527e+00
 6.199083088165146e-01	 2.233203129262847e+00	 7.144315735352462e+00
 5.995528968075634e-01	 2.238753865831156e+00	 7.063805360904401e+00
 8.067262211589703e-01	 2.185255640166710e+00	 7.930406862012738e+00
 7.863929834783759e-01	 2.192654927356630e+00	 7.851140405974459e+00
 7.660343553772057e-01	 2.199850241430449e+00	 7.768488994333515e+00
 7.456532453342075e-01	 2.206841890260988e+00	 7.682692219424464e+00
 7.252525433520223e-01	 2.213630234009714e+00	 7.593740326042798e+00
 7.048351198584735e-01	 2.220215684409329e+00	 7.500873767260263e+00
 6.844038246351243e-01	 2.226598704021018e+00	 7.406645323205800e+00
 6.639614857736916e-01	 2.232779805467398e+00	 7.318770653912330e+00
 6.435109086608558e-01	 2.238759550642289e+00	 7.236975704769396e+00
 6.230548749919776e-01	 2.244538549898393e+00	 7.160356060586588e+00
 6.025961418141740e-01	 2.250117461213994e+00	 7.087930561093795e+00
 8.108003686283236e-01	 2.196291668876697e+00	 7.937915590437990e+00
 7.903644435589792e-01	 2.203728324118305e+00	 7.853344193031439e+00
 7.699029998417677e-01	 2.210959976134085e+00	 7.764265580229627e+00
 7.494189606439097e-01	 2.217986934351682e+00	 7.670947689673870e+00
 7.289152305632083e-01	 2.224809560751449e+00	 7.574514519913107e+00
 7.083946945237933e-01	 2.231428269145424e+00	 7.483332746284505e+00
 6.878602166992672e-01	 2.237843524430821e+00	 7.398976164030683e+00
 6.673146394638443e-01	 2.244055841819108e+00	 7.320630372740153e+00
 6.467607823720386e-01	 2.250065786041791e+00	 7.247388309743582e+00
 6.262014411673994e-01	 2.255873970533977e+00	 7.178260293657750e+00
 6.056393868207508e-01	 2.261481056596884e+00	 7.112183380857861e+00
 8.148745160974435e-01	 2.207327697586619e+00	 7.934435747424706e+00
 7.943359036393506e-01	 2.214801720879930e+00	 7.842118604436655e+00
 7.737716443061174e-01	 2.222069710837689e+00	 7.743972779781604e+00
 7.531846759534321e-01	 2.229131978442355e+00	 7.646810214317509e+00
 7.325779177742563e-01	 2.235988887493174e+00	 7.557662067010925e+00
 7.119542691890227e-01	 2.242640853881519e+00	 7.475480086684239e+00
 6.913166087633658e-01	 2.249088344840634e+00	 7.399334399527982e+00
 6.706677931539956e-01	 2.255331878170841e+00	 7.328370304570726e+00
 6.500106560832568e-01	 2.261372021441326e+00	 7.261643830511326e+00
 6.293480073428801e-01	 2.267209391169613e+00	 7.198132004747952e+00
 6.086826318273937e-01	 2.272844651979842e+00	 7.136742407741528e+00
 8.189486635663976e-01	 2.218363726296459e+00	 7.920298691312783e+00
 7.983073637195669e-01	 2.225875117641497e+00	 7.819468463290961e+00
 7.776402887703384e-01	 2.233179445541252e+00	 7.723621338852459e+00
 7.569503912628638e-01	 2.240277022533004e+00	 7.634795147610355e+00
 7.362406049852599e-01	 2.247168214234888e+00	 7.553128385318724e+00
 7.155138438542560e-01	 2.253853438617615e+00	 7.477757378293235e+00
 6.947730008275180e-01	 2.260333165250462e+00	 7.407652746416005e+00
 6.740209468442458e-01	 2.266607914522602e+00	 7.341969724839939e+00
 6.532605297946089e-01	 2.272678256840905e+00	 7.279778146799310e+00
 6.324945735185188e-01	 2.278544811805308e+00	 7.220072867346982e+00
 6.117258768342028e-01	 2.284208247362886e+00	 7.161783445153196e+00
 8.230228110352524e-01	 2.229399755006201e+00	 7.902274023540098e+00
 8.022788237997037e-01	 2.236948514402993e+00	 7.808142995669421e+00
 7.815089332345141e-01	 2.244289180244766e+00	 7.719664453248999e+00
 7.607161065722935e-01	 2.251422066623621e+00	 7.637131546991553e+00
 7.399032921963115e-01	 2.258347540976587e+00	 7.560785500883853e+00
 7.190734185195907e-01	 2.265066023353713e+00	 7.490060868007928e+00
 6.982293928918216e-01	 2.271577985660305e+00	 7.423863168396625e+00
 6.773741005346932e-01	 2.277883950874395e+00	 7.361406965811000e+00
 6.565104035061958e-01	 2.283984492240536e+00	 7.301825768517113e+00
 6.356411396944159e-01	 2.289880232441080e+00	 7.244182537623265e+00
 6.147691218412781e-01	 2.295571842746032e+00	 7.187479426505787e+00
 8.270969585040763e-01	 2.240435783715828e+00	 7.902392247615091e+00
 8.062502838798377e-01	 2.248021911164406e+00	 7.815000072755403e+00
 7.853775776987272e-01	 2.255398914948221e+00	 7.731955173395701e+00
 7.644818218818106e-01	 2.262567110714203e+00	 7.653671528837407e+00
 7.435659794075040e-01	 2.269526867718270e+00	 7.580514307702995e+00
 7.226329931851213e-01	 2.276278608089811e+00	 7.512285784755498e+00
 7.016857849563750e-01	 2.282822806070167e+00	 7.447896686140272e+00
 6.807272542254370e-01	 2.289159987226226e+00	 7.386659245391020e+00
 6.597602772181163e-01	 2.295290727640229e+00	 7.327819688790702e+00
 6.387877058706716e-01	 2.301215653076938e+00	 7.270558536662984e+00
 6.178123668487192e-01	 2.306935438129298e+00	 7.214000331248910e+00
 8.311711059729351e-01	 2.251471812425325e+00	 7.922360879511258e+00
 8.102217439600443e-01	 2.259095307925723e+00	 7.839900490159867e+00
 7.892462221630610e-01	 2.266508649651612e+00	 7.760341804048015e+00
 7.682475371915030e-01	 2.273712154804744e+00	 7.684264926842404e+00
 7.472286666189311e-01	 2.280706194459934e+00	 7.612203979587121e+00
 7.261925678509448e-01	 2.287491192825909e+00	 7.544326141487509e+00
 7.051421770212760e-01	 2.294067626480051e+00	 7.479683192002888e+00
 6.840804079165763e-01	 2.300436023578101e+00	 7.417702500182717e+00
 6.630101509304706e-01	 2.306596963039989e+00	 7.357791240574418e+00
 6.419342720473850e-01	 2.312551073712895e+00	 7.299296135477895e+00
 6.208556118566271e-01	 2.318299033512701e+00	 7.241513102725833e+00
 8.352452534418976e-01	 2.262507841134675e+00	 7.962063089905147e+00
 8.141932040404012e-01	 2.270168704686935e+00	 7.882701217423126e+00
 7.931148666275997e-01	 2.277618384354930e+00	 7.804669673720628e+00
 7.720132525014609e-01	 2.284857198895241e+00	 7.728759184255764e+00
 7.508913538306855e-01	 2.291885521201577e+00	 7.655717863217071e+00
 7.297521425171570e-01	 2.298703777562011e+00	 7.586074542058737e+00
 7.085985690866226e-01	 2.305312446889960e+00	 7.519151269313717e+00
 6.874335616082110e-01	 2.311712059930026e+00	 7.454511222626860e+00
 6.662600246433584e-01	 2.317903198439830e+00	 7.391769956715638e+00
 6.450808382246573e-01	 2.323886494348967e+00	 7.330488242690202e+00
 6.238988568651008e-01	 2.329662628896258e+00	 7.270181567796419e+00
 5.934664067938410e-01	 2.216026675065565e+00	 7.009577687377186e+00
 5.733176688758133e-01	 2.221324700219804e+00	 6.920509815198898e+00
 5.531716280766041e-01	 2.226427105135298e+00	 6.832586531413071e+00
 5.330309230416759e-01	 2.231334676289676e+00	 6.750838778423867e+00
 5.128981645921882e-01	 2.236048243580198e+00	 6.675054622990141e+00
 4.927759349327663e-01	 2.240568679413793e+00	 6.604859553982695e+00
 4.726667868900497e-01	 2.244896897783107e+00	 6.539831660498304e+00
 4.525732431821664e-01	 2.249033853329627e+00	 6.479504955287380e+00
 4.324977957192420e-01	 2.252980540395017e+00	 6.423372163445939e+00
 4.124429049350053e-01	 2.256737992061686e+00	 6.370886993324095e+00
 3.924109991495222e-01	 2.260307279183709e+00	 6.321465908726578e+00
 5.965096518008191e-01	 2.227390270448351e+00	 7.039626496427461e+00
 5.762575928768500e-01	 2.232715463422699e+00	 6.954994177578976e+00
 5.560082449023825e-01	 2.237844033034409e+00	 6.875243652613945e+00
 5.357642600536111e-01	 2.242776769794112e+00	 6.800249207490440e+00
 5.155282625397479e-01	 2.247514507854712e+00	 6.729834401422131e+00
 4.953028478067264e-01	 2.252058124096779e+00	 6.663776326268607e+00
 4.750905817718476e-01	 2.256408537199838e+00	 6.601809285149087e+00
 4.548940000895071e-01	 2.260566706700706e+00	 6.543627903343701e+00
 4.347156074481169e-01	 2.264533632039949e+00	 6.488889687114932e+00
 4.145578768982849e-01	 2.268310351597543e+00	 6.437217048446739e+00
 3.944232492122796e-01	 2.271897941718818e+00	 6.388198815866756e+00
 5.995528968075634e-01	 2.238753865831156e+00	 7.063805360904401e+00
 5.791975168776420e-01	 2.244106226625617e+00	 6.987507698766872e+00
 5.588448617278903e-01	 2.249260960933549e+00	 6.914710145149149e+00
 5.384975970652404e-01	 2.254218863298579e+00	 6.845400525438778e+00
 5.181583604869605e-01	 2.258980772129262e+00	 6.779520751225778e+00
 4.978297606802986e-01	 2.263547568779797e+00	 6.716970945898684e+00
 4.775143766532211e-01	 2.267920176616594e+00	 6.657612969130147e+00
 4.572147569963963e-01	 2.272099560071794e+00	 6.601273354216147e+00
 4.369334191765277e-01	 2.276086723684873e+00	 6.547745674864691e+00
 4.166728488611064e-01	 2.279882711133366e+00	 6.496792360453853e+00
 3.964354992746081e-01	 2.283488604253856e+00	 6.448145980987667e+00
 6.025961418141740e-01	 2.250117461213994e+00	 7.087930561093795e+00
 5.821374408782893e-01	 2.255496989828579e+00	 7.018421156421439e+00
 5.616814785532276e-01	 2.260677888832745e+00	 6.951310320886739e+00
 5.412309340766625e-01	 2.265660956803114e+00	 6.886671558012591e+00
 5.207884584339239e-01	 2.270447036403886e+00	 6.824537108746280e+00
 5.003566735535782e-01	 2.275037013462899e+00	 6.764901984036348e+00
 4.799381715342627e-01	 2.279431816033437e+00	 6.707727374887227e+00
 4.595355139029222e-01	 2.283632413442969e+00	 6.652943454727775e+00
 4.391512309045564e-01	 2.287639815329871e+00	 6.600451591626173e+00
 4.187878208235444e-01	 2.291455070669244e+00	 6.550125990369382e+00
 3.984477493365736e-01	 2.295079266788925e+00	 6.501814786682544e+00
 6.056393868207508e-01	 2.261481056596884e+00	 7.112183380857861e+00
 5.850773648788921e-01	 2.266887753031608e+00	 7.047990442496992e+00
 5.645180953784936e-01	 2.272094816732028e+00	 6.985364111944401e+00
 5.439642710879764e-01	 2.277103050307753e+00	 6.924436117210847e+00
 5.234185563807358e-01	 2.281913300678634e+00	 6.865301418722925e+00
 5.028835864266612e-01	 2.286526458146137e+00	 6.808022189300580e+00
 4.823619664150647e-01	 2.290943455450427e+00	 6.752631149112338e+00
 4.618562708091731e-01	 2.295165266814297e+00	 6.699134271295969e+00
 4.413690426322855e-01	 2.299192906975024e+00	 6.647512876685865e+00
 4.209027927856737e-01	 2.303027430205270e+00	 6.597725138640362e+00
 4.004599993982413e-01	 2.306669929324125e+00	 6.549707021277590e+00
 6.086826318273937e-01	 2.272844651979842e+00	 7.136742407741528e+00
 5.880172888795501e-01	 2.278278516234730e+00	 7.076467815399529e+00
 5.673547122037886e-01	 2.283511744631425e+00	 7.017187049393190e+00
 5.466976080992813e-01	 2.288545143812533e+00	 6.959063007213503e+00
 5.260486543274940e-01	 2.293379564953549e+00	 6.902226163034232e+00
 5.054104992996431e-01	 2.298015902829564e+00	 6.846778535149712e+00
 4.847857612957200e-01	 2.302455094867627e+00	 6.792796984809055e+00
 4.641770277152366e-01	 2.306698120185851e+00	 6.740335862949085e+00
 4.435868543597973e-01	 2.310745998620413e+00	 6.689429024152049e+00
 4.230177647475697e-01	 2.314599789741536e+00	 6.640091229776150e+00
 4.024722494596774e-01	 2.318260591859557e+00	 6.592318964589520e+00
 6.117258768342028e-01	 2.284208247362886e+00	 7.161783445153196e+00
 5.909572128803633e-01	 2.289669279437963e+00	 7.104101847825587e+00
 5.701913290292122e-01	 2.294928672530966e+00	 7.047090242041233e+00
 5.494309451106765e-01	 2.299987237317491e+00	 6.990916029621895e+00
 5.286787522742963e-01	 2.304845829228674e+00	 6.935718388116882e+00
 5.079374121726192e-01	 2.309505347513235e+00	 6.881612265421257e+00
 4.872095561763209e-01	 2.313966734285100e+00	 6.828691681116013e+00
 4.664977846212013e-01	 2.318230973557703e+00	 6.777032351812359e+00
 4.458046660871742e-01	 2.322299090266117e+00	 6.726693660699899e+00
 4.251327367093068e-01	 2.326172149278129e+00	 6.677719994172693e+00
 4.044844995209472e-01	 2.329851254395321e+00	 6.630141470867563e+00
 6.147691218412781e-01	 2.295571842746032e+00	 7.187479426505787e+00
 5.938971368814318e-01	 2.301060042641332e+00	 7.131137375544801e+00
 5.730279458548638e-01	 2.306345600430681e+00	 7.075380355293135e+00
 5.521642821222604e-01	 2.311429330822662e+00	 7.020353988030433e+00
 5.313088502212403e-01	 2.316312093504052e+00	 6.966179731101309e+00
 5.104643250456858e-01	 2.320994792197201e+00	 6.912958938093613e+00
 4.896333510569597e-01	 2.325478373702908e+00	 6.860776200963612e+00
 4.688185415271553e-01	 2.329763826929921e+00	 6.809701991146301e+00
 4.480224778144983e-01	 2.333852181912221e+00	 6.759794620691327e+00
 4.272477086709603e-01	 2.337744508815142e+00	 6.711101547220772e+00
 4.064967495821165e-01	 2.341441916931521e+00	 6.663660049016531e+00
 6.178123668487192e-01	 2.306935438129298e+00	 7.214000331248910e+00
 5.968370608828553e-01	 2.312450805844860e+00	 7.157815447101318e+00
 5.758645626808435e-01	 2.317762528330599e+00	 7.102359590082672e+00
 5.548976191341328e-01	 2.322871424328083e+00	 7.047730691958502e+00
 5.339389481684240e-01	 2.327778357779732e+00	 6.994006444711313e+00
 5.129912379189383e-01	 2.332484236881517e+00	 6.941248467327199e+00
 4.920571459377288e-01	 2.336990013121111e+00	 6.889505726641554e+00
 4.711392984331866e-01	 2.341296680302582e+00	 6.838817231024280e+00
 4.502402895418522e-01	 2.345405273558802e+00	 6.789214018756320e+00
 4.293626806326049e-01	 2.349316868352668e+00	 6.740720465793675e+00
 4.085089996432510e-01	 2.353032579468255e+00	 6.693354940195647e+00
 6.208556118566271e-01	 2.318299033512701e+00	 7.241513102725833e+00
 5.997769848847340e-01	 2.323841569048569e+00	 7.184373274399085e+00
 5.787011795072508e-01	 2.329179456230748e+00	 7.128325661875189e+00
 5.576309561463921e-01	 2.334313517833790e+00	 7.073394960158936e+00
 5.365690461159449e-01	 2.339244622055753e+00	 7.019589420968781e+00
 5.155181507924723e-01	 2.343973681566233e+00	 6.966905163848999e+00
 4.944809408187213e-01	 2.348501652539770e+00	 6.915329713346114e+00
 4.734600553393831e-01	 2.352829533675753e+00	 6.864844781731332e+00
 4.524581012693181e-01	 2.356958365205944e+00	 6.815428319926310e+00
 4.314776525943155e-01	 2.360889227890794e+00	 6.767055862202039e+00
 4.105212497044164e-01	 2.364623242005624e+00	 6.719701192882255e+00
 6.238988568651008e-01	 2.329662628896258e+00	 7.270181567796419e+00
 6.027169088871679e-01	 2.335232332252483e+00	 7.211044184139217e+00
 5.815377963341855e-01	 2.340596384131158e+00	 7.153571779739625e+00
 5.603642931591380e-01	 2.345755611339822e+00	 7.097690623330842e+00
 5.391991440639011e-01	 2.350710886332164e+00	 7.043314213741962e+00
 5.180450636663835e-01	 2.355463126251403e+00	 6.990347773733656e+00
 4.969047357000295e-01	 2.360013291958952e+00	 6.938691940778713e+00
 4.757808122458337e-01	 2.364362387049507e+00	 6.888245674958664e+00
 4.546759129969786e-01	 2.368511456853728e+00	 6.838908407401797e+00
 4.335926245561674e-01	 2.372461587429615e+00	 6.790581455702198e+00
 4.125334997656784e-01	 2.376213904543731e+00	 6.743168735486829e+00
 3.924109991495222e-01	 2.260307279183709e+00	 6.321465908726578e+00
 3.724010758214055e-01	 2.263690068301732e+00	 6.274259790293490e+00
 3.524189104701712e-01	 2.266886879276476e+00	 6.229421593653356e+00
 3.324668378818725e-01	 2.269898889333720e+00	 6.187338260157988e+00
 3.125471583573035e-01	 2.272727309567507e+00	 6.148229123147459e+00
 2.926621372287381e-01	 2.275373383936691e+00	 6.112240461381215e+00
 2.728140044073286e-01	 2.277838388257973e+00	 6.079450179996112e+00
 2.530049539609434e-01	 2.280123629196378e+00	 6.049871982012742e+00
 2.332371437221915e-01	 2.282230443254122e+00	 6.023458659369751e+00
 2.135126949263519e-01	 2.284160195758806e+00	 6.000104609653864e+00
 1.938336918788989e-01	 2.285914279851820e+00	 5.979647682614945e+00
 3.944232492122796e-01	 2.271897941718818e+00	 6.388198815866760e+00
 3.743107167077564e-01	 2.275298077490303e+00	 6.341180130474065e+00
 3.542260845206063e-01	 2.278511281438520e+00	 6.296429755625604e+00
 3.341716994094744e-01	 2.281538736825964e+00	 6.254355002974798e+00
 3.141498734709087e-01	 2.284381660957058e+00	 6.215142691934571e+00
 2.941628836536215e-01	 2.287041304169572e+00	 6.178912329212663e+00
 2.742129713035674e-01	 2.289518948822485e+00	 6.145719821001542e+00
 2.543023417396152e-01	 2.291815908281291e+00	 6.115561194011223e+00
 2.344331638595630e-01	 2.293933525901670e+00	 6.088375415439661e+00
 2.146075697762109e-01	 2.295873174012506e+00	 6.064046422576934e+00
 1.948276544831812e-01	 2.297636252899101e+00	 6.042404470547345e+00
 3.964354992746081e-01	 2.283488604253856e+00	 6.448145980987675e+00
 3.762203575937342e-01	 2.286906086678758e+00	 6.401311094977009e+00
 3.560332585707457e-01	 2.290135683600395e+00	 6.356649838531780e+00
 3.358765609368733e-01	 2.293178584317975e+00	 6.314603765981021e+00
 3.157525885844132e-01	 2.296036012346312e+00	 6.275329334292752e+00
 2.956636300785105e-01	 2.298709224402090e+00	 6.238920479299425e+00
 2.756119381999149e-01	 2.301199509386569e+00	 6.205412530062921e+00
 2.555997295184905e-01	 2.303508187365705e+00	 6.174785455812790e+00
 2.356291839972185e-01	 2.305636608548655e+00	 6.146966190909626e+00
 2.157024446264143e-01	 2.307586152265583e+00	 6.121830153210008e+00
 1.958216170878427e-01	 2.309358225945702e+00	 6.099202068871012e+00
 3.984477493365736e-01	 2.295079266788925e+00	 6.501814786682544e+00
 3.781299984793932e-01	 2.298514095867207e+00	 6.455149949682185e+00
 3.578404326206311e-01	 2.301760085762221e+00	 6.410567149947257e+00
 3.375814224640981e-01	 2.304818431809887e+00	 6.368554046967519e+00
 3.173553036978324e-01	 2.307690363735412e+00	 6.329240396401135e+00
 2.971643765034062e-01	 2.310377144634392e+00	 6.292695912722216e+00
 2.770109050963602e-01	 2.312880069950372e+00	 6.258936924484760e+00
 2.568971172975472e-01	 2.315200466449778e+00	 6.227929122813540e+00
 2.368252041351266e-01	 2.317339691195235e+00	 6.199589366695459e+00
 2.167973194769240e-01	 2.319299130518194e+00	 6.173786665260661e+00
 1.968155796928411e-01	 2.321080198991780e+00	 6.150342454763030e+00
 4.004599993982413e-01	 2.306669929324125e+00	 6.549707021277590e+00
 3.800396393647880e-01	 2.310122105055762e+00	 6.503188676789658e+00
 3.596476066703049e-01	 2.313384487924117e+00	 6.458662260072930e+00
 3.392862839911771e-01	 2.316458279301828e+00	 6.416671038373607e+00
 3.189580188111810e-01	 2.319344715124490e+00	 6.377323311788026e+00
 2.986651229283106e-01	 2.322045064866623e+00	 6.340666073499888e+00
 2.784098719928922e-01	 2.324560630514048e+00	 6.306698385301777e+00
 2.581945050767631e-01	 2.326892745533664e+00	 6.275373602543351e+00
 2.380212242732558e-01	 2.329042773841569e+00	 6.246600634342745e+00
 2.178921943277015e-01	 2.331012108770500e+00	 6.220244364208484e+00
 1.978095422981344e-01	 2.332802172037496e+00	 6.196125353573074e+00
 4.024722494596774e-01	 2.318260591859557e+00	 6.592318964589523e+00
 3.819492802499734e-01	 2.321730114244533e+00	 6.545914060073224e+00
 3.614547807198090e-01	 2.325008890086204e+00	 6.501411055837111e+00
 3.409911455181394e-01	 2.328098126793928e+00	 6.459415684629359e+00
 3.205607339244744e-01	 2.330999066513690e+00	 6.420021661146595e+00
 3.001658693532253e-01	 2.333712985098927e+00	 6.383254910151049e+00
 2.798088388894999e-01	 2.336241191077748e+00	 6.349099119888997e+00
 2.594918928561158e-01	 2.338585024617519e+00	 6.317497417654817e+00
 2.392172444115747e-01	 2.340745856487815e+00	 6.288353058769498e+00
 2.189870691787086e-01	 2.342725087022661e+00	 6.261529259208789e+00
 1.988035049036805e-01	 2.344524145083006e+00	 6.236848299330860e+00
 4.044844995209472e-01	 2.329851254395321e+00	 6.630141470867563e+00
 3.838589211350039e-01	 2.333338123433631e+00	 6.583807767359698e+00
 3.632619547691850e-01	 2.336633292248605e+00	 6.539284792276337e+00
 3.426960070450132e-01	 2.339737974286316e+00	 6.497244736836275e+00
 3.221634490377270e-01	 2.342653417903147e+00	 6.457775229561196e+00
 3.016666157781516e-01	 2.345380905331451e+00	 6.420882934737558e+00
 2.812078057861725e-01	 2.347921751641623e+00	 6.386538222131368e+00
 2.607892806355836e-01	 2.350277303701501e+00	 6.354676266568850e+00
 2.404132645500520e-01	 2.352448939134135e+00	 6.325197138759459e+00
 2.200819440299073e-01	 2.354438065274834e+00	 6.297965022846644e+00
 1.997974675094372e-01	 2.356246118128470e+00	 6.272806693209199e+00
 4.064967495821165e-01	 2.341441916931521e+00	 6.663660049016535e+00
 3.857685620199339e-01	 2.344946132623167e+00	 6.617346430334101e+00
 3.650691288184758e-01	 2.348257694411438e+00	 6.572750141289740e+00
 3.444008685718277e-01	 2.351377821779125e+00	 6.530610804878773e+00
 3.237661641509543e-01	 2.354307769292999e+00	 6.491020061226635e+00
 3.031673622030915e-01	 2.357048825564340e+00	 6.453967279476337e+00
 2.826067726828990e-01	 2.359602312205825e+00	 6.419411730245772e+00
 2.620866684151442e-01	 2.361969582785766e+00	 6.387283081850311e+00
 2.416092846886561e-01	 2.364152021780685e+00	 6.357480865280239e+00
 2.211768188812590e-01	 2.366151043527184e+00	 6.329873048814513e+00
 2.007914301153623e-01	 2.367968091174045e+00	 6.304293860013935e+00
 4.085089996432510e-01	 2.353032579468255e+00	 6.693354940195647e+00
 3.876782029048181e-01	 2.356554141813254e+00	 6.647001721758000e+00
 3.668763028677227e-01	 2.359882096574824e+00	 6.602269237856983e+00
 3.461057300986112e-01	 2.363017669272481e+00	 6.559962407057433e+00
 3.253688792641712e-01	 2.365962120683387e+00	 6.520188511753552e+00
 3.046681086280466e-01	 2.368716745797740e+00	 6.482921751005892e+00
 2.840057395796686e-01	 2.371282872770507e+00	 6.448112682329561e+00
 2.633840561947754e-01	 2.373661861870469e+00	 6.415688086397632e+00
 2.428053048273558e-01	 2.375855104427625e+00	 6.385549777701736e+00
 2.222716937327256e-01	 2.377864021779866e+00	 6.357572507585473e+00
 2.017853927214139e-01	 2.379690064219889e+00	 6.331601102771638e+00
 4.105212497044164e-01	 2.364623242005624e+00	 6.719701192882255e+00
 3.895878437897111e-01	 2.368162151003999e+00	 6.673240430194529e+00
 3.686834769169683e-01	 2.371506498738885e+00	 6.628299723807662e+00
 3.478105916253925e-01	 2.374657516766514e+00	 6.585744017325959e+00
 3.269715943773928e-01	 2.377616472074445e+00	 6.545709298136968e+00
 3.061688550530182e-01	 2.380384666031797e+00	 6.508156882384847e+00
 2.854047064764703e-01	 2.382963433335819e+00	 6.473031169717273e+00
 2.646814439744553e-01	 2.385354140955767e+00	 6.440258847520098e+00
 2.440013249661195e-01	 2.387558187075114e+00	 6.409747017989174e+00
 2.233665685842689e-01	 2.389577000033041e+00	 6.381380400151039e+00
 2.027793553275497e-01	 2.391412037266161e+00	 6.355017755476670e+00
 4.125334997656784e-01	 2.376213904543731e+00	 6.743168735486829e+00
 3.914974846746676e-01	 2.379770160195517e+00	 6.696524532322073e+00
 3.704906509662546e-01	 2.383130900903741e+00	 6.651294788593575e+00
 3.495154531522007e-01	 2.386297364261357e+00	 6.608396110214491e+00
 3.285743094906340e-01	 2.389270823466315e+00	 6.568007546472474e+00
 3.076696014780085e-01	 2.392052586266657e+00	 6.530079982901062e+00
 2.868036733732932e-01	 2.394643993901914e+00	 6.494554388219669e+00
 2.659788317541617e-01	 2.397046420041817e+00	 6.461360328973162e+00
 2.451973451049160e-01	 2.399261269723312e+00	 6.430413382936889e+00
 2.244614434358507e-01	 2.401289978286870e+00	 6.401611609889278e+00
 2.037733179337277e-01	 2.403134010313020e+00	 6.374831234062125e+00
 1.938336918788989e-01	 2.285914279851820e+00	 5.979647682614938e+00
 1.742055067954408e-01	 2.287493861592585e+00	 5.961676261068787e+00
 1.546267611634085e-01	 2.288900698676113e+00	 5.946002649052127e+00
 1.350993811506673e-01	 2.290136260421766e+00	 5.932727290988949e+00
 1.156252561986164e-01	 2.291202039899849e+00	 5.921895113886074e+00
 9.620623882612772e-02	 2.292099552948723e+00	 5.913495019780430e+00
 7.684414445975285e-02	 2.292830337196592e+00	 5.907459273708080e+00
 5.754075128975939e-02	 2.293395951088660e+00	 5.903662863903990e+00
 3.829780015154378e-02	 2.293797972920375e+00	 5.901922905642200e+00
 1.911699443194919e-02	 2.294037999877456e+00	 5.901998154658810e+00
 0.000000000000000e+00	 2.294117647083334e+00	 5.903588690441292e+00
 1.948276544831812e-01	 2.297636252899101e+00	 6.042404470547345e+00
 1.750988177443493e-01	 2.299223934600323e+00	 6.023077236531466e+00
 1.554196739782433e-01	 2.300637985824484e+00	 6.005937003810415e+00
 1.357921592299422e-01	 2.301879883425482e+00	 5.991110922218732e+00
 1.162181726297281e-01	 2.302951128129945e+00	 5.978671218541910e+00
 9.669957619602096e-02	 2.303853243549313e+00	 5.968634159944719e+00
 7.723819466471397e-02	 2.304587775196606e+00	 5.960958925094212e+00
 5.783581534447212e-02	 2.305156289508589e+00	 5.955546462720410e+00
 3.849418799753681e-02	 2.305560372874068e+00	 5.952238411839383e+00
 1.921502474556327e-02	 2.305801630668980e+00	 5.950816152155917e+00
 0.000000000000000e+00	 2.305881686298962e+00	 5.951000047303108e+00
 1.958216170878427e-01	 2.309358225945702e+00	 6.099202068871012e+00
 1.759921286936422e-01	 2.310954007607332e+00	 6.078750964727420e+00
 1.562125867934426e-01	 2.312375272972086e+00	 6.060405957041690e+00
 1.364849373095423e-01	 2.313623506428394e+00	 6.044315179269693e+00
 1.168110890611125e-01	 2.314700216359208e+00	 6.030572485925320e+00
 9.719291356612678e-02	 2.315606934149049e+00	 6.019215873651230e+00
 7.763224486982592e-02	 2.316345213195748e+00	 6.010225822488019e+00
 5.813087939927793e-02	 2.316916627927636e+00	 6.003523640217542e+00
 3.869057584357485e-02	 2.317322772826869e+00	 5.998969886879234e+00
 1.931305505918952e-02	 2.317565261459606e+00	 5.996362950623222e+00
 0.000000000000000e+00	 2.317645725513689e+00	 5.995437839993293e+00
 1.968155796928411e-01	 2.321080198991780e+00	 6.150342454763022e+00
 1.768854396432767e-01	 2.322684080613768e+00	 6.128968513043034e+00
 1.570054996089659e-01	 2.324112560119068e+00	 6.109647065598530e+00
 1.371777153894314e-01	 2.325367129430645e+00	 6.092541813802919e+00
 1.174040054927391e-01	 2.326449304587774e+00	 6.077762874275868e+00
 9.768625093642147e-02	 2.327360624748055e+00	 6.065364643512641e+00
 7.802629507507187e-02	 2.328102651194136e+00	 6.055343595584697e+00
 5.842594345416650e-02	 2.328676966345908e+00	 6.047636098985013e+00
 3.888696368965289e-02	 2.329085172778879e+00	 6.042116332677923e+00
 1.941108537282657e-02	 2.329328892249435e+00	 6.038594375230804e+00
 0.000000000000000e+00	 2.329409764727617e+00	 6.036814534610446e+00
 1.978095422981344e-01	 2.332802172037496e+00	 6.196125353573073e+00
 1.777787505932103e-01	 2.334414153619786e+00	 6.173998898118080e+00
 1.577984124247726e-01	 2.335849847265579e+00	 6.153896049173389e+00
 1.378704934695735e-01	 2.337110752432375e+00	 6.135990966591912e+00
 1.179969219245778e-01	 2.338198392815776e+00	 6.120404970107725e+00
 9.817958830688156e-02	 2.339114315346459e+00	 6.107203832696483e+00
 7.842034528043515e-02	 2.339860089191887e+00	 6.096395020263436e+00
 5.872100750912744e-02	 2.340437304763515e+00	 6.087924967008027e+00
 3.908335153576593e-02	 2.340847572730207e+00	 6.081676469572752e+00
 1.950911568647307e-02	 2.341092523038569e+00	 6.077466276622955e+00
 0.000000000000000e+00	 2.341173803940845e+00	 6.075042944005539e+00
 1.988035049036805e-01	 2.344524145083006e+00	 6.236848299330856e+00
 1.786720615434002e-01	 2.346144226625537e+00	 6.214109144014223e+00
 1.585913252408223e-01	 2.347587134411767e+00	 6.193386844843237e+00
 1.385632715499324e-01	 2.348854375433727e+00	 6.174861217261790e+00
 1.185898383565983e-01	 2.349947481043346e+00	 6.158660032064349e+00
 9.867292567748330e-02	 2.350868005944384e+00	 6.144855721909520e+00
 7.881439548589891e-02	 2.351617527189119e+00	 6.133462047815486e+00
 5.901607156415040e-02	 2.352197643180571e+00	 6.124430818356615e+00
 3.927973938190898e-02	 2.352609972680959e+00	 6.117648747782385e+00
 1.960714600012768e-02	 2.352856153827107e+00	 6.112934532561362e+00
 0.000000000000000e+00	 2.352937843153472e+00	 6.110036219112764e+00
 1.997974675094372e-01	 2.356246118128470e+00	 6.272806693209199e+00
 1.795653724938036e-01	 2.357874299631178e+00	 6.249564338463866e+00
 1.593842380570745e-01	 2.359324421557781e+00	 6.228351659853471e+00
 1.392560496304719e-01	 2.360597998434841e+00	 6.209349632449848e+00
 1.191827547887702e-01	 2.361696569270621e+00	 6.192688033396370e+00
 9.916626304820311e-02	 2.362621696541957e+00	 6.178441545232604e+00
 7.920844569144649e-02	 2.363374965185951e+00	 6.166625833276085e+00
 5.931113561922511e-02	 2.363957981597184e+00	 6.157193693243564e+00
 3.947612722807704e-02	 2.364372372631236e+00	 6.150031358521346e+00
 1.970517631378904e-02	 2.364619784615153e+00	 6.144955049517005e+00
 0.000000000000000e+00	 2.364701882365600e+00	 6.141707840540199e+00
 2.007914301153623e-01	 2.367968091174045e+00	 6.304293860013935e+00
 1.804586834443779e-01	 2.369604372636865e+00	 6.280627687268500e+00
 1.601771508734886e-01	 2.371061708703769e+00	 6.259021022697084e+00
 1.399488277111560e-01	 2.372341621435861e+00	 6.239651812437883e+00
 1.197756712210632e-01	 2.373445657497731e+00	 6.222647703113471e+00
 9.965960041901739e-02	 2.374375387139304e+00	 6.208081524852139e+00
 7.960249589706107e-02	 2.375132403182499e+00	 6.195966762888453e+00
 5.960619967434116e-02	 2.375718320013467e+00	 6.186253117473973e+00
 3.967251507426507e-02	 2.376134772581143e+00	 6.178822244777006e+00
 1.980320662745580e-02	 2.376383415402807e+00	 6.173483764215843e+00
 0.000000000000000e+00	 2.376465921577328e+00	 6.169971610410201e+00
 2.017853927214139e-01	 2.379690064219889e+00	 6.331601102771646e+00
 1.813519943950803e-01	 2.381334445642750e+00	 6.307560566909414e+00
 1.609700636900242e-01	 2.382798995849880e+00	 6.285623832551980e+00
 1.406416057919485e-01	 2.384085244436926e+00	 6.265961936310817e+00
 1.203685876534472e-01	 2.385194745724813e+00	 6.248696565851755e+00
 1.001529377899026e-01	 2.386129077736551e+00	 6.233894904719285e+00
 7.999654610272594e-02	 2.386889841178882e+00	 6.221564480730922e+00
 5.990126372948823e-02	 2.387478658429529e+00	 6.211648121305191e+00
 3.986890292046814e-02	 2.387897172530790e+00	 6.204019111764716e+00
 1.990123694112661e-02	 2.388147046190170e+00	 6.198476645134304e+00
 0.000000000000000e+00	 2.388229960788756e+00	 6.194741644440047e+00
 2.027793553275497e-01	 2.391412037266161e+00	 6.355017755476673e+00
 1.822453053458681e-01	 2.393064518648987e+00	 6.330622575433451e+00
 1.617629765066408e-01	 2.394536282996264e+00	 6.308387407131334e+00
 1.413343838728132e-01	 2.395828867438179e+00	 6.288472805691430e+00
 1.209615040858917e-01	 2.396943833951999e+00	 6.270990980504275e+00
 1.006462751608349e-01	 2.397882768333822e+00	 6.255999983178988e+00
 8.039059630842428e-02	 2.398647279175216e+00	 6.243497914536119e+00
 6.019632778465602e-02	 2.399238996845482e+00	 6.233417257742042e+00
 4.006529076668120e-02	 2.399659572480279e+00	 6.225619437068436e+00
 1.999926725480012e-02	 2.399910676977346e+00	 6.219889693953293e+00
 0.000000000000000e+00	 2.399993999999984e+00	 6.215932364256876e+00
 2.037733179337277e-01	 2.403134010313020e+00	 6.374831234062125e+00
 1.831386162966987e-01	 2.404794591655733e+00	 6.350071581669763e+00
 1.625558893232980e-01	 2.406273570143068e+00	 6.327537529000967e+00
 1.420271619537141e-01	 2.407572490439764e+00	 6.307375887100244e+00
 1.215544205183665e-01	 2.408692922179425e+00	 6.289686177656847e+00
 1.011396125317910e-01	 2.409636458931244e+00	 6.274514144601246e+00
 8.078464651413944e-02	 2.410404717171622e+00	 6.261845300729555e+00
 6.049139183983414e-02	 2.410999335261436e+00	 6.251598620281002e+00
 4.026167861289927e-02	 2.411421972429716e+00	 6.243620480480975e+00
 2.009729756847499e-02	 2.411674307764435e+00	 6.237678946966195e+00
 0.000000000000000e+00	 2.411758039211112e+00	 6.233458489936354e+00
 2.411758039211112e+00	 0.000000000000000e+00	 1.153519004149536e+01
 2.411674307764434e+00	 2.009729756847366e-02	 1.153874845726121e+01
 2.411421972429715e+00	 4.026167861289813e-02	 1.154128901256809e+01
 2.410999335261436e+00	 6.049139183983320e-02	 1.154325687469705e+01
 2.410404717171623e+00	 8.078464651413869e-02	 1.154508034755777e+01
 2.409636458931244e+00	 1.011396125317904e-01	 1.154716878428027e+01
 2.408692922179424e+00	 1.215544205183662e-01	 1.154991046313729e+01
 2.407572490439763e+00	 1.420271619537140e-01	 1.155367044050869e+01
 2.406273570143068e+00	 1.625558893232980e-01	 1.155878839600467e+01
 2.404794591655733e+00	 1.831386162966989e-01	 1.156557648658032e+01
 2.403134010313020e+00	 2.037733179337277e-01	 1.157431722823476e+01
 2.423524078428890e+00	 0.000000000000000e+00	 1.152106751777468e+01
 2.423439938488749e+00	 2.019534454830181e-02	 1.152449483532106e+01
 2.423186372107160e+00	 4.045809984705331e-02	 1.152694923114882e+01
 2.422761673054974e+00	 6.078650605891051e-02	 1.152886339394423e+01
 2.422164154052582e+00	 8.117876371240836e-02	 1.153065321071239e+01
 2.421392147776208e+00	 1.016330337751318e-01	 1.153271561659563e+01
 2.420444007872032e+00	 1.221474377526826e-01	 1.153542640071382e+01
 2.419318109977481e+00	 1.427200578139554e-01	 1.153913798180034e+01
 2.418012852748940e+00	 1.633489369432221e-01	 1.154417716887358e+01
 2.416526658895158e+00	 1.840320791195035e-01	 1.155084292396112e+01
 2.414857976215562e+00	 2.047674495236877e-01	 1.155940414571271e+01
 2.435290117646667e+00	 0.000000000000000e+00	 1.150630306132460e+01
 2.435205569213073e+00	 2.029339152812861e-02	 1.150961244123091e+01
 2.434950771784646e+00	 4.065452108120349e-02	 1.151199420871597e+01
 2.434524010848599e+00	 6.108162027797748e-02	 1.151386899589809e+01
 2.433923590933692e+00	 8.157288091066120e-02	 1.151564074011245e+01
 2.433147836621392e+00	 1.021264550184496e-01	 1.151769446948888e+01
 2.432195093564937e+00	 1.227404549869687e-01	 1.152039403691610e+01
 2.431063729515574e+00	 1.434129536741605e-01	 1.152407981621930e+01
 2.429752135355267e+00	 1.641419845631057e-01	 1.152906637591131e+01
 2.428258726135113e+00	 1.849255419422653e-01	 1.153564014771440e+01
 2.426581942118699e+00	 2.057615811136056e-01	 1.154405710893157e+01
 2.447056156864444e+00	 0.000000000000000e+00	 1.149080034515566e+01
 2.446971199937408e+00	 2.039143850795271e-02	 1.149401210561637e+01
 2.446715171462164e+00	 4.085094231534368e-02	 1.149634136756701e+01
 2.446286348642293e+00	 6.137673449702374e-02	 1.149819714499861e+01
 2.445683027814914e+00	 8.196699810888058e-02	 1.149997191153279e+01
 2.444903525466742e+00	 1.026198762617201e-01	 1.150203932028724e+01
 2.443946179258065e+00	 1.233334722211942e-01	 1.150475186415476e+01
 2.442809349053952e+00	 1.441058495342935e-01	 1.150843849037016e+01
 2.441491417961937e+00	 1.649350321829083e-01	 1.151340218484031e+01
 2.439990793375465e+00	 1.858190047649416e-01	 1.151991754361069e+01
 2.438305908022282e+00	 2.067557127034392e-01	 1.152822835078838e+01
 2.458822196082222e+00	 0.000000000000000e+00	 1.147446789007964e+01
 2.458736830661745e+00	 2.048948548777275e-02	 1.147760939720159e+01
 2.458479571139703e+00	 4.104736354946884e-02	 1.147991274180319e+01
 2.458048686436032e+00	 6.167184871603903e-02	 1.148177577471424e+01
 2.457442464696211e+00	 8.236111530704965e-02	 1.148358001067806e+01
 2.456659214312202e+00	 1.031132975049198e-01	 1.148568828102704e+01
 2.455697264951343e+00	 1.239264894553289e-01	 1.148844231845329e+01
 2.454554968592518e+00	 1.447987453943181e-01	 1.149216028779018e+01
 2.453230700568834e+00	 1.657280798025894e-01	 1.149713427838827e+01
 2.451722860616081e+00	 1.867124675874898e-01	 1.150362777563290e+01
 2.450029873926163e+00	 2.077498442931464e-01	 1.151187313116102e+01
 2.470588235299999e+00	 0.000000000000000e+00	 1.145721894927250e+01
 2.470502461386088e+00	 2.058753246758740e-02	 1.146032451042345e+01
 2.470243970817252e+00	 4.124378478357402e-02	 1.146263486774418e+01
 2.469811024229792e+00	 6.196696293501290e-02	 1.146453718051016e+01
 2.469201901577547e+00	 8.275523250515171e-02	 1.146640252845903e+01
 2.468414903157718e+00	 1.036067187480249e-01	 1.146858349579491e+01
 2.467448350644695e+00	 1.245195066893423e-01	 1.147141167861438e+01
 2.466300588131177e+00	 1.454916412541980e-01	 1.147519512970432e+01
 2.464969983175846e+00	 1.665211274221085e-01	 1.148021575639985e+01
 2.463454927856830e+00	 1.876059304098671e-01	 1.148672668921661e+01
 2.461753839830194e+00	 2.087439758826851e-01	 1.149494964105388e+01
 2.482354274517777e+00	 0.000000000000000e+00	 1.143897139612060e+01
 2.482268092110429e+00	 2.068557944739528e-02	 1.144208215623789e+01
 2.482008370494802e+00	 4.144020601765417e-02	 1.144443867744745e+01
 2.481573362023553e+00	 6.226207715393504e-02	 1.144641791583253e+01
 2.480961338458882e+00	 8.314934970316996e-02	 1.144838105919710e+01
 2.480170592003233e+00	 1.041001399910120e-01	 1.145067104091109e+01
 2.479199436338046e+00	 1.251125239232043e-01	 1.145360996814281e+01
 2.478046207669837e+00	 1.461845371138973e-01	 1.145749647845257e+01
 2.476709265782856e+00	 1.673141750414250e-01	 1.146260304053597e+01
 2.475186995097580e+00	 1.884993932320307e-01	 1.146917321699464e+01
 2.473477805734224e+00	 2.097381074720130e-01	 1.147741890916499e+01
 2.494120313735555e+00	 0.000000000000000e+00	 1.141964761524107e+01
 2.494033722834768e+00	 2.078362642719507e-02	 1.142281145601483e+01
 2.493772770172340e+00	 4.163662725170431e-02	 1.142525939522848e+01
 2.493335699817291e+00	 6.255719137279513e-02	 1.142735869100946e+01
 2.492720775340180e+00	 8.354346690108763e-02	 1.142946120166165e+01
 2.491926280848693e+00	 1.045935612338573e-01	 1.143190082786185e+01
 2.490950522031323e+00	 1.257055411568845e-01	 1.143499085983476e+01
 2.489791827208402e+00	 1.468774329733797e-01	 1.143902124350096e+01
 2.488448548389754e+00	 1.681072226604987e-01	 1.144425578147657e+01
 2.486919062338196e+00	 1.893928560539380e-01	 1.145092928696401e+01
 2.485201771638106e+00	 2.107322390610882e-01	 1.145924471079556e+01
 2.505886352953332e+00	 0.000000000000000e+00	 1.139917439657259e+01
 2.505799353559102e+00	 2.088167340698540e-02	 1.140244583841841e+01
 2.505537169849857e+00	 4.183304848571943e-02	 1.140503643708453e+01
 2.505098037610986e+00	 6.285230559158282e-02	 1.140730427497215e+01
 2.504480212221403e+00	 8.393758409888803e-02	 1.140959246284646e+01
 2.503681969694043e+00	 1.050869824765373e-01	 1.141222650889000e+01
 2.502701607724451e+00	 1.262985583903525e-01	 1.141551158294531e+01
 2.501537446746779e+00	 1.475703288326091e-01	 1.141972968995198e+01
 2.500187830996423e+00	 1.689002702792886e-01	 1.142513676854295e+01
 2.498651129578549e+00	 1.902863188755463e-01	 1.143195973299506e+01
 2.496925737541690e+00	 2.117263706498685e-01	 1.144039347902425e+01
 2.517652392171109e+00	 0.000000000000000e+00	 1.137748283243594e+01
 2.517564984283427e+00	 2.097972038676492e-02	 1.138092293917627e+01
 2.517301569527344e+00	 4.202946971969455e-02	 1.138371331292657e+01
 2.516860375404613e+00	 6.314741981028776e-02	 1.138620339970523e+01
 2.516239649102513e+00	 8.433170129655433e-02	 1.138872816439536e+01
 2.515437658539226e+00	 1.055804037190283e-01	 1.139160538515717e+01
 2.514452693417357e+00	 1.268915756235783e-01	 1.139513283284998e+01
 2.513283066284874e+00	 1.482632246915494e-01	 1.139958534947218e+01
 2.511927113602751e+00	 1.696933178977546e-01	 1.140521184166210e+01
 2.510383196818502e+00	 1.911797816968127e-01	 1.141223220760658e+01
 2.508649703444827e+00	 2.127205022383116e-01	 1.142083421807245e+01
 2.529418431388888e+00	 0.000000000000000e+00	 1.135450821746741e+01
 2.529330615007742e+00	 2.107776736653228e-02	 1.135818450364314e+01
 2.529065969204789e+00	 4.222589095362466e-02	 1.136123753152700e+01
 2.528622713198150e+00	 6.344253402889960e-02	 1.136400866733570e+01
 2.527999085983472e+00	 8.472581849406979e-02	 1.136682535159152e+01
 2.527193347384190e+00	 1.060738249613067e-01	 1.136999831739353e+01
 2.526203779109965e+00	 1.274845928565313e-01	 1.137381868311923e+01
 2.525028685822592e+00	 1.489561205501645e-01	 1.137855493355838e+01
 2.523666396208624e+00	 1.704863655158562e-01	 1.138444980559569e+01
 2.522115264057927e+00	 1.920732445176947e-01	 1.139171709693281e+01
 2.520373669347368e+00	 2.137146338263755e-01	 1.140053841878897e+01
 2.403134010313020e+00	 2.037733179337277e-01	 1.157431722823476e+01
 2.401289978286870e+00	 2.244614434358497e-01	 1.158398707361198e+01
 2.399261269723313e+00	 2.451973451049151e-01	 1.159347921005943e+01
 2.397046420041816e+00	 2.659788317541608e-01	 1.160291002674320e+01
 2.394643993901913e+00	 2.868036733732925e-01	 1.161236433771216e+01
 2.392052586266658e+00	 3.076696014780080e-01	 1.162189395381968e+01
 2.389270823466315e+00	 3.285743094906335e-01	 1.163151642944094e+01
 2.386297364261357e+00	 3.495154531522003e-01	 1.164121401481002e+01
 2.383130900903740e+00	 3.704906509662543e-01	 1.165093287282902e+01
 2.379770160195517e+00	 3.914974846746673e-01	 1.166208700034208e+01
 2.376213904543731e+00	 4.125334997656784e-01	 1.167622980067883e+01
 2.414857976215562e+00	 2.047674495236877e-01	 1.155940414571271e+01
 2.413004947867241e+00	 2.255565044273247e-01	 1.156887014367982e+01
 2.410966342015751e+00	 2.463935685793364e-01	 1.157817330811101e+01
 2.408740686935430e+00	 2.672764401030279e-01	 1.158742498605197e+01
 2.406326540283332e+00	 2.882028781087679e-01	 1.159670423643356e+01
 2.403722490167867e+00	 3.091706030452178e-01	 1.160605626736387e+01
 2.400927156217697e+00	 3.301772970818255e-01	 1.161549104403154e+01
 2.397939190649891e+00	 3.512206045229108e-01	 1.162498209878928e+01
 2.394757279336404e+00	 3.722981322536416e-01	 1.163447679735687e+01
 2.391380142867838e+00	 3.934074502181656e-01	 1.164554662915773e+01
 2.387806537613494e+00	 4.145460919301312e-01	 1.165946407965521e+01
 2.426581942118699e+00	 2.057615811136056e-01	 1.154405710893156e+01
 2.424719917448262e+00	 2.266515654187616e-01	 1.155336043548989e+01
 2.422671414308882e+00	 2.475897920537272e-01	 1.156252183617512e+01
 2.420434953829768e+00	 2.685740484518757e-01	 1.157164701904191e+01
 2.418009086665496e+00	 2.896020828442392e-01	 1.158080869792215e+01
 2.415392394069836e+00	 3.106716046124432e-01	 1.159004489171726e+01
 2.412583488969837e+00	 3.317802846730568e-01	 1.159935738984685e+01
 2.409581017039176e+00	 3.529257558936885e-01	 1.160871041617742e+01
 2.406383657769800e+00	 3.741056135411287e-01	 1.161807012607207e+01
 2.402990125540865e+00	 3.953174157618011e-01	 1.162910483294112e+01
 2.399399170683928e+00	 4.165586840947630e-01	 1.164284226591442e+01
 2.438305908022282e+00	 2.067557127034392e-01	 1.152822835078838e+01
 2.436434887029772e+00	 2.277466264101221e-01	 1.153741273765912e+01
 2.434376486602535e+00	 2.487860155280557e-01	 1.154648194110286e+01
 2.432129220724652e+00	 2.698716568006810e-01	 1.155553549155213e+01
 2.429691633048220e+00	 2.910012875796930e-01	 1.156463922797866e+01
 2.427062297972374e+00	 3.121726061796802e-01	 1.157382345570455e+01
 2.424239821722548e+00	 3.333832722643318e-01	 1.158308126563294e+01
 2.421222843429023e+00	 3.546309072645458e-01	 1.159236704798946e+01
 2.418010036203746e+00	 3.759130948287331e-01	 1.160168022480362e+01
 2.414600108214422e+00	 3.972273813055931e-01	 1.161273103673493e+01
 2.410991803754863e+00	 4.185712762595915e-01	 1.162633638696889e+01
 2.450029873926163e+00	 2.077498442931464e-01	 1.151187313116102e+01
 2.448149856611606e+00	 2.288416874013676e-01	 1.152098459968074e+01
 2.446081558896534e+00	 2.499822390022901e-01	 1.153001324908788e+01
 2.443823487619898e+00	 2.711692651494204e-01	 1.153905195197684e+01
 2.441374179431319e+00	 2.924004923151149e-01	 1.154815920313359e+01
 2.438732201875290e+00	 3.136736077469238e-01	 1.155735713227119e+01
 2.435896154475638e+00	 3.349862598556556e-01	 1.156662967315770e+01
 2.432864669819247e+00	 3.563360586354947e-01	 1.157592092300352e+01
 2.429636414638058e+00	 3.777205761164719e-01	 1.158527489420213e+01
 2.426210090888331e+00	 3.991373468495606e-01	 1.159639487239228e+01
 2.422584436826135e+00	 4.205838684246331e-01	 1.160991844786010e+01
 2.461753839830194e+00	 2.087439758826851e-01	 1.149494964105388e+01
 2.459864826193603e+00	 2.299367483924602e-01	 1.150403623677790e+01
 2.457786631190706e+00	 2.511784624763985e-01	 1.151307777106250e+01
 2.455517754515326e+00	 2.724668734980705e-01	 1.152216003705418e+01
 2.453056725814604e+00	 2.937996970504911e-01	 1.153133377669379e+01
 2.450402105778395e+00	 3.151746093141700e-01	 1.154061254467038e+01
 2.447552487228917e+00	 3.365892474470326e-01	 1.154997072343612e+01
 2.444506496209657e+00	 3.580412100065472e-01	 1.155934172393995e+01
 2.441262793072553e+00	 3.795280574043623e-01	 1.156882231168114e+01
 2.437820073562416e+00	 4.010473123937228e-01	 1.158006612418404e+01
 2.434177069897573e+00	 4.225964605899051e-01	 1.159356038055058e+01
 2.473477805734224e+00	 2.097381074720130e-01	 1.147741890916499e+01
 2.471579795775600e+00	 2.310318093833614e-01	 1.148653043709617e+01
 2.469491703484877e+00	 2.523746859503492e-01	 1.149563981034964e+01
 2.467212021410754e+00	 2.737644818466075e-01	 1.150482537982563e+01
 2.464739272197889e+00	 2.951989017858073e-01	 1.151412978687437e+01
 2.462072009681500e+00	 3.166756108814142e-01	 1.152355767464674e+01
 2.459208819982196e+00	 3.381922350384670e-01	 1.153307354486292e+01
 2.456148322600068e+00	 3.597463613777156e-01	 1.154259979545621e+01
 2.452889171507048e+00	 3.813355386924218e-01	 1.155229097507922e+01
 2.449430056236502e+00	 4.029572779380992e-01	 1.156371467602939e+01
 2.445769702969011e+00	 4.246090527554245e-01	 1.157723399483839e+01
 2.485201771638106e+00	 2.107322390610882e-01	 1.145924471079556e+01
 2.483294765357434e+00	 2.321268703740330e-01	 1.146843247115814e+01
 2.481196775778878e+00	 2.535709094241105e-01	 1.147766587249536e+01
 2.478906288306000e+00	 2.750620901950083e-01	 1.148701551969490e+01
 2.476421818580987e+00	 2.965981065210498e-01	 1.149651566694610e+01
 2.473741913584417e+00	 3.181766124486524e-01	 1.150616177255141e+01
 2.470865152735286e+00	 3.397952226299641e-01	 1.151590819318915e+01
 2.467790148990290e+00	 3.614515127490118e-01	 1.152566605389616e+01
 2.464515549941359e+00	 3.831430199806677e-01	 1.153564964798580e+01
 2.461040038910411e+00	 4.048672434827086e-01	 1.154731046029569e+01
 2.457362336040283e+00	 4.266216449212083e-01	 1.156091093074320e+01
 2.496925737541690e+00	 2.117263706498685e-01	 1.144039347902425e+01
 2.495009734938943e+00	 2.332219313644364e-01	 1.144971000350549e+01
 2.492901848072528e+00	 2.547671328976503e-01	 1.145912457721100e+01
 2.490600555200884e+00	 2.763596985432497e-01	 1.146869981451678e+01
 2.488104364963712e+00	 2.979973112562045e-01	 1.147846135733268e+01
 2.485411817486955e+00	 3.196776140158799e-01	 1.148839526932413e+01
 2.482521485487996e+00	 3.413982102215283e-01	 1.149844556328224e+01
 2.479431975380137e+00	 3.631566641204484e-01	 1.150851189873706e+01
 2.476141928375304e+00	 3.849505012691173e-01	 1.151886730667650e+01
 2.472650021583968e+00	 4.067772090275705e-01	 1.153082340811640e+01
 2.468954969111218e+00	 4.286342370872734e-01	 1.154456261231619e+01
 2.508649703444827e+00	 2.127205022383116e-01	 1.142083421807245e+01
 2.506724704519965e+00	 2.343169923545337e-01	 1.143033300645695e+01
 2.504606920365661e+00	 2.559633563709371e-01	 1.143998657235580e+01
 2.502294822095222e+00	 2.776573068913079e-01	 1.144984935464966e+01
 2.499786911345875e+00	 2.993965159912575e-01	 1.145993821959385e+01
 2.497081721388922e+00	 3.211786155830924e-01	 1.147022969028215e+01
 2.494177818240136e+00	 3.430011978131640e-01	 1.148065730261170e+01
 2.491073801769422e+00	 3.648618154920371e-01	 1.149110912567815e+01
 2.487768306808701e+00	 3.867579825577875e-01	 1.150191308860465e+01
 2.484260004256995e+00	 4.086871745727040e-01	 1.151422340117718e+01
 2.480547602181652e+00	 4.306468292536369e-01	 1.152816020282685e+01
 2.520373669347368e+00	 2.137146338263755e-01	 1.140053841878897e+01
 2.518439674100336e+00	 2.354120533442864e-01	 1.141027367591344e+01
 2.516311992658099e+00	 2.571595798439389e-01	 1.142022444989316e+01
 2.513989088988836e+00	 2.789549152391597e-01	 1.143043687890813e+01
 2.511469457727293e+00	 3.007957207261947e-01	 1.144091895223277e+01
 2.508751625290133e+00	 3.226796171502858e-01	 1.145163757065687e+01
 2.505834150991519e+00	 3.446041854048761e-01	 1.146251572640319e+01
 2.502715628157957e+00	 3.665669668637903e-01	 1.147342984131779e+01
 2.499394685241365e+00	 3.885654638466962e-01	 1.148475624239896e+01
 2.495869986929317e+00	 4.105971401181284e-01	 1.149748022492249e+01
 2.492140235251415e+00	 4.326594214203160e-01	 1.151167456128190e+01
 2.376213904543731e+00	 4.125334997656784e-01	 1.167622980067883e+01
 2.372461587429615e+00	 4.335926245561659e-01	 1.169199826088984e+01
 2.368511456853728e+00	 4.546759129969773e-01	 1.170796930643074e+01
 2.364362387049507e+00	 4.757808122458326e-01	 1.172418912701182e+01
 2.360013291958952e+00	 4.969047357000286e-01	 1.174069252029094e+01
 2.355463126251404e+00	 5.180450636663827e-01	 1.175750270344907e+01
 2.350710886332164e+00	 5.391991440639006e-01	 1.177463121676397e+01
 2.345755611339822e+00	 5.603642931591379e-01	 1.179207792247261e+01
 2.340596384131158e+00	 5.815377963341853e-01	 1.180983110190616e+01
 2.335232332252483e+00	 6.027169088871681e-01	 1.182786765355736e+01
 2.329662628896259e+00	 6.238988568651009e-01	 1.184615339439845e+01
 2.387806537613494e+00	 4.145460919301312e-01	 1.165946407965521e+01
 2.384035914388345e+00	 4.357079560850302e-01	 1.167496585028051e+01
 2.380066512645623e+00	 4.568941017755171e-01	 1.169072086386080e+01
 2.375897201126598e+00	 4.781019637049549e-01	 1.170675691039001e+01
 2.371526888474811e+00	 4.993289426515782e-01	 1.172308976141480e+01
 2.366954524259850e+00	 5.205724061417074e-01	 1.173972299176565e+01
 2.362179099990874e+00	 5.418296891558430e-01	 1.175664789629712e+01
 2.357199650118807e+00	 5.630980948676136e-01	 1.177384350497192e+01
 2.352015253026048e+00	 5.843748954155116e-01	 1.179127669930881e+01
 2.346625032002551e+00	 6.056573327072937e-01	 1.180890243287700e+01
 2.341028156207111e+00	 6.269426192569020e-01	 1.182666405816936e+01
 2.399399170683928e+00	 4.165586840947630e-01	 1.164284226591442e+01
 2.395610241347701e+00	 4.378232876141206e-01	 1.165811630436095e+01
 2.391621568438098e+00	 4.591122905543330e-01	 1.167368903017614e+01
 2.387432015204210e+00	 4.804231151644044e-01	 1.168957389349927e+01
 2.383040484991137e+00	 5.017531496035061e-01	 1.170577158246429e+01
 2.378445922268707e+00	 5.230997486174592e-01	 1.172226984787742e+01
 2.373647313649935e+00	 5.444602342482557e-01	 1.173904342595750e+01
 2.368643688898085e+00	 5.658318965765983e-01	 1.175605406253099e+01
 2.363434121921177e+00	 5.872119944973765e-01	 1.177325064174541e+01
 2.358017731752811e+00	 6.085977565279779e-01	 1.179056942202082e+01
 2.352393683518116e+00	 6.299863816492689e-01	 1.180793438159503e+01
 2.410991803754863e+00	 4.185712762595915e-01	 1.162633638696889e+01
 2.407184568307527e+00	 4.399386191434473e-01	 1.164142370711413e+01
 2.403176624231006e+00	 4.613304793334245e-01	 1.165684825318796e+01
 2.398966829282216e+00	 4.827442666241669e-01	 1.167261313648039e+01
 2.394554081507813e+00	 5.041773565557826e-01	 1.168870784586978e+01
 2.389937320277870e+00	 5.256270910935911e-01	 1.170510806829443e+01
 2.385115527309262e+00	 5.470907793410777e-01	 1.172177561038587e+01
 2.380087727677589e+00	 5.685656982860152e-01	 1.173865842472224e+01
 2.374852990816498e+00	 5.900490935796919e-01	 1.175569074382226e+01
 2.369410431503231e+00	 6.115381803491241e-01	 1.177279332464498e+01
 2.363759210829256e+00	 6.330301440421030e-01	 1.178987380598631e+01
 2.422584436826135e+00	 4.205838684246331e-01	 1.160991844786010e+01
 2.418758895267668e+00	 4.420539506730201e-01	 1.162486191043531e+01
 2.414731680024202e+00	 4.635486681127906e-01	 1.164017258062801e+01
 2.410501643360486e+00	 4.850654180842281e-01	 1.165584717418595e+01
 2.406067678024727e+00	 5.066015635083770e-01	 1.167186780748590e+01
 2.401428718287243e+00	 5.281544335700574e-01	 1.168820180670328e+01
 2.396583740968772e+00	 5.497213244342460e-01	 1.170480162128898e+01
 2.391531766457255e+00	 5.712994999957881e-01	 1.172160484528772e+01
 2.386271859711958e+00	 5.928861926623689e-01	 1.173853434968673e+01
 2.380803131253779e+00	 6.144786041706358e-01	 1.175549852861604e+01
 2.375124738140515e+00	 6.360739064353036e-01	 1.177239166183787e+01
 2.434177069897573e+00	 4.225964605899051e-01	 1.159356038055058e+01
 2.430333222227966e+00	 4.441692822028500e-01	 1.160840448692788e+01
 2.426286735817545e+00	 4.657668568924307e-01	 1.162363561544268e+01
 2.422036457438888e+00	 4.873865695445737e-01	 1.163924797303705e+01
 2.417581274541760e+00	 5.090257704612603e-01	 1.165522007404661e+01
 2.412920116296725e+00	 5.306817760468118e-01	 1.167151453102828e+01
 2.408051954628383e+00	 5.523518695276990e-01	 1.168807795308694e+01
 2.402975805237014e+00	 5.740333017058400e-01	 1.170484095532393e+01
 2.397690728607511e+00	 5.957232917453196e-01	 1.172171828267356e+01
 2.392195831004416e+00	 6.174190279924163e-01	 1.173860905101680e+01
 2.386490265451872e+00	 6.391176688287713e-01	 1.175539710806526e+01
 2.445769702969011e+00	 4.246090527554245e-01	 1.157723399483839e+01
 2.441907549188262e+00	 4.462846137329462e-01	 1.159202468413128e+01
 2.437841791610885e+00	 4.679850456723442e-01	 1.160721047245441e+01
 2.433571271517291e+00	 4.897077210051890e-01	 1.162278688921003e+01
 2.429094871058797e+00	 5.114499774144018e-01	 1.163873256194120e+01
 2.424411514306217e+00	 5.332091185238081e-01	 1.165500898183181e+01
 2.419520168288011e+00	 5.549824146213744e-01	 1.167156037994596e+01
 2.414419844016800e+00	 5.767671034160944e-01	 1.168831371792851e+01
 2.409109597503105e+00	 5.985603908284557e-01	 1.170517879652108e+01
 2.403588530755115e+00	 6.203594518143692e-01	 1.172204848486045e+01
 2.397855792763311e+00	 6.421614312224057e-01	 1.173879907312039e+01
 2.457362336040283e+00	 4.266216449212083e-01	 1.156091093074320e+01
 2.453481876148404e+00	 4.483999452633192e-01	 1.157569538013415e+01
 2.449396847404085e+00	 4.702032344525304e-01	 1.159086973634667e+01
 2.445106085595568e+00	 4.920288724660599e-01	 1.160643462811045e+01
 2.440608467575725e+00	 5.138741843677721e-01	 1.162237245726681e+01
 2.435902912315620e+00	 5.357364610010004e-01	 1.163864713200879e+01
 2.430988381947573e+00	 5.576129597152102e-01	 1.165520391415126e+01
 2.425863882796547e+00	 5.795009051264752e-01	 1.167196938426174e+01
 2.420528466398690e+00	 6.013974899116882e-01	 1.168885152810493e+01
 2.414981230505839e+00	 6.232998756363979e-01	 1.170573994745639e+01
 2.409221320074813e+00	 6.452051936161073e-01	 1.172250619792353e+01
 2.468954969111218e+00	 4.286342370872734e-01	 1.154456261231619e+01
 2.465056203108232e+00	 4.505152767939793e-01	 1.155938904052664e+01
 2.460951903196996e+00	 4.724214232329887e-01	 1.157458542092789e+01
 2.456640899673586e+00	 4.943500239271717e-01	 1.159016120509107e+01
 2.452122064092427e+00	 5.162983913213410e-01	 1.160610617711614e+01
 2.447394310324834e+00	 5.382638034783418e-01	 1.162239014773323e+01
 2.442456595606987e+00	 5.602435048091442e-01	 1.163896276577577e+01
 2.437307921576191e+00	 5.822347068369055e-01	 1.165575345097527e+01
 2.431947335294218e+00	 6.042345889949288e-01	 1.167267145164030e+01
 2.426373930256555e+00	 6.262402994584056e-01	 1.168960603037333e+01
 2.420586847386361e+00	 6.482489560097759e-01	 1.170642678055191e+01
 2.480547602181652e+00	 4.306468292536369e-01	 1.152816020282685e+01
 2.476630530067589e+00	 4.526306083249366e-01	 1.154307767664857e+01
 2.472506958989474e+00	 4.746396120137182e-01	 1.155832892963354e+01
 2.468175713751214e+00	 4.966711753885103e-01	 1.157393590737374e+01
 2.463635660608789e+00	 5.187225982750787e-01	 1.158989933205958e+01
 2.458885708333760e+00	 5.407911459557866e-01	 1.160619835061553e+01
 2.453924809266169e+00	 5.628740499031143e-01	 1.162279030360222e+01
 2.448751960355662e+00	 5.849685085473084e-01	 1.163961061896395e+01
 2.443366204189639e+00	 6.070716880780894e-01	 1.165657283430363e+01
 2.437766630007231e+00	 6.291807232802961e-01	 1.167356875094805e+01
 2.431952374697937e+00	 6.512927184033118e-01	 1.169046872262787e+01
 2.492140235251415e+00	 4.326594214203160e-01	 1.151167456128190e+01
 2.488204857026321e+00	 4.547459398562011e-01	 1.152673280509086e+01
 2.484062014781376e+00	 4.768578007947185e-01	 1.154207101722502e+01
 2.479710527828324e+00	 4.989923268500613e-01	 1.155772725713567e+01
 2.475149257124697e+00	 5.211468052289554e-01	 1.157371668978311e+01
 2.470377106342299e+00	 5.433184884332887e-01	 1.159003118103142e+01
 2.465393022925037e+00	 5.655045949970583e-01	 1.160663901725824e+01
 2.460195999134898e+00	 5.877023102576081e-01	 1.162348475339768e+01
 2.454785073084902e+00	 6.099087871610815e-01	 1.164048919322836e+01
 2.449159329757832e+00	 6.321211471019728e-01	 1.165754950528853e+01
 2.443317902009523e+00	 6.543364807966154e-01	 1.167453947735078e+01
 2.329662628896259e+00	 6.238988568651009e-01	 1.184615339439845e+01
 2.323886494348968e+00	 6.450808382246555e-01	 1.186456624192461e+01
 2.317903198439830e+00	 6.662600246433569e-01	 1.188297719732737e+01
 2.311712059930027e+00	 6.874335616082095e-01	 1.190133380881520e+01
 2.305312446889960e+00	 7.085985690866213e-01	 1.191958460954771e+01
 2.298703777562011e+00	 7.297521425171559e-01	 1.193768012586547e+01
 2.291885521201577e+00	 7.508913538306845e-01	 1.195556107179336e+01
 2.284857198895240e+00	 7.720132525014604e-01	 1.197320039868509e+01
 2.277618384354929e+00	 7.931148666275991e-01	 1.199080410034169e+01
 2.270168704686935e+00	 8.141932040404006e-01	 1.200861182577595e+01
 2.262507841134675e+00	 8.352452534418977e-01	 1.202686905455007e+01
 2.341028156207111e+00	 6.269426192569020e-01	 1.182666405816936e+01
 2.335223842122297e+00	 6.482279393509003e-01	 1.184448759796504e+01
 2.329211356015104e+00	 6.695104508685281e-01	 1.186232715970792e+01
 2.322990013323212e+00	 6.907872853707397e-01	 1.188015844886238e+01
 2.316559179034074e+00	 7.120555487743919e-01	 1.189795609864955e+01
 2.309918268551902e+00	 7.333123223478312e-01	 1.191569462117424e+01
 2.303066748542787e+00	 7.545546637370257e-01	 1.193332052512521e+01
 2.296004137756879e+00	 7.757796080217692e-01	 1.195083766078027e+01
 2.288730007826404e+00	 7.969841688014326e-01	 1.196848988944738e+01
 2.281243984038448e+00	 8.181653393096963e-01	 1.198654038756901e+01
 2.273545746081336e+00	 8.393200935576505e-01	 1.200525695112702e+01
 2.352393683518116e+00	 6.299863816492689e-01	 1.180793438159503e+01
 2.346561189895747e+00	 6.513750404777054e-01	 1.182530771199922e+01
 2.340519513590476e+00	 6.727608770942426e-01	 1.184270751419467e+01
 2.334267966716474e+00	 6.941410091337854e-01	 1.186012998793332e+01
 2.327805911178252e+00	 7.155125284626415e-01	 1.187756839406607e+01
 2.321132759541840e+00	 7.368725021789417e-01	 1.189501396198792e+01
 2.314247975884032e+00	 7.582179736437539e-01	 1.191240175460106e+01
 2.307151076618534e+00	 7.795459635424140e-01	 1.192977154467515e+01
 2.299841631297877e+00	 8.008534709755507e-01	 1.194739476479982e+01
 2.292319263389933e+00	 8.221374745792260e-01	 1.196555162707706e+01
 2.284583651027932e+00	 8.433949336735894e-01	 1.198452606191151e+01
 2.363759210829256e+00	 6.330301440421030e-01	 1.178987380598631e+01
 2.357898537669317e+00	 6.545221416049745e-01	 1.180692184833248e+01
 2.351827671165957e+00	 6.760113033204099e-01	 1.182400378294118e+01
 2.345545920109838e+00	 6.974947328972668e-01	 1.184112875345687e+01
 2.339052643322526e+00	 7.189695081513040e-01	 1.185830128611362e+01
 2.332347250531874e+00	 7.404326820104379e-01	 1.187552216682051e+01
 2.325429203225368e+00	 7.618812835508362e-01	 1.189269476262685e+01
 2.318298015480277e+00	 7.833123190633785e-01	 1.190990497240455e+01
 2.310953254769425e+00	 8.047227731499501e-01	 1.192743958760799e+01
 2.303394542741476e+00	 8.261096098489984e-01	 1.194558944229781e+01
 2.295621555974562e+00	 8.474697737897313e-01	 1.196464849508745e+01
 2.375124738140515e+00	 6.360739064353036e-01	 1.177239166183788e+01
 2.369235885443001e+00	 6.576692427326087e-01	 1.178922535371192e+01
 2.363135828741552e+00	 6.792617295469401e-01	 1.180610168789706e+01
 2.356823873503326e+00	 7.008484566611051e-01	 1.182303531186696e+01
 2.350299375466934e+00	 7.224264878403150e-01	 1.184003476297331e+01
 2.343561741522051e+00	 7.439928618422702e-01	 1.185709957188224e+01
 2.336610430566856e+00	 7.655445934582399e-01	 1.187408915015133e+01
 2.329444954342176e+00	 7.870786745846450e-01	 1.189114025150273e+01
 2.322064878241130e+00	 8.085920753246287e-01	 1.190854430176358e+01
 2.314469822093170e+00	 8.300817451190223e-01	 1.192659641880990e+01
 2.306659460921328e+00	 8.515446139060926e-01	 1.194559455657882e+01
 2.386490265451872e+00	 6.391176688287713e-01	 1.175539710806526e+01
 2.380573233216797e+00	 6.608163438605115e-01	 1.177211359114102e+01
 2.374443986317279e+00	 6.825121557737422e-01	 1.178888708107154e+01
 2.368101826896964e+00	 7.042021804252213e-01	 1.180573039723878e+01
 2.361546107611512e+00	 7.258834675296089e-01	 1.182264893967272e+01
 2.354776232512418e+00	 7.475530416743900e-01	 1.183962356009187e+01
 2.347791657908552e+00	 7.692079033659308e-01	 1.185647410950209e+01
 2.340591893204298e+00	 7.908450301061961e-01	 1.187337907682989e+01
 2.333176501713068e+00	 8.124613774995834e-01	 1.189062794680679e+01
 2.325545101445103e+00	 8.340538803893056e-01	 1.190851385606767e+01
 2.317697365868327e+00	 8.556194540226882e-01	 1.192733279190091e+01
 2.397855792763311e+00	 6.421614312224057e-01	 1.173879907312039e+01
 2.391910580990700e+00	 6.639634449885851e-01	 1.175548187573223e+01
 2.385752143893144e+00	 6.857625820007265e-01	 1.177224587694237e+01
 2.379379780290770e+00	 7.075559041895356e-01	 1.178909484212219e+01
 2.372792839756293e+00	 7.293404472191211e-01	 1.180602398926077e+01
 2.365990723503021e+00	 7.511132215067472e-01	 1.182297526283415e+01
 2.358972885250516e+00	 7.728712132738771e-01	 1.183973841922926e+01
 2.351738832066712e+00	 7.946113856280145e-01	 1.185652253422368e+01
 2.344288125185321e+00	 8.163306796748102e-01	 1.187360867247351e+01
 2.336620380797360e+00	 8.380260156598573e-01	 1.189128179496968e+01
 2.328735270815659e+00	 8.596942941395357e-01	 1.190983002891312e+01
 2.409221320074813e+00	 6.452051936161073e-01	 1.172250619792353e+01
 2.403247928764708e+00	 6.671105461167315e-01	 1.173922541253142e+01
 2.397060301469156e+00	 6.890130082278028e-01	 1.175606398693975e+01
 2.390657733684773e+00	 7.109096279539699e-01	 1.177300951050003e+01
 2.384039571901316e+00	 7.327974269087858e-01	 1.179004007610288e+01
 2.377205214493909e+00	 7.546734013392927e-01	 1.180703552374686e+01
 2.370154112592804e+00	 7.765345231820454e-01	 1.182377044089050e+01
 2.362885770929489e+00	 7.983777411500835e-01	 1.184047110591559e+01
 2.355399748657967e+00	 8.201999818503076e-01	 1.185740375477102e+01
 2.347695660150038e+00	 8.419981509306862e-01	 1.187483904665838e+01
 2.339773175763425e+00	 8.637691342566509e-01	 1.189305142144335e+01
 2.420586847386361e+00	 6.482489560097759e-01	 1.170642678055191e+01
 2.414585276538819e+00	 6.702576472448540e-01	 1.172323923624905e+01
 2.408368459045330e+00	 6.922634344548806e-01	 1.174022725593652e+01
 2.401935687078994e+00	 7.142633517184451e-01	 1.175735523280136e+01
 2.395286304046613e+00	 7.362544065985387e-01	 1.177457729122679e+01
 2.388419705485127e+00	 7.582335811719768e-01	 1.179168486715983e+01
 2.381335339935475e+00	 7.801978330904026e-01	 1.180845811771350e+01
 2.374032709792697e+00	 8.021440966723854e-01	 1.182512467765460e+01
 2.366511372131085e+00	 8.240692840260715e-01	 1.184192961353239e+01
 2.358770939503220e+00	 8.459702862018001e-01	 1.185912322251091e+01
 2.350811080711721e+00	 8.678439743740496e-01	 1.187696049375542e+01
 2.431952374697937e+00	 6.512927184033118e-01	 1.169046872262787e+01
 2.425922624313028e+00	 6.734047483728546e-01	 1.170741815283533e+01
 2.419676616621673e+00	 6.955138606818702e-01	 1.172462140067961e+01
 2.413213640473455e+00	 7.176170754828813e-01	 1.174201274290269e+01
 2.406533036192221e+00	 7.397113862883140e-01	 1.175951558965214e+01
 2.399634196476724e+00	 7.617937610047500e-01	 1.177680349215539e+01
 2.392516567278588e+00	 7.838611429989153e-01	 1.179368897507451e+01
 2.385179648656404e+00	 8.059104521949034e-01	 1.181038254748184e+01
 2.377622995604754e+00	 8.279385862020995e-01	 1.182710183140108e+01
 2.369846218856998e+00	 8.499424214732083e-01	 1.184407076528194e+01
 2.361848985660650e+00	 8.719188144917487e-01	 1.186151918583209e+01
 2.443317902009523e+00	 6.543364807966154e-01	 1.167453947735078e+01
 2.437259972087333e+00	 6.765518495006358e-01	 1.169165668283993e+01
 2.430984774198198e+00	 6.987642869086806e-01	 1.170913195009882e+01
 2.424491593868182e+00	 7.209707992472003e-01	 1.172686261705211e+01
 2.417779768338177e+00	 7.431683659780475e-01	 1.174473060486768e+01
 2.410848687468746e+00	 7.653539408375639e-01	 1.176227126849269e+01
 2.403697794622202e+00	 7.875244529075509e-01	 1.177935012273390e+01
 2.396326587520680e+00	 8.096768077176199e-01	 1.179614343610269e+01
 2.388734619079054e+00	 8.318078883783887e-01	 1.181283517419916e+01
 2.380921498211461e+00	 8.539145567449189e-01	 1.182961698136096e+01
 2.372886890610308e+00	 8.759936546097636e-01	 1.184668789944678e+01
 2.262507841134675e+00	 8.352452534418977e-01	 1.202686905455007e+01
 2.254634173176159e+00	 8.562715568190782e-01	 1.204466713767019e+01
 2.246548775532828e+00	 8.772654843612157e-01	 1.206088506173980e+01
 2.238251494445587e+00	 8.982239718751815e-01	 1.207546061040273e+01
 2.229742233020532e+00	 9.191439408078782e-01	 1.208832714283450e+01
 2.221020951826259e+00	 9.400222995154943e-01	 1.209943725690947e+01
 2.212087669458564e+00	 9.608559445564251e-01	 1.211045543650261e+01
 2.202942463071542e+00	 9.816417620069235e-01	 1.212219229896187e+01
 2.193585468874133e+00	 1.002376628798517e+00	 1.213429371784155e+01
 2.184016882591212e+00	 1.023057414076162e+00	 1.214636189571263e+01
 2.174236959888308e+00	 1.043680980576090e+00	 1.215795907964704e+01
 2.273545746081336e+00	 8.393200935576505e-01	 1.200525695112702e+01
 2.265633665527169e+00	 8.604489761764418e-01	 1.202373809732277e+01
 2.257508822340550e+00	 8.815453250110357e-01	 1.204084257688799e+01
 2.249171062012258e+00	 9.026060609192613e-01	 1.205649062601134e+01
 2.240620287175688e+00	 9.236280903289247e-01	 1.207060060124589e+01
 2.231856458207075e+00	 9.446083065132521e-01	 1.208308715730005e+01
 2.222879593792943e+00	 9.655435908901188e-01	 1.209385911476523e+01
 2.213689771463796e+00	 9.864308143441191e-01	 1.210405204682311e+01
 2.204287128093098e+00	 1.007266838570509e+00	 1.211504805324384e+01
 2.194671860360594e+00	 1.028048517439986e+00	 1.212645568900741e+01
 2.184844225179117e+00	 1.048772698383257e+00	 1.213783351989255e+01
 2.284583651027932e+00	 8.433949336735894e-01	 1.198452606191151e+01
 2.276633157878071e+00	 8.646263955339493e-01	 1.200344549675537e+01
 2.268468869148113e+00	 8.858251656609603e-01	 1.202117883274908e+01
 2.260090629578716e+00	 9.069881499634104e-01	 1.203763548821891e+01
 2.251498341330580e+00	 9.281122398500061e-01	 1.205272530761268e+01
 2.242691964587576e+00	 9.491943135110120e-01	 1.206635679691597e+01
 2.233671518126962e+00	 9.702312372237807e-01	 1.207843503774609e+01
 2.224437079855661e+00	 9.912198666812497e-01	 1.208885926660394e+01
 2.214988787311654e+00	 1.012157048342401e+00	 1.209836560743529e+01
 2.205326838129571e+00	 1.033039620803673e+00	 1.210868275274788e+01
 2.195451490469543e+00	 1.053864416190243e+00	 1.211945818748197e+01
 2.295621555974562e+00	 8.474697737897313e-01	 1.196464849508745e+01
 2.287632650228975e+00	 8.688038148916190e-01	 1.198379013477884e+01
 2.279428915955637e+00	 8.901050063110071e-01	 1.200191896156840e+01
 2.271010197145090e+00	 9.113702390076414e-01	 1.201894018071506e+01
 2.262376395485340e+00	 9.325963893711305e-01	 1.203476149368519e+01
 2.253527470967900e+00	 9.537803205087736e-01	 1.204929138154286e+01
 2.244463442460766e+00	 9.749188835574052e-01	 1.206243705573319e+01
 2.235184388247277e+00	 9.960089190183025e-01	 1.207410206194635e+01
 2.225690446529943e+00	 1.017047258114175e+00	 1.208418352442722e+01
 2.215981815898270e+00	 1.038030724167201e+00	 1.209316623986303e+01
 2.206058755759699e+00	 1.058956133997031e+00	 1.210293658859543e+01
 2.306659460921328e+00	 8.515446139060926e-01	 1.194559455657882e+01
 2.298632142579989e+00	 8.729812342494715e-01	 1.196477051221402e+01
 2.290388962763239e+00	 8.943848469611947e-01	 1.198308538760443e+01
 2.281929764711507e+00	 9.157523280519695e-01	 1.200044665638687e+01
 2.273254449640103e+00	 9.370805388923047e-01	 1.201676612618835e+01
 2.264362977348188e+00	 9.583663275065391e-01	 1.203195826055275e+01
 2.255255366794496e+00	 9.796065298909857e-01	 1.204593815694404e+01
 2.245931696638788e+00	 1.000797971355265e+00	 1.205861916572011e+01
 2.236392105748100e+00	 1.021937467885815e+00	 1.206991013668935e+01
 2.226636793666822e+00	 1.043021827530552e+00	 1.207971228176730e+01
 2.216666021049707e+00	 1.064047851803605e+00	 1.208836329472656e+01
 2.317697365868327e+00	 8.556194540226882e-01	 1.192733279190091e+01
 2.309631634931223e+00	 8.771586536075244e-01	 1.194638288939225e+01
 2.301349009571040e+00	 8.986646876115418e-01	 1.196469789816947e+01
 2.292849332278093e+00	 9.201344170964080e-01	 1.198219391973664e+01
 2.284132503795002e+00	 9.415646884135379e-01	 1.199879299840212e+01
 2.275198483728579e+00	 9.629523345043077e-01	 1.201442147251602e+01
 2.266047291128294e+00	 9.842941762245151e-01	 1.202900797043216e+01
 2.256679005030333e+00	 1.005587023692123e+00	 1.204248103529186e+01
 2.247093764966263e+00	 1.026827677657300e+00	 1.205476636448553e+01
 2.237291771435356e+00	 1.048012930893707e+00	 1.206578365160370e+01
 2.227273286339682e+00	 1.069139569609946e+00	 1.207544302083160e+01
 2.328735270815659e+00	 8.596942941395357e-01	 1.190983002891312e+01
 2.320631127282786e+00	 8.813360729657979e-01	 1.192862134418117e+01
 2.312309056379157e+00	 9.029445282620656e-01	 1.194677371487773e+01
 2.303768899844975e+00	 9.245165061409716e-01	 1.196421810924998e+01
 2.295010557950173e+00	 9.460488379348365e-01	 1.198089282149548e+01
 2.286033990109211e+00	 9.675383415020810e-01	 1.199674184329797e+01
 2.276839215462300e+00	 9.889818225579862e-01	 1.201171286869509e+01
 2.267426313422053e+00	 1.010376076028864e+00	 1.202575491557391e+01
 2.257795424184568e+00	 1.031717887428615e+00	 1.203881554889230e+01
 2.247946749204004e+00	 1.053004034256646e+00	 1.205083769272824e+01
 2.237880551629742e+00	 1.074231287416040e+00	 1.206175602045833e+01
 2.339773175763425e+00	 8.637691342566509e-01	 1.189305142144335e+01
 2.331630619634788e+00	 8.855134923243109e-01	 1.191147783051870e+01
 2.323269103187709e+00	 9.072243689127852e-01	 1.192932756509480e+01
 2.314688467412281e+00	 9.288985951856737e-01	 1.194655257971546e+01
 2.305888612105750e+00	 9.505329874562098e-01	 1.196311331562183e+01
 2.296869496490225e+00	 9.721243484998592e-01	 1.197897708378733e+01
 2.287631139796659e+00	 9.936694688913936e-01	 1.199411606984589e+01
 2.278173621814093e+00	 1.015165128365475e+00	 1.200850494340382e+01
 2.268497083403155e+00	 1.036608097199743e+00	 1.202211805607103e+01
 2.258601726972893e+00	 1.057995137619351e+00	 1.203492621460191e+01
 2.248487816920004e+00	 1.079323005221868e+00	 1.204689301779116e+01
 2.350811080711721e+00	 8.678439743740496e-01	 1.187696049375542e+01
 2.342630111987337e+00	 8.896909116830826e-01	 1.189494223743836e+01
 2.334229149996816e+00	 9.115042095637182e-01	 1.191237175358128e+01
 2.325608034980139e+00	 9.332806842305295e-01	 1.192922798449752e+01
 2.316766666261867e+00	 9.550171369776649e-01	 1.194549930078383e+01
 2.307705002871757e+00	 9.767103554976430e-01	 1.196118188726835e+01
 2.298423064131511e+00	 9.983571152247294e-01	 1.197627773936250e+01
 2.288920930206591e+00	 1.019954180701942e+00	 1.199079225149606e+01
 2.279198742622161e+00	 1.041498306970663e+00	 1.200473138120486e+01
 2.269256704742154e+00	 1.062986240981802e+00	 1.201809837454456e+01
 2.259095082210585e+00	 1.084414723027415e+00	 1.203089004081849e+01
 2.361848985660650e+00	 8.719188144917487e-01	 1.186151918583209e+01
 2.353629604340542e+00	 8.938683310421320e-01	 1.187900244856981e+01
 2.345189196806593e+00	 9.157840502148826e-01	 1.189591623432446e+01
 2.336527602548676e+00	 9.376627732755521e-01	 1.191227235776445e+01
 2.327644720418657e+00	 9.595012864992102e-01	 1.192809278747541e+01
 2.318540509253951e+00	 9.812963624954334e-01	 1.194340802644880e+01
 2.309214988466998e+00	 1.003044761557987e+00	 1.195825509142881e+01
 2.299668238599690e+00	 1.024743233038253e+00	 1.197267507198060e+01
 2.289900401841722e+00	 1.046388516741360e+00	 1.198671025207659e+01
 2.279911682511917e+00	 1.067977344343980e+00	 1.200040077915413e+01
 2.269702347501604e+00	 1.089506440832663e+00	 1.201378086797047e+01
 2.372886890610308e+00	 8.759936546097636e-01	 1.184668789944678e+01
 2.364629096694514e+00	 8.980457504014793e-01	 1.186364440209940e+01
 2.356149243617164e+00	 9.200638908662977e-01	 1.187996868255209e+01
 2.347447170118017e+00	 9.420448623207559e-01	 1.189571119667258e+01
 2.338522774576256e+00	 9.639854360208536e-01	 1.191093306710787e+01
 2.329376015636943e+00	 9.858823694932308e-01	 1.192570445015449e+01
 2.320006912803263e+00	 1.007732407891161e+00	 1.194010248988089e+01
 2.310415546993532e+00	 1.029532285374395e+00	 1.195420883954126e+01
 2.300602061061977e+00	 1.051278726511816e+00	 1.196810673229950e+01
 2.290566660282311e+00	 1.072968447705865e+00	 1.198187758549047e+01
 2.280309612793177e+00	 1.094598158637595e+00	 1.199559712507840e+01
 2.174236959888308e+00	 1.043680980576090e+00	 1.215795907964704e+01
 2.164247732690560e+00	 1.064240695787828e+00	 1.216875576833863e+01
 2.154047931754155e+00	 1.084736925092982e+00	 1.217850689598177e+01
 2.143637992989115e+00	 1.105166520917272e+00	 1.218683749006926e+01
 2.133018413532060e+00	 1.125526334924995e+00	 1.219358639671653e+01
 2.122189751978528e+00	 1.145813219477350e+00	 1.219913474144629e+01
 2.111152628574412e+00	 1.166024029103345e+00	 1.220329667610563e+01
 2.099907725365980e+00	 1.186155621981970e+00	 1.220581764596676e+01
 2.088455786307836e+00	 1.206204861434281e+00	 1.220641435749171e+01
 2.076797617328380e+00	 1.226168617424059e+00	 1.220477606465547e+01
 2.064934086352260e+00	 1.246043768065609e+00	 1.220056583128017e+01
 2.184844225179117e+00	 1.048772698383257e+00	 1.213783351989255e+01
 2.174806264386789e+00	 1.069432716532366e+00	 1.214870513721878e+01
 2.164556702547638e+00	 1.090028939051490e+00	 1.215865813045003e+01
 2.154095977698307e+00	 1.110558203010568e+00	 1.216727945295995e+01
 2.143424589400743e+00	 1.131017344714399e+00	 1.217457258044219e+01
 2.132543098975642e+00	 1.151403201168087e+00	 1.218072272782354e+01
 2.121452129694827e+00	 1.171712611555120e+00	 1.218546683725957e+01
 2.110152366931992e+00	 1.191942418726774e+00	 1.218851106702495e+01
 2.098644558271197e+00	 1.212089470701480e+00	 1.218953251882575e+01
 2.086929513572642e+00	 1.232150622172797e+00	 1.218818064024715e+01
 2.075008104995231e+00	 1.252122736024576e+00	 1.218407860084545e+01
 2.195451490469543e+00	 1.053864416190243e+00	 1.211945818748197e+01
 2.185364796082680e+00	 1.074624737276676e+00	 1.213006246374721e+01
 2.175065473340848e+00	 1.095320953009721e+00	 1.213990749552904e+01
 2.164553962407310e+00	 1.115949885103537e+00	 1.214856764346342e+01
 2.153830765269334e+00	 1.136508354503431e+00	 1.215619018974223e+01
 2.142896445972769e+00	 1.156993182858412e+00	 1.216272819934930e+01
 2.131751630815367e+00	 1.177401194006454e+00	 1.216788111653744e+01
 2.120397008498240e+00	 1.197729215471119e+00	 1.217131759866860e+01
 2.108833330234900e+00	 1.217974079968214e+00	 1.217267705003882e+01
 2.097061409817345e+00	 1.238132626921084e+00	 1.217157114178764e+01
 2.085082123638732e+00	 1.258201703983125e+00	 1.216758530276434e+01
 2.206058755759699e+00	 1.058956133997031e+00	 1.210293658859543e+01
 2.195923327778333e+00	 1.079816758020749e+00	 1.211291052385502e+01
 2.185574244133865e+00	 1.100612966967676e+00	 1.212231952606858e+01
 2.175011947116179e+00	 1.121341567196196e+00	 1.213077960772666e+01
 2.164236941137860e+00	 1.141999364292122e+00	 1.213846566783359e+01
 2.153249792969909e+00	 1.162583164548374e+00	 1.214516642726459e+01
 2.142051131935999e+00	 1.183089776457406e+00	 1.215054575184843e+01
 2.130641650064662e+00	 1.203516012215075e+00	 1.215423652294145e+01
 2.119022102198859e+00	 1.223858689234566e+00	 1.215584229244034e+01
 2.107193306062380e+00	 1.244114631669005e+00	 1.215493892161669e+01
 2.095156142282631e+00	 1.264280671941339e+00	 1.215107618789695e+01
 2.216666021049707e+00	 1.064047851803605e+00	 1.208836329472656e+01
 2.206481859473845e+00	 1.085008778764573e+00	 1.209732324730696e+01
 2.196083014926768e+00	 1.105904980925356e+00	 1.210594998063047e+01
 2.185469931824967e+00	 1.126733249288558e+00	 1.211394711353126e+01
 2.174643117006349e+00	 1.147490374080502e+00	 1.212141743828699e+01
 2.163603139967063e+00	 1.168173146238014e+00	 1.212804497140695e+01
 2.152350633056697e+00	 1.188778358908036e+00	 1.213345954701000e+01
 2.140886291631203e+00	 1.209302808958715e+00	 1.213725993425780e+01
 2.129210874162990e+00	 1.229743298500613e+00	 1.213901561544835e+01
 2.117325202307636e+00	 1.250096636416645e+00	 1.213826854536572e+01
 2.105230160926794e+00	 1.270359639899302e+00	 1.213453487523911e+01
 2.227273286339682e+00	 1.069139569609946e+00	 1.207544302083160e+01
 2.217040391169321e+00	 1.090200799508142e+00	 1.208336552875742e+01
 2.206591785719634e+00	 1.111196994882762e+00	 1.209084564789015e+01
 2.195927916533731e+00	 1.132124931380639e+00	 1.209809339233869e+01
 2.185049292874830e+00	 1.152981383868599e+00	 1.210505603870225e+01
 2.173956486964225e+00	 1.173763127927379e+00	 1.211136381277620e+01
 2.162650134177428e+00	 1.194466941358403e+00	 1.211661400384831e+01
 2.151130933197805e+00	 1.215089605702109e+00	 1.212037287165930e+01
 2.139399646127206e+00	 1.235627907766438e+00	 1.212217754960041e+01
 2.127457098553002e+00	 1.256078641164087e+00	 1.212153792629742e+01
 2.115304179571091e+00	 1.276438607857098e+00	 1.211793848814063e+01
 2.237880551629742e+00	 1.074231287416040e+00	 1.206175602045833e+01
 2.227598922864857e+00	 1.095392820251442e+00	 1.207068700288801e+01
 2.217100556512545e+00	 1.116489008839897e+00	 1.207706439879884e+01
 2.206385901242524e+00	 1.137516613472452e+00	 1.208323358817471e+01
 2.195455468743327e+00	 1.158472393656444e+00	 1.208938425505518e+01
 2.184309833961401e+00	 1.179353109616514e+00	 1.209511548690000e+01
 2.172949635298166e+00	 1.200155523808567e+00	 1.209999345520515e+01
 2.161375574764409e+00	 1.220876402445331e+00	 1.210355345206354e+01
 2.149588418091424e+00	 1.241512517032122e+00	 1.210530192062158e+01
 2.137588994798368e+00	 1.262060645911418e+00	 1.210471846074720e+01
 2.125378198215387e+00	 1.282517575814809e+00	 1.210125779165142e+01
 2.248487816920004e+00	 1.079323005221868e+00	 1.204689301779116e+01
 2.238157454560557e+00	 1.100584840994466e+00	 1.205700718950834e+01
 2.227609327305577e+00	 1.121781022796759e+00	 1.206426673421416e+01
 2.216843885951401e+00	 1.142908295564013e+00	 1.206937489410750e+01
 2.205861644611872e+00	 1.163963403444066e+00	 1.207439725669459e+01
 2.194663180958584e+00	 1.184943091305462e+00	 1.207928521797320e+01
 2.183249136418879e+00	 1.205844106258587e+00	 1.208357519882180e+01
 2.171620216330958e+00	 1.226663199188450e+00	 1.208677300447223e+01
 2.159777190055556e+00	 1.247397126297742e+00	 1.208835598451449e+01
 2.147720891043623e+00	 1.268042650658721e+00	 1.208777516463041e+01
 2.135452216859550e+00	 1.288596543772519e+00	 1.208445733095737e+01
 2.259095082210585e+00	 1.084414723027415e+00	 1.203089004081849e+01
 2.248715986256518e+00	 1.105776861737203e+00	 1.204198055827134e+01
 2.238118098098812e+00	 1.127073036753351e+00	 1.205030913224004e+01
 2.227301870660416e+00	 1.148299977655336e+00	 1.205619934040239e+01
 2.216267820480490e+00	 1.169454413231496e+00	 1.206008273196783e+01
 2.205016527955779e+00	 1.190533072994270e+00	 1.206385105374547e+01
 2.193548637539540e+00	 1.211532688708521e+00	 1.206732963207054e+01
 2.181864857897393e+00	 1.232449995931540e+00	 1.206999620510729e+01
 2.169965962019520e+00	 1.253281735563383e+00	 1.207130056363831e+01
 2.157852787288659e+00	 1.274024655406083e+00	 1.207066681098003e+01
 2.145526235503449e+00	 1.294675511730311e+00	 1.206749557087069e+01
 2.269702347501604e+00	 1.089506440832663e+00	 1.201378086797047e+01
 2.259274517952844e+00	 1.110968882479645e+00	 1.202562646902459e+01
 2.248626868892328e+00	 1.132365050709675e+00	 1.203485736621026e+01
 2.237759855369624e+00	 1.153691659746436e+00	 1.204170917335303e+01
 2.226673996349209e+00	 1.174945423018761e+00	 1.204619429452787e+01
 2.215369874952982e+00	 1.196123054682983e+00	 1.204878400113290e+01
 2.203848138660116e+00	 1.217221271158430e+00	 1.205122038750686e+01
 2.192109499463656e+00	 1.238236792674670e+00	 1.205318121344452e+01
 2.180154733983227e+00	 1.259166344829122e+00	 1.205409018374391e+01
 2.167984683533363e+00	 1.280006660153587e+00	 1.205334606848150e+01
 2.155600254146950e+00	 1.300754479688268e+00	 1.205032503634025e+01
 2.280309612793177e+00	 1.094598158637595e+00	 1.199559712507840e+01
 2.269833049649631e+00	 1.116160903221780e+00	 1.200797484902269e+01
 2.259135639686203e+00	 1.137657064665730e+00	 1.201791317629689e+01
 2.248217840079079e+00	 1.159083341837329e+00	 1.202554987502270e+01
 2.237080172218059e+00	 1.180436432805894e+00	 1.203089102975499e+01
 2.225723221950193e+00	 1.201713036371645e+00	 1.203391814679255e+01
 2.214147639780582e+00	 1.222909853608372e+00	 1.203520446921509e+01
 2.202354141029690e+00	 1.244023589417914e+00	 1.203627980911588e+01
 2.190343505946594e+00	 1.265050954095041e+00	 1.203667321193435e+01
 2.178116579777626e+00	 1.285988664901319e+00	 1.203575964097195e+01
 2.165674272789922e+00	 1.306833447646476e+00	 1.203289245394839e+01
 2.064934086352260e+00	 1.246043768065609e+00	 1.220056583128017e+01
 2.052866123778235e+00	 1.265827201531747e+00	 1.219442139160711e+01
 2.040594723902261e+00	 1.285515818779371e+00	 1.218724543467612e+01
 2.028120943295701e+00	 1.305106533928906e+00	 1.217908290172837e+01
 2.015445900148261e+00	 1.324596275396539e+00	 1.216998370432746e+01
 2.002570774067260e+00	 1.343981987414467e+00	 1.216000325207493e+01
 1.989496805832294e+00	 1.363260631549399e+00	 1.214920284698874e+01
 1.976225297105190e+00	 1.382429188217795e+00	 1.213764993704825e+01
 1.962757610095272e+00	 1.401484658196326e+00	 1.212541822275366e+01
 1.949095167179954e+00	 1.420424064126019e+00	 1.211258761197558e+01
 1.935239450480789e+00	 1.439244452008559e+00	 1.209924401986954e+01
 2.075008104995231e+00	 1.252122736024576e+00	 1.218407860084545e+01
 2.062881267476772e+00	 1.272002685248240e+00	 1.217799185930751e+01
 2.050550000164011e+00	 1.291787355681638e+00	 1.217096576247133e+01
 2.038015364782923e+00	 1.311473646390357e+00	 1.216302591722133e+01
 2.025278484978434e+00	 1.331058470805488e+00	 1.215420047970156e+01
 2.012340546112726e+00	 1.350538758251296e+00	 1.214452072310155e+01
 1.999202795018683e+00	 1.369911455471121e+00	 1.213402146946096e+01
 1.985866539708448e+00	 1.389173528150020e+00	 1.212274137762943e+01
 1.972333149037044e+00	 1.408321962432589e+00	 1.211072308090647e+01
 1.958604052321127e+00	 1.427353766434444e+00	 1.209801316936093e+01
 1.944680738912956e+00	 1.446265971745832e+00	 1.208466201337935e+01
 2.085082123638732e+00	 1.258201703983125e+00	 1.216758530276434e+01
 2.072896411175912e+00	 1.278178168964371e+00	 1.216159505023818e+01
 2.060505276426424e+00	 1.298058892583616e+00	 1.215476460555773e+01
 2.047909786270851e+00	 1.317840758851605e+00	 1.214709332259658e+01
 2.035111069809352e+00	 1.337520666214331e+00	 1.213858070705980e+01
 2.022110318158961e+00	 1.357095529088118e+00	 1.212922703579907e+01
 2.008908784205859e+00	 1.376562279392937e+00	 1.211903383731895e+01
 1.995507782312505e+00	 1.395917868082436e+00	 1.210800422521458e+01
 1.981908687979624e+00	 1.415159266669127e+00	 1.209614307771359e+01
 1.968112937463113e+00	 1.434283468743216e+00	 1.208345705801866e+01
 1.954122027345940e+00	 1.453287491483503e+00	 1.206995447174898e+01
 2.095156142282631e+00	 1.264280671941339e+00	 1.215107618789695e+01
 2.082911554875505e+00	 1.284353652680214e+00	 1.214522151686594e+01
 2.070460552689332e+00	 1.304330429485366e+00	 1.213863382466380e+01
 2.057804207759311e+00	 1.324207871312694e+00	 1.213127936096749e+01
 2.044943654640827e+00	 1.343982861623090e+00	 1.212312215402487e+01
 2.031880090205774e+00	 1.363652299924934e+00	 1.211412469296464e+01
 2.018614773393629e+00	 1.383213103314823e+00	 1.210424846828133e+01
 2.005149024917166e+00	 1.402662208014992e+00	 1.209345436180755e+01
 1.991484226922819e+00	 1.421996570905872e+00	 1.208170287896664e+01
 1.977621822605722e+00	 1.441213171052247e+00	 1.206895421767149e+01
 1.963563315779558e+00	 1.460309011221473e+00	 1.205516816989084e+01
 2.105230160926794e+00	 1.270359639899302e+00	 1.213453487523911e+01
 2.092926698575399e+00	 1.290529136395845e+00	 1.212885531258795e+01
 2.080415828952571e+00	 1.310601966386949e+00	 1.212255889883611e+01
 2.067698629248127e+00	 1.330574983773667e+00	 1.211557199354889e+01
 2.054776239472676e+00	 1.350445057031785e+00	 1.210781638633459e+01
 2.041649862252976e+00	 1.370209070761740e+00	 1.209921005362560e+01
 2.028320762581800e+00	 1.389863927236754e+00	 1.208966777042189e+01
 2.014790267522241e+00	 1.409406547947644e+00	 1.207910156785187e+01
 2.001059765866437e+00	 1.428833875142753e+00	 1.206742102893399e+01
 1.987130707748768e+00	 1.448142873361453e+00	 1.205453341654735e+01
 1.973004604213625e+00	 1.467330530959643e+00	 1.204034362932919e+01
 2.115304179571091e+00	 1.276438607857098e+00	 1.211793848814063e+01
 2.102941842275444e+00	 1.296704620111338e+00	 1.211247413016402e+01
 2.090371105215976e+00	 1.316873503288427e+00	 1.210651906624496e+01
 2.077593050737120e+00	 1.336942096234568e+00	 1.209995304303138e+01
 2.064608824304714e+00	 1.356907252440441e+00	 1.209264891401710e+01
 2.051419634300379e+00	 1.376765841598538e+00	 1.208447348228321e+01
 2.038026751770182e+00	 1.396514751158705e+00	 1.207528819478651e+01
 2.024431510127538e+00	 1.416150887880340e+00	 1.206494967856227e+01
 2.010635304810290e+00	 1.435671179379703e+00	 1.205331011078527e+01
 1.996639592892062e+00	 1.455072575670744e+00	 1.204021741631176e+01
 1.982445892647958e+00	 1.474352050697912e+00	 1.202551528809210e+01
 2.125378198215387e+00	 1.282517575814809e+00	 1.210125779165142e+01
 2.112956985975489e+00	 1.302880103826770e+00	 1.209604944128816e+01
 2.100326381479382e+00	 1.323145040189863e+00	 1.209048746613223e+01
 2.087487472226116e+00	 1.343309208695440e+00	 1.208439833809117e+01
 2.074441409136758e+00	 1.363369447849078e+00	 1.207759933868310e+01
 2.061189406347791e+00	 1.383322612435326e+00	 1.206989949924340e+01
 2.047732740958582e+00	 1.403165575080650e+00	 1.206110038905387e+01
 2.034072752732863e+00	 1.422895227813035e+00	 1.205099674124235e+01
 2.020210843754184e+00	 1.442508483616653e+00	 1.203937690792796e+01
 2.006148478035417e+00	 1.462002277980036e+00	 1.202602313782198e+01
 1.991887181082374e+00	 1.481373570436181e+00	 1.201071167131755e+01
 2.135452216859550e+00	 1.288596543772519e+00	 1.208445733095737e+01
 2.122972129675383e+00	 1.309055587542215e+00	 1.207954663726155e+01
 2.110281657742623e+00	 1.329416577091316e+00	 1.207443128186381e+01
 2.097381893714938e+00	 1.349676321156325e+00	 1.206887785899789e+01
 2.084273993968623e+00	 1.369831643257719e+00	 1.206264150189898e+01
 2.070959178395024e+00	 1.389879383272101e+00	 1.205546693199942e+01
 2.057438730146807e+00	 1.409816399002564e+00	 1.204708935220589e+01
 2.043713995338023e+00	 1.429639567745679e+00	 1.203723517355528e+01
 2.029786382697931e+00	 1.449345787853532e+00	 1.202562256622662e+01
 2.015657363178644e+00	 1.468931980289240e+00	 1.201196182767634e+01
 2.001328469516690e+00	 1.488395090174350e+00	 1.199614978837363e+01
 2.145526235503449e+00	 1.294675511730311e+00	 1.206749557087069e+01
 2.132987273374976e+00	 1.315231071257751e+00	 1.206292517073096e+01
 2.120236934005535e+00	 1.335688113992848e+00	 1.205831188505010e+01
 2.107276315203409e+00	 1.356043433617269e+00	 1.205335588428397e+01
 2.094106578800125e+00	 1.376293838666386e+00	 1.204774363460482e+01
 2.080728950441888e+00	 1.396436154108863e+00	 1.204114906763106e+01
 2.067144719334666e+00	 1.416467222924423e+00	 1.203323459017402e+01
 2.053355237942827e+00	 1.436383907678225e+00	 1.202365192271695e+01
 2.039361921641337e+00	 1.456183092090273e+00	 1.201204275707481e+01
 2.025166248321555e+00	 1.475861682598271e+00	 1.199803922553191e+01
 2.010769757950721e+00	 1.495416609912320e+00	 1.198204933891581e+01
 2.155600254146950e+00	 1.300754479688268e+00	 1.205032503634025e+01
 2.143002417074117e+00	 1.321406554973449e+00	 1.204613869845766e+01
 2.130192210267951e+00	 1.341959650894522e+00	 1.204208498069981e+01
 2.117170736691354e+00	 1.362410546078314e+00	 1.203779113844121e+01
 2.103939163631079e+00	 1.382756034075101e+00	 1.203286850754336e+01
 2.090498722488195e+00	 1.402992924945611e+00	 1.202691380618751e+01
 2.076850708521967e+00	 1.423118046846202e+00	 1.201951027243003e+01
 2.062996480547081e+00	 1.443128247610624e+00	 1.201022862558045e+01
 2.048937460584213e+00	 1.463020396326807e+00	 1.199862784129250e+01
 2.034675133463963e+00	 1.482791384907042e+00	 1.198426236440496e+01
 2.020211046384286e+00	 1.502438129649991e+00	 1.196841391019400e+01
 2.165674272789922e+00	 1.306833447646476e+00	 1.203289245394839e+01
 2.153017560772655e+00	 1.327582038689389e+00	 1.202913522508334e+01
 2.140147486529708e+00	 1.348231187796401e+00	 1.202570075337335e+01
 2.127065158178596e+00	 1.368777658539504e+00	 1.202213694061084e+01
 2.113771748461301e+00	 1.389218229483885e+00	 1.201797358266655e+01
 2.100268494533755e+00	 1.409549695782344e+00	 1.201272381502168e+01
 2.086556697708517e+00	 1.429768870767875e+00	 1.200588538948996e+01
 2.072637723150594e+00	 1.449872587542829e+00	 1.199694176958328e+01
 2.058512999526368e+00	 1.469857700563063e+00	 1.198536303382123e+01
 2.044184018605681e+00	 1.489721087215467e+00	 1.197086870791969e+01
 2.029652334817198e+00	 1.509459649387264e+00	 1.195523999757851e+01
 1.935239450480789e+00	 1.439244452008559e+00	 1.209924401986954e+01
 1.921189598294129e+00	 1.457946059311356e+00	 1.208271629984920e+01
 1.906949557439019e+00	 1.476522762976261e+00	 1.206017345907718e+01
 1.892520995114950e+00	 1.494971675787019e+00	 1.203227547187164e+01
 1.877905636206428e+00	 1.513289939735114e+00	 1.200104296836049e+01
 1.863105262636381e+00	 1.531474727460727e+00	 1.196656229627610e+01
 1.848121712676791e+00	 1.549523243676792e+00	 1.192889574236521e+01
 1.832956880217087e+00	 1.567432726574716e+00	 1.188998166357085e+01
 1.817612713990852e+00	 1.585200449210257e+00	 1.185005708789007e+01
 1.802091216761528e+00	 1.602823720868133e+00	 1.180839550968573e+01
 1.786394444467762e+00	 1.620299888403949e+00	 1.176425076271406e+01
 1.944680738912956e+00	 1.446265971745832e+00	 1.208466201337935e+01
 1.930562342904967e+00	 1.465058816992660e+00	 1.206803223482357e+01
 1.916252830371220e+00	 1.483726149244743e+00	 1.204536779075109e+01
 1.901753876644827e+00	 1.502265067200223e+00	 1.201836665930813e+01
 1.887067215025345e+00	 1.520672698907477e+00	 1.198816361182438e+01
 1.872194636129014e+00	 1.538946203213094e+00	 1.195473915182032e+01
 1.857137987196043e+00	 1.557082771192898e+00	 1.191805939386000e+01
 1.841899171355412e+00	 1.575079627564508e+00	 1.187872113268402e+01
 1.826480146847832e+00	 1.592934032079982e+00	 1.183856628966943e+01
 1.810882926207450e+00	 1.610643280897089e+00	 1.179704886003466e+01
 1.795109575403052e+00	 1.628204707927779e+00	 1.175340731393973e+01
 1.954122027345940e+00	 1.453287491483503e+00	 1.206995447174898e+01
 1.939935087516629e+00	 1.472171574674391e+00	 1.205304898549810e+01
 1.925556103304247e+00	 1.490929535513662e+00	 1.203042818527663e+01
 1.910986758175537e+00	 1.509558458613859e+00	 1.200427609914500e+01
 1.896228793845095e+00	 1.528055458080251e+00	 1.197495506783241e+01
 1.881284009622480e+00	 1.546417678965849e+00	 1.194245189713017e+01
 1.866154261716120e+00	 1.564642298709362e+00	 1.190673980354656e+01
 1.850841462494552e+00	 1.582726528554627e+00	 1.186777913709489e+01
 1.835347579705605e+00	 1.600667614950009e+00	 1.182715353303564e+01
 1.819674635654142e+00	 1.618462840926333e+00	 1.178557988742524e+01
 1.803824706339074e+00	 1.636109527451893e+00	 1.174228533960764e+01
 1.963563315779558e+00	 1.460309011221473e+00	 1.205516816989084e+01
 1.949307832128934e+00	 1.479284332356444e+00	 1.203782574832221e+01
 1.934859376237932e+00	 1.498132921782909e+00	 1.201553233316539e+01
 1.920219639706912e+00	 1.516851850027818e+00	 1.199008455323087e+01
 1.905390372665521e+00	 1.535438217253337e+00	 1.196150746831978e+01
 1.890373383116629e+00	 1.553889154718896e+00	 1.192979933761625e+01
 1.875170536236882e+00	 1.572201826226098e+00	 1.189494559960583e+01
 1.859783753634376e+00	 1.590373429545000e+00	 1.185691207680428e+01
 1.844215012564055e+00	 1.608401197820275e+00	 1.181600665847037e+01
 1.828466345101492e+00	 1.626282400955807e+00	 1.177418311927148e+01
 1.812539837275730e+00	 1.644014346976240e+00	 1.173108537918063e+01
 1.973004604213625e+00	 1.467330530959643e+00	 1.204034362932919e+01
 1.958680576741705e+00	 1.486397090038710e+00	 1.202251736536714e+01
 1.944162649172100e+00	 1.505336308052376e+00	 1.200074263424859e+01
 1.929452521238791e+00	 1.524145241441993e+00	 1.197586425140351e+01
 1.914551951486466e+00	 1.542820976426630e+00	 1.194790225343808e+01
 1.899462756611313e+00	 1.561360630472141e+00	 1.191687143798989e+01
 1.884186810758192e+00	 1.579761353743020e+00	 1.188277452159230e+01
 1.868726044774753e+00	 1.598020330535549e+00	 1.184559507645135e+01
 1.853082445423058e+00	 1.616134780690713e+00	 1.180529029439339e+01
 1.837258054549390e+00	 1.634101960985453e+00	 1.176303905239731e+01
 1.821254968212920e+00	 1.651919166500771e+00	 1.171999399962296e+01
 1.982445892647958e+00	 1.474352050697912e+00	 1.202551528809210e+01
 1.968053321354763e+00	 1.493509847721083e+00	 1.200747442144229e+01
 1.953465922106579e+00	 1.512539694321952e+00	 1.198611329116721e+01
 1.938685402771006e+00	 1.531438632856277e+00	 1.196167905996893e+01
 1.923713530307775e+00	 1.550203735600031e+00	 1.193421234202530e+01
 1.908552130106384e+00	 1.568832106225490e+00	 1.190374949412916e+01
 1.893203085279909e+00	 1.587320881260046e+00	 1.187031550470464e+01
 1.877668335915554e+00	 1.605667231526201e+00	 1.183391664884859e+01
 1.861949878282498e+00	 1.623868363561258e+00	 1.179453295914438e+01
 1.846049763997726e+00	 1.641921521015218e+00	 1.175231416030405e+01
 1.829970099150543e+00	 1.659823986025436e+00	 1.170918380181404e+01
 1.991887181082374e+00	 1.481373570436181e+00	 1.201071167131755e+01
 1.977426065967933e+00	 1.500622605403456e+00	 1.199275361699945e+01
 1.962769195041200e+00	 1.519743080591528e+00	 1.197169047577134e+01
 1.947918284303396e+00	 1.538732024270564e+00	 1.194758465055910e+01
 1.932875109129292e+00	 1.557586494773437e+00	 1.192050230236940e+01
 1.917641503601694e+00	 1.576303581978849e+00	 1.189050630516449e+01
 1.902219359801896e+00	 1.594880408777089e+00	 1.185764885257977e+01
 1.886610627056650e+00	 1.613314132516882e+00	 1.182196381737845e+01
 1.870817311142252e+00	 1.631601946431847e+00	 1.178345891492521e+01
 1.854841473446392e+00	 1.649741081045043e+00	 1.174210772472505e+01
 1.838685230088499e+00	 1.667728805550184e+00	 1.169881342701045e+01
 2.001328469516690e+00	 1.488395090174350e+00	 1.199614978837363e+01
 1.986798810581035e+00	 1.507735363085723e+00	 1.197838338933297e+01
 1.972072467975790e+00	 1.526946466860996e+00	 1.195751249597797e+01
 1.957151165835794e+00	 1.546025415684746e+00	 1.193362866935591e+01
 1.942036687950858e+00	 1.564969253946747e+00	 1.190682852325550e+01
 1.926730877097095e+00	 1.583775057732126e+00	 1.187720634577659e+01
 1.911235634324013e+00	 1.602439936294066e+00	 1.184484641023971e+01
 1.895552918197912e+00	 1.620961033507518e+00	 1.180981502513225e+01
 1.879684744002201e+00	 1.639335529302412e+00	 1.177215237595406e+01
 1.863633182895275e+00	 1.657560641074872e+00	 1.173186421469634e+01
 1.847400361026688e+00	 1.675633625074964e+00	 1.168902756335340e+01
 2.010769757950721e+00	 1.495416609912320e+00	 1.198204933891581e+01
 1.996171555193889e+00	 1.514848120767776e+00	 1.196438464370294e+01
 1.981375740910178e+00	 1.534149853130247e+00	 1.194360996307246e+01
 1.966384047368037e+00	 1.553318807098716e+00	 1.191985090666872e+01
 1.951198266772318e+00	 1.572352013119858e+00	 1.189323938528729e+01
 1.935820250592439e+00	 1.591246533485224e+00	 1.186390593870005e+01
 1.920251908846119e+00	 1.609999463810891e+00	 1.183197173718681e+01
 1.904495209339208e+00	 1.628607934498032e+00	 1.179754030797885e+01
 1.888552176862225e+00	 1.647069112172891e+00	 1.176068904110373e+01
 1.872424892344265e+00	 1.665380201104649e+00	 1.172146053210293e+01
 1.856115491965010e+00	 1.683538444599728e+00	 1.167985382174747e+01
 2.020211046384286e+00	 1.502438129649991e+00	 1.196841391019400e+01
 2.005544299806320e+00	 1.521960878449507e+00	 1.195077091838082e+01
 1.990679013844191e+00	 1.541353239399171e+00	 1.193000595943827e+01
 1.975616928899961e+00	 1.560612198512368e+00	 1.190628346685444e+01
 1.960359845593515e+00	 1.579734772292670e+00	 1.187977543247376e+01
 1.944909624087578e+00	 1.598718009238052e+00	 1.185065342742496e+01
 1.929268183368078e+00	 1.617558991327480e+00	 1.181908028064166e+01
 1.913437500480411e+00	 1.636254835488351e+00	 1.178520146773326e+01
 1.897419609722203e+00	 1.654802695043216e+00	 1.174913626636893e+01
 1.881216601793255e+00	 1.673199761134317e+00	 1.171096873743385e+01
 1.864830622903365e+00	 1.691443264124424e+00	 1.167073859397410e+01
 2.029652334817198e+00	 1.509459649387264e+00	 1.195523999757851e+01
 2.014917044418151e+00	 1.529073636130813e+00	 1.193754855020124e+01
 1.999982286777659e+00	 1.548556625667659e+00	 1.191671620670158e+01
 1.984849810431399e+00	 1.567905589925592e+00	 1.189295093856824e+01
 1.969521424414292e+00	 1.587117531465081e+00	 1.186646954407212e+01
 1.953998997582364e+00	 1.606189484990514e+00	 1.183748934909081e+01
 1.938284457889749e+00	 1.625118518843750e+00	 1.180621954891966e+01
 1.922379791621390e+00	 1.643901736478400e+00	 1.177285224542158e+01
 1.906287042582018e+00	 1.662536277913325e+00	 1.173755323740026e+01
 1.890008311242133e+00	 1.681019321163820e+00	 1.170045262529282e+01
 1.873545753841654e+00	 1.699348083649004e+00	 1.166163529414393e+01
 1.786394444467762e+00	 1.620299888403949e+00	 1.176425076271406e+01
 1.770527212809241e+00	 1.637623409964848e+00	 1.171912191139256e+01
 1.754489003387805e+00	 1.654794719519682e+00	 1.167471799597919e+01
 1.738281996753376e+00	 1.671811313976439e+00	 1.163060765293071e+01
 1.721908422791832e+00	 1.688670732897904e+00	 1.158634801948322e+01
 1.705370559695375e+00	 1.705370559695375e+00	 1.154148828135707e+01
 1.688670732897904e+00	 1.721908422791833e+00	 1.149557343362605e+01
 1.671811313976439e+00	 1.738281996753376e+00	 1.144814824598175e+01
 1.654794719519682e+00	 1.754489003387805e+00	 1.139876142237448e+01
 1.637623409964847e+00	 1.770527212809241e+00	 1.134696994377222e+01
 1.620299888403949e+00	 1.786394444467762e+00	 1.129234358155043e+01
 1.795109575403052e+00	 1.628204707927779e+00	 1.175340731393973e+01
 1.779164933628267e+00	 1.645612744282638e+00	 1.170908659098378e+01
 1.763048479955876e+00	 1.662867826047682e+00	 1.166570892832981e+01
 1.746762405573869e+00	 1.679967437919275e+00	 1.162277598323223e+01
 1.730308951246884e+00	 1.696909107456668e+00	 1.157977573513801e+01
 1.713690406281549e+00	 1.713690406281550e+00	 1.153618616651465e+01
 1.696909107456668e+00	 1.730308951246884e+00	 1.149147916608427e+01
 1.679967437919275e+00	 1.746762405573870e+00	 1.144512464554482e+01
 1.662867826047682e+00	 1.763048479955877e+00	 1.139659485957100e+01
 1.645612744282637e+00	 1.779164933628267e+00	 1.134536891760603e+01
 1.628204707927779e+00	 1.795109575403051e+00	 1.129093747469058e+01
 1.803824706339074e+00	 1.636109527451893e+00	 1.174228533960764e+01
 1.787802654447981e+00	 1.653602078600724e+00	 1.169865084893789e+01
 1.771607956524584e+00	 1.670940932576006e+00	 1.165619232564575e+01
 1.755242814394943e+00	 1.688123561862473e+00	 1.161433369450778e+01
 1.738709479702458e+00	 1.705147482015843e+00	 1.157248272122419e+01
 1.722010252868190e+00	 1.722010252868189e+00	 1.153003484134852e+01
 1.705147482015843e+00	 1.738709479702458e+00	 1.148637722141301e+01
 1.688123561862472e+00	 1.755242814394943e+00	 1.144089304315928e+01
 1.670940932576006e+00	 1.771607956524584e+00	 1.139296600045552e+01
 1.653602078600723e+00	 1.787802654447983e+00	 1.134198499716086e+01
 1.636109527451893e+00	 1.803824706339075e+00	 1.128734903288790e+01
 1.812539837275730e+00	 1.644014346976240e+00	 1.173108537918063e+01
 1.796440375268295e+00	 1.661591412919060e+00	 1.168801957932565e+01
 1.780167433093849e+00	 1.679014039104610e+00	 1.164637493396524e+01
 1.763723223216526e+00	 1.696279685805987e+00	 1.160548700178686e+01
 1.747110008158491e+00	 1.713385856575377e+00	 1.156467239951401e+01
 1.730330099455237e+00	 1.730330099455237e+00	 1.152323279379769e+01
 1.713385856575377e+00	 1.747110008158491e+00	 1.148045913563986e+01
 1.696279685805987e+00	 1.763723223216526e+00	 1.143563612806802e+01
 1.679014039104609e+00	 1.780167433093849e+00	 1.138804691640942e+01
 1.661591412919060e+00	 1.796440375268296e+00	 1.133697798915008e+01
 1.644014346976240e+00	 1.812539837275731e+00	 1.128172427601343e+01
 1.821254968212920e+00	 1.651919166500771e+00	 1.171999399962296e+01
 1.805078096089118e+00	 1.669580747237601e+00	 1.167738381228656e+01
 1.788726909663589e+00	 1.687087145633444e+00	 1.163644981043139e+01
 1.772203632038546e+00	 1.704435809749770e+00	 1.159642867017299e+01
 1.755510536614920e+00	 1.721624231135220e+00	 1.155653504216768e+01
 1.738649946042637e+00	 1.738649946042638e+00	 1.151596572120726e+01
 1.721624231135220e+00	 1.755510536614920e+00	 1.147390406923060e+01
 1.704435809749770e+00	 1.772203632038546e+00	 1.142952468225959e+01
 1.687087145633444e+00	 1.788726909663590e+00	 1.138199829035519e+01
 1.669580747237599e+00	 1.805078096089118e+00	 1.133049687828048e+01
 1.651919166500771e+00	 1.821254968212920e+00	 1.127419901316496e+01
 1.829970099150543e+00	 1.659823986025436e+00	 1.170918380181404e+01
 1.813715816910358e+00	 1.677570081556297e+00	 1.166692071856158e+01
 1.797286386233726e+00	 1.695160252162467e+00	 1.162659632453860e+01
 1.780684040860933e+00	 1.712591933693774e+00	 1.158733801146312e+01
 1.763911065071681e+00	 1.729862605695323e+00	 1.154824776244913e+01
 1.746969792630333e+00	 1.746969792630333e+00	 1.150840651393042e+01
 1.729862605695322e+00	 1.763911065071681e+00	 1.146687878243336e+01
 1.712591933693773e+00	 1.780684040860933e+00	 1.142271754647759e+01
 1.695160252162467e+00	 1.797286386233726e+00	 1.137496937242391e+01
 1.677570081556297e+00	 1.813715816910359e+00	 1.132267977163933e+01
 1.659823986025436e+00	 1.829970099150544e+00	 1.126489877490552e+01
 1.838685230088499e+00	 1.667728805550184e+00	 1.169881342701045e+01
 1.822353537731928e+00	 1.685559415875105e+00	 1.165679361410075e+01
 1.805845862804178e+00	 1.703233358691631e+00	 1.161698015952120e+01
 1.789164449683616e+00	 1.720748057637952e+00	 1.157838088101330e+01
 1.772311593528711e+00	 1.738100980255631e+00	 1.153997450582872e+01
 1.755289639218269e+00	 1.755289639218269e+00	 1.150071523949151e+01
 1.738100980255631e+00	 1.772311593528711e+00	 1.145953761139125e+01
 1.720748057637951e+00	 1.789164449683615e+00	 1.141536158723699e+01
 1.703233358691630e+00	 1.805845862804178e+00	 1.136709793689664e+01
 1.685559415875105e+00	 1.822353537731929e+00	 1.131365384464884e+01
 1.667728805550183e+00	 1.838685230088499e+00	 1.125393874738723e+01
 1.847400361026688e+00	 1.675633625074964e+00	 1.168902756335339e+01
 1.830991258553736e+00	 1.693548750193977e+00	 1.164715196474297e+01
 1.814405339374864e+00	 1.711306465220890e+00	 1.160775331387769e+01
 1.797644858506521e+00	 1.728904181582257e+00	 1.156970967484150e+01
 1.780712121985948e+00	 1.746339354816097e+00	 1.153186604145905e+01
 1.763609485806387e+00	 1.763609485806387e+00	 1.149303912729176e+01
 1.746339354816097e+00	 1.780712121985948e+00	 1.145202244499736e+01
 1.728904181582256e+00	 1.797644858506521e+00	 1.140759166481339e+01
 1.711306465220890e+00	 1.814405339374864e+00	 1.135851024037564e+01
 1.693548750193977e+00	 1.830991258553737e+00	 1.130353528853439e+01
 1.675633625074964e+00	 1.847400361026688e+00	 1.124142370829706e+01
 1.856115491965010e+00	 1.683538444599728e+00	 1.167985382174747e+01
 1.839628979375692e+00	 1.701538084512866e+00	 1.163813139096378e+01
 1.822964815945705e+00	 1.719379571750199e+00	 1.159905410302616e+01
 1.806125267329579e+00	 1.737060305526641e+00	 1.156146332695893e+01
 1.789112650443327e+00	 1.754577729376667e+00	 1.152405995401042e+01
 1.771929332394633e+00	 1.771929332394633e+00	 1.148551255383817e+01
 1.754577729376667e+00	 1.789112650443327e+00	 1.144446270246771e+01
 1.737060305526641e+00	 1.806125267329579e+00	 1.139953060217177e+01
 1.719379571750199e+00	 1.822964815945706e+00	 1.134932098114570e+01
 1.701538084512865e+00	 1.839628979375692e+00	 1.129242925925707e+01
 1.683538444599728e+00	 1.856115491965010e+00	 1.122796354925745e+01
 1.864830622903365e+00	 1.691443264124424e+00	 1.167073859397410e+01
 1.848266700197706e+00	 1.709527418831725e+00	 1.162985367268952e+01
 1.831524292516621e+00	 1.727452678279513e+00	 1.159100716108559e+01
 1.814605676152718e+00	 1.745216429471058e+00	 1.155376730692173e+01
 1.797513178900787e+00	 1.762816103937294e+00	 1.151668063585437e+01
 1.780249178982949e+00	 1.780249178982950e+00	 1.147825702847831e+01
 1.762816103937293e+00	 1.797513178900787e+00	 1.143697531160717e+01
 1.745216429471057e+00	 1.814605676152718e+00	 1.139128915480423e+01
 1.727452678279513e+00	 1.831524292516620e+00	 1.133963325968464e+01
 1.709527418831725e+00	 1.848266700197707e+00	 1.128042982786105e+01
 1.691443264124425e+00	 1.864830622903365e+00	 1.121682456084604e+01
 1.873545753841654e+00	 1.699348083649004e+00	 1.166163529414394e+01
 1.856904421019689e+00	 1.717516753150511e+00	 1.162229007346077e+01
 1.840083769087529e+00	 1.735525784808786e+00	 1.158372344277864e+01
 1.823086084975867e+00	 1.753372553415460e+00	 1.154673361759582e+01
 1.805913707358262e+00	 1.771054478497924e+00	 1.150983927958284e+01
 1.788569025571281e+00	 1.788569025571281e+00	 1.147138117962405e+01
 1.771054478497924e+00	 1.805913707358263e+00	 1.142966468774570e+01
 1.753372553415460e+00	 1.823086084975867e+00	 1.138296598144582e+01
 1.735525784808785e+00	 1.840083769087529e+00	 1.132953854028575e+01
 1.717516753150510e+00	 1.856904421019689e+00	 1.126828105935716e+01
 1.699348083649004e+00	 1.873545753841653e+00	 1.120840269641784e+01
 1.620299888403949e+00	 1.786394444467762e+00	 1.129234358155043e+01
 1.602823720868134e+00	 1.802091216761527e+00	 1.123410275507925e+01
 1.585200449210258e+00	 1.817612713990852e+00	 1.117041964445419e+01
 1.567432726574717e+00	 1.832956880217085e+00	 1.109926212201118e+01
 1.549523243676792e+00	 1.848121712676790e+00	 1.101858646597669e+01
 1.531474727460727e+00	 1.863105262636380e+00	 1.093144390085995e+01
 1.513289939735115e+00	 1.877905636206427e+00	 1.084886861894102e+01
 1.494971675787019e+00	 1.892520995114949e+00	 1.077051884027897e+01
 1.476522762976262e+00	 1.906949557439018e+00	 1.069541487363828e+01
 1.457946059311357e+00	 1.921189598294128e+00	 1.062247064639037e+01
 1.439244452008559e+00	 1.935239450480789e+00	 1.054999236845104e+01
 1.628204707927779e+00	 1.795109575403051e+00	 1.129093747469059e+01
 1.610643280897090e+00	 1.810882926207450e+00	 1.123211507290932e+01
 1.592934032079984e+00	 1.826480146847831e+00	 1.116667220905939e+01
 1.575079627564509e+00	 1.841899171355412e+00	 1.109250233020180e+01
 1.557082771192899e+00	 1.857137987196042e+00	 1.100855001347829e+01
 1.538946203213095e+00	 1.872194636129013e+00	 1.092598582502032e+01
 1.520672698907478e+00	 1.887067215025344e+00	 1.084765289207912e+01
 1.502265067200224e+00	 1.901753876644827e+00	 1.077260309251578e+01
 1.483726149244744e+00	 1.916252830371219e+00	 1.069979229898271e+01
 1.465058816992660e+00	 1.930562342904967e+00	 1.062814069943415e+01
 1.446265971745832e+00	 1.944680738912957e+00	 1.055613045568974e+01
 1.636109527451893e+00	 1.803824706339075e+00	 1.128734903288790e+01
 1.618462840926335e+00	 1.819674635654142e+00	 1.122745910260653e+01
 1.600667614950011e+00	 1.835347579705605e+00	 1.115969702484642e+01
 1.582726528554628e+00	 1.850841462494551e+00	 1.108190037085255e+01
 1.564642298709364e+00	 1.866154261716118e+00	 1.099962965365838e+01
 1.546417678965850e+00	 1.881284009622480e+00	 1.092157284616031e+01
 1.528055458080252e+00	 1.896228793845094e+00	 1.084688144526206e+01
 1.509558458613860e+00	 1.910986758175536e+00	 1.077457669259727e+01
 1.490929535513663e+00	 1.925556103304247e+00	 1.070358143464303e+01
 1.472171574674392e+00	 1.939935087516628e+00	 1.063275091668932e+01
 1.453287491483503e+00	 1.954122027345941e+00	 1.056078984717564e+01
 1.644014346976240e+00	 1.812539837275731e+00	 1.128172427601343e+01
 1.626282400955807e+00	 1.828466345101491e+00	 1.122027082212268e+01
 1.608401197820276e+00	 1.844215012564054e+00	 1.114962874644183e+01
 1.590373429544999e+00	 1.859783753634374e+00	 1.106984391842409e+01
 1.572201826226099e+00	 1.875170536236881e+00	 1.099226425973169e+01
 1.553889154718896e+00	 1.890373383116628e+00	 1.091811134015938e+01
 1.535438217253337e+00	 1.905390372665520e+00	 1.084648943133686e+01
 1.516851850027819e+00	 1.920219639706912e+00	 1.077641080328011e+01
 1.498132921782910e+00	 1.934859376237931e+00	 1.070678735606358e+01
 1.479284332356444e+00	 1.949307832128933e+00	 1.063642581282708e+01
 1.460309011221474e+00	 1.963563315779558e+00	 1.056415387578113e+01
 1.651919166500771e+00	 1.821254968212920e+00	 1.127419901316496e+01
 1.634101960985455e+00	 1.837258054549390e+00	 1.121067655336939e+01
 1.616134780690714e+00	 1.853082445423058e+00	 1.113664150589436e+01
 1.598020330535549e+00	 1.868726044774752e+00	 1.105977628785631e+01
 1.579761353743022e+00	 1.884186810758191e+00	 1.098632703459818e+01
 1.561360630472142e+00	 1.899462756611312e+00	 1.091549542520933e+01
 1.542820976426631e+00	 1.914551951486466e+00	 1.084639926549687e+01
 1.524145241441994e+00	 1.929452521238790e+00	 1.077806323470764e+01
 1.505336308052376e+00	 1.944162649172098e+00	 1.070941007756545e+01
 1.486397090038711e+00	 1.958680576741704e+00	 1.063925233152806e+01
 1.467330530959642e+00	 1.973004604213624e+00	 1.056638719883893e+01
 1.659823986025436e+00	 1.829970099150544e+00	 1.126489877490552e+01
 1.641921521015218e+00	 1.846049763997725e+00	 1.119879288385302e+01
 1.623868363561259e+00	 1.861949878282497e+00	 1.112409009948979e+01
 1.605667231526201e+00	 1.877668335915553e+00	 1.105158589502596e+01
 1.587320881260046e+00	 1.893203085279909e+00	 1.098167961964382e+01
 1.568832106225491e+00	 1.908552130106383e+00	 1.091360731721746e+01
 1.550203735600032e+00	 1.923713530307775e+00	 1.084652098026880e+01
 1.531438632856278e+00	 1.938685402771006e+00	 1.077947880182941e+01
 1.512539694321952e+00	 1.953465922106578e+00	 1.071143588117660e+01
 1.493509847721084e+00	 1.968053321354763e+00	 1.064123547680797e+01
 1.474352050697912e+00	 1.982445892647958e+00	 1.056763578706173e+01
 1.667728805550183e+00	 1.838685230088499e+00	 1.125393874738723e+01
 1.649741081045044e+00	 1.854841473446391e+00	 1.118500104161576e+01
 1.631601946431847e+00	 1.870817311142251e+00	 1.111384097800355e+01
 1.613314132516883e+00	 1.886610627056650e+00	 1.104511032045230e+01
 1.594880408777090e+00	 1.902219359801895e+00	 1.097817245589460e+01
 1.576303581978850e+00	 1.917641503601694e+00	 1.091231768743159e+01
 1.557586494773438e+00	 1.932875109129291e+00	 1.084675258249328e+01
 1.538732024270565e+00	 1.947918284303395e+00	 1.078058968349737e+01
 1.519743080591529e+00	 1.962769195041200e+00	 1.071283768047901e+01
 1.500622605403457e+00	 1.977426065967933e+00	 1.064239214266574e+01
 1.481373570436181e+00	 1.991887181082375e+00	 1.056802691372774e+01
 1.675633625074964e+00	 1.847400361026688e+00	 1.124142370829706e+01
 1.657560641074873e+00	 1.863633182895274e+00	 1.117282747222403e+01
 1.639335529302413e+00	 1.879684744002200e+00	 1.110571591993470e+01
 1.620961033507518e+00	 1.895552918197911e+00	 1.104017651464874e+01
 1.602439936294066e+00	 1.911235634324012e+00	 1.097564514745088e+01
 1.583775057732126e+00	 1.926730877097094e+00	 1.091148602221382e+01
 1.564969253946748e+00	 1.942036687950857e+00	 1.084698041223306e+01
 1.546025415684747e+00	 1.957151165835793e+00	 1.078131578318409e+01
 1.526946466860998e+00	 1.972072467975790e+00	 1.071357538568959e+01
 1.507735363085724e+00	 1.986798810581033e+00	 1.064272841822965e+01
 1.488395090174350e+00	 2.001328469516690e+00	 1.056762085784334e+01
 1.683538444599728e+00	 1.856115491965010e+00	 1.122796354925745e+01
 1.665380201104650e+00	 1.872424892344266e+00	 1.116317559991464e+01
 1.647069112172891e+00	 1.888552176862224e+00	 1.109952651447090e+01
 1.628607934498032e+00	 1.904495209339207e+00	 1.103660117037293e+01
 1.609999463810891e+00	 1.920251908846119e+00	 1.097392682712615e+01
 1.591246533485225e+00	 1.935820250592438e+00	 1.091096098489197e+01
 1.572352013119859e+00	 1.951198266772317e+00	 1.084707950354535e+01
 1.553318807098717e+00	 1.966384047368037e+00	 1.078156509126864e+01
 1.534149853130248e+00	 1.981375740910177e+00	 1.071359626993434e+01
 1.514848120767776e+00	 1.996171555193889e+00	 1.064223692192789e+01
 1.495416609912320e+00	 2.010769757950721e+00	 1.056642651970179e+01
 1.691443264124425e+00	 1.864830622903365e+00	 1.121682456084604e+01
 1.673199761134318e+00	 1.881216601793254e+00	 1.115584961243864e+01
 1.654802695043217e+00	 1.897419609722203e+00	 1.109507454539871e+01
 1.636254835488351e+00	 1.913437500480409e+00	 1.103419109704521e+01
 1.617558991327481e+00	 1.929268183368077e+00	 1.097283652421940e+01
 1.598718009238052e+00	 1.944909624087577e+00	 1.091058077962057e+01
 1.579734772292671e+00	 1.960359845593514e+00	 1.084691394705764e+01
 1.560612198512368e+00	 1.975616928899960e+00	 1.078123404883918e+01
 1.541353239399171e+00	 1.990679013844190e+00	 1.071283533667654e+01
 1.521960878449509e+00	 2.005544299806321e+00	 1.064089717482528e+01
 1.502438129649991e+00	 2.020211046384286e+00	 1.056447362075639e+01
 1.699348083649004e+00	 1.873545753841653e+00	 1.120840269641784e+01
 1.681019321163821e+00	 1.890008311242132e+00	 1.115064421946713e+01
 1.662536277913326e+00	 1.906287042582017e+00	 1.109215237705779e+01
 1.643901736478401e+00	 1.922379791621388e+00	 1.103274359726489e+01
 1.625118518843751e+00	 1.938284457889748e+00	 1.097218353435010e+01
 1.606189484990515e+00	 1.953998997582363e+00	 1.091017351718662e+01
 1.587117531465082e+00	 1.969521424414292e+00	 1.084633725428755e+01
 1.567905589925593e+00	 1.984849810431399e+00	 1.078020791296290e+01
 1.548556625667660e+00	 1.999982286777658e+00	 1.071121568826169e+01
 1.529073636130813e+00	 2.014917044418150e+00	 1.063867597465658e+01
 1.509459649387265e+00	 2.029652334817199e+00	 1.056177824992027e+01
 1.439244452008559e+00	 1.935239450480789e+00	 1.054999236845104e+01
 1.420424064126019e+00	 1.949095167179954e+00	 1.047718887240855e+01
 1.401484658196326e+00	 1.962757610095271e+00	 1.040417238935033e+01
 1.382429188217795e+00	 1.976225297105190e+00	 1.033046324066585e+01
 1.363260631549399e+00	 1.989496805832294e+00	 1.025558151503137e+01
 1.343981987414468e+00	 2.002570774067260e+00	 1.017905413443691e+01
 1.324596275396540e+00	 2.015445900148260e+00	 1.010042199513943e+01
 1.305106533928907e+00	 2.028120943295701e+00	 1.001924714658881e+01
 1.285515818779372e+00	 2.040594723902260e+00	 9.935119970893153e+00
 1.265827201531748e+00	 2.052866123778234e+00	 9.847666325088809e+00
 1.246043768065609e+00	 2.064934086352260e+00	 9.756554608375845e+00
 1.446265971745832e+00	 1.944680738912957e+00	 1.055613045568974e+01
 1.427353766434444e+00	 1.958604052321127e+00	 1.048322528519976e+01
 1.408321962432589e+00	 1.972333149037044e+00	 1.040989490796014e+01
 1.389173528150020e+00	 1.985866539708448e+00	 1.033574510480007e+01
 1.369911455471122e+00	 1.999202795018684e+00	 1.026038404604085e+01
 1.350538758251296e+00	 2.012340546112726e+00	 1.018342941616459e+01
 1.331058470805490e+00	 2.025278484978434e+00	 1.010451561591299e+01
 1.311473646390358e+00	 2.038015364782921e+00	 1.002330100418349e+01
 1.291787355681640e+00	 2.050550000164011e+00	 9.939475141583728e+00
 1.272002685248241e+00	 2.062881267476771e+00	 9.852765997187733e+00
 1.252122736024575e+00	 2.075008104995231e+00	 9.762947079909095e+00
 1.453287491483503e+00	 1.954122027345941e+00	 1.056078984717564e+01
 1.434283468743216e+00	 1.968112937463113e+00	 1.048751727879626e+01
 1.415159266669127e+00	 1.981908687979623e+00	 1.041376567450904e+01
 1.395917868082436e+00	 1.995507782312504e+00	 1.033919728018411e+01
 1.376562279392938e+00	 2.008908784205859e+00	 1.026347866609960e+01
 1.357095529088119e+00	 2.022110318158961e+00	 1.018628795855096e+01
 1.337520666214332e+00	 2.035111069809351e+00	 1.010732215213960e+01
 1.317840758851606e+00	 2.047909786270851e+00	 1.002630446433534e+01
 1.298058892583617e+00	 2.060505276426422e+00	 9.942991693373296e+00
 1.278178168964372e+00	 2.072896411175912e+00	 9.857181540208295e+00
 1.258201703983125e+00	 2.085082123638732e+00	 9.768719855105770e+00
 1.460309011221474e+00	 1.963563315779558e+00	 1.056415387578113e+01
 1.441213171052248e+00	 1.977621822605723e+00	 1.049030525040291e+01
 1.421996570905871e+00	 1.991484226922818e+00	 1.041607278793565e+01
 1.402662208014993e+00	 2.005149024917166e+00	 1.034114655713795e+01
 1.383213103314824e+00	 2.018614773393629e+00	 1.026522220322231e+01
 1.363652299924933e+00	 2.031880090205773e+00	 1.018800833444767e+01
 1.343982861623090e+00	 2.044943654640826e+00	 1.010923399338692e+01
 1.324207871312695e+00	 2.057804207759311e+00	 1.002865617359629e+01
 1.304330429485367e+00	 2.070460552689331e+00	 9.946067341854244e+00
 1.284353652680216e+00	 2.082911554875504e+00	 9.861302925777471e+00
 1.264280671941339e+00	 2.095156142282631e+00	 9.774248726456573e+00
 1.467330530959642e+00	 1.973004604213624e+00	 1.056638719883893e+01
 1.448142873361452e+00	 1.987130707748768e+00	 1.049181044881752e+01
 1.428833875142753e+00	 2.001059765866438e+00	 1.041708492380004e+01
 1.409406547947644e+00	 2.014790267522241e+00	 1.034190021752832e+01
 1.389863927236755e+00	 2.028320762581800e+00	 1.026595207366251e+01
 1.370209070761741e+00	 2.041649862252976e+00	 1.018894997514929e+01
 1.350445057031786e+00	 2.054776239472675e+00	 1.011062482300784e+01
 1.330574983773668e+00	 2.067698629248126e+00	 1.003073666430021e+01
 1.310601966386950e+00	 2.080415828952570e+00	 9.949082428466191e+00
 1.290529136395846e+00	 2.092926698575398e+00	 9.865503630818564e+00
 1.270359639899302e+00	 2.105230160926795e+00	 9.779894001811209e+00
 1.474352050697912e+00	 1.982445892647958e+00	 1.056763578706173e+01
 1.455072575670744e+00	 1.996639592892062e+00	 1.049223498092865e+01
 1.435671179379703e+00	 2.010635304810290e+00	 1.041705135391566e+01
 1.416150887880340e+00	 2.024431510127538e+00	 1.034174606327653e+01
 1.396514751158705e+00	 2.038026751770182e+00	 1.026598631522489e+01
 1.376765841598539e+00	 2.051419634300378e+00	 1.018945320462782e+01
 1.356907252440442e+00	 2.064608824304714e+00	 1.011184964960783e+01
 1.336942096234569e+00	 2.077593050737120e+00	 1.003290837976788e+01
 1.316873503288429e+00	 2.090371105215975e+00	 9.952399936137473e+00
 1.296704620111340e+00	 2.102941842275443e+00	 9.870140640528076e+00
 1.276438607857098e+00	 2.115304179571091e+00	 9.786000491786853e+00
 1.481373570436181e+00	 1.991887181082375e+00	 1.056802691372774e+01
 1.462002277980036e+00	 2.006148478035417e+00	 1.049176181795063e+01
 1.442508483616653e+00	 2.020210843754184e+00	 1.041620196531805e+01
 1.422895227813035e+00	 2.034072752732862e+00	 1.034095244392414e+01
 1.403165575080651e+00	 2.047732740958582e+00	 1.026562361947347e+01
 1.383322612435326e+00	 2.061189406347791e+00	 1.018983927261333e+01
 1.363369447849079e+00	 2.074441409136758e+00	 1.011324483741420e+01
 1.343309208695441e+00	 2.087487472226115e+00	 1.003551569856957e+01
 1.323145040189864e+00	 2.100326381479381e+00	 9.956365504235995e+00
 1.302880103826771e+00	 2.112956985975488e+00	 9.875554451001625e+00
 1.282517575814808e+00	 2.125378198215387e+00	 9.792897497249433e+00
 1.488395090174350e+00	 2.001328469516690e+00	 1.056762085784335e+01
 1.468931980289240e+00	 2.015657363178644e+00	 1.049055480140529e+01
 1.449345787853533e+00	 2.029786382697931e+00	 1.041474727859331e+01
 1.429639567745679e+00	 2.043713995338023e+00	 1.033976828328932e+01
 1.409816399002565e+00	 2.057438730146807e+00	 1.026514336287416e+01
 1.389879383272101e+00	 2.070959178395024e+00	 1.019041038656011e+01
 1.369831643257720e+00	 2.084273993968623e+00	 1.011512813558444e+01
 1.349676321156327e+00	 2.097381893714938e+00	 1.003888495787682e+01
 1.329416577091317e+00	 2.110281657742623e+00	 9.961307442852217e+00
 1.309055587542217e+00	 2.122972129675382e+00	 9.882069071520764e+00
 1.288596543772518e+00	 2.135452216859550e+00	 9.800898796865962e+00
 1.495416609912320e+00	 2.010769757950721e+00	 1.056642651970179e+01
 1.475861682598271e+00	 2.025166248321555e+00	 1.048875864885955e+01
 1.456183092090273e+00	 2.039361921641337e+00	 1.041287846558750e+01
 1.436383907678225e+00	 2.053355237942827e+00	 1.033842310524374e+01
 1.416467222924424e+00	 2.067144719334666e+00	 1.026480563690622e+01
 1.396436154108864e+00	 2.080728950441888e+00	 1.019144974253420e+01
 1.376293838666387e+00	 2.094106578800125e+00	 1.011779870648763e+01
 1.356043433617270e+00	 2.107276315203409e+00	 1.004332447593443e+01
 1.335688113992849e+00	 2.120236934005534e+00	 9.967536746435904e+00
 1.315231071257752e+00	 2.132987273374975e+00	 9.889992026512052e+00
 1.294675511730311e+00	 2.145526235503449e+00	 9.810302634725835e+00
 1.502438129649991e+00	 2.020211046384286e+00	 1.056447362075639e+01
 1.482791384907042e+00	 2.034675133463963e+00	 1.048649718881129e+01
 1.463020396326807e+00	 2.048937460584213e+00	 1.041076736651781e+01
 1.443128247610624e+00	 2.062996480547081e+00	 1.033712705863921e+01
 1.423118046846202e+00	 2.076850708521966e+00	 1.026485127717729e+01
 1.402992924945612e+00	 2.090498722488195e+00	 1.019322155505949e+01
 1.382756034075102e+00	 2.103939163631078e+00	 1.012153715299493e+01
 1.362410546078315e+00	 2.117170736691352e+00	 1.004912457368065e+01
 1.341959650894524e+00	 2.130192210267950e+00	 9.975347106808711e+00
 1.321406554973451e+00	 2.143002417074116e+00	 9.899614357190234e+00
 1.300754479688268e+00	 2.155600254146950e+00	 9.821391708029140e+00
 1.509459649387265e+00	 2.029652334817199e+00	 1.056177824992027e+01
 1.489721087215467e+00	 2.044184018605681e+00	 1.048380239641364e+01
 1.469857700563063e+00	 2.058512999526367e+00	 1.040856650650593e+01
 1.449872587542830e+00	 2.072637723150594e+00	 1.033607094141222e+01
 1.429768870767876e+00	 2.086556697708517e+00	 1.026550189157471e+01
 1.409549695782345e+00	 2.100268494533754e+00	 1.019597108595479e+01
 1.389218229483886e+00	 2.113771748461301e+00	 1.012660554480878e+01
 1.368777658539505e+00	 2.127065158178596e+00	 1.005655759554477e+01
 1.348231187796402e+00	 2.140147486529707e+00	 9.985014925574003e+00
 1.327582038689390e+00	 2.153017560772655e+00	 9.911210622894739e+00
 1.306833447646476e+00	 2.165674272789922e+00	 9.834433154839786e+00
 1.246043768065609e+00	 2.064934086352260e+00	 9.756554608375845e+00
 1.226168617424059e+00	 2.076797617328380e+00	 9.663503273365020e+00
 1.206204861434282e+00	 2.088455786307836e+00	 9.570672082166205e+00
 1.186155621981970e+00	 2.099907725365980e+00	 9.478480108207194e+00
 1.166024029103347e+00	 2.111152628574411e+00	 9.387420882726833e+00
 1.145813219477351e+00	 2.122189751978526e+00	 9.298067553761477e+00
 1.125526334924996e+00	 2.133018413532060e+00	 9.211077754520220e+00
 1.105166520917274e+00	 2.143637992989114e+00	 9.127067980612370e+00
 1.084736925092983e+00	 2.154047931754155e+00	 9.044488429190062e+00
 1.064240695787830e+00	 2.164247732690559e+00	 8.962761063316083e+00
 1.043680980576090e+00	 2.174236959888308e+00	 8.882099543135038e+00
 1.252122736024575e+00	 2.075008104995231e+00	 9.762947079909095e+00
 1.232150622172797e+00	 2.086929513572642e+00	 9.671845087392548e+00
 1.212089470701480e+00	 2.098644558271196e+00	 9.581512438960772e+00
 1.191942418726775e+00	 2.110152366931992e+00	 9.492151593794329e+00
 1.171712611555121e+00	 2.121452129694827e+00	 9.404039069255250e+00
 1.151403201168088e+00	 2.132543098975642e+00	 9.317531144331873e+00
 1.131017344714400e+00	 2.143424589400743e+00	 9.233069266993969e+00
 1.110558203010569e+00	 2.154095977698305e+00	 9.151184063166818e+00
 1.090028939051491e+00	 2.164556702547637e+00	 9.070783440687386e+00
 1.069432716532368e+00	 2.174806264386788e+00	 8.990486127739569e+00
 1.048772698383257e+00	 2.184844225179117e+00	 8.910299205727856e+00
 1.258201703983125e+00	 2.085082123638732e+00	 9.768719855105770e+00
 1.238132626921085e+00	 2.097061409817345e+00	 9.679475617211734e+00
 1.217974079968215e+00	 2.108833330234900e+00	 9.591350994645367e+00
 1.197729215471119e+00	 2.120397008498238e+00	 9.504333441727692e+00
 1.177401194006455e+00	 2.131751630815366e+00	 9.418484147348572e+00
 1.156993182858414e+00	 2.142896445972768e+00	 9.333944285495882e+00
 1.136508354503433e+00	 2.153830765269333e+00	 9.250940964200034e+00
 1.115949885103539e+00	 2.164553962407309e+00	 9.169792838019575e+00
 1.095320953009723e+00	 2.175065473340847e+00	 9.089981044148217e+00
 1.074624737276678e+00	 2.185364796082680e+00	 9.009424720514206e+00
 1.053864416190243e+00	 2.195451490469542e+00	 8.927845794981279e+00
 1.264280671941339e+00	 2.095156142282631e+00	 9.774248726456573e+00
 1.244114631669005e+00	 2.107193306062380e+00	 9.686753879146053e+00
 1.223858689234566e+00	 2.119022102198859e+00	 9.600530892425018e+00
 1.203516012215075e+00	 2.130641650064662e+00	 9.515353697433202e+00
 1.183089776457407e+00	 2.142051131935998e+00	 9.431069711788645e+00
 1.162583164548375e+00	 2.153249792969909e+00	 9.347606640002631e+00
 1.141999364292123e+00	 2.164236941137859e+00	 9.264978966808334e+00
 1.121341567196197e+00	 2.175011947116178e+00	 9.183294106957156e+00
 1.100612966967678e+00	 2.185574244133864e+00	 9.102359658048220e+00
 1.079816758020751e+00	 2.195923327778331e+00	 9.019837893465564e+00
 1.058956133997031e+00	 2.206058755759699e+00	 8.934982092978521e+00
 1.270359639899302e+00	 2.105230160926795e+00	 9.779894001811209e+00
 1.250096636416645e+00	 2.117325202307636e+00	 9.694024470518540e+00
 1.229743298500614e+00	 2.129210874162990e+00	 9.609381909130935e+00
 1.209302808958716e+00	 2.140886291631203e+00	 9.525528080400294e+00
 1.188778358908038e+00	 2.152350633056695e+00	 9.442098060478999e+00
 1.168173146238016e+00	 2.163603139967063e+00	 9.358807592204650e+00
 1.147490374080503e+00	 2.174643117006349e+00	 9.275460125784209e+00
 1.126733249288560e+00	 2.185469931824967e+00	 9.191953508847453e+00
 1.105904980925358e+00	 2.196083014926766e+00	 9.108191995833597e+00
 1.085008778764575e+00	 2.206481859473844e+00	 9.021982494472306e+00
 1.064047851803605e+00	 2.216666021049707e+00	 8.931948143944577e+00
 1.276438607857098e+00	 2.115304179571091e+00	 9.786000491786853e+00
 1.256078641164087e+00	 2.127457098553002e+00	 9.701617540365172e+00
 1.235627907766439e+00	 2.139399646127206e+00	 9.618220409734501e+00
 1.215089605702110e+00	 2.151130933197805e+00	 9.535159922960121e+00
 1.194466941358404e+00	 2.162650134177428e+00	 9.451860117923047e+00
 1.173763127927380e+00	 2.173956486964225e+00	 9.367826156636500e+00
 1.152981383868600e+00	 2.185049292874829e+00	 9.282651916440098e+00
 1.132124931380640e+00	 2.195927916533730e+00	 9.196027223436840e+00
 1.111196994882764e+00	 2.206591785719634e+00	 9.107744689999267e+00
 1.090200799508143e+00	 2.217040391169320e+00	 9.016110763820548e+00
 1.069139569609947e+00	 2.227273286339682e+00	 8.920978386635889e+00
 1.282517575814808e+00	 2.125378198215387e+00	 9.792897497249433e+00
 1.262060645911418e+00	 2.137588994798368e+00	 9.709848760677730e+00
 1.241512517032122e+00	 2.149588418091424e+00	 9.627349302835150e+00
 1.220876402445331e+00	 2.161375574764410e+00	 9.544540110471505e+00
 1.200155523808568e+00	 2.172949635298165e+00	 9.460635360529093e+00
 1.179353109616515e+00	 2.184309833961400e+00	 9.374930888832047e+00
 1.158472393656445e+00	 2.195455468743327e+00	 9.286812335126211e+00
 1.137516613472454e+00	 2.206385901242524e+00	 9.195762923206996e+00
 1.116489008839898e+00	 2.217100556512544e+00	 9.101370836368588e+00
 1.095392820251444e+00	 2.227598922864857e+00	 9.004578554141489e+00
 1.074231287416040e+00	 2.237880551629742e+00	 8.915094805827598e+00
 1.288596543772518e+00	 2.135452216859550e+00	 9.800898796865962e+00
 1.268042650658722e+00	 2.147720891043624e+00	 9.719019298160712e+00
 1.247397126297743e+00	 2.159777190055557e+00	 9.637057997091162e+00
 1.226663199188451e+00	 2.171620216330958e+00	 9.553947022867129e+00
 1.205844106258587e+00	 2.183249136418879e+00	 9.468691743684300e+00
 1.184943091305464e+00	 2.194663180958584e+00	 9.380379798308692e+00
 1.163963403444068e+00	 2.205861644611872e+00	 9.288189798476855e+00
 1.142908295564015e+00	 2.216843885951400e+00	 9.191399659205336e+00
 1.121781022796761e+00	 2.227609327305577e+00	 9.091358593112888e+00
 1.100584840994468e+00	 2.238157454560556e+00	 8.999415257045158e+00
 1.079323005221868e+00	 2.248487816920004e+00	 8.916242268882465e+00
 1.294675511730311e+00	 2.145526235503449e+00	 9.810302634725835e+00
 1.274024655406083e+00	 2.157852787288659e+00	 9.729415786483571e+00
 1.253281735563383e+00	 2.169965962019520e+00	 9.647622358562609e+00
 1.232449995931541e+00	 2.181864857897394e+00	 9.563646477516103e+00
 1.211532688708521e+00	 2.193548637539539e+00	 9.476285630538669e+00
 1.190533072994271e+00	 2.205016527955778e+00	 9.384420263644877e+00
 1.169454413231497e+00	 2.216267820480490e+00	 9.287023045126038e+00
 1.148299977655338e+00	 2.227301870660416e+00	 9.184780977504349e+00
 1.127073036753353e+00	 2.238118098098812e+00	 9.088741380732406e+00
 1.105776861737206e+00	 2.248715986256517e+00	 9.002118695737005e+00
 1.084414723027415e+00	 2.259095082210585e+00	 8.923974237767606e+00
 1.300754479688268e+00	 2.155600254146950e+00	 9.821391708029140e+00
 1.280006660153588e+00	 2.167984683533363e+00	 9.741310299014634e+00
 1.259166344829122e+00	 2.180154733983227e+00	 9.659304668936215e+00
 1.238236792674671e+00	 2.192109499463656e+00	 9.573891673360468e+00
 1.217221271158431e+00	 2.203848138660117e+00	 9.483661722443777e+00
 1.196123054682984e+00	 2.215369874952981e+00	 9.387288949584503e+00
 1.174945423018762e+00	 2.226673996349209e+00	 9.284680496149935e+00
 1.153691659746438e+00	 2.237759855369623e+00	 9.186002375876967e+00
 1.132365050709676e+00	 2.248626868892327e+00	 9.094817081385621e+00
 1.110968882479647e+00	 2.259274517952842e+00	 9.012245681340158e+00
 1.089506440832663e+00	 2.269702347501604e+00	 8.937840056038741e+00
 1.306833447646476e+00	 2.165674272789922e+00	 9.834433154839786e+00
 1.285988664901319e+00	 2.178116579777626e+00	 9.754960322019574e+00
 1.265050954095041e+00	 2.190343505946594e+00	 9.672353584604869e+00
 1.244023589417914e+00	 2.202354141029690e+00	 9.584923136283280e+00
 1.222909853608373e+00	 2.214147639780581e+00	 9.491052990992120e+00
 1.201713036371646e+00	 2.225723221950192e+00	 9.389857170113146e+00
 1.180436432805895e+00	 2.237080172218058e+00	 9.290296941498667e+00
 1.159083341837330e+00	 2.248217840079079e+00	 9.196399523757421e+00
 1.137657064665731e+00	 2.259135639686202e+00	 9.109121214287971e+00
 1.116160903221783e+00	 2.269833049649630e+00	 9.029423249428399e+00
 1.094598158637595e+00	 2.280309612793177e+00	 8.957384972610251e+00
 1.043680980576090e+00	 2.174236959888308e+00	 8.882099543135038e+00
 1.023057414076163e+00	 2.184016882591212e+00	 8.801078595744531e+00
 1.002376628798517e+00	 2.193585468874133e+00	 8.716931134688878e+00
 9.816417620069242e-01	 2.202942463071542e+00	 8.627990607583879e+00
 9.608559445564259e-01	 2.212087669458564e+00	 8.532731084876627e+00
 9.400222995154951e-01	 2.221020951826259e+00	 8.429781993900887e+00
 9.191439408078784e-01	 2.229742233020532e+00	 8.324034992612731e+00
 8.982239718751820e-01	 2.238251494445587e+00	 8.224753242159311e+00
 8.772654843612165e-01	 2.246548775532827e+00	 8.131648152770863e+00
 8.562715568190792e-01	 2.254634173176159e+00	 8.044253319437257e+00
 8.352452534418976e-01	 2.262507841134675e+00	 7.962063089905147e+00
 1.048772698383257e+00	 2.184844225179117e+00	 8.910299205727856e+00
 1.028048517439987e+00	 2.194671860360594e+00	 8.828349034676965e+00
 1.007266838570510e+00	 2.204287128093098e+00	 8.741471534595062e+00
 9.864308143441195e-01	 2.213689771463796e+00	 8.647882323861420e+00
 9.655435908901191e-01	 2.222879593792942e+00	 8.545992555764313e+00
 9.446083065132529e-01	 2.231856458207075e+00	 8.443721942745118e+00
 9.236280903289257e-01	 2.240620287175688e+00	 8.347337046905286e+00
 9.026060609192621e-01	 2.249171062012257e+00	 8.256297590746286e+00
 8.815453250110364e-01	 2.257508822340549e+00	 8.170025572859243e+00
 8.604489761764429e-01	 2.265633665527168e+00	 8.087903111083058e+00
 8.393200935576505e-01	 2.273545746081336e+00	 8.009271080849611e+00
 1.053864416190243e+00	 2.195451490469542e+00	 8.927845794981277e+00
 1.033039620803674e+00	 2.205326838129571e+00	 8.842923616701595e+00
 1.012157048342402e+00	 2.214988787311654e+00	 8.751124198189761e+00
 9.912198666812503e-01	 2.224437079855661e+00	 8.651055475517733e+00
 9.702312372237811e-01	 2.233671518126961e+00	 8.552396549157425e+00
 9.491943135110128e-01	 2.242691964587576e+00	 8.459169097945068e+00
 9.281122398500072e-01	 2.251498341330579e+00	 8.370765779610510e+00
 9.069881499634109e-01	 2.260090629578717e+00	 8.286541967575760e+00
 8.858251656609608e-01	 2.268468869148112e+00	 8.205812977989233e+00
 8.646263955339504e-01	 2.276633157878071e+00	 8.127852157444817e+00
 8.433949336735893e-01	 2.284583651027932e+00	 8.051889796000527e+00
 1.058956133997031e+00	 2.206058755759699e+00	 8.934982092978521e+00
 1.038030724167202e+00	 2.215981815898270e+00	 8.845032689586777e+00
 1.017047258114176e+00	 2.225690446529943e+00	 8.747194494201363e+00
 9.960089190183030e-01	 2.235184388247276e+00	 8.651866905778256e+00
 9.749188835574061e-01	 2.244463442460766e+00	 8.561665279439659e+00
 9.537803205087744e-01	 2.253527470967900e+00	 8.475957536713501e+00
 9.325963893711308e-01	 2.262376395485339e+00	 8.394075662440237e+00
 9.113702390076419e-01	 2.271010197145090e+00	 8.315312159712468e+00
 8.901050063110080e-01	 2.279428915955637e+00	 8.238917429872458e+00
 8.688038148916206e-01	 2.287632650228975e+00	 8.164098046520960e+00
 8.474697737897313e-01	 2.295621555974563e+00	 8.090015886421009e+00
 1.064047851803605e+00	 2.216666021049707e+00	 8.931948143944579e+00
 1.043021827530553e+00	 2.226636793666822e+00	 8.836537298453692e+00
 1.021937467885815e+00	 2.236392105748100e+00	 8.744185966061124e+00
 1.000797971355265e+00	 2.245931696638787e+00	 8.656692313534377e+00
 9.796065298909861e-01	 2.255255366794496e+00	 8.573439343391311e+00
 9.583663275065396e-01	 2.264362977348188e+00	 8.493776680371335e+00
 9.370805388923055e-01	 2.273254449640102e+00	 8.417016096856615e+00
 9.157523280519704e-01	 2.281929764711507e+00	 8.342428025428038e+00
 8.943848469611959e-01	 2.290388962763239e+00	 8.269239032746917e+00
 8.729812342494726e-01	 2.298632142579989e+00	 8.196630222233377e+00
 8.515446139060926e-01	 2.306659460921329e+00	 8.123736526737479e+00
 1.069139569609947e+00	 2.227273286339682e+00	 8.920978386635891e+00
 1.048012930893708e+00	 2.237291771435356e+00	 8.831363375975194e+00
 1.026827677657301e+00	 2.247093764966262e+00	 8.746269487802433e+00
 1.005587023692124e+00	 2.256679005030333e+00	 8.665131625776969e+00
 9.842941762245155e-01	 2.266047291128293e+00	 8.587355392769620e+00
 9.629523345043084e-01	 2.275198483728578e+00	 8.512311529422108e+00
 9.415646884135382e-01	 2.284132503795002e+00	 8.439331398391518e+00
 9.201344170964086e-01	 2.292849332278092e+00	 8.367703494634114e+00
 8.986646876115424e-01	 2.301349009571039e+00	 8.296670954710727e+00
 8.771586536075255e-01	 2.309631634931223e+00	 8.225430031153351e+00
 8.556194540226880e-01	 2.317697365868327e+00	 8.153129491453628e+00
 1.074231287416040e+00	 2.237880551629742e+00	 8.915094805827598e+00
 1.053004034256647e+00	 2.247946749204004e+00	 8.832287060381939e+00
 1.031717887428616e+00	 2.257795424184569e+00	 8.753016902040988e+00
 1.010376076028865e+00	 2.267426313422054e+00	 8.676781070997190e+00
 9.889818225579872e-01	 2.276839215462300e+00	 8.603046106172673e+00
 9.675383415020815e-01	 2.286033990109211e+00	 8.531242640703761e+00
 9.460488379348373e-01	 2.295010557950173e+00	 8.460760784309164e+00
 9.245165061409721e-01	 2.303768899844974e+00	 8.390946571996977e+00
 9.029445282620665e-01	 2.312309056379156e+00	 8.321099450943198e+00
 8.813360729657986e-01	 2.320631127282785e+00	 8.250470770203124e+00
 8.596942941395357e-01	 2.328735270815660e+00	 8.178263231215679e+00
 1.079323005221868e+00	 2.248487816920004e+00	 8.916242268882465e+00
 1.057995137619352e+00	 2.258601726972893e+00	 8.838864708912483e+00
 1.036608097199743e+00	 2.268497083403154e+00	 8.763996402392339e+00
 1.015165128365476e+00	 2.278173621814093e+00	 8.691233155594331e+00
 9.936694688913944e-01	 2.287631139796659e+00	 8.620140165016835e+00
 9.721243484998596e-01	 2.296869496490224e+00	 8.550246108286750e+00
 9.505329874562106e-01	 2.305888612105750e+00	 8.481038364503565e+00
 9.288985951856746e-01	 2.314688467412282e+00	 8.411959342641289e+00
 9.072243689127861e-01	 2.323269103187708e+00	 8.342403888751633e+00
 8.855134923243116e-01	 2.331630619634787e+00	 8.271717735299150e+00
 8.637691342566510e-01	 2.339773175763425e+00	 8.199196949031949e+00
 1.084414723027415e+00	 2.259095082210585e+00	 8.923974237767606e+00
 1.062986240981803e+00	 2.269256704742154e+00	 8.850648887924255e+00
 1.041498306970664e+00	 2.279198742622159e+00	 8.778772520182548e+00
 1.019954180701943e+00	 2.288920930206591e+00	 8.708076644477195e+00
 9.983571152247301e-01	 2.298423064131510e+00	 8.638262233492757e+00
 9.767103554976440e-01	 2.307705002871758e+00	 8.568993547991038e+00
 9.550171369776660e-01	 2.316766666261867e+00	 8.499893135522505e+00
 9.332806842305301e-01	 2.325608034980140e+00	 8.430537980362089e+00
 9.115042095637194e-01	 2.334229149996815e+00	 8.360456774382294e+00
 8.896909116830837e-01	 2.342630111987336e+00	 8.289128270908467e+00
 8.678439743740496e-01	 2.350811080711722e+00	 8.215980676446197e+00
 1.089506440832663e+00	 2.269702347501604e+00	 8.937840056038741e+00
 1.067977344343980e+00	 2.279911682511916e+00	 8.867188375463057e+00
 1.046388516741361e+00	 2.289900401841721e+00	 8.796906115278368e+00
 1.024743233038254e+00	 2.299668238599689e+00	 8.726896545721537e+00
 1.003044761557988e+00	 2.309214988466998e+00	 8.657032942370002e+00
 9.812963624954339e-01	 2.318540509253951e+00	 8.587152085406256e+00
 9.595012864992107e-01	 2.327644720418656e+00	 8.517048977616412e+00
 9.376627732755526e-01	 2.336527602548675e+00	 8.446472758259199e+00
 9.157840502148837e-01	 2.345189196806593e+00	 8.375123781538854e+00
 8.938683310421330e-01	 2.353629604340541e+00	 8.302651820486993e+00
 8.719188144917486e-01	 2.361848985660650e+00	 8.228655349667758e+00
 1.094598158637595e+00	 2.280309612793177e+00	 8.957384972610251e+00
 1.072968447705866e+00	 2.290566660282311e+00	 8.888028167725595e+00
 1.051278726511817e+00	 2.300602061061976e+00	 8.817954370899530e+00
 1.029532285374395e+00	 2.310415546993532e+00	 8.747274099150438e+00
 1.007732407891162e+00	 2.320006912803262e+00	 8.676068876525136e+00
 9.858823694932318e-01	 2.329376015636943e+00	 8.604384347300259e+00
 9.639854360208543e-01	 2.338522774576255e+00	 8.532224654714080e+00
 9.420448623207566e-01	 2.347447170118017e+00	 8.459548061717772e+00
 9.200638908662985e-01	 2.356149243617164e+00	 8.386263781552961e+00
 8.980457504014802e-01	 2.364629096694514e+00	 8.312229977769826e+00
 8.759936546097636e-01	 2.372886890610309e+00	 8.237252885659316e+00
 8.352452534418976e-01	 2.262507841134675e+00	 7.962063089905149e+00
 8.141932040404012e-01	 2.270168704686935e+00	 7.882701217423122e+00
 7.931148666275997e-01	 2.277618384354930e+00	 7.804669673720626e+00
 7.720132525014609e-01	 2.284857198895241e+00	 7.728759184255764e+00
 7.508913538306855e-01	 2.291885521201577e+00	 7.655717863217071e+00
 7.297521425171570e-01	 2.298703777562011e+00	 7.586074542058737e+00
 7.085985690866226e-01	 2.305312446889960e+00	 7.519151269313717e+00
 6.874335616082110e-01	 2.311712059930026e+00	 7.454511222626858e+00
 6.662600246433584e-01	 2.317903198439830e+00	 7.391769956715638e+00
 6.450808382246573e-01	 2.323886494348967e+00	 7.330488242690202e+00
 6.238988568651008e-01	 2.329662628896258e+00	 7.270181567796419e+00
 8.393200935576505e-01	 2.273545746081336e+00	 8.009271080849608e+00
 8.181653393096966e-01	 2.281243984038448e+00	 7.931756606474012e+00
 7.969841688014329e-01	 2.288730007826404e+00	 7.854107440961775e+00
 7.757796080217697e-01	 2.296004137756878e+00	 7.777324367046669e+00
 7.545546637370265e-01	 2.303066748542787e+00	 7.702368840334351e+00
 7.333123223478319e-01	 2.309918268551901e+00	 7.630085235602197e+00
 7.120555487743934e-01	 2.316559179034074e+00	 7.560139312409491e+00
 6.907872853707413e-01	 2.322990013323212e+00	 7.492208628019227e+00
 6.695104508685300e-01	 2.329211356015104e+00	 7.426117051805560e+00
 6.482279393509019e-01	 2.335223842122297e+00	 7.361639473380587e+00
 6.269426192569020e-01	 2.341028156207110e+00	 7.298511153932687e+00
 8.433949336735893e-01	 2.284583651027932e+00	 8.051889796000527e+00
 8.221374745792263e-01	 2.292319263389933e+00	 7.975634175557391e+00
 8.008534709755509e-01	 2.299841631297877e+00	 7.898098235673146e+00
 7.795459635424148e-01	 2.307151076618534e+00	 7.820448036091300e+00
 7.582179736437547e-01	 2.314247975884032e+00	 7.743812872642910e+00
 7.368725021789425e-01	 2.321132759541838e+00	 7.669264895064967e+00
 7.155125284626430e-01	 2.327805911178251e+00	 7.596831515029881e+00
 6.941410091337868e-01	 2.334267966716474e+00	 7.526242153351353e+00
 6.727608770942443e-01	 2.340519513590476e+00	 7.457482292778439e+00
 6.513750404777073e-01	 2.346561189895747e+00	 7.390494096054947e+00
 6.299863816492691e-01	 2.352393683518116e+00	 7.325185675384676e+00
 8.474697737897313e-01	 2.295621555974563e+00	 8.090015886421009e+00
 8.261096098489987e-01	 2.303394542741476e+00	 8.014525996544096e+00
 8.047227731499506e-01	 2.310953254769425e+00	 7.936914624809186e+00
 7.833123190633794e-01	 2.318298015480277e+00	 7.858468899591075e+00
 7.618812835508370e-01	 2.325429203225369e+00	 7.780441028681935e+00
 7.404326820104390e-01	 2.332347250531873e+00	 7.704047834200366e+00
 7.189695081513052e-01	 2.339052643322525e+00	 7.629686916294506e+00
 6.974947328972684e-01	 2.345545920109837e+00	 7.557082882944727e+00
 6.760113033204114e-01	 2.351827671165955e+00	 7.486336741857080e+00
 6.545221416049760e-01	 2.357898537669316e+00	 7.417511702495585e+00
 6.330301440421030e-01	 2.363759210829256e+00	 7.350642429736236e+00
 8.515446139060926e-01	 2.306659460921329e+00	 8.123736526737478e+00
 8.300817451190226e-01	 2.314469822093170e+00	 8.048613418067140e+00
 8.085920753246294e-01	 2.322064878241130e+00	 7.970817505036083e+00
 7.870786745846458e-01	 2.329444954342175e+00	 7.891713335168412e+00
 7.655445934582404e-01	 2.336610430566855e+00	 7.812631659701872e+00
 7.439928618422714e-01	 2.343561741522050e+00	 7.734869170931155e+00
 7.224264878403162e-01	 2.350299375466934e+00	 7.659152315467106e+00
 7.008484566611066e-01	 2.356823873503326e+00	 7.585190235848112e+00
 6.792617295469414e-01	 2.363135828741553e+00	 7.513140562180315e+00
 6.576692427326104e-01	 2.369235885443000e+00	 7.443141929980805e+00
 6.360739064353038e-01	 2.375124738140515e+00	 7.375309869831517e+00
 8.556194540226880e-01	 2.317697365868327e+00	 8.153129491453626e+00
 8.340538803893057e-01	 2.325545101445102e+00	 8.078067170101905e+00
 8.124613774995837e-01	 2.333176501713068e+00	 8.000056229145073e+00
 7.908450301061967e-01	 2.340591893204298e+00	 7.920495531970589e+00
 7.692079033659318e-01	 2.347791657908552e+00	 7.840750551613997e+00
 7.475530416743912e-01	 2.354776232512418e+00	 7.762153288217769e+00
 7.258834675296103e-01	 2.361546107611512e+00	 7.685662355809693e+00
 7.042021804252226e-01	 2.368101826896963e+00	 7.611012050077696e+00
 6.825121557737439e-01	 2.374443986317279e+00	 7.538343097431772e+00
 6.608163438605135e-01	 2.380573233216797e+00	 7.467824531600787e+00
 6.391176688287713e-01	 2.386490265451872e+00	 7.399607660383404e+00
 8.596942941395357e-01	 2.328735270815660e+00	 8.178263231215679e+00
 8.380260156598577e-01	 2.336620380797361e+00	 8.103047467520687e+00
 8.163306796748108e-01	 2.344288125185321e+00	 8.024868730652450e+00
 7.946113856280153e-01	 2.351738832066712e+00	 7.945117630357103e+00
 7.728712132738780e-01	 2.358972885250515e+00	 7.865151074094831e+00
 7.511132215067484e-01	 2.365990723503021e+00	 7.786292440269855e+00
 7.293404472191224e-01	 2.372792839756293e+00	 7.709639605221600e+00
 7.075559041895373e-01	 2.379379780290770e+00	 7.634984663689196e+00
 6.857625820007281e-01	 2.385752143893143e+00	 7.562382948482201e+00
 6.639634449885869e-01	 2.391910580990699e+00	 7.491989443904557e+00
 6.421614312224057e-01	 2.397855792763311e+00	 7.423946732350421e+00
 8.637691342566510e-01	 2.339773175763425e+00	 8.199196949031949e+00
 8.419981509306863e-01	 2.347695660150037e+00	 8.123704112655595e+00
 8.201999818503082e-01	 2.355399748657967e+00	 8.045481646647620e+00
 7.983777411500840e-01	 2.362885770929490e+00	 7.965869859251683e+00
 7.765345231820463e-01	 2.370154112592804e+00	 7.886174326938946e+00
 7.546734013392934e-01	 2.377205214493908e+00	 7.807666398830983e+00
 7.327974269087872e-01	 2.384039571901315e+00	 7.731494633772499e+00
 7.109096279539713e-01	 2.390657733684773e+00	 7.657532992783254e+00
 6.890130082278044e-01	 2.397060301469157e+00	 7.585688047143945e+00
 6.671105461167337e-01	 2.403247928764708e+00	 7.516056851963278e+00
 6.452051936161074e-01	 2.409221320074814e+00	 7.448729335154019e+00
 8.678439743740496e-01	 2.350811080711722e+00	 8.215980676446193e+00
 8.459702862018003e-01	 2.358770939503219e+00	 8.140176596901584e+00
 8.240692840260720e-01	 2.366511372131084e+00	 8.062110438945357e+00
 8.021440966723860e-01	 2.374032709792697e+00	 7.983030671234506e+00
 7.801978330904034e-01	 2.381335339935474e+00	 7.904149283751602e+00
 7.582335811719777e-01	 2.388419705485127e+00	 7.826642698624132e+00
 7.362544065985398e-01	 2.395286304046612e+00	 7.751626088230746e+00
 7.142633517184466e-01	 2.401935687078992e+00	 7.679070606548237e+00
 6.922634344548824e-01	 2.408368459045330e+00	 7.608675727133484e+00
 6.702576472448561e-01	 2.414585276538819e+00	 7.540437251935250e+00
 6.482489560097761e-01	 2.420586847386362e+00	 7.474349086808870e+00
 8.719188144917486e-01	 2.361848985660650e+00	 8.228655349667758e+00
 8.499424214732082e-01	 2.369846218856997e+00	 8.152594201391546e+00
 8.279385862020997e-01	 2.377622995604753e+00	 8.074959513599488e+00
 8.059104521949041e-01	 2.385179648656404e+00	 7.996866875448994e+00
 7.838611429989160e-01	 2.392516567278589e+00	 7.919392933067221e+00
 7.617937610047513e-01	 2.399634196476723e+00	 7.843576781764339e+00
 7.397113862883156e-01	 2.406533036192221e+00	 7.770420763685056e+00
 7.176170754828831e-01	 2.413213640473455e+00	 7.699999799434186e+00
 6.955138606818717e-01	 2.419676616621673e+00	 7.631752792332136e+00
 6.734047483728567e-01	 2.425922624313028e+00	 7.565531511216415e+00
 6.512927184033118e-01	 2.431952374697937e+00	 7.501191022033701e+00
 8.759936546097636e-01	 2.372886890610309e+00	 8.237252885659316e+00
 8.539145567449189e-01	 2.380921498211461e+00	 8.161076096773725e+00
 8.318078883783890e-01	 2.388734619079054e+00	 8.084222338830248e+00
 8.096768077176207e-01	 2.396326587520681e+00	 8.007633768394232e+00
 7.875244529075517e-01	 2.403697794622201e+00	 7.932210416978810e+00
 7.653539408375650e-01	 2.410848687468746e+00	 7.858812139452178e+00
 7.431683659780487e-01	 2.417779768338177e+00	 7.788261297990123e+00
 7.209707992472020e-01	 2.424491593868182e+00	 7.720711660553734e+00
 6.987642869086825e-01	 2.430984774198198e+00	 7.655315582433659e+00
 6.765518495006377e-01	 2.437259972087332e+00	 7.591730926252088e+00
 6.543364807966153e-01	 2.443317902009523e+00	 7.529631638407455e+00
 6.238988568651008e-01	 2.329662628896258e+00	 7.270181567796419e+00
 6.027169088871679e-01	 2.335232332252483e+00	 7.211044184139217e+00
 5.815377963341855e-01	 2.340596384131158e+00	 7.153571779739625e+00
 5.603642931591380e-01	 2.345755611339822e+00	 7.097690623330846e+00
 5.391991440639011e-01	 2.350710886332164e+00	 7.043314213741965e+00
 5.180450636663835e-01	 2.355463126251403e+00	 6.990347773733656e+00
 4.969047357000295e-01	 2.360013291958952e+00	 6.938691940778713e+00
 4.757808122458337e-01	 2.364362387049507e+00	 6.888245674958672e+00
 4.546759129969786e-01	 2.368511456853728e+00	 6.838908407401797e+00
 4.335926245561674e-01	 2.372461587429615e+00	 6.790581455702202e+00
 4.125334997656784e-01	 2.376213904543731e+00	 6.743168735486829e+00
 6.269426192569020e-01	 2.341028156207110e+00	 7.298511153932687e+00
 6.056573327072935e-01	 2.346625032002550e+00	 7.237150050991159e+00
 5.843748954155117e-01	 2.352015253026048e+00	 7.178057649650636e+00
 5.630980948676139e-01	 2.357199650118806e+00	 7.121059998325122e+00
 5.418296891558433e-01	 2.362179099990875e+00	 7.065974182607529e+00
 5.205724061417083e-01	 2.366954524259851e+00	 7.012613004570778e+00
 4.993289426515788e-01	 2.371526888474810e+00	 6.960788829217380e+00
 4.781019637049557e-01	 2.375897201126596e+00	 6.910316618953963e+00
 4.568941017755183e-01	 2.380066512645623e+00	 6.861016180316889e+00
 4.357079560850317e-01	 2.384035914388345e+00	 6.812713650267089e+00
 4.145460919301312e-01	 2.387806537613495e+00	 6.765242252189369e+00
 6.299863816492691e-01	 2.352393683518116e+00	 7.325185675384676e+00
 6.085977565279778e-01	 2.358017731752811e+00	 7.262128888816664e+00
 5.872119944973764e-01	 2.363434121921177e+00	 7.201806404087775e+00
 5.658318965765983e-01	 2.368643688898085e+00	 7.143965203106205e+00
 5.444602342482563e-01	 2.373647313649935e+00	 7.088347499566138e+00
 5.230997486174599e-01	 2.378445922268706e+00	 7.034695571101793e+00
 5.017531496035071e-01	 2.383040484991136e+00	 6.982755728575239e+00
 4.804231151644056e-01	 2.387432015204210e+00	 6.932281444130668e+00
 4.591122905543342e-01	 2.391621568438098e+00	 6.883035663105221e+00
 4.378232876141220e-01	 2.395610241347700e+00	 6.834792328057663e+00
 4.165586840947632e-01	 2.399399170683929e+00	 6.787337146076699e+00
 6.330301440421030e-01	 2.363759210829256e+00	 7.350642429736236e+00
 6.115381803491238e-01	 2.369410431503231e+00	 7.286393138396395e+00
 5.900490935796920e-01	 2.374852990816499e+00	 7.225210656981119e+00
 5.685656982860154e-01	 2.380087727677589e+00	 7.166783682381015e+00
 5.470907793410781e-01	 2.385115527309262e+00	 7.110800728340601e+00
 5.256270910935917e-01	 2.389937320277871e+00	 7.056955078109247e+00
 5.041773565557833e-01	 2.394554081507813e+00	 7.004948843961315e+00
 4.827442666241680e-01	 2.398966829282216e+00	 6.954496156051192e+00
 4.613304793334258e-01	 2.403176624231006e+00	 6.905325506609726e+00
 4.399386191434487e-01	 2.407184568307527e+00	 6.857181278752533e+00
 4.185712762595917e-01	 2.410991803754864e+00	 6.809824492148161e+00
 6.360739064353038e-01	 2.375124738140515e+00	 7.375309869831517e+00
 6.144786041706355e-01	 2.380803131253777e+00	 7.310347511465198e+00
 5.928861926623690e-01	 2.386271859711958e+00	 7.248656268503531e+00
 5.712994999957884e-01	 2.391531766457254e+00	 7.189886968217474e+00
 5.497213244342467e-01	 2.396583740968771e+00	 7.133695233271203e+00
 5.281544335700581e-01	 2.401428718287243e+00	 7.079746522746670e+00
 5.066015635083779e-01	 2.406067678024726e+00	 7.027720249523039e+00
 4.850654180842291e-01	 2.410501643360485e+00	 6.977312997360650e+00
 4.635486681127918e-01	 2.414731680024202e+00	 6.928240864682008e+00
 4.420539506730217e-01	 2.418758895267668e+00	 6.880240965387742e+00
 4.205838684246333e-01	 2.422584436826135e+00	 6.833072120105094e+00
 6.391176688287713e-01	 2.386490265451872e+00	 7.399607660383404e+00
 6.174190279924162e-01	 2.392195831004416e+00	 7.334389032998330e+00
 5.957232917453198e-01	 2.397690728607512e+00	 7.272522375892201e+00
 5.740333017058401e-01	 2.402975805237013e+00	 7.213640702110407e+00
 5.523518695276994e-01	 2.408051954628383e+00	 7.157387195169045e+00
 5.306817760468125e-01	 2.412920116296725e+00	 7.103420306570948e+00
 5.090257704612611e-01	 2.417581274541758e+00	 7.051417898889055e+00
 4.873865695445748e-01	 2.422036457438888e+00	 7.001080458714637e+00
 4.657668568924319e-01	 2.426286735817544e+00	 6.952133407512661e+00
 4.441692822028515e-01	 2.430333222227966e+00	 6.904328541851415e+00
 4.225964605899051e-01	 2.434177069897573e+00	 6.857444637613037e+00
 6.421614312224057e-01	 2.397855792763311e+00	 7.423946732350421e+00
 6.203594518143691e-01	 2.403588530755115e+00	 7.358907081719003e+00
 5.985603908284557e-01	 2.409109597503106e+00	 7.297181422866930e+00
 5.767671034160946e-01	 2.414419844016799e+00	 7.238404655931165e+00
 5.549824146213750e-01	 2.419520168288011e+00	 7.182227626271077e+00
 5.332091185238089e-01	 2.424411514306216e+00	 7.128322246822439e+00
 5.114499774144027e-01	 2.429094871058797e+00	 7.076385634941530e+00
 4.897077210051902e-01	 2.433571271517293e+00	 7.026143289058285e+00
 4.679850456723454e-01	 2.437841791610885e+00	 6.977351334278988e+00
 4.462846137329476e-01	 2.441907549188263e+00	 6.929797869607833e+00
 4.246090527554246e-01	 2.445769702969011e+00	 6.883303452659746e+00
 6.452051936161074e-01	 2.409221320074814e+00	 7.448729335154019e+00
 6.232998756363978e-01	 2.414981230505839e+00	 7.384283428886691e+00
 6.013974899116882e-01	 2.420528466398691e+00	 7.322999187683020e+00
 5.795009051264755e-01	 2.425863882796548e+00	 7.264532751797068e+00
 5.576129597152107e-01	 2.430988381947572e+00	 7.208562384327514e+00
 5.357364610010008e-01	 2.435902912315620e+00	 7.154793586979520e+00
 5.138741843677731e-01	 2.440608467575725e+00	 7.102963198943207e+00
 4.920288724660611e-01	 2.445106085595568e+00	 7.052842505279666e+00
 4.702032344525316e-01	 2.449396847404084e+00	 7.004239385130615e+00
 4.483999452633208e-01	 2.453481876148405e+00	 6.956999533674431e+00
 4.266216449212083e-01	 2.457362336040283e+00	 6.911006795034988e+00
 6.482489560097761e-01	 2.420586847386362e+00	 7.474349086808870e+00
 6.262402994584055e-01	 2.426373930256555e+00	 7.410892275421841e+00
 6.042345889949289e-01	 2.431947335294218e+00	 7.350334809871078e+00
 5.822347068369058e-01	 2.437307921576191e+00	 7.292373080899194e+00
 5.602435048091446e-01	 2.442456595606986e+00	 7.236732185846223e+00
 5.382638034783426e-01	 2.447394310324834e+00	 7.183171006610601e+00
 5.162983913213419e-01	 2.452122064092428e+00	 7.131486239036088e+00
 4.943500239271729e-01	 2.456640899673585e+00	 7.081515401255012e+00
 4.724214232329899e-01	 2.460951903196996e+00	 7.033138852536149e+00
 4.505152767939808e-01	 2.465056203108232e+00	 6.986280857879827e+00
 4.286342370872734e-01	 2.468954969111218e+00	 6.940909736965238e+00
 6.512927184033118e-01	 2.431952374697937e+00	 7.501191022033701e+00
 6.291807232802961e-01	 2.437766630007230e+00	 7.439100287421122e+00
 6.070716880780894e-01	 2.443366204189638e+00	 7.379540815700139e+00
 5.849685085473089e-01	 2.448751960355663e+00	 7.322267921318637e+00
 5.628740499031146e-01	 2.453924809266169e+00	 7.267072618527228e+00
 5.407911459557874e-01	 2.458885708333761e+00	 7.213786630546352e+00
 5.187225982750796e-01	 2.463635660608789e+00	 7.162286318137609e+00
 4.966711753885114e-01	 2.468175713751214e+00	 7.112495556310240e+00
 4.746396120137196e-01	 2.472506958989474e+00	 7.064387592011381e+00
 4.526306083249380e-01	 2.476630530067589e+00	 7.017985919422581e+00
 4.306468292536370e-01	 2.480547602181652e+00	 6.973364212926740e+00
 6.543364807966153e-01	 2.443317902009523e+00	 7.529631638407455e+00
 6.321211471019724e-01	 2.449159329757832e+00	 7.469266630118035e+00
 6.099087871610814e-01	 2.454785073084901e+00	 7.410963142411728e+00
 5.877023102576083e-01	 2.460195999134898e+00	 7.354553754866990e+00
 5.655045949970589e-01	 2.465393022925037e+00	 7.299914152908121e+00
 5.433184884332892e-01	 2.470377106342298e+00	 7.246968037394833e+00
 5.211468052289564e-01	 2.475149257124695e+00	 7.195690921248907e+00
 4.989923268500625e-01	 2.479710527828324e+00	 7.146112843112783e+00
 4.768578007947197e-01	 2.484062014781376e+00	 7.098320032250144e+00
 4.547459398562025e-01	 2.488204857026319e+00	 7.052455562756212e+00
 4.326594214203159e-01	 2.492140235251415e+00	 7.008719038667644e+00
 4.125334997656784e-01	 2.376213904543731e+00	 6.743168735486835e+00
 3.914974846746676e-01	 2.379770160195517e+00	 6.696524532322076e+00
 3.704906509662546e-01	 2.383130900903741e+00	 6.651294788593572e+00
 3.495154531522007e-01	 2.386297364261357e+00	 6.608396110214494e+00
 3.285743094906340e-01	 2.389270823466315e+00	 6.568007546472474e+00
 3.076696014780085e-01	 2.392052586266657e+00	 6.530079982901058e+00
 2.868036733732932e-01	 2.394643993901914e+00	 6.494554388219669e+00
 2.659788317541617e-01	 2.397046420041817e+00	 6.461360328973155e+00
 2.451973451049160e-01	 2.399261269723312e+00	 6.430413382936894e+00
 2.244614434358507e-01	 2.401289978286870e+00	 6.401611609889274e+00
 2.037733179337277e-01	 2.403134010313020e+00	 6.374831234062125e+00
 4.145460919301312e-01	 2.387806537613495e+00	 6.765242252189372e+00
 3.934074502181658e-01	 2.391380142867838e+00	 6.718441421636363e+00
 3.722981322536418e-01	 2.394757279336404e+00	 6.672979738860264e+00
 3.512206045229110e-01	 2.397939190649891e+00	 6.629809322589379e+00
 3.301772970818259e-01	 2.400927156217697e+00	 6.589160053162592e+00
 3.091706030452184e-01	 2.403722490167867e+00	 6.550969266748653e+00
 2.882028781087685e-01	 2.406326540283331e+00	 6.515171209979577e+00
 2.672764401030287e-01	 2.408740686935430e+00	 6.481695331989981e+00
 2.463935685793374e-01	 2.410966342015751e+00	 6.450462959977705e+00
 2.255565044273258e-01	 2.413004947867242e+00	 6.421383014158569e+00
 2.047674495236877e-01	 2.414857976215561e+00	 6.394346922256951e+00
 4.165586840947632e-01	 2.399399170683929e+00	 6.787337146076699e+00
 3.953174157618014e-01	 2.402990125540865e+00	 6.740518644636166e+00
 3.741056135411290e-01	 2.406383657769801e+00	 6.695027652353831e+00
 3.529257558936889e-01	 2.409581017039176e+00	 6.651830254385265e+00
 3.317802846730574e-01	 2.412583488969838e+00	 6.611206130949363e+00
 3.106716046124439e-01	 2.415392394069836e+00	 6.573071211344859e+00
 2.896020828442400e-01	 2.418009086665496e+00	 6.537343835931896e+00
 2.685740484518765e-01	 2.420434953829769e+00	 6.503944493012150e+00
 2.475897920537281e-01	 2.422671414308882e+00	 6.472791738425945e+00
 2.266515654187626e-01	 2.424719917448262e+00	 6.443797135971762e+00
 2.057615811136056e-01	 2.426581942118699e+00	 6.416859384762886e+00
 4.185712762595917e-01	 2.410991803754864e+00	 6.809824492148161e+00
 3.972273813055933e-01	 2.414600108214422e+00	 6.763133627352306e+00
 3.759130948287334e-01	 2.418010036203747e+00	 6.717818654929509e+00
 3.546309072645461e-01	 2.421222843429023e+00	 6.674838990992782e+00
 3.333832722643324e-01	 2.424239821722548e+00	 6.634520631670189e+00
 3.121726061796808e-01	 2.427062297972374e+00	 6.596751699110884e+00
 2.910012875796936e-01	 2.429691633048220e+00	 6.561425802737828e+00
 2.698716568006819e-01	 2.432129220724651e+00	 6.528445991574042e+00
 2.487860155280567e-01	 2.434376486602534e+00	 6.497719898819753e+00
 2.277466264101230e-01	 2.436434887029771e+00	 6.469153888074628e+00
 2.067557127034392e-01	 2.438305908022283e+00	 6.442646373459889e+00
 4.205838684246333e-01	 2.422584436826135e+00	 6.833072120105094e+00
 3.991373468495608e-01	 2.426210090888331e+00	 6.786660601889193e+00
 3.777205761164721e-01	 2.429636414638058e+00	 6.741729752021450e+00
 3.563360586354951e-01	 2.432864669819247e+00	 6.699212709023626e+00
 3.349862598556561e-01	 2.435896154475637e+00	 6.659475748953794e+00
 3.136736077469243e-01	 2.438732201875289e+00	 6.622374182457958e+00
 2.924004923151157e-01	 2.441374179431319e+00	 6.587768422064904e+00
 2.711692651494211e-01	 2.443823487619898e+00	 6.555535963370590e+00
 2.499822390022911e-01	 2.446081558896534e+00	 6.525565734572955e+00
 2.288416874013686e-01	 2.448149856611605e+00	 6.497751427893053e+00
 2.077498442931463e-01	 2.450029873926163e+00	 6.471983991417090e+00
 4.225964605899051e-01	 2.434177069897573e+00	 6.857444637613037e+00
 4.010473123937230e-01	 2.437820073562415e+00	 6.811470635656570e+00
 3.795280574043626e-01	 2.441262793072553e+00	 6.767134862805230e+00
 3.580412100065475e-01	 2.444506496209657e+00	 6.725325688548756e+00
 3.365892474470330e-01	 2.447552487228917e+00	 6.686441037566226e+00
 3.151746093141706e-01	 2.450402105778394e+00	 6.650299709049214e+00
 2.937996970504916e-01	 2.453056725814603e+00	 6.616720810697270e+00
 2.724668734980712e-01	 2.455517754515326e+00	 6.585548534250098e+00
 2.511784624763995e-01	 2.457786631190705e+00	 6.556645689003704e+00
 2.299367483924613e-01	 2.459864826193602e+00	 6.529886196860677e+00
 2.087439758826850e-01	 2.461753839830194e+00	 6.505146733900302e+00
 4.246090527554246e-01	 2.445769702969011e+00	 6.883303452659746e+00
 4.029572779380994e-01	 2.449430056236502e+00	 6.837931659553369e+00
 3.813355386924220e-01	 2.452889171507047e+00	 6.794404853197261e+00
 3.597463613777159e-01	 2.456148322600068e+00	 6.753549324083849e+00
 3.381922350384677e-01	 2.459208819982196e+00	 6.715783431434594e+00
 3.166756108814149e-01	 2.462072009681500e+00	 6.680886945698169e+00
 2.951989017858080e-01	 2.464739272197888e+00	 6.648629919245086e+00
 2.737644818466083e-01	 2.467212021410754e+00	 6.618815852793380e+00
 2.523746859503502e-01	 2.469491703484878e+00	 6.591274390947131e+00
 2.310318093833624e-01	 2.471579795775599e+00	 6.565852958341288e+00
 2.097381074720129e-01	 2.473477805734224e+00	 6.542407527987995e+00
 4.266216449212083e-01	 2.457362336040283e+00	 6.911006795034988e+00
 4.048672434827089e-01	 2.461040038910412e+00	 6.866408495137724e+00
 3.831430199806681e-01	 2.464515549941359e+00	 6.823907567728135e+00
 3.614515127490123e-01	 2.467790148990290e+00	 6.784252134362916e+00
 3.397952226299646e-01	 2.470865152735286e+00	 6.747867260395151e+00
 3.181766124486530e-01	 2.473741913584417e+00	 6.714492200940995e+00
 2.965981065210505e-01	 2.476421818580986e+00	 6.683840559506643e+00
 2.750620901950093e-01	 2.478906288306000e+00	 6.655668121529807e+00
 2.535709094241114e-01	 2.481196775778877e+00	 6.629764689001542e+00
 2.321268703740340e-01	 2.483294765357434e+00	 6.605944834189429e+00
 2.107322390610882e-01	 2.485201771638106e+00	 6.584037770837796e+00
 4.286342370872734e-01	 2.468954969111218e+00	 6.940909736965238e+00
 4.067772090275708e-01	 2.472650021583969e+00	 6.897262880815650e+00
 3.849505012691176e-01	 2.476141928375305e+00	 6.856007860328430e+00
 3.631566641204488e-01	 2.479431975380138e+00	 6.817799770939063e+00
 3.413982102215286e-01	 2.482521485487996e+00	 6.783054265706136e+00
 3.196776140158805e-01	 2.485411817486954e+00	 6.751469446333379e+00
 2.979973112562054e-01	 2.488104364963712e+00	 6.722695430520773e+00
 2.763596985432505e-01	 2.490600555200884e+00	 6.696433626830190e+00
 2.547671328976512e-01	 2.492901848072529e+00	 6.672427684450361e+00
 2.332219313644375e-01	 2.495009734938943e+00	 6.650453339995244e+00
 2.117263706498684e-01	 2.496925737541690e+00	 6.630307366655365e+00
 4.306468292536370e-01	 2.480547602181652e+00	 6.973364212926742e+00
 4.086871745727042e-01	 2.484260004256995e+00	 6.930853497082039e+00
 3.867579825577879e-01	 2.487768306808700e+00	 6.891067624062304e+00
 3.648618154920374e-01	 2.491073801769423e+00	 6.854555025652599e+00
 3.430011978131645e-01	 2.494177818240136e+00	 6.821703614367045e+00
 3.211786155830930e-01	 2.497081721388922e+00	 6.792170336506476e+00
 2.993965159912581e-01	 2.499786911345875e+00	 6.765535143356498e+00
 2.776573068913087e-01	 2.502294822095222e+00	 6.741438767523911e+00
 2.559633563709381e-01	 2.504606920365662e+00	 6.719572762905550e+00
 2.343169923545347e-01	 2.506724704519965e+00	 6.699668419056435e+00
 2.127205022383115e-01	 2.508649703444827e+00	 6.681484762400045e+00
 4.326594214203159e-01	 2.492140235251415e+00	 7.008719038667644e+00
 4.105971401181285e-01	 2.495869986929317e+00	 6.967535990842922e+00
 3.885654638466965e-01	 2.499394685241366e+00	 6.929445819841888e+00
 3.665669668637908e-01	 2.502715628157958e+00	 6.894877837001655e+00
 3.446041854048766e-01	 2.505834150991519e+00	 6.864171912280026e+00
 3.226796171502864e-01	 2.508751625290133e+00	 6.836944228030232e+00
 3.007957207261955e-01	 2.511469457727293e+00	 6.812698244680044e+00
 2.789549152391606e-01	 2.513989088988836e+00	 6.791008082279325e+00
 2.571595798439399e-01	 2.516311992658100e+00	 6.771507624712199e+00
 2.354120533442874e-01	 2.518439674100336e+00	 6.753878475119319e+00
 2.137146338263755e-01	 2.520373669347368e+00	 6.737836982274183e+00
 2.037733179337277e-01	 2.403134010313020e+00	 6.374831234062125e+00
 1.831386162966987e-01	 2.404794591655733e+00	 6.350071581669766e+00
 1.625558893232980e-01	 2.406273570143068e+00	 6.327537529000967e+00
 1.420271619537141e-01	 2.407572490439764e+00	 6.307375887100244e+00
 1.215544205183665e-01	 2.408692922179425e+00	 6.289686177656847e+00
 1.011396125317910e-01	 2.409636458931244e+00	 6.274514144601246e+00
 8.078464651413944e-02	 2.410404717171622e+00	 6.261845300729555e+00
 6.049139183983414e-02	 2.410999335261436e+00	 6.251598620280999e+00
 4.026167861289927e-02	 2.411421972429716e+00	 6.243620480480971e+00
 2.009729756847499e-02	 2.411674307764435e+00	 6.237678946966195e+00
 0.000000000000000e+00	 2.411758039211112e+00	 6.233458489936359e+00
 2.047674495236877e-01	 2.414857976215561e+00	 6.394346922256951e+00
 1.840320791195033e-01	 2.416526658895159e+00	 6.369382420527520e+00
 1.633489369432221e-01	 2.418012852748941e+00	 6.346700464496468e+00
 1.427200578139556e-01	 2.419318109977481e+00	 6.326433792511976e+00
 1.221474377526829e-01	 2.420444007872032e+00	 6.308669024537888e+00
 1.016330337751324e-01	 2.421392147776208e+00	 6.293439472377506e+00
 8.117876371240909e-02	 2.422164154052581e+00	 6.280718001498171e+00
 6.078650605891144e-02	 2.422761673054973e+00	 6.270410059293873e+00
 4.045809984705444e-02	 2.423186372107160e+00	 6.262346976441052e+00
 2.019534454830315e-02	 2.423439938488749e+00	 6.256279639573328e+00
 0.000000000000000e+00	 2.423524078428890e+00	 6.251872625162766e+00
 2.057615811136056e-01	 2.426581942118699e+00	 6.416859384762886e+00
 1.849255419422651e-01	 2.428258726135113e+00	 6.392023641908162e+00
 1.641419845631057e-01	 2.429752135355267e+00	 6.369502829401421e+00
 1.434129536741608e-01	 2.431063729515575e+00	 6.349418170209948e+00
 1.227404549869690e-01	 2.432195093564937e+00	 6.331846114925058e+00
 1.021264550184501e-01	 2.433147836621392e+00	 6.316810420334965e+00
 8.157288091066196e-02	 2.433923590933692e+00	 6.304274296808392e+00
 6.108162027797844e-02	 2.434524010848600e+00	 6.294132743366834e+00
 4.065452108120465e-02	 2.434950771784647e+00	 6.286205180821259e+00
 2.029339152812995e-02	 2.435205569213073e+00	 6.280228484622211e+00
 0.000000000000000e+00	 2.435290117646667e+00	 6.275850510419987e+00
 2.067557127034392e-01	 2.438305908022283e+00	 6.442646373459889e+00
 1.858190047649413e-01	 2.439990793375465e+00	 6.418250245372963e+00
 1.649350321829083e-01	 2.441491417961937e+00	 6.396177476486267e+00
 1.441058495342937e-01	 2.442809349053952e+00	 6.376540563797546e+00
 1.233334722211946e-01	 2.443946179258065e+00	 6.359408752608357e+00
 1.026198762617207e-01	 2.444903525466741e+00	 6.344799352414623e+00
 8.196699810888133e-02	 2.445683027814914e+00	 6.332669139485396e+00
 6.137673449702472e-02	 2.446286348642293e+00	 6.322905969157372e+00
 4.085094231534483e-02	 2.446715171462164e+00	 6.315320712048238e+00
 2.039143850795406e-02	 2.446971199937408e+00	 6.309639619352651e+00
 0.000000000000000e+00	 2.447056156864444e+00	 6.305497213409293e+00
 2.077498442931463e-01	 2.450029873926163e+00	 6.471983991417090e+00
 1.867124675874896e-01	 2.451722860616081e+00	 6.448315644966957e+00
 1.657280798025894e-01	 2.453230700568834e+00	 6.426955677130303e+00
 1.447987453943182e-01	 2.454554968592517e+00	 6.408010883068861e+00
 1.239264894553292e-01	 2.455697264951343e+00	 6.391546501275658e+00
 1.031132975049203e-01	 2.456659214312201e+00	 6.377576734990276e+00
 8.236111530705044e-02	 2.457442464696212e+00	 6.366055378869094e+00
 6.167184871603997e-02	 2.458048686436032e+00	 6.356866678201331e+00
 4.104736354947001e-02	 2.458479571139703e+00	 6.349816538807370e+00
 2.048948548777412e-02	 2.458736830661746e+00	 6.344624196385758e+00
 0.000000000000000e+00	 2.458822196082222e+00	 6.340914444789152e+00
 2.087439758826850e-01	 2.461753839830194e+00	 6.505146733900302e+00
 1.876059304098669e-01	 2.463454927856830e+00	 6.482471711813043e+00
 1.665211274221085e-01	 2.464969983175846e+00	 6.462067165899296e+00
 1.454916412541982e-01	 2.466300588131177e+00	 6.444037451012488e+00
 1.245195066893427e-01	 2.467448350644694e+00	 6.428447234428086e+00
 1.036067187480255e-01	 2.468414903157716e+00	 6.415311190220662e+00
 8.275523250515249e-02	 2.469201901577547e+00	 6.404583818175251e+00
 6.196696293501384e-02	 2.469811024229792e+00	 6.396149518896982e+00
 4.124378478357518e-02	 2.470243970817252e+00	 6.389813047301697e+00
 2.058753246758876e-02	 2.470502461386087e+00	 6.385290456955363e+00
 0.000000000000000e+00	 2.470588235299999e+00	 6.382200638114101e+00
 2.097381074720129e-01	 2.473477805734224e+00	 6.542407527987995e+00
 1.884993932320305e-01	 2.475186995097580e+00	 6.520968815323208e+00
 1.673141750414251e-01	 2.476709265782857e+00	 6.501740183730118e+00
 1.461845371138974e-01	 2.478046207669837e+00	 6.484827049386018e+00
 1.251125239232047e-01	 2.479199436338047e+00	 6.470297183807891e+00
 1.041001399910126e-01	 2.480170592003232e+00	 6.458169547841619e+00
 8.314934970317073e-02	 2.480961338458882e+00	 6.448403270200678e+00
 6.226207715393601e-02	 2.481573362023554e+00	 6.440886906711416e+00
 4.144020601765534e-02	 2.482008370494801e+00	 6.435428106594843e+00
 2.068557944739666e-02	 2.482268092110429e+00	 6.431743802057310e+00
 0.000000000000000e+00	 2.482354274517777e+00	 6.429451027499884e+00
 2.107322390610882e-01	 2.485201771638106e+00	 6.584037770837796e+00
 1.893928560539378e-01	 2.486919062338196e+00	 6.564055863070951e+00
 1.681072226604987e-01	 2.488448548389754e+00	 6.546201519760697e+00
 1.468774329733799e-01	 2.489791827208402e+00	 6.530584962909131e+00
 1.257055411568849e-01	 2.490950522031324e+00	 6.517280986398384e+00
 1.045935612338579e-01	 2.491926280848693e+00	 6.506316895453773e+00
 8.354346690108840e-02	 2.492720775340180e+00	 6.497660611427502e+00
 6.255719137279610e-02	 2.493335699817292e+00	 6.491209082672853e+00
 4.163662725170549e-02	 2.493772770172340e+00	 6.486777132098764e+00
 2.078362642719645e-02	 2.494033722834768e+00	 6.484086861581254e+00
 0.000000000000000e+00	 2.494120313735555e+00	 6.482757723090470e+00
 2.117263706498684e-01	 2.496925737541690e+00	 6.630307366655368e+00
 1.902863188755460e-01	 2.498651129578548e+00	 6.611980339367812e+00
 1.689002702792886e-01	 2.500187830996423e+00	 6.595676551857682e+00
 1.475703288326093e-01	 2.501537446746779e+00	 6.581515022119047e+00
 1.262985583903529e-01	 2.502701607724452e+00	 6.569581730031119e+00
 1.050869824765379e-01	 2.503681969694043e+00	 6.559916627350798e+00
 8.393758409888881e-02	 2.504480212221403e+00	 6.552500834578850e+00
 6.285230559158378e-02	 2.505098037610986e+00	 6.547244170200507e+00
 4.183304848572063e-02	 2.505537169849857e+00	 6.543973147266994e+00
 2.088167340698677e-02	 2.505799353559101e+00	 6.542419561496497e+00
 0.000000000000000e+00	 2.505886352953332e+00	 6.542209784398676e+00
 2.127205022383115e-01	 2.508649703444827e+00	 6.681484762400045e+00
 1.911797816968125e-01	 2.510383196818503e+00	 6.664988342588586e+00
 1.696933178977546e-01	 2.511927113602750e+00	 6.650389285878830e+00
 1.482632246915496e-01	 2.513283066284874e+00	 6.637819644934066e+00
 1.268915756235786e-01	 2.514452693417356e+00	 6.627380997654671e+00
 1.055804037190289e-01	 2.515437658539228e+00	 6.619130491939282e+00
 8.433170129655508e-02	 2.516239649102512e+00	 6.613067099677273e+00
 6.314741981028874e-02	 2.516860375404613e+00	 6.609118230330311e+00
 4.202946971969576e-02	 2.517301569527344e+00	 6.607126843553453e+00
 2.097972038676630e-02	 2.517564984283426e+00	 6.606839189150024e+00
 0.000000000000000e+00	 2.517652392171109e+00	 6.607893291590838e+00
 2.137146338263755e-01	 2.520373669347368e+00	 6.737836982274182e+00
 1.920732445176944e-01	 2.522115264057928e+00	 6.723324621285675e+00
 1.704863655158561e-01	 2.523666396208623e+00	 6.710562393713595e+00
 1.489561205501646e-01	 2.525028685822591e+00	 6.699699876966126e+00
 1.274845928565317e-01	 2.526203779109965e+00	 6.690858910306282e+00
 1.060738249613073e-01	 2.527193347384191e+00	 6.684118637795240e+00
 8.472581849407057e-02	 2.527999085983472e+00	 6.679500783655115e+00
 6.344253402890059e-02	 2.528622713198150e+00	 6.676955315385783e+00
 4.222589095362587e-02	 2.529065969204788e+00	 6.676346638694515e+00
 2.107776736653368e-02	 2.529330615007741e+00	 6.677440456743671e+00
 0.000000000000000e+00	 2.529418431388888e+00	 6.679891414781240e+00
 2.529418431388888e+00	 0.000000000000000e+00	 1.135450821746741e+01
 2.529330615007742e+00	 2.107776736653228e-02	 1.135818450364314e+01
 2.529065969204789e+00	 4.222589095362466e-02	 1.136123753152700e+01
 2.528622713198150e+00	 6.344253402889960e-02	 1.136400866733570e+01
 2.527999085983472e+00	 8.472581849406979e-02	 1.136682535159152e+01
 2.527193347384190e+00	 1.060738249613067e-01	 1.136999831739353e+01
 2.526203779109965e+00	 1.274845928565313e-01	 1.137381868311923e+01
 2.525028685822592e+00	 1.489561205501645e-01	 1.137855493355838e+01
 2.523666396208624e+00	 1.704863655158562e-01	 1.138444980559569e+01
 2.522115264057927e+00	 1.920732445176947e-01	 1.139171709693281e+01
 2.520373669347368e+00	 2.137146338263755e-01	 1.140053841878897e+01
 2.541182470600015e+00	 0.000000000000000e+00	 1.133316938129196e+01
 2.541094245794829e+00	 2.117579768013353e-02	 1.133705641664286e+01
 2.540828369154224e+00	 4.242227879957017e-02	 1.134033609598585e+01
 2.540383051614103e+00	 6.373759808351404e-02	 1.134334246308753e+01
 2.539756523979878e+00	 8.511986869887170e-02	 1.134639630733057e+01
 2.538947037981611e+00	 1.065671623309755e-01	 1.134980230513235e+01
 2.537952867337390e+00	 1.280775092873552e-01	 1.135384602476497e+01
 2.536772308824175e+00	 1.496488986290959e-01	 1.135879080856013e+01
 2.535403683355427e+00	 1.712792783303062e-01	 1.136487454867934e+01
 2.533845337064673e+00	 1.929665554661972e-01	 1.137230637507749e+01
 2.532095642394227e+00	 2.147085964302575e-01	 1.138126327681551e+01
 2.552946509811243e+00	 0.000000000000000e+00	 1.131647955615801e+01
 2.552857876582004e+00	 2.127382799372398e-02	 1.132044352282590e+01
 2.552590769103712e+00	 4.261866664547566e-02	 1.132380052983697e+01
 2.552143390030056e+00	 6.403266213804579e-02	 1.132687824937092e+01
 2.551513961976212e+00	 8.551391890353954e-02	 1.132999193695252e+01
 2.550700728578883e+00	 1.070604997004554e-01	 1.133344149606164e+01
 2.549701955564575e+00	 1.286704257179368e-01	 1.133750839461035e+01
 2.548515931825427e+00	 1.503416767077384e-01	 1.134245244724085e+01
 2.547140970501812e+00	 1.720721911444323e-01	 1.134850847967439e+01
 2.545575410070911e+00	 1.938598664143581e-01	 1.135588289386751e+01
 2.543817615440498e+00	 2.157025590338025e-01	 1.136475015534016e+01
 2.564710549022671e+00	 0.000000000000000e+00	 1.130453167903123e+01
 2.564621507369369e+00	 2.137185830730632e-02	 1.130842209424420e+01
 2.564353169053359e+00	 4.281505449135117e-02	 1.131169119706680e+01
 2.563903728446118e+00	 6.432772619251548e-02	 1.131466124956515e+01
 2.563271399972595e+00	 8.590796910810689e-02	 1.131764310314005e+01
 2.562454419176130e+00	 1.075538370697937e-01	 1.132093318635694e+01
 2.561451043791657e+00	 1.292633421483366e-01	 1.132481033259636e+01
 2.560259554826494e+00	 1.510344547861641e-01	 1.132953246143305e+01
 2.558878257647923e+00	 1.728651039583156e-01	 1.133533313001249e+01
 2.557305483076795e+00	 1.947531773622626e-01	 1.134241797329916e+01
 2.555539588486343e+00	 2.166965216370948e-01	 1.135096105475973e+01
 2.576474588234399e+00	 0.000000000000000e+00	 1.129741985438561e+01
 2.576385138157022e+00	 2.146988862088326e-02	 1.130106990492589e+01
 2.576115569003268e+00	 4.301144233720666e-02	 1.130407025168283e+01
 2.575664066862400e+00	 6.462279024694383e-02	 1.130673871894975e+01
 2.575028837969143e+00	 8.630201931260718e-02	 1.130938289651146e+01
 2.574208109773476e+00	 1.080471744390374e-01	 1.131229705070962e+01
 2.573200132018768e+00	 1.298562585786154e-01	 1.131575886275922e+01
 2.572003177827513e+00	 1.517272328644453e-01	 1.132002600816495e+01
 2.570615544793909e+00	 1.736580167720367e-01	 1.132533259353213e+01
 2.569035556082481e+00	 1.956464883099964e-01	 1.133188546975290e+01
 2.567261561531917e+00	 2.176904842402187e-01	 1.133986044332258e+01
 2.588238627446527e+00	 0.000000000000000e+00	 1.129523932767084e+01
 2.588148768945068e+00	 2.156791893445751e-02	 1.129846619712989e+01
 2.587877968953546e+00	 4.320783018305217e-02	 1.130100159713679e+01
 2.587424405279014e+00	 6.491785430135147e-02	 1.130315989767569e+01
 2.586786275965975e+00	 8.669606951707402e-02	 1.130524658251840e+01
 2.585961800371051e+00	 1.085405118082340e-01	 1.130755508352762e+01
 2.584949220246041e+00	 1.304491750088335e-01	 1.131036342911011e+01
 2.583746800828628e+00	 1.524200109426542e-01	 1.131393072059396e+01
 2.582352831939924e+00	 1.744509295856770e-01	 1.131849345283815e+01
 2.580765629088123e+00	 1.965397992576448e-01	 1.132426169815107e+01
 2.578983534577381e+00	 2.186844468432583e-01	 1.133141517545523e+01
 2.600002666659154e+00	 0.000000000000000e+00	 1.129607441690799e+01
 2.599912399733606e+00	 2.166594924803175e-02	 1.129880905748668e+01
 2.599640368904295e+00	 4.340421802889768e-02	 1.130088139499253e+01
 2.599184743696070e+00	 6.521291835575914e-02	 1.130258243356351e+01
 2.598543713963207e+00	 8.709011972154085e-02	 1.130419097049129e+01
 2.597715490968976e+00	 1.090338491774305e-01	 1.130597190480287e+01
 2.596698308473613e+00	 1.310420914390517e-01	 1.130817441786610e+01
 2.595490423829979e+00	 1.531127890208632e-01	 1.131103001125708e+01
 2.594090119086111e+00	 1.752438423993172e-01	 1.131475038567213e+01
 2.592495702093875e+00	 1.974331102052931e-01	 1.131952535599317e+01
 2.590705507622891e+00	 2.196784094462979e-01	 1.132559441201581e+01
 2.611766705872382e+00	 0.000000000000000e+00	 1.129255641280756e+01
 2.611676030522740e+00	 2.176397956160869e-02	 1.129500029923975e+01
 2.611402768855624e+00	 4.360060587475319e-02	 1.129686062333010e+01
 2.610945082113678e+00	 6.550798241018749e-02	 1.129840726914095e+01
 2.610301151960959e+00	 8.748416992604117e-02	 1.129989884777062e+01
 2.609469181567379e+00	 1.095271865466743e-01	 1.130158109081868e+01
 2.608447396701614e+00	 1.316350078693304e-01	 1.130368512015085e+01
 2.607234046831710e+00	 1.538055670991444e-01	 1.130642557890390e+01
 2.605827406232622e+00	 1.760367552130385e-01	 1.130999860717110e+01
 2.604225775099892e+00	 1.983264211530269e-01	 1.131457964440775e+01
 2.602427480668607e+00	 2.206723720494217e-01	 1.132032103918981e+01
 2.623530745086310e+00	 0.000000000000000e+00	 1.128402169773767e+01
 2.623439661312569e+00	 2.186200987519104e-02	 1.128635782550538e+01
 2.623165168807636e+00	 4.379699372062871e-02	 1.128818640571933e+01
 2.622705420531950e+00	 6.580304646465721e-02	 1.128975624822493e+01
 2.622058589959346e+00	 8.787822013060856e-02	 1.129130588670651e+01
 2.621222872166386e+00	 1.100205239160126e-01	 1.129306206041234e+01
 2.620196484930180e+00	 1.322279242997304e-01	 1.129523807664592e+01
 2.618977669833960e+00	 1.544983451775701e-01	 1.129803203866583e+01
 2.617564693379604e+00	 1.768296680269218e-01	 1.130162492208498e+01
 2.615955848106327e+00	 1.992197321009316e-01	 1.130617848140224e+01
 2.614149453714686e+00	 2.216663346527142e-01	 1.131183296683026e+01
 2.635294784301037e+00	 0.000000000000000e+00	 1.127050076257795e+01
 2.635203292103195e+00	 2.196004018878149e-02	 1.127289282620169e+01
 2.634927568760435e+00	 4.399338156653423e-02	 1.127485218297340e+01
 2.634465758950995e+00	 6.609811051918897e-02	 1.127660660267502e+01
 2.633816027958488e+00	 8.827227033527649e-02	 1.127837463632629e+01
 2.632976562766121e+00	 1.105138612854925e-01	 1.128036418955524e+01
 2.631945573159444e+00	 1.328208407303120e-01	 1.128277098140222e+01
 2.630721292836872e+00	 1.551911232562127e-01	 1.128577687289645e+01
 2.629301980527206e+00	 1.776225808410481e-01	 1.128954804814431e+01
 2.627685921113337e+00	 2.001130430490926e-01	 1.129423302914686e+01
 2.625871426761286e+00	 2.226602972562594e-01	 1.129996050403400e+01
 2.647058823516666e+00	 0.000000000000000e+00	 1.125202511688196e+01
 2.646966922894720e+00	 2.205807050238275e-02	 1.125461763343725e+01
 2.646689968714130e+00	 4.418976941247976e-02	 1.125685265113948e+01
 2.646226097370926e+00	 6.639317457380349e-02	 1.125893692205751e+01
 2.645573465958502e+00	 8.866632054007843e-02	 1.126106909514760e+01
 2.644730253366712e+00	 1.110071986551615e-01	 1.126343838466533e+01
 2.643694661389540e+00	 1.334137571611361e-01	 1.126622312888672e+01
 2.642464915840589e+00	 1.558839013351444e-01	 1.126958922317101e+01
 2.641039267675579e+00	 1.784154936554983e-01	 1.127368840974625e+01
 2.639415994121075e+00	 2.010063539975953e-01	 1.127865640501552e+01
 2.637593399808569e+00	 2.236542598601416e-01	 1.128461084358507e+01
 2.520373669347368e+00	 2.137146338263755e-01	 1.140053841878897e+01
 2.518439674100336e+00	 2.354120533442864e-01	 1.141027367591344e+01
 2.516311992658099e+00	 2.571595798439389e-01	 1.142022444989316e+01
 2.513989088988836e+00	 2.789549152391597e-01	 1.143043687890813e+01
 2.511469457727293e+00	 3.007957207261947e-01	 1.144091895223277e+01
 2.508751625290133e+00	 3.226796171502858e-01	 1.145163757065687e+01
 2.505834150991519e+00	 3.446041854048761e-01	 1.146251572640319e+01
 2.502715628157957e+00	 3.665669668637903e-01	 1.147342984131780e+01
 2.499394685241365e+00	 3.885654638466962e-01	 1.148475624239896e+01
 2.495869986929317e+00	 4.105971401181284e-01	 1.149748022492249e+01
 2.492140235251415e+00	 4.326594214203160e-01	 1.151167456128190e+01
 2.532095642394227e+00	 2.147085964302575e-01	 1.138126327681551e+01
 2.530152652354164e+00	 2.365069281937824e-01	 1.139115228005553e+01
 2.528015075306297e+00	 2.583555999810166e-01	 1.140132091936081e+01
 2.525681368074885e+00	 2.802523030176367e-01	 1.141180867881670e+01
 2.523150018293388e+00	 3.021946876223661e-01	 1.142261637174062e+01
 2.520419545524991e+00	 3.241803635752561e-01	 1.143370302605161e+01
 2.517488502383388e+00	 3.462069005187475e-01	 1.144498288168948e+01
 2.514355475652799e+00	 3.682718283918615e-01	 1.145632253971806e+01
 2.511019087406221e+00	 3.903726378978258e-01	 1.146813959983611e+01
 2.507477996120833e+00	 4.125067810054189e-01	 1.148124663386650e+01
 2.503730897789521e+00	 4.346716714842763e-01	 1.149568300664955e+01
 2.543817615440498e+00	 2.157025590338025e-01	 1.136475015534016e+01
 2.541865630607339e+00	 2.376018030429722e-01	 1.137456711138426e+01
 2.539718157953787e+00	 2.595516201178409e-01	 1.138473075917243e+01
 2.537373647160183e+00	 2.815496907959297e-01	 1.139527731185708e+01
 2.534830578858700e+00	 3.035936545184337e-01	 1.140620387434125e+01
 2.532087465759049e+00	 3.256811100002074e-01	 1.141746514582083e+01
 2.529142853774447e+00	 3.478096156326836e-01	 1.142897022639869e+01
 2.525995323146834e+00	 3.699766899200739e-01	 1.144057956827825e+01
 2.522643489570280e+00	 3.921798119491595e-01	 1.145274451849549e+01
 2.519086005311579e+00	 4.144164218929572e-01	 1.146610841463156e+01
 2.515321560326891e+00	 4.366839215485024e-01	 1.148069025336646e+01
 2.555539588486343e+00	 2.166965216370948e-01	 1.135096105475973e+01
 2.553578608860023e+00	 2.386966778919325e-01	 1.136047125539804e+01
 2.551421240600726e+00	 2.607476402544753e-01	 1.137039805173704e+01
 2.549065926244885e+00	 2.828470785740848e-01	 1.138077778141679e+01
 2.546511139423381e+00	 3.049926214144235e-01	 1.139160732249469e+01
 2.543755385992448e+00	 3.271818564251445e-01	 1.140284060528854e+01
 2.540797205164834e+00	 3.494123307466684e-01	 1.141438521977234e+01
 2.537635170640189e+00	 3.716815514483922e-01	 1.142610098599454e+01
 2.534267891733667e+00	 3.939869860006464e-01	 1.143845801450421e+01
 2.530694014501664e+00	 4.163260627806813e-01	 1.145194446395480e+01
 2.526912222863624e+00	 4.386961716129281e-01	 1.146656748175041e+01
 2.567261561531917e+00	 2.176904842402187e-01	 1.133986044332258e+01
 2.565291587112371e+00	 2.397915527407395e-01	 1.134882016449097e+01
 2.563124323247277e+00	 2.619436603909830e-01	 1.135826912335168e+01
 2.560758205329150e+00	 2.841444663521479e-01	 1.136824719090957e+01
 2.558191699987583e+00	 3.063915883103612e-01	 1.137875451522669e+01
 2.555423306225337e+00	 3.286826028500721e-01	 1.138974783459506e+01
 2.552451556554686e+00	 3.510150458606853e-01	 1.140113687719268e+01
 2.549275018132996e+00	 3.733864129767809e-01	 1.141278954981201e+01
 2.545892293896499e+00	 3.957941600522356e-01	 1.142516853236618e+01
 2.542302023691200e+00	 4.182357036685296e-01	 1.143863505876977e+01
 2.538502885399824e+00	 4.407084216774866e-01	 1.145318720633334e+01
 2.578983534577381e+00	 2.186844468432583e-01	 1.133141517545523e+01
 2.577004565364544e+00	 2.408864275894701e-01	 1.133957157260502e+01
 2.574827405893596e+00	 2.631396805274275e-01	 1.134829245511921e+01
 2.572450484413132e+00	 2.854418541301653e-01	 1.135762465089270e+01
 2.569872260551458e+00	 3.077905552062732e-01	 1.136757509137063e+01
 2.567091226457862e+00	 3.301833492749949e-01	 1.137810691798182e+01
 2.564105907944143e+00	 3.526177609747185e-01	 1.138913566542255e+01
 2.560914865625385e+00	 3.750912745052051e-01	 1.140054393252066e+01
 2.557516696058900e+00	 3.976013341038759e-01	 1.141276586767038e+01
 2.553910032880299e+00	 4.201453445564396e-01	 1.142606177839115e+01
 2.550093547935589e+00	 4.427206717421115e-01	 1.144042319755816e+01
 2.590705507622891e+00	 2.196784094462979e-01	 1.132559441201581e+01
 2.588717543616705e+00	 2.419813024382006e-01	 1.133268541184926e+01
 2.586530488539842e+00	 2.643357006638717e-01	 1.134041859587020e+01
 2.584142763496989e+00	 2.867392419081826e-01	 1.134885118822051e+01
 2.581552821115158e+00	 3.091895221021852e-01	 1.135800043487592e+01
 2.578759146690166e+00	 3.316840956999179e-01	 1.136783949517052e+01
 2.575760259333342e+00	 3.542204760887517e-01	 1.137829339996451e+01
 2.572554713117484e+00	 3.767961360336290e-01	 1.138926390706651e+01
 2.569141098220988e+00	 3.994085081555160e-01	 1.140114109196327e+01
 2.565518042069070e+00	 4.220549854443498e-01	 1.141410742888456e+01
 2.561684210471020e+00	 4.447329218067363e-01	 1.142815040568087e+01
 2.602427480668607e+00	 2.206723720494217e-01	 1.132032103918981e+01
 2.600430521869011e+00	 2.430761772870078e-01	 1.132691797899352e+01
 2.598233571186176e+00	 2.655317208003796e-01	 1.133402434670432e+01
 2.595835042580875e+00	 2.880366296862458e-01	 1.134169533135848e+01
 2.593233381678834e+00	 3.105884889981231e-01	 1.134995738330785e+01
 2.590427066922397e+00	 3.331848421248455e-01	 1.135886866477026e+01
 2.587414610722422e+00	 3.558231912027688e-01	 1.136852314447252e+01
 2.584194560609425e+00	 3.785009975620179e-01	 1.137885050079312e+01
 2.580765500382884e+00	 4.012156822071051e-01	 1.139018647971787e+01
 2.577126051257626e+00	 4.239646263321980e-01	 1.140265596955287e+01
 2.573274873006220e+00	 4.467451718712948e-01	 1.141624488680766e+01
 2.614149453714686e+00	 2.216663346527142e-01	 1.131183296683026e+01
 2.612143500121622e+00	 2.441710521359680e-01	 1.131831794712072e+01
 2.609936653832756e+00	 2.667277409370140e-01	 1.132532650611983e+01
 2.607527321664946e+00	 2.893340174644009e-01	 1.133291136753114e+01
 2.604913942242638e+00	 3.119874558941128e-01	 1.134109820896403e+01
 2.602094987154699e+00	 3.346855885497827e-01	 1.134988222733988e+01
 2.599068962111520e+00	 3.574259063167534e-01	 1.135922436221952e+01
 2.595834408101338e+00	 3.802058590903362e-01	 1.136909145849257e+01
 2.592389902544710e+00	 4.030228562585921e-01	 1.137979543733346e+01
 2.588734060446075e+00	 4.258742672199222e-01	 1.139159244147232e+01
 2.584865535541289e+00	 4.487574219357204e-01	 1.140458373100049e+01
 2.625871426761286e+00	 2.226602972562594e-01	 1.129996050403400e+01
 2.623856478374698e+00	 2.452659269851580e-01	 1.130649217580307e+01
 2.621639736479741e+00	 2.679237610738385e-01	 1.131355863252813e+01
 2.619219600749361e+00	 2.906314052426940e-01	 1.132121167586989e+01
 2.616594502806720e+00	 3.133864227901804e-01	 1.132947780162554e+01
 2.613762907387218e+00	 3.361863349747341e-01	 1.133835486772862e+01
 2.610723313500775e+00	 3.590286214306895e-01	 1.134780841918886e+01
 2.607474255593350e+00	 3.819107206185485e-01	 1.135781400471297e+01
 2.604014304706583e+00	 4.048300303099257e-01	 1.136861240250356e+01
 2.600342069634530e+00	 4.277839081074605e-01	 1.138030521321008e+01
 2.596456198076328e+00	 4.507696719999465e-01	 1.139293987755860e+01
 2.637593399808569e+00	 2.236542598601416e-01	 1.128461084358507e+01
 2.635569456628400e+00	 2.463608018346543e-01	 1.129134283595626e+01
 2.633342819127290e+00	 2.691197812109162e-01	 1.129861828870062e+01
 2.630911879834275e+00	 2.919287930211712e-01	 1.130648957767686e+01
 2.628275063371235e+00	 3.147853896863519e-01	 1.131498555931620e+01
 2.625430827620100e+00	 3.376870813997045e-01	 1.132410834414636e+01
 2.622377664890327e+00	 3.606313365445611e-01	 1.133382972639464e+01
 2.619114103085594e+00	 3.836155821466198e-01	 1.134413021421850e+01
 2.615638706868630e+00	 4.066372043610554e-01	 1.135518115182360e+01
 2.611950078823102e+00	 4.296935489947508e-01	 1.136706336612236e+01
 2.608046860611437e+00	 4.527819220639069e-01	 1.137982417454439e+01
 2.492140235251415e+00	 4.326594214203160e-01	 1.151167456128190e+01
 2.488204857026321e+00	 4.547459398562011e-01	 1.152673280509086e+01
 2.484062014781376e+00	 4.768578007947185e-01	 1.154207101722502e+01
 2.479710527828324e+00	 4.989923268500613e-01	 1.155772725713567e+01
 2.475149257124697e+00	 5.211468052289554e-01	 1.157371668978311e+01
 2.470377106342299e+00	 5.433184884332887e-01	 1.159003118103142e+01
 2.465393022925037e+00	 5.655045949970583e-01	 1.160663901725824e+01
 2.460195999134898e+00	 5.877023102576081e-01	 1.162348475339768e+01
 2.454785073084902e+00	 6.099087871610815e-01	 1.164048919322836e+01
 2.449159329757832e+00	 6.321211471019728e-01	 1.165754950528853e+01
 2.443317902009523e+00	 6.543364807966154e-01	 1.167453947735078e+01
 2.503730897789521e+00	 4.346716714842763e-01	 1.149568300664955e+01
 2.499777216565140e+00	 4.568609118209625e-01	 1.151087138173914e+01
 2.495615106429166e+00	 4.790756125253626e-01	 1.152627993151044e+01
 2.491243381202102e+00	 5.013130837594582e-01	 1.154196272069276e+01
 2.486660896543932e+00	 5.235706001130878e-01	 1.155794927180180e+01
 2.481866551027577e+00	 5.458454013098438e-01	 1.157424410867454e+01
 2.476859287201637e+00	 5.681346929474472e-01	 1.159082642769546e+01
 2.471638092641230e+00	 5.904356472725720e-01	 1.160764990107032e+01
 2.466202000985764e+00	 6.127454039900432e-01	 1.162464261608645e+01
 2.460550092962392e+00	 6.350610711062951e-01	 1.164170715385761e+01
 2.454681497393970e+00	 6.573797258069195e-01	 1.165872081059160e+01
 2.515321560326891e+00	 4.366839215485024e-01	 1.148069025336646e+01
 2.511349576103268e+00	 4.589758837859779e-01	 1.149593369820860e+01
 2.507168198076315e+00	 4.812934242562227e-01	 1.151134657690953e+01
 2.502776234575298e+00	 5.036338406690130e-01	 1.152699520737990e+01
 2.498172535962656e+00	 5.259943949973069e-01	 1.154291987734637e+01
 2.493355995712419e+00	 5.483723141864076e-01	 1.155913434446303e+01
 2.488325551477878e+00	 5.707647908977659e-01	 1.157562546759541e+01
 2.483080186147286e+00	 5.931689842873918e-01	 1.159235297375608e+01
 2.477618928886434e+00	 6.155820208187996e-01	 1.160924936474275e+01
 2.471940856166844e+00	 6.380009951103695e-01	 1.162621996707818e+01
 2.466045092778392e+00	 6.604229708169574e-01	 1.164314312837850e+01
 2.526912222863624e+00	 4.386961716129281e-01	 1.146656748175041e+01
 2.522921935640794e+00	 4.610908557511835e-01	 1.148178522228798e+01
 2.518721289722907e+00	 4.835112359872444e-01	 1.149713437547181e+01
 2.514309087947988e+00	 5.059545975786868e-01	 1.151268982699154e+01
 2.509684175380929e+00	 5.284181898815917e-01	 1.152849910200038e+01
 2.504845440396872e+00	 5.508992270629778e-01	 1.154458183017125e+01
 2.499791815753796e+00	 5.733948888480312e-01	 1.156092934541238e+01
 2.494522279653088e+00	 5.959023213021032e-01	 1.157750442482992e+01
 2.489035856786921e+00	 6.184186376474020e-01	 1.159424117108583e+01
 2.483331619371184e+00	 6.409409191142571e-01	 1.161104504183508e+01
 2.477408688162777e+00	 6.634662158267962e-01	 1.162779302944287e+01
 2.538502885399824e+00	 4.407084216774866e-01	 1.145318720633334e+01
 2.534494295177809e+00	 4.632058277165162e-01	 1.146829268302590e+01
 2.530274381369018e+00	 4.857290477183744e-01	 1.148350788020292e+01
 2.525841941320240e+00	 5.082753544884396e-01	 1.149891263141848e+01
 2.521195814798811e+00	 5.308419847659198e-01	 1.151455823484766e+01
 2.516334885080985e+00	 5.534261399395525e-01	 1.153046689158802e+01
 2.511258080029428e+00	 5.760249867982614e-01	 1.154663128211478e+01
 2.505964373158662e+00	 5.986356583167429e-01	 1.156301428557184e+01
 2.500452784687239e+00	 6.212552544759014e-01	 1.157954884612840e+01
 2.494722382575414e+00	 6.438808431180206e-01	 1.159613799015553e+01
 2.488772283547106e+00	 6.665094608365019e-01	 1.161265499748075e+01
 2.550093547935589e+00	 4.427206717421115e-01	 1.144042319755816e+01
 2.546066654714405e+00	 4.653207996819123e-01	 1.145532399263735e+01
 2.541827473014733e+00	 4.879468594495582e-01	 1.147033269856544e+01
 2.537374794692122e+00	 5.105961113982319e-01	 1.148553054115405e+01
 2.532707454216360e+00	 5.332657796502698e-01	 1.150096918941955e+01
 2.527824329764806e+00	 5.559530528161293e-01	 1.151667017536456e+01
 2.522724344304813e+00	 5.786550847484744e-01	 1.153262445541720e+01
 2.517406466664033e+00	 6.013689953313466e-01	 1.154879211828859e+01
 2.511869712587399e+00	 6.240918713043492e-01	 1.156510224354645e+01
 2.506113145779532e+00	 6.468207671217223e-01	 1.158145291471390e+01
 2.500135878931366e+00	 6.695527058461412e-01	 1.159771139019224e+01
 2.561684210471020e+00	 4.447329218067363e-01	 1.142815040568087e+01
 2.557639014250670e+00	 4.674357716473083e-01	 1.144274817061546e+01
 2.553380564660131e+00	 4.901646711807421e-01	 1.145747541814874e+01
 2.548907648063709e+00	 5.129168683080243e-01	 1.147241127389462e+01
 2.544219093633638e+00	 5.356895745346200e-01	 1.148760443662234e+01
 2.539313774448384e+00	 5.584799656927062e-01	 1.150307258768931e+01
 2.534190608579985e+00	 5.812851826986868e-01	 1.151880194564512e+01
 2.528848560169227e+00	 6.041023323459501e-01	 1.153474697083304e+01
 2.523286640487416e+00	 6.269284881327972e-01	 1.155083022433946e+01
 2.517503908983536e+00	 6.497606911254237e-01	 1.156694238513928e+01
 2.511499474315539e+00	 6.725959508557806e-01	 1.158294242876233e+01
 2.573274873006220e+00	 4.467451718712948e-01	 1.141624488680766e+01
 2.569211373786698e+00	 4.695507436126410e-01	 1.143043526997978e+01
 2.564933656305293e+00	 4.923824829118719e-01	 1.144480353443963e+01
 2.560440501435068e+00	 5.152376252177771e-01	 1.145942327516778e+01
 2.555730733050704e+00	 5.381133694189482e-01	 1.147433693958246e+01
 2.550803219131768e+00	 5.610068785692810e-01	 1.148955523473143e+01
 2.545656872854987e+00	 5.839152806489174e-01	 1.150505668318064e+01
 2.540290653674270e+00	 6.068356693605897e-01	 1.152078733247749e+01
 2.534703568387301e+00	 6.297651049612967e-01	 1.153666062257654e+01
 2.528894672187427e+00	 6.527006151291873e-01	 1.155255741510012e+01
 2.522863069699612e+00	 6.756391958654863e-01	 1.156832618776861e+01
 2.584865535541289e+00	 4.487574219357204e-01	 1.140458373100049e+01
 2.580783733322578e+00	 4.716657155778467e-01	 1.141825630559375e+01
 2.576486747950301e+00	 4.946002946428939e-01	 1.143218538062761e+01
 2.571973354806273e+00	 5.175583821274509e-01	 1.144643565092533e+01
 2.567242372467616e+00	 5.405371643032326e-01	 1.146104009034916e+01
 2.562292663815007e+00	 5.635337914458513e-01	 1.147599936479784e+01
 2.557123137129852e+00	 5.865453785991828e-01	 1.149128139743986e+01
 2.551732747179185e+00	 6.095690063753012e-01	 1.150682109109777e+01
 2.546120496287068e+00	 6.326017217898990e-01	 1.152252021219440e+01
 2.540285435391203e+00	 6.556405391330754e-01	 1.153824744014180e+01
 2.534226665083569e+00	 6.786824408753251e-01	 1.155383858550305e+01
 2.596456198076328e+00	 4.507696719999465e-01	 1.139293987755860e+01
 2.592356092858401e+00	 4.737806875428618e-01	 1.140608318448640e+01
 2.588039839595234e+00	 4.968181063737537e-01	 1.141949005938132e+01
 2.583506208177389e+00	 5.198791390370061e-01	 1.143331810203900e+01
 2.578754011884437e+00	 5.429609591874521e-01	 1.144758764839666e+01
 2.573782108498150e+00	 5.660607043224150e-01	 1.146228631215018e+01
 2.568589401404618e+00	 5.891754765495012e-01	 1.147736856733377e+01
 2.563174840684000e+00	 6.123023433901210e-01	 1.149275549162784e+01
 2.557537424186727e+00	 6.354383386186556e-01	 1.150833467481412e+01
 2.551676198594861e+00	 6.585804631371494e-01	 1.152396029625350e+01
 2.545590260467393e+00	 6.817256858853633e-01	 1.153945337469430e+01
 2.608046860611437e+00	 4.527819220639069e-01	 1.137982417454439e+01
 2.603928452394260e+00	 4.758956595076235e-01	 1.139303743038125e+01
 2.599592931240172e+00	 4.990359181043979e-01	 1.140635729277320e+01
 2.595039061548492e+00	 5.221998959464028e-01	 1.141991932913921e+01
 2.590265651301225e+00	 5.453847540715844e-01	 1.143385368086975e+01
 2.585271553181248e+00	 5.685876171989703e-01	 1.144829744242990e+01
 2.580055665679325e+00	 5.918055744998906e-01	 1.146321037316683e+01
 2.574616934188739e+00	 6.150356804050853e-01	 1.147849709574479e+01
 2.568954352086292e+00	 6.382749554476177e-01	 1.149402856854540e+01
 2.563066961798404e+00	 6.615203871414722e-01	 1.150964219914179e+01
 2.556953855851073e+00	 6.847689308956677e-01	 1.152514213361886e+01
 2.443317902009523e+00	 6.543364807966154e-01	 1.167453947735078e+01
 2.437259972087333e+00	 6.765518495006358e-01	 1.169165668283993e+01
 2.430984774198198e+00	 6.987642869086806e-01	 1.170913195009882e+01
 2.424491593868182e+00	 7.209707992472003e-01	 1.172686261705211e+01
 2.417779768338177e+00	 7.431683659780475e-01	 1.174473060486768e+01
 2.410848687468746e+00	 7.653539408375639e-01	 1.176227126849268e+01
 2.403697794622202e+00	 7.875244529075509e-01	 1.177935012273390e+01
 2.396326587520680e+00	 8.096768077176199e-01	 1.179614343610269e+01
 2.388734619079054e+00	 8.318078883783887e-01	 1.181283517419916e+01
 2.380921498211461e+00	 8.539145567449189e-01	 1.182961698136096e+01
 2.372886890610308e+00	 8.759936546097636e-01	 1.184668789944678e+01
 2.454681497393970e+00	 6.573797258069195e-01	 1.165872081059160e+01
 2.448595392724587e+00	 6.796984156797793e-01	 1.167594629116557e+01
 2.442291009599554e+00	 7.020141606235637e-01	 1.169365352488759e+01
 2.435767630221981e+00	 7.243239529410104e-01	 1.171170244762007e+01
 2.429024588750321e+00	 7.466247580457785e-01	 1.172991592431714e+01
 2.422061272207436e+00	 7.689135155063730e-01	 1.174771206703486e+01
 2.414877121366762e+00	 7.911871401220905e-01	 1.176500298350694e+01
 2.407471631614379e+00	 8.134425230304988e-01	 1.178192881702731e+01
 2.399844353785801e+00	 8.356765328459052e-01	 1.179863857950458e+01
 2.391994894976254e+00	 8.578860168282028e-01	 1.181529028066617e+01
 2.383922919323300e+00	 8.800678020814680e-01	 1.183205078885526e+01
 2.466045092778392e+00	 6.604229708169574e-01	 1.164314312837850e+01
 2.459930813361904e+00	 6.828449818586693e-01	 1.166035551898056e+01
 2.453597245001054e+00	 7.052640343382314e-01	 1.167818053941978e+01
 2.447043666576002e+00	 7.276771066346625e-01	 1.169644648311539e+01
 2.440269409162767e+00	 7.500811501134239e-01	 1.171490201952706e+01
 2.433273856946504e+00	 7.724730901751748e-01	 1.173288208926185e+01
 2.426056448111769e+00	 7.948498273367013e-01	 1.175033987879836e+01
 2.418616675708593e+00	 8.172082383435229e-01	 1.176738325666776e+01
 2.410954088493125e+00	 8.395451773136281e-01	 1.178412977919901e+01
 2.403068291741678e+00	 8.618574769117360e-01	 1.180070696082787e+01
 2.394958948036971e+00	 8.841419495534385e-01	 1.181725227069938e+01
 2.477408688162777e+00	 6.634662158267962e-01	 1.162779302944287e+01
 2.471266233999250e+00	 6.859915480373695e-01	 1.164490024404461e+01
 2.464903480402653e+00	 7.085139080527380e-01	 1.166275347707725e+01
 2.458319702930186e+00	 7.310302603281967e-01	 1.168115505289246e+01
 2.451514229575438e+00	 7.535375421810048e-01	 1.169976135591605e+01
 2.444486441685853e+00	 7.760326648439708e-01	 1.171786370811279e+01
 2.437235774857116e+00	 7.985125145513656e-01	 1.173544807160461e+01
 2.429761719803198e+00	 8.209739536566557e-01	 1.175259378914936e+01
 2.422063823200891e+00	 8.434138217815059e-01	 1.176939036144413e+01
 2.414141688507590e+00	 8.658289369954552e-01	 1.178593785231668e+01
 2.405994976751173e+00	 8.882160970256083e-01	 1.180234701515210e+01
 2.488772283547106e+00	 6.665094608365019e-01	 1.161265499748075e+01
 2.482601654636595e+00	 6.891381142159427e-01	 1.162959361224692e+01
 2.476209715804300e+00	 7.117637817671368e-01	 1.164740956706737e+01
 2.469595739284468e+00	 7.343834140216524e-01	 1.166588480582748e+01
 2.462759049988254e+00	 7.569939342485424e-01	 1.168456247874902e+01
 2.455699026425394e+00	 7.795922395127628e-01	 1.170273525307196e+01
 2.448415101602694e+00	 8.021752017660664e-01	 1.172041075826136e+01
 2.440906763898074e+00	 8.247396689698610e-01	 1.173764345949396e+01
 2.433173557908964e+00	 8.472824662494862e-01	 1.175449810423057e+01
 2.425215085273849e+00	 8.698003970792990e-01	 1.177105025629677e+01
 2.417031005465756e+00	 8.922902444979112e-01	 1.178738654637944e+01
 2.500135878931366e+00	 6.695527058461412e-01	 1.159771139019224e+01
 2.493937075273909e+00	 6.922846803944526e-01	 1.161444603993903e+01
 2.487515951205951e+00	 7.150136554814818e-01	 1.163218279796041e+01
 2.480871775638787e+00	 7.377365677150687e-01	 1.165068873293554e+01
 2.474003870401134e+00	 7.604503263160586e-01	 1.166937009477920e+01
 2.466911611165025e+00	 7.831518141815534e-01	 1.168757109898124e+01
 2.459594428348392e+00	 8.058378889807848e-01	 1.170530716219785e+01
 2.452051807993097e+00	 8.285053842831025e-01	 1.172261142005053e+01
 2.444283292617213e+00	 8.511511107175188e-01	 1.173952707218438e+01
 2.436288482040308e+00	 8.737718571632052e-01	 1.175610803947432e+01
 2.428067034180569e+00	 8.963643919702798e-01	 1.177241933306478e+01
 2.511499474315539e+00	 6.725959508557806e-01	 1.158294242876233e+01
 2.505272495911160e+00	 6.954312465729625e-01	 1.159946521635382e+01
 2.498822186607558e+00	 7.182635291958268e-01	 1.161710393101411e+01
 2.492147811993078e+00	 7.410897214084853e-01	 1.163561604237970e+01
 2.485248690814003e+00	 7.639067183835752e-01	 1.165424515325311e+01
 2.478124195904658e+00	 7.867113888503441e-01	 1.167244175409176e+01
 2.470773755094103e+00	 8.095005761955035e-01	 1.169021262686637e+01
 2.463196852088146e+00	 8.322710995963437e-01	 1.170757302609836e+01
 2.455393027325502e+00	 8.550197551855511e-01	 1.172454771260529e+01
 2.447361878806827e+00	 8.777433172471111e-01	 1.174117172829918e+01
 2.439103062895466e+00	 9.004385394426491e-01	 1.175749087847059e+01
 2.522863069699612e+00	 6.756391958654863e-01	 1.156832618776862e+01
 2.516607916548318e+00	 6.985778127515359e-01	 1.158465610610760e+01
 2.510128422009076e+00	 7.215134029102256e-01	 1.160220051329262e+01
 2.503423848347279e+00	 7.444428751019412e-01	 1.162069838498085e+01
 2.496493511226777e+00	 7.673631104511131e-01	 1.163924492629774e+01
 2.489336780644195e+00	 7.902709635191362e-01	 1.165741394737825e+01
 2.481953081839715e+00	 8.131632634102036e-01	 1.167519870787313e+01
 2.474341896183098e+00	 8.360368149095492e-01	 1.169259993064891e+01
 2.466502762033698e+00	 8.588883996535318e-01	 1.170962695076073e+01
 2.458435275573263e+00	 8.817147773309545e-01	 1.172629860253975e+01
 2.450139091610291e+00	 9.045126869149515e-01	 1.174264381005248e+01
 2.534226665083569e+00	 6.786824408753251e-01	 1.155383858550305e+01
 2.527943337185352e+00	 7.017243789302358e-01	 1.157002095178299e+01
 2.521434657410457e+00	 7.247632766247322e-01	 1.158749689058573e+01
 2.514699884701325e+00	 7.477960287954755e-01	 1.160596706872525e+01
 2.507738331639380e+00	 7.708195025186938e-01	 1.162442308871000e+01
 2.500549365383543e+00	 7.938305381879324e-01	 1.164255071513936e+01
 2.493132408585122e+00	 8.168259506248683e-01	 1.166033326433540e+01
 2.485486940277832e+00	 8.398025302226819e-01	 1.167776017847168e+01
 2.477612496741668e+00	 8.627570441214093e-01	 1.169482828445912e+01
 2.469508672339472e+00	 8.856862374146740e-01	 1.171154278825130e+01
 2.461175120324902e+00	 9.085868343871213e-01	 1.172791796863921e+01
 2.545590260467393e+00	 6.817256858853633e-01	 1.153945337469430e+01
 2.539278757822231e+00	 7.048709451091262e-01	 1.155555927659000e+01
 2.532740892811654e+00	 7.280131503394001e-01	 1.157301422013515e+01
 2.525975921055156e+00	 7.511491824891279e-01	 1.159145862902958e+01
 2.518983152051732e+00	 7.742758945863391e-01	 1.160982979716666e+01
 2.511761950122605e+00	 7.973901128567338e-01	 1.162791148690642e+01
 2.504311735330214e+00	 8.204886378394793e-01	 1.164568054948939e+01
 2.496631984372224e+00	 8.435682455357060e-01	 1.166311829936808e+01
 2.488722231449278e+00	 8.666256885891321e-01	 1.168021187792489e+01
 2.480582069105311e+00	 8.896576974982069e-01	 1.169695535015607e+01
 2.472211149039145e+00	 9.126609818590912e-01	 1.171335049719304e+01
 2.556953855851073e+00	 6.847689308956677e-01	 1.152514213361886e+01
 2.550614178458926e+00	 7.080175112882698e-01	 1.154126788710286e+01
 2.544047128212621e+00	 7.312630240542837e-01	 1.155877048317343e+01
 2.537251957408708e+00	 7.545023361829379e-01	 1.157720633097371e+01
 2.530227972463756e+00	 7.777322866540705e-01	 1.159551176887304e+01
 2.522974534861289e+00	 8.009496875255432e-01	 1.161355217068189e+01
 2.515491062074882e+00	 8.241513250540192e-01	 1.163130130057175e+01
 2.507777028466152e+00	 8.473339608485850e-01	 1.164873540071690e+01
 2.499831966156395e+00	 8.704943330566491e-01	 1.166583465499708e+01
 2.491655465870640e+00	 8.936291575814912e-01	 1.168258438345423e+01
 2.483247177752872e+00	 9.167351293307960e-01	 1.169897592916253e+01
 2.372886890610308e+00	 8.759936546097636e-01	 1.184668789944678e+01
 2.364629096694514e+00	 8.980457504014793e-01	 1.186364440209940e+01
 2.356149243617164e+00	 9.200638908662977e-01	 1.187996868255209e+01
 2.347447170118017e+00	 9.420448623207559e-01	 1.189571119667258e+01
 2.338522774576256e+00	 9.639854360208536e-01	 1.191093306710787e+01
 2.329376015636943e+00	 9.858823694932308e-01	 1.192570445015449e+01
 2.320006912803263e+00	 1.007732407891161e+00	 1.194010248988089e+01
 2.310415546993532e+00	 1.029532285374395e+00	 1.195420883954126e+01
 2.300602061061977e+00	 1.051278726511816e+00	 1.196810673229950e+01
 2.290566660282311e+00	 1.072968447705865e+00	 1.198187758549047e+01
 2.280309612793177e+00	 1.094598158637595e+00	 1.199559712507840e+01
 2.383922919323300e+00	 8.800678020814680e-01	 1.183205078885526e+01
 2.375626719341285e+00	 9.022224596779463e-01	 1.184854359380329e+01
 2.367107427425571e+00	 9.243430040250816e-01	 1.186432335196282e+01
 2.358364881565929e+00	 9.464262064929442e-01	 1.187947783028029e+01
 2.349398979668940e+00	 9.684688233210238e-01	 1.189410592256489e+01
 2.340209680187343e+00	 9.904675969555951e-01	 1.190831600616165e+01
 2.330797002715049e+00	 1.012419257412021e+00	 1.192222387414489e+01
 2.321161028546737e+00	 1.034320523661010e+00	 1.193595022222055e+01
 2.311301901201052e+00	 1.056168105037802e+00	 1.194961767155174e+01
 2.301219826906433e+00	 1.077958702673206e+00	 1.196334731098341e+01
 2.290915075048622e+00	 1.099689010945389e+00	 1.197725474463531e+01
 2.394958948036971e+00	 8.841419495534385e-01	 1.181725227069938e+01
 2.386624341988779e+00	 9.063991689546668e-01	 1.183340655284788e+01
 2.378065611234732e+00	 9.286221171840802e-01	 1.184877999011710e+01
 2.369282593014624e+00	 9.508075506652894e-01	 1.186348937411399e+01
 2.360275184762417e+00	 9.729522106212790e-01	 1.187766318885755e+01
 2.351043344738536e+00	 9.950528244179672e-01	 1.189143997213466e+01
 2.341587092627619e+00	 1.017106106932811e+00	 1.190496624044901e+01
 2.331906510100701e+00	 1.039108761947485e+00	 1.191839395585565e+01
 2.322001741340848e+00	 1.061057483563589e+00	 1.193187751504421e+01
 2.311872993531216e+00	 1.082948957640311e+00	 1.194557024334992e+01
 2.301520537304653e+00	 1.104779863252935e+00	 1.195962037892571e+01
 2.405994976751173e+00	 8.882160970256083e-01	 1.180234701515210e+01
 2.397621964636839e+00	 9.105758782315774e-01	 1.181826993470124e+01
 2.389023795044496e+00	 9.329012303432397e-01	 1.183335904715930e+01
 2.380200304463944e+00	 9.551888948377525e-01	 1.184775195843046e+01
 2.371151389856539e+00	 9.774355979216002e-01	 1.186159863819594e+01
 2.361877009290385e+00	 9.996380518803476e-01	 1.187505980087376e+01
 2.352377182540841e+00	 1.021792956453554e+00	 1.188830483804614e+01
 2.342651991655301e+00	 1.043897000233862e+00	 1.190150927970274e+01
 2.332701581481249e+00	 1.065946862089237e+00	 1.191485176376516e+01
 2.322526160156563e+00	 1.087939212607252e+00	 1.192851049572877e+01
 2.312125999561188e+00	 1.109870715560313e+00	 1.194265918287390e+01
 2.417031005465756e+00	 8.922902444979112e-01	 1.178738654637944e+01
 2.408619587285316e+00	 9.147525875086143e-01	 1.180316766863301e+01
 2.399981978854706e+00	 9.371803435025070e-01	 1.181807863530791e+01
 2.391118015913739e+00	 9.595702390102946e-01	 1.183226972982139e+01
 2.382027594951160e+00	 9.819189852219670e-01	 1.184590437692362e+01
 2.372710673842744e+00	 1.004223279342738e+00	 1.185915755822927e+01
 2.363167272454579e+00	 1.026479805974270e+00	 1.187221376688743e+01
 2.353397473210415e+00	 1.048685238520183e+00	 1.188526447774665e+01
 2.343401421622147e+00	 1.070836240614807e+00	 1.189850511153547e+01
 2.333179326782376e+00	 1.092929467574104e+00	 1.191213147400460e+01
 2.322731461818143e+00	 1.114961567867608e+00	 1.192634087694226e+01
 2.428067034180569e+00	 8.963643919702798e-01	 1.177241933306478e+01
 2.419617209934054e+00	 9.189292967857142e-01	 1.178813104302635e+01
 2.410940162665208e+00	 9.414594566618283e-01	 1.180295460959308e+01
 2.402035727363856e+00	 9.639515831828777e-01	 1.181704492805009e+01
 2.392903800046126e+00	 9.864023725223586e-01	 1.183057091916434e+01
 2.383544338395472e+00	 1.008808506805137e+00	 1.184371399430488e+01
 2.373957362368700e+00	 1.031166655494983e+00	 1.185666604716479e+01
 2.364142954765918e+00	 1.053473476806489e+00	 1.186962694740109e+01
 2.354101261763429e+00	 1.075725619140358e+00	 1.188280151372093e+01
 2.343832493408554e+00	 1.097919722540942e+00	 1.189639594642201e+01
 2.333336924075433e+00	 1.120052420174902e+00	 1.191064119463658e+01
 2.439103062895466e+00	 9.004385394426491e-01	 1.175749087847059e+01
 2.430614832582902e+00	 9.231060060628142e-01	 1.177318879043505e+01
 2.421898346475851e+00	 9.457385698211500e-01	 1.178800064852754e+01
 2.412953438814143e+00	 9.683329273554632e-01	 1.180207796299072e+01
 2.403780005141293e+00	 9.908857598227558e-01	 1.181558726071869e+01
 2.394378002948428e+00	 1.013393734267548e+00	 1.182870861503618e+01
 2.384747452283071e+00	 1.035853505015712e+00	 1.184163368933053e+01
 2.374888436321685e+00	 1.058261715092823e+00	 1.185456326876381e+01
 2.364801101904982e+00	 1.080614997665952e+00	 1.186770425655166e+01
 2.354485660035001e+00	 1.102909977507840e+00	 1.188126611383236e+01
 2.343942386332973e+00	 1.125143272482278e+00	 1.189552330023937e+01
 2.450139091610291e+00	 9.045126869149515e-01	 1.174264381005248e+01
 2.441612455231704e+00	 9.272827153398515e-01	 1.175836717239336e+01
 2.432856530286477e+00	 9.500176829804193e-01	 1.177322833471326e+01
 2.423871150264447e+00	 9.727142715280124e-01	 1.178736749166644e+01
 2.414656210236511e+00	 9.953691471231376e-01	 1.180094095320270e+01
 2.405211667501470e+00	 1.017978961729968e+00	 1.181411975413255e+01
 2.395537542197560e+00	 1.040540354536482e+00	 1.182708776457974e+01
 2.385633917877594e+00	 1.063049953379227e+00	 1.184003927440952e+01
 2.375500942046697e+00	 1.085504376191647e+00	 1.185317602702960e+01
 2.365138826661617e+00	 1.107900232474871e+00	 1.186670368055294e+01
 2.354547848590680e+00	 1.130234124789819e+00	 1.188094998782218e+01
 2.461175120324902e+00	 9.085868343871213e-01	 1.172791796863921e+01
 2.452610077880307e+00	 9.314594246167620e-01	 1.174369006398689e+01
 2.443814714096933e+00	 9.542967961395824e-01	 1.175864723538586e+01
 2.434788861714616e+00	 9.770956157004861e-01	 1.177291049538351e+01
 2.425532415331633e+00	 9.998525344234849e-01	 1.178661817842090e+01
 2.416045332054454e+00	 1.022564189192400e+00	 1.179992464537148e+01
 2.406327632112029e+00	 1.045227204057313e+00	 1.181299847578022e+01
 2.396379399433521e+00	 1.067838191665744e+00	 1.182602011970334e+01
 2.386200782188459e+00	 1.090393754717506e+00	 1.183917898340533e+01
 2.375791993288304e+00	 1.112890487442111e+00	 1.185267081475578e+01
 2.365153310848470e+00	 1.135324977097609e+00	 1.186688420766122e+01
 2.472211149039145e+00	 9.126609818590912e-01	 1.171335049719304e+01
 2.463607700528561e+00	 9.356361338934829e-01	 1.172917903819166e+01
 2.454772897907064e+00	 9.585759092985850e-01	 1.174426498289866e+01
 2.445706573164497e+00	 9.814769598728469e-01	 1.175870235695849e+01
 2.436408620426509e+00	 1.004335921723777e+00	 1.177260382296675e+01
 2.426878996607238e+00	 1.027149416654843e+00	 1.178609949523388e+01
 2.417117722026346e+00	 1.049914053578226e+00	 1.179933522883674e+01
 2.407124880989343e+00	 1.072626429952416e+00	 1.181247035361910e+01
 2.396900622330159e+00	 1.095283133243586e+00	 1.182567482620723e+01
 2.386445159914963e+00	 1.117880742409633e+00	 1.183913866566273e+01
 2.375758773106259e+00	 1.140415829405729e+00	 1.185328904194232e+01
 2.483247177752872e+00	 9.167351293307960e-01	 1.169897592916253e+01
 2.474605323176310e+00	 9.398128431699512e-01	 1.171485344998875e+01
 2.465731081716719e+00	 9.628550224573754e-01	 1.173008735514848e+01
 2.456624284613937e+00	 9.858583040450550e-01	 1.174473693803561e+01
 2.447284825520990e+00	 1.008819309023994e+00	 1.175888155304295e+01
 2.437712661159682e+00	 1.031734644117299e+00	 1.177261955587003e+01
 2.427907811940380e+00	 1.054600903099245e+00	 1.178606670447563e+01
 2.417870362544938e+00	 1.077414668239285e+00	 1.179935399004628e+01
 2.407600462471684e+00	 1.100172511769949e+00	 1.181262486980501e+01
 2.397098326541497e+00	 1.122870997377513e+00	 1.182607118055269e+01
 2.386364235363963e+00	 1.145506681714263e+00	 1.184012768102132e+01
 2.280309612793177e+00	 1.094598158637595e+00	 1.199559712507840e+01
 2.269833049649631e+00	 1.116160903221780e+00	 1.200797484902269e+01
 2.259135639686203e+00	 1.137657064665730e+00	 1.201791317629689e+01
 2.248217840079079e+00	 1.159083341837329e+00	 1.202554987502270e+01
 2.237080172218059e+00	 1.180436432805894e+00	 1.203089102975499e+01
 2.225723221950193e+00	 1.201713036371645e+00	 1.203391814679255e+01
 2.214147639780582e+00	 1.222909853608372e+00	 1.203520446921509e+01
 2.202354141029690e+00	 1.244023589417914e+00	 1.203627980911588e+01
 2.190343505946594e+00	 1.265050954095041e+00	 1.203667321193435e+01
 2.178116579777626e+00	 1.285988664901319e+00	 1.203575964097196e+01
 2.165674272789922e+00	 1.306833447646476e+00	 1.203289245394839e+01
 2.290915075048622e+00	 1.099689010945389e+00	 1.197725474463531e+01
 2.280389786593987e+00	 1.121352041417170e+00	 1.199002422336162e+01
 2.269642624185952e+00	 1.142948179078109e+00	 1.200050889759854e+01
 2.258674047126964e+00	 1.164474107442894e+00	 1.200878066133990e+01
 2.247484579231733e+00	 1.185926509223934e+00	 1.201484245484023e+01
 2.236074809072009e+00	 1.207302067867936e+00	 1.201867477964540e+01
 2.224445390178300e+00	 1.228597469105752e+00	 1.202023103661090e+01
 2.212597041197937e+00	 1.249809402514087e+00	 1.202024003967311e+01
 2.200530546008832e+00	 1.270934563087662e+00	 1.201993224559516e+01
 2.188246753788448e+00	 1.291969652820391e+00	 1.201870993360584e+01
 2.175746579037458e+00	 1.312911382294110e+00	 1.201590614608026e+01
 2.301520537304653e+00	 1.104779863252935e+00	 1.195962037892571e+01
 2.290946523538838e+00	 1.126543179612329e+00	 1.197272030478022e+01
 2.280149608686087e+00	 1.148239293490302e+00	 1.198364852323229e+01
 2.269130254175113e+00	 1.169864873048339e+00	 1.199244020125381e+01
 2.257888986245545e+00	 1.191416585641931e+00	 1.199909964999746e+01
 2.246426396193827e+00	 1.212891099364266e+00	 1.200361090665661e+01
 2.234743140575890e+00	 1.234285084603255e+00	 1.200593297789707e+01
 2.222839941365925e+00	 1.255595215610461e+00	 1.200599474016854e+01
 2.210717586070686e+00	 1.276818172080544e+00	 1.200473828142688e+01
 2.198376927798773e+00	 1.297950640739766e+00	 1.200298619840921e+01
 2.185818885284398e+00	 1.318989316942059e+00	 1.200005823343871e+01
 2.312125999561188e+00	 1.109870715560313e+00	 1.194265918287390e+01
 2.301503260484114e+00	 1.131734317807341e+00	 1.195602840286420e+01
 2.290656593186553e+00	 1.153530407902390e+00	 1.196730009361261e+01
 2.279586461223491e+00	 1.175255638653736e+00	 1.197649853821101e+01
 2.268293393259472e+00	 1.196906662059945e+00	 1.198363387206696e+01
 2.256777983315648e+00	 1.218480130860686e+00	 1.198869814836455e+01
 2.245040890973364e+00	 1.239972700100914e+00	 1.199166047829826e+01
 2.233082841533681e+00	 1.261381028707051e+00	 1.199246181198654e+01
 2.220904626132200e+00	 1.282701781073693e+00	 1.199102240850175e+01
 2.208507101808657e+00	 1.303931628659436e+00	 1.198851596439768e+01
 2.195891191530809e+00	 1.325067251590308e+00	 1.198527193882584e+01
 2.322731461818143e+00	 1.114961567867608e+00	 1.192634087694226e+01
 2.312059997429748e+00	 1.136925456002293e+00	 1.193991401418985e+01
 2.301163577687303e+00	 1.158821522314455e+00	 1.195143177007696e+01
 2.290042668272065e+00	 1.180646404259158e+00	 1.196092577804446e+01
 2.278697800273501e+00	 1.202396738478039e+00	 1.196841639057795e+01
 2.267129570437468e+00	 1.224069162357239e+00	 1.197390809846885e+01
 2.255338641370735e+00	 1.245660315598761e+00	 1.197738455925851e+01
 2.243325741701234e+00	 1.267166841803875e+00	 1.197880324970844e+01
 2.231091666193415e+00	 1.288585390067108e+00	 1.197808976045016e+01
 2.218637275818154e+00	 1.309912616579391e+00	 1.197522140591051e+01
 2.205963497776756e+00	 1.331145186238841e+00	 1.197146539332934e+01
 2.333336924075433e+00	 1.120052420174902e+00	 1.191064119463658e+01
 2.322616734375669e+00	 1.142116594197269e+00	 1.192434279490401e+01
 2.311670562188281e+00	 1.164112636726578e+00	 1.193601180643504e+01
 2.300498875320796e+00	 1.186037169864676e+00	 1.194569205915401e+01
 2.289102207287609e+00	 1.207886814896272e+00	 1.195341845619666e+01
 2.277481157559284e+00	 1.229658193853972e+00	 1.195921229015707e+01
 2.265636391768016e+00	 1.251347931096826e+00	 1.196307615116916e+01
 2.253568641868614e+00	 1.272952654900948e+00	 1.196498844189701e+01
 2.241278706254374e+00	 1.294468999060793e+00	 1.196489751792548e+01
 2.228767449827320e+00	 1.315893604499623e+00	 1.196271547545503e+01
 2.216035804022306e+00	 1.337223120887641e+00	 1.195855177926428e+01
 2.343942386332973e+00	 1.125143272482278e+00	 1.189552330023937e+01
 2.333173471321810e+00	 1.147307732392354e+00	 1.190928053392151e+01
 2.322177546689432e+00	 1.169403751138840e+00	 1.192100852112852e+01
 2.310955082369648e+00	 1.191427935470365e+00	 1.193076752329780e+01
 2.299506614301777e+00	 1.213376891314704e+00	 1.193861126979381e+01
 2.287832744681093e+00	 1.235247225350934e+00	 1.194458216306882e+01
 2.275934142165221e+00	 1.257035546595141e+00	 1.194870605782533e+01
 2.263811542035847e+00	 1.278738467998286e+00	 1.195098662949883e+01
 2.251465746315119e+00	 1.300352608054751e+00	 1.195139935090509e+01
 2.238897623836209e+00	 1.321874592420123e+00	 1.194988509941814e+01
 2.226108110267524e+00	 1.343301055536691e+00	 1.194634342053629e+01
 2.354547848590680e+00	 1.130234124789819e+00	 1.188094998782218e+01
 2.343730208268103e+00	 1.152498870587634e+00	 1.189469312672005e+01
 2.332684531190709e+00	 1.174694865551322e+00	 1.190639026998179e+01
 2.321411289418586e+00	 1.196818701076297e+00	 1.191612228697519e+01
 2.309911021315985e+00	 1.218866967733399e+00	 1.192396595211251e+01
 2.298184331802892e+00	 1.240836256848170e+00	 1.192998903087701e+01
 2.286231892562364e+00	 1.262723162093739e+00	 1.193424492152609e+01
 2.274054442202962e+00	 1.284524281095906e+00	 1.193676686804566e+01
 2.261652786375693e+00	 1.306236217048983e+00	 1.193756176356815e+01
 2.249027797844879e+00	 1.327855580340882e+00	 1.193660356710064e+01
 2.236180416512478e+00	 1.349378990185975e+00	 1.193382636001278e+01
 2.365153310848470e+00	 1.135324977097609e+00	 1.186688420766122e+01
 2.354286945214476e+00	 1.157690008783192e+00	 1.188054654971405e+01
 2.343191515692054e+00	 1.179985979964106e+00	 1.189212541952515e+01
 2.331867496467573e+00	 1.202209466682544e+00	 1.190172641338292e+01
 2.320315428330213e+00	 1.224357044152415e+00	 1.190945351401719e+01
 2.308535918924677e+00	 1.246425288345727e+00	 1.191540404946697e+01
 2.296529642959455e+00	 1.268410777592648e+00	 1.191966318879823e+01
 2.284297342369987e+00	 1.290310094193824e+00	 1.192229799051478e+01
 2.271839826436138e+00	 1.312119826043492e+00	 1.192335102325814e+01
 2.259157971853383e+00	 1.333836568261891e+00	 1.192283358214051e+01
 2.246252722757233e+00	 1.355456924835477e+00	 1.192071852777402e+01
 2.375758773106259e+00	 1.140415829405729e+00	 1.185328904194232e+01
 2.364843682160864e+00	 1.162881146979114e+00	 1.186680683518975e+01
 2.353698500193419e+00	 1.185277094377272e+00	 1.187818232087285e+01
 2.342323703516574e+00	 1.207600232289180e+00	 1.188754988492637e+01
 2.330719835344444e+00	 1.229847120571814e+00	 1.189504482730593e+01
 2.318887506046448e+00	 1.252014319843651e+00	 1.190079818569487e+01
 2.306827393356509e+00	 1.274098393091902e+00	 1.190493107672379e+01
 2.294540242536952e+00	 1.296095907292057e+00	 1.190754857082740e+01
 2.282026866496498e+00	 1.318003435038280e+00	 1.190873312073236e+01
 2.269288145861775e+00	 1.339817556183142e+00	 1.190853756743630e+01
 2.256325029001856e+00	 1.361534859485181e+00	 1.190697775137538e+01
 2.386364235363963e+00	 1.145506681714263e+00	 1.184012768102132e+01
 2.375400419107197e+00	 1.168072285175485e+00	 1.185344004678323e+01
 2.364205484694749e+00	 1.190568208790904e+00	 1.186452928413842e+01
 2.352779910565554e+00	 1.212990997896278e+00	 1.187356257626879e+01
 2.341124242358659e+00	 1.235337196991658e+00	 1.188071059606830e+01
 2.329239093168202e+00	 1.257603351341991e+00	 1.188614218670724e+01
 2.317125143753540e+00	 1.279786008591532e+00	 1.189001853985316e+01
 2.304783142703884e+00	 1.301881720390621e+00	 1.189248688796571e+01
 2.292213906556814e+00	 1.323887044033351e+00	 1.189367373107270e+01
 2.279418319870114e+00	 1.345798544104625e+00	 1.189367762242127e+01
 2.266397335246414e+00	 1.367612794135071e+00	 1.189256154135621e+01
 2.165674272789922e+00	 1.306833447646476e+00	 1.203289245394839e+01
 2.153017560772655e+00	 1.327582038689389e+00	 1.202913522508334e+01
 2.140147486529708e+00	 1.348231187796401e+00	 1.202570075337335e+01
 2.127065158178596e+00	 1.368777658539504e+00	 1.202213694061084e+01
 2.113771748461301e+00	 1.389218229483885e+00	 1.201797358266655e+01
 2.100268494533755e+00	 1.409549695782344e+00	 1.201272381502168e+01
 2.086556697708517e+00	 1.429768870767875e+00	 1.200588538948996e+01
 2.072637723150594e+00	 1.449872587542829e+00	 1.199694176958328e+01
 2.058512999526368e+00	 1.469857700563063e+00	 1.198536303382123e+01
 2.044184018605681e+00	 1.489721087215467e+00	 1.197086870791969e+01
 2.029652334817198e+00	 1.509459649387264e+00	 1.195523999757851e+01
 2.175746579037458e+00	 1.312911382294110e+00	 1.201590614608026e+01
 2.163031002083312e+00	 1.333756472688864e+00	 1.201251647528795e+01
 2.150101070579859e+00	 1.354501658654520e+00	 1.200964567687113e+01
 2.136957897798354e+00	 1.375143688710804e+00	 1.200676044071912e+01
 2.123602661935080e+00	 1.395679326440366e+00	 1.200330727783044e+01
 2.110036605899850e+00	 1.416105352090617e+00	 1.199871411527586e+01
 2.096261037057492e+00	 1.436418564173714e+00	 1.199239171741675e+01
 2.082277326922249e+00	 1.456615781063120e+00	 1.198373492016117e+01
 2.068086910805078e+00	 1.476693842585114e+00	 1.197212366694627e+01
 2.053691287413884e+00	 1.496649611603658e+00	 1.195780464325315e+01
 2.039092018406819e+00	 1.516479975596997e+00	 1.194233418626938e+01
 2.185818885284398e+00	 1.318989316942059e+00	 1.200005823343871e+01
 2.173044443393291e+00	 1.339930906688635e+00	 1.199686479553805e+01
 2.160054654629266e+00	 1.360772129512887e+00	 1.199438485342618e+01
 2.146850637417321e+00	 1.381509718882280e+00	 1.199200649397591e+01
 2.133433575408034e+00	 1.402140423396935e+00	 1.198909574848718e+01
 2.119804717265101e+00	 1.422661008398878e+00	 1.198499833706181e+01
 2.105965376405615e+00	 1.443068257579437e+00	 1.197904123373092e+01
 2.091916930693057e+00	 1.463358974583193e+00	 1.197053403843129e+01
 2.077660822082958e+00	 1.483529984606855e+00	 1.195878545084477e+01
 2.063198556221286e+00	 1.503578135991460e+00	 1.194487879710560e+01
 2.048531701995671e+00	 1.523500301806281e+00	 1.192949312994796e+01
 2.195891191530809e+00	 1.325067251590308e+00	 1.198527193882584e+01
 2.183057884702666e+00	 1.346105340688682e+00	 1.198209998934740e+01
 2.170008238678015e+00	 1.367042600371484e+00	 1.197983719817122e+01
 2.156743377035583e+00	 1.387875749053917e+00	 1.197779558228502e+01
 2.143264488880254e+00	 1.408601520353583e+00	 1.197526342199940e+01
 2.129572828629598e+00	 1.429216664707128e+00	 1.197150715483709e+01
 2.115669715752977e+00	 1.449717950985059e+00	 1.196577308410020e+01
 2.101556534463106e+00	 1.470102168103074e+00	 1.195728888750780e+01
 2.087234733360090e+00	 1.490366126628317e+00	 1.194555066574043e+01
 2.072705825027960e+00	 1.510506660378914e+00	 1.193205498058765e+01
 2.057971385583823e+00	 1.530520628015167e+00	 1.191669493934597e+01
 2.205963497776756e+00	 1.331145186238841e+00	 1.197146539332934e+01
 2.193071326011515e+00	 1.352279774688987e+00	 1.196813701786537e+01
 2.179961822726183e+00	 1.373313071230290e+00	 1.196591698851394e+01
 2.166636116653229e+00	 1.394241779225705e+00	 1.196404371011128e+01
 2.153095402351828e+00	 1.415062617310307e+00	 1.196173036464386e+01
 2.139340939993434e+00	 1.435772321015374e+00	 1.195816695487921e+01
 2.125374055099669e+00	 1.456367644390592e+00	 1.195252215602154e+01
 2.111196138232485e+00	 1.476845361622786e+00	 1.194394496006399e+01
 2.096808644636561e+00	 1.497202268649540e+00	 1.193244989562739e+01
 2.082213093833983e+00	 1.517435184766066e+00	 1.191929082741813e+01
 2.067411069171341e+00	 1.537540954223705e+00	 1.190391131419517e+01
 2.216035804022306e+00	 1.337223120887641e+00	 1.195855177926428e+01
 2.203084767319911e+00	 1.358454208689531e+00	 1.195488614299495e+01
 2.189915406773857e+00	 1.379583542089291e+00	 1.195253400820930e+01
 2.176528856270345e+00	 1.400607809397627e+00	 1.195066255026000e+01
 2.162926315822849e+00	 1.421523714267100e+00	 1.194841242982596e+01
 2.149109051356698e+00	 1.442327977323618e+00	 1.194489998663678e+01
 2.135078394445781e+00	 1.463017337796050e+00	 1.193921923398459e+01
 2.120835742001281e+00	 1.483588555142355e+00	 1.193045867027812e+01
 2.106382555912449e+00	 1.504038410670555e+00	 1.191942271523838e+01
 2.091720362639430e+00	 1.524363709152957e+00	 1.190653795487540e+01
 2.076850752758292e+00	 1.544561280431943e+00	 1.189110770905826e+01
 2.226108110267524e+00	 1.343301055536691e+00	 1.194634342053629e+01
 2.213098208627931e+00	 1.364628642690294e+00	 1.194225307146649e+01
 2.199868990821118e+00	 1.385854012948467e+00	 1.193959369242875e+01
 2.186421595887019e+00	 1.406973839569673e+00	 1.193755959067010e+01
 2.172757229293406e+00	 1.427984811223958e+00	 1.193522140730038e+01
 2.158877162719484e+00	 1.448883633631863e+00	 1.193162451505620e+01
 2.144782733791403e+00	 1.469667031201449e+00	 1.192579115555719e+01
 2.130475345769581e+00	 1.490331748661804e+00	 1.191698446297454e+01
 2.115956467187837e+00	 1.510874552691398e+00	 1.190640302772372e+01
 2.101227631444377e+00	 1.531292233539632e+00	 1.189374212536459e+01
 2.086290436344744e+00	 1.551581606639932e+00	 1.187824349963818e+01
 2.236180416512478e+00	 1.349378990185975e+00	 1.193382636001278e+01
 2.223111649935649e+00	 1.370803076691255e+00	 1.193013440149898e+01
 2.209822574868046e+00	 1.392124483807800e+00	 1.192699727379499e+01
 2.196314335503340e+00	 1.413339869741828e+00	 1.192463828218895e+01
 2.182588142763592e+00	 1.434445908180875e+00	 1.192206517336631e+01
 2.168645274081883e+00	 1.455439289940116e+00	 1.191825497385294e+01
 2.154487073136627e+00	 1.476316724606803e+00	 1.191216096836340e+01
 2.140114949537473e+00	 1.497074942181159e+00	 1.190351523624155e+01
 2.125530378462811e+00	 1.517710694712103e+00	 1.189331922271108e+01
 2.110734900248901e+00	 1.538220757926134e+00	 1.188084340858154e+01
 2.095730119930762e+00	 1.558601932847723e+00	 1.186527214954964e+01
 2.246252722757233e+00	 1.355456924835477e+00	 1.192071852777402e+01
 2.233125091243142e+00	 1.376977510692399e+00	 1.191779319714037e+01
 2.219776158914728e+00	 1.398394954667274e+00	 1.191464192935170e+01
 2.206207075119393e+00	 1.419705899914081e+00	 1.191179818729776e+01
 2.192419056233493e+00	 1.440907005137843e+00	 1.190884784200625e+01
 2.178413385443986e+00	 1.461994946248378e+00	 1.190470211969746e+01
 2.164191412481543e+00	 1.482966418012124e+00	 1.189825490091283e+01
 2.149754553305046e+00	 1.503818135700445e+00	 1.188996424930005e+01
 2.135104289737451e+00	 1.524546836732706e+00	 1.188009433505391e+01
 2.120242169053077e+00	 1.545149282312506e+00	 1.186777634425422e+01
 2.105169803516415e+00	 1.565622259055365e+00	 1.185214137753897e+01
 2.256325029001856e+00	 1.361534859485181e+00	 1.190697775137538e+01
 2.243138532550483e+00	 1.383151944693704e+00	 1.190471923916793e+01
 2.229729742961243e+00	 1.404665425526870e+00	 1.190215254691037e+01
 2.216099814735268e+00	 1.426071930086417e+00	 1.189893512975775e+01
 2.202249969703204e+00	 1.447368102094861e+00	 1.189546991693891e+01
 2.188181496805885e+00	 1.468550602556653e+00	 1.189087318728720e+01
 2.173895751826243e+00	 1.489616111417429e+00	 1.188417003162719e+01
 2.159394157072386e+00	 1.510561329219685e+00	 1.187623969704216e+01
 2.144678201011842e+00	 1.531382978753241e+00	 1.186664620424667e+01
 2.129749437856980e+00	 1.552077806698791e+00	 1.185447010544424e+01
 2.114609487101767e+00	 1.572642585262906e+00	 1.183879332513817e+01
 2.266397335246414e+00	 1.367612794135071e+00	 1.189256154135621e+01
 2.253151973857750e+00	 1.389326378695151e+00	 1.189086591452303e+01
 2.239683327007675e+00	 1.410935896386571e+00	 1.188881170140218e+01
 2.225992554351050e+00	 1.432437960258825e+00	 1.188588249251448e+01
 2.212080883172815e+00	 1.453829199051921e+00	 1.188182844455731e+01
 2.197949608167674e+00	 1.475106258864948e+00	 1.187667204527659e+01
 2.183600091170817e+00	 1.496265804822732e+00	 1.186988664899702e+01
 2.169033760839584e+00	 1.517304522738907e+00	 1.186224486678069e+01
 2.154252112286065e+00	 1.538219120773743e+00	 1.185288763448604e+01
 2.139256706660687e+00	 1.559006331085034e+00	 1.184084866239013e+01
 2.124049170686888e+00	 1.579662911470398e+00	 1.182516472473920e+01
 2.029652334817198e+00	 1.509459649387264e+00	 1.195523999757851e+01
 2.014917044418151e+00	 1.529073636130813e+00	 1.193754855020124e+01
 1.999982286777659e+00	 1.548556625667659e+00	 1.191671620670158e+01
 1.984849810431399e+00	 1.567905589925592e+00	 1.189295093856824e+01
 1.969521424414292e+00	 1.587117531465081e+00	 1.186646954407212e+01
 1.953998997582364e+00	 1.606189484990514e+00	 1.183748934909081e+01
 1.938284457889749e+00	 1.625118518843750e+00	 1.180621954891966e+01
 1.922379791621390e+00	 1.643901736478400e+00	 1.177285224542158e+01
 1.906287042582018e+00	 1.662536277913325e+00	 1.173755323740026e+01
 1.890008311242133e+00	 1.681019321163820e+00	 1.170045262529282e+01
 1.873545753841654e+00	 1.699348083649004e+00	 1.166163529414393e+01
 2.039092018406819e+00	 1.516479975596997e+00	 1.194233418626938e+01
 2.024288195837907e+00	 1.536185184775798e+00	 1.192454035575182e+01
 2.009283978327999e+00	 1.555758787494652e+00	 1.190360496354191e+01
 1.994081122544998e+00	 1.575197741598142e+00	 1.187977672824244e+01
 1.978681445937426e+00	 1.594499035705996e+00	 1.185331433184263e+01
 1.963086826053130e+00	 1.613659690731363e+00	 1.182447779738006e+01
 1.947299199812932e+00	 1.632676761381304e+00	 1.179351949071326e+01
 1.931320562739739e+00	 1.651547337637935e+00	 1.176067480238251e+01
 1.915152968143778e+00	 1.670268546218680e+00	 1.172615256919426e+01
 1.898798526264580e+00	 1.688837552014117e+00	 1.169012529849745e+01
 1.882259403370478e+00	 1.707251559501910e+00	 1.165271926109455e+01
 2.048531701995671e+00	 1.523500301806281e+00	 1.192949312994796e+01
 2.033659347256939e+00	 1.543296733420302e+00	 1.191156172095693e+01
 2.018585669877666e+00	 1.562960949321155e+00	 1.189052938303076e+01
 2.003312434657978e+00	 1.582489893270212e+00	 1.186667543930311e+01
 1.987841467459999e+00	 1.601880539946458e+00	 1.184029004027762e+01
 1.972174654523400e+00	 1.621129896471797e+00	 1.181166522519626e+01
 1.956313941735677e+00	 1.640235003918490e+00	 1.178108559059257e+01
 1.940261333857713e+00	 1.659192938797153e+00	 1.174881862364315e+01
 1.924018893705218e+00	 1.678000814523772e+00	 1.171510476172065e+01
 1.907588741286761e+00	 1.696655782864203e+00	 1.168014724300577e+01
 1.890973052899084e+00	 1.715155035354648e+00	 1.164410181610164e+01
 2.057971385583823e+00	 1.530520628015167e+00	 1.191669493934597e+01
 2.043030498675302e+00	 1.550408282064378e+00	 1.189860410014299e+01
 2.027887361426703e+00	 1.570163111147222e+00	 1.187749060202787e+01
 2.012543746770370e+00	 1.589782044941854e+00	 1.185365437494064e+01
 1.997001488982029e+00	 1.609262044186514e+00	 1.182740677271720e+01
 1.981262482993171e+00	 1.628600102211859e+00	 1.179906132482327e+01
 1.965328683657973e+00	 1.647793246455345e+00	 1.176892407827842e+01
 1.949202104975285e+00	 1.666838539956085e+00	 1.173728358903459e+01
 1.932884819266304e+00	 1.685733082828621e+00	 1.170440062599580e+01
 1.916378956308633e+00	 1.704474013714086e+00	 1.167049765444352e+01
 1.899686702427425e+00	 1.723058511207219e+00	 1.163574816883406e+01
 2.067411069171341e+00	 1.537540954223705e+00	 1.190391131419517e+01
 2.052401650093056e+00	 1.557519830708080e+00	 1.188565231316645e+01
 2.037189052975151e+00	 1.577365272972907e+00	 1.186448295923003e+01
 2.021775058882203e+00	 1.597074196613122e+00	 1.184071393395267e+01
 2.006161510503532e+00	 1.616643548426216e+00	 1.181466767702526e+01
 1.990350311462449e+00	 1.636070307951594e+00	 1.178666883481006e+01
 1.974343425579810e+00	 1.655351488991906e+00	 1.175703428199880e+01
 1.958142876092433e+00	 1.674484141114758e+00	 1.172606277731089e+01
 1.941750744827003e+00	 1.693465351133248e+00	 1.169402431821823e+01
 1.925169171330154e+00	 1.712292244563777e+00	 1.166114926338872e+01
 1.908400351955447e+00	 1.730961987059623e+00	 1.162761729485795e+01
 2.076850752758292e+00	 1.544561280431943e+00	 1.189110770905826e+01
 2.061772801510252e+00	 1.564631379351462e+00	 1.187268471549216e+01
 2.046490744523058e+00	 1.584567434798265e+00	 1.185149416774021e+01
 2.031006370993510e+00	 1.604366348284069e+00	 1.182784778410740e+01
 2.015321532024525e+00	 1.624025052665611e+00	 1.180206911811032e+01
 1.999438139931236e+00	 1.643540513691046e+00	 1.177448371007551e+01
 1.983358167501176e+00	 1.662909731528209e+00	 1.174540879466796e+01
 1.967083647209133e+00	 1.682129742273202e+00	 1.171514262695771e+01
 1.950616670387278e+00	 1.701197619437671e+00	 1.168395349382992e+01
 1.933959386351277e+00	 1.720110475413287e+00	 1.165206848137650e+01
 1.917114001483104e+00	 1.738865462911860e+00	 1.161966207234602e+01
 2.086290436344744e+00	 1.551581606639932e+00	 1.187824349963818e+01
 2.071143952926949e+00	 1.571742927994576e+00	 1.185967336862297e+01
 2.055792436070466e+00	 1.591769596623350e+00	 1.183850548790424e+01
 2.040237683104317e+00	 1.611658499954746e+00	 1.181504303573086e+01
 2.024481553545022e+00	 1.631406556904750e+00	 1.178960085066615e+01
 2.008525968399532e+00	 1.651010719430257e+00	 1.176249529226603e+01
 1.992372909422060e+00	 1.670467974064293e+00	 1.173403364038669e+01
 1.976024418325361e+00	 1.689775343431444e+00	 1.170450309742579e+01
 1.959482595947096e+00	 1.708929887741909e+00	 1.167415946213777e+01
 1.942749601371962e+00	 1.727928706262626e+00	 1.164321554763069e+01
 1.925827651010344e+00	 1.746768938763930e+00	 1.161182941970941e+01
 2.095730119930762e+00	 1.558601932847723e+00	 1.186527214954964e+01
 2.080515104343202e+00	 1.578854476637477e+00	 1.184658421086960e+01
 2.065094127617418e+00	 1.598971758448216e+00	 1.182549190040595e+01
 2.049468995214658e+00	 1.618950651625208e+00	 1.180228041551032e+01
 2.033641575065042e+00	 1.638788061143681e+00	 1.177724619212464e+01
 2.017613796867342e+00	 1.658480925169272e+00	 1.175068648035762e+01
 2.001387651342450e+00	 1.678026216600193e+00	 1.172288844125468e+01
 1.984965189441094e+00	 1.697420944589514e+00	 1.169411783077578e+01
 1.968348521506422e+00	 1.716662156045984e+00	 1.166460734147803e+01
 1.951539816392164e+00	 1.735746937111803e+00	 1.163454467649933e+01
 1.934541300537116e+00	 1.754672414615833e+00	 1.160406043412260e+01
 2.105169803516415e+00	 1.565622259055365e+00	 1.185214137753897e+01
 2.089886255759067e+00	 1.585966025280217e+00	 1.183337722845008e+01
 2.074395819163958e+00	 1.606173920272918e+00	 1.181242227961289e+01
 2.058700307324561e+00	 1.626242803295506e+00	 1.178953444050799e+01
 2.042801596584599e+00	 1.646169565382454e+00	 1.176498219581444e+01
 2.026701625334666e+00	 1.665951130908135e+00	 1.173903390149488e+01
 2.010402393262337e+00	 1.685584459135946e+00	 1.171194658448382e+01
 1.993905960556309e+00	 1.705066545747442e+00	 1.168395431372158e+01
 1.977214447065222e+00	 1.724394424349915e+00	 1.165525621490631e+01
 1.960330031411840e+00	 1.743565167960828e+00	 1.162600420557225e+01
 1.943254950063373e+00	 1.762575890467570e+00	 1.159629053091323e+01
 2.114609487101767e+00	 1.572642585262906e+00	 1.183879332513817e+01
 2.099257407174600e+00	 1.593077573922850e+00	 1.182000662690823e+01
 2.083697510710129e+00	 1.613376082097510e+00	 1.179925956716483e+01
 2.067931619434057e+00	 1.633534954965695e+00	 1.177677359237756e+01
 2.051961618103710e+00	 1.653551069621117e+00	 1.175277982431887e+01
 2.035789453801507e+00	 1.673421336646890e+00	 1.172750808205938e+01
 2.019417135181709e+00	 1.693142701671589e+00	 1.170117538980421e+01
 2.002846731670983e+00	 1.712712146905255e+00	 1.167397404005963e+01
 1.986080372623461e+00	 1.732126692653722e+00	 1.164605928639698e+01
 1.969120246430947e+00	 1.751383398809712e+00	 1.161753674445866e+01
 1.951968599589063e+00	 1.770479366319139e+00	 1.158844958379019e+01
 2.124049170686888e+00	 1.579662911470398e+00	 1.182516472473920e+01
 2.108628558589857e+00	 1.600189122565430e+00	 1.180642100284151e+01
 2.092999202255976e+00	 1.620578243922046e+00	 1.178596094579731e+01
 2.077162931543178e+00	 1.640827106635827e+00	 1.176396049177776e+01
 2.061121639622393e+00	 1.660932573859722e+00	 1.174060412302699e+01
 2.044877282267870e+00	 1.680891542385580e+00	 1.171607361896031e+01
 2.028431877100554e+00	 1.700700944207160e+00	 1.169053627715302e+01
 2.011787502785091e+00	 1.720357748062982e+00	 1.166413267347219e+01
 1.994946298181105e+00	 1.739858960957423e+00	 1.163696403753598e+01
 1.977910461449441e+00	 1.759201629658466e+00	 1.160907932420525e+01
 1.960682249114137e+00	 1.778382842170543e+00	 1.158046206588349e+01
 1.873545753841654e+00	 1.699348083649004e+00	 1.166163529414394e+01
 1.856904421019689e+00	 1.717516753150511e+00	 1.162229007346077e+01
 1.840083769087529e+00	 1.735525784808786e+00	 1.158372344277864e+01
 1.823086084975867e+00	 1.753372553415460e+00	 1.154673361759582e+01
 1.805913707358262e+00	 1.771054478497924e+00	 1.150983927958284e+01
 1.788569025571281e+00	 1.788569025571281e+00	 1.147138117962405e+01
 1.771054478497924e+00	 1.805913707358263e+00	 1.142966468774570e+01
 1.753372553415460e+00	 1.823086084975867e+00	 1.138296598144582e+01
 1.735525784808785e+00	 1.840083769087529e+00	 1.132953854028575e+01
 1.717516753150510e+00	 1.856904421019689e+00	 1.126828105935716e+01
 1.699348083649004e+00	 1.873545753841653e+00	 1.120840269641784e+01
 1.882259403370478e+00	 1.707251559501910e+00	 1.165271926109455e+01
 1.865540673590522e+00	 1.725504729431729e+00	 1.161495312194116e+01
 1.848641790707382e+00	 1.743597519060816e+00	 1.157721656104203e+01
 1.831565052288022e+00	 1.761527290971235e+00	 1.154023828792488e+01
 1.814312807882928e+00	 1.779291452688874e+00	 1.150326123222073e+01
 1.796887457941216e+00	 1.796887457941216e+00	 1.146445821889869e+01
 1.779291452688875e+00	 1.814312807882928e+00	 1.142196237361014e+01
 1.761527290971236e+00	 1.831565052288023e+00	 1.137387360125012e+01
 1.743597519060815e+00	 1.848641790707382e+00	 1.131826538441181e+01
 1.725504729431729e+00	 1.865540673590523e+00	 1.125797594467071e+01
 1.707251559501910e+00	 1.882259403370478e+00	 1.120164499623849e+01
 1.890973052899084e+00	 1.715155035354648e+00	 1.164410181610164e+01
 1.874176926161180e+00	 1.733492705712815e+00	 1.160779369972779e+01
 1.857199812327094e+00	 1.751669253312739e+00	 1.157127345140660e+01
 1.840044019600064e+00	 1.769682028526921e+00	 1.153407439644980e+01
 1.822711908407497e+00	 1.787528426879742e+00	 1.149659390413268e+01
 1.805205890311066e+00	 1.805205890311066e+00	 1.145699279233918e+01
 1.787528426879742e+00	 1.822711908407498e+00	 1.141324479888657e+01
 1.769682028526920e+00	 1.840044019600064e+00	 1.136328667380169e+01
 1.751669253312738e+00	 1.857199812327094e+00	 1.130569530533483e+01
 1.733492705712814e+00	 1.874176926161181e+00	 1.124880321456376e+01
 1.715155035354648e+00	 1.890973052899084e+00	 1.119553772573989e+01
 1.899686702427425e+00	 1.723058511207219e+00	 1.163574816883406e+01
 1.882813178731610e+00	 1.741480681993759e+00	 1.160076452287464e+01
 1.865757833946610e+00	 1.759740987564536e+00	 1.156530799129736e+01
 1.848522986911937e+00	 1.777836766082487e+00	 1.152821410904044e+01
 1.831111008931922e+00	 1.795765401070488e+00	 1.148981639313184e+01
 1.813524322680786e+00	 1.813524322680786e+00	 1.144897582066997e+01
 1.795765401070488e+00	 1.831111008931922e+00	 1.140351938164524e+01
 1.777836766082486e+00	 1.848522986911937e+00	 1.135123356789828e+01
 1.759740987564536e+00	 1.865757833946610e+00	 1.129432585941030e+01
 1.741480681993759e+00	 1.882813178731610e+00	 1.124058665735966e+01
 1.723058511207219e+00	 1.899686702427424e+00	 1.118993360156532e+01
 1.908400351955447e+00	 1.730961987059623e+00	 1.162761729485795e+01
 1.891449431301757e+00	 1.749468658274552e+00	 1.159381227584244e+01
 1.874315855565876e+00	 1.767812721816188e+00	 1.155920682403059e+01
 1.857001954223589e+00	 1.785991503637904e+00	 1.152249449946318e+01
 1.839510109456153e+00	 1.804002375261078e+00	 1.148289626740125e+01
 1.821842755050333e+00	 1.821842755050333e+00	 1.144038674394000e+01
 1.804002375261078e+00	 1.839510109456153e+00	 1.139278204126102e+01
 1.785991503637904e+00	 1.857001954223590e+00	 1.133828803508209e+01
 1.767812721816187e+00	 1.874315855565876e+00	 1.128420253138718e+01
 1.749468658274552e+00	 1.891449431301757e+00	 1.123314121632361e+01
 1.730961987059623e+00	 1.908400351955448e+00	 1.118467596355021e+01
 1.917114001483104e+00	 1.738865462911860e+00	 1.161966207234602e+01
 1.900085683871567e+00	 1.757456634555183e+00	 1.158687773927478e+01
 1.882873877184837e+00	 1.775884456067674e+00	 1.155290356947286e+01
 1.865480921534970e+00	 1.794146241193146e+00	 1.151635681045461e+01
 1.847909209980140e+00	 1.812239349451474e+00	 1.147578952117022e+01
 1.830161187419664e+00	 1.830161187419663e+00	 1.143119347719190e+01
 1.812239349451474e+00	 1.847909209980140e+00	 1.138101715577800e+01
 1.794146241193146e+00	 1.865480921534970e+00	 1.132661260584658e+01
 1.775884456067674e+00	 1.882873877184838e+00	 1.127510719612915e+01
 1.757456634555182e+00	 1.900085683871568e+00	 1.122627343920345e+01
 1.738865462911860e+00	 1.917114001483104e+00	 1.117959922637371e+01
 1.925827651010344e+00	 1.746768938763930e+00	 1.161182941970941e+01
 1.908721936440988e+00	 1.765444610835642e+00	 1.157989591887752e+01
 1.891431898803440e+00	 1.783956190318976e+00	 1.154632616730185e+01
 1.873959888846024e+00	 1.802300978748183e+00	 1.150967377920375e+01
 1.856308310503833e+00	 1.820476323641638e+00	 1.146835544089626e+01
 1.838479619788734e+00	 1.838479619788734e+00	 1.142135236741842e+01
 1.820476323641638e+00	 1.856308310503833e+00	 1.136856768070258e+01
 1.802300978748183e+00	 1.873959888846024e+00	 1.131620761808172e+01
 1.783956190318975e+00	 1.891431898803440e+00	 1.126681423538623e+01
 1.765444610835642e+00	 1.908721936440989e+00	 1.121978192852804e+01
 1.746768938763929e+00	 1.925827651010343e+00	 1.117452933173339e+01
 1.934541300537116e+00	 1.754672414615833e+00	 1.160406043412260e+01
 1.917358189009967e+00	 1.773432587115920e+00	 1.157279617536643e+01
 1.899989920421630e+00	 1.792027924570073e+00	 1.153939700013333e+01
 1.882438856156699e+00	 1.810455716302986e+00	 1.150236541911292e+01
 1.864707411027185e+00	 1.828713297831535e+00	 1.146006397557164e+01
 1.846798052157500e+00	 1.846798052157500e+00	 1.141080815176515e+01
 1.828713297831535e+00	 1.864707411027186e+00	 1.135730608285168e+01
 1.810455716302986e+00	 1.882438856156700e+00	 1.130681983972542e+01
 1.792027924570073e+00	 1.899989920421631e+00	 1.125909098809471e+01
 1.773432587115919e+00	 1.917358189009967e+00	 1.121345779263979e+01
 1.754672414615833e+00	 1.934541300537116e+00	 1.116928420102648e+01
 1.943254950063373e+00	 1.762575890467570e+00	 1.159629053091323e+01
 1.925994441578448e+00	 1.781420563396006e+00	 1.156550235544983e+01
 1.908547942039353e+00	 1.800099658820946e+00	 1.153203301780113e+01
 1.890917823466943e+00	 1.818610453857526e+00	 1.149434630919153e+01
 1.873106511550147e+00	 1.836950272021129e+00	 1.145076335523575e+01
 1.855116484525918e+00	 1.855116484525918e+00	 1.139962658960707e+01
 1.836950272021129e+00	 1.873106511550147e+00	 1.134726373965653e+01
 1.818610453857526e+00	 1.890917823466944e+00	 1.129818981924656e+01
 1.800099658820946e+00	 1.908547942039353e+00	 1.125169820157412e+01
 1.781420563396005e+00	 1.925994441578449e+00	 1.120708509743807e+01
 1.762575890467570e+00	 1.943254950063373e+00	 1.116367418852205e+01
 1.951968599589063e+00	 1.770479366319139e+00	 1.158844958379019e+01
 1.934630694146380e+00	 1.789408539675891e+00	 1.155793292381381e+01
 1.917105963656554e+00	 1.808171393071576e+00	 1.152414586275437e+01
 1.899396790776702e+00	 1.826765191411777e+00	 1.148552571445605e+01
 1.881505612072667e+00	 1.845187246210381e+00	 1.144036476780680e+01
 1.863434916893944e+00	 1.863434916893944e+00	 1.138895744956521e+01
 1.845187246210380e+00	 1.881505612072667e+00	 1.133815879493672e+01
 1.826765191411777e+00	 1.899396790776702e+00	 1.129005233825509e+01
 1.808171393071576e+00	 1.917105963656554e+00	 1.124439048359251e+01
 1.789408539675890e+00	 1.934630694146381e+00	 1.120044131881205e+01
 1.770479366319139e+00	 1.951968599589063e+00	 1.115750253500913e+01
 1.960682249114137e+00	 1.778382842170543e+00	 1.158046206588349e+01
 1.943266946713710e+00	 1.797396515955566e+00	 1.155000109607854e+01
 1.925663985273179e+00	 1.816243127321944e+00	 1.151564199653659e+01
 1.907875758085926e+00	 1.834919928965709e+00	 1.147580770747673e+01
 1.889904712594699e+00	 1.853424220399255e+00	 1.142880870013422e+01
 1.871753349261536e+00	 1.871753349261536e+00	 1.137884520744340e+01
 1.853424220399255e+00	 1.889904712594700e+00	 1.132969579954481e+01
 1.834919928965707e+00	 1.907875758085926e+00	 1.128213686509414e+01
 1.816243127321943e+00	 1.925663985273180e+00	 1.123691675527443e+01
 1.797396515955565e+00	 1.943266946713711e+00	 1.119329779574126e+01
 1.778382842170543e+00	 1.960682249114138e+00	 1.115056582190559e+01
 1.699348083649004e+00	 1.873545753841653e+00	 1.120840269641784e+01
 1.681019321163821e+00	 1.890008311242132e+00	 1.115064421946713e+01
 1.662536277913326e+00	 1.906287042582017e+00	 1.109215237705779e+01
 1.643901736478401e+00	 1.922379791621388e+00	 1.103274359726489e+01
 1.625118518843751e+00	 1.938284457889748e+00	 1.097218353435010e+01
 1.606189484990515e+00	 1.953998997582363e+00	 1.091017351718662e+01
 1.587117531465082e+00	 1.969521424414292e+00	 1.084633725428755e+01
 1.567905589925593e+00	 1.984849810431399e+00	 1.078020791296290e+01
 1.548556625667660e+00	 1.999982286777658e+00	 1.071121568826169e+01
 1.529073636130813e+00	 2.014917044418150e+00	 1.063867597465658e+01
 1.509459649387265e+00	 2.029652334817199e+00	 1.056177824992027e+01
 1.707251559501910e+00	 1.882259403370478e+00	 1.120164499623849e+01
 1.688837552014118e+00	 1.898798526264579e+00	 1.114659743674719e+01
 1.670268546218681e+00	 1.915152968143777e+00	 1.108995247114771e+01
 1.651547337637935e+00	 1.931320562739739e+00	 1.103165275255741e+01
 1.632676761381304e+00	 1.947299199812932e+00	 1.097159397073280e+01
 1.613659690731364e+00	 1.963086826053130e+00	 1.090961055177941e+01
 1.594499035705997e+00	 1.978681445937425e+00	 1.084546161191860e+01
 1.575197741598143e+00	 1.994081122544997e+00	 1.077881728725377e+01
 1.555758787494653e+00	 2.009283978327999e+00	 1.070924555958903e+01
 1.536185184775798e+00	 2.024288195837906e+00	 1.063619969560492e+01
 1.516479975596996e+00	 2.039092018406818e+00	 1.055900641311176e+01
 1.715155035354648e+00	 1.890973052899084e+00	 1.119553772573989e+01
 1.696655782864203e+00	 1.907588741286760e+00	 1.114281293145957e+01
 1.678000814523773e+00	 1.924018893705218e+00	 1.108775085533832e+01
 1.659192938797154e+00	 1.940261333857712e+00	 1.103040596984214e+01
 1.640235003918491e+00	 1.956313941735677e+00	 1.097078923981191e+01
 1.621129896471798e+00	 1.972174654523399e+00	 1.090885307697780e+01
 1.601880539946458e+00	 1.987841467459999e+00	 1.084447654627758e+01
 1.582489893270213e+00	 2.003312434657977e+00	 1.077745095041449e+01
 1.562960949321156e+00	 2.018585669877664e+00	 1.070746591717655e+01
 1.543296733420302e+00	 2.033659347256938e+00	 1.063409611124143e+01
 1.523500301806281e+00	 2.048531701995671e+00	 1.055678868852963e+01
 1.723058511207219e+00	 1.899686702427424e+00	 1.118993360156532e+01
 1.704474013714086e+00	 1.916378956308633e+00	 1.113917146972727e+01
 1.685733082828622e+00	 1.932884819266304e+00	 1.108545150563441e+01
 1.666838539956086e+00	 1.949202104975284e+00	 1.102892583998818e+01
 1.647793246455346e+00	 1.965328683657973e+00	 1.096970620171240e+01
 1.628600102211860e+00	 1.981262482993171e+00	 1.090784813019396e+01
 1.609262044186516e+00	 1.997001488982029e+00	 1.084333543736075e+01
 1.589782044941856e+00	 2.012543746770369e+00	 1.077606505060011e+01
 1.570163111147223e+00	 2.027887361426701e+00	 1.070583236558595e+01
 1.550408282064378e+00	 2.043030498675301e+00	 1.063231723523309e+01
 1.530520628015167e+00	 2.057971385583823e+00	 1.055507071725526e+01
 1.730961987059623e+00	 1.908400351955448e+00	 1.118467596355021e+01
 1.712292244563778e+00	 1.925169171330153e+00	 1.113554391073972e+01
 1.693465351133248e+00	 1.941750744827003e+00	 1.108294803707681e+01
 1.674484141114758e+00	 1.958142876092431e+00	 1.102712421272374e+01
 1.655351488991907e+00	 1.974343425579810e+00	 1.096827066684362e+01
 1.636070307951595e+00	 1.990350311462449e+00	 1.090653145988834e+01
 1.616643548426217e+00	 2.006161510503532e+00	 1.084198020403294e+01
 1.597074196613123e+00	 2.021775058882203e+00	 1.077460416740798e+01
 1.577365272972908e+00	 2.037189052975151e+00	 1.070428889582094e+01
 1.557519830708082e+00	 2.052401650093055e+00	 1.063080348275720e+01
 1.537540954223705e+00	 2.067411069171341e+00	 1.055378661462775e+01
 1.738865462911860e+00	 1.917114001483104e+00	 1.117959922637371e+01
 1.720110475413288e+00	 1.933959386351277e+00	 1.113179165974834e+01
 1.701197619437671e+00	 1.950616670387278e+00	 1.108012415567030e+01
 1.682129742273202e+00	 1.967083647209132e+00	 1.102490264518667e+01
 1.662909731528210e+00	 1.983358167501175e+00	 1.096639783886528e+01
 1.643540513691046e+00	 1.999438139931235e+00	 1.090482796084643e+01
 1.624025052665612e+00	 2.015321532024524e+00	 1.084034172961758e+01
 1.604366348284070e+00	 2.031006370993509e+00	 1.077300172589108e+01
 1.584567434798266e+00	 2.046490744523057e+00	 1.070276828598191e+01
 1.564631379351463e+00	 2.061772801510251e+00	 1.062948405612668e+01
 1.544561280431943e+00	 2.076850752758292e+00	 1.055285933927971e+01
 1.746768938763929e+00	 1.925827651010343e+00	 1.117452933173339e+01
 1.727928706262626e+00	 1.942749601371961e+00	 1.112776712136072e+01
 1.708929887741910e+00	 1.959482595947095e+00	 1.107685411044382e+01
 1.689775343431445e+00	 1.976024418325360e+00	 1.102215285049337e+01
 1.670467974064293e+00	 1.992372909422059e+00	 1.096399275760827e+01
 1.651010719430257e+00	 2.008525968399531e+00	 1.090265210939815e+01
 1.631406556904751e+00	 2.024481553545022e+00	 1.083834028746331e+01
 1.611658499954747e+00	 2.040237683104317e+00	 1.077118041062564e+01
 1.591769596623350e+00	 2.055792436070465e+00	 1.070119250209539e+01
 1.571742927994577e+00	 2.071143952926948e+00	 1.062827733074881e+01
 1.551581606639933e+00	 2.086290436344744e+00	 1.055220106270255e+01
 1.754672414615833e+00	 1.934541300537116e+00	 1.116928420102648e+01
 1.735746937111804e+00	 1.951539816392163e+00	 1.112331415312516e+01
 1.716662156045985e+00	 1.968348521506421e+00	 1.107300314563733e+01
 1.697420944589515e+00	 1.984965189441094e+00	 1.101875714632477e+01
 1.678026216600194e+00	 2.001387651342450e+00	 1.096095074195356e+01
 1.658480925169273e+00	 2.017613796867340e+00	 1.089990839858175e+01
 1.638788061143682e+00	 2.033641575065042e+00	 1.083588596648756e+01
 1.618950651625208e+00	 2.049468995214658e+00	 1.076905257983145e+01
 1.598971758448217e+00	 2.065094127617418e+00	 1.069947309911187e+01
 1.578854476637477e+00	 2.080515104343201e+00	 1.062709124140769e+01
 1.558601932847723e+00	 2.095730119930762e+00	 1.055171353932600e+01
 1.762575890467570e+00	 1.943254950063373e+00	 1.116367418852205e+01
 1.743565167960829e+00	 1.960330031411839e+00	 1.111826851939635e+01
 1.724394424349916e+00	 1.977214447065221e+00	 1.106842795301349e+01
 1.705066545747443e+00	 1.993905960556309e+00	 1.101458890352966e+01
 1.685584459135947e+00	 2.010402393262336e+00	 1.095715783266916e+01
 1.665951130908136e+00	 2.026701625334665e+00	 1.089649177325432e+01
 1.646169565382455e+00	 2.042801596584599e+00	 1.083287909669833e+01
 1.626242803295507e+00	 2.058700307324561e+00	 1.076652067954365e+01
 1.606173920272919e+00	 2.074395819163958e+00	 1.069751162206810e+01
 1.585966025280217e+00	 2.089886255759066e+00	 1.062582366885949e+01
 1.565622259055364e+00	 2.105169803516414e+00	 1.055128847709424e+01
 1.770479366319139e+00	 1.951968599589063e+00	 1.115750253500913e+01
 1.751383398809713e+00	 1.969120246430946e+00	 1.111245834547299e+01
 1.732126692653722e+00	 1.986080372623460e+00	 1.106297712428880e+01
 1.712712146905255e+00	 2.002846731670981e+00	 1.100951299474476e+01
 1.693142701671589e+00	 2.019417135181707e+00	 1.095249123520760e+01
 1.673421336646890e+00	 2.035789453801507e+00	 1.089228806515025e+01
 1.653551069621118e+00	 2.051961618103709e+00	 1.082921067469481e+01
 1.633534954965696e+00	 2.067931619434057e+00	 1.076347765783378e+01
 1.613376082097510e+00	 2.083697510710129e+00	 1.069520000740716e+01
 1.593077573922850e+00	 2.099257407174599e+00	 1.062436282673145e+01
 1.572642585262906e+00	 2.114609487101767e+00	 1.055080790852435e+01
 1.778382842170543e+00	 1.960682249114138e+00	 1.115056582190559e+01
 1.759201629658466e+00	 1.977910461449440e+00	 1.110570457200020e+01
 1.739858960957424e+00	 1.994946298181105e+00	 1.105649160368170e+01
 1.720357748062983e+00	 2.011787502785090e+00	 1.100338624303100e+01
 1.700700944207161e+00	 2.028431877100553e+00	 1.094681976246454e+01
 1.680891542385581e+00	 2.044877282267870e+00	 1.088717442788960e+01
 1.660932573859722e+00	 2.061121639622392e+00	 1.082476278914690e+01
 1.640827106635828e+00	 2.077162931543177e+00	 1.075980737907940e+01
 1.620578243922048e+00	 2.092999202255976e+00	 1.069242098445297e+01
 1.600189122565431e+00	 2.108628558589857e+00	 1.062258764871480e+01
 1.579662911470398e+00	 2.124049170686888e+00	 1.055014456223130e+01
 1.509459649387265e+00	 2.029652334817199e+00	 1.056177824992027e+01
 1.489721087215467e+00	 2.044184018605681e+00	 1.048380239641364e+01
 1.469857700563063e+00	 2.058512999526367e+00	 1.040856650650593e+01
 1.449872587542830e+00	 2.072637723150594e+00	 1.033607094141221e+01
 1.429768870767876e+00	 2.086556697708517e+00	 1.026550189157471e+01
 1.409549695782345e+00	 2.100268494533754e+00	 1.019597108595479e+01
 1.389218229483886e+00	 2.113771748461301e+00	 1.012660554480878e+01
 1.368777658539505e+00	 2.127065158178596e+00	 1.005655759554477e+01
 1.348231187796402e+00	 2.140147486529707e+00	 9.985014925574003e+00
 1.327582038689390e+00	 2.153017560772655e+00	 9.911210622894739e+00
 1.306833447646476e+00	 2.165674272789922e+00	 9.834433154839786e+00
 1.516479975596996e+00	 2.039092018406818e+00	 1.055900641311176e+01
 1.496649611603658e+00	 2.053691287413884e+00	 1.048125386999570e+01
 1.476693842585114e+00	 2.068086910805078e+00	 1.040677477050888e+01
 1.456615781063120e+00	 2.082277326922249e+00	 1.033552506771287e+01
 1.436418564173715e+00	 2.096261037057491e+00	 1.026673090740289e+01
 1.416105352090618e+00	 2.110036605899850e+00	 1.019932054786934e+01
 1.395679326440368e+00	 2.123602661935080e+00	 1.013223482017080e+01
 1.375143688710805e+00	 2.136957897798352e+00	 1.006443767152796e+01
 1.354501658654522e+00	 2.150101070579859e+00	 9.994926752290386e+00
 1.333756472688865e+00	 2.163031002083311e+00	 9.922743995579792e+00
 1.312911382294110e+00	 2.175746579037458e+00	 9.846986138380759e+00
 1.523500301806281e+00	 2.048531701995671e+00	 1.055678868852963e+01
 1.503578135991460e+00	 2.063198556221286e+00	 1.047938800023461e+01
 1.483529984606855e+00	 2.077660822082958e+00	 1.040577996606734e+01
 1.463358974583194e+00	 2.091916930693056e+00	 1.033563058197327e+01
 1.443068257579438e+00	 2.105965376405615e+00	 1.026836540126805e+01
 1.422661008398878e+00	 2.119804717265101e+00	 1.020273416420577e+01
 1.402140423396936e+00	 2.133433575408034e+00	 1.013749149690166e+01
 1.381509718882281e+00	 2.146850637417320e+00	 1.007141294868655e+01
 1.360772129512889e+00	 2.160054654629266e+00	 1.000330611771988e+01
 1.339930906688636e+00	 2.173044443393289e+00	 9.932021774403907e+00
 1.318989316942059e+00	 2.185818885284398e+00	 9.856464929690556e+00
 1.530520628015167e+00	 2.057971385583823e+00	 1.055507071725526e+01
 1.510506660378914e+00	 2.072705825027960e+00	 1.047814345167680e+01
 1.490366126628318e+00	 2.087234733360091e+00	 1.040546186645692e+01
 1.470102168103074e+00	 2.101556534463105e+00	 1.033635828701536e+01
 1.449717950985059e+00	 2.115669715752977e+00	 1.027038081237528e+01
 1.429216664707129e+00	 2.129572828629597e+00	 1.020619307691821e+01
 1.408601520353584e+00	 2.143264488880253e+00	 1.014236338342388e+01
 1.387875749053919e+00	 2.156743377035582e+00	 1.007747876143545e+01
 1.367042600371485e+00	 2.170008238678014e+00	 1.001015663619476e+01
 1.346105340688684e+00	 2.183057884702665e+00	 9.939056500689043e+00
 1.325067251590309e+00	 2.195891191530809e+00	 9.862891536200795e+00
 1.537540954223705e+00	 2.067411069171341e+00	 1.055378661462775e+01
 1.517435184766066e+00	 2.082213093833983e+00	 1.047744745621837e+01
 1.497202268649540e+00	 2.096808644636560e+00	 1.040571764736662e+01
 1.476845361622786e+00	 2.111196138232485e+00	 1.033766269558951e+01
 1.456367644390592e+00	 2.125374055099668e+00	 1.027273691272261e+01
 1.435772321015374e+00	 2.139340939993433e+00	 1.020966338067398e+01
 1.415062617310308e+00	 2.153095402351828e+00	 1.014682385832732e+01
 1.394241779225706e+00	 2.166636116653228e+00	 1.008261662980629e+01
 1.373313071230292e+00	 2.179961822726183e+00	 1.001546872155371e+01
 1.352279774688989e+00	 2.193071326011514e+00	 9.943848128021859e+00
 1.331145186238842e+00	 2.205963497776756e+00	 9.866275989646207e+00
 1.544561280431943e+00	 2.076850752758292e+00	 1.055285933927971e+01
 1.524363709152957e+00	 2.091720362639431e+00	 1.047721616489943e+01
 1.504038410670555e+00	 2.106382555912449e+00	 1.040645801520527e+01
 1.483588555142355e+00	 2.120835742001280e+00	 1.033947626235847e+01
 1.463017337796050e+00	 2.135078394445780e+00	 1.027537775259918e+01
 1.442327977323618e+00	 2.149109051356697e+00	 1.021309606104754e+01
 1.421523714267101e+00	 2.162926315822848e+00	 1.015083180155559e+01
 1.400607809397628e+00	 2.176528856270344e+00	 1.008679418390577e+01
 1.379583542089292e+00	 2.189915406773856e+00	 1.001921950513324e+01
 1.358454208689532e+00	 2.203084767319910e+00	 9.946383934021259e+00
 1.337223120887641e+00	 2.216035804022306e+00	 9.866616251832983e+00
 1.551581606639933e+00	 2.086290436344744e+00	 1.055220106270255e+01
 1.531292233539632e+00	 2.101227631444378e+00	 1.047735500043786e+01
 1.510874552691398e+00	 2.115956467187838e+00	 1.040758299352992e+01
 1.490331748661804e+00	 2.130475345769581e+00	 1.034163021641487e+01
 1.469667031201450e+00	 2.144782733791403e+00	 1.027823160741898e+01
 1.448883633631864e+00	 2.158877162719484e+00	 1.021642693422417e+01
 1.427984811223959e+00	 2.172757229293406e+00	 1.015433152727020e+01
 1.406973839569673e+00	 2.186421595887019e+00	 1.008996509021265e+01
 1.385854012948468e+00	 2.199868990821117e+00	 1.002137275575323e+01
 1.364628642690295e+00	 2.213098208627930e+00	 9.946638434250099e+00
 1.343301055536691e+00	 2.226108110267525e+00	 9.864326694577059e+00
 1.558601932847723e+00	 2.095730119930762e+00	 1.055171353932600e+01
 1.538220757926134e+00	 2.110734900248901e+00	 1.047775901047878e+01
 1.517710694712104e+00	 2.125530378462812e+00	 1.040898225962447e+01
 1.497074942181159e+00	 2.140114949537473e+00	 1.034398429116735e+01
 1.476316724606804e+00	 2.154487073136627e+00	 1.028121092584779e+01
 1.455439289940117e+00	 2.168645274081883e+00	 1.021957658816727e+01
 1.434445908180875e+00	 2.182588142763590e+00	 1.015725271834068e+01
 1.413339869741829e+00	 2.196314335503339e+00	 1.009206897965750e+01
 1.392124483807802e+00	 2.209822574868046e+00	 1.002187880163516e+01
 1.370803076691257e+00	 2.223111649935649e+00	 9.944593649422249e+00
 1.349378990185976e+00	 2.236180416512479e+00	 9.863379230572374e+00
 1.565622259055364e+00	 2.105169803516414e+00	 1.055128847709424e+01
 1.545149282312505e+00	 2.120242169053077e+00	 1.047831322153785e+01
 1.524546836732706e+00	 2.135104289737451e+00	 1.041053548195978e+01
 1.503818135700445e+00	 2.149754553305047e+00	 1.034641412528558e+01
 1.482966418012125e+00	 2.164191412481544e+00	 1.028420930222375e+01
 1.461994946248379e+00	 2.178413385443986e+00	 1.022245032520271e+01
 1.440907005137845e+00	 2.192419056233493e+00	 1.015951036240966e+01
 1.419705899914081e+00	 2.206207075119393e+00	 1.009303137742817e+01
 1.398394954667276e+00	 2.219776158914728e+00	 1.002067445419216e+01
 1.376977510692400e+00	 2.233125091243140e+00	 9.942891552604925e+00
 1.355456924835478e+00	 2.246252722757233e+00	 9.864278676755704e+00
 1.572642585262906e+00	 2.114609487101767e+00	 1.055080790852435e+01
 1.552077806698791e+00	 2.129749437856980e+00	 1.047889299361631e+01
 1.531382978753240e+00	 2.144678201011842e+00	 1.041211265850696e+01
 1.510561329219685e+00	 2.159394157072386e+00	 1.034878567253792e+01
 1.489616111417430e+00	 2.173895751826243e+00	 1.028702311523536e+01
 1.468550602556654e+00	 2.188181496805885e+00	 1.022493810597743e+01
 1.447368102094862e+00	 2.202249969703204e+00	 1.016100468948418e+01
 1.426071930086418e+00	 2.216099814735266e+00	 1.009276363444854e+01
 1.404665425526872e+00	 2.229729742961242e+00	 1.001878041182972e+01
 1.383151944693705e+00	 2.243138532550482e+00	 9.942995906376940e+00
 1.361534859485181e+00	 2.256325029001856e+00	 9.866439478663221e+00
 1.579662911470398e+00	 2.124049170686888e+00	 1.055014456223130e+01
 1.559006331085034e+00	 2.139256706660687e+00	 1.047936437546695e+01
 1.538219120773742e+00	 2.154252112286065e+00	 1.041357445587813e+01
 1.517304522738907e+00	 2.169033760839584e+00	 1.035095552494328e+01
 1.496265804822732e+00	 2.183600091170817e+00	 1.028947150323611e+01
 1.475106258864948e+00	 2.197949608167673e+00	 1.022691449474885e+01
 1.453829199051922e+00	 2.212080883172814e+00	 1.016162111100613e+01
 1.432437960258826e+00	 2.225992554351049e+00	 1.009139180652150e+01
 1.410935896386572e+00	 2.239683327007675e+00	 1.001847117439327e+01
 1.389326378695153e+00	 2.253151973857749e+00	 9.944323826104604e+00
 1.367612794135071e+00	 2.266397335246414e+00	 9.869277251420336e+00
 1.306833447646476e+00	 2.165674272789922e+00	 9.834433154839786e+00
 1.285988664901319e+00	 2.178116579777626e+00	 9.754960322019574e+00
 1.265050954095041e+00	 2.190343505946594e+00	 9.672353584604869e+00
 1.244023589417914e+00	 2.202354141029690e+00	 9.584923136283280e+00
 1.222909853608373e+00	 2.214147639780581e+00	 9.491052990992120e+00
 1.201713036371646e+00	 2.225723221950192e+00	 9.389857170113146e+00
 1.180436432805895e+00	 2.237080172218058e+00	 9.290296941498667e+00
 1.159083341837330e+00	 2.248217840079079e+00	 9.196399523757421e+00
 1.137657064665731e+00	 2.259135639686202e+00	 9.109121214287974e+00
 1.116160903221783e+00	 2.269833049649630e+00	 9.029423249428399e+00
 1.094598158637595e+00	 2.280309612793177e+00	 8.957384972610251e+00
 1.312911382294110e+00	 2.175746579037458e+00	 9.846986138380759e+00
 1.291969652820392e+00	 2.188246753788448e+00	 9.767557809706862e+00
 1.270934563087662e+00	 2.200530546008832e+00	 9.683643887511888e+00
 1.249809402514088e+00	 2.212597041197937e+00	 9.593357674664436e+00
 1.228597469105752e+00	 2.224445390178300e+00	 9.495125163496892e+00
 1.207302067867936e+00	 2.236074809072008e+00	 9.396271535445690e+00
 1.185926509223935e+00	 2.247484579231732e+00	 9.301520054229574e+00
 1.164474107442896e+00	 2.258674047126963e+00	 9.211666635675080e+00
 1.142948179078110e+00	 2.269642624185951e+00	 9.127524790050529e+00
 1.121352041417172e+00	 2.280389786593986e+00	 9.049909058438402e+00
 1.099689010945390e+00	 2.290915075048622e+00	 8.979222690087020e+00
 1.318989316942059e+00	 2.185818885284398e+00	 9.856464929690556e+00
 1.297950640739767e+00	 2.198376927798773e+00	 9.776164644428487e+00
 1.276818172080545e+00	 2.210717586070686e+00	 9.689939027458157e+00
 1.255595215610461e+00	 2.222839941365924e+00	 9.595741018077367e+00
 1.234285084603256e+00	 2.234743140575889e+00	 9.498745972492770e+00
 1.212891099364268e+00	 2.246426396193827e+00	 9.404611377072685e+00
 1.191416585641932e+00	 2.257888986245543e+00	 9.313984779993309e+00
 1.169864873048341e+00	 2.269130254175111e+00	 9.227545991948086e+00
 1.148239293490303e+00	 2.280149608686085e+00	 9.145988843924760e+00
 1.126543179612331e+00	 2.290946523538838e+00	 9.070004352997360e+00
 1.104779863252934e+00	 2.301520537304653e+00	 9.000149535969594e+00
 1.325067251590309e+00	 2.195891191530809e+00	 9.862891536200795e+00
 1.303931628659436e+00	 2.208507101808656e+00	 9.780816286872451e+00
 1.282701781073693e+00	 2.220904626132200e+00	 9.691295180747188e+00
 1.261381028707052e+00	 2.233082841533681e+00	 9.596978573502781e+00
 1.239972700100916e+00	 2.245040890973364e+00	 9.504486706275680e+00
 1.218480130860687e+00	 2.256777983315648e+00	 9.414389505216286e+00
 1.196906662059947e+00	 2.268293393259472e+00	 9.327244232915191e+00
 1.175255638653738e+00	 2.279586461223492e+00	 9.243637315840717e+00
 1.153530407902391e+00	 2.290656593186553e+00	 9.164165727729532e+00
 1.131734317807343e+00	 2.301503260484113e+00	 9.089419837965959e+00
 1.109870715560313e+00	 2.312125999561188e+00	 9.019963616305748e+00
 1.331145186238842e+00	 2.205963497776756e+00	 9.866275989646207e+00
 1.309912616579392e+00	 2.218637275818154e+00	 9.781536768779924e+00
 1.288585390067109e+00	 2.231091666193414e+00	 9.690651220921286e+00
 1.267166841803876e+00	 2.243325741701235e+00	 9.600483063914858e+00
 1.245660315598762e+00	 2.255338641370735e+00	 9.511823436144764e+00
 1.224069162357240e+00	 2.267129570437468e+00	 9.425114945041297e+00
 1.202396738478040e+00	 2.278697800273501e+00	 9.340846878906898e+00
 1.180646404259159e+00	 2.290042668272064e+00	 9.259534731911952e+00
 1.158821522314456e+00	 2.301163577687301e+00	 9.181701164482380e+00
 1.136925456002295e+00	 2.312059997429747e+00	 9.107858487366912e+00
 1.114961567867608e+00	 2.322731461818143e+00	 9.038492743802923e+00
 1.337223120887641e+00	 2.216035804022306e+00	 9.866616251832983e+00
 1.315893604499623e+00	 2.228767449827320e+00	 9.779728256635959e+00
 1.294468999060794e+00	 2.241278706254373e+00	 9.692312633878300e+00
 1.272952654900948e+00	 2.253568641868614e+00	 9.605702319163127e+00
 1.251347931096828e+00	 2.265636391768016e+00	 9.520229523846091e+00
 1.229658193853973e+00	 2.277481157559283e+00	 9.436293236809732e+00
 1.207886814896273e+00	 2.289102207287609e+00	 9.354336831115489e+00
 1.186037169864677e+00	 2.300498875320795e+00	 9.274827059262035e+00
 1.164112636726580e+00	 2.311670562188279e+00	 9.198234541836150e+00
 1.142116594197271e+00	 2.322616734375669e+00	 9.125015840289937e+00
 1.120052420174902e+00	 2.333336924075432e+00	 9.055597190258055e+00
 1.343301055536691e+00	 2.226108110267525e+00	 9.864326694577059e+00
 1.321874592420124e+00	 2.238897623836209e+00	 9.779924734939977e+00
 1.300352608054751e+00	 2.251465746315119e+00	 9.695769296061812e+00
 1.278738467998287e+00	 2.263811542035846e+00	 9.612082454512066e+00
 1.257035546595143e+00	 2.275934142165221e+00	 9.529175931256566e+00
 1.235247225350935e+00	 2.287832744681092e+00	 9.447426738039253e+00
 1.213376891314706e+00	 2.299506614301776e+00	 9.367254147101715e+00
 1.191427935470366e+00	 2.310955082369647e+00	 9.289098106169799e+00
 1.169403751138842e+00	 2.322177546689433e+00	 9.213399206506425e+00
 1.147307732392357e+00	 2.333173471321809e+00	 9.140580297328420e+00
 1.125143272482278e+00	 2.343942386332973e+00	 9.071029825108402e+00
 1.349378990185976e+00	 2.236180416512479e+00	 9.863379230572374e+00
 1.327855580340882e+00	 2.249027797844878e+00	 9.781959910570297e+00
 1.306236217048983e+00	 2.261652786375693e+00	 9.700448461403086e+00
 1.284524281095907e+00	 2.274054442202961e+00	 9.619068192771060e+00
 1.262723162093739e+00	 2.286231892562363e+00	 9.538131532207876e+00
 1.240836256848171e+00	 2.298184331802891e+00	 9.458014927601393e+00
 1.218866967733401e+00	 2.309911021315984e+00	 9.379135127692262e+00
 1.196818701076298e+00	 2.321411289418585e+00	 9.301926966076092e+00
 1.174694865551324e+00	 2.332684531190708e+00	 9.226822759656883e+00
 1.152498870587636e+00	 2.343730208268101e+00	 9.154233417533799e+00
 1.130234124789820e+00	 2.354547848590680e+00	 9.084531341058010e+00
 1.355456924835478e+00	 2.246252722757233e+00	 9.864278676755704e+00
 1.333836568261891e+00	 2.259157971853382e+00	 9.785250506609650e+00
 1.312119826043492e+00	 2.271839826436139e+00	 9.705776921763434e+00
 1.290310094193825e+00	 2.284297342369987e+00	 9.626103188623309e+00
 1.268410777592649e+00	 2.296529642959453e+00	 9.546563426382917e+00
 1.246425288345728e+00	 2.308535918924676e+00	 9.467554711699339e+00
 1.224357044152416e+00	 2.320315428330212e+00	 9.389512617454168e+00
 1.202209466682545e+00	 2.331867496467572e+00	 9.312888314870520e+00
 1.179985979964108e+00	 2.343191515692054e+00	 9.238127353214256e+00
 1.157690008783194e+00	 2.354286945214476e+00	 9.165650215869295e+00
 1.135324977097609e+00	 2.365153310848470e+00	 9.095834735849069e+00
 1.361534859485181e+00	 2.256325029001856e+00	 9.866439478663221e+00
 1.339817556183142e+00	 2.269288145861775e+00	 9.789213637942041e+00
 1.318003435038281e+00	 2.282026866496497e+00	 9.711181346488859e+00
 1.296095907292058e+00	 2.294540242536951e+00	 9.632630355085025e+00
 1.274098393091903e+00	 2.306827393356508e+00	 9.553937255220415e+00
 1.252014319843653e+00	 2.318887506046449e+00	 9.475540731665273e+00
 1.229847120571816e+00	 2.330719835344444e+00	 9.397916306739633e+00
 1.207600232289182e+00	 2.342323703516573e+00	 9.321552709441454e+00
 1.185277094377274e+00	 2.353698500193418e+00	 9.246929987082678e+00
 1.162881146979116e+00	 2.364843682160862e+00	 9.174499461148615e+00
 1.140415829405728e+00	 2.375758773106259e+00	 9.104665612882993e+00
 1.367612794135071e+00	 2.266397335246414e+00	 9.869277251420336e+00
 1.345798544104625e+00	 2.279418319870113e+00	 9.793267168631822e+00
 1.323887044033352e+00	 2.292213906556814e+00	 9.716088624079653e+00
 1.301881720390622e+00	 2.304783142703884e+00	 9.638092192027610e+00
 1.279786008591533e+00	 2.317125143753540e+00	 9.559717519763925e+00
 1.257603351341992e+00	 2.329239093168202e+00	 9.481465673522193e+00
 1.235337196991659e+00	 2.341124242358659e+00	 9.403873035252863e+00
 1.212990997896279e+00	 2.352779910565553e+00	 9.327486887449433e+00
 1.190568208790905e+00	 2.364205484694748e+00	 9.252842807229303e+00
 1.168072285175488e+00	 2.375400419107196e+00	 9.180443974443602e+00
 1.145506681714263e+00	 2.386364235363962e+00	 9.110742481861340e+00
 1.094598158637595e+00	 2.280309612793177e+00	 8.957384972610249e+00
 1.072968447705866e+00	 2.290566660282311e+00	 8.888028167725599e+00
 1.051278726511817e+00	 2.300602061061976e+00	 8.817954370899530e+00
 1.029532285374395e+00	 2.310415546993532e+00	 8.747274099150438e+00
 1.007732407891162e+00	 2.320006912803262e+00	 8.676068876525136e+00
 9.858823694932318e-01	 2.329376015636943e+00	 8.604384347300261e+00
 9.639854360208543e-01	 2.338522774576255e+00	 8.532224654714078e+00
 9.420448623207566e-01	 2.347447170118017e+00	 8.459548061717772e+00
 9.200638908662985e-01	 2.356149243617164e+00	 8.386263781552961e+00
 8.980457504014802e-01	 2.364629096694514e+00	 8.312229977769830e+00
 8.759936546097636e-01	 2.372886890610309e+00	 8.237252885659316e+00
 1.099689010945390e+00	 2.290915075048622e+00	 8.979222690087020e+00
 1.077958702673207e+00	 2.301219826906432e+00	 8.910340553825332e+00
 1.056168105037803e+00	 2.311301901201053e+00	 8.839759676839751e+00
 1.034320523661011e+00	 2.321161028546737e+00	 8.767797783001733e+00
 1.012419257412022e+00	 2.330797002715048e+00	 8.694744434246850e+00
 9.904675969555958e-01	 2.340209680187343e+00	 8.620853754956121e+00
 9.684688233210242e-01	 2.349398979668939e+00	 8.546338470102430e+00
 9.464262064929448e-01	 2.358364881565930e+00	 8.471365232980691e+00
 9.243430040250826e-01	 2.367107427425571e+00	 8.396051209362165e+00
 9.022224596779475e-01	 2.375626719341285e+00	 8.320461876456292e+00
 8.800678020814681e-01	 2.383922919323300e+00	 8.244609987159865e+00
 1.104779863252934e+00	 2.301520537304653e+00	 9.000149535969594e+00
 1.082948957640312e+00	 2.311872993531216e+00	 8.931521244584214e+00
 1.061057483563590e+00	 2.322001741340847e+00	 8.860412760070329e+00
 1.039108761947486e+00	 2.331906510100701e+00	 8.787314206723423e+00
 1.017106106932812e+00	 2.341587092627619e+00	 8.712687584467121e+00
 9.950528244179678e-01	 2.351043344738537e+00	 8.636959158158856e+00
 9.729522106212796e-01	 2.360275184762416e+00	 8.560513210360405e+00
 9.508075506652903e-01	 2.369282593014624e+00	 8.483687132590166e+00
 9.286221171840812e-01	 2.378065611234731e+00	 8.406767820816270e+00
 9.063991689546679e-01	 2.386624341988778e+00	 8.329989332205349e+00
 8.841419495534385e-01	 2.394958948036971e+00	 8.253531751984259e+00
 1.109870715560313e+00	 2.312125999561188e+00	 9.019963616305747e+00
 1.087939212607252e+00	 2.322526160156563e+00	 8.951428566123631e+00
 1.065946862089238e+00	 2.332701581481250e+00	 8.879821359090592e+00
 1.043897000233863e+00	 2.342651991655301e+00	 8.805770170169749e+00
 1.021792956453554e+00	 2.352377182540839e+00	 8.729874292666892e+00
 9.996380518803485e-01	 2.361877009290384e+00	 8.652696245816808e+00
 9.774355979216011e-01	 2.371151389856539e+00	 8.574755297018104e+00
 9.551888948377532e-01	 2.380200304463944e+00	 8.496522372824831e+00
 9.329012303432406e-01	 2.389023795044495e+00	 8.418416323236697e+00
 9.105758782315784e-01	 2.397621964636839e+00	 8.340801494811972e+00
 8.882160970256081e-01	 2.405994976751173e+00	 8.263986559698154e+00
 1.114961567867608e+00	 2.322731461818143e+00	 9.038492743802923e+00
 1.092929467574105e+00	 2.333179326782376e+00	 8.969911203515256e+00
 1.070836240614808e+00	 2.343401421622147e+00	 8.897882955260945e+00
 1.048685238520183e+00	 2.353397473210415e+00	 8.823101819074164e+00
 1.026479805974271e+00	 2.363167272454578e+00	 8.746269683842234e+00
 1.004223279342739e+00	 2.372710673842745e+00	 8.668049881917312e+00
 9.819189852219677e-01	 2.382027594951159e+00	 8.589060535304922e+00
 9.595702390102954e-01	 2.391118015913739e+00	 8.509869342285100e+00
 9.371803435025081e-01	 2.399981978854706e+00	 8.430989767669505e+00
 9.147525875086153e-01	 2.408619587285316e+00	 8.352878590594340e+00
 8.922902444979109e-01	 2.417031005465756e+00	 8.275934755047048e+00
 1.120052420174902e+00	 2.333336924075432e+00	 9.055597190258059e+00
 1.097919722540942e+00	 2.343832493408554e+00	 8.986808359519888e+00
 1.075725619140359e+00	 2.354101261763429e+00	 8.914484935654995e+00
 1.053473476806490e+00	 2.364142954765918e+00	 8.839234807770595e+00
 1.031166655494983e+00	 2.373957362368700e+00	 8.761828201053875e+00
 1.008808506805139e+00	 2.383544338395474e+00	 8.682994256077619e+00
 9.864023725223595e-01	 2.392903800046126e+00	 8.603414253082040e+00
 9.639515831828787e-01	 2.402035727363856e+00	 8.523716329800564e+00
 9.414594566618296e-01	 2.410940162665209e+00	 8.444471654571128e+00
 9.189292967857151e-01	 2.419617209934054e+00	 8.366192006872831e+00
 8.963643919702798e-01	 2.428067034180569e+00	 8.289328708457194e+00
 1.125143272482278e+00	 2.343942386332973e+00	 9.071029825108404e+00
 1.102909977507840e+00	 2.354485660034999e+00	 9.001949912869202e+00
 1.080614997665953e+00	 2.364801101904982e+00	 8.929504755113921e+00
 1.058261715092824e+00	 2.374888436321685e+00	 8.854084460893297e+00
 1.035853505015713e+00	 2.384747452283071e+00	 8.776493762851970e+00
 1.013393734267548e+00	 2.394378002948428e+00	 8.697493032975970e+00
 9.908857598227564e-01	 2.403780005141293e+00	 8.617791438766702e+00
 9.683329273554644e-01	 2.412953438814143e+00	 8.538041647540357e+00
 9.457385698211517e-01	 2.421898346475850e+00	 8.458836039002840e+00
 9.231060060628153e-01	 2.430614832582902e+00	 8.380704376353734e+00
 9.004385394426486e-01	 2.439103062895465e+00	 8.304112876917273e+00
 1.130234124789820e+00	 2.354547848590680e+00	 9.084531341058010e+00
 1.107900232474872e+00	 2.365138826661616e+00	 9.015156576107907e+00
 1.085504376191648e+00	 2.375500942046696e+00	 8.942810097527216e+00
 1.063049953379228e+00	 2.385633917877594e+00	 8.867555934089921e+00
 1.040540354536483e+00	 2.395537542197559e+00	 8.790199919611521e+00
 1.017978961729969e+00	 2.405211667501469e+00	 8.711499500698988e+00
 9.953691471231386e-01	 2.414656210236511e+00	 8.632156878282057e+00
 9.727142715280128e-01	 2.423871150264447e+00	 8.552813753353174e+00
 9.500176829804202e-01	 2.432856530286476e+00	 8.474047635351306e+00
 9.272827153398523e-01	 2.441612455231704e+00	 8.396369661419296e+00
 9.045126869149512e-01	 2.450139091610291e+00	 8.320223865230178e+00
 1.135324977097609e+00	 2.365153310848470e+00	 9.095834735849069e+00
 1.112890487442112e+00	 2.375791993288303e+00	 9.026247151230599e+00
 1.090393754717506e+00	 2.386200782188459e+00	 8.954259036364270e+00
 1.067838191665745e+00	 2.396379399433522e+00	 8.879544373776632e+00
 1.045227204057314e+00	 2.406327632112029e+00	 8.802870008811906e+00
 1.022564189192401e+00	 2.416045332054454e+00	 8.724956718039685e+00
 9.998525344234859e-01	 2.425532415331632e+00	 8.646465291060130e+00
 9.770956157004870e-01	 2.434788861714615e+00	 8.567991372359620e+00
 9.542967961395834e-01	 2.443814714096932e+00	 8.490061921587484e+00
 9.314594246167630e-01	 2.452610077880307e+00	 8.413133238328044e+00
 9.085868343871212e-01	 2.461175120324903e+00	 8.337590487621773e+00
 1.140415829405728e+00	 2.375758773106259e+00	 9.104665612882993e+00
 1.117880742409634e+00	 2.386445159914963e+00	 9.035098565006333e+00
 1.095283133243587e+00	 2.396900622330159e+00	 8.963700194480317e+00
 1.072626429952416e+00	 2.407124880989343e+00	 8.889935075967315e+00
 1.049914053578227e+00	 2.417117722026347e+00	 8.814417309294303e+00
 1.027149416654844e+00	 2.426878996607238e+00	 8.737797660777762e+00
 1.004335921723778e+00	 2.436408620426509e+00	 8.660661465130216e+00
 9.814769598728472e-01	 2.445706573164496e+00	 8.583523617821861e+00
 9.585759092985862e-01	 2.454772897907064e+00	 8.506825243081506e+00
 9.356361338934841e-01	 2.463607700528561e+00	 8.430931981327335e+00
 9.126609818590912e-01	 2.472211149039145e+00	 8.356133829696780e+00
 1.145506681714263e+00	 2.386364235363962e+00	 9.110742481861340e+00
 1.122870997377514e+00	 2.397098326541498e+00	 9.041507226408942e+00
 1.100172511769950e+00	 2.407600462471684e+00	 8.970972903218970e+00
 1.077414668239285e+00	 2.417870362544936e+00	 8.898603644203279e+00
 1.054600903099246e+00	 2.427907811940380e+00	 8.824745194528331e+00
 1.031734644117300e+00	 2.437712661159682e+00	 8.749945366975002e+00
 1.008819309023995e+00	 2.447284825520990e+00	 8.674680391319837e+00
 9.858583040450560e-01	 2.456624284613937e+00	 8.599350111311189e+00
 9.628550224573765e-01	 2.465731081716719e+00	 8.524274915984204e+00
 9.398128431699525e-01	 2.474605323176310e+00	 8.449694346681785e+00
 9.167351293307959e-01	 2.483247177752873e+00	 8.375767310729772e+00
 8.759936546097636e-01	 2.372886890610309e+00	 8.237252885659316e+00
 8.539145567449189e-01	 2.380921498211461e+00	 8.161076096773726e+00
 8.318078883783890e-01	 2.388734619079054e+00	 8.084222338830248e+00
 8.096768077176207e-01	 2.396326587520681e+00	 8.007633768394232e+00
 7.875244529075517e-01	 2.403697794622201e+00	 7.932210416978808e+00
 7.653539408375650e-01	 2.410848687468746e+00	 7.858812139452180e+00
 7.431683659780487e-01	 2.417779768338177e+00	 7.788261297990123e+00
 7.209707992472020e-01	 2.424491593868182e+00	 7.720711660553734e+00
 6.987642869086825e-01	 2.430984774198198e+00	 7.655315582433657e+00
 6.765518495006377e-01	 2.437259972087332e+00	 7.591730926252088e+00
 6.543364807966153e-01	 2.443317902009523e+00	 7.529631638407459e+00
 8.800678020814681e-01	 2.383922919323300e+00	 8.244609987159865e+00
 8.578860168282031e-01	 2.391994894976254e+00	 8.168475999806866e+00
 8.356765328459056e-01	 2.399844353785801e+00	 8.092565165968320e+00
 8.134425230304996e-01	 2.407471631614379e+00	 8.017641373040567e+00
 7.911871401220910e-01	 2.414877121366761e+00	 7.944423038135676e+00
 7.689135155063742e-01	 2.422061272207436e+00	 7.873585630271078e+00
 7.466247580457799e-01	 2.429024588750321e+00	 7.805764952031717e+00
 7.243239529410115e-01	 2.435767630221979e+00	 7.741139871709708e+00
 7.020141606235655e-01	 2.442291009599554e+00	 7.678649544271880e+00
 6.796984156797812e-01	 2.448595392724588e+00	 7.617727109248454e+00
 6.573797258069194e-01	 2.454681497393969e+00	 7.557861581249948e+00
 8.841419495534385e-01	 2.394958948036971e+00	 8.253531751984260e+00
 8.618574769117362e-01	 2.403068291741678e+00	 8.177545567417820e+00
 8.395451773136284e-01	 2.410954088493125e+00	 8.102497978822575e+00
 8.172082383435235e-01	 2.418616675708592e+00	 8.029004717559662e+00
 7.948498273367018e-01	 2.426056448111769e+00	 7.957633084189754e+00
 7.724730901751761e-01	 2.433273856946504e+00	 7.888905005609566e+00
 7.500811501134251e-01	 2.440269409162767e+00	 7.823300876711843e+00
 7.276771066346637e-01	 2.447043666576001e+00	 7.761007730526788e+00
 7.052640343382331e-01	 2.453597245001053e+00	 7.700857094463634e+00
 6.828449818586715e-01	 2.459930813361903e+00	 7.642066788585886e+00
 6.604229708169574e-01	 2.466045092778393e+00	 7.583974756949551e+00
 8.882160970256081e-01	 2.405994976751173e+00	 8.263986559698154e+00
 8.658289369954555e-01	 2.414141688507591e+00	 8.188234620933727e+00
 8.434138217815061e-01	 2.422063823200891e+00	 8.113963004032247e+00
 8.209739536566562e-01	 2.429761719803198e+00	 8.041668830713892e+00
 7.985125145513666e-01	 2.437235774857116e+00	 7.971798207739042e+00
 7.760326648439717e-01	 2.444486441685853e+00	 7.904749780857702e+00
 7.535375421810060e-01	 2.451514229575438e+00	 7.840879099471902e+00
 7.310302603281983e-01	 2.458319702930185e+00	 7.780367826523900e+00
 7.085139080527397e-01	 2.464903480402651e+00	 7.722036043897715e+00
 6.859915480373714e-01	 2.471266233999249e+00	 7.664899018548279e+00
 6.634662158267963e-01	 2.477408688162777e+00	 7.608176933806081e+00
 8.922902444979109e-01	 2.417031005465756e+00	 8.275934755047050e+00
 8.698003970792990e-01	 2.425215085273849e+00	 8.200485817444783e+00
 8.472824662494871e-01	 2.433173557908964e+00	 8.126895994848109e+00
 8.247396689698614e-01	 2.440906763898074e+00	 8.055572787240621e+00
 8.021752017660673e-01	 2.448415101602693e+00	 7.986870463452424e+00
 7.795922395127641e-01	 2.455699026425394e+00	 7.921094074486704e+00
 7.569939342485439e-01	 2.462759049988253e+00	 7.858504304901063e+00
 7.343834140216541e-01	 2.469595739284469e+00	 7.799267375087727e+00
 7.117637817671383e-01	 2.476209715804299e+00	 7.742278866615174e+00
 6.891381142159443e-01	 2.482601654636594e+00	 7.686367400610391e+00
 6.665094608365018e-01	 2.488772283547107e+00	 7.630668166868478e+00
 8.963643919702798e-01	 2.428067034180569e+00	 8.289328708457194e+00
 8.737718571632054e-01	 2.436288482040308e+00	 8.214234687498294e+00
 8.511511107175195e-01	 2.444283292617213e+00	 8.141226250853826e+00
 8.285053842831028e-01	 2.452051807993097e+00	 8.070649714232655e+00
 8.058378889807858e-01	 2.459594428348392e+00	 8.002796305536824e+00
 7.831518141815546e-01	 2.466911611165025e+00	 7.937906600822704e+00
 7.604503263160602e-01	 2.474003870401134e+00	 7.876175826828134e+00
 7.377365677150702e-01	 2.480871775638787e+00	 7.817748147607785e+00
 7.150136554814834e-01	 2.487515951205951e+00	 7.761672642600770e+00
 6.922846803944543e-01	 2.493937075273908e+00	 7.706610041919654e+00
 6.695527058461415e-01	 2.500135878931366e+00	 7.651642774929148e+00
 9.004385394426486e-01	 2.439103062895465e+00	 8.304112876917271e+00
 8.777433172471112e-01	 2.447361878806827e+00	 8.229409673627634e+00
 8.550197551855515e-01	 2.455393027325501e+00	 8.156876638852818e+00
 8.322710995963445e-01	 2.463196852088146e+00	 8.086826798895949e+00
 8.095005761955041e-01	 2.470773755094102e+00	 8.019516586680439e+00
 7.867113888503450e-01	 2.478124195904657e+00	 7.955150664288945e+00
 7.639067183835764e-01	 2.485248690814001e+00	 7.893887641773510e+00
 7.410897214084868e-01	 2.492147811993078e+00	 7.835846589697978e+00
 7.182635291958287e-01	 2.498822186607558e+00	 7.780299001438969e+00
 6.954312465729644e-01	 2.505272495911159e+00	 7.725759514264867e+00
 6.725959508557805e-01	 2.511499474315539e+00	 7.671289317551372e+00
 9.045126869149512e-01	 2.450139091610291e+00	 8.320223865230178e+00
 8.817147773309547e-01	 2.458435275573262e+00	 8.245932169690047e+00
 8.588883996535320e-01	 2.466502762033697e+00	 8.173763614882338e+00
 8.360368149095498e-01	 2.474341896183098e+00	 8.104025297641016e+00
 8.131632634102044e-01	 2.481953081839717e+00	 8.036966558425911e+00
 7.902709635191371e-01	 2.489336780644194e+00	 7.972784155072451e+00
 7.673631104511144e-01	 2.496493511226775e+00	 7.911628363720933e+00
 7.444428751019424e-01	 2.503423848347278e+00	 7.853609900839008e+00
 7.215134029102274e-01	 2.510128422009076e+00	 7.798234066808647e+00
 6.985778127515377e-01	 2.516607916548316e+00	 7.743942813516975e+00
 6.756391958654864e-01	 2.522863069699612e+00	 7.689790572124698e+00
 9.085868343871212e-01	 2.461175120324903e+00	 8.337590487621775e+00
 8.856862374146743e-01	 2.469508672339471e+00	 8.263716560986676e+00
 8.627570441214099e-01	 2.477612496741668e+00	 8.191797247320800e+00
 8.398025302226826e-01	 2.485486940277831e+00	 8.122160546465011e+00
 8.168259506248694e-01	 2.493132408585123e+00	 8.055075872929857e+00
 7.938305381879331e-01	 2.500549365383542e+00	 7.990759546168417e+00
 7.708195025186954e-01	 2.507738331639381e+00	 7.929381240165142e+00
 7.477960287954769e-01	 2.514699884701325e+00	 7.871071282678145e+00
 7.247632766247341e-01	 2.521434657410457e+00	 7.815548401788175e+00
 7.017243789302380e-01	 2.527943337185352e+00	 7.761281319526566e+00
 6.786824408753253e-01	 2.534226665083569e+00	 7.707323510950645e+00
 9.126609818590912e-01	 2.472211149039145e+00	 8.356133829696779e+00
 8.896576974982069e-01	 2.480582069105311e+00	 8.282670265141997e+00
 8.666256885891322e-01	 2.488722231449278e+00	 8.210881241053187e+00
 8.435682455357064e-01	 2.496631984372223e+00	 8.141141972586034e+00
 8.204886378394803e-01	 2.504311735330214e+00	 8.073768586062689e+00
 7.973901128567350e-01	 2.511761950122604e+00	 8.009023891760657e+00
 7.742758945863404e-01	 2.518983152051732e+00	 7.947124149398115e+00
 7.511491824891293e-01	 2.525975921055156e+00	 7.888246713050778e+00
 7.280131503394017e-01	 2.532740892811653e+00	 7.832306954947368e+00
 7.048709451091280e-01	 2.539278757822231e+00	 7.777890756464361e+00
 6.817256858853634e-01	 2.545590260467394e+00	 7.724059278355424e+00
 9.167351293307959e-01	 2.483247177752873e+00	 8.375767310729772e+00
 8.936291575814916e-01	 2.491655465870639e+00	 8.302693773717639e+00
 8.704943330566495e-01	 2.499831966156395e+00	 8.230912962662384e+00
 8.473339608485855e-01	 2.507777028466152e+00	 8.160873107289218e+00
 8.241513250540199e-01	 2.515491062074882e+00	 8.092963161809854e+00
 8.009496875255444e-01	 2.522974534861289e+00	 8.027518826895752e+00
 7.777322866540720e-01	 2.530227972463756e+00	 7.964829598992570e+00
 7.545023361829394e-01	 2.537251957408708e+00	 7.905146730078815e+00
 7.312630240542853e-01	 2.544047128212620e+00	 7.848569007200226e+00
 7.080175112882720e-01	 2.550614178458924e+00	 7.793881153590474e+00
 6.847689308956678e-01	 2.556953855851073e+00	 7.740163167830518e+00
 6.543364807966153e-01	 2.443317902009523e+00	 7.529631638407459e+00
 6.321211471019724e-01	 2.449159329757832e+00	 7.469266630118035e+00
 6.099087871610814e-01	 2.454785073084901e+00	 7.410963142411728e+00
 5.877023102576083e-01	 2.460195999134898e+00	 7.354553754866990e+00
 5.655045949970589e-01	 2.465393022925037e+00	 7.299914152908123e+00
 5.433184884332892e-01	 2.470377106342298e+00	 7.246968037394831e+00
 5.211468052289564e-01	 2.475149257124695e+00	 7.195690921248907e+00
 4.989923268500625e-01	 2.479710527828324e+00	 7.146112843112781e+00
 4.768578007947197e-01	 2.484062014781376e+00	 7.098320032250148e+00
 4.547459398562025e-01	 2.488204857026319e+00	 7.052455562756212e+00
 4.326594214203159e-01	 2.492140235251415e+00	 7.008719038667641e+00
 6.573797258069194e-01	 2.454681497393969e+00	 7.557861581249948e+00
 6.350610711062948e-01	 2.460550092962392e+00	 7.499206386828795e+00
 6.127454039900434e-01	 2.466202000985765e+00	 7.442157431340366e+00
 5.904356472725723e-01	 2.471638092641231e+00	 7.386618593290002e+00
 5.681346929474478e-01	 2.476859287201637e+00	 7.332544468469173e+00
 5.458454013098444e-01	 2.481866551027577e+00	 7.279945185188708e+00
 5.235706001130885e-01	 2.486660896543931e+00	 7.228890073315086e+00
 5.013130837594594e-01	 2.491243381202102e+00	 7.179510218394062e+00
 4.790756125253640e-01	 2.495615106429166e+00	 7.131999936451805e+00
 4.568609118209639e-01	 2.499777216565140e+00	 7.086617209016777e+00
 4.346716714842763e-01	 2.503730897789521e+00	 7.043683121500568e+00
 6.604229708169574e-01	 2.466045092778393e+00	 7.583974756949551e+00
 6.380009951103692e-01	 2.471940856166844e+00	 7.526686107553868e+00
 6.155820208187998e-01	 2.477618928886434e+00	 7.470669982182988e+00
 5.931689842873917e-01	 2.483080186147286e+00	 7.415871788894715e+00
 5.707647908977661e-01	 2.488325551477878e+00	 7.362295266452611e+00
 5.483723141864083e-01	 2.493355995712420e+00	 7.310007246021787e+00
 5.259943949973077e-01	 2.498172535962656e+00	 7.259141232044274e+00
 5.036338406690141e-01	 2.502776234575299e+00	 7.209899834845572e+00
 4.812934242562241e-01	 2.507168198076315e+00	 7.162556091931267e+00
 4.589758837859794e-01	 2.511349576103268e+00	 7.117453718977566e+00
 4.366839215485025e-01	 2.515321560326890e+00	 7.075006335193246e+00
 6.634662158267963e-01	 2.477408688162777e+00	 7.608176933806081e+00
 6.409409191142570e-01	 2.483331619371184e+00	 7.551966126481062e+00
 6.184186376474021e-01	 2.489035856786921e+00	 7.496806543590201e+00
 5.959023213021033e-01	 2.494522279653088e+00	 7.442655732198262e+00
 5.733948888480318e-01	 2.499791815753796e+00	 7.389537191075997e+00
 5.508992270629784e-01	 2.504845440396873e+00	 7.337545119338360e+00
 5.284181898815926e-01	 2.509684175380929e+00	 7.286847948241018e+00
 5.059545975786880e-01	 2.514309087947988e+00	 7.237690689937740e+00
 4.835112359872458e-01	 2.518721289722906e+00	 7.190396141507108e+00
 4.610908557511850e-01	 2.522921935640794e+00	 7.145364986704151e+00
 4.386961716129282e-01	 2.526912222863624e+00	 7.103074841648853e+00
 6.665094608365018e-01	 2.488772283547107e+00	 7.630668166868478e+00
 6.438808431180206e-01	 2.494722382575414e+00	 7.575300797592189e+00
 6.212552544759012e-01	 2.500452784687239e+00	 7.520866737393762e+00
 5.986356583167431e-01	 2.505964373158662e+00	 7.467306652785616e+00
 5.760249867982620e-01	 2.511258080029428e+00	 7.414634796192177e+00
 5.534261399395531e-01	 2.516334885080985e+00	 7.362943781675718e+00
 5.308419847659208e-01	 2.521195814798811e+00	 7.312408106397989e+00
 5.082753544884406e-01	 2.525841941320239e+00	 7.263286452845851e+00
 4.857290477183758e-01	 2.530274381369018e+00	 7.215922811470375e+00
 4.632058277165177e-01	 2.534494295177810e+00	 7.170746467633217e+00
 4.407084216774865e-01	 2.538502885399823e+00	 7.128270900603107e+00
 6.695527058461415e-01	 2.500135878931366e+00	 7.651642774929148e+00
 6.468207671217218e-01	 2.506113145779532e+00	 7.596938489849213e+00
 6.240918713043492e-01	 2.511869712587399e+00	 7.543144068770649e+00
 6.013689953313469e-01	 2.517406466664034e+00	 7.490154641407430e+00
 5.786550847484746e-01	 2.522724344304812e+00	 7.437946576447002e+00
 5.559530528161301e-01	 2.527824329764805e+00	 7.386582324182321e+00
 5.332657796502708e-01	 2.532707454216360e+00	 7.336213966044397e+00
 5.105961113982331e-01	 2.537374794692122e+00	 7.287085507271956e+00
 4.879468594495597e-01	 2.541827473014734e+00	 7.239533953695830e+00
 4.653207996819138e-01	 2.546066654714403e+00	 7.193989217960098e+00
 4.427206717421115e-01	 2.550093547935589e+00	 7.150972904446654e+00
 6.725959508557805e-01	 2.511499474315539e+00	 7.671289317551372e+00
 6.497606911254237e-01	 2.517503908983537e+00	 7.617121581963620e+00
 6.269284881327973e-01	 2.523286640487416e+00	 7.563925935625513e+00
 6.041023323459502e-01	 2.528848560169228e+00	 7.511523671012376e+00
 5.812851826986875e-01	 2.534190608579986e+00	 7.459824997166039e+00
 5.584799656927070e-01	 2.539313774448384e+00	 7.408833988727888e+00
 5.356895745346208e-01	 2.544219093633639e+00	 7.358652201617002e+00
 5.129168683080255e-01	 2.548907648063709e+00	 7.309480992782165e+00
 4.901646711807435e-01	 2.553380564660131e+00	 7.261622586319074e+00
 4.674357716473100e-01	 2.557639014250670e+00	 7.215479932694832e+00
 4.447329218067364e-01	 2.561684210471020e+00	 7.171555411869076e+00
 6.756391958654864e-01	 2.522863069699612e+00	 7.689790572124698e+00
 6.527006151291873e-01	 2.528894672187427e+00	 7.636086456759118e+00
 6.297651049612966e-01	 2.534703568387301e+00	 7.583493637213861e+00
 6.068356693605901e-01	 2.540290653674271e+00	 7.531731616746628e+00
 5.839152806489177e-01	 2.545656872854987e+00	 7.480616523007080e+00
 5.610068785692816e-01	 2.550803219131768e+00	 7.430066202648964e+00
 5.381133694189489e-01	 2.555730733050702e+00	 7.380103940901217e+00
 5.152376252177784e-01	 2.560440501435068e+00	 7.330860844708072e+00
 4.923824829118734e-01	 2.564933656305294e+00	 7.282576933024861e+00
 4.695507436126426e-01	 2.569211373786697e+00	 7.235600982431288e+00
 4.467451718712949e-01	 2.573274873006220e+00	 7.190389180362271e+00
 6.786824408753253e-01	 2.534226665083569e+00	 7.707323510950645e+00
 6.556405391330750e-01	 2.540285435391203e+00	 7.654063495141544e+00
 6.326017217898988e-01	 2.546120496287067e+00	 7.602122382032149e+00
 6.095690063753016e-01	 2.551732747179186e+00	 7.551090274954181e+00
 5.865453785991833e-01	 2.557123137129851e+00	 7.500661645419211e+00
 5.635337914458518e-01	 2.562292663815007e+00	 7.450640612172225e+00
 5.405371643032335e-01	 2.567242372467615e+00	 7.400944802084441e+00
 5.175583821274521e-01	 2.571973354806272e+00	 7.351607832653301e+00
 4.946002946428952e-01	 2.576486747950300e+00	 7.302780460991553e+00
 4.716657155778482e-01	 2.580783733322576e+00	 7.254730448867793e+00
 4.487574219357204e-01	 2.584865535541289e+00	 7.207841197617168e+00
 6.817256858853634e-01	 2.545590260467394e+00	 7.724059278355424e+00
 6.585804631371492e-01	 2.551676198594861e+00	 7.671277069690094e+00
 6.354383386186556e-01	 2.557537424186727e+00	 7.620081294996552e+00
 6.123023433901214e-01	 2.563174840684000e+00	 7.569905381208270e+00
 5.891754765495019e-01	 2.568589401404618e+00	 7.520294908944270e+00
 5.660607043224157e-01	 2.573782108498151e+00	 7.470913114559689e+00
 5.429609591874529e-01	 2.578754011884436e+00	 7.421544929468231e+00
 5.198791390370069e-01	 2.583506208177388e+00	 7.372099597654223e+00
 4.968181063737551e-01	 2.588039839595232e+00	 7.322611917532002e+00
 4.737806875428636e-01	 2.592356092858401e+00	 7.273242159118969e+00
 4.507696719999466e-01	 2.596456198076327e+00	 7.224857854402726e+00
 6.847689308956678e-01	 2.556953855851073e+00	 7.740163167830518e+00
 6.615203871414721e-01	 2.563066961798405e+00	 7.687945537877630e+00
 6.382749554476178e-01	 2.568954352086292e+00	 7.637633423932126e+00
 6.150356804050855e-01	 2.574616934188740e+00	 7.588476627404415e+00
 5.918055744998911e-01	 2.580055665679325e+00	 7.539844936398991e+00
 5.685876171989711e-01	 2.585271553181248e+00	 7.491233889011614e+00
 5.453847540715854e-01	 2.590265651301225e+00	 7.442269027879012e+00
 5.221998959464039e-01	 2.595039061548492e+00	 7.392825418814292e+00
 4.990359181043993e-01	 2.599592931240172e+00	 7.343699238600856e+00
 4.758956595076251e-01	 2.603928452394259e+00	 7.295607010442164e+00
 4.527819220639070e-01	 2.608046860611438e+00	 7.249240397833161e+00
 4.326594214203159e-01	 2.492140235251415e+00	 7.008719038667644e+00
 4.105971401181285e-01	 2.495869986929317e+00	 6.967535990842917e+00
 3.885654638466965e-01	 2.499394685241366e+00	 6.929445819841888e+00
 3.665669668637908e-01	 2.502715628157958e+00	 6.894877837001655e+00
 3.446041854048766e-01	 2.505834150991519e+00	 6.864171912280025e+00
 3.226796171502864e-01	 2.508751625290133e+00	 6.836944228030235e+00
 3.007957207261955e-01	 2.511469457727293e+00	 6.812698244680046e+00
 2.789549152391606e-01	 2.513989088988836e+00	 6.791008082279322e+00
 2.571595798439399e-01	 2.516311992658100e+00	 6.771507624712199e+00
 2.354120533442874e-01	 2.518439674100336e+00	 6.753878475119319e+00
 2.137146338263755e-01	 2.520373669347368e+00	 6.737836982274183e+00
 4.346716714842763e-01	 2.503730897789521e+00	 7.043683121500568e+00
 4.125067810054192e-01	 2.507477996120833e+00	 7.003698379670016e+00
 3.903726378978261e-01	 2.511019087406220e+00	 6.967112521841003e+00
 3.682718283918618e-01	 2.514355475652799e+00	 6.934237364465513e+00
 3.462069005187481e-01	 2.517488502383388e+00	 6.905355690281498e+00
 3.241803635752566e-01	 2.520419545524991e+00	 6.880056328043533e+00
 3.021946876223668e-01	 2.523150018293388e+00	 6.857773135814592e+00
 2.802523030176375e-01	 2.525681368074885e+00	 6.838020837898972e+00
 2.583555999810175e-01	 2.528015075306297e+00	 6.820383151943307e+00
 2.365069281937835e-01	 2.530152652354165e+00	 6.804499743960336e+00
 2.147085964302575e-01	 2.532095642394227e+00	 6.790052238509359e+00
 4.366839215485025e-01	 2.515321560326890e+00	 7.075006335193242e+00
 4.144164218929574e-01	 2.519086005311579e+00	 7.035754398212905e+00
 3.921798119491598e-01	 2.522643489570280e+00	 7.000051071206544e+00
 3.699766899200744e-01	 2.525995323146833e+00	 6.968106008284541e+00
 3.478096156326841e-01	 2.529142853774446e+00	 6.940147204824903e+00
 3.256811100002079e-01	 2.532087465759048e+00	 6.915762008522441e+00
 3.035936545184343e-01	 2.534830578858700e+00	 6.894334510687131e+00
 2.815496907959305e-01	 2.537373647160182e+00	 6.875340149224390e+00
 2.595516201178419e-01	 2.539718157953787e+00	 6.858332801679499e+00
 2.376018030429733e-01	 2.541865630607340e+00	 6.842930683270060e+00
 2.157025590338025e-01	 2.543817615440499e+00	 6.828801284824329e+00
 4.386961716129282e-01	 2.526912222863624e+00	 7.103074841648853e+00
 4.163260627806816e-01	 2.530694014501663e+00	 7.064073908024922e+00
 3.939869860006467e-01	 2.534267891733667e+00	 7.028615481961878e+00
 3.716815514483926e-01	 2.537635170640190e+00	 6.996822422723944e+00
 3.494123307466689e-01	 2.540797205164835e+00	 6.968870498494738e+00
 3.271818564251451e-01	 2.543755385992448e+00	 6.944369031074325e+00
 3.049926214144242e-01	 2.546511139423381e+00	 6.922672699230731e+00
 2.828470785740857e-01	 2.549065926244885e+00	 6.903237775521236e+00
 2.607476402544762e-01	 2.551421240600725e+00	 6.885608643121988e+00
 2.386966778919336e-01	 2.553578608860022e+00	 6.869402579430886e+00
 2.166965216370948e-01	 2.555539588486343e+00	 6.854293564885600e+00
 4.407084216774865e-01	 2.538502885399823e+00	 7.128270900603107e+00
 4.182357036685299e-01	 2.542302023691202e+00	 7.089023401221722e+00
 3.957941600522358e-01	 2.545892293896499e+00	 7.053156872624983e+00
 3.733864129767813e-01	 2.549275018132995e+00	 7.020721631360535e+00
 3.510150458606858e-01	 2.552451556554686e+00	 6.991847548719524e+00
 3.286826028500728e-01	 2.555423306225338e+00	 6.966183557434845e+00
 3.063915883103621e-01	 2.558191699987583e+00	 6.943076817915476e+00
 2.841444663521489e-01	 2.560758205329151e+00	 6.921984576881016e+00
 2.619436603909839e-01	 2.563124323247276e+00	 6.902462095287660e+00
 2.397915527407406e-01	 2.565291587112371e+00	 6.884146259213073e+00
 2.176904842402186e-01	 2.567261561531918e+00	 6.866738201819622e+00
 4.427206717421115e-01	 2.550093547935589e+00	 7.150972904446656e+00
 4.201453445564399e-01	 2.553910032880298e+00	 7.110966030319348e+00
 3.976013341038762e-01	 2.557516696058900e+00	 7.074023491887401e+00
 3.750912745052055e-01	 2.560914865625385e+00	 7.040137088686296e+00
 3.526177609747191e-01	 2.564105907944143e+00	 7.009398265403769e+00
 3.301833492749958e-01	 2.567091226457863e+00	 6.981510148514323e+00
 3.077905552062740e-01	 2.569872260551460e+00	 6.955834770325913e+00
 2.854418541301662e-01	 2.572450484413133e+00	 6.931850516389128e+00
 2.631396805274284e-01	 2.574827405893596e+00	 6.909143930778483e+00
 2.408864275894712e-01	 2.577004565364545e+00	 6.887392095099144e+00
 2.186844468432583e-01	 2.578983534577381e+00	 6.866344004995516e+00
 4.447329218067364e-01	 2.561684210471020e+00	 7.171555411869076e+00
 4.220549854443500e-01	 2.565518042069070e+00	 7.130261637050902e+00
 3.994085081555163e-01	 2.569141098220988e+00	 7.091560743414517e+00
 3.767961360336295e-01	 2.572554713117485e+00	 7.055399866440247e+00
 3.542204760887523e-01	 2.575760259333341e+00	 7.021840487889986e+00
 3.316840956999185e-01	 2.578759146690166e+00	 6.990651762852425e+00
 3.091895221021858e-01	 2.581552821115158e+00	 6.961233247207465e+00
 2.867392419081833e-01	 2.584142763496988e+00	 6.933104661811457e+00
 2.643357006638727e-01	 2.586530488539841e+00	 6.905904279103026e+00
 2.419813024382017e-01	 2.588717543616704e+00	 6.879370010187168e+00
 2.196784094462979e-01	 2.590705507622891e+00	 6.853319476409028e+00
 4.467451718712949e-01	 2.573274873006220e+00	 7.190389180362271e+00
 4.239646263321982e-01	 2.577126051257626e+00	 7.147266780202454e+00
 4.012156822071055e-01	 2.580765500382884e+00	 7.106111209791896e+00
 3.785009975620184e-01	 2.584194560609426e+00	 7.066838624152752e+00
 3.558231912027693e-01	 2.587414610722422e+00	 7.029489981271639e+00
 3.331848421248462e-01	 2.590427066922398e+00	 6.993909754496778e+00
 3.105884889981237e-01	 2.593233381678834e+00	 6.959592100842400e+00
 2.880366296862467e-01	 2.595835042580874e+00	 6.926977098899797e+00
 2.655317208003806e-01	 2.598233571186176e+00	 6.896153588569317e+00
 2.430761772870089e-01	 2.600430521869011e+00	 6.866895915476768e+00
 2.206723720494217e-01	 2.602427480668607e+00	 6.839004744354104e+00
 4.487574219357204e-01	 2.584865535541289e+00	 7.207841197617168e+00
 4.258742672199223e-01	 2.588734060446075e+00	 7.162334762491380e+00
 4.030228562585924e-01	 2.592389902544709e+00	 7.118014675646844e+00
 3.802058590903366e-01	 2.595834408101338e+00	 7.075416465926768e+00
 3.574259063167539e-01	 2.599068962111519e+00	 7.035512085452286e+00
 3.346855885497833e-01	 2.602094987154699e+00	 6.998406071318450e+00
 3.119874558941135e-01	 2.604913942242638e+00	 6.963732624281436e+00
 2.893340174644018e-01	 2.607527321664946e+00	 6.931162227261789e+00
 2.667277409370150e-01	 2.609936653832755e+00	 6.900423696686012e+00
 2.441710521359691e-01	 2.612143500121622e+00	 6.871287617315539e+00
 2.216663346527142e-01	 2.614149453714686e+00	 6.843550908879184e+00
 4.507696719999466e-01	 2.596456198076327e+00	 7.224857854402724e+00
 4.277839081074605e-01	 2.600342069634530e+00	 7.178569092220604e+00
 4.048300303099261e-01	 2.604014304706584e+00	 7.134502872706646e+00
 3.819107206185490e-01	 2.607474255593350e+00	 7.092848579194488e+00
 3.590286214306901e-01	 2.610723313500776e+00	 7.053844325134495e+00
 3.361863349747347e-01	 2.613762907387217e+00	 7.017616268872473e+00
 3.133864227901811e-01	 2.616594502806719e+00	 6.983822814243802e+00
 2.906314052426950e-01	 2.619219600749361e+00	 6.952142061106407e+00
 2.679237610738394e-01	 2.621639736479740e+00	 6.922309605261487e+00
 2.452659269851591e-01	 2.623856478374698e+00	 6.894102319738847e+00
 2.226602972562593e-01	 2.625871426761287e+00	 6.867323277948648e+00
 4.527819220639070e-01	 2.608046860611438e+00	 7.249240397833161e+00
 4.296935489947510e-01	 2.611950078823102e+00	 7.205023588228340e+00
 4.066372043610558e-01	 2.615638706868630e+00	 7.163003156648248e+00
 3.836155821466201e-01	 2.619114103085594e+00	 7.123334293930569e+00
 3.606313365445616e-01	 2.622377664890325e+00	 7.086215719496870e+00
 3.376870813997050e-01	 2.625430827620098e+00	 7.051796297993337e+00
 3.147853896863528e-01	 2.628275063371236e+00	 7.019770636836194e+00
 2.919287930211720e-01	 2.630911879834275e+00	 6.989834545351897e+00
 2.691197812109172e-01	 2.633342819127289e+00	 6.961740318773404e+00
 2.463608018346554e-01	 2.635569456628400e+00	 6.935280876502388e+00
 2.236542598601416e-01	 2.637593399808569e+00	 6.910275052610819e+00
 2.137146338263755e-01	 2.520373669347368e+00	 6.737836982274182e+00
 1.920732445176944e-01	 2.522115264057928e+00	 6.723324621285672e+00
 1.704863655158561e-01	 2.523666396208623e+00	 6.710562393713595e+00
 1.489561205501646e-01	 2.525028685822591e+00	 6.699699876966130e+00
 1.274845928565317e-01	 2.526203779109965e+00	 6.690858910306282e+00
 1.060738249613073e-01	 2.527193347384191e+00	 6.684118637795240e+00
 8.472581849407057e-02	 2.527999085983472e+00	 6.679500783655111e+00
 6.344253402890059e-02	 2.528622713198150e+00	 6.676955315385779e+00
 4.222589095362587e-02	 2.529065969204788e+00	 6.676346638694518e+00
 2.107776736653368e-02	 2.529330615007741e+00	 6.677440456743680e+00
 0.000000000000000e+00	 2.529418431388888e+00	 6.679891414781236e+00
 2.147085964302575e-01	 2.532095642394227e+00	 6.790052238509359e+00
 1.929665554661969e-01	 2.533845337064673e+00	 6.776967748144537e+00
 1.712792783303062e-01	 2.535403683355427e+00	 6.765488000288924e+00
 1.496488986290961e-01	 2.536772308824174e+00	 6.755787231903275e+00
 1.280775092873556e-01	 2.537952867337390e+00	 6.748014730831032e+00
 1.065671623309761e-01	 2.538947037981613e+00	 6.742278839586263e+00
 8.511986869887248e-02	 2.539756523979877e+00	 6.738631215743368e+00
 6.373759808351503e-02	 2.540383051614104e+00	 6.737051509372370e+00
 4.242227879957138e-02	 2.540828369154225e+00	 6.737432606292477e+00
 2.117579768013493e-02	 2.541094245794829e+00	 6.739566573967484e+00
 0.000000000000000e+00	 2.541182470600015e+00	 6.743131435027328e+00
 2.157025590338025e-01	 2.543817615440499e+00	 6.828801284824329e+00
 1.938598664143578e-01	 2.545575410070910e+00	 6.815878466930378e+00
 1.720721911444323e-01	 2.547140970501811e+00	 6.804438119676743e+00
 1.503416767077385e-01	 2.548515931825428e+00	 6.794688888401849e+00
 1.286704257179372e-01	 2.549701955564575e+00	 6.786817192407097e+00
 1.070604997004560e-01	 2.550700728578883e+00	 6.780970151135804e+00
 8.551391890354035e-02	 2.551513961976213e+00	 6.777238792317122e+00
 6.403266213804677e-02	 2.552143390030055e+00	 6.775641707742844e+00
 4.261866664547688e-02	 2.552590769103713e+00	 6.776109310276014e+00
 2.127382799372539e-02	 2.552857876582004e+00	 6.778468833340396e+00
 0.000000000000000e+00	 2.552946509811243e+00	 6.782430201876783e+00
 2.166965216370948e-01	 2.555539588486343e+00	 6.854293564885600e+00
 1.947531773622623e-01	 2.557305483076795e+00	 6.840242480995742e+00
 1.728651039583155e-01	 2.558878257647922e+00	 6.827572079516116e+00
 1.510344547861643e-01	 2.560259554826494e+00	 6.816535363472297e+00
 1.292633421483370e-01	 2.561451043791657e+00	 6.807365769237970e+00
 1.075538370697943e-01	 2.562454419176130e+00	 6.800258975793271e+00
 8.590796910810772e-02	 2.563271399972597e+00	 6.795355022507739e+00
 6.432772619251648e-02	 2.563903728446118e+00	 6.792720906471342e+00
 4.281505449135239e-02	 2.564353169053359e+00	 6.792333817905269e+00
 2.137185830730774e-02	 2.564621507369368e+00	 6.794065159430843e+00
 0.000000000000000e+00	 2.564710549022671e+00	 6.797665482278513e+00
 2.176904842402186e-01	 2.567261561531918e+00	 6.866738201819624e+00
 1.956464883099962e-01	 2.569035556082481e+00	 6.850245283727365e+00
 1.736580167720367e-01	 2.570615544793910e+00	 6.835049100727376e+00
 1.517272328644455e-01	 2.572003177827513e+00	 6.821457167465286e+00
 1.298562585786158e-01	 2.573200132018768e+00	 6.809760029875069e+00
 1.080471744390380e-01	 2.574208109773476e+00	 6.800211917331913e+00
 8.630201931260803e-02	 2.575028837969144e+00	 6.793011731114881e+00
 6.462279024694483e-02	 2.575664066862401e+00	 6.788284545675508e+00
 4.301144233720789e-02	 2.576115569003268e+00	 6.786063786304110e+00
 2.146988862088469e-02	 2.576385138157022e+00	 6.786274233597880e+00
 0.000000000000000e+00	 2.576474588234399e+00	 6.788715992003520e+00
 2.186844468432583e-01	 2.578983534577381e+00	 6.866344004995516e+00
 1.965397992576445e-01	 2.580765629088124e+00	 6.846072166276284e+00
 1.744509295856769e-01	 2.582352831939924e+00	 6.827028305306897e+00
 1.524200109426544e-01	 2.583746800828627e+00	 6.809584811062122e+00
 1.304491750088339e-01	 2.584949220246041e+00	 6.794099642549845e+00
 1.085405118082346e-01	 2.585961800371050e+00	 6.780895782790382e+00
 8.669606951707483e-02	 2.586786275965975e+00	 6.770241058136012e+00
 6.491785430135250e-02	 2.587424405279015e+00	 6.762328505030457e+00
 4.320783018305340e-02	 2.587877968953546e+00	 6.757257452976005e+00
 2.156791893445893e-02	 2.588148768945068e+00	 6.755015478843154e+00
 0.000000000000000e+00	 2.588238627446527e+00	 6.755461374082111e+00
 2.196784094462979e-01	 2.590705507622891e+00	 6.853319476409028e+00
 1.974331102052928e-01	 2.592495702093875e+00	 6.827908224914385e+00
 1.752438423993172e-01	 2.594090119086111e+00	 6.803962324659260e+00
 1.531127890208634e-01	 2.595490423829980e+00	 6.782212276129803e+00
 1.310420914390521e-01	 2.596698308473612e+00	 6.762946303143113e+00
 1.090338491774311e-01	 2.597715490968975e+00	 6.746403025976543e+00
 8.709011972154165e-02	 2.598543713963207e+00	 6.732760722189845e+00
 6.521291835576014e-02	 2.599184743696070e+00	 6.722125932080045e+00
 4.340421802889892e-02	 2.599640368904296e+00	 6.714522493690556e+00
 2.166594924803317e-02	 2.599912399733606e+00	 6.709880941413246e+00
 0.000000000000000e+00	 2.600002666659154e+00	 6.708028208212508e+00
 2.206723720494217e-01	 2.602427480668607e+00	 6.839004744354104e+00
 1.983264211530267e-01	 2.604225775099892e+00	 6.812574367872281e+00
 1.760367552130385e-01	 2.605827406232622e+00	 6.788022980434105e+00
 1.538055670991446e-01	 2.607234046831709e+00	 6.765643490486442e+00
 1.316350078693309e-01	 2.608447396701615e+00	 6.745694277021540e+00
 1.095271865466749e-01	 2.609469181567379e+00	 6.728387062928858e+00
 8.748416992604202e-02	 2.610301151960958e+00	 6.713875352823429e+00
 6.550798241018849e-02	 2.610945082113678e+00	 6.702243355444788e+00
 4.360060587475443e-02	 2.611402768855624e+00	 6.693495316372461e+00
 2.176397956161013e-02	 2.611676030522739e+00	 6.687545192678225e+00
 0.000000000000000e+00	 2.611766705872382e+00	 6.684206607367948e+00
 2.216663346527142e-01	 2.614149453714686e+00	 6.843550908879184e+00
 1.992197321009313e-01	 2.615955848106328e+00	 6.817302728271958e+00
 1.768296680269217e-01	 2.617564693379604e+00	 6.792937827102511e+00
 1.544983451775703e-01	 2.618977669833959e+00	 6.770718847597262e+00
 1.322279242997308e-01	 2.620196484930179e+00	 6.750875275381425e+00
 1.100205239160131e-01	 2.621222872166385e+00	 6.733591680779337e+00
 8.787822013060939e-02	 2.622058589959346e+00	 6.718996510357161e+00
 6.580304646465822e-02	 2.622705420531949e+00	 6.707151345773392e+00
 4.379699372062995e-02	 2.623165168807636e+00	 6.698040552929802e+00
 2.186200987519249e-02	 2.623439661312568e+00	 6.691561250546532e+00
 0.000000000000000e+00	 2.623530745086310e+00	 6.687513533788222e+00
 2.226602972562593e-01	 2.625871426761287e+00	 6.867323277948644e+00
 2.001130430490923e-01	 2.627685921113337e+00	 6.842060545433923e+00
 1.776225808410481e-01	 2.629301980527206e+00	 6.818683074058648e+00
 1.551911232562128e-01	 2.630721292836871e+00	 6.797422954345821e+00
 1.328208407303124e-01	 2.631945573159443e+00	 6.778480423617268e+00
 1.105138612854931e-01	 2.632976562766121e+00	 6.762012496638230e+00
 8.827227033527729e-02	 2.633816027958488e+00	 6.748122131627373e+00
 6.609811051919000e-02	 2.634465758950996e+00	 6.736847845590495e+00
 4.399338156653547e-02	 2.634927568760435e+00	 6.728153699132394e+00
 2.196004018878294e-02	 2.635203292103195e+00	 6.721919577307389e+00
 0.000000000000000e+00	 2.635294784301037e+00	 6.717931699842461e+00
 2.236542598601416e-01	 2.637593399808569e+00	 6.910275052610819e+00
 2.010063539975950e-01	 2.639415994121075e+00	 6.886812797189742e+00
 1.784154936554983e-01	 2.641039267675579e+00	 6.865233932697556e+00
 1.558839013351446e-01	 2.642464915840588e+00	 6.845739558818030e+00
 1.334137571611365e-01	 2.643694661389540e+00	 6.828500157481236e+00
 1.110071986551621e-01	 2.644730253366712e+00	 6.813644634817152e+00
 8.866632054007928e-02	 2.645573465958502e+00	 6.801249882940053e+00
 6.639317457380452e-02	 2.646226097370927e+00	 6.791330772323859e+00
 4.418976941248101e-02	 2.646689968714130e+00	 6.783830492008326e+00
 2.205807050238421e-02	 2.646966922894720e+00	 6.778611161561193e+00
 0.000000000000000e+00	 2.647058823516666e+00	 6.775444645767510e+00
 2.647058823516666e+00	 0.000000000000000e+00	 1.125202511688196e+01
 2.646966922894720e+00	 2.205807050238275e-02	 1.125461763343725e+01
 2.646689968714130e+00	 4.418976941247976e-02	 1.125685265113948e+01
 2.646226097370926e+00	 6.639317457380349e-02	 1.125893692205751e+01
 2.645573465958502e+00	 8.866632054007843e-02	 1.126106909514760e+01
 2.644730253366712e+00	 1.110071986551615e-01	 1.126343838466533e+01
 2.643694661389540e+00	 1.334137571611361e-01	 1.126622312888672e+01
 2.642464915840589e+00	 1.558839013351444e-01	 1.126958922317101e+01
 2.641039267675579e+00	 1.784154936554983e-01	 1.127368840974625e+01
 2.639415994121075e+00	 2.010063539975953e-01	 1.127865640501552e+01
 2.637593399808569e+00	 2.236542598601416e-01	 1.128461084358507e+01
 2.658822862733244e+00	 0.000000000000000e+00	 1.123192370585770e+01
 2.658730553687194e+00	 2.215610081599683e-02	 1.123471716088498e+01
 2.658452368668772e+00	 4.438615725847280e-02	 1.123722993496623e+01
 2.657986435791801e+00	 6.668823862851631e-02	 1.123964858604877e+01
 2.657330903959454e+00	 8.906037074503977e-02	 1.124215265168913e+01
 2.656483943968229e+00	 1.115005360250551e-01	 1.124491341301447e+01
 2.655443749620547e+00	 1.340066735922484e-01	 1.124809255412423e+01
 2.654208538845193e+00	 1.565766794144203e-01	 1.125184070066332e+01
 2.652776554824813e+00	 1.792084064703346e-01	 1.125629581959055e+01
 2.651146067129640e+00	 2.018996649465057e-01	 1.126158146051766e+01
 2.649315372856634e+00	 2.246482224644267e-01	 1.126780481733524e+01
 2.670586901950621e+00	 0.000000000000000e+00	 1.121345466266672e+01
 2.670494184480467e+00	 2.225413112962309e-02	 1.121633160215773e+01
 2.670214768624212e+00	 4.458254510451098e-02	 1.121900542209820e+01
 2.669746774213472e+00	 6.698330268332259e-02	 1.122164409723286e+01
 2.669088341961196e+00	 8.945442095015288e-02	 1.122440954157901e+01
 2.668237634570529e+00	 1.119938733951632e-01	 1.122745646558431e+01
 2.667192837852326e+00	 1.345995900236369e-01	 1.123093113416373e+01
 2.665952161850556e+00	 1.572694574940268e-01	 1.123497000905193e+01
 2.664513841974781e+00	 1.800013192855435e-01	 1.123969825714451e+01
 2.662876140138911e+00	 2.027929758958123e-01	 1.124522810478740e+01
 2.661037345905369e+00	 2.256421850691069e-01	 1.125165701624644e+01
 2.682350941168599e+00	 0.000000000000000e+00	 1.119654615742289e+01
 2.682257815274343e+00	 2.235216144326018e-02	 1.119940874296359e+01
 2.681977168580251e+00	 4.477893295058942e-02	 1.120214491935783e+01
 2.681507112635742e+00	 6.727836673821251e-02	 1.120490565650991e+01
 2.680845779963533e+00	 8.984847115540204e-02	 1.120783669937056e+01
 2.679991325173416e+00	 1.124872107654642e-01	 1.121107751599520e+01
 2.678941926084685e+00	 1.351925064552744e-01	 1.121476015223354e+01
 2.677695784856484e+00	 1.579622355739333e-01	 1.121900797620123e+01
 2.676251129125299e+00	 1.807942321010928e-01	 1.122393429386345e+01
 2.674606213148711e+00	 2.036862868454841e-01	 1.122964081527752e+01
 2.672759318954608e+00	 2.266361476741565e-01	 1.123621594924710e+01
 2.694114980386975e+00	 0.000000000000000e+00	 1.118112914828558e+01
 2.694021446068616e+00	 2.245019175690678e-02	 1.118389858597212e+01
 2.693739568536690e+00	 4.497532079670322e-02	 1.118661592582869e+01
 2.693267451058408e+00	 6.757343079317606e-02	 1.118941667896916e+01
 2.692603217966267e+00	 9.024252136077154e-02	 1.119243184255760e+01
 2.691745015776698e+00	 1.129805481359365e-01	 1.119578693652590e+01
 2.690691014317428e+00	 1.357854228871344e-01	 1.119960095299679e+01
 2.689439407862791e+00	 1.586550136541093e-01	 1.120398520128618e+01
 2.687988416276185e+00	 1.815871449169502e-01	 1.120904202947625e+01
 2.686336286158864e+00	 2.045795977954901e-01	 1.121486340170161e+01
 2.684481292004182e+00	 2.276301102795495e-01	 1.122152930842269e+01
 2.705879019605553e+00	 0.000000000000000e+00	 1.116713732085352e+01
 2.705785076863088e+00	 2.254822207056154e-02	 1.116975329946216e+01
 2.705501968493329e+00	 4.517170864284756e-02	 1.117238759018674e+01
 2.705027789481274e+00	 6.786849484820337e-02	 1.117516175932251e+01
 2.704360655969197e+00	 9.063657156624566e-02	 1.117819344451708e+01
 2.703498706380175e+00	 1.134738855065584e-01	 1.118159547796131e+01
 2.702440102550367e+00	 1.363783393191898e-01	 1.118547492868963e+01
 2.701183030869286e+00	 1.593477917345238e-01	 1.118993204659427e+01
 2.699725703427254e+00	 1.823800577330835e-01	 1.119505908881470e+01
 2.698066359169195e+00	 2.054729087457994e-01	 1.120093900724287e+01
 2.696203265053923e+00	 2.286240728852599e-01	 1.120764397394559e+01
 2.717643058824131e+00	 0.000000000000000e+00	 1.115450702913246e+01
 2.717548707657563e+00	 2.264625238422313e-02	 1.115692716730546e+01
 2.717264368449968e+00	 4.536809648901751e-02	 1.115943066914807e+01
 2.716788127904141e+00	 6.816355890328454e-02	 1.116212663825358e+01
 2.716118093972128e+00	 9.103062177180861e-02	 1.116512070818595e+01
 2.715252396983652e+00	 1.139672228773084e-01	 1.116851425001292e+01
 2.714189190783303e+00	 1.369712557514140e-01	 1.117240350568945e+01
 2.712926653875782e+00	 1.600405698151467e-01	 1.117687862963613e+01
 2.711462990578325e+00	 1.831729705494604e-01	 1.118202261884918e+01
 2.709796432179524e+00	 2.063662196963809e-01	 1.118791010988754e+01
 2.707925238103664e+00	 2.296180354912617e-01	 1.119460601906814e+01
 2.729407098042508e+00	 0.000000000000000e+00	 1.114317723802954e+01
 2.729312338451836e+00	 2.274428269789021e-02	 1.114537654024551e+01
 2.729026768406408e+00	 4.556448433520822e-02	 1.114771748699897e+01
 2.728548466326807e+00	 6.845862295840961e-02	 1.115029816965477e+01
 2.727875531974861e+00	 9.142467197744467e-02	 1.115321354045044e+01
 2.727006087586931e+00	 1.144605602481648e-01	 1.115655470229449e+01
 2.725938279016048e+00	 1.375641721837800e-01	 1.116040813150129e+01
 2.724670276882089e+00	 1.607333478959470e-01	 1.116485481555530e+01
 2.723200277729210e+00	 1.839658833660485e-01	 1.116996928592467e+01
 2.721526505189678e+00	 2.072595306472038e-01	 1.117581852387938e+01
 2.719647211153238e+00	 2.306119980975290e-01	 1.118246071517748e+01
 2.741171137260486e+00	 0.000000000000000e+00	 1.113308946732856e+01
 2.741075969245710e+00	 2.284231301156145e-02	 1.113505978843314e+01
 2.740789168362448e+00	 4.576087218141481e-02	 1.113722189617615e+01
 2.740308804749076e+00	 6.875368701356868e-02	 1.113966428872579e+01
 2.739632969977199e+00	 9.181872218313808e-02	 1.114247252722610e+01
 2.738759778189821e+00	 1.149538976191059e-01	 1.114572860583675e+01
 2.737687367248407e+00	 1.381570886162610e-01	 1.114951026214901e+01
 2.736413899888018e+00	 1.614261259768941e-01	 1.115389020982802e+01
 2.734937564879728e+00	 1.847587961828157e-01	 1.115893527319098e+01
 2.733256578199478e+00	 2.081528415982370e-01	 1.116470540129140e+01
 2.731369184202476e+00	 2.316059607040357e-01	 1.117125253690999e+01
 2.752935176477864e+00	 0.000000000000000e+00	 1.112418773710155e+01
 2.752839600038984e+00	 2.294034332523552e-02	 1.112593725518102e+01
 2.752551568317887e+00	 4.595726002763242e-02	 1.112791923886526e+01
 2.752069143170748e+00	 6.904875106875190e-02	 1.113021398090772e+01
 2.751390407978941e+00	 9.221277238887311e-02	 1.113289890920819e+01
 2.750513468792121e+00	 1.154472349901102e-01	 1.113604803512426e+01
 2.749436455480185e+00	 1.387500050488301e-01	 1.113973134995942e+01
 2.748157522893379e+00	 1.621189040579574e-01	 1.114401415124485e+01
 2.746674852029697e+00	 1.855517089997297e-01	 1.114895627822138e+01
 2.744986651208750e+00	 2.090461525494496e-01	 1.115461123371163e+01
 2.743091157251212e+00	 2.325999233107560e-01	 1.116102516732376e+01
 2.764699215694442e+00	 0.000000000000000e+00	 1.111641851451398e+01
 2.764603230831459e+00	 2.303837363891110e-02	 1.111797121190074e+01
 2.764313968272531e+00	 4.615364787385619e-02	 1.111978630958814e+01
 2.763829481591624e+00	 6.934381512394928e-02	 1.112193725162788e+01
 2.763147845979894e+00	 9.260682259463410e-02	 1.112449455827226e+01
 2.762267159393639e+00	 1.159405723611560e-01	 1.112752535063980e+01
 2.761185543711194e+00	 1.393429214814606e-01	 1.113109283172792e+01
 2.759901145897987e+00	 1.628116821391064e-01	 1.113525570516513e+01
 2.758412139178932e+00	 1.863446218167582e-01	 1.114006751081391e+01
 2.756716724217316e+00	 2.099394635008106e-01	 1.114557585403892e+01
 2.754813130299279e+00	 2.335938859176640e-01	 1.115182150312715e+01
 2.637593399808569e+00	 2.236542598601416e-01	 1.128461084358507e+01
 2.635569456628400e+00	 2.463608018346543e-01	 1.129134283595626e+01
 2.633342819127290e+00	 2.691197812109162e-01	 1.129861828870062e+01
 2.630911879834275e+00	 2.919287930211712e-01	 1.130648957767686e+01
 2.628275063371235e+00	 3.147853896863519e-01	 1.131498555931620e+01
 2.625430827620100e+00	 3.376870813997045e-01	 1.132410834414636e+01
 2.622377664890327e+00	 3.606313365445611e-01	 1.133382972639464e+01
 2.619114103085594e+00	 3.836155821466198e-01	 1.134413021421850e+01
 2.615638706868630e+00	 4.066372043610554e-01	 1.135518115182360e+01
 2.611950078823102e+00	 4.296935489947508e-01	 1.136706336612236e+01
 2.608046860611437e+00	 4.527819220639069e-01	 1.137982417454439e+01
 2.649315372856634e+00	 2.246482224644267e-01	 1.126780481733524e+01
 2.647282434882834e+00	 2.474556766845178e-01	 1.127478328532799e+01
 2.645045901775511e+00	 2.703158013482993e-01	 1.128231499994355e+01
 2.642604158919796e+00	 2.932261807998721e-01	 1.129045357519463e+01
 2.639955623936286e+00	 3.161843565826533e-01	 1.129923088967153e+01
 2.637098747853448e+00	 3.391878278247049e-01	 1.130865396868264e+01
 2.634032016280272e+00	 3.622340516583639e-01	 1.131870152180353e+01
 2.630753950578164e+00	 3.853204436745322e-01	 1.132935327901296e+01
 2.627263109030937e+00	 4.084443784119513e-01	 1.134071462042701e+01
 2.623558088011874e+00	 4.316031898817557e-01	 1.135285405746295e+01
 2.619637523146696e+00	 4.547941721275598e-01	 1.136581961214304e+01
 2.661037345905369e+00	 2.256421850691069e-01	 1.125165701624644e+01
 2.658995413137895e+00	 2.485505515347473e-01	 1.125882587412268e+01
 2.656748984424309e+00	 2.715118214859947e-01	 1.126656178068334e+01
 2.654296438005840e+00	 2.945235685788136e-01	 1.127491943334576e+01
 2.651636184501804e+00	 3.175833234791111e-01	 1.128393352760031e+01
 2.648766668087202e+00	 3.406885742497716e-01	 1.129361575102312e+01
 2.645686367670566e+00	 3.638367667721437e-01	 1.130395143228723e+01
 2.642393798071021e+00	 3.870253052023386e-01	 1.131491200946950e+01
 2.638887511193475e+00	 4.102515524626718e-01	 1.132654210213993e+01
 2.635166097200828e+00	 4.335128307685350e-01	 1.133890327199066e+01
 2.631228185682091e+00	 4.568064221909640e-01	 1.135204394314285e+01
 2.672759318954608e+00	 2.266361476741565e-01	 1.123621594924710e+01
 2.670708391393426e+00	 2.496454263853261e-01	 1.124352186754519e+01
 2.668452067073542e+00	 2.727078416239986e-01	 1.125141198257528e+01
 2.665988717092278e+00	 2.958209563580063e-01	 1.125994189335771e+01
 2.663316745067672e+00	 3.189822903757519e-01	 1.126914887932857e+01
 2.660434588321261e+00	 3.421893206749477e-01	 1.127904900959256e+01
 2.657340719061118e+00	 3.654394818859583e-01	 1.128963390703260e+01
 2.654033645564095e+00	 3.887301667301100e-01	 1.130085859830288e+01
 2.650511913356187e+00	 4.120587265132966e-01	 1.131271449345569e+01
 2.646774106389919e+00	 4.354224716551742e-01	 1.132525977372418e+01
 2.642818848217590e+00	 4.588186722542032e-01	 1.133854295331242e+01
 2.684481292004182e+00	 2.276301102795495e-01	 1.122152930842269e+01
 2.682421369649271e+00	 2.507403012362373e-01	 1.122892160046829e+01
 2.680155149723063e+00	 2.739038617623062e-01	 1.123691793763741e+01
 2.677680996178977e+00	 2.971183441374607e-01	 1.124557461124935e+01
 2.674997305633771e+00	 3.203812572726029e-01	 1.125493122354763e+01
 2.672102508555523e+00	 3.436900671002759e-01	 1.126500791567542e+01
 2.668995070451843e+00	 3.670421969998654e-01	 1.127580225064030e+01
 2.665673493057312e+00	 3.904350282579166e-01	 1.128724429532089e+01
 2.662136315519017e+00	 4.138659005639061e-01	 1.129928175679000e+01
 2.658382115579100e+00	 4.373321125417570e-01	 1.131197141901830e+01
 2.654409510753156e+00	 4.608309223173606e-01	 1.132536156453248e+01
 2.696203265053923e+00	 2.286240728852599e-01	 1.120764397394559e+01
 2.694134347905274e+00	 2.518351760874643e-01	 1.121507448565623e+01
 2.691858232372730e+00	 2.750998819009137e-01	 1.122313096957441e+01
 2.689373275265806e+00	 2.984157319171878e-01	 1.123187017205481e+01
 2.686677866199989e+00	 3.217802241696903e-01	 1.124133372833172e+01
 2.683770428789887e+00	 3.451908135257993e-01	 1.125154551281368e+01
 2.680649421842656e+00	 3.686449121139230e-01	 1.126250864478331e+01
 2.677313340550601e+00	 3.921398897858289e-01	 1.127411941922135e+01
 2.673760717681903e+00	 4.156730746145798e-01	 1.128629293278115e+01
 2.669990124768327e+00	 4.392417534283690e-01	 1.129908516908225e+01
 2.666000173288757e+00	 4.628431723805204e-01	 1.131254384724491e+01
 2.707925238103664e+00	 2.296180354912617e-01	 1.119460601906814e+01
 2.705847326161276e+00	 2.529300509389901e-01	 1.120202902200501e+01
 2.703561315022397e+00	 2.762959020398169e-01	 1.121010140507939e+01
 2.701065554352637e+00	 2.997131196971980e-01	 1.121888010399498e+01
 2.698358426766205e+00	 3.231791910670412e-01	 1.122840846798049e+01
 2.695438349024252e+00	 3.466915599515604e-01	 1.123871373611610e+01
 2.692303773233468e+00	 3.702476272281887e-01	 1.124980416977131e+01
 2.688953188043890e+00	 3.938447513139179e-01	 1.126153336929785e+01
 2.685385119844791e+00	 4.174802486653979e-01	 1.127379615250969e+01
 2.681598133957553e+00	 4.411513943150941e-01	 1.128664710243696e+01
 2.677590835824358e+00	 4.648554224437658e-01	 1.130013303286855e+01
 2.719647211153238e+00	 2.306119980975290e-01	 1.118246071517748e+01
 2.717560304417121e+00	 2.540249257907979e-01	 1.118983280279884e+01
 2.715264397671918e+00	 2.774919221790114e-01	 1.119787858511409e+01
 2.712757833439335e+00	 3.010105074775020e-01	 1.120665489259771e+01
 2.710038987332306e+00	 3.245781579646820e-01	 1.121620643978921e+01
 2.707106269258515e+00	 3.481923063776021e-01	 1.122656343148130e+01
 2.703958124624194e+00	 3.718503423427207e-01	 1.123773813988359e+01
 2.700593035537107e+00	 3.955496128422539e-01	 1.124953463705636e+01
 2.697009522007620e+00	 4.192874227164401e-01	 1.126183864963995e+01
 2.693206143146734e+00	 4.430610352020176e-01	 1.127470242731302e+01
 2.689181498359925e+00	 4.668676725071806e-01	 1.128817152618267e+01
 2.731369184202476e+00	 2.316059607040357e-01	 1.117125253690999e+01
 2.729273282672654e+00	 2.551198006428713e-01	 1.117853252398199e+01
 2.726967480321151e+00	 2.786879423184931e-01	 1.118651087616849e+01
 2.724450112525772e+00	 3.023078952581106e-01	 1.119524399476868e+01
 2.721719547898173e+00	 3.259771248626397e-01	 1.120477758074835e+01
 2.718774189492573e+00	 3.496930528039672e-01	 1.121514437473728e+01
 2.715612476014746e+00	 3.734530574575766e-01	 1.122635803465438e+01
 2.712232883030181e+00	 3.972544743709077e-01	 1.123817081774613e+01
 2.708633924170333e+00	 4.210945967677866e-01	 1.125046677248588e+01
 2.704814152335826e+00	 4.449706760892237e-01	 1.126329549399132e+01
 2.700772160895424e+00	 4.688799225708486e-01	 1.127670091767924e+01
 2.743091157251212e+00	 2.325999233107560e-01	 1.116102516732376e+01
 2.740986260927714e+00	 2.562146754951931e-01	 1.116817399244601e+01
 2.738670562969951e+00	 2.798839624582578e-01	 1.117604568150007e+01
 2.736142391611817e+00	 3.036052830390344e-01	 1.118469585281435e+01
 2.733400108463690e+00	 3.273760917609408e-01	 1.119417078417510e+01
 2.730442109726329e+00	 3.511937992306985e-01	 1.120450529070019e+01
 2.727266827405039e+00	 3.750557725728141e-01	 1.121571106988496e+01
 2.723872730523039e+00	 3.989593358999497e-01	 1.122748862180664e+01
 2.720258326332873e+00	 4.229017708195171e-01	 1.123972599600357e+01
 2.716422161524779e+00	 4.468803169767974e-01	 1.125246980708789e+01
 2.712362823430819e+00	 4.708921726348531e-01	 1.126576199588472e+01
 2.754813130299279e+00	 2.335938859176640e-01	 1.115182150312715e+01
 2.752699239182148e+00	 2.573095503477467e-01	 1.115880213433149e+01
 2.750373645618172e+00	 2.810799825983014e-01	 1.116652945235359e+01
 2.747834670697338e+00	 3.049026708202840e-01	 1.117505790841811e+01
 2.745080669028743e+00	 3.287750586596124e-01	 1.118443391627849e+01
 2.742110029959677e+00	 3.526945456578391e-01	 1.119469387215420e+01
 2.738921178794986e+00	 3.766584876884914e-01	 1.120584359848796e+01
 2.735512578015609e+00	 4.006641974294508e-01	 1.121753388623376e+01
 2.731882728495179e+00	 4.247089448717117e-01	 1.122966093371228e+01
 2.728030170713553e+00	 4.487899578648232e-01	 1.124226803778467e+01
 2.723953485966078e+00	 4.729044226992778e-01	 1.125539475965244e+01
 2.608046860611437e+00	 4.527819220639069e-01	 1.137982417454439e+01
 2.603928452394260e+00	 4.758956595076235e-01	 1.139303743038125e+01
 2.599592931240172e+00	 4.990359181043979e-01	 1.140635729277320e+01
 2.595039061548492e+00	 5.221998959464028e-01	 1.141991932913921e+01
 2.590265651301225e+00	 5.453847540715844e-01	 1.143385368086975e+01
 2.585271553181248e+00	 5.685876171989703e-01	 1.144829744242990e+01
 2.580055665679325e+00	 5.918055744998906e-01	 1.146321037316683e+01
 2.574616934188739e+00	 6.150356804050853e-01	 1.147849709574479e+01
 2.568954352086292e+00	 6.382749554476177e-01	 1.149402856854540e+01
 2.563066961798404e+00	 6.615203871414722e-01	 1.150964219914179e+01
 2.556953855851073e+00	 6.847689308956677e-01	 1.152514213361886e+01
 2.619637523146696e+00	 4.547941721275598e-01	 1.136581961214304e+01
 2.615500811930224e+00	 4.780106314720908e-01	 1.137919663011387e+01
 2.611146022885182e+00	 5.012537298347914e-01	 1.139263830134393e+01
 2.606571914919636e+00	 5.245206528556159e-01	 1.140626453520573e+01
 2.601777290718029e+00	 5.478085489556155e-01	 1.142017785620365e+01
 2.596760997864338e+00	 5.711145300755152e-01	 1.143446106598610e+01
 2.591521929954002e+00	 5.944356724503616e-01	 1.144917535779132e+01
 2.586059027693423e+00	 6.177690174202165e-01	 1.146434210273884e+01
 2.580371279985775e+00	 6.411115722768184e-01	 1.147984210415726e+01
 2.574457725001830e+00	 6.644603111460825e-01	 1.149549575903528e+01
 2.568317451234592e+00	 6.878121759062793e-01	 1.151109008618934e+01
 2.631228185682091e+00	 4.568064221909640e-01	 1.135204394314285e+01
 2.627073171466288e+00	 4.801256034363167e-01	 1.136556422670993e+01
 2.622699114530260e+00	 5.034715415649778e-01	 1.137912164857509e+01
 2.618104768290822e+00	 5.268414097646759e-01	 1.139282308853048e+01
 2.613288930134853e+00	 5.502323438395622e-01	 1.140675978292189e+01
 2.608250442547427e+00	 5.736414429520517e-01	 1.142100504974178e+01
 2.602988194228656e+00	 5.970657704009005e-01	 1.143561177513031e+01
 2.597501121198062e+00	 6.205023544354868e-01	 1.145060964761646e+01
 2.591788207885185e+00	 6.439481891062163e-01	 1.146600138448063e+01
 2.585848488205150e+00	 6.674002351509299e-01	 1.148167620293229e+01
 2.579681046617966e+00	 6.908554209171406e-01	 1.149739775552553e+01
 2.642818848217590e+00	 4.588186722542032e-01	 1.133854295331242e+01
 2.638645531002425e+00	 4.822405754003774e-01	 1.135218140374725e+01
 2.634252206175391e+00	 5.056893532950194e-01	 1.136584148261517e+01
 2.629637621662041e+00	 5.291621666736285e-01	 1.137961961516995e+01
 2.624800569551693e+00	 5.526561387234491e-01	 1.139359819703402e+01
 2.619739887230513e+00	 5.761683558285818e-01	 1.140784337809341e+01
 2.614454458503287e+00	 5.996958683514875e-01	 1.142240260363692e+01
 2.608943214702658e+00	 6.232356914508547e-01	 1.143730189849371e+01
 2.603205135784529e+00	 6.467848059357523e-01	 1.145254288013236e+01
 2.597239251408374e+00	 6.703401591559395e-01	 1.146809948700299e+01
 2.591044642001209e+00	 6.938986659281687e-01	 1.148390801078845e+01
 2.654409510753156e+00	 4.608309223173606e-01	 1.132536156453248e+01
 2.650217890538616e+00	 4.843555473643485e-01	 1.133908855524681e+01
 2.645805297820556e+00	 5.079071650249792e-01	 1.135283128066605e+01
 2.641170475033280e+00	 5.314829235825181e-01	 1.136667823363826e+01
 2.636312208968539e+00	 5.550799336073005e-01	 1.138070536471895e+01
 2.631229331913593e+00	 5.786952687051082e-01	 1.139497392069319e+01
 2.625920722777900e+00	 6.023259663021028e-01	 1.140952803623845e+01
 2.620385308207218e+00	 6.259690284662799e-01	 1.142439206390261e+01
 2.614622063683815e+00	 6.496214227653667e-01	 1.143956762776707e+01
 2.608630014611517e+00	 6.732800831610380e-01	 1.145503038647396e+01
 2.602408237384338e+00	 6.969419109392808e-01	 1.147072649172450e+01
 2.666000173288757e+00	 4.628431723805204e-01	 1.131254384724491e+01
 2.661790250074830e+00	 4.864705193283065e-01	 1.132632529747044e+01
 2.657358389465738e+00	 5.101249767549200e-01	 1.134012385924079e+01
 2.652703328404529e+00	 5.338036804913905e-01	 1.135402256271768e+01
 2.647823848385387e+00	 5.575037284911409e-01	 1.136809325773581e+01
 2.642718776596663e+00	 5.812221815816329e-01	 1.138239450288287e+01
 2.637386987052493e+00	 6.049560642527262e-01	 1.139696920367762e+01
 2.631827401711746e+00	 6.287023654817205e-01	 1.141184198443883e+01
 2.626038991583051e+00	 6.524580395949994e-01	 1.142701627862009e+01
 2.620020777814588e+00	 6.762200071661513e-01	 1.144247112268314e+01
 2.613771832767370e+00	 6.999851559503945e-01	 1.145815763900268e+01
 2.677590835824358e+00	 4.648554224437658e-01	 1.130013303286855e+01
 2.673362609611043e+00	 4.885854912923271e-01	 1.131393048072884e+01
 2.668911481110920e+00	 5.123427884849040e-01	 1.132775138449982e+01
 2.664236181775776e+00	 5.361244374002901e-01	 1.134167572943882e+01
 2.659335487802231e+00	 5.599275233749951e-01	 1.135577355814634e+01
 2.654208221279727e+00	 5.837490944581585e-01	 1.137010290623844e+01
 2.648853251327070e+00	 6.075861622033379e-01	 1.138470748313774e+01
 2.643269495216247e+00	 6.314357024971361e-01	 1.139961408199158e+01
 2.637455919482247e+00	 6.552946564245918e-01	 1.141482970289391e+01
 2.631411541017600e+00	 6.791599311712055e-01	 1.143033837387435e+01
 2.625135428150319e+00	 7.030284009614264e-01	 1.144609765452953e+01
 2.689181498359925e+00	 4.668676725071806e-01	 1.128817152618267e+01
 2.684934969147232e+00	 4.907004632564860e-01	 1.130194220119997e+01
 2.680464572756083e+00	 5.145606002149945e-01	 1.131574538266243e+01
 2.675769035147008e+00	 5.384451943092625e-01	 1.132966037722592e+01
 2.670847127219062e+00	 5.623513182588874e-01	 1.134375766331549e+01
 2.665697665962777e+00	 5.862760073346872e-01	 1.135809686952971e+01
 2.660319515601630e+00	 6.102162601539178e-01	 1.137272449424832e+01
 2.654711588720723e+00	 6.341690395124850e-01	 1.138767134986484e+01
 2.648872847381409e+00	 6.581312732540839e-01	 1.140294971521960e+01
 2.642802304220564e+00	 6.820998551761266e-01	 1.141855018008282e+01
 2.636499023533204e+00	 7.060716459722943e-01	 1.143443816594161e+01
 2.700772160895424e+00	 4.688799225708486e-01	 1.127670091767924e+01
 2.696507328683371e+00	 4.928154352208597e-01	 1.129039781275711e+01
 2.692017664401210e+00	 5.167784119452535e-01	 1.130413675049193e+01
 2.687301888518216e+00	 5.407659512183525e-01	 1.131799867420164e+01
 2.682358766635875e+00	 5.647751131428422e-01	 1.133205669118121e+01
 2.677187110645812e+00	 5.888029202112216e-01	 1.134637409008296e+01
 2.671785779876175e+00	 6.128463581044458e-01	 1.136100209565077e+01
 2.666153682225181e+00	 6.369023765277265e-01	 1.137597734364016e+01
 2.660289775280545e+00	 6.609678900834159e-01	 1.139131905889439e+01
 2.654193067423493e+00	 6.850397791808407e-01	 1.140702591980951e+01
 2.647862618916040e+00	 7.091148909829156e-01	 1.142307259281514e+01
 2.712362823430819e+00	 4.708921726348531e-01	 1.126576199588472e+01
 2.708079688219434e+00	 4.949304071855239e-01	 1.127933393880647e+01
 2.703570756046284e+00	 5.189962236757445e-01	 1.129295576585187e+01
 2.698834741889388e+00	 5.430867081276052e-01	 1.130671232164713e+01
 2.693870406052664e+00	 5.671989080268840e-01	 1.132068148578583e+01
 2.688676555328830e+00	 5.913298330877637e-01	 1.133493222553407e+01
 2.683252044150706e+00	 6.154764560549018e-01	 1.134952238210738e+01
 2.677595775729625e+00	 6.396357135428193e-01	 1.136449617275881e+01
 2.671706703179663e+00	 6.638045069125287e-01	 1.137988139103899e+01
 2.665583830626399e+00	 6.879797031852741e-01	 1.139568628783974e+01
 2.659226214298843e+00	 7.121581359932073e-01	 1.141189611621711e+01
 2.723953485966078e+00	 4.729044226992778e-01	 1.125539475965244e+01
 2.719652047755398e+00	 4.970453791505547e-01	 1.126878648413424e+01
 2.715123847691289e+00	 5.212140354065298e-01	 1.128223209833157e+01
 2.710367595260513e+00	 5.454074650370658e-01	 1.129582256261244e+01
 2.705382045469423e+00	 5.696227029110376e-01	 1.130964262306099e+01
 2.700166000011829e+00	 5.938567459643163e-01	 1.132376889596074e+01
 2.694718308425226e+00	 6.181065540052663e-01	 1.133826768213725e+01
 2.689037869234061e+00	 6.423690505577225e-01	 1.135319249280212e+01
 2.683123631078773e+00	 6.666411237413625e-01	 1.136858126864691e+01
 2.676974593829291e+00	 6.909196271893528e-01	 1.138445327417165e+01
 2.670589809681632e+00	 7.152013810030864e-01	 1.140080564960791e+01
 2.556953855851073e+00	 6.847689308956677e-01	 1.152514213361886e+01
 2.550614178458926e+00	 7.080175112882698e-01	 1.154126788710286e+01
 2.544047128212621e+00	 7.312630240542837e-01	 1.155877048317343e+01
 2.537251957408708e+00	 7.545023361829379e-01	 1.157720633097371e+01
 2.530227972463756e+00	 7.777322866540705e-01	 1.159551176887304e+01
 2.522974534861289e+00	 8.009496875255432e-01	 1.161355217068189e+01
 2.515491062074882e+00	 8.241513250540192e-01	 1.163130130057175e+01
 2.507777028466152e+00	 8.473339608485850e-01	 1.164873540071690e+01
 2.499831966156395e+00	 8.704943330566491e-01	 1.166583465499708e+01
 2.491655465870640e+00	 8.936291575814912e-01	 1.168258438345423e+01
 2.483247177752872e+00	 9.167351293307960e-01	 1.169897592916253e+01
 2.568317451234592e+00	 6.878121759062793e-01	 1.151109008618934e+01
 2.561949599095410e+00	 7.111640774677059e-01	 1.152733289625513e+01
 2.555353363613323e+00	 7.345128977694135e-01	 1.154496421359626e+01
 2.548527993761933e+00	 7.578554898769253e-01	 1.156342597094501e+01
 2.541472792875390e+00	 7.811886787218956e-01	 1.158170562218208e+01
 2.534187119599523e+00	 8.045092621943537e-01	 1.159972713494519e+01
 2.526670388819043e+00	 8.278140122684664e-01	 1.161746046000446e+01
 2.518922072559524e+00	 8.510996761612858e-01	 1.163487613947845e+01
 2.510941700862915e+00	 8.743629775239155e-01	 1.165194687783482e+01
 2.502728862635346e+00	 8.976006176644761e-01	 1.166864884130201e+01
 2.494283206465969e+00	 9.208092768021822e-01	 1.168496264610001e+01
 2.579681046617966e+00	 6.908554209171406e-01	 1.149739775552553e+01
 2.573285019731701e+00	 7.143106436473734e-01	 1.151382009244670e+01
 2.566659599013774e+00	 7.377627714847305e-01	 1.153164553052536e+01
 2.559804030114849e+00	 7.612086435710363e-01	 1.155016485479592e+01
 2.552717613286654e+00	 7.846450707897664e-01	 1.156846688511539e+01
 2.545399704337329e+00	 8.080688368631265e-01	 1.158650488096062e+01
 2.537849715562723e+00	 8.314766994827923e-01	 1.160424023555358e+01
 2.530067116652370e+00	 8.548653914737886e-01	 1.162163356172265e+01
 2.522051435568873e+00	 8.782316219909220e-01	 1.163864638955340e+01
 2.513802259399463e+00	 9.015720777471585e-01	 1.165524258960716e+01
 2.505319235178465e+00	 9.248834242732515e-01	 1.167138948079870e+01
 2.591044642001209e+00	 6.938986659281687e-01	 1.148390801078845e+01
 2.584620440367818e+00	 7.174572098271880e-01	 1.150054405029488e+01
 2.577965834414004e+00	 7.410126452001540e-01	 1.151860781432798e+01
 2.571080066467492e+00	 7.645617972651980e-01	 1.153720207813293e+01
 2.563962433697593e+00	 7.881014628576222e-01	 1.155556922232994e+01
 2.556612289074758e+00	 8.116284115318140e-01	 1.157366108788091e+01
 2.549029042305976e+00	 8.351393866969647e-01	 1.159142579484172e+01
 2.541212160744746e+00	 8.586311067860759e-01	 1.160880982162319e+01
 2.533161170274327e+00	 8.821002664576642e-01	 1.162575984869929e+01
 2.524875656163056e+00	 9.055435378295473e-01	 1.164222432454389e+01
 2.516355263890430e+00	 9.289575717440216e-01	 1.165815471150412e+01
 2.602408237384338e+00	 6.969419109392808e-01	 1.147072649172450e+01
 2.595955861003784e+00	 7.206037760070644e-01	 1.148735785025252e+01
 2.589272069814039e+00	 7.442625189156025e-01	 1.150562932362991e+01
 2.582356102819894e+00	 7.679149509593366e-01	 1.152431801836444e+01
 2.575207254108245e+00	 7.915578549254011e-01	 1.154278776546707e+01
 2.567824873811854e+00	 8.151879862003688e-01	 1.156097296683811e+01
 2.560208369048856e+00	 8.388020739109519e-01	 1.157880378043445e+01
 2.552357204836711e+00	 8.623968220981322e-01	 1.159620836746221e+01
 2.544270904979343e+00	 8.859689109241404e-01	 1.161311490161000e+01
 2.535949052926190e+00	 9.095149979116509e-01	 1.162945329667792e+01
 2.527391292601928e+00	 9.330317192145077e-01	 1.164515660886207e+01
 2.613771832767370e+00	 6.999851559503945e-01	 1.145815763900268e+01
 2.607291281639620e+00	 7.237503421869175e-01	 1.147470481059663e+01
 2.600578305213906e+00	 7.475123926309939e-01	 1.149274954645133e+01
 2.593632139172091e+00	 7.712681046533794e-01	 1.151129921570654e+01
 2.586452074518653e+00	 7.950142469930427e-01	 1.152989908931134e+01
 2.579037458548668e+00	 8.187475608687450e-01	 1.154821924055064e+01
 2.571387695791416e+00	 8.424647611247216e-01	 1.156616229558766e+01
 2.563502248928325e+00	 8.661625374099398e-01	 1.158363393622725e+01
 2.555380639683982e+00	 8.898375553903473e-01	 1.160054018858414e+01
 2.547022449688932e+00	 9.134864579934777e-01	 1.161678933144628e+01
 2.538427321313026e+00	 9.371058666847265e-01	 1.163229347345627e+01
 2.625135428150319e+00	 7.030284009614264e-01	 1.144609765452953e+01
 2.618626702275347e+00	 7.268969083666625e-01	 1.146266022774625e+01
 2.611884540613637e+00	 7.507622663462474e-01	 1.148051573890570e+01
 2.604908175524117e+00	 7.746212583472531e-01	 1.149861292157230e+01
 2.597696894928855e+00	 7.984706390604847e-01	 1.151681313166432e+01
 2.590250043285242e+00	 8.223071355368939e-01	 1.153518012503832e+01
 2.582567022533708e+00	 8.461274483382417e-01	 1.155329089201153e+01
 2.574647293019647e+00	 8.699282527214826e-01	 1.157089255006175e+01
 2.566490374388307e+00	 8.937061998562823e-01	 1.158786535167074e+01
 2.558095846451343e+00	 9.174579180750360e-01	 1.160409285095002e+01
 2.549463350023792e+00	 9.411800141546941e-01	 1.161946367427997e+01
 2.636499023533204e+00	 7.060716459722943e-01	 1.143443816594161e+01
 2.629962122910988e+00	 7.300434745462147e-01	 1.145109110298474e+01
 2.623190776013256e+00	 7.540121400612816e-01	 1.146882017520730e+01
 2.616184211876006e+00	 7.779744120408844e-01	 1.148656548147859e+01
 2.608941715338892e+00	 8.019270311276658e-01	 1.150428645795575e+01
 2.601462628021630e+00	 8.258667102047690e-01	 1.152207233394344e+01
 2.593746349275787e+00	 8.497901355514810e-01	 1.153998836019094e+01
 2.585792337110733e+00	 8.736939680327436e-01	 1.155779151451293e+01
 2.577600109092381e+00	 8.975748443219420e-01	 1.157492104402866e+01
 2.569169243213495e+00	 9.214293781563351e-01	 1.159122489702021e+01
 2.560499378734290e+00	 9.452541616244263e-01	 1.160656568811357e+01
 2.647862618916040e+00	 7.091148909829156e-01	 1.142307259281514e+01
 2.641297543546563e+00	 7.331900407254881e-01	 1.143986665029223e+01
 2.634497011412792e+00	 7.572620137760145e-01	 1.145751440735882e+01
 2.627460248227791e+00	 7.813275657342003e-01	 1.147499778861705e+01
 2.620186535748809e+00	 8.053834231945252e-01	 1.149234388176920e+01
 2.612675212757873e+00	 8.294262848723231e-01	 1.150963386806432e+01
 2.604925676017707e+00	 8.534528227644069e-01	 1.152692634049025e+01
 2.596937381201644e+00	 8.774596833437057e-01	 1.154425655292807e+01
 2.588709843796266e+00	 9.014434887873243e-01	 1.156153894080933e+01
 2.580242639975450e+00	 9.254008382373831e-01	 1.157804715551876e+01
 2.571535407444590e+00	 9.493283090939395e-01	 1.159349813978087e+01
 2.659226214298843e+00	 7.121581359932073e-01	 1.141189611621711e+01
 2.652632964182096e+00	 7.363366069043984e-01	 1.142885825832360e+01
 2.645803246812272e+00	 7.605118874903655e-01	 1.144645280398712e+01
 2.638736284579509e+00	 7.846807194271279e-01	 1.146375370038076e+01
 2.631431356158643e+00	 8.088398152610009e-01	 1.148082495833037e+01
 2.623887797494022e+00	 8.329858595395088e-01	 1.149773619861003e+01
 2.616105002759519e+00	 8.571155099769879e-01	 1.151453632071759e+01
 2.608082425292439e+00	 8.812253986543528e-01	 1.153125276133146e+01
 2.599819578500027e+00	 9.053121332524258e-01	 1.154789078490911e+01
 2.591316036737273e+00	 9.293722983181882e-01	 1.156442198183745e+01
 2.582571436154755e+00	 9.534024565632505e-01	 1.158015984325764e+01
 2.670589809681632e+00	 7.152013810030864e-01	 1.140080564960791e+01
 2.663968384817607e+00	 7.394831730828607e-01	 1.141793945396186e+01
 2.657109482211724e+00	 7.637617612042525e-01	 1.143549247842816e+01
 2.650012320931192e+00	 7.880338731195935e-01	 1.145267996224194e+01
 2.642676176568437e+00	 8.122962073270322e-01	 1.146957216638363e+01
 2.635100382230125e+00	 8.365454342062791e-01	 1.148622370723487e+01
 2.627284329501278e+00	 8.607781971891916e-01	 1.150267081984323e+01
 2.619227469383175e+00	 8.849911139646676e-01	 1.151893063696323e+01
 2.610929313203725e+00	 9.091807777172439e-01	 1.153500049778703e+01
 2.602389433499033e+00	 9.333437583987603e-01	 1.155085729484050e+01
 2.593607464864854e+00	 9.574766040323746e-01	 1.156645686767959e+01
 2.483247177752872e+00	 9.167351293307960e-01	 1.169897592916253e+01
 2.474605323176310e+00	 9.398128431699512e-01	 1.171485344998875e+01
 2.465731081716719e+00	 9.628550224573754e-01	 1.173008735514848e+01
 2.456624284613937e+00	 9.858583040450550e-01	 1.174473693803561e+01
 2.447284825520990e+00	 1.008819309023994e+00	 1.175888155304295e+01
 2.437712661159682e+00	 1.031734644117299e+00	 1.177261955587003e+01
 2.427907811940380e+00	 1.054600903099245e+00	 1.178606670447563e+01
 2.417870362544938e+00	 1.077414668239285e+00	 1.179935399004628e+01
 2.407600462471684e+00	 1.100172511769949e+00	 1.181262486980501e+01
 2.397098326541497e+00	 1.122870997377513e+00	 1.182607118055269e+01
 2.386364235363963e+00	 1.145506681714263e+00	 1.184012768102132e+01
 2.494283206465969e+00	 9.208092768021822e-01	 1.168496264610001e+01
 2.485602945823437e+00	 9.439895524461169e-01	 1.170081280307692e+01
 2.476689265525776e+00	 9.671341356159107e-01	 1.171613303235370e+01
 2.467541996062819e+00	 9.902396482170812e-01	 1.173094607375818e+01
 2.458161030614964e+00	 1.013302696324119e+00	 1.174529605032570e+01
 2.448546325711674e+00	 1.036319871579767e+00	 1.175924753920804e+01
 2.438697901854023e+00	 1.059287752620383e+00	 1.177288408950010e+01
 2.428615844100207e+00	 1.082202906526379e+00	 1.178630615503115e+01
 2.418300302612947e+00	 1.105061890296638e+00	 1.179962841267170e+01
 2.407751493167828e+00	 1.127861252345802e+00	 1.181305735879523e+01
 2.396969697621515e+00	 1.150597534023268e+00	 1.182700757929205e+01
 2.505319235178465e+00	 9.248834242732515e-01	 1.167138948079870e+01
 2.496600568469971e+00	 9.481662617219853e-01	 1.168710461428451e+01
 2.487647449334264e+00	 9.714132487741963e-01	 1.170240198561023e+01
 2.478459707511166e+00	 9.946209923889288e-01	 1.171727178221824e+01
 2.469037235708450e+00	 1.017786083624154e+00	 1.173172658673562e+01
 2.459379990263233e+00	 1.040905099042242e+00	 1.174580057338470e+01
 2.449487991767294e+00	 1.063974602141631e+00	 1.175954813764377e+01
 2.439361325655161e+00	 1.086991144813683e+00	 1.177304192586653e+01
 2.429000142753960e+00	 1.109951268823626e+00	 1.178637023412205e+01
 2.418404659793969e+00	 1.132851507314467e+00	 1.179977252424412e+01
 2.407575159878933e+00	 1.155688386332704e+00	 1.181361796051157e+01
 2.516355263890430e+00	 9.289575717440216e-01	 1.165815471150412e+01
 2.507598191115980e+00	 9.523429709975766e-01	 1.167366816799814e+01
 2.498605633142245e+00	 9.756923619322514e-01	 1.168886972422907e+01
 2.489377418959042e+00	 9.990023365606113e-01	 1.170372092221569e+01
 2.479913440801504e+00	 1.022269470924104e+00	 1.171820640508535e+01
 2.470213654814409e+00	 1.045490326504718e+00	 1.173233323411429e+01
 2.460278081680235e+00	 1.068661451662970e+00	 1.174612962540398e+01
 2.450106807209847e+00	 1.091779383101166e+00	 1.175964307154751e+01
 2.439699982894760e+00	 1.114840647350872e+00	 1.177294139170296e+01
 2.429057826419953e+00	 1.137841762283452e+00	 1.178630572679089e+01
 2.418180622136247e+00	 1.160779238642504e+00	 1.180004315047026e+01
 2.527391292601928e+00	 9.330317192145077e-01	 1.164515660886207e+01
 2.518595813761529e+00	 9.565196802729087e-01	 1.166044215605145e+01
 2.509563816949785e+00	 9.799714750900929e-01	 1.167551066414629e+01
 2.500295130406504e+00	 1.003383680732141e+00	 1.169029884289355e+01
 2.490789645894182e+00	 1.026752858223971e+00	 1.170476690716048e+01
 2.481047319365253e+00	 1.050075553967191e+00	 1.171889800996126e+01
 2.471068171592893e+00	 1.073348301184384e+00	 1.173269708155284e+01
 2.460852288764302e+00	 1.096567621388798e+00	 1.174618903858240e+01
 2.450399823035384e+00	 1.119730025878332e+00	 1.175943596779555e+01
 2.439710993045816e+00	 1.142832017252704e+00	 1.177274386629208e+01
 2.428786084393491e+00	 1.165870090952602e+00	 1.178636538087752e+01
 2.538427321313026e+00	 9.371058666847265e-01	 1.163229347345627e+01
 2.529593436406681e+00	 9.606963895480013e-01	 1.164736473275168e+01
 2.520522000756944e+00	 9.842505882477391e-01	 1.166229819852006e+01
 2.511212841853609e+00	 1.007765024903531e+00	 1.167700946795783e+01
 2.501665850986538e+00	 1.031236245523763e+00	 1.169143774958615e+01
 2.491880983915815e+00	 1.054660781429655e+00	 1.170554540785060e+01
 2.481858261505316e+00	 1.078035150705856e+00	 1.171931690026373e+01
 2.471597770318569e+00	 1.101355859676548e+00	 1.173275706968298e+01
 2.461099663175871e+00	 1.124619404405964e+00	 1.174593843030664e+01
 2.450364159671592e+00	 1.147822272222166e+00	 1.175917172089306e+01
 2.439391546650699e+00	 1.170960943262933e+00	 1.177266481407474e+01
 2.549463350023792e+00	 9.411800141546941e-01	 1.161946367427997e+01
 2.540591059051505e+00	 9.648730988228735e-01	 1.163437357044910e+01
 2.531480184563789e+00	 9.885297014052071e-01	 1.164920476852802e+01
 2.522130553300422e+00	 1.012146369074795e+00	 1.166385537980370e+01
 2.512542056078627e+00	 1.035719632823484e+00	 1.167824693935578e+01
 2.502714648466145e+00	 1.059246008892104e+00	 1.169232405804694e+01
 2.492648351417543e+00	 1.082722000227367e+00	 1.170605345356310e+01
 2.482343251872687e+00	 1.106144097964389e+00	 1.171942232168838e+01
 2.471799503316257e+00	 1.129508782933724e+00	 1.173253085566542e+01
 2.461017326297315e+00	 1.152812527191784e+00	 1.174567197455633e+01
 2.449997008907906e+00	 1.176051795573430e+00	 1.175901956701663e+01
 2.560499378734290e+00	 9.452541616244263e-01	 1.160656568811357e+01
 2.551588681696066e+00	 9.690498080975446e-01	 1.162140591563299e+01
 2.542438368370381e+00	 9.928088145625152e-01	 1.163620193435857e+01
 2.533048264746999e+00	 1.016527713245944e+00	 1.165083790355103e+01
 2.523418261170507e+00	 1.040203020123138e+00	 1.166522092903281e+01
 2.513548313016294e+00	 1.063831236354533e+00	 1.167928081861820e+01
 2.503438441329627e+00	 1.087408849748902e+00	 1.169296920312794e+01
 2.493088733426698e+00	 1.110932336252288e+00	 1.170625798274510e+01
 2.482499343456576e+00	 1.134398161461570e+00	 1.171929328885844e+01
 2.471670492923022e+00	 1.157802782161502e+00	 1.173232524381809e+01
 2.460602471165142e+00	 1.181142647884027e+00	 1.174550573454276e+01
 2.571535407444590e+00	 9.493283090939395e-01	 1.159349813978087e+01
 2.562586304340431e+00	 9.732265173720338e-01	 1.160839864553843e+01
 2.553396552176784e+00	 9.970879277196815e-01	 1.162326044639066e+01
 2.543965976193401e+00	 1.020909057416991e+00	 1.163795719099206e+01
 2.534294466262232e+00	 1.044686407422730e+00	 1.165238471163457e+01
 2.524381977566313e+00	 1.068416463816937e+00	 1.166646087939938e+01
 2.514228531241609e+00	 1.092095699270442e+00	 1.168012481144884e+01
 2.503834214980642e+00	 1.115720574540216e+00	 1.169334089391718e+01
 2.493199183596870e+00	 1.139287539989460e+00	 1.170630377093101e+01
 2.482323659548743e+00	 1.162793037131266e+00	 1.171921010379651e+01
 2.471207933422443e+00	 1.186233500194658e+00	 1.173219741196072e+01
 2.582571436154755e+00	 9.534024565632505e-01	 1.158015984325764e+01
 2.573583926984663e+00	 9.774032266463599e-01	 1.159528832524847e+01
 2.564354735983061e+00	 1.001367040876723e+00	 1.161035031655628e+01
 2.554883687639689e+00	 1.025290401587950e+00	 1.162521230445392e+01
 2.545170671353854e+00	 1.049169794722264e+00	 1.163976191520859e+01
 2.535215642116250e+00	 1.073001691279310e+00	 1.165390786547156e+01
 2.525018621153534e+00	 1.096782548791970e+00	 1.166757925237749e+01
 2.514579696534561e+00	 1.120508812828144e+00	 1.168074765425977e+01
 2.503899023737173e+00	 1.144176918517350e+00	 1.169363836575211e+01
 2.492976826174516e+00	 1.167783292101021e+00	 1.170640311347382e+01
 2.481813395679840e+00	 1.191324352505256e+00	 1.171916671696166e+01
 2.593607464864854e+00	 9.574766040323746e-01	 1.156645686767959e+01
 2.584581549628830e+00	 9.815799359205429e-01	 1.158201126527725e+01
 2.575312919789278e+00	 1.005646154033658e+00	 1.159744088988034e+01
 2.565801399085923e+00	 1.029671745758833e+00	 1.161260130057834e+01
 2.556046876445435e+00	 1.053653182021747e+00	 1.162737489711006e+01
 2.546049306666159e+00	 1.077586918741646e+00	 1.164166394017061e+01
 2.535808711065450e+00	 1.101469398313470e+00	 1.165538992107716e+01
 2.525325178088495e+00	 1.125297051116040e+00	 1.166854710557720e+01
 2.514598863877524e+00	 1.149066297045198e+00	 1.168137118606475e+01
 2.503629992800374e+00	 1.172773547070711e+00	 1.169397884027418e+01
 2.492418857937370e+00	 1.196415204815757e+00	 1.170648381088785e+01
 2.386364235363963e+00	 1.145506681714263e+00	 1.184012768102132e+01
 2.375400419107197e+00	 1.168072285175485e+00	 1.185344004678323e+01
 2.364205484694749e+00	 1.190568208790904e+00	 1.186452928413842e+01
 2.352779910565554e+00	 1.212990997896278e+00	 1.187356257626879e+01
 2.341124242358659e+00	 1.235337196991658e+00	 1.188071059606830e+01
 2.329239093168202e+00	 1.257603351341991e+00	 1.188614218670724e+01
 2.317125143753540e+00	 1.279786008591532e+00	 1.189001853985316e+01
 2.304783142703884e+00	 1.301881720390621e+00	 1.189248688796571e+01
 2.292213906556814e+00	 1.323887044033351e+00	 1.189367373107270e+01
 2.279418319870114e+00	 1.345798544104625e+00	 1.189367762242127e+01
 2.266397335246414e+00	 1.367612794135071e+00	 1.189256154135621e+01
 2.396969697621515e+00	 1.150597534023268e+00	 1.182700757929205e+01
 2.385957156053424e+00	 1.173263423372364e+00	 1.184010272282194e+01
 2.374712469196008e+00	 1.195859323205051e+00	 1.185089788488647e+01
 2.363236117614487e+00	 1.218381763503882e+00	 1.185959151661729e+01
 2.351528649372847e+00	 1.240827273411980e+00	 1.186638813357995e+01
 2.339590680289942e+00	 1.263192382840767e+00	 1.187149285228588e+01
 2.327422894150567e+00	 1.285473624091547e+00	 1.187510540411814e+01
 2.315026042870817e+00	 1.307667533489513e+00	 1.187741364338399e+01
 2.302400946617133e+00	 1.329770653028690e+00	 1.187858657031926e+01
 2.289548493878454e+00	 1.351779532026318e+00	 1.187876689397998e+01
 2.276469641490973e+00	 1.373690728785117e+00	 1.187806316403741e+01
 2.407575159878933e+00	 1.155688386332704e+00	 1.181361796051157e+01
 2.396513892999560e+00	 1.178454561569701e+00	 1.182652588373754e+01
 2.385219453697213e+00	 1.201150437619661e+00	 1.183708656439965e+01
 2.373692324663402e+00	 1.223772529111933e+00	 1.184552275051876e+01
 2.361933056387044e+00	 1.246317349832716e+00	 1.185206577986369e+01
 2.349942267411713e+00	 1.268781414339912e+00	 1.185694997850320e+01
 2.337720644547642e+00	 1.291161239591876e+00	 1.186040651627405e+01
 2.325268943037810e+00	 1.313453346588658e+00	 1.186265673616662e+01
 2.312587986677522e+00	 1.335654262024222e+00	 1.186390497886509e+01
 2.299678667886872e+00	 1.357760519948147e+00	 1.186433092791593e+01
 2.286541947735616e+00	 1.379768663435250e+00	 1.186408150520411e+01
 2.418180622136247e+00	 1.160779238642504e+00	 1.180004315047026e+01
 2.407070629945641e+00	 1.183645699767421e+00	 1.181278582234556e+01
 2.395726438198409e+00	 1.206441552034653e+00	 1.182316247448971e+01
 2.384148531712341e+00	 1.229163294720341e+00	 1.183141326812149e+01
 2.372337463401294e+00	 1.251807426253772e+00	 1.183778943303291e+01
 2.360293854533566e+00	 1.274370445839329e+00	 1.184254753419078e+01
 2.348018394944820e+00	 1.296848855092423e+00	 1.184594317449112e+01
 2.335511843204928e+00	 1.319239159687963e+00	 1.184822415094789e+01
 2.322775026738053e+00	 1.341537871019856e+00	 1.184962308596059e+01
 2.309808841895446e+00	 1.363741507870023e+00	 1.185034955966874e+01
 2.296614253980424e+00	 1.385846598085383e+00	 1.185058177373598e+01
 2.428786084393491e+00	 1.165870090952602e+00	 1.178636538087752e+01
 2.417627366891700e+00	 1.188836837965449e+00	 1.179895684370234e+01
 2.406233422699625e+00	 1.211732666449941e+00	 1.180919089754353e+01
 2.394604738761342e+00	 1.234554060329019e+00	 1.181731831912100e+01
 2.382741870415647e+00	 1.257297502675059e+00	 1.182360338899433e+01
 2.370645441655552e+00	 1.279959477338927e+00	 1.182831803214179e+01
 2.358316145342163e+00	 1.302536470593095e+00	 1.183173537365181e+01
 2.345754743372236e+00	 1.325024972787335e+00	 1.183412272708069e+01
 2.332962066798796e+00	 1.347421480015501e+00	 1.183573403752306e+01
 2.319939015904253e+00	 1.369722495791860e+00	 1.183680180593527e+01
 2.306686560225482e+00	 1.391924532735436e+00	 1.183752852571633e+01
 2.439391546650699e+00	 1.170960943262933e+00	 1.177266481407474e+01
 2.428184103837774e+00	 1.194027976163710e+00	 1.178511128493005e+01
 2.416740407200902e+00	 1.217023780865444e+00	 1.179523526101885e+01
 2.405060945810450e+00	 1.239944825937881e+00	 1.180329142151891e+01
 2.393146277430145e+00	 1.262787579096484e+00	 1.180955034409658e+01
 2.380997028777723e+00	 1.285548508838611e+00	 1.181429252531042e+01
 2.368613895739728e+00	 1.308224086093796e+00	 1.181780179479761e+01
 2.355997643539798e+00	 1.330810785886679e+00	 1.182035814106257e+01
 2.343149106859823e+00	 1.353305089011063e+00	 1.182222997131080e+01
 2.330069189913369e+00	 1.375703483713568e+00	 1.182366583239741e+01
 2.316758866470872e+00	 1.398002467385323e+00	 1.182488562455638e+01
 2.449997008907906e+00	 1.176051795573430e+00	 1.175901956701663e+01
 2.438740840783893e+00	 1.199219114362130e+00	 1.177131953440523e+01
 2.427247391702277e+00	 1.222314895281081e+00	 1.178135715140885e+01
 2.415517152859701e+00	 1.245335591546837e+00	 1.178938436996469e+01
 2.403550684444836e+00	 1.268277655517956e+00	 1.179567139748372e+01
 2.391348615900133e+00	 1.291137540338287e+00	 1.180050060284541e+01
 2.378911646137574e+00	 1.313911701594433e+00	 1.180415979454530e+01
 2.366240543707681e+00	 1.336596598985904e+00	 1.180693488907288e+01
 2.353336146921206e+00	 1.359188698006455e+00	 1.180910199235431e+01
 2.340199363922873e+00	 1.381684471635061e+00	 1.181091892185617e+01
 2.326831172716678e+00	 1.404080402034961e+00	 1.181261620167803e+01
 2.460602471165142e+00	 1.181142647884027e+00	 1.174550573454276e+01
 2.449297577730095e+00	 1.204410252560632e+00	 1.175765005033005e+01
 2.437754376203784e+00	 1.227606009696768e+00	 1.176761632769122e+01
 2.425973359909140e+00	 1.250726357155800e+00	 1.177564724369260e+01
 2.413955091459764e+00	 1.273767731939383e+00	 1.178200605316227e+01
 2.401700203022832e+00	 1.296726571837863e+00	 1.178697038596270e+01
 2.389209396535755e+00	 1.319599317094911e+00	 1.179082539447422e+01
 2.376483443875947e+00	 1.342382412084914e+00	 1.179385626961740e+01
 2.363523186983016e+00	 1.365072307001582e+00	 1.179634014863588e+01
 2.350329537932842e+00	 1.387665459556249e+00	 1.179853744275960e+01
 2.336903478962982e+00	 1.410158336684268e+00	 1.180068261773816e+01
 2.471207933422443e+00	 1.186233500194658e+00	 1.173219741196072e+01
 2.459854314676413e+00	 1.209601390759140e+00	 1.174416937870487e+01
 2.448261360705461e+00	 1.232897124112422e+00	 1.175407073427746e+01
 2.436429566958805e+00	 1.256117122764683e+00	 1.176212841406600e+01
 2.424359498474978e+00	 1.279257808360674e+00	 1.176859222179062e+01
 2.412051790145872e+00	 1.302315603337243e+00	 1.177372852366203e+01
 2.399507146934335e+00	 1.325286932595137e+00	 1.177781327048487e+01
 2.386726344044663e+00	 1.348168225183617e+00	 1.178112436627742e+01
 2.373710227045326e+00	 1.370955915996356e+00	 1.178393340701123e+01
 2.360459711943355e+00	 1.393646447477046e+00	 1.178649681811283e+01
 2.346975785209869e+00	 1.416236271333159e+00	 1.178904642437844e+01
 2.481813395679840e+00	 1.191324352505256e+00	 1.171916671696166e+01
 2.470411051622880e+00	 1.214792528957582e+00	 1.173094217072024e+01
 2.458768345207346e+00	 1.238188238527963e+00	 1.174077651347739e+01
 2.446885774008736e+00	 1.261507888373395e+00	 1.174887455174103e+01
 2.434763905490521e+00	 1.284747884781737e+00	 1.175546622219910e+01
 2.422403377269304e+00	 1.307904634836336e+00	 1.176080018829219e+01
 2.409804897333369e+00	 1.330974548095016e+00	 1.176513674213024e+01
 2.396969244213893e+00	 1.353954038281920e+00	 1.176874003056010e+01
 2.383897267108205e+00	 1.376839524990683e+00	 1.177186962936522e+01
 2.370589885954489e+00	 1.399627435397361e+00	 1.177477149475888e+01
 2.357048091457420e+00	 1.422314205981550e+00	 1.177766832648459e+01
 2.492418857937370e+00	 1.196415204815757e+00	 1.170648381088785e+01
 2.480967788569533e+00	 1.219983667155881e+00	 1.171803119958515e+01
 2.469275329709475e+00	 1.243479352943306e+00	 1.172778801749326e+01
 2.457341981058978e+00	 1.266898653981852e+00	 1.173593063346074e+01
 2.445168312506441e+00	 1.290237961202481e+00	 1.174266278264870e+01
 2.432754964393182e+00	 1.313493666335046e+00	 1.174820907096949e+01
 2.420102647732916e+00	 1.336662163594454e+00	 1.175280776192024e+01
 2.407212144383703e+00	 1.359739851379730e+00	 1.175670286484720e+01
 2.394084307171726e+00	 1.382723133984473e+00	 1.176013554899492e+01
 2.380720059966321e+00	 1.405608423317110e+00	 1.176333491301908e+01
 2.367120397705719e+00	 1.428392140629360e+00	 1.176650814494027e+01
 2.266397335246414e+00	 1.367612794135071e+00	 1.189256154135621e+01
 2.253151973857750e+00	 1.389326378695151e+00	 1.189086591452303e+01
 2.239683327007675e+00	 1.410935896386571e+00	 1.188881170140218e+01
 2.225992554351050e+00	 1.432437960258825e+00	 1.188588249251448e+01
 2.212080883172815e+00	 1.453829199051921e+00	 1.188182844455731e+01
 2.197949608167674e+00	 1.475106258864948e+00	 1.187667204527659e+01
 2.183600091170817e+00	 1.496265804822732e+00	 1.186988664899702e+01
 2.169033760839584e+00	 1.517304522738907e+00	 1.186224486678069e+01
 2.154252112286065e+00	 1.538219120773743e+00	 1.185288763448604e+01
 2.139256706660687e+00	 1.559006331085034e+00	 1.184084866239013e+01
 2.124049170686888e+00	 1.579662911470398e+00	 1.182516472473920e+01
 2.276469641490973e+00	 1.373690728785117e+00	 1.187806316403741e+01
 2.263165415165017e+00	 1.395500812696711e+00	 1.187688435063471e+01
 2.249636911054107e+00	 1.417206367246350e+00	 1.187528023335446e+01
 2.235885293966830e+00	 1.438803990431282e+00	 1.187272091065781e+01
 2.221911796642415e+00	 1.460290296009008e+00	 1.186857749159534e+01
 2.207717719529442e+00	 1.481661915173253e+00	 1.186274615795335e+01
 2.193304430515356e+00	 1.502915498228034e+00	 1.185601506686975e+01
 2.178673364606727e+00	 1.524047716258122e+00	 1.184855917243971e+01
 2.163826023560208e+00	 1.545055262794234e+00	 1.183935961502354e+01
 2.148763975464278e+00	 1.565934855471265e+00	 1.182740925901434e+01
 2.133488854271850e+00	 1.586683237677879e+00	 1.181170598734180e+01
 2.286541947735616e+00	 1.379768663435250e+00	 1.186408150520411e+01
 2.273178856472373e+00	 1.401675246698318e+00	 1.186342505538173e+01
 2.259590495100628e+00	 1.423476838106143e+00	 1.186224074434332e+01
 2.245778033582698e+00	 1.445170020603733e+00	 1.185999279254341e+01
 2.231742710112102e+00	 1.466751392966074e+00	 1.185604575112164e+01
 2.217485830891290e+00	 1.488217571481530e+00	 1.184984362018729e+01
 2.203008769859963e+00	 1.509565191633305e+00	 1.184313771215888e+01
 2.188312968373917e+00	 1.530790909777306e+00	 1.183573073914954e+01
 2.173399934834374e+00	 1.551891404814699e+00	 1.182656874951157e+01
 2.158271244267863e+00	 1.572863379857475e+00	 1.181461192191681e+01
 2.142928537856765e+00	 1.593703563885343e+00	 1.179882769976832e+01
 2.296614253980424e+00	 1.385846598085383e+00	 1.185058177373598e+01
 2.283192297779903e+00	 1.407849680699890e+00	 1.185043985868629e+01
 2.269544079147331e+00	 1.429747308965878e+00	 1.184963438988467e+01
 2.255670773198752e+00	 1.451536050776111e+00	 1.184763124522399e+01
 2.241573623581973e+00	 1.473212489923061e+00	 1.184379649943820e+01
 2.227253942253316e+00	 1.494773227789727e+00	 1.183785587764619e+01
 2.212713109204739e+00	 1.516214885038502e+00	 1.183110192497226e+01
 2.197952572141261e+00	 1.537534103296425e+00	 1.182360956061630e+01
 2.182973846108672e+00	 1.558727546835108e+00	 1.181436977996600e+01
 2.167778513071549e+00	 1.579791904243640e+00	 1.180231812380938e+01
 2.152368221441746e+00	 1.600723890092773e+00	 1.178639993671995e+01
 2.306686560225482e+00	 1.391924532735436e+00	 1.183752852571633e+01
 2.293205739087698e+00	 1.414024114701353e+00	 1.183788007798424e+01
 2.279497663194307e+00	 1.436017779825485e+00	 1.183740190289335e+01
 2.265563512815084e+00	 1.457902080948352e+00	 1.183556899468848e+01
 2.251404537052127e+00	 1.479673586879913e+00	 1.183175668938823e+01
 2.237022053615622e+00	 1.501328884097794e+00	 1.182624674842132e+01
 2.222417448549786e+00	 1.522864578443580e+00	 1.181975133038938e+01
 2.207592175908865e+00	 1.544277296815441e+00	 1.181204204707659e+01
 2.192547757383210e+00	 1.565563688855433e+00	 1.180261382658861e+01
 2.177285781875451e+00	 1.586720428629738e+00	 1.179038563128703e+01
 2.161807905026910e+00	 1.607744216300153e+00	 1.177428893851954e+01
 2.316758866470872e+00	 1.398002467385323e+00	 1.182488562455638e+01
 2.303219180395842e+00	 1.420198548702625e+00	 1.182569647118580e+01
 2.289451247241648e+00	 1.442288250684892e+00	 1.182548354046939e+01
 2.275456252431791e+00	 1.464268111120392e+00	 1.182373832742969e+01
 2.261235450522658e+00	 1.486134683836569e+00	 1.181990490473593e+01
 2.246790164978307e+00	 1.507884540405682e+00	 1.181485394782266e+01
 2.232121787895208e+00	 1.529514271848499e+00	 1.180870654006491e+01
 2.217231779676833e+00	 1.551020490334319e+00	 1.180087117037577e+01
 2.202121668658096e+00	 1.572399830875644e+00	 1.179114853409521e+01
 2.186793050679680e+00	 1.593648953015747e+00	 1.177866865296350e+01
 2.171247588612376e+00	 1.614764542507465e+00	 1.176235726157046e+01
 2.326831172716678e+00	 1.404080402034961e+00	 1.181261620167803e+01
 2.313232621704424e+00	 1.426372982703632e+00	 1.181383919033402e+01
 2.299404831289444e+00	 1.448558721544026e+00	 1.181381903149503e+01
 2.285348992048967e+00	 1.470634141292165e+00	 1.181207103290985e+01
 2.271066363993667e+00	 1.492595780792974e+00	 1.180829809707080e+01
 2.256558276341471e+00	 1.514440196713340e+00	 1.180357829260279e+01
 2.241826127241105e+00	 1.536163965253214e+00	 1.179764562427124e+01
 2.226871383445270e+00	 1.557763683853025e+00	 1.178989694984569e+01
 2.211695579933441e+00	 1.579235972895713e+00	 1.177981821901294e+01
 2.196300319484348e+00	 1.600577477401644e+00	 1.176701798852901e+01
 2.180687272198258e+00	 1.621784868714693e+00	 1.175046392967121e+01
 2.336903478962982e+00	 1.410158336684268e+00	 1.180068261773816e+01
 2.323246063013532e+00	 1.432547416704292e+00	 1.180225773594048e+01
 2.309358415337787e+00	 1.454829192402815e+00	 1.180234752501823e+01
 2.295241731666707e+00	 1.477000171463607e+00	 1.180049834689668e+01
 2.280897277465249e+00	 1.499056877749069e+00	 1.179684948591385e+01
 2.266326387705213e+00	 1.520995853020717e+00	 1.179231912417034e+01
 2.251530466587583e+00	 1.542813658657683e+00	 1.178646432146549e+01
 2.236510987214281e+00	 1.564506877371523e+00	 1.177872538264850e+01
 2.221269491209349e+00	 1.586072114915613e+00	 1.176846401791727e+01
 2.205807588289569e+00	 1.607506001787408e+00	 1.175528117870179e+01
 2.190126955784675e+00	 1.628805194921821e+00	 1.173846458616059e+01
 2.346975785209869e+00	 1.416236271333159e+00	 1.178904642437844e+01
 2.333259504323253e+00	 1.438721850704529e+00	 1.179090091197755e+01
 2.319311999386771e+00	 1.461099663261189e+00	 1.179100753939892e+01
 2.305134471285104e+00	 1.483366201634651e+00	 1.178895818096760e+01
 2.290728190937501e+00	 1.505517974704796e+00	 1.178546269997237e+01
 2.276094499069635e+00	 1.527551509327765e+00	 1.178097441604960e+01
 2.261234805934741e+00	 1.549463352061865e+00	 1.177505703687675e+01
 2.246150590983973e+00	 1.571250070889777e+00	 1.176720230682558e+01
 2.230843402485931e+00	 1.592908256935313e+00	 1.175682357346922e+01
 2.215314857095454e+00	 1.614434526173017e+00	 1.174330265604720e+01
 2.199566639371741e+00	 1.635825521128831e+00	 1.172621164686821e+01
 2.357048091457420e+00	 1.422314205981550e+00	 1.177766832648459e+01
 2.343272945633677e+00	 1.444896284704266e+00	 1.177971678150789e+01
 2.329265583436483e+00	 1.467370134119075e+00	 1.177973691219548e+01
 2.315027210904254e+00	 1.489732231805234e+00	 1.177749320085139e+01
 2.300559104410523e+00	 1.511979071660099e+00	 1.177404002982581e+01
 2.285862610434835e+00	 1.534107165634431e+00	 1.176944088224467e+01
 2.270939145282684e+00	 1.556113045465715e+00	 1.176331695201414e+01
 2.255790194754447e+00	 1.577993264407751e+00	 1.175521932052567e+01
 2.240417313763295e+00	 1.599744398954787e+00	 1.174462233311383e+01
 2.224822125902113e+00	 1.621363050558446e+00	 1.173091673419093e+01
 2.209006322959574e+00	 1.642845847335706e+00	 1.171355445384651e+01
 2.367120397705719e+00	 1.428392140629360e+00	 1.176650814494027e+01
 2.353286386944889e+00	 1.451070718703424e+00	 1.176865262293198e+01
 2.339219167487019e+00	 1.473640604976401e+00	 1.176847275076908e+01
 2.324919950524251e+00	 1.496098261975291e+00	 1.176605525420509e+01
 2.310390017884411e+00	 1.518440168614919e+00	 1.176248253666617e+01
 2.295630721800916e+00	 1.540662821940666e+00	 1.175761408648103e+01
 2.280643484631514e+00	 1.562762738869191e+00	 1.175113613506555e+01
 2.265429798525814e+00	 1.584736457925410e+00	 1.174266690478303e+01
 2.249991225041550e+00	 1.606580540974004e+00	 1.173174978496015e+01
 2.234329394709660e+00	 1.628291574943675e+00	 1.171784625099149e+01
 2.218446006548291e+00	 1.649866173542431e+00	 1.170033942986059e+01
 2.124049170686888e+00	 1.579662911470398e+00	 1.182516472473920e+01
 2.108628558589857e+00	 1.600189122565430e+00	 1.180642100284151e+01
 2.092999202255976e+00	 1.620578243922046e+00	 1.178596094579731e+01
 2.077162931543178e+00	 1.640827106635827e+00	 1.176396049177776e+01
 2.061121639622393e+00	 1.660932573859722e+00	 1.174060412302699e+01
 2.044877282267870e+00	 1.680891542385580e+00	 1.171607361896031e+01
 2.028431877100554e+00	 1.700700944207160e+00	 1.169053627715302e+01
 2.011787502785091e+00	 1.720357748062982e+00	 1.166413267347219e+01
 1.994946298181105e+00	 1.739858960957423e+00	 1.163696403753598e+01
 1.977910461449441e+00	 1.759201629658466e+00	 1.160907932420525e+01
 1.960682249114137e+00	 1.778382842170543e+00	 1.158046206588349e+01
 2.133488854271850e+00	 1.586683237677879e+00	 1.181170598734180e+01
 2.117999710004906e+00	 1.607300671207999e+00	 1.179302081203338e+01
 2.102300893801555e+00	 1.627780405746571e+00	 1.177287378046018e+01
 2.086394243651967e+00	 1.648119258305944e+00	 1.175138861436266e+01
 2.070281661140682e+00	 1.668314078098306e+00	 1.172869631666026e+01
 2.053965110733777e+00	 1.688361748124242e+00	 1.170492365781330e+01
 2.037446619018888e+00	 1.708259186742689e+00	 1.168018111177406e+01
 2.020728273898639e+00	 1.728003349220649e+00	 1.165455031456660e+01
 2.003812223738151e+00	 1.747591229261039e+00	 1.162807112362332e+01
 1.986700676467310e+00	 1.767019860507099e+00	 1.160072836067281e+01
 1.969395898638579e+00	 1.786286318021785e+00	 1.157243832518066e+01
 2.142928537856765e+00	 1.593703563885343e+00	 1.179882769976832e+01
 2.127370861419855e+00	 1.614412219850554e+00	 1.178016492548957e+01
 2.111602585346982e+00	 1.634982567571086e+00	 1.176030356016458e+01
 2.095625555760544e+00	 1.655411409976052e+00	 1.173931069831654e+01
 2.079441682658698e+00	 1.675695582336879e+00	 1.171725941964348e+01
 2.063052939199353e+00	 1.695831953862885e+00	 1.169421700779946e+01
 2.046461360936835e+00	 1.715817429278189e+00	 1.167023259995211e+01
 2.029669045011751e+00	 1.735648950378270e+00	 1.164532434197225e+01
 2.012678149294721e+00	 1.755323497564586e+00	 1.161946612935809e+01
 1.995490891484678e+00	 1.774838091355636e+00	 1.159257401881462e+01
 1.978109548162504e+00	 1.794189793872894e+00	 1.156449239975350e+01
 2.152368221441746e+00	 1.600723890092773e+00	 1.178639993671995e+01
 2.136742012834830e+00	 1.621523768493086e+00	 1.176773238282570e+01
 2.120904276892380e+00	 1.642184729395582e+00	 1.174813725775154e+01
 2.104856867869042e+00	 1.662703561646145e+00	 1.172762068607879e+01
 2.088601704176580e+00	 1.683077086575437e+00	 1.170619345198043e+01
 2.072140767664742e+00	 1.703302159601512e+00	 1.168385894940768e+01
 2.055476102854545e+00	 1.723375671813665e+00	 1.166060054371456e+01
 2.038609816124580e+00	 1.743294551535855e+00	 1.163636842141823e+01
 2.021544074850970e+00	 1.763055765868082e+00	 1.161106601020652e+01
 2.004281106501693e+00	 1.782656322204099e+00	 1.158453605627392e+01
 1.986823197686063e+00	 1.802093269723903e+00	 1.155654645055604e+01
 2.161807905026910e+00	 1.607744216300153e+00	 1.177428893851954e+01
 2.146113164249949e+00	 1.628635317135581e+00	 1.175559824357462e+01
 2.130205968437883e+00	 1.649386891220052e+00	 1.173625772746184e+01
 2.114088179977596e+00	 1.669995713316220e+00	 1.171620826935206e+01
 2.097761725694471e+00	 1.690458590813981e+00	 1.169539405641574e+01
 2.081228596130090e+00	 1.710772365340124e+00	 1.167375026423372e+01
 2.064490844772167e+00	 1.730933914349124e+00	 1.165119012876283e+01
 2.047550587237280e+00	 1.750940152693417e+00	 1.162759148842766e+01
 2.030410000407053e+00	 1.770788034171543e+00	 1.160278288048954e+01
 2.013071321518515e+00	 1.790474553052514e+00	 1.157652928097408e+01
 1.995536847209405e+00	 1.809996745574845e+00	 1.154851758207097e+01
 2.171247588612376e+00	 1.614764542507465e+00	 1.176235726157045e+01
 2.155484315665336e+00	 1.635746865778026e+00	 1.174363373990987e+01
 2.139507659983615e+00	 1.656589053044487e+00	 1.172454385933644e+01
 2.123319492086340e+00	 1.677287864986270e+00	 1.170495904461478e+01
 2.106921747212509e+00	 1.697840095052508e+00	 1.168475265452078e+01
 2.090316424595543e+00	 1.718242571078723e+00	 1.166378739112547e+01
 2.073505586689853e+00	 1.738492156884570e+00	 1.164190208019034e+01
 2.056491358350004e+00	 1.758585753850966e+00	 1.161889790314781e+01
 2.039275925963123e+00	 1.778520302474986e+00	 1.159452416689334e+01
 2.021861536535295e+00	 1.798292783900905e+00	 1.156846370290611e+01
 2.004250496732682e+00	 1.817900221425754e+00	 1.154031799199918e+01
 2.180687272198258e+00	 1.621784868714693e+00	 1.175046392967121e+01
 2.164855467081114e+00	 1.642858414420410e+00	 1.173170643015611e+01
 2.148809351529708e+00	 1.663791214868880e+00	 1.171287073434404e+01
 2.132550804195409e+00	 1.684580016656292e+00	 1.169375466931147e+01
 2.116081768730835e+00	 1.705221599291016e+00	 1.167415660341612e+01
 2.099404253061246e+00	 1.725712776817313e+00	 1.165386258293277e+01
 2.082520328607752e+00	 1.746050399420012e+00	 1.163263281877970e+01
 2.065432129462903e+00	 1.766231355008511e+00	 1.161018760574245e+01
 2.048141851519337e+00	 1.786252570778430e+00	 1.158619276253081e+01
 2.030651751552185e+00	 1.806111014749295e+00	 1.156024468646132e+01
 2.012964146256041e+00	 1.825803697276663e+00	 1.153185512149462e+01
 2.190126955784675e+00	 1.628805194921821e+00	 1.173846458616059e+01
 2.174226618497403e+00	 1.649969963062720e+00	 1.171968035306241e+01
 2.158111043076286e+00	 1.670993376693221e+00	 1.170110978021420e+01
 2.141782116304936e+00	 1.691872168326279e+00	 1.168247301870021e+01
 2.125241790249589e+00	 1.712603103529505e+00	 1.166348935311175e+01
 2.108492081527346e+00	 1.733182982555893e+00	 1.164386406384295e+01
 2.091535070526014e+00	 1.753608641955454e+00	 1.162327461786217e+01
 2.074372900576134e+00	 1.773876956166066e+00	 1.160135627232877e+01
 2.057007777075847e+00	 1.793984839081889e+00	 1.157768718153700e+01
 2.039441966569339e+00	 1.813929245597710e+00	 1.155177310329322e+01
 2.021677795779635e+00	 1.833707173127606e+00	 1.152303180592814e+01
 2.199566639371741e+00	 1.635825521128831e+00	 1.172621164686821e+01
 2.183597769914325e+00	 1.657081511704945e+00	 1.170741618281573e+01
 2.167412734623478e+00	 1.678195538517502e+00	 1.168912892795472e+01
 2.151013428415056e+00	 1.699164319996229e+00	 1.167098834333755e+01
 2.134401811768912e+00	 1.719984607767973e+00	 1.165263060444617e+01
 2.117579909993987e+00	 1.740653188294467e+00	 1.163367618728508e+01
 2.100549812444790e+00	 1.761166884490903e+00	 1.161371576072216e+01
 2.083313671689846e+00	 1.781522557323640e+00	 1.159229547144323e+01
 2.065873702632808e+00	 1.801717107385382e+00	 1.156890171418278e+01
 2.048232181586911e+00	 1.821747476446173e+00	 1.154294548569245e+01
 2.030391445303612e+00	 1.841610648978614e+00	 1.151374642616469e+01
 2.209006322959574e+00	 1.642845847335706e+00	 1.171355445384651e+01
 2.192968921332004e+00	 1.664193060347072e+00	 1.169477138477233e+01
 2.176714426171413e+00	 1.685397700341715e+00	 1.167679276903303e+01
 2.160244740525902e+00	 1.706456471666134e+00	 1.165917142718187e+01
 2.143561833288943e+00	 1.727366112006418e+00	 1.164145646760687e+01
 2.126667738461317e+00	 1.748123394033037e+00	 1.162317959438563e+01
 2.109564554364229e+00	 1.768725127026365e+00	 1.160384069853073e+01
 2.092254442804197e+00	 1.789168158481245e+00	 1.158289282101993e+01
 2.074739628190375e+00	 1.809449375688924e+00	 1.155972658249106e+01
 2.057022396605055e+00	 1.829565707294709e+00	 1.153365418045963e+01
 2.039105094828122e+00	 1.849514124829724e+00	 1.150389306033801e+01
 2.218446006548291e+00	 1.649866173542431e+00	 1.170033942986059e+01
 2.202340072750562e+00	 1.671304608989089e+00	 1.168160037188597e+01
 2.186016117720220e+00	 1.692599862165852e+00	 1.166396271320164e+01
 2.169476052637611e+00	 1.713748623335992e+00	 1.164688974629699e+01
 2.152721854809824e+00	 1.734747616244839e+00	 1.162983962121467e+01
 2.135755566929481e+00	 1.755593599771605e+00	 1.161225137295942e+01
 2.118579296284484e+00	 1.776283369561847e+00	 1.159353020879244e+01
 2.101195213919337e+00	 1.796813759638892e+00	 1.157303214586705e+01
 2.083605553748703e+00	 1.817181643992534e+00	 1.155004809634105e+01
 2.065812611623925e+00	 1.837383938143343e+00	 1.152378750326153e+01
 2.047818744353316e+00	 1.857417600680966e+00	 1.149357566887889e+01
 1.960682249114137e+00	 1.778382842170543e+00	 1.158046206588349e+01
 1.943266946713710e+00	 1.797396515955566e+00	 1.155000109607854e+01
 1.925663985273179e+00	 1.816243127321944e+00	 1.151564199653659e+01
 1.907875758085926e+00	 1.834919928965709e+00	 1.147580770747673e+01
 1.889904712594699e+00	 1.853424220399255e+00	 1.142880870013422e+01
 1.871753349261536e+00	 1.871753349261536e+00	 1.137884520744340e+01
 1.853424220399255e+00	 1.889904712594700e+00	 1.132969579954481e+01
 1.834919928965707e+00	 1.907875758085926e+00	 1.128213686509414e+01
 1.816243127321943e+00	 1.925663985273180e+00	 1.123691675527443e+01
 1.797396515955565e+00	 1.943266946713711e+00	 1.119329779574126e+01
 1.778382842170543e+00	 1.960682249114138e+00	 1.115056582190559e+01
 1.969395898638579e+00	 1.786286318021785e+00	 1.157243832518066e+01
 1.951903199280416e+00	 1.805384492235028e+00	 1.154185398297815e+01
 1.934222006889205e+00	 1.824314861572041e+00	 1.150672800506425e+01
 1.916354725394588e+00	 1.843074666519308e+00	 1.146547679796354e+01
 1.898303813116220e+00	 1.861661194587736e+00	 1.141771702201697e+01
 1.880071781628672e+00	 1.880071781628672e+00	 1.136956464988663e+01
 1.861661194587735e+00	 1.898303813116220e+00	 1.132193253291043e+01
 1.843074666519307e+00	 1.916354725394588e+00	 1.127492917990543e+01
 1.824314861572040e+00	 1.934222006889205e+00	 1.122986647591693e+01
 1.805384492235027e+00	 1.951903199280416e+00	 1.118633727151026e+01
 1.786286318021785e+00	 1.969395898638579e+00	 1.114362458676726e+01
 1.978109548162504e+00	 1.794189793872894e+00	 1.156449239975350e+01
 1.960539451846607e+00	 1.813372468514313e+00	 1.153365173225037e+01
 1.942780028504736e+00	 1.832386595821912e+00	 1.149763063580151e+01
 1.924833692702783e+00	 1.851229404072628e+00	 1.145484263818980e+01
 1.906702913637312e+00	 1.869898168775885e+00	 1.140797725193990e+01
 1.888390213995427e+00	 1.888390213995427e+00	 1.136142629648545e+01
 1.869898168775885e+00	 1.906702913637312e+00	 1.131511940234370e+01
 1.851229404072628e+00	 1.924833692702784e+00	 1.126894164987769e+01
 1.832386595821912e+00	 1.942780028504736e+00	 1.122385116817168e+01
 1.813372468514312e+00	 1.960539451846608e+00	 1.118025837010448e+01
 1.794189793872894e+00	 1.978109548162504e+00	 1.113744749591710e+01
 1.986823197686063e+00	 1.802093269723903e+00	 1.155654645055604e+01
 1.969175704412429e+00	 1.821360444793465e+00	 1.152531928978259e+01
 1.951338050119905e+00	 1.840458330071614e+00	 1.148827871125235e+01
 1.933312660010635e+00	 1.859384141625740e+00	 1.144452521664635e+01
 1.915102014158089e+00	 1.878135142963787e+00	 1.139934193959143e+01
 1.896708646361897e+00	 1.896708646361897e+00	 1.135418729753146e+01
 1.878135142963787e+00	 1.915102014158089e+00	 1.130901880939133e+01
 1.859384141625740e+00	 1.933312660010636e+00	 1.126375431443715e+01
 1.840458330071614e+00	 1.951338050119905e+00	 1.121864515161521e+01
 1.821360444793465e+00	 1.969175704412430e+00	 1.117484799237479e+01
 1.802093269723903e+00	 1.986823197686063e+00	 1.113183442570375e+01
 1.995536847209405e+00	 1.809996745574845e+00	 1.154851758207097e+01
 1.977811956978025e+00	 1.829348421072529e+00	 1.151677642751723e+01
 1.959896071734847e+00	 1.848530064321203e+00	 1.147859574050291e+01
 1.941791627318270e+00	 1.867538879178716e+00	 1.143527592213836e+01
 1.923501114678661e+00	 1.886372117151527e+00	 1.139156470196999e+01
 1.905027078728183e+00	 1.905027078728184e+00	 1.134760570241067e+01
 1.886372117151528e+00	 1.923501114678662e+00	 1.130339386490907e+01
 1.867538879178717e+00	 1.941791627318270e+00	 1.125888538048345e+01
 1.848530064321202e+00	 1.959896071734847e+00	 1.121401818474502e+01
 1.829348421072528e+00	 1.977811956978026e+00	 1.116988817516837e+01
 1.809996745574845e+00	 1.995536847209406e+00	 1.112658005505416e+01
 2.004250496732682e+00	 1.817900221425754e+00	 1.154031799199918e+01
 1.986448209543539e+00	 1.837336397351549e+00	 1.150793789096085e+01
 1.968454093349698e+00	 1.856601798570737e+00	 1.146873220501354e+01
 1.950270594625809e+00	 1.875693616731623e+00	 1.142685139090659e+01
 1.931900215199140e+00	 1.894609091339189e+00	 1.138440037100837e+01
 1.913345511094382e+00	 1.913345511094382e+00	 1.134144060647246e+01
 1.894609091339189e+00	 1.931900215199140e+00	 1.129800853530724e+01
 1.875693616731623e+00	 1.950270594625809e+00	 1.125410287240928e+01
 1.856601798570736e+00	 1.968454093349699e+00	 1.120967178301835e+01
 1.837336397351549e+00	 1.986448209543539e+00	 1.116515655934068e+01
 1.817900221425754e+00	 2.004250496732682e+00	 1.112147432948796e+01
 2.012964146256041e+00	 1.825803697276663e+00	 1.153185512149462e+01
 1.995084462109113e+00	 1.845324373630570e+00	 1.149871354723647e+01
 1.977012114964593e+00	 1.864673532820271e+00	 1.145954443388768e+01
 1.958749561933377e+00	 1.883848354284533e+00	 1.141900432766053e+01
 1.940299315719637e+00	 1.902846065526855e+00	 1.137760514169036e+01
 1.921663943460591e+00	 1.921663943460591e+00	 1.133545229835519e+01
 1.902846065526855e+00	 1.940299315719637e+00	 1.129262778921060e+01
 1.883848354284533e+00	 1.958749561933377e+00	 1.124917700918283e+01
 1.864673532820270e+00	 1.977012114964592e+00	 1.120509545322152e+01
 1.845324373630568e+00	 1.995084462109113e+00	 1.116042685801557e+01
 1.825803697276663e+00	 2.012964146256042e+00	 1.111630292531320e+01
 2.021677795779635e+00	 1.833707173127606e+00	 1.152303180592814e+01
 2.003720714674891e+00	 1.853312349909634e+00	 1.148902648449084e+01
 1.985570136579663e+00	 1.872745267069861e+00	 1.145090622725771e+01
 1.967228529241098e+00	 1.892003091837515e+00	 1.141148909678341e+01
 1.948698416240263e+00	 1.911083039714611e+00	 1.137093672064450e+01
 1.929982375826908e+00	 1.929982375826908e+00	 1.132940240775535e+01
 1.911083039714611e+00	 1.948698416240264e+00	 1.128701774452106e+01
 1.892003091837515e+00	 1.967228529241097e+00	 1.124387894748019e+01
 1.872745267069861e+00	 1.985570136579664e+00	 1.120003306699758e+01
 1.853312349909633e+00	 2.003720714674893e+00	 1.115546413874750e+01
 1.833707173127606e+00	 2.021677795779635e+00	 1.111084771399891e+01
 2.030391445303612e+00	 1.841610648978614e+00	 1.151374642616469e+01
 2.012356967241018e+00	 1.861300326188786e+00	 1.147947116286761e+01
 1.994128158195047e+00	 1.880817001319567e+00	 1.144257114003378e+01
 1.975707496549093e+00	 1.900157829390639e+00	 1.140406187236964e+01
 1.957097516761130e+00	 1.919320013902541e+00	 1.136415447520086e+01
 1.938300808193432e+00	 1.938300808193432e+00	 1.132305405362645e+01
 1.919320013902541e+00	 1.957097516761130e+00	 1.128094581587039e+01
 1.900157829390639e+00	 1.975707496549094e+00	 1.123798092849219e+01
 1.880817001319567e+00	 1.994128158195047e+00	 1.119426221078273e+01
 1.861300326188785e+00	 2.012356967241019e+00	 1.114982976793864e+01
 1.841610648978614e+00	 2.030391445303612e+00	 1.110488722671860e+01
 2.039105094828122e+00	 1.849514124829724e+00	 1.150389306033801e+01
 2.020993219807637e+00	 1.869288302468072e+00	 1.147019729380870e+01
 2.002686179810877e+00	 1.888888735569443e+00	 1.143429481375096e+01
 1.984186463857490e+00	 1.908312566943976e+00	 1.139648078873661e+01
 1.965496617282349e+00	 1.927556988090728e+00	 1.135701958289684e+01
 1.946619240560260e+00	 1.946619240560260e+00	 1.131617199279501e+01
 1.927556988090728e+00	 1.965496617282349e+00	 1.127418086245151e+01
 1.908312566943976e+00	 1.984186463857490e+00	 1.123125642506530e+01
 1.888888735569443e+00	 2.002686179810877e+00	 1.118756147159313e+01
 1.869288302468071e+00	 2.020993219807637e+00	 1.114319644870211e+01
 1.849514124829724e+00	 2.039105094828122e+00	 1.109819711906062e+01
 2.047818744353316e+00	 1.857417600680966e+00	 1.149357566887889e+01
 2.029629472374892e+00	 1.877276278747535e+00	 1.146096093398561e+01
 2.011244201427289e+00	 1.896960469819547e+00	 1.142583512869117e+01
 1.992665431166410e+00	 1.916467304497596e+00	 1.138850609139641e+01
 1.973895717804032e+00	 1.935793962279256e+00	 1.134929518141865e+01
 1.954937672927490e+00	 1.954937672927490e+00	 1.130852276898121e+01
 1.935793962279256e+00	 1.973895717804032e+00	 1.126649333621710e+01
 1.916467304497596e+00	 1.992665431166411e+00	 1.122348028916675e+01
 1.896960469819546e+00	 2.011244201427289e+00	 1.117971058383445e+01
 1.877276278747535e+00	 2.029629472374892e+00	 1.113534927181285e+01
 1.857417600680966e+00	 2.047818744353316e+00	 1.109048407276881e+01
 1.778382842170543e+00	 1.960682249114138e+00	 1.115056582190559e+01
 1.759201629658466e+00	 1.977910461449440e+00	 1.110570457200020e+01
 1.739858960957424e+00	 1.994946298181105e+00	 1.105649160368170e+01
 1.720357748062983e+00	 2.011787502785090e+00	 1.100338624303100e+01
 1.700700944207161e+00	 2.028431877100553e+00	 1.094681976246454e+01
 1.680891542385581e+00	 2.044877282267870e+00	 1.088717442788960e+01
 1.660932573859722e+00	 2.061121639622392e+00	 1.082476278914690e+01
 1.640827106635828e+00	 2.077162931543177e+00	 1.075980737907940e+01
 1.620578243922048e+00	 2.092999202255976e+00	 1.069242098445297e+01
 1.600189122565431e+00	 2.108628558589857e+00	 1.062258764871480e+01
 1.579662911470398e+00	 2.124049170686888e+00	 1.055014456223130e+01
 1.786286318021785e+00	 1.969395898638579e+00	 1.114362458676726e+01
 1.767019860507100e+00	 1.986700676467310e+00	 1.109882284922559e+01
 1.747591229261040e+00	 2.003812223738151e+00	 1.104981727730622e+01
 1.728003349220651e+00	 2.020728273898639e+00	 1.099706230432362e+01
 1.708259186742690e+00	 2.037446619018887e+00	 1.094098484079392e+01
 1.688361748124243e+00	 2.053965110733777e+00	 1.088196257727873e+01
 1.668314078098307e+00	 2.070281661140681e+00	 1.082030253044593e+01
 1.648119258305945e+00	 2.086394243651966e+00	 1.075622000296429e+01
 1.627780405746572e+00	 2.102300893801554e+00	 1.068981812570903e+01
 1.607300671207999e+00	 2.117999710004905e+00	 1.062106814745588e+01
 1.586683237677879e+00	 2.133488854271851e+00	 1.054979063280276e+01
 1.794189793872894e+00	 1.978109548162504e+00	 1.113744749591710e+01
 1.774838091355636e+00	 1.995490891484676e+00	 1.109262891561071e+01
 1.755323497564587e+00	 2.012678149294720e+00	 1.104379298510479e+01
 1.735648950378271e+00	 2.029669045011751e+00	 1.099138151724362e+01
 1.715817429278190e+00	 2.046461360936834e+00	 1.093580912789291e+01
 1.695831953862886e+00	 2.063052939199352e+00	 1.087744078499458e+01
 1.675695582336880e+00	 2.079441682658697e+00	 1.081656960086190e+01
 1.655411409976053e+00	 2.095625555760543e+00	 1.075339504372250e+01
 1.634982567571087e+00	 2.111602585346980e+00	 1.068800174234895e+01
 1.614412219850555e+00	 2.127370861419855e+00	 1.062033905425625e+01
 1.593703563885343e+00	 2.142928537856765e+00	 1.055020156341231e+01
 1.802093269723903e+00	 1.986823197686063e+00	 1.113183442570375e+01
 1.782656322204101e+00	 2.004281106501693e+00	 1.108693430614608e+01
 1.763055765868083e+00	 2.021544074850969e+00	 1.103823899504838e+01
 1.743294551535857e+00	 2.038609816124580e+00	 1.098617012218531e+01
 1.723375671813666e+00	 2.055476102854545e+00	 1.093112224516812e+01
 1.703302159601513e+00	 2.072140767664741e+00	 1.087343963464273e+01
 1.683077086575438e+00	 2.088601704176580e+00	 1.081339330283699e+01
 1.662703561646146e+00	 2.104856867869041e+00	 1.075115845696890e+01
 1.642184729395583e+00	 2.120904276892380e+00	 1.068679255683289e+01
 1.621523768493087e+00	 2.136742012834829e+00	 1.062021415245835e+01
 1.600723890092773e+00	 2.152368221441745e+00	 1.055118267310412e+01
 1.809996745574845e+00	 1.995536847209406e+00	 1.112658005505416e+01
 1.790474553052515e+00	 2.013071321518515e+00	 1.108154502674334e+01
 1.770788034171545e+00	 2.030410000407052e+00	 1.103296974676398e+01
 1.750940152693418e+00	 2.047550587237279e+00	 1.098124826406595e+01
 1.730933914349125e+00	 2.064490844772167e+00	 1.092674748330904e+01
 1.710772365340125e+00	 2.081228596130089e+00	 1.086978317554181e+01
 1.690458590813982e+00	 2.097761725694471e+00	 1.081059623241383e+01
 1.669995713316221e+00	 2.114088179977596e+00	 1.074932935105453e+01
 1.649386891220053e+00	 2.130205968437882e+00	 1.068600433453066e+01
 1.628635317135582e+00	 2.146113164249948e+00	 1.062050018930608e+01
 1.607744216300153e+00	 2.161807905026910e+00	 1.055253219640115e+01
 1.817900221425754e+00	 2.004250496732682e+00	 1.112147432948796e+01
 1.798292783900906e+00	 2.021861536535294e+00	 1.107626201342062e+01
 1.778520302474988e+00	 2.039275925963123e+00	 1.102779430444574e+01
 1.758585753850966e+00	 2.056491358350003e+00	 1.097643043757407e+01
 1.738492156884571e+00	 2.073505586689853e+00	 1.092250223854408e+01
 1.718242571078724e+00	 2.090316424595541e+00	 1.086628934871763e+01
 1.697840095052508e+00	 2.106921747212509e+00	 1.080799469375898e+01
 1.677287864986271e+00	 2.123319492086341e+00	 1.074772038897297e+01
 1.656589053044488e+00	 2.139507659983615e+00	 1.068544427192671e+01
 1.635746865778026e+00	 2.155484315665335e+00	 1.062099724942909e+01
 1.614764542507465e+00	 2.171247588612376e+00	 1.055404164111318e+01
 1.825803697276663e+00	 2.012964146256042e+00	 1.111630292531320e+01
 1.806111014749296e+00	 2.030651751552183e+00	 1.107088159161554e+01
 1.786252570778431e+00	 2.048141851519337e+00	 1.102251680986806e+01
 1.766231355008512e+00	 2.065432129462902e+00	 1.097152593252242e+01
 1.746050399420012e+00	 2.082520328607751e+00	 1.091819844903032e+01
 1.725712776817313e+00	 2.099404253061246e+00	 1.086277041308494e+01
 1.705221599291017e+00	 2.116081768730835e+00	 1.080539911395249e+01
 1.684580016656292e+00	 2.132550804195409e+00	 1.074613819063372e+01
 1.663791214868881e+00	 2.148809351529707e+00	 1.068491338531626e+01
 1.642858414420412e+00	 2.164855467081114e+00	 1.062149912896195e+01
 1.621784868714693e+00	 2.180687272198258e+00	 1.055549614694423e+01
 1.833707173127606e+00	 2.021677795779635e+00	 1.111084771399891e+01
 1.813929245597710e+00	 2.039441966569338e+00	 1.106519593562233e+01
 1.793984839081890e+00	 2.057007777075845e+00	 1.101693693549858e+01
 1.773876956166067e+00	 2.074372900576133e+00	 1.096633927930262e+01
 1.753608641955455e+00	 2.091535070526013e+00	 1.091364303137231e+01
 1.733182982555894e+00	 2.108492081527345e+00	 1.085903337181117e+01
 1.712603103529506e+00	 2.125241790249589e+00	 1.080261445803519e+01
 1.691872168326280e+00	 2.141782116304936e+00	 1.074438373549232e+01
 1.670993376693222e+00	 2.158111043076286e+00	 1.068420689997716e+01
 1.649969963062721e+00	 2.174226618497403e+00	 1.062179371027974e+01
 1.628805194921821e+00	 2.190126955784675e+00	 1.055667484487471e+01
 1.841610648978614e+00	 2.030391445303612e+00	 1.110488722671860e+01
 1.821747476446174e+00	 2.048232181586911e+00	 1.105899352814967e+01
 1.801717107385383e+00	 2.065873702632807e+00	 1.101085033770778e+01
 1.781522557323641e+00	 2.083313671689846e+00	 1.096067069443878e+01
 1.761166884490904e+00	 2.100549812444789e+00	 1.090863831726714e+01
 1.740653188294468e+00	 2.117579909993987e+00	 1.085488039885682e+01
 1.719984607767973e+00	 2.134401811768911e+00	 1.079944064430660e+01
 1.699164319996229e+00	 2.151013428415056e+00	 1.074225276552611e+01
 1.678195538517503e+00	 2.167412734623478e+00	 1.068311463980428e+01
 1.657081511704947e+00	 2.183597769914325e+00	 1.062166333733119e+01
 1.635825521128831e+00	 2.199566639371741e+00	 1.055735121729560e+01
 1.849514124829724e+00	 2.039105094828122e+00	 1.109819711906062e+01
 1.829565707294710e+00	 2.057022396605054e+00	 1.105205961999580e+01
 1.809449375688924e+00	 2.074739628190374e+00	 1.100404911007290e+01
 1.789168158481246e+00	 2.092254442804196e+00	 1.095431652623721e+01
 1.768725127026366e+00	 2.109564554364229e+00	 1.090298249027180e+01
 1.748123394033037e+00	 2.126667738461316e+00	 1.085010926568776e+01
 1.727366112006419e+00	 2.143561833288943e+00	 1.079567295986601e+01
 1.706456471666135e+00	 2.160244740525902e+00	 1.073953618854590e+01
 1.685397700341716e+00	 2.176714426171413e+00	 1.068142141739194e+01
 1.664193060347073e+00	 2.192968921332003e+00	 1.062088519155180e+01
 1.642845847335707e+00	 2.209006322959575e+00	 1.055729345887224e+01
 1.857417600680966e+00	 2.047818744353316e+00	 1.109048407276881e+01
 1.837383938143343e+00	 2.065812611623924e+00	 1.104417668983776e+01
 1.817181643992535e+00	 2.083605553748702e+00	 1.099632223677339e+01
 1.796813759638892e+00	 2.101195213919335e+00	 1.094706970052982e+01
 1.776283369561846e+00	 2.118579296284482e+00	 1.089647002268947e+01
 1.755593599771606e+00	 2.135755566929480e+00	 1.084451376815413e+01
 1.734747616244840e+00	 2.152721854809824e+00	 1.079110247638963e+01
 1.713748623335992e+00	 2.169476052637610e+00	 1.073602048183353e+01
 1.692599862165853e+00	 2.186016117720219e+00	 1.067890742455153e+01
 1.671304608989090e+00	 2.202340072750561e+00	 1.061923166833980e+01
 1.649866173542431e+00	 2.218446006548291e+00	 1.055626483811576e+01
 1.579662911470398e+00	 2.124049170686888e+00	 1.055014456223130e+01
 1.559006331085034e+00	 2.139256706660687e+00	 1.047936437546695e+01
 1.538219120773742e+00	 2.154252112286065e+00	 1.041357445587813e+01
 1.517304522738907e+00	 2.169033760839584e+00	 1.035095552494328e+01
 1.496265804822732e+00	 2.183600091170817e+00	 1.028947150323611e+01
 1.475106258864948e+00	 2.197949608167673e+00	 1.022691449474885e+01
 1.453829199051922e+00	 2.212080883172814e+00	 1.016162111100613e+01
 1.432437960258826e+00	 2.225992554351049e+00	 1.009139180652150e+01
 1.410935896386572e+00	 2.239683327007675e+00	 1.001847117439327e+01
 1.389326378695153e+00	 2.253151973857749e+00	 9.944323826104604e+00
 1.367612794135071e+00	 2.266397335246414e+00	 9.869277251420336e+00
 1.586683237677879e+00	 2.133488854271851e+00	 1.054979063280276e+01
 1.565934855471266e+00	 2.148763975464279e+00	 1.048014259882065e+01
 1.545055262794234e+00	 2.163826023560208e+00	 1.041526665548328e+01
 1.524047716258122e+00	 2.178673364606726e+00	 1.035321273080272e+01
 1.502915498228035e+00	 2.193304430515357e+00	 1.029180484783472e+01
 1.481661915173254e+00	 2.207717719529442e+00	 1.022863059219819e+01
 1.460290296009009e+00	 2.221911796642414e+00	 1.016163642581046e+01
 1.438803990431283e+00	 2.235885293966829e+00	 1.009139112047836e+01
 1.417206367246351e+00	 2.249636911054106e+00	 1.001982673422013e+01
 1.395500812696713e+00	 2.263165415165016e+00	 9.946968316660406e+00
 1.373690728785118e+00	 2.276469641490973e+00	 9.873067173181745e+00
 1.593703563885343e+00	 2.142928537856765e+00	 1.055020156341231e+01
 1.572863379857475e+00	 2.158271244267862e+00	 1.048160630000114e+01
 1.551891404814699e+00	 2.173399934834374e+00	 1.041750127288349e+01
 1.530790909777306e+00	 2.188312968373917e+00	 1.035581798581513e+01
 1.509565191633306e+00	 2.203008769859963e+00	 1.029425308337476e+01
 1.488217571481531e+00	 2.217485830891289e+00	 1.023025742916747e+01
 1.466751392966075e+00	 2.231742710112102e+00	 1.016241149041019e+01
 1.445170020603734e+00	 2.245778033582697e+00	 1.009328510055748e+01
 1.423476838106144e+00	 2.259590495100627e+00	 1.002285592724451e+01
 1.401675246698319e+00	 2.273178856472372e+00	 9.951087010965255e+00
 1.379768663435249e+00	 2.286541947735615e+00	 9.878169560677472e+00
 1.600723890092773e+00	 2.152368221441745e+00	 1.055118267310412e+01
 1.579791904243640e+00	 2.167778513071549e+00	 1.048355428951029e+01
 1.558727546835108e+00	 2.182973846108672e+00	 1.042007584628806e+01
 1.537534103296425e+00	 2.197952572141261e+00	 1.035857267274003e+01
 1.516214885038502e+00	 2.212713109204739e+00	 1.029662642881076e+01
 1.494773227789727e+00	 2.227253942253316e+00	 1.023179644241081e+01
 1.473212489923062e+00	 2.241573623581972e+00	 1.016475907449037e+01
 1.451536050776112e+00	 2.255670773198751e+00	 1.009654375944782e+01
 1.429747308965879e+00	 2.269544079147330e+00	 1.002705019150508e+01
 1.407849680699891e+00	 2.283192297779902e+00	 9.956196229831901e+00
 1.385846598085384e+00	 2.296614253980425e+00	 9.884128986733078e+00
 1.607744216300153e+00	 2.161807905026910e+00	 1.055253219640115e+01
 1.586720428629738e+00	 2.177285781875451e+00	 1.048577821762506e+01
 1.565563688855433e+00	 2.192547757383210e+00	 1.042278059622485e+01
 1.544277296815441e+00	 2.207592175908866e+00	 1.036127062233533e+01
 1.522864578443581e+00	 2.222417448549786e+00	 1.029872758580740e+01
 1.501328884097795e+00	 2.237022053615621e+00	 1.023422302418326e+01
 1.479673586879913e+00	 2.251404537052126e+00	 1.016813638460505e+01
 1.457902080948353e+00	 2.265563512815084e+00	 1.010064042053279e+01
 1.436017779825487e+00	 2.279497663194306e+00	 1.003190341060180e+01
 1.414024114701354e+00	 2.293205739087697e+00	 9.961813814037038e+00
 1.391924532735436e+00	 2.306686560225482e+00	 9.890490564154668e+00
 1.614764542507465e+00	 2.171247588612376e+00	 1.055404164111318e+01
 1.593648953015747e+00	 2.186793050679680e+00	 1.048806291689521e+01
 1.572399830875644e+00	 2.202121668658096e+00	 1.042539875433389e+01
 1.551020490334320e+00	 2.217231779676833e+00	 1.036369843000696e+01
 1.529514271848499e+00	 2.232121787895207e+00	 1.030093873934745e+01
 1.507884540405683e+00	 2.246790164978306e+00	 1.023721107203224e+01
 1.486134683836570e+00	 2.261235450522658e+00	 1.017197497803672e+01
 1.464268111120393e+00	 2.275456252431791e+00	 1.010505217535209e+01
 1.442288250684892e+00	 2.289451247241647e+00	 1.003691236136087e+01
 1.420198548702627e+00	 2.303219180395841e+00	 9.967459563396934e+00
 1.398002467385323e+00	 2.316758866470872e+00	 9.896800377377561e+00
 1.621784868714693e+00	 2.180687272198258e+00	 1.055549614694423e+01
 1.600577477401644e+00	 2.196300319484349e+00	 1.049018674558955e+01
 1.579235972895714e+00	 2.211695579933441e+00	 1.042770689321351e+01
 1.557763683853026e+00	 2.226871383445270e+00	 1.036571848427491e+01
 1.536163965253215e+00	 2.241826127241105e+00	 1.030337214163691e+01
 1.514440196713341e+00	 2.256558276341471e+00	 1.024023118642669e+01
 1.492595780792975e+00	 2.271066363993666e+00	 1.017566488377141e+01
 1.470634141292166e+00	 2.285348992048967e+00	 1.010926034201050e+01
 1.448558721544026e+00	 2.299404831289443e+00	 1.004157716231294e+01
 1.426372982703632e+00	 2.313232621704422e+00	 9.972655676489655e+00
 1.404080402034961e+00	 2.326831172716678e+00	 9.902605914564152e+00
 1.628805194921821e+00	 2.190126955784675e+00	 1.055667484487471e+01
 1.607506001787408e+00	 2.205807588289569e+00	 1.049192193206274e+01
 1.586072114915613e+00	 2.221269491209349e+00	 1.042947525728796e+01
 1.564506877371523e+00	 2.236510987214281e+00	 1.036752978785629e+01
 1.542813658657684e+00	 2.251530466587583e+00	 1.030551342441063e+01
 1.520995853020718e+00	 2.266326387705214e+00	 1.024276539497776e+01
 1.499056877749069e+00	 2.280897277465248e+00	 1.017868353738050e+01
 1.477000171463607e+00	 2.295241731666706e+00	 1.011275092450372e+01
 1.454829192402817e+00	 2.309358415337787e+00	 1.004540172295980e+01
 1.432547416704294e+00	 2.323246063013531e+00	 9.976927191004808e+00
 1.410158336684268e+00	 2.336903478962983e+00	 9.907456500137139e+00
 1.635825521128831e+00	 2.199566639371741e+00	 1.055735121729560e+01
 1.614434526173017e+00	 2.215314857095454e+00	 1.049303492001497e+01
 1.592908256935313e+00	 2.230843402485931e+00	 1.043057501351382e+01
 1.571250070889777e+00	 2.246150590983972e+00	 1.036874175878710e+01
 1.549463352061866e+00	 2.261234805934742e+00	 1.030685963732855e+01
 1.527551509327765e+00	 2.276094499069635e+00	 1.024430702732119e+01
 1.505517974704797e+00	 2.290728190937501e+00	 1.018052400480254e+01
 1.483366201634652e+00	 2.305134471285103e+00	 1.011501053556363e+01
 1.461099663261191e+00	 2.319311999386770e+00	 1.004789419380531e+01
 1.438721850704531e+00	 2.333259504323253e+00	 9.979802424700704e+00
 1.416236271333159e+00	 2.346975785209869e+00	 9.910903727733825e+00
 1.642845847335707e+00	 2.209006322959575e+00	 1.055729345887224e+01
 1.621363050558446e+00	 2.224822125902113e+00	 1.049328550990377e+01
 1.599744398954787e+00	 2.240417313763295e+00	 1.043078127990453e+01
 1.577993264407751e+00	 2.255790194754448e+00	 1.036887011512109e+01
 1.556113045465715e+00	 2.270939145282685e+00	 1.030691912102937e+01
 1.534107165634431e+00	 2.285862610434835e+00	 1.024436059102017e+01
 1.511979071660100e+00	 2.300559104410522e+00	 1.018069035236224e+01
 1.489732231805235e+00	 2.315027210904252e+00	 1.011546582321846e+01
 1.467370134119076e+00	 2.329265583436483e+00	 1.004856741712626e+01
 1.444896284704267e+00	 2.343272945633676e+00	 9.980813416950051e+00
 1.422314205981550e+00	 2.357048091457419e+00	 9.912501893569214e+00
 1.649866173542431e+00	 2.218446006548291e+00	 1.055626483811576e+01
 1.628291574943675e+00	 2.234329394709661e+00	 1.049235505819597e+01
 1.606580540974004e+00	 2.249991225041550e+00	 1.042963360075397e+01
 1.584736457925411e+00	 2.265429798525814e+00	 1.036744178439912e+01
 1.562762738869192e+00	 2.280643484631514e+00	 1.030521138119511e+01
 1.540662821940667e+00	 2.295630721800915e+00	 1.024244164845872e+01
 1.518440168614920e+00	 2.310390017884410e+00	 1.017869752784261e+01
 1.496098261975292e+00	 2.324919950524250e+00	 1.011360754720124e+01
 1.473640604976403e+00	 2.339219167487018e+00	 1.004693937846104e+01
 1.451070718703425e+00	 2.353286386944889e+00	 9.979496370856372e+00
 1.428392140629360e+00	 2.367120397705719e+00	 9.911808430194066e+00
 1.367612794135071e+00	 2.266397335246414e+00	 9.869277251420336e+00
 1.345798544104625e+00	 2.279418319870113e+00	 9.793267168631822e+00
 1.323887044033352e+00	 2.292213906556814e+00	 9.716088624079653e+00
 1.301881720390622e+00	 2.304783142703884e+00	 9.638092192027610e+00
 1.279786008591533e+00	 2.317125143753540e+00	 9.559717519763925e+00
 1.257603351341992e+00	 2.329239093168202e+00	 9.481465673522193e+00
 1.235337196991659e+00	 2.341124242358659e+00	 9.403873035252863e+00
 1.212990997896279e+00	 2.352779910565553e+00	 9.327486887449433e+00
 1.190568208790905e+00	 2.364205484694748e+00	 9.252842807229303e+00
 1.168072285175488e+00	 2.375400419107196e+00	 9.180443974443602e+00
 1.145506681714263e+00	 2.386364235363962e+00	 9.110742481861340e+00
 1.373690728785118e+00	 2.276469641490973e+00	 9.873067173181745e+00
 1.351779532026319e+00	 2.289548493878454e+00	 9.797924437540155e+00
 1.329770653028691e+00	 2.302400946617133e+00	 9.721294237977332e+00
 1.307667533489514e+00	 2.315026042870817e+00	 9.643592139718539e+00
 1.285473624091549e+00	 2.327422894150567e+00	 9.565322833645135e+00
 1.263192382840769e+00	 2.339590680289941e+00	 9.487051550344278e+00
 1.240827273411981e+00	 2.351528649372846e+00	 9.409377085969812e+00
 1.218381763503884e+00	 2.363236117614487e+00	 9.332906581259863e+00
 1.195859323205053e+00	 2.374712469196007e+00	 9.258232178551191e+00
 1.173263423372366e+00	 2.385957156053423e+00	 9.185909664694689e+00
 1.150597534023268e+00	 2.396969697621516e+00	 9.116439190528705e+00
 1.379768663435249e+00	 2.286541947735615e+00	 9.878169560677472e+00
 1.357760519948147e+00	 2.299678667886872e+00	 9.803800987879910e+00
 1.335654262024223e+00	 2.312587986677522e+00	 9.727704442555209e+00
 1.313453346588659e+00	 2.325268943037809e+00	 9.650344813156225e+00
 1.291161239591877e+00	 2.337720644547641e+00	 9.572275567137487e+00
 1.268781414339913e+00	 2.349942267411712e+00	 9.494109236937232e+00
 1.246317349832717e+00	 2.361933056387043e+00	 9.416489580801880e+00
 1.223772529111934e+00	 2.373692324663400e+00	 9.340065563989842e+00
 1.201150437619663e+00	 2.385219453697213e+00	 9.265467288876071e+00
 1.178454561569703e+00	 2.396513892999559e+00	 9.193283985016054e+00
 1.155688386332704e+00	 2.407575159878932e+00	 9.124044152451685e+00
 1.385846598085384e+00	 2.296614253980425e+00	 9.884128986733078e+00
 1.363741507870024e+00	 2.309808841895447e+00	 9.810468209045222e+00
 1.341537871019856e+00	 2.322775026738052e+00	 9.734911479290762e+00
 1.319239159687964e+00	 2.335511843204928e+00	 9.657957661754391e+00
 1.296848855092424e+00	 2.348018394944820e+00	 9.580193051800295e+00
 1.274370445839330e+00	 2.360293854533565e+00	 9.502260936831316e+00
 1.251807426253774e+00	 2.372337463401294e+00	 9.424832897230074e+00
 1.229163294720342e+00	 2.384148531712340e+00	 9.348581997061618e+00
 1.206441552034655e+00	 2.395726438198408e+00	 9.274157996779529e+00
 1.183645699767423e+00	 2.407070629945640e+00	 9.202164702178933e+00
 1.160779238642504e+00	 2.418180622136247e+00	 9.133139545518100e+00
 1.391924532735436e+00	 2.306686560225482e+00	 9.890490564154668e+00
 1.369722495791860e+00	 2.319939015904253e+00	 9.817497084378266e+00
 1.347421480015501e+00	 2.332962066798796e+00	 9.742506354908331e+00
 1.325024972787335e+00	 2.345754743372235e+00	 9.666036187324252e+00
 1.302536470593096e+00	 2.358316145342163e+00	 9.588690072964297e+00
 1.279959477338928e+00	 2.370645441655551e+00	 9.511125821147377e+00
 1.257297502675061e+00	 2.382741870415646e+00	 9.434026004657673e+00
 1.234554060329021e+00	 2.394604738761342e+00	 9.358070366570983e+00
 1.211732666449943e+00	 2.406233422699624e+00	 9.283910324426808e+00
 1.188836837965451e+00	 2.417627366891700e+00	 9.212145689205007e+00
 1.165870090952602e+00	 2.428786084393491e+00	 9.143303697685370e+00
 1.398002467385323e+00	 2.316758866470872e+00	 9.896800377377561e+00
 1.375703483713569e+00	 2.330069189913369e+00	 9.824458614718800e+00
 1.353305089011064e+00	 2.343149106859822e+00	 9.750079254429785e+00
 1.330810785886680e+00	 2.355997643539798e+00	 9.674184344337203e+00
 1.308224086093796e+00	 2.368613895739727e+00	 9.597379255033879e+00
 1.285548508838611e+00	 2.380997028777722e+00	 9.520320396880726e+00
 1.262787579096486e+00	 2.393146277430144e+00	 9.443684813732487e+00
 1.239944825937883e+00	 2.405060945810449e+00	 9.368141811820728e+00
 1.217023780865446e+00	 2.416740407200901e+00	 9.294326763606239e+00
 1.194027976163713e+00	 2.428184103837772e+00	 9.222817207305338e+00
 1.170960943262934e+00	 2.439391546650699e+00	 9.154111343344697e+00
 1.404080402034961e+00	 2.326831172716678e+00	 9.902605914564152e+00
 1.381684471635061e+00	 2.340199363922873e+00	 9.830924242222558e+00
 1.359188698006455e+00	 2.353336146921206e+00	 9.757219954373817e+00
 1.336596598985904e+00	 2.366240543707681e+00	 9.682004940278837e+00
 1.313911701594433e+00	 2.378911646137573e+00	 9.605871446879924e+00
 1.291137540338288e+00	 2.391348615900133e+00	 9.529458875330146e+00
 1.268277655517958e+00	 2.403550684444835e+00	 9.453422525922299e+00
 1.245335591546839e+00	 2.415517152859700e+00	 9.378404454266422e+00
 1.222314895281083e+00	 2.427247391702275e+00	 9.305006582382310e+00
 1.199219114362132e+00	 2.438740840783892e+00	 9.233766188690870e+00
 1.176051795573430e+00	 2.449997008907905e+00	 9.165133880854242e+00
 1.410158336684268e+00	 2.336903478962983e+00	 9.907456500137139e+00
 1.387665459556249e+00	 2.350329537932842e+00	 9.836466274438809e+00
 1.365072307001584e+00	 2.363523186983017e+00	 9.763518236100273e+00
 1.342382412084915e+00	 2.376483443875947e+00	 9.689100036090474e+00
 1.319599317094912e+00	 2.389209396535755e+00	 9.613776107319893e+00
 1.296726571837863e+00	 2.401700203022832e+00	 9.538153540667405e+00
 1.273767731939385e+00	 2.413955091459764e+00	 9.462849983335536e+00
 1.250726357155802e+00	 2.425973359909138e+00	 9.388463726860998e+00
 1.227606009696770e+00	 2.437754376203783e+00	 9.315546132348867e+00
 1.204410252560633e+00	 2.449297577730094e+00	 9.244576520229277e+00
 1.181142647884027e+00	 2.460602471165141e+00	 9.175939631205434e+00
 1.416236271333159e+00	 2.346975785209869e+00	 9.910903727733825e+00
 1.393646447477046e+00	 2.360459711943356e+00	 9.840658308639112e+00
 1.370955915996356e+00	 2.373710227045326e+00	 9.768564299293942e+00
 1.348168225183618e+00	 2.386726344044663e+00	 9.695071346695737e+00
 1.325286932595138e+00	 2.399507146934335e+00	 9.620701690682058e+00
 1.302315603337245e+00	 2.412051790145872e+00	 9.546015118642645e+00
 1.279257808360675e+00	 2.424359498474978e+00	 9.471576018780066e+00
 1.256117122764684e+00	 2.436429566958804e+00	 9.397922703787415e+00
 1.232897124112424e+00	 2.448261360705460e+00	 9.325539156464250e+00
 1.209601390759142e+00	 2.459854314676412e+00	 9.254829327921703e+00
 1.186233500194658e+00	 2.471207933422443e+00	 9.186094097788310e+00
 1.422314205981550e+00	 2.357048091457419e+00	 9.912501893569214e+00
 1.399627435397362e+00	 2.370589885954488e+00	 9.843075656389633e+00
 1.376839524990684e+00	 2.383897267108205e+00	 9.771949175583572e+00
 1.353954038281922e+00	 2.396969244213894e+00	 9.699520641608792e+00
 1.330974548095017e+00	 2.409804897333369e+00	 9.626256032451129e+00
 1.307904634836337e+00	 2.422403377269304e+00	 9.552653145421399e+00
 1.284747884781738e+00	 2.434763905490520e+00	 9.479207806051665e+00
 1.261507888373397e+00	 2.446885774008737e+00	 9.406382430565651e+00
 1.238188238527964e+00	 2.458768345207345e+00	 9.334577097450975e+00
 1.214792528957584e+00	 2.470411051622880e+00	 9.264103262175054e+00
 1.191324352505256e+00	 2.481813395679840e+00	 9.195160227223358e+00
 1.428392140629360e+00	 2.367120397705719e+00	 9.911808430194066e+00
 1.405608423317111e+00	 2.380720059966321e+00	 9.843295768358507e+00
 1.382723133984474e+00	 2.394084307171726e+00	 9.773265142291301e+00
 1.359739851379731e+00	 2.407212144383703e+00	 9.702050145621850e+00
 1.336662163594455e+00	 2.420102647732916e+00	 9.630046734992700e+00
 1.313493666335048e+00	 2.432754964393181e+00	 9.557676336549163e+00
 1.290237961202482e+00	 2.445168312506440e+00	 9.485351210446195e+00
 1.266898653981853e+00	 2.457341981058978e+00	 9.413442254524371e+00
 1.243479352943308e+00	 2.469275329709475e+00	 9.342249406743221e+00
 1.219983667155882e+00	 2.480967788569532e+00	 9.271974783845874e+00
 1.196415204815757e+00	 2.492418857937369e+00	 9.202698671227239e+00
 1.145506681714263e+00	 2.386364235363962e+00	 9.110742481861340e+00
 1.122870997377514e+00	 2.397098326541498e+00	 9.041507226408942e+00
 1.100172511769950e+00	 2.407600462471684e+00	 8.970972903218970e+00
 1.077414668239285e+00	 2.417870362544936e+00	 8.898603644203279e+00
 1.054600903099246e+00	 2.427907811940380e+00	 8.824745194528331e+00
 1.031734644117300e+00	 2.437712661159682e+00	 8.749945366975002e+00
 1.008819309023995e+00	 2.447284825520990e+00	 8.674680391319837e+00
 9.858583040450560e-01	 2.456624284613937e+00	 8.599350111311189e+00
 9.628550224573765e-01	 2.465731081716719e+00	 8.524274915984204e+00
 9.398128431699525e-01	 2.474605323176310e+00	 8.449694346681785e+00
 9.167351293307959e-01	 2.483247177752873e+00	 8.375767310729772e+00
 1.150597534023268e+00	 2.396969697621516e+00	 9.116439190528705e+00
 1.127861252345803e+00	 2.407751493167827e+00	 9.047666184549390e+00
 1.105061890296638e+00	 2.418300302612946e+00	 8.977999168166120e+00
 1.082202906526380e+00	 2.428615844100206e+00	 8.907095732942331e+00
 1.059287752620384e+00	 2.438697901854023e+00	 8.834969035298617e+00
 1.036319871579767e+00	 2.448546325711674e+00	 8.762061378244869e+00
 1.013302696324120e+00	 2.458161030614963e+00	 8.688737105664316e+00
 9.902396482170819e-01	 2.467541996062819e+00	 8.615278009741653e+00
 9.671341356159115e-01	 2.476689265525776e+00	 8.541880533036952e+00
 9.439895524461178e-01	 2.485602945823437e+00	 8.468654704092778e+00
 9.208092768021821e-01	 2.494283206465970e+00	 8.395624734732333e+00
 1.155688386332704e+00	 2.407575159878932e+00	 9.124044152451685e+00
 1.132851507314468e+00	 2.418404659793968e+00	 9.055640231063082e+00
 1.109951268823627e+00	 2.429000142753960e+00	 8.986542785254414e+00
 1.086991144813684e+00	 2.439361325655161e+00	 8.916782540315758e+00
 1.063974602141632e+00	 2.449487991767293e+00	 8.846025827958412e+00
 1.040905099042243e+00	 2.459379990263233e+00	 8.774636716864904e+00
 1.017786083624155e+00	 2.469037235708450e+00	 8.702895192668123e+00
 9.946209923889295e-01	 2.478459707511167e+00	 8.630992733870517e+00
 9.714132487741975e-01	 2.487647449334263e+00	 8.559029744457748e+00
 9.481662617219868e-01	 2.496600568469972e+00	 8.487014779625506e+00
 9.248834242732514e-01	 2.505319235178465e+00	 8.414865489992806e+00
 1.160779238642504e+00	 2.418180622136247e+00	 9.133139545518100e+00
 1.137841762283453e+00	 2.429057826419953e+00	 9.064999984075863e+00
 1.114840647350873e+00	 2.439699982894760e+00	 8.996219180150199e+00
 1.091779383101167e+00	 2.450106807209846e+00	 8.927267173683635e+00
 1.068661451662971e+00	 2.460278081680235e+00	 8.857540311750576e+00
 1.045490326504718e+00	 2.470213654814408e+00	 8.787327340930275e+00
 1.022269470924104e+00	 2.479913440801504e+00	 8.716850968926609e+00
 9.990023365606121e-01	 2.489377418959041e+00	 8.646239640271340e+00
 9.756923619322523e-01	 2.498605633142244e+00	 8.575525159729589e+00
 9.523429709975775e-01	 2.507598191115979e+00	 8.504642170183981e+00
 9.289575717440218e-01	 2.516355263890431e+00	 8.433429407589019e+00
 1.165870090952602e+00	 2.428786084393491e+00	 9.143303697685370e+00
 1.142832017252705e+00	 2.439710993045816e+00	 9.075312227506835e+00
 1.119730025878332e+00	 2.450399823035385e+00	 9.006660388896018e+00
 1.096567621388799e+00	 2.460852288764302e+00	 8.938147939237309e+00
 1.073348301184385e+00	 2.471068171592893e+00	 8.869132287875090e+00
 1.050075553967192e+00	 2.481047319365252e+00	 8.799784001972071e+00
 1.026752858223972e+00	 2.490789645894181e+00	 8.730295151606214e+00
 1.003383680732142e+00	 2.500295130406502e+00	 8.660757976123762e+00
 9.799714750900939e-01	 2.509563816949784e+00	 8.591162659055437e+00
 9.565196802729097e-01	 2.518595813761528e+00	 8.521397020695503e+00
 9.330317192145077e-01	 2.527391292601928e+00	 8.451248048153653e+00
 1.170960943262934e+00	 2.439391546650699e+00	 9.154111343344697e+00
 1.147822272222167e+00	 2.450364159671593e+00	 9.086140143240616e+00
 1.124619404405965e+00	 2.461099663175872e+00	 9.017431344565674e+00
 1.101355859676549e+00	 2.471597770318568e+00	 8.949018403059606e+00
 1.078035150705857e+00	 2.481858261505315e+00	 8.880416673386931e+00
 1.054660781429656e+00	 2.491880983915814e+00	 8.811652295350120e+00
 1.031236245523764e+00	 2.501665850986539e+00	 8.742912908839939e+00
 1.007765024903532e+00	 2.511212841853609e+00	 8.674280932968575e+00
 9.842505882477403e-01	 2.520522000756944e+00	 8.605731453677455e+00
 9.606963895480025e-01	 2.529593436406682e+00	 8.537132094043695e+00
 9.371058666847264e-01	 2.538427321313026e+00	 8.468244784311789e+00
 1.176051795573430e+00	 2.449997008907905e+00	 9.165133880854242e+00
 1.152812527191785e+00	 2.461017326297315e+00	 9.097043544734477e+00
 1.129508782933725e+00	 2.471799503316257e+00	 9.028090960809850e+00
 1.106144097964389e+00	 2.482343251872687e+00	 8.959467453849493e+00
 1.082722000227368e+00	 2.492648351417543e+00	 8.891003556735811e+00
 1.059246008892105e+00	 2.502714648466145e+00	 8.822572712176280e+00
 1.035719632823485e+00	 2.512542056078627e+00	 8.754383911458030e+00
 1.012146369074796e+00	 2.522130553300422e+00	 8.686535701523045e+00
 9.885297014052081e-01	 2.531480184563789e+00	 8.619014146905439e+00
 9.648730988228749e-01	 2.540591059051505e+00	 8.551692841287023e+00
 9.411800141546938e-01	 2.549463350023792e+00	 8.484334882914249e+00
 1.181142647884027e+00	 2.460602471165141e+00	 9.175939631205434e+00
 1.157802782161503e+00	 2.471670492923021e+00	 9.107579112016582e+00
 1.134398161461571e+00	 2.482499343456576e+00	 9.038194823739811e+00
 1.110932336252288e+00	 2.493088733426698e+00	 8.969079367261187e+00
 1.087408849748902e+00	 2.503438441329626e+00	 8.900498254897869e+00
 1.063831236354534e+00	 2.513548313016293e+00	 8.832180692721838e+00
 1.040203020123138e+00	 2.523418261170507e+00	 8.764382386013644e+00
 1.016527713245944e+00	 2.533048264746999e+00	 8.697243527524668e+00
 9.928088145625165e-01	 2.542438368370380e+00	 8.630786795832412e+00
 9.690498080975457e-01	 2.551588681696066e+00	 8.564917472154177e+00
 9.452541616244261e-01	 2.560499378734291e+00	 8.499425587071787e+00
 1.186233500194658e+00	 2.471207933422443e+00	 9.186094097788310e+00
 1.162793037131267e+00	 2.482323659548743e+00	 9.117300628034140e+00
 1.139287539989461e+00	 2.493199183596869e+00	 9.047295408654978e+00
 1.115720574540217e+00	 2.503834214980642e+00	 8.977460310982622e+00
 1.092095699270442e+00	 2.514228531241608e+00	 8.908501372052054e+00
 1.068416463816938e+00	 2.524381977566312e+00	 8.840106681265420e+00
 1.044686407422730e+00	 2.534294466262231e+00	 8.772577169065697e+00
 1.020909057416992e+00	 2.543965976193401e+00	 8.706119768572252e+00
 9.970879277196824e-01	 2.553396552176784e+00	 8.640818973717694e+00
 9.732265173720350e-01	 2.562586304340430e+00	 8.576637025808619e+00
 9.493283090939396e-01	 2.571535407444589e+00	 8.513416197996065e+00
 1.191324352505256e+00	 2.481813395679840e+00	 9.195160227223358e+00
 1.167783292101022e+00	 2.492976826174516e+00	 9.125759216310092e+00
 1.144176918517351e+00	 2.503899023737173e+00	 9.054942298231182e+00
 1.120508812828144e+00	 2.514579696534560e+00	 8.984205108853168e+00
 1.096782548791971e+00	 2.525018621153534e+00	 8.914608859754626e+00
 1.073001691279310e+00	 2.535215642116250e+00	 8.845976182337534e+00
 1.049169794722265e+00	 2.545170671353855e+00	 8.778631762679321e+00
 1.025290401587951e+00	 2.554883687639689e+00	 8.712873951934453e+00
 1.001367040876724e+00	 2.564354735983061e+00	 8.648873833016545e+00
 9.774032266463611e-01	 2.573583926984662e+00	 8.586675441874041e+00
 9.534024565632503e-01	 2.582571436154755e+00	 8.526198156654143e+00
 1.196415204815757e+00	 2.492418857937369e+00	 9.202698671227239e+00
 1.172773547070712e+00	 2.503629992800374e+00	 9.132503579870246e+00
 1.149066297045198e+00	 2.514598863877523e+00	 9.060682402125678e+00
 1.125297051116041e+00	 2.525325178088495e+00	 8.988868748289395e+00
 1.101469398313471e+00	 2.535808711065451e+00	 8.918412078567169e+00
 1.077586918741647e+00	 2.546049306666159e+00	 8.849409818320366e+00
 1.053653182021748e+00	 2.556046876445434e+00	 8.782204391109936e+00
 1.029671745758834e+00	 2.565801399085923e+00	 8.717209833297167e+00
 1.005646154033659e+00	 2.575312919789277e+00	 8.654708169037674e+00
 9.815799359205438e-01	 2.584581549628830e+00	 8.594849631712449e+00
 9.574766040323747e-01	 2.593607464864855e+00	 8.537611967313337e+00
 9.167351293307959e-01	 2.483247177752873e+00	 8.375767310729772e+00
 8.936291575814916e-01	 2.491655465870639e+00	 8.302693773717639e+00
 8.704943330566495e-01	 2.499831966156395e+00	 8.230912962662384e+00
 8.473339608485855e-01	 2.507777028466152e+00	 8.160873107289218e+00
 8.241513250540199e-01	 2.515491062074882e+00	 8.092963161809854e+00
 8.009496875255444e-01	 2.522974534861289e+00	 8.027518826895752e+00
 7.777322866540720e-01	 2.530227972463756e+00	 7.964829598992570e+00
 7.545023361829394e-01	 2.537251957408708e+00	 7.905146730078815e+00
 7.312630240542853e-01	 2.544047128212620e+00	 7.848569007200226e+00
 7.080175112882720e-01	 2.550614178458924e+00	 7.793881153590474e+00
 6.847689308956678e-01	 2.556953855851073e+00	 7.740163167830518e+00
 9.208092768021821e-01	 2.494283206465970e+00	 8.395624734732333e+00
 8.976006176644764e-01	 2.502728862635347e+00	 8.322981374643401e+00
 8.743629775239165e-01	 2.510941700862917e+00	 8.251289923063476e+00
 8.510996761612866e-01	 2.518922072559525e+00	 8.181062467701853e+00
 8.278140122684675e-01	 2.526670388819043e+00	 8.112751437858435e+00
 8.045092621943548e-01	 2.534187119599523e+00	 8.046755898033467e+00
 7.811886787218971e-01	 2.541472792875390e+00	 7.983428904452738e+00
 7.578554898769269e-01	 2.548527993761933e+00	 7.923085803867879e+00
 7.345128977694149e-01	 2.555353363613322e+00	 7.865962597824724e+00
 7.111640774677077e-01	 2.561949599095410e+00	 7.811079653048453e+00
 6.878121759062793e-01	 2.568317451234592e+00	 7.757512235765198e+00
 9.248834242732514e-01	 2.505319235178465e+00	 8.414865489992806e+00
 9.015720777471589e-01	 2.513802259399463e+00	 8.342808094330861e+00
 8.782316219909222e-01	 2.522051435568872e+00	 8.271531287601126e+00
 8.548653914737890e-01	 2.530067116652369e+00	 8.201567553821373e+00
 8.314766994827931e-01	 2.537849715562723e+00	 8.133388630959914e+00
 8.080688368631272e-01	 2.545399704337329e+00	 8.067412153875896e+00
 7.846450707897680e-01	 2.552717613286655e+00	 8.004009396347442e+00
 7.612086435710381e-01	 2.559804030114849e+00	 7.943513987616672e+00
 7.377627714847323e-01	 2.566659599013774e+00	 7.886220473719041e+00
 7.143106436473754e-01	 2.573285019731701e+00	 7.831378055944658e+00
 6.908554209171406e-01	 2.579681046617966e+00	 7.777999180558651e+00
 9.289575717440218e-01	 2.516355263890431e+00	 8.433429407589019e+00
 9.055435378295476e-01	 2.524875656163056e+00	 8.362183543215053e+00
 8.821002664576646e-01	 2.533161170274328e+00	 8.291704953004940e+00
 8.586311067860767e-01	 2.541212160744745e+00	 8.222503516142451e+00
 8.351393866969656e-01	 2.549029042305975e+00	 8.155026571347850e+00
 8.116284115318152e-01	 2.556612289074758e+00	 8.089665986713886e+00
 7.881014628576236e-01	 2.563962433697593e+00	 8.026766365427102e+00
 7.645617972651999e-01	 2.571080066467492e+00	 7.966634258679264e+00
 7.410126452001559e-01	 2.577965834414004e+00	 7.909548253312414e+00
 7.174572098271901e-01	 2.584620440367818e+00	 7.854973332156138e+00
 6.938986659281688e-01	 2.591044642001209e+00	 7.801803488949370e+00
 9.330317192145077e-01	 2.527391292601928e+00	 8.451248048153653e+00
 9.095149979116509e-01	 2.535949052926190e+00	 8.381108314698889e+00
 8.859689109241410e-01	 2.544270904979343e+00	 8.311869280270759e+00
 8.623968220981328e-01	 2.552357204836711e+00	 8.243975668414187e+00
 8.388020739109526e-01	 2.560208369048855e+00	 8.177807158822809e+00
 8.151879862003700e-01	 2.567824873811853e+00	 8.113685961516435e+00
 7.915578549254030e-01	 2.575207254108246e+00	 8.051885564354070e+00
 7.679149509593383e-01	 2.582356102819895e+00	 7.992640520868608e+00
 7.442625189156044e-01	 2.589272069814038e+00	 7.936157141539518e+00
 7.206037760070665e-01	 2.595955861003784e+00	 7.881812642447510e+00
 6.969419109392810e-01	 2.602408237384338e+00	 7.827395677791162e+00
 9.371058666847264e-01	 2.538427321313026e+00	 8.468244784311789e+00
 9.134864579934777e-01	 2.547022449688930e+00	 8.399574079337684e+00
 8.898375553903478e-01	 2.555380639683981e+00	 8.332073196429205e+00
 8.661625374099406e-01	 2.563502248928325e+00	 8.266079593039709e+00
 8.424647611247228e-01	 2.571387695791415e+00	 8.201862468036307e+00
 8.187475608687460e-01	 2.579037458548667e+00	 8.139630917560790e+00
 7.950142469930439e-01	 2.586452074518651e+00	 8.079543302351711e+00
 7.712681046533810e-01	 2.593632139172091e+00	 8.021687079582680e+00
 7.475123926309957e-01	 2.600578305213906e+00	 7.964630784365875e+00
 7.237503421869198e-01	 2.607291281639620e+00	 7.908070802933302e+00
 6.999851559503946e-01	 2.613771832767370e+00	 7.851887525663304e+00
 9.411800141546938e-01	 2.549463350023792e+00	 8.484334882914249e+00
 9.174579180750362e-01	 2.558095846451343e+00	 8.417563678354943e+00
 8.937061998562827e-01	 2.566490374388307e+00	 8.352356295298584e+00
 8.699282527214833e-01	 2.574647293019647e+00	 8.288901245220732e+00
 8.461274483382429e-01	 2.582567022533707e+00	 8.227314852387057e+00
 8.223071355368949e-01	 2.590250043285242e+00	 8.167650068642271e+00
 7.984706390604860e-01	 2.597696894928855e+00	 8.109087360958723e+00
 7.746212583472545e-01	 2.604908175524117e+00	 8.049679477113155e+00
 7.507622663462494e-01	 2.611884540613636e+00	 7.990398941962381e+00
 7.268969083666647e-01	 2.618626702275347e+00	 7.932210126010723e+00
 7.030284009614264e-01	 2.625135428150318e+00	 7.874995438286050e+00
 9.452541616244261e-01	 2.560499378734291e+00	 8.499425587071787e+00
 9.214293781563353e-01	 2.569169243213495e+00	 8.435051216509812e+00
 8.975748443219429e-01	 2.577600109092381e+00	 8.372748937250853e+00
 8.736939680327440e-01	 2.585792337110734e+00	 8.312517055886017e+00
 8.497901355514820e-01	 2.593746349275787e+00	 8.254228874450629e+00
 8.258667102047702e-01	 2.601462628021628e+00	 8.195194891294062e+00
 8.019270311276672e-01	 2.608941715338892e+00	 8.134622630733706e+00
 7.779744120408859e-01	 2.616184211876006e+00	 8.073533110952436e+00
 7.540121400612835e-01	 2.623190776013256e+00	 8.013003467623550e+00
 7.300434745462163e-01	 2.629962122910987e+00	 7.954021746830644e+00
 7.060716459722945e-01	 2.636499023533204e+00	 7.896477836334761e+00
 9.493283090939396e-01	 2.571535407444589e+00	 8.513416197996065e+00
 9.254008382373833e-01	 2.580242639975450e+00	 8.452002154335212e+00
 9.014434887873246e-01	 2.588709843796267e+00	 8.393272348021522e+00
 8.774596833437062e-01	 2.596937381201645e+00	 8.336273001380999e+00
 8.534528227644079e-01	 2.604925676017707e+00	 8.277299130221628e+00
 8.294262848723243e-01	 2.612675212757873e+00	 8.216536432463293e+00
 8.053834231945262e-01	 2.620186535748808e+00	 8.154830459706208e+00
 7.813275657342020e-01	 2.627460248227791e+00	 8.093085496901960e+00
 7.572620137760164e-01	 2.634497011412791e+00	 8.032260425456498e+00
 7.331900407254901e-01	 2.641297543546563e+00	 7.973297398707261e+00
 7.091148909829157e-01	 2.647862618916040e+00	 7.916094126513891e+00
 9.534024565632503e-01	 2.582571436154755e+00	 8.526198156654143e+00
 9.293722983181886e-01	 2.591316036737274e+00	 8.468373399765804e+00
 9.053121332524262e-01	 2.599819578500027e+00	 8.411858128650623e+00
 8.812253986543531e-01	 2.608082425292439e+00	 8.353159023111154e+00
 8.571155099769887e-01	 2.616105002759519e+00	 8.292777751143607e+00
 8.329858595395099e-01	 2.623887797494021e+00	 8.231347641380681e+00
 8.088398152610025e-01	 2.631431356158643e+00	 8.169562919837396e+00
 7.846807194271290e-01	 2.638736284579508e+00	 8.108174628604836e+00
 7.605118874903675e-01	 2.645803246812271e+00	 8.047986566132211e+00
 7.363366069044004e-01	 2.652632964182095e+00	 7.989829468693102e+00
 7.121581359932072e-01	 2.659226214298843e+00	 7.933604741000366e+00
 9.574766040323747e-01	 2.593607464864855e+00	 8.537611967313337e+00
 9.333437583987604e-01	 2.602389433499033e+00	 8.480167166210194e+00
 9.091807777172448e-01	 2.610929313203726e+00	 8.421279505048936e+00
 8.849911139646681e-01	 2.619227469383174e+00	 8.361269020966240e+00
 8.607781971891927e-01	 2.627284329501278e+00	 8.300522085435951e+00
 8.365454342062807e-01	 2.635100382230124e+00	 8.239487498178391e+00
 8.122962073270338e-01	 2.642676176568437e+00	 8.178672541872466e+00
 7.880338731195949e-01	 2.650012320931192e+00	 8.118639028858015e+00
 7.637617612042545e-01	 2.657109482211724e+00	 8.059999370053385e+00
 7.394831730828625e-01	 2.663968384817607e+00	 8.003411052558389e+00
 7.152013810030865e-01	 2.670589809681632e+00	 7.948771176629198e+00
 6.847689308956678e-01	 2.556953855851073e+00	 7.740163167830518e+00
 6.615203871414721e-01	 2.563066961798405e+00	 7.687945537877630e+00
 6.382749554476178e-01	 2.568954352086292e+00	 7.637633423932126e+00
 6.150356804050855e-01	 2.574616934188740e+00	 7.588476627404415e+00
 5.918055744998911e-01	 2.580055665679325e+00	 7.539844936398991e+00
 5.685876171989711e-01	 2.585271553181248e+00	 7.491233889011614e+00
 5.453847540715854e-01	 2.590265651301225e+00	 7.442269027879012e+00
 5.221998959464039e-01	 2.595039061548492e+00	 7.392825418814292e+00
 4.990359181043993e-01	 2.599592931240172e+00	 7.343699238600856e+00
 4.758956595076251e-01	 2.603928452394259e+00	 7.295607010442164e+00
 4.527819220639070e-01	 2.608046860611438e+00	 7.249240397833161e+00
 6.878121759062793e-01	 2.568317451234592e+00	 7.757512235765198e+00
 6.644603111460826e-01	 2.574457725001830e+00	 7.705815181219981e+00
 6.411115722768185e-01	 2.580371279985775e+00	 7.656222296963606e+00
 6.177690174202167e-01	 2.586059027693423e+00	 7.607795902905864e+00
 5.944356724503619e-01	 2.591521929954001e+00	 7.559726428198692e+00
 5.711145300755159e-01	 2.596760997864338e+00	 7.511468807926201e+00
 5.478085489556166e-01	 2.601777290718030e+00	 7.463197563325217e+00
 5.245206528556169e-01	 2.606571914919634e+00	 7.415294596993331e+00
 5.012537298347928e-01	 2.611146022885181e+00	 7.368206090615904e+00
 4.780106314720926e-01	 2.615500811930224e+00	 7.322434962776038e+00
 4.547941721275600e-01	 2.619637523146696e+00	 7.278531599487134e+00
 6.908554209171406e-01	 2.579681046617966e+00	 7.777999180558651e+00
 6.674002351509298e-01	 2.585848488205150e+00	 7.726599076007306e+00
 6.439481891062164e-01	 2.591788207885185e+00	 7.677217962165930e+00
 6.205023544354870e-01	 2.597501121198062e+00	 7.628667881569671e+00
 5.970657704009009e-01	 2.602988194228655e+00	 7.580398588077758e+00
 5.736414429520523e-01	 2.608250442547426e+00	 7.532507238511713e+00
 5.502323438395632e-01	 2.613288930134853e+00	 7.485183279888627e+00
 5.268414097646771e-01	 2.618104768290822e+00	 7.438691565480116e+00
 5.034715415649792e-01	 2.622699114530261e+00	 7.393361610782172e+00
 4.801256034363185e-01	 2.627073171466288e+00	 7.349577714096017e+00
 4.568064221909640e-01	 2.631228185682091e+00	 7.307769901970237e+00
 6.938986659281688e-01	 2.591044642001209e+00	 7.801803488949370e+00
 6.703401591559394e-01	 2.597239251408374e+00	 7.750175291936807e+00
 6.467848059357524e-01	 2.603205135784529e+00	 7.699789323371180e+00
 6.232356914508550e-01	 2.608943214702658e+00	 7.650410063629797e+00
 5.996958683514879e-01	 2.614454458503286e+00	 7.601953630152759e+00
 5.761683558285824e-01	 2.619739887230511e+00	 7.554433242375154e+00
 5.526561387234498e-01	 2.624800569551692e+00	 7.507946747466425e+00
 5.291621666736297e-01	 2.629637621662041e+00	 7.462665106232578e+00
 5.056893532950208e-01	 2.634252206175391e+00	 7.418821803422661e+00
 4.822405754003790e-01	 2.638645531002425e+00	 7.376703143407360e+00
 4.588186722542032e-01	 2.642818848217589e+00	 7.336639389404492e+00
 6.969419109392810e-01	 2.602408237384338e+00	 7.827395677791162e+00
 6.732800831610378e-01	 2.608630014611517e+00	 7.774043856551105e+00
 6.496214227653665e-01	 2.614622063683815e+00	 7.722524004023929e+00
 6.259690284662802e-01	 2.620385308207219e+00	 7.672577675590896e+00
 6.023259663021034e-01	 2.625920722777900e+00	 7.624054490049010e+00
 5.786952687051089e-01	 2.631229331913592e+00	 7.576898717581182e+00
 5.550799336073012e-01	 2.636312208968539e+00	 7.531136887642503e+00
 5.314829235825195e-01	 2.641170475033279e+00	 7.486866382807533e+00
 5.079071650249807e-01	 2.645805297820556e+00	 7.444244980804397e+00
 4.843555473643504e-01	 2.650217890538616e+00	 7.403481303641535e+00
 4.608309223173607e-01	 2.654409510753156e+00	 7.364826129900390e+00
 6.999851559503946e-01	 2.613771832767370e+00	 7.851887525663304e+00
 6.762200071661512e-01	 2.620020777814589e+00	 7.797359464622843e+00
 6.524580395949996e-01	 2.626038991583052e+00	 7.745113660928566e+00
 6.287023654817209e-01	 2.631827401711747e+00	 7.694847430783925e+00
 6.049560642527266e-01	 2.637386987052493e+00	 7.646363749621081e+00
 5.812221815816335e-01	 2.642718776596665e+00	 7.599557869236886e+00
 5.575037284911419e-01	 2.647823848385388e+00	 7.554404983622733e+00
 5.338036804913916e-01	 2.652703328404528e+00	 7.510948907559784e+00
 5.101249767549213e-01	 2.657358389465738e+00	 7.469291728173214e+00
 4.864705193283083e-01	 2.661790250074829e+00	 7.429584386261998e+00
 4.628431723805205e-01	 2.666000173288757e+00	 7.392018141354595e+00
 7.030284009614264e-01	 2.625135428150318e+00	 7.874995438286050e+00
 6.791599311712052e-01	 2.631411541017600e+00	 7.819846882513884e+00
 6.552946564245919e-01	 2.637455919482247e+00	 7.767256891884783e+00
 6.314357024971362e-01	 2.643269495216247e+00	 7.716898016564767e+00
 6.075861622033383e-01	 2.648853251327069e+00	 7.668546157471888e+00
 5.837490944581591e-01	 2.654208221279727e+00	 7.622067187723863e+00
 5.599275233749960e-01	 2.659335487802230e+00	 7.577404652591092e+00
 5.361244374002915e-01	 2.664236181775775e+00	 7.534568510039897e+00
 5.123427884849054e-01	 2.668911481110919e+00	 7.493624869998717e+00
 4.885854912923286e-01	 2.673362609611043e+00	 7.454686687052650e+00
 4.648554224437658e-01	 2.677590835824358e+00	 7.417905358364374e+00
 7.060716459722945e-01	 2.636499023533204e+00	 7.896477836334761e+00
 6.820998551761263e-01	 2.642802304220564e+00	 7.841232248102829e+00
 6.581312732540839e-01	 2.648872847381408e+00	 7.788654006264374e+00
 6.341690395124854e-01	 2.654711588720723e+00	 7.738410091155319e+00
 6.102162601539182e-01	 2.660319515601629e+00	 7.690268615948979e+00
 5.862760073346880e-01	 2.665697665962777e+00	 7.644085427936616e+00
 5.623513182588882e-01	 2.670847127219061e+00	 7.599791819171855e+00
 5.384451943092639e-01	 2.675769035147008e+00	 7.557383306553429e+00
 5.145606002149959e-01	 2.680464572756082e+00	 7.516909437395803e+00
 4.907004632564878e-01	 2.684934969147232e+00	 7.478464573054578e+00
 4.668676725071808e-01	 2.689181498359925e+00	 7.442179600224124e+00
 7.091148909829157e-01	 2.647862618916040e+00	 7.916094126513891e+00
 6.850397791808402e-01	 2.654193067423492e+00	 7.861243094101093e+00
 6.609678900834162e-01	 2.660289775280545e+00	 7.809007034283830e+00
 6.369023765277269e-01	 2.666153682225181e+00	 7.759066281120852e+00
 6.128463581044463e-01	 2.671785779876175e+00	 7.711200168969518e+00
 5.888029202112224e-01	 2.677187110645812e+00	 7.665273589496449e+00
 5.647751131428429e-01	 2.682358766635874e+00	 7.621224689966432e+00
 5.407659512183538e-01	 2.687301888518216e+00	 7.579053670848671e+00
 5.167784119452551e-01	 2.692017664401209e+00	 7.538812636684852e+00
 4.928154352208613e-01	 2.696507328683371e+00	 7.500596450615047e+00
 4.688799225708487e-01	 2.700772160895424e+00	 7.464534539971664e+00
 7.121581359932072e-01	 2.659226214298843e+00	 7.933604741000366e+00
 6.879797031852740e-01	 2.665583830626398e+00	 7.879608371451461e+00
 6.638045069125287e-01	 2.671706703179664e+00	 7.828019736652648e+00
 6.396357135428195e-01	 2.677595775729624e+00	 7.778551179462788e+00
 6.154764560549024e-01	 2.683252044150706e+00	 7.731011990651198e+00
 5.913298330877643e-01	 2.688676555328830e+00	 7.685294897911403e+00
 5.671989080268848e-01	 2.693870406052663e+00	 7.641363729130393e+00
 5.430867081276064e-01	 2.698834741889389e+00	 7.599242205897370e+00
 5.189962236757459e-01	 2.703570756046284e+00	 7.559003819057875e+00
 4.949304071855257e-01	 2.708079688219435e+00	 7.520762734516253e+00
 4.708921726348531e-01	 2.712362823430819e+00	 7.484665674453281e+00
 7.152013810030865e-01	 2.670589809681632e+00	 7.948771176629198e+00
 6.909196271893525e-01	 2.676974593829291e+00	 7.896058472807474e+00
 6.666411237413625e-01	 2.683123631078774e+00	 7.845397614587169e+00
 6.423690505577229e-01	 2.689037869234060e+00	 7.796551344309492e+00
 6.181065540052670e-01	 2.694718308425226e+00	 7.749377374724562e+00
 5.938567459643170e-01	 2.700166000011830e+00	 7.703814786654084e+00
 5.696227029110384e-01	 2.705382045469422e+00	 7.659871634962674e+00
 5.454074650370671e-01	 2.710367595260512e+00	 7.617613716737303e+00
 5.212140354065311e-01	 2.715123847691288e+00	 7.577154451317259e+00
 4.970453791505565e-01	 2.719652047755398e+00	 7.538645818151658e+00
 4.729044226992778e-01	 2.723953485966078e+00	 7.502270295376414e+00
 4.527819220639070e-01	 2.608046860611438e+00	 7.249240397833161e+00
 4.296935489947510e-01	 2.611950078823102e+00	 7.205023588228340e+00
 4.066372043610558e-01	 2.615638706868630e+00	 7.163003156648248e+00
 3.836155821466201e-01	 2.619114103085594e+00	 7.123334293930569e+00
 3.606313365445616e-01	 2.622377664890325e+00	 7.086215719496870e+00
 3.376870813997050e-01	 2.625430827620098e+00	 7.051796297993337e+00
 3.147853896863528e-01	 2.628275063371236e+00	 7.019770636836194e+00
 2.919287930211720e-01	 2.630911879834275e+00	 6.989834545351897e+00
 2.691197812109172e-01	 2.633342819127289e+00	 6.961740318773404e+00
 2.463608018346554e-01	 2.635569456628400e+00	 6.935280876502388e+00
 2.236542598601416e-01	 2.637593399808569e+00	 6.910275052610819e+00
 4.547941721275600e-01	 2.619637523146696e+00	 7.278531599487134e+00
 4.316031898817559e-01	 2.623558088011874e+00	 7.236781953371553e+00
 4.084443784119517e-01	 2.627263109030936e+00	 7.197170369176620e+00
 3.853204436745326e-01	 2.630753950578164e+00	 7.159824325733974e+00
 3.622340516583645e-01	 2.634032016280272e+00	 7.124909081313696e+00
 3.391878278247055e-01	 2.637098747853447e+00	 7.092590273901363e+00
 3.161843565826539e-01	 2.639955623936287e+00	 7.062605064230182e+00
 2.932261807998729e-01	 2.642604158919796e+00	 7.034672023345646e+00
 2.703158013483003e-01	 2.645045901775512e+00	 7.008565016745308e+00
 2.474556766845188e-01	 2.647282434882833e+00	 6.984097717078951e+00
 2.246482224644266e-01	 2.649315372856634e+00	 6.961109279616672e+00
 4.568064221909640e-01	 2.631228185682091e+00	 7.307769901970237e+00
 4.335128307685353e-01	 2.635166097200829e+00	 7.268113642632434e+00
 4.102515524626721e-01	 2.638887511193475e+00	 7.230546217122689e+00
 3.870253052023391e-01	 2.642393798071020e+00	 7.195169098769031e+00
 3.638367667721440e-01	 2.645686367670565e+00	 7.162115893163091e+00
 3.406885742497723e-01	 2.648766668087202e+00	 7.131558688340922e+00
 3.175833234791118e-01	 2.651636184501804e+00	 7.103277878612716e+00
 2.945235685788146e-01	 2.654296438005840e+00	 7.077014898367144e+00
 2.715118214859958e-01	 2.656748984424309e+00	 7.052565094364496e+00
 2.485505515347484e-01	 2.658995413137895e+00	 7.029762637232751e+00
 2.256421850691068e-01	 2.661037345905369e+00	 7.008466606257448e+00
 4.588186722542032e-01	 2.642818848217589e+00	 7.336639389404492e+00
 4.354224716551744e-01	 2.646774106389920e+00	 7.298720889869197e+00
 4.120587265132969e-01	 2.650511913356187e+00	 7.262850808217243e+00
 3.887301667301105e-01	 2.654033645564094e+00	 7.229106251543985e+00
 3.654394818859587e-01	 2.657340719061117e+00	 7.197591402163408e+00
 3.421893206749485e-01	 2.660434588321261e+00	 7.168475156217795e+00
 3.189822903757527e-01	 2.663316745067672e+00	 7.141580847002419e+00
 2.958209563580072e-01	 2.665988717092278e+00	 7.116672719705875e+00
 2.727078416239995e-01	 2.668452067073542e+00	 7.093567356526636e+00
 2.496454263853272e-01	 2.670708391393426e+00	 7.072119012007393e+00
 2.266361476741565e-01	 2.672759318954608e+00	 7.052206132173728e+00
 4.608309223173607e-01	 2.654409510753156e+00	 7.364826129900390e+00
 4.373321125417572e-01	 2.658382115579100e+00	 7.328307707504488e+00
 4.138659005639063e-01	 2.662136315519017e+00	 7.293805845284091e+00
 3.904350282579169e-01	 2.665673493057311e+00	 7.261374855917616e+00
 3.670421969998660e-01	 2.668995070451843e+00	 7.231091970988047e+00
 3.436900671002767e-01	 2.672102508555522e+00	 7.203114203632637e+00
 3.203812572726036e-01	 2.674997305633771e+00	 7.177306485404043e+00
 2.971183441374617e-01	 2.677680996178977e+00	 7.153455663492977e+00
 2.739038617623073e-01	 2.680155149723064e+00	 7.131399150730676e+00
 2.507403012362384e-01	 2.682421369649271e+00	 7.111010710496618e+00
 2.276301102795495e-01	 2.684481292004182e+00	 7.092187435919645e+00
 4.628431723805205e-01	 2.666000173288757e+00	 7.392018141354595e+00
 4.392417534283691e-01	 2.669990124768327e+00	 7.356579854237312e+00
 4.156730746145801e-01	 2.673760717681903e+00	 7.323134595753377e+00
 3.921398897858295e-01	 2.677313340550600e+00	 7.291715388284912e+00
 3.686449121139235e-01	 2.680649421842655e+00	 7.262375067356055e+00
 3.451908135258001e-01	 2.683770428789888e+00	 7.235251256154310e+00
 3.217802241696912e-01	 2.686677866199989e+00	 7.210248045954236e+00
 2.984157319171887e-01	 2.689373275265806e+00	 7.187174518781077e+00
 2.750998819009149e-01	 2.691858232372730e+00	 7.165888352124483e+00
 2.518351760874654e-01	 2.694134347905274e+00	 7.146282079859052e+00
 2.286240728852599e-01	 2.696203265053923e+00	 7.128270557916652e+00
 4.648554224437658e-01	 2.677590835824358e+00	 7.417905358364374e+00
 4.411513943150944e-01	 2.681598133957553e+00	 7.383244803789118e+00
 4.174802486653981e-01	 2.685385119844792e+00	 7.350561862132498e+00
 3.938447513139183e-01	 2.688953188043890e+00	 7.319869701651008e+00
 3.702476272281894e-01	 2.692303773233469e+00	 7.291199254348014e+00
 3.466915599515611e-01	 2.695438349024251e+00	 7.264662627861115e+00
 3.231791910670420e-01	 2.698358426766205e+00	 7.240199504787610e+00
 2.997131196971988e-01	 2.701065554352636e+00	 7.217640674303928e+00
 2.762959020398179e-01	 2.703561315022396e+00	 7.196863349197724e+00
 2.529300509389911e-01	 2.705847326161275e+00	 7.177777929952947e+00
 2.296180354912616e-01	 2.707925238103665e+00	 7.160315984008894e+00
 4.668676725071808e-01	 2.689181498359925e+00	 7.442179600224124e+00
 4.430610352020177e-01	 2.693206143146734e+00	 7.408011714651918e+00
 4.192874227164404e-01	 2.697009522007620e+00	 7.375813953406224e+00
 3.955496128422545e-01	 2.700593035537107e+00	 7.345580998565112e+00
 3.718503423427214e-01	 2.703958124624193e+00	 7.317323768923458e+00
 3.481923063776028e-01	 2.707106269258513e+00	 7.291125511126933e+00
 3.245781579646828e-01	 2.710038987332306e+00	 7.266955550599935e+00
 3.010105074775029e-01	 2.712757833439334e+00	 7.244666105893300e+00
 2.774919221790124e-01	 2.715264397671918e+00	 7.224153030098296e+00
 2.540249257907991e-01	 2.717560304417121e+00	 7.205343518570039e+00
 2.306119980975289e-01	 2.719647211153238e+00	 7.188184629603192e+00
 4.688799225708487e-01	 2.700772160895424e+00	 7.464534539971664e+00
 4.449706760892239e-01	 2.704814152335825e+00	 7.430591400808601e+00
 4.210945967677869e-01	 2.708633924170333e+00	 7.398618657336046e+00
 3.972544743709083e-01	 2.712232883030181e+00	 7.368593804890236e+00
 3.734530574575772e-01	 2.715612476014746e+00	 7.340508905155899e+00
 3.496930528039678e-01	 2.718774189492573e+00	 7.314417967131275e+00
 3.259771248626405e-01	 2.721719547898172e+00	 7.290311573889158e+00
 3.023078952581114e-01	 2.724450112525772e+00	 7.268063364534298e+00
 2.786879423184943e-01	 2.726967480321151e+00	 7.247586769557152e+00
 2.551198006428724e-01	 2.729273282672653e+00	 7.228824537253969e+00
 2.316059607040357e-01	 2.731369184202477e+00	 7.211737824374553e+00
 4.708921726348531e-01	 2.712362823430819e+00	 7.484665674453281e+00
 4.468803169767975e-01	 2.716422161524779e+00	 7.450696303396789e+00
 4.229017708195174e-01	 2.720258326332872e+00	 7.418705213634857e+00
 3.989593358999503e-01	 2.723872730523039e+00	 7.388653944382542e+00
 3.750557725728146e-01	 2.727266827405038e+00	 7.360516781239510e+00
 3.511937992306991e-01	 2.730442109726328e+00	 7.334318917069899e+00
 3.273760917609417e-01	 2.733400108463691e+00	 7.310063656852194e+00
 3.036052830390352e-01	 2.736142391611816e+00	 7.287645565039520e+00
 2.798839624582589e-01	 2.738670562969950e+00	 7.266994416400102e+00
 2.562146754951943e-01	 2.740986260927714e+00	 7.248067097681915e+00
 2.325999233107560e-01	 2.743091157251213e+00	 7.230837297522092e+00
 4.729044226992778e-01	 2.723953485966078e+00	 7.502270295376414e+00
 4.487899578648233e-01	 2.728030170713552e+00	 7.468040463288207e+00
 4.247089448717122e-01	 2.731882728495179e+00	 7.435804287987887e+00
 4.006641974294513e-01	 2.735512578015608e+00	 7.405508514056448e+00
 3.766584876884920e-01	 2.738921178794986e+00	 7.377110661537930e+00
 3.526945456578397e-01	 2.742110029959677e+00	 7.350608134045967e+00
 3.287750586596132e-01	 2.745080669028743e+00	 7.326008563920096e+00
 3.049026708202850e-01	 2.747834670697338e+00	 7.303226375323967e+00
 2.810799825983024e-01	 2.750373645618171e+00	 7.282206281631630e+00
 2.573095503477479e-01	 2.752699239182149e+00	 7.262917718596014e+00
 2.335938859176639e-01	 2.754813130299279e+00	 7.245345163557130e+00
 2.236542598601416e-01	 2.637593399808569e+00	 6.910275052610819e+00
 2.010063539975950e-01	 2.639415994121075e+00	 6.886812797189742e+00
 1.784154936554983e-01	 2.641039267675579e+00	 6.865233932697556e+00
 1.558839013351446e-01	 2.642464915840588e+00	 6.845739558818030e+00
 1.334137571611365e-01	 2.643694661389540e+00	 6.828500157481236e+00
 1.110071986551621e-01	 2.644730253366712e+00	 6.813644634817152e+00
 8.866632054007928e-02	 2.645573465958502e+00	 6.801249882940053e+00
 6.639317457380452e-02	 2.646226097370927e+00	 6.791330772323859e+00
 4.418976941248101e-02	 2.646689968714130e+00	 6.783830492008326e+00
 2.205807050238421e-02	 2.646966922894720e+00	 6.778611161561193e+00
 0.000000000000000e+00	 2.647058823516666e+00	 6.775444645767510e+00
 2.246482224644266e-01	 2.649315372856634e+00	 6.961109279616672e+00
 2.018996649465055e-01	 2.651146067129640e+00	 6.939690275724057e+00
 1.792084064703346e-01	 2.652776554824813e+00	 6.920148193586606e+00
 1.565766794144204e-01	 2.654208538845194e+00	 6.902654553976152e+00
 1.340066735922488e-01	 2.655443749620547e+00	 6.887351494807065e+00
 1.115005360250557e-01	 2.656483943968229e+00	 6.874341242919990e+00
 8.906037074504058e-02	 2.657330903959454e+00	 6.863676089504938e+00
 6.668823862851733e-02	 2.657986435791802e+00	 6.855348776643927e+00
 4.438615725847406e-02	 2.658452368668771e+00	 6.849283209218190e+00
 2.215610081599829e-02	 2.658730553687194e+00	 6.845325413401099e+00
 0.000000000000000e+00	 2.658822862733244e+00	 6.843234670286236e+00
 2.256421850691068e-01	 2.661037345905369e+00	 7.008466606257446e+00
 2.027929758958120e-01	 2.662876140138911e+00	 6.988764163944524e+00
 1.800013192855435e-01	 2.664513841974781e+00	 6.970928771049113e+00
 1.572694574940269e-01	 2.665952161850556e+00	 6.955105591256371e+00
 1.345995900236372e-01	 2.667192837852326e+00	 6.941411706402302e+00
 1.119938733951638e-01	 2.668237634570529e+00	 6.929926033218226e+00
 8.945442095015370e-02	 2.669088341961197e+00	 6.920679726865617e+00
 6.698330268332366e-02	 2.669746774213473e+00	 6.913646975383175e+00
 4.458254510451225e-02	 2.670214768624212e+00	 6.908736096222288e+00
 2.225413112962456e-02	 2.670494184480468e+00	 6.905780853323114e+00
 0.000000000000000e+00	 2.670586901950621e+00	 6.904531920802721e+00
 2.266361476741565e-01	 2.672759318954608e+00	 7.052206132173728e+00
 2.036862868454839e-01	 2.674606213148712e+00	 7.033909571997547e+00
 1.807942321010927e-01	 2.676251129125300e+00	 7.017468170085745e+00
 1.579622355739334e-01	 2.677695784856484e+00	 7.003003736779831e+00
 1.351925064552748e-01	 2.678941926084683e+00	 6.990611368079883e+00
 1.124872107654648e-01	 2.679991325173418e+00	 6.980349823134724e+00
 8.984847115540287e-02	 2.680845779963534e+00	 6.972232370999557e+00
 6.727836673821354e-02	 2.681507112635742e+00	 6.966218007336650e+00
 4.477893295059069e-02	 2.681977168580252e+00	 6.962202949096930e+00
 2.235216144326167e-02	 2.682257815274342e+00	 6.960012322796764e+00
 0.000000000000000e+00	 2.682350941168599e+00	 6.959391969921340e+00
 2.276301102795495e-01	 2.684481292004182e+00	 7.092187435919645e+00
 2.045795977954898e-01	 2.686336286158864e+00	 7.075002082291369e+00
 1.815871449169502e-01	 2.687988416276185e+00	 7.059659345498869e+00
 1.586550136541094e-01	 2.689439407862791e+00	 7.046260466849159e+00
 1.357854228871347e-01	 2.690691014317428e+00	 7.034881407700842e+00
 1.129805481359371e-01	 2.691745015776698e+00	 7.025563704151635e+00
 9.024252136077242e-02	 2.692603217966267e+00	 7.018305772771154e+00
 6.757343079317710e-02	 2.693267451058408e+00	 7.013054564528410e+00
 4.497532079670450e-02	 2.693739568536690e+00	 7.009697471731698e+00
 2.245019175690827e-02	 2.694021446068615e+00	 7.008054400693941e+00
 0.000000000000000e+00	 2.694114980386975e+00	 7.007869931052529e+00
 2.286240728852599e-01	 2.696203265053923e+00	 7.128270557916650e+00
 2.054729087457991e-01	 2.698066359169194e+00	 7.111917731821210e+00
 1.823800577330835e-01	 2.699725703427255e+00	 7.097395684469042e+00
 1.593477917345241e-01	 2.701183030869286e+00	 7.084787651602465e+00
 1.363783393191902e-01	 2.702440102550367e+00	 7.074153090681340e+00
 1.134738855065591e-01	 2.703498706380175e+00	 7.065519029892053e+00
 9.063657156624651e-02	 2.704360655969198e+00	 7.058871849260736e+00
 6.786849484820441e-02	 2.705027789481274e+00	 7.054149387405673e+00
 4.517170864284883e-02	 2.705501968493329e+00	 7.051233275454217e+00
 2.254822207056303e-02	 2.705785076863088e+00	 7.049941407860794e+00
 0.000000000000000e+00	 2.705879019605553e+00	 7.050020468393881e+00
 2.296180354912616e-01	 2.707925238103665e+00	 7.160315984008894e+00
 2.063662196963806e-01	 2.709796432179524e+00	 7.144532995074790e+00
 1.831729705494604e-01	 2.711462990578324e+00	 7.130570989673179e+00
 1.600405698151469e-01	 2.712926653875781e+00	 7.118497539155704e+00
 1.369712557514144e-01	 2.714189190783303e+00	 7.108358005919499e+00
 1.139672228773091e-01	 2.715252396983652e+00	 7.100167404541534e+00
 9.103062177180944e-02	 2.716118093972128e+00	 7.093902675335869e+00
 6.816355890328560e-02	 2.716788127904141e+00	 7.089495260166746e+00
 4.536809648901879e-02	 2.717264368449968e+00	 7.086823878670017e+00
 2.264625238422462e-02	 2.717548707657562e+00	 7.085707411572117e+00
 0.000000000000000e+00	 2.717643058824131e+00	 7.085897806653401e+00
 2.306119980975289e-01	 2.719647211153238e+00	 7.188184629603192e+00
 2.072595306472035e-01	 2.721526505189678e+00	 7.172724767501108e+00
 1.839658833660485e-01	 2.723200277729210e+00	 7.159079462928938e+00
 1.607333478959472e-01	 2.724670276882089e+00	 7.147302740219810e+00
 1.375641721837804e-01	 2.725938279016049e+00	 7.137428052130420e+00
 1.144605602481654e-01	 2.727006087586931e+00	 7.129460671595388e+00
 9.142467197744553e-02	 2.727875531974861e+00	 7.123370475456742e+00
 6.845862295841068e-02	 2.728548466326807e+00	 7.119085006218042e+00
 4.556448433520952e-02	 2.729026768406408e+00	 7.116482706513619e+00
 2.274428269789171e-02	 2.729312338451836e+00	 7.115386229871211e+00
 0.000000000000000e+00	 2.729407098042508e+00	 7.115555740520303e+00
 2.316059607040357e-01	 2.731369184202477e+00	 7.211737824374553e+00
 2.081528415982368e-01	 2.733256578199480e+00	 7.196370349524747e+00
 1.847587961828157e-01	 2.734937564879728e+00	 7.182815689349695e+00
 1.614261259768943e-01	 2.736413899888019e+00	 7.171116213176881e+00
 1.381570886162614e-01	 2.737687367248406e+00	 7.161295424576819e+00
 1.149538976191066e-01	 2.738759778189821e+00	 7.153350902924720e+00
 9.181872218313893e-02	 2.739632969977198e+00	 7.147247615709713e+00
 6.875368701356975e-02	 2.740308804749076e+00	 7.142911483756079e+00
 4.576087218141611e-02	 2.740789168362449e+00	 7.140223090513159e+00
 2.284231301156297e-02	 2.741075969245710e+00	 7.139011435798566e+00
 0.000000000000000e+00	 2.741171137260486e+00	 7.139047643892031e+00
 2.325999233107560e-01	 2.743091157251213e+00	 7.230837297522091e+00
 2.090461525494493e-01	 2.744986651208750e+00	 7.215347431091017e+00
 1.855517089997297e-01	 2.746674852029697e+00	 7.201674621994392e+00
 1.621189040579576e-01	 2.748157522893379e+00	 7.189851249603763e+00
 1.387500050488306e-01	 2.749436455480185e+00	 7.179892602182266e+00
 1.154472349901108e-01	 2.750513468792121e+00	 7.171790388150407e+00
 9.221277238887397e-02	 2.751390407978941e+00	 7.165506596060266e+00
 6.904875106875294e-02	 2.752069143170748e+00	 7.160967581471751e+00
 4.595726002763373e-02	 2.752551568317889e+00	 7.158058268266607e+00
 2.294034332523705e-02	 2.752839600038984e+00	 7.156616361512847e+00
 0.000000000000000e+00	 2.752935176477864e+00	 7.156426478865226e+00
 2.335938859176639e-01	 2.754813130299279e+00	 7.245345163557129e+00
 2.099394635008104e-01	 2.756716724217316e+00	 7.229534076723562e+00
 1.863446218167582e-01	 2.758412139178931e+00	 7.215551566998236e+00
 1.628116821391066e-01	 2.759901145897986e+00	 7.203421460227233e+00
 1.393429214814611e-01	 2.761185543711194e+00	 7.193152335017960e+00
 1.159405723611567e-01	 2.762267159393639e+00	 7.184731624316100e+00
 9.260682259463494e-02	 2.763147845979893e+00	 7.178120042821193e+00
 6.934381512395035e-02	 2.763829481591623e+00	 7.173246214372871e+00
 4.615364787385749e-02	 2.764313968272532e+00	 7.170001383128378e+00
 2.303837363891263e-02	 2.764603230831459e+00	 7.168234102307756e+00
 0.000000000000000e+00	 2.764699215694442e+00	 7.167744804496877e+00
 2.764699215694442e+00	 0.000000000000000e+00	 1.111641851451398e+01
 2.764603230831459e+00	 2.303837363891110e-02	 1.111797121190074e+01
 2.764313968272531e+00	 4.615364787385619e-02	 1.111978630958814e+01
 2.763829481591624e+00	 6.934381512394928e-02	 1.112193725162788e+01
 2.763147845979894e+00	 9.260682259463410e-02	 1.112449455827226e+01
 2.762267159393639e+00	 1.159405723611560e-01	 1.112752535063980e+01
 2.761185543711194e+00	 1.393429214814606e-01	 1.113109283172792e+01
 2.759901145897987e+00	 1.628116821391064e-01	 1.113525570516513e+01
 2.758412139178932e+00	 1.863446218167582e-01	 1.114006751081391e+01
 2.756716724217316e+00	 2.099394635008106e-01	 1.114557585403892e+01
 2.754813130299279e+00	 2.335938859176640e-01	 1.115182150312715e+01
 2.776465254361077e+00	 0.000000000000000e+00	 1.110895857672683e+01
 2.776368861004573e+00	 2.313642061410346e-02	 1.111036394141212e+01
 2.776078367398618e+00	 4.635006909873141e-02	 1.111205177430562e+01
 2.775591818833563e+00	 6.963892932909950e-02	 1.111408946184803e+01
 2.774907282308953e+00	 9.300093977433199e-02	 1.111654135617971e+01
 2.774022847686354e+00	 1.164339935812890e-01	 1.111946837679617e+01
 2.772936628851183e+00	 1.399359386879456e-01	 1.112292757705962e+01
 2.771646764882710e+00	 1.635045779669124e-01	 1.112697165673949e+01
 2.770151421231450e+00	 1.871376693996683e-01	 1.113164839939902e+01
 2.768448790903065e+00	 2.108329262820532e-01	 1.113700001106886e+01
 2.766537095647878e+00	 2.345880174615506e-01	 1.114306233423621e+01
 2.788231289692851e+00	 0.000000000000000e+00	 1.110104910420224e+01
 2.788134487842944e+00	 2.323446756147474e-02	 1.110236580063592e+01
 2.787842763190314e+00	 4.654649026788173e-02	 1.110397784615464e+01
 2.787354152741706e+00	 6.993404345054045e-02	 1.110594680813909e+01
 2.786666715305050e+00	 9.339505684225799e-02	 1.110833113624818e+01
 2.785778532647190e+00	 1.169274146615117e-01	 1.111118584420220e+01
 2.784687710660620e+00	 1.405289557263083e-01	 1.111456216523668e+01
 2.783392380538460e+00	 1.641974735983134e-01	 1.111850716217951e+01
 2.781890699956830e+00	 1.879307167578218e-01	 1.112306327067237e+01
 2.780180854263762e+00	 2.117263888101217e-01	 1.112826775159913e+01
 2.778261057673775e+00	 2.355821487237825e-01	 1.113415202628596e+01
 2.799997318355902e+00	 0.000000000000000e+00	 1.109273189065129e+01
 2.799900108012826e+00	 2.333251445320366e-02	 1.109400934689669e+01
 2.799607152314231e+00	 4.674291132558087e-02	 1.109558931071927e+01
 2.799116479983250e+00	 7.022915740455846e-02	 1.109752775443172e+01
 2.798426141636214e+00	 9.378917368663009e-02	 1.109987747358839e+01
 2.797534210945244e+00	 1.174208354618938e-01	 1.110268785204806e+01
 2.796438785809918e+00	 1.411219724283921e-01	 1.110600460983698e+01
 2.795137989537209e+00	 1.648903688368491e-01	 1.110986951454373e+01
 2.793629972028844e+00	 1.887237636663797e-01	 1.111432003446903e+01
 2.791912910975240e+00	 2.126198508317245e-01	 1.111938890921021e+01
 2.789985013055102e+00	 2.365762794225431e-01	 1.112510361077525e+01
 2.811763337016370e+00	 0.000000000000000e+00	 1.108404951655540e+01
 2.811665718180477e+00	 2.343056126146900e-02	 1.108532782916726e+01
 2.811371531436973e+00	 4.693933221610265e-02	 1.108691154773441e+01
 2.810878797225396e+00	 7.052427110744003e-02	 1.108885125881086e+01
 2.810185557970475e+00	 9.418329019566619e-02	 1.109119433481762e+01
 2.809289879249615e+00	 1.179142558425051e-01	 1.109398478555228e+01
 2.808189850969490e+00	 1.417149886260402e-01	 1.109726310195177e+01
 2.806883588550929e+00	 1.655832634860595e-01	 1.110106607261944e+01
 2.805369234121275e+00	 1.895168099005035e-01	 1.110542655103948e+01
 2.803644957713328e+00	 2.135133120935705e-01	 1.111037314877123e+01
 2.801708958469995e+00	 2.375704092760160e-01	 1.111592982724275e+01
 2.823529342340392e+00	 0.000000000000000e+00	 1.107504533290180e+01
 2.823431315012153e+00	 2.352860795844950e-02	 1.107635517078477e+01
 2.823135897225152e+00	 4.713575288372088e-02	 1.107797051328872e+01
 2.822641101135341e+00	 7.081938447547155e-02	 1.107993675570754e+01
 2.821944960975858e+00	 9.457740625758433e-02	 1.108229606073895e+01
 2.821045534229402e+00	 1.184076756634155e-01	 1.108508729962257e+01
 2.819940902809747e+00	 1.423080041510959e-01	 1.108834599531718e+01
 2.818629174251591e+00	 1.662761573494845e-01	 1.109210424800834e+01
 2.817108482907897e+00	 1.903098552353541e-01	 1.109639062056677e+01
 2.815376991153857e+00	 2.144067723423679e-01	 1.110122995885986e+01
 2.813432890596589e+00	 2.385645380023845e-01	 1.110664311905286e+01
 2.835295330994109e+00	 0.000000000000000e+00	 1.106576344531679e+01
 2.835196895174107e+00	 2.362665451632389e-02	 1.106712595259309e+01
 2.834900246345374e+00	 4.733217327270931e-02	 1.106879272247292e+01
 2.834403388380283e+00	 7.111449742493944e-02	 1.107080413854717e+01
 2.833704347320393e+00	 9.497152176060242e-02	 1.107319734947929e+01
 2.832801172553705e+00	 1.189010947846947e-01	 1.107600630296882e+01
 2.831691938001106e+00	 1.429010188354026e-01	 1.107926179188256e+01
 2.830374743311167e+00	 1.669690502306641e-01	 1.108299149262494e+01
 2.828847715062485e+00	 1.911028994460926e-01	 1.108721997306405e+01
 2.827109007972657e+00	 2.153002313248253e-01	 1.109196864452108e+01
 2.825156806113019e+00	 2.395586653198324e-01	 1.109725562947154e+01
 2.847061299643660e+00	 0.000000000000000e+00	 1.105624869858539e+01
 2.846962455332598e+00	 2.372470090727095e-02	 1.105767539649923e+01
 2.846664575464251e+00	 4.752859332734177e-02	 1.105940523246174e+01
 2.846165655627425e+00	 7.140960987213012e-02	 1.106147374284185e+01
 2.845463713672110e+00	 9.536563659293838e-02	 1.106391324007314e+01
 2.844556790891624e+00	 1.193945130664124e-01	 1.106675294265521e+01
 2.843442953213978e+00	 1.434940325108034e-01	 1.107001912780277e+01
 2.842120292401630e+00	 1.676619419331379e-01	 1.107373528659581e+01
 2.840586927258821e+00	 1.918959423078803e-01	 1.107792225864119e+01
 2.838841004845563e+00	 2.161936887876512e-01	 1.108259832035556e+01
 2.836880701697420e+00	 2.405527909465431e-01	 1.108777919802342e+01
 2.858827244955183e+00	 0.000000000000000e+00	 1.104654666154608e+01
 2.858727992153881e+00	 2.382274710346942e-02	 1.104803934943197e+01
 2.858428881248389e+00	 4.772501299189205e-02	 1.104983562601633e+01
 2.857927899543963e+00	 7.170472173333003e-02	 1.105196632971334e+01
 2.857223056699036e+00	 9.575975064281030e-02	 1.105445909647923e+01
 2.856312385912259e+00	 1.198879303686386e-01	 1.105733858907893e+01
 2.855193945118775e+00	 1.440870450091418e-01	 1.106062675984275e+01
 2.853865818194952e+00	 1.683548322604463e-01	 1.106434312654819e+01
 2.852326116170680e+00	 1.926889835958784e-01	 1.106850503813012e+01
 2.850572978448405e+00	 2.170871444775542e-01	 1.107312790392775e+01
 2.848604574027925e+00	 2.415469146007002e-01	 1.107822535712221e+01
 2.870593163594816e+00	 0.000000000000000e+00	 1.103670361235010e+01
 2.870493502304211e+00	 2.392079307709804e-02	 1.103825426769111e+01
 2.870193160364398e+00	 4.792143221063392e-02	 1.104011199539547e+01
 2.869690116797094e+00	 7.199983292482554e-02	 1.104230306983500e+01
 2.868982373069199e+00	 9.615386379843602e-02	 1.104485059201773e+01
 2.868067954284707e+00	 1.203813465514429e-01	 1.104777482136334e+01
 2.866944910385913e+00	 1.446800561622610e-01	 1.105109355218240e+01
 2.865611317363103e+00	 1.690477210161288e-01	 1.105482251427706e+01
 2.864065278471840e+00	 1.934820230852479e-01	 1.105897577405863e+01
 2.862304925457011e+00	 2.179805981412426e-01	 1.106356610948511e+01
 2.860328419782672e+00	 2.425410360004871e-01	 1.106860532896678e+01
 2.882359052228699e+00	 0.000000000000000e+00	 1.102676652407485e+01
 2.882258982449847e+00	 2.401883880033557e-02	 1.102835720167643e+01
 2.881957409478888e+00	 4.811785092784121e-02	 1.103026292666409e+01
 2.881452304054021e+00	 7.229494336290315e-02	 1.103250552778045e+01
 2.880741659450628e+00	 9.654797594803358e-02	 1.103510369421619e+01
 2.879823492678068e+00	 1.208747614748952e-01	 1.103807341315390e+01
 2.878695845685805e+00	 1.452730658020043e-01	 1.104142846361038e+01
 2.877356786578057e+00	 1.697406080037257e-01	 1.104518094577974e+01
 2.875804410836079e+00	 1.942750605511501e-01	 1.104934182196301e+01
 2.874036842547215e+00	 2.188740495254251e-01	 1.105392144197925e+01
 2.872052235639794e+00	 2.435351548640874e-01	 1.105893002269514e+01
 2.754813130299279e+00	 2.335938859176640e-01	 1.115182150312715e+01
 2.752699239182148e+00	 2.573095503477467e-01	 1.115880213433149e+01
 2.750373645618172e+00	 2.810799825983014e-01	 1.116652945235358e+01
 2.747834670697338e+00	 3.049026708202840e-01	 1.117505790841811e+01
 2.745080669028743e+00	 3.287750586596124e-01	 1.118443391627849e+01
 2.742110029959677e+00	 3.526945456578391e-01	 1.119469387215420e+01
 2.738921178794986e+00	 3.766584876884914e-01	 1.120584359848796e+01
 2.735512578015609e+00	 4.006641974294508e-01	 1.121753388623376e+01
 2.731882728495179e+00	 4.247089448717117e-01	 1.122966093371228e+01
 2.728030170713553e+00	 4.487899578648232e-01	 1.124226803778467e+01
 2.723953485966078e+00	 4.729044226992778e-01	 1.125539475965244e+01
 2.766537095647878e+00	 2.345880174615506e-01	 1.114306233423621e+01
 2.764414208208386e+00	 2.584046112886754e-01	 1.114985701226612e+01
 2.762078717356372e+00	 2.822762060177301e-01	 1.115742136274917e+01
 2.759528937036700e+00	 3.062002791097229e-01	 1.116580856835450e+01
 2.756763214855992e+00	 3.301742633312184e-01	 1.117506503755936e+01
 2.753779933306905e+00	 3.541955471567166e-01	 1.118522857100024e+01
 2.750577510992684e+00	 3.782614752068493e-01	 1.119629513318081e+01
 2.747154403850875e+00	 4.023693487227700e-01	 1.120786990678167e+01
 2.743509106375114e+00	 4.265164260770783e-01	 1.121986043301694e+01
 2.739640152833816e+00	 4.506999233215813e-01	 1.123230676121284e+01
 2.735546118484591e+00	 4.749170147721637e-01	 1.124524611310352e+01
 2.778261057673775e+00	 2.355821487237825e-01	 1.113415202628596e+01
 2.776129173914532e+00	 2.594996719194023e-01	 1.114076362109589e+01
 2.773783785777352e+00	 2.834724290983492e-01	 1.114816714927663e+01
 2.771223200061972e+00	 3.074978870316830e-01	 1.115641470217602e+01
 2.768445757372545e+00	 3.315734676066154e-01	 1.116555283669419e+01
 2.765449833347099e+00	 3.556965482305932e-01	 1.117562089251367e+01
 2.762233839887267e+00	 3.798644622713525e-01	 1.118660104799332e+01
 2.758796226387205e+00	 4.040744995333188e-01	 1.119805874856947e+01
 2.755135480960557e+00	 4.283239067706960e-01	 1.120991527451914e+01
 2.751250131664293e+00	 4.526098882375511e-01	 1.122220790111382e+01
 2.747138747718282e+00	 4.769296062751592e-01	 1.123497197123797e+01
 2.789985013055102e+00	 2.365762794225431e-01	 1.112510361077525e+01
 2.787844132981275e+00	 2.605947319295109e-01	 1.113153880252336e+01
 2.785488847564608e+00	 2.846686515010748e-01	 1.113878741158200e+01
 2.782917456459721e+00	 3.087954942183494e-01	 1.114690057750887e+01
 2.780128293268298e+00	 3.329726710891972e-01	 1.115592512030031e+01
 2.777119726773730e+00	 3.571975484540154e-01	 1.116590201308800e+01
 2.773890162176050e+00	 3.814674484276481e-01	 1.117679551914724e+01
 2.770438042326029e+00	 4.057796493777965e-01	 1.118813831759643e+01
 2.766761848957309e+00	 4.301313864402732e-01	 1.119986677755109e+01
 2.762860103915421e+00	 4.545198520714070e-01	 1.121201585409224e+01
 2.758731370382501e+00	 4.789421966378692e-01	 1.122461945207555e+01
 2.801708958469995e+00	 2.375704092760160e-01	 1.111592982724275e+01
 2.799559082089305e+00	 2.616897910085843e-01	 1.112219898906882e+01
 2.797193899401643e+00	 2.858648728868223e-01	 1.112930223908626e+01
 2.794611702916515e+00	 3.100931003019070e-01	 1.113728986647849e+01
 2.791810819233135e+00	 3.343718733823577e-01	 1.114620902953898e+01
 2.788789610280269e+00	 3.586985474015302e-01	 1.115610238854657e+01
 2.785546474556352e+00	 3.830704332213840e-01	 1.116691206575796e+01
 2.782079848368768e+00	 4.074847977729030e-01	 1.117814579015607e+01
 2.778388207071168e+00	 4.319388645735166e-01	 1.118975546871276e+01
 2.774470066297642e+00	 4.564298142818237e-01	 1.120177417046506e+01
 2.770323983192594e+00	 4.809547852898987e-01	 1.121423478315023e+01
 2.813432890596589e+00	 2.385645380023845e-01	 1.110664311905286e+01
 2.811274017919313e+00	 2.627848488462058e-01	 1.111276020346060e+01
 2.808898937971958e+00	 2.870610929165076e-01	 1.111973121399097e+01
 2.806305936118918e+00	 3.113907049145400e-01	 1.112760565233301e+01
 2.803493331956948e+00	 3.357710740894908e-01	 1.113643105035136e+01
 2.800459480560192e+00	 3.601995446476846e-01	 1.114625176797720e+01
 2.797202773725491e+00	 3.846734161982074e-01	 1.115698355659062e+01
 2.793721641216850e+00	 4.091899442353383e-01	 1.116811762188536e+01
 2.790014552007931e+00	 4.337463406581337e-01	 1.117962109312458e+01
 2.786080015521395e+00	 4.583397743274758e-01	 1.119152556762358e+01
 2.781916582863914e+00	 4.829673716608536e-01	 1.120386331688170e+01
 2.825156806113019e+00	 2.395586653198324e-01	 1.109725562947154e+01
 2.822988937151991e+00	 2.638799051319587e-01	 1.110323805826284e+01
 2.820603959959052e+00	 2.882573112510467e-01	 1.111009341447132e+01
 2.818000152753496e+00	 3.126883076884337e-01	 1.111787043620741e+01
 2.815175828129625e+00	 3.371702728139905e-01	 1.112661702379123e+01
 2.812129334306969e+00	 3.617005397670253e-01	 1.113637920762279e+01
 2.808859056380784e+00	 3.862763969037661e-01	 1.114704221683366e+01
 2.805363417571701e+00	 4.108950882818019e-01	 1.115808955679620e+01
 2.801640880473400e+00	 4.355538141818323e-01	 1.116950262563109e+01
 2.797689948297120e+00	 4.602497316670379e-01	 1.118131194331785e+01
 2.793509166111808e+00	 4.849799551803387e-01	 1.119354954584399e+01
 2.836880701697420e+00	 2.405527909465431e-01	 1.108777919802342e+01
 2.834703836468028e+00	 2.649749595554262e-01	 1.109364775573375e+01
 2.832308962046427e+00	 2.894535275513553e-01	 1.110040741805164e+01
 2.829694349506817e+00	 3.139859082557728e-01	 1.110810614402452e+01
 2.826858304441057e+00	 3.385694691592505e-01	 1.111679215645180e+01
 2.823799168214074e+00	 3.632015323340992e-01	 1.112651308482577e+01
 2.820515319219547e+00	 3.878793748837077e-01	 1.113711963488879e+01
 2.817005174134744e+00	 4.126002294289934e-01	 1.114809663628984e+01
 2.813267189173375e+00	 4.373612846323198e-01	 1.115943828195662e+01
 2.809299861335258e+00	 4.621596857591844e-01	 1.117117438886564e+01
 2.805101729651626e+00	 4.869925352779593e-01	 1.118333711793444e+01
 2.848604574027925e+00	 2.415469146007002e-01	 1.107822535712221e+01
 2.846418712548116e+00	 2.660700118061916e-01	 1.108400408790798e+01
 2.844013940917582e+00	 2.906497414783492e-01	 1.109069130515817e+01
 2.841388523065444e+00	 3.152835062487419e-01	 1.109833413352887e+01
 2.838540757581131e+00	 3.399686627286647e-01	 1.110698103098363e+01
 2.835468978974981e+00	 3.647025219234533e-01	 1.111668111202509e+01
 2.832171558939099e+00	 3.894823496836791e-01	 1.112724676917755e+01
 2.828646907607408e+00	 4.143053671936128e-01	 1.113817320815470e+01
 2.824893474813653e+00	 4.391687514973034e-01	 1.114946552981467e+01
 2.820909751346245e+00	 4.640696360625901e-01	 1.116115320228823e+01
 2.816694270198717e+00	 4.890051113833210e-01	 1.117326885144584e+01
 2.860328419782672e+00	 2.425410360004871e-01	 1.106860532896678e+01
 2.858133562072945e+00	 2.671650615738382e-01	 1.107432143689643e+01
 2.855718893256019e+00	 2.918459526929442e-01	 1.108096266284369e+01
 2.853082670115946e+00	 3.165811012995259e-01	 1.108857520144977e+01
 2.850223184239741e+00	 3.413678531256271e-01	 1.109720761670145e+01
 2.847138763283159e+00	 3.662035081096343e-01	 1.110691035080411e+01
 2.843827772236757e+00	 3.910853208493286e-01	 1.111745395496355e+01
 2.840288614691117e+00	 4.160105010923597e-01	 1.112835293554826e+01
 2.836519734100034e+00	 4.409762142644904e-01	 1.113962109997220e+01
 2.832519615040527e+00	 4.659795820359295e-01	 1.115128790137509e+01
 2.828286784468431e+00	 4.910176829260288e-01	 1.116338675004438e+01
 2.872052235639794e+00	 2.435351548640874e-01	 1.105893002269514e+01
 2.869848381723207e+00	 2.682601085479492e-01	 1.106461377539770e+01
 2.867423815745239e+00	 2.930421608560563e-01	 1.107123858867960e+01
 2.864776787344890e+00	 3.178786930403098e-01	 1.107884959078955e+01
 2.861905581106774e+00	 3.427670399535317e-01	 1.108749528027683e+01
 2.858808517832082e+00	 3.677044904671891e-01	 1.109722722598779e+01
 2.855483955809838e+00	 3.926882879263032e-01	 1.110777091119016e+01
 2.851930292087298e+00	 4.177156306419340e-01	 1.111866880596315e+01
 2.848145963738319e+00	 4.427836724215886e-01	 1.112994099726998e+01
 2.844129449128539e+00	 4.678895231378774e-01	 1.114161723667944e+01
 2.839879269176116e+00	 4.930302493356879e-01	 1.115373201765615e+01
 2.723953485966078e+00	 4.729044226992778e-01	 1.125539475965244e+01
 2.719652047755398e+00	 4.970453791505547e-01	 1.126878648413424e+01
 2.715123847691289e+00	 5.212140354065298e-01	 1.128223209833157e+01
 2.710367595260513e+00	 5.454074650370658e-01	 1.129582256261244e+01
 2.705382045469423e+00	 5.696227029110376e-01	 1.130964262306099e+01
 2.700166000011829e+00	 5.938567459643163e-01	 1.132376889596074e+01
 2.694718308425226e+00	 6.181065540052663e-01	 1.133826768213725e+01
 2.689037869234061e+00	 6.423690505577225e-01	 1.135319249280212e+01
 2.683123631078773e+00	 6.666411237413625e-01	 1.136858126864691e+01
 2.676974593829291e+00	 6.909196271893528e-01	 1.138445327417165e+01
 2.670589809681632e+00	 7.152013810030864e-01	 1.140080564960791e+01
 2.735546118484591e+00	 4.749170147721637e-01	 1.124524611310352e+01
 2.731226374163828e+00	 4.991607105829084e-01	 1.125843484390969e+01
 2.726678902933965e+00	 5.234322240835089e-01	 1.127167784991751e+01
 2.721902408789578e+00	 5.477286163894904e-01	 1.128507263876785e+01
 2.716895641438554e+00	 5.720469097506856e-01	 1.129871121149466e+01
 2.711657397474934e+00	 5.963840883224871e-01	 1.131267817923490e+01
 2.706186521540047e+00	 6.207370989747738e-01	 1.132704860613683e+01
 2.700481907470665e+00	 6.451028521384747e-01	 1.134188555950079e+01
 2.694542499432834e+00	 6.694782226896875e-01	 1.135723734827710e+01
 2.688367293040105e+00	 6.938600508712319e-01	 1.137313443126809e+01
 2.681955336454813e+00	 7.182451432514479e-01	 1.138958597674491e+01
 2.747138747718282e+00	 4.769296062751592e-01	 1.123497197123797e+01
 2.742800697292660e+00	 5.012760414162128e-01	 1.124797203067615e+01
 2.738233954902532e+00	 5.256504121322264e-01	 1.126102501590963e+01
 2.733437219050290e+00	 5.500497670843956e-01	 1.127423366445380e+01
 2.728409234145354e+00	 5.744711159035185e-01	 1.128769594797676e+01
 2.723148791682000e+00	 5.989114299645187e-01	 1.130150322563252e+01
 2.717654731405401e+00	 6.233676431987983e-01	 1.131573811996517e+01
 2.711925942464648e+00	 6.478366529443884e-01	 1.133047209579512e+01
 2.705961364551396e+00	 6.723153208338174e-01	 1.134576272256934e+01
 2.699759989022826e+00	 6.968004737195647e-01	 1.136165060086622e+01
 2.693320860007594e+00	 7.212889046369284e-01	 1.137815593409773e+01
 2.758731370382501e+00	 4.789421966378692e-01	 1.122461945207555e+01
 2.754375013862423e+00	 5.033913710509763e-01	 1.123744789218904e+01
 2.749789000322970e+00	 5.278685989240639e-01	 1.125032656341478e+01
 2.744972022774349e+00	 5.523709164640083e-01	 1.126336212004023e+01
 2.739922820327530e+00	 5.768953206825850e-01	 1.127665722413193e+01
 2.734640179377013e+00	 6.014387701742597e-01	 1.129030873993694e+01
 2.729122934771828e+00	 6.259981859319688e-01	 1.130440564726540e+01
 2.723369970973389e+00	 6.505704522008573e-01	 1.131902665362336e+01
 2.717380223198962e+00	 6.751524173698946e-01	 1.133423748491798e+01
 2.711152678549364e+00	 6.997408949012347e-01	 1.135008783475047e+01
 2.704686377119575e+00	 7.243326642971429e-01	 1.136660795265126e+01
 2.770323983192594e+00	 4.809547852898987e-01	 1.121423478315023e+01
 2.765949320593645e+00	 5.055066988877072e-01	 1.122691134432082e+01
 2.761344035921258e+00	 5.300867838304026e-01	 1.123963448220447e+01
 2.756506816693466e+00	 5.546920638705556e-01	 1.125251345849795e+01
 2.751436396722784e+00	 5.793195234009340e-01	 1.126565434894849e+01
 2.746131557303960e+00	 6.039661082355583e-01	 1.127915828331966e+01
 2.740591128389871e+00	 6.286287264289134e-01	 1.129311940078670e+01
 2.734813989754269e+00	 6.533042491332735e-01	 1.130762249987134e+01
 2.728799072140037e+00	 6.779895114940631e-01	 1.132274036206047e+01
 2.722545358391629e+00	 7.026813135831245e-01	 1.133853072842859e+01
 2.716051884570356e+00	 7.273764213697065e-01	 1.135503290891210e+01
 2.781916582863914e+00	 4.829673716608536e-01	 1.120386331688170e+01
 2.777523614206856e+00	 5.076220243269139e-01	 1.121641038847038e+01
 2.772899058423376e+00	 5.323049662226238e-01	 1.122899980432554e+01
 2.768041597539341e+00	 5.570132086462657e-01	 1.124174212737658e+01
 2.762949960068827e+00	 5.817437233716144e-01	 1.125474557329328e+01
 2.757622922206824e+00	 6.064934434322631e-01	 1.126811430056392e+01
 2.752059309010075e+00	 6.312592639442614e-01	 1.128194641249130e+01
 2.746257995564672e+00	 6.560380429670301e-01	 1.129633164954049e+01
 2.740217908139123e+00	 6.808266024024663e-01	 1.131134875048584e+01
 2.733938025321529e+00	 7.056217289321172e-01	 1.132706246096310e+01
 2.727417379139534e+00	 7.304201749922331e-01	 1.134352016834717e+01
 2.793509166111808e+00	 4.849799551803387e-01	 1.119354954584399e+01
 2.789097891422581e+00	 5.097373467691042e-01	 1.120599212884459e+01
 2.784454064555301e+00	 5.345231454721091e-01	 1.121847262355469e+01
 2.779576362043681e+00	 5.593343501333655e-01	 1.123110159059489e+01
 2.774463507103359e+00	 5.841679199076746e-01	 1.124398811420330e+01
 2.769114270829588e+00	 6.090207750482216e-01	 1.125723814702597e+01
 2.763527473382981e+00	 6.338897977326413e-01	 1.127095256335629e+01
 2.757701985161980e+00	 6.587718329275196e-01	 1.128522489856327e+01
 2.751636727960725e+00	 6.836636892912469e-01	 1.130013875243972e+01
 2.745330676110972e+00	 7.085621401150959e-01	 1.131576483434342e+01
 2.738782857606711e+00	 7.334639243023376e-01	 1.133215762830313e+01
 2.805101729651626e+00	 4.869925352779593e-01	 1.118333711793444e+01
 2.800672148961350e+00	 5.118526656147867e-01	 1.119570278961609e+01
 2.796009051043016e+00	 5.367413209502400e-01	 1.120810211470138e+01
 2.791111106938189e+00	 5.616554876740820e-01	 1.122064435004858e+01
 2.785977034564090e+00	 5.865921123221637e-01	 1.123343817896049e+01
 2.780605599916239e+00	 6.115481023672830e-01	 1.124659011534134e+01
 2.774995618259133e+00	 6.365203270486824e-01	 1.126020261287858e+01
 2.769145955303572e+00	 6.615056182401353e-01	 1.127437185627622e+01
 2.763055528369343e+00	 6.865007713565484e-01	 1.128918521153694e+01
 2.756723307531867e+00	 7.115025462989433e-01	 1.130471831241187e+01
 2.750148316751486e+00	 7.365076684376347e-01	 1.132103176042137e+01
 2.816694270198717e+00	 4.890051113833210e-01	 1.117326885144584e+01
 2.812246383543692e+00	 5.139679802644693e-01	 1.118558773196030e+01
 2.807564014612497e+00	 5.389594920283972e-01	 1.119793655276369e+01
 2.802645828954570e+00	 5.639766206106434e-01	 1.121042196704087e+01
 2.797490539188724e+00	 5.890162999281302e-01	 1.122315098895565e+01
 2.792096906210760e+00	 6.140754246732950e-01	 1.123622946188356e+01
 2.786463740389072e+00	 6.391508511470126e-01	 1.124976022829147e+01
 2.780589902746831e+00	 6.642393981302698e-01	 1.126384097756019e+01
 2.774474306129482e+00	 6.893378477945143e-01	 1.127856174799308e+01
 2.768115916356123e+00	 7.144429466505420e-01	 1.129400205935615e+01
 2.761513753353460e+00	 7.395514065357396e-01	 1.131022765256307e+01
 2.828286784468431e+00	 4.910176829260288e-01	 1.116338675004438e+01
 2.823820591890134e+00	 5.160832901186607e-01	 1.117569147097561e+01
 2.819118951989725e+00	 5.411776580779628e-01	 1.118802333194107e+01
 2.814180524824531e+00	 5.662977482852762e-01	 1.120048508354082e+01
 2.809004017714968e+00	 5.914404820386231e-01	 1.121318080334789e+01
 2.803588186457137e+00	 6.166027412501068e-01	 1.122621443298209e+01
 2.797931836523340e+00	 6.417813692822615e-01	 1.123968801350131e+01
 2.792033824249141e+00	 6.669731718233159e-01	 1.125369959465737e+01
 2.785893058005646e+00	 6.921749178012874e-01	 1.126834079348576e+01
 2.779508499355647e+00	 7.173833403367752e-01	 1.128369397778070e+01
 2.772879164192231e+00	 7.425951377342661e-01	 1.129982489957187e+01
 2.839879269176116e+00	 4.930302493356879e-01	 1.115373201765615e+01
 2.835394770721205e+00	 5.181985945778688e-01	 1.116605769248973e+01
 2.830673859900681e+00	 5.433958184703180e-01	 1.117840898450797e+01
 2.825715191279776e+00	 5.686188700402085e-01	 1.119088344327428e+01
 2.820517466880527e+00	 5.938646579666913e-01	 1.120358094252501e+01
 2.815079437399354e+00	 6.191300513815661e-01	 1.121660229090653e+01
 2.809399903412483e+00	 6.444118807090574e-01	 1.123004753775166e+01
 2.803477716567880e+00	 6.697069385446666e-01	 1.124401394867395e+01
 2.797311780762338e+00	 6.950119805730116e-01	 1.125859362565599e+01
 2.790901053302352e+00	 7.203237265245264e-01	 1.127387074636858e+01
 2.784244546047401e+00	 7.456388611708296e-01	 1.128989074739923e+01
 2.670589809681632e+00	 7.152013810030864e-01	 1.140080564960791e+01
 2.663968384817607e+00	 7.394831730828607e-01	 1.141793945396186e+01
 2.657109482211724e+00	 7.637617612042525e-01	 1.143549247842816e+01
 2.650012320931192e+00	 7.880338731195935e-01	 1.145267996224194e+01
 2.642676176568437e+00	 8.122962073270322e-01	 1.146957216638363e+01
 2.635100382230125e+00	 8.365454342062791e-01	 1.148622370723487e+01
 2.627284329501278e+00	 8.607781971891916e-01	 1.150267081984323e+01
 2.619227469383175e+00	 8.849911139646676e-01	 1.151893063696323e+01
 2.610929313203725e+00	 9.091807777172439e-01	 1.153500049778703e+01
 2.602389433499033e+00	 9.333437583987603e-01	 1.155085729484050e+01
 2.593607464864854e+00	 9.574766040323746e-01	 1.156645686767959e+01
 2.681955336454813e+00	 7.182451432514479e-01	 1.138958597674491e+01
 2.675305732054847e+00	 7.426302740605408e-01	 1.140685852722928e+01
 2.668417639252495e+00	 7.670121872758016e-01	 1.142435356557576e+01
 2.661290273791471e+00	 7.913875967235013e-01	 1.144146433086687e+01
 2.653922908181269e+00	 8.157531868512322e-01	 1.145824511422884e+01
 2.646314872690394e+00	 8.401056138684786e-01	 1.147473494383837e+01
 2.638465556314577e+00	 8.644415069221888e-01	 1.149095686650801e+01
 2.630374407718667e+00	 8.887574693067930e-01	 1.150691724805943e+01
 2.622040936150889e+00	 9.130500797080757e-01	 1.152260510086892e+01
 2.613464712328152e+00	 9.373158934802491e-01	 1.153799144718678e+01
 2.604645369291131e+00	 9.615514439555216e-01	 1.155302872700058e+01
 2.693320860007594e+00	 7.212889046369284e-01	 1.137815593409773e+01
 2.686643076079664e+00	 7.457773741460294e-01	 1.139550192752468e+01
 2.679725793089109e+00	 7.702626124258725e-01	 1.141291987578102e+01
 2.672568223456148e+00	 7.947413193766725e-01	 1.142996219813193e+01
 2.665169636607344e+00	 8.192101653954625e-01	 1.144666777710005e+01
 2.657529359973037e+00	 8.436657925215036e-01	 1.146306226896326e+01
 2.649646779959669e+00	 8.681048156168337e-01	 1.147915739932858e+01
 2.641521342895669e+00	 8.925238235814179e-01	 1.149495027514827e+01
 2.633152555949569e+00	 9.169193806022878e-01	 1.151042272170331e+01
 2.624539988019083e+00	 9.412880274360286e-01	 1.152554065330835e+01
 2.615683270589805e+00	 9.656262827238998e-01	 1.154025348666754e+01
 2.704686377119575e+00	 7.243326642971429e-01	 1.136660795265126e+01
 2.697980413679638e+00	 7.489244724476678e-01	 1.138396522312727e+01
 2.691033940517407e+00	 7.735130357335342e-01	 1.140128938606591e+01
 2.683846166729616e+00	 7.980950401289043e-01	 1.141826720182099e+01
 2.676416358659895e+00	 8.226671419802600e-01	 1.143492466682520e+01
 2.668743840900424e+00	 8.472259691566422e-01	 1.145127625166083e+01
 2.660827997268355e+00	 8.717681222351845e-01	 1.146732420068472e+01
 2.652668271755688e+00	 8.962901757213905e-01	 1.148305784603432e+01
 2.644264169451275e+00	 9.207886793035459e-01	 1.149845294470752e+01
 2.635615257433634e+00	 9.452601591406151e-01	 1.151347104764702e+01
 2.626721165633274e+00	 9.697011191829111e-01	 1.152805890994495e+01
 2.716051884570356e+00	 7.273764213697065e-01	 1.135503290891210e+01
 2.709317741642341e+00	 7.520715680737970e-01	 1.137234459810304e+01
 2.702342078333234e+00	 7.767634562778539e-01	 1.138955865092819e+01
 2.695124100416276e+00	 8.014487580299962e-01	 1.140647159030479e+01
 2.687663071152168e+00	 8.261241156261616e-01	 1.142309901680952e+01
 2.679958312294930e+00	 8.507861427651821e-01	 1.143944637219364e+01
 2.672009205072426e+00	 8.754314257392973e-01	 1.145550823315914e+01
 2.663815191140235e+00	 9.000565246595601e-01	 1.147126761773760e+01
 2.655375773507524e+00	 9.246579747155176e-01	 1.148669531315788e+01
 2.646690517433613e+00	 9.492322874685241e-01	 1.150174923433503e+01
 2.637759051293936e+00	 9.737759521779581e-01	 1.151637382230790e+01
 2.727417379139534e+00	 7.304201749922331e-01	 1.134352016834717e+01
 2.720655056755356e+00	 7.552186601327597e-01	 1.136073487531292e+01
 2.713650203332434e+00	 7.800138731379002e-01	 1.137782281954849e+01
 2.706402021320524e+00	 8.048024721297451e-01	 1.139466623797426e+01
 2.698909770897400e+00	 8.295810853537036e-01	 1.141127279406395e+01
 2.691172770978925e+00	 8.543463123384120e-01	 1.142764102901511e+01
 2.683190400203678e+00	 8.790947250912304e-01	 1.144375963981269e+01
 2.674962097890817e+00	 9.038228693287740e-01	 1.145960676839846e+01
 2.666487364969828e+00	 9.285272657418685e-01	 1.147514931104925e+01
 2.657765764880834e+00	 9.532044112942721e-01	 1.149034225732518e+01
 2.648796924444190e+00	 9.778507805544423e-01	 1.150512806815203e+01
 2.738782857606711e+00	 7.334639243023376e-01	 1.133215762830313e+01
 2.731992355806256e+00	 7.583657477328968e-01	 1.134922953321338e+01
 2.724958312310848e+00	 7.832642853927404e-01	 1.136617565243271e+01
 2.717679926246755e+00	 8.081561814779498e-01	 1.138294066014736e+01
 2.710156454708831e+00	 8.330380501834227e-01	 1.139952671078576e+01
 2.702387213774781e+00	 8.579064768676198e-01	 1.141592754542068e+01
 2.694371579493908e+00	 8.827580192530402e-01	 1.143212774429231e+01
 2.686108988848946e+00	 9.075892086618812e-01	 1.144810198921772e+01
 2.677598940689701e+00	 9.323965512862661e-01	 1.146381434523350e+01
 2.668840996637104e+00	 9.571765294923746e-01	 1.147921757108624e+01
 2.659834781956433e+00	 9.819256031577656e-01	 1.149425246839682e+01
 2.750148316751486e+00	 7.365076684376347e-01	 1.132103176042137e+01
 2.743329635582623e+00	 7.615128299825500e-01	 1.133792072211068e+01
 2.736266402064319e+00	 7.865146921214435e-01	 1.135470953750627e+01
 2.728957811999367e+00	 8.115098851244081e-01	 1.137138302746484e+01
 2.721403119399698e+00	 8.364950091358557e-01	 1.138794023550422e+01
 2.713601637504873e+00	 8.614666353440941e-01	 1.140437217588064e+01
 2.705552739774911e+00	 8.864213071867842e-01	 1.142066105077638e+01
 2.697255860856131e+00	 9.113555415917302e-01	 1.143677947643066e+01
 2.688710497518656e+00	 9.362658302523756e-01	 1.145268972782937e+01
 2.679916209564234e+00	 9.611486409373483e-01	 1.146834301184744e+01
 2.670872620703062e+00	 9.860004188333295e-01	 1.148367877895718e+01
 2.761513753353460e+00	 7.395514065357396e-01	 1.131022765256307e+01
 2.754666892872033e+00	 7.646599059900612e-01	 1.132689927988491e+01
 2.747574469388692e+00	 7.897650924030762e-01	 1.134351550567598e+01
 2.740235675382757e+00	 8.148635821189183e-01	 1.136008017978940e+01
 2.732649761783247e+00	 8.399519612315396e-01	 1.137659160380432e+01
 2.724816038991573e+00	 8.650267867591226e-01	 1.139304011206348e+01
 2.716733877878480e+00	 8.900845878545197e-01	 1.140940724376275e+01
 2.708402710753876e+00	 9.151218670511695e-01	 1.142566492331470e+01
 2.699822032308209e+00	 9.401351015438646e-01	 1.144177465889597e+01
 2.690991400524034e+00	 9.651207445037091e-01	 1.145768676937660e+01
 2.681910437556476e+00	 9.900752264265369e-01	 1.147333965005803e+01
 2.772879164192231e+00	 7.425951377342661e-01	 1.129982489957187e+01
 2.766004124462063e+00	 7.678069748637716e-01	 1.131625474719906e+01
 2.758882511079807e+00	 7.930154853167070e-01	 1.133268324587497e+01
 2.751513513201320e+00	 8.182172715112783e-01	 1.134911763962289e+01
 2.743896378672712e+00	 8.434089054910108e-01	 1.136555782864046e+01
 2.736030415057252e+00	 8.685869301039936e-01	 1.138199548855905e+01
 2.727914990636413e+00	 8.937478602183040e-01	 1.139841318770377e+01
 2.719549535383695e+00	 9.188881839730474e-01	 1.141478351222944e+01
 2.710933541909871e+00	 9.440043640643990e-01	 1.143106820936249e+01
 2.702066566378315e+00	 9.690928390659729e-01	 1.144721735927670e+01
 2.692948229389072e+00	 9.941500247827888e-01	 1.146316858636828e+01
 2.784244546047401e+00	 7.456388611708296e-01	 1.128989074739923e+01
 2.777341327140289e+00	 7.709540357120230e-01	 1.130607538220769e+01
 2.770190523933510e+00	 7.962658699414044e-01	 1.132230111960541e+01
 2.762791322259456e+00	 8.215709523512867e-01	 1.133857962505540e+01
 2.755142966881336e+00	 8.468658409348060e-01	 1.135491471025194e+01
 2.747244762524284e+00	 8.721470643699959e-01	 1.137130138830991e+01
 2.739096074880508e+00	 8.974111232401949e-01	 1.138772492649287e+01
 2.730696331587098e+00	 9.226544912902125e-01	 1.140415990668848e+01
 2.722045023175160e+00	 9.478736167176454e-01	 1.142056930420710e+01
 2.713141703988886e+00	 9.730649234986561e-01	 1.143690359578620e+01
 2.703985993073250e+00	 9.982248127474883e-01	 1.145309990793091e+01
 2.593607464864854e+00	 9.574766040323746e-01	 1.156645686767959e+01
 2.584581549628830e+00	 9.815799359205429e-01	 1.158201126527725e+01
 2.575312919789278e+00	 1.005646154033658e+00	 1.159744088988034e+01
 2.565801399085923e+00	 1.029671745758833e+00	 1.161260130057834e+01
 2.556046876445435e+00	 1.053653182021747e+00	 1.162737489711006e+01
 2.546049306666159e+00	 1.077586918741646e+00	 1.164166394017061e+01
 2.535808711065450e+00	 1.101469398313470e+00	 1.165538992107716e+01
 2.525325178088495e+00	 1.125297051116040e+00	 1.166854710557720e+01
 2.514598863877524e+00	 1.149066297045198e+00	 1.168137118606475e+01
 2.503629992800374e+00	 1.172773547070711e+00	 1.169397884027418e+01
 2.492418857937370e+00	 1.196415204815757e+00	 1.170648381088785e+01
 2.604645369291131e+00	 9.615514439555216e-01	 1.155302872700058e+01
 2.595581041461565e+00	 9.857573550805000e-01	 1.156834582139016e+01
 2.586272966080921e+00	 1.009925994481270e+00	 1.158430923659051e+01
 2.576720966138782e+00	 1.034053834595904e+00	 1.159996180768268e+01
 2.566924930089104e+00	 1.058137331330986e+00	 1.161511802486591e+01
 2.556884812537850e+00	 1.082172925522801e+00	 1.162967316913586e+01
 2.546600634893091e+00	 1.106157044425771e+00	 1.164354082998292e+01
 2.536072485976404e+00	 1.130086103227061e+00	 1.165675182971416e+01
 2.525300522594524e+00	 1.153956506586243e+00	 1.166952850739685e+01
 2.514284970070149e+00	 1.177764650198826e+00	 1.168196251232107e+01
 2.503026122730883e+00	 1.201506922382463e+00	 1.169415759533860e+01
 2.615683270589805e+00	 9.656262827238998e-01	 1.154025348666754e+01
 2.606580530177579e+00	 9.899347730566559e-01	 1.155513426476665e+01
 2.597233009267018e+00	 1.014205833716083e+00	 1.157078556138630e+01
 2.587640530097565e+00	 1.038435922191220e+00	 1.158700307982059e+01
 2.577802980650460e+00	 1.062621479369558e+00	 1.160273493823310e+01
 2.567720315339289e+00	 1.086758931004427e+00	 1.161771510869958e+01
 2.557392555662834e+00	 1.110844689209733e+00	 1.163184632922809e+01
 2.546819790819072e+00	 1.134875153980993e+00	 1.164520786691508e+01
 2.536002178279239e+00	 1.158846714741510e+00	 1.165798213382647e+01
 2.524939944320888e+00	 1.182755751912543e+00	 1.167024571375547e+01
 2.513633384518913e+00	 1.206598638506224e+00	 1.168209294762837e+01
 2.626721165633274e+00	 9.697011191829111e-01	 1.152805890994495e+01
 2.617580012660152e+00	 9.941121886653349e-01	 1.154270842208010e+01
 2.608193046242020e+00	 1.018485670525390e+00	 1.155795321162858e+01
 2.598560087868189e+00	 1.042818007303091e+00	 1.157377480202200e+01
 2.588681025047179e+00	 1.067105624866845e+00	 1.159001693501836e+01
 2.578555812000202e+00	 1.091344933887034e+00	 1.160558028004239e+01
 2.568184470316750e+00	 1.115532331337064e+00	 1.162010932986105e+01
 2.557567089571202e+00	 1.139664202020806e+00	 1.163372864211767e+01
 2.546703827899294e+00	 1.163736920125307e+00	 1.164656843968437e+01
 2.535594912533440e+00	 1.187746850797583e+00	 1.165869597191264e+01
 2.524240640295814e+00	 1.211690351744256e+00	 1.167019676214314e+01
 2.637759051293936e+00	 9.737759521779581e-01	 1.151637382230790e+01
 2.628579485792562e+00	 9.982896007228604e-01	 1.153096086352612e+01
 2.619153073900384e+00	 1.022765503696482e+00	 1.154595338011016e+01
 2.609479636356574e+00	 1.047200088689824e+00	 1.156134495657867e+01
 2.599559060196940e+00	 1.071589766552226e+00	 1.157709579866473e+01
 2.589391299450315e+00	 1.095930932871137e+00	 1.159306230209430e+01
 2.578976375796910e+00	 1.120219969479471e+00	 1.160813712445014e+01
 2.568314379187497e+00	 1.144453245989470e+00	 1.162213002848970e+01
 2.557405468422320e+00	 1.168627121351941e+00	 1.163512583124501e+01
 2.546249871688648e+00	 1.192737945439667e+00	 1.164718228347913e+01
 2.534847887055940e+00	 1.216782060653778e+00	 1.165837669352478e+01
 2.648796924444190e+00	 9.778507805544423e-01	 1.150512806815203e+01
 2.639578946458089e+00	 1.002467008045557e+00	 1.151978573150340e+01
 2.630113089136561e+00	 1.027045332016650e+00	 1.153465232511731e+01
 2.620399172468637e+00	 1.051582165109729e+00	 1.154973009897734e+01
 2.610437083017416e+00	 1.076073903155083e+00	 1.156498732048799e+01
 2.600226774619356e+00	 1.100516926657246e+00	 1.158035759695728e+01
 2.589768269045381e+00	 1.124907602308659e+00	 1.159573376367121e+01
 2.579061656622661e+00	 1.149242284529956e+00	 1.161023028284379e+01
 2.568107096815945e+00	 1.173517317035719e+00	 1.162349468860924e+01
 2.556904818767357e+00	 1.197729034424519e+00	 1.163557506569707e+01
 2.545455121793645e+00	 1.221873763792007e+00	 1.164654112005614e+01
 2.659834781956433e+00	 9.819256031577656e-01	 1.149425246839682e+01
 2.650578391540014e+00	 1.006644409449747e+00	 1.150907868567485e+01
 2.641073088845002e+00	 1.031325154273185e+00	 1.152391823301675e+01
 2.631318693110298e+00	 1.055964235321114e+00	 1.153877868892429e+01
 2.621315090426287e+00	 1.080558033404797e+00	 1.155363365734050e+01
 2.611062234437051e+00	 1.105102913945874e+00	 1.156842204764930e+01
 2.600560147004232e+00	 1.129595228496339e+00	 1.158313192588350e+01
 2.589808918831399e+00	 1.154031316285237e+00	 1.159784998265540e+01
 2.578808710047800e+00	 1.178407505790949e+00	 1.161151730900422e+01
 2.567559750750418e+00	 1.202720116337859e+00	 1.162374610872762e+01
 2.556062341503281e+00	 1.226965459716164e+00	 1.163459910787436e+01
 2.670872620703062e+00	 9.860004188333295e-01	 1.148367877895718e+01
 2.661577817921614e+00	 1.010821803751756e+00	 1.149873684920246e+01
 2.652033069920162e+00	 1.035604969253379e+00	 1.151362115495600e+01
 2.642238195187475e+00	 1.060346298082289e+00	 1.152834132424264e+01
 2.632193079341228e+00	 1.085042156030749e+00	 1.154287362515831e+01
 2.621897675833129e+00	 1.109688893437534e+00	 1.155716021444134e+01
 2.611352006615533e+00	 1.134282846714217e+00	 1.157123837941945e+01
 2.600556162768411e+00	 1.158820339898282e+00	 1.158522544154871e+01
 2.589510305085511e+00	 1.183297686231938e+00	 1.159903785145991e+01
 2.578214664618672e+00	 1.207711189765409e+00	 1.161156852914014e+01
 2.566669543179202e+00	 1.232057146983464e+00	 1.162246037598873e+01
 2.681910437556476e+00	 9.900752264265369e-01	 1.147333965005803e+01
 2.672577222486170e+00	 1.014999189767906e+00	 1.148865875612185e+01
 2.662993029256493e+00	 1.039884775744522e+00	 1.150363294493392e+01
 2.653157675606086e+00	 1.064728352151561e+00	 1.151827067229252e+01
 2.643071046679915e+00	 1.089526269762319e+00	 1.153254825018368e+01
 2.632733095737313e+00	 1.114274863832737e+00	 1.154641106962961e+01
 2.622143844821355e+00	 1.138970455633999e+00	 1.155994507015056e+01
 2.611303385388403e+00	 1.163609354012062e+00	 1.157323561541390e+01
 2.600211878896709e+00	 1.188187856972994e+00	 1.158626728709307e+01
 2.588869557352967e+00	 1.212702253292890e+00	 1.159891672449496e+01
 2.577276723815762e+00	 1.237148824151127e+00	 1.161003526208017e+01
 2.692948229389072e+00	 9.941500247827888e-01	 1.146316858636828e+01
 2.683576602116959e+00	 1.019176566314522e+00	 1.147874429982440e+01
 2.673952963748448e+00	 1.044164572533906e+00	 1.149382719920252e+01
 2.664077131272052e+00	 1.069110396287241e+00	 1.150842140288159e+01
 2.653948989360027e+00	 1.094010373328889e+00	 1.152250069798853e+01
 2.643568491079334e+00	 1.118860823831997e+00	 1.153601913481770e+01
 2.632935658563763e+00	 1.143658053927394e+00	 1.154909234112459e+01
 2.622050583646077e+00	 1.168398357269548e+00	 1.156178086293998e+01
 2.610913428449023e+00	 1.193078016628424e+00	 1.157407821706180e+01
 2.599524425934147e+00	 1.217693305506024e+00	 1.158595553564749e+01
 2.587883880407314e+00	 1.242240489776370e+00	 1.159723468906014e+01
 2.703985993073250e+00	 9.982248127474883e-01	 1.145309990793091e+01
 2.694575953697262e+00	 1.023353932207928e+00	 1.146889468261549e+01
 2.684912870290482e+00	 1.048444358408822e+00	 1.148407919696225e+01
 2.674996559091289e+00	 1.073492429247636e+00	 1.149865012262314e+01
 2.664826904299238e+00	 1.098494465459839e+00	 1.151257620403675e+01
 2.654403858788917e+00	 1.123446772135824e+00	 1.152582458824513e+01
 2.643727444784830e+00	 1.148345640266108e+00	 1.153852212703205e+01
 2.632797754496136e+00	 1.173187348313711e+00	 1.155071271023666e+01
 2.621614950710081e+00	 1.197968163812535e+00	 1.156239865930031e+01
 2.610179267343060e+00	 1.222684344990533e+00	 1.157356302248681e+01
 2.598491009948212e+00	 1.247332142416412e+00	 1.158416910402450e+01
 2.492418857937370e+00	 1.196415204815757e+00	 1.170648381088785e+01
 2.480967788569533e+00	 1.219983667155881e+00	 1.171803119958515e+01
 2.469275329709475e+00	 1.243479352943306e+00	 1.172778801749326e+01
 2.457341981058978e+00	 1.266898653981852e+00	 1.173593063346074e+01
 2.445168312506441e+00	 1.290237961202481e+00	 1.174266278264870e+01
 2.432754964393182e+00	 1.313493666335046e+00	 1.174820907096949e+01
 2.420102647732916e+00	 1.336662163594454e+00	 1.175280776192024e+01
 2.407212144383703e+00	 1.359739851379730e+00	 1.175670286484720e+01
 2.394084307171726e+00	 1.382723133984473e+00	 1.176013554899492e+01
 2.380720059966321e+00	 1.405608423317110e+00	 1.176333491301908e+01
 2.367120397705719e+00	 1.428392140629360e+00	 1.176650814494027e+01
 2.503026122730883e+00	 1.201506922382463e+00	 1.169415759533860e+01
 2.491526319770722e+00	 1.225175687655220e+00	 1.170541493344951e+01
 2.479784100010127e+00	 1.248771366651887e+00	 1.171504363748871e+01
 2.467799965277523e+00	 1.272290335820497e+00	 1.172319003116232e+01
 2.455574487886643e+00	 1.295728970732510e+00	 1.173002983809426e+01
 2.443108310903988e+00	 1.319083647761680e+00	 1.173576159177739e+01
 2.430402148369213e+00	 1.342350745777386e+00	 1.174059930478067e+01
 2.417456785467826e+00	 1.365526647850940e+00	 1.174476441648430e+01
 2.404273078655475e+00	 1.388607742973304e+00	 1.174847704407932e+01
 2.390851955733320e+00	 1.411590427782686e+00	 1.175194656704103e+01
 2.377194415873860e+00	 1.434471108300340e+00	 1.175536158073089e+01
 2.513633384518913e+00	 1.206598638506224e+00	 1.168209294762837e+01
 2.502084847980278e+00	 1.230367706683148e+00	 1.169300023712782e+01
 2.490292867333295e+00	 1.254063378860674e+00	 1.170243934174478e+01
 2.478257946533023e+00	 1.277682016131054e+00	 1.171052957197580e+01
 2.465980660318541e+00	 1.301219978706255e+00	 1.171742129375863e+01
 2.453461654481518e+00	 1.324673627603937e+00	 1.172328923388033e+01
 2.440701646087554e+00	 1.348039326347961e+00	 1.172832502147606e+01
 2.427701423649594e+00	 1.371313442681923e+00	 1.173272898514929e+01
 2.414461847252758e+00	 1.394492350294168e+00	 1.173670123085547e+01
 2.400983848630019e+00	 1.417572430552678e+00	 1.174043203131560e+01
 2.387268431188149e+00	 1.440550074248259e+00	 1.174409156332066e+01
 2.524240640295814e+00	 1.211690351744256e+00	 1.167019676214314e+01
 2.512643370206351e+00	 1.235559722768470e+00	 1.168073461692985e+01
 2.500801628701212e+00	 1.259355388070151e+00	 1.168995751037513e+01
 2.488715921862095e+00	 1.283073693385782e+00	 1.169796074086014e+01
 2.476386826853412e+00	 1.306710983567847e+00	 1.170487194566392e+01
 2.463814992192003e+00	 1.330263604277920e+00	 1.171084429180236e+01
 2.451001137969407e+00	 1.353727903694352e+00	 1.171604887975263e+01
 2.437946056026007e+00	 1.377100234233043e+00	 1.172066637987255e+01
 2.424650610076394e+00	 1.400376954279721e+00	 1.172487792708854e+01
 2.411115735785343e+00	 1.423554429932161e+00	 1.172885530520055e+01
 2.397342440793899e+00	 1.446629036750722e+00	 1.173275045790039e+01
 2.534847887055940e+00	 1.216782060653778e+00	 1.165837669352478e+01
 2.523201883457089e+00	 1.240751734439991e+00	 1.166856560053447e+01
 2.511310381136115e+00	 1.264647392780803e+00	 1.167757989317893e+01
 2.499173888301345e+00	 1.288465366056938e+00	 1.168549382868109e+01
 2.486792984542527e+00	 1.312201983761410e+00	 1.169241492053359e+01
 2.474168321101670e+00	 1.335853576199724e+00	 1.169847700477071e+01
 2.461300621096245e+00	 1.359416476204739e+00	 1.170383249586559e+01
 2.448190679694072e+00	 1.382887020864663e+00	 1.170864385236322e+01
 2.434839364239199e+00	 1.406261553262625e+00	 1.171307427827690e+01
 2.421247614328218e+00	 1.429536424226206e+00	 1.171727769220589e+01
 2.407416441836427e+00	 1.452707994085336e+00	 1.172138800203467e+01
 2.545455121793645e+00	 1.221873763792007e+00	 1.164654112005614e+01
 2.533760384740643e+00	 1.245943740226520e+00	 1.165644071298530e+01
 2.521819121660236e+00	 1.269939391493114e+00	 1.166528759624111e+01
 2.509631842887382e+00	 1.293857032616779e+00	 1.167313792740011e+01
 2.497199130437163e+00	 1.317692977731075e+00	 1.168008167754469e+01
 2.484521638276746e+00	 1.341443541785453e+00	 1.168623556299753e+01
 2.471600092549537e+00	 1.365105042267297e+00	 1.169173514335163e+01
 2.458435291750787e+00	 1.388673800937144e+00	 1.169672610622871e+01
 2.445028106854001e+00	 1.412146145575539e+00	 1.170135476527202e+01
 2.431379481387567e+00	 1.435518411739888e+00	 1.170575780396662e+01
 2.417490431461048e+00	 1.458786944529706e+00	 1.171005130394023e+01
 2.556062341503281e+00	 1.226965459716164e+00	 1.163459910787436e+01
 2.544318871065159e+00	 1.251135738656860e+00	 1.164430745317118e+01
 2.532327847295812e+00	 1.275231382707571e+00	 1.165306106872330e+01
 2.520089782656820e+00	 1.299248691537564e+00	 1.166090092520756e+01
 2.507605261588593e+00	 1.323183963920969e+00	 1.166790200982648e+01
 2.494874940783462e+00	 1.347033499451207e+00	 1.167416611356017e+01
 2.481899549410756e+00	 1.370793600270203e+00	 1.167981376130045e+01
 2.468679889293154e+00	 1.394460572810849e+00	 1.168497530564331e+01
 2.455216835033612e+00	 1.418030729551123e+00	 1.168978121134734e+01
 2.441511334092315e+00	 1.441500390778278e+00	 1.169435156371367e+01
 2.427564406813078e+00	 1.464865886361436e+00	 1.169878484036151e+01
 2.566669543179202e+00	 1.232057146983464e+00	 1.162246037598873e+01
 2.554877339438788e+00	 1.256327728259820e+00	 1.163211327077848e+01
 2.542836555065074e+00	 1.280523364924655e+00	 1.164088008983963e+01
 2.530547704646265e+00	 1.304640341291548e+00	 1.164878950160174e+01
 2.518011375048094e+00	 1.328674940775220e+00	 1.165590404571331e+01
 2.505228225688044e+00	 1.352623447613085e+00	 1.166231276589124e+01
 2.492198988761373e+00	 1.376482148601635e+00	 1.166812296214014e+01
 2.478924469418174e+00	 1.400247334846138e+00	 1.167345108348238e+01
 2.465405545890854e+00	 1.423915303522036e+00	 1.167841278873233e+01
 2.451643169571387e+00	 1.447482359646450e+00	 1.168311220925797e+01
 2.437638365037832e+00	 1.470944817858133e+00	 1.168763045405543e+01
 2.577276723815762e+00	 1.237148824151127e+00	 1.161003526208017e+01
 2.565435786869680e+00	 1.261519707564204e+00	 1.161980554370115e+01
 2.553345241990259e+00	 1.285815336644854e+00	 1.162872375601282e+01
 2.541005605892328e+00	 1.310031980350991e+00	 1.163680912241588e+01
 2.528417467866937e+00	 1.334165906737958e+00	 1.164411424975935e+01
 2.515581490056723e+00	 1.358213384687185e+00	 1.165071759689076e+01
 2.502498407682857e+00	 1.382170685649768e+00	 1.165671503895068e+01
 2.489169029222851e+00	 1.406034085403376e+00	 1.166221054893776e+01
 2.475594236538548e+00	 1.429799865820940e+00	 1.166730602462750e+01
 2.461774984953708e+00	 1.453464316649477e+00	 1.167209029550219e+01
 2.447712303280625e+00	 1.477023737297402e+00	 1.167662735089733e+01
 2.587883880407314e+00	 1.242240489776370e+00	 1.159723468906014e+01
 2.575994210365982e+00	 1.266711675098819e+00	 1.160733155589622e+01
 2.563853905093601e+00	 1.291107296368652e+00	 1.161657046820526e+01
 2.551463483431620e+00	 1.315423607188149e+00	 1.162496403479459e+01
 2.538823537096400e+00	 1.339656860253307e+00	 1.163255742352171e+01
 2.525934730955726e+00	 1.363803309089610e+00	 1.163942065567076e+01
 2.512797803256681e+00	 1.387859209802781e+00	 1.164563997231952e+01
 2.499413565804184e+00	 1.411820822842924e+00	 1.165130829462961e+01
 2.485782904089512e+00	 1.435684414780492e+00	 1.165651480671594e+01
 2.471906777368202e+00	 1.459446260092431e+00	 1.166133369649405e+01
 2.457786218686773e+00	 1.483102642956848e+00	 1.166581457046910e+01
 2.598491009948212e+00	 1.247332142416412e+00	 1.158416910402450e+01
 2.586552606935843e+00	 1.271903629392471e+00	 1.159463847567173e+01
 2.574362541397337e+00	 1.296399242596534e+00	 1.160439791942050e+01
 2.561921334300750e+00	 1.320815220275281e+00	 1.161325726212173e+01
 2.549229579787756e+00	 1.345147799765399e+00	 1.162125670611955e+01
 2.536287945451283e+00	 1.369393219236460e+00	 1.162845996794373e+01
 2.523097172564315e+00	 1.393547719448849e+00	 1.163494543675263e+01
 2.509658076259177e+00	 1.417607545525144e+00	 1.164079640322964e+01
 2.495971545656569e+00	 1.441568948733354e+00	 1.164609038818589e+01
 2.482038543943793e+00	 1.465428188280387e+00	 1.165088760703490e+01
 2.467860108401592e+00	 1.489181533114077e+00	 1.165527008934280e+01
 2.367120397705719e+00	 1.428392140629360e+00	 1.176650814494027e+01
 2.353286386944889e+00	 1.451070718703424e+00	 1.176865262293198e+01
 2.339219167487019e+00	 1.473640604976401e+00	 1.176847275076908e+01
 2.324919950524251e+00	 1.496098261975291e+00	 1.176605525420509e+01
 2.310390017884411e+00	 1.518440168614919e+00	 1.176248253666617e+01
 2.295630721800916e+00	 1.540662821940666e+00	 1.175761408648103e+01
 2.280643484631514e+00	 1.562762738869191e+00	 1.175113613506555e+01
 2.265429798525814e+00	 1.584736457925410e+00	 1.174266690478303e+01
 2.249991225041550e+00	 1.606580540974004e+00	 1.173174978496015e+01
 2.234329394709660e+00	 1.628291574943675e+00	 1.171784625099149e+01
 2.218446006548291e+00	 1.649866173542431e+00	 1.170033942986059e+01
 2.377194415873860e+00	 1.434471108300340e+00	 1.175536158073089e+01
 2.363301530171128e+00	 1.457246202127075e+00	 1.175756618319055e+01
 2.349174443279099e+00	 1.479912141580957e+00	 1.175715815638970e+01
 2.334814371544520e+00	 1.502465374134159e+00	 1.175466949835087e+01
 2.320222602250436e+00	 1.524902363716432e+00	 1.175092862830859e+01
 2.305400493385115e+00	 1.547219592465241e+00	 1.174575170012176e+01
 2.290349473359593e+00	 1.569413562473891e+00	 1.173889156097139e+01
 2.275071040673786e+00	 1.591480797535916e+00	 1.173003531210985e+01
 2.259566763531122e+00	 1.613417844883934e+00	 1.171879728174661e+01
 2.243838279401774e+00	 1.635221276921258e+00	 1.170471172486726e+01
 2.227887294534590e+00	 1.656887692944472e+00	 1.168722527360622e+01
 2.387268431188149e+00	 1.440550074248259e+00	 1.174409156332066e+01
 2.373316670560235e+00	 1.463421683800331e+00	 1.174638100913569e+01
 2.359129716251044e+00	 1.486183676407925e+00	 1.174583553844039e+01
 2.344708789761923e+00	 1.508832484488396e+00	 1.174341954833187e+01
 2.330055183831138e+00	 1.531364556986418e+00	 1.173956982571283e+01
 2.315170262201806e+00	 1.553776361131542e+00	 1.173415801281619e+01
 2.300055459338249e+00	 1.576064384193727e+00	 1.172699925104664e+01
 2.284712280090689e+00	 1.598225135235118e+00	 1.171784526606116e+01
 2.269142299308250e+00	 1.620255146856277e+00	 1.170637714253971e+01
 2.253347161400338e+00	 1.642150976935130e+00	 1.169219780933979e+01
 2.237328579846497e+00	 1.663909210356837e+00	 1.167482425894258e+01
 2.397342440793899e+00	 1.446629036750722e+00	 1.173275045790039e+01
 2.383331805274203e+00	 1.469597161973452e+00	 1.173513496081812e+01
 2.369084983581802e+00	 1.492455207680349e+00	 1.173460718145808e+01
 2.354603202372651e+00	 1.515199591233960e+00	 1.173229314933256e+01
 2.339887759840229e+00	 1.537826746593891e+00	 1.172837844926446e+01
 2.324940025482499e+00	 1.560333126081780e+00	 1.172279017330806e+01
 2.309761439817068e+00	 1.582715202144249e+00	 1.171540148737578e+01
 2.294353514044461e+00	 1.604969469112063e+00	 1.170602454032915e+01
 2.278717829659495e+00	 1.627092444953734e+00	 1.169440304563846e+01
 2.262856038010799e+00	 1.649080673021802e+00	 1.168020455647380e+01
 2.246769859808619e+00	 1.670930723790016e+00	 1.166301245840772e+01
 2.407416441836427e+00	 1.452707994085336e+00	 1.172138800203467e+01
 2.393346931475019e+00	 1.475772634896697e+00	 1.172386338207817e+01
 2.379040242450324e+00	 1.498726733621274e+00	 1.172347818936291e+01
 2.364497606572896e+00	 1.521566692566813e+00	 1.172127575385430e+01
 2.349720327491422e+00	 1.544288930707862e+00	 1.171732478610418e+01
 2.334709780458707e+00	 1.566889885458164e+00	 1.171160354430806e+01
 2.319467412045639e+00	 1.589366014441010e+00	 1.170403899982298e+01
 2.303994739803039e+00	 1.611713797255798e+00	 1.169449957565710e+01
 2.288293351871410e+00	 1.633929737239000e+00	 1.168278754001304e+01
 2.272364906538608e+00	 1.656010363217788e+00	 1.166863107589816e+01
 2.256211131745565e+00	 1.677952231254504e+00	 1.165167605124022e+01
 2.417490431461048e+00	 1.458786944529706e+00	 1.171005130394023e+01
 2.403362046324679e+00	 1.481948100820329e+00	 1.171259937412844e+01
 2.388995490035565e+00	 1.504998252453745e+00	 1.171244695291328e+01
 2.374391999558850e+00	 1.527933786682914e+00	 1.171035066320788e+01
 2.359552883998429e+00	 1.550751107497346e+00	 1.170637722882421e+01
 2.344479524361943e+00	 1.573446637402901e+00	 1.170055183839411e+01
 2.329173373273548e+00	 1.596016819199562e+00	 1.169285109915120e+01
 2.313635954634359e+00	 1.618458117755369e+00	 1.168319561020809e+01
 2.297868863230558e+00	 1.640767021774777e+00	 1.167144217296956e+01
 2.281873764289214e+00	 1.662940045559599e+00	 1.165737565982904e+01
 2.265652392981941e+00	 1.684973730760790e+00	 1.164070056582815e+01
 2.427564406813078e+00	 1.464865886361436e+00	 1.169878484036151e+01
 2.413377146985172e+00	 1.488123557994608e+00	 1.170142712093265e+01
 2.398950723516470e+00	 1.511269762400804e+00	 1.170150958810337e+01
 2.384286378526705e+00	 1.534300871778223e+00	 1.169949916896010e+01
 2.369385426574963e+00	 1.557213275131355e+00	 1.169550241423547e+01
 2.354249254423717e+00	 1.580003380058203e+00	 1.168958725409586e+01
 2.338879320750382e+00	 1.602667614535455e+00	 1.168177581043627e+01
 2.323277155806358e+00	 1.625202428699825e+00	 1.167203681033544e+01
 2.307444361023494e+00	 1.647604296623762e+00	 1.166027761831947e+01
 2.291382608568064e+00	 1.669869718083748e+00	 1.164633590869587e+01
 2.275093640842355e+00	 1.691995220319368e+00	 1.162997100286491e+01
 2.437638365037832e+00	 1.470944817858133e+00	 1.168763045405543e+01
 2.423392230618489e+00	 1.494299004669795e+00	 1.169040134860449e+01
 2.408905940071994e+00	 1.517541261685496e+00	 1.169066008011034e+01
 2.394180740672652e+00	 1.540667946048700e+00	 1.168870069433448e+01
 2.379217952434739e+00	 1.563675431778904e+00	 1.168466536220190e+01
 2.364018967875541e+00	 1.586560111566276e+00	 1.167866061215737e+01
 2.348585251725730e+00	 1.609318398564242e+00	 1.167075000676637e+01
 2.332918340586973e+00	 1.631946728178211e+00	 1.166094640174270e+01
 2.317019842536777e+00	 1.654441559848655e+00	 1.164920380503791e+01
 2.300891436680609e+00	 1.676799378826745e+00	 1.163540885735156e+01
 2.284534872651415e+00	 1.699016697940729e+00	 1.161937195917975e+01
 2.447712303280625e+00	 1.477023737297402e+00	 1.167662735089733e+01
 2.433407294386623e+00	 1.500474439096151e+00	 1.167952846179537e+01
 2.418861136881085e+00	 1.523812748530866e+00	 1.167989042708387e+01
 2.404075083192883e+00	 1.547035007690305e+00	 1.167793293556655e+01
 2.389050458791466e+00	 1.570137575609004e+00	 1.167382961453942e+01
 2.373788661948928e+00	 1.593116830069332e+00	 1.166772149197131e+01
 2.358291163449177e+00	 1.615969169401476e+00	 1.165970954321754e+01
 2.342559506244140e+00	 1.638691014279573e+00	 1.164984680102017e+01
 2.326595305056966e+00	 1.661278809512152e+00	 1.163813004639577e+01
 2.310400245932299e+00	 1.683729025825105e+00	 1.162449110184883e+01
 2.293976085733730e+00	 1.706038161635364e+00	 1.160878775222212e+01
 2.457786218686773e+00	 1.483102642956848e+00	 1.166581457046910e+01
 2.443422335451564e+00	 1.506649859523938e+00	 1.166881275408551e+01
 2.428816311122695e+00	 1.530084221159957e+00	 1.166919078378139e+01
 2.413969403283589e+00	 1.553402054898998e+00	 1.166717200321355e+01
 2.398882942858860e+00	 1.576599704790670e+00	 1.166295737397616e+01
 2.383558333875389e+00	 1.599673533709576e+00	 1.165671836817895e+01
 2.367997053170313e+00	 1.622619925162708e+00	 1.164858939109610e+01
 2.352200650045796e+00	 1.645435285092961e+00	 1.163865974754633e+01
 2.336170745870617e+00	 1.668116043676955e+00	 1.162696516955072e+01
 2.319909033628581e+00	 1.690658657115337e+00	 1.161347892676557e+01
 2.303417277413905e+00	 1.713059609413766e+00	 1.159810254518029e+01
 2.467860108401592e+00	 1.489181533114077e+00	 1.165527008934280e+01
 2.453437350975304e+00	 1.512825264203416e+00	 1.165825655364903e+01
 2.438771459975773e+00	 1.536355677795815e+00	 1.165854960505235e+01
 2.423863698140964e+00	 1.559769085870740e+00	 1.165639256341896e+01
 2.408715401850632e+00	 1.583061817492916e+00	 1.165200964317107e+01
 2.393327980886439e+00	 1.606230220629221e+00	 1.164559874742978e+01
 2.377702918138723e+00	 1.629270663963490e+00	 1.163732377243912e+01
 2.361841769259878e+00	 1.652179538707420e+00	 1.162730643574266e+01
 2.345746162264290e+00	 1.674953260405760e+00	 1.161561764558292e+01
 2.329417797074905e+00	 1.697588270733955e+00	 1.160226843306201e+01
 2.312858445016549e+00	 1.720081039286427e+00	 1.158720047271447e+01
 2.218446006548291e+00	 1.649866173542431e+00	 1.170033942986059e+01
 2.202340072750562e+00	 1.671304608989089e+00	 1.168160037188597e+01
 2.186016117720220e+00	 1.692599862165852e+00	 1.166396271320164e+01
 2.169476052637611e+00	 1.713748623335992e+00	 1.164688974629699e+01
 2.152721854809824e+00	 1.734747616244839e+00	 1.162983962121467e+01
 2.135755566929481e+00	 1.755593599771605e+00	 1.161225137295942e+01
 2.118579296284484e+00	 1.776283369561847e+00	 1.159353020879244e+01
 2.101195213919337e+00	 1.796813759638892e+00	 1.157303214586705e+01
 2.083605553748703e+00	 1.817181643992534e+00	 1.155004809634105e+01
 2.065812611623925e+00	 1.837383938143343e+00	 1.152378750326153e+01
 2.047818744353316e+00	 1.857417600680966e+00	 1.149357566887889e+01
 2.227887294534590e+00	 1.656887692944472e+00	 1.168722527360622e+01
 2.211712816918769e+00	 1.678417366330903e+00	 1.166861601771399e+01
 2.195319390213070e+00	 1.699803248090708e+00	 1.165135651271857e+01
 2.178708933731462e+00	 1.721042014401541e+00	 1.163484432166171e+01
 2.161883433196082e+00	 1.742130375065607e+00	 1.161844860855481e+01
 2.144844939992865e+00	 1.763065075168515e+00	 1.160151788933602e+01
 2.127595570377936e+00	 1.783842896718690e+00	 1.158336500423763e+01
 2.110137504635358e+00	 1.804460660265658e+00	 1.156325141814029e+01
 2.092472986186914e+00	 1.824915226495499e+00	 1.154037094835619e+01
 2.074604320654655e+00	 1.845203497801816e+00	 1.151383302563109e+01
 2.056533874877030e+00	 1.865322419830585e+00	 1.148384753245267e+01
 2.237328579846497e+00	 1.663909210356837e+00	 1.167482425894258e+01
 2.221085558432012e+00	 1.685530121657233e+00	 1.165651904194520e+01
 2.204622660070644e+00	 1.707006631974438e+00	 1.163967219560239e+01
 2.187941812209985e+00	 1.728335403400494e+00	 1.162371137071460e+01
 2.171045008987214e+00	 1.749513131794487e+00	 1.160792451319255e+01
 2.153934310481581e+00	 1.770536548448427e+00	 1.159157774773837e+01
 2.136611841917428e+00	 1.791402421733615e+00	 1.157390001636517e+01
 2.119079792818369e+00	 1.812107558725777e+00	 1.155406702135178e+01
 2.101340416113306e+00	 1.832648806807286e+00	 1.153118457444445e+01
 2.083396027194999e+00	 1.853023055244784e+00	 1.150427883563581e+01
 2.065249002932026e+00	 1.873227236740580e+00	 1.147512487558330e+01
 2.246769859808619e+00	 1.670930723790016e+00	 1.166301245840772e+01
 2.230458294634323e+00	 1.692642872952716e+00	 1.164510917467208e+01
 2.213925924656666e+00	 1.714210011776002e+00	 1.162873099343492e+01
 2.197174685456854e+00	 1.735628788266310e+00	 1.161331076329263e+01
 2.180206579587106e+00	 1.756895884339617e+00	 1.159808862736654e+01
 2.163023675819980e+00	 1.778008017494345e+00	 1.158225636621904e+01
 2.145628108348027e+00	 1.798961942464675e+00	 1.156496741245724e+01
 2.128022075934412e+00	 1.819754452852546e+00	 1.154532041607000e+01
 2.110207841015147e+00	 1.840382382736631e+00	 1.152234219368253e+01
 2.092187728753694e+00	 1.860842608256618e+00	 1.149540293375144e+01
 2.073964126048751e+00	 1.881132049171158e+00	 1.146717604397830e+01
 2.256211131745565e+00	 1.677952231254504e+00	 1.165167605124022e+01
 2.239831022869738e+00	 1.699755618201991e+00	 1.163420063391330e+01
 2.223229181334861e+00	 1.721413385454357e+00	 1.161835187518650e+01
 2.206407550855746e+00	 1.742922166932446e+00	 1.160346034067971e+01
 2.189368142399646e+00	 1.764278630609136e+00	 1.158876014875088e+01
 2.172113033432415e+00	 1.785479480189270e+00	 1.157337694385418e+01
 2.154644367114809e+00	 1.806521456769926e+00	 1.155639696012177e+01
 2.136964351449534e+00	 1.827401340479265e+00	 1.153685042841170e+01
 2.119075258379703e+00	 1.848115952092271e+00	 1.151369410413258e+01
 2.100979422839472e+00	 1.868662154621691e+00	 1.148722877699016e+01
 2.082679241757654e+00	 1.889036854882527e+00	 1.145977232690480e+01
 2.265652392981941e+00	 1.684973730760790e+00	 1.164070056582815e+01
 2.249203740482292e+00	 1.706868355389696e+00	 1.162366734655098e+01
 2.232532427468953e+00	 1.728616750968463e+00	 1.160833950717576e+01
 2.215640405790337e+00	 1.750215537332361e+00	 1.159397606400971e+01
 2.198529694828717e+00	 1.771661368511180e+00	 1.157975632787992e+01
 2.181202380743237e+00	 1.792950934416206e+00	 1.156476060796783e+01
 2.163660615662848e+00	 1.814080962507424e+00	 1.154801617506239e+01
 2.145906616829781e+00	 1.835048219439233e+00	 1.152849339907074e+01
 2.127942665694243e+00	 1.855849512682943e+00	 1.150515504265174e+01
 2.109771106961072e+00	 1.876481692124375e+00	 1.147951504304702e+01
 2.091394347589183e+00	 1.896941651634898e+00	 1.145268811680388e+01
 2.275093640842355e+00	 1.691995220319368e+00	 1.162997100286491e+01
 2.258576444816018e+00	 1.713981082500469e+00	 1.161338341418313e+01
 2.241835660422667e+00	 1.735820106277280e+00	 1.159853832990207e+01
 2.224873247644302e+00	 1.757508897399510e+00	 1.158467204306525e+01
 2.207691234278206e+00	 1.779044095953888e+00	 1.157089261642605e+01
 2.190291715176799e+00	 1.800422378058155e+00	 1.155622656218514e+01
 2.172676851437213e+00	 1.821640457535224e+00	 1.153965046962937e+01
 2.154848869541196e+00	 1.842695087565750e+00	 1.152008333305813e+01
 2.136810060446031e+00	 1.863583062317385e+00	 1.149691799349111e+01
 2.118562778627227e+00	 1.884301218549043e+00	 1.147202398632158e+01
 2.100109441073785e+00	 1.904846437188476e+00	 1.144570106925010e+01
 2.284534872651415e+00	 1.699016697940729e+00	 1.161937195917975e+01
 2.267949133214952e+00	 1.721093797518948e+00	 1.160322265838550e+01
 2.251138877559729e+00	 1.743023449339765e+00	 1.158881417454557e+01
 2.234106073801318e+00	 1.764802245067354e+00	 1.157537244262491e+01
 2.216852758151998e+00	 1.786426810845398e+00	 1.156198281630460e+01
 2.199381034157453e+00	 1.807893808998120e+00	 1.154759223528909e+01
 2.181693071882978e+00	 1.829199939711382e+00	 1.153112330212859e+01
 2.163791107049825e+00	 1.850341942692113e+00	 1.151145205013243e+01
 2.145677440122336e+00	 1.871316598804333e+00	 1.148880015698118e+01
 2.127354435346673e+00	 1.892120731680067e+00	 1.146452159450297e+01
 2.108824519741909e+00	 1.912751209303471e+00	 1.143859226324412e+01
 2.293976085733730e+00	 1.706038161635364e+00	 1.160878775222212e+01
 2.277321803023128e+00	 1.728206498429772e+00	 1.159305874338116e+01
 2.260442076243860e+00	 1.750226778114879e+00	 1.157903278114159e+01
 2.243338881645059e+00	 1.772095578269349e+00	 1.156593298522676e+01
 2.226014263853979e+00	 1.793809511093848e+00	 1.155284133559227e+01
 2.208470335109550e+00	 1.815365225119104e+00	 1.153867343085674e+01
 2.190709274445218e+00	 1.836759406893951e+00	 1.152225632686500e+01
 2.172733326821713e+00	 1.857988782651623e+00	 1.150254405834936e+01
 2.154544802210425e+00	 1.879050119952526e+00	 1.148055831144052e+01
 2.136146074628146e+00	 1.899940229301821e+00	 1.145677774559991e+01
 2.117539581124003e+00	 1.920655965740091e+00	 1.143114636182636e+01
 2.303417277413905e+00	 1.713059609413766e+00	 1.159810254518029e+01
 2.286694451584582e+00	 1.735319183217578e+00	 1.158276529941450e+01
 2.269745253838789e+00	 1.757430090561579e+00	 1.156905992104644e+01
 2.252571668559201e+00	 1.779388894938953e+00	 1.155621418130091e+01
 2.235175748788034e+00	 1.801192194607376e+00	 1.154331300379994e+01
 2.217559615457443e+00	 1.822836624304109e+00	 1.152928447765125e+01
 2.199725456569003e+00	 1.844318856940990e+00	 1.151286954489889e+01
 2.181675526322905e+00	 1.865635605277578e+00	 1.149338454299900e+01
 2.163412144197565e+00	 1.886783623570700e+00	 1.147195353738566e+01
 2.144937693980381e+00	 1.907759709198676e+00	 1.144856636540073e+01
 2.126254622750514e+00	 1.928560704258546e+00	 1.142315177300048e+01
 2.312858445016549e+00	 1.720081039286427e+00	 1.158720047271447e+01
 2.296067076243346e+00	 1.742431849867006e+00	 1.157221604680847e+01
 2.279048407708240e+00	 1.764633384638827e+00	 1.155876152013082e+01
 2.261804431927421e+00	 1.786682193009624e+00	 1.154607670740140e+01
 2.244337210358050e+00	 1.808574859294120e+00	 1.153325716571894e+01
 2.226648872625485e+00	 1.830308004436139e+00	 1.151924363789503e+01
 2.208741615699407e+00	 1.851878287710552e+00	 1.150278145549308e+01
 2.190617703019448e+00	 1.873282408403278e+00	 1.148373598466686e+01
 2.172279463571021e+00	 1.894517107467591e+00	 1.146275137258935e+01
 2.153729290912115e+00	 1.915579169155005e+00	 1.143966558534878e+01
 2.134969642151891e+00	 1.936465422619044e+00	 1.141440081095540e+01
 2.047818744353316e+00	 1.857417600680966e+00	 1.149357566887889e+01
 2.029629472374892e+00	 1.877276278747535e+00	 1.146096093398561e+01
 2.011244201427289e+00	 1.896960469819547e+00	 1.142583512869117e+01
 1.992665431166410e+00	 1.916467304497596e+00	 1.138850609139641e+01
 1.973895717804032e+00	 1.935793962279256e+00	 1.134929518141865e+01
 1.954937672927490e+00	 1.954937672927490e+00	 1.130852276898121e+01
 1.935793962279256e+00	 1.973895717804032e+00	 1.126649333621710e+01
 1.916467304497596e+00	 1.992665431166411e+00	 1.122348028916675e+01
 1.896960469819546e+00	 2.011244201427289e+00	 1.117971058383445e+01
 1.877276278747535e+00	 2.029629472374892e+00	 1.113534927181285e+01
 1.857417600680966e+00	 2.047818744353316e+00	 1.109048407276881e+01
 2.056533874877030e+00	 1.865322419830585e+00	 1.148384753245267e+01
 2.038267192785998e+00	 1.885265612687371e+00	 1.145216081358311e+01
 2.019803677591129e+00	 1.905033575965833e+00	 1.141764884595854e+01
 2.001145839586392e+00	 1.924623428054951e+00	 1.138067150235869e+01
 1.982296245862312e+00	 1.944032336448771e+00	 1.134160522923931e+01
 1.963257519120649e+00	 1.963257519120649e+00	 1.130082803387469e+01
 1.944032336448771e+00	 1.982296245862312e+00	 1.125870406363957e+01
 1.924623428054951e+00	 2.001145839586392e+00	 1.121556788025987e+01
 1.905033575965833e+00	 2.019803677591130e+00	 1.117170853505688e+01
 1.885265612687370e+00	 2.038267192785999e+00	 1.112735355374619e+01
 1.865322419830585e+00	 2.056533874877031e+00	 1.108265294121207e+01
 2.065249002932026e+00	 1.873227236740580e+00	 1.147512487558330e+01
 2.046904910750281e+00	 1.893254944363678e+00	 1.144421491429165e+01
 2.028363151330273e+00	 1.913106679824908e+00	 1.141021885548838e+01
 2.009626245604028e+00	 1.932779549301624e+00	 1.137354131450986e+01
 1.990696771540827e+00	 1.952270708284353e+00	 1.133460634066053e+01
 1.971577362956848e+00	 1.971577362956849e+00	 1.129384190203990e+01
 1.952270708284354e+00	 1.990696771540828e+00	 1.125166394349195e+01
 1.932779549301624e+00	 2.009626245604029e+00	 1.120846012339716e+01
 1.913106679824908e+00	 2.028363151330274e+00	 1.116457333833347e+01
 1.893254944363677e+00	 2.046904910750282e+00	 1.112028514726391e+01
 1.873227236740580e+00	 2.065249002932027e+00	 1.107579920884512e+01
 2.073964126048751e+00	 1.881132049171158e+00	 1.146717604397830e+01
 2.055542623820140e+00	 1.901244271512712e+00	 1.143690714124282e+01
 2.036922620219305e+00	 1.921179779109272e+00	 1.140334124743020e+01
 2.018106646816329e+00	 1.940935665926581e+00	 1.136692055645356e+01
 1.999097292459240e+00	 1.960509075451648e+00	 1.132810936878208e+01
 1.979897202078629e+00	 1.979897202078629e+00	 1.128737807420299e+01
 1.960509075451648e+00	 1.999097292459240e+00	 1.124518668853438e+01
 1.940935665926581e+00	 2.018106646816330e+00	 1.120196805294028e+01
 1.921179779109271e+00	 2.036922620219305e+00	 1.115811080791974e+01
 1.901244271512710e+00	 2.055542623820140e+00	 1.111394225676989e+01
 1.881132049171157e+00	 2.073964126048751e+00	 1.106971123533670e+01
 2.082679241757654e+00	 1.889036854882527e+00	 1.145977232690480e+01
 2.064180329547971e+00	 1.909233591870722e+00	 1.143002401690043e+01
 2.045482081832811e+00	 1.929252871531429e+00	 1.139681444219670e+01
 2.026587040820302e+00	 1.949091775618787e+00	 1.136061633792128e+01
 2.007497806237210e+00	 1.968747435616298e+00	 1.132192703540874e+01
 1.988217034128532e+00	 1.988217034128532e+00	 1.128125194286778e+01
 1.968747435616298e+00	 2.007497806237211e+00	 1.123908756065781e+01
 1.949091775618787e+00	 2.026587040820303e+00	 1.119590414280118e+01
 1.929252871531428e+00	 2.045482081832811e+00	 1.115212811989299e+01
 1.909233591870722e+00	 2.064180329547971e+00	 1.110812440139692e+01
 1.889036854882528e+00	 2.082679241757655e+00	 1.106417867740836e+01
 2.091394347589183e+00	 1.896941651634898e+00	 1.145268811680388e+01
 2.072818025486175e+00	 1.917222903173962e+00	 1.142335484430739e+01
 2.054041533745377e+00	 1.937325954803882e+00	 1.139043935610538e+01
 2.035067425212954e+00	 1.957247876067207e+00	 1.135443801661012e+01
 2.015898310494398e+00	 1.976985786443948e+00	 1.131587409792783e+01
 1.996536856749097e+00	 1.996536856749097e+00	 1.127528075811826e+01
 1.976985786443947e+00	 2.015898310494398e+00	 1.123318353453958e+01
 1.957247876067207e+00	 2.035067425212956e+00	 1.119008246692330e+01
 1.937325954803880e+00	 2.054041533745377e+00	 1.114643396847677e+01
 1.917222903173961e+00	 2.072818025486176e+00	 1.110263256623836e+01
 1.896941651634897e+00	 2.091394347589183e+00	 1.105899263408371e+01
 2.100109441073785e+00	 1.904846437188476e+00	 1.144570106925010e+01
 2.081455709187146e+00	 1.925212203158682e+00	 1.141669187055085e+01
 2.062600973531590e+00	 1.945399026639133e+00	 1.138401956713803e+01
 2.043547797591297e+00	 1.965403964960807e+00	 1.134819736506505e+01
 2.024298802850466e+00	 1.985224125600239e+00	 1.130976751618192e+01
 2.004856667582865e+00	 2.004856667582865e+00	 1.126928379339100e+01
 1.985224125600239e+00	 2.024298802850466e+00	 1.122729346126749e+01
 1.965403964960807e+00	 2.043547797591297e+00	 1.118431885975201e+01
 1.945399026639132e+00	 2.062600973531590e+00	 1.114083872239639e+01
 1.925212203158682e+00	 2.081455709187148e+00	 1.109726935367274e+01
 1.904846437188476e+00	 2.100109441073785e+00	 1.105394579211181e+01
 2.108824519741909e+00	 1.912751209303471e+00	 1.143859226324412e+01
 2.090093378203287e+00	 1.933201489561136e+00	 1.140983045043697e+01
 2.071160398766034e+00	 1.953472084749686e+00	 1.137736148081282e+01
 2.052028155552334e+00	 1.973560039988553e+00	 1.134170873760147e+01
 2.032699280925073e+00	 1.993462450750816e+00	 1.130342661933451e+01
 2.013176464272376e+00	 2.013176464272376e+00	 1.126308251121685e+01
 1.993462450750815e+00	 2.032699280925074e+00	 1.122123823193122e+01
 1.973560039988552e+00	 2.052028155552334e+00	 1.117843107669219e+01
 1.953472084749685e+00	 2.071160398766035e+00	 1.113515458126250e+01
 1.933201489561134e+00	 2.090093378203287e+00	 1.109183913477662e+01
 1.912751209303471e+00	 2.108824519741909e+00	 1.104883257155796e+01
 2.117539581124003e+00	 1.920655965740091e+00	 1.143114636182636e+01
 2.098731030086993e+00	 1.941190760117574e+00	 1.140256921036719e+01
 2.079719807023297e+00	 1.961545126848044e+00	 1.137027449616371e+01
 2.060508496693077e+00	 1.981716098839410e+00	 1.133478923726526e+01
 2.041099742337882e+00	 2.001700759561321e+00	 1.129667327272695e+01
 2.021496244460172e+00	 2.021496244460172e+00	 1.125650072893022e+01
 2.001700759561320e+00	 2.041099742337883e+00	 1.121484094118020e+01
 1.981716098839409e+00	 2.060508496693077e+00	 1.117223895455204e+01
 1.961545126848044e+00	 2.079719807023298e+00	 1.112919573198005e+01
 1.941190760117573e+00	 2.098731030086993e+00	 1.108614820082176e+01
 1.920655965740091e+00	 2.117539581124003e+00	 1.104344927155542e+01
 2.126254622750514e+00	 1.928560704258546e+00	 1.142315177300048e+01
 2.107368662390662e+00	 1.949180012564250e+00	 1.139471021240806e+01
 2.088279195877965e+00	 1.969618150646710e+00	 1.136257117182142e+01
 2.068988818610531e+00	 1.989872139202343e+00	 1.132725888282689e+01
 2.049500184708554e+00	 2.009939049697398e+00	 1.128933204472466e+01
 2.029816005788792e+00	 2.029816005788792e+00	 1.124936478434515e+01
 2.009939049697399e+00	 2.049500184708554e+00	 1.120792705074674e+01
 1.989872139202342e+00	 2.068988818610532e+00	 1.116556457197079e+01
 1.969618150646710e+00	 2.088279195877965e+00	 1.112277850518009e+01
 1.949180012564249e+00	 2.107368662390663e+00	 1.108000491485183e+01
 1.928560704258546e+00	 2.126254622750514e+00	 1.103759421621138e+01
 2.134969642151891e+00	 1.936465422619044e+00	 1.141440081095540e+01
 2.116006272666695e+00	 1.957169244637414e+00	 1.138605911854657e+01
 2.096838562904624e+00	 1.977691153858187e+00	 1.135406739219145e+01
 2.077469118901708e+00	 1.998028158766317e+00	 1.131894077580649e+01
 2.057900605656748e+00	 2.018177318824693e+00	 1.128123037355081e+01
 2.038135745900778e+00	 2.038135745900777e+00	 1.124150370139694e+01
 2.018177318824692e+00	 2.057900605656749e+00	 1.120032455293338e+01
 1.998028158766317e+00	 2.077469118901708e+00	 1.115823240982948e+01
 1.977691153858187e+00	 2.096838562904624e+00	 1.111572153167150e+01
 1.957169244637413e+00	 2.116006272666695e+00	 1.107321986333477e+01
 1.936465422619043e+00	 2.134969642151891e+00	 1.103106790066121e+01
 1.857417600680966e+00	 2.047818744353316e+00	 1.109048407276881e+01
 1.837383938143343e+00	 2.065812611623924e+00	 1.104417668983776e+01
 1.817181643992535e+00	 2.083605553748702e+00	 1.099632223677339e+01
 1.796813759638892e+00	 2.101195213919335e+00	 1.094706970052982e+01
 1.776283369561846e+00	 2.118579296284482e+00	 1.089647002268947e+01
 1.755593599771606e+00	 2.135755566929480e+00	 1.084451376815413e+01
 1.734747616244840e+00	 2.152721854809824e+00	 1.079110247638963e+01
 1.713748623335992e+00	 2.169476052637610e+00	 1.073602048183353e+01
 1.692599862165853e+00	 2.186016117720219e+00	 1.067890742455153e+01
 1.671304608989090e+00	 2.202340072750561e+00	 1.061923166833980e+01
 1.649866173542431e+00	 2.218446006548291e+00	 1.055626483811577e+01
 1.865322419830585e+00	 2.056533874877031e+00	 1.108265294121207e+01
 1.845203497801817e+00	 2.074604320654654e+00	 1.103645004734775e+01
 1.824915226495501e+00	 2.092472986186913e+00	 1.098876777072780e+01
 1.804460660265659e+00	 2.110137504635358e+00	 1.094000349265793e+01
 1.783842896718691e+00	 2.127595570377936e+00	 1.089013965232150e+01
 1.763065075168516e+00	 2.144844939992864e+00	 1.083909631930467e+01
 1.742130375065608e+00	 2.161883433196081e+00	 1.078670166708695e+01
 1.721042014401542e+00	 2.178708933731461e+00	 1.073266292241774e+01
 1.699803248090708e+00	 2.195319390213069e+00	 1.067653801817637e+01
 1.678417366330904e+00	 2.211712816918769e+00	 1.061770817335520e+01
 1.656887692944472e+00	 2.227887294534590e+00	 1.055529199977758e+01
 1.873227236740580e+00	 2.065249002932027e+00	 1.107579920884512e+01
 1.853023055244785e+00	 2.083396027194998e+00	 1.102997088036076e+01
 1.832648806807287e+00	 2.101340416113305e+00	 1.098246607198794e+01
 1.812107558725778e+00	 2.119079792818368e+00	 1.093417078171136e+01
 1.791402421733616e+00	 2.136611841917427e+00	 1.088501020734885e+01
 1.770536548448427e+00	 2.153934310481580e+00	 1.083484299235539e+01
 1.749513131794488e+00	 2.171045008987213e+00	 1.078343321028659e+01
 1.728335403400495e+00	 2.187941812209983e+00	 1.073042040383046e+01
 1.707006631974439e+00	 2.204622660070643e+00	 1.067529034039957e+01
 1.685530121657234e+00	 2.221085558432011e+00	 1.061734671454643e+01
 1.663909210356837e+00	 2.237328579846497e+00	 1.055519675779313e+01
 1.881132049171157e+00	 2.073964126048751e+00	 1.106971123533670e+01
 1.860842608256619e+00	 2.092187728753693e+00	 1.102435895807478e+01
 1.840382382736631e+00	 2.110207841015146e+00	 1.097717240332679e+01
 1.819754452852548e+00	 2.128022075934413e+00	 1.092932651956407e+01
 1.798961942464676e+00	 2.145628108348026e+00	 1.088083882003802e+01
 1.778008017494345e+00	 2.163023675819979e+00	 1.083151556781571e+01
 1.756895884339618e+00	 2.180206579587106e+00	 1.078106597895151e+01
 1.735628788266312e+00	 2.197174685456853e+00	 1.072907131135619e+01
 1.714210011776002e+00	 2.213925924656666e+00	 1.067495468314416e+01
 1.692642872952716e+00	 2.230458294634322e+00	 1.061773593959085e+01
 1.670930723790017e+00	 2.246769859808620e+00	 1.055563165959933e+01
 1.889036854882528e+00	 2.082679241757655e+00	 1.106417867740836e+01
 1.868662154621691e+00	 2.100979422839471e+00	 1.101930813556504e+01
 1.848115952092272e+00	 2.119075258379702e+00	 1.097264117170189e+01
 1.827401340479266e+00	 2.136964351449534e+00	 1.092522451260628e+01
 1.806521456769927e+00	 2.154644367114809e+00	 1.087738112646894e+01
 1.785479480189271e+00	 2.172113033432414e+00	 1.082887392190136e+01
 1.764278630609136e+00	 2.189368142399645e+00	 1.077936647994376e+01
 1.742922166932447e+00	 2.206407550855745e+00	 1.072839115244077e+01
 1.721413385454358e+00	 2.223229181334861e+00	 1.067531359158601e+01
 1.699755618201991e+00	 2.239831022869737e+00	 1.061827059019117e+01
 1.677952231254504e+00	 2.256211131745565e+00	 1.055627997175020e+01
 1.896941651634897e+00	 2.091394347589183e+00	 1.105899263408371e+01
 1.876481692124375e+00	 2.109771106961071e+00	 1.101459996255231e+01
 1.855849512682944e+00	 2.127942665694242e+00	 1.096860218237818e+01
 1.835048219439234e+00	 2.145906616829780e+00	 1.092161785831453e+01
 1.814080962507425e+00	 2.163660615662847e+00	 1.087439169489205e+01
 1.792950934416206e+00	 2.181202380743236e+00	 1.082667644724306e+01
 1.771661368511180e+00	 2.198529694828717e+00	 1.077809926763112e+01
 1.750215537332362e+00	 2.215640405790336e+00	 1.072815296372350e+01
 1.728616750968464e+00	 2.232532427468953e+00	 1.067571821610864e+01
 1.706868355389696e+00	 2.249203740482291e+00	 1.061863305244610e+01
 1.684973730760791e+00	 2.265652392981941e+00	 1.055683411561684e+01
 1.904846437188476e+00	 2.100109441073785e+00	 1.105394579211181e+01
 1.884301218549044e+00	 2.118562778627226e+00	 1.101001753426790e+01
 1.863583062317385e+00	 2.136810060446030e+00	 1.096468007923150e+01
 1.842695087565751e+00	 2.154848869541195e+00	 1.091825938216676e+01
 1.821640457535225e+00	 2.172676851437212e+00	 1.087162445443961e+01
 1.800422378058156e+00	 2.190291715176798e+00	 1.082468047393810e+01
 1.779044095953889e+00	 2.207691234278205e+00	 1.077702735780504e+01
 1.757508897399512e+00	 2.224873247644302e+00	 1.072809342612338e+01
 1.735820106277280e+00	 2.241835660422666e+00	 1.067560036811114e+01
 1.713981082500470e+00	 2.258576444816018e+00	 1.061851857399921e+01
 1.691995220319368e+00	 2.275093640842355e+00	 1.055699557348429e+01
 1.912751209303471e+00	 2.108824519741909e+00	 1.104883257155796e+01
 1.892120731680068e+00	 2.127354435346673e+00	 1.100534563122515e+01
 1.871316598804334e+00	 2.145677440122336e+00	 1.096062987236784e+01
 1.850341942692114e+00	 2.163791107049824e+00	 1.091490207488751e+01
 1.829199939711382e+00	 2.181693071882978e+00	 1.086883312417729e+01
 1.807893808998121e+00	 2.199381034157452e+00	 1.082264269093132e+01
 1.786426810845399e+00	 2.216852758151997e+00	 1.077591264189707e+01
 1.764802245067354e+00	 2.234106073801317e+00	 1.072739069393210e+01
 1.743023449339766e+00	 2.251138877559728e+00	 1.067466008083406e+01
 1.721093797518949e+00	 2.267949133214951e+00	 1.061763161263852e+01
 1.699016697940729e+00	 2.284534872651415e+00	 1.055647479458746e+01
 1.920655965740091e+00	 2.117539581124003e+00	 1.104344927155542e+01
 1.899940229301821e+00	 2.136146074628146e+00	 1.100037085922560e+01
 1.879050119952527e+00	 2.154544802210425e+00	 1.095623104068123e+01
 1.857988782651624e+00	 2.172733326821712e+00	 1.091125370114937e+01
 1.836759406893952e+00	 2.190709274445217e+00	 1.086577164248200e+01
 1.815365225119105e+00	 2.208470335109550e+00	 1.082031956771166e+01
 1.793809511093849e+00	 2.226014263853978e+00	 1.077443913709392e+01
 1.772095578269349e+00	 2.243338881645058e+00	 1.072555339173559e+01
 1.750226778114880e+00	 2.260442076243860e+00	 1.067260670444930e+01
 1.728206498429773e+00	 2.277321803023128e+00	 1.061568573649217e+01
 1.706038161635364e+00	 2.293976085733730e+00	 1.055499110108744e+01
 1.928560704258546e+00	 2.126254622750514e+00	 1.103759421621138e+01
 1.907759709198677e+00	 2.144937693980382e+00	 1.099488178959179e+01
 1.886783623570700e+00	 2.163412144197563e+00	 1.095126492088672e+01
 1.865635605277578e+00	 2.181675526322904e+00	 1.090698570925483e+01
 1.844318856940991e+00	 2.199725456569002e+00	 1.086219459673263e+01
 1.822836624304109e+00	 2.217559615457442e+00	 1.081746777631172e+01
 1.801192194607377e+00	 2.235175748788034e+00	 1.077169635551549e+01
 1.779388894938953e+00	 2.252571668559201e+00	 1.072229766425126e+01
 1.757430090561581e+00	 2.269745253838789e+00	 1.066915880127812e+01
 1.735319183217579e+00	 2.286694451584581e+00	 1.061240352426284e+01
 1.713059609413766e+00	 2.303417277413905e+00	 1.055227259398923e+01
 1.936465422619043e+00	 2.134969642151891e+00	 1.103106790066121e+01
 1.915579169155006e+00	 2.153729290912114e+00	 1.098866909961776e+01
 1.894517107467592e+00	 2.172279463571020e+00	 1.094551484311370e+01
 1.873282408403278e+00	 2.190617703019447e+00	 1.090187343212770e+01
 1.851878287710552e+00	 2.208741615699406e+00	 1.085785765330034e+01
 1.830308004436140e+00	 2.226648872625485e+00	 1.081373408108679e+01
 1.808574859294121e+00	 2.244337210358050e+00	 1.076726151849016e+01
 1.786682193009624e+00	 2.261804431927420e+00	 1.071734892937859e+01
 1.764633384638828e+00	 2.279048407708238e+00	 1.066404404112586e+01
 1.742431849867007e+00	 2.296067076243345e+00	 1.060751646549870e+01
 1.720081039286428e+00	 2.312858445016550e+00	 1.054805605900266e+01
 1.649866173542431e+00	 2.218446006548291e+00	 1.055626483811576e+01
 1.628291574943675e+00	 2.234329394709661e+00	 1.049235505819597e+01
 1.606580540974004e+00	 2.249991225041550e+00	 1.042963360075397e+01
 1.584736457925411e+00	 2.265429798525814e+00	 1.036744178439912e+01
 1.562762738869192e+00	 2.280643484631514e+00	 1.030521138119511e+01
 1.540662821940667e+00	 2.295630721800915e+00	 1.024244164845872e+01
 1.518440168614920e+00	 2.310390017884410e+00	 1.017869752784261e+01
 1.496098261975292e+00	 2.324919950524250e+00	 1.011360754720124e+01
 1.473640604976403e+00	 2.339219167487018e+00	 1.004693937846104e+01
 1.451070718703425e+00	 2.353286386944889e+00	 9.979496370856372e+00
 1.428392140629360e+00	 2.367120397705719e+00	 9.911808430194066e+00
 1.656887692944472e+00	 2.227887294534590e+00	 1.055529199977758e+01
 1.635221276921258e+00	 2.243838279401774e+00	 1.049128055055788e+01
 1.613417844883934e+00	 2.259566763531122e+00	 1.042831783849675e+01
 1.591480797535916e+00	 2.275071040673785e+00	 1.036582859019180e+01
 1.569413562473893e+00	 2.290349473359594e+00	 1.030330894709969e+01
 1.547219592465241e+00	 2.305400493385115e+00	 1.024032483042465e+01
 1.524902363716434e+00	 2.320222602250436e+00	 1.017650999435174e+01
 1.502465374134161e+00	 2.334814371544519e+00	 1.011156377367456e+01
 1.479912141580959e+00	 2.349174443279098e+00	 1.004525151261162e+01
 1.457246202127077e+00	 2.363301530171127e+00	 9.978169950747168e+00
 1.434471108300340e+00	 2.377194415873860e+00	 9.911149843072403e+00
 1.663909210356837e+00	 2.237328579846497e+00	 1.055519675779313e+01
 1.642150976935130e+00	 2.253347161400338e+00	 1.049116436167139e+01
 1.620255146856277e+00	 2.269142299308250e+00	 1.042810438508955e+01
 1.598225135235118e+00	 2.284712280090688e+00	 1.036549074323057e+01
 1.576064384193728e+00	 2.300055459338249e+00	 1.030287083928318e+01
 1.553776361131543e+00	 2.315170262201805e+00	 1.023986381350886e+01
 1.531364556986419e+00	 2.330055183831137e+00	 1.017615847239801e+01
 1.508832484488397e+00	 2.344708789761922e+00	 1.011151090400706e+01
 1.486183676407926e+00	 2.359129716251041e+00	 1.004574178722655e+01
 1.463421683800333e+00	 2.373316670560234e+00	 9.979146188222416e+00
 1.440550074248259e+00	 2.387268431188149e+00	 9.912813493747427e+00
 1.670930723790017e+00	 2.246769859808620e+00	 1.055563165959933e+01
 1.649080673021802e+00	 2.262856038010800e+00	 1.049168557461798e+01
 1.627092444953734e+00	 2.278717829659494e+00	 1.042867201607519e+01
 1.604969469112063e+00	 2.294353514044461e+00	 1.036610152575581e+01
 1.582715202144250e+00	 2.309761439817068e+00	 1.030355985171932e+01
 1.560333126081781e+00	 2.324940025482499e+00	 1.024070610297548e+01
 1.537826746593892e+00	 2.339887759840229e+00	 1.017727057621111e+01
 1.515199591233962e+00	 2.354603202372650e+00	 1.011305226065631e+01
 1.492455207680351e+00	 2.369084983581800e+00	 1.004791602887795e+01
 1.469597161973453e+00	 2.383331805274202e+00	 9.981957791472842e+00
 1.446629036750722e+00	 2.397342440793899e+00	 9.916303906508139e+00
 1.677952231254504e+00	 2.256211131745565e+00	 1.055627997175020e+01
 1.656010363217788e+00	 2.272364906538608e+00	 1.049253228712050e+01
 1.633929737239001e+00	 2.288293351871410e+00	 1.042970837222097e+01
 1.611713797255799e+00	 2.303994739803039e+00	 1.036734301723520e+01
 1.589366014441010e+00	 2.319467412045639e+00	 1.030504758579951e+01
 1.566889885458165e+00	 2.334709780458707e+00	 1.024250809660087e+01
 1.544288930707863e+00	 2.349720327491422e+00	 1.017948296920274e+01
 1.521566692566815e+00	 2.364497606572896e+00	 1.011580044013547e+01
 1.498726733621276e+00	 2.379040242450324e+00	 1.005135565703051e+01
 1.475772634896698e+00	 2.393346931475018e+00	 9.986143699401177e+00
 1.452707994085336e+00	 2.407416441836427e+00	 9.921131546971608e+00
 1.684973730760791e+00	 2.265652392981941e+00	 1.055683411561684e+01
 1.662940045559599e+00	 2.281873764289214e+00	 1.049340152324868e+01
 1.640767021774778e+00	 2.297868863230558e+00	 1.043090987502240e+01
 1.618458117755370e+00	 2.313635954634359e+00	 1.036890601197648e+01
 1.596016819199563e+00	 2.329173373273547e+00	 1.030701436842332e+01
 1.573446637402903e+00	 2.344479524361943e+00	 1.024493500167147e+01
 1.550751107497347e+00	 2.359552883998428e+00	 1.018244127836249e+01
 1.527933786682916e+00	 2.374391999558850e+00	 1.011937722336008e+01
 1.504998252453746e+00	 2.388995490035564e+00	 1.005565453891528e+01
 1.481948100820331e+00	 2.403362046324677e+00	 9.991249303627288e+00
 1.458786944529705e+00	 2.417490431461048e+00	 9.926813236471105e+00
 1.691995220319368e+00	 2.275093640842355e+00	 1.055699557348429e+01
 1.669869718083748e+00	 2.291382608568064e+00	 1.049399914497159e+01
 1.647604296623763e+00	 2.307444361023494e+00	 1.043198164200789e+01
 1.625202428699826e+00	 2.323277155806358e+00	 1.037048993653755e+01
 1.602667614535456e+00	 2.338879320750381e+00	 1.030914916992524e+01
 1.580003380058203e+00	 2.354249254423716e+00	 1.024766075189665e+01
 1.557213275131356e+00	 2.369385426574963e+00	 1.018580000868580e+01
 1.534300871778224e+00	 2.384286378526704e+00	 1.012341348618075e+01
 1.511269762400805e+00	 2.398950723516470e+00	 1.006041591568854e+01
 1.488123557994609e+00	 2.413377146985172e+00	 9.996786851782186e+00
 1.464865886361436e+00	 2.427564406813078e+00	 9.932872567299933e+00
 1.699016697940729e+00	 2.284534872651415e+00	 1.055647479458746e+01
 1.676799378826745e+00	 2.300891436680609e+00	 1.049403976356056e+01
 1.654441559848655e+00	 2.317019842536777e+00	 1.043263740184921e+01
 1.631946728178211e+00	 2.332918340586973e+00	 1.037180276693963e+01
 1.609318398564244e+00	 2.348585251725729e+00	 1.031114952184186e+01
 1.586560111566277e+00	 2.364018967875540e+00	 1.025036792423830e+01
 1.563675431778905e+00	 2.379217952434737e+00	 1.018922245763255e+01
 1.540667946048701e+00	 2.394180740672651e+00	 1.012754911009584e+01
 1.517541261685498e+00	 2.408905940071994e+00	 1.006525230808322e+01
 1.494299004669797e+00	 2.423392230618489e+00	 1.000230151467838e+01
 1.470944817858133e+00	 2.437638365037832e+00	 9.938840318780137e+00
 1.706038161635364e+00	 2.293976085733730e+00	 1.055499110108744e+01
 1.683729025825104e+00	 2.310400245932298e+00	 1.049324665084696e+01
 1.661278809512152e+00	 2.326595305056966e+00	 1.043259940928294e+01
 1.638691014279574e+00	 2.342559506244140e+00	 1.037256094568859e+01
 1.615969169401477e+00	 2.358291163449177e+00	 1.031272143452363e+01
 1.593116830069331e+00	 2.373788661948927e+00	 1.025274765565941e+01
 1.570137575609005e+00	 2.389050458791466e+00	 1.019238062961473e+01
 1.547035007690306e+00	 2.404075083192882e+00	 1.013143289313843e+01
 1.523812748530867e+00	 2.418861136881085e+00	 1.006978542241352e+01
 1.500474439096153e+00	 2.433407294386622e+00	 1.000738421309342e+01
 1.477023737297402e+00	 2.447712303280625e+00	 9.944254874126363e+00
 1.713059609413766e+00	 2.303417277413905e+00	 1.055227259398923e+01
 1.690658657115337e+00	 2.319909033628580e+00	 1.049135165033800e+01
 1.668116043676954e+00	 2.336170745870616e+00	 1.043159835984785e+01
 1.645435285092962e+00	 2.352200650045795e+00	 1.037248929860943e+01
 1.622619925162709e+00	 2.367997053170313e+00	 1.031357931459531e+01
 1.599673533709577e+00	 2.383558333875389e+00	 1.025449955979300e+01
 1.576599704790671e+00	 2.398882942858859e+00	 1.019495515051216e+01
 1.553402054899000e+00	 2.413969403283589e+00	 1.013472246093205e+01
 1.530084221159959e+00	 2.428816311122694e+00	 1.007364605692094e+01
 1.506649859523939e+00	 2.443422335451563e+00	 1.001163527914175e+01
 1.483102642956848e+00	 2.457786218686773e+00	 9.948660486446869e+00
 1.720081039286428e+00	 2.312858445016550e+00	 1.054805605900266e+01
 1.697588270733955e+00	 2.329417797074905e+00	 1.048809508819465e+01
 1.674953260405759e+00	 2.345746162264290e+00	 1.042937330444310e+01
 1.652179538707420e+00	 2.361841769259878e+00	 1.037132095149892e+01
 1.629270663963491e+00	 2.377702918138723e+00	 1.031344588226869e+01
 1.606230220629222e+00	 2.393327980886438e+00	 1.025533164353373e+01
 1.583061817492917e+00	 2.408715401850632e+00	 1.019663518221450e+01
 1.559769085870741e+00	 2.423863698140963e+00	 1.013708417790996e+01
 1.536355677795816e+00	 2.438771459975773e+00	 1.007647400845221e+01
 1.512825264203417e+00	 2.453437350975304e+00	 1.001466435724855e+01
 1.489181533114078e+00	 2.467860108401592e+00	 9.951575473222988e+00
 1.428392140629360e+00	 2.367120397705719e+00	 9.911808430194066e+00
 1.405608423317111e+00	 2.380720059966321e+00	 9.843295768358507e+00
 1.382723133984474e+00	 2.394084307171726e+00	 9.773265142291301e+00
 1.359739851379731e+00	 2.407212144383703e+00	 9.702050145621850e+00
 1.336662163594455e+00	 2.420102647732916e+00	 9.630046734992700e+00
 1.313493666335048e+00	 2.432754964393181e+00	 9.557676336549163e+00
 1.290237961202482e+00	 2.445168312506440e+00	 9.485351210446195e+00
 1.266898653981853e+00	 2.457341981058978e+00	 9.413442254524371e+00
 1.243479352943308e+00	 2.469275329709475e+00	 9.342249406743221e+00
 1.219983667155882e+00	 2.480967788569532e+00	 9.271974783845874e+00
 1.196415204815757e+00	 2.492418857937369e+00	 9.202698671227239e+00
 1.434471108300340e+00	 2.377194415873860e+00	 9.911149843072403e+00
 1.411590427782686e+00	 2.390851955733319e+00	 9.843572634845964e+00
 1.388607742973305e+00	 2.404273078655474e+00	 9.774626950219925e+00
 1.365526647850940e+00	 2.417456785467825e+00	 9.704591215455872e+00
 1.342350745777388e+00	 2.430402148369214e+00	 9.633800731323142e+00
 1.319083647761681e+00	 2.443108310903988e+00	 9.562609813649054e+00
 1.295728970732511e+00	 2.455574487886642e+00	 9.491356274892720e+00
 1.272290335820498e+00	 2.467799965277521e+00	 9.420328432706924e+00
 1.248771366651889e+00	 2.479784100010127e+00	 9.349734809258932e+00
 1.225175687655222e+00	 2.491526319770721e+00	 9.279676662324444e+00
 1.201506922382463e+00	 2.503026122730883e+00	 9.210123466012398e+00
 1.440550074248259e+00	 2.387268431188149e+00	 9.912813493747427e+00
 1.417572430552679e+00	 2.400983848630019e+00	 9.846091892772721e+00
 1.394492350294168e+00	 2.414461847252758e+00	 9.778062442749718e+00
 1.371313442681924e+00	 2.427701423649594e+00	 9.708980031514132e+00
 1.348039326347962e+00	 2.440701646087553e+00	 9.639151420145391e+00
 1.324673627603938e+00	 2.453461654481519e+00	 9.568896339369708e+00
 1.301219978706257e+00	 2.465980660318540e+00	 9.498511011774305e+00
 1.277682016131056e+00	 2.478257946533022e+00	 9.428234290812112e+00
 1.254063378860676e+00	 2.490292867333294e+00	 9.358216584739873e+00
 1.230367706683150e+00	 2.502084847980278e+00	 9.288491710214439e+00
 1.206598638506224e+00	 2.513633384518913e+00	 9.218951796448348e+00
 1.446629036750722e+00	 2.397342440793899e+00	 9.916303906508139e+00
 1.423554429932161e+00	 2.411115735785344e+00	 9.850333765773561e+00
 1.400376954279721e+00	 2.424650610076393e+00	 9.783038384020195e+00
 1.377100234233044e+00	 2.437946056026007e+00	 9.714680466763228e+00
 1.353727903694353e+00	 2.451001137969407e+00	 9.645570066753425e+00
 1.330263604277920e+00	 2.463814992192002e+00	 9.576024557735915e+00
 1.306710983567848e+00	 2.476386826853411e+00	 9.506331120632733e+00
 1.283073693385784e+00	 2.488715921862094e+00	 9.436711938349411e+00
 1.259355388070153e+00	 2.500801628701212e+00	 9.367292271907576e+00
 1.235559722768472e+00	 2.512643370206350e+00	 9.298071566513718e+00
 1.211690351744256e+00	 2.524240640295814e+00	 9.228897711665931e+00
 1.452707994085336e+00	 2.407416441836427e+00	 9.921131546971608e+00
 1.429536424226206e+00	 2.421247614328217e+00	 9.855784073377356e+00
 1.406261553262625e+00	 2.434839364239200e+00	 9.789026621082487e+00
 1.382887020864664e+00	 2.448190679694072e+00	 9.721160805921850e+00
 1.359416476204740e+00	 2.461300621096244e+00	 9.652531528232352e+00
 1.335853576199725e+00	 2.474168321101668e+00	 9.583485745165977e+00
 1.312201983761412e+00	 2.486792984542527e+00	 9.514333843910421e+00
 1.288465366056940e+00	 2.499173888301343e+00	 9.445313817442882e+00
 1.264647392780805e+00	 2.511310381136115e+00	 9.376558420269200e+00
 1.240751734439993e+00	 2.523201883457088e+00	 9.308065456819563e+00
 1.216782060653778e+00	 2.534847887055940e+00	 9.239671329959839e+00
 1.458786944529705e+00	 2.417490431461048e+00	 9.926813236471105e+00
 1.435518411739888e+00	 2.431379481387566e+00	 9.861934621310175e+00
 1.412146145575539e+00	 2.445028106854000e+00	 9.795504453749066e+00
 1.388673800937145e+00	 2.458435291750786e+00	 9.727894098377748e+00
 1.365105042267298e+00	 2.471600092549536e+00	 9.659514592850250e+00
 1.341443541785454e+00	 2.484521638276745e+00	 9.590774139632321e+00
 1.317692977731076e+00	 2.497199130437162e+00	 9.522038289055567e+00
 1.293857032616781e+00	 2.509631842887382e+00	 9.453593020936813e+00
 1.269939391493117e+00	 2.521819121660235e+00	 9.385610907158144e+00
 1.245943740226521e+00	 2.533760384740642e+00	 9.318120512113977e+00
 1.221873763792007e+00	 2.545455121793645e+00	 9.250979162002549e+00
 1.464865886361436e+00	 2.427564406813078e+00	 9.932872567299933e+00
 1.441500390778278e+00	 2.441511334092315e+00	 9.868283592883278e+00
 1.418030729551123e+00	 2.455216835033610e+00	 9.801955005666535e+00
 1.394460572810849e+00	 2.468679889293153e+00	 9.734358512379231e+00
 1.370793600270204e+00	 2.481899549410756e+00	 9.666002320693826e+00
 1.347033499451208e+00	 2.494874940783461e+00	 9.597387270954274e+00
 1.323183963920971e+00	 2.507605261588592e+00	 9.528965751571160e+00
 1.299248691537565e+00	 2.520089782656819e+00	 9.461103611184647e+00
 1.275231382707572e+00	 2.532327847295810e+00	 9.394045255127265e+00
 1.251135738656862e+00	 2.544318871065158e+00	 9.327882087505518e+00
 1.226965459716164e+00	 2.556062341503281e+00	 9.262524433556221e+00
 1.470944817858133e+00	 2.437638365037832e+00	 9.938840318780137e+00
 1.447482359646450e+00	 2.451643169571388e+00	 9.874335941428974e+00
 1.423915303522037e+00	 2.465405545890853e+00	 9.807867596571270e+00
 1.400247334846139e+00	 2.478924469418174e+00	 9.740037690460600e+00
 1.376482148601636e+00	 2.492198988761372e+00	 9.671482385507129e+00
 1.352623447613086e+00	 2.505228225688044e+00	 9.602826292185707e+00
 1.328674940775222e+00	 2.518011375048093e+00	 9.534640038976942e+00
 1.304640341291550e+00	 2.530547704646264e+00	 9.467400939497205e+00
 1.280523364924657e+00	 2.542836555065072e+00	 9.401456949680929e+00
 1.256327728259822e+00	 2.554877339438787e+00	 9.336994080925511e+00
 1.232057146983464e+00	 2.566669543179202e+00	 9.274007407694413e+00
 1.477023737297402e+00	 2.447712303280625e+00	 9.944254874126363e+00
 1.453464316649476e+00	 2.461774984953708e+00	 9.879603783747733e+00
 1.429799865820940e+00	 2.475594236538547e+00	 9.812738115688340e+00
 1.406034085403377e+00	 2.489169029222850e+00	 9.744421106060122e+00
 1.382170685649770e+00	 2.502498407682857e+00	 9.675447417693945e+00
 1.358213384687187e+00	 2.515581490056722e+00	 9.606596312062003e+00
 1.334165906737958e+00	 2.528417467866936e+00	 9.538587795653676e+00
 1.310031980350993e+00	 2.541005605892328e+00	 9.472041966227836e+00
 1.285815336644856e+00	 2.553345241990258e+00	 9.407441757332990e+00
 1.261519707564206e+00	 2.565435786869679e+00	 9.345099251777119e+00
 1.237148824151127e+00	 2.577276723815762e+00	 9.285125706544735e+00
 1.483102642956848e+00	 2.457786218686773e+00	 9.948660486446869e+00
 1.459446260092431e+00	 2.471906777368202e+00	 9.883606794532371e+00
 1.435684414780493e+00	 2.485782904089513e+00	 9.816069396235116e+00
 1.411820822842924e+00	 2.499413565804183e+00	 9.747004421291644e+00
 1.387859209802782e+00	 2.512797803256679e+00	 9.677395348445641e+00
 1.363803309089612e+00	 2.525934730955726e+00	 9.608206728470963e+00
 1.339656860253309e+00	 2.538823537096399e+00	 9.540338828540140e+00
 1.315423607188151e+00	 2.551463483431620e+00	 9.474585581472079e+00
 1.291107296368654e+00	 2.563853905093600e+00	 9.411596043977356e+00
 1.266711675098821e+00	 2.575994210365980e+00	 9.351839539534893e+00
 1.242240489776370e+00	 2.587883880407313e+00	 9.295574632563218e+00
 1.489181533114078e+00	 2.467860108401592e+00	 9.951575473222988e+00
 1.465428188280387e+00	 2.482038543943793e+00	 9.885872601734825e+00
 1.441568948733355e+00	 2.495971545656568e+00	 9.817371590992716e+00
 1.417607545525145e+00	 2.509658076259177e+00	 9.747289845831130e+00
 1.393547719448851e+00	 2.523097172564315e+00	 9.676829754957396e+00
 1.369393219236461e+00	 2.536287945451281e+00	 9.607171562914361e+00
 1.345147799765400e+00	 2.549229579787756e+00	 9.539426433654342e+00
 1.320815220275283e+00	 2.561921334300749e+00	 9.474592926360369e+00
 1.296399242596536e+00	 2.574362541397336e+00	 9.413517093558855e+00
 1.271903629392474e+00	 2.586552606935843e+00	 9.356856382293046e+00
 1.247332142416412e+00	 2.598491009948211e+00	 9.303818694869554e+00
 1.196415204815757e+00	 2.492418857937369e+00	 9.202698671227239e+00
 1.172773547070712e+00	 2.503629992800374e+00	 9.132503579870246e+00
 1.149066297045198e+00	 2.514598863877523e+00	 9.060682402125678e+00
 1.125297051116041e+00	 2.525325178088495e+00	 8.988868748289395e+00
 1.101469398313471e+00	 2.535808711065451e+00	 8.918412078567169e+00
 1.077586918741647e+00	 2.546049306666159e+00	 8.849409818320366e+00
 1.053653182021748e+00	 2.556046876445434e+00	 8.782204391109936e+00
 1.029671745758834e+00	 2.565801399085923e+00	 8.717209833297167e+00
 1.005646154033659e+00	 2.575312919789277e+00	 8.654708169037674e+00
 9.815799359205438e-01	 2.584581549628830e+00	 8.594849631712449e+00
 9.574766040323747e-01	 2.593607464864855e+00	 8.537611967313337e+00
 1.201506922382463e+00	 2.503026122730883e+00	 9.210123466012398e+00
 1.177764650198827e+00	 2.514284970070148e+00	 9.139276083452916e+00
 1.153956506586244e+00	 2.525300522594523e+00	 9.066713954406321e+00
 1.130086103227062e+00	 2.536072485976403e+00	 8.994199274759136e+00
 1.106157044425772e+00	 2.546600634893090e+00	 8.923286240538548e+00
 1.082172925522802e+00	 2.556884812537850e+00	 8.854419950852677e+00
 1.058137331330987e+00	 2.566924930089103e+00	 8.787933378598336e+00
 1.034053834595905e+00	 2.576720966138783e+00	 8.724344450135611e+00
 1.009925994481271e+00	 2.586272966080921e+00	 8.664033954309829e+00
 9.857573550805009e-01	 2.595581041461564e+00	 8.606865852558872e+00
 9.615514439555214e-01	 2.604645369291132e+00	 8.547981416305886e+00
 1.206598638506224e+00	 2.513633384518913e+00	 9.218951796448348e+00
 1.182755751912544e+00	 2.524939944320888e+00	 9.147971477022821e+00
 1.158846714741511e+00	 2.536002178279239e+00	 9.075422056383573e+00
 1.134875153980994e+00	 2.546819790819071e+00	 9.003151879265648e+00
 1.110844689209734e+00	 2.557392555662833e+00	 8.932818981090826e+00
 1.086758931004427e+00	 2.567720315339288e+00	 8.865225084460457e+00
 1.062621479369559e+00	 2.577802980650459e+00	 8.800644334033548e+00
 1.038435922191221e+00	 2.587640530097564e+00	 8.739651268927346e+00
 1.014205833716084e+00	 2.597233009267017e+00	 8.681754540920345e+00
 9.899347730566570e-01	 2.606580530177578e+00	 8.621668544079846e+00
 9.656262827238994e-01	 2.615683270589804e+00	 8.559310100083923e+00
 1.211690351744256e+00	 2.524240640295814e+00	 9.228897711665931e+00
 1.187746850797583e+00	 2.535594912533440e+00	 9.158364076322147e+00
 1.163736920125308e+00	 2.546703827899294e+00	 9.086629305165371e+00
 1.139664202020806e+00	 2.557567089571201e+00	 9.015586032214237e+00
 1.115532331337064e+00	 2.568184470316749e+00	 8.946927273536717e+00
 1.091344933887035e+00	 2.578555812000202e+00	 8.881744947073541e+00
 1.067105624866845e+00	 2.588681025047178e+00	 8.820266116829766e+00
 1.042818007303091e+00	 2.598560087868189e+00	 8.761532736526476e+00
 1.018485670525391e+00	 2.608193046242020e+00	 8.700116033748587e+00
 9.941121886653359e-01	 2.617580012660151e+00	 8.636369113634352e+00
 9.697011191829108e-01	 2.626721165633273e+00	 8.571380776435928e+00
 1.216782060653778e+00	 2.534847887055940e+00	 9.239671329959839e+00
 1.192737945439669e+00	 2.546249871688647e+00	 9.170222833212875e+00
 1.168627121351941e+00	 2.557405468422319e+00	 9.100151752484699e+00
 1.144453245989470e+00	 2.568314379187496e+00	 9.031353721020134e+00
 1.120219969479471e+00	 2.578976375796910e+00	 8.965514156511203e+00
 1.095930932871138e+00	 2.589391299450315e+00	 8.903889343740421e+00
 1.071589766552226e+00	 2.599559060196939e+00	 8.844653078818370e+00
 1.047200088689825e+00	 2.609479636356574e+00	 8.782266295888180e+00
 1.022765503696483e+00	 2.619153073900385e+00	 8.717289613395600e+00
 9.982896007228614e-01	 2.628579485792562e+00	 8.650804902954585e+00
 9.737759521779581e-01	 2.637759051293936e+00	 8.583979262917481e+00
 1.221873763792007e+00	 2.545455121793645e+00	 9.250979162002549e+00
 1.197729034424520e+00	 2.556904818767358e+00	 9.183311662356184e+00
 1.173517317035720e+00	 2.568107096815946e+00	 9.115799230457275e+00
 1.149242284529957e+00	 2.579061656622661e+00	 9.050299770765189e+00
 1.124907602308660e+00	 2.589768269045381e+00	 8.988449144806728e+00
 1.100516926657247e+00	 2.600226774619356e+00	 8.929113722617288e+00
 1.076073903155084e+00	 2.610437083017416e+00	 8.866377979389002e+00
 1.051582165109730e+00	 2.620399172468636e+00	 8.800717423369326e+00
 1.027045332016651e+00	 2.630113089136561e+00	 8.733157662077801e+00
 1.002467008045558e+00	 2.639578946458090e+00	 8.664815693854493e+00
 9.778507805544421e-01	 2.648796924444190e+00	 8.596894460251887e+00
 1.226965459716164e+00	 2.556062341503281e+00	 9.262524433556221e+00
 1.202720116337860e+00	 2.567559750750418e+00	 9.197389766960598e+00
 1.178407505790950e+00	 2.578808710047799e+00	 9.133375676092843e+00
 1.154031316285238e+00	 2.589808918831398e+00	 9.072262163403339e+00
 1.129595228496340e+00	 2.600560147004232e+00	 9.012986670650818e+00
 1.105102913945875e+00	 2.611062234437050e+00	 8.950367511838337e+00
 1.080558033404798e+00	 2.621315090426287e+00	 8.884731110103314e+00
 1.055964235321115e+00	 2.631318693110297e+00	 8.816803882671596e+00
 1.031325154273186e+00	 2.641073088845002e+00	 8.747604553734996e+00
 1.006644409449749e+00	 2.650578391540014e+00	 8.678243748125041e+00
 9.819256031577654e-01	 2.659834781956433e+00	 8.609918375443891e+00
 1.232057146983464e+00	 2.566669543179202e+00	 9.274007407694413e+00
 1.207711189765409e+00	 2.578214664618672e+00	 9.212211963623266e+00
 1.183297686231939e+00	 2.589510305085511e+00	 9.152679454593919e+00
 1.158820339898283e+00	 2.600556162768411e+00	 9.094538830319888e+00
 1.134282846714217e+00	 2.611352006615534e+00	 9.032400862164931e+00
 1.109688893437535e+00	 2.621897675833128e+00	 8.967177498319151e+00
 1.085042156030750e+00	 2.632193079341228e+00	 8.899655860816667e+00
 1.060346298082290e+00	 2.642238195187474e+00	 8.830445150963243e+00
 1.035604969253380e+00	 2.652033069920162e+00	 8.760516706672547e+00
 1.010821803751757e+00	 2.661577817921614e+00	 8.690933846736977e+00
 9.860004188333293e-01	 2.670872620703062e+00	 8.622846144614435e+00
 1.237148824151127e+00	 2.577276723815762e+00	 9.285125706544735e+00
 1.212702253292891e+00	 2.588869557352966e+00	 9.227529006287673e+00
 1.188187856972995e+00	 2.600211878896709e+00	 9.171262972457637e+00
 1.163609354012063e+00	 2.611303385388402e+00	 9.110636656045962e+00
 1.138970455634000e+00	 2.622143844821354e+00	 9.046319665658267e+00
 1.114274863832738e+00	 2.632733095737313e+00	 8.979508448700354e+00
 1.089526269762320e+00	 2.643071046679915e+00	 8.911097225158100e+00
 1.064728352151562e+00	 2.653157675606086e+00	 8.841562480581462e+00
 1.039884775744523e+00	 2.662993029256493e+00	 8.771782635199994e+00
 1.014999189767908e+00	 2.672577222486169e+00	 8.702733328370396e+00
 9.900752264265369e-01	 2.681910437556476e+00	 8.635476055563121e+00
 1.242240489776370e+00	 2.587883880407313e+00	 9.295574632563218e+00
 1.217693305506025e+00	 2.599524425934147e+00	 9.241307903605087e+00
 1.193078016628424e+00	 2.610913428449023e+00	 9.182759398728681e+00
 1.168398357269549e+00	 2.622050583646076e+00	 9.120202589460709e+00
 1.143658053927394e+00	 2.632935658563764e+00	 9.054703077752253e+00
 1.118860823831997e+00	 2.643568491079333e+00	 8.987333756562263e+00
 1.094010373328889e+00	 2.653948989360026e+00	 8.919001867673661e+00
 1.069110396287241e+00	 2.664077131272051e+00	 8.850078959512821e+00
 1.044164572533907e+00	 2.673952963748449e+00	 8.781293000294584e+00
 1.019176566314524e+00	 2.683576602116959e+00	 8.713492127289621e+00
 9.941500247827889e-01	 2.692948229389073e+00	 8.647609570066194e+00
 1.247332142416412e+00	 2.598491009948211e+00	 9.303818694869554e+00
 1.222684344990534e+00	 2.610179267343061e+00	 9.247258295626978e+00
 1.197968163812535e+00	 2.621614950710081e+00	 9.186748545376322e+00
 1.173187348313713e+00	 2.632797754496135e+00	 9.123198022307434e+00
 1.148345640266109e+00	 2.643727444784830e+00	 9.057514364937804e+00
 1.123446772135824e+00	 2.654403858788916e+00	 8.990609477354006e+00
 1.098494465459839e+00	 2.664826904299237e+00	 8.923318189618431e+00
 1.073492429247636e+00	 2.674996559091289e+00	 8.855919570685774e+00
 1.048444358408823e+00	 2.684912870290481e+00	 8.788940659316651e+00
 1.023353932207930e+00	 2.694575953697263e+00	 8.723062810581332e+00
 9.982248127474879e-01	 2.703985993073249e+00	 8.659051345916343e+00
 9.574766040323747e-01	 2.593607464864855e+00	 8.537611967313337e+00
 9.333437583987604e-01	 2.602389433499033e+00	 8.480167166210194e+00
 9.091807777172448e-01	 2.610929313203726e+00	 8.421279505048936e+00
 8.849911139646681e-01	 2.619227469383174e+00	 8.361269020966240e+00
 8.607781971891927e-01	 2.627284329501278e+00	 8.300522085435951e+00
 8.365454342062807e-01	 2.635100382230124e+00	 8.239487498178391e+00
 8.122962073270338e-01	 2.642676176568437e+00	 8.178672541872466e+00
 7.880338731195949e-01	 2.650012320931192e+00	 8.118639028858015e+00
 7.637617612042545e-01	 2.657109482211724e+00	 8.059999370053385e+00
 7.394831730828625e-01	 2.663968384817607e+00	 8.003411052558389e+00
 7.152013810030865e-01	 2.670589809681632e+00	 7.948771176629198e+00
 9.615514439555214e-01	 2.604645369291132e+00	 8.547981416305886e+00
 9.373158934802490e-01	 2.613464712328152e+00	 8.487558736372801e+00
 9.130500797080763e-01	 2.622040936150889e+00	 8.426949043773483e+00
 8.887574693067934e-01	 2.630374407718667e+00	 8.366289323220286e+00
 8.644415069221899e-01	 2.638465556314576e+00	 8.305780189638476e+00
 8.401056138684799e-01	 2.646314872690395e+00	 8.245682113616219e+00
 8.157531868512338e-01	 2.653922908181269e+00	 8.186311607237473e+00
 7.913875967235031e-01	 2.661290273791471e+00	 8.128037401989481e+00
 7.670121872758033e-01	 2.668417639252494e+00	 8.071276649458397e+00
 7.426302740605429e-01	 2.675305732054847e+00	 8.016491174387749e+00
 7.182451432514479e-01	 2.681955336454813e+00	 7.963583178306239e+00
 9.656262827238994e-01	 2.615683270589804e+00	 8.559310100083923e+00
 9.412880274360291e-01	 2.624539988019082e+00	 8.496617735100740e+00
 9.169193806022883e-01	 2.633152555949568e+00	 8.434778748280184e+00
 8.925238235814185e-01	 2.641521342895668e+00	 8.373773314877791e+00
 8.681048156168348e-01	 2.649646779959669e+00	 8.313642991775382e+00
 8.436657925215046e-01	 2.657529359973037e+00	 8.254487028884164e+00
 8.192101653954640e-01	 2.665169636607343e+00	 8.196458640702145e+00
 7.947413193766740e-01	 2.672568223456147e+00	 8.139761270303071e+00
 7.702626124258742e-01	 2.679725793089109e+00	 8.084644877036974e+00
 7.457773741460315e-01	 2.686643076079664e+00	 8.031402278062222e+00
 7.212889046369284e-01	 2.693320860007594e+00	 7.979936197936333e+00
 9.697011191829108e-01	 2.626721165633273e+00	 8.571380776435928e+00
 9.452601591406152e-01	 2.635615257433633e+00	 8.507075201854921e+00
 9.207886793035464e-01	 2.644264169451275e+00	 8.444456806300103e+00
 8.962901757213915e-01	 2.652668271755689e+00	 8.383374887025489e+00
 8.717681222351853e-01	 2.660827997268355e+00	 8.323738326839194e+00
 8.472259691566431e-01	 2.668743840900424e+00	 8.265511946070941e+00
 8.226671419802615e-01	 2.676416358659895e+00	 8.208712814654929e+00
 7.980950401289062e-01	 2.683846166729616e+00	 8.153406557272191e+00
 7.735130357335360e-01	 2.691033940517407e+00	 8.099703683478785e+00
 7.489244724476697e-01	 2.697980413679636e+00	 8.047755973558736e+00
 7.243326642971430e-01	 2.704686377119575e+00	 7.997460794437551e+00
 9.737759521779581e-01	 2.637759051293936e+00	 8.583979262917481e+00
 9.492322874685245e-01	 2.646690517433613e+00	 8.518665889954216e+00
 9.246579747155184e-01	 2.655375773507524e+00	 8.455675627561368e+00
 9.000565246595607e-01	 2.663815191140235e+00	 8.394752521074157e+00
 8.754314257392984e-01	 2.672009205072426e+00	 8.335698854859816e+00
 8.507861427651834e-01	 2.679958312294930e+00	 8.278371499653439e+00
 8.261241156261631e-01	 2.687663071152167e+00	 8.222678220158780e+00
 8.014487580299979e-01	 2.695124100416276e+00	 8.168573976606002e+00
 7.767634562778558e-01	 2.702342078333233e+00	 8.116057252917690e+00
 7.520715680737994e-01	 2.709317741642341e+00	 8.065166442919146e+00
 7.273764213697065e-01	 2.716051884570355e+00	 8.015790963004324e+00
 9.778507805544421e-01	 2.648796924444190e+00	 8.596894460251887e+00
 9.532044112942722e-01	 2.657765764880834e+00	 8.531128272831427e+00
 9.285272657418689e-01	 2.666487364969826e+00	 8.468131835883316e+00
 9.038228693287745e-01	 2.674962097890818e+00	 8.407569269555736e+00
 8.790947250912311e-01	 2.683190400203678e+00	 8.349162033150648e+00
 8.543463123384132e-01	 2.691172770978925e+00	 8.292685222818328e+00
 8.295810853537050e-01	 2.698909770897400e+00	 8.237963829853875e+00
 8.048024721297469e-01	 2.706402021320524e+00	 8.184868994116449e+00
 7.800138731379022e-01	 2.713650203332434e+00	 8.133314286026572e+00
 7.552186601327620e-01	 2.720655056755356e+00	 8.083252049350497e+00
 7.304201749922330e-01	 2.727417379139534e+00	 8.034564126973624e+00
 9.819256031577654e-01	 2.659834781956433e+00	 8.609918375443891e+00
 9.571765294923749e-01	 2.668840996637104e+00	 8.544204550425777e+00
 9.323965512862663e-01	 2.677598940689700e+00	 8.481526261755299e+00
 9.075892086618820e-01	 2.686108988848945e+00	 8.421492737681676e+00
 8.827580192530411e-01	 2.694371579493907e+00	 8.363770089523445e+00
 8.579064768676208e-01	 2.702387213774781e+00	 8.308077514893560e+00
 8.330380501834244e-01	 2.710156454708829e+00	 8.254183462048601e+00
 8.081561814779515e-01	 2.717679926246755e+00	 8.201901790793997e+00
 7.832642853927426e-01	 2.724958312310847e+00	 8.151087964282640e+00
 7.583657477328990e-01	 2.731992355806257e+00	 8.101635304765905e+00
 7.334639243023375e-01	 2.738782857606711e+00	 8.053421130629570e+00
 9.860004188333293e-01	 2.670872620703062e+00	 8.622846144614435e+00
 9.611486409373486e-01	 2.679916209564234e+00	 8.557640655706725e+00
 9.362658302523759e-01	 2.688710497518655e+00	 8.495563935385393e+00
 9.113555415917309e-01	 2.697255860856129e+00	 8.436195065639486e+00
 8.864213071867850e-01	 2.705552739774909e+00	 8.379169996443082e+00
 8.614666353440952e-01	 2.713601637504873e+00	 8.324177609857671e+00
 8.364950091358573e-01	 2.721403119399698e+00	 8.270955745965157e+00
 8.115098851244097e-01	 2.728957811999366e+00	 8.219287227055570e+00
 7.865146921214454e-01	 2.736266402064321e+00	 8.168995915368360e+00
 7.615128299825523e-01	 2.743329635582624e+00	 8.119942838373145e+00
 7.365076684376347e-01	 2.750148316751486e+00	 8.072006232919325e+00
 9.900752264265369e-01	 2.681910437556476e+00	 8.635476055563121e+00
 9.651207445037095e-01	 2.690991400524035e+00	 8.571186261325344e+00
 9.401351015438647e-01	 2.699822032308208e+00	 8.509954080204992e+00
 9.151218670511704e-01	 2.708402710753876e+00	 8.451352911606017e+00
 8.900845878545209e-01	 2.716733877878481e+00	 8.395013446094763e+00
 8.650267867591237e-01	 2.724816038991573e+00	 8.340619545895317e+00
 8.399519612315413e-01	 2.732649761783246e+00	 8.287904088105632e+00
 8.148635821189198e-01	 2.740235675382756e+00	 8.236644808131263e+00
 7.897650924030784e-01	 2.747574469388692e+00	 8.186660179676217e+00
 7.646599059900634e-01	 2.754666892872033e+00	 8.137805366280377e+00
 7.395514065357396e-01	 2.761513753353461e+00	 8.089967102053153e+00
 9.941500247827889e-01	 2.692948229389073e+00	 8.647609570066194e+00
 9.690928390659732e-01	 2.702066566378315e+00	 8.584594786388458e+00
 9.440043640643992e-01	 2.710933541909871e+00	 8.524410106815299e+00
 9.188881839730478e-01	 2.719549535383694e+00	 8.466647435456213e+00
 8.937478602183051e-01	 2.727914990636413e+00	 8.410956826336971e+00
 8.685869301039948e-01	 2.736030415057252e+00	 8.357042135968175e+00
 8.434089054910123e-01	 2.743896378672712e+00	 8.304656639705961e+00
 8.182172715112801e-01	 2.751513513201319e+00	 8.253598650556578e+00
 7.930154853167090e-01	 2.758882511079807e+00	 8.203707177883782e+00
 7.678069748637737e-01	 2.766004124462061e+00	 8.154857662088922e+00
 7.425951377342659e-01	 2.772879164192232e+00	 8.106957819763803e+00
 9.982248127474879e-01	 2.703985993073249e+00	 8.659051345916343e+00
 9.730649234986563e-01	 2.713141703988886e+00	 8.597623403351530e+00
 9.478736167176459e-01	 2.722045023175160e+00	 8.538649607362977e+00
 9.226544912902128e-01	 2.730696331587097e+00	 8.481764283146738e+00
 8.974111232401955e-01	 2.739096074880506e+00	 8.426661197514180e+00
 8.721470643699972e-01	 2.747244762524284e+00	 8.373088939371977e+00
 8.468658409348075e-01	 2.755142966881335e+00	 8.320846265246153e+00
 8.215709523512884e-01	 2.762791322259456e+00	 8.269777449737898e+00
 7.962658699414062e-01	 2.770190523933509e+00	 8.219767679569273e+00
 7.709540357120253e-01	 2.777341327140288e+00	 8.170738528445188e+00
 7.456388611708296e-01	 2.784244546047401e+00	 8.122643548342035e+00
 7.152013810030865e-01	 2.670589809681632e+00	 7.948771176629198e+00
 6.909196271893525e-01	 2.676974593829291e+00	 7.896058472807474e+00
 6.666411237413625e-01	 2.683123631078774e+00	 7.845397614587169e+00
 6.423690505577229e-01	 2.689037869234060e+00	 7.796551344309492e+00
 6.181065540052670e-01	 2.694718308425226e+00	 7.749377374724562e+00
 5.938567459643170e-01	 2.700166000011830e+00	 7.703814786654084e+00
 5.696227029110384e-01	 2.705382045469422e+00	 7.659871634962674e+00
 5.454074650370671e-01	 2.710367595260512e+00	 7.617613716737303e+00
 5.212140354065311e-01	 2.715123847691288e+00	 7.577154451317259e+00
 4.970453791505565e-01	 2.719652047755398e+00	 7.538645818151656e+00
 4.729044226992778e-01	 2.723953485966078e+00	 7.502270295376414e+00
 7.182451432514479e-01	 2.681955336454813e+00	 7.963583178306239e+00
 6.938600508712316e-01	 2.688367293040104e+00	 7.912235899483637e+00
 6.694782226896873e-01	 2.694542499432833e+00	 7.862543670881859e+00
 6.451028521384750e-01	 2.700481907470665e+00	 7.814325842460899e+00
 6.207370989747744e-01	 2.706186521540046e+00	 7.767494635608321e+00
 5.963840883224879e-01	 2.711657397474934e+00	 7.722041445972438e+00
 5.720469097506864e-01	 2.716895641438555e+00	 7.678024389562222e+00
 5.477286163894914e-01	 2.721902408789577e+00	 7.635557043875915e+00
 5.234322240835104e-01	 2.726678902933965e+00	 7.594798331483554e+00
 4.991607105829101e-01	 2.731226374163828e+00	 7.555943489759178e+00
 4.749170147721639e-01	 2.735546118484591e+00	 7.519216067322806e+00
 7.212889046369284e-01	 2.693320860007594e+00	 7.979936197936333e+00
 6.968004737195646e-01	 2.699759989022826e+00	 7.929722834316550e+00
 6.723153208338174e-01	 2.705961364551396e+00	 7.880829259914649e+00
 6.478366529443886e-01	 2.711925942464648e+00	 7.833125660610898e+00
 6.233676431987989e-01	 2.717654731405400e+00	 7.786572678936221e+00
 5.989114299645197e-01	 2.723148791682000e+00	 7.741207638326806e+00
 5.744711159035194e-01	 2.728409234145355e+00	 7.697132046327453e+00
 5.500497670843967e-01	 2.733437219050289e+00	 7.654500326293323e+00
 5.256504121322280e-01	 2.738233954902532e+00	 7.613509722717058e+00
 5.012760414162144e-01	 2.742800697292659e+00	 7.574391321515339e+00
 4.769296062751593e-01	 2.747138747718282e+00	 7.537402123428203e+00
 7.243326642971430e-01	 2.704686377119575e+00	 7.997460794437551e+00
 6.997408949012344e-01	 2.711152678549365e+00	 7.948170326204961e+00
 6.751524173698947e-01	 2.717380223198962e+00	 7.899923948984005e+00
 6.505704522008573e-01	 2.723369970973388e+00	 7.852636984590212e+00
 6.259981859319693e-01	 2.729122934771828e+00	 7.806312477650376e+00
 6.014387701742605e-01	 2.734640179377013e+00	 7.761027357631963e+00
 5.768953206825861e-01	 2.739922820327529e+00	 7.716919916244218e+00
 5.523709164640095e-01	 2.744972022774350e+00	 7.674178547465250e+00
 5.278685989240652e-01	 2.749789000322969e+00	 7.633031692945079e+00
 5.033913710509781e-01	 2.754375013862422e+00	 7.593738931677350e+00
 4.789421966378693e-01	 2.758731370382501e+00	 7.556583149603595e+00
 7.273764213697065e-01	 2.716051884570355e+00	 8.015790963004324e+00
 7.026813135831244e-01	 2.722545358391628e+00	 7.967232329832784e+00
 6.779895114940633e-01	 2.728799072140038e+00	 7.919499744194198e+00
 6.533042491332737e-01	 2.734813989754270e+00	 7.872548033842242e+00
 6.286287264289140e-01	 2.740591128389871e+00	 7.826416693092781e+00
 6.039661082355591e-01	 2.746131557303960e+00	 7.781215999091989e+00
 5.793195234009352e-01	 2.751436396722785e+00	 7.737114480630003e+00
 5.546920638705571e-01	 2.756506816693466e+00	 7.694327684378857e+00
 5.300867838304039e-01	 2.761344035921257e+00	 7.653108178848029e+00
 5.055066988877089e-01	 2.765949320593646e+00	 7.613736732424924e+00
 4.809547852898989e-01	 2.770323983192594e+00	 7.576514598594178e+00
 7.304201749922330e-01	 2.727417379139534e+00	 8.034564126973624e+00
 7.056217289321171e-01	 2.733938025321529e+00	 7.986565700994959e+00
 6.808266024024663e-01	 2.740217908139123e+00	 7.939231088455093e+00
 6.560380429670302e-01	 2.746257995564672e+00	 7.892549061336001e+00
 6.312592639442620e-01	 2.752059309010075e+00	 7.846589676099335e+00
 6.064934434322635e-01	 2.757622922206824e+00	 7.801490360768594e+00
 5.817437233716154e-01	 2.762949960068826e+00	 7.757443392496193e+00
 5.570132086462670e-01	 2.768041597539340e+00	 7.714684708036388e+00
 5.323049662226252e-01	 2.772899058423375e+00	 7.673483984877012e+00
 5.076220243269154e-01	 2.777523614206856e+00	 7.634135926790982e+00
 4.829673716608537e-01	 2.781916582863913e+00	 7.596952684247844e+00
 7.334639243023375e-01	 2.738782857606711e+00	 8.053421130629570e+00
 7.085621401150957e-01	 2.745330676110972e+00	 8.005830192708469e+00
 6.836636892912471e-01	 2.751636727960724e+00	 7.958794860136274e+00
 6.587718329275201e-01	 2.757701985161979e+00	 7.912332354027325e+00
 6.338897977326420e-01	 2.763527473382981e+00	 7.866537468556553e+00
 6.090207750482223e-01	 2.769114270829588e+00	 7.821568645548226e+00
 5.841679199076757e-01	 2.774463507103360e+00	 7.777635478266801e+00
 5.593343501333666e-01	 2.779576362043680e+00	 7.734987584291130e+00
 5.345231454721106e-01	 2.784454064555299e+00	 7.693904782599017e+00
 5.097373467691060e-01	 2.789097891422581e+00	 7.654688505933989e+00
 4.849799551803388e-01	 2.793509166111808e+00	 7.617654376158407e+00
 7.365076684376347e-01	 2.750148316751486e+00	 8.072006232919325e+00
 7.115025462989428e-01	 2.756723307531866e+00	 8.024688452085288e+00
 6.865007713565484e-01	 2.763055528369342e+00	 7.977870372357430e+00
 6.615056182401354e-01	 2.769145955303572e+00	 7.931592233851605e+00
 6.365203270486829e-01	 2.774995618259132e+00	 7.885967805407414e+00
 6.115481023672836e-01	 2.780605599916239e+00	 7.841170463496540e+00
 5.865921123221646e-01	 2.785977034564089e+00	 7.797420739842261e+00
 5.616554876740835e-01	 2.791111106938189e+00	 7.754975275006294e+00
 5.367413209502412e-01	 2.796009051043014e+00	 7.714117110360973e+00
 5.118526656147885e-01	 2.800672148961350e+00	 7.675147246743011e+00
 4.869925352779595e-01	 2.805101729651625e+00	 7.638377394670837e+00
 7.395514065357396e-01	 2.761513753353461e+00	 8.089967102053153e+00
 7.144429466505416e-01	 2.768115916356123e+00	 8.042806017945029e+00
 6.893378477945146e-01	 2.774474306129482e+00	 7.996139372895740e+00
 6.642393981302701e-01	 2.780589902746832e+00	 7.950025059232900e+00
 6.391508511470132e-01	 2.786463740389070e+00	 7.904590117093339e+00
 6.140754246732961e-01	 2.792096906210761e+00	 7.860016834589104e+00
 5.890162999281311e-01	 2.797490539188723e+00	 7.816530356998246e+00
 5.639766206106446e-01	 2.802645828954571e+00	 7.774387739526744e+00
 5.389594920283988e-01	 2.807564014612496e+00	 7.733868373263611e+00
 5.139679802644711e-01	 2.812246383543691e+00	 7.695265709764907e+00
 4.890051113833211e-01	 2.816694270198717e+00	 7.658880206239203e+00
 7.425951377342659e-01	 2.772879164192232e+00	 8.106957819763803e+00
 7.173833403367752e-01	 2.779508499355648e+00	 8.059851319145427e+00
 6.921749178012875e-01	 2.785893058005645e+00	 8.013286044692288e+00
 6.669731718233161e-01	 2.792033824249140e+00	 7.967329227093751e+00
 6.417813692822619e-01	 2.797931836523339e+00	 7.922115532419076e+00
 6.166027412501075e-01	 2.803588186457136e+00	 7.877830191806576e+00
 5.914404820386242e-01	 2.809004017714967e+00	 7.834696690110562e+00
 5.662977482852775e-01	 2.814180524824532e+00	 7.792965936455225e+00
 5.411776580779644e-01	 2.819118951989725e+00	 7.752906843434624e+00
 5.160832901186624e-01	 2.823820591890134e+00	 7.714798237444883e+00
 4.910176829260288e-01	 2.828286784468431e+00	 7.678922019126593e+00
 7.456388611708296e-01	 2.784244546047401e+00	 8.122643548342035e+00
 7.203237265245261e-01	 2.790901053302352e+00	 8.075495673609860e+00
 6.950119805730115e-01	 2.797311780762338e+00	 8.028997006939823e+00
 6.697069385446667e-01	 2.803477716567880e+00	 7.983205175351440e+00
 6.444118807090581e-01	 2.809399903412483e+00	 7.938256881828438e+00
 6.191300513815668e-01	 2.815079437399354e+00	 7.894334384583987e+00
 5.938646579666922e-01	 2.820517466880526e+00	 7.851653283194987e+00
 5.686188700402097e-01	 2.825715191279776e+00	 7.810451825723677e+00
 5.433958184703196e-01	 2.830673859900681e+00	 7.770981660593937e+00
 5.181985945778707e-01	 2.835394770721205e+00	 7.733499952670920e+00
 4.930302493356879e-01	 2.839879269176116e+00	 7.698262779437074e+00
 4.729044226992778e-01	 2.723953485966078e+00	 7.502270295376414e+00
 4.487899578648233e-01	 2.728030170713552e+00	 7.468040463288207e+00
 4.247089448717122e-01	 2.731882728495179e+00	 7.435804287987887e+00
 4.006641974294513e-01	 2.735512578015608e+00	 7.405508514056448e+00
 3.766584876884920e-01	 2.738921178794986e+00	 7.377110661537930e+00
 3.526945456578397e-01	 2.742110029959677e+00	 7.350608134045966e+00
 3.287750586596132e-01	 2.745080669028743e+00	 7.326008563920096e+00
 3.049026708202850e-01	 2.747834670697338e+00	 7.303226375323969e+00
 2.810799825983024e-01	 2.750373645618171e+00	 7.282206281631630e+00
 2.573095503477479e-01	 2.752699239182149e+00	 7.262917718596014e+00
 2.335938859176639e-01	 2.754813130299279e+00	 7.245345163557130e+00
 4.749170147721639e-01	 2.735546118484591e+00	 7.519216067322806e+00
 4.506999233215816e-01	 2.739640152833816e+00	 7.484655131675163e+00
 4.265164260770785e-01	 2.743509106375114e+00	 7.452101268278925e+00
 4.023693487227704e-01	 2.747154403850873e+00	 7.421488045073892e+00
 3.782614752068500e-01	 2.750577510992684e+00	 7.392757739129331e+00
 3.541955471567172e-01	 2.753779933306905e+00	 7.365882069750590e+00
 3.301742633312192e-01	 2.756763214855992e+00	 7.340865682312209e+00
 3.062002791097237e-01	 2.759528937036699e+00	 7.317641910407450e+00
 2.822762060177311e-01	 2.762078717356372e+00	 7.296169621894212e+00
 2.584046112886766e-01	 2.764414208208387e+00	 7.276429877716501e+00
 2.345880174615505e-01	 2.766537095647878e+00	 7.258416909218141e+00
 4.769296062751593e-01	 2.747138747718282e+00	 7.537402123428203e+00
 4.526098882375513e-01	 2.751250131664292e+00	 7.502595547398982e+00
 4.283239067706964e-01	 2.755135480960557e+00	 7.469799205728066e+00
 4.040744995333193e-01	 2.758796226387206e+00	 7.438935554726997e+00
 3.798644622713531e-01	 2.762233839887266e+00	 7.409933653727268e+00
 3.556965482305938e-01	 2.765449833347098e+00	 7.382742565340376e+00
 3.315734676066162e-01	 2.768445757372546e+00	 7.357357913948849e+00
 3.074978870316840e-01	 2.771223200061972e+00	 7.333731039210165e+00
 2.834724290983503e-01	 2.773783785777352e+00	 7.311834777041028e+00
 2.594996719194035e-01	 2.776129173914532e+00	 7.291661531857828e+00
 2.355821487237824e-01	 2.778261057673775e+00	 7.273214939385922e+00
 4.789421966378693e-01	 2.758731370382501e+00	 7.556583149603595e+00
 4.545198520714072e-01	 2.762860103915421e+00	 7.521621584892589e+00
 4.301313864402735e-01	 2.766761848957309e+00	 7.488664793780651e+00
 4.057796493777970e-01	 2.770438042326028e+00	 7.457626095082739e+00
 3.814674484276487e-01	 2.773890162176050e+00	 7.428423262433992e+00
 3.571975484540161e-01	 2.777119726773730e+00	 7.400985863617256e+00
 3.329726710891979e-01	 2.780128293268297e+00	 7.375295233092269e+00
 3.087954942183505e-01	 2.782917456459722e+00	 7.351319081766166e+00
 2.846686515010757e-01	 2.785488847564608e+00	 7.329043822821676e+00
 2.605947319295120e-01	 2.787844132981276e+00	 7.308472714778136e+00
 2.365762794225430e-01	 2.789985013055102e+00	 7.289618237993500e+00
 4.809547852898989e-01	 2.770323983192594e+00	 7.576514598594178e+00
 4.564298142818237e-01	 2.774470066297641e+00	 7.541493877841393e+00
 4.319388645735169e-01	 2.778388207071168e+00	 7.508465470305336e+00
 4.074847977729036e-01	 2.782079848368768e+00	 7.477335440527924e+00
 3.830704332213845e-01	 2.785546474556352e+00	 7.448012115243180e+00
 3.586985474015309e-01	 2.788789610280269e+00	 7.420408742564117e+00
 3.343718733823586e-01	 2.791810819233136e+00	 7.394488017755708e+00
 3.100931003019078e-01	 2.794611702916515e+00	 7.370231645016061e+00
 2.858648728868232e-01	 2.797193899401644e+00	 7.347639017604782e+00
 2.616897910085855e-01	 2.799559082089306e+00	 7.326723549045182e+00
 2.375704092760159e-01	 2.801708958469995e+00	 7.307505792329438e+00
 4.829673716608537e-01	 2.781916582863913e+00	 7.596952684247844e+00
 4.583397743274759e-01	 2.786080015521395e+00	 7.561973810784061e+00
 4.337463406581341e-01	 2.790014552007931e+00	 7.528969407056413e+00
 4.091899442353387e-01	 2.793721641216851e+00	 7.497840075602025e+00
 3.846734161982080e-01	 2.797202773725491e+00	 7.468486441728908e+00
 3.601995446476854e-01	 2.800459480560191e+00	 7.440808515564648e+00
 3.357710740894916e-01	 2.803493331956947e+00	 7.414747047371991e+00
 3.113907049145410e-01	 2.806305936118918e+00	 7.390294618600277e+00
 2.870610929165086e-01	 2.808898937971956e+00	 7.367462796937157e+00
 2.627848488462070e-01	 2.811274017919313e+00	 7.346274239963915e+00
 2.385645380023845e-01	 2.813432890596590e+00	 7.326756586902900e+00
 4.849799551803388e-01	 2.793509166111808e+00	 7.617654376158407e+00
 4.602497316670380e-01	 2.797689948297120e+00	 7.582823511121419e+00
 4.355538141818327e-01	 2.801640880473400e+00	 7.549945499568912e+00
 4.108950882818023e-01	 2.805363417571700e+00	 7.518917183276956e+00
 3.862763969037667e-01	 2.808859056380783e+00	 7.489633138188282e+00
 3.617005397670260e-01	 2.812129334306969e+00	 7.461983032074445e+00
 3.371702728139913e-01	 2.815175828129625e+00	 7.435883500900784e+00
 3.126883076884346e-01	 2.818000152753496e+00	 7.411334171071622e+00
 2.882573112510478e-01	 2.820603959959052e+00	 7.388357768493070e+00
 2.638799051319599e-01	 2.822988937151991e+00	 7.366985069860755e+00
 2.395586653198323e-01	 2.825156806113019e+00	 7.347249597621795e+00
 4.869925352779595e-01	 2.805101729651625e+00	 7.638377394670837e+00
 4.621596857591844e-01	 2.809299861335258e+00	 7.603805841522606e+00
 4.373612846323202e-01	 2.813267189173376e+00	 7.571163357474639e+00
 4.126002294289939e-01	 2.817005174134744e+00	 7.540344633672546e+00
 3.878793748837081e-01	 2.820515319219547e+00	 7.511239755224238e+00
 3.632015323340999e-01	 2.823799168214074e+00	 7.483730678728515e+00
 3.385694691592513e-01	 2.826858304441057e+00	 7.457708955362131e+00
 3.139859082557737e-01	 2.829694349506816e+00	 7.433176746514314e+00
 2.894535275513563e-01	 2.832308962046426e+00	 7.410166707404686e+00
 2.649749595554274e-01	 2.834703836468027e+00	 7.388716392713109e+00
 2.405527909465430e-01	 2.836880701697420e+00	 7.368863786275748e+00
 4.890051113833211e-01	 2.816694270198717e+00	 7.658880206239203e+00
 4.640696360625904e-01	 2.820909751346246e+00	 7.624684392715609e+00
 4.391687514973038e-01	 2.824893474813654e+00	 7.592393295226572e+00
 4.143053671936133e-01	 2.828646907607408e+00	 7.561900973194088e+00
 3.894823496836797e-01	 2.832171558939098e+00	 7.533094485756268e+00
 3.647025219234539e-01	 2.835468978974978e+00	 7.505850380873611e+00
 3.399686627286655e-01	 2.838540757581133e+00	 7.480035384783513e+00
 3.152835062487429e-01	 2.841388523065445e+00	 7.455649061558026e+00
 2.906497414783503e-01	 2.844013940917582e+00	 7.432732551960235e+00
 2.660700118061928e-01	 2.846418712548116e+00	 7.411328629115065e+00
 2.415469146007001e-01	 2.848604574027926e+00	 7.391478095315161e+00
 4.910176829260288e-01	 2.828286784468431e+00	 7.678922019126593e+00
 4.659795820359299e-01	 2.832519615040527e+00	 7.645223476652300e+00
 4.409762142644906e-01	 2.836519734100033e+00	 7.613406323219367e+00
 4.160105010923602e-01	 2.840288614691116e+00	 7.583365414080282e+00
 3.910853208493292e-01	 2.843827772236758e+00	 7.554986153446026e+00
 3.662035081096349e-01	 2.847138763283158e+00	 7.528141604512762e+00
 3.413678531256281e-01	 2.850223184239741e+00	 7.502675159548845e+00
 3.165811012995269e-01	 2.853082670115946e+00	 7.478578102776231e+00
 2.918459526929453e-01	 2.855718893256018e+00	 7.455898399661606e+00
 2.671650615738393e-01	 2.858133562072946e+00	 7.434682261569061e+00
 2.425410360004870e-01	 2.860328419782672e+00	 7.414971442917726e+00
 4.930302493356879e-01	 2.839879269176116e+00	 7.698262779437074e+00
 4.678895231378776e-01	 2.844129449128538e+00	 7.665188120036710e+00
 4.427836724215890e-01	 2.848145963738319e+00	 7.633974139295836e+00
 4.177156306419345e-01	 2.851930292087298e+00	 7.604517824349931e+00
 3.926882879263039e-01	 2.855483955809839e+00	 7.576704201527271e+00
 3.677044904671898e-01	 2.858808517832082e+00	 7.550404358650409e+00
 3.427670399535325e-01	 2.861905581106774e+00	 7.525441046137573e+00
 3.178786930403106e-01	 2.864776787344889e+00	 7.501791124456386e+00
 2.930421608560572e-01	 2.867423815745238e+00	 7.479507503629145e+00
 2.682601085479504e-01	 2.869848381723207e+00	 7.458637830094439e+00
 2.435351548640873e-01	 2.872052235639794e+00	 7.439222718334538e+00
 2.335938859176639e-01	 2.754813130299279e+00	 7.245345163557129e+00
 2.099394635008104e-01	 2.756716724217316e+00	 7.229534076723564e+00
 1.863446218167582e-01	 2.758412139178931e+00	 7.215551566998235e+00
 1.628116821391066e-01	 2.759901145897986e+00	 7.203421460227233e+00
 1.393429214814611e-01	 2.761185543711194e+00	 7.193152335017960e+00
 1.159405723611567e-01	 2.762267159393639e+00	 7.184731624316100e+00
 9.260682259463494e-02	 2.763147845979893e+00	 7.178120042821193e+00
 6.934381512395035e-02	 2.763829481591623e+00	 7.173246214372871e+00
 4.615364787385749e-02	 2.764313968272532e+00	 7.170001383128378e+00
 2.303837363891263e-02	 2.764603230831459e+00	 7.168234102307752e+00
 0.000000000000000e+00	 2.764699215694442e+00	 7.167744804496877e+00
 2.345880174615505e-01	 2.766537095647878e+00	 7.258416909218143e+00
 2.108329262820529e-01	 2.768448790903066e+00	 7.242184950727824e+00
 1.871376693996682e-01	 2.770151421231451e+00	 7.227798597283743e+00
 1.635045779669127e-01	 2.771646764882710e+00	 7.215274679177463e+00
 1.399359386879460e-01	 2.772936628851184e+00	 7.204616575022700e+00
 1.164339935812897e-01	 2.774022847686356e+00	 7.195808927577544e+00
 9.300093977433287e-02	 2.774907282308953e+00	 7.188812661763723e+00
 6.963892932910060e-02	 2.775591818833562e+00	 7.183560174843166e+00
 4.635006909873273e-02	 2.776078367398618e+00	 7.179950578773246e+00
 2.313642061410500e-02	 2.776368861004573e+00	 7.177844885085670e+00
 0.000000000000000e+00	 2.776465254361077e+00	 7.177061033216122e+00
 2.355821487237824e-01	 2.778261057673775e+00	 7.273214939385922e+00
 2.117263888101214e-01	 2.780180854263763e+00	 7.256563473917648e+00
 1.879307167578217e-01	 2.781890699956830e+00	 7.241776153551102e+00
 1.641974735983135e-01	 2.783392380538459e+00	 7.228864494404310e+00
 1.405289557263087e-01	 2.784687710660620e+00	 7.217828191332459e+00
 1.169274146615123e-01	 2.785778532647190e+00	 7.208650475037052e+00
 9.339505684225888e-02	 2.786666715305050e+00	 7.201293747016680e+00
 6.993404345054152e-02	 2.787354152741706e+00	 7.195695358040973e+00
 4.654649026788305e-02	 2.787842763190315e+00	 7.191763406267009e+00
 2.323446756147627e-02	 2.788134487842945e+00	 7.189372441819908e+00
 0.000000000000000e+00	 2.788231289692851e+00	 7.188358975620461e+00
 2.365762794225430e-01	 2.789985013055102e+00	 7.289618237993500e+00
 2.126198508317242e-01	 2.791912910975239e+00	 7.272567074114345e+00
 1.887237636663797e-01	 2.793629972028845e+00	 7.257398094481523e+00
 1.648903688368493e-01	 2.795137989537209e+00	 7.244118949938187e+00
 1.411219724283925e-01	 2.796438785809917e+00	 7.232726937699526e+00
 1.174208354618944e-01	 2.797534210945244e+00	 7.223205027486615e+00
 9.378917368663095e-02	 2.798426141636214e+00	 7.215518140413658e+00
 7.022915740455955e-02	 2.799116479983250e+00	 7.209609541913951e+00
 4.674291132558219e-02	 2.799607152314231e+00	 7.205397220821390e+00
 2.333251445320520e-02	 2.799900108012827e+00	 7.202770137813234e+00
 0.000000000000000e+00	 2.799997318355902e+00	 7.201584237767855e+00
 2.375704092760159e-01	 2.801708958469995e+00	 7.307505792329438e+00
 2.135133120935702e-01	 2.803644957713328e+00	 7.290093124737954e+00
 1.895168099005034e-01	 2.805369234121275e+00	 7.274578213821967e+00
 1.655832634860597e-01	 2.806883588550928e+00	 7.260966059715118e+00
 1.417149886260406e-01	 2.808189850969490e+00	 7.249252616105957e+00
 1.179142558425058e-01	 2.809289879249615e+00	 7.239421513847184e+00
 9.418329019566708e-02	 2.810185557970474e+00	 7.231441011463790e+00
 7.052427110744112e-02	 2.810878797225396e+00	 7.225261029345648e+00
 4.693933221610397e-02	 2.811371531436972e+00	 7.220810135626393e+00
 2.343056126147055e-02	 2.811665718180477e+00	 7.217992363247951e+00
 0.000000000000000e+00	 2.811763337016370e+00	 7.216683749449307e+00
 2.385645380023845e-01	 2.813432890596590e+00	 7.326756586902900e+00
 2.144067723423676e-01	 2.815376991153856e+00	 7.309038938690728e+00
 1.903098552353540e-01	 2.817108482907896e+00	 7.293230233881421e+00
 1.662761573494847e-01	 2.818629174251591e+00	 7.279333800232689e+00
 1.423080041510963e-01	 2.819940902809748e+00	 7.267345068086945e+00
 1.184076756634162e-01	 2.821045534229402e+00	 7.257249020620071e+00
 9.457740625758518e-02	 2.821944960975859e+00	 7.249017844351998e+00
 7.081938447547265e-02	 2.822641101135341e+00	 7.242608632083279e+00
 4.713575288372221e-02	 2.823135897225152e+00	 7.237961002042498e+00
 2.352860795845105e-02	 2.823431315012152e+00	 7.234994508939895e+00
 0.000000000000000e+00	 2.823529342340392e+00	 7.233605734763620e+00
 2.395586653198323e-01	 2.825156806113019e+00	 7.347249597621795e+00
 2.153002313248251e-01	 2.827109007972658e+00	 7.329301762516939e+00
 1.911028994460926e-01	 2.828847715062485e+00	 7.313267799281172e+00
 1.669690502306642e-01	 2.830374743311167e+00	 7.299150103457895e+00
 1.429010188354030e-01	 2.831691938001106e+00	 7.286944166316218e+00
 1.189010947846953e-01	 2.832801172553706e+00	 7.276636781631447e+00
 9.497152176060326e-02	 2.833704347320393e+00	 7.268204425280378e+00
 7.111449742494054e-02	 2.834403388380284e+00	 7.261611655073121e+00
 4.733217327271065e-02	 2.834900246345375e+00	 7.256809390287767e+00
 2.362665451632546e-02	 2.835196895174107e+00	 7.253732942694411e+00
 0.000000000000000e+00	 2.835295330994109e+00	 7.252299683420726e+00
 2.405527909465430e-01	 2.836880701697420e+00	 7.368863786275748e+00
 2.161936887876510e-01	 2.838841004845563e+00	 7.350778770831103e+00
 1.918959423078803e-01	 2.840586927258821e+00	 7.334604470952186e+00
 1.676619419331382e-01	 2.842120292401630e+00	 7.320342849974875e+00
 1.434940325108039e-01	 2.843442953213978e+00	 7.307989806444929e+00
 1.193945130664131e-01	 2.844556790891625e+00	 7.297534168059779e+00
 9.536563659293928e-02	 2.845463713672109e+00	 7.288956830139487e+00
 7.140960987213124e-02	 2.846165655627424e+00	 7.282229881192015e+00
 4.752859332734312e-02	 2.846664575464251e+00	 7.277315570604417e+00
 2.372470090727252e-02	 2.846962455332599e+00	 7.274164986245392e+00
 0.000000000000000e+00	 2.847061299643660e+00	 7.272716322752396e+00
 2.415469146007001e-01	 2.848604574027926e+00	 7.391478095315161e+00
 2.170871444775539e-01	 2.850572978448404e+00	 7.373367061005676e+00
 1.926889835958784e-01	 2.852326116170679e+00	 7.357153720372771e+00
 1.683548322604465e-01	 2.853865818194951e+00	 7.342839862369699e+00
 1.440870450091423e-01	 2.855193945118776e+00	 7.330421899188931e+00
 1.198879303686393e-01	 2.856312385912259e+00	 7.319890678738433e+00
 9.575975064281116e-02	 2.857223056699036e+00	 7.311231412501638e+00
 7.170472173333114e-02	 2.857927899543962e+00	 7.304423556363407e+00
 4.772501299189340e-02	 2.858428881248389e+00	 7.299440494893058e+00
 2.382274710347100e-02	 2.858727992153881e+00	 7.296248892762859e+00
 0.000000000000000e+00	 2.858827244955183e+00	 7.294807590410398e+00
 2.425410360004870e-01	 2.860328419782672e+00	 7.414971442917726e+00
 2.179805981412423e-01	 2.862304925457011e+00	 7.396963648112514e+00
 1.934820230852479e-01	 2.864065278471841e+00	 7.380828924038787e+00
 1.690477210161291e-01	 2.865611317363104e+00	 7.366568898842847e+00
 1.446800561622614e-01	 2.866944910385914e+00	 7.354180362654279e+00
 1.203813465514436e-01	 2.868067954284705e+00	 7.343655930726531e+00
 9.615386379843692e-02	 2.868982373069199e+00	 7.334984791925609e+00
 7.199983292482666e-02	 2.869690116797094e+00	 7.328153375048013e+00
 4.792143221063529e-02	 2.870193160364399e+00	 7.323145778799677e+00
 2.392079307709962e-02	 2.870493502304212e+00	 7.319943824910539e+00
 0.000000000000000e+00	 2.870593163594816e+00	 7.318526607731910e+00
 2.435351548640873e-01	 2.872052235639794e+00	 7.439222718334538e+00
 2.188740495254249e-01	 2.874036842547215e+00	 7.421465460109854e+00
 1.942750605511500e-01	 2.875804410836078e+00	 7.405543358161055e+00
 1.697406080037258e-01	 2.877356786578057e+00	 7.391457647044195e+00
 1.452730658020047e-01	 2.878695845685805e+00	 7.379205114897376e+00
 1.208747614748958e-01	 2.879823492678068e+00	 7.368779650139019e+00
 9.654797594803449e-02	 2.880741659450629e+00	 7.360173842564795e+00
 7.229494336290428e-02	 2.881452304054021e+00	 7.353380466096557e+00
 4.811785092784258e-02	 2.881957409478888e+00	 7.348393684243413e+00
 2.401883880033717e-02	 2.882258982449847e+00	 7.345209833439592e+00
 0.000000000000000e+00	 2.882359052228699e+00	 7.343827653753602e+00
 2.882359052228699e+00	 0.000000000000000e+00	 1.102676652407485e+01
 2.882258982449847e+00	 2.401883880033557e-02	 1.102835720167643e+01
 2.881957409478888e+00	 4.811785092784121e-02	 1.103026292666409e+01
 2.881452304054021e+00	 7.229494336290315e-02	 1.103250552778045e+01
 2.880741659450628e+00	 9.654797594803358e-02	 1.103510369421619e+01
 2.879823492678068e+00	 1.208747614748952e-01	 1.103807341315390e+01
 2.878695845685805e+00	 1.452730658020043e-01	 1.104142846361038e+01
 2.877356786578057e+00	 1.697406080037257e-01	 1.104518094577974e+01
 2.875804410836079e+00	 1.942750605511501e-01	 1.104934182196301e+01
 2.874036842547215e+00	 2.188740495254251e-01	 1.105392144197925e+01
 2.872052235639794e+00	 2.435351548640874e-01	 1.105893002269514e+01
 2.894122911994722e+00	 0.000000000000000e+00	 1.101688431292924e+01
 2.894022433798074e+00	 2.411686761655225e-02	 1.101847939936689e+01
 2.893719630008280e+00	 4.831423577465768e-02	 1.102040522063094e+01
 2.893212463081452e+00	 7.259000291233467e-02	 1.102267881398764e+01
 2.892498918102857e+00	 9.694202013734132e-02	 1.102531409617900e+01
 2.891577003988610e+00	 1.213680913145551e-01	 1.102832241023852e+01
 2.890444754696725e+00	 1.458659731841568e-01	 1.103171314061800e+01
 2.889100230446705e+00	 1.704333755112326e-01	 1.103549437561345e+01
 2.887541518946835e+00	 1.950679612673908e-01	 1.103967359286688e+01
 2.885766736628233e+00	 2.197673468449629e-01	 1.104425834042696e+01
 2.883774029884795e+00	 2.445291023043409e-01	 1.104925688249009e+01
 2.905886761765094e+00	 0.000000000000000e+00	 1.100715533954097e+01
 2.905785875151008e+00	 2.421489634919614e-02	 1.100870840621608e+01
 2.905481840543464e+00	 4.851062045410943e-02	 1.101061861575742e+01
 2.904972612116476e+00	 7.288506221039114e-02	 1.101289741098468e+01
 2.904256166765215e+00	 9.733606399104636e-02	 1.101555309912595e+01
 2.903330505312549e+00	 1.218614207341683e-01	 1.101859151168803e+01
 2.902193653725042e+00	 1.464588800616030e-01	 1.102201674510792e+01
 2.900843664337490e+00	 1.711261424291596e-01	 1.102583196096257e+01
 2.899278617085208e+00	 1.958608613089650e-01	 1.103004022120352e+01
 2.897496620743090e+00	 2.206606434045356e-01	 1.103464533048656e+01
 2.895495814170606e+00	 2.455230488991203e-01	 1.103965265419648e+01
 2.917650624872444e+00	 0.000000000000000e+00	 1.099755759605337e+01
 2.917549329840470e+00	 2.431292519281223e-02	 1.099902227925284e+01
 2.917244064413806e+00	 4.870700535590301e-02	 1.100088237373936e+01
 2.916732774484373e+00	 7.318012184254449e-02	 1.100314292197650e+01
 2.916013428757213e+00	 9.773010829097616e-02	 1.100580577899142e+01
 2.915084019961947e+00	 1.223547507124945e-01	 1.100887038909600e+01
 2.913942566073668e+00	 1.470517876105977e-01	 1.101233465632710e+01
 2.912587111542462e+00	 1.718189101318049e-01	 1.101619588717448e+01
 2.911015728530650e+00	 1.966537622487479e-01	 1.102045178075320e+01
 2.909226518156902e+00	 2.215539409761145e-01	 1.102510143807576e+01
 2.907217611746236e+00	 2.465169966199966e-01	 1.103014635849790e+01
 2.929414524649399e+00	 0.000000000000000e+00	 1.098807072235554e+01
 2.929312821198274e+00	 2.441095434194550e-02	 1.098940045619088e+01
 2.929006324948680e+00	 4.890339086974511e-02	 1.099117687755740e+01
 2.928492973510411e+00	 7.347518239426669e-02	 1.099339781934752e+01
 2.927770727398360e+00	 9.812415381895832e-02	 1.099605783567357e+01
 2.926837571248863e+00	 1.228480822282935e-01	 1.099914909925005e+01
 2.925691515045521e+00	 1.476446970073959e-01	 1.100266240591057e+01
 2.924330595353670e+00	 1.725116799934667e-01	 1.100658826462232e+01
 2.922752876562620e+00	 1.974466656596150e-01	 1.101091804784611e+01
 2.920956452134777e+00	 2.224472413316712e-01	 1.101564517347921e+01
 2.918939445860692e+00	 2.475109474385411e-01	 1.102076628592543e+01
 2.941178484428588e+00	 0.000000000000000e+00	 1.097867597243794e+01
 2.941076372556234e+00	 2.450898399114094e-02	 1.097982372414999e+01
 2.940768645477456e+00	 4.909977738534233e-02	 1.098148360290126e+01
 2.940253232519868e+00	 7.377024445102956e-02	 1.098364541912715e+01
 2.939528086008167e+00	 9.851820135682035e-02	 1.098629557087971e+01
 2.938591182485361e+00	 1.233414162603251e-01	 1.098941806569545e+01
 2.937440523943513e+00	 1.482376094282521e-01	 1.099299566350120e+01
 2.936074139063165e+00	 1.732044533884431e-01	 1.099701111871832e+01
 2.934490084460570e+00	 1.982395731144414e-01	 1.100144849610504e+01
 2.932686445941830e+00	 2.233405462431769e-01	 1.100629453115460e+01
 2.930661339762983e+00	 2.485049033263247e-01	 1.101154000205918e+01
 2.952942527542637e+00	 0.000000000000000e+00	 1.096935618161194e+01
 2.952840007246169e+00	 2.460701433494353e-02	 1.097027418917596e+01
 2.952531049329504e+00	 4.929616529240129e-02	 1.097178509032378e+01
 2.952013574838015e+00	 7.406530859830508e-02	 1.097386985611251e+01
 2.951285527906141e+00	 9.891225168638985e-02	 1.097650586655254e+01
 2.950344876983501e+00	 1.238347537873492e-01	 1.097966806079965e+01
 2.949189616070556e+00	 1.488305260494214e-01	 1.098333022278679e+01
 2.947817765962994e+00	 1.738972316910323e-01	 1.098746638025643e+01
 2.946227375503955e+00	 1.990324861861028e-01	 1.099205229142555e+01
 2.944416522843174e+00	 2.242338574826032e-01	 1.099706698968038e+01
 2.942383316702116e+00	 2.494988662549186e-01	 1.100249435277135e+01
 2.964706677324174e+00	 0.000000000000000e+00	 1.096015946014590e+01
 2.964603748599895e+00	 2.470504556789824e-02	 1.096079062744095e+01
 2.964293559834195e+00	 4.949255498062866e-02	 1.096210032985581e+01
 2.963774023790127e+00	 7.436037542156518e-02	 1.096406852785802e+01
 2.963043076411793e+00	 9.930630558949421e-02	 1.096667620795433e+01
 2.962098678055344e+00	 1.243280957881256e-01	 1.096989018830319e+01
 2.960938814729564e+00	 1.494234480471583e-01	 1.097366198794192e+01
 2.959561499345210e+00	 1.745900162755326e-01	 1.097795587607451e+01
 2.957964772972230e+00	 1.998254064474743e-01	 1.098273828718646e+01
 2.956146706103920e+00	 2.251271768219215e-01	 1.098797951184061e+01
 2.954105399927101e+00	 2.504928381958937e-01	 1.099365546950918e+01
 2.976470957105829e+00	 0.000000000000000e+00	 1.095481591912029e+01
 2.976367619949227e+00	 2.480307788455008e-02	 1.095500597945414e+01
 2.976056200320898e+00	 4.968894683973103e-02	 1.095588143259690e+01
 2.975534602701476e+00	 7.465544550628174e-02	 1.095741765825917e+01
 2.974800754844632e+00	 9.970036384796110e-02	 1.095959197918700e+01
 2.973852609012953e+00	 1.248214432414140e-01	 1.096238431780345e+01
 2.972688143223449e+00	 1.500163765977178e-01	 1.096577787355868e+01
 2.971305362501862e+00	 1.752828085162420e-01	 1.096975982384464e+01
 2.969702300144849e+00	 2.006183354714314e-01	 1.097432205156712e+01
 2.967877018989180e+00	 2.260205060331032e-01	 1.097946190269830e+01
 2.965827612686943e+00	 2.514868211208214e-01	 1.098518297735326e+01
 2.988235390220228e+00	 0.000000000000000e+00	 1.095543558855618e+01
 2.988131644625983e+00	 2.490111147944401e-02	 1.095504550060881e+01
 2.987818994118984e+00	 4.988534125941500e-02	 1.095535454089398e+01
 2.987295334897337e+00	 7.495051943792666e-02	 1.095633318879806e+01
 2.986558586524167e+00	 1.000944272436179e-01	 1.095795482234712e+01
 2.985606693168387e+00	 1.253147971259743e-01	 1.096019639238485e+01
 2.984437624855127e+00	 1.506093128773546e-01	 1.096303911633184e+01
 2.983049378724996e+00	 1.759756097874587e-01	 1.096646919442126e+01
 2.981439980301265e+00	 2.014112748308495e-01	 1.097047855155209e+01
 2.979607484764067e+00	 2.269138468881195e-01	 1.097506560813985e+01
 2.977549978230652e+00	 2.524808170012723e-01	 1.098023608357520e+01
 3.000000000000000e+00	 0.000000000000000e+00	 1.096191714768708e+01
 2.999895845961979e+00	 2.499914654712504e-02	 1.096081483138434e+01
 2.999581964557825e+00	 5.008173862938725e-02	 1.096043271193339e+01
 2.999056243702983e+00	 7.524559780197193e-02	 1.096073606007154e+01
 2.998316594769909e+00	 1.004884965582924e-01	 1.096169403927325e+01
 2.997360953833710e+00	 1.258081584205664e-01	 1.096328039838661e+01
 2.996187282927511e+00	 1.512022580623235e-01	 1.096547418268605e+01
 2.994793571306667e+00	 1.766684214634811e-01	 1.096826046627537e+01
 2.993177836720936e+00	 2.022042260986038e-01	 1.097163110902965e+01
 2.991338126693695e+00	 2.278072011589421e-01	 1.097558554151383e+01
 2.989272519807237e+00	 2.534748278088181e-01	 1.098013158155430e+01
 2.872052235639794e+00	 2.435351548640874e-01	 1.105893002269514e+01
 2.869848381723207e+00	 2.682601085479492e-01	 1.106461377539770e+01
 2.867423815745239e+00	 2.930421608560563e-01	 1.107123858867960e+01
 2.864776787344890e+00	 3.178786930403098e-01	 1.107884959078955e+01
 2.861905581106774e+00	 3.427670399535317e-01	 1.108749528027683e+01
 2.858808517832082e+00	 3.677044904671891e-01	 1.109722722598779e+01
 2.855483955809838e+00	 3.926882879263032e-01	 1.110777091119016e+01
 2.851930292087298e+00	 4.177156306419340e-01	 1.111866880596315e+01
 2.848145963738319e+00	 4.427836724215886e-01	 1.112994099726998e+01
 2.844129449128539e+00	 4.678895231378774e-01	 1.114161723667944e+01
 2.839879269176116e+00	 4.930302493356879e-01	 1.115373201765615e+01
 2.883774029884795e+00	 2.445291023043409e-01	 1.104925688249009e+01
 2.881561181312736e+00	 2.693549666950648e-01	 1.105492941595553e+01
 2.879126719880461e+00	 2.942381627483285e-01	 1.106155569633827e+01
 2.876468888083154e+00	 3.191760610280597e-01	 1.106918001860067e+01
 2.873585963504232e+00	 3.441659855097359e-01	 1.107785095285901e+01
 2.870476260091502e+00	 3.692052139998152e-01	 1.108762123928705e+01
 2.867138129433608e+00	 3.942909785925017e-01	 1.109816863287397e+01
 2.863569962035601e+00	 4.194204661642389e-01	 1.110907201062950e+01
 2.859770188592510e+00	 4.445908189062850e-01	 1.112035526200981e+01
 2.855737281259658e+00	 4.697991348956878e-01	 1.113204875845945e+01
 2.851469754918560e+00	 4.950424687049376e-01	 1.114418831354540e+01
 2.895495814170606e+00	 2.455230488991203e-01	 1.103965265419648e+01
 2.893273970950796e+00	 2.704498239109751e-01	 1.104533055728827e+01
 2.890829614072690e+00	 2.954341636234662e-01	 1.105196794203746e+01
 2.888160978887659e+00	 3.204734279125577e-01	 1.105960886268035e+01
 2.885266335977931e+00	 3.455649298763945e-01	 1.106830239725629e+01
 2.882143992437939e+00	 3.707059362564370e-01	 1.107810267884525e+01
 2.878792293155942e+00	 3.958936678960827e-01	 1.108863781744003e+01
 2.875209622094806e+00	 4.211253002371716e-01	 1.109953104848729e+01
 2.871394403570720e+00	 4.463979638547236e-01	 1.111080766330171e+01
 2.867345103528707e+00	 4.717087450302362e-01	 1.112249897746814e+01
 2.863060230813644e+00	 4.970546863638151e-01	 1.113464229550424e+01
 2.907217611746236e+00	 2.465169966199966e-01	 1.103014635849790e+01
 2.904986773868510e+00	 2.715446823673723e-01	 1.103585595197290e+01
 2.902532521533373e+00	 2.966301658537490e-01	 1.104252221679899e+01
 2.899853082948376e+00	 3.217707962671171e-01	 1.105018950326687e+01
 2.896946721694552e+00	 3.469638758282780e-01	 1.105890777715884e+01
 2.893811738012948e+00	 3.722066602136828e-01	 1.106873079171190e+01
 2.890446470091443e+00	 3.974963590159123e-01	 1.107924125243278e+01
 2.886849295350696e+00	 4.228301362421902e-01	 1.109010833954376e+01
 2.883018631728068e+00	 4.482051108512873e-01	 1.110135825814354e+01
 2.878952938958263e+00	 4.736183573291387e-01	 1.111302356361629e+01
 2.874650719849520e+00	 4.990669063034532e-01	 1.112514319442776e+01
 2.918939445860692e+00	 2.475109474385411e-01	 1.102076628592543e+01
 2.916699613297002e+00	 2.726395442359483e-01	 1.102654343150006e+01
 2.914235465473960e+00	 2.978261718114570e-01	 1.103326434346644e+01
 2.911545223455277e+00	 3.230681686650517e-01	 1.104097414886958e+01
 2.908627143820772e+00	 3.483628261401568e-01	 1.104972402416801e+01
 2.905479519958090e+00	 3.737073888481818e-01	 1.105956463321279e+01
 2.902100683354704e+00	 3.990990551308560e-01	 1.107004049820928e+01
 2.898489004889065e+00	 4.245349775607526e-01	 1.108086508521186e+01
 2.894642896119672e+00	 4.500122634803584e-01	 1.109206593074100e+01
 2.890560810570904e+00	 4.755279755800104e-01	 1.110367709699204e+01
 2.886241245014344e+00	 5.010791325149845e-01	 1.111573927145509e+01
 2.930661339762983e+00	 2.485049033263247e-01	 1.101154000205918e+01
 2.928412512467395e+00	 2.737344116883950e-01	 1.101742991678968e+01
 2.925938469105899e+00	 2.990221838688700e-01	 1.102423909203152e+01
 2.923237423598332e+00	 3.243655476796743e-01	 1.103201385589057e+01
 2.920307625523269e+00	 3.497617835868016e-01	 1.104080686118542e+01
 2.917147361414919e+00	 3.752081251365625e-01	 1.105066301228397e+01
 2.913754956060327e+00	 4.007017594197793e-01	 1.106109590659330e+01
 2.910128773795698e+00	 4.262398275743172e-01	 1.107186128782842e+01
 2.906267219800650e+00	 4.518194253263197e-01	 1.108298841226259e+01
 2.902168741389206e+00	 4.774376035704672e-01	 1.109451308721772e+01
 2.897831829296266e+00	 5.030913689895414e-01	 1.110647783628670e+01
 2.942383316702116e+00	 2.494988662549186e-01	 1.100249435277135e+01
 2.940125494610816e+00	 2.748292868964044e-01	 1.100855142865369e+01
 2.937641555640640e+00	 3.002182043982680e-01	 1.101549019482929e+01
 2.934929706567512e+00	 3.256629358842988e-01	 1.102335854805263e+01
 2.931988189968719e+00	 3.511607509429824e-01	 1.103221082556201e+01
 2.928815285524995e+00	 3.767088720554540e-01	 1.104208357337587e+01
 2.925409311322911e+00	 4.023044750615480e-01	 1.105246663924522e+01
 2.921768625156387e+00	 4.279446896643417e-01	 1.106315576988873e+01
 2.917891625826122e+00	 4.536265999735539e-01	 1.107418230032803e+01
 2.913776754435748e+00	 4.793472450881242e-01	 1.108558399257423e+01
 2.909422495683443e+00	 5.051036197182569e-01	 1.109740526531927e+01
 2.954105399927101e+00	 2.504928381958937e-01	 1.099365546950918e+01
 2.951838582958386e+00	 2.759241720316686e-01	 1.099994309820729e+01
 2.949344748289631e+00	 3.014142357719309e-01	 1.100706036160557e+01
 2.946622095552791e+00	 3.269603358522385e-01	 1.101505703563915e+01
 2.943668860323803e+00	 3.525597309834700e-01	 1.102398929201439e+01
 2.940483315429874e+00	 3.782096325814847e-01	 1.103388281309441e+01
 2.937063772257052e+00	 4.039072052350276e-01	 1.104421068575596e+01
 2.933408582056919e+00	 4.296495672122845e-01	 1.105480619300576e+01
 2.929516137251206e+00	 4.554337910064435e-01	 1.106570307823810e+01
 2.925384872733102e+00	 4.812569039205969e-01	 1.107694123889936e+01
 2.921013267164025e+00	 5.071158886922630e-01	 1.108856701960364e+01
 2.965827612686943e+00	 2.514868211208214e-01	 1.098518297735326e+01
 2.963551800741228e+00	 2.770190692658795e-01	 1.099164415025990e+01
 2.961048070264323e+00	 3.026102803621389e-01	 1.099899129446044e+01
 2.958314613744137e+00	 3.282577501568067e-01	 1.100715703455140e+01
 2.955349659755197e+00	 3.539587264830348e-01	 1.101619449531534e+01
 2.952151474271114e+00	 3.797104096912833e-01	 1.102611609658818e+01
 2.948718361977349e+00	 4.055099531190841e-01	 1.103638488147228e+01
 2.945048667583086e+00	 4.313544635996034e-01	 1.104686907660168e+01
 2.941140777131022e+00	 4.572410020093710e-01	 1.105760513395301e+01
 2.936993119303852e+00	 4.831665838555012e-01	 1.106863523826659e+01
 2.932604166726168e+00	 5.091281799026927e-01	 1.108000766263096e+01
 2.977549978230652e+00	 2.524808170012723e-01	 1.098023608357520e+01
 2.975265171190469e+00	 2.781139807707291e-01	 1.098609301146564e+01
 2.972751544776164e+00	 3.038063405411718e-01	 1.099279334073268e+01
 2.970007284331522e+00	 3.295551813713170e-01	 1.100043276722654e+01
 2.967030611429579e+00	 3.553577402164471e-01	 1.100910798165030e+01
 2.963819785190275e+00	 3.812112063614789e-01	 1.101884683822940e+01
 2.960373103598401e+00	 4.071127218925827e-01	 1.102904492506102e+01
 2.956688904820674e+00	 4.330593822077567e-01	 1.103939981633900e+01
 2.952765568520688e+00	 4.590482365667191e-01	 1.104994177882626e+01
 2.948601517170569e+00	 4.850762886804520e-01	 1.106071540745076e+01
 2.944195217358023e+00	 5.111404973406783e-01	 1.107177087795205e+01
 2.989272519807237e+00	 2.534748278088181e-01	 1.098013158155430e+01
 2.986978717537231e+00	 2.792089087179097e-01	 1.098530183971816e+01
 2.984455195036603e+00	 3.050024186813095e-01	 1.099119202412624e+01
 2.981700130504918e+00	 3.308526320690827e-01	 1.099791338499407e+01
 2.978711738513629e+00	 3.567567749584777e-01	 1.100557702206306e+01
 2.975488271328913e+00	 3.827120255687001e-01	 1.101420463929857e+01
 2.972028020234808e+00	 4.087155147343895e-01	 1.102329306896794e+01
 2.968329316855474e+00	 4.347643264182023e-01	 1.103279995126859e+01
 2.964390534475323e+00	 4.608554982628706e-01	 1.104278777934908e+01
 2.960210089355833e+00	 4.869860221830654e-01	 1.105323018618664e+01
 2.955786442047745e+00	 5.131528449973527e-01	 1.106389948663489e+01
 2.839879269176116e+00	 4.930302493356879e-01	 1.115373201765615e+01
 2.835394770721205e+00	 5.181985945778688e-01	 1.116605769248973e+01
 2.830673859900681e+00	 5.433958184703180e-01	 1.117840898450797e+01
 2.825715191279776e+00	 5.686188700402085e-01	 1.119088344327428e+01
 2.820517466880527e+00	 5.938646579666913e-01	 1.120358094252501e+01
 2.815079437399354e+00	 6.191300513815661e-01	 1.121660229090653e+01
 2.809399903412483e+00	 6.444118807090574e-01	 1.123004753775166e+01
 2.803477716567880e+00	 6.697069385446666e-01	 1.124401394867395e+01
 2.797311780762338e+00	 6.950119805730116e-01	 1.125859362565599e+01
 2.790901053302352e+00	 7.203237265245264e-01	 1.127387074636858e+01
 2.784244546047401e+00	 7.456388611708296e-01	 1.128989074739923e+01
 2.851469754918560e+00	 4.950424687049376e-01	 1.114418831354540e+01
 2.846966953743598e+00	 5.203135342809679e-01	 1.115654534977767e+01
 2.842226775325914e+00	 5.456135963705490e-01	 1.116892808234066e+01
 2.837247868739591e+00	 5.709395915488288e-01	 1.118142832205610e+01
 2.832028930709208e+00	 5.962884158782610e-01	 1.119414127603815e+01
 2.826568706832383e+00	 6.216569257125413e-01	 1.120716423672831e+01
 2.820865992790118e+00	 6.470419385398125e-01	 1.122059496268077e+01
 2.814919635543591e+00	 6.724402338651020e-01	 1.123452972508856e+01
 2.808728534516055e+00	 6.978485541319095e-01	 1.124906099391266e+01
 2.802291642758450e+00	 7.232636056828089e-01	 1.126427473751414e+01
 2.795607968097343e+00	 7.486820597588804e-01	 1.128017682513538e+01
 2.863060230813644e+00	 4.970546863638151e-01	 1.113464229550424e+01
 2.858539126934141e+00	 5.224284721865047e-01	 1.114701015172997e+01
 2.853779680935614e+00	 5.478313723859395e-01	 1.115940633194032e+01
 2.848780536401003e+00	 5.732603110852497e-01	 1.117191711620557e+01
 2.843540384757442e+00	 5.987121717301980e-01	 1.118463337147266e+01
 2.838057966503752e+00	 6.241837978963836e-01	 1.119764932337280e+01
 2.832332072425711e+00	 6.496719941358743e-01	 1.121106101641838e+01
 2.826361544797722e+00	 6.751735268632310e-01	 1.122496443576966e+01
 2.820145278569506e+00	 7.006851252808409e-01	 1.123945326359718e+01
 2.813682222536445e+00	 7.262034823434264e-01	 1.125461624308061e+01
 2.806971380492208e+00	 7.517252557615359e-01	 1.127040313934718e+01
 2.874650719849520e+00	 4.990669063034532e-01	 1.112514319442776e+01
 2.870111313244676e+00	 5.245434124893534e-01	 1.113749450383224e+01
 2.865332599643407e+00	 5.500491509153405e-01	 1.114988059552882e+01
 2.860313217137519e+00	 5.755810332525089e-01	 1.116238240711007e+01
 2.855051851856677e+00	 6.011359303299106e-01	 1.117508677107101e+01
 2.849547239200906e+00	 6.267106729450298e-01	 1.118808527392712e+01
 2.843798165060762e+00	 6.523020527138398e-01	 1.120147280029096e+01
 2.837803467023862e+00	 6.779068229604152e-01	 1.121534573425666e+01
 2.831562035566389e+00	 7.035216996460125e-01	 1.122979979025946e+01
 2.825072815228173e+00	 7.291433623374807e-01	 1.124492744556805e+01
 2.818334805769973e+00	 7.547684552148183e-01	 1.126060751958299e+01
 2.886241245014344e+00	 5.010791325149845e-01	 1.111573927145509e+01
 2.881683535627047e+00	 5.266583593843890e-01	 1.112803997168925e+01
 2.876885554362930e+00	 5.522669363576039e-01	 1.114038700778677e+01
 2.871845933822634e+00	 5.779017626536441e-01	 1.115285614317880e+01
 2.866563354838352e+00	 6.035596964848073e-01	 1.116553046064813e+01
 2.861036547711292e+00	 6.292375558704169e-01	 1.117849931335891e+01
 2.855264293436766e+00	 6.549321194903058e-01	 1.119185695734795e+01
 2.849245424915598e+00	 6.806401275780180e-01	 1.120570083697406e+01
 2.842978828150414e+00	 7.063582828536313e-01	 1.122012949461068e+01
 2.836463443425472e+00	 7.320832514960749e-01	 1.123524007583354e+01
 2.829698266468617e+00	 7.578116641547494e-01	 1.125082732840166e+01
 2.897831829296266e+00	 5.030913689895414e-01	 1.110647783628670e+01
 2.893255817033098e+00	 5.287733170664860e-01	 1.111868729819692e+01
 2.888438568007811e+00	 5.544847331115815e-01	 1.113096099231201e+01
 2.883378709329851e+00	 5.802225038916937e-01	 1.114336965601527e+01
 2.878074916533914e+00	 6.059834750022964e-01	 1.115599288590038e+01
 2.872525914822354e+00	 6.317644516844813e-01	 1.116891818537893e+01
 2.866730480295224e+00	 6.575621996818700e-01	 1.118223969018968e+01
 2.860687441166514e+00	 6.833734461374018e-01	 1.119605654243030e+01
 2.854395678965277e+00	 7.091948805299034e-01	 1.121047088349288e+01
 2.847854129720178e+00	 7.350231556503113e-01	 1.122558543622431e+01
 2.841061785126119e+00	 7.608548886173511e-01	 1.124109945959431e+01
 2.909422495683443e+00	 5.051036197182569e-01	 1.109740526531927e+01
 2.904828180414673e+00	 5.308882897305194e-01	 1.110947642058572e+01
 2.899991663491680e+00	 5.567025455761248e-01	 1.112163727799385e+01
 2.894911566532674e+00	 5.825432615696954e-01	 1.113395367653995e+01
 2.889586559774804e+00	 6.084072706897861e-01	 1.114650196868933e+01
 2.884015363321542e+00	 6.342913653991595e-01	 1.115936816929389e+01
 2.878196748377630e+00	 6.601922985051287e-01	 1.117264677879123e+01
 2.872129538470198e+00	 6.861067840599293e-01	 1.118643925040906e+01
 2.865812610654686e+00	 7.120314983010368e-01	 1.120085207082755e+01
 2.859244896704131e+00	 7.379630806312921e-01	 1.121599442366730e+01
 2.852425384280456e+00	 7.638981346386458e-01	 1.123146033632923e+01
 2.921013267164025e+00	 5.071158886922630e-01	 1.108856701960364e+01
 2.916400648723617e+00	 5.330032815713636e-01	 1.110044648733954e+01
 2.911544863728170e+00	 5.589203781500852e-01	 1.111244991530559e+01
 2.906444528304603e+00	 5.848640402906875e-01	 1.112463835106485e+01
 2.901098307392468e+00	 6.108310883546845e-01	 1.113708512330203e+01
 2.895504915996297e+00	 6.368183020263883e-01	 1.114987509685038e+01
 2.889663120425480e+00	 6.628224211766793e-01	 1.116310359832322e+01
 2.883571739520237e+00	 6.888401467669630e-01	 1.117687498115378e+01
 2.877229645862341e+00	 7.148681417932372e-01	 1.119130079854494e+01
 2.870635766969164e+00	 7.409030322701194e-01	 1.120649751785003e+01
 2.863789086469607e+00	 7.669414082546545e-01	 1.122194590922127e+01
 2.932604166726168e+00	 5.091281799026927e-01	 1.108000766263096e+01
 2.927973244911772e+00	 5.351182967838933e-01	 1.109163587499369e+01
 2.923098191630907e+00	 5.611382352323142e-01	 1.110343229251812e+01
 2.917977617519138e+00	 5.871848446577076e-01	 1.111545325732184e+01
 2.912610182218348e+00	 6.132549328044001e-01	 1.112776927268850e+01
 2.906994595634071e+00	 6.393452665781053e-01	 1.114046436907120e+01
 2.901129619180276e+00	 6.654525729131187e-01	 1.115363513697036e+01
 2.895014067010216e+00	 6.915735396798658e-01	 1.116738939454670e+01
 2.888646807231948e+00	 7.177048166327118e-01	 1.118184445749546e+01
 2.882026763107115e+00	 7.438430163978959e-01	 1.119711632415025e+01
 2.875152914231550e+00	 7.699847155014000e-01	 1.121259165432730e+01
 2.944195217358023e+00	 5.111404973406783e-01	 1.107177087795205e+01
 2.939545991930983e+00	 5.372333395629835e-01	 1.108308220481584e+01
 2.934651670113527e+00	 5.633561212216638e-01	 1.109461715183727e+01
 2.929510857049781e+00	 5.895056792737938e-01	 1.110642742044690e+01
 2.924122207083888e+00	 6.156788088463414e-01	 1.111858086467829e+01
 2.918484425022306e+00	 6.418722640662461e-01	 1.113116097308448e+01
 2.912596267383512e+00	 6.680827589310436e-01	 1.114426601374872e+01
 2.906456543633722e+00	 6.943069682200002e-01	 1.115800780928351e+01
 2.900064117407209e+00	 7.205415284456675e-01	 1.117251010834523e+01
 2.893417907709820e+00	 7.467830388457236e-01	 1.118787514852797e+01
 2.886516890104262e+00	 7.730280624149037e-01	 1.120343257106899e+01
 2.955786442047745e+00	 5.131528449973527e-01	 1.106389948663489e+01
 2.951118912733093e+00	 5.393484141035088e-01	 1.107482235937359e+01
 2.946205322089658e+00	 5.655740405169850e-01	 1.108603660546744e+01
 2.941044269770034e+00	 5.918265487419844e-01	 1.109758932892156e+01
 2.935634404820533e+00	 6.181027212879169e-01	 1.110954588817694e+01
 2.929974426948450e+00	 6.443992995027482e-01	 1.112198949894732e+01
 2.924063087776689e+00	 6.707129844470519e-01	 1.113502049632278e+01
 2.917899192084344e+00	 6.970404378087290e-01	 1.114875522204486e+01
 2.911481599031826e+00	 7.233782828583113e-01	 1.116332450245688e+01
 2.904809223369119e+00	 7.497231054447053e-01	 1.117880501477426e+01
 2.897881036625724e+00	 7.760714550311877e-01	 1.119450318008427e+01
 2.784244546047401e+00	 7.456388611708296e-01	 1.128989074739923e+01
 2.777341327140289e+00	 7.709540357120230e-01	 1.130607538220769e+01
 2.770190523933510e+00	 7.962658699414044e-01	 1.132230111960541e+01
 2.762791322259456e+00	 8.215709523512867e-01	 1.133857962505540e+01
 2.755142966881336e+00	 8.468658409348060e-01	 1.135491471025194e+01
 2.747244762524284e+00	 8.721470643699959e-01	 1.137130138830991e+01
 2.739096074880508e+00	 8.974111232401949e-01	 1.138772492649287e+01
 2.730696331587098e+00	 9.226544912902125e-01	 1.140415990668848e+01
 2.722045023175160e+00	 9.478736167176454e-01	 1.142056930420710e+01
 2.713141703988886e+00	 9.730649234986561e-01	 1.143690359578620e+01
 2.703985993073250e+00	 9.982248127474883e-01	 1.145309990793091e+01
 2.795607968097343e+00	 7.486820597588804e-01	 1.128017682513538e+01
 2.788676574872340e+00	 7.741005538926707e-01	 1.129613025296486e+01
 2.781496586874372e+00	 7.995156940817389e-01	 1.131215660434274e+01
 2.774067186612943e+00	 8.249240548949102e-01	 1.132827253745248e+01
 2.766387615768889e+00	 8.503221802773536e-01	 1.134448618268541e+01
 2.758457176229696e+00	 8.757065847394927e-01	 1.136079612898889e+01
 2.750275231098747e+00	 9.010737545823915e-01	 1.137719040743406e+01
 2.741841205677131e+00	 9.264201491590485e-01	 1.139364548256089e+01
 2.733154588416641e+00	 9.517422021709827e-01	 1.141012526243642e+01
 2.724214931842598e+00	 9.770363229994232e-01	 1.142658013868065e+01
 2.715021853445169e+00	 1.002298898070373e+00	 1.144294606796902e+01
 2.806971380492208e+00	 7.517252557615359e-01	 1.127040313934718e+01
 2.800011812973204e+00	 7.772470694001704e-01	 1.128615541593399e+01
 2.792802640208805e+00	 8.027655154611625e-01	 1.130200696332339e+01
 2.785343041385627e+00	 8.282771545898623e-01	 1.131797799815196e+01
 2.777632255102135e+00	 8.537785166834878e-01	 1.133407951212983e+01
 2.769669580408165e+00	 8.792661020848667e-01	 1.135031218987864e+01
 2.761454377818280e+00	 9.047363828128018e-01	 1.136666532371216e+01
 2.752986070297566e+00	 9.301858038284960e-01	 1.138311573627168e+01
 2.744264144218502e+00	 9.556107843374054e-01	 1.139962672231826e+01
 2.735288150287535e+00	 9.810077191258391e-01	 1.141614702131258e+01
 2.726057704440031e+00	 1.006372979931575e+00	 1.143260983267707e+01
 2.818334805769973e+00	 7.547684552148183e-01	 1.126060751958299e+01
 2.811347063924999e+00	 7.803935884754596e-01	 1.127619328014853e+01
 2.804108706361059e+00	 8.060153405254978e-01	 1.129189889302226e+01
 2.796618908941876e+00	 8.316302580867957e-01	 1.130774673038528e+01
 2.788876907183537e+00	 8.572348570086061e-01	 1.132374921966107e+01
 2.780881997298227e+00	 8.828256234661468e-01	 1.133990769313002e+01
 2.772633537211680e+00	 9.083990151959485e-01	 1.135621123425120e+01
 2.764130947552977e+00	 9.339514627674044e-01	 1.137263553196285e+01
 2.755373712615279e+00	 9.594793708898928e-01	 1.138914175463579e+01
 2.746361381286156e+00	 9.849791197547910e-01	 1.140567545569271e+01
 2.737093567946168e+00	 1.010447066411639e+00	 1.142216552317906e+01
 2.829698266468617e+00	 7.578116641547494e-01	 1.125082732840166e+01
 2.822682350209845e+00	 7.835401173594769e-01	 1.126628567311182e+01
 2.815414807755385e+00	 8.092651757205692e-01	 1.128187839556168e+01
 2.807894811646058e+00	 8.349833720363625e-01	 1.129762865171992e+01
 2.800121594315558e+00	 8.606912081081041e-01	 1.131354891068063e+01
 2.792094449138411e+00	 8.863851559433625e-01	 1.132963973629724e+01
 2.783812731451517e+00	 9.120616589963542e-01	 1.134588856532820e+01
 2.775275859547939e+00	 9.377171334446213e-01	 1.136226849373123e+01
 2.766483315641509e+00	 9.633479695014241e-01	 1.137873708315796e+01
 2.757434646800921e+00	 9.889505327631671e-01	 1.139523520005040e+01
 2.748129465851914e+00	 1.014521165591107e+00	 1.141168590002152e+01
 2.841061785126119e+00	 7.608548886173511e-01	 1.124109945959431e+01
 2.834017694309858e+00	 7.866866622931600e-01	 1.125647384027884e+01
 2.826720966816032e+00	 8.125150274922007e-01	 1.127199077939882e+01
 2.819170771862535e+00	 8.383365030892150e-01	 1.128767287590622e+01
 2.811366338800662e+00	 8.641475768373790e-01	 1.130353127788411e+01
 2.803306958167254e+00	 8.899447065765430e-01	 1.131956439639830e+01
 2.794991982710364e+00	 9.157243214785410e-01	 1.133575661570427e+01
 2.786420828387023e+00	 9.414828233289950e-01	 1.135207701181733e+01
 2.777592975331730e+00	 9.672165878449793e-01	 1.136847809188158e+01
 2.768507968794286e+00	 9.929219660278541e-01	 1.138489456713312e+01
 2.759165420045602e+00	 1.018595285550525e+00	 1.140124217254306e+01
 2.852425384280456e+00	 7.638981346386458e-01	 1.123146033632923e+01
 2.845353118707159e+00	 7.898332295174468e-01	 1.124679844442245e+01
 2.838027205967251e+00	 8.157649022862157e-01	 1.126228065986014e+01
 2.830446811955678e+00	 8.416896578960059e-01	 1.127792771453513e+01
 2.822611162941309e+00	 8.676039700518273e-01	 1.129374810400517e+01
 2.814519546623286e+00	 8.935042824257167e-01	 1.130973673371628e+01
 2.806171313160790e+00	 9.193870099070308e-01	 1.132587356146240e+01
 2.797565876174806e+00	 9.452485398893752e-01	 1.134212224846729e+01
 2.788702713720482e+00	 9.710852335935384e-01	 1.135842883191317e+01
 2.779581369228708e+00	 9.968934274257394e-01	 1.137472043211239e+01
 2.770201452415563e+00	 1.022669434370435e+00	 1.139090400781675e+01
 2.863789086469607e+00	 7.669414082546545e-01	 1.122194590922127e+01
 2.856688645883863e+00	 7.929798252732757e-01	 1.123729956488631e+01
 2.849333547633289e+00	 8.190148065484381e-01	 1.125279195952636e+01
 2.841722954289853e+00	 8.450428431073873e-01	 1.126844067851104e+01
 2.833856089039964e+00	 8.710603946068453e-01	 1.128425026434020e+01
 2.825732236745038e+00	 8.970638905509134e-01	 1.130021079534758e+01
 2.817350744975367e+00	 9.230497315463467e-01	 1.131629646055931e+01
 2.808711025015862e+00	 9.490142905946093e-01	 1.133246414347609e+01
 2.799812552842299e+00	 9.749539144200807e-01	 1.134865202799957e+01
 2.790654870066648e+00	 1.000864924833711e+00	 1.136477824010585e+01
 2.781237584850132e+00	 1.026743620131380e+00	 1.138073953917629e+01
 2.875152914231550e+00	 7.699847155014000e-01	 1.121259165432730e+01
 2.868024298322092e+00	 7.961264558015841e-01	 1.122801669672749e+01
 2.860640014238399e+00	 8.222647467246914e-01	 1.124356790847130e+01
 2.852999221229426e+00	 8.483960653740118e-01	 1.125925847934424e+01
 2.845101139399088e+00	 8.745168573578294e-01	 1.127508772905899e+01
 2.836945050771046e+00	 9.006235380121620e-01	 1.129103961850354e+01
 2.828530300326665e+00	 9.267124936610105e-01	 1.130708125709815e+01
 2.819856297014763e+00	 9.527800829135464e-01	 1.132316141941969e+01
 2.810922514731721e+00	 9.788226379975860e-01	 1.133920908471581e+01
 2.801728493270562e+00	 1.004836466128657e+00	 1.135513201332518e+01
 2.792273839237642e+00	 1.030817850913907e+00	 1.137081537433591e+01
 2.886516890104262e+00	 7.730280624149037e-01	 1.120343257106899e+01
 2.879360098503962e+00	 7.992731273433109e-01	 1.121898874975045e+01
 2.871946628206830e+00	 8.255147292607999e-01	 1.123465104435799e+01
 2.864275635138763e+00	 8.517493313465313e-01	 1.125042703026694e+01
 2.856346336321145e+00	 8.779733651601769e-01	 1.126630956530648e+01
 2.848158010939839e+00	 9.041832318694915e-01	 1.128227523357098e+01
 2.839710001387255e+00	 9.303753035155449e-01	 1.129828278532895e+01
 2.831001714276085e+00	 9.565459243150352e-01	 1.131427158658400e+01
 2.822032621423284e+00	 9.826914119990336e-01	 1.133016009231894e+01
 2.812802260802909e+00	 1.008808059187463e+00	 1.134584435785893e+01
 2.803310237466425e+00	 1.034892134798557e+00	 1.136119660311456e+01
 2.897881036625724e+00	 7.760714550311877e-01	 1.119450318008427e+01
 2.890696068911593e+00	 8.024198461393938e-01	 1.121025404743516e+01
 2.883253411962834e+00	 8.287647606025875e-01	 1.122608321239503e+01
 2.875552218382234e+00	 8.551026476755987e-01	 1.124199144717709e+01
 2.867591702108598e+00	 8.814299248692841e-01	 1.125796393910039e+01
 2.859371139489951e+00	 9.077429791829310e-01	 1.127396866693764e+01
 2.850889870329711e+00	 9.340381683744721e-01	 1.128995477338317e+01
 2.842147298904403e+00	 9.603118222679240e-01	 1.130585094759756e+01
 2.833142894951528e+00	 9.865602440974036e-01	 1.132156383227553e+01
 2.823876194626148e+00	 1.012779711887019e+00	 1.133697647009924e+01
 2.814346801424815e+00	 1.038966479865874e+00	 1.135194680477362e+01
 2.703985993073250e+00	 9.982248127474883e-01	 1.145309990793091e+01
 2.694575953697262e+00	 1.023353932207928e+00	 1.146889468261549e+01
 2.684912870290482e+00	 1.048444358408822e+00	 1.148407919696225e+01
 2.674996559091289e+00	 1.073492429247636e+00	 1.149865012262314e+01
 2.664826904299238e+00	 1.098494465459839e+00	 1.151257620403675e+01
 2.654403858788917e+00	 1.123446772135824e+00	 1.152582458824513e+01
 2.643727444784830e+00	 1.148345640266108e+00	 1.153852212703205e+01
 2.632797754496136e+00	 1.173187348313711e+00	 1.155071271023666e+01
 2.621614950710081e+00	 1.197968163812535e+00	 1.156239865930031e+01
 2.610179267343060e+00	 1.222684344990533e+00	 1.157356302248681e+01
 2.598491009948212e+00	 1.247332142416412e+00	 1.158416910402450e+01
 2.715021853445169e+00	 1.002298898070373e+00	 1.144294606796902e+01
 2.705573408588925e+00	 1.027530577771277e+00	 1.145889494932312e+01
 2.695870886945599e+00	 1.052723406292670e+00	 1.147414820320227e+01
 2.685914104003578e+00	 1.077873706585768e+00	 1.148869453871885e+01
 2.675702943489788e+00	 1.102977784369739e+00	 1.150249731699416e+01
 2.665237358086480e+00	 1.128031929654824e+00	 1.151554112276111e+01
 2.654517370108858e+00	 1.153032418293844e+00	 1.152794944887180e+01
 2.643543072142414e+00	 1.177975513560991e+00	 1.153975785035334e+01
 2.632314627638777e+00	 1.202857467756736e+00	 1.155097773943794e+01
 2.620832271469025e+00	 1.227674523837618e+00	 1.156160456054200e+01
 2.609096310433356e+00	 1.252422917069672e+00	 1.157161736127189e+01
 2.726057704440031e+00	 1.006372979931575e+00	 1.143260983267707e+01
 2.716570854136122e+00	 1.031707219785716e+00	 1.144864349930917e+01
 2.706828894289713e+00	 1.057002450540520e+00	 1.146392313368590e+01
 2.696831639639197e+00	 1.082254980200960e+00	 1.147843150844813e+01
 2.686578973438881e+00	 1.107461099469925e+00	 1.149212839169785e+01
 2.676070848178673e+00	 1.132617083277518e+00	 1.150501966472974e+01
 2.665307286264480e+00	 1.157719192338878e+00	 1.151721549468931e+01
 2.654288380658128e+00	 1.182763674739387e+00	 1.152875113050326e+01
 2.643014295475626e+00	 1.207746767546097e+00	 1.153964775501266e+01
 2.631485266542742e+00	 1.232664698444154e+00	 1.154991363248245e+01
 2.619701601906729e+00	 1.257513687396934e+00	 1.155954371842195e+01
 2.737093567946168e+00	 1.010447066411639e+00	 1.142216552317906e+01
 2.727568312150999e+00	 1.035883866535200e+00	 1.143821630212566e+01
 2.717786914056735e+00	 1.061281499639424e+00	 1.145347868161677e+01
 2.707749187651777e+00	 1.086636258783028e+00	 1.146793150683850e+01
 2.697455015717805e+00	 1.111944419652603e+00	 1.148153279850752e+01
 2.686904350552399e+00	 1.137202242098102e+00	 1.149431086652237e+01
 2.676097214652169e+00	 1.162405971696967e+00	 1.150635679516283e+01
 2.665033701355268e+00	 1.187551841345754e+00	 1.151771196523076e+01
 2.653713975442102e+00	 1.212636072878084e+00	 1.152840799022990e+01
 2.642138273693125e+00	 1.237654878707690e+00	 1.153846635995195e+01
 2.630306905402649e+00	 1.262604463495278e+00	 1.154789808613190e+01
 2.748129465851914e+00	 1.014521165591107e+00	 1.141168590002152e+01
 2.738565804445705e+00	 1.040060526303686e+00	 1.142768768315377e+01
 2.728744967980575e+00	 1.065560562076439e+00	 1.144288785942613e+01
 2.718666769694937e+00	 1.091017551021788e+00	 1.145726333906000e+01
 2.708331091897852e+00	 1.116427753809980e+00	 1.147077438371939e+01
 2.697737886694564e+00	 1.141787415210773e+00	 1.148346361705589e+01
 2.686887176672392e+00	 1.167092765663867e+00	 1.149540834389359e+01
 2.675779055545832e+00	 1.192340022876946e+00	 1.150665850787390e+01
 2.664413688759679e+00	 1.217525393450156e+00	 1.151725679350909e+01
 2.652791314049083e+00	 1.242645074525772e+00	 1.152723830379701e+01
 2.640912241955431e+00	 1.267695255461783e+00	 1.153663023880026e+01
 2.759165420045602e+00	 1.018595285550525e+00	 1.140124217254306e+01
 2.749563352832384e+00	 1.044237207375125e+00	 1.141713033359366e+01
 2.739703077795145e+00	 1.069839646338618e+00	 1.143222200845895e+01
 2.729584407422305e+00	 1.095398865607054e+00	 1.144649414887639e+01
 2.719207223550309e+00	 1.120911110834261e+00	 1.145991265912265e+01
 2.708571478092071e+00	 1.146372611709726e+00	 1.147252509072085e+01
 2.697677193725625e+00	 1.171779583535334e+00	 1.148440364395469e+01
 2.686524464541811e+00	 1.197128228829819e+00	 1.149560769377518e+01
 2.675113456649828e+00	 1.222414738959777e+00	 1.150619161638963e+01
 2.663444408739529e+00	 1.247635295795949e+00	 1.151620449769417e+01
 2.651517632599385e+00	 1.272786073393529e+00	 1.152568984193536e+01
 2.770201452415563e+00	 1.022669434370435e+00	 1.139090400781675e+01
 2.760560979123183e+00	 1.048413918033472e+00	 1.140661532000466e+01
 2.750661265234354e+00	 1.074118760913018e+00	 1.142155080821115e+01
 2.740502122487504e+00	 1.099780211228642e+00	 1.143568942667071e+01
 2.730083432246465e+00	 1.125394499617652e+00	 1.144900375516890e+01
 2.719405146231824e+00	 1.150957840689159e+00	 1.146154079599495e+01
 2.708467287212337e+00	 1.176466434607123e+00	 1.147337475422162e+01
 2.697269949655201e+00	 1.201916468701228e+00	 1.148457528339378e+01
 2.685813300334023e+00	 1.227304119104408e+00	 1.149520905248169e+01
 2.674097578893377e+00	 1.252625552415767e+00	 1.150533948198949e+01
 2.662123098368828e+00	 1.277876927387598e+00	 1.151502647992713e+01
 2.781237584850132e+00	 1.026743620131380e+00	 1.138073953917629e+01
 2.771558705130250e+00	 1.052590666562682e+00	 1.139621209340746e+01
 2.761619552032114e+00	 1.078397914286692e+00	 1.141094228512873e+01
 2.751419936544159e+00	 1.104161596576368e+00	 1.142491301705557e+01
 2.740959739557608e+00	 1.129877929052360e+00	 1.143810201179745e+01
 2.730238912600728e+00	 1.155543111243268e+00	 1.145055462375190e+01
 2.719257478533003e+00	 1.181153328174992e+00	 1.146235233549173e+01
 2.708015532197993e+00	 1.206704751988027e+00	 1.147357590532323e+01
 2.696513241033735e+00	 1.232193543581514e+00	 1.148430487646247e+01
 2.684750845639537e+00	 1.257615854282776e+00	 1.149461733774649e+01
 2.672728660298076e+00	 1.282967827541069e+00	 1.150458968421340e+01
 2.792273839237642e+00	 1.030817850913907e+00	 1.137081537433591e+01
 2.782556552665731e+00	 1.056767461246710e+00	 1.138598849795899e+01
 2.772577959922335e+00	 1.082677114946695e+00	 1.140046282098012e+01
 2.762337871245896e+00	 1.108543030340046e+00	 1.141422712607828e+01
 2.751836167055027e+00	 1.134361408030589e+00	 1.142726002766597e+01
 2.741072798685686e+00	 1.160128432466248e+00	 1.143960889527612e+01
 2.730047789088092e+00	 1.185840273534696e+00	 1.145136569640058e+01
 2.718761233482184e+00	 1.211493088187073e+00	 1.146262309921951e+01
 2.707213299970440e+00	 1.237083022088555e+00	 1.147347408311841e+01
 2.695404230106921e+00	 1.262606211294522e+00	 1.148401172099820e+01
 2.683334339421443e+00	 1.288058783951022e+00	 1.149432896183151e+01
 2.803310237466425e+00	 1.034892134798557e+00	 1.136119660311456e+01
 2.793554543541775e+00	 1.060944310369509e+00	 1.137601077921062e+01
 2.783536510638928e+00	 1.086956371380083e+00	 1.139017716081191e+01
 2.773255948246338e+00	 1.112924521209493e+00	 1.140369217617216e+01
 2.762712736310012e+00	 1.138844945444548e+00	 1.141652870902958e+01
 2.751906825973603e+00	 1.164713813452297e+00	 1.142874440999254e+01
 2.740838240278077e+00	 1.190527279981992e+00	 1.144044283914226e+01
 2.729507074819766e+00	 1.216281486795220e+00	 1.145172935864337e+01
 2.717913498365609e+00	 1.241972564322994e+00	 1.146271092643402e+01
 2.706057753424441e+00	 1.267596633348552e+00	 1.147349589720021e+01
 2.693940156773243e+00	 1.293149806714537e+00	 1.148419382434674e+01
 2.814346801424815e+00	 1.038966479865874e+00	 1.135194680477362e+01
 2.804552699570525e+00	 1.065121222215033e+00	 1.136634359195991e+01
 2.794495225915803e+00	 1.091235692073911e+00	 1.138014842049818e+01
 2.784174189199111e+00	 1.117306077874524e+00	 1.139336499371426e+01
 2.773589468893853e+00	 1.143328550186440e+00	 1.140595731827925e+01
 2.762741015951383e+00	 1.169299263295610e+00	 1.141800049292140e+01
 2.751628853503430e+00	 1.195214356812636e+00	 1.142961050500089e+01
 2.740253077522735e+00	 1.221069957309322e+00	 1.144090617382144e+01
 2.728613857440716e+00	 1.246862179982294e+00	 1.145200895872804e+01
 2.716711436721011e+00	 1.272587130342416e+00	 1.146304277588072e+01
 2.704546133387790e+00	 1.298240905928696e+00	 1.147413381714927e+01
 2.598491009948212e+00	 1.247332142416412e+00	 1.158416910402450e+01
 2.586552606935843e+00	 1.271903629392471e+00	 1.159463847567173e+01
 2.574362541397337e+00	 1.296399242596534e+00	 1.160439791942050e+01
 2.561921334300750e+00	 1.320815220275281e+00	 1.161325726212173e+01
 2.549229579787756e+00	 1.345147799765399e+00	 1.162125670611955e+01
 2.536287945451283e+00	 1.369393219236460e+00	 1.162845996794373e+01
 2.523097172564315e+00	 1.393547719448849e+00	 1.163494543675263e+01
 2.509658076259177e+00	 1.417607545525144e+00	 1.164079640322964e+01
 2.495971545656569e+00	 1.441568948733354e+00	 1.164609038818589e+01
 2.482038543943793e+00	 1.465428188280387e+00	 1.165088760703490e+01
 2.467860108401592e+00	 1.489181533114077e+00	 1.165527008934280e+01
 2.609096310433356e+00	 1.252422917069672e+00	 1.157161736127189e+01
 2.597109182853219e+00	 1.277094688403724e+00	 1.158169924532054e+01
 2.584869365628994e+00	 1.301690276299822e+00	 1.159211705220496e+01
 2.572377381854987e+00	 1.326205903651699e+00	 1.160164361273502e+01
 2.559633828097767e+00	 1.350637792439370e+00	 1.161020504003758e+01
 2.546639374674927e+00	 1.374982165479140e+00	 1.161785974898725e+01
 2.533394765884847e+00	 1.399235248188702e+00	 1.162467938917375e+01
 2.519900820186672e+00	 1.423393270365740e+00	 1.163073883783350e+01
 2.506158430329909e+00	 1.447452467978457e+00	 1.163610526892149e+01
 2.492168563432949e+00	 1.471409084966350e+00	 1.164082633526774e+01
 2.477932261010025e+00	 1.495259375049605e+00	 1.164506784019272e+01
 2.619701601906729e+00	 1.257513687396934e+00	 1.155954371842195e+01
 2.607665749800175e+00	 1.282285743003815e+00	 1.156924921181117e+01
 2.595376180932459e+00	 1.306981305507075e+00	 1.157961958593011e+01
 2.582833420524134e+00	 1.331596582447496e+00	 1.158999449301848e+01
 2.570038067566660e+00	 1.356127780448438e+00	 1.159929372394657e+01
 2.556990795102304e+00	 1.380571106972948e+00	 1.160753118838486e+01
 2.543692350454824e+00	 1.404922772096030e+00	 1.161477225273923e+01
 2.530143555410195e+00	 1.429178990290488e+00	 1.162108440174043e+01
 2.516345306346720e+00	 1.453335982224722e+00	 1.162652604753718e+01
 2.502298574313878e+00	 1.477389976570836e+00	 1.163113442779283e+01
 2.488004405059389e+00	 1.501337211821366e+00	 1.163519527938506e+01
 2.630306905402649e+00	 1.262604463495278e+00	 1.154789808613190e+01
 2.618222328714412e+00	 1.287476803488743e+00	 1.155740933798568e+01
 2.605883008146790e+00	 1.312272340712588e+00	 1.156757810192812e+01
 2.593289471046579e+00	 1.336987267354629e+00	 1.157819559570039e+01
 2.580442318830133e+00	 1.361617774681545e+00	 1.158839837467007e+01
 2.567342227264392e+00	 1.386160054803102e+00	 1.159734719385962e+01
 2.553989946698495e+00	 1.410610302451596e+00	 1.160509933494110e+01
 2.540386302245247e+00	 1.434964716774930e+00	 1.161171592575380e+01
 2.526532193911749e+00	 1.459219503141680e+00	 1.161724821475688e+01
 2.512428596678574e+00	 1.483370874956530e+00	 1.162172734931561e+01
 2.498076560526930e+00	 1.507415055484352e+00	 1.162557312458365e+01
 2.640912241955431e+00	 1.267695255461783e+00	 1.153663023880026e+01
 2.628778940533635e+00	 1.292667880154502e+00	 1.154610469738305e+01
 2.616389868111045e+00	 1.317563392410659e+00	 1.155619834155138e+01
 2.603745554160710e+00	 1.342377969065051e+00	 1.156670800215587e+01
 2.590846602523879e+00	 1.367107786027627e+00	 1.157739523294146e+01
 2.577693691692167e+00	 1.391749020054818e+00	 1.158718121791322e+01
 2.564287575040102e+00	 1.416297850536163e+00	 1.159553631774816e+01
 2.550629081007325e+00	 1.440750461294609e+00	 1.160251635394388e+01
 2.536719113229746e+00	 1.465103042398858e+00	 1.160816702280656e+01
 2.522558650619031e+00	 1.489351791986120e+00	 1.161254470729335e+01
 2.508148747389890e+00	 1.513492918093553e+00	 1.161612189020960e+01
 2.651517632599385e+00	 1.272786073393529e+00	 1.152568984193536e+01
 2.639335606195540e+00	 1.297858983297088e+00	 1.153526065586841e+01
 2.626896781664283e+00	 1.322854471095584e+00	 1.154538646762224e+01
 2.614201690604918e+00	 1.347768698270720e+00	 1.155586871766140e+01
 2.601250939283593e+00	 1.372597825375625e+00	 1.156648494161900e+01
 2.588045208916608e+00	 1.397338013813318e+00	 1.157690720913897e+01
 2.574585255903892e+00	 1.421985427630496e+00	 1.158595920844357e+01
 2.560871912011932e+00	 1.446536235325068e+00	 1.159336869565741e+01
 2.546906084505454e+00	 1.470986611665783e+00	 1.159917744024477e+01
 2.532688756227239e+00	 1.495332739522294e+00	 1.160349544809692e+01
 2.518220985625512e+00	 1.519570811703960e+00	 1.160676200381121e+01
 2.662123098368828e+00	 1.277876927387598e+00	 1.151502647992713e+01
 2.649892346637833e+00	 1.303050123212496e+00	 1.152480289368230e+01
 2.637403769645563e+00	 1.328145587261664e+00	 1.153504927164160e+01
 2.624657901117589e+00	 1.353159465663589e+00	 1.154557066978452e+01
 2.611655349744967e+00	 1.378087903614478e+00	 1.155614691474877e+01
 2.598396799468695e+00	 1.402927047163818e+00	 1.156653234573538e+01
 2.584883009714110e+00	 1.427673045015357e+00	 1.157624429130949e+01
 2.571114815574566e+00	 1.452322050341851e+00	 1.158415597830139e+01
 2.557093127943622e+00	 1.476870222611981e+00	 1.159017410745257e+01
 2.542818933595193e+00	 1.501313729427736e+00	 1.159447740071142e+01
 2.528293295211038e+00	 1.525648748370564e+00	 1.159741392278870e+01
 2.672728660298076e+00	 1.282967827541069e+00	 1.150458968421340e+01
 2.660449182798212e+00	 1.308241310196721e+00	 1.151465742806210e+01
 2.647910852893944e+00	 1.333436751403193e+00	 1.152509419247541e+01
 2.635114206437110e+00	 1.358550281935616e+00	 1.153570766379194e+01
 2.622059854543695e+00	 1.383578031633124e+00	 1.154627941103336e+01
 2.608748483879402e+00	 1.408516131191540e+00	 1.155656464527313e+01
 2.595180856895002e+00	 1.433360713971510e+00	 1.156629196439542e+01
 2.581357812010726e+00	 1.458107917820501e+00	 1.157476120087662e+01
 2.567280263748996e+00	 1.482753886906982e+00	 1.158105182143683e+01
 2.552949202814884e+00	 1.507294773565134e+00	 1.158538882323337e+01
 2.538365696123713e+00	 1.531726740148355e+00	 1.158799825147150e+01
 2.683334339421443e+00	 1.288058783951022e+00	 1.149432896183151e+01
 2.671006135614381e+00	 1.313432554545760e+00	 1.150475063642144e+01
 2.658418052248485e+00	 1.338727974014470e+00	 1.151542933573306e+01
 2.645570627301873e+00	 1.363941157778753e+00	 1.152617439979963e+01
 2.632464474315471e+00	 1.389068220320504e+00	 1.153676859630099e+01
 2.619100282679709e+00	 1.414105276981700e+00	 1.154696790454509e+01
 2.605478817870811e+00	 1.439048445779718e+00	 1.155650128612203e+01
 2.591600921635913e+00	 1.463893849236559e+00	 1.156506728823690e+01
 2.577467512126324e+00	 1.488637616220312e+00	 1.157171684092812e+01
 2.563079583978305e+00	 1.513275883797176e+00	 1.157612851065445e+01
 2.548438208340779e+00	 1.537804799092324e+00	 1.157843585854735e+01
 2.693940156773243e+00	 1.293149806714537e+00	 1.148419382434674e+01
 2.681563226024040e+00	 1.318623866555608e+00	 1.149500928007472e+01
 2.668925388548242e+00	 1.344019265589791e+00	 1.150596349382078e+01
 2.656027184450265e+00	 1.369332103884959e+00	 1.151686649069011e+01
 2.642869229695989e+00	 1.394558480565557e+00	 1.152750169778619e+01
 2.629452216400595e+00	 1.419694495619517e+00	 1.153762575996754e+01
 2.615776913065784e+00	 1.444736251720744e+00	 1.154696834306580e+01
 2.601844164765625e+00	 1.469679856065571e+00	 1.155523191426213e+01
 2.587654893280352e+00	 1.494521422221499e+00	 1.156205974350462e+01
 2.573210097177450e+00	 1.519257071986547e+00	 1.156659590316880e+01
 2.558510851839480e+00	 1.543882937257461e+00	 1.156864799484201e+01
 2.704546133387790e+00	 1.298240905928696e+00	 1.147413381714927e+01
 2.692120474964892e+00	 1.323815256522261e+00	 1.148536052849350e+01
 2.679432882632277e+00	 1.349310636623456e+00	 1.149660616665398e+01
 2.666483898620675e+00	 1.374723130946187e+00	 1.150768048077830e+01
 2.653274141320943e+00	 1.400048823257222e+00	 1.151836702224729e+01
 2.639804305573038e+00	 1.425283798190210e+00	 1.152842299938408e+01
 2.626075162904165e+00	 1.450424143075352e+00	 1.153757911992409e+01
 2.612087561715365e+00	 1.475465949783078e+00	 1.154553941048291e+01
 2.597842427415828e+00	 1.500405316580071e+00	 1.155204259479124e+01
 2.583340762504310e+00	 1.525238349995934e+00	 1.155669119499805e+01
 2.568583646597059e+00	 1.549961166698757e+00	 1.155855641144931e+01
 2.467860108401592e+00	 1.489181533114077e+00	 1.165527008934280e+01
 2.453437350975304e+00	 1.512825264203416e+00	 1.165825655364903e+01
 2.438771459975773e+00	 1.536355677795815e+00	 1.165854960505235e+01
 2.423863698140964e+00	 1.559769085870740e+00	 1.165639256341896e+01
 2.408715401850632e+00	 1.583061817492916e+00	 1.165200964317107e+01
 2.393327980886439e+00	 1.606230220629221e+00	 1.164559874742978e+01
 2.377702918138723e+00	 1.629270663963490e+00	 1.163732377243912e+01
 2.361841769259878e+00	 1.652179538707420e+00	 1.162730643574266e+01
 2.345746162264290e+00	 1.674953260405760e+00	 1.161561764558292e+01
 2.329417797074905e+00	 1.697588270733955e+00	 1.160226843306201e+01
 2.312858445016549e+00	 1.720081039286427e+00	 1.158720047271447e+01
 2.477932261010025e+00	 1.495259375049605e+00	 1.164506784019272e+01
 2.463450639544695e+00	 1.518999604018620e+00	 1.164790726350481e+01
 2.448724892197693e+00	 1.542626053004575e+00	 1.164800905979166e+01
 2.433756286860629e+00	 1.566135018934906e+00	 1.164563425031445e+01
 2.418546165367466e+00	 1.589522815892043e+00	 1.164102789602601e+01
 2.403095943253642e+00	 1.612785776937711e+00	 1.163441179616738e+01
 2.387407109461665e+00	 1.635920255935148e+00	 1.162597667720443e+01
 2.371481225993051e+00	 1.658922629367394e+00	 1.161587388537013e+01
 2.355319927506650e+00	 1.681789298149856e+00	 1.160420660019182e+01
 2.338924920863353e+00	 1.704516689435285e+00	 1.159102059056981e+01
 2.322297984617344e+00	 1.727101258409352e+00	 1.157629453920896e+01
 2.488004405059389e+00	 1.501337211821366e+00	 1.163519527938506e+01
 2.473463919605028e+00	 1.525173938588134e+00	 1.163777153666069e+01
 2.458678315961413e+00	 1.548896422886097e+00	 1.163759287532068e+01
 2.443648867173794e+00	 1.572500946590679e+00	 1.163493759326829e+01
 2.428376920530336e+00	 1.595983808802027e+00	 1.163007085140033e+01
 2.412863897320253e+00	 1.619341327676731e+00	 1.162323727619505e+01
 2.397111292538207e+00	 1.642569842257445e+00	 1.161465303278607e+01
 2.381120674534840e+00	 1.665665714298570e+00	 1.160449738157337e+01
 2.364893684613457e+00	 1.688625330086183e+00	 1.159290373565094e+01
 2.348432036572885e+00	 1.711445102250354e+00	 1.157995024063890e+01
 2.331737516196663e+00	 1.734121471568022e+00	 1.156564990286656e+01
 2.498076560526930e+00	 1.507415055484352e+00	 1.162557312458365e+01
 2.483477211016812e+00	 1.531348280158365e+00	 1.162779405784887e+01
 2.468631751008723e+00	 1.555166799877291e+00	 1.162726538940996e+01
 2.453541458701569e+00	 1.578866881464522e+00	 1.162428226957397e+01
 2.438207686837715e+00	 1.602444809037908e+00	 1.161912921790368e+01
 2.422631862460164e+00	 1.625896885848889e+00	 1.161207262940920e+01
 2.406815486615738e+00	 1.649219436119516e+00	 1.160335273144839e+01
 2.390760134004212e+00	 1.672408806875538e+00	 1.159317500416128e+01
 2.374467452573355e+00	 1.695461369773685e+00	 1.158170108161077e+01
 2.357939163059938e+00	 1.718373522921332e+00	 1.156903915523078e+01
 2.341177058476860e+00	 1.741141692686667e+00	 1.155523390566814e+01
 2.508148747389890e+00	 1.513492918093553e+00	 1.161612189020960e+01
 2.493490533640547e+00	 1.537522640975724e+00	 1.161791898116366e+01
 2.478585217081415e+00	 1.561437196415066e+00	 1.161699014224559e+01
 2.463434081065062e+00	 1.585232836182900e+00	 1.161364695189300e+01
 2.448038483788078e+00	 1.608905829414727e+00	 1.160819255179758e+01
 2.432399858047272e+00	 1.632452464456790e+00	 1.160091405638964e+01
 2.416519710941649e+00	 1.655869050710494e+00	 1.159207439331866e+01
 2.400399623520136e+00	 1.679151920472885e+00	 1.158190358751967e+01
 2.384041250374987e+00	 1.702297430771305e+00	 1.157058950592012e+01
 2.367446319180945e+00	 1.725301965190386e+00	 1.155826808439519e+01
 2.350616630180291e+00	 1.748161935689520e+00	 1.154501306319107e+01
 2.518220985625512e+00	 1.519570811703960e+00	 1.160676200381121e+01
 2.503503907336745e+00	 1.543697033286618e+00	 1.160809005670125e+01
 2.488538733921279e+00	 1.567707624936336e+00	 1.160673001188561e+01
 2.473326753885383e+00	 1.591598823372278e+00	 1.160300945107397e+01
 2.457869330879901e+00	 1.615366882747526e+00	 1.159724940572386e+01
 2.442167903455474e+00	 1.639008076503042e+00	 1.158975666958505e+01
 2.426223984763330e+00	 1.662518699219512e+00	 1.158081552258063e+01
 2.410039162201578e+00	 1.685895068465201e+00	 1.157067887836778e+01
 2.393615097006997e+00	 1.709133526637987e+00	 1.155955887250632e+01
 2.376953523792338e+00	 1.732230442799683e+00	 1.154761691284118e+01
 2.360056250029307e+00	 1.755182214500812e+00	 1.153495321844607e+01
 2.528293295211038e+00	 1.525648748370564e+00	 1.159741392278870e+01
 2.513517351965908e+00	 1.549871469337458e+00	 1.159825075736028e+01
 2.498492321270109e+00	 1.573978097878010e+00	 1.159644734971645e+01
 2.483219496783643e+00	 1.597964855659121e+00	 1.159234685884342e+01
 2.467700247611656e+00	 1.621827981851343e+00	 1.158628747720847e+01
 2.451936018058666e+00	 1.645563734990251e+00	 1.157859464621026e+01
 2.435928327328166e+00	 1.669168394835703e+00	 1.156957266334809e+01
 2.419678769167505e+00	 1.692638264227075e+00	 1.155949569319514e+01
 2.403189011458030e+00	 1.715969670932675e+00	 1.154859819896720e+01
 2.386460795750553e+00	 1.739158969491391e+00	 1.153706481628292e+01
 2.369495936746265e+00	 1.762202543044773e+00	 1.152501969558361e+01
 2.538365696123713e+00	 1.531726740148355e+00	 1.158799825147150e+01
 2.523530887388542e+00	 1.556045961374651e+00	 1.158834440580777e+01
 2.508445998869692e+00	 1.580248627676999e+00	 1.158610411591832e+01
 2.493112329380951e+00	 1.604330945669896e+00	 1.158163569038087e+01
 2.477531253481817e+00	 1.628289139541220e+00	 1.157529375695665e+01
 2.461704221230743e+00	 1.652119452921025e+00	 1.156742138087294e+01
 2.445632757883551e+00	 1.675818150748199e+00	 1.155834155523713e+01
 2.429318463536884e+00	 1.699381521133095e+00	 1.154834807539715e+01
 2.412763012716728e+00	 1.722805877214311e+00	 1.153769581389311e+01
 2.395968153912027e+00	 1.746087559007679e+00	 1.152659041757713e+01
 2.378935709053517e+00	 1.769222935245635e+00	 1.151517745348341e+01
 2.548438208340779e+00	 1.537804799092324e+00	 1.157843585854735e+01
 2.533544533465155e+00	 1.562220521644607e+00	 1.157831430161410e+01
 2.518399786461821e+00	 1.586519226770213e+00	 1.157566201494850e+01
 2.503005271298417e+00	 1.610697106031064e+00	 1.157085202679121e+01
 2.487362367988857e+00	 1.634750368632197e+00	 1.156425467695496e+01
 2.471472532345605e+00	 1.658675243297971e+00	 1.155622963794728e+01
 2.455337295676872e+00	 1.682467980146133e+00	 1.154711728865576e+01
 2.438958264428681e+00	 1.706124852557851e+00	 1.153722945212864e+01
 2.422337119771736e+00	 1.729642159041841e+00	 1.152683951393693e+01
 2.405475617133191e+00	 1.753016225090712e+00	 1.151617194266842e+01
 2.388375585673417e+00	 1.776243405027630e+00	 1.150539123924095e+01
 2.558510851839480e+00	 1.543882937257461e+00	 1.156864799484201e+01
 2.543558310056251e+00	 1.568395162393734e+00	 1.156810384856207e+01
 2.528353703788286e+00	 1.592789907594564e+00	 1.156508263105139e+01
 2.512898342157150e+00	 1.617063349369094e+00	 1.155997165748643e+01
 2.497193610631252e+00	 1.641211681939315e+00	 1.155315625839531e+01
 2.481240970777143e+00	 1.665231119123694e+00	 1.154501170371164e+01
 2.465041959955519e+00	 1.689117896218639e+00	 1.153589445982904e+01
 2.448598190961866e+00	 1.712868271875929e+00	 1.152613279089324e+01
 2.431911351611699e+00	 1.736478529974207e+00	 1.151601672064961e+01
 2.414983204270480e+00	 1.759944981482662e+00	 1.150578737635837e+01
 2.397815585328319e+00	 1.783263966314989e+00	 1.149562574156476e+01
 2.568583646597059e+00	 1.549961166698757e+00	 1.155855641144931e+01
 2.553572237022337e+00	 1.574569895868442e+00	 1.155765668213448e+01
 2.538307770590880e+00	 1.599060682586962e+00	 1.155432756380466e+01
 2.522791561578260e+00	 1.623429688310448e+00	 1.154897022248984e+01
 2.507025000907476e+00	 1.647673092277614e+00	 1.154198425943641e+01
 2.491009555899256e+00	 1.671787093400802e+00	 1.153375953826760e+01
 2.474746769966884e+00	 1.695767912154851e+00	 1.152466732557760e+01
 2.458238262255406e+00	 1.719611792461921e+00	 1.151505075588724e+01
 2.441485727225261e+00	 1.743315003570355e+00	 1.150521463709872e+01
 2.424490934180330e+00	 1.766873841925694e+00	 1.149541461791449e+01
 2.407255726740579e+00	 1.790284633031943e+00	 1.148584574409806e+01
 2.312858445016549e+00	 1.720081039286427e+00	 1.158720047271447e+01
 2.296067076243346e+00	 1.742431849867006e+00	 1.157221604680847e+01
 2.279048407708240e+00	 1.764633384638827e+00	 1.155876152013082e+01
 2.261804431927421e+00	 1.786682193009624e+00	 1.154607670740140e+01
 2.244337210358050e+00	 1.808574859294120e+00	 1.153325716571894e+01
 2.226648872625485e+00	 1.830308004436139e+00	 1.151924363789503e+01
 2.208741615699407e+00	 1.851878287710552e+00	 1.150278145549308e+01
 2.190617703019448e+00	 1.873282408403278e+00	 1.148373598466686e+01
 2.172279463571021e+00	 1.894517107467591e+00	 1.146275137258935e+01
 2.153729290912115e+00	 1.915579169155005e+00	 1.143966558534878e+01
 2.134969642151891e+00	 1.936465422619044e+00	 1.141440081095540e+01
 2.322297984617344e+00	 1.727101258409352e+00	 1.157629453920896e+01
 2.305438084719603e+00	 1.749543290034186e+00	 1.156168732914795e+01
 2.288349957374518e+00	 1.771835436606396e+00	 1.154848730239726e+01
 2.271035603230401e+00	 1.793974233450696e+00	 1.153595041690326e+01
 2.253497092157900e+00	 1.815956250941252e+00	 1.152318719921580e+01
 2.235736562474082e+00	 1.837778096230829e+00	 1.150915192817502e+01
 2.217756220115188e+00	 1.859436414959677e+00	 1.149274668623618e+01
 2.199558337758697e+00	 1.880927892942396e+00	 1.147424412961100e+01
 2.181145253895384e+00	 1.902249257830999e+00	 1.145366455979620e+01
 2.162519371852141e+00	 1.923397280752450e+00	 1.143084058851862e+01
 2.143683158766405e+00	 1.944368777918983e+00	 1.140569291316819e+01
 2.331737516196663e+00	 1.734121471568022e+00	 1.156564990286656e+01
 2.314809085232628e+00	 1.756654724159609e+00	 1.155150395334013e+01
 2.297651499136599e+00	 1.779037482455230e+00	 1.153863086609313e+01
 2.280266766689004e+00	 1.801266267696584e+00	 1.152630360586727e+01
 2.262656966173971e+00	 1.823337636317289e+00	 1.151364870720722e+01
 2.244824244600268e+00	 1.845248181679059e+00	 1.149963519431921e+01
 2.226770816870695e+00	 1.866994535787537e+00	 1.148350475975532e+01
 2.208498964900570e+00	 1.888573370986011e+00	 1.146556941337539e+01
 2.190011036686021e+00	 1.909981401625237e+00	 1.144541196563122e+01
 2.171309445322839e+00	 1.931215385707644e+00	 1.142285357381419e+01
 2.152396667976729e+00	 1.952272126504186e+00	 1.139781493673448e+01
 2.341177058476860e+00	 1.741141692686667e+00	 1.155523390566814e+01
 2.324180096368818e+00	 1.763766166348415e+00	 1.154161738850286e+01
 2.306953051443083e+00	 1.786239536470153e+00	 1.152912907473897e+01
 2.289497940612205e+00	 1.808558310210552e+00	 1.151705980189378e+01
 2.271816850573810e+00	 1.830719030062669e+00	 1.150455315435171e+01
 2.253911937028381e+00	 1.852718275597149e+00	 1.149059514814017e+01
 2.235785423845280e+00	 1.874552665185008e+00	 1.147490747400753e+01
 2.217439602177683e+00	 1.896218857698207e+00	 1.145750080261750e+01
 2.198876829527085e+00	 1.917713554186234e+00	 1.143778029369479e+01
 2.180099528758183e+00	 1.939033499526961e+00	 1.141548983902437e+01
 2.161110187064967e+00	 1.960175484050050e+00	 1.139055163794658e+01
 2.350616630180291e+00	 1.748161935689520e+00	 1.154501306319107e+01
 2.333551136714568e+00	 1.770877630705735e+00	 1.153197848461128e+01
 2.316254632742564e+00	 1.793441612935987e+00	 1.151991834822675e+01
 2.298729143308980e+00	 1.815850375455869e+00	 1.150814223276516e+01
 2.280976763524969e+00	 1.838100446817833e+00	 1.149581181769267e+01
 2.262999657782752e+00	 1.860188392801415e+00	 1.148202234702354e+01
 2.244800058918296e+00	 1.882110818142964e+00	 1.146680280000623e+01
 2.226380267322654e+00	 1.903864368243071e+00	 1.144983927479449e+01
 2.207742650002723e+00	 1.925445730849916e+00	 1.143056125158425e+01
 2.188889639592142e+00	 1.946851637716774e+00	 1.140853966040510e+01
 2.169823733313221e+00	 1.968078866231973e+00	 1.138369268947986e+01
 2.360056250029307e+00	 1.755182214500812e+00	 1.153495321844607e+01
 2.342922224856275e+00	 1.777989131336710e+00	 1.152253762304991e+01
 2.325556261483641e+00	 1.800643726137554e+00	 1.151093481040270e+01
 2.307960393088307e+00	 1.823142477895799e+00	 1.149947397137183e+01
 2.290136723194997e+00	 1.845481901223220e+00	 1.148733592923634e+01
 2.272087424887721e+00	 1.867658548108176e+00	 1.147384484278871e+01
 2.253814739969089e+00	 1.889669009652280e+00	 1.145903948874250e+01
 2.235320978068095e+00	 1.911509917784690e+00	 1.144244756501359e+01
 2.216608515697083e+00	 1.933177946952209e+00	 1.142355170704072e+01
 2.197679795258691e+00	 1.954669815783455e+00	 1.140179844693973e+01
 2.178537324003594e+00	 1.975982288725355e+00	 1.137703283301735e+01
 2.369495936746265e+00	 1.762202543044773e+00	 1.152501969558361e+01
 2.352293379380331e+00	 1.785100682346472e+00	 1.151324486713825e+01
 2.334857956114910e+00	 1.807845890359679e+00	 1.150211443671644e+01
 2.317191708259162e+00	 1.830434631993609e+00	 1.149097808078586e+01
 2.299296747751443e+00	 1.852863407919270e+00	 1.147903767452685e+01
 2.281175256367619e+00	 1.875128756333749e+00	 1.146592425926730e+01
 2.262829484877015e+00	 1.897227254703833e+00	 1.145147198206744e+01
 2.244261752146625e+00	 1.919155521487151e+00	 1.143518111555822e+01
 2.225474444194319e+00	 1.940910217829042e+00	 1.141655837315643e+01
 2.206470013191799e+00	 1.962488049233376e+00	 1.139506689520320e+01
 2.187250976418189e+00	 1.983885767205594e+00	 1.137037203248203e+01
 2.378935709053517e+00	 1.769222935245635e+00	 1.151517745348341e+01
 2.361664618873132e+00	 1.792212297840156e+00	 1.150405011264063e+01
 2.344159735084968e+00	 1.815048119887181e+00	 1.149339320194454e+01
 2.326423107130520e+00	 1.837726852212564e+00	 1.148257775948809e+01
 2.308456855361857e+00	 1.860244981546422e+00	 1.147088154468566e+01
 2.290263170246782e+00	 1.882599032294452e+00	 1.145812768922213e+01
 2.271844311521422e+00	 1.904785568288496e+00	 1.144396028729506e+01
 2.253202607290860e+00	 1.926801194514539e+00	 1.142789405637205e+01
 2.234340453078577e+00	 1.948642558816341e+00	 1.140945036017835e+01
 2.215260310825439e+00	 1.970306353572908e+00	 1.138815114483002e+01
 2.195964707839107e+00	 1.991789317348087e+00	 1.136351562787701e+01
 2.388375585673417e+00	 1.776243405027630e+00	 1.150539123924095e+01
 2.371035961921076e+00	 1.799323991922900e+00	 1.149490323827171e+01
 2.353461616842414e+00	 1.822250429004885e+00	 1.148470722799731e+01
 2.335654608011358e+00	 1.845019153015930e+00	 1.147419648675513e+01
 2.317617064193788e+00	 1.867626636745117e+00	 1.146278926200218e+01
 2.299351184549548e+00	 1.890069390806604e+00	 1.145032757090310e+01
 2.280859237781661e+00	 1.912343965397145e+00	 1.143636985231046e+01
 2.262143561233415e+00	 1.934446952030942e+00	 1.142044603800155e+01
 2.243206559934010e+00	 1.956374985250033e+00	 1.140209300080364e+01
 2.224050705593583e+00	 1.978124744308426e+00	 1.138086436047700e+01
 2.204678535548453e+00	 1.999692954828234e+00	 1.135627448973331e+01
 2.397815585328319e+00	 1.783263966314989e+00	 1.149562574156476e+01
 2.380407427110555e+00	 1.806435778699839e+00	 1.148575425620833e+01
 2.362763619835843e+00	 1.829452831997613e+00	 1.147599293181711e+01
 2.344886229210652e+00	 1.852311548866974e+00	 1.146575825508472e+01
 2.326777392414786e+00	 1.875008388155792e+00	 1.145464657565019e+01
 2.308439317300248e+00	 1.897539846686521e+00	 1.144240156504548e+01
 2.289874281537085e+00	 1.919902461020655e+00	 1.142857144116587e+01
 2.271084631706907e+00	 1.942092809200445e+00	 1.141270210629585e+01
 2.252072782344765e+00	 1.964107512466045e+00	 1.139434678550246e+01
 2.232841214930202e+00	 1.985943236946301e+00	 1.137307605502439e+01
 2.213392476828328e+00	 2.007596695321432e+00	 1.134846517416583e+01
 2.407255726740579e+00	 1.790284633031943e+00	 1.148584574409806e+01
 2.389779033027966e+00	 1.813547672276108e+00	 1.147655346261885e+01
 2.372065762513855e+00	 1.836655343150188e+00	 1.146718717337722e+01
 2.354117989037379e+00	 1.859604054228962e+00	 1.145721172030085e+01
 2.335937858192403e+00	 1.882390250418890e+00	 1.144634422834411e+01
 2.317527586523221e+00	 1.905010414750522e+00	 1.143423243229573e+01
 2.298889460667044e+00	 1.927461070149902e+00	 1.142044101014868e+01
 2.280025836443952e+00	 1.949738781187136e+00	 1.140453257761362e+01
 2.260939137894993e+00	 1.971840155800305e+00	 1.138607753945941e+01
 2.241631856269269e+00	 1.993761846992905e+00	 1.136466434451873e+01
 2.222106548960836e+00	 2.015500554503082e+00	 1.133991007853854e+01
 2.134969642151891e+00	 1.936465422619044e+00	 1.141440081095540e+01
 2.116006272666695e+00	 1.957169244637414e+00	 1.138605911854657e+01
 2.096838562904624e+00	 1.977691153858187e+00	 1.135406739219145e+01
 2.077469118901708e+00	 1.998028158766317e+00	 1.131894077580649e+01
 2.057900605656748e+00	 2.018177318824693e+00	 1.128123037355081e+01
 2.038135745900778e+00	 2.038135745900777e+00	 1.124150370139694e+01
 2.018177318824692e+00	 2.057900605656749e+00	 1.120032455293338e+01
 1.998028158766317e+00	 2.077469118901708e+00	 1.115823240982948e+01
 1.977691153858187e+00	 2.096838562904624e+00	 1.111572153167150e+01
 1.957169244637413e+00	 2.116006272666695e+00	 1.107321986333477e+01
 1.936465422619043e+00	 2.134969642151891e+00	 1.103106790066121e+01
 2.143683158766405e+00	 1.944368777918983e+00	 1.140569291316819e+01
 2.124642393504113e+00	 1.965157099076741e+00	 1.137742728680190e+01
 2.105396453984761e+00	 1.985762764990570e+00	 1.134556580437063e+01
 2.085947956880458e+00	 2.006182771936079e+00	 1.131061349240134e+01
 2.066299578066733e+00	 2.026414167374863e+00	 1.127311288371508e+01
 2.046454051386974e+00	 2.046454051386974e+00	 1.123362395129780e+01
 2.026414167374863e+00	 2.066299578066733e+00	 1.119270343520322e+01
 2.006182771936079e+00	 2.085947956880458e+00	 1.115088369623436e+01
 1.985762764990570e+00	 2.105396453984761e+00	 1.110865123456272e+01
 1.965157099076740e+00	 2.124642393504113e+00	 1.106642501501183e+01
 1.944368777918983e+00	 2.143683158766405e+00	 1.102453474342838e+01
 2.152396667976729e+00	 1.952272126504186e+00	 1.139781493673448e+01
 2.133278507003202e+00	 1.973144946729455e+00	 1.136960518335465e+01
 2.113954337793147e+00	 1.993834369265084e+00	 1.133784281010210e+01
 2.094426787654741e+00	 2.014337378177341e+00	 1.130302687782247e+01
 2.074698543340234e+00	 2.034651008926545e+00	 1.126569575925608e+01
 2.054772349805351e+00	 2.054772349805350e+00	 1.122640653793505e+01
 2.034651008926545e+00	 2.074698543340235e+00	 1.118571377805939e+01
 2.014337378177341e+00	 2.094426787654741e+00	 1.114414780249324e+01
 1.993834369265084e+00	 2.113954337793147e+00	 1.110219262057034e+01
 1.973144946729454e+00	 2.133278507003202e+00	 1.106026365108275e+01
 1.952272126504186e+00	 2.152396667976729e+00	 1.101868538861678e+01
 2.161110187064967e+00	 1.960175484050050e+00	 1.139055163794658e+01
 2.141914630292550e+00	 1.981132803438513e+00	 1.136237809802483e+01
 2.122512231303207e+00	 2.001905982690767e+00	 1.133068550578578e+01
 2.102905628041197e+00	 2.022491993663738e+00	 1.129597109944575e+01
 2.083097518135491e+00	 2.042887859816456e+00	 1.125877349590500e+01
 2.063090657654166e+00	 2.063090657654166e+00	 1.121965153720458e+01
 2.042887859816456e+00	 2.083097518135491e+00	 1.117916248504500e+01
 2.022491993663738e+00	 2.102905628041198e+00	 1.113783970398018e+01
 2.001905982690766e+00	 2.122512231303207e+00	 1.109616997858971e+01
 1.981132803438512e+00	 2.141914630292551e+00	 1.105457061373439e+01
 1.960175484050050e+00	 2.161110187064967e+00	 1.101336646988990e+01
 2.169823733313221e+00	 1.968078866231973e+00	 1.138369268947986e+01
 2.150550780500745e+00	 1.989120685046865e+00	 1.135553613582811e+01
 2.131070151488369e+00	 2.009977621276662e+00	 1.132388566044361e+01
 2.111384494856460e+00	 2.030646634568909e+00	 1.128924081445525e+01
 2.091496519110746e+00	 2.051124736381313e+00	 1.125214485735965e+01
 2.071408991431680e+00	 2.071408991431679e+00	 1.121316303337530e+01
 2.051124736381313e+00	 2.091496519110745e+00	 1.117286017206560e+01
 2.030646634568909e+00	 2.111384494856460e+00	 1.113177775739661e+01
 2.009977621276661e+00	 2.131070151488370e+00	 1.109041061422832e+01
 1.989120685046864e+00	 2.150550780500746e+00	 1.104918336516435e+01
 1.968078866231973e+00	 2.169823733313221e+00	 1.100842681367350e+01
 2.178537324003594e+00	 1.975982288725355e+00	 1.137703283301735e+01
 2.159186974756379e+00	 1.997108607397465e+00	 1.134887436827912e+01
 2.139628115322060e+00	 2.018049301031807e+00	 1.131723986607579e+01
 2.119863404917168e+00	 2.038801317066489e+00	 1.128263531961880e+01
 2.099895562924235e+00	 2.059361654957834e+00	 1.124561302483771e+01
 2.079727367636152e+00	 2.079727367636152e+00	 1.120674926877043e+01
 2.059361654957834e+00	 2.099895562924235e+00	 1.116662131754191e+01
 2.038801317066489e+00	 2.119863404917168e+00	 1.112578385172987e+01
 2.018049301031807e+00	 2.139628115322061e+00	 1.108474500189750e+01
 1.997108607397464e+00	 2.159186974756380e+00	 1.104394214112475e+01
 1.975982288725356e+00	 2.178537324003595e+00	 1.100371759446214e+01
 2.187250976418189e+00	 1.983885767205594e+00	 1.137037203248203e+01
 2.167823230188039e+00	 2.005096586333265e+00	 1.134219298529456e+01
 2.148186139777709e+00	 2.026121037965247e+00	 1.131054968859467e+01
 2.128342375039959e+00	 2.046956057330116e+00	 1.127595870160541e+01
 2.108294666234203e+00	 2.067598631882738e+00	 1.123898574712318e+01
 2.088045802765843e+00	 2.088045802765842e+00	 1.120022279388114e+01
 2.067598631882738e+00	 2.108294666234203e+00	 1.116026441292052e+01
 2.046956057330115e+00	 2.128342375039959e+00	 1.111968355948430e+01
 2.026121037965245e+00	 2.148186139777709e+00	 1.107900693707890e+01
 2.005096586333265e+00	 2.167823230188040e+00	 1.103869010453185e+01
 1.983885767205593e+00	 2.187250976418189e+00	 1.099909249007193e+01
 2.195964707839107e+00	 1.991789317348087e+00	 1.136351562787701e+01
 2.176459563924315e+00	 2.013084637697221e+00	 1.133529744769561e+01
 2.156744241828740e+00	 2.034192848086017e+00	 1.130362181933648e+01
 2.136821422041467e+00	 2.055110871533424e+00	 1.126901998784581e+01
 2.116693845698888e+00	 2.075835683492740e+00	 1.123207549110841e+01
 2.096364313319012e+00	 2.096364313319011e+00	 1.119340061791526e+01
 2.075835683492740e+00	 2.116693845698889e+00	 1.115361211354798e+01
 2.055110871533424e+00	 2.136821422041467e+00	 1.111330628819171e+01
 2.034192848086017e+00	 2.156744241828741e+00	 1.107303368877539e+01
 2.013084637697220e+00	 2.176459563924316e+00	 1.103327349915397e+01
 1.991789317348087e+00	 2.195964707839108e+00	 1.099440783685499e+01
 2.204678535548453e+00	 1.999692954828234e+00	 1.135627448973331e+01
 2.185095993093797e+00	 2.021072777332283e+00	 1.132799864030981e+01
 2.165302438448583e+00	 2.042264747403160e+00	 1.129626822715082e+01
 2.145300562738332e+00	 2.063265775850052e+00	 1.126163329793698e+01
 2.125093117976532e+00	 2.084072826124558e+00	 1.122469959283343e+01
 2.104682915793918e+00	 2.104682915793918e+00	 1.118610435978502e+01
 2.084072826124558e+00	 2.125093117976533e+00	 1.114649138991336e+01
 2.063265775850052e+00	 2.145300562738332e+00	 1.110648543220846e+01
 2.042264747403160e+00	 2.165302438448583e+00	 1.106666615215564e+01
 2.021072777332283e+00	 2.185095993093798e+00	 1.102754180338990e+01
 1.999692954828234e+00	 2.204678535548453e+00	 1.098952278489062e+01
 2.213392476828328e+00	 2.007596695321432e+00	 1.134846517416583e+01
 2.193732534825075e+00	 2.029061021081406e+00	 1.132011302567295e+01
 2.173860746610663e+00	 2.050336751925717e+00	 1.128830631106968e+01
 2.153779813947189e+00	 2.071420786453636e+00	 1.125361799559222e+01
 2.133492499725375e+00	 2.092310076114911e+00	 1.121668040902543e+01
 2.113001626688821e+00	 2.113001626688821e+00	 1.117816039953743e+01
 2.092310076114911e+00	 2.133492499725374e+00	 1.113873367926462e+01
 2.071420786453636e+00	 2.153779813947190e+00	 1.109905852480665e+01
 2.050336751925717e+00	 2.173860746610663e+00	 1.105974900140237e+01
 2.029061021081405e+00	 2.193732534825076e+00	 1.102134788414955e+01
 2.007596695321432e+00	 2.213392476828328e+00	 1.098429945316777e+01
 2.222106548960836e+00	 2.015500554503082e+00	 1.133991007853854e+01
 2.202369206246737e+00	 2.037049384787542e+00	 1.131146279833185e+01
 2.182419183288407e+00	 2.058408877662729e+00	 1.127955905355621e+01
 2.162259192484676e+00	 2.079575919517814e+00	 1.124479884113866e+01
 2.141892007603657e+00	 2.100547449800516e+00	 1.120784546914120e+01
 2.121320462501983e+00	 2.121320462501983e+00	 1.116940003023164e+01
 2.100547449800516e+00	 2.141892007603657e+00	 1.113017503760491e+01
 2.079575919517813e+00	 2.162259192484677e+00	 1.109086739056710e+01
 2.058408877662729e+00	 2.182419183288408e+00	 1.105213084277363e+01
 2.037049384787541e+00	 2.202369206246737e+00	 1.101454815084939e+01
 2.015500554503082e+00	 2.222106548960836e+00	 1.097860308477380e+01
 1.936465422619043e+00	 2.134969642151891e+00	 1.103106790066121e+01
 1.915579169155006e+00	 2.153729290912114e+00	 1.098866909961776e+01
 1.894517107467592e+00	 2.172279463571020e+00	 1.094551484311370e+01
 1.873282408403278e+00	 2.190617703019447e+00	 1.090187343212770e+01
 1.851878287710552e+00	 2.208741615699406e+00	 1.085785765330034e+01
 1.830308004436140e+00	 2.226648872625485e+00	 1.081373408108679e+01
 1.808574859294121e+00	 2.244337210358050e+00	 1.076726151849016e+01
 1.786682193009624e+00	 2.261804431927420e+00	 1.071734892937859e+01
 1.764633384638828e+00	 2.279048407708238e+00	 1.066404404112586e+01
 1.742431849867007e+00	 2.296067076243345e+00	 1.060751646549870e+01
 1.720081039286428e+00	 2.312858445016550e+00	 1.054805605900266e+01
 1.944368777918983e+00	 2.143683158766405e+00	 1.102453474342838e+01
 1.923397280752450e+00	 2.162519371852140e+00	 1.098246210424121e+01
 1.902249257831000e+00	 2.181145253895383e+00	 1.093980319771145e+01
 1.880927892942398e+00	 2.199558337758696e+00	 1.089685224246066e+01
 1.859436414959678e+00	 2.217756220115187e+00	 1.085374550142663e+01
 1.837778096230830e+00	 2.235736562474080e+00	 1.080959074363502e+01
 1.815956250941253e+00	 2.253497092157899e+00	 1.076239668080472e+01
 1.793974233450697e+00	 2.271035603230401e+00	 1.071206973123307e+01
 1.771835436606396e+00	 2.288349957374517e+00	 1.065869893163347e+01
 1.749543290034187e+00	 2.305438084719602e+00	 1.060249847284870e+01
 1.727101258409353e+00	 2.322297984617344e+00	 1.054380598649229e+01
 1.952272126504186e+00	 2.152396667976729e+00	 1.101868538861678e+01
 1.931215385707645e+00	 2.171309445322839e+00	 1.097702986975233e+01
 1.909981401625239e+00	 2.190011036686021e+00	 1.093500085728844e+01
 1.888573370986012e+00	 2.208498964900569e+00	 1.089291008168677e+01
 1.866994535787538e+00	 2.226770816870694e+00	 1.085078996941390e+01
 1.845248181679060e+00	 2.244824244600268e+00	 1.080611928517672e+01
 1.823337636317290e+00	 2.262656966173969e+00	 1.075840923705303e+01
 1.801266267696584e+00	 2.280266766689003e+00	 1.070785449827538e+01
 1.779037482455231e+00	 2.297651499136599e+00	 1.065457457794404e+01
 1.756654724159610e+00	 2.314809085232628e+00	 1.059881711267031e+01
 1.734121471568022e+00	 2.331737516196663e+00	 1.054095609794116e+01
 1.960175484050050e+00	 2.161110187064967e+00	 1.101336646988990e+01
 1.939033499526962e+00	 2.180099528758182e+00	 1.097222899759688e+01
 1.917713554186235e+00	 2.198876829527084e+00	 1.093096961295035e+01
 1.896218857698208e+00	 2.217439602177683e+00	 1.088990932141455e+01
 1.874552665185009e+00	 2.235785423845279e+00	 1.084816151945754e+01
 1.852718275597149e+00	 2.253911937028379e+00	 1.080314275351031e+01
 1.830719030062670e+00	 2.271816850573810e+00	 1.075510788641951e+01
 1.808558310210553e+00	 2.289497940612204e+00	 1.070449265241589e+01
 1.786239536470154e+00	 2.306953051443083e+00	 1.065143687657641e+01
 1.763766166348416e+00	 2.324180096368818e+00	 1.059621065267008e+01
 1.741141692686667e+00	 2.341177058476861e+00	 1.053921307660108e+01
 1.968078866231973e+00	 2.169823733313221e+00	 1.100842681367350e+01
 1.946851637716776e+00	 2.188889639592142e+00	 1.096791787490642e+01
 1.925445730849917e+00	 2.207742650002722e+00	 1.092757270379944e+01
 1.903864368243072e+00	 2.226380267322652e+00	 1.088761589895853e+01
 1.882110818142965e+00	 2.244800058918294e+00	 1.084561113472369e+01
 1.860188392801416e+00	 2.262999657782752e+00	 1.080044457366467e+01
 1.838100446817834e+00	 2.280976763524968e+00	 1.075230943529542e+01
 1.815850375455871e+00	 2.298729143308980e+00	 1.070178191781734e+01
 1.793441612935988e+00	 2.316254632742563e+00	 1.064906028555436e+01
 1.770877630705737e+00	 2.333551136714568e+00	 1.059442624321400e+01
 1.748161935689520e+00	 2.350616630180291e+00	 1.053829286909141e+01
 1.975982288725356e+00	 2.178537324003595e+00	 1.100371759446215e+01
 1.954669815783456e+00	 2.197679795258690e+00	 1.096395683088663e+01
 1.933177946952210e+00	 2.216608515697083e+00	 1.092467497276731e+01
 1.911509917784691e+00	 2.235320978068094e+00	 1.088523439820633e+01
 1.889669009652281e+00	 2.253814739969088e+00	 1.084300786928606e+01
 1.867658548108176e+00	 2.272087424887720e+00	 1.079784580105822e+01
 1.845481901223221e+00	 2.290136723194996e+00	 1.074983869983778e+01
 1.823142477895800e+00	 2.307960393088307e+00	 1.069952822037911e+01
 1.800643726137555e+00	 2.325556261483640e+00	 1.064722771959405e+01
 1.777989131336711e+00	 2.342922224856274e+00	 1.059321980703693e+01
 1.755182214500812e+00	 2.360056250029308e+00	 1.053792056849149e+01
 1.983885767205593e+00	 2.187250976418189e+00	 1.099909249007193e+01
 1.962488049233376e+00	 2.206470013191799e+00	 1.096020829304592e+01
 1.940910217829043e+00	 2.225474444194318e+00	 1.092208555094627e+01
 1.919155521487152e+00	 2.244261752146624e+00	 1.088252210196349e+01
 1.897227254703833e+00	 2.262829484877014e+00	 1.084022800322125e+01
 1.875128756333750e+00	 2.281175256367618e+00	 1.079521151351365e+01
 1.852863407919271e+00	 2.299296747751442e+00	 1.074752785640018e+01
 1.830434631993609e+00	 2.317191708259161e+00	 1.069754558745462e+01
 1.807845890359680e+00	 2.334857956114909e+00	 1.064573044566604e+01
 1.785100682346473e+00	 2.352293379380330e+00	 1.059235592949864e+01
 1.762202543044773e+00	 2.369495936746265e+00	 1.053783029818057e+01
 1.991789317348087e+00	 2.195964707839108e+00	 1.099440783685499e+01
 1.970306353572910e+00	 2.215260310825439e+00	 1.095653694328228e+01
 1.948642558816342e+00	 2.234340453078577e+00	 1.091906761599698e+01
 1.926801194514541e+00	 2.253202607290860e+00	 1.087936912830354e+01
 1.904785568288496e+00	 2.271844311521421e+00	 1.083715487293401e+01
 1.882599032294453e+00	 2.290263170246783e+00	 1.079241399411296e+01
 1.860244981546423e+00	 2.308456855361856e+00	 1.074518224008853e+01
 1.837726852212565e+00	 2.326423107130519e+00	 1.069565604779675e+01
 1.815048119887182e+00	 2.344159735084967e+00	 1.064436797892367e+01
 1.792212297840157e+00	 2.361664618873132e+00	 1.059160774937306e+01
 1.769222935245635e+00	 2.378935709053517e+00	 1.053776509640649e+01
 1.999692954828234e+00	 2.204678535548453e+00	 1.098952278489062e+01
 1.978124744308427e+00	 2.224050705593582e+00	 1.095279265203136e+01
 1.956374985250034e+00	 2.243206559934010e+00	 1.091535308966689e+01
 1.934446952030943e+00	 2.262143561233414e+00	 1.087567240037948e+01
 1.912343965397145e+00	 2.280859237781661e+00	 1.083367870145135e+01
 1.890069390806604e+00	 2.299351184549547e+00	 1.078933256310686e+01
 1.867626636745117e+00	 2.317617064193787e+00	 1.074264044116468e+01
 1.845019153015932e+00	 2.335654608011357e+00	 1.069368953172727e+01
 1.822250429004886e+00	 2.353461616842413e+00	 1.064294797898913e+01
 1.799323991922901e+00	 2.371035961921075e+00	 1.059075685015827e+01
 1.776243405027630e+00	 2.388375585673417e+00	 1.053747680156500e+01
 2.007596695321432e+00	 2.213392476828328e+00	 1.098429945316777e+01
 1.985943236946302e+00	 2.232841214930202e+00	 1.094834200910574e+01
 1.964107512466047e+00	 2.252072782344765e+00	 1.091084791260284e+01
 1.942092809200446e+00	 2.271084631706906e+00	 1.087133547385607e+01
 1.919902461020656e+00	 2.289874281537085e+00	 1.082969642868123e+01
 1.897539846686521e+00	 2.308439317300247e+00	 1.078585340983432e+01
 1.875008388155793e+00	 2.326777392414786e+00	 1.073977386213362e+01
 1.852311548866975e+00	 2.344886229210651e+00	 1.069148369608623e+01
 1.829452831997614e+00	 2.362763619835842e+00	 1.064128614658956e+01
 1.806435778699840e+00	 2.380407427110554e+00	 1.058959315189416e+01
 1.783263966314989e+00	 2.397815585328320e+00	 1.053672593817154e+01
 2.015500554503082e+00	 2.222106548960836e+00	 1.097860308477380e+01
 1.993761846992907e+00	 2.241631856269268e+00	 1.094285338724152e+01
 1.971840155800306e+00	 2.260939137894993e+00	 1.090546446725239e+01
 1.949738781187138e+00	 2.280025836443951e+00	 1.086626836428976e+01
 1.927461070149903e+00	 2.298889460667044e+00	 1.082511154163243e+01
 1.905010414750523e+00	 2.317527586523220e+00	 1.078186942464735e+01
 1.882390250418891e+00	 2.335937858192402e+00	 1.073646082465782e+01
 1.859604054228963e+00	 2.354117989037378e+00	 1.068886209970093e+01
 1.836655343150189e+00	 2.372065762513853e+00	 1.063920612053456e+01
 1.813547672276109e+00	 2.389779033027966e+00	 1.058791480347553e+01
 1.790284633031943e+00	 2.407255726740579e+00	 1.053528160350817e+01
 1.720081039286428e+00	 2.312858445016550e+00	 1.054805605900266e+01
 1.697588270733955e+00	 2.329417797074905e+00	 1.048809508819465e+01
 1.674953260405759e+00	 2.345746162264290e+00	 1.042937330444310e+01
 1.652179538707420e+00	 2.361841769259878e+00	 1.037132095149892e+01
 1.629270663963491e+00	 2.377702918138723e+00	 1.031344588226869e+01
 1.606230220629222e+00	 2.393327980886438e+00	 1.025533164353373e+01
 1.583061817492917e+00	 2.408715401850632e+00	 1.019663518221450e+01
 1.559769085870741e+00	 2.423863698140963e+00	 1.013708417790996e+01
 1.536355677795816e+00	 2.438771459975773e+00	 1.007647400845221e+01
 1.512825264203417e+00	 2.453437350975304e+00	 1.001466435724855e+01
 1.489181533114078e+00	 2.467860108401592e+00	 9.951575473222988e+00
 1.727101258409353e+00	 2.322297984617344e+00	 1.054380598649229e+01
 1.704516689435285e+00	 2.338924920863354e+00	 1.048487756315967e+01
 1.681789298149856e+00	 2.355319927506651e+00	 1.042721637895475e+01
 1.658922629367394e+00	 2.371481225993050e+00	 1.037021131169279e+01
 1.635920255935148e+00	 2.387407109461665e+00	 1.031332838635515e+01
 1.612785776937712e+00	 2.403095943253642e+00	 1.025610890614955e+01
 1.589522815892044e+00	 2.418546165367465e+00	 1.019816719815075e+01
 1.566135018934908e+00	 2.433756286860628e+00	 1.013918797791537e+01
 1.542626053004577e+00	 2.448724892197693e+00	 1.007892333952161e+01
 1.518999604018622e+00	 2.463450639544694e+00	 1.001718937956767e+01
 1.495259375049605e+00	 2.477932261010025e+00	 9.953862465753780e+00
 1.734121471568022e+00	 2.331737516196663e+00	 1.054095609794116e+01
 1.711445102250355e+00	 2.348432036572885e+00	 1.048304723293470e+01
 1.688625330086184e+00	 2.364893684613458e+00	 1.042635426431573e+01
 1.665665714298571e+00	 2.381120674534840e+00	 1.037024568348120e+01
 1.642569842257446e+00	 2.397111292538206e+00	 1.031416739217339e+01
 1.619341327676732e+00	 2.412863897320252e+00	 1.025764084696213e+01
 1.595983808802028e+00	 2.428376920530334e+00	 1.020026081048325e+01
 1.572500946590680e+00	 2.443648867173794e+00	 1.014169271353940e+01
 1.548896422886098e+00	 2.458678315961412e+00	 1.008166963427663e+01
 1.525173938588136e+00	 2.473463919605028e+00	 1.001998890278368e+01
 1.501337211821366e+00	 2.488004405059390e+00	 9.956508341606625e+00
 1.741141692686667e+00	 2.341177058476861e+00	 1.053921307660108e+01
 1.718373522921332e+00	 2.357939163059938e+00	 1.048228139914185e+01
 1.695461369773685e+00	 2.374467452573354e+00	 1.042644296909267e+01
 1.672408806875538e+00	 2.390760134004212e+00	 1.037106662533204e+01
 1.649219436119517e+00	 2.406815486615738e+00	 1.031559960074508e+01
 1.625896885848889e+00	 2.422631862460162e+00	 1.025956564748535e+01
 1.602444809037909e+00	 2.438207686837714e+00	 1.020256276031070e+01
 1.578866881464523e+00	 2.453541458701567e+00	 1.014426050186098e+01
 1.555166799877292e+00	 2.468631751008722e+00	 1.008439693590309e+01
 1.531348280158367e+00	 2.483477211016810e+00	 1.002277517675577e+01
 1.507415055484352e+00	 2.498076560526930e+00	 9.959259565307855e+00
 1.748161935689520e+00	 2.350616630180291e+00	 1.053829286909141e+01
 1.725301965190386e+00	 2.367446319180945e+00	 1.048226696811218e+01
 1.702297430771305e+00	 2.384041250374986e+00	 1.042714831371860e+01
 1.679151920472886e+00	 2.400399623520136e+00	 1.037232658417940e+01
 1.655869050710495e+00	 2.416519710941649e+00	 1.031727155130518e+01
 1.632452464456791e+00	 2.432399858047272e+00	 1.026153115412201e+01
 1.608905829414729e+00	 2.448038483788079e+00	 1.020472916108100e+01
 1.585232836182901e+00	 2.463434081065060e+00	 1.014656242448102e+01
 1.561437196415068e+00	 2.478585217081414e+00	 1.008679773299176e+01
 1.537522640975725e+00	 2.493490533640546e+00	 1.002526827040653e+01
 1.513492918093553e+00	 2.508148747389890e+00	 9.961869691011605e+00
 1.755182214500812e+00	 2.360056250029308e+00	 1.053792056849149e+01
 1.732230442799683e+00	 2.376953523792338e+00	 1.048270032819432e+01
 1.709133526637987e+00	 2.393615097006997e+00	 1.042814580473604e+01
 1.685895068465202e+00	 2.410039162201578e+00	 1.037368776923474e+01
 1.662518699219512e+00	 2.426223984763328e+00	 1.031883949722796e+01
 1.639008076503043e+00	 2.442167903455474e+00	 1.026319475866314e+01
 1.615366882747527e+00	 2.457869330879900e+00	 1.020642538603174e+01
 1.591598823372280e+00	 2.473326753885382e+00	 1.014827842418041e+01
 1.567707624936338e+00	 2.488538733921279e+00	 1.008857286759753e+01
 1.543697033286620e+00	 2.503503907336743e+00	 1.002719599327149e+01
 1.519570811703960e+00	 2.518220985625511e+00	 9.964099299533711e+00
 1.762202543044773e+00	 2.369495936746265e+00	 1.053783029818057e+01
 1.739158969491391e+00	 2.386460795750553e+00	 1.048328722799223e+01
 1.715969670932674e+00	 2.403189011458029e+00	 1.042912051008638e+01
 1.692638264227076e+00	 2.419678769167503e+00	 1.037482202689801e+01
 1.669168394835703e+00	 2.435928327328165e+00	 1.031996928304518e+01
 1.645563734990253e+00	 2.451936018058666e+00	 1.026422327981232e+01
 1.621827981851343e+00	 2.467700247611655e+00	 1.020732595653178e+01
 1.597964855659123e+00	 2.483219496783643e+00	 1.014909720230070e+01
 1.573978097878012e+00	 2.498492321270108e+00	 1.008943144378986e+01
 1.549871469337459e+00	 2.513517351965906e+00	 1.002829381725841e+01
 1.525648748370564e+00	 2.528293295211038e+00	 9.965715935264928e+00
 1.769222935245635e+00	 2.378935709053517e+00	 1.053776509640649e+01
 1.746087559007678e+00	 2.395968153912027e+00	 1.048374265550880e+01
 1.722805877214311e+00	 2.412763012716728e+00	 1.042976693541819e+01
 1.699381521133095e+00	 2.429318463536883e+00	 1.037541071673972e+01
 1.675818150748198e+00	 2.445632757883551e+00	 1.032033622252823e+01
 1.652119452921027e+00	 2.461704221230744e+00	 1.026429284570924e+01
 1.628289139541221e+00	 2.477531253481817e+00	 1.020711443130201e+01
 1.604330945669897e+00	 2.493112329380950e+00	 1.014871611683026e+01
 1.580248627677000e+00	 2.508445998869690e+00	 1.008909073668408e+01
 1.556045961374652e+00	 2.523530887388541e+00	 1.002830479861321e+01
 1.531726740148355e+00	 2.538365696123714e+00	 9.966494042970583e+00
 1.776243405027630e+00	 2.388375585673417e+00	 1.053747680156500e+01
 1.753016225090713e+00	 2.405475617133191e+00	 1.048379071817183e+01
 1.729642159041841e+00	 2.422337119771737e+00	 1.042978890138851e+01
 1.706124852557851e+00	 2.438958264428681e+00	 1.037514458852674e+01
 1.682467980146134e+00	 2.455337295676872e+00	 1.031962497780644e+01
 1.658675243297971e+00	 2.471472532345603e+00	 1.026308877742669e+01
 1.634750368632198e+00	 2.487362367988857e+00	 1.020548329649277e+01
 1.610697106031066e+00	 2.503005271298415e+00	 1.014684108117874e+01
 1.586519226770214e+00	 2.518399786461819e+00	 1.008727610194277e+01
 1.562220521644609e+00	 2.533544533465154e+00	 1.002697950009040e+01
 1.537804799092324e+00	 2.548438208340778e+00	 9.966214904482801e+00
 1.783263966314989e+00	 2.397815585328320e+00	 1.053672593817154e+01
 1.759944981482662e+00	 2.414983204270480e+00	 1.048316452371974e+01
 1.736478529974208e+00	 2.431911351611699e+00	 1.042889942193124e+01
 1.712868271875930e+00	 2.448598190961866e+00	 1.037372366026453e+01
 1.689117896218640e+00	 2.465041959955519e+00	 1.031752943949559e+01
 1.665231119123694e+00	 2.481240970777142e+00	 1.026030547341665e+01
 1.641211681939316e+00	 2.497193610631252e+00	 1.020213385659703e+01
 1.617063349369095e+00	 2.512898342157149e+00	 1.014318646362345e+01
 1.592789907594565e+00	 2.528353703788285e+00	 1.008372088573701e+01
 1.568395162393736e+00	 2.543558310056250e+00	 1.002407591332480e+01
 1.543882937257461e+00	 2.558510851839479e+00	 9.964666575291593e+00
 1.790284633031943e+00	 2.407255726740579e+00	 1.053528160350817e+01
 1.766873841925694e+00	 2.424490934180330e+00	 1.048160606192507e+01
 1.743315003570355e+00	 2.441485727225261e+00	 1.042682058346771e+01
 1.719611792461921e+00	 2.458238262255405e+00	 1.037085709722979e+01
 1.695767912154852e+00	 2.474746769966883e+00	 1.031375260780993e+01
 1.671787093400803e+00	 2.491009555899256e+00	 1.025564629488067e+01
 1.647673092277615e+00	 2.507025000907475e+00	 1.019677612617797e+01
 1.623429688310449e+00	 2.522791561578260e+00	 1.013747498741141e+01
 1.599060682586963e+00	 2.538307770590878e+00	 1.007816633515712e+01
 1.574569895868444e+00	 2.553572237022335e+00	 1.001935938140181e+01
 1.549961166698757e+00	 2.568583646597059e+00	 9.961643821040372e+00
 1.489181533114078e+00	 2.467860108401592e+00	 9.951575473222988e+00
 1.465428188280387e+00	 2.482038543943793e+00	 9.885872601734825e+00
 1.441568948733355e+00	 2.495971545656568e+00	 9.817371590992716e+00
 1.417607545525145e+00	 2.509658076259177e+00	 9.747289845831130e+00
 1.393547719448851e+00	 2.523097172564315e+00	 9.676829754957396e+00
 1.369393219236461e+00	 2.536287945451281e+00	 9.607171562914361e+00
 1.345147799765400e+00	 2.549229579787756e+00	 9.539426433654342e+00
 1.320815220275283e+00	 2.561921334300749e+00	 9.474592926360369e+00
 1.296399242596536e+00	 2.574362541397336e+00	 9.413517093558855e+00
 1.271903629392474e+00	 2.586552606935843e+00	 9.356856382293046e+00
 1.247332142416412e+00	 2.598491009948211e+00	 9.303818694869554e+00
 1.495259375049605e+00	 2.477932261010025e+00	 9.953862465753780e+00
 1.471409084966351e+00	 2.492168563432949e+00	 9.887540666810413e+00
 1.447452467978457e+00	 2.506158430329908e+00	 9.818164690506189e+00
 1.423393270365741e+00	 2.519900820186672e+00	 9.747250366168338e+00
 1.399235248188703e+00	 2.533394765884846e+00	 9.676220747147262e+00
 1.374982165479141e+00	 2.546639374674927e+00	 9.606473143567841e+00
 1.350637792439371e+00	 2.559633828097766e+00	 9.539330573043383e+00
 1.326205903651701e+00	 2.572377381854987e+00	 9.475996733777452e+00
 1.301690276299824e+00	 2.584869365628993e+00	 9.417514716143470e+00
 1.277094688403726e+00	 2.597109182853218e+00	 9.364047288093179e+00
 1.252422917069672e+00	 2.609096310433356e+00	 9.308718106111359e+00
 1.501337211821366e+00	 2.488004405059390e+00	 9.956508341606625e+00
 1.477389976570836e+00	 2.502298574313877e+00	 9.889896711140542e+00
 1.453335982224723e+00	 2.516345306346720e+00	 9.820142138269206e+00
 1.429178990290489e+00	 2.530143555410195e+00	 9.749046843177954e+00
 1.404922772096031e+00	 2.543692350454823e+00	 9.678228520583286e+00
 1.380571106972949e+00	 2.556990795102304e+00	 9.609274452442417e+00
 1.356127780448440e+00	 2.570038067566659e+00	 9.543691359473929e+00
 1.331596582447498e+00	 2.582833420524133e+00	 9.482858888422212e+00
 1.306981305507077e+00	 2.595376180932459e+00	 9.427743159569093e+00
 1.282285743003818e+00	 2.607665749800173e+00	 9.372552965463793e+00
 1.257513687396934e+00	 2.619701601906730e+00	 9.314381867837332e+00
 1.507415055484352e+00	 2.498076560526930e+00	 9.959259565307855e+00
 1.483370874956531e+00	 2.512428596678575e+00	 9.892695624074765e+00
 1.459219503141681e+00	 2.526532193911750e+00	 9.823083402010862e+00
 1.434964716774931e+00	 2.540386302245247e+00	 9.752471531790905e+00
 1.410610302451597e+00	 2.553989946698493e+00	 9.682649047585993e+00
 1.386160054803102e+00	 2.567342227264390e+00	 9.615366612832652e+00
 1.361617774681546e+00	 2.580442318830134e+00	 9.552287000698662e+00
 1.336987267354630e+00	 2.593289471046578e+00	 9.494922836252107e+00
 1.312272340712590e+00	 2.605883008146789e+00	 9.439169140447699e+00
 1.287476803488746e+00	 2.618222328714412e+00	 9.381061523961820e+00
 1.262604463495277e+00	 2.630306905402650e+00	 9.320679500536382e+00
 1.513492918093553e+00	 2.508148747389890e+00	 9.961869691011605e+00
 1.489351791986121e+00	 2.522558650619031e+00	 9.895674934003377e+00
 1.465103042398859e+00	 2.536719113229746e+00	 9.826772957104712e+00
 1.440750461294609e+00	 2.550629081007325e+00	 9.757320485532643e+00
 1.416297850536165e+00	 2.564287575040101e+00	 9.689281060639038e+00
 1.391749020054819e+00	 2.577693691692166e+00	 9.624542637591981e+00
 1.367107786027628e+00	 2.590846602523880e+00	 9.564896888265793e+00
 1.342377969065053e+00	 2.603745554160710e+00	 9.508380005031441e+00
 1.317563392410660e+00	 2.616389868111044e+00	 9.449862323914365e+00
 1.292667880154504e+00	 2.628778940533633e+00	 9.389497905439420e+00
 1.267695255461783e+00	 2.640912241955430e+00	 9.327485828357547e+00
 1.519570811703960e+00	 2.518220985625511e+00	 9.964099299533711e+00
 1.495332739522294e+00	 2.532688756227239e+00	 9.898613369772695e+00
 1.470986611665783e+00	 2.546906084505455e+00	 9.831000738224017e+00
 1.446536235325069e+00	 2.560871912011931e+00	 9.763393998949311e+00
 1.421985427630498e+00	 2.574585255903892e+00	 9.697926482488352e+00
 1.397338013813319e+00	 2.588045208916609e+00	 9.636597843954123e+00
 1.372597825375626e+00	 2.601250939283592e+00	 9.579286644445235e+00
 1.347768698270722e+00	 2.614201690604918e+00	 9.520400900432579e+00
 1.322854471095587e+00	 2.626896781664283e+00	 9.459794113859376e+00
 1.297858983297090e+00	 2.639335606195540e+00	 9.397791534924611e+00
 1.272786073393529e+00	 2.651517632599385e+00	 9.334680878280368e+00
 1.525648748370564e+00	 2.528293295211038e+00	 9.965715935264928e+00
 1.501313729427737e+00	 2.542818933595193e+00	 9.901308083030290e+00
 1.476870222611982e+00	 2.557093127943622e+00	 9.835562590333534e+00
 1.452322050341852e+00	 2.571114815574565e+00	 9.770497049189657e+00
 1.427673045015358e+00	 2.584883009714111e+00	 9.708390855292889e+00
 1.402927047163820e+00	 2.598396799468693e+00	 9.650497153662059e+00
 1.378087903614479e+00	 2.611655349744966e+00	 9.591657198532571e+00
 1.353159465663591e+00	 2.624657901117586e+00	 9.530994414079073e+00
 1.328145587261666e+00	 2.637403769645563e+00	 9.468939704824626e+00
 1.303050123212498e+00	 2.649892346637831e+00	 9.405876228566129e+00
 1.277876927387598e+00	 2.662123098368829e+00	 9.342149779362424e+00
 1.531726740148355e+00	 2.538365696123714e+00	 9.966494042970583e+00
 1.507294773565135e+00	 2.552949202814883e+00	 9.903562474078111e+00
 1.482753886906982e+00	 2.567280263748996e+00	 9.840260010684480e+00
 1.458107917820501e+00	 2.581357812010725e+00	 9.778439736800800e+00
 1.433360713971511e+00	 2.595180856895002e+00	 9.720332422115444e+00
 1.408516131191541e+00	 2.608748483879401e+00	 9.662189033141708e+00
 1.383578031633126e+00	 2.622059854543694e+00	 9.601962822080367e+00
 1.358550281935618e+00	 2.635114206437110e+00	 9.540172661745888e+00
 1.333436751403195e+00	 2.647910852893944e+00	 9.477277995693564e+00
 1.308241310196724e+00	 2.660449182798210e+00	 9.413690101326408e+00
 1.282967827541069e+00	 2.672728660298076e+00	 9.349782662060822e+00
 1.537804799092324e+00	 2.548438208340778e+00	 9.966214904482801e+00
 1.513275883797176e+00	 2.563079583978305e+00	 9.905186142372269e+00
 1.488637616220313e+00	 2.577467512126324e+00	 9.844886020963793e+00
 1.463893849236560e+00	 2.591600921635913e+00	 9.787037725796024e+00
 1.439048445779719e+00	 2.605478817870811e+00	 9.730332973544300e+00
 1.414105276981701e+00	 2.619100282679708e+00	 9.671210913413123e+00
 1.389068220320506e+00	 2.632464474315470e+00	 9.610243702140998e+00
 1.363941157778755e+00	 2.645570627301872e+00	 9.547950899846839e+00
 1.338727974014472e+00	 2.658418052248483e+00	 9.484791502873252e+00
 1.313432554545763e+00	 2.671006135614380e+00	 9.421175474428090e+00
 1.288058783951022e+00	 2.683334339421443e+00	 9.357474557624004e+00
 1.543882937257461e+00	 2.558510851839479e+00	 9.964666575291593e+00
 1.519257071986547e+00	 2.573210097177449e+00	 9.905994836636214e+00
 1.494521422221500e+00	 2.587654893280352e+00	 9.849262955049648e+00
 1.469679856065572e+00	 2.601844164765625e+00	 9.794390710529292e+00
 1.444736251720745e+00	 2.615776913065784e+00	 9.737093821528248e+00
 1.419694495619518e+00	 2.629452216400594e+00	 9.677622216064302e+00
 1.394558480565559e+00	 2.642869229695989e+00	 9.616542723842795e+00
 1.369332103884960e+00	 2.656027184450264e+00	 9.554347441228227e+00
 1.344019265589793e+00	 2.668925388548241e+00	 9.491466272980155e+00
 1.318623866555610e+00	 2.681563226024038e+00	 9.428278782558671e+00
 1.293149806714537e+00	 2.693940156773242e+00	 9.365125297550184e+00
 1.549961166698757e+00	 2.568583646597059e+00	 9.961643821040372e+00
 1.525238349995934e+00	 2.583340762504310e+00	 9.905810404601308e+00
 1.500405316580072e+00	 2.597842427415828e+00	 9.852730555437310e+00
 1.475465949783079e+00	 2.612087561715364e+00	 9.797991556476056e+00
 1.450424143075353e+00	 2.626075162904165e+00	 9.740684813198200e+00
 1.425283798190212e+00	 2.639804305573038e+00	 9.681484737329599e+00
 1.400048823257224e+00	 2.653274141320943e+00	 9.620905385999404e+00
 1.374723130946189e+00	 2.666483898620674e+00	 9.559383570284867e+00
 1.349310636623457e+00	 2.679432882632276e+00	 9.497291795040939e+00
 1.323815256522263e+00	 2.692120474964890e+00	 9.434950480838005e+00
 1.298240905928696e+00	 2.704546133387790e+00	 9.372639413108740e+00
 1.247332142416412e+00	 2.598491009948211e+00	 9.303818694869554e+00
 1.222684344990534e+00	 2.610179267343061e+00	 9.247258295626978e+00
 1.197968163812535e+00	 2.621614950710081e+00	 9.186748545376322e+00
 1.173187348313713e+00	 2.632797754496135e+00	 9.123198022307434e+00
 1.148345640266109e+00	 2.643727444784830e+00	 9.057514364937804e+00
 1.123446772135824e+00	 2.654403858788916e+00	 8.990609477354006e+00
 1.098494465459839e+00	 2.664826904299237e+00	 8.923318189618431e+00
 1.073492429247636e+00	 2.674996559091289e+00	 8.855919570685774e+00
 1.048444358408823e+00	 2.684912870290481e+00	 8.788940659316651e+00
 1.023353932207930e+00	 2.694575953697263e+00	 8.723062810581332e+00
 9.982248127474879e-01	 2.703985993073249e+00	 8.659051345916343e+00
 1.252422917069672e+00	 2.609096310433356e+00	 9.308718106111359e+00
 1.227674523837619e+00	 2.620832271469025e+00	 9.249730038652405e+00
 1.202857467756737e+00	 2.632314627638777e+00	 9.187891609999378e+00
 1.177975513560992e+00	 2.643543072142414e+00	 9.123948522969847e+00
 1.153032418293845e+00	 2.654517370108858e+00	 9.058642154142495e+00
 1.128031929654825e+00	 2.665237358086480e+00	 8.992715101193575e+00
 1.102977784369739e+00	 2.675702943489788e+00	 8.926884380973853e+00
 1.077873706585768e+00	 2.685914104003577e+00	 8.861362561947930e+00
 1.052723406292671e+00	 2.695870886945599e+00	 8.796462295471510e+00
 1.027530577771278e+00	 2.705573408588925e+00	 8.732689943674618e+00
 1.002298898070373e+00	 2.715021853445169e+00	 8.670634711451969e+00
 1.257513687396934e+00	 2.619701601906730e+00	 9.314381867837332e+00
 1.232664698444155e+00	 2.631485266542742e+00	 9.253515096477972e+00
 1.207746767546098e+00	 2.643014295475625e+00	 9.190729533984435e+00
 1.182763674739388e+00	 2.654288380658127e+00	 9.126627063552620e+00
 1.157719192338879e+00	 2.665307286264481e+00	 9.061802465280172e+00
 1.132617083277519e+00	 2.676070848178673e+00	 8.996849274673462e+00
 1.107461099469925e+00	 2.686578973438881e+00	 8.932359312863667e+00
 1.082254980200960e+00	 2.696831639639197e+00	 8.868520433002445e+00
 1.057002450540521e+00	 2.706828894289712e+00	 8.805452539559973e+00
 1.031707219785717e+00	 2.716570854136121e+00	 8.743509285617343e+00
 1.006372979931576e+00	 2.726057704440031e+00	 8.683126406338275e+00
 1.262604463495277e+00	 2.630306905402650e+00	 9.320679500536382e+00
 1.237654878707691e+00	 2.642138273693124e+00	 9.258432377138044e+00
 1.212636072878084e+00	 2.653713975442102e+00	 9.195038325882409e+00
 1.187551841345754e+00	 2.665033701355267e+00	 9.130974229976136e+00
 1.162405971696968e+00	 2.676097214652169e+00	 9.066707701201555e+00
 1.137202242098103e+00	 2.686904350552399e+00	 9.002703218930415e+00
 1.111944419652604e+00	 2.697455015717806e+00	 8.939427554569463e+00
 1.086636258783029e+00	 2.707749187651776e+00	 8.877073413670997e+00
 1.061281499639425e+00	 2.717786914056735e+00	 8.815593935149721e+00
 1.035883866535202e+00	 2.727568312150999e+00	 8.755211855817400e+00
 1.010447066411639e+00	 2.737093567946167e+00	 8.696231858604444e+00
 1.267695255461783e+00	 2.640912241955430e+00	 9.327485828357547e+00
 1.242645074525773e+00	 2.652791314049083e+00	 9.264306809581791e+00
 1.217525393450157e+00	 2.664413688759678e+00	 9.200600600372013e+00
 1.192340022876946e+00	 2.675779055545831e+00	 9.136737670761143e+00
 1.167092765663868e+00	 2.686887176672392e+00	 9.073077658495787e+00
 1.141787415210774e+00	 2.697737886694564e+00	 9.009975758150244e+00
 1.116427753809980e+00	 2.708331091897852e+00	 8.947788368767652e+00
 1.091017551021789e+00	 2.718666769694937e+00	 8.886707970322639e+00
 1.065560562076440e+00	 2.728744967980576e+00	 8.826574995713070e+00
 1.040060526303687e+00	 2.738565804445704e+00	 8.767494277533967e+00
 1.014521165591107e+00	 2.748129465851914e+00	 8.709661639048473e+00
 1.272786073393529e+00	 2.651517632599385e+00	 9.334680878280368e+00
 1.247635295795950e+00	 2.663444408739530e+00	 9.270969233849732e+00
 1.222414738959777e+00	 2.675113456649827e+00	 9.207205461876711e+00
 1.197128228829819e+00	 2.686524464541810e+00	 9.143671976437080e+00
 1.171779583535334e+00	 2.697677193725624e+00	 9.080639404955830e+00
 1.146372611709728e+00	 2.708571478092071e+00	 9.018373197271414e+00
 1.120911110834262e+00	 2.719207223550309e+00	 8.957139465310757e+00
 1.095398865607055e+00	 2.729584407422305e+00	 8.897116774989820e+00
 1.069839646338619e+00	 2.739703077795145e+00	 8.838090175957422e+00
 1.044237207375125e+00	 2.749563352832382e+00	 8.780058753335677e+00
 1.018595285550525e+00	 2.759165420045602e+00	 8.723131442654092e+00
 1.277876927387598e+00	 2.662123098368829e+00	 9.342149779362424e+00
 1.252625552415768e+00	 2.674097578893377e+00	 9.278256291659419e+00
 1.227304119104409e+00	 2.685813300334022e+00	 9.214648388861168e+00
 1.201916468701229e+00	 2.697269949655200e+00	 9.151538559840006e+00
 1.176466434607124e+00	 2.708467287212338e+00	 9.089127158086741e+00
 1.150957840689160e+00	 2.719405146231824e+00	 9.027609200828268e+00
 1.125394499617653e+00	 2.730083432246463e+00	 8.967180369813898e+00
 1.099780211228643e+00	 2.740502122487503e+00	 8.907998675611578e+00
 1.074118760913019e+00	 2.750661265234354e+00	 8.849839844218737e+00
 1.048413918033473e+00	 2.760560979123182e+00	 8.792613041510329e+00
 1.022669434370435e+00	 2.770201452415563e+00	 8.736362070801411e+00
 1.282967827541069e+00	 2.672728660298076e+00	 9.349782662060822e+00
 1.257615854282777e+00	 2.684750845639536e+00	 9.286010317387591e+00
 1.232193543581515e+00	 2.696513241033735e+00	 9.222731118787298e+00
 1.206704751988028e+00	 2.708015532197992e+00	 9.160105537275502e+00
 1.181153328174993e+00	 2.719257478533002e+00	 9.098282164627030e+00
 1.155543111243269e+00	 2.730238912600728e+00	 9.037404672901770e+00
 1.129877929052360e+00	 2.740959739557607e+00	 8.977617945655718e+00
 1.104161596576368e+00	 2.751419936544159e+00	 8.919058667378213e+00
 1.078397914286693e+00	 2.761619552032114e+00	 8.861530255893420e+00
 1.052590666562683e+00	 2.771558705130250e+00	 8.804870433403796e+00
 1.026743620131380e+00	 2.781237584850133e+00	 8.749079414253945e+00
 1.288058783951022e+00	 2.683334339421443e+00	 9.357474557624004e+00
 1.262606211294523e+00	 2.695404230106921e+00	 9.294079229436988e+00
 1.237083022088556e+00	 2.707213299970440e+00	 9.231261533710434e+00
 1.211493088187074e+00	 2.718761233482183e+00	 9.169147610520874e+00
 1.185840273534697e+00	 2.730047789088091e+00	 9.107852581054701e+00
 1.160128432466249e+00	 2.741072798685685e+00	 9.047487638147134e+00
 1.134361408030590e+00	 2.751836167055027e+00	 8.988166277465318e+00
 1.108543030340047e+00	 2.762337871245896e+00	 8.930007865151280e+00
 1.082677114946696e+00	 2.772577959922335e+00	 8.872873527884522e+00
 1.056767461246711e+00	 2.782556552665732e+00	 8.816549731667264e+00
 1.030817850913907e+00	 2.792273839237643e+00	 8.761014436905089e+00
 1.293149806714537e+00	 2.693940156773242e+00	 9.365125297550184e+00
 1.267596633348553e+00	 2.706057753424441e+00	 9.302316421975199e+00
 1.241972564322995e+00	 2.717913498365609e+00	 9.240053546497084e+00
 1.216281486795221e+00	 2.729507074819766e+00	 9.178445949643127e+00
 1.190527279981993e+00	 2.740838240278076e+00	 9.117593355050039e+00
 1.164713813452298e+00	 2.751906825973602e+00	 9.057593123868108e+00
 1.138844945444549e+00	 2.762712736310012e+00	 8.998546555695896e+00
 1.112924521209494e+00	 2.773255948246337e+00	 8.940564300339448e+00
 1.086956371380084e+00	 2.783536510638928e+00	 8.883587614039275e+00
 1.060944310369510e+00	 2.793554543541774e+00	 8.827375229392729e+00
 1.034892134798556e+00	 2.803310237466424e+00	 8.771903160267625e+00
 1.298240905928696e+00	 2.704546133387790e+00	 9.372639413108740e+00
 1.272587130342416e+00	 2.716711436721010e+00	 9.310580657033997e+00
 1.246862179982295e+00	 2.728613857440715e+00	 9.248926987645156e+00
 1.221069957309323e+00	 2.740253077522734e+00	 9.187788076608951e+00
 1.195214356812637e+00	 2.751628853503429e+00	 9.127266107887998e+00
 1.169299263295611e+00	 2.762741015951383e+00	 9.067463043108349e+00
 1.143328550186441e+00	 2.773589468893852e+00	 9.008486962255429e+00
 1.117306077874525e+00	 2.784174189199110e+00	 8.950457482386490e+00
 1.091235692073912e+00	 2.794495225915803e+00	 8.893396281555578e+00
 1.065121222215035e+00	 2.804552699570525e+00	 8.837076690116497e+00
 1.038966479865874e+00	 2.814346801424814e+00	 8.781486648690439e+00
 9.982248127474879e-01	 2.703985993073249e+00	 8.659051345916343e+00
 9.730649234986563e-01	 2.713141703988886e+00	 8.597623403351530e+00
 9.478736167176459e-01	 2.722045023175160e+00	 8.538649607362977e+00
 9.226544912902128e-01	 2.730696331587097e+00	 8.481764283146738e+00
 8.974111232401955e-01	 2.739096074880506e+00	 8.426661197514180e+00
 8.721470643699972e-01	 2.747244762524284e+00	 8.373088939371977e+00
 8.468658409348075e-01	 2.755142966881335e+00	 8.320846265246153e+00
 8.215709523512884e-01	 2.762791322259456e+00	 8.269777449737898e+00
 7.962658699414062e-01	 2.770190523933509e+00	 8.219767679569273e+00
 7.709540357120253e-01	 2.777341327140288e+00	 8.170738528445188e+00
 7.456388611708296e-01	 2.784244546047401e+00	 8.122643548342035e+00
 1.002298898070373e+00	 2.715021853445169e+00	 8.670634711451969e+00
 9.770363229994236e-01	 2.724214931842598e+00	 8.610804662188494e+00
 9.517422021709832e-01	 2.733154588416641e+00	 8.553013594599619e+00
 9.264201491590491e-01	 2.741841205677131e+00	 8.496947559744291e+00
 9.010737545823923e-01	 2.750275231098746e+00	 8.442353421312163e+00
 8.757065847394938e-01	 2.758457176229695e+00	 8.389033945581829e+00
 8.503221802773550e-01	 2.766387615768890e+00	 8.336842857837967e+00
 8.249240548949119e-01	 2.774067186612943e+00	 8.285679906413353e+00
 7.995156940817408e-01	 2.781496586874371e+00	 8.235485974252937e+00
 7.741005538926727e-01	 2.788676574872338e+00	 8.186238276422765e+00
 7.486820597588802e-01	 2.795607968097343e+00	 8.137945680321515e+00
 1.006372979931576e+00	 2.726057704440031e+00	 8.683126406338275e+00
 9.810077191258391e-01	 2.735288150287535e+00	 8.624647029502443e+00
 9.556107843374060e-01	 2.744264144218502e+00	 8.567853694307235e+00
 9.301858038284971e-01	 2.752986070297566e+00	 8.512479150226319e+00
 9.047363828128030e-01	 2.761454377818281e+00	 8.458318059694834e+00
 8.792661020848679e-01	 2.769669580408165e+00	 8.405221804506089e+00
 8.537785166834895e-01	 2.777632255102135e+00	 8.353093260228135e+00
 8.282771545898637e-01	 2.785343041385627e+00	 8.301881581087580e+00
 8.027655154611641e-01	 2.792802640208805e+00	 8.251577036460557e+00
 7.772470694001724e-01	 2.800011812973203e+00	 8.202205938592112e+00
 7.517252557615357e-01	 2.806971380492207e+00	 8.153825699450266e+00
 1.010447066411639e+00	 2.737093567946167e+00	 8.696231858604444e+00
 9.849791197547912e-01	 2.746361381286157e+00	 8.638871373088712e+00
 9.594793708898931e-01	 2.755373712615278e+00	 8.582902584648187e+00
 9.339514627674049e-01	 2.764130947552977e+00	 8.528100037500170e+00
 9.083990151959497e-01	 2.772633537211680e+00	 8.474301020535314e+00
 8.828256234661482e-01	 2.780881997298226e+00	 8.421400096913128e+00
 8.572348570086076e-01	 2.788876907183538e+00	 8.369343603384710e+00
 8.316302580867972e-01	 2.796618908941876e+00	 8.318124163074884e+00
 8.060153405254997e-01	 2.804108706361059e+00	 8.267775254109402e+00
 7.803935884754619e-01	 2.811347063924999e+00	 8.218365874909772e+00
 7.547684552148184e-01	 2.818334805769973e+00	 8.169995345213858e+00
 1.014521165591107e+00	 2.748129465851914e+00	 8.709661639048473e+00
 9.889505327631674e-01	 2.757434646800921e+00	 8.653203226934640e+00
 9.633479695014243e-01	 2.766483315641508e+00	 8.597897193690354e+00
 9.377171334446217e-01	 2.775275859547938e+00	 8.543555097417199e+00
 9.120616589963552e-01	 2.783812731451516e+00	 8.490051806026903e+00
 8.863851559433638e-01	 2.792094449138411e+00	 8.437319756597486e+00
 8.606912081081055e-01	 2.800121594315558e+00	 8.385343186309429e+00
 8.349833720363642e-01	 2.807894811646057e+00	 8.334152379982740e+00
 8.092651757205713e-01	 2.815414807755385e+00	 8.283817977851234e+00
 7.835401173594793e-01	 2.822682350209844e+00	 8.234445385600338e+00
 7.578116641547494e-01	 2.829698266468617e+00	 8.186169326881757e+00
 1.018595285550525e+00	 2.759165420045602e+00	 8.723131442654092e+00
 9.929219660278540e-01	 2.768507968794285e+00	 8.667372778840134e+00
 9.672165878449800e-01	 2.777592975331731e+00	 8.612578691970139e+00
 9.414828233289959e-01	 2.786420828387023e+00	 8.558593095047151e+00
 9.157243214785417e-01	 2.794991982710364e+00	 8.505323511469957e+00
 8.899447065765441e-01	 2.803306958167253e+00	 8.452735070512782e+00
 8.641475768373805e-01	 2.811366338800661e+00	 8.400844476382355e+00
 8.383365030892171e-01	 2.819170771862536e+00	 8.349713997167946e+00
 8.125150274922026e-01	 2.826720966816032e+00	 8.299445518574109e+00
 7.866866622931620e-01	 2.834017694309858e+00	 8.250174705671986e+00
 7.608548886173511e-01	 2.841061785126119e+00	 8.202065314039466e+00
 1.022669434370435e+00	 2.770201452415563e+00	 8.736362070801411e+00
 9.968934274257396e-01	 2.779581369228709e+00	 8.681114858668241e+00
 9.710852335935388e-01	 2.788702713720481e+00	 8.626692485551148e+00
 9.452485398893757e-01	 2.797565876174806e+00	 8.572966681343861e+00
 9.193870099070320e-01	 2.806171313160790e+00	 8.519872824374385e+00
 8.935042824257180e-01	 2.814519546623285e+00	 8.467403679171957e+00
 8.676039700518287e-01	 2.822611162941309e+00	 8.415603109953707e+00
 8.416896578960078e-01	 2.830446811955678e+00	 8.364559817445922e+00
 8.157649022862176e-01	 2.838027205967250e+00	 8.314401145188725e+00
 7.898332295174492e-01	 2.845353118707158e+00	 8.265286999773240e+00
 7.638981346386456e-01	 2.852425384280456e+00	 8.217403927543158e+00
 1.026743620131380e+00	 2.781237584850133e+00	 8.749079414253945e+00
 1.000864924833711e+00	 2.790654870066648e+00	 8.694168927212225e+00
 9.749539144200811e-01	 2.799812552842298e+00	 8.639988209569342e+00
 9.490142905946103e-01	 2.808711025015862e+00	 8.586432390195828e+00
 9.230497315463474e-01	 2.817350744975366e+00	 8.533460023872912e+00
 8.970638905509147e-01	 2.825732236745038e+00	 8.481086577311823e+00
 8.710603946068465e-01	 2.833856089039963e+00	 8.429377893179334e+00
 8.450428431073891e-01	 2.841722954289853e+00	 8.378443681049388e+00
 8.190148065484399e-01	 2.849333547633289e+00	 8.328431082694514e+00
 7.929798252732778e-01	 2.856688645883863e+00	 8.279518357384037e+00
 7.669414082546547e-01	 2.863789086469607e+00	 8.231908730887005e+00
 1.030817850913907e+00	 2.792273839237643e+00	 8.761014436905088e+00
 1.004836466128657e+00	 2.801728493270562e+00	 8.706279065667156e+00
 9.788226379975862e-01	 2.810922514731720e+00	 8.652219722255474e+00
 9.527800829135475e-01	 2.819856297014763e+00	 8.598750635854575e+00
 9.267124936610115e-01	 2.828530300326665e+00	 8.545848980440255e+00
 9.006235380121631e-01	 2.836945050771045e+00	 8.493548114817919e+00
 8.745168573578310e-01	 2.845101139399088e+00	 8.441930803096923e+00
 8.483960653740135e-01	 2.852999221229426e+00	 8.391122465832709e+00
 8.222647467246933e-01	 2.860640014238399e+00	 8.341284510521096e+00
 7.961264558015865e-01	 2.868024298322091e+00	 8.292607788335351e+00
 7.699847155014001e-01	 2.875152914231550e+00	 8.245306221974731e+00
 1.034892134798556e+00	 2.803310237466424e+00	 8.771903160267625e+00
 1.008808059187464e+00	 2.812802260802909e+00	 8.717193965692980e+00
 9.826914119990340e-01	 2.822032621423284e+00	 8.663145099425922e+00
 9.565459243150359e-01	 2.831001714276085e+00	 8.609685710735114e+00
 9.303753035155458e-01	 2.839710001387255e+00	 8.556807155914168e+00
 9.041832318694926e-01	 2.848158010939838e+00	 8.504555997906586e+00
 8.779733651601785e-01	 2.856346336321144e+00	 8.453026988939776e+00
 8.517493313465329e-01	 2.864275635138763e+00	 8.402356087718651e+00
 8.255147292608019e-01	 2.871946628206831e+00	 8.352713561140407e+00
 7.992731273433131e-01	 2.879360098503961e+00	 8.304297218650779e+00
 7.730280624149036e-01	 2.886516890104262e+00	 8.257325825286829e+00
 1.038966479865874e+00	 2.814346801424814e+00	 8.781486648690439e+00
 1.012779711887019e+00	 2.823876194626148e+00	 8.726666920058136e+00
 9.865602440974042e-01	 2.833142894951528e+00	 8.672526629433474e+00
 9.603118222679246e-01	 2.842147298904402e+00	 8.619005783582322e+00
 9.340381683744731e-01	 2.850889870329711e+00	 8.566105603813796e+00
 9.077429791829325e-01	 2.859371139489952e+00	 8.513881290560830e+00
 8.814299248692856e-01	 2.867591702108598e+00	 8.462434773685128e+00
 8.551026476756005e-01	 2.875552218382233e+00	 8.411907501384157e+00
 8.287647606025892e-01	 2.883253411962834e+00	 8.362473318945355e+00
 8.024198461393960e-01	 2.890696068911592e+00	 8.314331486704447e+00
 7.760714550311879e-01	 2.897881036625725e+00	 8.267699884435229e+00
 7.456388611708296e-01	 2.784244546047401e+00	 8.122643548342035e+00
 7.203237265245261e-01	 2.790901053302352e+00	 8.075495673609860e+00
 6.950119805730115e-01	 2.797311780762338e+00	 8.028997006939823e+00
 6.697069385446667e-01	 2.803477716567880e+00	 7.983205175351440e+00
 6.444118807090581e-01	 2.809399903412483e+00	 7.938256881828438e+00
 6.191300513815668e-01	 2.815079437399354e+00	 7.894334384583987e+00
 5.938646579666922e-01	 2.820517466880526e+00	 7.851653283194987e+00
 5.686188700402097e-01	 2.825715191279776e+00	 7.810451825723677e+00
 5.433958184703196e-01	 2.830673859900681e+00	 7.770981660593937e+00
 5.181985945778707e-01	 2.835394770721205e+00	 7.733499952670920e+00
 4.930302493356879e-01	 2.839879269176116e+00	 7.698262779437074e+00
 7.486820597588802e-01	 2.795607968097343e+00	 8.137945680321515e+00
 7.232636056828087e-01	 2.802291642758450e+00	 8.090759939525093e+00
 6.978485541319095e-01	 2.808728534516055e+00	 8.044356534120762e+00
 6.724402338651023e-01	 2.814919635543590e+00	 7.998767508116178e+00
 6.470419385398132e-01	 2.820865992790118e+00	 7.954128521289853e+00
 6.216569257125421e-01	 2.826568706832383e+00	 7.910615583893446e+00
 5.962884158782621e-01	 2.832028930709208e+00	 7.868432952422621e+00
 5.709395915488301e-01	 2.837247868739591e+00	 7.827802586166287e+00
 5.456135963705505e-01	 2.842226775325913e+00	 7.788955085250574e+00
 5.203135342809698e-01	 2.846966953743598e+00	 7.752122026508816e+00
 4.950424687049376e-01	 2.851469754918560e+00	 7.717529609906751e+00
 7.517252557615357e-01	 2.806971380492207e+00	 8.153825699450266e+00
 7.262034823434261e-01	 2.813682222536445e+00	 8.106687293602061e+00
 7.006851252808409e-01	 2.820145278569505e+00	 8.060455248871214e+00
 6.751735268632312e-01	 2.826361544797723e+00	 8.015123945201976e+00
 6.496719941358748e-01	 2.832332072425712e+00	 7.970827377137544e+00
 6.241837978963846e-01	 2.838057966503753e+00	 7.927734618955635e+00
 5.987121717301991e-01	 2.843540384757443e+00	 7.886037836438154e+00
 5.732603110852508e-01	 2.848780536401003e+00	 7.845941899900794e+00
 5.478313723859408e-01	 2.853779680935612e+00	 7.807655516077523e+00
 5.224284721865065e-01	 2.858539126934140e+00	 7.771383792001369e+00
 4.970546863638152e-01	 2.863060230813644e+00	 7.737322140375043e+00
 7.547684552148184e-01	 2.818334805769973e+00	 8.169995345213858e+00
 7.291433623374806e-01	 2.825072815228172e+00	 8.122979208403168e+00
 7.035216996460127e-01	 2.831562035566389e+00	 8.076985559893162e+00
 6.779068229604155e-01	 2.837803467023863e+00	 8.031960432089107e+00
 6.523020527138405e-01	 2.843798165060762e+00	 7.988035511262819e+00
 6.267106729450308e-01	 2.849547239200907e+00	 7.945372220938565e+00
 6.011359303299119e-01	 2.855051851856677e+00	 7.904149856263348e+00
 5.755810332525099e-01	 2.860313217137518e+00	 7.864555360822767e+00
 5.500491509153419e-01	 2.865332599643407e+00	 7.826774660303457e+00
 5.245434124893554e-01	 2.870111313244676e+00	 7.790985462880445e+00
 4.990669063034532e-01	 2.874650719849520e+00	 7.757351432514130e+00
 7.578116641547494e-01	 2.829698266468617e+00	 8.186169326881757e+00
 7.320832514960748e-01	 2.836463443425473e+00	 8.139339926456248e+00
 7.063582828536313e-01	 2.842978828150413e+00	 8.093642583128188e+00
 6.806401275780184e-01	 2.849245424915598e+00	 8.048965551640187e+00
 6.549321194903066e-01	 2.855264293436767e+00	 8.005437545563034e+00
 6.292375558704176e-01	 2.861036547711292e+00	 7.963211595684561e+00
 6.035596964848088e-01	 2.866563354838354e+00	 7.922453313824729e+00
 5.779017626536452e-01	 2.871845933822633e+00	 7.883330841000061e+00
 5.522669363576055e-01	 2.876885554362930e+00	 7.846006391068990e+00
 5.266583593843908e-01	 2.881683535627047e+00	 7.810629296400217e+00
 5.010791325149846e-01	 2.886241245014343e+00	 7.777330458364380e+00
 7.608548886173511e-01	 2.841061785126119e+00	 8.202065314039466e+00
 7.350231556503110e-01	 2.847854129720178e+00	 8.155476464241348e+00
 7.091948805299036e-01	 2.854395678965277e+00	 8.110124139892589e+00
 6.833734461374021e-01	 2.860687441166514e+00	 8.065830517105180e+00
 6.575621996818706e-01	 2.866730480295224e+00	 8.022720650534390e+00
 6.317644516844821e-01	 2.872525914822355e+00	 7.980938408604065e+00
 6.059834750022974e-01	 2.878074916533913e+00	 7.940634873856675e+00
 5.802225038916948e-01	 2.883378709329851e+00	 7.901958470286924e+00
 5.544847331115831e-01	 2.888438568007811e+00	 7.865046725446765e+00
 5.287733170664879e-01	 2.893255817033097e+00	 7.830019570450579e+00
 5.030913689895415e-01	 2.897831829296267e+00	 7.796974077220463e+00
 7.638981346386456e-01	 2.852425384280456e+00	 8.217403927543158e+00
 7.379630806312919e-01	 2.859244896704130e+00	 8.171098616677240e+00
 7.120314983010370e-01	 2.865812610654685e+00	 8.126130755581876e+00
 6.861067840599295e-01	 2.872129538470199e+00	 8.082249165753343e+00
 6.601922985051291e-01	 2.878196748377628e+00	 8.039574534536815e+00
 6.342913653991601e-01	 2.884015363321541e+00	 7.998240770274545e+00
 6.084072706897871e-01	 2.889586559774804e+00	 7.958383546529499e+00
 5.825432615696966e-01	 2.894911566532674e+00	 7.920130616671102e+00
 5.567025455761263e-01	 2.899991663491681e+00	 7.883593803190280e+00
 5.308882897305212e-01	 2.904828180414673e+00	 7.848862561382536e+00
 5.051036197182569e-01	 2.909422495683443e+00	 7.815999013200403e+00
 7.669414082546547e-01	 2.863789086469607e+00	 8.231908730887005e+00
 7.409030322701192e-01	 2.870635766969163e+00	 8.185918986002056e+00
 7.148681417932372e-01	 2.877229645862342e+00	 8.141365658932292e+00
 6.888401467669633e-01	 2.883571739520236e+00	 8.097917953117372e+00
 6.628224211766798e-01	 2.889663120425480e+00	 8.055691433714294e+00
 6.368183020263893e-01	 2.895504915996298e+00	 8.014809222725994e+00
 6.108310883546854e-01	 2.901098307392466e+00	 7.975390670784147e+00
 5.848640402906888e-01	 2.906444528304603e+00	 7.937541867334726e+00
 5.589203781500867e-01	 2.911544863728168e+00	 7.901347866191706e+00
 5.330032815713652e-01	 2.916400648723616e+00	 7.866866522526605e+00
 5.071158886922631e-01	 2.921013267164026e+00	 7.834123833479113e+00
 7.699847155014001e-01	 2.875152914231550e+00	 8.245306221974731e+00
 7.438430163978956e-01	 2.882026763107115e+00	 8.199658753027755e+00
 7.177048166327119e-01	 2.888646807231948e+00	 8.155534781826372e+00
 6.915735396798660e-01	 2.895014067010215e+00	 8.112535947834983e+00
 6.654525729131192e-01	 2.901129619180276e+00	 8.070766102554533e+00
 6.393452665781059e-01	 2.906994595634071e+00	 8.030336726396133e+00
 6.132549328044012e-01	 2.912610182218347e+00	 7.991349898354525e+00
 5.871848446577089e-01	 2.917977617519138e+00	 7.953889010410281e+00
 5.611382352323158e-01	 2.923098191630907e+00	 7.918011238630344e+00
 5.351182967838950e-01	 2.927973244911771e+00	 7.883741663384929e+00
 5.091281799026928e-01	 2.932604166726168e+00	 7.851068927168159e+00
 7.730280624149036e-01	 2.886516890104262e+00	 8.257325825286829e+00
 7.467830388457233e-01	 2.893417907709820e+00	 8.212039681206750e+00
 7.205415284456674e-01	 2.900064117407209e+00	 8.168346759630822e+00
 6.943069682200005e-01	 2.906456543633722e+00	 8.125804827074237e+00
 6.680827589310442e-01	 2.912596267383513e+00	 8.084495805072525e+00
 6.418722640662470e-01	 2.918484425022306e+00	 8.044518647738068e+00
 6.156788088463426e-01	 2.924122207083888e+00	 8.005957178460516e+00
 5.895056792737950e-01	 2.929510857049780e+00	 7.968871017413115e+00
 5.633561212216650e-01	 2.934651670113527e+00	 7.933288307792781e+00
 5.372333395629852e-01	 2.939545991930982e+00	 7.899200129479709e+00
 5.111404973406785e-01	 2.944195217358022e+00	 7.866556484824171e+00
 7.760714550311879e-01	 2.897881036625725e+00	 8.267699884435229e+00
 7.497231054447050e-01	 2.904809223369119e+00	 8.222781560639657e+00
 7.233782828583112e-01	 2.911481599031826e+00	 8.179512932054903e+00
 6.970404378087293e-01	 2.917899192084344e+00	 8.137428872528895e+00
 6.707129844470524e-01	 2.924063087776689e+00	 8.096580306602663e+00
 6.443992995027491e-01	 2.929974426948449e+00	 8.057052747464725e+00
 6.181027212879180e-01	 2.935634404820533e+00	 8.018910743154210e+00
 5.918265487419857e-01	 2.941044269770034e+00	 7.982189026333582e+00
 5.655740405169868e-01	 2.946205322089658e+00	 7.946885505547709e+00
 5.393484141035106e-01	 2.951118912733093e+00	 7.912955982839987e+00
 5.131528449973528e-01	 2.955786442047744e+00	 7.880310478569396e+00
 4.930302493356879e-01	 2.839879269176116e+00	 7.698262779437074e+00
 4.678895231378776e-01	 2.844129449128538e+00	 7.665188120036710e+00
 4.427836724215890e-01	 2.848145963738319e+00	 7.633974139295836e+00
 4.177156306419345e-01	 2.851930292087298e+00	 7.604517824349931e+00
 3.926882879263039e-01	 2.855483955809839e+00	 7.576704201527271e+00
 3.677044904671898e-01	 2.858808517832082e+00	 7.550404358650409e+00
 3.427670399535325e-01	 2.861905581106774e+00	 7.525441046137573e+00
 3.178786930403106e-01	 2.864776787344889e+00	 7.501791124456386e+00
 2.930421608560572e-01	 2.867423815745238e+00	 7.479507503629145e+00
 2.682601085479504e-01	 2.869848381723207e+00	 7.458637830094439e+00
 2.435351548640873e-01	 2.872052235639794e+00	 7.439222718334538e+00
 4.950424687049376e-01	 2.851469754918560e+00	 7.717529609906751e+00
 4.697991348956880e-01	 2.855737281259658e+00	 7.685072807058459e+00
 4.445908189062855e-01	 2.859770188592511e+00	 7.654454536916977e+00
 4.194204661642392e-01	 2.863569962035602e+00	 7.625578680652020e+00
 3.942909785925022e-01	 2.867138129433608e+00	 7.598334524453392e+00
 3.692052139998159e-01	 2.870476260091503e+00	 7.572595642987545e+00
 3.441659855097367e-01	 2.873585963504232e+00	 7.548171299611921e+00
 3.191760610280606e-01	 2.876468888083154e+00	 7.525020683553292e+00
 2.942381627483296e-01	 2.879126719880460e+00	 7.503202721203147e+00
 2.693549666950660e-01	 2.881561181312736e+00	 7.482767363221045e+00
 2.445291023043407e-01	 2.883774029884795e+00	 7.463754783271334e+00
 4.970546863638152e-01	 2.863060230813644e+00	 7.737322140375043e+00
 4.717087450302366e-01	 2.867345103528707e+00	 7.705349852606379e+00
 4.463979638547240e-01	 2.871394403570720e+00	 7.675188108671984e+00
 4.211253002371722e-01	 2.875209622094805e+00	 7.646755819075906e+00
 3.958936678960833e-01	 2.878792293155942e+00	 7.619954475237006e+00
 3.707059362564377e-01	 2.882143992437940e+00	 7.594667508205457e+00
 3.455649298763955e-01	 2.885266335977931e+00	 7.570702118808251e+00
 3.204734279125586e-01	 2.888160978887659e+00	 7.547999583122330e+00
 2.954341636234674e-01	 2.890829614072690e+00	 7.526628802672316e+00
 2.704498239109763e-01	 2.893273970950796e+00	 7.506645722826006e+00
 2.455230488991202e-01	 2.895495814170606e+00	 7.488093515717257e+00
 4.990669063034532e-01	 2.874650719849520e+00	 7.757351432514130e+00
 4.736183573291389e-01	 2.878952938958264e+00	 7.725742912132849e+00
 4.482051108512877e-01	 2.883018631728067e+00	 7.695912172911605e+00
 4.228301362421906e-01	 2.886849295350696e+00	 7.667801118233115e+00
 3.974963590159130e-01	 2.890446470091442e+00	 7.641331216909766e+00
 3.722066602136835e-01	 2.893811738012948e+00	 7.616403153980708e+00
 3.469638758282788e-01	 2.896946721694553e+00	 7.592832716036610e+00
 3.217707962671182e-01	 2.899853082948376e+00	 7.570544481042218e+00
 2.966301658537501e-01	 2.902532521533372e+00	 7.549620442449184e+00
 2.715446823673735e-01	 2.904986773868509e+00	 7.530125928436279e+00
 2.465169966199966e-01	 2.907217611746236e+00	 7.512110244925363e+00
 5.010791325149846e-01	 2.886241245014343e+00	 7.777330458364380e+00
 4.755279755800106e-01	 2.890560810570904e+00	 7.745977415536625e+00
 4.500122634803588e-01	 2.894642896119671e+00	 7.716365692853879e+00
 4.245349775607531e-01	 2.898489004889064e+00	 7.688467979271091e+00
 3.990990551308566e-01	 2.902100683354704e+00	 7.662233320815115e+00
 3.737073888481825e-01	 2.905479519958089e+00	 7.637587066642562e+00
 3.483628261401577e-01	 2.908627143820772e+00	 7.614363422059391e+00
 3.230681686650526e-01	 2.911545223455277e+00	 7.592472983056388e+00
 2.978261718114581e-01	 2.914235465473959e+00	 7.572013146003387e+00
 2.726395442359495e-01	 2.916699613297002e+00	 7.553061706162498e+00
 2.475109474385410e-01	 2.918939445860691e+00	 7.535676933082149e+00
 5.030913689895415e-01	 2.897831829296267e+00	 7.796974077220463e+00
 4.774376035704674e-01	 2.902168741389207e+00	 7.765780544317620e+00
 4.518194253263202e-01	 2.906267219800650e+00	 7.736289254296010e+00
 4.262398275743177e-01	 2.910128773795698e+00	 7.708511304386603e+00
 4.007017594197799e-01	 2.913754956060327e+00	 7.682430746122019e+00
 3.752081251365633e-01	 2.917147361414918e+00	 7.658004830195919e+00
 3.497617835868023e-01	 2.920307625523268e+00	 7.635095679908559e+00
 3.243655476796753e-01	 2.923237423598332e+00	 7.613603635886552e+00
 2.990221838688710e-01	 2.925938469105899e+00	 7.593643222549202e+00
 2.737344116883962e-01	 2.928412512467395e+00	 7.575307481178481e+00
 2.485049033263247e-01	 2.930661339762983e+00	 7.558666167736558e+00
 5.051036197182569e-01	 2.909422495683443e+00	 7.815999013200403e+00
 4.793472450881245e-01	 2.913776754435747e+00	 7.784881209377470e+00
 4.536265999735543e-01	 2.917891625826122e+00	 7.755425043932218e+00
 4.279446896643422e-01	 2.921768625156387e+00	 7.727687475902392e+00
 4.023044750615485e-01	 2.925409311322911e+00	 7.701694819858865e+00
 3.767088720554546e-01	 2.928815285524994e+00	 7.677443293469921e+00
 3.511607509429833e-01	 2.931988189968719e+00	 7.654832039131893e+00
 3.256629358842998e-01	 2.934929706567512e+00	 7.633755920728080e+00
 3.002182043982691e-01	 2.937641555640639e+00	 7.614347778071895e+00
 2.748292868964057e-01	 2.940125494610815e+00	 7.596718370500083e+00
 2.494988662549185e-01	 2.942383316702117e+00	 7.580951154493574e+00
 5.071158886922631e-01	 2.921013267164026e+00	 7.834123833479113e+00
 4.812569039205972e-01	 2.925384872733103e+00	 7.803010029448536e+00
 4.554337910064439e-01	 2.929516137251206e+00	 7.773516828260554e+00
 4.296495672122850e-01	 2.933408582056920e+00	 7.745754335891617e+00
 4.039072052350283e-01	 2.937063772257052e+00	 7.719798217452046e+00
 3.782096325814853e-01	 2.940483315429873e+00	 7.695690551724835e+00
 3.525597309834709e-01	 2.943668860323802e+00	 7.673376150456360e+00
 3.269603358522395e-01	 2.946622095552791e+00	 7.652750247117741e+00
 3.014142357719322e-01	 2.949344748289632e+00	 7.633964708683719e+00
 2.759241720316698e-01	 2.951838582958386e+00	 7.617150176054779e+00
 2.504928381958937e-01	 2.954105399927101e+00	 7.602405709963703e+00
 5.091281799026928e-01	 2.932604166726168e+00	 7.851068927168159e+00
 4.831665838555014e-01	 2.936993119303851e+00	 7.819899310133717e+00
 4.572410020093713e-01	 2.941140777131022e+00	 7.790309933062503e+00
 4.313544635996038e-01	 2.945048667583086e+00	 7.762471166334514e+00
 4.055099531190847e-01	 2.948718361977349e+00	 7.736514943755385e+00
 3.797104096912840e-01	 2.952151474271115e+00	 7.712535928707596e+00
 3.539587264830357e-01	 2.955349659755197e+00	 7.690532760857669e+00
 3.282577501568077e-01	 2.958314613744137e+00	 7.670407947162909e+00
 3.026102803621401e-01	 2.961048070264323e+00	 7.652332694300096e+00
 2.770190692658808e-01	 2.963551800741228e+00	 7.636432535012045e+00
 2.514868211208213e-01	 2.965827612686943e+00	 7.622181583992159e+00
 5.111404973406785e-01	 2.944195217358022e+00	 7.866556484824171e+00
 4.850762886804523e-01	 2.948601517170569e+00	 7.835283023540601e+00
 4.590482365667196e-01	 2.952765568520688e+00	 7.805551223439368e+00
 4.330593822077571e-01	 2.956688904820673e+00	 7.777598669792768e+00
 4.071127218925834e-01	 2.960373103598401e+00	 7.751620314556448e+00
 3.812112063614797e-01	 2.963819785190275e+00	 7.727720057740427e+00
 3.553577402164481e-01	 2.967030611429579e+00	 7.704855511235668e+00
 3.295551813713180e-01	 2.970007284331522e+00	 7.682605112883516e+00
 3.038063405411729e-01	 2.972751544776163e+00	 7.661335768803205e+00
 2.781139807707305e-01	 2.975265171190468e+00	 7.641429153043347e+00
 2.524808170012723e-01	 2.977549978230652e+00	 7.623251449160664e+00
 5.131528449973528e-01	 2.955786442047744e+00	 7.880310478569396e+00
 4.869860221830656e-01	 2.960210089355833e+00	 7.848896788493652e+00
 4.608554982628710e-01	 2.964390534475323e+00	 7.818865817400094e+00
 4.347643264182028e-01	 2.968329316855474e+00	 7.789001528074575e+00
 4.087155147343902e-01	 2.972028020234808e+00	 7.759177307821225e+00
 3.827120255687009e-01	 2.975488271328912e+00	 7.729731212105149e+00
 3.567567749584786e-01	 2.978711738513629e+00	 7.700950703758097e+00
 3.308526320690838e-01	 2.981700130504918e+00	 7.672975794622468e+00
 3.050024186813106e-01	 2.984455195036602e+00	 7.646254242296983e+00
 2.792089087179109e-01	 2.986978717537231e+00	 7.621259606982672e+00
 2.534748278088180e-01	 2.989272519807237e+00	 7.598449054283978e+00
 2.435351548640873e-01	 2.872052235639794e+00	 7.439222718334538e+00
 2.188740495254249e-01	 2.874036842547215e+00	 7.421465460109854e+00
 1.942750605511500e-01	 2.875804410836078e+00	 7.405543358161055e+00
 1.697406080037258e-01	 2.877356786578057e+00	 7.391457647044195e+00
 1.452730658020047e-01	 2.878695845685805e+00	 7.379205114897376e+00
 1.208747614748958e-01	 2.879823492678068e+00	 7.368779650139019e+00
 9.654797594803449e-02	 2.880741659450629e+00	 7.360173842564795e+00
 7.229494336290428e-02	 2.881452304054021e+00	 7.353380466096557e+00
 4.811785092784258e-02	 2.881957409478888e+00	 7.348393684243413e+00
 2.401883880033717e-02	 2.882258982449847e+00	 7.345209833439592e+00
 0.000000000000000e+00	 2.882359052228699e+00	 7.343827653753602e+00
 2.445291023043407e-01	 2.883774029884795e+00	 7.463754783271334e+00
 2.197673468449626e-01	 2.885766736628232e+00	 7.446368267680943e+00
 1.950679612673908e-01	 2.887541518946834e+00	 7.430782545429137e+00
 1.704333755112328e-01	 2.889100230446705e+00	 7.416992600246213e+00
 1.458659731841572e-01	 2.890444754696724e+00	 7.404989346349083e+00
 1.213680913145558e-01	 2.891577003988610e+00	 7.394762095547536e+00
 9.694202013734222e-02	 2.892498918102856e+00	 7.386301046612448e+00
 7.259000291233578e-02	 2.893212463081451e+00	 7.379599618807372e+00
 4.831423577465906e-02	 2.893719630008280e+00	 7.374656465760113e+00
 2.411686761655385e-02	 2.894022433798073e+00	 7.371477020425900e+00
 0.000000000000000e+00	 2.894122911994722e+00	 7.370074436694847e+00
 2.455230488991202e-01	 2.895495814170606e+00	 7.488093515717257e+00
 2.206606434045352e-01	 2.897496620743089e+00	 7.471171180012702e+00
 1.958608613089650e-01	 2.899278617085207e+00	 7.456036793378374e+00
 1.711261424291598e-01	 2.900843664337490e+00	 7.442667687117869e+00
 1.464588800616034e-01	 2.902193653725040e+00	 7.431037616156623e+00
 1.218614207341690e-01	 2.903330505312549e+00	 7.421120187654162e+00
 9.733606399104723e-02	 2.904256166765215e+00	 7.412892278271831e+00
 7.288506221039227e-02	 2.904972612116477e+00	 7.406337256522290e+00
 4.851062045411079e-02	 2.905481840543463e+00	 7.401447841380093e+00
 2.421489634919774e-02	 2.905785875151009e+00	 7.398228443392498e+00
 0.000000000000000e+00	 2.905886761765094e+00	 7.396696849811258e+00
 2.465169966199966e-01	 2.907217611746236e+00	 7.512110244925365e+00
 2.215539409761142e-01	 2.909226518156901e+00	 7.495763799450161e+00
 1.966537622487479e-01	 2.911015728530650e+00	 7.481214042155171e+00
 1.718189101318051e-01	 2.912587111542462e+00	 7.468409119606700e+00
 1.470517876105982e-01	 2.913942566073669e+00	 7.457294211031349e+00
 1.223547507124951e-01	 2.915084019961946e+00	 7.447815960288362e+00
 9.773010829097707e-02	 2.916013428757213e+00	 7.439926861397932e+00
 7.318012184254565e-02	 2.916732774484372e+00	 7.433589408449853e+00
 4.870700535590439e-02	 2.917244064413806e+00	 7.428779835960610e+00
 2.431292519281384e-02	 2.917549329840471e+00	 7.425491291302509e+00
 0.000000000000000e+00	 2.917650624872444e+00	 7.423736296604235e+00
 2.475109474385410e-01	 2.918939445860691e+00	 7.535676933082149e+00
 2.224472413316708e-01	 2.920956452134777e+00	 7.520036312313255e+00
 1.974466656596149e-01	 2.922752876562620e+00	 7.506222783672214e+00
 1.725116799934669e-01	 2.924330595353670e+00	 7.494143641728551e+00
 1.476446970073964e-01	 2.925691515045522e+00	 7.483703938336077e+00
 1.228480822282942e-01	 2.926837571248862e+00	 7.474811960586482e+00
 9.812415381895923e-02	 2.927770727398360e+00	 7.467384625701778e+00
 7.347518239426783e-02	 2.928492973510411e+00	 7.461352597959759e+00
 4.890339086974650e-02	 2.929006324948681e+00	 7.456664948493294e+00
 2.441095434194712e-02	 2.929312821198273e+00	 7.453293194866696e+00
 0.000000000000000e+00	 2.929414524649399e+00	 7.451234573615472e+00
 2.485049033263247e-01	 2.930661339762983e+00	 7.558666167736558e+00
 2.233405462431766e-01	 2.932686445941831e+00	 7.543879481465497e+00
 1.982395731144414e-01	 2.934490084460570e+00	 7.530972054575802e+00
 1.732044533884433e-01	 2.936074139063166e+00	 7.519798523188546e+00
 1.482376094282526e-01	 2.937440523943513e+00	 7.510212120610088e+00
 1.233414162603258e-01	 2.938591182485361e+00	 7.502071244665902e+00
 9.851820135682131e-02	 2.939528086008167e+00	 7.495245903813935e+00
 7.377024445103070e-02	 2.940253232519868e+00	 7.489623841270693e+00
 4.909977738534372e-02	 2.940768645477456e+00	 7.485116152645962e+00
 2.450898399114256e-02	 2.941076372556235e+00	 7.481662229162948e+00
 0.000000000000000e+00	 2.941178484428588e+00	 7.479233875343088e+00
 2.494988662549185e-01	 2.942383316702117e+00	 7.580951154493574e+00
 2.242338574826030e-01	 2.944416522843175e+00	 7.567184639114409e+00
 1.990324861861028e-01	 2.946227375503955e+00	 7.555371429413191e+00
 1.738972316910325e-01	 2.947817765962994e+00	 7.545301553169888e+00
 1.488305260494218e-01	 2.949189616070556e+00	 7.536764590228771e+00
 1.238347537873499e-01	 2.950344876983501e+00	 7.529557373399695e+00
 9.891225168639074e-02	 2.951285527906141e+00	 7.523491528412207e+00
 7.406530859830622e-02	 2.952013574838014e+00	 7.518400646163080e+00
 4.929616529240270e-02	 2.952531049329504e+00	 7.514146897286723e+00
 2.460701433494516e-02	 2.952840007246169e+00	 7.510626916192058e+00
 0.000000000000000e+00	 2.952942527542637e+00	 7.507776799043144e+00
 2.504928381958937e-01	 2.954105399927101e+00	 7.602405709963703e+00
 2.251271768219212e-01	 2.956146706103919e+00	 7.589843679836770e+00
 1.998254064474743e-01	 2.957964772972231e+00	 7.579331013993487e+00
 1.745900162755328e-01	 2.959561499345210e+00	 7.570581034285283e+00
 1.494234480471588e-01	 2.960938814729563e+00	 7.563307684194344e+00
 1.243280957881262e-01	 2.962098678055344e+00	 7.557234408288673e+00
 9.930630558949514e-02	 2.963043076411794e+00	 7.552102597172406e+00
 7.436037542156632e-02	 2.963774023790126e+00	 7.547615649186130e+00
 4.949255498063005e-02	 2.964293559834195e+00	 7.543586431773909e+00
 2.470504556789989e-02	 2.964603748599895e+00	 7.539929069196861e+00
 0.000000000000000e+00	 2.964706677324174e+00	 7.536578028448018e+00
 2.514868211208213e-01	 2.965827612686943e+00	 7.622181583992159e+00
 2.260205060331028e-01	 2.967877018989180e+00	 7.609528732683890e+00
 2.006183354714314e-01	 2.969702300144850e+00	 7.598438155999355e+00
 1.752828085162422e-01	 2.971305362501861e+00	 7.588736691516615e+00
 1.500163765977183e-01	 2.972688143223450e+00	 7.580252440539162e+00
 1.248214432414147e-01	 2.973852609012952e+00	 7.572818231000175e+00
 9.970036384796201e-02	 2.974800754844632e+00	 7.566274914770177e+00
 7.465544550628288e-02	 2.975534602701476e+00	 7.560474519178456e+00
 4.968894683973242e-02	 2.976056200320897e+00	 7.555283271380407e+00
 2.480307788455172e-02	 2.976367619949227e+00	 7.550584512954710e+00
 0.000000000000000e+00	 2.976470957105829e+00	 7.546281520827897e+00
 2.524808170012723e-01	 2.977549978230652e+00	 7.623251449160664e+00
 2.269138468881192e-01	 2.979607484764068e+00	 7.607101623381956e+00
 2.014112748308494e-01	 2.981439980301265e+00	 7.592897891880042e+00
 1.759756097874590e-01	 2.983049378724997e+00	 7.580433337469170e+00
 1.506093128773551e-01	 2.984437624855127e+00	 7.569502124369977e+00
 1.253147971259750e-01	 2.985606693168386e+00	 7.559902932440634e+00
 1.000944272436189e-01	 2.986558586524167e+00	 7.551442226232487e+00
 7.495051943792781e-02	 2.987295334897336e+00	 7.543937379354832e+00
 4.988534125941641e-02	 2.987818994118984e+00	 7.537219673406029e+00
 2.490111147944566e-02	 2.988131644625982e+00	 7.531137189430227e+00
 0.000000000000000e+00	 2.988235390220228e+00	 7.525557608520441e+00
 2.534748278088180e-01	 2.989272519807237e+00	 7.598449054283978e+00
 2.278072011589419e-01	 2.991338126693695e+00	 7.578156989302996e+00
 2.022042260986038e-01	 2.993177836720935e+00	 7.560249773537699e+00
 1.766684214634813e-01	 2.994793571306667e+00	 7.544481916078552e+00
 1.512022580623240e-01	 2.996187282927511e+00	 7.530608892931129e+00
 1.258081584205671e-01	 2.997360953833710e+00	 7.518390553298188e+00
 1.004884965582933e-01	 2.998316594769909e+00	 7.507594360996958e+00
 7.524559780197308e-02	 2.999056243702984e+00	 7.497998492186866e+00
 5.008173862938867e-02	 2.999581964557825e+00	 7.489394809306023e+00
 2.499914654712669e-02	 2.999895845961979e+00	 7.481591729766206e+00
 0.000000000000000e+00	 3.000000000000000e+00	 7.474417006563717e+00
