x	y	stress_xx
 1.0000000000e+00	 0.0000000000e+00	 4.4099103827e-02
 9.9996528199e-01	 8.3330488405e-03	 4.5966626886e-02
 9.9986065485e-01	 1.6693912862e-02	 5.2093010624e-02
 9.9968541457e-01	 2.5081865916e-02	 6.2479433502e-02
 9.9943886492e-01	 3.3496165499e-02	 7.7126977635e-02
 9.9912031795e-01	 4.1936052786e-02	 9.6036679047e-02
 9.9872909431e-01	 5.0400752668e-02	 1.1920957692e-01
 9.9826452377e-01	 5.8889473803e-02	 1.4664676168e-01
 9.9772594558e-01	 6.7401408683e-02	 1.7834942178e-01
 9.9711270890e-01	 7.5935733705e-02	 2.1431888894e-01
 9.9642417327e-01	 8.4491609256e-02	 2.5455668182e-01
 1.0117646098e+00	 0.0000000000e+00	 3.5613494003e-01
 1.0117294833e+00	 8.4310839086e-03	 3.5787126420e-01
 1.0116236253e+00	 1.6890310233e-02	 3.6345703882e-01
 1.0114463234e+00	 2.5376944281e-02	 3.7289073154e-01
 1.0111968732e+00	 3.3890234815e-02	 3.8617077333e-01
 1.0108745786e+00	 4.2429414083e-02	 4.0329561137e-01
 1.0104787524e+00	 5.0993697855e-02	 4.2426376098e-01
 1.0100087163e+00	 5.9582285481e-02	 4.4907385645e-01
 1.0094638020e+00	 6.8194359954e-02	 4.7772470051e-01
 1.0088433508e+00	 7.6829087980e-02	 5.1021531227e-01
 1.0081467148e+00	 8.5485620069e-02	 5.4654497367e-01
 1.0235290429e+00	 0.0000000000e+00	 6.5698290807e-01
 1.0234935080e+00	 8.5291175046e-03	 6.5857338636e-01
 1.0233864191e+00	 1.7086704654e-02	 6.6361258473e-01
 1.0232070556e+00	 2.5672018215e-02	 6.7209695840e-01
 1.0229547048e+00	 3.4284298214e-02	 6.8402298632e-01
 1.0226286628e+00	 4.2922767971e-02	 6.9938722592e-01
 1.0222282340e+00	 5.1586634139e-02	 7.1818636675e-01
 1.0217527326e+00	 6.0275086757e-02	 7.4041728309e-01
 1.0212014821e+00	 6.8987299319e-02	 7.6607708508e-01
 1.0205738166e+00	 7.7722428841e-02	 7.9516316850e-01
 1.0198690804e+00	 8.6479615956e-02	 8.2767326287e-01
 1.0352933227e+00	 0.0000000000e+00	 9.4493225573e-01
 1.0352573793e+00	 8.6271498229e-03	 9.4636675688e-01
 1.0351490596e+00	 1.7283096516e-02	 9.5085739865e-01
 1.0349676345e+00	 2.5967088304e-02	 9.5839930074e-01
 1.0347123833e+00	 3.4678356478e-02	 9.6898766771e-01
 1.0343825937e+00	 4.3416115430e-02	 9.8261784456e-01
 1.0339775625e+00	 5.2179562695e-02	 9.9928537126e-01
 1.0334965957e+00	 6.0967879004e-02	 1.0189860360e+00
 1.0329390093e+00	 6.9780228349e-02	 1.0417159273e+00
 1.0323041295e+00	 7.8615758059e-02	 1.0674714842e+00
 1.0315912931e+00	 8.7473598889e-02	 1.0962495455e+00
 1.0470574725e+00	 0.0000000000e+00	 1.2183494609e+00
 1.0470211207e+00	 8.7251810579e-03	 1.2196221094e+00
 1.0469115701e+00	 1.7479486208e-02	 1.2235659673e+00
 1.0467280834e+00	 2.6262155132e-02	 1.2301754757e+00
 1.0464699318e+00	 3.5072410387e-02	 1.2394452219e+00
 1.0461363948e+00	 4.3909457437e-02	 1.2513699954e+00
 1.0457267611e+00	 5.2772484700e-02	 1.2659448419e+00
 1.0452403291e+00	 6.1660663596e-02	 1.2831651167e+00
 1.0446764068e+00	 7.0573148619e-02	 1.3030265362e+00
 1.0440343127e+00	 7.9509077406e-02	 1.3255252284e+00
 1.0433133763e+00	 8.8467570838e-02	 1.3506577814e+00
 1.0588215156e+00	 0.0000000000e+00	 1.4756739597e+00
 1.0587847554e+00	 8.8232114041e-03	 1.4767828880e+00
 1.0586739739e+00	 1.7675874120e-02	 1.4801852653e+00
 1.0584884257e+00	 2.6557219285e-02	 1.4858754921e+00
 1.0582273737e+00	 3.5466460723e-02	 1.4938481769e+00
 1.0578900893e+00	 4.4402794972e-02	 1.5040981908e+00
 1.0574758533e+00	 5.3365401329e-02	 1.5166207212e+00
 1.0569839560e+00	 6.2353441907e-02	 1.5314113238e+00
 1.0564136978e+00	 7.1366061698e-02	 1.5484659726e+00
 1.0557643896e+00	 8.0402388654e-02	 1.5677811098e+00
 1.0550353533e+00	 8.9461533774e-02	 1.5893536923e+00
 1.0705854754e+00	 0.0000000000e+00	 1.7154141571e+00
 1.0705483067e+00	 8.9212410558e-03	 1.7163612686e+00
 1.0704362945e+00	 1.7872260640e-02	 1.7192307873e+00
 1.0702486848e+00	 2.6852281348e-02	 1.7240176928e+00
 1.0699847323e+00	 3.5860508268e-02	 1.7307172347e+00
 1.0696437005e+00	 4.4896129012e-02	 1.7393249853e+00
 1.0692248622e+00	 5.3958313758e-02	 1.7498368911e+00
 1.0687274997e+00	 6.3046215311e-02	 1.7622493224e+00
 1.0681509057e+00	 7.2158969162e-02	 1.7765591220e+00
 1.0674943834e+00	 8.1295693574e-02	 1.7927636519e+00
 1.0667572472e+00	 9.0455489670e-02	 1.8108608386e+00
 1.0823493751e+00	 0.0000000000e+00	 1.9361436980e+00
 1.0823117981e+00	 9.0192702076e-03	 1.9369344417e+00
 1.0821985550e+00	 1.8068646158e-02	 1.9392828398e+00
 1.0820088838e+00	 2.7147341906e-02	 1.9431850546e+00
 1.0817420309e+00	 3.6254553803e-02	 1.9486375799e+00
 1.0813972518e+00	 4.5389460535e-02	 1.9556372912e+00
 1.0809738111e+00	 5.4551223163e-02	 1.9641814940e+00
 1.0804709835e+00	 6.3738985181e-02	 1.9742679704e+00
 1.0798880537e+00	 7.2951872581e-02	 1.9858950246e+00
 1.0792243174e+00	 8.2188993937e-02	 1.9990615266e+00
 1.0784790813e+00	 9.1449440496e-02	 2.0137669540e+00
 1.0941132382e+00	 0.0000000000e+00	 2.1364979806e+00
 1.0940752528e+00	 9.1172990538e-03	 2.1371411346e+00
 1.0939607789e+00	 1.8265031065e-02	 2.1389830732e+00
 1.0937690461e+00	 2.7442401544e-02	 2.1420217288e+00
 1.0934992929e+00	 3.6648598110e-02	 2.1462554271e+00
 1.0931507664e+00	 4.5882790521e-02	 2.1516829325e+00
 1.0927227235e+00	 5.5144130720e-02	 2.1583034930e+00
 1.0922144307e+00	 6.4431752891e-02	 2.1661168827e+00
 1.0916251652e+00	 7.3744773528e-02	 2.1751234434e+00
 1.0909542148e+00	 8.3082291516e-02	 2.1853241237e+00
 1.0902008788e+00	 9.2443388223e-02	 2.1967205171e+00
 1.1058770880e+00	 0.0000000000e+00	 2.3151708918e+00
 1.1058386942e+00	 9.2153277889e-03	 2.3156783566e+00
 1.1057229894e+00	 1.8461415749e-02	 2.3170312350e+00
 1.1055291952e+00	 2.7737460848e-02	 2.3192298029e+00
 1.1052565416e+00	 3.7042641971e-02	 2.3222747898e+00
 1.1049042678e+00	 4.6376119948e-02	 2.3261674199e+00
 1.1044716225e+00	 5.5737037605e-02	 2.3309094518e+00
 1.1039578646e+00	 6.5124519816e-02	 2.3365032164e+00
 1.1033622633e+00	 7.4537673576e-02	 2.3429516528e+00
 1.1026840989e+00	 8.3975588081e-02	 2.3502583428e+00
 1.1019226631e+00	 9.3437334823e-02	 2.3584275435e+00
 1.1176409478e+00	 0.0000000000e+00	 2.4686511456e+00
 1.1176021455e+00	 9.3133566072e-03	 2.4690457476e+00
 1.1174852099e+00	 1.8657800599e-02	 2.4699921847e+00
 1.1172893542e+00	 2.8032520402e-02	 2.4714924805e+00
 1.1170138002e+00	 3.7436686165e-02	 2.4735469288e+00
 1.1166577791e+00	 4.6869449793e-02	 2.4761539820e+00
 1.1162205315e+00	 5.6329944993e-02	 2.4793101430e+00
 1.1157013085e+00	 6.5817287329e-02	 2.4830098620e+00
 1.1150993714e+00	 7.5330574297e-02	 2.4872454411e+00
 1.1144139930e+00	 8.4868885405e-02	 2.4920069476e+00
 1.1136444574e+00	 9.4431282267e-02	 2.4972821383e+00
 9.9642417327e-01	 8.4491609256e-02	 2.5455668182e-01
 9.9565957252e-01	 9.3069636226e-02	 2.9907685469e-01
 9.9481839835e-01	 1.0166747288e-01	 3.4784292859e-01
 9.9390004351e-01	 1.1028421068e-01	 4.0080234251e-01
 9.9290391285e-01	 1.1891892497e-01	 4.5790253739e-01
 9.9182942379e-01	 1.2757067517e-01	 5.1909105259e-01
 9.9067600676e-01	 1.3623850489e-01	 5.8431562139e-01
 9.8944310564e-01	 1.4492144212e-01	 6.5352426532e-01
 9.8813017818e-01	 1.5361849940e-01	 7.2666538711e-01
 9.8673669648e-01	 1.6232867404e-01	 8.0368786192e-01
 9.8526214738e-01	 1.7105094831e-01	 8.8454112653e-01
 1.0081467148e+00	 8.5485620069e-02	 5.4654497367e-01
 1.0073731188e+00	 9.4164564180e-02	 5.8673022566e-01
 1.0065220486e+00	 1.0286355103e-01	 6.3073636841e-01
 1.0055928897e+00	 1.1158166138e-01	 6.7850553341e-01
 1.0045850399e+00	 1.2031795972e-01	 7.2997990707e-01
 1.0034979099e+00	 1.2907149439e-01	 7.8510183467e-01
 1.0023309234e+00	 1.3784129775e-01	 8.4381392357e-01
 1.0010835177e+00	 1.4662638634e-01	 9.0605914554e-01
 9.9975514413e-01	 1.5542576111e-01	 9.7178093778e-01
 9.9834526866e-01	 1.6423840756e-01	 1.0409233024e+00
 9.9685337206e-01	 1.7306329598e-01	 1.1134309041e+00
 1.0198690804e+00	 8.6479615956e-02	 8.2767326287e-01
 1.0190864893e+00	 9.5259475693e-02	 8.6362721001e-01
 1.0182255231e+00	 1.0405961122e-01	 9.0299334762e-01
 1.0172855602e+00	 1.1287909261e-01	 9.4570989371e-01
 1.0162659916e+00	 1.2171697347e-01	 9.9171517089e-01
 1.0151662208e+00	 1.3057229107e-01	 1.0409477161e+00
 1.0139856650e+00	 1.3944406653e-01	 1.0933463898e+00
 1.0127237549e+00	 1.4833130497e-01	 1.1488504843e+00
 1.0113799355e+00	 1.5723299568e-01	 1.2073998312e+00
 1.0099536665e+00	 1.6614811239e-01	 1.2689349073e+00
 1.0084444227e+00	 1.7507561343e-01	 1.3333969384e+00
 1.0315912931e+00	 8.7473598889e-02	 1.0962495455e+00
 1.0307997071e+00	 9.6354372935e-02	 1.1280740118e+00
 1.0299288451e+00	 1.0525565582e-01	 1.1629174442e+00
 1.0289780784e+00	 1.1417650692e-01	 1.2007154930e+00
 1.0279467910e+00	 1.2311596898e-01	 1.2414039591e+00
 1.0268343797e+00	 1.3207306820e-01	 1.2849189081e+00
 1.0256402547e+00	 1.4104681443e-01	 1.3311967832e+00
 1.0243638404e+00	 1.5003620136e-01	 1.3801745183e+00
 1.0230045754e+00	 1.5904020670e-01	 1.4317896495e+00
 1.0215619131e+00	 1.6805779234e-01	 1.4859804258e+00
 1.0200353222e+00	 1.7708790465e-01	 1.5426859179e+00
 1.0433133763e+00	 8.8467570838e-02	 1.3506577814e+00
 1.0425127954e+00	 9.7449258078e-02	 1.3784528587e+00
 1.0416320377e+00	 1.0645168720e-01	 1.4088883615e+00
 1.0406704674e+00	 1.1547390690e-01	 1.4418986720e+00
 1.0396274613e+00	 1.2451494903e-01	 1.4774183655e+00
 1.0385024096e+00	 1.3357382873e-01	 1.5153823262e+00
 1.0372947156e+00	 1.4264954461e-01	 1.5557258630e+00
 1.0360037973e+00	 1.5174107892e-01	 1.5983848248e+00
 1.0346290868e+00	 1.6084739774e-01	 1.6432957149e+00
 1.0331700314e+00	 1.6996745118e-01	 1.6903958043e+00
 1.0316260937e+00	 1.7910017363e-01	 1.7396232436e+00
 1.0550353533e+00	 8.9461533774e-02	 1.5893536923e+00
 1.0542257775e+00	 9.8544133295e-02	 1.6132177997e+00
 1.0533351242e+00	 1.0764770774e-01	 1.6393577236e+00
 1.0523627504e+00	 1.1677129511e-01	 1.6677078345e+00
 1.0513080258e+00	 1.2591391639e-01	 1.6982027332e+00
 1.0501703337e+00	 1.3507457566e-01	 1.7307773683e+00
 1.0489490709e+00	 1.4425226026e-01	 1.7653671520e+00
 1.0476436487e+00	 1.5344594102e-01	 1.8019080765e+00
 1.0462534928e+00	 1.6265457239e-01	 1.8403368294e+00
 1.0447780444e+00	 1.7187709270e-01	 1.8805909078e+00
 1.0432167601e+00	 1.8111242437e-01	 1.9226087313e+00
 1.0667572472e+00	 9.0455489670e-02	 1.8108608386e+00
 1.0659386767e+00	 9.9639000755e-02	 1.8308907818e+00
 1.0650381279e+00	 1.0884371980e-01	 1.8528451511e+00
 1.0640549505e+00	 1.1806867413e-01	 1.8766595189e+00
 1.0629885075e+00	 1.2731287384e-01	 1.9022697212e+00
 1.0618381751e+00	 1.3657531195e-01	 1.9296119735e+00
 1.0606033436e+00	 1.4585496456e-01	 1.9586229862e+00
 1.0592834176e+00	 1.5515079104e-01	 1.9892400799e+00
 1.0578778165e+00	 1.6446173424e-01	 2.0214012995e+00
 1.0563859752e+00	 1.7378672070e-01	 2.0550455282e+00
 1.0548073444e+00	 1.8312466084e-01	 2.0901125999e+00
 1.0784790813e+00	 9.1449440496e-02	 2.0137669540e+00
 1.0776515161e+00	 1.0073386263e-01	 2.0300579845e+00
 1.0767410718e+00	 1.1003972576e-01	 2.0479345931e+00
 1.0757470910e+00	 1.1936604654e-01	 2.0673347278e+00
 1.0746689296e+00	 1.2871182416e-01	 2.0881966286e+00
 1.0735059570e+00	 1.3807604059e-01	 2.1104589402e+00
 1.0722575568e+00	 1.4745766068e-01	 2.1340608245e+00
 1.0709231271e+00	 1.5685563236e-01	 2.1589420737e+00
 1.0695020809e+00	 1.6626888687e-01	 2.1850432218e+00
 1.0679938468e+00	 1.7569633895e-01	 2.2123056558e+00
 1.0663978695e+00	 1.8513688706e-01	 2.2406717261e+00
 1.0902008788e+00	 9.2443388223e-02	 2.1967205171e+00
 1.0893643190e+00	 1.0182872109e-01	 2.2093663920e+00
 1.0884439792e+00	 1.1123572800e-01	 2.2232708985e+00
 1.0874391951e+00	 1.2066341490e-01	 2.2383754964e+00
 1.0863493153e+00	 1.3011077012e-01	 2.2546219595e+00
 1.0851737026e+00	 1.3957676455e-01	 2.2719524845e+00
 1.0839117338e+00	 1.4906035180e-01	 2.2903097991e+00
 1.0825628003e+00	 1.5856046837e-01	 2.3096372705e+00
 1.0811263090e+00	 1.6807603387e-01	 2.3298790128e+00
 1.0796016822e+00	 1.7760595125e-01	 2.3509799943e+00
 1.0779883586e+00	 1.8714910700e-01	 2.3728861435e+00
 1.1019226631e+00	 9.3437334823e-02	 2.3584275435e+00
 1.1010771087e+00	 1.0292357831e-01	 2.3675205853e+00
 1.1001468734e+00	 1.1243172888e-01	 2.3775566080e+00
 1.0991312859e+00	 1.2196078178e-01	 2.3884816817e+00
 1.0980296878e+00	 1.3150971449e-01	 2.4002422077e+00
 1.0968414350e+00	 1.4107748681e-01	 2.4127850200e+00
 1.0955658975e+00	 1.5066304110e-01	 2.4260574884e+00
 1.0942024604e+00	 1.6026530244e-01	 2.4400076202e+00
 1.0927505240e+00	 1.6988317882e-01	 2.4545841624e+00
 1.0912095045e+00	 1.7951556139e-01	 2.4697367027e+00
 1.0895788344e+00	 1.8916132466e-01	 2.4854157698e+00
 1.1136444574e+00	 9.4431282267e-02	 2.4972821383e+00
 1.1127899083e+00	 1.0401843646e-01	 2.5031175728e+00
 1.1118497776e+00	 1.1362773077e-01	 2.5095171269e+00
 1.1108233866e+00	 1.2325814977e-01	 2.5164079564e+00
 1.1097100702e+00	 1.3290866004e-01	 2.5238088476e+00
 1.1085091772e+00	 1.4257821034e-01	 2.5317041440e+00
 1.1072200711e+00	 1.5226573177e-01	 2.5400468968e+00
 1.1058421303e+00	 1.6197013796e-01	 2.5487907824e+00
 1.1043747488e+00	 1.7169032530e-01	 2.5578901957e+00
 1.1028173366e+00	 1.8142517314e-01	 2.5673003448e+00
 1.1011693202e+00	 1.9117354402e-01	 2.5769773433e+00
 9.8526214738e-01	 1.7105094831e-01	 8.8454112653e-01
 9.8370630427e-01	 1.7978280468e-01	 9.6920530177e-01
 9.8206844073e-01	 1.8852468015e-01	 1.0576204114e+00
 9.8034808995e-01	 1.9727551623e-01	 1.1496342864e+00
 9.7854480164e-01	 2.0603424041e-01	 1.2450952772e+00
 9.7665814235e-01	 2.1479976648e-01	 1.3438524607e+00
 9.7468769596e-01	 2.2357099480e-01	 1.4457558459e+00
 9.7263306406e-01	 2.3234681259e-01	 1.5506565799e+00
 9.7049386637e-01	 2.4112609427e-01	 1.6584071501e+00
 9.6826974115e-01	 2.4990770180e-01	 1.7688615861e+00
 9.6596034556e-01	 2.5869048500e-01	 1.8818756573e+00
 9.9685337206e-01	 1.7306329598e-01	 1.1134309041e+00
 9.9527922507e-01	 1.8189787923e-01	 1.1892927207e+00
 9.9362209270e-01	 1.9074259946e-01	 1.2684517989e+00
 9.9188150267e-01	 1.9959638570e-01	 1.3507471243e+00
 9.9005699937e-01	 2.0845815286e-01	 1.4360185137e+00
 9.8814814427e-01	 2.1732680192e-01	 1.5241068426e+00
 9.8615451635e-01	 2.2620122031e-01	 1.6148542725e+00
 9.8407571251e-01	 2.3508028217e-01	 1.7081044767e+00
 9.8191134800e-01	 2.4396284868e-01	 1.8037028645e+00
 9.7966105681e-01	 2.5284776839e-01	 1.9014968033e+00
 9.7732449209e-01	 2.6173387761e-01	 2.0013358377e+00
 1.0084444227e+00	 1.7507561343e-01	 1.3333969384e+00
 1.0068519721e+00	 1.8401292202e-01	 1.4007891566e+00
 1.0051755712e+00	 1.9296048545e-01	 1.4710646783e+00
 1.0034147422e+00	 2.0191722032e-01	 1.5440572651e+00
 1.0015690242e+00	 2.1088202890e-01	 1.6196017988e+00
 9.9963797366e-01	 2.1985379941e-01	 1.6975345245e+00
 9.9762116455e-01	 2.2883140633e-01	 1.7776932935e+00
 9.9551818913e-01	 2.3781371071e-01	 1.8599178056e+00
 9.9332865817e-01	 2.4679956049e-01	 1.9440498488e+00
 9.9105220141e-01	 2.5578779084e-01	 2.0299335376e+00
 9.8868846796e-01	 2.6477722451e-01	 2.1174155478e+00
 1.0200353222e+00	 1.7708790465e-01	 1.5426859179e+00
 1.0184245683e+00	 1.8612793724e-01	 1.6019285187e+00
 1.0167288991e+00	 1.9517834254e-01	 1.6636779127e+00
 1.0149478314e+00	 2.0423802470e-01	 1.7277661275e+00
 1.0130808991e+00	 2.1330587335e-01	 1.7940265760e+00
 1.0111276533e+00	 2.2238076396e-01	 1.8622943113e+00
 1.0090876633e+00	 2.3146155807e-01	 1.9324062805e+00
 1.0069605166e+00	 2.4054710362e-01	 2.0042015779e+00
 1.0047458195e+00	 2.4963623532e-01	 2.0775216958e+00
 1.0024431975e+00	 2.5872777496e-01	 2.1522107735e+00
 1.0000522957e+00	 2.6782053175e-01	 2.2281158435e+00
 1.0316260937e+00	 1.7910017363e-01	 1.7396232436e+00
 1.0299970366e+00	 1.8824292909e-01	 1.7910240258e+00
 1.0282820993e+00	 1.9739617512e-01	 1.8445903778e+00
 1.0264807932e+00	 2.0655880342e-01	 1.9001559561e+00
 1.0245926467e+00	 2.1572969102e-01	 1.9575560448e+00
 1.0226172060e+00	 2.2490770059e-01	 2.0166278169e+00
 1.0205540353e+00	 2.3409168074e-01	 2.0772105947e+00
 1.0184027177e+00	 2.4328046632e-01	 2.1391461084e+00
 1.0161628547e+00	 2.5247287881e-01	 2.2022787541e+00
 1.0138340678e+00	 2.6166772659e-01	 2.2664558483e+00
 1.0114159979e+00	 2.7086380537e-01	 2.3315278798e+00
 1.0432167601e+00	 1.8111242437e-01	 1.9226087313e+00
 1.0415693999e+00	 1.9035790176e-01	 1.9664638841e+00
 1.0398351948e+00	 1.9961398759e-01	 2.0121766088e+00
 1.0380136504e+00	 2.0887956110e-01	 2.0595854331e+00
 1.0361042899e+00	 2.1815348671e-01	 2.1085307311e+00
 1.0341066545e+00	 2.2743461431e-01	 2.1588549866e+00
 1.0320203034e+00	 2.3672177956e-01	 2.2104030543e+00
 1.0298448150e+00	 2.4601380425e-01	 2.2630224216e+00
 1.0275797864e+00	 2.5530949658e-01	 2.3165634663e+00
 1.0252248348e+00	 2.6460765157e-01	 2.3708797136e+00
 1.0227795971e+00	 2.7390705139e-01	 2.4258280885e+00
 1.0548073444e+00	 1.8312466084e-01	 2.0901125999e+00
 1.0531416813e+00	 1.9247285944e-01	 2.1267072528e+00
 1.0513882084e+00	 2.0183178435e-01	 2.1648827394e+00
 1.0495464259e+00	 2.1120030234e-01	 2.2044855848e+00
 1.0476158516e+00	 2.2057726523e-01	 2.2453643557e+00
 1.0455960216e+00	 2.2996151012e-01	 2.2873699205e+00
 1.0434864903e+00	 2.3935185975e-01	 2.3303557087e+00
 1.0412868312e+00	 2.4874712280e-01	 2.3741779682e+00
 1.0389966372e+00	 2.5814609426e-01	 2.4186960212e+00
 1.0366155211e+00	 2.6754755572e-01	 2.4637725171e+00
 1.0341431157e+00	 2.7695027585e-01	 2.5092736813e+00
 1.0663978695e+00	 1.8513688706e-01	 2.2406717261e+00
 1.0647139037e+00	 1.9458780634e-01	 2.2702804783e+00
 1.0629411631e+00	 2.0404956979e-01	 2.3012227103e+00
 1.0610791426e+00	 2.1352103174e-01	 2.3333559594e+00
 1.0591273546e+00	 2.2300103138e-01	 2.3665399758e+00
 1.0570853301e+00	 2.3248839305e-01	 2.4006369755e+00
 1.0549526187e+00	 2.4198192653e-01	 2.4355118921e+00
 1.0527287891e+00	 2.5148042742e-01	 2.4710326269e+00
 1.0504134298e+00	 2.6098267746e-01	 2.5070702970e+00
 1.0480061493e+00	 2.7048744488e-01	 2.5434994798e+00
 1.0455065764e+00	 2.7999348479e-01	 2.5801984548e+00
 1.0779883586e+00	 1.8714910700e-01	 2.3728861435e+00
 1.0762860900e+00	 1.9670274664e-01	 2.3957735741e+00
 1.0744940818e+00	 2.0626734832e-01	 2.4197747256e+00
 1.0726118233e+00	 2.1584175391e-01	 2.4447610558e+00
 1.0706388217e+00	 2.2542478998e-01	 2.4706063821e+00
 1.0685746028e+00	 2.3501526809e-01	 2.4971871234e+00
 1.0664187113e+00	 2.4461198511e-01	 2.5243825397e+00
 1.0641707113e+00	 2.5421372352e-01	 2.5520749709e+00
 1.0618301868e+00	 2.6381925183e-01	 2.5801500721e+00
 1.0593967420e+00	 2.7342732488e-01	 2.6084970461e+00
 1.0568700017e+00	 2.8303668424e-01	 2.6370088724e+00
 1.0895788344e+00	 1.8916132466e-01	 2.4854157698e+00
 1.0878582632e+00	 1.9881768455e-01	 2.5018369305e+00
 1.0860469874e+00	 2.0848512433e-01	 2.5191779414e+00
 1.0841444909e+00	 2.1816247345e-01	 2.5373269859e+00
 1.0821502757e+00	 2.2784854584e-01	 2.5561747298e+00
 1.0800638624e+00	 2.3754214028e-01	 2.5756145470e+00
 1.0778847909e+00	 2.4724204070e-01	 2.5955427431e+00
 1.0756126206e+00	 2.5694701652e-01	 2.6158587782e+00
 1.0732469309e+00	 2.6665582298e-01	 2.6364654853e+00
 1.0707873217e+00	 2.7636720154e-01	 2.6572692866e+00
 1.0682334141e+00	 2.8607988024e-01	 2.6781804048e+00
 1.1011693202e+00	 1.9117354402e-01	 2.5769773433e+00
 1.0994304462e+00	 2.0093262425e-01	 2.5871782350e+00
 1.0975999029e+00	 2.1070290223e-01	 2.5981293656e+00
 1.0956771684e+00	 2.2048319495e-01	 2.6097383511e+00
 1.0936617395e+00	 2.3027230375e-01	 2.6219153877e+00
 1.0915531319e+00	 2.4006901461e-01	 2.6345734569e+00
 1.0893508803e+00	 2.4987209853e-01	 2.6476285298e+00
 1.0870545395e+00	 2.5968031184e-01	 2.6609997687e+00
 1.0846636846e+00	 2.6949239654e-01	 2.6746097252e+00
 1.0821779112e+00	 2.7930708070e-01	 2.6883845351e+00
 1.0795968361e+00	 2.8912307883e-01	 2.7022541087e+00
 9.6596034556e-01	 2.5869048500e-01	 1.8818756573e+00
 9.6356535632e-01	 2.6747328204e-01	 1.9973905454e+00
 9.6108447067e-01	 2.7625492019e-01	 2.1152710324e+00
 9.5851740614e-01	 2.8503421588e-01	 2.2352619855e+00
 9.5586390071e-01	 2.9380997494e-01	 2.3571115883e+00
 9.5312371316e-01	 3.0258099304e-01	 2.4805716917e+00
 9.5029662344e-01	 3.1134605611e-01	 2.6053981610e+00
 9.4738243296e-01	 3.2010394073e-01	 2.7313512176e+00
 9.4438096497e-01	 3.2885341468e-01	 2.8581957747e+00
 9.4129206486e-01	 3.3759323727e-01	 2.9857017656e+00
 9.3811560045e-01	 3.4632215993e-01	 3.1136444645e+00
 9.7732449209e-01	 2.6173387761e-01	 2.0013358377e+00
 9.7490132673e-01	 2.7062000082e-01	 2.1031865538e+00
 9.7239125442e-01	 2.7950495152e-01	 2.2069662388e+00
 9.6979398938e-01	 2.8838753220e-01	 2.3124546612e+00
 9.6710926650e-01	 2.9726653465e-01	 2.4194350553e+00
 9.6433684171e-01	 3.0614074036e-01	 2.5276944354e+00
 9.6147649238e-01	 3.1500892097e-01	 2.6370239043e+00
 9.5852801759e-01	 3.2386983870e-01	 2.7472189561e+00
 9.5549123850e-01	 3.3272224679e-01	 2.8580797721e+00
 9.5236599868e-01	 3.4156488998e-01	 2.9694115080e+00
 9.4915216442e-01	 3.5039650501e-01	 3.0810245739e+00
 9.8868846796e-01	 2.6477722451e-01	 2.1174155478e+00
 9.8623712691e-01	 2.7376667236e-01	 2.2064794787e+00
 9.8369786839e-01	 2.8275493405e-01	 2.2970802642e+00
 9.8107040329e-01	 2.9174079817e-01	 2.3890261778e+00
 9.7835446342e-01	 3.0072304245e-01	 2.4821291044e+00
 9.7554980188e-01	 3.0970043422e-01	 2.5762048257e+00
 9.7265619344e-01	 3.1867173083e-01	 2.6710732981e+00
 9.6967343485e-01	 3.2763568010e-01	 2.7665589252e+00
 9.6660134519e-01	 3.3659102080e-01	 2.8624908216e+00
 9.6343976622e-01	 3.4553648306e-01	 2.9587030694e+00
 9.6018856265e-01	 3.5447078891e-01	 3.0550349640e+00
 1.0000522957e+00	 2.6782053175e-01	 2.2281158435e+00
 9.9757277935e-01	 2.7691330288e-01	 2.3052314947e+00
 9.9500433500e-01	 2.8600487423e-01	 2.3835380426e+00
 9.9234667023e-01	 2.9509402043e-01	 2.4628660786e+00
 9.8959951378e-01	 3.0417950520e-01	 2.5430499477e+00
 9.8676261591e-01	 3.1326008168e-01	 2.6239280111e+00
 9.8383574880e-01	 3.2233449294e-01	 2.7053429039e+00
 9.8081870685e-01	 3.3140147243e-01	 2.7871417835e+00
 9.7771130708e-01	 3.4045974438e-01	 2.8691765718e+00
 9.7451338942e-01	 3.4950802436e-01	 2.9513041870e+00
 9.7122481704e-01	 3.5854501971e-01	 3.0333867658e+00
 1.0114159979e+00	 2.7086380537e-01	 2.3315278798e+00
 1.0089083065e+00	 2.8005989863e-01	 2.3974966644e+00
 1.0063106767e+00	 2.8925477848e-01	 2.4643581110e+00
 1.0036228126e+00	 2.9844720564e-01	 2.5319591411e+00
 1.0008444399e+00	 3.0763592975e-01	 2.6001505673e+00
 9.9797530603e-01	 3.1681968980e-01	 2.6687873425e+00
 9.9501518061e-01	 3.2599721459e-01	 2.7377288033e+00
 9.9196385569e-01	 3.3516722314e-01	 2.8068389045e+00
 9.8882114621e-01	 3.4432842521e-01	 2.8759864458e+00
 9.8558689026e-01	 3.5347952177e-01	 2.9450452888e+00
 9.8226094948e-01	 3.6261920547e-01	 3.0138945636e+00
 1.0227795971e+00	 2.7390705139e-01	 2.4258280885e+00
 1.0202437309e+00	 2.8320646585e-01	 2.4814160304e+00
 1.0176169158e+00	 2.9250465328e-01	 2.5376476192e+00
 1.0148988527e+00	 3.0180036045e-01	 2.5943803087e+00
 1.0120892640e+00	 3.1109232297e-01	 2.6514755766e+00
 1.0091878945e+00	 3.2037926565e-01	 2.7087991687e+00
 1.0061945111e+00	 3.2965990302e-01	 2.7662213356e+00
 1.0031089035e+00	 3.3893293970e-01	 2.8236170611e+00
 9.9993088460e-01	 3.4819707097e-01	 2.8808662822e+00
 9.9666029070e-01	 3.5745098318e-01	 2.9378540986e+00
 9.9329698185e-01	 3.6669335430e-01	 2.9944709725e+00
 1.0341431157e+00	 2.7695027585e-01	 2.5092736813e+00
 1.0315790750e+00	 2.8635301079e-01	 2.5552130379e+00
 1.0289230749e+00	 2.9575450505e-01	 2.6015976770e+00
 1.0261748129e+00	 3.0515349150e-01	 2.6482899672e+00
 1.0233340085e+00	 3.1454869170e-01	 2.6951564300e+00
 1.0204004035e+00	 3.2393881629e-01	 2.7420679858e+00
 1.0173737623e+00	 3.3332256550e-01	 2.7889001920e+00
 1.0142538723e+00	 3.4269862959e-01	 2.8355334731e+00
 1.0110405443e+00	 3.5206568931e-01	 2.8818533416e+00
 1.0077336127e+00	 3.6142241645e-01	 2.9277506092e+00
 1.0043329360e+00	 3.7076747426e-01	 2.9731223416e+00
 1.0455065764e+00	 2.7999348479e-01	 2.5801984548e+00
 1.0429143613e+00	 2.8949953967e-01	 2.6171892652e+00
 1.0402291763e+00	 2.9900434024e-01	 2.6544790133e+00
 1.0374507156e+00	 3.0850660545e-01	 2.6919295377e+00
 1.0345786956e+00	 3.1800504280e-01	 2.7294069547e+00
 1.0316128554e+00	 3.2749834877e-01	 2.7667819130e+00
 1.0285529566e+00	 3.3698520930e-01	 2.8039298412e+00
 1.0253987843e+00	 3.4646430027e-01	 2.8407311877e+00
 1.0221501473e+00	 3.5593428793e-01	 2.8770716499e+00
 1.0188068782e+00	 3.6539382946e-01	 2.9128423949e+00
 1.0153688340e+00	 3.7484157345e-01	 2.9480537571e+00
 1.0568700017e+00	 2.8303668424e-01	 2.6370088724e+00
 1.0542496123e+00	 2.9264605875e-01	 2.6657204365e+00
 1.0515352424e+00	 3.0225416531e-01	 2.6946379242e+00
 1.0487265831e+00	 3.1185970895e-01	 2.7236173635e+00
 1.0458233477e+00	 3.2146138312e-01	 2.7525191804e+00
 1.0428252723e+00	 3.3105787015e-01	 2.7812084699e+00
 1.0397321160e+00	 3.4064784169e-01	 2.8095552605e+00
 1.0365436616e+00	 3.5022995921e-01	 2.8374347703e+00
 1.0332597157e+00	 3.5980287448e-01	 2.8647276540e+00
 1.0298801092e+00	 3.6936523009e-01	 2.8913202399e+00
 1.0264046975e+00	 3.7891565993e-01	 2.9175311033e+00
 1.0682334141e+00	 2.8607988024e-01	 2.6781804048e+00
 1.0655848504e+00	 2.9579257426e-01	 2.6992526985e+00
 1.0628412958e+00	 3.0550398669e-01	 2.7204924880e+00
 1.0600024379e+00	 3.1521280865e-01	 2.7417448674e+00
 1.0570679871e+00	 3.2491771953e-01	 2.7628594442e+00
 1.0540376764e+00	 3.3461738750e-01	 2.7836906340e+00
 1.0509112627e+00	 3.4431046992e-01	 2.8040979493e+00
 1.0476885262e+00	 3.5399561388e-01	 2.8239462803e+00
 1.0443692715e+00	 3.6367145665e-01	 2.8431061660e+00
 1.0409533277e+00	 3.7333662622e-01	 2.8615049845e+00
 1.0374405485e+00	 3.8298974179e-01	 2.8798228577e+00
 1.0795968361e+00	 2.8912307883e-01	 2.7022541087e+00
 1.0769200981e+00	 2.9893909244e-01	 2.7162991386e+00
 1.0741473587e+00	 3.0875381083e-01	 2.7305290275e+00
 1.0712783023e+00	 3.1856591119e-01	 2.7447729617e+00
 1.0683126359e+00	 3.2837405888e-01	 2.7588647513e+00
 1.0652500901e+00	 3.3817690787e-01	 2.7726431559e+00
 1.0620904189e+00	 3.4797310126e-01	 2.7859522054e+00
 1.0588334003e+00	 3.5776127175e-01	 2.7986415122e+00
 1.0554788368e+00	 3.6754004210e-01	 2.8105665747e+00
 1.0520265555e+00	 3.7730802572e-01	 2.8218754300e+00
 1.0484764088e+00	 3.8706382711e-01	 2.8332713318e+00
 9.3811560045e-01	 3.4632215993e-01	 3.1136444645e+00
 9.3485089983e-01	 3.5504040738e-01	 3.2415135253e+00
 9.3149840861e-01	 3.6374523066e-01	 3.3686855754e+00
 9.2805806304e-01	 3.7243535926e-01	 3.4948578262e+00
 9.2452982293e-01	 3.8110951670e-01	 3.6201851938e+00
 9.2091367195e-01	 3.8976642107e-01	 3.7445463715e+00
 9.1720961780e-01	 3.9840478557e-01	 3.8676132384e+00
 9.1341769248e-01	 4.0702331907e-01	 3.9890575270e+00
 9.0953795245e-01	 4.1562072663e-01	 4.1085511631e+00
 9.0557047888e-01	 4.2419571008e-01	 4.2257666274e+00
 9.0151537777e-01	 4.3274696861e-01	 4.3403773403e+00
 9.4915216442e-01	 3.5039650501e-01	 3.0810245739e+00
 9.4584905587e-01	 3.5921731924e-01	 3.1924081556e+00
 9.4245712390e-01	 3.6802455138e-01	 3.3029519929e+00
 9.3897630400e-01	 3.7681691595e-01	 3.4125802915e+00
 9.3540655553e-01	 3.8559312146e-01	 3.5215384827e+00
 9.3174786194e-01	 3.9435187093e-01	 3.6295741219e+00
 9.2800023104e-01	 4.0309186243e-01	 3.7364063479e+00
 9.2416369520e-01	 4.1181178961e-01	 3.8417534861e+00
 9.2023831154e-01	 4.2051034231e-01	 3.9453333160e+00
 9.1622416219e-01	 4.2918620710e-01	 4.0468633637e+00
 9.1212135440e-01	 4.3783806785e-01	 4.1460612178e+00
 9.6018856265e-01	 3.5447078891e-01	 3.0550349640e+00
 9.5684704675e-01	 3.6339416838e-01	 3.1509718681e+00
 9.5341567462e-01	 3.7230380783e-01	 3.2459312576e+00
 9.4989438101e-01	 3.8119840684e-01	 3.3402108806e+00
 9.4628312479e-01	 3.9007665890e-01	 3.4338215024e+00
 9.4258188924e-01	 3.9893725194e-01	 3.5265256834e+00
 9.3879068224e-01	 4.0777886890e-01	 3.6180844364e+00
 9.3490953655e-01	 4.1660018824e-01	 3.7082574064e+00
 9.3093850995e-01	 4.2539988457e-01	 3.7968030748e+00
 9.2687768552e-01	 4.3417662917e-01	 3.8834789892e+00
 9.2272717177e-01	 4.4292909063e-01	 3.9680420185e+00
 9.7122481704e-01	 3.5854501971e-01	 3.0333867658e+00
 9.6784489429e-01	 3.6757096308e-01	 3.1149031847e+00
 9.6437408251e-01	 3.7658300850e-01	 3.1954583223e+00
 9.6081231571e-01	 3.8557984062e-01	 3.2754581930e+00
 9.5715955230e-01	 3.9456013789e-01	 3.3547460557e+00
 9.5341577533e-01	 4.0352257318e-01	 3.4331215576e+00
 9.4958099281e-01	 4.1246581427e-01	 3.5103824110e+00
 9.4565523784e-01	 4.2138852445e-01	 3.5863245154e+00
 9.4163856890e-01	 4.3028936309e-01	 3.6607421056e+00
 9.3753107000e-01	 4.3916698620e-01	 3.7334279260e+00
 9.3333285090e-01	 4.4802004705e-01	 3.8041734328e+00
 9.8226094948e-01	 3.6261920547e-01	 3.0138945636e+00
 9.7884262030e-01	 3.7174771162e-01	 3.0820143742e+00
 9.7533236932e-01	 3.8086216189e-01	 3.1493746367e+00
 9.7173012978e-01	 3.8996122597e-01	 3.2161342471e+00
 9.6803585961e-01	 3.9904356734e-01	 3.2821271402e+00
 9.6424954171e-01	 4.0810784375e-01	 3.3471849805e+00
 9.6037118414e-01	 4.1715270785e-01	 3.4111372086e+00
 9.5640082039e-01	 4.2617680775e-01	 3.4738111126e+00
 9.5233850961e-01	 4.3517878758e-01	 3.5350319272e+00
 9.4818433676e-01	 4.4415728808e-01	 3.5946229600e+00
 9.4393841284e-01	 4.5311094722e-01	 3.6524057479e+00
 9.9329698185e-01	 3.6669335430e-01	 2.9944709725e+00
 9.8984024659e-01	 3.7592442228e-01	 3.0503457195e+00
 9.8629055676e-01	 3.8514127647e-01	 3.1055920121e+00
 9.8264784485e-01	 3.9434257160e-01	 3.1601487840e+00
 9.7891206831e-01	 4.0352695613e-01	 3.2138772657e+00
 9.7508320985e-01	 4.1269307273e-01	 3.2666362679e+00
 9.7116127763e-01	 4.2183955893e-01	 3.3182821831e+00
 9.6714630551e-01	 4.3096504763e-01	 3.3686690134e+00
 9.6303835330e-01	 4.4006816773e-01	 3.4176484271e+00
 9.5883750692e-01	 4.4914754470e-01	 3.4650698447e+00
 9.5454387862e-01	 4.5820180122e-01	 3.5107805558e+00
 1.0043329360e+00	 3.7076747426e-01	 2.9731223416e+00
 1.0008377950e+00	 3.8010110336e-01	 3.0179495156e+00
 9.9724866657e-01	 3.8942036074e-01	 3.0621146559e+00
 9.9356548258e-01	 3.9872388620e-01	 3.1055039451e+00
 9.8978819997e-01	 4.0801031316e-01	 3.1480011445e+00
 9.8591680126e-01	 4.1727826924e-01	 3.1894875311e+00
 9.8195129469e-01	 4.2652637681e-01	 3.2298418602e+00
 9.7789171451e-01	 4.3575325359e-01	 3.2689403570e+00
 9.7373812119e-01	 4.4495751325e-01	 3.3066567370e+00
 9.6949060161e-01	 4.5413776598e-01	 3.3428622588e+00
 9.6514926926e-01	 4.6329261916e-01	 3.3774258083e+00
 1.0153688340e+00	 3.7484157345e-01	 2.9480537571e+00
 1.0118352873e+00	 3.8427776313e-01	 2.9829237094e+00
 1.0082067205e+00	 3.9369942318e-01	 3.0170341929e+00
 1.0044830646e+00	 4.0310517844e-01	 3.0502892934e+00
 1.0006642762e+00	 4.1249364732e-01	 3.0825907255e+00
 9.9675033740e-01	 4.2186344235e-01	 3.1138377355e+00
 9.9274125671e-01	 4.3121317078e-01	 3.1439270330e+00
 9.8863706870e-01	 4.4054143512e-01	 3.1727527516e+00
 9.8443783451e-01	 4.4984683382e-01	 3.2002064409e+00
 9.8014364197e-01	 4.5912796180e-01	 3.2261770911e+00
 9.7575460582e-01	 4.6838341113e-01	 3.2505511931e+00
 1.0264046975e+00	 3.7891565993e-01	 2.9175311033e+00
 1.0228327453e+00	 3.8845440988e-01	 2.9434488278e+00
 1.0191647403e+00	 3.9797847228e-01	 2.9685250052e+00
 1.0154006126e+00	 4.0748645702e-01	 2.9926771548e+00
 1.0115403184e+00	 4.1697696750e-01	 3.0158205461e+00
 1.0075838398e+00	 4.2644860118e-01	 3.0378680753e+00
 1.0035311851e+00	 4.3589995014e-01	 3.0587301708e+00
 9.9938238940e-01	 4.4532960173e-01	 3.0783147303e+00
 9.9513751448e-01	 4.5473613916e-01	 3.0965270897e+00
 9.9079664912e-01	 4.6411814207e-01	 3.1132700278e+00
 9.8635990932e-01	 4.7347418723e-01	 3.1284438064e+00
 1.0374405485e+00	 3.8298974179e-01	 2.8798228577e+00
 1.0338301908e+00	 3.9263105190e-01	 2.8977836219e+00
 1.0301227476e+00	 4.0225751653e-01	 2.9148398671e+00
 1.0263181483e+00	 4.1186773064e-01	 2.9309182525e+00
 1.0224163484e+00	 4.2146028261e-01	 2.9459433781e+00
 1.0184173299e+00	 4.3103375480e-01	 2.9598376405e+00
 1.0143211013e+00	 4.4058672418e-01	 2.9725211190e+00
 1.0101276979e+00	 4.5011776291e-01	 2.9839114943e+00
 1.0058371823e+00	 4.5962543895e-01	 2.9939240014e+00
 1.0014496442e+00	 4.6910831667e-01	 3.0024714198e+00
 9.9696520079e-01	 4.7856495755e-01	 3.0094641005e+00
 1.0484764088e+00	 3.8706382711e-01	 2.8332713318e+00
 1.0448276457e+00	 3.9680769746e-01	 2.8442609834e+00
 1.0410807643e+00	 4.0653656441e-01	 2.8543058530e+00
 1.0372356932e+00	 4.1624900798e-01	 2.8633376161e+00
 1.0332923876e+00	 4.2594360152e-01	 2.8712861465e+00
 1.0292508292e+00	 4.3561891232e-01	 2.8780793563e+00
 1.0251110266e+00	 4.4527350221e-01	 2.8836430686e+00
 1.0208730156e+00	 4.5490592816e-01	 2.8879009240e+00
 1.0165368592e+00	 4.6451474289e-01	 2.8907743232e+00
 1.0121026483e+00	 4.7409849552e-01	 2.8921824085e+00
 1.0075705013e+00	 4.8365573221e-01	 2.8920420849e+00
 9.0151537777e-01	 4.3274696861e-01	 4.3403773403e+00
 8.9737349163e-01	 4.4127175214e-01	 4.4520344294e+00
 8.9314429419e-01	 4.4977021217e-01	 4.5604886524e+00
 8.8882796619e-01	 4.5824104362e-01	 4.6655071756e+00
 8.8442471375e-01	 4.6668294105e-01	 4.7668588776e+00
 8.7993476851e-01	 4.7509459936e-01	 4.8643147104e+00
 8.7535838762e-01	 4.8347471433e-01	 4.9576480831e+00
 8.7069585389e-01	 4.9182198323e-01	 5.0466352667e+00
 8.6594747579e-01	 5.0013510550e-01	 5.1310558215e+00
 8.6111358749e-01	 5.0841278331e-01	 5.2106930455e+00
 8.5619454885e-01	 5.1665372221e-01	 5.2853344422e+00
 9.1212135440e-01	 4.3783806785e-01	 4.1460612178e+00
 9.0793074059e-01	 4.4646314213e-01	 4.2426054005e+00
 9.0365178829e-01	 4.5506158323e-01	 4.3362482910e+00
 8.9928468037e-01	 4.6363207069e-01	 4.4267694589e+00
 8.9482962539e-01	 4.7217328376e-01	 4.5139499232e+00
 8.9028685769e-01	 4.8068390195e-01	 4.5975725029e+00
 8.8565663747e-01	 4.8916260569e-01	 4.6774221913e+00
 8.8093925085e-01	 4.9760807696e-01	 4.7532865549e+00
 8.7613500994e-01	 5.0601899986e-01	 4.8249561550e+00
 8.7124425283e-01	 5.1439406132e-01	 4.8922249925e+00
 8.6626734362e-01	 5.2273195165e-01	 4.9548909752e+00
 9.2272717177e-01	 4.4292909063e-01	 3.9680420185e+00
 9.1848783101e-01	 4.5165445416e-01	 4.0502077345e+00
 9.1415912460e-01	 4.6035287482e-01	 4.1297445837e+00
 9.0974123753e-01	 4.6902301681e-01	 4.2064465017e+00
 9.0523438079e-01	 4.7766354402e-01	 4.2801085272e+00
 9.0063879142e-01	 4.8627312060e-01	 4.3505271388e+00
 8.9595473267e-01	 4.9485041164e-01	 4.4175006177e+00
 8.9118249399e-01	 5.0339408379e-01	 4.4808294360e+00
 8.8632239110e-01	 5.1190280587e-01	 4.5403166707e+00
 8.8137476603e-01	 5.2037524951e-01	 4.5957684430e+00
 8.7633998713e-01	 5.2881008982e-01	 4.6469943813e+00
 9.3333285090e-01	 4.4802004705e-01	 3.8041734328e+00
 9.2904478384e-01	 4.5684569852e-01	 3.8727366180e+00
 9.2466632397e-01	 4.6564409744e-01	 3.9389120079e+00
 9.2019765841e-01	 4.7441389267e-01	 4.0025098114e+00
 9.1563900057e-01	 4.8315373271e-01	 4.0633409117e+00
 9.1099059023e-01	 4.9186226640e-01	 4.1212171856e+00
 9.0625269366e-01	 5.0053814346e-01	 4.1759518509e+00
 9.0142560362e-01	 5.0918001521e-01	 4.2273598422e+00
 8.9650963948e-01	 5.1778653519e-01	 4.2752582140e+00
 8.9150514720e-01	 5.2635635974e-01	 4.3194665714e+00
 8.8641249935e-01	 5.3488814876e-01	 4.3598075275e+00
 9.4393841284e-01	 4.5311094722e-01	 3.6524057479e+00
 9.3960162001e-01	 4.6203688551e-01	 3.7081819829e+00
 9.3517340722e-01	 4.7093526159e-01	 3.7617780489e+00
 9.3065396373e-01	 4.7980470895e-01	 3.8130222835e+00
 9.2604350537e-01	 4.8864386074e-01	 3.8617431872e+00
 9.2134227465e-01	 4.9745135043e-01	 3.9077697210e+00
 9.1655054084e-01	 5.0622581242e-01	 3.9509316369e+00
 9.1166860006e-01	 5.1496588270e-01	 3.9910598368e+00
 9.0669677529e-01	 5.2367019948e-01	 4.0279867629e+00
 9.0163541643e-01	 5.3233740388e-01	 4.0615468177e+00
 8.9648490027e-01	 5.4096614054e-01	 4.0915768126e+00
 9.5454387862e-01	 4.5820180122e-01	 3.5107805558e+00
 9.5015836046e-01	 4.6722802543e-01	 3.5546233235e+00
 9.4568039521e-01	 4.7622637777e-01	 3.5964581213e+00
 9.4111017425e-01	 4.8519547635e-01	 3.6361332215e+00
 9.3644791584e-01	 4.9413393899e-01	 3.6734964643e+00
 9.3169386521e-01	 5.0304038378e-01	 3.7083955319e+00
 9.2684829466e-01	 5.1191342981e-01	 3.7406782576e+00
 9.2191150363e-01	 5.2075169772e-01	 3.7701929663e+00
 9.1688381874e-01	 5.2955381043e-01	 3.7967888490e+00
 9.1176559380e-01	 5.3831839379e-01	 3.8203163693e+00
 9.0655720985e-01	 5.4704407721e-01	 3.8406277019e+00
 9.6514926926e-01	 4.6329261916e-01	 3.3774258083e+00
 9.6071502612e-01	 4.7241912858e-01	 3.4102248541e+00
 9.5618730877e-01	 4.8151745646e-01	 3.4411508242e+00
 9.5156631070e-01	 4.9058620556e-01	 3.4700736836e+00
 9.4685225260e-01	 4.9962397834e-01	 3.4968622875e+00
 9.4204538243e-01	 5.0862937755e-01	 3.5213846283e+00
 9.3714597553e-01	 5.1760100691e-01	 3.5435081205e+00
 9.3215433464e-01	 5.2653747175e-01	 3.5630999198e+00
 9.2707079001e-01	 5.3543737970e-01	 3.5800272795e+00
 9.2189569941e-01	 5.4429934133e-01	 3.5941579408e+00
 9.1662944809e-01	 5.5312197082e-01	 3.6053605592e+00
 9.7575460582e-01	 4.6838341113e-01	 3.2505511931e+00
 9.7127163794e-01	 4.7761020525e-01	 3.2732309815e+00
 9.6669416873e-01	 4.8680850816e-01	 3.2941335042e+00
 9.6202239382e-01	 4.9597690727e-01	 3.3131521324e+00
 9.5725653630e-01	 5.0511398969e-01	 3.3301783658e+00
 9.5239684686e-01	 5.1421834280e-01	 3.3451020506e+00
 9.4744360387e-01	 5.2328855499e-01	 3.3578116365e+00
 9.4239711340e-01	 5.3232321627e-01	 3.3681944721e+00
 9.3725770933e-01	 5.4132091896e-01	 3.3761371401e+00
 9.3202575335e-01	 5.5028025836e-01	 3.3815258303e+00
 9.2670163496e-01	 5.5919983343e-01	 3.3842467508e+00
 9.8635990932e-01	 4.7347418723e-01	 3.1284438064e+00
 9.8182821686e-01	 4.8280126574e-01	 3.1419620673e+00
 9.7720099595e-01	 4.9209954336e-01	 3.1537581041e+00
 9.7247844434e-01	 5.0136759218e-01	 3.1637503642e+00
 9.6766078756e-01	 5.1060398392e-01	 3.1718545785e+00
 9.6274827903e-01	 5.1980729063e-01	 3.1779839464e+00
 9.5774120011e-01	 5.2897608535e-01	 3.1820493630e+00
 9.5263986024e-01	 5.3810894276e-01	 3.1839596876e+00
 9.4744459690e-01	 5.4720443988e-01	 3.1836220556e+00
 9.4215577571e-01	 5.5626115675e-01	 3.1809422312e+00
 9.3677379042e-01	 5.6527767709e-01	 3.1758250027e+00
 9.9696520079e-01	 4.7856495755e-01	 3.0094641005e+00
 9.9238478381e-01	 4.8799232034e-01	 3.0148104599e+00
 9.8770781125e-01	 4.9739057257e-01	 3.0184472747e+00
 9.8293448301e-01	 5.0675827098e-01	 3.0203196972e+00
 9.7806502703e-01	 5.1609397193e-01	 3.0203692345e+00
 9.7309969946e-01	 5.2539623213e-01	 3.0185338971e+00
 9.6803878468e-01	 5.3466360926e-01	 3.0147483930e+00
 9.6288259546e-01	 5.4389466269e-01	 3.0089443677e+00
 9.5763147291e-01	 5.5308795413e-01	 3.0010506891e+00
 9.5228578659e-01	 5.6224204835e-01	 2.9909937794e+00
 9.4684593447e-01	 5.7135551387e-01	 2.9786979908e+00
 1.0075705013e+00	 4.8365573221e-01	 2.8920420849e+00
 1.0029413597e+00	 4.9318337935e-01	 2.8902367755e+00
 9.9821463549e-01	 5.0268160628e-01	 2.8866907312e+00
 9.9339053057e-01	 5.1214895436e-01	 2.8813773991e+00
 9.8846927534e-01	 5.2158396461e-01	 2.8742655677e+00
 9.8345112868e-01	 5.3098517837e-01	 2.8653194760e+00
 9.7833637800e-01	 5.4035113800e-01	 2.8544989724e+00
 9.7312533939e-01	 5.4968038753e-01	 2.8417597219e+00
 9.6781835759e-01	 5.5897147338e-01	 2.8270534641e+00
 9.6241580608e-01	 5.6822294504e-01	 2.8103283201e+00
 9.5691808708e-01	 5.7743335581e-01	 2.7915291483e+00
 8.5619454885e-01	 5.1665372221e-01	 5.2853344422e+00
 8.5119074566e-01	 5.2485663194e-01	 5.3550040058e+00
 8.4610259018e-01	 5.3302022751e-01	 5.4196706624e+00
 8.4093052051e-01	 5.4114322943e-01	 5.4790442704e+00
 8.3567500029e-01	 5.4922436409e-01	 5.5328372150e+00
 8.3033651862e-01	 5.5726236447e-01	 5.5807650642e+00
 8.2491558997e-01	 5.6525597072e-01	 5.6225472428e+00
 8.1941275406e-01	 5.7320393083e-01	 5.6579077234e+00
 8.1382857572e-01	 5.8110500120e-01	 5.6865757318e+00
 8.0816364470e-01	 5.8895794732e-01	 5.7082864649e+00
 8.0241857555e-01	 5.9676154436e-01	 5.7227818188e+00
 8.6626734362e-01	 5.2273195165e-01	 4.9548909752e+00
 8.6120467264e-01	 5.3103136541e-01	 5.0129379263e+00
 8.5605665700e-01	 5.3929100250e-01	 5.0663055127e+00
 8.5082373994e-01	 5.4750956836e-01	 5.1147299768e+00
 8.4550639058e-01	 5.5568577442e-01	 5.1579498571e+00
 8.4010510375e-01	 5.6381833873e-01	 5.1957066297e+00
 8.3462040000e-01	 5.7190598664e-01	 5.2277453699e+00
 8.2905282537e-01	 5.7994745140e-01	 5.2538154319e+00
 8.2340295135e-01	 5.8794147478e-01	 5.2736711442e+00
 8.1767137463e-01	 5.9588680775e-01	 5.2870725190e+00
 8.1185871699e-01	 6.0378221106e-01	 5.2937859734e+00
 8.7633998713e-01	 5.2881008982e-01	 4.6469943813e+00
 8.7121844924e-01	 5.3720600616e-01	 4.6939403100e+00
 8.6601057433e-01	 5.4556168332e-01	 4.7365185444e+00
 8.6071681081e-01	 5.5387581169e-01	 4.7744925351e+00
 8.5533763323e-01	 5.6214708771e-01	 4.8076277750e+00
 8.4987354219e-01	 5.7037421455e-01	 4.8356924252e+00
 8.4432506429e-01	 5.7855590270e-01	 4.8584579633e+00
 8.3869275192e-01	 5.8669087070e-01	 4.8756998518e+00
 8.3297718321e-01	 5.9477784570e-01	 4.8871982224e+00
 8.2717896179e-01	 6.0281556413e-01	 4.8927385777e+00
 8.2129871666e-01	 6.1080277233e-01	 4.8921125036e+00
 8.8641249935e-01	 5.3488814876e-01	 4.3598075275e+00
 8.8123209532e-01	 5.4338056643e-01	 4.3961923143e+00
 8.7596436193e-01	 5.5183228241e-01	 4.4285090439e+00
 8.7060975274e-01	 5.6024197205e-01	 4.4565491608e+00
 8.6516874774e-01	 5.6860831680e-01	 4.4801058725e+00
 8.5964185332e-01	 5.7693000492e-01	 4.4989747608e+00
 8.5402960209e-01	 5.8520573209e-01	 4.5129544157e+00
 8.4833255282e-01	 5.9343420212e-01	 4.5218470915e+00
 8.4255129027e-01	 6.0161412752e-01	 4.5254593810e+00
 8.3668642502e-01	 6.0974423020e-01	 4.5236029076e+00
 8.3073859329e-01	 6.1782324210e-01	 4.5160950305e+00
 8.9648490027e-01	 5.4096614054e-01	 4.0915768126e+00
 8.9124563075e-01	 5.4955505846e-01	 4.1179579697e+00
 8.8591803953e-01	 5.5810281221e-01	 4.1405585328e+00
 8.8050258534e-01	 5.6660806206e-01	 4.1591986867e+00
 8.7499975362e-01	 5.7506947448e-01	 4.1737000748e+00
 8.6941005650e-01	 5.8348572284e-01	 4.1838863946e+00
 8.6373403265e-01	 5.9185548800e-01	 4.1895840172e+00
 8.5797224720e-01	 6.0017745902e-01	 4.1906226308e+00
 8.5212529154e-01	 6.0845033379e-01	 4.1868359040e+00
 8.4619378319e-01	 6.1667281970e-01	 4.1780621685e+00
 8.4017836561e-01	 6.2484363429e-01	 4.1641451173e+00
 9.0655720985e-01	 5.4704407721e-01	 3.8406277019e+00
 9.0125907538e-01	 5.5572949451e-01	 3.8575797662e+00
 8.9587162689e-01	 5.6437328515e-01	 3.8710264040e+00
 8.9039532824e-01	 5.7297409434e-01	 3.8808172492e+00
 8.8483067035e-01	 5.8153057359e-01	 3.8868030636e+00
 8.7917817110e-01	 5.9004138132e-01	 3.8888363160e+00
 8.7343837522e-01	 5.9850518361e-01	 3.8867717867e+00
 8.6761185417e-01	 6.0692065477e-01	 3.8804671982e+00
 8.6169920600e-01	 6.1528647808e-01	 3.8697838678e+00
 8.5570105516e-01	 6.2360134639e-01	 3.8545873806e+00
 8.4961805234e-01	 6.3186396283e-01	 3.8347482805e+00
 9.1662944809e-01	 5.5312197082e-01	 3.6053605592e+00
 9.1127244908e-01	 5.6190388682e-01	 3.6134745325e+00
 9.0582514373e-01	 5.7064371367e-01	 3.6183458483e+00
 9.0028800106e-01	 5.7934008153e-01	 3.6198542615e+00
 8.9466151745e-01	 5.8799162692e-01	 3.6178802970e+00
 8.8894621651e-01	 5.9659699337e-01	 3.6123058111e+00
 8.8314264905e-01	 6.0515483212e-01	 3.6030145816e+00
 8.7725139286e-01	 6.1366380276e-01	 3.5898929250e+00
 8.7127305263e-01	 6.2212257394e-01	 3.5728303384e+00
 8.6520825977e-01	 6.3052982399e-01	 3.5517201634e+00
 8.5905767219e-01	 6.3888424163e-01	 3.5264602691e+00
 9.2670163496e-01	 5.5919983343e-01	 3.3842467508e+00
 9.2128577170e-01	 5.6807824764e-01	 3.3841295853e+00
 9.1577860980e-01	 5.7691411021e-01	 3.3810200487e+00
 9.1018062343e-01	 5.8570603625e-01	 3.3748286523e+00
 9.0449231440e-01	 5.9445264729e-01	 3.3654662913e+00
 8.9871421210e-01	 6.0315257198e-01	 3.3528447875e+00
 8.9284687337e-01	 6.1180444671e-01	 3.3368774650e+00
 8.8689088237e-01	 6.2040691636e-01	 3.3174797536e+00
 8.8084685044e-01	 6.2895863493e-01	 3.2945698206e+00
 8.7471541589e-01	 6.3745826626e-01	 3.2680692245e+00
 8.6849724389e-01	 6.4590448463e-01	 3.2379035926e+00
 9.3677379042e-01	 5.6527767709e-01	 3.1758250027e+00
 9.3129906311e-01	 5.7425258921e-01	 3.1680991291e+00
 9.2573204485e-01	 5.8318448720e-01	 3.1576186216e+00
 9.2007321495e-01	 5.9207197112e-01	 3.1443253487e+00
 9.1432308071e-01	 6.0091364753e-01	 3.1281611454e+00
 9.0848217724e-01	 6.0970813015e-01	 3.1090683396e+00
 9.0255106745e-01	 6.1845404057e-01	 3.0869903110e+00
 8.9653034184e-01	 6.2715000893e-01	 3.0618720826e+00
 8.9042061840e-01	 6.3579467462e-01	 3.0336609408e+00
 8.8422254238e-01	 6.4438668693e-01	 3.0023070811e+00
 8.7793678617e-01	 6.5292470575e-01	 2.9677642784e+00
 9.4684593447e-01	 5.7135551387e-01	 2.9786979908e+00
 9.4131234317e-01	 5.8042692379e-01	 2.9640008862e+00
 9.3568546861e-01	 5.8945485709e-01	 2.9467742879e+00
 9.2996579527e-01	 5.9843789878e-01	 2.9269919863e+00
 9.2415383587e-01	 6.0737464044e-01	 2.9046272905e+00
 9.1825013131e-01	 6.1626368089e-01	 2.8796535363e+00
 9.1225525053e-01	 6.2510362689e-01	 2.8520446306e+00
 9.0616979038e-01	 6.3389309387e-01	 2.8217756294e+00
 8.9999437550e-01	 6.4263070656e-01	 2.7888233469e+00
 8.9372965809e-01	 6.5131509974e-01	 2.7531669941e+00
 8.8737631775e-01	 6.5994491891e-01	 2.7147888419e+00
 9.5691808708e-01	 5.7743335581e-01	 2.7915291483e+00
 9.5132563174e-01	 5.8660126360e-01	 2.7705129425e+00
 9.4563890083e-01	 5.9572523230e-01	 2.7471797556e+00
 9.3985838398e-01	 6.0480383185e-01	 2.7215358299e+00
 9.3398459938e-01	 6.1383563884e-01	 2.6935864465e+00
 9.2801809367e-01	 6.2281923720e-01	 2.6633364146e+00
 9.2195944185e-01	 6.3175321886e-01	 2.6307906011e+00
 9.1580924711e-01	 6.4063618453e-01	 2.5959544950e+00
 9.0956814074e-01	 6.4946674430e-01	 2.5588348076e+00
 9.0323678187e-01	 6.5824351844e-01	 2.5194401022e+00
 8.9681585735e-01	 6.6696513803e-01	 2.4777814523e+00
 8.0241857555e-01	 5.9676154436e-01	 5.7227818188e+00
 7.9659301098e-01	 6.0451589078e-01	 5.7300984291e+00
 7.9068858747e-01	 6.1221844773e-01	 5.7303090962e+00
 7.8470599631e-01	 6.1986801809e-01	 5.7232307329e+00
 7.7864595270e-01	 6.2746341682e-01	 5.7086938747e+00
 7.7250919548e-01	 6.3500347160e-01	 5.6865433761e+00
 7.6629648686e-01	 6.4248702340e-01	 5.6566390956e+00
 7.6000861212e-01	 6.4991292707e-01	 5.6188565662e+00
 7.5364637927e-01	 6.5728005194e-01	 5.5730876493e+00
 7.4721061873e-01	 6.6458728233e-01	 5.5192411681e+00
 7.4070218296e-01	 6.7183351817e-01	 5.4572435188e+00
 8.1185871699e-01	 6.0378221106e-01	 5.2937859734e+00
 8.0596461692e-01	 6.1162778433e-01	 5.2939243862e+00
 7.9999073018e-01	 6.1942095887e-01	 5.2876514281e+00
 7.9393775617e-01	 6.2716052344e-01	 5.2748248072e+00
 7.8780641850e-01	 6.3484527907e-01	 5.2553136747e+00
 7.8159746472e-01	 6.4247403965e-01	 5.2289992868e+00
 7.7531166601e-01	 6.5004563251e-01	 5.1957756583e+00
 7.6894981688e-01	 6.5755889905e-01	 5.1555502045e+00
 7.6251273484e-01	 6.6501269527e-01	 5.1082443696e+00
 7.5600126009e-01	 6.7240589238e-01	 5.0537942380e+00
 7.4941625511e-01	 6.7973737735e-01	 4.9921511258e+00
 8.2129871666e-01	 6.1080277233e-01	 4.8921125036e+00
 8.1533608213e-01	 6.1873957110e-01	 4.8854808140e+00
 8.0929273319e-01	 6.2662336185e-01	 4.8730635440e+00
 8.0316937739e-01	 6.3445291928e-01	 4.8547508390e+00
 7.9696674674e-01	 6.4222703047e-01	 4.8304422337e+00
 7.9068559750e-01	 6.4994449552e-01	 4.8000472921e+00
 7.8432670979e-01	 6.5760412813e-01	 4.7634862427e+00
 7.7789088737e-01	 6.6520475621e-01	 4.7206906048e+00
 7.7137895727e-01	 6.7274522248e-01	 4.6716038042e+00
 7.6479176945e-01	 6.8022438501e-01	 4.6161817752e+00
 7.5813019641e-01	 6.8764111784e-01	 4.5543935442e+00
 8.3073859329e-01	 6.1782324210e-01	 4.5160950305e+00
 8.2470742519e-01	 6.2585126517e-01	 4.5031188009e+00
 8.1859461496e-01	 6.3382567095e-01	 4.4849189256e+00
 8.1240087828e-01	 6.4174522007e-01	 4.4614098929e+00
 8.0612695559e-01	 6.4960868566e-01	 4.4325136483e+00
 7.9977361181e-01	 6.5741485402e-01	 4.3981602258e+00
 7.9334163606e-01	 6.6516252523e-01	 4.3582883772e+00
 7.8683184133e-01	 6.7285051372e-01	 4.3128461956e+00
 7.8024506414e-01	 6.8047764890e-01	 4.2617917318e+00
 7.7358216423e-01	 6.8804277574e-01	 4.2050935976e+00
 7.6684402413e-01	 6.9554475532e-01	 4.1427315564e+00
 8.4017836561e-01	 6.2484363429e-01	 4.1641451173e+00
 8.3407866470e-01	 6.3296288065e-01	 4.1452668341e+00
 8.2789639394e-01	 6.4102790047e-01	 4.1216676891e+00
 8.2163227717e-01	 6.4903744028e-01	 4.0932786693e+00
 8.1528706321e-01	 6.5699025927e-01	 4.0600364052e+00
 8.0886152571e-01	 6.6488512997e-01	 4.0218838058e+00
 8.0235646272e-01	 6.7272083880e-01	 3.9787706950e+00
 7.9577269649e-01	 6.8049618674e-01	 3.9306544457e+00
 7.8911107304e-01	 6.8820998988e-01	 3.8775006075e+00
 7.8237246187e-01	 6.9586108007e-01	 3.8192835262e+00
 7.7555775556e-01	 7.0344830545e-01	 3.7559869510e+00
 8.4961805234e-01	 6.3186396283e-01	 3.8347482805e+00
 8.4344981923e-01	 6.4007443165e-01	 3.8104268587e+00
 8.3719808858e-01	 6.4823006468e-01	 3.7818327052e+00
 8.3086359234e-01	 6.5632959437e-01	 3.7489056990e+00
 8.2444708778e-01	 6.6437176596e-01	 3.7115896635e+00
 8.1794935719e-01	 6.7235533819e-01	 3.6698330186e+00
 8.1137120764e-01	 6.8027908384e-01	 3.6235894368e+00
 8.0471347057e-01	 6.8814179043e-01	 3.5728184989e+00
 7.9797700154e-01	 6.9594226075e-01	 3.5174863480e+00
 7.9116267981e-01	 7.0367931352e-01	 3.4575663355e+00
 7.8427140798e-01	 7.1135178393e-01	 3.3930396578e+00
 8.5905767219e-01	 6.3888424163e-01	 3.5264602691e+00
 8.5282090737e-01	 6.4718593228e-01	 3.4971706036e+00
 8.4649971733e-01	 6.5543217788e-01	 3.4640059826e+00
 8.4009484213e-01	 6.6362169680e-01	 3.4269077958e+00
 8.3360704745e-01	 6.7175322036e-01	 3.3858197901e+00
 8.2703712430e-01	 6.7982549349e-01	 3.3406887511e+00
 8.2038588869e-01	 6.8783727535e-01	 3.2914651910e+00
 8.1365418132e-01	 6.9578733997e-01	 3.2381040402e+00
 8.0684286724e-01	 7.0367447685e-01	 3.1805653374e+00
 7.9995283548e-01	 7.1149749158e-01	 3.1188149161e+00
 7.9298499868e-01	 7.1925520641e-01	 3.0528250824e+00
 8.6849724389e-01	 6.4590448463e-01	 3.2379035926e+00
 8.6219194772e-01	 6.5429739663e-01	 3.2041361523e+00
 8.5580129863e-01	 6.6263425434e-01	 3.1668452927e+00
 8.4932604483e-01	 6.7091376204e-01	 3.1259667474e+00
 8.4276696041e-01	 6.7913463711e-01	 3.0814371282e+00
 8.3612484506e-01	 6.8729561068e-01	 3.0331946487e+00
 8.2940052377e-01	 6.9539542830e-01	 2.9811798573e+00
 8.2259484647e-01	 7.0343285050e-01	 2.9253363756e+00
 8.1570868772e-01	 7.1140665350e-01	 2.8656116386e+00
 8.0874294632e-01	 7.1931562976e-01	 2.8019576322e+00
 8.0169854493e-01	 7.2715858859e-01	 2.7343316254e+00
 8.7793678617e-01	 6.5292470575e-01	 2.9677642784e+00
 8.7156295886e-01	 6.6140883882e-01	 2.9300247415e+00
 8.6510285094e-01	 6.6983630835e-01	 2.8890710198e+00
 8.5855721875e-01	 6.7820580455e-01	 2.8448262271e+00
 8.5192684481e-01	 6.8651603085e-01	 2.7972129820e+00
 8.4521253749e-01	 6.9476570460e-01	 2.7461541857e+00
 8.3841513074e-01	 7.0295355769e-01	 2.6915738130e+00
 8.3153548375e-01	 7.1107833721e-01	 2.6333977093e+00
 8.2457448056e-01	 7.1913880606e-01	 2.5715543936e+00
 8.1753302975e-01	 7.2713374357e-01	 2.5059758593e+00
 8.1041206401e-01	 7.3506194613e-01	 2.4365983718e+00
 8.8737631775e-01	 6.5994491891e-01	 2.7147888419e+00
 8.8093395937e-01	 6.6852027294e-01	 2.6735977698e+00
 8.7440439270e-01	 6.7703835420e-01	 2.6294632180e+00
 8.6778838221e-01	 6.8549783879e-01	 2.5822889096e+00
 8.6108671882e-01	 6.9389741622e-01	 2.5319768014e+00
 8.5430021961e-01	 7.0223579004e-01	 2.4784279297e+00
 8.4742972750e-01	 7.1051167851e-01	 2.4215432691e+00
 8.4047611089e-01	 7.1872381525e-01	 2.3612246031e+00
 8.3344026335e-01	 7.2687094985e-01	 2.2973753997e+00
 8.2632310322e-01	 7.3495184852e-01	 2.2299016894e+00
 8.1912557322e-01	 7.4296529471e-01	 2.1588177480e+00
 8.9681585735e-01	 6.6696513803e-01	 2.4777814523e+00
 8.9030496784e-01	 6.7563171311e-01	 2.4336740015e+00
 8.8370594236e-01	 6.8424040616e-01	 2.3868588608e+00
 8.7701955351e-01	 6.9278987923e-01	 2.3372137750e+00
 8.7024660062e-01	 7.0127880786e-01	 2.2846135521e+00
 8.6338790946e-01	 7.0970588183e-01	 2.2289309867e+00
 8.5644433191e-01	 7.1806980576e-01	 2.1700378024e+00
 8.4941674562e-01	 7.2636929978e-01	 2.1078056056e+00
 8.4230605367e-01	 7.3460310021e-01	 2.0421068476e+00
 8.3511318416e-01	 7.4276996011e-01	 1.9729040271e+00
 8.2783908984e-01	 7.5086865000e-01	 1.9019449072e+00
 7.4070218296e-01	 6.7183351817e-01	 5.4572435188e+00
 7.3412306872e-01	 6.7901646159e-01	 5.3873821350e+00
 7.2747306107e-01	 6.8613629255e-01	 5.3099167073e+00
 7.2075306414e-01	 6.9319197316e-01	 5.2247890436e+00
 7.1396400252e-01	 7.0018248325e-01	 5.1319501282e+00
 7.0710682082e-01	 7.0710682082e-01	 5.0313602558e+00
 7.0018248325e-01	 7.1396400252e-01	 4.9229891486e+00
 6.9319197316e-01	 7.2075306414e-01	 4.8068160554e+00
 6.8613629255e-01	 7.2747306107e-01	 4.6828298349e+00
 6.7901646159e-01	 7.3412306872e-01	 4.5510290215e+00
 6.7183351817e-01	 7.4070218296e-01	 4.4114218747e+00
 7.4941625511e-01	 6.7973737735e-01	 4.9921511258e+00
 7.4275974017e-01	 6.8700482530e-01	 4.9228637619e+00
 7.3603149777e-01	 6.9420841829e-01	 4.8456875812e+00
 7.2923244269e-01	 7.0134710623e-01	 4.7614747341e+00
 7.2236351041e-01	 7.0841985695e-01	 4.6702166759e+00
 7.1542565664e-01	 7.1542565664e-01	 4.5718509146e+00
 7.0841985695e-01	 7.2236351041e-01	 4.4663245403e+00
 7.0134710623e-01	 7.2923244269e-01	 4.3535943501e+00
 6.9420841829e-01	 7.3603149777e-01	 4.2336269542e+00
 6.8700482530e-01	 7.4275974017e-01	 4.1064709525e+00
 6.7973737735e-01	 7.4941625511e-01	 3.9731746725e+00
 7.5813019641e-01	 6.8764111784e-01	 4.5543935442e+00
 7.5139628191e-01	 6.9499306905e-01	 4.4857257648e+00
 7.4458980595e-01	 7.0228042281e-01	 4.4095152593e+00
 7.3771169392e-01	 7.0950211684e-01	 4.3256990551e+00
 7.3076289217e-01	 7.1665710695e-01	 4.2352342906e+00
 7.2374436755e-01	 7.2374436755e-01	 4.1382787539e+00
 7.1665710695e-01	 7.3076289217e-01	 4.0347667997e+00
 7.0950211684e-01	 7.3771169392e-01	 3.9246425603e+00
 7.0228042281e-01	 7.4458980595e-01	 3.8081264842e+00
 6.9499306905e-01	 7.5139628191e-01	 3.6863745710e+00
 6.8764111784e-01	 7.5813019641e-01	 3.5593987757e+00
 7.6684402413e-01	 6.9554475532e-01	 4.1427315564e+00
 7.6003271109e-01	 7.0298120868e-01	 4.0741582793e+00
 7.5314800258e-01	 7.1035232213e-01	 3.9986647960e+00
 7.4619083462e-01	 7.1765702116e-01	 3.9160391890e+00
 7.3916216445e-01	 7.2489424958e-01	 3.8261203143e+00
 7.3206297003e-01	 7.3206297003e-01	 3.7298210826e+00
 7.2489424958e-01	 7.3916216445e-01	 3.6275495316e+00
 7.1765702116e-01	 7.4619083462e-01	 3.5197939530e+00
 7.1035232213e-01	 7.5314800258e-01	 3.4076449764e+00
 7.0298120868e-01	 7.6003271109e-01	 3.2909827842e+00
 6.9554475532e-01	 7.6684402413e-01	 3.1696497966e+00
 7.7555775556e-01	 7.0344830545e-01	 3.7559869510e+00
 7.6866904484e-01	 7.1096926004e-01	 3.6870533740e+00
 7.6170610463e-01	 7.1842413225e-01	 3.6117622388e+00
 7.5466988163e-01	 7.2581183536e-01	 3.5299025611e+00
 7.4756134392e-01	 7.3313130119e-01	 3.4412758493e+00
 7.4038148058e-01	 7.4038148058e-01	 3.3456986791e+00
 7.3313130119e-01	 7.4756134392e-01	 3.2448253161e+00
 7.2581183536e-01	 7.5466988163e-01	 3.1403342947e+00
 7.1842413225e-01	 7.6170610463e-01	 3.0320589892e+00
 7.1096926004e-01	 7.6866904484e-01	 2.9198358124e+00
 7.0344830545e-01	 7.7555775556e-01	 2.8035068897e+00
 7.8427140798e-01	 7.1135178393e-01	 3.3930396578e+00
 7.7730530027e-01	 7.1895723897e-01	 3.3233583300e+00
 7.7026412909e-01	 7.2649586918e-01	 3.2478199875e+00
 7.6314885175e-01	 7.3396657562e-01	 3.1662234511e+00
 7.5596044723e-01	 7.4136827812e-01	 3.0783884826e+00
 7.4869991571e-01	 7.4869991571e-01	 2.9853373805e+00
 7.4136827812e-01	 7.5596044723e-01	 2.8876756883e+00
 7.3396657562e-01	 7.6314885175e-01	 2.7859006318e+00
 7.2649586918e-01	 7.7026412909e-01	 2.6808902728e+00
 7.1895723897e-01	 7.7730530027e-01	 2.5724969280e+00
 7.1135178393e-01	 7.8427140798e-01	 2.4605706330e+00
 7.9298499868e-01	 7.1925520641e-01	 3.0528250824e+00
 7.8594149453e-01	 7.2694516132e-01	 2.9820731536e+00
 7.7882209293e-01	 7.3456754893e-01	 2.9059005002e+00
 7.7162776182e-01	 7.4212125812e-01	 2.8241637006e+00
 7.6435949105e-01	 7.4960519669e-01	 2.7381219521e+00
 7.5701829191e-01	 7.5701829191e-01	 2.6482500371e+00
 7.4960519669e-01	 7.6435949105e-01	 2.5542819139e+00
 7.4212125812e-01	 7.7162776182e-01	 2.4559597572e+00
 7.3456754893e-01	 7.7882209293e-01	 2.3536832384e+00
 7.2694516132e-01	 7.8594149453e-01	 2.2485503335e+00
 7.1925520641e-01	 7.9298499868e-01	 2.1404610115e+00
 8.0169854493e-01	 7.2715858859e-01	 2.7343316254e+00
 7.9457764474e-01	 7.3493304292e-01	 2.6622482634e+00
 7.8738001311e-01	 7.4263918751e-01	 2.5851889164e+00
 7.8010662863e-01	 7.5027589902e-01	 2.5045956837e+00
 7.7275849202e-01	 7.5784207325e-01	 2.4208839488e+00
 7.6533662569e-01	 7.6533662569e-01	 2.3338027209e+00
 7.5784207325e-01	 7.7275849202e-01	 2.2431076836e+00
 7.5027589902e-01	 7.8010662863e-01	 2.1485621710e+00
 7.4263918751e-01	 7.8738001311e-01	 2.0499381366e+00
 7.3493304292e-01	 7.9457764474e-01	 1.9475991390e+00
 7.2715858859e-01	 8.0169854493e-01	 1.8428154939e+00
 8.1041206401e-01	 7.3506194613e-01	 2.4365983718e+00
 8.0321376803e-01	 7.4292089962e-01	 2.3630819115e+00
 7.9593790662e-01	 7.5071080093e-01	 2.2866401587e+00
 7.8858546901e-01	 7.5843051450e-01	 2.2076939032e+00
 7.8115746681e-01	 7.6607892414e-01	 2.1260172262e+00
 7.7365493353e-01	 7.7365493353e-01	 2.0413892456e+00
 7.6607892414e-01	 7.8115746681e-01	 1.9535950889e+00
 7.5843051450e-01	 7.8858546901e-01	 1.8624268628e+00
 7.5071080093e-01	 7.9593790662e-01	 1.7676846177e+00
 7.4292089962e-01	 8.0321376803e-01	 1.6691773001e+00
 7.3506194613e-01	 8.1041206401e-01	 1.5672871953e+00
 8.1912557322e-01	 7.4296529471e-01	 2.1588177480e+00
 8.1184988153e-01	 7.5090874727e-01	 2.0855510875e+00
 8.0449579043e-01	 7.5878240520e-01	 2.0102680365e+00
 7.9706429978e-01	 7.6658512073e-01	 1.9327777366e+00
 7.8955643208e-01	 7.7431576568e-01	 1.8528926704e+00
 7.8197323195e-01	 7.8197323195e-01	 1.7704296138e+00
 7.7431576568e-01	 7.8955643208e-01	 1.6852105923e+00
 7.6658512073e-01	 7.9706429978e-01	 1.5970638364e+00
 7.5878240520e-01	 8.0449579043e-01	 1.5058247320e+00
 7.5090874727e-01	 8.1184988153e-01	 1.4113367610e+00
 7.4296529471e-01	 8.1912557322e-01	 1.3134524280e+00
 8.2783908984e-01	 7.5086865000e-01	 1.9019449072e+00
 8.2048600236e-01	 7.5889660170e-01	 1.8295705103e+00
 8.1305368150e-01	 7.6685401632e-01	 1.7553685679e+00
 8.0554313776e-01	 7.7473973390e-01	 1.6791948012e+00
 7.9795540449e-01	 7.8255261423e-01	 1.6009074717e+00
 7.9029153743e-01	 7.9029153743e-01	 1.5203683064e+00
 7.8255261423e-01	 7.9795540449e-01	 1.4374434289e+00
 7.7473973390e-01	 8.0554313776e-01	 1.3520042915e+00
 7.6685401632e-01	 8.1305368150e-01	 1.2639286036e+00
 7.5889660170e-01	 8.2048600236e-01	 1.1731012514e+00
 7.5086865000e-01	 8.2783908984e-01	 1.0794152057e+00
 6.7183351817e-01	 7.4070218296e-01	 4.4114218747e+00
 6.6458728233e-01	 7.4721061873e-01	 4.2643084638e+00
 6.5728005194e-01	 7.5364637927e-01	 4.1100754406e+00
 6.4991292707e-01	 7.6000861212e-01	 3.9487954927e+00
 6.4248702340e-01	 7.6629648686e-01	 3.7805466482e+00
 6.3500347160e-01	 7.7250919548e-01	 3.6054125909e+00
 6.2746341682e-01	 7.7864595270e-01	 3.4234829714e+00
 6.1986801809e-01	 7.8470599631e-01	 3.2348537136e+00
 6.1221844773e-01	 7.9068858747e-01	 3.0396273151e+00
 6.0451589078e-01	 7.9659301098e-01	 2.8379131379e+00
 5.9676154436e-01	 8.0241857555e-01	 2.6298276889e+00
 6.7973737735e-01	 7.4941625511e-01	 3.9731746725e+00
 6.7240589238e-01	 7.5600126009e-01	 3.8335474757e+00
 6.6501269527e-01	 7.6251273484e-01	 3.6872154987e+00
 6.5755889905e-01	 7.6894981688e-01	 3.5342817889e+00
 6.5004563251e-01	 7.7531166601e-01	 3.3748544150e+00
 6.4247403965e-01	 7.8159746472e-01	 3.2090467558e+00
 6.3484527907e-01	 7.8780641850e-01	 3.0369777862e+00
 6.2716052344e-01	 7.9393775617e-01	 2.8587723603e+00
 6.1942095887e-01	 7.9999073018e-01	 2.6745614880e+00
 6.1162778433e-01	 8.0596461692e-01	 2.4844826034e+00
 6.0378221106e-01	 8.1185871699e-01	 2.2886798233e+00
 6.8764111784e-01	 7.5813019641e-01	 3.5593987757e+00
 6.8022438501e-01	 7.6479176945e-01	 3.4265635960e+00
 6.7274522248e-01	 7.7137895727e-01	 3.2874547386e+00
 6.6520475621e-01	 7.7789088737e-01	 3.1421978472e+00
 6.5760412813e-01	 7.8432670979e-01	 2.9909233726e+00
 6.4994449552e-01	 7.9068559750e-01	 2.8337668458e+00
 6.4222703047e-01	 7.9696674674e-01	 2.6708691516e+00
 6.3445291928e-01	 8.0316937739e-01	 2.5023767982e+00
 6.2662336185e-01	 8.0929273319e-01	 2.3284421819e+00
 6.1873957110e-01	 8.1533608213e-01	 2.1492238437e+00
 6.1080277233e-01	 8.2129871666e-01	 1.9648867166e+00
 6.9554475532e-01	 7.6684402413e-01	 3.1696497966e+00
 6.8804277574e-01	 7.7358216423e-01	 3.0429521480e+00
 6.8047764890e-01	 7.8024506414e-01	 2.9104312997e+00
 6.7285051372e-01	 7.8683184133e-01	 2.7722279783e+00
 6.6516252523e-01	 7.9334163606e-01	 2.6284876029e+00
 6.5741485402e-01	 7.9977361181e-01	 2.4793605571e+00
 6.4960868566e-01	 8.0612695559e-01	 2.3250024590e+00
 6.4174522007e-01	 8.1240087828e-01	 2.1655744300e+00
 6.3382567095e-01	 8.1859461496e-01	 2.0012433575e+00
 6.2585126517e-01	 8.2470742519e-01	 1.8321821513e+00
 6.1782324210e-01	 8.3073859329e-01	 1.6585699892e+00
 7.0344830545e-01	 7.7555775556e-01	 2.8035068897e+00
 6.9586108007e-01	 7.8237246187e-01	 2.6823303195e+00
 6.8820998988e-01	 7.8911107304e-01	 2.5558033873e+00
 6.8049618674e-01	 7.9577269649e-01	 2.4240746245e+00
 6.7272083880e-01	 8.0235646272e-01	 2.2872972399e+00
 6.6488512997e-01	 8.0886152571e-01	 2.1456293985e+00
 6.5699025927e-01	 8.1528706321e-01	 1.9992345020e+00
 6.4903744028e-01	 8.2163227717e-01	 1.8482814663e+00
 6.4102790047e-01	 8.2789639394e-01	 1.6929449938e+00
 6.3296288065e-01	 8.3407866470e-01	 1.5334058395e+00
 6.2484363429e-01	 8.4017836561e-01	 1.3698510658e+00
 7.1135178393e-01	 7.8427140798e-01	 2.4605706330e+00
 7.0367931352e-01	 7.9116267981e-01	 2.3443351543e+00
 6.9594226075e-01	 7.9797700154e-01	 2.2232473806e+00
 6.8814179043e-01	 8.0471347057e-01	 2.0974565960e+00
 6.8027908384e-01	 8.1137120764e-01	 1.9671168402e+00
 6.7235533819e-01	 8.1794935719e-01	 1.8323872076e+00
 6.6437176596e-01	 8.2444708778e-01	 1.6934321480e+00
 6.5632959437e-01	 8.3086359234e-01	 1.5504217640e+00
 6.4823006468e-01	 8.3719808858e-01	 1.4035321044e+00
 6.4007443165e-01	 8.4344981923e-01	 1.2529454493e+00
 6.3186396283e-01	 8.4961805234e-01	 1.0988505859e+00
 7.1925520641e-01	 7.9298499868e-01	 2.1404610115e+00
 7.1149749158e-01	 7.9995283548e-01	 2.0286216384e+00
 7.0367447685e-01	 8.0684286724e-01	 1.9124560304e+00
 6.9578733997e-01	 8.1365418132e-01	 1.7921073851e+00
 6.8783727535e-01	 8.2038588869e-01	 1.6677238253e+00
 6.7982549349e-01	 8.2703712430e-01	 1.5394587294e+00
 6.7175322036e-01	 8.3360704745e-01	 1.4074710629e+00
 6.6362169680e-01	 8.4009484213e-01	 1.2719257077e+00
 6.5543217788e-01	 8.4649971733e-01	 1.1329937861e+00
 6.4718593228e-01	 8.5282090737e-01	 9.9085297705e-01
 6.3888424163e-01	 8.5905767219e-01	 8.4568782127e-01
 7.2715858859e-01	 8.0169854493e-01	 1.8428154939e+00
 7.1931562976e-01	 8.0874294632e-01	 1.7348608736e+00
 7.1140665350e-01	 8.1570868772e-01	 1.6231367359e+00
 7.0343285050e-01	 8.2259484647e-01	 1.5077735557e+00
 6.9539542830e-01	 8.2940052377e-01	 1.3889069903e+00
 6.8729561068e-01	 8.3612484506e-01	 1.2666782526e+00
 6.7913463711e-01	 8.4276696041e-01	 1.1412344848e+00
 6.7091376204e-01	 8.4932604483e-01	 1.0127291298e+00
 6.6263425434e-01	 8.5580129863e-01	 8.8132229694e-01
 6.5429739663e-01	 8.6219194772e-01	 7.4718111983e-01
 6.4590448463e-01	 8.6849724389e-01	 6.1048010130e-01
 7.3506194613e-01	 8.1041206401e-01	 1.5672871953e+00
 7.2713374357e-01	 8.1753302975e-01	 1.4627383313e+00
 7.1913880606e-01	 8.2457448056e-01	 1.3550098969e+00
 7.1107833721e-01	 8.3153548375e-01	 1.2442131999e+00
 7.0295355769e-01	 8.3841513074e-01	 1.1304650730e+00
 6.9476570460e-01	 8.4521253749e-01	 1.0138883000e+00
 6.8651603085e-01	 8.5192684481e-01	 8.9461204328e-01
 6.7820580455e-01	 8.5855721875e-01	 7.7277226801e-01
 6.6983630835e-01	 8.6510285094e-01	 6.4851216069e-01
 6.6140883882e-01	 8.7156295886e-01	 5.2198253807e-01
 6.5292470575e-01	 8.7793678617e-01	 3.9334224316e-01
 7.4296529471e-01	 8.1912557322e-01	 1.3134524280e+00
 7.3495184852e-01	 8.2632310322e-01	 1.2119521822e+00
 7.2687094985e-01	 8.3344026335e-01	 1.1078073350e+00
 7.1872381525e-01	 8.4047611089e-01	 1.0011944581e+00
 7.1051167851e-01	 8.4742972750e-01	 8.9220537962e-01
 7.0223579004e-01	 8.5430021961e-01	 7.8093836718e-01
 6.9389741622e-01	 8.6108671882e-01	 6.6749861987e-01
 6.8549783879e-01	 8.6778838221e-01	 5.5199875644e-01
 6.7703835420e-01	 8.7440439270e-01	 4.3455929696e-01
 6.6852027294e-01	 8.8093395937e-01	 3.1530913382e-01
 6.5994491891e-01	 8.8737631775e-01	 1.9438598851e-01
 7.5086865000e-01	 8.2783908984e-01	 1.0794152057e+00
 7.4276996011e-01	 8.3511318416e-01	 9.8213527814e-01
 7.3460310021e-01	 8.4230605367e-01	 8.8127077889e-01
 7.2636929978e-01	 8.4941674562e-01	 7.7849409742e-01
 7.1806980576e-01	 8.5644433191e-01	 6.7394246331e-01
 7.0970588183e-01	 8.6338790946e-01	 5.6768370801e-01
 7.0127880786e-01	 8.7024660062e-01	 4.5979324787e-01
 6.9278987923e-01	 8.7701955351e-01	 3.5035464727e-01
 6.8424040616e-01	 8.8370594236e-01	 2.3946017411e-01
 6.7563171311e-01	 8.9030496784e-01	 1.2721134341e-01
 6.6696513803e-01	 8.9681585735e-01	 1.3719445058e-02
 5.9676154436e-01	 8.0241857555e-01	 2.6298276889e+00
 5.8895794732e-01	 8.0816364470e-01	 2.4158691363e+00
 5.8110500120e-01	 8.1382857572e-01	 2.1965444585e+00
 5.7320393083e-01	 8.1941275406e-01	 1.9720985354e+00
 5.6525597072e-01	 8.2491558997e-01	 1.7427788716e+00
 5.5726236447e-01	 8.3033651862e-01	 1.5088356638e+00
 5.4922436409e-01	 8.3567500029e-01	 1.2705218548e+00
 5.4114322943e-01	 8.4093052051e-01	 1.0280931733e+00
 5.3302022751e-01	 8.4610259018e-01	 7.8180815837e-01
 5.2485663194e-01	 8.5119074566e-01	 5.3192816670e-01
 5.1665372221e-01	 8.5619454885e-01	 2.7871736240e-01
 6.0378221106e-01	 8.1185871699e-01	 2.2886798233e+00
 5.9588680775e-01	 8.1767137463e-01	 2.0876007834e+00
 5.8794147478e-01	 8.2340295135e-01	 1.8816697722e+00
 5.7994745140e-01	 8.2905282537e-01	 1.6711045927e+00
 5.7190598664e-01	 8.3462040000e-01	 1.4561261647e+00
 5.6381833873e-01	 8.4010510375e-01	 1.2369586383e+00
 5.5568577442e-01	 8.4550639058e-01	 1.0138294930e+00
 5.4750956836e-01	 8.5082373994e-01	 7.8696961969e-01
 5.3929100250e-01	 8.5605665700e-01	 5.5661338528e-01
 5.3103136541e-01	 8.6120467264e-01	 3.2299867876e-01
 5.2273195165e-01	 8.6626734362e-01	 8.6366936601e-02
 6.1080277233e-01	 8.2129871666e-01	 1.9648867166e+00
 6.0281556413e-01	 8.2717896179e-01	 1.7758327287e+00
 5.9477784570e-01	 8.3297718321e-01	 1.5824155531e+00
 5.8669087070e-01	 8.3869275192e-01	 1.3848304683e+00
 5.7855590270e-01	 8.4432506429e-01	 1.1832762412e+00
 5.7037421455e-01	 8.4987354219e-01	 9.7795528293e-01
 5.6214708771e-01	 8.5533763323e-01	 7.6907378931e-01
 5.5387581169e-01	 8.6071681081e-01	 5.5684186305e-01
 5.4556168332e-01	 8.6601057433e-01	 3.4147361612e-01
 5.3720600616e-01	 8.7121844924e-01	 1.2318725119e-01
 5.2881008982e-01	 8.7633998713e-01	-9.7794879247e-02
 6.1782324210e-01	 8.3073859329e-01	 1.6585699892e+00
 6.0974423020e-01	 8.3668642502e-01	 1.4807638014e+00
 6.0161412752e-01	 8.4255129027e-01	 1.2990543780e+00
 5.9343420212e-01	 8.4833255282e-01	 1.1136188709e+00
 5.8520573209e-01	 8.5402960209e-01	 9.2463817304e-01
 5.7693000492e-01	 8.5964185332e-01	 7.3229711541e-01
 5.6860831680e-01	 8.6516874774e-01	 5.3678464574e-01
 5.6024197205e-01	 8.7060975274e-01	 3.3829398780e-01
 5.5183228241e-01	 8.7596436193e-01	 1.3702277912e-01
 5.4338056643e-01	 8.8123209532e-01	-6.6826814273e-02
 5.3488814876e-01	 8.8641249935e-01	-2.7304800740e-01
 6.2484363429e-01	 8.4017836561e-01	 1.3698510658e+00
 6.1667281970e-01	 8.4619378319e-01	 1.2025893820e+00
 6.0845033379e-01	 8.5212529154e-01	 1.0318522805e+00
 6.0017745902e-01	 8.5797224720e-01	 8.5780303283e-01
 5.9185548800e-01	 8.6373403265e-01	 6.8060879071e-01
 5.8348572284e-01	 8.6941005650e-01	 5.0044082004e-01
 5.7506947448e-01	 8.7499975362e-01	 3.1747471603e-01
 5.6660806206e-01	 8.8050258534e-01	 1.3189059691e-01
 5.5810281221e-01	 8.8591803953e-01	-5.6126725356e-02
 5.4955505846e-01	 8.9124563075e-01	-2.4638759919e-01
 5.4096614054e-01	 8.9648490027e-01	-4.3869741375e-01
 6.3186396283e-01	 8.4961805234e-01	 1.0988505859e+00
 6.2360134639e-01	 8.5570105516e-01	 9.4150101924e-01
 6.1528647808e-01	 8.6169920600e-01	 7.8106856431e-01
 6.0692065477e-01	 8.6761185417e-01	 6.1770671325e-01
 5.9850518361e-01	 8.7343837522e-01	 4.5157286626e-01
 5.9004138132e-01	 8.7917817110e-01	 2.8282860055e-01
 5.8153057359e-01	 8.8483067035e-01	 1.1163991894e-01
 5.7297409434e-01	 8.9039532824e-01	-6.1822524022e-02
 5.6437328515e-01	 8.9587162689e-01	-2.3738322063e-01
 5.5572949451e-01	 9.0125907538e-01	-4.1486163498e-01
 5.4704407721e-01	 9.0655720985e-01	-5.9407205607e-01
 6.3888424163e-01	 8.5905767219e-01	 8.4568782127e-01
 6.3052982399e-01	 8.6520825977e-01	 6.9768604075e-01
 6.2212257394e-01	 8.7127305263e-01	 5.4695559986e-01
 6.1366380276e-01	 8.7725139286e-01	 3.9364417120e-01
 6.0515483212e-01	 8.8314264905e-01	 2.3790325532e-01
 5.9659699337e-01	 8.8894621651e-01	 7.9888482185e-02
 5.8799162692e-01	 8.9466151745e-01	-8.0240108770e-02
 5.7934008153e-01	 9.0028800106e-01	-2.4231781242e-01
 5.7064371367e-01	 9.0582514373e-01	-4.0617502767e-01
 5.6190388682e-01	 9.1127244908e-01	-5.7163705519e-01
 5.5312197082e-01	 9.1662944809e-01	-7.3852392497e-01
 6.4590448463e-01	 8.6849724389e-01	 6.1048010130e-01
 6.3745826626e-01	 8.7471541589e-01	 4.7132715890e-01
 6.2895863493e-01	 8.8084685044e-01	 3.2975860389e-01
 6.2040691636e-01	 8.8689088237e-01	 1.8592011197e-01
 6.1180444671e-01	 8.9284687337e-01	 3.9961001811e-02
 6.0315257198e-01	 8.9871421210e-01	-1.0796543315e-01
 5.9445264729e-01	 9.0449231440e-01	-2.5770161537e-01
 5.8570603625e-01	 9.1018062343e-01	-4.0908539872e-01
 5.7691411021e-01	 9.1577860980e-01	-5.6194981117e-01
 5.6807824764e-01	 9.2128577170e-01	-7.1612282705e-01
 5.5919983343e-01	 9.2670163496e-01	-8.7142717062e-01
 6.5292470575e-01	 8.7793678617e-01	 3.9334224316e-01
 6.4438668693e-01	 8.8422254238e-01	 2.6260207191e-01
 6.3579467462e-01	 8.9042061840e-01	 1.2971540413e-01
 6.2715000893e-01	 8.9653034184e-01	-5.1703918779e-03
 6.1845404057e-01	 9.0255106745e-01	-1.4190459179e-01
 6.0970813015e-01	 9.0848217724e-01	-2.8033275527e-01
 6.0091364753e-01	 9.1432308071e-01	-4.2029638905e-01
 5.9207197112e-01	 9.2007321495e-01	-5.6163263599e-01
 5.8318448720e-01	 9.2573204485e-01	-7.0417399240e-01
 5.7425258921e-01	 9.3129906311e-01	-8.4774805632e-01
 5.6527767709e-01	 9.3677379042e-01	-9.9217730860e-01
 6.5994491891e-01	 8.8737631775e-01	 1.9438598851e-01
 6.5131509974e-01	 8.9372965809e-01	 7.1683060419e-02
 6.4263070656e-01	 8.9999437550e-01	-5.2943810240e-02
 6.3389309387e-01	 9.0616979038e-01	-1.7934200269e-01
 6.2510362689e-01	 9.1225525053e-01	-3.0735592635e-01
 6.1626368089e-01	 9.1825013131e-01	-4.3682663433e-01
 6.0737464044e-01	 9.2415383587e-01	-5.6759146072e-01
 5.9843789878e-01	 9.2996579527e-01	-6.9948368465e-01
 5.8945485709e-01	 9.3568546861e-01	-8.3233222381e-01
 5.8042692379e-01	 9.4131234317e-01	-9.6596136002e-01
 5.7135551387e-01	 9.4684593447e-01	-1.1001904991e+00
 6.6696513803e-01	 8.9681585735e-01	 1.3719445058e-02
 6.5824351844e-01	 9.0323678187e-01	-1.0126342003e-01
 6.4946674430e-01	 9.0956814074e-01	-2.1799675118e-01
 6.4063618453e-01	 9.1580924711e-01	-3.3631924164e-01
 6.3175321886e-01	 9.2195944185e-01	-4.5606709760e-01
 6.2281923720e-01	 9.2801809367e-01	-5.7707362677e-01
 6.1383563884e-01	 9.3398459938e-01	-6.9916885131e-01
 6.0480383185e-01	 9.3985838398e-01	-8.2217914835e-01
 5.9572523230e-01	 9.4563890083e-01	-9.4592692089e-01
 5.8660126360e-01	 9.5132563174e-01	-1.0702303019e+00
 5.7743335581e-01	 9.5691808708e-01	-1.1949028944e+00
 5.1665372221e-01	 8.5619454885e-01	 2.7871736240e-01
 5.0841278331e-01	 8.6111358749e-01	 2.2510747167e-02
 5.0013510550e-01	 8.6594747579e-01	-2.3635131828e-01
 4.9182198323e-01	 8.7069585389e-01	-4.9759149466e-01
 4.8347471433e-01	 8.7535838762e-01	-7.6092847369e-01
 4.7509459936e-01	 8.7993476851e-01	-1.0260771129e+00
 4.6668294105e-01	 8.8442471375e-01	-1.2927485934e+00
 4.5824104362e-01	 8.8882796619e-01	-1.5606505997e+00
 4.4977021217e-01	 8.9314429419e-01	-1.8294875228e+00
 4.4127175214e-01	 8.9737349163e-01	-2.0989606855e+00
 4.3274696861e-01	 9.0151537777e-01	-2.3687685889e+00
 5.2273195165e-01	 8.6626734362e-01	 8.6366936601e-02
 5.1439406132e-01	 8.7124425283e-01	-1.5295994481e-01
 5.0601899986e-01	 8.7613500994e-01	-3.9464873059e-01
 4.9760807696e-01	 8.8093925085e-01	-6.3843619765e-01
 4.8916260569e-01	 8.8565663747e-01	-8.8405637019e-01
 4.8068390195e-01	 8.9028685769e-01	-1.1312406200e+00
 4.7217328376e-01	 8.9482962539e-01	-1.3797177896e+00
 4.6363207069e-01	 8.9928468037e-01	-1.6292143380e+00
 4.5506158323e-01	 9.0365178829e-01	-1.8794545099e+00
 4.4646314213e-01	 9.0793074059e-01	-2.1301605274e+00
 4.3783806785e-01	 9.1212135440e-01	-2.3810528032e+00
 5.2881008982e-01	 8.7633998713e-01	-9.7794879247e-02
 5.2037524951e-01	 8.8137476603e-01	-3.2118976489e-01
 5.1190280587e-01	 8.8632239110e-01	-5.4669875291e-01
 5.0339408379e-01	 8.9118249399e-01	-7.7407148742e-01
 4.9485041164e-01	 8.9595473267e-01	-1.0030557812e+00
 4.8627312060e-01	 9.0063879142e-01	-1.2333976848e+00
 4.7766354402e-01	 9.0523438079e-01	-1.4648415789e+00
 4.6902301681e-01	 9.0974123753e-01	-1.6971302907e+00
 4.6035287482e-01	 9.1415912460e-01	-1.9300052333e+00
 4.5165445416e-01	 9.1848783101e-01	-2.1632065691e+00
 4.4292909063e-01	 9.2272717177e-01	-2.3964733962e+00
 5.3488814876e-01	 8.8641249935e-01	-2.7304800740e-01
 5.2635635974e-01	 8.9150514720e-01	-4.8141560915e-01
 5.1778653519e-01	 8.9650963948e-01	-6.9168610724e-01
 5.0918001521e-01	 9.0142560362e-01	-9.0362081695e-01
 5.0053814346e-01	 9.0625269366e-01	-1.1169798540e+00
 4.9186226640e-01	 9.1099059023e-01	-1.3315221758e+00
 4.8315373271e-01	 9.1563900057e-01	-1.5470056469e+00
 4.7441389267e-01	 9.2019765841e-01	-1.7631871296e+00
 4.6564409744e-01	 9.2466632397e-01	-1.9798225985e+00
 4.5684569852e-01	 9.2904478384e-01	-2.1966672813e+00
 4.4802004705e-01	 9.3333285090e-01	-2.4134758224e+00
 5.4096614054e-01	 8.9648490027e-01	-4.3869741375e-01
 5.3233740388e-01	 9.0163541643e-01	-6.3290119163e-01
 5.2367019948e-01	 9.0669677529e-01	-8.2882453320e-01
 5.1496588270e-01	 9.1166860006e-01	-1.0262392806e+00
 5.0622581242e-01	 9.1655054084e-01	-1.2249164239e+00
 4.9745135043e-01	 9.2134227465e-01	-1.4246261170e+00
 4.8864386074e-01	 9.2604350537e-01	-1.6251377205e+00
 4.7980470895e-01	 9.3065396373e-01	-1.8262198700e+00
 4.7093526159e-01	 9.3517340722e-01	-2.0276405710e+00
 4.6203688551e-01	 9.3960162001e-01	-2.2291673205e+00
 4.5311094722e-01	 9.4393841284e-01	-2.4305672548e+00
 5.4704407721e-01	 9.0655720985e-01	-5.9407205607e-01
 5.3831839379e-01	 9.1176559380e-01	-7.7493586821e-01
 5.2955381043e-01	 9.1688381874e-01	-9.5735546428e-01
 5.2075169772e-01	 9.2191150363e-01	-1.1411121198e+00
 5.1191342981e-01	 9.2684829466e-01	-1.3259863256e+00
 5.0304038378e-01	 9.3169386521e-01	-1.5117577825e+00
 4.9413393899e-01	 9.3644791584e-01	-1.6982054237e+00
 4.8519547635e-01	 9.4111017425e-01	-1.8851074652e+00
 4.7622637777e-01	 9.4568039521e-01	-2.0722414855e+00
 4.6722802543e-01	 9.5015836046e-01	-2.2593845328e+00
 4.5820180122e-01	 9.5454387862e-01	-2.4463132614e+00
 5.5312197082e-01	 9.1662944809e-01	-7.3852392497e-01
 5.4429934133e-01	 9.2189569941e-01	-9.0683356070e-01
 5.3543737970e-01	 9.2707079001e-01	-1.0765468132e+00
 5.2653747175e-01	 9.3215433464e-01	-1.2474533477e+00
 5.1760100691e-01	 9.3714597553e-01	-1.4193418370e+00
 5.0862937755e-01	 9.4204538243e-01	-1.5919999373e+00
 4.9962397834e-01	 9.4685225260e-01	-1.7652142936e+00
 4.9058620556e-01	 9.5156631070e-01	-1.9387705769e+00
 4.8151745646e-01	 9.5618730877e-01	-2.1124535511e+00
 4.7241912858e-01	 9.6071502612e-01	-2.2860471719e+00
 4.6329261916e-01	 9.6514926926e-01	-2.4593347160e+00
 5.5919983343e-01	 9.2670163496e-01	-8.7142717062e-01
 5.5028025836e-01	 9.3202575335e-01	-1.0279317733e+00
 5.4132091896e-01	 9.3725770933e-01	-1.1856918580e+00
 5.3232321627e-01	 9.4239711340e-01	-1.3445044850e+00
 5.2328855499e-01	 9.4744360387e-01	-1.5041652434e+00
 5.1421834280e-01	 9.5239684686e-01	-1.6644682105e+00
 5.0511398969e-01	 9.5725653630e-01	-1.8252059441e+00
 4.9597690727e-01	 9.6202239382e-01	-1.9861695086e+00
 4.8680850816e-01	 9.6669416873e-01	-2.1471485350e+00
 4.7761020525e-01	 9.7127163794e-01	-2.3079313144e+00
 4.6838341113e-01	 9.7575460582e-01	-2.4683049260e+00
 5.6527767709e-01	 9.3677379042e-01	-9.9217730860e-01
 5.5626115675e-01	 9.4215577571e-01	-1.1375906945e+00
 5.4720443988e-01	 9.4744459690e-01	-1.2841082210e+00
 5.3810894276e-01	 9.5263986024e-01	-1.4315333969e+00
 5.2897608535e-01	 9.5774120011e-01	-1.5796675143e+00
 5.1980729063e-01	 9.6274827903e-01	-1.7283095935e+00
 5.1060398392e-01	 9.6766078756e-01	-1.8772563653e+00
 5.0136759218e-01	 9.7247844434e-01	-2.0263022898e+00
 4.9209954336e-01	 9.7720099595e-01	-2.1752396125e+00
 4.8280126574e-01	 9.8182821686e-01	-2.3238584580e+00
 4.7347418723e-01	 9.8635990932e-01	-2.4719469604e+00
 5.7135551387e-01	 9.4684593447e-01	-1.1001904991e+00
 5.6224204835e-01	 9.5228578659e-01	-1.2351923787e+00
 5.5308795413e-01	 9.5763147291e-01	-1.3711369342e+00
 5.4389466269e-01	 9.6288259546e-01	-1.5078332252e+00
 5.3466360926e-01	 9.6803878468e-01	-1.6450870844e+00
 5.2539623213e-01	 9.7309969946e-01	-1.7827010521e+00
 5.1609397193e-01	 9.7806502703e-01	-1.9204743506e+00
 5.0675827098e-01	 9.8293448301e-01	-2.0582028993e+00
 4.9739057257e-01	 9.8770781125e-01	-2.1956793707e+00
 4.8799232034e-01	 9.9238478381e-01	-2.3326932880e+00
 4.7856495755e-01	 9.9696520079e-01	-2.4690311634e+00
 5.7743335581e-01	 9.5691808708e-01	-1.1949028944e+00
 5.6822294504e-01	 9.6241580608e-01	-1.3201399999e+00
 5.5897147338e-01	 9.6781835759e-01	-1.4461415847e+00
 5.4968038753e-01	 9.7312533939e-01	-1.5727214073e+00
 5.4035113800e-01	 9.7833637800e-01	-1.6996887303e+00
 5.3098517837e-01	 9.8345112868e-01	-1.8268482446e+00
 5.2158396461e-01	 9.8846927534e-01	-1.9540000398e+00
 5.1214895436e-01	 9.9339053057e-01	-2.0809396180e+00
 5.0268160628e-01	 9.9821463549e-01	-2.2074579542e+00
 4.9318337935e-01	 1.0029413597e+00	-2.3333416011e+00
 4.8365573221e-01	 1.0075705013e+00	-2.4583728399e+00
 4.3274696861e-01	 9.0151537777e-01	-2.3687685889e+00
 4.2419571008e-01	 9.0557047888e-01	-2.6385747576e+00
 4.1562072663e-01	 9.0953795245e-01	-2.9079686977e+00
 4.0702331907e-01	 9.1341769248e-01	-3.1766770033e+00
 3.9840478557e-01	 9.1720961780e-01	-3.4444310063e+00
 3.8976642107e-01	 9.2091367195e-01	-3.7109669859e+00
 3.8110951670e-01	 9.2452982293e-01	-3.9760263867e+00
 3.7243535926e-01	 9.2805806304e-01	-4.2393560466e+00
 3.6374523066e-01	 9.3149840861e-01	-4.5005450681e+00
 3.5504040738e-01	 9.3485089983e-01	-4.7589676766e+00
 3.4632215993e-01	 9.3811560045e-01	-5.0143650653e+00
 4.3783806785e-01	 9.1212135440e-01	-2.3810528032e+00
 4.2918620710e-01	 9.1622416219e-01	-2.6319032747e+00
 4.2051034231e-01	 9.2023831154e-01	-2.8824013102e+00
 4.1181178961e-01	 9.2416369520e-01	-3.1322729022e+00
 4.0309186243e-01	 9.2800023104e-01	-3.3812478078e+00
 3.9435187093e-01	 9.3174786194e-01	-3.6290597863e+00
 3.8559312146e-01	 9.3540655553e-01	-3.8754468490e+00
 3.7681691595e-01	 9.3897630400e-01	-4.1201515200e+00
 3.6802455138e-01	 9.4245712390e-01	-4.3628999343e+00
 3.5921731924e-01	 9.4584905587e-01	-4.6030376172e+00
 3.5039650501e-01	 9.4915216442e-01	-4.8401621559e+00
 4.4292909063e-01	 9.2272717177e-01	-2.3964733962e+00
 4.3417662917e-01	 9.2687768552e-01	-2.6296530097e+00
 4.2539988457e-01	 9.3093850995e-01	-2.8625060367e+00
 4.1660018824e-01	 9.3490953655e-01	-3.0947618522e+00
 4.0777886890e-01	 9.3879068224e-01	-3.3261527049e+00
 3.9893725194e-01	 9.4258188924e-01	-3.5564139758e+00
 3.9007665890e-01	 9.4628312479e-01	-3.7852844523e+00
 3.8119840684e-01	 9.4989438101e-01	-4.0125066151e+00
 3.7230380783e-01	 9.5341567462e-01	-4.2378269381e+00
 3.6339416838e-01	 9.5684704675e-01	-4.4608087625e+00
 3.5447078891e-01	 9.6018856265e-01	-4.6808008923e+00
 4.4802004705e-01	 9.3333285090e-01	-2.4134758224e+00
 4.3916698620e-01	 9.3753107000e-01	-2.6301445355e+00
 4.3028936309e-01	 9.4163856890e-01	-2.8464832815e+00
 4.2138852445e-01	 9.4565523784e-01	-3.0622286181e+00
 4.1246581427e-01	 9.4958099281e-01	-3.2771191645e+00
 4.0352257318e-01	 9.5341577533e-01	-3.4908958744e+00
 3.9456013789e-01	 9.5715955230e-01	-3.7033023266e+00
 3.8557984062e-01	 9.6081231571e-01	-3.9140850317e+00
 3.7658300850e-01	 9.6437408251e-01	-4.1229937532e+00
 3.6757096308e-01	 9.6784489429e-01	-4.3297507930e+00
 3.5854501971e-01	 9.7122481704e-01	-4.5336626053e+00
 4.5311094722e-01	 9.4393841284e-01	-2.4305672548e+00
 4.4415728808e-01	 9.4818433676e-01	-2.6317657822e+00
 4.3517878758e-01	 9.5233850961e-01	-2.8326062545e+00
 4.2617680775e-01	 9.5640082039e-01	-3.0328360370e+00
 4.1715270785e-01	 9.6037118414e-01	-3.2322038195e+00
 4.0810784375e-01	 9.6424954171e-01	-3.4304598967e+00
 3.9904356734e-01	 9.6803585961e-01	-3.6273564687e+00
 3.8996122597e-01	 9.7173012978e-01	-3.8226479603e+00
 3.8086216189e-01	 9.7533236932e-01	-4.0160913575e+00
 3.7174771162e-01	 9.7884262030e-01	-4.2074465596e+00
 3.6261920547e-01	 9.8226094948e-01	-4.3962391283e+00
 4.5820180122e-01	 9.5454387862e-01	-2.4463132614e+00
 4.4914754470e-01	 9.5883750692e-01	-2.6329683802e+00
 4.4006816773e-01	 9.6303835330e-01	-2.8192169930e+00
 4.3096504763e-01	 9.6714630551e-01	-3.0048207299e+00
 4.2183955893e-01	 9.7116127763e-01	-3.1895418804e+00
 4.1269307273e-01	 9.7508320985e-01	-3.3731436740e+00
 4.0352695613e-01	 9.7891206831e-01	-3.5553905842e+00
 3.9434257160e-01	 9.8264784485e-01	-3.7360486540e+00
 3.8514127647e-01	 9.8629055676e-01	-3.9148858408e+00
 3.7592442228e-01	 9.8984024659e-01	-4.0916723800e+00
 3.6669335430e-01	 9.9329698185e-01	-4.2661264498e+00
 4.6329261916e-01	 9.6514926926e-01	-2.4593347160e+00
 4.5413776598e-01	 9.6949060161e-01	-2.6322642600e+00
 4.4495751325e-01	 9.7373812119e-01	-2.8047226603e+00
 4.3575325359e-01	 9.7789171451e-01	-2.9764891096e+00
 4.2652637681e-01	 9.8195129469e-01	-3.1473428622e+00
 4.1727826924e-01	 9.8591680126e-01	-3.3170635097e+00
 4.0801031316e-01	 9.8978819997e-01	-3.4854312811e+00
 3.9872388620e-01	 9.9356548258e-01	-3.6522273680e+00
 3.8942036074e-01	 9.9724866657e-01	-3.8172342725e+00
 3.8010110336e-01	 1.0008377950e+00	-3.9802361755e+00
 3.7076747426e-01	 1.0043329360e+00	-4.1410193245e+00
 4.6838341113e-01	 9.7575460582e-01	-2.4683049260e+00
 4.5912796180e-01	 9.8014364197e-01	-2.6282224873e+00
 4.4984683382e-01	 9.8443783451e-01	-2.7875920995e+00
 4.4054143512e-01	 9.8863706870e-01	-2.9462136620e+00
 4.3121317078e-01	 9.9274125671e-01	-3.1038866033e+00
 4.2186344235e-01	 9.9675033740e-01	-3.2604101442e+00
 4.1249364732e-01	 1.0006642762e+00	-3.4155835885e+00
 4.0310517844e-01	 1.0044830646e+00	-3.5692066412e+00
 3.9369942318e-01	 1.0082067205e+00	-3.7210797534e+00
 3.8427776313e-01	 1.0118352873e+00	-3.8710044891e+00
 3.7484157345e-01	 1.0153688340e+00	-4.0187839157e+00
 4.7347418723e-01	 9.8635990932e-01	-2.4719469604e+00
 4.6411814207e-01	 9.9079664912e-01	-2.6194663177e+00
 4.5473613916e-01	 9.9513751448e-01	-2.7663526230e+00
 4.4532960173e-01	 9.9938238940e-01	-2.9124294804e+00
 4.3589995014e-01	 1.0035311851e+00	-3.0575195525e+00
 4.2644860118e-01	 1.0075838398e+00	-3.2014448036e+00
 4.1697696750e-01	 1.0115403184e+00	-3.3440267752e+00
 4.0748645702e-01	 1.0154006126e+00	-3.4850868918e+00
 3.9797847228e-01	 1.0191647403e+00	-3.6244467951e+00
 3.8845440988e-01	 1.0228327453e+00	-3.7619287058e+00
 3.7891565993e-01	 1.0264046975e+00	-3.8973558092e+00
 4.7856495755e-01	 9.9696520079e-01	-2.4690311634e+00
 4.6910831667e-01	 1.0014496442e+00	-2.6046704531e+00
 4.5962543895e-01	 1.0058371823e+00	-2.7395870209e+00
 4.5011776291e-01	 1.0101276979e+00	-2.8736310343e+00
 4.4058672418e-01	 1.0143211013e+00	-3.0066513063e+00
 4.3103375480e-01	 1.0184173299e+00	-3.1384955130e+00
 4.2146028261e-01	 1.0224163484e+00	-3.2690104471e+00
 4.1186773064e-01	 1.0263181483e+00	-3.3980423049e+00
 4.0225751653e-01	 1.0301227476e+00	-3.5254370060e+00
 3.9263105190e-01	 1.0338301908e+00	-3.6510405421e+00
 3.8298974179e-01	 1.0374405485e+00	-3.7746993541e+00
 4.8365573221e-01	 1.0075705013e+00	-2.4583728399e+00
 4.7409849552e-01	 1.0121026483e+00	-2.5825584856e+00
 4.6451474289e-01	 1.0165368592e+00	-2.7059307717e+00
 4.5490592816e-01	 1.0208730156e+00	-2.8283691546e+00
 4.4527350221e-01	 1.0251110266e+00	-2.9497513769e+00
 4.3561891232e-01	 1.0292508292e+00	-3.0699536542e+00
 4.2594360152e-01	 1.0332923876e+00	-3.1888509002e+00
 4.1624900798e-01	 1.0372356932e+00	-3.3063169900e+00
 4.0653656441e-01	 1.0410807643e+00	-3.4222250579e+00
 3.9680769746e-01	 1.0448276457e+00	-3.5364478291e+00
 3.8706382711e-01	 1.0484764088e+00	-3.6488579826e+00
 3.4632215993e-01	 9.3811560045e-01	-5.0143650653e+00
 3.3759323727e-01	 9.4129206486e-01	-5.2666761905e+00
 3.2885341468e-01	 9.4438096497e-01	-5.5158812665e+00
 3.2010394073e-01	 9.4738243296e-01	-5.7616894050e+00
 3.1134605611e-01	 9.5029662344e-01	-6.0038265069e+00
 3.0258099304e-01	 9.5312371316e-01	-6.2420353584e+00
 2.9380997494e-01	 9.5586390071e-01	-6.4760756909e+00
 2.8503421588e-01	 9.5851740614e-01	-6.7057242073e+00
 2.7625492019e-01	 9.6108447067e-01	-6.9307745729e+00
 2.6747328204e-01	 9.6356535632e-01	-7.1510373740e+00
 2.5869048500e-01	 9.6596034556e-01	-7.3663400440e+00
 3.5039650501e-01	 9.4915216442e-01	-4.8401621559e+00
 3.4156488998e-01	 9.5236599868e-01	-5.0742950936e+00
 3.3272224679e-01	 9.5549123850e-01	-5.3055098275e+00
 3.2386983870e-01	 9.5852801759e-01	-5.5335340282e+00
 3.1500892097e-01	 9.6147649238e-01	-5.7581104094e+00
 3.0614074036e-01	 9.6433684171e-01	-5.9789968423e+00
 2.9726653465e-01	 9.6710926650e-01	-6.1959664368e+00
 2.8838753220e-01	 9.6979398938e-01	-6.4088075879e+00
 2.7950495152e-01	 9.7239125442e-01	-6.6173239895e+00
 2.7062000082e-01	 9.7490132673e-01	-6.8213346151e+00
 2.6173387761e-01	 9.7732449209e-01	-7.0206736679e+00
 3.5447078891e-01	 9.6018856265e-01	-4.6808008923e+00
 3.4553648306e-01	 9.6343976622e-01	-4.8978772205e+00
 3.3659102080e-01	 9.6660134519e-01	-5.1121854131e+00
 3.2763568010e-01	 9.6967343485e-01	-5.3234722246e+00
 3.1867173083e-01	 9.7265619344e-01	-5.5314979722e+00
 3.0970043422e-01	 9.7554980188e-01	-5.7360366643e+00
 3.0072304245e-01	 9.7835446342e-01	-5.9368760961e+00
 2.9174079817e-01	 9.8107040329e-01	-6.1338179110e+00
 2.8275493405e-01	 9.8369786839e-01	-6.3266776300e+00
 2.7376667236e-01	 9.8623712691e-01	-6.5152846489e+00
 2.6477722451e-01	 9.8868846796e-01	-6.6994822048e+00
 3.5854501971e-01	 9.7122481704e-01	-4.5336626053e+00
 3.4950802436e-01	 9.7451338942e-01	-4.7347213590e+00
 3.4045974438e-01	 9.7771130708e-01	-4.9331331241e+00
 3.3140147243e-01	 9.8081870685e-01	-5.1286641997e+00
 3.2233449294e-01	 9.8383574880e-01	-5.3210932288e+00
 3.1326008168e-01	 9.8676261591e-01	-5.5102113353e+00
 3.0417950520e-01	 9.8959951378e-01	-5.6958222281e+00
 2.9509402043e-01	 9.9234667023e-01	-5.8777422717e+00
 2.8600487423e-01	 9.9500433500e-01	-6.0558005250e+00
 2.7691330288e-01	 9.9757277935e-01	-6.2298387484e+00
 2.6782053175e-01	 1.0000522957e+00	-6.3997113803e+00
 3.6261920547e-01	 9.8226094948e-01	-4.3962391283e+00
 3.5347952177e-01	 9.8558689026e-01	-4.5822409994e+00
 3.4432842521e-01	 9.8882114621e-01	-4.7656965485e+00
 3.3516722314e-01	 9.9196385569e-01	-4.9463920192e+00
 3.2599721459e-01	 9.9501518061e-01	-5.1241250364e+00
 3.1681968980e-01	 9.9797530603e-01	-5.2987047471e+00
 3.0763592975e-01	 1.0008444399e+00	-5.4699519268e+00
 2.9844720564e-01	 1.0036228126e+00	-5.6376990542e+00
 2.8925477848e-01	 1.0063106767e+00	-5.8017903526e+00
 2.8005989863e-01	 1.0089083065e+00	-5.9620818010e+00
 2.7086380537e-01	 1.0114159979e+00	-6.1184411136e+00
 3.6669335430e-01	 9.9329698185e-01	-4.2661264498e+00
 3.5745098318e-01	 9.9666029070e-01	-4.4379577665e+00
 3.4819707097e-01	 9.9993088460e-01	-4.6073309970e+00
 3.3893293970e-01	 1.0031089035e+00	-4.7740526697e+00
 3.2965990302e-01	 1.0061945111e+00	-4.9379399844e+00
 3.2037926565e-01	 1.0091878945e+00	-5.0988209502e+00
 3.1109232297e-01	 1.0120892640e+00	-5.2565344906e+00
 3.0180036045e-01	 1.0148988527e+00	-5.4109305146e+00
 2.9250465328e-01	 1.0176169158e+00	-5.5618699561e+00
 2.8320646585e-01	 1.0202437309e+00	-5.7092247818e+00
 2.7390705139e-01	 1.0227795971e+00	-5.8528779684e+00
 3.7076747426e-01	 1.0043329360e+00	-4.1410193245e+00
 3.6142241645e-01	 1.0077336127e+00	-4.2994952847e+00
 3.5206568931e-01	 1.0110405443e+00	-4.4555971841e+00
 3.4269862959e-01	 1.0142538723e+00	-4.6091515773e+00
 3.3332256550e-01	 1.0173737623e+00	-4.7599957704e+00
 3.2393881629e-01	 1.0204004035e+00	-4.9079774090e+00
 3.1454869170e-01	 1.0233340085e+00	-5.0529545759e+00
 3.0515349150e-01	 1.0261748129e+00	-5.1947958534e+00
 2.9575450505e-01	 1.0289230749e+00	-5.3333803552e+00
 2.8635301079e-01	 1.0315790750e+00	-5.4685977242e+00
 2.7695027585e-01	 1.0341431157e+00	-5.6003481011e+00
 3.7484157345e-01	 1.0153688340e+00	-4.0187839157e+00
 3.6539382946e-01	 1.0188068782e+00	-4.1645734411e+00
 3.5593428793e-01	 1.0221501473e+00	-4.3081553201e+00
 3.4646430027e-01	 1.0253987843e+00	-4.4492965474e+00
 3.3698520930e-01	 1.0285529566e+00	-4.5878550078e+00
 3.2749834877e-01	 1.0316128554e+00	-4.7236986952e+00
 3.1800504280e-01	 1.0345786956e+00	-4.8567057962e+00
 3.0850660545e-01	 1.0374507156e+00	-4.9867647398e+00
 2.9900434024e-01	 1.0402291763e+00	-5.1137742139e+00
 2.8949953967e-01	 1.0429143613e+00	-5.2376431489e+00
 2.7999348479e-01	 1.0455065764e+00	-5.3582906702e+00
 3.7891565993e-01	 1.0264046975e+00	-3.8973558092e+00
 3.6936523009e-01	 1.0298801092e+00	-4.0310030185e+00
 3.5980287448e-01	 1.0332597157e+00	-4.1627595838e+00
 3.5022995921e-01	 1.0365436616e+00	-4.2921920951e+00
 3.4064784169e-01	 1.0397321160e+00	-4.4191794325e+00
 3.3105787015e-01	 1.0428252723e+00	-4.5436105888e+00
 3.2146138312e-01	 1.0458233477e+00	-4.6653847356e+00
 3.1185970895e-01	 1.0487265831e+00	-4.7844112536e+00
 3.0225416531e-01	 1.0515352424e+00	-4.9006097292e+00
 2.9264605875e-01	 1.0542496123e+00	-5.0139099170e+00
 2.8303668424e-01	 1.0568700017e+00	-5.1242516708e+00
 3.8298974179e-01	 1.0374405485e+00	-3.7746993541e+00
 3.7333662622e-01	 1.0409533277e+00	-3.8967166333e+00
 3.6367145665e-01	 1.0443692715e+00	-4.0172529465e+00
 3.5399561388e-01	 1.0476885262e+00	-4.1356341375e+00
 3.4431046992e-01	 1.0509112627e+00	-4.2517244787e+00
 3.3461738750e-01	 1.0540376764e+00	-4.3654345550e+00
 3.2491771953e-01	 1.0570679871e+00	-4.4766853423e+00
 3.1521280865e-01	 1.0600024379e+00	-4.5854082136e+00
 3.0550398669e-01	 1.0628412958e+00	-4.6915449100e+00
 2.9579257426e-01	 1.0655848504e+00	-4.7950474761e+00
 2.8607988024e-01	 1.0682334141e+00	-4.8958781628e+00
 3.8706382711e-01	 1.0484764088e+00	-3.6488579826e+00
 3.7730802572e-01	 1.0520265555e+00	-3.7597863832e+00
 3.6754004210e-01	 1.0554788368e+00	-3.8695623228e+00
 3.5776127175e-01	 1.0588334003e+00	-3.9775050189e+00
 3.4797310126e-01	 1.0620904189e+00	-4.0833341966e+00
 3.3817690787e-01	 1.0652500901e+00	-4.1869825692e+00
 3.2837405888e-01	 1.0683126359e+00	-4.2883936775e+00
 3.1856591119e-01	 1.0712783023e+00	-4.3875218651e+00
 3.0875381083e-01	 1.0741473587e+00	-4.4843322182e+00
 2.9893909244e-01	 1.0769200981e+00	-4.5788004691e+00
 2.8912307883e-01	 1.0795968361e+00	-4.6709128647e+00
 2.5869048500e-01	 9.6596034556e-01	-7.3663400440e+00
 2.4990770180e-01	 9.6826974115e-01	-7.5763750969e+00
 2.4112609427e-01	 9.7049386637e-01	-7.7807937685e+00
 2.3234681259e-01	 9.7263306406e-01	-7.9793861319e+00
 2.2357099480e-01	 9.7468769596e-01	-8.1719581798e+00
 2.1479976648e-01	 9.7665814235e-01	-8.3583317296e+00
 2.0603424041e-01	 9.7854480164e-01	-8.5383443019e+00
 1.9727551623e-01	 9.8034808995e-01	-8.7118489720e+00
 1.8852468015e-01	 9.8206844073e-01	-8.8787141966e+00
 1.7978280468e-01	 9.8370630427e-01	-9.0388236180e+00
 1.7105094831e-01	 9.8526214738e-01	-9.1920758439e+00
 2.6173387761e-01	 9.7732449209e-01	-7.0206736679e+00
 2.5284776839e-01	 9.7966105681e-01	-7.2150263725e+00
 2.4396284868e-01	 9.8191134800e-01	-7.4040539166e+00
 2.3508028217e-01	 9.8407571251e-01	-7.5875772415e+00
 2.2620122031e-01	 9.8615451635e-01	-7.7654324349e+00
 2.1732680192e-01	 9.8814814427e-01	-7.9374706128e+00
 2.0845815286e-01	 9.9005699937e-01	-8.1035577751e+00
 1.9959638570e-01	 9.9188150267e-01	-8.2635746356e+00
 1.9074259946e-01	 9.9362209270e-01	-8.4174164280e+00
 1.8189787923e-01	 9.9527922507e-01	-8.5649926891e+00
 1.7306329598e-01	 9.9685337206e-01	-8.7062270205e+00
 2.6477722451e-01	 9.8868846796e-01	-6.6994822048e+00
 2.5578779084e-01	 9.9105220141e-01	-6.8789669506e+00
 2.4679956049e-01	 9.9332865817e-01	-7.0534241441e+00
 2.3781371071e-01	 9.9551818913e-01	-7.2227011675e+00
 2.2883140633e-01	 9.9762116455e-01	-7.3866598342e+00
 2.1985379941e-01	 9.9963797366e-01	-7.5451762510e+00
 2.1088202890e-01	 1.0015690242e+00	-7.6981406553e+00
 2.0191722032e-01	 1.0034147422e+00	-7.8454572270e+00
 1.9296048545e-01	 1.0051755712e+00	-7.9870438767e+00
 1.8401292202e-01	 1.0068519721e+00	-8.1228320125e+00
 1.7507561343e-01	 1.0084444227e+00	-8.2527662855e+00
 2.6782053175e-01	 1.0000522957e+00	-6.3997113803e+00
 2.5872777496e-01	 1.0024431975e+00	-6.5651409506e+00
 2.4963623532e-01	 1.0047458195e+00	-6.7258468066e+00
 2.4054710362e-01	 1.0069605166e+00	-6.8816984997e+00
 2.3146155807e-01	 1.0090876633e+00	-7.0325793535e+00
 2.2238076396e-01	 1.0111276533e+00	-7.1783863115e+00
 2.1330587335e-01	 1.0130808991e+00	-7.3190297587e+00
 2.0423802470e-01	 1.0149478314e+00	-7.4544333194e+00
 1.9517834254e-01	 1.0167288991e+00	-7.5845336311e+00
 1.8612793724e-01	 1.0184245683e+00	-7.7092800979e+00
 1.7708790465e-01	 1.0200353222e+00	-7.8286346229e+00
 2.7086380537e-01	 1.0114159979e+00	-6.1184411136e+00
 2.6166772659e-01	 1.0138340678e+00	-6.2706270694e+00
 2.5247287881e-01	 1.0161628547e+00	-6.4183992106e+00
 2.4328046632e-01	 1.0184027177e+00	-6.5616451339e+00
 2.3409168074e-01	 1.0205540353e+00	-6.7002656057e+00
 2.2490770059e-01	 1.0226172060e+00	-6.8341743982e+00
 2.1572969102e-01	 1.0245926467e+00	-6.9632981001e+00
 2.0655880342e-01	 1.0264807932e+00	-7.0875759029e+00
 1.9739617512e-01	 1.0282820993e+00	-7.2069593645e+00
 1.8824292909e-01	 1.0299970366e+00	-7.3214121515e+00
 1.7910017363e-01	 1.0316260937e+00	-7.4309097621e+00
 2.7390705139e-01	 1.0227795971e+00	-5.8528779684e+00
 2.6460765157e-01	 1.0252248348e+00	-5.9926310198e+00
 2.5530949658e-01	 1.0275797864e+00	-6.1282860384e+00
 2.4601380425e-01	 1.0298448150e+00	-6.2597446846e+00
 2.3672177956e-01	 1.0320203034e+00	-6.3869212412e+00
 2.2743461431e-01	 1.0341066545e+00	-6.5097424419e+00
 2.1815348671e-01	 1.0361042899e+00	-6.6281472744e+00
 2.0887956110e-01	 1.0380136504e+00	-6.7420867592e+00
 1.9961398759e-01	 1.0398351948e+00	-6.8515237050e+00
 1.9035790176e-01	 1.0415693999e+00	-6.9564324443e+00
 1.8111242437e-01	 1.0432167601e+00	-7.0567985483e+00
 2.7695027585e-01	 1.0341431157e+00	-5.6003481011e+00
 2.6754755572e-01	 1.0366155211e+00	-5.7284784663e+00
 2.5814609426e-01	 1.0389966372e+00	-5.8528322726e+00
 2.4874712280e-01	 1.0412868312e+00	-5.9733213979e+00
 2.3935185975e-01	 1.0434864903e+00	-6.0898698505e+00
 2.2996151012e-01	 1.0455960216e+00	-6.2024135931e+00
 2.2057726523e-01	 1.0476158516e+00	-6.3109003418e+00
 2.1120030234e-01	 1.0495464259e+00	-6.4152893402e+00
 2.0183178435e-01	 1.0513882084e+00	-6.5155511108e+00
 1.9247285944e-01	 1.0531416813e+00	-6.6116671856e+00
 1.8312466084e-01	 1.0548073444e+00	-6.7036298163e+00
 2.7999348479e-01	 1.0455065764e+00	-5.3582906702e+00
 2.7048744488e-01	 1.0480061493e+00	-5.4756084238e+00
 2.6098267746e-01	 1.0504134298e+00	-5.5894765830e+00
 2.5148042742e-01	 1.0527287891e+00	-5.6998135280e+00
 2.4198192653e-01	 1.0549526187e+00	-5.8065493309e+00
 2.3248839305e-01	 1.0570853301e+00	-5.9096255800e+00
 2.2300103138e-01	 1.0591273546e+00	-6.0089951775e+00
 2.1352103174e-01	 1.0610791426e+00	-6.1046221123e+00
 2.0404956979e-01	 1.0629411631e+00	-6.1964812100e+00
 1.9458780634e-01	 1.0647139037e+00	-6.2845578614e+00
 1.8513688706e-01	 1.0663978695e+00	-6.3688477312e+00
 2.8303668424e-01	 1.0568700017e+00	-5.1242516708e+00
 2.7342732488e-01	 1.0593967420e+00	-5.2315670817e+00
 2.6381925183e-01	 1.0618301868e+00	-5.3357651414e+00
 2.5421372352e-01	 1.0641707113e+00	-5.4367671413e+00
 2.4461198511e-01	 1.0664187113e+00	-5.5345056810e+00
 2.3501526809e-01	 1.0685746028e+00	-5.6289244948e+00
 2.2542478998e-01	 1.0706388217e+00	-5.7199782519e+00
 2.1584175391e-01	 1.0726118233e+00	-5.8076323310e+00
 2.0626734832e-01	 1.0744940818e+00	-5.8918625720e+00
 1.9670274664e-01	 1.0762860900e+00	-5.9726550048e+00
 1.8714910700e-01	 1.0779883586e+00	-6.0500055587e+00
 2.8607988024e-01	 1.0682334141e+00	-4.8958781628e+00
 2.7636720154e-01	 1.0707873217e+00	-4.9940020229e+00
 2.6665582298e-01	 1.0732469309e+00	-5.0893458303e+00
 2.5694701652e-01	 1.0756126206e+00	-5.1818303173e+00
 2.4724204070e-01	 1.0778847909e+00	-5.2713871934e+00
 2.3754214028e-01	 1.0800638624e+00	-5.3579589783e+00
 2.2784854584e-01	 1.0821502757e+00	-5.4414988080e+00
 2.1816247345e-01	 1.0841444909e+00	-5.5219702136e+00
 2.0848512433e-01	 1.0860469874e+00	-5.5993468771e+00
 1.9881768455e-01	 1.0878582632e+00	-5.6736123638e+00
 1.8916132466e-01	 1.0895788344e+00	-5.7447598351e+00
 2.8912307883e-01	 1.0795968361e+00	-4.6709128647e+00
 2.7930708070e-01	 1.0821779112e+00	-4.7606568080e+00
 2.6949239654e-01	 1.0846636846e+00	-4.8479628190e+00
 2.5968031184e-01	 1.0870545395e+00	-4.9327477149e+00
 2.4987209853e-01	 1.0893508803e+00	-5.0149390128e+00
 2.4006901461e-01	 1.0915531319e+00	-5.0944747719e+00
 2.3027230375e-01	 1.0936617395e+00	-5.1713034081e+00
 2.2048319495e-01	 1.0956771684e+00	-5.2453834807e+00
 2.1070290223e-01	 1.0975999029e+00	-5.3166834547e+00
 2.0093262425e-01	 1.0994304462e+00	-5.3851814393e+00
 1.9117354402e-01	 1.1011693202e+00	-5.4508649059e+00
 1.7105094831e-01	 9.8526214738e-01	-9.1920758439e+00
 1.6232867404e-01	 9.8673669648e-01	-9.3383690630e+00
 1.5361849940e-01	 9.8813017818e-01	-9.4775361370e+00
 1.4492144212e-01	 9.8944310564e-01	-9.6094751681e+00
 1.3623850489e-01	 9.9067600676e-01	-9.7340974180e+00
 1.2757067517e-01	 9.9182942379e-01	-9.8513270718e+00
 1.1891892497e-01	 9.9290391285e-01	-9.9611009873e+00
 1.1028421068e-01	 9.9390004351e-01	-1.0063368430e+01
 1.0166747288e-01	 9.9481839835e-01	-1.0158090798e+01
 9.3069636226e-02	 9.9565957252e-01	-1.0245241328e+01
 8.4491609256e-02	 9.9642417327e-01	-1.0324804802e+01
 1.7306329598e-01	 9.9685337206e-01	-8.7062270205e+00
 1.6423840756e-01	 9.9834526866e-01	-8.8410162316e+00
 1.5542576111e-01	 9.9975514413e-01	-8.9691862115e+00
 1.4662638634e-01	 1.0010835177e+00	-9.0906447561e+00
 1.3784129775e-01	 1.0023309234e+00	-9.2053125062e+00
 1.2907149439e-01	 1.0034979099e+00	-9.3131226998e+00
 1.2031795972e-01	 1.0045850399e+00	-9.4140209110e+00
 1.1158166138e-01	 1.0055928897e+00	-9.5079647742e+00
 1.0286355103e-01	 1.0065220486e+00	-9.5949236965e+00
 9.4164564180e-02	 1.0073731188e+00	-9.6748785590e+00
 8.5485620069e-02	 1.0081467148e+00	-9.7478214087e+00
 1.7507561343e-01	 1.0084444227e+00	-8.2527662855e+00
 1.6614811239e-01	 1.0099536665e+00	-8.3767469793e+00
 1.5723299568e-01	 1.0113799355e+00	-8.4945994641e+00
 1.4833130497e-01	 1.0127237549e+00	-8.6062400754e+00
 1.3944406653e-01	 1.0139856650e+00	-8.7115976395e+00
 1.3057229107e-01	 1.0151662208e+00	-8.8106132173e+00
 1.2171697347e-01	 1.0162659916e+00	-8.9032398339e+00
 1.1287909261e-01	 1.0172855602e+00	-8.9894421939e+00
 1.0405961122e-01	 1.0182255231e+00	-9.0691963857e+00
 9.5259475693e-02	 1.0190864893e+00	-9.1424895748e+00
 8.6479615956e-02	 1.0198690804e+00	-9.2093196875e+00
 1.7708790465e-01	 1.0200353222e+00	-7.8286346229e+00
 1.6805779234e-01	 1.0215619131e+00	-7.9425040857e+00
 1.5904020670e-01	 1.0230045754e+00	-8.0507180031e+00
 1.5003620136e-01	 1.0243638404e+00	-8.1532001578e+00
 1.4104681443e-01	 1.0256402547e+00	-8.2498864323e+00
 1.3207306820e-01	 1.0268343797e+00	-8.3407245449e+00
 1.2311596898e-01	 1.0279467910e+00	-8.4256737721e+00
 1.1417650692e-01	 1.0289780784e+00	-8.5047046576e+00
 1.0525565582e-01	 1.0299288451e+00	-8.5777987094e+00
 9.6354372935e-02	 1.0307997071e+00	-8.6449480870e+00
 8.7473598889e-02	 1.0315912931e+00	-8.7061552799e+00
 1.7910017363e-01	 1.0316260937e+00	-7.4309097621e+00
 1.6996745118e-01	 1.0331700314e+00	-7.5353671412e+00
 1.6084739774e-01	 1.0346290868e+00	-7.6346209095e+00
 1.5174107892e-01	 1.0360037973e+00	-7.7286012652e+00
 1.4264954461e-01	 1.0372947156e+00	-7.8172500785e+00
 1.3357382873e-01	 1.0385024096e+00	-7.9005206224e+00
 1.2451494903e-01	 1.0396274613e+00	-7.9783772891e+00
 1.1547390690e-01	 1.0406704674e+00	-8.0507952942e+00
 1.0645168720e-01	 1.0416320377e+00	-8.1177603692e+00
 9.7449258078e-02	 1.0425127954e+00	-8.1792684439e+00
 8.8467570838e-02	 1.0433133763e+00	-8.2353253207e+00
 1.8111242437e-01	 1.0432167601e+00	-7.0567985483e+00
 1.7187709270e-01	 1.0447780444e+00	-7.1525449170e+00
 1.6265457239e-01	 1.0462534928e+00	-7.2435166016e+00
 1.5344594102e-01	 1.0476436487e+00	-7.3296492420e+00
 1.4425226026e-01	 1.0489490709e+00	-7.4108896874e+00
 1.3507457566e-01	 1.0501703337e+00	-7.4871957227e+00
 1.2591391639e-01	 1.0513080258e+00	-7.5585357816e+00
 1.1677129511e-01	 1.0523627504e+00	-7.6248886472e+00
 1.0764770774e-01	 1.0533351242e+00	-7.6862431411e+00
 9.8544133295e-02	 1.0542257775e+00	-7.7425978037e+00
 8.9461533774e-02	 1.0550353533e+00	-7.7939605653e+00
 1.8312466084e-01	 1.0548073444e+00	-6.7036298163e+00
 1.7378672070e-01	 1.0563859752e+00	-6.7913682395e+00
 1.6446173424e-01	 1.0578778165e+00	-6.8747357040e+00
 1.5515079104e-01	 1.0592834176e+00	-6.9536723741e+00
 1.4585496456e-01	 1.0606033436e+00	-7.0281291264e+00
 1.3657531195e-01	 1.0618381751e+00	-7.0980672737e+00
 1.2731287384e-01	 1.0629885075e+00	-7.1634582764e+00
 1.1806867413e-01	 1.0640549505e+00	-7.2242834407e+00
 1.0884371980e-01	 1.0650381279e+00	-7.2805336069e+00
 9.9639000755e-02	 1.0659386767e+00	-7.3322088275e+00
 9.0455489670e-02	 1.0667572472e+00	-7.3793180384e+00
 1.8513688706e-01	 1.0663978695e+00	-6.3688477312e+00
 1.7569633895e-01	 1.0679938468e+00	-6.4492833303e+00
 1.6626888687e-01	 1.0695020809e+00	-6.5257243826e+00
 1.5685563236e-01	 1.0709231271e+00	-6.5981147138e+00
 1.4745766068e-01	 1.0722575568e+00	-6.6664083316e+00
 1.3807604059e-01	 1.0735059570e+00	-6.7305691496e+00
 1.2871182416e-01	 1.0746689296e+00	-6.7905706974e+00
 1.1936604654e-01	 1.0757470910e+00	-6.8463958190e+00
 1.1003972576e-01	 1.0767410718e+00	-6.8980363605e+00
 1.0073386263e-01	 1.0776515161e+00	-6.9454928489e+00
 9.1449440496e-02	 1.0784790813e+00	-6.9887741634e+00
 1.8714910700e-01	 1.0779883586e+00	-6.0500055587e+00
 1.7760595125e-01	 1.0796016822e+00	-6.1238455776e+00
 1.6807603387e-01	 1.0811263090e+00	-6.1940381115e+00
 1.5856046837e-01	 1.0825628003e+00	-6.2605298371e+00
 1.4906035180e-01	 1.0839117338e+00	-6.3232770514e+00
 1.3957676455e-01	 1.0851737026e+00	-6.3822453963e+00
 1.3011077012e-01	 1.0863493153e+00	-6.4374095692e+00
 1.2066341490e-01	 1.0874391951e+00	-6.4887530231e+00
 1.1123572800e-01	 1.0884439792e+00	-6.5362676547e+00
 1.0182872109e-01	 1.0893643190e+00	-6.5799534859e+00
 9.2443388223e-02	 1.0902008788e+00	-6.6198183362e+00
 1.8916132466e-01	 1.0895788344e+00	-5.7447598351e+00
 1.7951556139e-01	 1.0912095045e+00	-5.8127137054e+00
 1.6988317882e-01	 1.0927505240e+00	-5.8773358378e+00
 1.6026530244e-01	 1.0942024604e+00	-5.9385750006e+00
 1.5066304110e-01	 1.0955658975e+00	-5.9963889906e+00
 1.4107748681e-01	 1.0968414350e+00	-6.0507443586e+00
 1.3150971449e-01	 1.0980296878e+00	-6.1016161231e+00
 1.2196078178e-01	 1.0991312859e+00	-6.1489874719e+00
 1.1243172888e-01	 1.1001468734e+00	-6.1928494538e+00
 1.0292357831e-01	 1.1010771087e+00	-6.2332006620e+00
 9.3437334823e-02	 1.1019226631e+00	-6.2700469108e+00
 1.9117354402e-01	 1.1011693202e+00	-5.4508649059e+00
 1.8142517314e-01	 1.1028173366e+00	-5.5136443130e+00
 1.7169032530e-01	 1.1043747488e+00	-5.5733745168e+00
 1.6197013796e-01	 1.1058421303e+00	-5.6300056683e+00
 1.5226573177e-01	 1.1072200711e+00	-5.6834963248e+00
 1.4257821034e-01	 1.1085091772e+00	-5.7338131791e+00
 1.3290866004e-01	 1.1097100702e+00	-5.7809307762e+00
 1.2325814977e-01	 1.1108233866e+00	-5.8248312190e+00
 1.1362773077e-01	 1.1118497776e+00	-5.8654734629e+00
 1.0401843646e-01	 1.1127899083e+00	-5.9027898939e+00
 9.4431282267e-02	 1.1136444574e+00	-5.9368065173e+00
 8.4491609256e-02	 9.9642417327e-01	-1.0324804802e+01
 7.5935733705e-02	 9.9711270890e-01	-1.0396738424e+01
 6.7401408683e-02	 9.9772594558e-01	-1.0461012951e+01
 5.8889473803e-02	 9.9826452377e-01	-1.0517612768e+01
 5.0400752668e-02	 9.9872909431e-01	-1.0566534576e+01
 4.1936052786e-02	 9.9912031795e-01	-1.0607787057e+01
 3.3496165499e-02	 9.9943886492e-01	-1.0641390527e+01
 2.5081865916e-02	 9.9968541457e-01	-1.0667376590e+01
 1.6693912862e-02	 9.9986065485e-01	-1.0685787777e+01
 8.3330488405e-03	 9.9996528199e-01	-1.0696677196e+01
 0.0000000000e+00	 1.0000000000e+00	-1.0700108165e+01
 8.5485620069e-02	 1.0081467148e+00	-9.7478214087e+00
 7.6829087980e-02	 1.0088433508e+00	-9.8137411547e+00
 6.8194359954e-02	 1.0094638020e+00	-9.8726363890e+00
 5.9582285481e-02	 1.0100087163e+00	-9.9244952388e+00
 5.0993697855e-02	 1.0104787524e+00	-9.9693172783e+00
 4.2429414083e-02	 1.0108745786e+00	-1.0007113199e+01
 3.3890234815e-02	 1.0111968732e+00	-1.0037904472e+01
 2.5376944281e-02	 1.0114463234e+00	-1.0061723009e+01
 1.6890310233e-02	 1.0116236253e+00	-1.0078610819e+01
 8.4310839086e-03	 1.0117294833e+00	-1.0088619658e+01
 0.0000000000e+00	 1.0117646098e+00	-1.0091810682e+01
 8.6479615956e-02	 1.0198690804e+00	-9.2093196875e+00
 7.7722428841e-02	 1.0205738166e+00	-9.2696968032e+00
 6.8987299319e-02	 1.0212014821e+00	-9.3236372652e+00
 6.0275086757e-02	 1.0217527326e+00	-9.3711320008e+00
 5.1586634139e-02	 1.0222282340e+00	-9.4121825634e+00
 4.2922767971e-02	 1.0226286628e+00	-9.4468008096e+00
 3.4284298214e-02	 1.0229547048e+00	-9.4750085710e+00
 2.5672018215e-02	 1.0232070556e+00	-9.4968373224e+00
 1.7086704654e-02	 1.0233864191e+00	-9.5123278474e+00
 8.5291175046e-03	 1.0234935080e+00	-9.5215299013e+00
 0.0000000000e+00	 1.0235290429e+00	-9.5245018743e+00
 8.7473598889e-02	 1.0315912931e+00	-8.7061552799e+00
 7.8615758059e-02	 1.0323041295e+00	-8.7614426712e+00
 6.9780228349e-02	 1.0329390093e+00	-8.8108359193e+00
 6.0967879004e-02	 1.0334965957e+00	-8.8543278552e+00
 5.2179562695e-02	 1.0339775625e+00	-8.8919211634e+00
 4.3416115430e-02	 1.0343825937e+00	-8.9236280659e+00
 3.4678356478e-02	 1.0347123833e+00	-8.9494700016e+00
 2.5967088304e-02	 1.0349676345e+00	-8.9694773028e+00
 1.7283096516e-02	 1.0351490596e+00	-8.9836888695e+00
 8.6271498229e-03	 1.0352573793e+00	-8.9921518430e+00
 0.0000000000e+00	 1.0352933227e+00	-8.9949212786e+00
 8.8467570838e-02	 1.0433133763e+00	-8.2353253207e+00
 7.9509077406e-02	 1.0440343127e+00	-8.2859584149e+00
 7.0573148619e-02	 1.0446764068e+00	-8.3311958377e+00
 6.1660663596e-02	 1.0452403291e+00	-8.3710314726e+00
 5.2772484700e-02	 1.0457267611e+00	-8.4054683312e+00
 4.3909457437e-02	 1.0461363948e+00	-8.4345182435e+00
 3.5072410387e-02	 1.0464699318e+00	-8.4582015445e+00
 2.6262155132e-02	 1.0467280834e+00	-8.4765467583e+00
 1.7479486208e-02	 1.0469115701e+00	-8.4895902815e+00
 8.7251810579e-03	 1.0470211207e+00	-8.4973760655e+00
 0.0000000000e+00	 1.0470574725e+00	-8.4999552992e+00
 8.9461533774e-02	 1.0550353533e+00	-7.7939605653e+00
 8.0402388654e-02	 1.0557643896e+00	-7.8403581255e+00
 7.1366061698e-02	 1.0564136978e+00	-7.8818156914e+00
 6.2353441907e-02	 1.0569839560e+00	-7.9183273914e+00
 5.3365401329e-02	 1.0574758533e+00	-7.9498958030e+00
 4.4402794972e-02	 1.0578900893e+00	-7.9765316482e+00
 3.5466460723e-02	 1.0582273737e+00	-7.9982534874e+00
 2.6557219285e-02	 1.0584884257e+00	-8.0150874106e+00
 1.7675874120e-02	 1.0586739739e+00	-8.0270667283e+00
 8.8232114041e-03	 1.0587847554e+00	-8.0342316631e+00
 0.0000000000e+00	 1.0588215156e+00	-8.0366290409e+00
 9.0455489670e-02	 1.0667572472e+00	-7.3793180384e+00
 8.1295693574e-02	 1.0674943834e+00	-7.4218829342e+00
 7.2158969162e-02	 1.0681509057e+00	-7.4599218997e+00
 6.3046215311e-02	 1.0687274997e+00	-7.4934285443e+00
 5.3958313758e-02	 1.0692248622e+00	-7.5224042913e+00
 4.4896129012e-02	 1.0696437005e+00	-7.5468580797e+00
 3.5860508268e-02	 1.0699847323e+00	-7.5668060639e+00
 2.6852281348e-02	 1.0702486848e+00	-7.5822713115e+00
 1.7872260640e-02	 1.0704362945e+00	-7.5932835019e+00
 8.9212410558e-03	 1.0705483067e+00	-7.5998786252e+00
 0.0000000000e+00	 1.0705854754e+00	-7.6020986829e+00
 9.1449440496e-02	 1.0784790813e+00	-6.9887741634e+00
 8.2188993937e-02	 1.0792243174e+00	-7.0278940999e+00
 7.2951872581e-02	 1.0798880537e+00	-7.0628616813e+00
 6.3738985181e-02	 1.0804709835e+00	-7.0936692746e+00
 5.4551223163e-02	 1.0809738111e+00	-7.1203164703e+00
 4.5389460535e-02	 1.0813972518e+00	-7.1428097888e+00
 3.6254553803e-02	 1.0817420309e+00	-7.1611623855e+00
 2.7147341906e-02	 1.0820088838e+00	-7.1753937552e+00
 1.8068646158e-02	 1.0821985550e+00	-7.1855294366e+00
 9.0192702076e-03	 1.0823117981e+00	-7.1916007193e+00
 0.0000000000e+00	 1.0823493751e+00	-7.1936443522e+00
 9.2443388223e-02	 1.0902008788e+00	-6.6198183362e+00
 8.3082291516e-02	 1.0909542148e+00	-6.6558665454e+00
 7.3744773528e-02	 1.0916251652e+00	-6.6880965537e+00
 6.4431752891e-02	 1.0922144307e+00	-6.7164988040e+00
 5.5144130720e-02	 1.0927227235e+00	-6.7410704145e+00
 4.5882790521e-02	 1.0931507664e+00	-6.7618148903e+00
 3.6648598110e-02	 1.0934992929e+00	-6.7787418327e+00
 2.7442401544e-02	 1.0937690461e+00	-6.7918666491e+00
 1.8265031065e-02	 1.0939607789e+00	-6.8012102643e+00
 9.1172990538e-03	 1.0940752528e+00	-6.8067988333e+00
 0.0000000000e+00	 1.0941132382e+00	-6.8086634571e+00
 9.3437334823e-02	 1.1019226631e+00	-6.2700469108e+00
 8.3975588081e-02	 1.1026840989e+00	-6.3033828064e+00
 7.4537673576e-02	 1.1033622633e+00	-6.3331962502e+00
 6.5124519816e-02	 1.1039578646e+00	-6.3594751185e+00
 5.5737037605e-02	 1.1044716225e+00	-6.3822134573e+00
 4.6376119948e-02	 1.1049042678e+00	-6.4014111972e+00
 3.7042641971e-02	 1.1052565416e+00	-6.4170738671e+00
 2.7737460848e-02	 1.1055291952e+00	-6.4292123092e+00
 1.8461415749e-02	 1.1057229894e+00	-6.4378423950e+00
 9.2153277889e-03	 1.1058386942e+00	-6.4429847444e+00
 0.0000000000e+00	 1.1058770880e+00	-6.4446644482e+00
 9.4431282267e-02	 1.1136444574e+00	-5.9368065173e+00
 8.4868885405e-02	 1.1144139930e+00	-5.9675335897e+00
 7.5330574297e-02	 1.1150993714e+00	-5.9949710882e+00
 6.5817287329e-02	 1.1157013085e+00	-6.0191222233e+00
 5.6329944993e-02	 1.1162205315e+00	-6.0399931454e+00
 4.6869449793e-02	 1.1166577791e+00	-6.0575927877e+00
 3.7436686165e-02	 1.1170138002e+00	-6.0719327141e+00
 2.8032520402e-02	 1.1172893542e+00	-6.0830269707e+00
 1.8657800599e-02	 1.1174852099e+00	-6.0908919368e+00
 9.3133566072e-03	 1.1176021455e+00	-6.0955461767e+00
 0.0000000000e+00	 1.1176409478e+00	-6.0970102893e+00
 1.1176409478e+00	 0.0000000000e+00	 2.4686511456e+00
 1.1176021455e+00	 9.3133566072e-03	 2.4690457476e+00
 1.1174852099e+00	 1.8657800599e-02	 2.4699921847e+00
 1.1172893542e+00	 2.8032520402e-02	 2.4714924805e+00
 1.1170138002e+00	 3.7436686165e-02	 2.4735469288e+00
 1.1166577791e+00	 4.6869449793e-02	 2.4761539820e+00
 1.1162205315e+00	 5.6329944993e-02	 2.4793101430e+00
 1.1157013085e+00	 6.5817287329e-02	 2.4830098620e+00
 1.1150993714e+00	 7.5330574297e-02	 2.4872454411e+00
 1.1144139930e+00	 8.4868885405e-02	 2.4920069476e+00
 1.1136444574e+00	 9.4431282267e-02	 2.4972821383e+00
 1.1294068364e+00	 0.0000000000e+00	 2.6020684467e+00
 1.1293676256e+00	 9.4114023322e-03	 2.6023467343e+00
 1.1292494590e+00	 1.8854219319e-02	 2.6029398726e+00
 1.1290515415e+00	 2.8327630844e-02	 2.6038558175e+00
 1.1287730866e+00	 3.7830798319e-02	 2.6051007106e+00
 1.1284133175e+00	 4.7362864721e-02	 2.6066787410e+00
 1.1279714668e+00	 5.6922954636e-02	 2.6085920103e+00
 1.1274467777e+00	 6.6510174320e-02	 2.6108404001e+00
 1.1268385038e+00	 7.6123611766e-02	 2.6134214471e+00
 1.1261459101e+00	 8.5762336791e-02	 2.6163302257e+00
 1.1253682732e+00	 9.5425401132e-02	 2.6195592404e+00
 1.1411727550e+00	 0.0000000000e+00	 2.7302302797e+00
 1.1411331358e+00	 9.5094483072e-03	 2.7304175684e+00
 1.1410137382e+00	 1.9050638540e-02	 2.7306971083e+00
 1.1408137587e+00	 2.8622742038e-02	 2.7310815869e+00
 1.1405324030e+00	 3.8224911478e-02	 2.7315817974e+00
 1.1401688858e+00	 4.7856280907e-02	 2.7322064736e+00
 1.1397224321e+00	 5.7515965792e-02	 2.7329621268e+00
 1.1391922768e+00	 6.7203063078e-02	 2.7338528859e+00
 1.1385776661e+00	 7.6916651257e-02	 2.7348803418e+00
 1.1378778571e+00	 8.6655790456e-02	 2.7360433991e+00
 1.1370921190e+00	 9.6419522532e-02	 2.7373381373e+00
 1.1529387004e+00	 0.0000000000e+00	 2.8522953777e+00
 1.1528986726e+00	 9.6074945045e-03	 2.8524096138e+00
 1.1527780439e+00	 1.9247058207e-02	 2.8524080525e+00
 1.1525760026e+00	 2.8917853901e-02	 2.8523069716e+00
 1.1522917460e+00	 3.8619025530e-02	 2.8521206789e+00
 1.1519244809e+00	 4.8349698211e-02	 2.8518613217e+00
 1.1514734240e+00	 5.8108978292e-02	 2.8515386958e+00
 1.1509378026e+00	 6.7895953406e-02	 2.8511600568e+00
 1.1503168550e+00	 7.7709692545e-02	 2.8507299346e+00
 1.1496098307e+00	 8.7549246145e-02	 2.8502499542e+00
 1.1488159913e+00	 9.7413646185e-02	 2.8497186645e+00
 1.1647046690e+00	 0.0000000000e+00	 2.9674564139e+00
 1.1646642328e+00	 9.7055408962e-03	 2.9675089891e+00
 1.1645423731e+00	 1.9443478262e-02	 2.9672523953e+00
 1.1643382699e+00	 2.9212966350e-02	 2.9667054155e+00
 1.1640511124e+00	 3.9013140363e-02	 2.9658847946e+00
 1.1636800992e+00	 4.8843116493e-02	 2.9648050222e+00
 1.1632244392e+00	 5.8701991967e-02	 2.9634781148e+00
 1.1626833517e+00	 6.8588845108e-02	 2.9619133977e+00
 1.1620560672e+00	 7.8502735405e-02	 2.9601172896e+00
 1.1613418276e+00	 8.8442703606e-02	 2.9580930914e+00
 1.1605398869e+00	 9.8407771809e-02	 2.9558407831e+00
 1.1764706577e+00	 0.0000000000e+00	 3.0749383059e+00
 1.1764298129e+00	 9.8035874545e-03	 3.0749348480e+00
 1.1763067222e+00	 1.9639898652e-02	 3.0744436109e+00
 1.1761005571e+00	 2.9508079300e-02	 3.0734848544e+00
 1.1758104987e+00	 3.9407255866e-02	 3.0720767398e+00
 1.1754357375e+00	 4.9336535614e-02	 3.0702350882e+00
 1.1749754744e+00	 5.9295006651e-02	 3.0679731338e+00
 1.1744289208e+00	 6.9281737988e-02	 3.0653012773e+00
 1.1737952994e+00	 7.9295779614e-02	 3.0622268394e+00
 1.1730738444e+00	 8.9336162585e-02	 3.0587538184e+00
 1.1722638024e+00	 9.9401899123e-02	 3.0548826531e+00
 1.1882366630e+00	 0.0000000000e+00	 3.1739966220e+00
 1.1881954098e+00	 9.9016341518e-03	 3.1739377612e+00
 1.1880710880e+00	 1.9836319320e-02	 3.1732273165e+00
 1.1878628610e+00	 2.9803192668e-02	 3.1718860505e+00
 1.1875699017e+00	 3.9801371928e-02	 3.1699325782e+00
 1.1871913925e+00	 4.9829955434e-02	 3.1673830993e+00
 1.1867265262e+00	 5.9888022175e-02	 3.1642511233e+00
 1.1861745065e+00	 6.9974631849e-02	 3.1605471938e+00
 1.1855345481e+00	 8.0088824946e-02	 3.1562786108e+00
 1.1848058778e+00	 9.0229622831e-02	 3.1514491552e+00
 1.1839877346e+00	 1.0039602784e-01	 3.1460588193e+00
 1.2000026816e+00	 0.0000000000e+00	 3.2639160806e+00
 1.1999610199e+00	 9.9996809602e-03	 3.2637981937e+00
 1.1998354671e+00	 2.0032740211e-02	 3.2628797269e+00
 1.1996251783e+00	 3.0098306371e-02	 3.2611810259e+00
 1.1993293180e+00	 4.0195488436e-02	 3.2587202527e+00
 1.1989470608e+00	 5.0323375814e-02	 3.2555130906e+00
 1.1984775914e+00	 6.0481038370e-02	 3.2515724423e+00
 1.1979201055e+00	 7.0667526496e-02	 3.2469081231e+00
 1.1972738102e+00	 8.0881871177e-02	 3.2415265518e+00
 1.1965379246e+00	 9.1123084089e-02	 3.2354304429e+00
 1.1957116800e+00	 1.0139015769e-01	 3.2286185012e+00
 1.2117687103e+00	 0.0000000000e+00	 3.3440091369e+00
 1.2117266401e+00	 1.0097727852e-02	 3.3438250709e+00
 1.2115998562e+00	 2.0229161268e-02	 3.3427061997e+00
 1.2113875055e+00	 3.0393420324e-02	 3.3406715864e+00
 1.2110887444e+00	 4.0589605280e-02	 3.3377380885e+00
 1.2107027391e+00	 5.0816796613e-02	 3.3339200361e+00
 1.2102286666e+00	 6.1074055071e-02	 3.3292289015e+00
 1.2096657145e+00	 7.1360421732e-02	 3.3236729615e+00
 1.2090130823e+00	 8.1674918082e-02	 3.3172569567e+00
 1.2082699813e+00	 9.2016546107e-02	 3.3099817490e+00
 1.2074356354e+00	 1.0238428839e-01	 3.3018439816e+00
 1.2235347456e+00	 0.0000000000e+00	 3.4136146514e+00
 1.2234922669e+00	 1.0195774799e-02	 3.4133544268e+00
 1.2233642520e+00	 2.0425582437e-02	 3.4120398639e+00
 1.2231498394e+00	 3.0688534445e-02	 3.4096879304e+00
 1.2228481774e+00	 4.0983722347e-02	 3.4063133829e+00
 1.2224584241e+00	 5.1310217692e-02	 3.4019284183e+00
 1.2219797484e+00	 6.1667072107e-02	 3.3965423136e+00
 1.2214113302e+00	 7.2053317360e-02	 3.3901610581e+00
 1.2207523610e+00	 8.2467965437e-02	 3.3827869790e+00
 1.2200020447e+00	 9.2910008631e-02	 3.3744183640e+00
 1.2191595974e+00	 1.0337841965e-01	 3.3650490849e+00
 1.2353007843e+00	 0.0000000000e+00	 3.4720966344e+00
 1.2352578971e+00	 1.0293821774e-02	 3.4717481300e+00
 1.2351286511e+00	 2.0622003662e-02	 3.4702403270e+00
 1.2349121767e+00	 3.0983648650e-02	 3.4675873372e+00
 1.2346076137e+00	 4.1377839526e-02	 3.4638010746e+00
 1.2342141124e+00	 5.1803638910e-02	 3.4588908789e+00
 1.2337308335e+00	 6.2260089311e-02	 3.4528631265e+00
 1.2331569492e+00	 7.2746213186e-02	 3.4457208297e+00
 1.2324916431e+00	 8.3261013018e-02	 3.4374632294e+00
 1.2317341113e+00	 9.3803471409e-02	 3.4280853813e+00
 1.2308835627e+00	 1.0437255119e-01	 3.4175777417e+00
 1.1136444574e+00	 9.4431282267e-02	 2.4972821383e+00
 1.1127899083e+00	 1.0401843646e-01	 2.5031175728e+00
 1.1118497776e+00	 1.1362773077e-01	 2.5095171269e+00
 1.1108233866e+00	 1.2325814977e-01	 2.5164079564e+00
 1.1097100702e+00	 1.3290866004e-01	 2.5238088476e+00
 1.1085091772e+00	 1.4257821034e-01	 2.5317041440e+00
 1.1072200711e+00	 1.5226573177e-01	 2.5400468968e+00
 1.1058421303e+00	 1.6197013796e-01	 2.5487907824e+00
 1.1043747488e+00	 1.7169032530e-01	 2.5578901957e+00
 1.1028173366e+00	 1.8142517314e-01	 2.5673003448e+00
 1.1011693202e+00	 1.9117354402e-01	 2.5769773433e+00
 1.1253682732e+00	 9.5425401132e-02	 2.6195592404e+00
 1.1245047279e+00	 1.0511348344e-01	 2.6231643317e+00
 1.1235547001e+00	 1.1482393894e-01	 2.6271607447e+00
 1.1225175038e+00	 1.2455574151e-01	 2.6314773532e+00
 1.1213924671e+00	 1.3430784687e-01	 2.6360397568e+00
 1.1201789318e+00	 1.4407919270e-01	 2.6407703400e+00
 1.1188762547e+00	 1.5386869884e-01	 2.6455883614e+00
 1.1174838077e+00	 1.6367526751e-01	 2.6504100745e+00
 1.1160009785e+00	 1.7349778346e-01	 2.6551488837e+00
 1.1144271707e+00	 1.8333511424e-01	 2.6597155383e+00
 1.1127618049e+00	 1.9318611043e-01	 2.6640183693e+00
 1.1370921190e+00	 9.6419522532e-02	 2.7373381373e+00
 1.1362195774e+00	 1.0620853320e-01	 2.7388284190e+00
 1.1352596524e+00	 1.1602015015e-01	 2.7405393256e+00
 1.1342116509e+00	 1.2585333656e-01	 2.7424045291e+00
 1.1330748937e+00	 1.3570703726e-01	 2.7443540604e+00
 1.1318487161e+00	 1.4558017888e-01	 2.7463143346e+00
 1.1305324680e+00	 1.5547167001e-01	 2.7482082050e+00
 1.1291255148e+00	 1.6538040140e-01	 2.7499550489e+00
 1.1276272378e+00	 1.7530524622e-01	 2.7514708901e+00
 1.1260370344e+00	 1.8524506021e-01	 2.7526685599e+00
 1.1243543192e+00	 1.9519868197e-01	 2.7534579008e+00
 1.1488159913e+00	 9.7413646185e-02	 2.8497186645e+00
 1.1479344535e+00	 1.0730358545e-01	 2.8492069287e+00
 1.1469646313e+00	 1.1721636407e-01	 2.8487483797e+00
 1.1459058244e+00	 1.2715093455e-01	 2.8482800526e+00
 1.1447573469e+00	 1.3710623083e-01	 2.8477349837e+00
 1.1435185268e+00	 1.4708116847e-01	 2.8470422012e+00
 1.1421887077e+00	 1.5707464480e-01	 2.8461267434e+00
 1.1407672483e+00	 1.6708553916e-01	 2.8449097107e+00
 1.1392535234e+00	 1.7711271308e-01	 2.8433083531e+00
 1.1376469244e+00	 1.8715501051e-01	 2.8412361979e+00
 1.1359468597e+00	 1.9721125807e-01	 2.8386032211e+00
 1.1605398869e+00	 9.8407771809e-02	 2.9558407831e+00
 1.1596493528e+00	 1.0839863987e-01	 2.9534374372e+00
 1.1586696334e+00	 1.1841258037e-01	 2.9509241925e+00
 1.1576000212e+00	 1.2844853511e-01	 2.9482400932e+00
 1.1564398232e+00	 1.3850542717e-01	 2.9453198367e+00
 1.1551883607e+00	 1.4858216103e-01	 2.9420937281e+00
 1.1538449705e+00	 1.5867762278e-01	 2.9384876639e+00
 1.1524090048e+00	 1.6879068031e-01	 2.9344231481e+00
 1.1508798321e+00	 1.7892018353e-01	 2.9298173454e+00
 1.1492568375e+00	 1.8906496460e-01	 2.9245831747e+00
 1.1475394232e+00	 1.9922383817e-01	 2.9186294478e+00
 1.1722638024e+00	 9.9401899123e-02	 3.0548826531e+00
 1.1713642721e+00	 1.0949369615e-01	 3.0506960572e+00
 1.1703746554e+00	 1.1960879870e-01	 3.0462418622e+00
 1.1692942378e+00	 1.2974613788e-01	 3.0414598479e+00
 1.1681223193e+00	 1.3990462589e-01	 3.0362851086e+00
 1.1668582145e+00	 1.5008315614e-01	 3.0306479721e+00
 1.1655012532e+00	 1.6028060348e-01	 3.0244739467e+00
 1.1640507812e+00	 1.7049582435e-01	 3.0176837023e+00
 1.1625061606e+00	 1.8072765705e-01	 3.0101930879e+00
 1.1608667702e+00	 1.9097492193e-01	 3.0019131903e+00
 1.1591320065e+00	 2.0123642168e-01	 2.9927504398e+00
 1.1839877346e+00	 1.0039602784e-01	 3.1460588193e+00
 1.1830792079e+00	 1.1058875399e-01	 3.1401956062e+00
 1.1820796939e+00	 1.2080501872e-01	 3.1339134523e+00
 1.1809884710e+00	 1.3104374249e-01	 3.1271516790e+00
 1.1798048321e+00	 1.4130382659e-01	 3.1198445940e+00
 1.1785280848e+00	 1.5158415338e-01	 3.1119213734e+00
 1.1771575524e+00	 1.6188358645e-01	 3.1033059723e+00
 1.1756925741e+00	 1.7220097080e-01	 3.0939170695e+00
 1.1741325055e+00	 1.8253513313e-01	 3.0836680487e+00
 1.1724767195e+00	 1.9288488197e-01	 3.0724670217e+00
 1.1707246062e+00	 2.0324900805e-01	 3.0602168996e+00
 1.1957116800e+00	 1.0139015769e-01	 3.2286185012e+00
 1.1947941570e+00	 1.1168381306e-01	 3.2211838789e+00
 1.1937847458e+00	 1.2200124011e-01	 3.2131862484e+00
 1.1926827175e+00	 1.3234134857e-01	 3.2045633579e+00
 1.1914873580e+00	 1.4270302888e-01	 3.1952476241e+00
 1.1901979683e+00	 1.5308515233e-01	 3.1851659776e+00
 1.1888138648e+00	 1.6348657124e-01	 3.1742397358e+00
 1.1873343801e+00	 1.7390611919e-01	 3.1623845100e+00
 1.1857588636e+00	 1.8434261126e-01	 3.1495101495e+00
 1.1840866818e+00	 1.9479484418e-01	 3.1355207285e+00
 1.1823172190e+00	 2.0526159670e-01	 3.1203145810e+00
 1.2074356354e+00	 1.0238428839e-01	 3.3018439816e+00
 1.2065091161e+00	 1.1277887307e-01	 3.2929420192e+00
 1.2054898076e+00	 1.2319746250e-01	 3.2833411153e+00
 1.2043769739e+00	 1.3363895575e-01	 3.2729764080e+00
 1.2031698939e+00	 1.4410223236e-01	 3.2617773984e+00
 1.2018678617e+00	 1.5458615254e-01	 3.2496677576e+00
 1.2004701870e+00	 1.6508955739e-01	 3.2365651610e+00
 1.1989761960e+00	 1.7561126903e-01	 3.2223811564e+00
 1.1973852316e+00	 1.8615009092e-01	 3.2070210702e+00
 1.1956966541e+00	 1.9670480801e-01	 3.1903839563e+00
 1.1939098416e+00	 2.0727418706e-01	 3.1723625939e+00
 1.2191595974e+00	 1.0337841965e-01	 3.3650490849e+00
 1.2182240818e+00	 1.1387393369e-01	 3.3547829832e+00
 1.2171948760e+00	 1.2439368558e-01	 3.3436909448e+00
 1.2160712369e+00	 1.3493656367e-01	 3.3317045399e+00
 1.2148524365e+00	 1.4550143663e-01	 3.3187494085e+00
 1.2135377618e+00	 1.5608715361e-01	 3.3047450276e+00
 1.2121265159e+00	 1.6669254445e-01	 3.2896045063e+00
 1.2106180186e+00	 1.7731641984e-01	 3.2732344137e+00
 1.2090116062e+00	 1.8795757161e-01	 3.2555346451e+00
 1.2073066329e+00	 1.9861477292e-01	 3.2363983318e+00
 1.2055024709e+00	 2.0928677856e-01	 3.2157118004e+00
 1.2308835627e+00	 1.0437255119e-01	 3.4175777417e+00
 1.2299390508e+00	 1.1496899463e-01	 3.4060500872e+00
 1.2288999477e+00	 1.2558990900e-01	 3.3935791905e+00
 1.2277655033e+00	 1.3623417195e-01	 3.3800921736e+00
 1.2265349823e+00	 1.4690064130e-01	 3.3655099484e+00
 1.2252076651e+00	 1.5758815511e-01	 3.3497469436e+00
 1.2237828481e+00	 1.6829553196e-01	 3.3327108579e+00
 1.2222598444e+00	 1.7902157113e-01	 3.3143024466e+00
 1.2206379841e+00	 1.8976505281e-01	 3.2944153463e+00
 1.2189166150e+00	 2.0052473838e-01	 3.2729359439e+00
 1.2170951034e+00	 2.1129937063e-01	 3.2497432954e+00
 1.1011693202e+00	 1.9117354402e-01	 2.5769773433e+00
 1.0994304462e+00	 2.0093262425e-01	 2.5871782350e+00
 1.0975999029e+00	 2.1070290223e-01	 2.5981293656e+00
 1.0956771684e+00	 2.2048319495e-01	 2.6097383511e+00
 1.0936617395e+00	 2.3027230375e-01	 2.6219153877e+00
 1.0915531319e+00	 2.4006901461e-01	 2.6345734569e+00
 1.0893508803e+00	 2.4987209853e-01	 2.6476285298e+00
 1.0870545395e+00	 2.5968031184e-01	 2.6609997687e+00
 1.0846636846e+00	 2.6949239654e-01	 2.6746097252e+00
 1.0821779112e+00	 2.7930708070e-01	 2.6883845351e+00
 1.0795968361e+00	 2.8912307883e-01	 2.7022541087e+00
 1.1127618049e+00	 1.9318611043e-01	 2.6640183693e+00
 1.1110046251e+00	 2.0304792871e-01	 2.6683005820e+00
 1.1091548108e+00	 2.1292106262e-01	 2.6730016974e+00
 1.1072118348e+00	 2.2280431671e-01	 2.6782104767e+00
 1.1051751887e+00	 2.3269647967e-01	 2.6838567077e+00
 1.1030443828e+00	 2.4259632474e-01	 2.6898730327e+00
 1.1008189472e+00	 2.5250260996e-01	 2.6961951318e+00
 1.0984984319e+00	 2.6241407856e-01	 2.7027619038e+00
 1.0960824074e+00	 2.7232945931e-01	 2.7095156431e+00
 1.0935704651e+00	 2.8224746689e-01	 2.7164022130e+00
 1.0909622180e+00	 2.9216680227e-01	 2.7233712147e+00
 1.1243543192e+00	 1.9519868197e-01	 2.7534579008e+00
 1.1225788334e+00	 2.0516323856e-01	 2.7541184408e+00
 1.1207097481e+00	 2.1513922867e-01	 2.7549108205e+00
 1.1187465307e+00	 2.2512544438e-01	 2.7557137910e+00
 1.1166886672e+00	 2.3512066178e-01	 2.7564060058e+00
 1.1145356630e+00	 2.4512364132e-01	 2.7568665857e+00
 1.1122870433e+00	 2.5513312810e-01	 2.7569757495e+00
 1.1099423534e+00	 2.6514785226e-01	 2.7566948406e+00
 1.1075011593e+00	 2.7516652932e-01	 2.7564299282e+00
 1.1049630481e+00	 2.8518786058e-01	 2.7562262688e+00
 1.1023276288e+00	 2.9521053348e-01	 2.7560508217e+00
 1.1359468597e+00	 1.9721125807e-01	 2.8386032211e+00
 1.1341530680e+00	 2.0727855320e-01	 2.8357240822e+00
 1.1322647117e+00	 2.1735739975e-01	 2.8329010961e+00
 1.1302812527e+00	 2.2744657732e-01	 2.8300238823e+00
 1.1282021718e+00	 2.3754484939e-01	 2.8269813679e+00
 1.1260269693e+00	 2.4765096362e-01	 2.8236623170e+00
 1.1237551654e+00	 2.5776365220e-01	 2.8199559260e+00
 1.1213863008e+00	 2.6788163215e-01	 2.8157524914e+00
 1.1189199370e+00	 2.7800360576e-01	 2.8109441514e+00
 1.1163556570e+00	 2.8812826093e-01	 2.8054257056e+00
 1.1136930654e+00	 2.9825427158e-01	 2.7990955173e+00
 1.1475394232e+00	 1.9922383817e-01	 2.9186294478e+00
 1.1457273255e+00	 2.0939387205e-01	 2.9123038835e+00
 1.1438196982e+00	 2.1957557522e-01	 2.9059478762e+00
 1.1418159976e+00	 2.2976771485e-01	 2.8994597679e+00
 1.1397156993e+00	 2.3996904180e-01	 2.8927365886e+00
 1.1375182984e+00	 2.5017829094e-01	 2.8856745487e+00
 1.1352233103e+00	 2.6039418151e-01	 2.8781696008e+00
 1.1328302709e+00	 2.7061541746e-01	 2.8701180752e+00
 1.1303387374e+00	 2.8084068783e-01	 2.8614173941e+00
 1.1277482884e+00	 2.9106866712e-01	 2.8519668669e+00
 1.1250585246e+00	 3.0129801572e-01	 2.8416685718e+00
 1.1591320065e+00	 2.0123642168e-01	 2.9927504398e+00
 1.1573016027e+00	 2.1150919448e-01	 2.9830832760e+00
 1.1553747043e+00	 2.2179375447e-01	 2.9732893300e+00
 1.1533507621e+00	 2.3208885634e-01	 2.9632736212e+00
 1.1512292463e+00	 2.4239323834e-01	 2.9529392115e+00
 1.1490096470e+00	 2.5270562256e-01	 2.9421876602e+00
 1.1466914747e+00	 2.6302471530e-01	 2.9309195514e+00
 1.1442742605e+00	 2.7334920742e-01	 2.9190350989e+00
 1.1417575572e+00	 2.8367777472e-01	 2.9064348312e+00
 1.1391409392e+00	 2.9400907831e-01	 2.8930203637e+00
 1.1364240030e+00	 3.0434176503e-01	 2.8786952590e+00
 1.1707246062e+00	 2.0324900805e-01	 3.0602168996e+00
 1.1688758963e+00	 2.1362451992e-01	 3.0473242517e+00
 1.1669297268e+00	 2.2401193686e-01	 3.0341998675e+00
 1.1648855430e+00	 2.3441000111e-01	 3.0207534987e+00
 1.1627428097e+00	 2.4481743831e-01	 3.0068922667e+00
 1.1605010119e+00	 2.5523295775e-01	 2.9925210801e+00
 1.1581596553e+00	 2.6565525282e-01	 2.9775431273e+00
 1.1557182664e+00	 2.7608300126e-01	 2.9618604493e+00
 1.1531763932e+00	 2.8651486563e-01	 2.9453745975e+00
 1.1505336061e+00	 2.9694949366e-01	 2.9279873803e+00
 1.1477894976e+00	 3.0738551865e-01	 2.9096017045e+00
 1.1823172190e+00	 2.0526159670e-01	 3.1203145810e+00
 1.1804502031e+00	 2.1573984775e-01	 3.1043235750e+00
 1.1784847624e+00	 2.2623012176e-01	 3.0879883573e+00
 1.1764203369e+00	 2.3673114852e-01	 3.0712215652e+00
 1.1742563861e+00	 2.4724164102e-01	 3.0539325055e+00
 1.1719923899e+00	 2.5776029582e-01	 3.0360275334e+00
 1.1696278489e+00	 2.6828579331e-01	 3.0174105098e+00
 1.1671622851e+00	 2.7881679819e-01	 2.9979833419e+00
 1.1645952422e+00	 2.8935195976e-01	 2.9776466119e+00
 1.1619262860e+00	 2.9988991234e-01	 2.9563002997e+00
 1.1591550051e+00	 3.1042927573e-01	 2.9338446039e+00
 1.1939098416e+00	 2.0727418706e-01	 3.1723625939e+00
 1.1920245196e+00	 2.1785517739e-01	 3.1534110912e+00
 1.1900398078e+00	 2.2844830855e-01	 3.1339964396e+00
 1.1879551406e+00	 2.3905229790e-01	 3.1140324137e+00
 1.1857699723e+00	 2.4966584580e-01	 3.0934287285e+00
 1.1834837776e+00	 2.6028763603e-01	 3.0720913797e+00
 1.1810960523e+00	 2.7091633605e-01	 3.0499230640e+00
 1.1786063136e+00	 2.8155059745e-01	 3.0268236866e+00
 1.1760141008e+00	 2.9218905629e-01	 3.0026909612e+00
 1.1733189755e+00	 3.0283033352e-01	 2.9774211070e+00
 1.1705205222e+00	 3.1347303539e-01	 2.9509096493e+00
 1.2055024709e+00	 2.0928677856e-01	 3.2157118004e+00
 1.2035988428e+00	 2.1997050822e-01	 3.1939481249e+00
 1.2015948598e+00	 2.3066649660e-01	 3.1715969290e+00
 1.1994899509e+00	 2.4137344859e-01	 3.1485714733e+00
 1.1972835650e+00	 2.5209005195e-01	 3.1247802014e+00
 1.1949751718e+00	 2.6281497767e-01	 3.1001270382e+00
 1.1925642622e+00	 2.7354688027e-01	 3.0745117741e+00
 1.1900503486e+00	 2.8428439826e-01	 3.0478305375e+00
 1.1874329659e+00	 2.9502615444e-01	 3.0199763649e+00
 1.1847116715e+00	 3.0577075637e-01	 2.9908398721e+00
 1.1818860457e+00	 3.1651679678e-01	 2.9603100333e+00
 1.2170951034e+00	 2.1129937063e-01	 3.2497432954e+00
 1.2151731692e+00	 2.2208583965e-01	 3.2253259627e+00
 1.2131499151e+00	 2.3288468528e-01	 3.2001923000e+00
 1.2110247644e+00	 2.4369459994e-01	 3.1742535004e+00
 1.2087971609e+00	 2.5451425879e-01	 3.1474151513e+00
 1.2064665692e+00	 2.6534232003e-01	 3.1195774921e+00
 1.2040324753e+00	 2.7617742524e-01	 3.0906357582e+00
 1.2014943869e+00	 2.8701819984e-01	 3.0604806191e+00
 1.1988518343e+00	 2.9786325339e-01	 3.0289987164e+00
 1.1961043707e+00	 3.0871118006e-01	 2.9960733080e+00
 1.1932515725e+00	 3.1956055903e-01	 2.9615850261e+00
 1.0795968361e+00	 2.8912307883e-01	 2.7022541087e+00
 1.0769200981e+00	 2.9893909244e-01	 2.7162991386e+00
 1.0741473587e+00	 3.0875381083e-01	 2.7305290275e+00
 1.0712783023e+00	 3.1856591119e-01	 2.7447729617e+00
 1.0683126359e+00	 3.2837405888e-01	 2.7588647513e+00
 1.0652500901e+00	 3.3817690787e-01	 2.7726431559e+00
 1.0620904189e+00	 3.4797310126e-01	 2.7859522054e+00
 1.0588334003e+00	 3.5776127175e-01	 2.7986415122e+00
 1.0554788368e+00	 3.6754004210e-01	 2.8105665747e+00
 1.0520265555e+00	 3.7730802572e-01	 2.8218754300e+00
 1.0484764088e+00	 3.8706382711e-01	 2.8332713318e+00
 1.0909622180e+00	 2.9216680227e-01	 2.7233712147e+00
 1.0882573008e+00	 3.0208615329e-01	 2.7305380907e+00
 1.0854553716e+00	 3.1200419546e-01	 2.7379233765e+00
 1.0825561113e+00	 3.2191959204e-01	 2.7453405492e+00
 1.0795592242e+00	 3.3183099432e-01	 2.7526078227e+00
 1.0764644376e+00	 3.4173704214e-01	 2.7595485057e+00
 1.0732715031e+00	 3.5163636429e-01	 2.7659913537e+00
 1.0699801965e+00	 3.6152757907e-01	 2.7717709142e+00
 1.0665903180e+00	 3.7140929476e-01	 2.7767339275e+00
 1.0631016931e+00	 3.8128011015e-01	 2.7814293697e+00
 1.0595141725e+00	 3.9113861508e-01	 2.7862339324e+00
 1.1023276288e+00	 2.9521053348e-01	 2.7560508217e+00
 1.0995945324e+00	 3.0523322217e-01	 2.7560596916e+00
 1.0967634132e+00	 3.1525458838e-01	 2.7562954357e+00
 1.0938339491e+00	 3.2527328143e-01	 2.7565609885e+00
 1.0908058410e+00	 3.3528793858e-01	 2.7566641443e+00
 1.0876788137e+00	 3.4529718548e-01	 2.7564179412e+00
 1.0844526159e+00	 3.5529963665e-01	 2.7556410390e+00
 1.0811270211e+00	 3.6529389599e-01	 2.7541580910e+00
 1.0777018276e+00	 3.7527855728e-01	 2.7519433048e+00
 1.0741768590e+00	 3.8525220471e-01	 2.7497618073e+00
 1.0705519644e+00	 3.9521341344e-01	 2.7476826323e+00
 1.1136930654e+00	 2.9825427158e-01	 2.7990955173e+00
 1.1109317896e+00	 3.0838029818e-01	 2.7920736296e+00
 1.1080714806e+00	 3.1850498866e-01	 2.7848736081e+00
 1.1051118125e+00	 3.2862697843e-01	 2.7776799577e+00
 1.1020524834e+00	 3.3874489068e-01	 2.7702950618e+00
 1.0988932152e+00	 3.4885733690e-01	 2.7625266998e+00
 1.0956337540e+00	 3.5896291732e-01	 2.7541884457e+00
 1.0922738710e+00	 3.6906022145e-01	 2.7451000598e+00
 1.0888133624e+00	 3.7914782857e-01	 2.7355515135e+00
 1.0852520500e+00	 3.8922430828e-01	 2.7261848629e+00
 1.0815897812e+00	 3.9928822103e-01	 2.7169306675e+00
 1.1250585246e+00	 3.0129801572e-01	 2.8416685718e+00
 1.1222690694e+00	 3.1152738043e-01	 2.8306792702e+00
 1.1193795703e+00	 3.2175539539e-01	 2.8190199764e+00
 1.1163896983e+00	 3.3198068208e-01	 2.8063969262e+00
 1.1132991481e+00	 3.4220184964e-01	 2.7925244733e+00
 1.1101076389e+00	 3.5241749538e-01	 2.7771821299e+00
 1.1068149143e+00	 3.6262620526e-01	 2.7609525818e+00
 1.1034207430e+00	 3.7282655438e-01	 2.7439602653e+00
 1.0999249193e+00	 3.8301710754e-01	 2.7268960162e+00
 1.0963272629e+00	 3.9319641973e-01	 2.7100393170e+00
 1.0926276200e+00	 4.0336303671e-01	 2.6933197908e+00
 1.1364240030e+00	 3.0434176503e-01	 2.8786952590e+00
 1.1336063685e+00	 3.1467446804e-01	 2.8636565985e+00
 1.1306876793e+00	 3.2500580765e-01	 2.8479601845e+00
 1.1276676032e+00	 3.3533439143e-01	 2.8313042444e+00
 1.1245458319e+00	 3.4565881447e-01	 2.8133943752e+00
 1.1213220817e+00	 3.5597765991e-01	 2.7939452513e+00
 1.1179960936e+00	 3.6628949942e-01	 2.7726824463e+00
 1.1145676340e+00	 3.7659289372e-01	 2.7495709852e+00
 1.1110364950e+00	 3.8688639309e-01	 2.7253417493e+00
 1.1074024946e+00	 3.9716853793e-01	 2.7006931833e+00
 1.1036654775e+00	 4.0743785931e-01	 2.6762188527e+00
 1.1477894976e+00	 3.0738551865e-01	 2.9096017045e+00
 1.1449436836e+00	 3.1782156010e-01	 2.8904556656e+00
 1.1419958043e+00	 3.2825622452e-01	 2.8706448767e+00
 1.1389455241e+00	 3.3868810553e-01	 2.8498638476e+00
 1.1357925317e+00	 3.4911578420e-01	 2.8278136516e+00
 1.1325365404e+00	 3.5953782949e-01	 2.8042036473e+00
 1.1291772887e+00	 3.6995279878e-01	 2.7787533205e+00
 1.1257145408e+00	 3.8035923839e-01	 2.7517782281e+00
 1.1221480865e+00	 3.9075568411e-01	 2.7237962781e+00
 1.1184777421e+00	 4.0114066175e-01	 2.6946916400e+00
 1.1147033506e+00	 4.1151268769e-01	 2.6643544389e+00
 1.1591550051e+00	 3.1042927573e-01	 2.9338446039e+00
 1.1562810116e+00	 3.2096865573e-01	 2.9105582067e+00
 1.1533039421e+00	 3.3150664506e-01	 2.8865802982e+00
 1.1502234578e+00	 3.4204182344e-01	 2.8616058440e+00
 1.1470392442e+00	 3.5257275785e-01	 2.8353355060e+00
 1.1437510118e+00	 3.6309800310e-01	 2.8074773699e+00
 1.1403584965e+00	 3.7361610228e-01	 2.7778069571e+00
 1.1368614602e+00	 3.8412558733e-01	 2.7469804267e+00
 1.1332596905e+00	 3.9462497953e-01	 2.7151696966e+00
 1.1295530021e+00	 4.0511279008e-01	 2.6822650855e+00
 1.1257412363e+00	 4.1558752069e-01	 2.6481637290e+00
 1.1705205222e+00	 3.1347303539e-01	 2.9509096493e+00
 1.1676183492e+00	 3.2411575403e-01	 2.9234743546e+00
 1.1646120896e+00	 3.3475706837e-01	 2.8953005503e+00
 1.1615014011e+00	 3.4539554419e-01	 2.8660877207e+00
 1.1582859662e+00	 3.5602973444e-01	 2.8355401148e+00
 1.1549654927e+00	 3.6665817974e-01	 2.8033684714e+00
 1.1515397138e+00	 3.7727940890e-01	 2.7695548100e+00
 1.1480083890e+00	 3.8789193947e-01	 2.7348128341e+00
 1.1443713040e+00	 3.9849427823e-01	 2.6991124755e+00
 1.1406282715e+00	 4.0908492179e-01	 2.6623551253e+00
 1.1367791314e+00	 4.1966235714e-01	 2.6244486774e+00
 1.1818860457e+00	 3.1651679678e-01	 2.9603100333e+00
 1.1789556932e+00	 3.2726285412e-01	 2.9287411648e+00
 1.1759202434e+00	 3.3800749352e-01	 2.8963661355e+00
 1.1727793507e+00	 3.4874926685e-01	 2.8628929068e+00
 1.1695326947e+00	 3.5948671298e-01	 2.8280332060e+00
 1.1661799800e+00	 3.7021835839e-01	 2.7915042410e+00
 1.1627209375e+00	 3.8094271760e-01	 2.7536388071e+00
 1.1591553242e+00	 3.9165829375e-01	 2.7149329148e+00
 1.1554829238e+00	 4.0236357912e-01	 2.6752972804e+00
 1.1517035472e+00	 4.1305705574e-01	 2.6346480108e+00
 1.1478170327e+00	 4.2373719591e-01	 2.5929073660e+00
 1.1932515725e+00	 3.1956055903e-01	 2.9615850261e+00
 1.1902930404e+00	 3.3040995510e-01	 2.9259212123e+00
 1.1872284004e+00	 3.4125791960e-01	 2.8893625718e+00
 1.1840573036e+00	 3.5210299045e-01	 2.8516294036e+00
 1.1807794263e+00	 3.6294369251e-01	 2.8124447037e+00
 1.1773944705e+00	 3.7377853805e-01	 2.7715941411e+00
 1.1739021643e+00	 3.8460602733e-01	 2.7297210406e+00
 1.1703022625e+00	 3.9542464909e-01	 2.6870191063e+00
 1.1665945468e+00	 4.0623288112e-01	 2.6434174781e+00
 1.1627788261e+00	 4.1702919083e-01	 2.5988504865e+00
 1.1588549371e+00	 4.2781203584e-01	 2.5532582317e+00
 1.0484764088e+00	 3.8706382711e-01	 2.8332713318e+00
 1.0448276457e+00	 3.9680769746e-01	 2.8442609834e+00
 1.0410807643e+00	 4.0653656441e-01	 2.8543058530e+00
 1.0372356932e+00	 4.1624900798e-01	 2.8633376161e+00
 1.0332923876e+00	 4.2594360152e-01	 2.8712861465e+00
 1.0292508292e+00	 4.3561891232e-01	 2.8780793563e+00
 1.0251110266e+00	 4.4527350221e-01	 2.8836430686e+00
 1.0208730156e+00	 4.5490592816e-01	 2.8879009240e+00
 1.0165368592e+00	 4.6451474289e-01	 2.8907743232e+00
 1.0121026483e+00	 4.7409849552e-01	 2.8921824085e+00
 1.0075705013e+00	 4.8365573221e-01	 2.8920420849e+00
 1.0595141725e+00	 3.9113861508e-01	 2.7862339324e+00
 1.0558269973e+00	 4.0098506335e-01	 2.7906108874e+00
 1.0520406708e+00	 4.1081635029e-01	 2.7940364714e+00
 1.0481551210e+00	 4.2063104094e-01	 2.7964468684e+00
 1.0441703025e+00	 4.3042769365e-01	 2.7977766828e+00
 1.0400861969e+00	 4.4020486062e-01	 2.7979587645e+00
 1.0359028128e+00	 4.4996108855e-01	 2.7969240671e+00
 1.0316201864e+00	 4.5969491920e-01	 2.7946015422e+00
 1.0272383815e+00	 4.6940489007e-01	 2.7909180723e+00
 1.0227574897e+00	 4.7908953501e-01	 2.7857984429e+00
 1.0181776308e+00	 4.8874738485e-01	 2.7791653585e+00
 1.0705519644e+00	 3.9521341344e-01	 2.7476826323e+00
 1.0668263770e+00	 4.0516243990e-01	 2.7451849193e+00
 1.0630006053e+00	 4.1509614708e-01	 2.7417690697e+00
 1.0590745767e+00	 4.2501308507e-01	 2.7373787289e+00
 1.0550482452e+00	 4.3491179721e-01	 2.7319560525e+00
 1.0509215922e+00	 4.4479082062e-01	 2.7254415083e+00
 1.0466946266e+00	 4.5464868685e-01	 2.7177737152e+00
 1.0423673847e+00	 4.6448392246e-01	 2.7088893187e+00
 1.0379399311e+00	 4.7429504973e-01	 2.6987229071e+00
 1.0334123583e+00	 4.8408058722e-01	 2.6872069709e+00
 1.0287847874e+00	 4.9383905048e-01	 2.6742719065e+00
 1.0815897812e+00	 3.9928822103e-01	 2.7169306675e+00
 1.0778257815e+00	 4.0933982592e-01	 2.7072943697e+00
 1.0739605647e+00	 4.1937595357e-01	 2.6968093753e+00
 1.0699940571e+00	 4.2939513914e-01	 2.6854296851e+00
 1.0659262125e+00	 4.3939591095e-01	 2.6731077665e+00
 1.0617570121e+00	 4.4937679102e-01	 2.6597943280e+00
 1.0574864648e+00	 4.5933629577e-01	 2.6454381305e+00
 1.0531146073e+00	 4.6927293658e-01	 2.6299858389e+00
 1.0486415049e+00	 4.7918522047e-01	 2.6133819165e+00
 1.0440672511e+00	 4.8907165075e-01	 2.5955685643e+00
 1.0393919680e+00	 4.9893072764e-01	 2.5764857087e+00
 1.0926276200e+00	 4.0336303671e-01	 2.6933197908e+00
 1.0888252079e+00	 4.1351722022e-01	 2.6762790384e+00
 1.0849205457e+00	 4.2365576855e-01	 2.6584917769e+00
 1.0809135592e+00	 4.3377720190e-01	 2.6399252000e+00
 1.0768042015e+00	 4.4388003357e-01	 2.6205447932e+00
 1.0725924535e+00	 4.5396277051e-01	 2.6003140727e+00
 1.0682783244e+00	 4.6402391398e-01	 2.5791943645e+00
 1.0638618512e+00	 4.7406196019e-01	 2.5571446249e+00
 1.0593430999e+00	 4.8407540091e-01	 2.5341213075e+00
 1.0547221649e+00	 4.9406272418e-01	 2.5100782776e+00
 1.0499991697e+00	 5.0402241491e-01	 2.4849667776e+00
 1.1036654775e+00	 4.0743785931e-01	 2.6762188527e+00
 1.0998246530e+00	 4.1769462163e-01	 2.6515058163e+00
 1.0958805454e+00	 4.2793559080e-01	 2.6261778995e+00
 1.0918330798e+00	 4.3815927212e-01	 2.6002182742e+00
 1.0876822089e+00	 4.4836416382e-01	 2.5736080982e+00
 1.0834279134e+00	 4.5854875780e-01	 2.5463262116e+00
 1.0790702023e+00	 4.6871154017e-01	 2.5183488769e+00
 1.0746091135e+00	 4.7885099194e-01	 2.4896495636e+00
 1.0700447132e+00	 4.8896558967e-01	 2.4601987810e+00
 1.0653770969e+00	 4.9905380609e-01	 2.4299639625e+00
 1.0606063894e+00	 5.0911411084e-01	 2.3989094033e+00
 1.1147033506e+00	 4.1151268769e-01	 2.6643544389e+00
 1.1108241137e+00	 4.2187202895e-01	 2.6323673477e+00
 1.1068405607e+00	 4.3221541912e-01	 2.5992552605e+00
 1.1027526159e+00	 4.4254134853e-01	 2.5656880889e+00
 1.0985602317e+00	 4.5284830042e-01	 2.5316652680e+00
 1.0942633885e+00	 4.6313475158e-01	 2.4971834296e+00
 1.0898620956e+00	 4.7339917300e-01	 2.4622360971e+00
 1.0853563909e+00	 4.8364003048e-01	 2.4268134266e+00
 1.0807463415e+00	 4.9385578535e-01	 2.3909020013e+00
 1.0760320440e+00	 5.0404489508e-01	 2.3544846795e+00
 1.0712136242e+00	 5.1420581397e-01	 2.3175404998e+00
 1.1257412363e+00	 4.1558752069e-01	 2.6481637290e+00
 1.1218235868e+00	 4.2604944101e-01	 2.6124895614e+00
 1.1178005884e+00	 4.3649525230e-01	 2.5749177386e+00
 1.1136721644e+00	 4.4692342992e-01	 2.5354191112e+00
 1.1094382669e+00	 4.5733244211e-01	 2.4941092109e+00
 1.1050988760e+00	 4.6772075057e-01	 2.4522643038e+00
 1.1006540011e+00	 4.7808681114e-01	 2.4102170671e+00
 1.0961036805e+00	 4.8842907445e-01	 2.3679764733e+00
 1.0914479821e+00	 4.9874598658e-01	 2.3255471530e+00
 1.0866870031e+00	 5.0903598972e-01	 2.2829292014e+00
 1.0818208709e+00	 5.1929752288e-01	 2.2401180466e+00
 1.1367791314e+00	 4.1966235714e-01	 2.6244486774e+00
 1.1328230693e+00	 4.3022685662e-01	 2.5850689314e+00
 1.1287606253e+00	 4.4077508910e-01	 2.5439411040e+00
 1.1245917222e+00	 4.5130551503e-01	 2.5010418406e+00
 1.1203163113e+00	 4.6181658760e-01	 2.4563602968e+00
 1.1159343726e+00	 4.7230675345e-01	 2.4098987102e+00
 1.1114459157e+00	 4.8277445327e-01	 2.3616729585e+00
 1.1068509793e+00	 4.9321812249e-01	 2.3125051340e+00
 1.1021496317e+00	 5.0363619196e-01	 2.2634775793e+00
 1.0973419714e+00	 5.1402708860e-01	 2.2146146003e+00
 1.0924281267e+00	 5.2438923612e-01	 2.1659296185e+00
 1.1478170327e+00	 4.2373719591e-01	 2.5929073660e+00
 1.1438225580e+00	 4.3440427459e-01	 2.5498090896e+00
 1.1397206685e+00	 4.4505492834e-01	 2.5051331406e+00
 1.1355112862e+00	 4.5568760263e-01	 2.4588633637e+00
 1.1311943618e+00	 4.6630073564e-01	 2.4109959017e+00
 1.1267698755e+00	 4.7689275893e-01	 2.3615397691e+00
 1.1222378365e+00	 4.8746209805e-01	 2.3105174124e+00
 1.1175982841e+00	 4.9800717324e-01	 2.2579652552e+00
 1.1128512874e+00	 5.0852640011e-01	 2.2039342253e+00
 1.1079969456e+00	 5.1901819031e-01	 2.1488849147e+00
 1.1030353885e+00	 5.2948095224e-01	 2.0942909980e+00
 1.1588549371e+00	 4.2781203584e-01	 2.5532582317e+00
 1.1548220499e+00	 4.3858169375e-01	 2.5064379924e+00
 1.1506807148e+00	 4.4933476878e-01	 2.4582287000e+00
 1.1464308532e+00	 4.6006969146e-01	 2.4086227308e+00
 1.1420724155e+00	 4.7078488495e-01	 2.3576244551e+00
 1.1376053813e+00	 4.8147876571e-01	 2.3052508110e+00
 1.1330297603e+00	 4.9214974416e-01	 2.2515318619e+00
 1.1283455920e+00	 5.0279622535e-01	 2.1965113390e+00
 1.1235529461e+00	 5.1341660965e-01	 2.1402471646e+00
 1.1186519229e+00	 5.2400929344e-01	 2.0828119564e+00
 1.1136426533e+00	 5.3457266981e-01	 2.0242935106e+00
 1.0075705013e+00	 4.8365573221e-01	 2.8920420849e+00
 1.0029413597e+00	 4.9318337935e-01	 2.8902367755e+00
 9.9821463549e-01	 5.0268160628e-01	 2.8866907312e+00
 9.9339053057e-01	 5.1214895436e-01	 2.8813773991e+00
 9.8846927534e-01	 5.2158396461e-01	 2.8742655677e+00
 9.8345112868e-01	 5.3098517837e-01	 2.8653194760e+00
 9.7833637800e-01	 5.4035113800e-01	 2.8544989724e+00
 9.7312533939e-01	 5.4968038753e-01	 2.8417597219e+00
 9.6781835759e-01	 5.5897147338e-01	 2.8270534641e+00
 9.6241580608e-01	 5.6822294504e-01	 2.8103283201e+00
 9.5691808708e-01	 5.7743335581e-01	 2.7915291483e+00
 1.0181776308e+00	 4.8874738485e-01	 2.7791653585e+00
 1.0134997563e+00	 4.9837533365e-01	 2.7708574970e+00
 1.0087232718e+00	 5.0797355251e-01	 2.7607664766e+00
 1.0038483814e+00	 5.1754056745e-01	 2.7488924181e+00
 9.9887531803e-01	 5.2707490412e-01	 2.7352298051e+00
 9.9380434317e-01	 5.3657508852e-01	 2.7197675565e+00
 9.8863574731e-01	 5.4603964765e-01	 2.7024891520e+00
 9.8336984984e-01	 5.5546711021e-01	 2.6833728109e+00
 9.7800699915e-01	 5.6485600733e-01	 2.6623917239e+00
 9.7254757266e-01	 5.7420487324e-01	 2.6395143396e+00
 9.6699197679e-01	 5.8351224597e-01	 2.6147047027e+00
 1.0287847874e+00	 4.9383905048e-01	 2.6742719065e+00
 1.0240581798e+00	 5.0356730118e-01	 2.6596975212e+00
 1.0192319349e+00	 5.1326551223e-01	 2.6433243618e+00
 1.0143062590e+00	 5.2293219429e-01	 2.6251745120e+00
 1.0092813873e+00	 5.3256585764e-01	 2.6052635909e+00
 1.0041575841e+00	 5.4216501293e-01	 2.5836007971e+00
 9.9893514289e-01	 5.5172817181e-01	 2.5601890091e+00
 9.9361438642e-01	 5.6125384766e-01	 2.5350249424e+00
 9.8819566670e-01	 5.7074055630e-01	 2.5080993647e+00
 9.8267936507e-01	 5.8018681668e-01	 2.4793973684e+00
 9.7706589220e-01	 5.8959115163e-01	 2.4488986997e+00
 1.0393919680e+00	 4.9893072764e-01	 2.5764857087e+00
 1.0346166272e+00	 5.0875928049e-01	 2.5558453590e+00
 1.0297406218e+00	 5.1855748395e-01	 2.5334238787e+00
 1.0247641602e+00	 5.2832383335e-01	 2.5092607578e+00
 1.0196874801e+00	 5.3805682361e-01	 2.4833883400e+00
 1.0145108484e+00	 5.4775495001e-01	 2.4558318462e+00
 1.0092345618e+00	 5.5741670886e-01	 2.4266094569e+00
 1.0038589462e+00	 5.6704059822e-01	 2.3957324566e+00
 9.9838435735e-01	 5.7662511860e-01	 2.3632054390e+00
 9.9281118045e-01	 5.8616877369e-01	 2.3290265740e+00
 9.8713983044e-01	 5.9567007107e-01	 2.2931879356e+00
 1.0499991697e+00	 5.0402241491e-01	 2.4849667776e+00
 1.0451750956e+00	 5.1395127009e-01	 2.4584270801e+00
 1.0402493296e+00	 5.2384946617e-01	 2.4301633651e+00
 1.0352220822e+00	 5.3371548310e-01	 2.4002281205e+00
 1.0300935935e+00	 5.4354780046e-01	 2.3686661465e+00
 1.0248641333e+00	 5.5334489817e-01	 2.3355145649e+00
 1.0195340012e+00	 5.6310525719e-01	 2.3008028929e+00
 1.0141035264e+00	 5.7282736026e-01	 2.2645531806e+00
 1.0085730682e+00	 5.8250969257e-01	 2.2267802154e+00
 1.0029430159e+00	 5.9215074256e-01	 2.1874917903e+00
 9.9721378867e-01	 6.0174900258e-01	 2.1466890382e+00
 1.0606063894e+00	 5.0911411084e-01	 2.3989094033e+00
 1.0557335819e+00	 5.1914326852e-01	 2.3666044900e+00
 1.0507580552e+00	 5.2914145739e-01	 2.3326781268e+00
 1.0456800220e+00	 5.3910714203e-01	 2.2971915334e+00
 1.0404997247e+00	 5.4903878665e-01	 2.2601978349e+00
 1.0352174359e+00	 5.5893485584e-01	 2.2217420645e+00
 1.0298334580e+00	 5.6879381520e-01	 2.1818612350e+00
 1.0243481239e+00	 5.7861413213e-01	 2.1405844787e+00
 1.0187617964e+00	 5.8839427655e-01	 2.0979332569e+00
 1.0130748686e+00	 5.9813272160e-01	 2.0539216381e+00
 1.0072877640e+00	 6.0782794441e-01	 2.0085566461e+00
 1.0712136242e+00	 5.1420581397e-01	 2.3175404998e+00
 1.0662920832e+00	 5.2433527431e-01	 2.2795734134e+00
 1.0612667958e+00	 5.3443345610e-01	 2.2401386692e+00
 1.0561379766e+00	 5.4449880859e-01	 2.1993020905e+00
 1.0509058706e+00	 5.5452978063e-01	 2.1571211269e+00
 1.0455707530e+00	 5.6452482143e-01	 2.1136448588e+00
 1.0401329295e+00	 5.7448238126e-01	 2.0689140742e+00
 1.0345927360e+00	 5.8440091221e-01	 2.0229614176e+00
 1.0289505390e+00	 5.9427886887e-01	 1.9758116127e+00
 1.0232067357e+00	 6.0411470912e-01	 1.9274817579e+00
 1.0173617536e+00	 6.1390689486e-01	 1.8779816951e+00
 1.0818208709e+00	 5.1929752288e-01	 2.2401180466e+00
 1.0768505965e+00	 5.2952728598e-01	 2.1965620753e+00
 1.0717755482e+00	 5.3972546081e-01	 2.1517490311e+00
 1.0665959430e+00	 5.4989048126e-01	 2.1057453436e+00
 1.0613120283e+00	 5.6002078082e-01	 2.0586089131e+00
 1.0559240819e+00	 5.7011479335e-01	 2.0103891241e+00
 1.0504324126e+00	 5.8017095378e-01	 1.9611269340e+00
 1.0448373596e+00	 5.9018769884e-01	 1.9108550388e+00
 1.0391392932e+00	 6.0016346786e-01	 1.8595981163e+00
 1.0333386142e+00	 6.1009670342e-01	 1.8073731462e+00
 1.0274357547e+00	 6.1998585220e-01	 1.7541898072e+00
 1.0924281267e+00	 5.2438923612e-01	 2.1659296185e+00
 1.0874091187e+00	 5.3471930207e-01	 2.1168295755e+00
 1.0822843096e+00	 5.4501747002e-01	 2.0667452131e+00
 1.0770539183e+00	 5.5528215851e-01	 2.0157396967e+00
 1.0717181948e+00	 5.6551178568e-01	 1.9638676253e+00
 1.0662774196e+00	 5.7570477003e-01	 1.9111750596e+00
 1.0607319045e+00	 5.8585953112e-01	 1.8576996311e+00
 1.0550819920e+00	 5.9597449040e-01	 1.8034707312e+00
 1.0493280560e+00	 6.0604807184e-01	 1.7485097821e+00
 1.0434705014e+00	 6.1607870280e-01	 1.6928305890e+00
 1.0375097643e+00	 6.2606481470e-01	 1.6364397727e+00
 1.1030353885e+00	 5.2948095224e-01	 2.0942909980e+00
 1.0979676469e+00	 5.3991132109e-01	 2.0396644485e+00
 1.0927930769e+00	 5.5030948223e-01	 1.9843936954e+00
 1.0875118996e+00	 5.6067383882e-01	 1.9285348922e+00
 1.0821243672e+00	 5.7100279366e-01	 1.8721357003e+00
 1.0766307632e+00	 5.8129474987e-01	 1.8152353409e+00
 1.0710314022e+00	 5.9154811169e-01	 1.7578647296e+00
 1.0653266302e+00	 6.0176128523e-01	 1.7000466972e+00
 1.0595168246e+00	 6.1193267916e-01	 1.6417962948e+00
 1.0536023943e+00	 6.2206070557e-01	 1.5831211856e+00
 1.0475837796e+00	 6.3214378065e-01	 1.5240221205e+00
 1.1136426533e+00	 5.3457266981e-01	 2.0242935106e+00
 1.1085261781e+00	 5.4510334159e-01	 1.9643833036e+00
 1.1033018472e+00	 5.5560149593e-01	 1.9039900386e+00
 1.0979698838e+00	 5.6606552066e-01	 1.8434105807e+00
 1.0925305426e+00	 5.7649380318e-01	 1.7826821308e+00
 1.0869841097e+00	 5.8688473129e-01	 1.7218336608e+00
 1.0813309028e+00	 5.9723669388e-01	 1.6608860823e+00
 1.0755712713e+00	 6.0754808170e-01	 1.5998525049e+00
 1.0697055961e+00	 6.1781728815e-01	 1.5387385836e+00
 1.0637342901e+00	 6.2804271004e-01	 1.4775429564e+00
 1.0576577978e+00	 6.3822274832e-01	 1.4162577706e+00
 9.5691808708e-01	 5.7743335581e-01	 2.7915291483e+00
 9.5132563174e-01	 5.8660126360e-01	 2.7705129425e+00
 9.4563890083e-01	 5.9572523230e-01	 2.7471797556e+00
 9.3985838398e-01	 6.0480383185e-01	 2.7215358299e+00
 9.3398459938e-01	 6.1383563884e-01	 2.6935864465e+00
 9.2801809367e-01	 6.2281923720e-01	 2.6633364146e+00
 9.2195944185e-01	 6.3175321886e-01	 2.6307906011e+00
 9.1580924711e-01	 6.4063618453e-01	 2.5959544950e+00
 9.0956814074e-01	 6.4946674430e-01	 2.5588348076e+00
 9.0323678187e-01	 6.5824351844e-01	 2.5194401022e+00
 8.9681585735e-01	 6.6696513803e-01	 2.4777814523e+00
 9.6699197679e-01	 5.8351224597e-01	 2.6147047027e+00
 9.6134064726e-01	 5.9277666829e-01	 2.5878473523e+00
 9.5559404968e-01	 6.0199668894e-01	 2.5588780484e+00
 9.4975267884e-01	 6.1117086282e-01	 2.5278331588e+00
 9.4381705837e-01	 6.2029775155e-01	 2.4947474899e+00
 9.3778774068e-01	 6.2937592412e-01	 2.4596547622e+00
 9.3166530681e-01	 6.3840395767e-01	 2.4225881277e+00
 9.2545036633e-01	 6.4738043814e-01	 2.3835807264e+00
 9.1914355713e-01	 6.5630396103e-01	 2.3426662803e+00
 9.1274554532e-01	 6.6517313206e-01	 2.2998797200e+00
 9.0625702495e-01	 6.7398656790e-01	 2.2552578426e+00
 9.7706589220e-01	 5.8959115163e-01	 2.4488986997e+00
 9.7135568833e-01	 5.9895208872e-01	 2.4165164665e+00
 9.6554922392e-01	 6.0826816157e-01	 2.3822221003e+00
 9.5964699893e-01	 6.1753791003e-01	 2.3460770179e+00
 9.5364954244e-01	 6.2675988073e-01	 2.3081402712e+00
 9.4755741260e-01	 6.3593262776e-01	 2.2684690147e+00
 9.4137119653e-01	 6.4505471343e-01	 2.2271190190e+00
 9.3509151012e-01	 6.5412470896e-01	 2.1841452270e+00
 9.2871899794e-01	 6.6314119520e-01	 2.1396023503e+00
 9.2225433301e-01	 6.7210276335e-01	 2.0935455014e+00
 9.1569821662e-01	 6.8100801568e-01	 2.0460308611e+00
 9.8713983044e-01	 5.9567007107e-01	 2.2931879356e+00
 9.8137075209e-01	 6.0512752315e-01	 2.2556264216e+00
 9.7550442073e-01	 6.1453964842e-01	 2.2163433191e+00
 9.6954134145e-01	 6.2390497168e-01	 2.1754201569e+00
 9.6348204879e-01	 6.3322202457e-01	 2.1329350926e+00
 9.5732710667e-01	 6.4248934627e-01	 2.0889633804e+00
 9.5107710825e-01	 6.5170548427e-01	 2.0435778882e+00
 9.4473267578e-01	 6.6086899506e-01	 1.9968496605e+00
 9.3829446046e-01	 6.6997844486e-01	 1.9488485262e+00
 9.3176314226e-01	 6.7903241035e-01	 1.8996437455e+00
 9.2513942970e-01	 6.8802947938e-01	 1.8493046948e+00
 9.9721378867e-01	 6.0174900258e-01	 2.1466890382e+00
 9.9138583573e-01	 6.1130296983e-01	 2.1043223008e+00
 9.8545963728e-01	 6.2081114771e-01	 2.0604113562e+00
 9.7943570359e-01	 6.3027204595e-01	 2.0150530399e+00
 9.7331457465e-01	 6.3968418122e-01	 1.9683396102e+00
 9.6709682012e-01	 6.4904607778e-01	 1.9203592227e+00
 9.6078303922e-01	 6.5835626830e-01	 1.8711964580e+00
 9.5437386055e-01	 6.6761329454e-01	 1.8209329008e+00
 9.4786994197e-01	 6.7681570809e-01	 1.7696477662e+00
 9.4127197036e-01	 6.8596207110e-01	 1.7174185707e+00
 9.3458066151e-01	 6.9505095700e-01	 1.6643218437e+00
 1.0072877640e+00	 6.0782794441e-01	 2.0085566461e+00
 1.0014009364e+00	 6.1747842701e-01	 1.9617863733e+00
 9.9541487076e-01	 6.2708265766e-01	 1.9136323981e+00
 9.8933008256e-01	 6.3663913105e-01	 1.8642021829e+00
 9.8314711722e-01	 6.4614634885e-01	 1.8135972085e+00
 9.7686655018e-01	 6.5560282044e-01	 1.7619134625e+00
 9.7048898670e-01	 6.6500706364e-01	 1.7092419851e+00
 9.6401506172e-01	 6.7435760549e-01	 1.6556694716e+00
 9.5744543975e-01	 6.8365298294e-01	 1.6012789264e+00
 9.5078081464e-01	 6.9289174362e-01	 1.5461503660e+00
 9.4402190936e-01	 7.0207244656e-01	 1.4903615675e+00
 1.0173617536e+00	 6.1390689486e-01	 1.8779816951e+00
 1.0114160512e+00	 6.2365389293e-01	 1.8272364396e+00
 1.0053701183e+00	 6.3335417649e-01	 1.7752475614e+00
 9.9922447554e-01	 6.4300622517e-01	 1.7221285898e+00
 9.9297967373e-01	 6.5260852565e-01	 1.6679854713e+00
 9.8663629408e-01	 6.6215957239e-01	 1.6129170783e+00
 9.8019494792e-01	 6.7165786840e-01	 1.5570157813e+00
 9.7365627655e-01	 6.8110192599e-01	 1.5003680822e+00
 9.6702095111e-01	 6.9049026748e-01	 1.4430553045e+00
 9.6028967238e-01	 6.9982142597e-01	 1.3851543376e+00
 9.5346317059e-01	 7.0909394606e-01	 1.3267384301e+00
 1.0274357547e+00	 6.1998585220e-01	 1.7541898072e+00
 1.0214311774e+00	 6.2982936586e-01	 1.6999242743e+00
 1.0153253772e+00	 6.3962570244e-01	 1.6445313831e+00
 1.0091188797e+00	 6.4937332651e-01	 1.5881262835e+00
 1.0028122414e+00	 6.5907070976e-01	 1.5308147457e+00
 9.9640604906e-01	 6.6871633177e-01	 1.4726936961e+00
 9.8990092015e-01	 6.7830868070e-01	 1.4138518238e+00
 9.8329750230e-01	 6.8784625413e-01	 1.3543702521e+00
 9.7659647332e-01	 6.9732755976e-01	 1.2943232737e+00
 9.6979854091e-01	 7.0675111616e-01	 1.2337791448e+00
 9.6290444253e-01	 7.1611545353e-01	 1.1728009330e+00
 1.0375097643e+00	 6.2606481470e-01	 1.6364397727e+00
 1.0314463121e+00	 6.3600484404e-01	 1.5791341603e+00
 1.0252806445e+00	 6.4589723371e-01	 1.5207903998e+00
 1.0190132923e+00	 6.5574043326e-01	 1.4615209231e+00
 1.0126448174e+00	 6.6553289937e-01	 1.4014267911e+00
 1.0061758123e+00	 6.7527309672e-01	 1.3405982642e+00
 9.9960690062e-01	 6.8495949865e-01	 1.2791154492e+00
 9.9293873626e-01	 6.9459058801e-01	 1.2170490185e+00
 9.8617200367e-01	 7.0416485786e-01	 1.1544609980e+00
 9.7930741752e-01	 7.1368081225e-01	 1.0914056196e+00
 9.7234572249e-01	 7.2313696696e-01	 1.0279302335e+00
 1.0475837796e+00	 6.3214378065e-01	 1.5240221205e+00
 1.0414614525e+00	 6.4218032571e-01	 1.4641815087e+00
 1.0352359175e+00	 6.5216876854e-01	 1.4033618098e+00
 1.0289077106e+00	 6.6210754361e-01	 1.3416685023e+00
 1.0224773990e+00	 6.7199509264e-01	 1.2791935081e+00
 1.0159455812e+00	 6.8182986539e-01	 1.2160158058e+00
 1.0093128866e+00	 6.9161032037e-01	 1.1522021253e+00
 1.0025799757e+00	 7.0133492571e-01	 1.0878077219e+00
 9.9574753944e-01	 7.1100215984e-01	 1.0228772263e+00
 9.8881629951e-01	 7.2061051226e-01	 9.5744556362e-01
 9.8178700780e-01	 7.3015848438e-01	 8.9153893988e-01
 1.0576577978e+00	 6.3822274832e-01	 1.4162577706e+00
 1.0514765958e+00	 6.4835580913e-01	 1.3544115573e+00
 1.0451911933e+00	 6.5844030515e-01	 1.2916122129e+00
 1.0388021316e+00	 6.6847465577e-01	 1.2279541234e+00
 1.0323099833e+00	 6.7845728775e-01	 1.1635157412e+00
 1.0257153527e+00	 6.8838663591e-01	 1.0983602459e+00
 1.0190188753e+00	 6.9826114398e-01	 1.0325362955e+00
 1.0122212178e+00	 7.0807926532e-01	 9.6607886345e-01
 1.0053230779e+00	 7.1783946375e-01	 8.9901015778e-01
 9.9832518421e-01	 7.2754021424e-01	 8.3134061752e-01
 9.9122829578e-01	 7.3718000378e-01	 7.6306998095e-01
 8.9681585735e-01	 6.6696513803e-01	 2.4777814523e+00
 8.9030496784e-01	 6.7563171311e-01	 2.4336740015e+00
 8.8370594236e-01	 6.8424040616e-01	 2.3868588608e+00
 8.7701955351e-01	 6.9278987923e-01	 2.3372137750e+00
 8.7024660062e-01	 7.0127880786e-01	 2.2846135521e+00
 8.6338790946e-01	 7.0970588183e-01	 2.2289309867e+00
 8.5644433191e-01	 7.1806980576e-01	 2.1700378024e+00
 8.4941674562e-01	 7.2636929978e-01	 2.1078056056e+00
 8.4230605367e-01	 7.3460310021e-01	 2.0421068476e+00
 8.3511318416e-01	 7.4276996011e-01	 1.9729040271e+00
 8.2783908984e-01	 7.5086865000e-01	 1.9019449072e+00
 9.0625702495e-01	 6.7398656790e-01	 2.2552578426e+00
 8.9967759250e-01	 6.8274437975e-01	 2.2085120260e+00
 8.9300909623e-01	 6.9144370024e-01	 2.1592469661e+00
 8.8625231687e-01	 7.0008317730e-01	 2.1073144550e+00
 8.7940806219e-01	 7.0866147255e-01	 2.0525623125e+00
 8.7247716663e-01	 7.1717726196e-01	 1.9948353935e+00
 8.6546049104e-01	 7.2562923652e-01	 1.9339766144e+00
 8.5835892232e-01	 7.3401610290e-01	 1.8698279945e+00
 8.5117337304e-01	 7.4233658410e-01	 1.8022871013e+00
 8.4390478109e-01	 7.5058942006e-01	 1.7330657888e+00
 8.3655410924e-01	 7.5877336836e-01	 1.6628569698e+00
 9.1569821662e-01	 6.8100801568e-01	 2.0460308611e+00
 9.0905024105e-01	 6.8985706454e-01	 1.9966579340e+00
 9.0231227382e-01	 6.9864701269e-01	 1.9448953387e+00
 8.9548510378e-01	 7.0737649397e-01	 1.8905752844e+00
 8.8856954712e-01	 7.1604415606e-01	 1.8335251461e+00
 8.8156644697e-01	 7.2464866114e-01	 1.7735685491e+00
 8.7447667316e-01	 7.3318868657e-01	 1.7105264737e+00
 8.6730112182e-01	 7.4166292553e-01	 1.6442374997e+00
 8.6004071503e-01	 7.5007008771e-01	 1.5762983273e+00
 8.5269640044e-01	 7.5840889996e-01	 1.5076337194e+00
 8.4526915086e-01	 7.6667810687e-01	 1.4379758182e+00
 9.2513942970e-01	 6.8802947938e-01	 1.8493046948e+00
 9.1842291086e-01	 6.9696976545e-01	 1.7973148833e+00
 9.1161547250e-01	 7.0585034146e-01	 1.7430109188e+00
 9.0471791162e-01	 7.1466982717e-01	 1.6862115641e+00
 8.9773105281e-01	 7.2342685631e-01	 1.6267300548e+00
 8.9065574792e-01	 7.3212007726e-01	 1.5643752544e+00
 8.8349287572e-01	 7.4074815375e-01	 1.4989528677e+00
 8.7624334159e-01	 7.4930976548e-01	 1.4318185521e+00
 8.6890807711e-01	 7.5780360886e-01	 1.3642505027e+00
 8.6148803972e-01	 7.6622839758e-01	 1.2959725220e+00
 8.5398421224e-01	 7.7458286331e-01	 1.2266987817e+00
 9.3458066151e-01	 6.9505095700e-01	 1.6643218437e+00
 9.2779559925e-01	 7.0408248047e-01	 1.6097247978e+00
 9.2091868963e-01	 7.1305368452e-01	 1.5528396731e+00
 9.1395073778e-01	 7.2196317483e-01	 1.4934776969e+00
 9.0689257669e-01	 7.3080957120e-01	 1.4314440401e+00
 8.9974506690e-01	 7.3959150820e-01	 1.3665390385e+00
 8.9250909616e-01	 7.4830763592e-01	 1.2997699483e+00
 8.8518557909e-01	 7.5695662061e-01	 1.2328407458e+00
 8.7777545679e-01	 7.6553714534e-01	 1.1655027793e+00
 8.7027969644e-01	 7.7404791071e-01	 1.0974697611e+00
 8.6269929091e-01	 7.8248763542e-01	 1.0284449586e+00
 9.4402190936e-01	 7.0207244656e-01	 1.4903615675e+00
 9.3716830358e-01	 7.1119520758e-01	 1.4331668129e+00
 9.3022192258e-01	 7.2025703983e-01	 1.3736650494e+00
 9.2318357963e-01	 7.2925653490e-01	 1.3116656601e+00
 9.1605411613e-01	 7.3819229864e-01	 1.2469716031e+00
 9.0883440133e-01	 7.4706295184e-01	 1.1802240407e+00
 9.0152533193e-01	 7.5586713095e-01	 1.1134979303e+00
 8.9412783180e-01	 7.6460348873e-01	 1.0466611691e+00
 8.8664285154e-01	 7.7327069498e-01	 9.7943649178e-01
 8.7907136810e-01	 7.8186743713e-01	 9.1153426583e-01
 8.7141438439e-01	 7.9039242097e-01	 8.4265368852e-01
 9.5346317059e-01	 7.0909394606e-01	 1.3267384301e+00
 9.4654102119e-01	 7.1830794477e-01	 1.2669558194e+00
 9.3952516871e-01	 7.2746040534e-01	 1.2048065281e+00
 9.3241643456e-01	 7.3654990530e-01	 1.1401035743e+00
 9.2521566856e-01	 7.4557503654e-01	 1.0731447335e+00
 9.1792374863e-01	 7.5453440607e-01	 1.0062375622e+00
 9.1054158048e-01	 7.6342663669e-01	 9.3949513170e-01
 9.0307009718e-01	 7.7225036769e-01	 8.7265827259e-01
 8.9551025885e-01	 7.8100425557e-01	 8.0545358463e-01
 8.8786305222e-01	 7.8968697463e-01	 7.3759461613e-01
 8.8012949022e-01	 7.9829721772e-01	 6.6878310390e-01
 9.6290444253e-01	 7.1611545353e-01	 1.1728009330e+00
 9.5591374942e-01	 7.2542069002e-01	 1.1104410967e+00
 9.4882842539e-01	 7.3466377902e-01	 1.0456182646e+00
 9.4164929995e-01	 7.4384328397e-01	 9.7835632101e-01
 9.3437723137e-01	 7.5295778281e-01	 9.1096283721e-01
 9.2701310624e-01	 7.6200586876e-01	 8.4396830585e-01
 9.1955783924e-01	 7.7098615099e-01	 7.7714028471e-01
 9.1201237269e-01	 7.7989725532e-01	 7.1023032585e-01
 9.0437767621e-01	 7.8873782492e-01	 6.4297511921e-01
 8.9665474631e-01	 7.9750652100e-01	 5.7509770572e-01
 8.8884460593e-01	 8.0620202343e-01	 5.0630875442e-01
 9.7234572249e-01	 7.2313696696e-01	 1.0279302335e+00
 9.6528648562e-01	 7.3253344132e-01	 9.6300503110e-01
 9.5813168997e-01	 7.4186715882e-01	 8.9551508050e-01
 9.5088217320e-01	 7.5113666883e-01	 8.2743391670e-01
 9.4353880196e-01	 7.6034053536e-01	 7.5992750346e-01
 9.3610247158e-01	 7.6947733781e-01	 6.9279828101e-01
 9.2857410567e-01	 7.7854567172e-01	 6.2583102828e-01
 9.2095465581e-01	 7.8754414945e-01	 5.5879395223e-01
 9.1324510111e-01	 7.9647140085e-01	 4.9143985543e-01
 9.0544644786e-01	 8.0532607401e-01	 4.2350737691e-01
 8.9755972904e-01	 8.1410683586e-01	 3.5472230046e-01
 9.8178700780e-01	 7.3015848438e-01	 8.9153893988e-01
 9.7465922713e-01	 7.3964619664e-01	 8.2406191186e-01
 9.6743495982e-01	 7.4907054271e-01	 7.5524073228e-01
 9.6011505167e-01	 7.5843005783e-01	 6.8707323812e-01
 9.5270037775e-01	 7.6772329208e-01	 6.1942685431e-01
 9.4519184207e-01	 7.7694881109e-01	 5.5212738313e-01
 9.3759037721e-01	 7.8610519674e-01	 4.8498247559e-01
 9.2989694399e-01	 7.9519104791e-01	 4.1778273504e-01
 9.2211253104e-01	 8.0420498116e-01	 3.5030290312e-01
 9.1423815440e-01	 8.1314563145e-01	 2.8230312247e-01
 9.0627485710e-01	 8.2201165277e-01	 2.1353027042e-01
 9.9122829578e-01	 7.3718000378e-01	 7.6306998095e-01
 9.8403197130e-01	 7.4675895398e-01	 6.9377923648e-01
 9.7673823232e-01	 7.5627392863e-01	 6.2493372692e-01
 9.6934793277e-01	 7.6572344890e-01	 5.5667120435e-01
 9.6186195614e-01	 7.7510605090e-01	 4.8886578104e-01
 9.5428121513e-01	 7.8442028648e-01	 4.2137199892e-01
 9.4660665130e-01	 7.9366472389e-01	 3.5402585053e-01
 9.3883923471e-01	 8.0283794853e-01	 2.8664589138e-01
 9.3097996348e-01	 8.1193856367e-01	 2.1903443859e-01
 9.2302986343e-01	 8.2096519111e-01	 1.5097884999e-01
 9.1498998762e-01	 8.2991647192e-01	 8.2252877671e-02
 8.2783908984e-01	 7.5086865000e-01	 1.9019449072e+00
 8.2048600236e-01	 7.5889660170e-01	 1.8295705103e+00
 8.1305368150e-01	 7.6685401632e-01	 1.7553685679e+00
 8.0554313776e-01	 7.7473973390e-01	 1.6791948012e+00
 7.9795540449e-01	 7.8255261423e-01	 1.6009074717e+00
 7.9029153743e-01	 7.9029153743e-01	 1.5203683064e+00
 7.8255261423e-01	 7.9795540449e-01	 1.4374434289e+00
 7.7473973390e-01	 8.0554313776e-01	 1.3520042915e+00
 7.6685401632e-01	 8.1305368150e-01	 1.2639286036e+00
 7.5889660170e-01	 8.2048600236e-01	 1.1731012514e+00
 7.5086865000e-01	 8.2783908984e-01	 1.0794152057e+00
 8.3655410924e-01	 7.5877336836e-01	 1.6628569698e+00
 8.2912361264e-01	 7.6688583377e-01	 1.5912801025e+00
 8.2161304853e-01	 7.7492701953e-01	 1.5180299913e+00
 8.1402343805e-01	 7.8289575346e-01	 1.4430087390e+00
 8.0635582543e-01	 7.9079088335e-01	 1.3661201845e+00
 7.9861127754e-01	 7.9861127754e-01	 1.2872708027e+00
 7.9079088335e-01	 8.0635582543e-01	 1.2063706125e+00
 7.8289575346e-01	 8.1402343805e-01	 1.1233340865e+00
 7.7492701953e-01	 8.2161304853e-01	 1.0380810605e+00
 7.6688583377e-01	 8.2912361264e-01	 9.5053763389e-01
 7.5877336836e-01	 8.3655410924e-01	 8.6063706057e-01
 8.4526915086e-01	 7.6667810687e-01	 1.4379758182e+00
 8.3776124494e-01	 7.7487508622e-01	 1.3670036159e+00
 8.3017243738e-01	 7.8300004333e-01	 1.2945152060e+00
 8.2250375996e-01	 7.9105179382e-01	 1.2204515206e+00
 8.1475626780e-01	 7.9902917348e-01	 1.1447544896e+00
 8.0693103887e-01	 8.0693103887e-01	 1.0673679279e+00
 7.9902917348e-01	 8.1475626780e-01	 9.8823843247e-01
 7.9105179382e-01	 8.2250375996e-01	 9.0731628334e-01
 7.8300004333e-01	 8.3017243738e-01	 8.2455634395e-01
 7.7487508622e-01	 8.3776124494e-01	 7.3991895643e-01
 7.6667810687e-01	 8.4526915086e-01	 6.5337082592e-01
 8.5398421224e-01	 7.7458286331e-01	 1.2266987817e+00
 8.4639889682e-01	 7.8286435677e-01	 1.1561736479e+00
 8.3873184564e-01	 7.9107308542e-01	 1.0842944509e+00
 8.3098410110e-01	 7.9920785267e-01	 1.0110336100e+00
 8.2315672921e-01	 8.0726748229e-01	 9.3636386776e-01
 8.1525081905e-01	 8.1525081905e-01	 8.6025917711e-01
 8.0726748229e-01	 8.2315672921e-01	 7.8269559910e-01
 7.9920785267e-01	 8.3098410110e-01	 7.0365220704e-01
 7.9107308542e-01	 8.3873184564e-01	 6.2311199138e-01
 7.8286435677e-01	 8.4639889682e-01	 5.4106276015e-01
 7.7458286331e-01	 8.5398421224e-01	 4.5749802972e-01
 8.6269929091e-01	 7.8248763542e-01	 1.0284449586e+00
 8.5503656583e-01	 7.9085364317e-01	 9.5824338382e-01
 8.4729127087e-01	 7.9914614353e-01	 8.8685729135e-01
 8.3946445906e-01	 8.0736392769e-01	 8.1428344653e-01
 8.3155720728e-01	 8.1550580744e-01	 7.4051832459e-01
 8.2357061574e-01	 8.2357061574e-01	 6.6555900929e-01
 8.1550580744e-01	 8.3155720728e-01	 5.8940410446e-01
 8.0736392769e-01	 8.3946445906e-01	 5.1205465321e-01
 7.9914614353e-01	 8.4729127087e-01	 4.3351505913e-01
 7.9085364317e-01	 8.5503656583e-01	 3.5379400416e-01
 7.8248763542e-01	 8.6269929091e-01	 2.7290535745e-01
 8.7141438439e-01	 7.9039242097e-01	 8.4265368852e-01
 8.6367424953e-01	 7.9884294315e-01	 7.7268514303e-01
 8.5585071066e-01	 8.0721921537e-01	 7.0171124466e-01
 8.4794483144e-01	 8.1552001659e-01	 6.2974615457e-01
 8.3995769964e-01	 8.2374414660e-01	 5.5680318872e-01
 8.3189042657e-01	 8.3189042657e-01	 4.8289574061e-01
 8.2374414660e-01	 8.3995769964e-01	 4.0803821868e-01
 8.1552001659e-01	 8.4794483144e-01	 3.3224699272e-01
 8.0721921537e-01	 8.5585071066e-01	 2.5554134360e-01
 7.9884294315e-01	 8.6367424953e-01	 1.7794441036e-01
 7.9039242097e-01	 8.7141438439e-01	 9.9484128989e-02
 8.8012949022e-01	 7.9829721772e-01	 6.6878310390e-01
 8.7231194547e-01	 8.0683225445e-01	 5.9898900049e-01
 8.6441016257e-01	 8.1529229864e-01	 5.2838047589e-01
 8.5642521583e-01	 8.2367611703e-01	 4.5698231834e-01
 8.4835820390e-01	 8.3198249742e-01	 3.8481797172e-01
 8.4021024919e-01	 8.4021024919e-01	 3.1191049470e-01
 8.3198249742e-01	 8.4835820390e-01	 2.3828353611e-01
 8.2367611703e-01	 8.5642521583e-01	 1.6396232085e-01
 8.1529229864e-01	 8.6441016257e-01	 8.8974639986e-02
 8.0683225445e-01	 8.7231194547e-01	 1.3351839168e-02
 7.9829721772e-01	 8.8012949022e-01	-6.2870201034e-02
 8.8884460593e-01	 8.0620202343e-01	 5.0630875442e-01
 8.8094965120e-01	 8.1482157481e-01	 4.3666147771e-01
 8.7296962418e-01	 8.2336539106e-01	 3.6640455938e-01
 8.6490560983e-01	 8.3183222672e-01	 2.9556681864e-01
 8.5675871767e-01	 8.4022085759e-01	 2.2417528475e-01
 8.4853008124e-01	 8.4853008124e-01	 1.5225620462e-01
 8.4022085759e-01	 8.5675871767e-01	 7.9836068557e-02
 8.3183222672e-01	 8.6490560983e-01	 6.9426476199e-03
 8.2336539106e-01	 8.7296962418e-01	-6.6393963679e-02
 8.1482157481e-01	 8.8094965120e-01	-1.4014030590e-01
 8.0620202343e-01	 8.8884460593e-01	-2.1425852088e-01
 8.9755972904e-01	 8.1410683586e-01	 3.5472230046e-01
 8.8958736427e-01	 8.2281090196e-01	 2.8522429898e-01
 8.8152909307e-01	 8.3143849034e-01	 2.1533730174e-01
 8.7338601105e-01	 8.3998834335e-01	 1.4508772697e-01
 8.6515923859e-01	 8.4845922475e-01	 7.4499808369e-02
 8.5684992036e-01	 8.5684992036e-01	 3.5966635279e-03
 8.4845922475e-01	 8.6515923859e-01	-6.7598617953e-02
 8.3998834335e-01	 8.7338601105e-01	-1.3906187336e-01
 8.3143849034e-01	 8.8152909307e-01	-2.1076675963e-01
 8.2281090196e-01	 8.8958736427e-01	-2.8268364678e-01
 8.1410683586e-01	 8.9755972904e-01	-3.5477851895e-01
 9.0627485710e-01	 8.2201165277e-01	 2.1353027042e-01
 8.9822508223e-01	 8.3080023364e-01	 1.4421320827e-01
 8.9008856681e-01	 8.3951159420e-01	 7.4745622042e-02
 8.8186641706e-01	 8.4814446460e-01	 5.1452530134e-03
 8.7355976427e-01	 8.5669759659e-01	-6.4572688050e-02
 8.6516976420e-01	 8.6516976420e-01	-1.3439437940e-01
 8.5669759659e-01	 8.7355976427e-01	-2.0430622552e-01
 8.4814446460e-01	 8.8186641706e-01	-2.7429368026e-01
 8.3951159420e-01	 8.9008856681e-01	-3.4434006285e-01
 8.3080023364e-01	 8.9822508223e-01	-4.1442537439e-01
 8.2201165277e-01	 9.0627485710e-01	-4.8452512193e-01
 9.1498998762e-01	 8.2991647192e-01	 8.2252877671e-02
 9.0686280264e-01	 8.3878956758e-01	 1.3176842732e-02
 8.9864804297e-01	 8.4758470035e-01	-5.5791514514e-02
 8.9034682548e-01	 8.5630058815e-01	-1.2464925772e-01
 8.8196029233e-01	 8.6493597076e-01	-1.9339628070e-01
 8.7348961039e-01	 8.7348961039e-01	-2.6203408071e-01
 8.6493597076e-01	 8.8196029233e-01	-3.3056450879e-01
 8.5630058815e-01	 8.9034682548e-01	-3.9898850482e-01
 8.4758470035e-01	 8.9864804297e-01	-4.6730482490e-01
 8.3878956758e-01	 9.0686280264e-01	-5.3550876878e-01
 8.2991647192e-01	 9.1498998762e-01	-6.0359091511e-01
 7.5086865000e-01	 8.2783908984e-01	 1.0794152057e+00
 7.4276996011e-01	 8.3511318416e-01	 9.8213527814e-01
 7.3460310021e-01	 8.4230605367e-01	 8.8127077889e-01
 7.2636929978e-01	 8.4941674562e-01	 7.7849409742e-01
 7.1806980576e-01	 8.5644433191e-01	 6.7394246331e-01
 7.0970588183e-01	 8.6338790946e-01	 5.6768370801e-01
 7.0127880786e-01	 8.7024660062e-01	 4.5979324787e-01
 6.9278987923e-01	 8.7701955351e-01	 3.5035464727e-01
 6.8424040616e-01	 8.8370594236e-01	 2.3946017411e-01
 6.7563171311e-01	 8.9030496784e-01	 1.2721134341e-01
 6.6696513803e-01	 8.9681585735e-01	 1.3719445058e-02
 7.5877336836e-01	 8.3655410924e-01	 8.6063706057e-01
 7.5058942006e-01	 8.4390478109e-01	 7.6774561157e-01
 7.4233658410e-01	 8.5117337304e-01	 6.7125117684e-01
 7.3401610290e-01	 8.5835892232e-01	 5.7190323084e-01
 7.2562923652e-01	 8.6546049104e-01	 4.7134948490e-01
 7.1717726196e-01	 8.7247716663e-01	 3.6967492325e-01
 7.0866147255e-01	 8.7940806219e-01	 2.6692465137e-01
 7.0008317730e-01	 8.8625231687e-01	 1.6315257124e-01
 6.9144370024e-01	 8.9300909623e-01	 5.8422014924e-02
 6.8274437975e-01	 8.9967759250e-01	-4.7193634830e-02
 6.7398656790e-01	 9.0625702495e-01	-1.5361034129e-01
 7.6667810687e-01	 8.4526915086e-01	 6.5337082592e-01
 7.5840889996e-01	 8.5269640044e-01	 5.6439632708e-01
 7.5007008771e-01	 8.6004071503e-01	 4.7245840351e-01
 7.4166292553e-01	 8.6730112182e-01	 3.7746523338e-01
 7.3318868657e-01	 8.7447667316e-01	 2.8037210215e-01
 7.2464866114e-01	 8.8156644697e-01	 1.8273218003e-01
 7.1604415606e-01	 8.8856954712e-01	 8.4581426641e-02
 7.0737649397e-01	 8.9548510378e-01	-1.4051627194e-02
 6.9864701269e-01	 9.0231227382e-01	-1.1312856228e-01
 6.8985706454e-01	 9.0905024105e-01	-2.1260037498e-01
 6.8100801568e-01	 9.1569821662e-01	-3.1240679960e-01
 7.7458286331e-01	 8.5398421224e-01	 4.5749802972e-01
 7.6622839758e-01	 8.6148803972e-01	 3.7203192365e-01
 7.5780360886e-01	 8.6890807711e-01	 2.8422208143e-01
 7.4930976548e-01	 8.7624334159e-01	 1.9395244432e-01
 7.4074815375e-01	 8.8349287572e-01	 1.0112549701e-01
 7.3212007726e-01	 8.9065574792e-01	 7.0075367631e-03
 7.2342685631e-01	 8.9773105281e-01	-8.7054167805e-02
 7.1466982717e-01	 9.0471791162e-01	-1.8105229502e-01
 7.0585034146e-01	 9.1161547250e-01	-2.7496947015e-01
 6.9696976545e-01	 9.1842291086e-01	-3.6877746496e-01
 6.8802947938e-01	 9.2513942970e-01	-4.6243644660e-01
 7.8248763542e-01	 8.6269929091e-01	 2.7290535745e-01
 7.7404791071e-01	 8.7027969644e-01	 1.9059983822e-01
 7.6553714534e-01	 8.7777545679e-01	 1.0654436732e-01
 7.5695662061e-01	 8.8518557909e-01	 2.0603579418e-02
 7.4830763592e-01	 8.9250909616e-01	-6.7338975736e-02
 7.3959150820e-01	 8.9974506690e-01	-1.5735715796e-01
 7.3080957120e-01	 9.0689257669e-01	-2.4781091094e-01
 7.2196317483e-01	 9.1395073778e-01	-3.3765535165e-01
 7.1305368452e-01	 9.2091868963e-01	-4.2689043209e-01
 7.0408248047e-01	 9.2779559925e-01	-5.1550524139e-01
 6.9505095700e-01	 9.3458066151e-01	-6.0347718193e-01
 7.9039242097e-01	 8.7141438439e-01	 9.9484128989e-02
 7.8186743713e-01	 8.7907136810e-01	 2.0050052639e-02
 7.7327069498e-01	 8.8664285154e-01	-6.0571887387e-02
 7.6460348873e-01	 8.9412783180e-01	-1.4253159897e-01
 7.5586713095e-01	 9.0152533193e-01	-2.2595990926e-01
 7.4706295184e-01	 9.0883440133e-01	-3.1096753563e-01
 7.3819229864e-01	 9.1605411613e-01	-3.9752900513e-01
 7.2925653490e-01	 9.2318357963e-01	-4.8367862117e-01
 7.2025703983e-01	 9.3022192258e-01	-5.6869327477e-01
 7.1119520758e-01	 9.3716830358e-01	-6.5257605668e-01
 7.0207244656e-01	 9.4402190936e-01	-7.3531854426e-01
 7.9829721772e-01	 8.8012949022e-01	-6.2870201034e-02
 7.8968697463e-01	 8.8786305222e-01	-1.3966528315e-01
 7.8100425557e-01	 8.9551025885e-01	-2.1712340239e-01
 7.7225036769e-01	 9.0307009718e-01	-2.9540440667e-01
 7.6342663669e-01	 9.1054158048e-01	-3.7464909857e-01
 7.5453440607e-01	 9.1792374863e-01	-4.5497813969e-01
 7.4557503654e-01	 9.2521566856e-01	-5.3649101472e-01
 7.3654990530e-01	 9.3241643456e-01	-6.1895217552e-01
 7.2746040534e-01	 9.3952516871e-01	-7.0019223332e-01
 7.1830794477e-01	 9.4654102119e-01	-7.7979455965e-01
 7.0909394606e-01	 9.5346317059e-01	-8.5776198102e-01
 8.0620202343e-01	 8.8884460593e-01	-2.1425852088e-01
 7.9750652100e-01	 8.9665474631e-01	-2.8859221267e-01
 7.8873782492e-01	 9.0437767621e-01	-3.6310672509e-01
 7.7989725532e-01	 9.1201237269e-01	-4.3796740083e-01
 7.7098615099e-01	 9.1955783924e-01	-5.1332076869e-01
 7.6200586876e-01	 9.2701310624e-01	-5.8929338360e-01
 7.5295778281e-01	 9.3437723137e-01	-6.6599072783e-01
 7.4384328397e-01	 9.4164929995e-01	-7.4349617948e-01
 7.3466377902e-01	 9.4882842539e-01	-8.2121426842e-01
 7.2542069002e-01	 9.5591374942e-01	-8.9697798872e-01
 7.1611545353e-01	 9.6290444253e-01	-9.7062113047e-01
 8.1410683586e-01	 8.9755972904e-01	-3.5477851895e-01
 8.0532607401e-01	 9.0544644786e-01	-4.2677532044e-01
 7.9647140085e-01	 9.1324510111e-01	-4.9851847884e-01
 7.8754414945e-01	 9.2095465581e-01	-5.7017453947e-01
 7.7854567172e-01	 9.2857410567e-01	-6.4189165661e-01
 7.6947733781e-01	 9.3610247158e-01	-7.1379837105e-01
 7.6034053536e-01	 9.4353880196e-01	-7.8600245019e-01
 7.5113666883e-01	 9.5088217320e-01	-8.5858979710e-01
 7.4186715882e-01	 9.5813168997e-01	-9.3162343444e-01
 7.3253344132e-01	 9.6528648562e-01	-1.0039564768e+00
 7.2313696696e-01	 9.7234572249e-01	-1.0737221156e+00
 8.2201165277e-01	 9.0627485710e-01	-4.8452512193e-01
 8.1314563145e-01	 9.1423815440e-01	-5.5425806620e-01
 8.0420498116e-01	 9.2211253104e-01	-6.2335560315e-01
 7.9519104791e-01	 9.2989694399e-01	-6.9198133790e-01
 7.8610519674e-01	 9.3759037721e-01	-7.6028109419e-01
 7.7694881109e-01	 9.4519184207e-01	-8.2838163113e-01
 7.6772329208e-01	 9.5270037775e-01	-8.9638942369e-01
 7.5843005783e-01	 9.6011505167e-01	-9.6438951359e-01
 7.4907054271e-01	 9.6743495982e-01	-1.0324444369e+00
 7.3964619664e-01	 9.7465922713e-01	-1.1005733672e+00
 7.3015848438e-01	 9.8178700780e-01	-1.1669038488e+00
 8.2991647192e-01	 9.1498998762e-01	-6.0359091511e-01
 8.2096519111e-01	 9.2302986343e-01	-6.7108310700e-01
 8.1193856367e-01	 9.3097996348e-01	-7.3761558665e-01
 8.0283794853e-01	 9.3883923471e-01	-8.0334502205e-01
 7.9366472389e-01	 9.4660665130e-01	-8.6841109168e-01
 7.8442028648e-01	 9.5428121513e-01	-9.3293514209e-01
 7.7510605090e-01	 9.6186195614e-01	-9.9701890997e-01
 7.6572344890e-01	 9.6934793277e-01	-1.0607433160e+00
 7.5627392863e-01	 9.7673823232e-01	-1.1241673369e+00
 7.4675895398e-01	 9.8403197130e-01	-1.1873269626e+00
 7.3718000378e-01	 9.9122829578e-01	-1.2500183466e+00
 6.6696513803e-01	 8.9681585735e-01	 1.3719445058e-02
 6.5824351844e-01	 9.0323678187e-01	-1.0126342003e-01
 6.4946674430e-01	 9.0956814074e-01	-2.1799675118e-01
 6.4063618453e-01	 9.1580924711e-01	-3.3631924164e-01
 6.3175321886e-01	 9.2195944185e-01	-4.5606709760e-01
 6.2281923720e-01	 9.2801809367e-01	-5.7707362677e-01
 6.1383563884e-01	 9.3398459938e-01	-6.9916885131e-01
 6.0480383185e-01	 9.3985838398e-01	-8.2217914835e-01
 5.9572523230e-01	 9.4563890083e-01	-9.4592692089e-01
 5.8660126360e-01	 9.5132563174e-01	-1.0702303019e+00
 5.7743335581e-01	 9.5691808708e-01	-1.1949028944e+00
 6.7398656790e-01	 9.0625702495e-01	-1.5361034129e-01
 6.6517313206e-01	 9.1274554532e-01	-2.6123888976e-01
 6.5630396103e-01	 9.1914355713e-01	-3.7047543920e-01
 6.4738043814e-01	 9.2545036633e-01	-4.8114992003e-01
 6.3840395767e-01	 9.3166530681e-01	-5.9309016924e-01
 6.2937592412e-01	 9.3778774068e-01	-7.0612149248e-01
 6.2029775155e-01	 9.4381705837e-01	-8.2006625132e-01
 6.1117086282e-01	 9.4975267884e-01	-9.3474347888e-01
 6.0199668894e-01	 9.5559404968e-01	-1.0499685273e+00
 5.9277666829e-01	 9.6134064726e-01	-1.1655527494e+00
 5.8351224597e-01	 9.6699197679e-01	-1.2813032180e+00
 6.8100801568e-01	 9.1569821662e-01	-3.1240679960e-01
 6.7210276335e-01	 9.2225433301e-01	-4.1313474896e-01
 6.6314119520e-01	 9.2871899794e-01	-5.1533486471e-01
 6.5412470896e-01	 9.3509151012e-01	-6.1883147905e-01
 6.4505471343e-01	 9.4137119653e-01	-7.2344695475e-01
 6.3593262776e-01	 9.4755741260e-01	-8.2900121611e-01
 6.2675988073e-01	 9.5364954244e-01	-9.3531130625e-01
 6.1753791003e-01	 9.5964699893e-01	-1.0421909743e+00
 6.0826816157e-01	 9.6554922392e-01	-1.1494502958e+00
 5.9895208872e-01	 9.7135568833e-01	-1.2568953300e+00
 5.8959115163e-01	 9.7706589220e-01	-1.3643278154e+00
 6.8802947938e-01	 9.2513942970e-01	-4.6243644660e-01
 6.7903241035e-01	 9.3176314226e-01	-5.5671568350e-01
 6.6997844486e-01	 9.3829446046e-01	-6.5233098081e-01
 6.6086899506e-01	 9.4473267578e-01	-7.4910418659e-01
 6.5170548427e-01	 9.5107710825e-01	-8.4685503898e-01
 6.4248934627e-01	 9.5732710667e-01	-9.4540066118e-01
 6.3322202457e-01	 9.6348204879e-01	-1.0445550845e+00
 6.2390497168e-01	 9.6954134145e-01	-1.1441288031e+00
 6.1453964842e-01	 9.7550442073e-01	-1.2439283644e+00
 6.0512752315e-01	 9.8137075209e-01	-1.3437559982e+00
 5.9567007107e-01	 9.8713983044e-01	-1.4434092876e+00
 6.9505095700e-01	 9.3458066151e-01	-6.0347718193e-01
 6.8596207110e-01	 9.4127197036e-01	-6.9175737838e-01
 6.7681570809e-01	 9.4786994197e-01	-7.8123062894e-01
 6.6761329454e-01	 9.5437386055e-01	-8.7171936557e-01
 6.5835626830e-01	 9.6078303922e-01	-9.6304351013e-01
 6.4904607778e-01	 9.6709682012e-01	-1.0550199285e+00
 6.3968418122e-01	 9.7331457465e-01	-1.1474619149e+00
 6.3027204595e-01	 9.7943570359e-01	-1.2401787105e+00
 6.2081114771e-01	 9.8545963728e-01	-1.3329750596e+00
 6.1130296983e-01	 9.9138583573e-01	-1.4256508085e+00
 6.0174900258e-01	 9.9721378867e-01	-1.5180005486e+00
 7.0207244656e-01	 9.4402190936e-01	-7.3531854426e-01
 6.9289174362e-01	 9.5078081464e-01	-8.1804676334e-01
 6.8365298294e-01	 9.5744543975e-01	-9.0181175983e-01
 6.7435760549e-01	 9.6401506172e-01	-9.8643957586e-01
 6.6500706364e-01	 9.7048898670e-01	-1.0717530882e+00
 6.5560282044e-01	 9.7686655018e-01	-1.1575714167e+00
 6.4614634885e-01	 9.8314711722e-01	-1.2437093651e+00
 6.3663913105e-01	 9.8933008256e-01	-1.3299768989e+00
 6.2708265766e-01	 9.9541487076e-01	-1.4161786654e+00
 6.1747842701e-01	 1.0014009364e+00	-1.5021135573e+00
 6.0782794441e-01	 1.0072877640e+00	-1.5875743259e+00
 7.0909394606e-01	 9.5346317059e-01	-8.5776198102e-01
 6.9982142597e-01	 9.6028967238e-01	-9.3538227179e-01
 6.9049026748e-01	 9.6702095111e-01	-1.0138636684e+00
 6.8110192599e-01	 9.7365627655e-01	-1.0930388118e+00
 6.7165786840e-01	 9.8019494792e-01	-1.1727362717e+00
 6.6215957239e-01	 9.8663629408e-01	-1.2527799043e+00
 6.5260852565e-01	 9.9297967373e-01	-1.3329882445e+00
 6.4300622517e-01	 9.9922447554e-01	-1.4131739399e+00
 6.3335417649e-01	 1.0053701183e+00	-1.4931432289e+00
 6.2365389293e-01	 1.0114160512e+00	-1.5726954681e+00
 6.1390689486e-01	 1.0173617536e+00	-1.6516227115e+00
 7.1611545353e-01	 9.6290444253e-01	-9.7062113047e-01
 7.0675111616e-01	 9.6979854091e-01	-1.0435741123e+00
 6.9732755976e-01	 9.7659647332e-01	-1.1171872419e+00
 6.8784625413e-01	 9.8329750230e-01	-1.1913027142e+00
 6.7830868070e-01	 9.8990092015e-01	-1.2657575008e+00
 6.6871633177e-01	 9.9640604906e-01	-1.3403826510e+00
 6.5907070976e-01	 1.0028122414e+00	-1.4150026320e+00
 6.4937332651e-01	 1.0091188797e+00	-1.4894347130e+00
 6.3962570244e-01	 1.0153253772e+00	-1.5634883989e+00
 6.2982936586e-01	 1.0214311774e+00	-1.6369649169e+00
 6.1998585220e-01	 1.0274357547e+00	-1.7096567599e+00
 7.2313696696e-01	 9.7234572249e-01	-1.0737221156e+00
 7.1368081225e-01	 9.7930741752e-01	-1.1424445513e+00
 7.0416485786e-01	 9.8617200367e-01	-1.2115952202e+00
 6.9459058801e-01	 9.9293873626e-01	-1.2810287964e+00
 6.8495949865e-01	 9.9960690062e-01	-1.3505933365e+00
 6.7527309672e-01	 1.0061758123e+00	-1.4201295188e+00
 6.6553289937e-01	 1.0126448174e+00	-1.4894699253e+00
 6.5574043326e-01	 1.0190132923e+00	-1.5584383727e+00
 6.4589723371e-01	 1.0252806445e+00	-1.6268492968e+00
 6.3600484404e-01	 1.0314463121e+00	-1.6945071948e+00
 6.2606481470e-01	 1.0375097643e+00	-1.7612061308e+00
 7.3015848438e-01	 9.8178700780e-01	-1.1669038488e+00
 7.2061051226e-01	 9.8881629951e-01	-1.2318282075e+00
 7.1100215984e-01	 9.9574753944e-01	-1.2969124676e+00
 7.0133492571e-01	 1.0025799757e+00	-1.3620266822e+00
 6.9161032037e-01	 1.0093128866e+00	-1.4270326545e+00
 6.8182986539e-01	 1.0159455812e+00	-1.4917831089e+00
 6.7199509264e-01	 1.0224773990e+00	-1.5561209108e+00
 6.6210754361e-01	 1.0289077106e+00	-1.6198783389e+00
 6.5216876854e-01	 1.0352359175e+00	-1.6828764163e+00
 6.4218032571e-01	 1.0414614525e+00	-1.7449243059e+00
 6.3214378065e-01	 1.0475837796e+00	-1.8058187724e+00
 7.3718000378e-01	 9.9122829578e-01	-1.2500183466e+00
 7.2754021424e-01	 9.9832518421e-01	-1.3115723549e+00
 7.1783946375e-01	 1.0053230779e+00	-1.3729762547e+00
 7.0807926532e-01	 1.0122212178e+00	-1.4341183563e+00
 6.9826114398e-01	 1.0190188753e+00	-1.4948768521e+00
 6.8838663591e-01	 1.0257153527e+00	-1.5551189158e+00
 6.7845728775e-01	 1.0323099833e+00	-1.6146998530e+00
 6.6847465577e-01	 1.0388021316e+00	-1.6734623108e+00
 6.5844030515e-01	 1.0451911933e+00	-1.7312355518e+00
 6.4835580913e-01	 1.0514765958e+00	-1.7878347971e+00
 6.3822274832e-01	 1.0576577978e+00	-1.8430606437e+00
 5.7743335581e-01	 9.5691808708e-01	-1.1949028944e+00
 5.6822294504e-01	 9.6241580608e-01	-1.3201399999e+00
 5.5897147338e-01	 9.6781835759e-01	-1.4461415847e+00
 5.4968038753e-01	 9.7312533939e-01	-1.5727214073e+00
 5.4035113800e-01	 9.7833637800e-01	-1.6996887303e+00
 5.3098517837e-01	 9.8345112868e-01	-1.8268482446e+00
 5.2158396461e-01	 9.8846927534e-01	-1.9540000398e+00
 5.1214895436e-01	 9.9339053057e-01	-2.0809396180e+00
 5.0268160628e-01	 9.9821463549e-01	-2.2074579542e+00
 4.9318337935e-01	 1.0029413597e+00	-2.3333416011e+00
 4.8365573221e-01	 1.0075705013e+00	-2.4583728399e+00
 5.8351224597e-01	 9.6699197679e-01	-1.2813032180e+00
 5.7420487324e-01	 9.7254757266e-01	-1.3974157125e+00
 5.6485600733e-01	 9.7800699915e-01	-1.5140993936e+00
 5.5546711021e-01	 9.8336984984e-01	-1.6311738043e+00
 5.4603964765e-01	 9.8863574731e-01	-1.7484527273e+00
 5.3657508852e-01	 9.9380434317e-01	-1.8657440975e+00
 5.2707490412e-01	 9.9887531803e-01	-1.9828499636e+00
 5.1754056745e-01	 1.0038483814e+00	-2.0995664987e+00
 5.0797355251e-01	 1.0087232718e+00	-2.2156840607e+00
 4.9837533365e-01	 1.0134997563e+00	-2.3309873029e+00
 4.8874738485e-01	 1.0181776308e+00	-2.4452553342e+00
 5.8959115163e-01	 9.7706589220e-01	-1.3643278154e+00
 5.8018681668e-01	 9.8267936507e-01	-1.4719299388e+00
 5.7074055630e-01	 9.8819566670e-01	-1.5799071468e+00
 5.6125384766e-01	 9.9361438642e-01	-1.6880876886e+00
 5.5172817181e-01	 9.9893514289e-01	-1.7962930543e+00
 5.4216501293e-01	 1.0041575841e+00	-1.9043378654e+00
 5.3256585764e-01	 1.0092813873e+00	-2.0120298194e+00
 5.2293219429e-01	 1.0143062590e+00	-2.1191696868e+00
 5.1326551223e-01	 1.0192319349e+00	-2.2255513633e+00
 5.0356730118e-01	 1.0240581798e+00	-2.3309619760e+00
 4.9383905048e-01	 1.0287847874e+00	-2.4351820434e+00
 5.9567007107e-01	 9.8713983044e-01	-1.4434092876e+00
 5.8616877369e-01	 9.9281118045e-01	-1.5430509714e+00
 5.7662511860e-01	 9.9838435735e-01	-1.6428780383e+00
 5.6704059822e-01	 1.0038589462e+00	-1.7427302715e+00
 5.5741670886e-01	 1.0092345618e+00	-1.8424399530e+00
 5.4775495001e-01	 1.0145108484e+00	-1.9418317243e+00
 5.3805682361e-01	 1.0196874801e+00	-2.0407225033e+00
 5.2832383335e-01	 1.0247641602e+00	-2.1389214601e+00
 5.1855748395e-01	 1.0297406218e+00	-2.2362300506e+00
 5.0875928049e-01	 1.0346166272e+00	-2.3324421087e+00
 4.9893072764e-01	 1.0393919680e+00	-2.4273439977e+00
 6.0174900258e-01	 9.9721378867e-01	-1.5180005486e+00
 5.9215074256e-01	 1.0029430159e+00	-1.6101696009e+00
 5.8250969257e-01	 1.0085730682e+00	-1.7023495890e+00
 5.7282736026e-01	 1.0141035264e+00	-1.7943945689e+00
 5.6310525719e-01	 1.0195340012e+00	-1.8861506032e+00
 5.5334489817e-01	 1.0248641333e+00	-1.9774555823e+00
 5.4354780046e-01	 1.0300935935e+00	-2.0681391056e+00
 5.3371548310e-01	 1.0352220822e+00	-2.1580224258e+00
 5.2384946617e-01	 1.0402493296e+00	-2.2469184554e+00
 5.1395127009e-01	 1.0451750956e+00	-2.3346318357e+00
 5.0402241491e-01	 1.0499991697e+00	-2.4209590696e+00
 6.0782794441e-01	 1.0072877640e+00	-1.5875743259e+00
 5.9813272160e-01	 1.0130748686e+00	-1.6726984760e+00
 5.8839427655e-01	 1.0187617964e+00	-1.7576828847e+00
 5.7861413213e-01	 1.0243481239e+00	-1.8423985359e+00
 5.6879381520e-01	 1.0298334580e+00	-1.9267081706e+00
 5.5893485584e-01	 1.0352174359e+00	-2.0104660592e+00
 5.4903878665e-01	 1.0404997247e+00	-2.0935178381e+00
 5.3910714203e-01	 1.0456800220e+00	-2.1757004134e+00
 5.2914145739e-01	 1.0507580552e+00	-2.2568419308e+00
 5.1914326852e-01	 1.0557335819e+00	-2.3367618129e+00
 5.0911411084e-01	 1.0606063894e+00	-2.4152708636e+00
 6.1390689486e-01	 1.0173617536e+00	-1.6516227115e+00
 6.0411470912e-01	 1.0232067357e+00	-1.7300715223e+00
 5.9427886887e-01	 1.0289505390e+00	-1.8082618792e+00
 5.8440091221e-01	 1.0345927360e+00	-1.8860842711e+00
 5.7448238126e-01	 1.0401329295e+00	-1.9634209297e+00
 5.6452482143e-01	 1.0455707530e+00	-2.0401455438e+00
 5.5452978063e-01	 1.0509058706e+00	-2.1161230427e+00
 5.4449880859e-01	 1.0561379766e+00	-2.1912094500e+00
 5.3443345610e-01	 1.0612667958e+00	-2.2652518078e+00
 5.2433527431e-01	 1.0662920832e+00	-2.3380881731e+00
 5.1420581397e-01	 1.0712136242e+00	-2.4095476853e+00
 6.1998585220e-01	 1.0274357547e+00	-1.7096567599e+00
 6.1009670342e-01	 1.0333386142e+00	-1.7817434148e+00
 6.0016346786e-01	 1.0391392932e+00	-1.8534927579e+00
 5.9018769884e-01	 1.0448373596e+00	-1.9248172869e+00
 5.8017095378e-01	 1.0504324126e+00	-1.9956214560e+00
 5.7011479335e-01	 1.0559240819e+00	-2.0658013238e+00
 5.6002078082e-01	 1.0613120283e+00	-2.1352442743e+00
 5.4989048126e-01	 1.0665959430e+00	-2.2038288113e+00
 5.3972546081e-01	 1.0717755482e+00	-2.2714244292e+00
 5.2952728598e-01	 1.0768505965e+00	-2.3378915577e+00
 5.1929752288e-01	 1.0818208709e+00	-2.4030815844e+00
 6.2606481470e-01	 1.0375097643e+00	-1.7612061308e+00
 6.1607870280e-01	 1.0434705014e+00	-1.8271891016e+00
 6.0604807184e-01	 1.0493280560e+00	-1.8928033574e+00
 5.9597449040e-01	 1.0550819920e+00	-1.9579858399e+00
 5.8585953112e-01	 1.0607319045e+00	-2.0226658826e+00
 5.7570477003e-01	 1.0662774196e+00	-2.0867647832e+00
 5.6551178568e-01	 1.0717181948e+00	-2.1501954529e+00
 5.5528215851e-01	 1.0770539183e+00	-2.2128621436e+00
 5.4501747002e-01	 1.0822843096e+00	-2.2746602545e+00
 5.3471930207e-01	 1.0874091187e+00	-2.3354762182e+00
 5.2438923612e-01	 1.0924281267e+00	-2.3951874675e+00
 6.3214378065e-01	 1.0475837796e+00	-1.8058187724e+00
 6.2206070557e-01	 1.0536023943e+00	-1.8659033746e+00
 6.1193267916e-01	 1.0595168246e+00	-1.9256426378e+00
 6.0176128523e-01	 1.0653266302e+00	-1.9850003193e+00
 5.9154811169e-01	 1.0710314022e+00	-2.0439332180e+00
 5.8129474987e-01	 1.0766307632e+00	-2.1023906629e+00
 5.7100279366e-01	 1.0821243672e+00	-2.1603140817e+00
 5.6067383882e-01	 1.0875118996e+00	-2.2176366512e+00
 5.5030948223e-01	 1.0927930769e+00	-2.2742830315e+00
 5.3991132109e-01	 1.0979676469e+00	-2.3301691842e+00
 5.2948095224e-01	 1.1030353885e+00	-2.3852022749e+00
 6.3822274832e-01	 1.0576577978e+00	-1.8430606437e+00
 6.2804271004e-01	 1.0637342901e+00	-1.8974004842e+00
 6.1781728815e-01	 1.0697055961e+00	-1.9514802036e+00
 6.0754808170e-01	 1.0755712713e+00	-2.0052926869e+00
 5.9723669388e-01	 1.0813309028e+00	-2.0588247192e+00
 5.8688473129e-01	 1.0869841097e+00	-2.1120563803e+00
 5.7649380318e-01	 1.0925305426e+00	-2.1649605246e+00
 5.6606552066e-01	 1.0979698838e+00	-2.2175023458e+00
 5.5560149593e-01	 1.1033018472e+00	-2.2696390290e+00
 5.4510334159e-01	 1.1085261781e+00	-2.3213194924e+00
 5.3457266981e-01	 1.1136426533e+00	-2.3722471796e+00
 4.8365573221e-01	 1.0075705013e+00	-2.4583728399e+00
 4.7409849552e-01	 1.0121026483e+00	-2.5825584856e+00
 4.6451474289e-01	 1.0165368592e+00	-2.7059307717e+00
 4.5490592816e-01	 1.0208730156e+00	-2.8283691546e+00
 4.4527350221e-01	 1.0251110266e+00	-2.9497513769e+00
 4.3561891232e-01	 1.0292508292e+00	-3.0699536542e+00
 4.2594360152e-01	 1.0332923876e+00	-3.1888509002e+00
 4.1624900798e-01	 1.0372356932e+00	-3.3063169900e+00
 4.0653656441e-01	 1.0410807643e+00	-3.4222250579e+00
 3.9680769746e-01	 1.0448276457e+00	-3.5364478291e+00
 3.8706382711e-01	 1.0484764088e+00	-3.6488579826e+00
 4.8874738485e-01	 1.0181776308e+00	-2.4452553342e+00
 4.7908953501e-01	 1.0227574897e+00	-2.5585430737e+00
 4.6940489007e-01	 1.0272383815e+00	-2.6709563070e+00
 4.5969491920e-01	 1.0316201864e+00	-2.7824027397e+00
 4.4996108855e-01	 1.0359028128e+00	-2.8927879811e+00
 4.4020486062e-01	 1.0400861969e+00	-3.0020156994e+00
 4.3042769365e-01	 1.0441703025e+00	-3.1099878200e+00
 4.2063104094e-01	 1.0481551210e+00	-3.2166047644e+00
 4.1081635029e-01	 1.0520406708e+00	-3.3217657289e+00
 4.0098506335e-01	 1.0558269973e+00	-3.4253689992e+00
 3.9113861508e-01	 1.0595141725e+00	-3.5273123005e+00
 4.9383905048e-01	 1.0287847874e+00	-2.4351820434e+00
 4.8408058722e-01	 1.0334123583e+00	-2.5383320701e+00
 4.7429504973e-01	 1.0379399311e+00	-2.6406024377e+00
 4.6448392246e-01	 1.0423673847e+00	-2.7419244715e+00
 4.5464868685e-01	 1.0466946266e+00	-2.8422269165e+00
 4.4479082062e-01	 1.0509215922e+00	-2.9414360693e+00
 4.3491179721e-01	 1.0550482452e+00	-3.0394759558e+00
 4.2501308507e-01	 1.0590745767e+00	-3.1362685537e+00
 4.1509614708e-01	 1.0630006053e+00	-3.2317340584e+00
 4.0516243990e-01	 1.0668263770e+00	-3.3257911892e+00
 3.9521341344e-01	 1.0705519644e+00	-3.4183575333e+00
 4.9893072764e-01	 1.0393919680e+00	-2.4273439977e+00
 4.8907165075e-01	 1.0440672511e+00	-2.5211338838e+00
 4.7918522047e-01	 1.0486415049e+00	-2.6140925747e+00
 4.6927293658e-01	 1.0531146073e+00	-2.7061705277e+00
 4.5933629577e-01	 1.0574864648e+00	-2.7973150352e+00
 4.4937679102e-01	 1.0617570121e+00	-2.8874703379e+00
 4.3939591095e-01	 1.0659262125e+00	-2.9765777901e+00
 4.2939513914e-01	 1.0699940571e+00	-3.0645760727e+00
 4.1937595357e-01	 1.0739605647e+00	-3.1514014537e+00
 4.0933982592e-01	 1.0778257815e+00	-3.2369880927e+00
 3.9928822103e-01	 1.0815897812e+00	-3.3212683876e+00
 5.0402241491e-01	 1.0499991697e+00	-2.4209590696e+00
 4.9406272418e-01	 1.0547221649e+00	-2.5061828749e+00
 4.8407540091e-01	 1.0593430999e+00	-2.5906753122e+00
 4.7406196019e-01	 1.0638618512e+00	-2.6744016215e+00
 4.6402391398e-01	 1.0682783244e+00	-2.7573231894e+00
 4.5396277051e-01	 1.0725924535e+00	-2.8393976520e+00
 4.4388003357e-01	 1.0768042015e+00	-2.9205790532e+00
 4.3377720190e-01	 1.0809135592e+00	-3.0008180558e+00
 4.2365576855e-01	 1.0849205457e+00	-3.0800622036e+00
 4.1351722022e-01	 1.0888252079e+00	-3.1582562321e+00
 4.0336303671e-01	 1.0926276200e+00	-3.2353424244e+00
 5.0911411084e-01	 1.0606063894e+00	-2.4152708636e+00
 4.9905380609e-01	 1.0653770969e+00	-2.4927382644e+00
 4.8896558967e-01	 1.0700447132e+00	-2.5696233531e+00
 4.7885099194e-01	 1.0746091135e+00	-2.6459019356e+00
 4.6871154017e-01	 1.0790702023e+00	-2.7215451714e+00
 4.5854875780e-01	 1.0834279134e+00	-2.7965196722e+00
 4.4836416382e-01	 1.0876822089e+00	-2.8707876608e+00
 4.3815927212e-01	 1.0918330798e+00	-2.9443071870e+00
 4.2793559080e-01	 1.0958805454e+00	-3.0170323985e+00
 4.1769462163e-01	 1.0998246530e+00	-3.0889138647e+00
 4.0743785931e-01	 1.1036654775e+00	-3.1598989496e+00
 5.1420581397e-01	 1.0712136242e+00	-2.4095476853e+00
 5.0404489508e-01	 1.0760320440e+00	-2.4800831212e+00
 4.9385578535e-01	 1.0807463415e+00	-2.5502325093e+00
 4.8364003048e-01	 1.0853563909e+00	-2.6199781322e+00
 4.7339917300e-01	 1.0898620956e+00	-2.6892967270e+00
 4.6313475158e-01	 1.0942633885e+00	-2.7581595862e+00
 4.5284830042e-01	 1.0985602317e+00	-2.8265327242e+00
 4.4254134853e-01	 1.1027526159e+00	-2.8943771037e+00
 4.3221541912e-01	 1.1068405607e+00	-2.9616489236e+00
 4.2187202895e-01	 1.1108241137e+00	-3.0282999628e+00
 4.1151268769e-01	 1.1147033506e+00	-3.0936284386e+00
 5.1929752288e-01	 1.0818208709e+00	-2.4030815844e+00
 5.0903598972e-01	 1.0866870031e+00	-2.4675234220e+00
 4.9874598658e-01	 1.0914479821e+00	-2.5318207734e+00
 4.8842907445e-01	 1.0961036805e+00	-2.5959584318e+00
 4.7808681114e-01	 1.1006540011e+00	-2.6599146383e+00
 4.6772075057e-01	 1.1050988760e+00	-2.7236611920e+00
 4.5733244211e-01	 1.1094382669e+00	-2.7871636287e+00
 4.4692342992e-01	 1.1136721644e+00	-2.8500718469e+00
 4.3649525230e-01	 1.1178005884e+00	-2.9111175976e+00
 4.2604944101e-01	 1.1218235868e+00	-2.9701536037e+00
 4.1558752069e-01	 1.1257412363e+00	-3.0271724844e+00
 5.2438923612e-01	 1.0924281267e+00	-2.3951874675e+00
 5.1402708860e-01	 1.0973419714e+00	-2.4543871790e+00
 5.0363619196e-01	 1.1021496317e+00	-2.5137274566e+00
 4.9321812249e-01	 1.1068509793e+00	-2.5731917575e+00
 4.8277445327e-01	 1.1114459157e+00	-2.6327508660e+00
 4.7230675345e-01	 1.1159343726e+00	-2.6913537054e+00
 4.6181658760e-01	 1.1203163113e+00	-2.7481915915e+00
 4.5130551503e-01	 1.1245917222e+00	-2.8032298837e+00
 4.4077508910e-01	 1.1287606253e+00	-2.8564470841e+00
 4.3022685662e-01	 1.1328230693e+00	-2.9078341913e+00
 4.1966235714e-01	 1.1367791314e+00	-2.9573940491e+00
 5.2948095224e-01	 1.1030353885e+00	-2.3852022749e+00
 5.1901819031e-01	 1.1079969456e+00	-2.4400236297e+00
 5.0852640011e-01	 1.1128512874e+00	-2.4951900343e+00
 4.9800717324e-01	 1.1175982841e+00	-2.5493009288e+00
 4.8746209805e-01	 1.1222378365e+00	-2.6019116598e+00
 4.7689275893e-01	 1.1267698755e+00	-2.6529677503e+00
 4.6630073564e-01	 1.1311943618e+00	-2.7024289446e+00
 4.5568760263e-01	 1.1355112862e+00	-2.7502685501e+00
 4.4505492834e-01	 1.1397206685e+00	-2.7964727716e+00
 4.3440427459e-01	 1.1438225580e+00	-2.8410400390e+00
 4.2373719591e-01	 1.1478170327e+00	-2.8839803311e+00
 5.3457266981e-01	 1.1136426533e+00	-2.3722471796e+00
 5.2400929344e-01	 1.1186519229e+00	-2.4216271430e+00
 5.1341660965e-01	 1.1235529461e+00	-2.4698296309e+00
 5.0279622535e-01	 1.1283455920e+00	-2.5167757739e+00
 4.9214974416e-01	 1.1330297603e+00	-2.5624020092e+00
 4.8147876571e-01	 1.1376053813e+00	-2.6066594252e+00
 4.7078488495e-01	 1.1420724155e+00	-2.6495130937e+00
 4.6006969146e-01	 1.1464308532e+00	-2.6909413922e+00
 4.4933476878e-01	 1.1506807148e+00	-2.7309353174e+00
 4.3858169375e-01	 1.1548220499e+00	-2.7694977925e+00
 4.2781203584e-01	 1.1588549371e+00	-2.8066429705e+00
 3.8706382711e-01	 1.0484764088e+00	-3.6488579826e+00
 3.7730802572e-01	 1.0520265555e+00	-3.7597863832e+00
 3.6754004210e-01	 1.0554788368e+00	-3.8695623228e+00
 3.5776127175e-01	 1.0588334003e+00	-3.9775050189e+00
 3.4797310126e-01	 1.0620904189e+00	-4.0833341966e+00
 3.3817690787e-01	 1.0652500901e+00	-4.1869825692e+00
 3.2837405888e-01	 1.0683126359e+00	-4.2883936775e+00
 3.1856591119e-01	 1.0712783023e+00	-4.3875218651e+00
 3.0875381083e-01	 1.0741473587e+00	-4.4843322182e+00
 2.9893909244e-01	 1.0769200981e+00	-4.5788004691e+00
 2.8912307883e-01	 1.0795968361e+00	-4.6709128647e+00
 3.9113861508e-01	 1.0595141725e+00	-3.5273123005e+00
 3.8128011015e-01	 1.0631016931e+00	-3.6279556704e+00
 3.7140929476e-01	 1.0665903180e+00	-3.7276807668e+00
 3.6152757907e-01	 1.0699801965e+00	-3.8260436860e+00
 3.5163636429e-01	 1.0732715031e+00	-3.9224894922e+00
 3.4173704214e-01	 1.0764644376e+00	-4.0169672671e+00
 3.3183099432e-01	 1.0795592242e+00	-4.1094416861e+00
 3.2191959204e-01	 1.0825561113e+00	-4.1998886853e+00
 3.1200419546e-01	 1.0854553716e+00	-4.2882953698e+00
 3.0208615329e-01	 1.0882573008e+00	-4.3746598851e+00
 2.9216680227e-01	 1.0909622180e+00	-4.4589912516e+00
 3.9521341344e-01	 1.0705519644e+00	-3.4183575333e+00
 3.8525220471e-01	 1.0741768590e+00	-3.5098186853e+00
 3.7527855728e-01	 1.0777018276e+00	-3.6005726723e+00
 3.6529389599e-01	 1.0811270211e+00	-3.6904003831e+00
 3.5529963665e-01	 1.0844526159e+00	-3.7785990049e+00
 3.4529718548e-01	 1.0876788137e+00	-3.8650375287e+00
 3.3528793858e-01	 1.0908058410e+00	-3.9496982460e+00
 3.2527328143e-01	 1.0938339491e+00	-4.0325750561e+00
 3.1525458838e-01	 1.0967634132e+00	-4.1136733496e+00
 3.0523322217e-01	 1.0995945324e+00	-4.1930098531e+00
 2.9521053348e-01	 1.1023276288e+00	-4.2706124363e+00
 3.9928822103e-01	 1.0815897812e+00	-3.3212683876e+00
 3.8922430828e-01	 1.0852520500e+00	-3.4046478479e+00
 3.7914782857e-01	 1.0888133624e+00	-3.4875367898e+00
 3.6906022145e-01	 1.0922738710e+00	-3.5698234182e+00
 3.5896291732e-01	 1.0956337540e+00	-3.6508948073e+00
 3.4885733690e-01	 1.0988932152e+00	-3.7304035825e+00
 3.3874489068e-01	 1.1020524834e+00	-3.8083462360e+00
 3.2862697843e-01	 1.1051118125e+00	-3.8847311080e+00
 3.1850498866e-01	 1.1080714806e+00	-3.9595782509e+00
 3.0838029818e-01	 1.1109317896e+00	-4.0329192546e+00
 2.9825427158e-01	 1.1136930654e+00	-4.1044227027e+00
 4.0336303671e-01	 1.0926276200e+00	-3.2353424244e+00
 3.9319641973e-01	 1.0963272629e+00	-3.3117386183e+00
 3.8301710754e-01	 1.0999249193e+00	-3.3878613597e+00
 3.7282655438e-01	 1.1034207430e+00	-3.4636096250e+00
 3.6262620526e-01	 1.1068149143e+00	-3.5386335779e+00
 3.5241749538e-01	 1.1101076389e+00	-3.6123016352e+00
 3.4220184964e-01	 1.1132991481e+00	-3.6843338507e+00
 3.3198068208e-01	 1.1163896983e+00	-3.7540036534e+00
 3.2175539539e-01	 1.1193795703e+00	-3.8213725485e+00
 3.1152738043e-01	 1.1222690694e+00	-3.8865717030e+00
 3.0129801572e-01	 1.1250585246e+00	-3.9497464408e+00
 4.0743785931e-01	 1.1036654775e+00	-3.1598989496e+00
 3.9716853793e-01	 1.1074024946e+00	-3.2304083642e+00
 3.8688639309e-01	 1.1110364950e+00	-3.3008569241e+00
 3.7659289372e-01	 1.1145676340e+00	-3.3705119933e+00
 3.6628949942e-01	 1.1179960936e+00	-3.4385656249e+00
 3.5597765991e-01	 1.1213220817e+00	-3.5043763656e+00
 3.4565881447e-01	 1.1245458319e+00	-3.5678802149e+00
 3.3533439143e-01	 1.1276676032e+00	-3.6291976457e+00
 3.2500580765e-01	 1.1306876793e+00	-3.6884657585e+00
 3.1467446804e-01	 1.1336063685e+00	-3.7458364571e+00
 3.0434176503e-01	 1.1364240030e+00	-3.8014747313e+00
 4.1151268769e-01	 1.1147033506e+00	-3.0936284386e+00
 4.0114066175e-01	 1.1184777421e+00	-3.1572248367e+00
 3.9075568411e-01	 1.1221480865e+00	-3.2195495713e+00
 3.8035923839e-01	 1.1257145408e+00	-3.2805723356e+00
 3.6995279878e-01	 1.1291772887e+00	-3.3402712293e+00
 3.5953782949e-01	 1.1325365404e+00	-3.3981627630e+00
 3.4911578420e-01	 1.1357925317e+00	-3.4539342862e+00
 3.3868810553e-01	 1.1389455241e+00	-3.5077264883e+00
 3.2825622452e-01	 1.1419958043e+00	-3.5596955025e+00
 3.1782156010e-01	 1.1449436836e+00	-3.6100110427e+00
 3.0738551865e-01	 1.1477894976e+00	-3.6588546568e+00
 4.1558752069e-01	 1.1257412363e+00	-3.0271724844e+00
 4.0511279008e-01	 1.1295530021e+00	-3.0826314302e+00
 3.9462497953e-01	 1.1332596905e+00	-3.1369896436e+00
 3.8412558733e-01	 1.1368614602e+00	-3.1902294083e+00
 3.7361610228e-01	 1.1403584965e+00	-3.2423412357e+00
 3.6309800310e-01	 1.1437510118e+00	-3.2931068936e+00
 3.5257275785e-01	 1.1470392442e+00	-3.3419595513e+00
 3.4204182344e-01	 1.1502234578e+00	-3.3890135673e+00
 3.3150664506e-01	 1.1533039421e+00	-3.4344414667e+00
 3.2096865573e-01	 1.1562810116e+00	-3.4784279421e+00
 3.1042927573e-01	 1.1591550051e+00	-3.5211680837e+00
 4.1966235714e-01	 1.1367791314e+00	-2.9573940491e+00
 4.0908492179e-01	 1.1406282715e+00	-3.0055681524e+00
 3.9849427823e-01	 1.1443713040e+00	-3.0527986396e+00
 3.8789193947e-01	 1.1480083890e+00	-3.0990786295e+00
 3.7727940890e-01	 1.1515397138e+00	-3.1444082944e+00
 3.6665817974e-01	 1.1549654927e+00	-3.1887367909e+00
 3.5602973444e-01	 1.1582859662e+00	-3.2314482599e+00
 3.4539554419e-01	 1.1615014011e+00	-3.2725118571e+00
 3.3475706837e-01	 1.1646120896e+00	-3.3121139515e+00
 3.2411575403e-01	 1.1676183492e+00	-3.3504514725e+00
 3.1347303539e-01	 1.1705205222e+00	-3.3877301248e+00
 4.2373719591e-01	 1.1478170327e+00	-2.8839803311e+00
 4.1305705574e-01	 1.1517035472e+00	-2.9257045870e+00
 4.0236357912e-01	 1.1554829238e+00	-2.9666243476e+00
 3.9165829375e-01	 1.1591553242e+00	-3.0067419087e+00
 3.8094271760e-01	 1.1627209375e+00	-3.0460652982e+00
 3.7021835839e-01	 1.1661799800e+00	-3.0846075727e+00
 3.5948671298e-01	 1.1695326947e+00	-3.1219203036e+00
 3.4874926685e-01	 1.1727793507e+00	-3.1577027287e+00
 3.3800749352e-01	 1.1759202434e+00	-3.1921526010e+00
 3.2726285412e-01	 1.1789556932e+00	-3.2254764308e+00
 3.1651679678e-01	 1.1818860457e+00	-3.2578876925e+00
 4.2781203584e-01	 1.1588549371e+00	-2.8066429705e+00
 4.1702919083e-01	 1.1627788261e+00	-2.8427348765e+00
 4.0623288112e-01	 1.1665945468e+00	-2.8781393935e+00
 3.9542464909e-01	 1.1703022625e+00	-2.9128664298e+00
 3.8460602733e-01	 1.1739021643e+00	-2.9469301612e+00
 3.7377853805e-01	 1.1773944705e+00	-2.9803484565e+00
 3.6294369251e-01	 1.1807794263e+00	-3.0129221608e+00
 3.5210299045e-01	 1.1840573036e+00	-3.0440948273e+00
 3.4125791960e-01	 1.1872284004e+00	-3.0740252070e+00
 3.3040995510e-01	 1.1902930404e+00	-3.1029268165e+00
 3.1956055903e-01	 1.1932515725e+00	-3.1310181345e+00
 2.8912307883e-01	 1.0795968361e+00	-4.6709128647e+00
 2.7930708070e-01	 1.0821779112e+00	-4.7606568080e+00
 2.6949239654e-01	 1.0846636846e+00	-4.8479628190e+00
 2.5968031184e-01	 1.0870545395e+00	-4.9327477149e+00
 2.4987209853e-01	 1.0893508803e+00	-5.0149390128e+00
 2.4006901461e-01	 1.0915531319e+00	-5.0944747719e+00
 2.3027230375e-01	 1.0936617395e+00	-5.1713034081e+00
 2.2048319495e-01	 1.0956771684e+00	-5.2453834807e+00
 2.1070290223e-01	 1.0975999029e+00	-5.3166834547e+00
 2.0093262425e-01	 1.0994304462e+00	-5.3851814393e+00
 1.9117354402e-01	 1.1011693202e+00	-5.4508649059e+00
 2.9216680227e-01	 1.0909622180e+00	-4.4589912516e+00
 2.8224746689e-01	 1.0935704651e+00	-4.5412845608e+00
 2.7232945931e-01	 1.0960824074e+00	-4.6214594448e+00
 2.6241407856e-01	 1.0984984319e+00	-4.6994277025e+00
 2.5250260996e-01	 1.1008189472e+00	-4.7751116048e+00
 2.4259632474e-01	 1.1030443828e+00	-4.8484437465e+00
 2.3269647967e-01	 1.1051751887e+00	-4.9193668696e+00
 2.2280431671e-01	 1.1072118348e+00	-4.9878336572e+00
 2.1292106262e-01	 1.1091548108e+00	-5.0538065032e+00
 2.0304792871e-01	 1.1110046251e+00	-5.1172572559e+00
 1.9318611043e-01	 1.1127618049e+00	-5.1780125820e+00
 2.9521053348e-01	 1.1023276288e+00	-4.2706124363e+00
 2.8518786058e-01	 1.1049630481e+00	-4.3464692258e+00
 2.7516652932e-01	 1.1075011593e+00	-4.4204776466e+00
 2.6514785226e-01	 1.1099423534e+00	-4.4925455266e+00
 2.5513312810e-01	 1.1122870433e+00	-4.5625121139e+00
 2.4512364132e-01	 1.1145356630e+00	-4.6298772851e+00
 2.3512066178e-01	 1.1166886672e+00	-4.6945762291e+00
 2.2512544438e-01	 1.1187465307e+00	-4.7566283172e+00
 2.1513922867e-01	 1.1207097481e+00	-4.8160599640e+00
 2.0516323856e-01	 1.1225788334e+00	-4.8729039263e+00
 1.9519868197e-01	 1.1243543192e+00	-4.9271986602e+00
 2.9825427158e-01	 1.1136930654e+00	-4.1044227027e+00
 2.8812826093e-01	 1.1163556570e+00	-4.1736349932e+00
 2.7800360576e-01	 1.1189199370e+00	-4.2405044398e+00
 2.6788163215e-01	 1.1213863008e+00	-4.3050193412e+00
 2.5776365220e-01	 1.1237551654e+00	-4.3671774310e+00
 2.4765096362e-01	 1.1260269693e+00	-4.4269849232e+00
 2.3754484939e-01	 1.1282021718e+00	-4.4844556328e+00
 2.2744657732e-01	 1.1302812527e+00	-4.5396101704e+00
 2.1735739975e-01	 1.1322647117e+00	-4.5924752052e+00
 2.0727855320e-01	 1.1341530680e+00	-4.6430827945e+00
 1.9721125807e-01	 1.1359468597e+00	-4.6914697752e+00
 3.0129801572e-01	 1.1250585246e+00	-3.9497464408e+00
 2.9106866712e-01	 1.1277482884e+00	-4.0109312783e+00
 2.8084068783e-01	 1.1303387374e+00	-4.0700493600e+00
 2.7061541746e-01	 1.1328302709e+00	-4.1270954675e+00
 2.6039418151e-01	 1.1352233103e+00	-4.1820727179e+00
 2.5017829094e-01	 1.1375182984e+00	-4.2349916220e+00
 2.3996904180e-01	 1.1397156993e+00	-4.2858692235e+00
 2.2976771485e-01	 1.1418159976e+00	-4.3347283169e+00
 2.1957557522e-01	 1.1438196982e+00	-4.3815967385e+00
 2.0939387205e-01	 1.1457273255e+00	-4.4265067287e+00
 1.9922383817e-01	 1.1475394232e+00	-4.4694943588e+00
 3.0434176503e-01	 1.1364240030e+00	-3.8014747313e+00
 2.9400907831e-01	 1.1391409392e+00	-3.8553923691e+00
 2.8367777472e-01	 1.1417575572e+00	-3.9074828002e+00
 2.7334920742e-01	 1.1442742605e+00	-3.9577483133e+00
 2.6302471530e-01	 1.1466914747e+00	-4.0061983941e+00
 2.5270562256e-01	 1.1490096470e+00	-4.0528487968e+00
 2.4239323834e-01	 1.1512292463e+00	-4.0977207035e+00
 2.3208885634e-01	 1.1533507621e+00	-4.1408399661e+00
 2.2179375447e-01	 1.1553747043e+00	-4.1822364277e+00
 2.1150919448e-01	 1.1573016027e+00	-4.2219433179e+00
 2.0123642168e-01	 1.1591320065e+00	-4.2599967183e+00
 3.0738551865e-01	 1.1477894976e+00	-3.6588546568e+00
 2.9694949366e-01	 1.1505336061e+00	-3.7062122367e+00
 2.8651486563e-01	 1.1531763932e+00	-3.7519471557e+00
 2.7608300126e-01	 1.1557182664e+00	-3.7960701760e+00
 2.6565525282e-01	 1.1581596553e+00	-3.8385980753e+00
 2.5523295775e-01	 1.1605010119e+00	-3.8795527332e+00
 2.4481743831e-01	 1.1627428097e+00	-3.9189603118e+00
 2.3441000111e-01	 1.1648855430e+00	-3.9568505238e+00
 2.2401193686e-01	 1.1669297268e+00	-3.9932559846e+00
 2.1362451992e-01	 1.1688758963e+00	-4.0282116442e+00
 2.0324900805e-01	 1.1707246062e+00	-4.0617542921e+00
 3.1042927573e-01	 1.1591550051e+00	-3.5211680837e+00
 2.9988991234e-01	 1.1619262860e+00	-3.5626212386e+00
 2.8935195976e-01	 1.1645952422e+00	-3.6026228045e+00
 2.7881679819e-01	 1.1671622851e+00	-3.6411929255e+00
 2.6828579331e-01	 1.1696278489e+00	-3.6783565335e+00
 2.5776029582e-01	 1.1719923899e+00	-3.7141424515e+00
 2.4724164102e-01	 1.1742563861e+00	-3.7485825956e+00
 2.3673114852e-01	 1.1764203369e+00	-3.7817112713e+00
 2.2623012176e-01	 1.1784847624e+00	-3.8135645593e+00
 2.1573984775e-01	 1.1804502031e+00	-3.8441797850e+00
 2.0526159670e-01	 1.1823172190e+00	-3.8735950659e+00
 3.1347303539e-01	 1.1705205222e+00	-3.3877301248e+00
 3.0283033352e-01	 1.1733189755e+00	-3.4238844824e+00
 2.9218905629e-01	 1.1760141008e+00	-3.4587263734e+00
 2.8155059745e-01	 1.1786063136e+00	-3.4922861755e+00
 2.7091633605e-01	 1.1810960523e+00	-3.5245977766e+00
 2.6028763603e-01	 1.1834837776e+00	-3.5556976961e+00
 2.4966584580e-01	 1.1857699723e+00	-3.5856243104e+00
 2.3905229790e-01	 1.1879551406e+00	-3.6144171799e+00
 2.2844830855e-01	 1.1900398078e+00	-3.6421164700e+00
 2.1785517739e-01	 1.1920245196e+00	-3.6687624605e+00
 2.0727418706e-01	 1.1939098416e+00	-3.6943951388e+00
 3.1651679678e-01	 1.1818860457e+00	-3.2578876925e+00
 3.0577075637e-01	 1.1847116715e+00	-3.2893002837e+00
 2.9502615444e-01	 1.1874329659e+00	-3.3195091046e+00
 2.8428439826e-01	 1.1900503486e+00	-3.3485555609e+00
 2.7354688027e-01	 1.1925642622e+00	-3.3764832376e+00
 2.6281497767e-01	 1.1949751718e+00	-3.4033370392e+00
 2.5209005195e-01	 1.1972835650e+00	-3.4291624415e+00
 2.4137344859e-01	 1.1994899509e+00	-3.4540048508e+00
 2.3066649660e-01	 1.2015948598e+00	-3.4779090628e+00
 2.1997050822e-01	 1.2035988428e+00	-3.5009188152e+00
 2.0928677856e-01	 1.2055024709e+00	-3.5230764289e+00
 3.1956055903e-01	 1.1932515725e+00	-3.1310181345e+00
 3.0871118006e-01	 1.1961043707e+00	-3.1581987140e+00
 2.9786325339e-01	 1.1988518343e+00	-3.1842553165e+00
 2.8701819984e-01	 1.2014943869e+00	-3.2092411138e+00
 2.7617742524e-01	 1.2040324753e+00	-3.2332100683e+00
 2.6534232003e-01	 1.2064665692e+00	-3.2562160941e+00
 2.5451425879e-01	 1.2087971609e+00	-3.2783123377e+00
 2.4369459994e-01	 1.2110247644e+00	-3.2995505715e+00
 2.3288468528e-01	 1.2131499151e+00	-3.3199806936e+00
 2.2208583965e-01	 1.2151731692e+00	-3.3396503265e+00
 2.1129937063e-01	 1.2170951034e+00	-3.3586045090e+00
 1.9117354402e-01	 1.1011693202e+00	-5.4508649059e+00
 1.8142517314e-01	 1.1028173366e+00	-5.5136443130e+00
 1.7169032530e-01	 1.1043747488e+00	-5.5733745168e+00
 1.6197013796e-01	 1.1058421303e+00	-5.6300056683e+00
 1.5226573177e-01	 1.1072200711e+00	-5.6834963248e+00
 1.4257821034e-01	 1.1085091772e+00	-5.7338131791e+00
 1.3290866004e-01	 1.1097100702e+00	-5.7809307762e+00
 1.2325814977e-01	 1.1108233866e+00	-5.8248312190e+00
 1.1362773077e-01	 1.1118497776e+00	-5.8654734629e+00
 1.0401843646e-01	 1.1127899083e+00	-5.9027898939e+00
 9.4431282267e-02	 1.1136444574e+00	-5.9368065173e+00
 1.9318611043e-01	 1.1127618049e+00	-5.1780125820e+00
 1.8333511424e-01	 1.1144271707e+00	-5.2358067766e+00
 1.7349778346e-01	 1.1160009785e+00	-5.2905354201e+00
 1.6367526751e-01	 1.1174838077e+00	-5.3422007656e+00
 1.5386869884e-01	 1.1188762547e+00	-5.3908093840e+00
 1.4407919270e-01	 1.1201789318e+00	-5.4363718062e+00
 1.3430784687e-01	 1.1213924671e+00	-5.4789022011e+00
 1.2455574151e-01	 1.1225175038e+00	-5.5184180824e+00
 1.1482393894e-01	 1.1235547001e+00	-5.5549400439e+00
 1.0511348344e-01	 1.1245047279e+00	-5.5884915181e+00
 9.5425401132e-02	 1.1253682732e+00	-5.6190985563e+00
 1.9519868197e-01	 1.1243543192e+00	-4.9271986602e+00
 1.8524506021e-01	 1.1260370344e+00	-4.9788702356e+00
 1.7530524622e-01	 1.1276272378e+00	-5.0278002440e+00
 1.6538040140e-01	 1.1291255148e+00	-5.0739940468e+00
 1.5547167001e-01	 1.1305324680e+00	-5.1174602724e+00
 1.4558017888e-01	 1.1318487161e+00	-5.1582105024e+00
 1.3570703726e-01	 1.1330748937e+00	-5.1962589929e+00
 1.2585333656e-01	 1.1342116509e+00	-5.2316224287e+00
 1.1602015015e-01	 1.1352596524e+00	-5.2643197049e+00
 1.0620853320e-01	 1.1362195774e+00	-5.2943717337e+00
 9.6419522532e-02	 1.1370921190e+00	-5.3218012734e+00
 1.9721125807e-01	 1.1359468597e+00	-4.6914697752e+00
 1.8715501051e-01	 1.1376469244e+00	-4.7375387794e+00
 1.7711271308e-01	 1.1392535234e+00	-4.7811543210e+00
 1.6708553916e-01	 1.1407672483e+00	-4.8223253258e+00
 1.5707464480e-01	 1.1421887077e+00	-4.8610630066e+00
 1.4708116847e-01	 1.1435185268e+00	-4.8973805931e+00
 1.3710623083e-01	 1.1447573469e+00	-4.9312930979e+00
 1.2715093455e-01	 1.1459058244e+00	-4.9628171169e+00
 1.1721636407e-01	 1.1469646313e+00	-4.9919706584e+00
 1.0730358545e-01	 1.1479344535e+00	-5.0187729985e+00
 9.7413646185e-02	 1.1488159913e+00	-5.0432445575e+00
 1.9922383817e-01	 1.1475394232e+00	-4.4694943588e+00
 1.8906496460e-01	 1.1492568375e+00	-4.5104381887e+00
 1.7892018353e-01	 1.1508798321e+00	-4.5491845167e+00
 1.6879068031e-01	 1.1524090048e+00	-4.5857462122e+00
 1.5867762278e-01	 1.1538449705e+00	-4.6201375201e+00
 1.4858216103e-01	 1.1551883607e+00	-4.6523738332e+00
 1.3850542717e-01	 1.1564398232e+00	-4.6824715048e+00
 1.2844853511e-01	 1.1576000212e+00	-4.7104476954e+00
 1.1841258037e-01	 1.1586696334e+00	-4.7363202500e+00
 1.0839863987e-01	 1.1596493528e+00	-4.7601076014e+00
 9.8407771809e-02	 1.1605398869e+00	-4.7818286959e+00
 2.0123642168e-01	 1.1591320065e+00	-4.2599967183e+00
 1.9097492193e-01	 1.1608667702e+00	-4.2962517827e+00
 1.8072765705e-01	 1.1625061606e+00	-4.3305367736e+00
 1.7049582435e-01	 1.1640507812e+00	-4.3628688070e+00
 1.6028060348e-01	 1.1655012532e+00	-4.3932655268e+00
 1.5008315614e-01	 1.1668582145e+00	-4.4217449221e+00
 1.3990462589e-01	 1.1681223193e+00	-4.4483251862e+00
 1.2974613788e-01	 1.1692942378e+00	-4.4730246109e+00
 1.1960879870e-01	 1.1703746554e+00	-4.4958615120e+00
 1.0949369615e-01	 1.1713642721e+00	-4.5168541823e+00
 9.9401899123e-02	 1.1722638024e+00	-4.5360208663e+00
 2.0324900805e-01	 1.1707246062e+00	-4.0617542921e+00
 1.9288488197e-01	 1.1724767195e+00	-4.0937175878e+00
 1.8253513313e-01	 1.1741325055e+00	-4.1239132009e+00
 1.7220097080e-01	 1.1756925741e+00	-4.1523627190e+00
 1.6188358645e-01	 1.1771575524e+00	-4.1790874724e+00
 1.5158415338e-01	 1.1785280848e+00	-4.2041083968e+00
 1.4130382659e-01	 1.1798048321e+00	-4.2274459398e+00
 1.3104374249e-01	 1.1809884710e+00	-4.2491200041e+00
 1.2080501872e-01	 1.1820796939e+00	-4.2691499220e+00
 1.1058875399e-01	 1.1830792079e+00	-4.2875544590e+00
 1.0039602784e-01	 1.1839877346e+00	-4.3043518380e+00
 2.0526159670e-01	 1.1823172190e+00	-3.8735950659e+00
 1.9479484418e-01	 1.1840866818e+00	-3.9016256725e+00
 1.8434261126e-01	 1.1857588636e+00	-3.9280693336e+00
 1.7390611919e-01	 1.1873343801e+00	-3.9529522566e+00
 1.6348657124e-01	 1.1888138648e+00	-3.9762996644e+00
 1.5308515233e-01	 1.1901979683e+00	-3.9981357069e+00
 1.4270302888e-01	 1.1914873580e+00	-4.0184834151e+00
 1.3234134857e-01	 1.1926827175e+00	-4.0373646944e+00
 1.2200124011e-01	 1.1937847458e+00	-4.0548003509e+00
 1.1168381306e-01	 1.1947941570e+00	-4.0708101444e+00
 1.0139015769e-01	 1.1957116800e+00	-4.0854128656e+00
 2.0727418706e-01	 1.1939098416e+00	-3.6943951388e+00
 1.9670480801e-01	 1.1956966541e+00	-3.7188156358e+00
 1.8615009092e-01	 1.1973852316e+00	-3.7418115513e+00
 1.7561126903e-01	 1.1989761960e+00	-3.7634137815e+00
 1.6508955739e-01	 1.2004701870e+00	-3.7836515682e+00
 1.5458615254e-01	 1.2018678617e+00	-3.8025524590e+00
 1.4410223236e-01	 1.2031698939e+00	-3.8201423116e+00
 1.3363895575e-01	 1.2043769739e+00	-3.8364453391e+00
 1.2319746250e-01	 1.2054898076e+00	-3.8514841880e+00
 1.1277887307e-01	 1.2065091161e+00	-3.8652800445e+00
 1.0238428839e-01	 1.2074356354e+00	-3.8778527633e+00
 2.0928677856e-01	 1.2055024709e+00	-3.5230764289e+00
 1.9861477292e-01	 1.2073066329e+00	-3.5441742407e+00
 1.8795757161e-01	 1.2090116062e+00	-3.5639946441e+00
 1.7731641984e-01	 1.2106180186e+00	-3.5825732151e+00
 1.6669254445e-01	 1.2121265159e+00	-3.5999432587e+00
 1.5608715361e-01	 1.2135377618e+00	-3.6161358194e+00
 1.4550143663e-01	 1.2148524365e+00	-3.6311797392e+00
 1.3493656367e-01	 1.2160712369e+00	-3.6451017551e+00
 1.2439368558e-01	 1.2171948760e+00	-3.6579266316e+00
 1.1387393369e-01	 1.2182240818e+00	-3.6696773214e+00
 1.0337841965e-01	 1.2191595974e+00	-3.6803751482e+00
 2.1129937063e-01	 1.2170951034e+00	-3.3586045090e+00
 2.0052473838e-01	 1.2189166150e+00	-3.3766331808e+00
 1.8976505281e-01	 1.2206379841e+00	-3.3935195176e+00
 1.7902157113e-01	 1.2222598444e+00	-3.4093036860e+00
 1.6829553196e-01	 1.2237828481e+00	-3.4240230160e+00
 1.5758815511e-01	 1.2252076651e+00	-3.4377120645e+00
 1.4690064130e-01	 1.2265349823e+00	-3.4504027276e+00
 1.3623417195e-01	 1.2277655033e+00	-3.4621243939e+00
 1.2558990900e-01	 1.2288999477e+00	-3.4729041332e+00
 1.1496899463e-01	 1.2299390508e+00	-3.4827669134e+00
 1.0437255119e-01	 1.2308835627e+00	-3.4917358391e+00
 9.4431282267e-02	 1.1136444574e+00	-5.9368065173e+00
 8.4868885405e-02	 1.1144139930e+00	-5.9675335897e+00
 7.5330574297e-02	 1.1150993714e+00	-5.9949710882e+00
 6.5817287329e-02	 1.1157013085e+00	-6.0191222233e+00
 5.6329944993e-02	 1.1162205315e+00	-6.0399931454e+00
 4.6869449793e-02	 1.1166577791e+00	-6.0575927877e+00
 3.7436686165e-02	 1.1170138002e+00	-6.0719327141e+00
 2.8032520402e-02	 1.1172893542e+00	-6.0830269707e+00
 1.8657800599e-02	 1.1174852099e+00	-6.0908919368e+00
 9.3133566072e-03	 1.1176021455e+00	-6.0955461767e+00
 0.0000000000e+00	 1.1176409478e+00	-6.0970102893e+00
 9.5425401132e-02	 1.1253682732e+00	-5.6190985563e+00
 8.5762336791e-02	 1.1261459101e+00	-5.6467638240e+00
 7.6123611766e-02	 1.1268385038e+00	-5.6714788039e+00
 6.6510174320e-02	 1.1274467777e+00	-5.6932416369e+00
 5.6922954636e-02	 1.1279714668e+00	-5.7120528822e+00
 4.7362864721e-02	 1.1284133175e+00	-5.7279154027e+00
 3.7830798319e-02	 1.1287730866e+00	-5.7408342561e+00
 2.8327630844e-02	 1.1290515415e+00	-5.7508165864e+00
 1.8854219319e-02	 1.1292494590e+00	-5.7578715153e+00
 9.4114023322e-03	 1.1293676256e+00	-5.7620100325e+00
 0.0000000000e+00	 1.1294068364e+00	-5.7632448812e+00
 9.6419522532e-02	 1.1370921190e+00	-5.3218012734e+00
 8.6655790456e-02	 1.1378778571e+00	-5.3466069470e+00
 7.6916651257e-02	 1.1385776661e+00	-5.3687752623e+00
 6.7203063078e-02	 1.1391922768e+00	-5.3883002760e+00
 5.7515965792e-02	 1.1397224321e+00	-5.4051779913e+00
 4.7856280907e-02	 1.1401688858e+00	-5.4194062871e+00
 3.8224911478e-02	 1.1405324030e+00	-5.4309848509e+00
 2.8622742038e-02	 1.1408137587e+00	-5.4399151113e+00
 1.9050638540e-02	 1.1410137382e+00	-5.4462001696e+00
 9.5094483072e-03	 1.1411331358e+00	-5.4498447272e+00
 0.0000000000e+00	 1.1411727550e+00	-5.4508550080e+00
 9.7413646185e-02	 1.1488159913e+00	-5.0432445575e+00
 8.7549246145e-02	 1.1496098307e+00	-5.0653828971e+00
 7.7709692545e-02	 1.1503168550e+00	-5.0851725029e+00
 6.7895953406e-02	 1.1509378026e+00	-5.1026042486e+00
 5.8108978292e-02	 1.1514734240e+00	-5.1176705324e+00
 4.8349698211e-02	 1.1519244809e+00	-5.1303652507e+00
 3.8619025530e-02	 1.1522917460e+00	-5.1406837732e+00
 2.8917853901e-02	 1.1525760026e+00	-5.1486229163e+00
 1.9247058207e-02	 1.1527780439e+00	-5.1541809144e+00
 9.6074945045e-03	 1.1528986726e+00	-5.1573573853e+00
 0.0000000000e+00	 1.1529387004e+00	-5.1581532884e+00
 9.8407771809e-02	 1.1605398869e+00	-4.7818286959e+00
 8.8442703606e-02	 1.1613418276e+00	-4.8014824656e+00
 7.8502735405e-02	 1.1620560672e+00	-4.8190537809e+00
 6.8588845108e-02	 1.1626833517e+00	-4.8345311487e+00
 5.8701991967e-02	 1.1632244392e+00	-4.8479042294e+00
 4.8843116493e-02	 1.1636800992e+00	-4.8591638543e+00
 3.9013140363e-02	 1.1640511124e+00	-4.8683020435e+00
 2.9212966350e-02	 1.1643382699e+00	-4.8753120214e+00
 1.9443478262e-02	 1.1645423731e+00	-4.8801882268e+00
 9.7055408962e-03	 1.1646642328e+00	-4.8829263165e+00
 0.0000000000e+00	 1.1647046690e+00	-4.8835231596e+00
 9.9401899123e-02	 1.1722638024e+00	-4.5360208663e+00
 8.9336162585e-02	 1.1730738444e+00	-4.5533637679e+00
 7.9295779614e-02	 1.1737952994e+00	-4.5688700206e+00
 6.9281737988e-02	 1.1744289208e+00	-4.5825264972e+00
 5.9295006651e-02	 1.1749754744e+00	-4.5943209027e+00
 4.9336535614e-02	 1.1754357375e+00	-4.6042418369e+00
 3.9407255866e-02	 1.1758104987e+00	-4.6122788554e+00
 2.9508079300e-02	 1.1761005571e+00	-4.6184225271e+00
 1.9639898652e-02	 1.1763067222e+00	-4.6226644842e+00
 9.8035874545e-03	 1.1764298129e+00	-4.6249974641e+00
 0.0000000000e+00	 1.1764706577e+00	-4.6254153395e+00
 1.0039602784e-01	 1.1839877346e+00	-4.3043518380e+00
 9.0229622831e-02	 1.1848058778e+00	-4.3195489236e+00
 8.0088824946e-02	 1.1855345481e+00	-4.3331364799e+00
 6.9974631849e-02	 1.1861745065e+00	-4.3451003938e+00
 5.9888022175e-02	 1.1867265262e+00	-4.3554271134e+00
 4.9829955434e-02	 1.1871913925e+00	-4.3641037562e+00
 3.9801371928e-02	 1.1875699017e+00	-4.3711182146e+00
 2.9803192668e-02	 1.1878628610e+00	-4.3764592560e+00
 1.9836319320e-02	 1.1880710880e+00	-4.3801166131e+00
 9.9016341518e-03	 1.1881954098e+00	-4.3820810643e+00
 0.0000000000e+00	 1.1882366630e+00	-4.3823444997e+00
 1.0139015769e-01	 1.1957116800e+00	-4.0854128656e+00
 9.1123084089e-02	 1.1965379246e+00	-4.0986209314e+00
 8.0881871177e-02	 1.1972738102e+00	-4.1104296099e+00
 7.0667526496e-02	 1.1979201055e+00	-4.1208243659e+00
 6.0481038370e-02	 1.1984775914e+00	-4.1297910041e+00
 5.0323375814e-02	 1.1989470608e+00	-4.1373158251e+00
 4.0195488436e-02	 1.1993293180e+00	-4.1433857760e+00
 3.0098306371e-02	 1.1996251783e+00	-4.1479885934e+00
 2.0032740211e-02	 1.1998354671e+00	-4.1511129356e+00
 9.9996809602e-03	 1.1999610199e+00	-4.1527485015e+00
 0.0000000000e+00	 1.2000026816e+00	-4.1528861333e+00
 1.0238428839e-01	 1.2074356354e+00	-3.8778527633e+00
 9.2016546107e-02	 1.2082699813e+00	-3.8892207255e+00
 8.1674918082e-02	 1.2090130823e+00	-3.8993840974e+00
 7.1360421732e-02	 1.2096657145e+00	-3.9083283999e+00
 6.1074055071e-02	 1.2102286666e+00	-3.9160393239e+00
 5.0816796613e-02	 1.2107027391e+00	-3.9225029336e+00
 4.0589605280e-02	 1.2110887444e+00	-3.9277058645e+00
 3.0393420324e-02	 1.2113875055e+00	-3.9316355107e+00
 2.0229161268e-02	 1.2115998562e+00	-3.9342801990e+00
 1.0097727852e-02	 1.2117266401e+00	-3.9356293475e+00
 0.0000000000e+00	 1.2117687103e+00	-3.9356736053e+00
 1.0337841965e-01	 1.2191595974e+00	-3.6803751482e+00
 9.2910008631e-02	 1.2200020447e+00	-3.6900444018e+00
 8.2467965437e-02	 1.2207523610e+00	-3.6986900771e+00
 7.2053317360e-02	 1.2214113302e+00	-3.7062981444e+00
 6.1667072107e-02	 1.2219797484e+00	-3.7128546241e+00
 5.1310217692e-02	 1.2224584241e+00	-3.7183458406e+00
 4.0983722347e-02	 1.2228481774e+00	-3.7227586673e+00
 3.0688534445e-02	 1.2231498394e+00	-3.7260807607e+00
 2.0425582437e-02	 1.2233642520e+00	-3.7283007768e+00
 1.0195774799e-02	 1.2234922669e+00	-3.7294085707e+00
 0.0000000000e+00	 1.2235347456e+00	-3.7293953736e+00
 1.0437255119e-01	 1.2308835627e+00	-3.4917358391e+00
 9.3803471409e-02	 1.2317341113e+00	-3.4998406013e+00
 8.3261013018e-02	 1.2324916431e+00	-3.5070905032e+00
 7.2746213186e-02	 1.2331569492e+00	-3.5134722718e+00
 6.2260089311e-02	 1.2337308335e+00	-3.5189726149e+00
 5.1803638910e-02	 1.2342141124e+00	-3.5235785276e+00
 4.1377839526e-02	 1.2346076137e+00	-3.5272775872e+00
 3.0983648650e-02	 1.2349121767e+00	-3.5300582332e+00
 2.0622003662e-02	 1.2351286511e+00	-3.5319100295e+00
 1.0293821774e-02	 1.2352578971e+00	-3.5328239047e+00
 0.0000000000e+00	 1.2353007843e+00	-3.5327923681e+00
 1.2353007843e+00	 0.0000000000e+00	 3.4720966344e+00
 1.2352578971e+00	 1.0293821774e-02	 3.4717481300e+00
 1.2351286511e+00	 2.0622003662e-02	 3.4702403270e+00
 1.2349121767e+00	 3.0983648650e-02	 3.4675873372e+00
 1.2346076137e+00	 4.1377839526e-02	 3.4638010746e+00
 1.2342141124e+00	 5.1803638910e-02	 3.4588908789e+00
 1.2337308335e+00	 6.2260089311e-02	 3.4528631265e+00
 1.2331569492e+00	 7.2746213186e-02	 3.4457208297e+00
 1.2324916431e+00	 8.3261013018e-02	 3.4374632294e+00
 1.2317341113e+00	 9.3803471409e-02	 3.4280853813e+00
 1.2308835627e+00	 1.0437255119e-01	 3.4175777417e+00
 1.2470648235e+00	 0.0000000000e+00	 3.5232863366e+00
 1.2470215279e+00	 1.0391852088e-02	 3.5228429459e+00
 1.2468910511e+00	 2.0818391508e-02	 3.5211469122e+00
 1.2466725151e+00	 3.1278712705e-02	 3.5182085276e+00
 1.2463650517e+00	 4.1771889731e-02	 3.5140359168e+00
 1.2459678030e+00	 5.2296976280e-02	 3.5086346324e+00
 1.2454799217e+00	 6.2853005743e-02	 3.5020072364e+00
 1.2449005722e+00	 7.3438991265e-02	 3.4941528668e+00
 1.2442289302e+00	 8.4053925833e-02	 3.4850667954e+00
 1.2434641844e+00	 9.4696782358e-02	 3.4747399776e+00
 1.2426055358e+00	 1.0536651379e-01	 3.4631585992e+00
 1.2588288627e+00	 0.0000000000e+00	 3.5711692268e+00
 1.2587851587e+00	 1.0489882402e-02	 3.5706282377e+00
 1.2586534510e+00	 2.1014779354e-02	 3.5687498215e+00
 1.2584328535e+00	 3.1573776759e-02	 3.5655392900e+00
 1.2581224897e+00	 4.2165939936e-02	 3.5609998332e+00
 1.2577214936e+00	 5.2790313650e-02	 3.5551320880e+00
 1.2572290100e+00	 6.3445922174e-02	 3.5479336880e+00
 1.2566441952e+00	 7.4131769345e-02	 3.5393987980e+00
 1.2559662174e+00	 8.4846838648e-02	 3.5295176360e+00
 1.2551942574e+00	 9.5590093308e-02	 3.5182759858e+00
 1.2543275088e+00	 1.0636047640e-01	 3.5056547040e+00
 1.2705929020e+00	 0.0000000000e+00	 3.6153433488e+00
 1.2705487895e+00	 1.0587912715e-02	 3.6146985952e+00
 1.2704158510e+00	 2.1211167200e-02	 3.6126399120e+00
 1.2701931919e+00	 3.1868840814e-02	 3.6091665327e+00
 1.2698799277e+00	 4.2559990141e-02	 3.6042756337e+00
 1.2694751842e+00	 5.3283651021e-02	 3.5979618747e+00
 1.2689780982e+00	 6.4038838606e-02	 3.5902169175e+00
 1.2683878182e+00	 7.4824547425e-02	 3.5810289276e+00
 1.2677035045e+00	 8.5639751464e-02	 3.5703820593e+00
 1.2669243304e+00	 9.6483404258e-02	 3.5582559305e+00
 1.2660494819e+00	 1.0735443900e-01	 3.5446250886e+00
 1.2823569412e+00	 0.0000000000e+00	 3.6554214453e+00
 1.2823124203e+00	 1.0685943029e-02	 3.6546640464e+00
 1.2821782510e+00	 2.1407555046e-02	 3.6524241776e+00
 1.2819535304e+00	 3.2163904869e-02	 3.6486939590e+00
 1.2816373657e+00	 4.2954040346e-02	 3.6434635391e+00
 1.2812288748e+00	 5.3776988391e-02	 3.6367206066e+00
 1.2807271864e+00	 6.4631755038e-02	 3.6284498782e+00
 1.2801314412e+00	 7.5517325505e-02	 3.6186325659e+00
 1.2794407917e+00	 8.6432664280e-02	 3.6072458249e+00
 1.2786544034e+00	 9.7376715209e-02	 3.5942621895e+00
 1.2777714549e+00	 1.0834840161e-01	 3.5796489962e+00
 1.2941209804e+00	 0.0000000000e+00	 3.6910302913e+00
 1.2940760511e+00	 1.0783973343e-02	 3.6901493704e+00
 1.2939406509e+00	 2.1603942892e-02	 3.6877250425e+00
 1.2937138688e+00	 3.2458968924e-02	 3.6837413404e+00
 1.2933948037e+00	 4.3348090552e-02	 3.6781804348e+00
 1.2929825654e+00	 5.4270325762e-02	 3.6710221166e+00
 1.2924762747e+00	 6.5224671470e-02	 3.6622432537e+00
 1.2918750642e+00	 7.6210103586e-02	 3.6518172219e+00
 1.2911780788e+00	 8.7225577097e-02	 3.6397133167e+00
 1.2903844764e+00	 9.8270026159e-02	 3.6258961468e+00
 1.2894934280e+00	 1.0934236422e-01	 3.6103250153e+00
 1.3058850196e+00	 0.0000000000e+00	 3.7218100632e+00
 1.3058396819e+00	 1.0882003656e-02	 3.7207934488e+00
 1.3057030509e+00	 2.1800330738e-02	 3.7181796933e+00
 1.3054742072e+00	 3.2754032979e-02	 3.7139438297e+00
 1.3051522417e+00	 4.3742140758e-02	 3.7080591643e+00
 1.3047362560e+00	 5.4763663133e-02	 3.7004967307e+00
 1.3042253629e+00	 6.5817587902e-02	 3.6912247125e+00
 1.3036186872e+00	 7.6902881667e-02	 3.6802078395e+00
 1.3029153660e+00	 8.8018489913e-02	 3.6674067597e+00
 1.3021145494e+00	 9.9163337111e-02	 3.6527773916e+00
 1.3012154010e+00	 1.1033632682e-01	 3.6362702597e+00
 1.3176490588e+00	 0.0000000000e+00	 3.7474137413e+00
 1.3176033127e+00	 1.0980033970e-02	 3.7462486507e+00
 1.3174654508e+00	 2.1996718584e-02	 3.7434394464e+00
 1.3172345456e+00	 3.3049097035e-02	 3.7389513098e+00
 1.3169096797e+00	 4.4136190963e-02	 3.7327478605e+00
 1.3164899466e+00	 5.5257000504e-02	 3.7247905803e+00
 1.3159744511e+00	 6.6410504335e-02	 3.7150382029e+00
 1.3153623102e+00	 7.7595659748e-02	 3.7034460731e+00
 1.3146526531e+00	 8.8811402730e-02	 3.6899654782e+00
 1.3138446224e+00	 1.0005664806e-01	 3.6745429574e+00
 1.3129373741e+00	 1.1133028943e-01	 3.6571195908e+00
 1.3294130980e+00	 0.0000000000e+00	 3.7675065452e+00
 1.3293669435e+00	 1.1078064284e-02	 3.7661802505e+00
 1.3292278508e+00	 2.2193106431e-02	 3.7631691490e+00
 1.3289948841e+00	 3.3344161090e-02	 3.7584277781e+00
 1.3286671177e+00	 4.4530241169e-02	 3.7519093114e+00
 1.3282436372e+00	 5.5750337875e-02	 3.7435649511e+00
 1.3277235394e+00	 6.7003420768e-02	 3.7333432837e+00
 1.3271059332e+00	 7.8288437829e-02	 3.7211896012e+00
 1.3263899403e+00	 8.9604315547e-02	 3.7070451912e+00
 1.3255746954e+00	 1.0094995901e-01	 3.6908466010e+00
 1.3246593471e+00	 1.1232425204e-01	 3.6725248786e+00
 1.3411771373e+00	 0.0000000000e+00	 3.7817653976e+00
 1.3411305743e+00	 1.1176094597e-02	 3.7802658773e+00
 1.3409902507e+00	 2.2389494277e-02	 3.7770466115e+00
 1.3407552225e+00	 3.3639225145e-02	 3.7720507624e+00
 1.3404245557e+00	 4.4924291375e-02	 3.7652203602e+00
 1.3399973278e+00	 5.6243675246e-02	 3.7564956657e+00
 1.3394726276e+00	 6.7596337200e-02	 3.7458144897e+00
 1.3388495562e+00	 7.8981215910e-02	 3.7331114752e+00
 1.3381272274e+00	 9.0397228365e-02	 3.7183173447e+00
 1.3373047684e+00	 1.0184326996e-01	 3.7013581176e+00
 1.3363813202e+00	 1.1331821464e-01	 3.6821543010e+00
 1.3529411765e+00	 0.0000000000e+00	 3.7898784170e+00
 1.3528942051e+00	 1.1274124911e-02	 3.7881949913e+00
 1.3527526507e+00	 2.2585882123e-02	 3.7847620699e+00
 1.3525155609e+00	 3.3934289200e-02	 3.7795107667e+00
 1.3521819937e+00	 4.5318341580e-02	 3.7723713353e+00
 1.3517510184e+00	 5.6737012617e-02	 3.7632724980e+00
 1.3512217158e+00	 6.8189253633e-02	 3.7521407301e+00
 1.3505931792e+00	 7.9673993992e-02	 3.7388995011e+00
 1.3498645146e+00	 9.1190141182e-02	 3.7234684771e+00
 1.3490348414e+00	 1.0273658092e-01	 3.7057626902e+00
 1.3481032932e+00	 1.1431217725e-01	 3.6856916770e+00
 1.2308835627e+00	 1.0437255119e-01	 3.4175777417e+00
 1.2299390508e+00	 1.1496899463e-01	 3.4060500872e+00
 1.2288999477e+00	 1.2558990900e-01	 3.3935791905e+00
 1.2277655033e+00	 1.3623417195e-01	 3.3800921736e+00
 1.2265349823e+00	 1.4690064130e-01	 3.3655099484e+00
 1.2252076651e+00	 1.5758815511e-01	 3.3497469436e+00
 1.2237828481e+00	 1.6829553196e-01	 3.3327108579e+00
 1.2222598444e+00	 1.7902157113e-01	 3.3143024466e+00
 1.2206379841e+00	 1.8976505281e-01	 3.2944153463e+00
 1.2189166150e+00	 2.0052473838e-01	 3.2729359439e+00
 1.2170951034e+00	 2.1129937063e-01	 3.2497432954e+00
 1.2426055358e+00	 1.0536651379e-01	 3.4631585992e+00
 1.2416520291e+00	 1.1606386948e-01	 3.4504389688e+00
 1.2406030304e+00	 1.2678592913e-01	 3.4366652759e+00
 1.2394577824e+00	 1.3753155973e-01	 3.4217607990e+00
 1.2382155428e+00	 1.4829960819e-01	 3.4056423494e+00
 1.2368755853e+00	 1.5908890154e-01	 3.3882199535e+00
 1.2354371995e+00	 1.6989824708e-01	 3.3693965617e+00
 1.2338996919e+00	 1.8072643266e-01	 3.3490677899e+00
 1.2322623863e+00	 1.9157222687e-01	 3.3271216991e+00
 1.2305246242e+00	 2.0243437927e-01	 3.3034386199e+00
 1.2286857659e+00	 2.1331162069e-01	 3.2778910268e+00
 1.2543275088e+00	 1.0636047640e-01	 3.5056547040e+00
 1.2533650073e+00	 1.1715874433e-01	 3.4917771940e+00
 1.2523061130e+00	 1.2798194927e-01	 3.4767376508e+00
 1.2511500614e+00	 1.3882894751e-01	 3.4604575426e+00
 1.2498961034e+00	 1.4969857509e-01	 3.4428516440e+00
 1.2485435056e+00	 1.6058964796e-01	 3.4238276689e+00
 1.2470915509e+00	 1.7150096219e-01	 3.4032859299e+00
 1.2455395394e+00	 1.8243129419e-01	 3.3811190296e+00
 1.2438867884e+00	 1.9337940092e-01	 3.3572115890e+00
 1.2421326334e+00	 2.0434402015e-01	 3.3314400215e+00
 1.2402764285e+00	 2.1532387076e-01	 3.3036723576e+00
 1.2660494819e+00	 1.0735443900e-01	 3.5446250886e+00
 1.2650779856e+00	 1.1825361918e-01	 3.5296205250e+00
 1.2640091957e+00	 1.2917796941e-01	 3.5133489059e+00
 1.2628423405e+00	 1.4012633529e-01	 3.4957319202e+00
 1.2615766640e+00	 1.5109754199e-01	 3.4766843680e+00
 1.2602114258e+00	 1.6209039439e-01	 3.4561137397e+00
 1.2587459023e+00	 1.7310367731e-01	 3.4339198201e+00
 1.2571793869e+00	 1.8413615572e-01	 3.4099943236e+00
 1.2555111906e+00	 1.9518657497e-01	 3.3842205661e+00
 1.2537406426e+00	 2.0625366104e-01	 3.3564731828e+00
 1.2518670910e+00	 2.1733612082e-01	 3.3266178963e+00
 1.2777714549e+00	 1.0834840161e-01	 3.5796489962e+00
 1.2767909638e+00	 1.1934849404e-01	 3.5635452540e+00
 1.2757122783e+00	 1.3037398955e-01	 3.5460724503e+00
 1.2745346196e+00	 1.4142372307e-01	 3.5271545264e+00
 1.2732572245e+00	 1.5249650889e-01	 3.5067083721e+00
 1.2718793460e+00	 1.6359114082e-01	 3.4846433454e+00
 1.2704002537e+00	 1.7470639243e-01	 3.4608608160e+00
 1.2688192344e+00	 1.8584101725e-01	 3.4352537379e+00
 1.2671355927e+00	 1.9699374902e-01	 3.4077062603e+00
 1.2653486518e+00	 2.0816330193e-01	 3.3780933815e+00
 1.2634577535e+00	 2.1934837089e-01	 3.3462806554e+00
 1.2894934280e+00	 1.0934236422e-01	 3.6103250153e+00
 1.2885039421e+00	 1.2044336889e-01	 3.5931473192e+00
 1.2874153610e+00	 1.3157000969e-01	 3.5745016086e+00
 1.2862268987e+00	 1.4272111086e-01	 3.5543161132e+00
 1.2849377851e+00	 1.5389547579e-01	 3.5325118815e+00
 1.2835472663e+00	 1.6509188724e-01	 3.5090022358e+00
 1.2820546051e+00	 1.7630910754e-01	 3.4836922487e+00
 1.2804590819e+00	 1.8754587878e-01	 3.4564782492e+00
 1.2787599949e+00	 1.9880092308e-01	 3.4272473637e+00
 1.2769566610e+00	 2.1007294282e-01	 3.3958771018e+00
 1.2750484161e+00	 2.2136062095e-01	 3.3622349937e+00
 1.3012154010e+00	 1.1033632682e-01	 3.6362702597e+00
 1.3002169204e+00	 1.2153824374e-01	 3.6180414668e+00
 1.2991184436e+00	 1.3276602983e-01	 3.5982487651e+00
 1.2979191778e+00	 1.4401849864e-01	 3.5768267158e+00
 1.2966183457e+00	 1.5529444269e-01	 3.5537026033e+00
 1.2952151865e+00	 1.6659263367e-01	 3.5287958193e+00
 1.2937089565e+00	 1.7791182266e-01	 3.5020172676e+00
 1.2920989294e+00	 1.8925074031e-01	 3.4732687960e+00
 1.2903843971e+00	 2.0060809713e-01	 3.4424426628e+00
 1.2885646702e+00	 2.1198258371e-01	 3.4094210468e+00
 1.2866390786e+00	 2.2337287102e-01	 3.3740756095e+00
 1.3129373741e+00	 1.1133028943e-01	 3.6571195908e+00
 1.3119298986e+00	 1.2263311859e-01	 3.6378604553e+00
 1.3108215263e+00	 1.3396204997e-01	 3.6169445501e+00
 1.3096114569e+00	 1.4531588642e-01	 3.5943148215e+00
 1.3082989062e+00	 1.5669340959e-01	 3.5699068776e+00
 1.3068831067e+00	 1.6809338010e-01	 3.5436482971e+00
 1.3053633079e+00	 1.7951453778e-01	 3.5154579554e+00
 1.3037387769e+00	 1.9095560184e-01	 3.4852453763e+00
 1.3020087992e+00	 2.0241527118e-01	 3.4529101176e+00
 1.3001726794e+00	 2.1389222460e-01	 3.4183411991e+00
 1.2982297411e+00	 2.2538512108e-01	 3.3814165813e+00
 1.3246593471e+00	 1.1232425204e-01	 3.6725248786e+00
 1.3236428769e+00	 1.2372799345e-01	 3.6522543002e+00
 1.3225246089e+00	 1.3515807011e-01	 3.6302370684e+00
 1.3213037359e+00	 1.4661327420e-01	 3.6064265807e+00
 1.3199794668e+00	 1.5809237649e-01	 3.5807688717e+00
 1.3185510270e+00	 1.6959412653e-01	 3.5532018393e+00
 1.3170176593e+00	 1.8111725289e-01	 3.5236544867e+00
 1.3153786243e+00	 1.9266046337e-01	 3.4920461877e+00
 1.3136332014e+00	 2.0422244524e-01	 3.4582859840e+00
 1.3117806886e+00	 2.1580186549e-01	 3.4222719242e+00
 1.3098204037e+00	 2.2739737115e-01	 3.3838904534e+00
 1.3363813202e+00	 1.1331821464e-01	 3.6821543010e+00
 1.3353558551e+00	 1.2482286830e-01	 3.6608895565e+00
 1.3342276916e+00	 1.3635409025e-01	 3.6377911643e+00
 1.3329960150e+00	 1.4791066198e-01	 3.6128250559e+00
 1.3316600274e+00	 1.5949134338e-01	 3.5859498118e+00
 1.3302189472e+00	 1.7109487296e-01	 3.5571158001e+00
 1.3286720106e+00	 1.8271996801e-01	 3.5262643270e+00
 1.3270184718e+00	 1.9436532490e-01	 3.4933268093e+00
 1.3252576036e+00	 2.0602961929e-01	 3.4582239774e+00
 1.3233886977e+00	 2.1771150638e-01	 3.4208651172e+00
 1.3214110662e+00	 2.2940962122e-01	 3.3811473632e+00
 1.3481032932e+00	 1.1431217725e-01	 3.6856916770e+00
 1.3470688334e+00	 1.2591774315e-01	 3.6634486363e+00
 1.3459307742e+00	 1.3755011039e-01	 3.6392877242e+00
 1.3446882941e+00	 1.4920804976e-01	 3.6131895077e+00
 1.3433405879e+00	 1.6089031028e-01	 3.5851272534e+00
 1.3418868674e+00	 1.7259561938e-01	 3.5550659713e+00
 1.3403263620e+00	 1.8432268312e-01	 3.5229614683e+00
 1.3386583193e+00	 1.9607018643e-01	 3.4887594207e+00
 1.3368820057e+00	 2.0783679334e-01	 3.4523944749e+00
 1.3349967069e+00	 2.1962114727e-01	 3.4137893864e+00
 1.3330017287e+00	 2.3142187128e-01	 3.3728542082e+00
 1.2170951034e+00	 2.1129937063e-01	 3.2497432954e+00
 1.2151731692e+00	 2.2208583965e-01	 3.2253259627e+00
 1.2131499151e+00	 2.3288468528e-01	 3.2001923000e+00
 1.2110247644e+00	 2.4369459994e-01	 3.1742535004e+00
 1.2087971609e+00	 2.5451425879e-01	 3.1474151513e+00
 1.2064665692e+00	 2.6534232003e-01	 3.1195774921e+00
 1.2040324753e+00	 2.7617742524e-01	 3.0906357582e+00
 1.2014943869e+00	 2.8701819984e-01	 3.0604806191e+00
 1.1988518343e+00	 2.9786325339e-01	 3.0289987164e+00
 1.1961043707e+00	 3.0871118006e-01	 2.9960733080e+00
 1.1932515725e+00	 3.1956055903e-01	 2.9615850261e+00
 1.2286857659e+00	 2.1331162069e-01	 3.2778910268e+00
 1.2267455287e+00	 2.2420081161e-01	 3.2509806634e+00
 1.2247030067e+00	 2.3510249701e-01	 3.2232314481e+00
 1.2225576178e+00	 2.4601535685e-01	 3.1945517978e+00
 1.2203088004e+00	 2.5693805368e-01	 3.1648437002e+00
 1.2179560139e+00	 2.6786923290e-01	 3.1340029265e+00
 1.2154987395e+00	 2.7880752319e-01	 3.1019193339e+00
 1.2129364804e+00	 2.8975153685e-01	 3.0684772651e+00
 1.2102687622e+00	 3.0069987022e-01	 3.0335560527e+00
 1.2074951339e+00	 3.1165110406e-01	 2.9970306341e+00
 1.2046151679e+00	 3.2260380404e-01	 2.9587722849e+00
 1.2402764285e+00	 2.1532387076e-01	 3.3036723576e+00
 1.2383178883e+00	 2.2631578358e-01	 3.2744225743e+00
 1.2362560983e+00	 2.3732030874e-01	 3.2442279234e+00
 1.2340904711e+00	 2.4833611376e-01	 3.2129941511e+00
 1.2318204398e+00	 2.5936184856e-01	 3.1806197098e+00
 1.2294454586e+00	 2.7039614578e-01	 3.1469959208e+00
 1.2269650038e+00	 2.8143762114e-01	 3.1120072314e+00
 1.2243785739e+00	 2.9248487387e-01	 3.0755315724e+00
 1.2216856901e+00	 3.0353648704e-01	 3.0374408240e+00
 1.2188858971e+00	 3.1459102806e-01	 2.9976013979e+00
 1.2159787633e+00	 3.2564704905e-01	 2.9558749424e+00
 1.2518670910e+00	 2.1733612082e-01	 3.3266178963e+00
 1.2498902478e+00	 2.2843075554e-01	 3.2951800449e+00
 1.2478091900e+00	 2.3953812047e-01	 3.2627080941e+00
 1.2456233245e+00	 2.5065687067e-01	 3.2291052772e+00
 1.2433320792e+00	 2.6178564345e-01	 3.1942666260e+00
 1.2409349033e+00	 2.7292305865e-01	 3.1580790811e+00
 1.2384312681e+00	 2.8406771909e-01	 3.1204216973e+00
 1.2358206674e+00	 2.9521821088e-01	 3.0811659558e+00
 1.2331026180e+00	 3.0637310387e-01	 3.0401761868e+00
 1.2302766603e+00	 3.1753095207e-01	 2.9973101150e+00
 1.2273423587e+00	 3.2869029405e-01	 2.9524195325e+00
 1.2634577535e+00	 2.1934837089e-01	 3.3462806554e+00
 1.2614626073e+00	 2.3054572751e-01	 3.3128039862e+00
 1.2593622816e+00	 2.4175593220e-01	 3.2782210442e+00
 1.2571561779e+00	 2.5297762758e-01	 3.2424327607e+00
 1.2548437186e+00	 2.6420943833e-01	 3.2053309158e+00
 1.2524243480e+00	 2.7544997153e-01	 3.1667981893e+00
 1.2498975324e+00	 2.8669781704e-01	 3.1267083125e+00
 1.2472627609e+00	 2.9795154790e-01	 3.0849263279e+00
 1.2445195459e+00	 3.0920972070e-01	 3.0413089663e+00
 1.2416674235e+00	 3.2047087607e-01	 2.9957051500e+00
 1.2387059540e+00	 3.3173353906e-01	 2.9479566293e+00
 1.2750484161e+00	 2.2136062095e-01	 3.3622349937e+00
 1.2730349669e+00	 2.3266069948e-01	 3.3268667924e+00
 1.2709153733e+00	 2.4397374393e-01	 3.2903374740e+00
 1.2686890313e+00	 2.5529838449e-01	 3.2525459351e+00
 1.2663553580e+00	 2.6663323322e-01	 3.2133809265e+00
 1.2639137927e+00	 2.7797688441e-01	 3.1727210420e+00
 1.2613637966e+00	 2.8932791499e-01	 3.1304348100e+00
 1.2587048544e+00	 3.0068488491e-01	 3.0863808971e+00
 1.2559364738e+00	 3.1204633753e-01	 3.0404084346e+00
 1.2530581867e+00	 3.2341080007e-01	 2.9923574739e+00
 1.2500695494e+00	 3.3477678407e-01	 2.9420595837e+00
 1.2866390786e+00	 2.2337287102e-01	 3.3740756095e+00
 1.2846073264e+00	 2.3477567144e-01	 3.3369613139e+00
 1.2824684649e+00	 2.4619155566e-01	 3.2986486540e+00
 1.2802218846e+00	 2.5761914140e-01	 3.2590348152e+00
 1.2778669974e+00	 2.6905702810e-01	 3.2180057988e+00
 1.2754032373e+00	 2.8050379728e-01	 3.1754363427e+00
 1.2728300609e+00	 2.9195801294e-01	 3.1311899476e+00
 1.2701469479e+00	 3.0341822192e-01	 3.0851190202e+00
 1.2673534017e+00	 3.1488295436e-01	 3.0370651426e+00
 1.2644489499e+00	 3.2635072408e-01	 2.9868594772e+00
 1.2614331448e+00	 3.3782002908e-01	 2.9343233178e+00
 1.2982297411e+00	 2.2538512108e-01	 3.3814165813e+00
 1.2961796859e+00	 2.3689064341e-01	 3.3426998790e+00
 1.2940215566e+00	 2.4840936740e-01	 3.3027654259e+00
 1.2917547380e+00	 2.5993989831e-01	 3.2615090793e+00
 1.2893786369e+00	 2.7148082298e-01	 3.2188144292e+00
 1.2868926820e+00	 2.8303071016e-01	 3.1745526448e+00
 1.2842963252e+00	 2.9458811089e-01	 3.1285824312e+00
 1.2815890414e+00	 3.0615155894e-01	 3.0807501056e+00
 1.2787703296e+00	 3.1771957118e-01	 3.0308898049e+00
 1.2758397131e+00	 3.2929064808e-01	 2.9788238348e+00
 1.2727967402e+00	 3.4086327409e-01	 2.9243631702e+00
 1.3098204037e+00	 2.2739737115e-01	 3.3838904534e+00
 1.3077520455e+00	 2.3900561538e-01	 3.3437133601e+00
 1.3055746482e+00	 2.5062717913e-01	 3.3023172504e+00
 1.3032875914e+00	 2.6226065522e-01	 3.2595970975e+00
 1.3008902763e+00	 2.7390461787e-01	 3.2154344786e+00
 1.2983821267e+00	 2.8555762304e-01	 3.1696973415e+00
 1.2957625895e+00	 2.9721820884e-01	 3.1222398854e+00
 1.2930311349e+00	 3.0888489595e-01	 3.0729025652e+00
 1.2901872575e+00	 3.2055618801e-01	 3.0215122321e+00
 1.2872304763e+00	 3.3223057208e-01	 2.9678824204e+00
 1.2841603356e+00	 3.4390651910e-01	 2.9118137927e+00
 1.3214110662e+00	 2.2940962122e-01	 3.3811473632e+00
 1.3193244050e+00	 2.4112058734e-01	 3.3396502829e+00
 1.3171277399e+00	 2.5284499086e-01	 3.2969512975e+00
 1.3148204447e+00	 2.6458141213e-01	 3.2529450035e+00
 1.3124019157e+00	 2.7632841275e-01	 3.2075114259e+00
 1.3098715714e+00	 2.8808453591e-01	 3.1605156997e+00
 1.3072288537e+00	 2.9984830679e-01	 3.1118078686e+00
 1.3044732284e+00	 3.1161823297e-01	 3.0612228113e+00
 1.3016041854e+00	 3.2339280484e-01	 3.0085803093e+00
 1.2986212395e+00	 3.3517049609e-01	 2.9536852662e+00
 1.2955239310e+00	 3.4694976411e-01	 2.8963280914e+00
 1.3330017287e+00	 2.3142187128e-01	 3.3728542082e+00
 1.3308967645e+00	 2.4323555931e-01	 3.3301759749e+00
 1.3286808315e+00	 2.5506280259e-01	 3.2863315770e+00
 1.3263532981e+00	 2.6690216904e-01	 3.2412158064e+00
 1.3239135551e+00	 2.7875220764e-01	 3.1947076612e+00
 1.3213610161e+00	 2.9061144879e-01	 3.1466699358e+00
 1.3186951180e+00	 3.0247840474e-01	 3.0969489306e+00
 1.3159153219e+00	 3.1435156998e-01	 3.0453742954e+00
 1.3130211133e+00	 3.2622942167e-01	 2.9917590172e+00
 1.3100120027e+00	 3.3811042009e-01	 2.9358995663e+00
 1.3068875263e+00	 3.4999300912e-01	 2.8775762128e+00
 1.1932515725e+00	 3.1956055903e-01	 2.9615850261e+00
 1.1902930404e+00	 3.3040995510e-01	 2.9259212123e+00
 1.1872284004e+00	 3.4125791960e-01	 2.8893625718e+00
 1.1840573036e+00	 3.5210299045e-01	 2.8516294036e+00
 1.1807794263e+00	 3.6294369251e-01	 2.8124447037e+00
 1.1773944705e+00	 3.7377853805e-01	 2.7715941411e+00
 1.1739021643e+00	 3.8460602733e-01	 2.7297210406e+00
 1.1703022625e+00	 3.9542464909e-01	 2.6870191063e+00
 1.1665945468e+00	 4.0623288112e-01	 2.6434174781e+00
 1.1627788261e+00	 4.1702919083e-01	 2.5988504865e+00
 1.1588549371e+00	 4.2781203584e-01	 2.5532582317e+00
 1.2046151679e+00	 3.2260380404e-01	 2.9587722849e+00
 1.2016284611e+00	 3.3355652127e-01	 2.9191971191e+00
 1.1985346358e+00	 3.4450779331e-01	 2.8786297822e+00
 1.1953333400e+00	 3.5545614414e-01	 2.8368023619e+00
 1.1920242467e+00	 3.6640008457e-01	 2.7934485297e+00
 1.1886070552e+00	 3.7733811272e-01	 2.7485451227e+00
 1.1850814911e+00	 3.8826871455e-01	 2.7027942783e+00
 1.1814473066e+00	 3.9919036440e-01	 2.6562140969e+00
 1.1777042815e+00	 4.1010152558e-01	 2.6087516108e+00
 1.1738522228e+00	 4.2100065091e-01	 2.5603587025e+00
 1.1698909658e+00	 4.3188618330e-01	 2.5109926766e+00
 1.2159787633e+00	 3.2564704905e-01	 2.9558749424e+00
 1.2129638817e+00	 3.3670308745e-01	 2.9127029188e+00
 1.2098408712e+00	 3.4775766702e-01	 2.8684475252e+00
 1.2066093763e+00	 3.5880929783e-01	 2.8228478539e+00
 1.2032690671e+00	 3.6985647664e-01	 2.7756434499e+00
 1.1998196399e+00	 3.8089768739e-01	 2.7271101955e+00
 1.1962608178e+00	 3.9193140176e-01	 2.6777711908e+00
 1.1925923507e+00	 4.0295607971e-01	 2.6275839047e+00
 1.1888140162e+00	 4.1397017004e-01	 2.5765084869e+00
 1.1849256196e+00	 4.2497211099e-01	 2.5245096919e+00
 1.1809269945e+00	 4.3596033077e-01	 2.4715574516e+00
 1.2273423587e+00	 3.2869029405e-01	 2.9524195325e+00
 1.2242993023e+00	 3.3984965363e-01	 2.9059691497e+00
 1.2211471066e+00	 3.5100754074e-01	 2.8583537363e+00
 1.2178854127e+00	 3.6216245153e-01	 2.8093147662e+00
 1.2145138875e+00	 3.7331286870e-01	 2.7586303662e+00
 1.2110322247e+00	 3.8445726205e-01	 2.7068586915e+00
 1.2074401445e+00	 3.9559408897e-01	 2.6542402756e+00
 1.2037373948e+00	 4.0672179502e-01	 2.6007398495e+00
 1.1999237509e+00	 4.1783881451e-01	 2.5463260168e+00
 1.1959990163e+00	 4.2894357106e-01	 2.4909718348e+00
 1.1919630232e+00	 4.4003447824e-01	 2.4346553954e+00
 1.2387059540e+00	 3.3173353906e-01	 2.9479566293e+00
 1.2356347230e+00	 3.4299621981e-01	 2.8985505454e+00
 1.2324533420e+00	 3.5425741445e-01	 2.8479106187e+00
 1.2291614490e+00	 3.6551560522e-01	 2.7957762381e+00
 1.2257587079e+00	 3.7676926077e-01	 2.7420567567e+00
 1.2222448094e+00	 3.8801683672e-01	 2.6873820769e+00
 1.2186194713e+00	 3.9925677618e-01	 2.6318116953e+00
 1.2148824389e+00	 4.1048751033e-01	 2.5753143144e+00
 1.2110334856e+00	 4.2170745897e-01	 2.5178624345e+00
 1.2070724131e+00	 4.3291503114e-01	 2.4594329525e+00
 1.2029990519e+00	 4.4410862571e-01	 2.4000077589e+00
 1.2500695494e+00	 3.3477678407e-01	 2.9420595837e+00
 1.2469701436e+00	 3.4614278598e-01	 2.8900247549e+00
 1.2437595774e+00	 3.5750728816e-01	 2.8367033500e+00
 1.2404374854e+00	 3.6886875891e-01	 2.7818283611e+00
 1.2370035283e+00	 3.8022565283e-01	 2.7255214308e+00
 1.2334573942e+00	 3.9157641138e-01	 2.6682927491e+00
 1.2297987980e+00	 4.0291946339e-01	 2.6101160809e+00
 1.2260274830e+00	 4.1425322564e-01	 2.5509595600e+00
 1.2221432203e+00	 4.2557610344e-01	 2.4907951286e+00
 1.2181458099e+00	 4.3688649122e-01	 2.4295991617e+00
 1.2140350806e+00	 4.4818277318e-01	 2.3673530882e+00
 1.2614331448e+00	 3.3782002908e-01	 2.9343233178e+00
 1.2583055642e+00	 3.4928935216e-01	 2.8799911193e+00
 1.2550658128e+00	 3.6075716187e-01	 2.8243388471e+00
 1.2517135217e+00	 3.7222191260e-01	 2.7671007488e+00
 1.2482483487e+00	 3.8368204490e-01	 2.7086419676e+00
 1.2446699789e+00	 3.9513598605e-01	 2.6492228888e+00
 1.2409781248e+00	 4.0658215060e-01	 2.5888033897e+00
 1.2371725271e+00	 4.1801894095e-01	 2.5273465930e+00
 1.2332529550e+00	 4.2944474790e-01	 2.4648195260e+00
 1.2292192066e+00	 4.4085795130e-01	 2.4011937784e+00
 1.2250711094e+00	 4.5225692064e-01	 2.3364461547e+00
 1.2727967402e+00	 3.4086327409e-01	 2.9243631702e+00
 1.2696409849e+00	 3.5243591834e-01	 2.8680695013e+00
 1.2663720482e+00	 3.6400703559e-01	 2.8104445828e+00
 1.2629895581e+00	 3.7557506629e-01	 2.7512862603e+00
 1.2594931692e+00	 3.8713843696e-01	 2.6910549735e+00
 1.2558825636e+00	 3.9869556072e-01	 2.6298233650e+00
 1.2521574515e+00	 4.1024483781e-01	 2.5675418136e+00
 1.2483175712e+00	 4.2178465626e-01	 2.5041640830e+00
 1.2443626897e+00	 4.3331339236e-01	 2.4396480229e+00
 1.2402926034e+00	 4.4482941138e-01	 2.3739562679e+00
 1.2361071381e+00	 4.5633106811e-01	 2.3070569297e+00
 1.2841603356e+00	 3.4390651910e-01	 2.9118137927e+00
 1.2809764055e+00	 3.5558248452e-01	 2.8538991644e+00
 1.2776782836e+00	 3.6725690930e-01	 2.7946674532e+00
 1.2742655944e+00	 3.7892821998e-01	 2.7340372361e+00
 1.2707379896e+00	 3.9059482903e-01	 2.6724150361e+00
 1.2670951484e+00	 4.0225513538e-01	 2.6097626874e+00
 1.2633367783e+00	 4.1390752503e-01	 2.5460167355e+00
 1.2594626153e+00	 4.2555037157e-01	 2.4811173270e+00
 1.2554724244e+00	 4.3718203683e-01	 2.4150089614e+00
 1.2513660002e+00	 4.4880087147e-01	 2.3476412388e+00
 1.2471431668e+00	 4.6040521558e-01	 2.2789695999e+00
 1.2955239310e+00	 3.4694976411e-01	 2.8963280914e+00
 1.2923118261e+00	 3.5872905069e-01	 2.8371376990e+00
 1.2889845190e+00	 3.7050678301e-01	 2.7766727211e+00
 1.2855416308e+00	 3.8228137368e-01	 2.7150144222e+00
 1.2819828100e+00	 3.9405122110e-01	 2.6523937241e+00
 1.2783077331e+00	 4.0581471005e-01	 2.5887260062e+00
 1.2745161050e+00	 4.1757021224e-01	 2.5239297313e+00
 1.2706076594e+00	 4.2931608688e-01	 2.4579272575e+00
 1.2665821591e+00	 4.4105068130e-01	 2.3906456486e+00
 1.2624393969e+00	 4.5277233155e-01	 2.3220174779e+00
 1.2581791955e+00	 4.6447936305e-01	 2.2519816228e+00
 1.3068875263e+00	 3.4999300912e-01	 2.8775762128e+00
 1.3036472468e+00	 3.6187561687e-01	 2.8174599922e+00
 1.3002907544e+00	 3.7375665673e-01	 2.7561699377e+00
 1.2968176671e+00	 3.8563452737e-01	 2.6938948352e+00
 1.2932276304e+00	 3.9750761316e-01	 2.6306786318e+00
 1.2895203178e+00	 4.0937428472e-01	 2.5664141531e+00
 1.2856954317e+00	 4.2123289945e-01	 2.5009976126e+00
 1.2817527035e+00	 4.3308180219e-01	 2.4343294918e+00
 1.2776918938e+00	 4.4491932576e-01	 2.3663154161e+00
 1.2735127937e+00	 4.5674379163e-01	 2.2968670228e+00
 1.2692152242e+00	 4.6855351052e-01	 2.2259028182e+00
 1.1588549371e+00	 4.2781203584e-01	 2.5532582317e+00
 1.1548220499e+00	 4.3858169375e-01	 2.5064379924e+00
 1.1506807148e+00	 4.4933476878e-01	 2.4582287000e+00
 1.1464308532e+00	 4.6006969146e-01	 2.4086227308e+00
 1.1420724155e+00	 4.7078488495e-01	 2.3576244551e+00
 1.1376053813e+00	 4.8147876571e-01	 2.3052508110e+00
 1.1330297603e+00	 4.9214974416e-01	 2.2515318619e+00
 1.1283455920e+00	 5.0279622535e-01	 2.1965113390e+00
 1.1235529461e+00	 5.1341660965e-01	 2.1402471646e+00
 1.1186519229e+00	 5.2400929344e-01	 2.0828119564e+00
 1.1136426533e+00	 5.3457266981e-01	 2.0242935106e+00
 1.1698909658e+00	 4.3188618330e-01	 2.5109926766e+00
 1.1658196725e+00	 4.4275840302e-01	 2.4605157685e+00
 1.1616388986e+00	 4.5361388194e-01	 2.4088277498e+00
 1.1573485647e+00	 4.6445103563e-01	 2.3559296015e+00
 1.1529486206e+00	 4.7526827225e-01	 2.3018339647e+00
 1.1484390459e+00	 4.8606399317e-01	 2.2465657118e+00
 1.1438198502e+00	 4.9683659368e-01	 2.1901625026e+00
 1.1390910736e+00	 5.0758446364e-01	 2.1326753217e+00
 1.1342527862e+00	 5.1830598818e-01	 2.0741689972e+00
 1.1293050895e+00	 5.2899954840e-01	 2.0147226989e+00
 1.1242481156e+00	 5.3966352211e-01	 1.9544304138e+00
 1.1809269945e+00	 4.3596033077e-01	 2.4715574516e+00
 1.1768172951e+00	 4.4693511230e-01	 2.4175755145e+00
 1.1725970824e+00	 4.5789299510e-01	 2.3625232236e+00
 1.1682662761e+00	 4.6883237980e-01	 2.3064090386e+00
 1.1638248257e+00	 4.7975165954e-01	 2.2492527740e+00
 1.1592727104e+00	 4.9064922063e-01	 2.1910861703e+00
 1.1546099402e+00	 5.0152344320e-01	 2.1319534486e+00
 1.1498365551e+00	 5.1237270192e-01	 2.0719118459e+00
 1.1449526264e+00	 5.2319536670e-01	 2.0110321297e+00
 1.1399582561e+00	 5.3398980337e-01	 1.9493990914e+00
 1.1348535778e+00	 5.4475437442e-01	 1.8871120157e+00
 1.1919630232e+00	 4.4003447824e-01	 2.4346553954e+00
 1.1878149178e+00	 4.5111182157e-01	 2.3773570078e+00
 1.1835552662e+00	 4.6217210825e-01	 2.3190927317e+00
 1.1791839876e+00	 4.7321372397e-01	 2.2598773930e+00
 1.1747010307e+00	 4.8423504684e-01	 2.1997368967e+00
 1.1701063750e+00	 4.9523444809e-01	 2.1387087994e+00
 1.1654000301e+00	 5.0621029271e-01	 2.0768428646e+00
 1.1605820367e+00	 5.1716094020e-01	 2.0142015964e+00
 1.1556524665e+00	 5.2808474522e-01	 1.9508607524e+00
 1.1506114228e+00	 5.3898005833e-01	 1.8869098325e+00
 1.1454590401e+00	 5.4984522672e-01	 1.8224525433e+00
 1.2029990519e+00	 4.4410862571e-01	 2.4000077589e+00
 1.1988125404e+00	 4.5528853084e-01	 2.3396173173e+00
 1.1945134501e+00	 4.6645122141e-01	 2.2783300221e+00
 1.1901016990e+00	 4.7759506814e-01	 2.2161659657e+00
 1.1855772358e+00	 4.8871843414e-01	 2.1531560740e+00
 1.1809400395e+00	 4.9981967555e-01	 2.0893426826e+00
 1.1761901200e+00	 5.1089714223e-01	 2.0247800931e+00
 1.1713275182e+00	 5.2194917849e-01	 1.9595351081e+00
 1.1663523067e+00	 5.3297412375e-01	 1.8936875420e+00
 1.1612645894e+00	 5.4397031330e-01	 1.8273307075e+00
 1.1560645023e+00	 5.5493607903e-01	 1.7605718752e+00
 1.2140350806e+00	 4.4818277318e-01	 2.3673530882e+00
 1.2098101631e+00	 4.5946524011e-01	 2.3041297192e+00
 1.2054716339e+00	 4.7073033456e-01	 2.2400439290e+00
 1.2010194105e+00	 4.8197641231e-01	 2.1751199895e+00
 1.1964534409e+00	 4.9320182143e-01	 2.1093927914e+00
 1.1917737041e+00	 5.0440490300e-01	 2.0429084258e+00
 1.1869802099e+00	 5.1558399175e-01	 1.9757247439e+00
 1.1820729998e+00	 5.2673741677e-01	 1.9079118931e+00
 1.1770521468e+00	 5.3786350227e-01	 1.8395528284e+00
 1.1719177560e+00	 5.4896056826e-01	 1.7707437964e+00
 1.1666699646e+00	 5.6002693133e-01	 1.7015947916e+00
 1.2250711094e+00	 4.5225692064e-01	 2.3364461547e+00
 1.2208077857e+00	 4.6364194939e-01	 2.2706826559e+00
 1.2164298177e+00	 4.7500944772e-01	 2.2040573626e+00
 1.2119371219e+00	 4.8635775647e-01	 2.1365976504e+00
 1.2073296460e+00	 4.9768520873e-01	 2.0683413320e+00
 1.2026073686e+00	 5.0899013046e-01	 1.9993372446e+00
 1.1977702998e+00	 5.2027084127e-01	 1.9296458146e+00
 1.1928184813e+00	 5.3152565505e-01	 1.8593395969e+00
 1.1877519869e+00	 5.4275288079e-01	 1.7885037866e+00
 1.1825709226e+00	 5.5395082323e-01	 1.7172367029e+00
 1.1772754268e+00	 5.6511778364e-01	 1.6456502420e+00
 1.2361071381e+00	 4.5633106811e-01	 2.3070569297e+00
 1.2318054084e+00	 4.6781865866e-01	 2.2390787384e+00
 1.2273880015e+00	 4.7928856087e-01	 2.1702063386e+00
 1.2228548334e+00	 4.9073910064e-01	 2.1004691461e+00
 1.2182058511e+00	 5.0216859603e-01	 2.0299068648e+00
 1.2134410332e+00	 5.1357535792e-01	 1.9585700823e+00
 1.2085603897e+00	 5.2495769079e-01	 1.8865208409e+00
 1.2035639629e+00	 5.3631389334e-01	 1.8138331805e+00
 1.1984518271e+00	 5.4764225932e-01	 1.7405936530e+00
 1.1932240893e+00	 5.5894107819e-01	 1.6669018056e+00
 1.1878808891e+00	 5.7020863595e-01	 1.5928706322e+00
 1.2471431668e+00	 4.6040521558e-01	 2.2789695999e+00
 1.2428030310e+00	 4.7199536793e-01	 2.2091337868e+00
 1.2383461853e+00	 4.8356767403e-01	 2.1383390452e+00
 1.2337725448e+00	 4.9512044481e-01	 2.0666157789e+00
 1.2290820562e+00	 5.0665198333e-01	 1.9940045648e+00
 1.2242746977e+00	 5.1816058538e-01	 1.9205567588e+00
 1.2193504796e+00	 5.2964454030e-01	 1.8463350737e+00
 1.2143094444e+00	 5.4110213162e-01	 1.7714141281e+00
 1.2091516672e+00	 5.5253163784e-01	 1.6958809633e+00
 1.2038772559e+00	 5.6393133316e-01	 1.6198355276e+00
 1.1984863514e+00	 5.7529948825e-01	 1.5433911263e+00
 1.2581791955e+00	 4.6447936305e-01	 2.2519816228e+00
 1.2538006537e+00	 4.7617207721e-01	 2.1806759084e+00
 1.2493043691e+00	 4.8784678719e-01	 2.1083149447e+00
 1.2446902563e+00	 4.9950178898e-01	 2.0349290819e+00
 1.2399582613e+00	 5.1113537063e-01	 1.9605587642e+00
 1.2351083623e+00	 5.2274581285e-01	 1.8852551468e+00
 1.2301405695e+00	 5.3433138982e-01	 1.8090806825e+00
 1.2250549260e+00	 5.4589036991e-01	 1.7321096774e+00
 1.2198515074e+00	 5.5742101637e-01	 1.6544288115e+00
 1.2145304225e+00	 5.6892158813e-01	 1.5761376249e+00
 1.2090918136e+00	 5.8039034056e-01	 1.4973489665e+00
 1.2692152242e+00	 4.6855351052e-01	 2.2259028182e+00
 1.2647982763e+00	 4.8034878649e-01	 2.1535446105e+00
 1.2602625529e+00	 4.9212590034e-01	 2.0800039075e+00
 1.2556079677e+00	 5.0388313316e-01	 2.0053099753e+00
 1.2508344664e+00	 5.1561875792e-01	 1.9295021317e+00
 1.2459420268e+00	 5.2733104031e-01	 1.8526303752e+00
 1.2409306594e+00	 5.3901823934e-01	 1.7747559828e+00
 1.2358004075e+00	 5.5067860820e-01	 1.6959520724e+00
 1.2305513475e+00	 5.6231039489e-01	 1.6163041288e+00
 1.2251835891e+00	 5.7391184309e-01	 1.5359104921e+00
 1.2196972759e+00	 5.8548119287e-01	 1.4548828057e+00
 1.1136426533e+00	 5.3457266981e-01	 2.0242935106e+00
 1.1085261781e+00	 5.4510334159e-01	 1.9643833036e+00
 1.1033018472e+00	 5.5560149593e-01	 1.9039900386e+00
 1.0979698838e+00	 5.6606552066e-01	 1.8434105807e+00
 1.0925305426e+00	 5.7649380318e-01	 1.7826821308e+00
 1.0869841097e+00	 5.8688473129e-01	 1.7218336608e+00
 1.0813309028e+00	 5.9723669388e-01	 1.6608860823e+00
 1.0755712713e+00	 6.0754808170e-01	 1.5998525049e+00
 1.0697055961e+00	 6.1781728815e-01	 1.5387385836e+00
 1.0637342901e+00	 6.2804271004e-01	 1.4775429564e+00
 1.0576577978e+00	 6.3822274832e-01	 1.4162577706e+00
 1.1242481156e+00	 5.3966352211e-01	 1.9544304138e+00
 1.1190829150e+00	 5.5029447978e-01	 1.8927413677e+00
 1.1138088317e+00	 5.6089261035e-01	 1.8290930912e+00
 1.1084260909e+00	 5.7145628626e-01	 1.7638648865e+00
 1.1029349496e+00	 5.8198387960e-01	 1.6986673972e+00
 1.0973356969e+00	 5.9247376279e-01	 1.6337830617e+00
 1.0916286532e+00	 6.0292430937e-01	 1.5692246877e+00
 1.0858141714e+00	 6.1333389479e-01	 1.5049974420e+00
 1.0798926361e+00	 6.2370089714e-01	 1.4410992384e+00
 1.0738644641e+00	 6.3402369795e-01	 1.3775212189e+00
 1.0677301040e+00	 6.4430068297e-01	 1.3142483286e+00
 1.1348535778e+00	 5.4475437442e-01	 1.8871120157e+00
 1.1296396520e+00	 5.5548561798e-01	 1.8236502104e+00
 1.1243158162e+00	 5.6618372476e-01	 1.7584678311e+00
 1.1188822979e+00	 5.7684705187e-01	 1.6916837598e+00
 1.1133393567e+00	 5.8747395602e-01	 1.6234362317e+00
 1.1076872840e+00	 5.9806279428e-01	 1.5542445163e+00
 1.1019264036e+00	 6.0861192487e-01	 1.4856821945e+00
 1.0960570716e+00	 6.1911970789e-01	 1.4179146541e+00
 1.0900796762e+00	 6.2958450613e-01	 1.3509382058e+00
 1.0839946381e+00	 6.4000468587e-01	 1.2847422466e+00
 1.0778024103e+00	 6.5037861761e-01	 1.2193098727e+00
 1.1454590401e+00	 5.4984522672e-01	 1.8224525433e+00
 1.1401963889e+00	 5.6067675617e-01	 1.7570152339e+00
 1.1348228007e+00	 5.7147483917e-01	 1.6900908855e+00
 1.1293385050e+00	 5.8223781747e-01	 1.6217918868e+00
 1.1237437637e+00	 5.9296403243e-01	 1.5522507379e+00
 1.1180388711e+00	 6.0365182578e-01	 1.4816204370e+00
 1.1122241540e+00	 6.1429954036e-01	 1.4100748348e+00
 1.1062999718e+00	 6.2490552098e-01	 1.3384393195e+00
 1.1002667163e+00	 6.3546811512e-01	 1.2680645652e+00
 1.0941248121e+00	 6.4598567379e-01	 1.1989798485e+00
 1.0878747165e+00	 6.5645655226e-01	 1.1311715800e+00
 1.1560645023e+00	 5.5493607903e-01	 1.7605718752e+00
 1.1507531259e+00	 5.6586789436e-01	 1.6929971137e+00
 1.1453297852e+00	 5.7676595358e-01	 1.6241560100e+00
 1.1397947120e+00	 5.8762858307e-01	 1.5541611819e+00
 1.1341481707e+00	 5.9845410885e-01	 1.4831458648e+00
 1.1283904582e+00	 6.0924085727e-01	 1.4112643003e+00
 1.1225219044e+00	 6.1998715586e-01	 1.3386920886e+00
 1.1165428719e+00	 6.3069133408e-01	 1.2656265051e+00
 1.1104537563e+00	 6.4135172411e-01	 1.1922974561e+00
 1.1042549861e+00	 6.5196666170e-01	 1.1200195796e+00
 1.0979470228e+00	 6.6253448690e-01	 1.0495764279e+00
 1.1666699646e+00	 5.6002693133e-01	 1.7015947916e+00
 1.1613098628e+00	 5.7105903256e-01	 1.6317601553e+00
 1.1558367697e+00	 5.8205706799e-01	 1.5608596024e+00
 1.1502509191e+00	 5.9301934868e-01	 1.4890125010e+00
 1.1445525777e+00	 6.0394418526e-01	 1.4163590980e+00
 1.1387420454e+00	 6.1482988876e-01	 1.3430608944e+00
 1.1328196548e+00	 6.2567477135e-01	 1.2693009839e+00
 1.1267857721e+00	 6.3647714717e-01	 1.1952843529e+00
 1.1206407964e+00	 6.4723533310e-01	 1.1212381449e+00
 1.1143851601e+00	 6.5794764962e-01	 1.0474118875e+00
 1.1080193290e+00	 6.6861242155e-01	 9.7428072477e-01
 1.1772754268e+00	 5.6511778364e-01	 1.6456502420e+00
 1.1718665998e+00	 5.7625017075e-01	 1.5734715957e+00
 1.1663437542e+00	 5.8734818240e-01	 1.5004000239e+00
 1.1607071261e+00	 5.9841011428e-01	 1.4265679750e+00
 1.1549569847e+00	 6.0943426168e-01	 1.3521287955e+00
 1.1490936325e+00	 6.2041892026e-01	 1.2772570809e+00
 1.1431174052e+00	 6.3136238685e-01	 1.2021489860e+00
 1.1370286723e+00	 6.4226296026e-01	 1.1270224966e+00
 1.1308278364e+00	 6.5311894209e-01	 1.0521176624e+00
 1.1245153341e+00	 6.6392863754e-01	 9.7769679222e-01
 1.1180916353e+00	 6.7469035619e-01	 9.0404461264e-01
 1.1878808891e+00	 5.7020863595e-01	 1.5928706322e+00
 1.1824233367e+00	 5.8144130894e-01	 1.5183009195e+00
 1.1768507387e+00	 5.9263929681e-01	 1.4429769341e+00
 1.1711633332e+00	 6.0380087988e-01	 1.3670503492e+00
 1.1653613917e+00	 6.1492433810e-01	 1.2906935206e+00
 1.1594452196e+00	 6.2600795175e-01	 1.2140997986e+00
 1.1534151556e+00	 6.3705000234e-01	 1.1374837985e+00
 1.1472715724e+00	 6.4804877336e-01	 1.0610816304e+00
 1.1410148765e+00	 6.5900255108e-01	 9.8515108853e-01
 1.1346455081e+00	 6.6990962545e-01	 9.0997180155e-01
 1.1281639415e+00	 6.8076829084e-01	 8.3584534564e-01
 1.1984863514e+00	 5.7529948825e-01	 1.5433911263e+00
 1.1929800737e+00	 5.8663244714e-01	 1.4664191905e+00
 1.1873577232e+00	 5.9793041122e-01	 1.3887906380e+00
 1.1816195402e+00	 6.0919164549e-01	 1.3106823353e+00
 1.1757657987e+00	 6.2041441451e-01	 1.2322913849e+00
 1.1697968067e+00	 6.3159698325e-01	 1.1538353862e+00
 1.1637129060e+00	 6.4273761784e-01	 1.0755526528e+00
 1.1575144726e+00	 6.5383458645e-01	 9.9770238795e-01
 1.1512019166e+00	 6.6488616007e-01	 9.2056481750e-01
 1.1447756821e+00	 6.7589061337e-01	 8.4444128350e-01
 1.1382362477e+00	 6.8684622548e-01	 7.6965429899e-01
 1.2090918136e+00	 5.8039034056e-01	 1.4973489665e+00
 1.2035368106e+00	 5.9182358533e-01	 1.4179983951e+00
 1.1978647077e+00	 6.0322152563e-01	 1.3380414441e+00
 1.1920757472e+00	 6.1458241109e-01	 1.2576859722e+00
 1.1861702058e+00	 6.2590449093e-01	 1.1771594018e+00
 1.1801483938e+00	 6.3718601474e-01	 1.0967089157e+00
 1.1740106564e+00	 6.4842523334e-01	 1.0166016094e+00
 1.1677573728e+00	 6.5962039954e-01	 9.3712459853e-01
 1.1613889566e+00	 6.7076976907e-01	 8.5858508406e-01
 1.1549058561e+00	 6.8187160129e-01	 7.8131037586e-01
 1.1483085540e+00	 6.9292416013e-01	 7.0564787751e-01
 1.2196972759e+00	 5.8548119287e-01	 1.4548828057e+00
 1.2140935476e+00	 5.9701472353e-01	 1.3732107992e+00
 1.2083716922e+00	 6.0851264004e-01	 1.2909290344e+00
 1.2025319543e+00	 6.1997317670e-01	 1.2082819987e+00
 1.1965746128e+00	 6.3139456735e-01	 1.1255328493e+00
 1.1904999810e+00	 6.4277504624e-01	 1.0429635350e+00
 1.1843084068e+00	 6.5411284883e-01	 9.6087486867e-01
 1.1780002729e+00	 6.6540621264e-01	 8.7958655542e-01
 1.1715759967e+00	 6.7665337806e-01	 7.9943717680e-01
 1.1650360302e+00	 6.8785258920e-01	 7.2078413257e-01
 1.1583808602e+00	 6.9900209477e-01	 6.4400354307e-01
 1.0576577978e+00	 6.3822274832e-01	 1.4162577706e+00
 1.0514765958e+00	 6.4835580913e-01	 1.3544115573e+00
 1.0451911933e+00	 6.5844030515e-01	 1.2916122129e+00
 1.0388021316e+00	 6.6847465577e-01	 1.2279541234e+00
 1.0323099833e+00	 6.7845728775e-01	 1.1635157412e+00
 1.0257153527e+00	 6.8838663591e-01	 1.0983602459e+00
 1.0190188753e+00	 6.9826114398e-01	 1.0325362955e+00
 1.0122212178e+00	 7.0807926532e-01	 9.6607886345e-01
 1.0053230779e+00	 7.1783946375e-01	 8.9901015778e-01
 9.9832518421e-01	 7.2754021424e-01	 8.3134061752e-01
 9.9122829578e-01	 7.3718000378e-01	 7.6306998095e-01
 1.0677301040e+00	 6.4430068297e-01	 1.3142483286e+00
 1.0614900371e+00	 6.5453024313e-01	 1.2506171435e+00
 1.0551447774e+00	 6.6471077600e-01	 1.1860395591e+00
 1.0486948712e+00	 6.7484068594e-01	 1.1205951756e+00
 1.0421408968e+00	 6.8491838470e-01	 1.0543453426e+00
 1.0354834641e+00	 6.9494229222e-01	 9.8733387713e-01
 1.0287232147e+00	 7.0491083738e-01	 9.1958787840e-01
 1.0218608216e+00	 7.1482245884e-01	 8.5111863630e-01
 1.0148969892e+00	 7.2467560576e-01	 7.8192262855e-01
 1.0078324530e+00	 7.3446873863e-01	 7.1198260182e-01
 1.0006679794e+00	 7.4420032998e-01	 6.4150404678e-01
 1.0778024103e+00	 6.5037861761e-01	 1.2193098727e+00
 1.0715034784e+00	 6.6070467713e-01	 1.1537583084e+00
 1.0650983614e+00	 6.7098124686e-01	 1.0872703523e+00
 1.0585876108e+00	 6.8120671611e-01	 1.0199075431e+00
 1.0519718103e+00	 6.9137948165e-01	 9.5171115994e-01
 1.0452515755e+00	 7.0149794852e-01	 8.8270300513e-01
 1.0384275540e+00	 7.1156053078e-01	 8.1288629231e-01
 1.0315004254e+00	 7.2156565236e-01	 7.4224663416e-01
 1.0244709005e+00	 7.3151174778e-01	 6.7075312595e-01
 1.0173397218e+00	 7.4139726301e-01	 5.9836845619e-01
 1.0101076630e+00	 7.5122065619e-01	 5.2710650317e-01
 1.0878747165e+00	 6.5645655226e-01	 1.1311715800e+00
 1.0815169197e+00	 6.6687911113e-01	 1.0635197343e+00
 1.0750519455e+00	 6.7725171771e-01	 9.9495458391e-01
 1.0684803504e+00	 6.8757274628e-01	 9.2551638901e-01
 1.0618027238e+00	 6.9784057861e-01	 8.5522343923e-01
 1.0550196868e+00	 7.0805360483e-01	 7.8407291111e-01
 1.0481318934e+00	 7.1821022419e-01	 7.1204183704e-01
 1.0411400291e+00	 7.2830884588e-01	 6.3908818134e-01
 1.0340448118e+00	 7.3834788980e-01	 5.6515201830e-01
 1.0268469906e+00	 7.4832578740e-01	 4.9122801431e-01
 1.0195473466e+00	 7.5824098240e-01	 4.1976135751e-01
 1.0979470228e+00	 6.6253448690e-01	 1.0495764279e+00
 1.0915303610e+00	 6.7305354512e-01	 9.7960197717e-01
 1.0850055295e+00	 6.8352218857e-01	 9.0875985489e-01
 1.0783730901e+00	 6.9393877645e-01	 8.3706588057e-01
 1.0716336372e+00	 7.0430167556e-01	 7.6451248194e-01
 1.0647877982e+00	 7.1460926113e-01	 6.9106963544e-01
 1.0578362327e+00	 7.2485991759e-01	 6.1668592523e-01
 1.0507796329e+00	 7.3505203939e-01	 5.4128971582e-01
 1.0436187230e+00	 7.4518403182e-01	 4.6514780871e-01
 1.0363542594e+00	 7.5525431178e-01	 3.9091196663e-01
 1.0289870301e+00	 7.6526130860e-01	 3.1911359411e-01
 1.1080193290e+00	 6.6861242155e-01	 9.7428072477e-01
 1.1015438023e+00	 6.7922797912e-01	 9.0172092100e-01
 1.0949591136e+00	 6.8979265942e-01	 8.2837077031e-01
 1.0882658297e+00	 7.0030480661e-01	 7.5421854094e-01
 1.0814645507e+00	 7.1076277251e-01	 6.7922796897e-01
 1.0745559096e+00	 7.2116491744e-01	 6.0333929084e-01
 1.0675405721e+00	 7.3150961099e-01	 5.2647040106e-01
 1.0604192367e+00	 7.4179523291e-01	 4.4853840995e-01
 1.0531926343e+00	 7.5202017384e-01	 3.7159151391e-01
 1.0458615282e+00	 7.6218283617e-01	 2.9703316720e-01
 1.0384267137e+00	 7.7228163481e-01	 2.2481150500e-01
 1.1180916353e+00	 6.7469035619e-01	 9.0404461264e-01
 1.1115572436e+00	 6.8540241312e-01	 8.2960337444e-01
 1.1049126976e+00	 6.9606313028e-01	 7.5348836798e-01
 1.0981585693e+00	 7.0667083678e-01	 6.7665463660e-01
 1.0912954642e+00	 7.1722386947e-01	 5.9903832290e-01
 1.0843240209e+00	 7.2772057374e-01	 5.2054741465e-01
 1.0772449114e+00	 7.3815930439e-01	 4.4106689821e-01
 1.0700588405e+00	 7.4853842643e-01	 3.6148409654e-01
 1.0627665456e+00	 7.5885631586e-01	 2.8417628671e-01
 1.0553687971e+00	 7.6911136055e-01	 2.0920822772e-01
 1.0478663973e+00	 7.7930196102e-01	 1.3650590658e-01
 1.1281639415e+00	 6.8076829084e-01	 8.3584534564e-01
 1.1215706849e+00	 6.9157684711e-01	 7.6098954755e-01
 1.1148662817e+00	 7.0233360113e-01	 6.8359227955e-01
 1.1080513089e+00	 7.1303686695e-01	 6.0407159928e-01
 1.1011263776e+00	 7.2368496642e-01	 5.2363010606e-01
 1.0940921323e+00	 7.3427623005e-01	 4.4237835790e-01
 1.0869492508e+00	 7.4480899780e-01	 3.6043339767e-01
 1.0796984442e+00	 7.5528161994e-01	 2.8026894486e-01
 1.0723404569e+00	 7.6569245788e-01	 2.0249777194e-01
 1.0648760659e+00	 7.7603988494e-01	 1.2705670181e-01
 1.0573060809e+00	 7.8632228722e-01	 5.3849384990e-02
 1.1382362477e+00	 6.8684622548e-01	 7.6965429899e-01
 1.1315841262e+00	 6.9775128111e-01	 6.9422178013e-01
 1.1248198657e+00	 7.0860407199e-01	 6.1609260059e-01
 1.1179440485e+00	 7.1940289712e-01	 5.3550602397e-01
 1.1109572911e+00	 7.3014606337e-01	 4.5270745231e-01
 1.1038602437e+00	 7.4083188635e-01	 3.6853494109e-01
 1.0966535901e+00	 7.5145869120e-01	 2.8525376348e-01
 1.0893380480e+00	 7.6202481346e-01	 2.0447733509e-01
 1.0819143682e+00	 7.7252859989e-01	 1.2615460303e-01
 1.0743833347e+00	 7.8296840932e-01	 5.0200299334e-02
 1.0667457645e+00	 7.9334261343e-01	-2.3504431568e-02
 1.1483085540e+00	 6.9292416013e-01	 7.0564787751e-01
 1.1415975675e+00	 7.0392571511e-01	 6.2944775747e-01
 1.1347734498e+00	 7.1487454284e-01	 5.5044747491e-01
 1.1278367882e+00	 7.2576892729e-01	 4.6884582680e-01
 1.1207882046e+00	 7.3660716033e-01	 3.8484882373e-01
 1.1136283550e+00	 7.4738754266e-01	 2.9931329242e-01
 1.1063579295e+00	 7.5810838460e-01	 2.1521617207e-01
 1.0989776518e+00	 7.6876800698e-01	 1.3369636083e-01
 1.0914882794e+00	 7.7936474191e-01	 5.4747603021e-02
 1.0838906035e+00	 7.8989693370e-01	-2.1737871082e-02
 1.0761854481e+00	 8.0036293964e-01	-9.5901575281e-02
 1.1583808602e+00	 6.9900209477e-01	 6.4400354307e-01
 1.1516110089e+00	 7.1010014910e-01	 5.6681737695e-01
 1.1447270338e+00	 7.2114501370e-01	 4.8678677997e-01
 1.1377295278e+00	 7.3213495746e-01	 4.0406723292e-01
 1.1306191181e+00	 7.4306825728e-01	 3.1889782103e-01
 1.1233964664e+00	 7.5394319896e-01	 2.3364997504e-01
 1.1160622688e+00	 7.6475807800e-01	 1.4970221632e-01
 1.1086172555e+00	 7.7551120049e-01	 6.7515031971e-02
 1.1010621907e+00	 7.8620088393e-01	-1.2120985930e-02
 1.0933978723e+00	 7.9682545809e-01	-8.9134033165e-02
 1.0856251317e+00	 8.0738326584e-01	-1.6368841739e-01
 9.9122829578e-01	 7.3718000378e-01	 7.6306998095e-01
 9.8403197130e-01	 7.4675895398e-01	 6.9377923648e-01
 9.7673823232e-01	 7.5627392863e-01	 6.2493372692e-01
 9.6934793277e-01	 7.6572344890e-01	 5.5667120435e-01
 9.6186195614e-01	 7.7510605090e-01	 4.8886578104e-01
 9.5428121513e-01	 7.8442028648e-01	 4.2137199892e-01
 9.4660665130e-01	 7.9366472389e-01	 3.5402585053e-01
 9.3883923471e-01	 8.0283794853e-01	 2.8664589138e-01
 9.3097996348e-01	 8.1193856367e-01	 2.1903443859e-01
 9.2302986343e-01	 8.2096519111e-01	 1.5097884999e-01
 9.1498998762e-01	 8.2991647192e-01	 8.2252877671e-02
 1.0006679794e+00	 7.4420032998e-01	 6.4150404678e-01
 9.9340312272e-01	 7.5387050263e-01	 5.7199302713e-01
 9.8603992387e-01	 7.6347609046e-01	 5.0305361079e-01
 9.7857924488e-01	 7.7301560057e-01	 4.3461215487e-01
 9.7102197766e-01	 7.8248755514e-01	 3.6657404166e-01
 9.6336904360e-01	 7.9189049222e-01	 2.9882460214e-01
 9.5562139322e-01	 8.0122296643e-01	 2.3123014018e-01
 9.4778000582e-01	 8.1048354969e-01	 1.6363905264e-01
 9.3984588904e-01	 8.1967083197e-01	 9.5883039804e-02
 9.3182007845e-01	 8.2878342196e-01	 2.7778400388e-02
 9.2370363715e-01	 8.3781994777e-01	-4.0872595523e-02
 1.0101076630e+00	 7.5122065619e-01	 5.2710650317e-01
 1.0027742741e+00	 7.6098205127e-01	 4.5742519303e-01
 9.9534161542e-01	 7.7067825228e-01	 3.8822566686e-01
 9.8781055699e-01	 7.8030775224e-01	 3.1946539198e-01
 9.8018199918e-01	 7.8986905938e-01	 2.5108012931e-01
 9.7245687207e-01	 7.9936069796e-01	 1.8298485775e-01
 9.6463613515e-01	 8.0878120896e-01	 1.1507480453e-01
 9.5672077694e-01	 8.1812915085e-01	 4.7226576174e-02
 9.4871181460e-01	 8.2740310027e-01	-2.0700615285e-02
 9.4061029347e-01	 8.3660165281e-01	-8.8863637328e-02
 9.3241728667e-01	 8.4572342363e-01	-1.5743403968e-01
 1.0195473466e+00	 7.5824098240e-01	 4.1976135751e-01
 1.0121454256e+00	 7.6809359991e-01	 3.4975770440e-01
 1.0046433070e+00	 7.7788041411e-01	 2.8016856604e-01
 9.9704186911e-01	 7.8759990391e-01	 2.1098189466e-01
 9.8934202070e-01	 7.9725056362e-01	 1.4216295385e-01
 9.8154470054e-01	 8.0683090370e-01	 7.3655246264e-02
 9.7365087707e-01	 8.1633945150e-01	 5.3815527112e-03
 9.6566154805e-01	 8.2577475201e-01	-6.2754922415e-02
 9.5757774015e-01	 8.3513536858e-01	-1.3086930549e-01
 9.4940050849e-01	 8.4441988365e-01	-1.9909371414e-01
 9.4113093620e-01	 8.5362689948e-01	-2.6757583085e-01
 1.0289870301e+00	 7.6526130860e-01	 3.1911359411e-01
 1.0215165770e+00	 7.7520514855e-01	 2.4867521437e-01
 1.0139449985e+00	 7.8508257593e-01	 1.7860242121e-01
 1.0062731812e+00	 7.9489205558e-01	 1.0891303937e-01
 9.9850204223e-01	 8.0463206786e-01	 3.9600973180e-02
 9.9063252901e-01	 8.1430110944e-01	-2.9362860168e-02
 9.8266561899e-01	 8.2389769403e-01	-9.8029479667e-02
 9.7460231917e-01	 8.3342035316e-01	-1.6647067733e-01
 9.6644366571e-01	 8.4286763688e-01	-2.3477774902e-01
 9.5819072351e-01	 8.5223811450e-01	-3.0306012591e-01
 9.4984458572e-01	 8.6153037533e-01	-3.7144391404e-01
 1.0384267137e+00	 7.7228163481e-01	 2.2481150500e-01
 1.0308877284e+00	 7.8231669719e-01	 1.5386431733e-01
 1.0232466901e+00	 7.9228473775e-01	 8.3248110183e-02
 1.0155044933e+00	 8.0218420725e-01	 1.3009979946e-02
 1.0076620637e+00	 8.1201357210e-01	-5.6828377891e-02
 9.9972035747e-01	 8.2177131518e-01	-1.2626972741e-01
 9.9168036091e-01	 8.3145593657e-01	-1.9534022647e-01
 9.8354309028e-01	 8.4106595432e-01	-2.6408824227e-01
 9.7530959127e-01	 8.5059990518e-01	-3.3258305447e-01
 9.6698093853e-01	 8.6005634535e-01	-4.0091345320e-01
 9.5855823525e-01	 8.6943385118e-01	-4.6918623926e-01
 1.0478663973e+00	 7.7930196102e-01	 1.3650590658e-01
 1.0402588798e+00	 7.8942824583e-01	 6.5012834278e-02
 1.0325483816e+00	 7.9948689958e-01	-6.1733776550e-03
 1.0247358054e+00	 8.0947635892e-01	-7.6976951839e-02
 1.0168220853e+00	 8.1939507633e-01	-1.4734924031e-01
 1.0088081859e+00	 8.2924152092e-01	-2.1726777260e-01
 1.0006951028e+00	 8.3901417911e-01	-2.8673517206e-01
 9.9248386140e-01	 8.4871155548e-01	-3.5577794634e-01
 9.8417551683e-01	 8.5833217349e-01	-4.2444515883e-01
 9.7577115354e-01	 8.6787457620e-01	-4.9280698826e-01
 9.6727188477e-01	 8.7733732703e-01	-5.6095318453e-01
 1.0573060809e+00	 7.8632228722e-01	 5.3849384990e-02
 1.0496300312e+00	 7.9653979448e-01	-1.8190876655e-02
 1.0418500732e+00	 8.0668906140e-01	-8.9941572598e-02
 1.0339671176e+00	 8.1676851059e-01	-1.6129882619e-01
 1.0259821068e+00	 8.2677658057e-01	-2.3218786628e-01
 1.0178960144e+00	 8.3671172665e-01	-3.0256206208e-01
 1.0097098447e+00	 8.4657242164e-01	-3.7240181836e-01
 1.0014246325e+00	 8.5635715664e-01	-4.4171333718e-01
 9.9304144238e-01	 8.6606444179e-01	-5.1052725320e-01
 9.8456136856e-01	 8.7569280705e-01	-5.7889715017e-01
 9.7598553429e-01	 8.8524080288e-01	-6.4689796694e-01
 1.0667457645e+00	 7.9334261343e-01	-2.3504431568e-02
 1.0590011827e+00	 8.0365134312e-01	-9.6058585999e-02
 1.0511517647e+00	 8.1389122323e-01	-1.6833713505e-01
 1.0431984297e+00	 8.2406066226e-01	-2.4020867690e-01
 1.0351421283e+00	 8.3415808481e-01	-3.1157313855e-01
 1.0269838429e+00	 8.4418193239e-01	-3.8236079480e-01
 1.0187245867e+00	 8.5413066418e-01	-4.5253113895e-01
 1.0103654036e+00	 8.6400275779e-01	-5.2207161194e-01
 1.0019073679e+00	 8.7379671009e-01	-5.9099619713e-01
 9.9335158358e-01	 8.8351103790e-01	-6.5934388869e-01
 9.8469918382e-01	 8.9314427873e-01	-7.2717704232e-01
 1.0761854481e+00	 8.0036293964e-01	-9.5901575281e-02
 1.0683723341e+00	 8.1076289176e-01	-1.6890283653e-01
 1.0604534563e+00	 8.2109338505e-01	-2.4164244648e-01
 1.0524297418e+00	 8.3135281392e-01	-3.1396204584e-01
 1.0443021498e+00	 8.4153958905e-01	-3.8573707461e-01
 1.0360716713e+00	 8.5165213813e-01	-4.5687577230e-01
 1.0277393286e+00	 8.6168890671e-01	-5.2731802081e-01
 1.0193061747e+00	 8.7164835895e-01	-5.9703403697e-01
 1.0107732935e+00	 8.8152897840e-01	-6.6602292217e-01
 1.0021417986e+00	 8.9132926874e-01	-7.3431107765e-01
 9.9341283334e-01	 9.0104775458e-01	-8.0195049435e-01
 1.0856251317e+00	 8.0738326584e-01	-1.6368841739e-01
 1.0777434855e+00	 8.1787444040e-01	-2.3703756598e-01
 1.0697551478e+00	 8.2829554687e-01	-3.1014218205e-01
 1.0616610539e+00	 8.3864496559e-01	-3.8281751132e-01
 1.0534621714e+00	 8.4892109329e-01	-4.5491531654e-01
 1.0451594998e+00	 8.5912234387e-01	-5.2632285590e-01
 1.0367540705e+00	 8.6924714925e-01	-5.9696169464e-01
 1.0282469459e+00	 8.7929396011e-01	-6.6678635683e-01
 1.0196392191e+00	 8.8926124670e-01	-7.3578282530e-01
 1.0109320136e+00	 8.9914749959e-01	-8.0396689848e-01
 1.0021264829e+00	 9.0895123043e-01	-8.7138241369e-01
 9.1498998762e-01	 8.2991647192e-01	 8.2252877671e-02
 9.0686280264e-01	 8.3878956758e-01	 1.3176842732e-02
 8.9864804297e-01	 8.4758470035e-01	-5.5791514514e-02
 8.9034682548e-01	 8.5630058815e-01	-1.2464925772e-01
 8.8196029233e-01	 8.6493597076e-01	-1.9339628070e-01
 8.7348961039e-01	 8.7348961039e-01	-2.6203408071e-01
 8.6493597076e-01	 8.8196029233e-01	-3.3056450879e-01
 8.5630058815e-01	 8.9034682548e-01	-3.9898850482e-01
 8.4758470035e-01	 8.9864804297e-01	-4.6730482490e-01
 8.3878956758e-01	 9.0686280264e-01	-5.3550876878e-01
 8.2991647192e-01	 9.1498998762e-01	-6.0359091511e-01
 9.2370363715e-01	 8.3781994777e-01	-4.0872595523e-02
 9.1549905521e-01	 8.4677754386e-01	-1.0965922949e-01
 9.0720606459e-01	 8.5565643460e-01	-1.7806510504e-01
 8.9882579279e-01	 8.6445532571e-01	-2.4610705123e-01
 8.9035939285e-01	 8.7317294495e-01	-3.1380504302e-01
 8.8180804276e-01	 8.8180804276e-01	-3.8118087874e-01
 8.7317294495e-01	 8.9035939285e-01	-4.4825683291e-01
 8.6445532571e-01	 8.9882579279e-01	-5.1505429259e-01
 8.5565643460e-01	 9.0720606459e-01	-5.8159238528e-01
 8.4677754386e-01	 9.1549905521e-01	-6.4788660665e-01
 8.3781994777e-01	 9.2370363715e-01	-7.1394745633e-01
 9.3241728667e-01	 8.4572342363e-01	-1.5743403968e-01
 9.2413530778e-01	 8.5476552014e-01	-2.2591369109e-01
 9.1576408620e-01	 8.6372816885e-01	-2.9373137437e-01
 9.0730476010e-01	 8.7261006326e-01	-3.6092753753e-01
 8.9875849337e-01	 8.8140991914e-01	-4.2754616720e-01
 8.9012647513e-01	 8.9012647513e-01	-4.9363336130e-01
 8.8140991914e-01	 8.9875849337e-01	-5.5923587522e-01
 8.7261006326e-01	 9.0730476010e-01	-6.2439965007e-01
 8.6372816885e-01	 9.1576408620e-01	-6.8916833179e-01
 8.5476552014e-01	 9.2413530778e-01	-7.5358178960e-01
 8.4572342363e-01	 9.3241728667e-01	-8.1767464287e-01
 9.4113093620e-01	 8.5362689948e-01	-2.6757583085e-01
 9.3277156034e-01	 8.6275349641e-01	-3.3573151687e-01
 9.2432210782e-01	 8.7179990310e-01	-4.0293696980e-01
 9.1578372741e-01	 8.8076480081e-01	-4.6926005263e-01
 9.0715759389e-01	 8.8964689332e-01	-5.3477263684e-01
 8.9844490749e-01	 8.9844490749e-01	-5.9954906110e-01
 8.8964689332e-01	 9.0715759389e-01	-6.6366456150e-01
 8.8076480081e-01	 9.1578372741e-01	-7.2719368248e-01
 8.7179990310e-01	 9.2432210782e-01	-7.9020867743e-01
 8.6275349641e-01	 9.3277156034e-01	-8.5277790846e-01
 8.5362689948e-01	 9.4113093620e-01	-9.1496425446e-01
 9.4984458572e-01	 8.6153037533e-01	-3.7144391404e-01
 9.4140781291e-01	 8.7074147269e-01	-4.3925885327e-01
 9.3288012943e-01	 8.7987163735e-01	-5.0582925205e-01
 9.2426269472e-01	 8.8891953837e-01	-5.7125413118e-01
 9.1555669441e-01	 8.9788386751e-01	-6.3563706697e-01
 9.0676333986e-01	 9.0676333986e-01	-6.9908452692e-01
 8.9788386751e-01	 9.1555669441e-01	-7.6170417466e-01
 8.8891953837e-01	 9.2426269472e-01	-8.2360315391e-01
 8.7987163735e-01	 9.3288012943e-01	-8.8488636107e-01
 8.7074147269e-01	 9.4140781291e-01	-9.4565471651e-01
 8.6153037533e-01	 9.4984458572e-01	-1.0060034442e+00
 9.5855823525e-01	 8.6943385118e-01	-4.6918623926e-01
 9.5004406548e-01	 8.7872944897e-01	-5.3664345523e-01
 9.4143815105e-01	 8.8794337160e-01	-6.0255673511e-01
 9.3274166203e-01	 8.9707427592e-01	-6.6705995102e-01
 9.2395579493e-01	 9.0612084170e-01	-7.3029215519e-01
 9.1508177222e-01	 9.1508177222e-01	-7.9239578314e-01
 9.0612084170e-01	 9.2395579493e-01	-8.5351482396e-01
 8.9707427592e-01	 9.3274166203e-01	-9.1379296765e-01
 8.8794337160e-01	 9.4143815105e-01	-9.7337174004e-01
 8.7872944897e-01	 9.5004406548e-01	-1.0323886356e+00
 8.6943385118e-01	 9.5855823525e-01	-1.0909752589e+00
 9.6727188477e-01	 8.7733732703e-01	-5.6095318453e-01
 9.5868031804e-01	 8.8671742525e-01	-6.2803510976e-01
 9.4999617267e-01	 8.9601510585e-01	-6.9326951215e-01
 9.4122062933e-01	 9.0522901347e-01	-7.5682876344e-01
 9.3235489545e-01	 9.1435781589e-01	-8.1889111777e-01
 9.2340020459e-01	 9.2340020459e-01	-8.7963877312e-01
 9.1435781589e-01	 9.3235489545e-01	-9.3925589720e-01
 9.0522901347e-01	 9.4122062933e-01	-9.9792662855e-01
 8.9601510585e-01	 9.4999617267e-01	-1.0558330638e+00
 8.8671742525e-01	 9.5868031804e-01	-1.1131532422e+00
 8.7733732703e-01	 9.6727188477e-01	-1.1700591387e+00
 9.7598553429e-01	 8.8524080288e-01	-6.4689796694e-01
 9.6731657061e-01	 8.9470540153e-01	-7.1358604710e-01
 9.5855419428e-01	 9.0408684010e-01	-7.7811966867e-01
 9.4969959664e-01	 9.1338375103e-01	-8.4071330981e-01
 9.4075399598e-01	 9.2259479008e-01	-9.0158811150e-01
 9.3171863696e-01	 9.3171863696e-01	-9.6096978771e-01
 9.2259479008e-01	 9.4075399598e-01	-1.0190864972e+00
 9.1338375103e-01	 9.4969959664e-01	-1.0761666886e+00
 9.0408684010e-01	 9.5855419428e-01	-1.1324369297e+00
 8.9470540153e-01	 9.6731657061e-01	-1.1881197342e+00
 8.8524080288e-01	 9.7598553429e-01	-1.2434313957e+00
 9.8469918382e-01	 8.9314427873e-01	-7.2717704232e-01
 9.7595282318e-01	 9.0269337781e-01	-7.9345134019e-01
 9.6711221590e-01	 9.1215857435e-01	-8.5726168343e-01
 9.5817856395e-01	 9.2153848858e-01	-9.1886822563e-01
 9.4915309650e-01	 9.3083176426e-01	-9.7853864222e-01
 9.4003706932e-01	 9.4003706932e-01	-1.0365458797e+00
 9.3083176426e-01	 9.4915309650e-01	-1.0931658635e+00
 9.2153848858e-01	 9.5817856395e-01	-1.1486751769e+00
 9.1215857435e-01	 9.6711221590e-01	-1.2033487226e+00
 9.0269337781e-01	 9.7595282318e-01	-1.2574573809e+00
 8.9314427873e-01	 9.8469918382e-01	-1.3112656749e+00
 9.9341283334e-01	 9.0104775458e-01	-8.0195049435e-01
 9.8458907574e-01	 9.1068135409e-01	-8.6778929327e-01
 9.7567023751e-01	 9.2023030860e-01	-9.3085281805e-01
 9.6665753126e-01	 9.2969322613e-01	-9.9145043266e-01
 9.5755219702e-01	 9.3906873845e-01	-1.0498999609e+00
 9.4835550169e-01	 9.4835550169e-01	-1.1065252650e+00
 9.3906873845e-01	 9.5755219702e-01	-1.1616537797e+00
 9.2969322613e-01	 9.6665753126e-01	-1.2156140145e+00
 9.2023030860e-01	 9.7567023751e-01	-1.2687330378e+00
 9.1068135409e-01	 9.8458907574e-01	-1.3213339553e+00
 9.0104775458e-01	 9.9341283334e-01	-1.3737333971e+00
 1.0021264829e+00	 9.0895123043e-01	-8.7138241369e-01
 9.9322532831e-01	 9.1866933037e-01	-9.3676182007e-01
 9.8422825913e-01	 9.2830204285e-01	-9.9905349594e-01
 9.7513649857e-01	 9.3784796369e-01	-1.0586195199e+00
 9.6595129754e-01	 9.4730571264e-01	-1.1158314479e+00
 9.5667393406e-01	 9.5667393406e-01	-1.1710677118e+00
 9.4730571264e-01	 9.6595129754e-01	-1.2247109684e+00
 9.3784796369e-01	 9.7513649857e-01	-1.2771454163e+00
 9.2830204285e-01	 9.8422825913e-01	-1.3287540904e+00
 9.1866933037e-01	 9.9322532831e-01	-1.3799161521e+00
 9.0895123043e-01	 1.0021264829e+00	-1.4310041853e+00
 8.2991647192e-01	 9.1498998762e-01	-6.0359091511e-01
 8.2096519111e-01	 9.2302986343e-01	-6.7108310700e-01
 8.1193856367e-01	 9.3097996348e-01	-7.3761558665e-01
 8.0283794853e-01	 9.3883923471e-01	-8.0334502205e-01
 7.9366472389e-01	 9.4660665130e-01	-8.6841109168e-01
 7.8442028648e-01	 9.5428121513e-01	-9.3293514209e-01
 7.7510605090e-01	 9.6186195614e-01	-9.9701890997e-01
 7.6572344890e-01	 9.6934793277e-01	-1.0607433160e+00
 7.5627392863e-01	 9.7673823232e-01	-1.1241673369e+00
 7.4675895398e-01	 9.8403197130e-01	-1.1873269626e+00
 7.3718000378e-01	 9.9122829578e-01	-1.2500183466e+00
 8.3781994777e-01	 9.2370363715e-01	-7.1394745633e-01
 8.2878342196e-01	 9.3182007845e-01	-7.7924028109e-01
 8.1967083197e-01	 9.3984588904e-01	-8.4330951041e-01
 8.1048354969e-01	 9.4778000582e-01	-9.0630201591e-01
 8.0122296643e-01	 9.5562139322e-01	-9.6834840442e-01
 7.9189049222e-01	 9.6336904360e-01	-1.0295616173e+00
 7.8248755514e-01	 9.7102197766e-01	-1.0900355954e+00
 7.7301560057e-01	 9.7857924488e-01	-1.1498440170e+00
 7.6347609046e-01	 9.8603992387e-01	-1.2090391161e+00
 7.5387050263e-01	 9.9340312272e-01	-1.2676505875e+00
 7.4420032998e-01	 1.0006679794e+00	-1.3256845852e+00
 8.4572342363e-01	 9.3241728667e-01	-8.1767464287e-01
 8.3660165281e-01	 9.4061029347e-01	-8.8086307058e-01
 8.2740310027e-01	 9.4871181460e-01	-9.4261917748e-01
 8.1812915085e-01	 9.5672077694e-01	-1.0030782880e+00
 8.0878120896e-01	 9.6463613515e-01	-1.0623598762e+00
 7.9936069796e-01	 9.7245687207e-01	-1.1205661075e+00
 7.8986905938e-01	 9.8018199918e-01	-1.1777804473e+00
 7.8030775224e-01	 9.8781055699e-01	-1.2340663448e+00
 7.7067825228e-01	 9.9534161542e-01	-1.2894659998e+00
 7.6098205127e-01	 1.0027742741e+00	-1.3439992180e+00
 7.5122065619e-01	 1.0101076630e+00	-1.3976623637e+00
 8.5362689948e-01	 9.4113093620e-01	-9.1496425446e-01
 8.4441988365e-01	 9.4940050849e-01	-9.7614802192e-01
 8.3513536858e-01	 9.5757774015e-01	-1.0357385480e+00
 8.2577475201e-01	 9.6566154805e-01	-1.0938579617e+00
 8.1633945150e-01	 9.7365087707e-01	-1.1506126502e+00
 8.0683090370e-01	 9.8154470054e-01	-1.2060917440e+00
 7.9725056362e-01	 9.8934202070e-01	-1.2603656694e+00
 7.8759990391e-01	 9.9704186911e-01	-1.3134847803e+00
 7.7788041411e-01	 1.0046433070e+00	-1.3654780742e+00
 7.6809359991e-01	 1.0121454256e+00	-1.4163520011e+00
 7.5824098240e-01	 1.0195473466e+00	-1.4660893730e+00
 8.6153037533e-01	 9.4984458572e-01	-1.0060034442e+00
 8.5223811450e-01	 9.5819072351e-01	-1.0652863903e+00
 8.4286763688e-01	 9.6644366571e-01	-1.1228558975e+00
 8.3342035316e-01	 9.7460231917e-01	-1.1788193518e+00
 8.2389769403e-01	 9.8266561899e-01	-1.2332682056e+00
 8.1430110944e-01	 9.9063252901e-01	-1.2862764047e+00
 8.0463206786e-01	 9.9850204223e-01	-1.3378988874e+00
 7.9489205558e-01	 1.0062731812e+00	-1.3881701630e+00
 7.8508257593e-01	 1.0139449985e+00	-1.4371029802e+00
 7.7520514855e-01	 1.0215165770e+00	-1.4846870917e+00
 7.6526130860e-01	 1.0289870301e+00	-1.5308881219e+00
 8.6943385118e-01	 9.5855823525e-01	-1.0909752589e+00
 8.6005634535e-01	 9.6698093853e-01	-1.1484646687e+00
 8.5059990518e-01	 9.7530959127e-01	-1.2041543419e+00
 8.4106595432e-01	 9.8354309028e-01	-1.2581354741e+00
 8.3145593657e-01	 9.9168036091e-01	-1.3104828386e+00
 8.2177131518e-01	 9.9972035747e-01	-1.3612531557e+00
 8.1201357210e-01	 1.0076620637e+00	-1.4104835377e+00
 8.0218420725e-01	 1.0155044933e+00	-1.4581900164e+00
 7.9228473775e-01	 1.0232466901e+00	-1.5043661646e+00
 7.8231669719e-01	 1.0308877284e+00	-1.5489818172e+00
 7.7228163481e-01	 1.0384267137e+00	-1.5919819016e+00
 8.7733732703e-01	 9.6727188477e-01	-1.1700591387e+00
 8.6787457620e-01	 9.7577115354e-01	-1.2258650948e+00
 8.5833217349e-01	 9.8417551683e-01	-1.2798123408e+00
 8.4871155548e-01	 9.9248386140e-01	-1.3319745328e+00
 8.3901417911e-01	 1.0006951028e+00	-1.3824081233e+00
 8.2924152092e-01	 1.0088081859e+00	-1.4311506728e+00
 8.1939507633e-01	 1.0168220853e+00	-1.4782192402e+00
 8.0947635892e-01	 1.0247358054e+00	-1.5236088608e+00
 7.9948689958e-01	 1.0325483816e+00	-1.5672911203e+00
 7.8942824583e-01	 1.0402588798e+00	-1.6092128363e+00
 7.7930196102e-01	 1.0478663973e+00	-1.6492948516e+00
 8.8524080288e-01	 9.7598553429e-01	-1.2434313957e+00
 8.7569280705e-01	 9.8456136856e-01	-1.2976661375e+00
 8.6606444179e-01	 9.9304144238e-01	-1.3500041796e+00
 8.5635715664e-01	 1.0014246325e+00	-1.4005003872e+00
 8.4657242164e-01	 1.0097098447e+00	-1.4491913519e+00
 8.3671172665e-01	 1.0178960144e+00	-1.4960936455e+00
 8.2677658057e-01	 1.0259821068e+00	-1.5412021552e+00
 8.1676851059e-01	 1.0339671176e+00	-1.5844885114e+00
 8.0668906140e-01	 1.0418500732e+00	-1.6258996180e+00
 7.9653979448e-01	 1.0496300312e+00	-1.6653562922e+00
 7.8632228722e-01	 1.0573060809e+00	-1.7027520251e+00
 8.9314427873e-01	 9.8469918382e-01	-1.3112656749e+00
 8.8351103790e-01	 9.9335158358e-01	-1.3640429628e+00
 8.7379671009e-01	 1.0019073679e+00	-1.4149004311e+00
 8.6400275779e-01	 1.0103654036e+00	-1.4638729989e+00
 8.5413066418e-01	 1.0187245867e+00	-1.5109759578e+00
 8.4418193239e-01	 1.0269838429e+00	-1.5562031651e+00
 8.3415808481e-01	 1.0351421283e+00	-1.5995253250e+00
 8.2406066226e-01	 1.0431984297e+00	-1.6408883664e+00
 8.1389122323e-01	 1.0511517647e+00	-1.6802119281e+00
 8.0365134312e-01	 1.0590011827e+00	-1.7173879606e+00
 7.9334261343e-01	 1.0667457645e+00	-1.7522794539e+00
 9.0104775458e-01	 9.9341283334e-01	-1.3737333971e+00
 8.9132926874e-01	 1.0021417986e+00	-1.4251678831e+00
 8.8152897840e-01	 1.0107732935e+00	-1.4746684000e+00
 8.7164835895e-01	 1.0193061747e+00	-1.5222488621e+00
 8.6168890671e-01	 1.0277393286e+00	-1.5679019203e+00
 8.5165213813e-01	 1.0360716713e+00	-1.6115970953e+00
 8.4153958905e-01	 1.0443021498e+00	-1.6532790031e+00
 8.3135281392e-01	 1.0524297418e+00	-1.6928656822e+00
 8.2109338505e-01	 1.0604534563e+00	-1.7302470354e+00
 8.1076289176e-01	 1.0683723341e+00	-1.7652833933e+00
 8.0036293964e-01	 1.0761854481e+00	-1.7978042114e+00
 9.0895123043e-01	 1.0021264829e+00	-1.4310041853e+00
 8.9914749959e-01	 1.0109320136e+00	-1.4812107877e+00
 8.8926124670e-01	 1.0196392191e+00	-1.5294725490e+00
 8.7929396011e-01	 1.0282469459e+00	-1.5757814149e+00
 8.6924714925e-01	 1.0367540705e+00	-1.6201061541e+00
 8.5912234387e-01	 1.0451594998e+00	-1.6623904298e+00
 8.4892109329e-01	 1.0534621714e+00	-1.7025509690e+00
 8.3864496559e-01	 1.0616610539e+00	-1.7404758390e+00
 8.2829554687e-01	 1.0697551478e+00	-1.7760228451e+00
 8.1787444040e-01	 1.0777434855e+00	-1.8090180572e+00
 8.0738326584e-01	 1.0856251317e+00	-1.8392544765e+00
 7.3718000378e-01	 9.9122829578e-01	-1.2500183466e+00
 7.2754021424e-01	 9.9832518421e-01	-1.3115723549e+00
 7.1783946375e-01	 1.0053230779e+00	-1.3729762547e+00
 7.0807926532e-01	 1.0122212178e+00	-1.4341183563e+00
 6.9826114398e-01	 1.0190188753e+00	-1.4948768521e+00
 6.8838663591e-01	 1.0257153527e+00	-1.5551189158e+00
 6.7845728775e-01	 1.0323099833e+00	-1.6146998530e+00
 6.6847465577e-01	 1.0388021316e+00	-1.6734623108e+00
 6.5844030515e-01	 1.0451911933e+00	-1.7312355518e+00
 6.4835580913e-01	 1.0514765958e+00	-1.7878347971e+00
 6.3822274832e-01	 1.0576577978e+00	-1.8430606437e+00
 7.4420032998e-01	 1.0006679794e+00	-1.3256845852e+00
 7.3446873863e-01	 1.0078324530e+00	-1.3841492498e+00
 7.2467560576e-01	 1.0148969892e+00	-1.4423204057e+00
 7.1482245884e-01	 1.0218608216e+00	-1.4998980849e+00
 7.0491083738e-01	 1.0287232147e+00	-1.5567802093e+00
 6.9494229222e-01	 1.0354834641e+00	-1.6128518487e+00
 6.8491838470e-01	 1.0421408968e+00	-1.6679842941e+00
 6.7484068594e-01	 1.0486948712e+00	-1.7220341950e+00
 6.6471077600e-01	 1.0551447774e+00	-1.7748427668e+00
 6.5453024313e-01	 1.0614900371e+00	-1.8262350729e+00
 6.4430068297e-01	 1.0677301040e+00	-1.8760193883e+00
 7.5122065619e-01	 1.0101076630e+00	-1.3976623637e+00
 7.4139726301e-01	 1.0173397218e+00	-1.4521012316e+00
 7.3151174778e-01	 1.0244709005e+00	-1.5075155469e+00
 7.2156565236e-01	 1.0315004254e+00	-1.5619832909e+00
 7.1156053078e-01	 1.0384275540e+00	-1.6154181200e+00
 7.0149794852e-01	 1.0452515755e+00	-1.6677274497e+00
 6.9137948165e-01	 1.0519718103e+00	-1.7188034383e+00
 6.8120671611e-01	 1.0585876108e+00	-1.7685220381e+00
 6.7098124686e-01	 1.0650983614e+00	-1.8167421231e+00
 6.6070467713e-01	 1.0715034784e+00	-1.8633046955e+00
 6.5037861761e-01	 1.0778024103e+00	-1.9080321804e+00
 7.5824098240e-01	 1.0195473466e+00	-1.4660893730e+00
 7.4832578740e-01	 1.0268469906e+00	-1.5162888044e+00
 7.3834788980e-01	 1.0340448118e+00	-1.5684372696e+00
 7.2830884588e-01	 1.0411400291e+00	-1.6202161016e+00
 7.1821022419e-01	 1.0481318934e+00	-1.6706113033e+00
 7.0805360483e-01	 1.0550196868e+00	-1.7195570068e+00
 6.9784057861e-01	 1.0618027238e+00	-1.7669710316e+00
 6.8757274628e-01	 1.0684803504e+00	-1.8127538365e+00
 6.7725171771e-01	 1.0750519455e+00	-1.8567875526e+00
 6.6687911113e-01	 1.0815169197e+00	-1.8989351011e+00
 6.5645655226e-01	 1.0878747165e+00	-1.9390394048e+00
 7.6526130860e-01	 1.0289870301e+00	-1.5308881219e+00
 7.5525431178e-01	 1.0363542594e+00	-1.5772436143e+00
 7.4518403182e-01	 1.0436187230e+00	-1.6252977206e+00
 7.3505203939e-01	 1.0507796329e+00	-1.6744527775e+00
 7.2485991759e-01	 1.0578362327e+00	-1.7221946562e+00
 7.1460926113e-01	 1.0647877982e+00	-1.7681655901e+00
 7.0430167556e-01	 1.0716336372e+00	-1.8123137719e+00
 6.9393877645e-01	 1.0783730901e+00	-1.8545692795e+00
 6.8352218857e-01	 1.0850055295e+00	-1.8948430000e+00
 6.7305354512e-01	 1.0915303610e+00	-1.9330256449e+00
 6.6253448690e-01	 1.0979470228e+00	-1.9689868629e+00
 7.7228163481e-01	 1.0384267137e+00	-1.5919819016e+00
 7.6218283617e-01	 1.0458615282e+00	-1.6348378944e+00
 7.5202017384e-01	 1.0531926343e+00	-1.6790593543e+00
 7.4179523291e-01	 1.0604192367e+00	-1.7245823952e+00
 7.3150961099e-01	 1.0675405721e+00	-1.7700174843e+00
 7.2116491744e-01	 1.0745559096e+00	-1.8133922648e+00
 7.1076277251e-01	 1.0814645507e+00	-1.8546715239e+00
 7.0030480661e-01	 1.0882658297e+00	-1.8938199862e+00
 6.8979265942e-01	 1.0949591136e+00	-1.9307827007e+00
 6.7922797912e-01	 1.1015438023e+00	-1.9654839375e+00
 6.6861242155e-01	 1.1080193290e+00	-1.9978261887e+00
 7.7930196102e-01	 1.0478663973e+00	-1.6492948516e+00
 7.6911136055e-01	 1.0553687971e+00	-1.6889461574e+00
 7.5885631586e-01	 1.0627665456e+00	-1.7296494695e+00
 7.4853842643e-01	 1.0700588405e+00	-1.7713706068e+00
 7.3815930439e-01	 1.0772449114e+00	-1.8139437428e+00
 7.2772057374e-01	 1.0843240209e+00	-1.8550903157e+00
 7.1722386947e-01	 1.0912954642e+00	-1.8938975449e+00
 7.0667083678e-01	 1.0981585693e+00	-1.9303697514e+00
 6.9606313028e-01	 1.1049126976e+00	-1.9644914639e+00
 6.8540241312e-01	 1.1115572436e+00	-1.9962232498e+00
 6.7469035619e-01	 1.1180916353e+00	-2.0247276064e+00
 7.8632228722e-01	 1.0573060809e+00	-1.7027520251e+00
 7.7603988494e-01	 1.0648760659e+00	-1.7394451769e+00
 7.6569245788e-01	 1.0723404569e+00	-1.7769075053e+00
 7.5528161994e-01	 1.0796984442e+00	-1.8151372625e+00
 7.4480899780e-01	 1.0869492508e+00	-1.8540978182e+00
 7.3427623005e-01	 1.0940921323e+00	-1.8931274818e+00
 7.2368496642e-01	 1.1011263776e+00	-1.9298587202e+00
 7.1303686695e-01	 1.1080513089e+00	-1.9640947980e+00
 7.0233360113e-01	 1.1148662817e+00	-1.9956993407e+00
 6.9157684711e-01	 1.1215706849e+00	-2.0237003258e+00
 6.8076829084e-01	 1.1281639415e+00	-2.0475784595e+00
 7.9334261343e-01	 1.0667457645e+00	-1.7522794539e+00
 7.8296840932e-01	 1.0743833347e+00	-1.7862139727e+00
 7.7252859989e-01	 1.0819143682e+00	-1.8206760512e+00
 7.6202481346e-01	 1.0893380480e+00	-1.8556990417e+00
 7.5145869120e-01	 1.0966535901e+00	-1.8912815167e+00
 7.4083188635e-01	 1.1038602437e+00	-1.9273864159e+00
 7.3014606337e-01	 1.1109572911e+00	-1.9624358080e+00
 7.1940289712e-01	 1.1179440485e+00	-1.9944625962e+00
 7.0860407199e-01	 1.1248198657e+00	-2.0227773620e+00
 6.9775128111e-01	 1.1315841262e+00	-2.0469888319e+00
 6.8684622548e-01	 1.1382362477e+00	-2.0667199804e+00
 8.0036293964e-01	 1.0761854481e+00	-1.7978042114e+00
 7.8989693370e-01	 1.0838906035e+00	-1.8291337989e+00
 7.7936474191e-01	 1.0914882794e+00	-1.8608007756e+00
 7.6876800698e-01	 1.0989776518e+00	-1.8928762043e+00
 7.5810838460e-01	 1.1063579295e+00	-1.9253968157e+00
 7.4738754266e-01	 1.1136283550e+00	-1.9583354595e+00
 7.3660716033e-01	 1.1207882046e+00	-1.9909333750e+00
 7.2576892729e-01	 1.1278367882e+00	-2.0203706366e+00
 7.1487454284e-01	 1.1347734498e+00	-2.0456927586e+00
 7.0392571511e-01	 1.1415975675e+00	-2.0665617930e+00
 6.9292416013e-01	 1.1483085540e+00	-2.0826559912e+00
 8.0738326584e-01	 1.0856251317e+00	-1.8392544765e+00
 7.9682545809e-01	 1.0933978723e+00	-1.8680881349e+00
 7.8620088393e-01	 1.1010621907e+00	-1.8971303604e+00
 7.7551120049e-01	 1.1086172555e+00	-1.9264924840e+00
 7.6475807800e-01	 1.1160622688e+00	-1.9562090217e+00
 7.5394319896e-01	 1.1233964664e+00	-1.9859132853e+00
 7.4306825728e-01	 1.1306191181e+00	-2.0150502093e+00
 7.3213495746e-01	 1.1377295278e+00	-2.0421681005e+00
 7.2114501370e-01	 1.1447270338e+00	-2.0648991578e+00
 7.1010014910e-01	 1.1516110089e+00	-2.0828935050e+00
 6.9900209477e-01	 1.1583808602e+00	-2.0958901634e+00
 6.3822274832e-01	 1.0576577978e+00	-1.8430606437e+00
 6.2804271004e-01	 1.0637342901e+00	-1.8974004842e+00
 6.1781728815e-01	 1.0697055961e+00	-1.9514802036e+00
 6.0754808170e-01	 1.0755712713e+00	-2.0052926869e+00
 5.9723669388e-01	 1.0813309028e+00	-2.0588247192e+00
 5.8688473129e-01	 1.0869841097e+00	-2.1120563803e+00
 5.7649380318e-01	 1.0925305426e+00	-2.1649605246e+00
 5.6606552066e-01	 1.0979698838e+00	-2.2175023458e+00
 5.5560149593e-01	 1.1033018472e+00	-2.2696390290e+00
 5.4510334159e-01	 1.1085261781e+00	-2.3213194924e+00
 5.3457266981e-01	 1.1136426533e+00	-2.3722471796e+00
 6.4430068297e-01	 1.0677301040e+00	-1.8760193883e+00
 6.3402369795e-01	 1.0738644641e+00	-1.9248751076e+00
 6.2370089714e-01	 1.0798926361e+00	-1.9736343134e+00
 6.1333389479e-01	 1.0858141714e+00	-2.0223177961e+00
 6.0292430937e-01	 1.0916286532e+00	-2.0709409523e+00
 5.9247376279e-01	 1.0973356969e+00	-2.1195130864e+00
 5.8198387960e-01	 1.1029349496e+00	-2.1680368017e+00
 5.7145628626e-01	 1.1084260909e+00	-2.2165074803e+00
 5.6089261035e-01	 1.1138088317e+00	-2.2646698327e+00
 5.5029447978e-01	 1.1190829150e+00	-2.3110229780e+00
 5.3966352211e-01	 1.1242481156e+00	-2.3551931461e+00
 6.5037861761e-01	 1.0778024103e+00	-1.9080321804e+00
 6.4000468587e-01	 1.0839946381e+00	-1.9518368989e+00
 6.2958450613e-01	 1.0900796762e+00	-1.9957907618e+00
 6.1911970789e-01	 1.0960570716e+00	-2.0399378889e+00
 6.0861192487e-01	 1.1019264036e+00	-2.0843172082e+00
 5.9806279428e-01	 1.1076872840e+00	-2.1289616746e+00
 5.8747395602e-01	 1.1133393567e+00	-2.1737505609e+00
 5.7684705187e-01	 1.1188822979e+00	-2.2172683414e+00
 5.6618372476e-01	 1.1243158162e+00	-2.2590343374e+00
 5.5548561798e-01	 1.1296396520e+00	-2.2989163904e+00
 5.4475437442e-01	 1.1348535778e+00	-2.3368043880e+00
 6.5645655226e-01	 1.0878747165e+00	-1.9390394048e+00
 6.4598567379e-01	 1.0941248121e+00	-1.9782747265e+00
 6.3546811512e-01	 1.1002667163e+00	-2.0179747446e+00
 6.2490552098e-01	 1.1062999718e+00	-2.0582025276e+00
 6.1429954036e-01	 1.1122241540e+00	-2.0989837811e+00
 6.0365182578e-01	 1.1180388711e+00	-2.1391628237e+00
 5.9296403243e-01	 1.1237437637e+00	-2.1780125898e+00
 5.8223781747e-01	 1.1293385050e+00	-2.2153811704e+00
 5.7147483917e-01	 1.1348228007e+00	-2.2511408065e+00
 5.6067675617e-01	 1.1401963889e+00	-2.2851872551e+00
 5.4984522672e-01	 1.1454590401e+00	-2.3174391245e+00
 6.6253448690e-01	 1.0979470228e+00	-1.9689868629e+00
 6.5196666170e-01	 1.1042549861e+00	-2.0041804063e+00
 6.4135172411e-01	 1.1104537563e+00	-2.0402123994e+00
 6.3069133408e-01	 1.1165428719e+00	-2.0764807091e+00
 6.1998715586e-01	 1.1225219044e+00	-2.1118824968e+00
 6.0924085727e-01	 1.1283904582e+00	-2.1462260774e+00
 5.9845410885e-01	 1.1341481707e+00	-2.1793547545e+00
 5.8762858307e-01	 1.1397947120e+00	-2.2111371559e+00
 5.7676595358e-01	 1.1453297852e+00	-2.2414665921e+00
 5.6586789436e-01	 1.1507531259e+00	-2.2702603810e+00
 5.5493607903e-01	 1.1560645023e+00	-2.2974591421e+00
 6.6861242155e-01	 1.1080193290e+00	-1.9978261887e+00
 6.5794764962e-01	 1.1143851601e+00	-2.0293475087e+00
 6.4723533310e-01	 1.1206407964e+00	-2.0606705179e+00
 6.3647714717e-01	 1.1267857721e+00	-2.0914111320e+00
 6.2567477135e-01	 1.1328196548e+00	-2.1213747095e+00
 6.1482988876e-01	 1.1387420454e+00	-2.1503933481e+00
 6.0394418526e-01	 1.1445525777e+00	-2.1783252875e+00
 5.9301934868e-01	 1.1502509191e+00	-2.2050542764e+00
 5.8205706799e-01	 1.1558367697e+00	-2.2304889046e+00
 5.7105903256e-01	 1.1613098628e+00	-2.2545619008e+00
 5.6002693133e-01	 1.1666699646e+00	-2.2772293970e+00
 6.7469035619e-01	 1.1180916353e+00	-2.0247276064e+00
 6.6392863754e-01	 1.1245153341e+00	-2.0511643313e+00
 6.5311894209e-01	 1.1308278364e+00	-2.0773307699e+00
 6.4226296026e-01	 1.1370286723e+00	-2.1030155690e+00
 6.3136238685e-01	 1.1431174052e+00	-2.1280345185e+00
 6.2041892026e-01	 1.1490936325e+00	-2.1522299785e+00
 6.0943426168e-01	 1.1549569847e+00	-2.1754702696e+00
 5.9841011428e-01	 1.1607071261e+00	-2.1976490274e+00
 5.8734818240e-01	 1.1663437542e+00	-2.2186845202e+00
 5.7625017075e-01	 1.1718665998e+00	-2.2385189326e+00
 5.6511778364e-01	 1.1772754268e+00	-2.2571176144e+00
 6.8076829084e-01	 1.1281639415e+00	-2.0475784595e+00
 6.6990962545e-01	 1.1346455081e+00	-2.0692455985e+00
 6.5900255108e-01	 1.1410148765e+00	-2.0907422141e+00
 6.4804877336e-01	 1.1472715724e+00	-2.1118640425e+00
 6.3705000234e-01	 1.1534151556e+00	-2.1324333977e+00
 6.2600795175e-01	 1.1594452196e+00	-2.1522985988e+00
 6.1492433810e-01	 1.1653613917e+00	-2.1713333600e+00
 6.0380087988e-01	 1.1711633332e+00	-2.1894361437e+00
 5.9263929681e-01	 1.1768507387e+00	-2.2065294774e+00
 5.8144130894e-01	 1.1824233367e+00	-2.2225592350e+00
 5.7020863595e-01	 1.1878808891e+00	-2.2374938841e+00
 6.8684622548e-01	 1.1382362477e+00	-2.0667199804e+00
 6.7589061337e-01	 1.1447756821e+00	-2.0841263830e+00
 6.6488616007e-01	 1.1512019166e+00	-2.1014612543e+00
 6.5383458645e-01	 1.1575144726e+00	-2.1185240598e+00
 6.4273761784e-01	 1.1637129060e+00	-2.1351398773e+00
 6.3159698325e-01	 1.1697968067e+00	-2.1511588350e+00
 6.2041441451e-01	 1.1757657987e+00	-2.1664555134e+00
 6.0919164549e-01	 1.1816195402e+00	-2.1809283091e+00
 5.9793041122e-01	 1.1873577232e+00	-2.1944987633e+00
 5.8663244714e-01	 1.1929800737e+00	-2.2071108539e+00
 5.7529948825e-01	 1.1984863514e+00	-2.2187302532e+00
 6.9292416013e-01	 1.1483085540e+00	-2.0826559912e+00
 6.8187160129e-01	 1.1549058561e+00	-2.0963407242e+00
 6.7076976907e-01	 1.1613889566e+00	-2.1100421511e+00
 6.5962039954e-01	 1.1677573728e+00	-2.1235602400e+00
 6.4842523334e-01	 1.1740106564e+00	-2.1367192121e+00
 6.3718601474e-01	 1.1801483938e+00	-2.1493670022e+00
 6.2590449093e-01	 1.1861702058e+00	-2.1613746831e+00
 6.1458241109e-01	 1.1920757472e+00	-2.1726358537e+00
 6.0322152563e-01	 1.1978647077e+00	-2.1830659905e+00
 5.9182358533e-01	 1.2035368106e+00	-2.1926017635e+00
 5.8039034056e-01	 1.2090918136e+00	-2.2012003164e+00
 6.9900209477e-01	 1.1583808602e+00	-2.0958901634e+00
 6.8785258920e-01	 1.1650360302e+00	-2.1064211173e+00
 6.7665337806e-01	 1.1715759967e+00	-2.1170365820e+00
 6.6540621264e-01	 1.1780002729e+00	-2.1275339293e+00
 6.5411284883e-01	 1.1843084068e+00	-2.1377330373e+00
 6.4277504624e-01	 1.1904999810e+00	-2.1474757851e+00
 6.3139456735e-01	 1.1965746128e+00	-2.1566255120e+00
 6.1997317670e-01	 1.2025319543e+00	-2.1650664407e+00
 6.0851264004e-01	 1.2083716922e+00	-2.1727030648e+00
 5.9701472353e-01	 1.2140935476e+00	-2.1794595004e+00
 5.8548119287e-01	 1.2196972759e+00	-2.1852788031e+00
 5.3457266981e-01	 1.1136426533e+00	-2.3722471796e+00
 5.2400929344e-01	 1.1186519229e+00	-2.4216271430e+00
 5.1341660965e-01	 1.1235529461e+00	-2.4698296309e+00
 5.0279622535e-01	 1.1283455920e+00	-2.5167757739e+00
 4.9214974416e-01	 1.1330297603e+00	-2.5624020092e+00
 4.8147876571e-01	 1.1376053813e+00	-2.6066594252e+00
 4.7078488495e-01	 1.1420724155e+00	-2.6495130937e+00
 4.6006969146e-01	 1.1464308532e+00	-2.6909413922e+00
 4.4933476878e-01	 1.1506807148e+00	-2.7309353174e+00
 4.3858169375e-01	 1.1548220499e+00	-2.7694977925e+00
 4.2781203584e-01	 1.1588549371e+00	-2.8066429705e+00
 5.3966352211e-01	 1.1242481156e+00	-2.3551931461e+00
 5.2899954840e-01	 1.1293050895e+00	-2.3977603768e+00
 5.1830598818e-01	 1.1342527862e+00	-2.4393200548e+00
 5.0758446364e-01	 1.1390910736e+00	-2.4797983995e+00
 4.9683659368e-01	 1.1438198502e+00	-2.5191366916e+00
 4.8606399317e-01	 1.1484390459e+00	-2.5572906014e+00
 4.7526827225e-01	 1.1529486206e+00	-2.5942295035e+00
 4.6445103563e-01	 1.1573485647e+00	-2.6299357813e+00
 4.5361388194e-01	 1.1616388986e+00	-2.6644041226e+00
 4.4275840302e-01	 1.1658196725e+00	-2.6976408078e+00
 4.3188618330e-01	 1.1698909658e+00	-2.7296629940e+00
 5.4475437442e-01	 1.1348535778e+00	-2.3368043880e+00
 5.3398980337e-01	 1.1399582561e+00	-2.3732636050e+00
 5.2319536670e-01	 1.1449526264e+00	-2.4088565204e+00
 5.1237270192e-01	 1.1498365551e+00	-2.4435152719e+00
 5.0152344320e-01	 1.1546099402e+00	-2.4771867739e+00
 4.9064922063e-01	 1.1592727104e+00	-2.5098320286e+00
 4.7975165954e-01	 1.1638248257e+00	-2.5414254232e+00
 4.6883237980e-01	 1.1682662761e+00	-2.5719540156e+00
 4.5789299510e-01	 1.1725970824e+00	-2.6014168112e+00
 4.4693511230e-01	 1.1768172951e+00	-2.6298240318e+00
 4.3596033077e-01	 1.1809269945e+00	-2.6571963796e+00
 5.4984522672e-01	 1.1454590401e+00	-2.3174391245e+00
 5.3898005833e-01	 1.1506114228e+00	-2.3484242262e+00
 5.2808474522e-01	 1.1556524665e+00	-2.3786545751e+00
 5.1716094020e-01	 1.1605820367e+00	-2.4080690470e+00
 5.0621029271e-01	 1.1654000301e+00	-2.4366209724e+00
 4.9523444809e-01	 1.1701063750e+00	-2.4642774295e+00
 4.8423504684e-01	 1.1747010307e+00	-2.4910185234e+00
 4.7321372397e-01	 1.1791839876e+00	-2.5168366527e+00
 4.6217210825e-01	 1.1835552662e+00	-2.5417357661e+00
 4.5111182157e-01	 1.1878149178e+00	-2.5657306123e+00
 4.4003447824e-01	 1.1919630232e+00	-2.5888459826e+00
 5.5493607903e-01	 1.1560645023e+00	-2.2974591421e+00
 5.4397031330e-01	 1.1612645894e+00	-2.3235353351e+00
 5.3297412375e-01	 1.1663523067e+00	-2.3489376277e+00
 5.2194917849e-01	 1.1713275182e+00	-2.3736124441e+00
 5.1089714223e-01	 1.1761901200e+00	-2.3975203054e+00
 4.9981967555e-01	 1.1809400395e+00	-2.4206351041e+00
 4.8871843414e-01	 1.1855772358e+00	-2.4429433642e+00
 4.7759506814e-01	 1.1901016990e+00	-2.4644434885e+00
 4.6645122141e-01	 1.1945134501e+00	-2.4851449949e+00
 4.5528853084e-01	 1.1988125404e+00	-2.5050677454e+00
 4.4410862571e-01	 1.2029990519e+00	-2.5242411676e+00
 5.6002693133e-01	 1.1666699646e+00	-2.2772293970e+00
 5.4896056826e-01	 1.1719177560e+00	-2.2988952472e+00
 5.3786350227e-01	 1.1770521468e+00	-2.3199363933e+00
 5.2673741677e-01	 1.1820729998e+00	-2.3403076091e+00
 5.1558399175e-01	 1.1869802099e+00	-2.3599773728e+00
 5.0440490300e-01	 1.1917737041e+00	-2.3789271235e+00
 4.9320182143e-01	 1.1964534409e+00	-2.3971505009e+00
 4.8197641231e-01	 1.2010194105e+00	-2.4146525734e+00
 4.7073033456e-01	 1.2054716339e+00	-2.4314490532e+00
 4.5946524011e-01	 1.2098101631e+00	-2.4475655035e+00
 4.4818277318e-01	 1.2140350806e+00	-2.4630365388e+00
 5.6511778364e-01	 1.1772754268e+00	-2.2571176144e+00
 5.5395082323e-01	 1.1825709226e+00	-2.2748070254e+00
 5.4275288079e-01	 1.1877519869e+00	-2.2918883460e+00
 5.3152565505e-01	 1.1928184813e+00	-2.3083254908e+00
 5.2027084127e-01	 1.1977702998e+00	-2.3240956543e+00
 5.0899013046e-01	 1.2026073686e+00	-2.3391885477e+00
 4.9768520873e-01	 1.2073296460e+00	-2.3536056196e+00
 4.8635775647e-01	 1.2119371219e+00	-2.3673592629e+00
 4.7500944772e-01	 1.2164298177e+00	-2.3804720086e+00
 4.6364194939e-01	 1.2208077857e+00	-2.3929757108e+00
 4.5225692064e-01	 1.2250711094e+00	-2.4049107247e+00
 5.7020863595e-01	 1.1878808891e+00	-2.2374938841e+00
 5.5894107819e-01	 1.1932240893e+00	-2.2515780083e+00
 5.4764225932e-01	 1.1984518271e+00	-2.2650371776e+00
 5.3631389334e-01	 1.2035639629e+00	-2.2778452288e+00
 5.2495769079e-01	 1.2085603897e+00	-2.2899888235e+00
 5.1357535792e-01	 1.2134410332e+00	-2.3014666652e+00
 5.0216859603e-01	 1.2182058511e+00	-2.3122886998e+00
 4.9073910064e-01	 1.2228548334e+00	-2.3224753011e+00
 4.7928856087e-01	 1.2273880015e+00	-2.3320564432e+00
 4.6781865866e-01	 1.2318054084e+00	-2.3410708623e+00
 4.5633106811e-01	 1.2361071381e+00	-2.3495652114e+00
 5.7529948825e-01	 1.1984863514e+00	-2.2187302532e+00
 5.6393133316e-01	 1.2038772559e+00	-2.2295193400e+00
 5.5253163784e-01	 1.2091516672e+00	-2.2396322626e+00
 5.4110213162e-01	 1.2143094444e+00	-2.2490535518e+00
 5.2964454030e-01	 1.2193504796e+00	-2.2577800788e+00
 5.1816058538e-01	 1.2242746977e+00	-2.2658202531e+00
 5.0665198333e-01	 1.2290820562e+00	-2.2731932021e+00
 4.9512044481e-01	 1.2337725448e+00	-2.2799279349e+00
 4.8356767403e-01	 1.2383461853e+00	-2.2860624919e+00
 4.7199536793e-01	 1.2428030310e+00	-2.2916430841e+00
 4.6040521558e-01	 1.2471431668e+00	-2.2967232231e+00
 5.8039034056e-01	 1.2090918136e+00	-2.2012003164e+00
 5.6892158813e-01	 1.2145304225e+00	-2.2089455013e+00
 5.5742101637e-01	 1.2198515074e+00	-2.2159281293e+00
 5.4589036991e-01	 1.2250549260e+00	-2.2221441865e+00
 5.3433138982e-01	 1.2301405695e+00	-2.2276014882e+00
 5.2274581285e-01	 1.2351083623e+00	-2.2323188570e+00
 5.1113537063e-01	 1.2399582613e+00	-2.2363252813e+00
 4.9950178898e-01	 1.2446902563e+00	-2.2396590570e+00
 4.8784678719e-01	 1.2493043691e+00	-2.2423669143e+00
 4.7617207721e-01	 1.2538006537e+00	-2.2445031326e+00
 4.6447936305e-01	 1.2581791955e+00	-2.2461286458e+00
 5.8548119287e-01	 1.2196972759e+00	-2.1852788031e+00
 5.7391184309e-01	 1.2251835891e+00	-2.1901738423e+00
 5.6231039489e-01	 1.2305513475e+00	-2.1941839358e+00
 5.5067860820e-01	 1.2358004075e+00	-2.1973172759e+00
 5.3901823934e-01	 1.2409306594e+00	-2.1995933479e+00
 5.2733104031e-01	 1.2459420268e+00	-2.2010420879e+00
 5.1561875792e-01	 1.2508344664e+00	-2.2017030203e+00
 5.0388313316e-01	 1.2556079677e+00	-2.2016243764e+00
 4.9212590034e-01	 1.2602625529e+00	-2.2008621983e+00
 4.8034878649e-01	 1.2647982763e+00	-2.1994794292e+00
 4.6855351052e-01	 1.2692152242e+00	-2.1975449929e+00
 4.2781203584e-01	 1.1588549371e+00	-2.8066429705e+00
 4.1702919083e-01	 1.1627788261e+00	-2.8427348765e+00
 4.0623288112e-01	 1.1665945468e+00	-2.8781393935e+00
 3.9542464909e-01	 1.1703022625e+00	-2.9128664298e+00
 3.8460602733e-01	 1.1739021643e+00	-2.9469301612e+00
 3.7377853805e-01	 1.1773944705e+00	-2.9803484565e+00
 3.6294369251e-01	 1.1807794263e+00	-3.0129221608e+00
 3.5210299045e-01	 1.1840573036e+00	-3.0440948273e+00
 3.4125791960e-01	 1.1872284004e+00	-3.0740252070e+00
 3.3040995510e-01	 1.1902930404e+00	-3.1029268165e+00
 3.1956055903e-01	 1.1932515725e+00	-3.1310181345e+00
 4.3188618330e-01	 1.1698909658e+00	-2.7296629940e+00
 4.2100065091e-01	 1.1738522228e+00	-2.7607726670e+00
 4.1010152558e-01	 1.1777042815e+00	-2.7912760991e+00
 3.9919036440e-01	 1.1814473066e+00	-2.8211910785e+00
 3.8826871455e-01	 1.1850814911e+00	-2.8505382487e+00
 3.7733811272e-01	 1.1886070552e+00	-2.8793405234e+00
 3.6640008457e-01	 1.1920242467e+00	-2.9075584611e+00
 3.5545614414e-01	 1.1953333400e+00	-2.9345749482e+00
 3.4450779331e-01	 1.1985346358e+00	-2.9604010526e+00
 3.3355652127e-01	 1.2016284611e+00	-2.9852576130e+00
 3.2260380404e-01	 1.2046151679e+00	-3.0093683905e+00
 4.3596033077e-01	 1.1809269945e+00	-2.6571963796e+00
 4.2497211099e-01	 1.1849256196e+00	-2.6837638146e+00
 4.1397017004e-01	 1.1888140162e+00	-2.7097640418e+00
 4.0295607971e-01	 1.1925923507e+00	-2.7352247347e+00
 3.9193140176e-01	 1.1962608178e+00	-2.7601752548e+00
 3.8089768739e-01	 1.1998196399e+00	-2.7846460484e+00
 3.6985647664e-01	 1.2032690671e+00	-2.8086668582e+00
 3.5880929783e-01	 1.2066093763e+00	-2.8317650869e+00
 3.4775766702e-01	 1.2098408712e+00	-2.8536939830e+00
 3.3670308745e-01	 1.2129638817e+00	-2.8746847936e+00
 3.2564704905e-01	 1.2159787633e+00	-2.8949697615e+00
 4.4003447824e-01	 1.1919630232e+00	-2.5888459826e+00
 4.2894357106e-01	 1.1959990163e+00	-2.6112341378e+00
 4.1783881451e-01	 1.1999237509e+00	-2.6330595110e+00
 4.0672179502e-01	 1.2037373948e+00	-2.6543616178e+00
 3.9559408897e-01	 1.2074401445e+00	-2.6751807366e+00
 3.8445726205e-01	 1.2110322247e+00	-2.6955572785e+00
 3.7331286870e-01	 1.2145138875e+00	-2.7155311721e+00
 3.6216245153e-01	 1.2178854127e+00	-2.7348827409e+00
 3.5100754074e-01	 1.2211471066e+00	-2.7530975235e+00
 3.3984965363e-01	 1.2242993023e+00	-2.7703855028e+00
 3.2869029405e-01	 1.2273423587e+00	-2.7869904933e+00
 4.4410862571e-01	 1.2029990519e+00	-2.5242411676e+00
 4.3291503114e-01	 1.2070724131e+00	-2.5427383046e+00
 4.2170745897e-01	 1.2110334856e+00	-2.5606497095e+00
 4.1048751033e-01	 1.2148824389e+00	-2.5780286512e+00
 3.9925677618e-01	 1.2186194713e+00	-2.5949284743e+00
 3.8801683672e-01	 1.2222448094e+00	-2.6114019338e+00
 3.7676926077e-01	 1.2257587079e+00	-2.6275005476e+00
 3.6551560522e-01	 1.2291614490e+00	-2.6431822343e+00
 3.5425741445e-01	 1.2324533420e+00	-2.6578420995e+00
 3.4299621981e-01	 1.2356347230e+00	-2.6715736508e+00
 3.3173353906e-01	 1.2387059540e+00	-2.6846352565e+00
 4.4818277318e-01	 1.2140350806e+00	-2.4630365388e+00
 4.3688649122e-01	 1.2181458099e+00	-2.4778584704e+00
 4.2557610344e-01	 1.2221432203e+00	-2.4920513112e+00
 4.1425322564e-01	 1.2260274830e+00	-2.5056839509e+00
 4.0291946339e-01	 1.2297987980e+00	-2.5188249021e+00
 3.9157641138e-01	 1.2334573942e+00	-2.5315415936e+00
 3.8022565283e-01	 1.2370035283e+00	-2.5438996803e+00
 3.6886875891e-01	 1.2404374854e+00	-2.5559532732e+00
 3.5750728816e-01	 1.2437595774e+00	-2.5671935594e+00
 3.4614278598e-01	 1.2469701436e+00	-2.5774984145e+00
 3.3477678407e-01	 1.2500695494e+00	-2.5871436389e+00
 4.5225692064e-01	 1.2250711094e+00	-2.4049107247e+00
 4.4085795130e-01	 1.2292192066e+00	-2.4162029761e+00
 4.2944474790e-01	 1.2332529550e+00	-2.4268090833e+00
 4.1801894095e-01	 1.2371725271e+00	-2.4368153828e+00
 4.0658215060e-01	 1.2409781248e+00	-2.4463076126e+00
 3.9513598605e-01	 1.2446699789e+00	-2.4553701566e+00
 3.8368204490e-01	 1.2482483487e+00	-2.4640853050e+00
 3.7222191260e-01	 1.2517135217e+00	-2.4725325350e+00
 3.6075716187e-01	 1.2550658128e+00	-2.4804517782e+00
 3.4928935216e-01	 1.2583055642e+00	-2.4874428214e+00
 3.3782002908e-01	 1.2614331448e+00	-2.4937887197e+00
 4.5633106811e-01	 1.2361071381e+00	-2.3495652114e+00
 4.4482941138e-01	 1.2402926034e+00	-2.3574051000e+00
 4.3331339236e-01	 1.2443626897e+00	-2.3644945681e+00
 4.2178465626e-01	 1.2483175712e+00	-2.3709391846e+00
 4.1024483781e-01	 1.2521574515e+00	-2.3768439281e+00
 3.9869556072e-01	 1.2558825636e+00	-2.3823123735e+00
 3.8713843696e-01	 1.2594931692e+00	-2.3874458964e+00
 3.7557506629e-01	 1.2629895581e+00	-2.3923428954e+00
 3.6400703559e-01	 1.2663720482e+00	-2.3969493388e+00
 3.5243591834e-01	 1.2696409849e+00	-2.4007224109e+00
 3.4086327409e-01	 1.2727967402e+00	-2.4038757216e+00
 4.6040521558e-01	 1.2471431668e+00	-2.2967232231e+00
 4.4880087147e-01	 1.2513660002e+00	-2.3011218626e+00
 4.3718203683e-01	 1.2554724244e+00	-2.3047048208e+00
 4.2555037157e-01	 1.2594626153e+00	-2.3075986475e+00
 4.1390752503e-01	 1.2633367783e+00	-2.3099295358e+00
 4.0225513538e-01	 1.2670951484e+00	-2.3118224450e+00
 3.9059482903e-01	 1.2707379896e+00	-2.3134002400e+00
 3.7892821998e-01	 1.2742655944e+00	-2.3147828484e+00
 3.6725690930e-01	 1.2776782836e+00	-2.3160502841e+00
 3.5558248452e-01	 1.2809764055e+00	-2.3166839678e+00
 3.4390651910e-01	 1.2841603356e+00	-2.3167407354e+00
 4.6447936305e-01	 1.2581791955e+00	-2.2461286458e+00
 4.5277233155e-01	 1.2624393969e+00	-2.2470328787e+00
 4.4105068130e-01	 1.2665821591e+00	-2.2470612007e+00
 4.2931608688e-01	 1.2706076594e+00	-2.2463628545e+00
 4.1757021224e-01	 1.2745161050e+00	-2.2450871834e+00
 4.0581471005e-01	 1.2783077331e+00	-2.2433826830e+00
 3.9405122110e-01	 1.2819828100e+00	-2.2413960683e+00
 3.8228137368e-01	 1.2855416308e+00	-2.2392713575e+00
 3.7050678301e-01	 1.2889845190e+00	-2.2371489782e+00
 3.5872905069e-01	 1.2923118261e+00	-2.2347043235e+00
 3.4694976411e-01	 1.2955239310e+00	-2.2317495129e+00
 4.6855351052e-01	 1.2692152242e+00	-2.1975449929e+00
 4.5674379163e-01	 1.2735127937e+00	-2.1948392562e+00
 4.4491932576e-01	 1.2776918938e+00	-2.1912082117e+00
 4.3308180219e-01	 1.2817527035e+00	-2.1868254721e+00
 4.2123289945e-01	 1.2856954317e+00	-2.1818654297e+00
 4.0937428472e-01	 1.2895203178e+00	-2.1765022297e+00
 3.9750761316e-01	 1.2932276304e+00	-2.1709087565e+00
 3.8563452737e-01	 1.2968176671e+00	-2.1652556372e+00
 3.7375665673e-01	 1.3002907544e+00	-2.1597102659e+00
 3.6187561687e-01	 1.3036472468e+00	-2.1541892214e+00
 3.4999300912e-01	 1.3068875263e+00	-2.1482963233e+00
 3.1956055903e-01	 1.1932515725e+00	-3.1310181345e+00
 3.0871118006e-01	 1.1961043707e+00	-3.1581987140e+00
 2.9786325339e-01	 1.1988518343e+00	-3.1842553165e+00
 2.8701819984e-01	 1.2014943869e+00	-3.2092411138e+00
 2.7617742524e-01	 1.2040324753e+00	-3.2332100683e+00
 2.6534232003e-01	 1.2064665692e+00	-3.2562160941e+00
 2.5451425879e-01	 1.2087971609e+00	-3.2783123377e+00
 2.4369459994e-01	 1.2110247644e+00	-3.2995505715e+00
 2.3288468528e-01	 1.2131499151e+00	-3.3199806936e+00
 2.2208583965e-01	 1.2151731692e+00	-3.3396503265e+00
 2.1129937063e-01	 1.2170951034e+00	-3.3586045090e+00
 3.2260380404e-01	 1.2046151679e+00	-3.0093683905e+00
 3.1165110406e-01	 1.2074951339e+00	-3.0326288196e+00
 3.0069987022e-01	 1.2102687622e+00	-3.0548277857e+00
 2.8975153685e-01	 1.2129364804e+00	-3.0760304996e+00
 2.7880752319e-01	 1.2154987395e+00	-3.0963015324e+00
 2.6786923290e-01	 1.2179560139e+00	-3.1157040001e+00
 2.5693805368e-01	 1.2203088004e+00	-3.1342988759e+00
 2.4601535685e-01	 1.2225576178e+00	-3.1521444209e+00
 2.3510249701e-01	 1.2247030067e+00	-3.1692957282e+00
 2.2420081161e-01	 1.2267455287e+00	-3.1858043712e+00
 2.1331162069e-01	 1.2286857659e+00	-3.2017181495e+00
 3.2564704905e-01	 1.2159787633e+00	-2.8949697615e+00
 3.1459102806e-01	 1.2188858971e+00	-2.9144511339e+00
 3.0353648704e-01	 1.2216856901e+00	-2.9329285694e+00
 2.9248487387e-01	 1.2243785739e+00	-2.9504791534e+00
 2.8143762114e-01	 1.2269650038e+00	-2.9671778742e+00
 2.7039614578e-01	 1.2294454586e+00	-2.9830968353e+00
 2.5936184856e-01	 1.2318204398e+00	-2.9983046007e+00
 2.4833611376e-01	 1.2340904711e+00	-3.0128656681e+00
 2.3732030874e-01	 1.2362560983e+00	-3.0268400602e+00
 2.2631578358e-01	 1.2383178883e+00	-3.0402830267e+00
 2.1532387076e-01	 1.2402764285e+00	-3.0532448483e+00
 3.2869029405e-01	 1.2273423587e+00	-2.7869904933e+00
 3.1753095207e-01	 1.2302766603e+00	-2.8028299487e+00
 3.0637310387e-01	 1.2331026180e+00	-2.8177204777e+00
 2.9521821088e-01	 1.2358206674e+00	-2.8317508534e+00
 2.8406771909e-01	 1.2384312681e+00	-2.8450062626e+00
 2.7292305865e-01	 1.2409349033e+00	-2.8575675478e+00
 2.6178564345e-01	 1.2433320792e+00	-2.8695105916e+00
 2.5065687067e-01	 1.2456233245e+00	-2.8809058343e+00
 2.3953812047e-01	 1.2478091900e+00	-2.8918179170e+00
 2.2843075554e-01	 1.2498902478e+00	-2.9023054411e+00
 2.1733612082e-01	 1.2518670910e+00	-2.9124208358e+00
 3.3173353906e-01	 1.2387059540e+00	-2.6846352565e+00
 3.2047087607e-01	 1.2416674235e+00	-2.6969655258e+00
 3.0920972070e-01	 1.2445195459e+00	-2.7084018103e+00
 2.9795154790e-01	 1.2472627609e+00	-2.7190443598e+00
 2.8669781704e-01	 1.2498975324e+00	-2.7289883112e+00
 2.7544997153e-01	 1.2524243480e+00	-2.7383229643e+00
 2.6420943833e-01	 1.2548437186e+00	-2.7471312085e+00
 2.5297762758e-01	 1.2571561779e+00	-2.7554890891e+00
 2.4175593220e-01	 1.2593622816e+00	-2.7634655071e+00
 2.3054572751e-01	 1.2614626073e+00	-2.7711220401e+00
 2.1934837089e-01	 1.2634577535e+00	-2.7785128777e+00
 3.3477678407e-01	 1.2500695494e+00	-2.5871436389e+00
 3.2341080007e-01	 1.2530581867e+00	-2.5960925870e+00
 3.1204633753e-01	 1.2559364738e+00	-2.6042048476e+00
 3.0068488491e-01	 1.2587048544e+00	-2.6115919106e+00
 2.8932791499e-01	 1.2613637966e+00	-2.6183585838e+00
 2.7797688441e-01	 1.2639137927e+00	-2.6246023066e+00
 2.6663323322e-01	 1.2663553580e+00	-2.6304126227e+00
 2.5529838449e-01	 1.2686890313e+00	-2.6358708003e+00
 2.4397374393e-01	 1.2709153733e+00	-2.6410495920e+00
 2.3266069948e-01	 1.2730349669e+00	-2.6460131231e+00
 2.2136062095e-01	 1.2750484161e+00	-2.6508168987e+00
 3.3782002908e-01	 1.2614331448e+00	-2.4937887197e+00
 3.2635072408e-01	 1.2644489499e+00	-2.4994788868e+00
 3.1488295436e-01	 1.2673534017e+00	-2.5043944249e+00
 3.0341822192e-01	 1.2701469479e+00	-2.5086578002e+00
 2.9195801294e-01	 1.2728300609e+00	-2.5123831800e+00
 2.8050379728e-01	 1.2754032373e+00	-2.5156757882e+00
 2.6905702810e-01	 1.2778669974e+00	-2.5186314281e+00
 2.5761914140e-01	 1.2802218846e+00	-2.5213361617e+00
 2.4619155566e-01	 1.2824684649e+00	-2.5238661341e+00
 2.3477567144e-01	 1.2846073264e+00	-2.5262875347e+00
 2.2337287102e-01	 1.2866390786e+00	-2.5286566809e+00
 3.4086327409e-01	 1.2727967402e+00	-2.4038757216e+00
 3.2929064808e-01	 1.2758397131e+00	-2.4064238620e+00
 3.1771957118e-01	 1.2787703296e+00	-2.4082665826e+00
 3.0615155894e-01	 1.2815890414e+00	-2.4095370337e+00
 2.9458811089e-01	 1.2842963252e+00	-2.4103583968e+00
 2.8303071016e-01	 1.2868926820e+00	-2.4108432860e+00
 2.7148082298e-01	 1.2893786369e+00	-2.4110933258e+00
 2.5993989831e-01	 1.2917547380e+00	-2.4111988938e+00
 2.4840936740e-01	 1.2940215566e+00	-2.4112390166e+00
 2.3689064341e-01	 1.2961796859e+00	-2.4112814066e+00
 2.2538512108e-01	 1.2982297411e+00	-2.4113826300e+00
 3.4390651910e-01	 1.2841603356e+00	-2.3167407354e+00
 3.3223057208e-01	 1.2872304763e+00	-2.3162573541e+00
 3.2055618801e-01	 1.2901872575e+00	-2.3151472890e+00
 3.0888489595e-01	 1.2930311349e+00	-2.3135540532e+00
 2.9721820884e-01	 1.2957625895e+00	-2.3116094612e+00
 2.8555762304e-01	 1.2983821267e+00	-2.3094330822e+00
 2.7390461787e-01	 1.3008902763e+00	-2.3071318779e+00
 2.6226065522e-01	 1.3032875914e+00	-2.3048000138e+00
 2.5062717913e-01	 1.3055746482e+00	-2.3025188308e+00
 2.3900561538e-01	 1.3077520455e+00	-2.3003569658e+00
 2.2739737115e-01	 1.3098204037e+00	-2.2983706074e+00
 3.4694976411e-01	 1.2955239310e+00	-2.2317495129e+00
 3.3517049609e-01	 1.2986212395e+00	-2.2283383989e+00
 3.2339280484e-01	 1.3016041854e+00	-2.2243912310e+00
 3.1161823297e-01	 1.3044732284e+00	-2.2200615313e+00
 2.9984830679e-01	 1.3072288537e+00	-2.2154893296e+00
 2.8808453591e-01	 1.3098715714e+00	-2.2108006727e+00
 2.7632841275e-01	 1.3124019157e+00	-2.2061073280e+00
 2.6458141213e-01	 1.3148204447e+00	-2.2015066686e+00
 2.5284499086e-01	 1.3171277399e+00	-2.1970817270e+00
 2.4112058734e-01	 1.3193244050e+00	-2.1929014047e+00
 2.2940962122e-01	 1.3214110662e+00	-2.1890208229e+00
 3.4999300912e-01	 1.3068875263e+00	-2.1482963233e+00
 3.3811042009e-01	 1.3100120027e+00	-2.1420540808e+00
 3.2622942167e-01	 1.3130211133e+00	-2.1353806674e+00
 3.1435156998e-01	 1.3159153219e+00	-2.1284392274e+00
 3.0247840474e-01	 1.3186951180e+00	-2.1213775495e+00
 2.9061144879e-01	 1.3213610161e+00	-2.1143276366e+00
 2.7875220764e-01	 1.3239135551e+00	-2.1074054810e+00
 2.6690216904e-01	 1.3263532981e+00	-2.1007110292e+00
 2.5506280259e-01	 1.3286808315e+00	-2.0943283243e+00
 2.4323555931e-01	 1.3308967645e+00	-2.0883258100e+00
 2.3142187128e-01	 1.3330017287e+00	-2.0827567834e+00
 2.1129937063e-01	 1.2170951034e+00	-3.3586045090e+00
 2.0052473838e-01	 1.2189166150e+00	-3.3766331808e+00
 1.8976505281e-01	 1.2206379841e+00	-3.3935195176e+00
 1.7902157113e-01	 1.2222598444e+00	-3.4093036860e+00
 1.6829553196e-01	 1.2237828481e+00	-3.4240230160e+00
 1.5758815511e-01	 1.2252076651e+00	-3.4377120645e+00
 1.4690064130e-01	 1.2265349823e+00	-3.4504027276e+00
 1.3623417195e-01	 1.2277655033e+00	-3.4621243939e+00
 1.2558990900e-01	 1.2288999477e+00	-3.4729041332e+00
 1.1496899463e-01	 1.2299390508e+00	-3.4827669134e+00
 1.0437255119e-01	 1.2308835627e+00	-3.4917358391e+00
 2.1331162069e-01	 1.2286857659e+00	-3.2017181495e+00
 2.0243437927e-01	 1.2305246242e+00	-3.2168312860e+00
 1.9157222687e-01	 1.2322623863e+00	-3.2309340828e+00
 1.8072643266e-01	 1.2338996919e+00	-3.2440708804e+00
 1.6989824708e-01	 1.2354371995e+00	-3.2562825935e+00
 1.5908890154e-01	 1.2368755853e+00	-3.2676068328e+00
 1.4829960819e-01	 1.2382155428e+00	-3.2780780761e+00
 1.3753155973e-01	 1.2394577824e+00	-3.2877278819e+00
 1.2678592913e-01	 1.2406030304e+00	-3.2965851390e+00
 1.1606386948e-01	 1.2416520291e+00	-3.3046763439e+00
 1.0536651379e-01	 1.2426055358e+00	-3.3120259002e+00
 2.1532387076e-01	 1.2402764285e+00	-3.0532448483e+00
 2.0434402015e-01	 1.2421326334e+00	-3.0655290833e+00
 1.9337940092e-01	 1.2438867884e+00	-3.0769379441e+00
 1.8243129419e-01	 1.2455395394e+00	-3.0875192274e+00
 1.7150096219e-01	 1.2470915509e+00	-3.0973166201e+00
 1.6058964796e-01	 1.2485435056e+00	-3.1063698851e+00
 1.4969857509e-01	 1.2498961034e+00	-3.1147150989e+00
 1.3882894751e-01	 1.2511500614e+00	-3.1223849328e+00
 1.2798194927e-01	 1.2523061130e+00	-3.1294089695e+00
 1.1715874433e-01	 1.2533650073e+00	-3.1358140487e+00
 1.0636047640e-01	 1.2543275088e+00	-3.1416246338e+00
 2.1733612082e-01	 1.2518670910e+00	-2.9124208358e+00
 2.0625366104e-01	 1.2537406426e+00	-2.9219802465e+00
 1.9518657497e-01	 1.2555111906e+00	-2.9308007814e+00
 1.8413615572e-01	 1.2571793869e+00	-2.9389329344e+00
 1.7310367731e-01	 1.2587459023e+00	-2.9464223089e+00
 1.6209039439e-01	 1.2602114258e+00	-2.9533098759e+00
 1.5109754199e-01	 1.2615766640e+00	-2.9596322851e+00
 1.4012633529e-01	 1.2628423405e+00	-2.9654222202e+00
 1.2917796941e-01	 1.2640091957e+00	-2.9707087915e+00
 1.1825361918e-01	 1.2650779856e+00	-2.9755179554e+00
 1.0735443900e-01	 1.2660494819e+00	-2.9798729557e+00
 2.1934837089e-01	 1.2634577535e+00	-2.7785128777e+00
 2.0816330193e-01	 1.2653486518e+00	-2.7854682655e+00
 1.9699374902e-01	 1.2671355927e+00	-2.7918214581e+00
 1.8584101725e-01	 1.2688192344e+00	-2.7976248421e+00
 1.7470639243e-01	 1.2704002537e+00	-2.8029250368e+00
 1.6359114082e-01	 1.2718793460e+00	-2.8077632317e+00
 1.5249650889e-01	 1.2732572245e+00	-2.8121755784e+00
 1.4142372307e-01	 1.2745346196e+00	-2.8161936286e+00
 1.3037398955e-01	 1.2757122783e+00	-2.8198448081e+00
 1.1934849404e-01	 1.2767909638e+00	-2.8231529198e+00
 1.0834840161e-01	 1.2777714549e+00	-2.8261386659e+00
 2.2136062095e-01	 1.2750484161e+00	-2.6508168987e+00
 2.1007294282e-01	 1.2769566610e+00	-2.6553050990e+00
 1.9880092308e-01	 1.2787599949e+00	-2.6593266981e+00
 1.8754587878e-01	 1.2804590819e+00	-2.6629351244e+00
 1.7630910754e-01	 1.2820546051e+00	-2.6661770644e+00
 1.6509188724e-01	 1.2835472663e+00	-2.6690928882e+00
 1.5389547579e-01	 1.2849377851e+00	-2.6717171302e+00
 1.4272111086e-01	 1.2862268987e+00	-2.6740790169e+00
 1.3157000969e-01	 1.2874153610e+00	-2.6762030312e+00
 1.2044336889e-01	 1.2885039421e+00	-2.6781095050e+00
 1.0934236422e-01	 1.2894934280e+00	-2.6798152313e+00
 2.2337287102e-01	 1.2866390786e+00	-2.5286566809e+00
 2.1198258371e-01	 1.2885646702e+00	-2.5308298984e+00
 2.0060809713e-01	 1.2903843971e+00	-2.5326698350e+00
 1.8925074031e-01	 1.2920989294e+00	-2.5342300590e+00
 1.7791182266e-01	 1.2937089565e+00	-2.5355563252e+00
 1.6659263367e-01	 1.2952151865e+00	-2.5366870959e+00
 1.5529444269e-01	 1.2966183457e+00	-2.5376541181e+00
 1.4401849864e-01	 1.2979191778e+00	-2.5384830495e+00
 1.3276602983e-01	 1.2991184436e+00	-2.5391941210e+00
 1.2153824374e-01	 1.3002169204e+00	-2.5398028268e+00
 1.1033632682e-01	 1.3012154010e+00	-2.5403206341e+00
 2.2538512108e-01	 1.2982297411e+00	-2.4113826300e+00
 2.1389222460e-01	 1.3001726794e+00	-2.4114078006e+00
 2.0241527118e-01	 1.3020087992e+00	-2.4112296264e+00
 1.9095560184e-01	 1.3037387769e+00	-2.4109008620e+00
 1.7951453778e-01	 1.3053633079e+00	-2.4104652788e+00
 1.6809338010e-01	 1.3068831067e+00	-2.4099582887e+00
 1.5669340959e-01	 1.3082989062e+00	-2.4094076280e+00
 1.4531588642e-01	 1.3096114569e+00	-2.4088340884e+00
 1.3396204997e-01	 1.3108215263e+00	-2.4082522864e+00
 1.2263311859e-01	 1.3119298986e+00	-2.4076714598e+00
 1.1133028943e-01	 1.3129373741e+00	-2.4070962816e+00
 2.2739737115e-01	 1.3098204037e+00	-2.2983706074e+00
 2.1580186549e-01	 1.3117806886e+00	-2.2964287826e+00
 2.0422244524e-01	 1.3136332014e+00	-2.2944091310e+00
 1.9266046337e-01	 1.3153786243e+00	-2.2923625849e+00
 1.8111725289e-01	 1.3170176593e+00	-2.2903298240e+00
 1.6959412653e-01	 1.3185510270e+00	-2.2883420122e+00
 1.5809237649e-01	 1.3199794668e+00	-2.2864215946e+00
 1.4661327420e-01	 1.3213037359e+00	-2.2845831437e+00
 1.3515807011e-01	 1.3225246089e+00	-2.2828342438e+00
 1.2372799345e-01	 1.3236428769e+00	-2.2811764014e+00
 1.1232425204e-01	 1.3246593471e+00	-2.2796059734e+00
 2.2940962122e-01	 1.3214110662e+00	-2.1890208229e+00
 2.1771150638e-01	 1.3233886977e+00	-2.1853065772e+00
 2.0602961929e-01	 1.3252576036e+00	-2.1816346442e+00
 1.9436532490e-01	 1.3270184718e+00	-2.1780530673e+00
 1.8271996801e-01	 1.3286720106e+00	-2.1745982687e+00
 1.7109487296e-01	 1.3302189472e+00	-2.1712959069e+00
 1.5949134338e-01	 1.3316600274e+00	-2.1681617967e+00
 1.4791066198e-01	 1.3329960150e+00	-2.1652028790e+00
 1.3635409025e-01	 1.3342276916e+00	-2.1624182289e+00
 1.2482286830e-01	 1.3353558551e+00	-2.1598000896e+00
 1.1331821464e-01	 1.3363813202e+00	-2.1573349219e+00
 2.3142187128e-01	 1.3330017287e+00	-2.0827567834e+00
 2.1962114727e-01	 1.3349967069e+00	-2.0774776434e+00
 2.0783679334e-01	 1.3368820057e+00	-2.0723546879e+00
 1.9607018643e-01	 1.3386583193e+00	-2.0674319452e+00
 1.8432268312e-01	 1.3403263620e+00	-2.0627403527e+00
 1.7259561938e-01	 1.3418868674e+00	-2.0582987447e+00
 1.6089031028e-01	 1.3433405879e+00	-2.0541149047e+00
 1.4920804976e-01	 1.3446882941e+00	-2.0501866678e+00
 1.3755011039e-01	 1.3459307742e+00	-2.0465030614e+00
 1.2591774315e-01	 1.3470688334e+00	-2.0430454720e+00
 1.1431217725e-01	 1.3481032932e+00	-2.0397888248e+00
 1.0437255119e-01	 1.2308835627e+00	-3.4917358391e+00
 9.3803471409e-02	 1.2317341113e+00	-3.4998406013e+00
 8.3261013018e-02	 1.2324916431e+00	-3.5070905032e+00
 7.2746213186e-02	 1.2331569492e+00	-3.5134722718e+00
 6.2260089311e-02	 1.2337308335e+00	-3.5189726149e+00
 5.1803638910e-02	 1.2342141124e+00	-3.5235785276e+00
 4.1377839526e-02	 1.2346076137e+00	-3.5272775872e+00
 3.0983648650e-02	 1.2349121767e+00	-3.5300582332e+00
 2.0622003662e-02	 1.2351286511e+00	-3.5319100295e+00
 1.0293821774e-02	 1.2352578971e+00	-3.5328239047e+00
 0.0000000000e+00	 1.2353007843e+00	-3.5327923681e+00
 1.0536651379e-01	 1.2426055358e+00	-3.3120259002e+00
 9.4696782358e-02	 1.2434641844e+00	-3.3186675297e+00
 8.4053925833e-02	 1.2442289302e+00	-3.3246139748e+00
 7.3438991265e-02	 1.2449005722e+00	-3.3298529560e+00
 6.2853005743e-02	 1.2454799217e+00	-3.3343721296e+00
 5.2296976280e-02	 1.2459678030e+00	-3.3381594485e+00
 4.1771889731e-02	 1.2463650517e+00	-3.3412035091e+00
 3.1278712705e-02	 1.2466725151e+00	-3.3434938814e+00
 2.0818391508e-02	 1.2468910511e+00	-3.3450214174e+00
 1.0391852088e-02	 1.2470215279e+00	-3.3457785351e+00
 0.0000000000e+00	 1.2470648235e+00	-3.3457594746e+00
 1.0636047640e-01	 1.2543275088e+00	-3.1416246338e+00
 9.5590093308e-02	 1.2551942574e+00	-3.1468770293e+00
 8.4846838648e-02	 1.2559662174e+00	-3.1515869619e+00
 7.4131769345e-02	 1.2566441952e+00	-3.1557433164e+00
 6.3445922174e-02	 1.2572290100e+00	-3.1593348652e+00
 5.2790313650e-02	 1.2577214936e+00	-3.1623506867e+00
 4.2165939936e-02	 1.2581224897e+00	-3.1647805687e+00
 3.1573776759e-02	 1.2584328535e+00	-3.1666153907e+00
 2.1014779354e-02	 1.2586534510e+00	-3.1678474824e+00
 1.0489882402e-02	 1.2587851587e+00	-3.1684709538e+00
 0.0000000000e+00	 1.2588288627e+00	-3.1684819947e+00
 1.0735443900e-01	 1.2660494819e+00	-2.9798729557e+00
 9.6483404258e-02	 1.2669243304e+00	-2.9838119400e+00
 8.5639751464e-02	 1.2677035045e+00	-2.9873538442e+00
 7.4824547425e-02	 1.2683878182e+00	-2.9904888056e+00
 6.4038838606e-02	 1.2689780982e+00	-2.9932067989e+00
 5.3283651021e-02	 1.2694751842e+00	-2.9954981167e+00
 4.2559990141e-02	 1.2698799277e+00	-2.9973538326e+00
 3.1868840814e-02	 1.2701931919e+00	-2.9987662393e+00
 2.1211167200e-02	 1.2704158510e+00	-2.9997292602e+00
 1.0587912715e-02	 1.2705487895e+00	-3.0002388292e+00
 0.0000000000e+00	 1.2705929020e+00	-3.0002932357e+00
 1.0834840161e-01	 1.2777714549e+00	-2.8261386659e+00
 9.7376715209e-02	 1.2786544034e+00	-2.8288419756e+00
 8.6432664280e-02	 1.2794407917e+00	-2.8312858691e+00
 7.5517325505e-02	 1.2801314412e+00	-2.8334617409e+00
 6.4631755038e-02	 1.2807271864e+00	-2.8353607720e+00
 5.3776988391e-02	 1.2812288748e+00	-2.8369744777e+00
 4.2954040346e-02	 1.2816373657e+00	-2.8382952327e+00
 3.2163904869e-02	 1.2819535304e+00	-2.8393167699e+00
 2.1407555046e-02	 1.2821782510e+00	-2.8400346482e+00
 1.0685943029e-02	 1.2823124203e+00	-2.8404466854e+00
 0.0000000000e+00	 1.2823569412e+00	-2.8405533513e+00
 1.0934236422e-01	 1.2894934280e+00	-2.6798152313e+00
 9.8270026159e-02	 1.2903844764e+00	-2.6813625081e+00
 8.7225577097e-02	 1.2911780788e+00	-2.6827799381e+00
 7.6210103586e-02	 1.2918750642e+00	-2.6840600923e+00
 6.5224671470e-02	 1.2924762747e+00	-2.6851952793e+00
 5.4270325762e-02	 1.2929825654e+00	-2.6861781629e+00
 4.3348090552e-02	 1.2933948037e+00	-2.6870023549e+00
 3.2458968924e-02	 1.2937138688e+00	-2.6876629778e+00
 2.1603942892e-02	 1.2939406509e+00	-2.6881571924e+00
 1.0783973343e-02	 1.2940760511e+00	-2.6884846868e+00
 0.0000000000e+00	 1.2941209804e+00	-2.6886481225e+00
 1.1033632682e-01	 1.3012154010e+00	-2.5403206341e+00
 9.9163337111e-02	 1.3021145494e+00	-2.5407934185e+00
 8.8018489913e-02	 1.3029153660e+00	-2.5412574589e+00
 7.6902881667e-02	 1.3036186872e+00	-2.5417063363e+00
 6.5817587902e-02	 1.3042253629e+00	-2.5421333228e+00
 5.4763663133e-02	 1.3047362560e+00	-2.5425320741e+00
 4.3742140758e-02	 1.3051522417e+00	-2.5428972940e+00
 3.2754032979e-02	 1.3054742072e+00	-2.5432253646e+00
 2.1800330738e-02	 1.3057030509e+00	-2.5435149388e+00
 1.0882003656e-02	 1.3058396819e+00	-2.5437674879e+00
 0.0000000000e+00	 1.3058850196e+00	-2.5439878038e+00
 1.1133028943e-01	 1.3129373741e+00	-2.4070962816e+00
 1.0005664806e-01	 1.3138446224e+00	-2.4065780086e+00
 8.8811402730e-02	 1.3146526531e+00	-2.4061632592e+00
 7.7595659748e-02	 1.3153623102e+00	-2.4058463703e+00
 6.6410504335e-02	 1.3159744511e+00	-2.4056213277e+00
 5.5257000504e-02	 1.3164899466e+00	-2.4054825379e+00
 4.4136190963e-02	 1.3169096797e+00	-2.4054255691e+00
 3.3049097035e-02	 1.3172345456e+00	-2.4054478537e+00
 2.1996718584e-02	 1.3174654508e+00	-2.4055493479e+00
 1.0980033970e-02	 1.3176033127e+00	-2.4057331445e+00
 0.0000000000e+00	 1.3176490588e+00	-2.4060060321e+00
 1.1232425204e-01	 1.3246593471e+00	-2.2796059734e+00
 1.0094995901e-01	 1.3255746954e+00	-2.2781819696e+00
 8.9604315547e-02	 1.3263899403e+00	-2.2769645567e+00
 7.8288437829e-02	 1.3271059332e+00	-2.2759484846e+00
 6.7003420768e-02	 1.3277235394e+00	-2.2751281150e+00
 5.5750337875e-02	 1.3282436372e+00	-2.2744982789e+00
 4.4530241169e-02	 1.3286671177e+00	-2.2740550975e+00
 3.3344161090e-02	 1.3289948841e+00	-2.2737967620e+00
 2.2193106431e-02	 1.3292278508e+00	-2.2737242655e+00
 1.1078064284e-02	 1.3293669435e+00	-2.2738420830e+00
 0.0000000000e+00	 1.3294130980e+00	-2.2741587934e+00
 1.1331821464e-01	 1.3363813202e+00	-2.1573349219e+00
 1.0184326996e-01	 1.3373047684e+00	-2.1550924051e+00
 9.0397228365e-02	 1.3381272274e+00	-2.1531499841e+00
 7.8981215910e-02	 1.3388495562e+00	-2.1515023880e+00
 6.7596337200e-02	 1.3394726276e+00	-2.1501439285e+00
 5.6243675246e-02	 1.3399973278e+00	-2.1490694467e+00
 4.4924291375e-02	 1.3404245557e+00	-2.1482752210e+00
 3.3639225145e-02	 1.3407552225e+00	-2.1477598273e+00
 2.2389494277e-02	 1.3409902507e+00	-2.1475249481e+00
 1.1176094597e-02	 1.3411305743e+00	-2.1475761242e+00
 0.0000000000e+00	 1.3411771373e+00	-2.1479234430e+00
 1.1431217725e-01	 1.3481032932e+00	-2.0397888248e+00
 1.0273658092e-01	 1.3490348414e+00	-2.0368169047e+00
 9.1190141182e-02	 1.3498645146e+00	-2.0342286638e+00
 7.9673993992e-02	 1.3505931792e+00	-2.0320182845e+00
 6.8189253633e-02	 1.3512217158e+00	-2.0301795115e+00
 5.6737012617e-02	 1.3517510184e+00	-2.0287066941e+00
 4.5318341580e-02	 1.3521819937e+00	-2.0275957845e+00
 3.3934289200e-02	 1.3525155609e+00	-2.0268452852e+00
 2.2585882123e-02	 1.3527526507e+00	-2.0264571392e+00
 1.1274124911e-02	 1.3528942051e+00	-2.0264375575e+00
 0.0000000000e+00	 1.3529411765e+00	-2.0267977783e+00
 1.3529411765e+00	 0.0000000000e+00	 3.7898784170e+00
 1.3528942051e+00	 1.1274124911e-02	 3.7881949913e+00
 1.3527526507e+00	 2.2585882123e-02	 3.7847620699e+00
 1.3525155609e+00	 3.3934289200e-02	 3.7795107667e+00
 1.3521819937e+00	 4.5318341580e-02	 3.7723713353e+00
 1.3517510184e+00	 5.6737012617e-02	 3.7632724980e+00
 1.3512217158e+00	 6.8189253633e-02	 3.7521407301e+00
 1.3505931792e+00	 7.9673993992e-02	 3.7388995011e+00
 1.3498645146e+00	 9.1190141182e-02	 3.7234684771e+00
 1.3490348414e+00	 1.0273658092e-01	 3.7057626902e+00
 1.3481032932e+00	 1.1431217725e-01	 3.6856916770e+00
 1.3647052157e+00	 0.0000000000e+00	 3.7949252202e+00
 1.3646578358e+00	 1.1372155225e-02	 3.7930733780e+00
 1.3645150506e+00	 2.2782269969e-02	 3.7894525096e+00
 1.3642758993e+00	 3.4229353255e-02	 3.7839810228e+00
 1.3639394317e+00	 4.5712391786e-02	 3.7765767931e+00
 1.3635047090e+00	 5.7230349988e-02	 3.7671564606e+00
 1.3629708041e+00	 6.8782170066e-02	 3.7556346765e+00
 1.3623368022e+00	 8.0366772073e-02	 3.7419233035e+00
 1.3616018017e+00	 9.1983053999e-02	 3.7259305720e+00
 1.3607649144e+00	 1.0362989187e-01	 3.7075601990e+00
 1.3598252663e+00	 1.1530613986e-01	 3.6867104735e+00
 1.3764692549e+00	 0.0000000000e+00	 3.8000358920e+00
 1.3764214666e+00	 1.1470185538e-02	 3.7980482430e+00
 1.3762774506e+00	 2.2978657816e-02	 3.7942879364e+00
 1.3760362377e+00	 3.4524417311e-02	 3.7886600313e+00
 1.3756968697e+00	 4.6106441992e-02	 3.7810694587e+00
 1.3752583996e+00	 5.7723687359e-02	 3.7714202858e+00
 1.3747198923e+00	 6.9375086498e-02	 3.7596149244e+00
 1.3740804252e+00	 8.1059550154e-02	 3.7455532888e+00
 1.3733390889e+00	 9.2775966816e-02	 3.7291319059e+00
 1.3724949874e+00	 1.0452320282e-01	 3.7102429820e+00
 1.3715472393e+00	 1.1630010246e-01	 3.6887734328e+00
 1.3882332941e+00	 0.0000000000e+00	 3.8049881293e+00
 1.3881850974e+00	 1.1568215852e-02	 3.8028863349e+00
 1.3880398506e+00	 2.3175045662e-02	 3.7990244638e+00
 1.3877965762e+00	 3.4819481366e-02	 3.7932936464e+00
 1.3874543077e+00	 4.6500492198e-02	 3.7855853678e+00
 1.3870120902e+00	 5.8217024730e-02	 3.7757906986e+00
 1.3864689805e+00	 6.9968002931e-02	 3.7637994657e+00
 1.3858240482e+00	 8.1752328235e-02	 3.7494993668e+00
 1.3850763760e+00	 9.3568879632e-02	 3.7327750320e+00
 1.3842250605e+00	 1.0541651377e-01	 3.7135070383e+00
 1.3832692124e+00	 1.1729406507e-01	 3.6915708816e+00
 1.3999973333e+00	 0.0000000000e+00	 3.8095670656e+00
 1.3999487282e+00	 1.1666246166e-02	 3.8073628962e+00
 1.3998022505e+00	 2.3371433508e-02	 3.8034276795e+00
 1.3995569146e+00	 3.5114545421e-02	 3.7976380987e+00
 1.3992117457e+00	 4.6894542403e-02	 3.7898717560e+00
 1.3987657808e+00	 5.8710362101e-02	 3.7800063698e+00
 1.3982180687e+00	 7.0560919363e-02	 3.7679189069e+00
 1.3975676712e+00	 8.2445106316e-02	 3.7534846527e+00
 1.3968136632e+00	 9.4361792449e-02	 3.7365762231e+00
 1.3959551335e+00	 1.0630982472e-01	 3.7170625243e+00
 1.3949911854e+00	 1.1828802768e-01	 3.6948076659e+00
 1.4117613726e+00	 0.0000000000e+00	 3.8135649625e+00
 1.4117123590e+00	 1.1764276479e-02	 3.8112613237e+00
 1.4115646505e+00	 2.3567821354e-02	 3.8072722746e+00
 1.4113172530e+00	 3.5409609476e-02	 3.8014595944e+00
 1.4109691837e+00	 4.7288592609e-02	 3.7936866303e+00
 1.4105194714e+00	 5.9203699472e-02	 3.7838174606e+00
 1.4099671570e+00	 7.1153835795e-02	 3.7717159874e+00
 1.4093112942e+00	 8.3137884396e-02	 3.7572449610e+00
 1.4085509503e+00	 9.5154705265e-02	 3.7402649414e+00
 1.4076852065e+00	 1.0720313567e-01	 3.7206332015e+00
 1.4067131585e+00	 1.1928199028e-01	 3.6982025780e+00
 1.4235254118e+00	 0.0000000000e+00	 3.8167809163e+00
 1.4234759898e+00	 1.1862306793e-02	 3.8143728451e+00
 1.4233270504e+00	 2.3764209200e-02	 3.8103416914e+00
 1.4230775914e+00	 3.5704673531e-02	 3.8045339354e+00
 1.4227266217e+00	 4.7682642814e-02	 3.7967983620e+00
 1.4222731620e+00	 5.9697036842e-02	 3.7869851894e+00
 1.4217162452e+00	 7.1746752227e-02	 3.7749451210e+00
 1.4210549172e+00	 8.3830662477e-02	 3.7605283233e+00
 1.4202882375e+00	 9.5947618081e-02	 3.7435833350e+00
 1.4194152795e+00	 1.0809644662e-01	 3.7239559113e+00
 1.4184351315e+00	 1.2027595289e-01	 3.7014878114e+00
 1.4352894510e+00	 0.0000000000e+00	 3.8190205788e+00
 1.4352396206e+00	 1.1960337107e-02	 3.8164962115e+00
 1.4350894504e+00	 2.3960597046e-02	 3.8124277884e+00
 1.4348379298e+00	 3.5999737586e-02	 3.8066461576e+00
 1.4344840597e+00	 4.8076693020e-02	 3.7989852991e+00
 1.4340268526e+00	 6.0190374213e-02	 3.7892814191e+00
 1.4334653334e+00	 7.2339668659e-02	 3.7773719598e+00
 1.4327985402e+00	 8.4523440557e-02	 3.7630945293e+00
 1.4320255246e+00	 9.6740530897e-02	 3.7462857561e+00
 1.4311453525e+00	 1.0898975757e-01	 3.7267800736e+00
 1.4301571046e+00	 1.2126991549e-01	 3.7044084401e+00
 1.4470534902e+00	 0.0000000000e+00	 3.8200958922e+00
 1.4470032514e+00	 1.2058367420e-02	 3.8174374050e+00
 1.4468518503e+00	 2.4156984892e-02	 3.8133305216e+00
 1.4465982682e+00	 3.6294801641e-02	 3.8075901862e+00
 1.4462414977e+00	 4.8470743225e-02	 3.8000353971e+00
 1.4457805432e+00	 6.0683711583e-02	 3.7904882647e+00
 1.4452144217e+00	 7.2932585091e-02	 3.7787729789e+00
 1.4445421632e+00	 8.5216218637e-02	 3.7647146892e+00
 1.4437628118e+00	 9.7533443713e-02	 3.7481383034e+00
 1.4428754255e+00	 1.0988306852e-01	 3.7288672084e+00
 1.4418790776e+00	 1.2226387810e-01	 3.7067219221e+00
 1.4588175294e+00	 0.0000000000e+00	 3.8198248364e+00
 1.4587668822e+00	 1.2156397734e-02	 3.8170093604e+00
 1.4586142503e+00	 2.4353372738e-02	 3.8128576410e+00
 1.4583586067e+00	 3.6589865696e-02	 3.8071685085e+00
 1.4579989357e+00	 4.8864793430e-02	 3.7997458677e+00
 1.4575342338e+00	 6.1177048953e-02	 3.7903977185e+00
 1.4569635099e+00	 7.3525501522e-02	 3.7789350794e+00
 1.4562857862e+00	 8.5908996716e-02	 3.7651708167e+00
 1.4555000989e+00	 9.8326356528e-02	 3.7489183844e+00
 1.4546054985e+00	 1.1077637947e-01	 3.7299904802e+00
 1.4536010507e+00	 1.2325784070e-01	 3.7081976250e+00
 1.4705815686e+00	 0.0000000000e+00	 3.8180311883e+00
 1.4705305129e+00	 1.2254428048e-02	 3.8150317004e+00
 1.4703766502e+00	 2.4549760584e-02	 3.8108244018e+00
 1.4701189451e+00	 3.6884929750e-02	 3.8051918616e+00
 1.4697563737e+00	 4.9258843635e-02	 3.7979228443e+00
 1.4692879244e+00	 6.1670386323e-02	 3.7888112940e+00
 1.4687125981e+00	 7.4118417953e-02	 3.7776552115e+00
 1.4680294092e+00	 8.6601774796e-02	 3.7642554308e+00
 1.4672373861e+00	 9.9119269343e-02	 3.7484142985e+00
 1.4663355715e+00	 1.1166969042e-01	 3.7299342619e+00
 1.4653230237e+00	 1.2425180331e-01	 3.7086163732e+00
 1.3481032932e+00	 1.1431217725e-01	 3.6856916770e+00
 1.3470688334e+00	 1.2591774315e-01	 3.6634486363e+00
 1.3459307742e+00	 1.3755011039e-01	 3.6392877242e+00
 1.3446882941e+00	 1.4920804976e-01	 3.6131895077e+00
 1.3433405879e+00	 1.6089031028e-01	 3.5851272534e+00
 1.3418868674e+00	 1.7259561938e-01	 3.5550659713e+00
 1.3403263620e+00	 1.8432268312e-01	 3.5229614683e+00
 1.3386583193e+00	 1.9607018643e-01	 3.4887594207e+00
 1.3368820057e+00	 2.0783679334e-01	 3.4523944749e+00
 1.3349967069e+00	 2.1962114727e-01	 3.4137893864e+00
 1.3330017287e+00	 2.3142187128e-01	 3.3728542082e+00
 1.3598252663e+00	 1.1530613986e-01	 3.6867104735e+00
 1.3587818116e+00	 1.2701261800e-01	 3.6635838353e+00
 1.3576338569e+00	 1.3874613053e-01	 3.6384604174e+00
 1.3563805732e+00	 1.5050543755e-01	 3.6113343474e+00
 1.3550211485e+00	 1.6228927718e-01	 3.5821925319e+00
 1.3535547877e+00	 1.7409636581e-01	 3.5510136042e+00
 1.3519807134e+00	 1.8592539824e-01	 3.5177668773e+00
 1.3502981668e+00	 1.9777504796e-01	 3.4824113134e+00
 1.3485064079e+00	 2.0964396740e-01	 3.4448945201e+00
 1.3466047161e+00	 2.2153078816e-01	 3.4051517822e+00
 1.3445923913e+00	 2.3343412134e-01	 3.3631051422e+00
 1.3715472393e+00	 1.1630010246e-01	 3.6887734328e+00
 1.3704947899e+00	 1.2810749286e-01	 3.6649343154e+00
 1.3693369395e+00	 1.3994215067e-01	 3.6390283412e+00
 1.3680728523e+00	 1.5180282533e-01	 3.6110590602e+00
 1.3667017091e+00	 1.6368824408e-01	 3.5810229033e+00
 1.3652227079e+00	 1.7559711224e-01	 3.5489080330e+00
 1.3636350648e+00	 1.8752811336e-01	 3.5146931981e+00
 1.3619380143e+00	 1.9947990949e-01	 3.4783466006e+00
 1.3601308100e+00	 2.1145114145e-01	 3.4398247878e+00
 1.3582127253e+00	 2.2344042904e-01	 3.3990715781e+00
 1.3561830538e+00	 2.3544637141e-01	 3.3560170342e+00
 1.3832692124e+00	 1.1729406507e-01	 3.6915708816e+00
 1.3822077681e+00	 1.2920236771e-01	 3.6671857604e+00
 1.3810400222e+00	 1.4113817081e-01	 3.6406737870e+00
 1.3797651314e+00	 1.5310021311e-01	 3.6120439877e+00
 1.3783822696e+00	 1.6508721098e-01	 3.5812983949e+00
 1.3768906281e+00	 1.7709785866e-01	 3.5484308019e+00
 1.3752894162e+00	 1.8913082847e-01	 3.5134255194e+00
 1.3735778618e+00	 2.0118477102e-01	 3.4762561415e+00
 1.3717552122e+00	 2.1325831550e-01	 3.4368843327e+00
 1.3698207345e+00	 2.2535006993e-01	 3.3952586493e+00
 1.3677737164e+00	 2.3745862147e-01	 3.3513134047e+00
 1.3949911854e+00	 1.1828802768e-01	 3.6948076659e+00
 1.3939207464e+00	 1.3029724256e-01	 3.6700386577e+00
 1.3927431048e+00	 1.4233419095e-01	 3.6430940534e+00
 1.3914574105e+00	 1.5439760089e-01	 3.6139845983e+00
 1.3900628302e+00	 1.6648617788e-01	 3.5827141939e+00
 1.3885585484e+00	 1.7859860509e-01	 3.5492785588e+00
 1.3869437676e+00	 1.9073354359e-01	 3.5136638867e+00
 1.3852177093e+00	 2.0288963255e-01	 3.4758455109e+00
 1.3833796144e+00	 2.1506548955e-01	 3.4357865885e+00
 1.3814287437e+00	 2.2725971082e-01	 3.3934368145e+00
 1.3793643789e+00	 2.3947087154e-01	 3.3487311814e+00
 1.4067131585e+00	 1.1928199028e-01	 3.6982025780e+00
 1.4056337247e+00	 1.3139211741e-01	 3.6732077066e+00
 1.4044461875e+00	 1.4353021109e-01	 3.6460008375e+00
 1.4031496896e+00	 1.5569498867e-01	 3.6165908630e+00
 1.4017433908e+00	 1.6788514477e-01	 3.5849800106e+00
 1.4002264686e+00	 1.8009935152e-01	 3.5511624089e+00
 1.3985981190e+00	 1.9233625870e-01	 3.5151226475e+00
 1.3968575568e+00	 2.0459449408e-01	 3.4768343407e+00
 1.3950040166e+00	 2.1687266360e-01	 3.4362587066e+00
 1.3930367529e+00	 2.2916935170e-01	 3.3933431765e+00
 1.3909550414e+00	 2.4148312160e-01	 3.3480200458e+00
 1.4184351315e+00	 1.2027595289e-01	 3.7014878114e+00
 1.4173467029e+00	 1.3248699226e-01	 3.6764212546e+00
 1.4161492701e+00	 1.4472623123e-01	 3.6491196536e+00
 1.4148419686e+00	 1.5699237645e-01	 3.6195866603e+00
 1.4134239513e+00	 1.6928411167e-01	 3.5878194704e+00
 1.4118943889e+00	 1.8160009794e-01	 3.5538072960e+00
 1.4102524704e+00	 1.9393897381e-01	 3.5175298261e+00
 1.4084974043e+00	 2.0629935560e-01	 3.4789556883e+00
 1.4066284187e+00	 2.1867983765e-01	 3.4380409242e+00
 1.4046447621e+00	 2.3107899259e-01	 3.3947274914e+00
 1.4025457040e+00	 2.4349537166e-01	 3.3489418063e+00
 1.4301571046e+00	 1.2126991549e-01	 3.7044084401e+00
 1.4290596812e+00	 1.3358186711e-01	 3.6794207591e+00
 1.4278523528e+00	 1.4592225137e-01	 3.6521892796e+00
 1.4265342477e+00	 1.5828976423e-01	 3.6227092070e+00
 1.4251045119e+00	 1.7068307857e-01	 3.5909695328e+00
 1.4235623091e+00	 1.8310084437e-01	 3.5569514117e+00
 1.4219068218e+00	 1.9554168893e-01	 3.5206265237e+00
 1.4201372518e+00	 2.0800421713e-01	 3.4819554328e+00
 1.4182528209e+00	 2.2048701170e-01	 3.4408859571e+00
 1.4162527713e+00	 2.3298863348e-01	 3.3973515625e+00
 1.4141363665e+00	 2.4550762173e-01	 3.3512697968e+00
 1.4418790776e+00	 1.2226387810e-01	 3.7067219221e+00
 1.4407726594e+00	 1.3467674197e-01	 3.6819602734e+00
 1.4395554354e+00	 1.4711827150e-01	 3.6549612268e+00
 1.4382265268e+00	 1.5958715201e-01	 3.6257085152e+00
 1.4367850725e+00	 1.7208204546e-01	 3.5941799352e+00
 1.4352302293e+00	 1.8460159079e-01	 3.5603456291e+00
 1.4335611732e+00	 1.9714440404e-01	 3.5241663457e+00
 1.4317770993e+00	 2.0970907866e-01	 3.4855916966e+00
 1.4298772231e+00	 2.2229418575e-01	 3.4445584188e+00
 1.4278607805e+00	 2.3489827436e-01	 3.4009886594e+00
 1.4257270291e+00	 2.4751987179e-01	 3.3547882984e+00
 1.4536010507e+00	 1.2325784070e-01	 3.7081976250e+00
 1.4524856377e+00	 1.3577161682e-01	 3.6838059561e+00
 1.4512585181e+00	 1.4831429164e-01	 3.6571992340e+00
 1.4499188059e+00	 1.6088453978e-01	 3.6283468716e+00
 1.4484656330e+00	 1.7348101236e-01	 3.5972126617e+00
 1.4468981496e+00	 1.8610233722e-01	 3.5637529610e+00
 1.4452155246e+00	 1.9874711915e-01	 3.5279148512e+00
 1.4434169468e+00	 2.1141394019e-01	 3.4896342893e+00
 1.4415016252e+00	 2.2410135980e-01	 3.4488342618e+00
 1.4394687897e+00	 2.3680791525e-01	 3.4054229588e+00
 1.4373176916e+00	 2.4953212185e-01	 3.3592919836e+00
 1.4653230237e+00	 1.2425180331e-01	 3.7086163732e+00
 1.4641986159e+00	 1.3686649167e-01	 3.6847356011e+00
 1.4629616007e+00	 1.4951031178e-01	 3.6586787828e+00
 1.4616110850e+00	 1.6218192756e-01	 3.6303983406e+00
 1.4601461936e+00	 1.7487997926e-01	 3.5998414329e+00
 1.4585660698e+00	 1.8760308364e-01	 3.5669480409e+00
 1.4568698760e+00	 2.0034983427e-01	 3.5316490265e+00
 1.4550567943e+00	 2.1311880172e-01	 3.4938641755e+00
 1.4531260274e+00	 2.2590853385e-01	 3.4535002419e+00
 1.4510767989e+00	 2.3871755614e-01	 3.4104490086e+00
 1.4489083541e+00	 2.5154437192e-01	 3.3645853817e+00
 1.3330017287e+00	 2.3142187128e-01	 3.3728542082e+00
 1.3308967645e+00	 2.4323555931e-01	 3.3301759749e+00
 1.3286808315e+00	 2.5506280259e-01	 3.2863315770e+00
 1.3263532981e+00	 2.6690216904e-01	 3.2412158064e+00
 1.3239135551e+00	 2.7875220764e-01	 3.1947076612e+00
 1.3213610161e+00	 2.9061144879e-01	 3.1466699358e+00
 1.3186951180e+00	 3.0247840474e-01	 3.0969489306e+00
 1.3159153219e+00	 3.1435156998e-01	 3.0453742954e+00
 1.3130211133e+00	 3.2622942167e-01	 2.9917590172e+00
 1.3100120027e+00	 3.3811042009e-01	 2.9358995663e+00
 1.3068875263e+00	 3.4999300912e-01	 2.8775762128e+00
 1.3445923913e+00	 2.3343412134e-01	 3.3631051422e+00
 1.3424691241e+00	 2.4535053127e-01	 3.3193461264e+00
 1.3402339232e+00	 2.5728061432e-01	 3.2744488176e+00
 1.3378861515e+00	 2.6922292595e-01	 3.2283082836e+00
 1.3354251945e+00	 2.8117600252e-01	 3.1808025804e+00
 1.3328504608e+00	 2.9313836167e-01	 3.1317922467e+00
 1.3301613823e+00	 3.0510850269e-01	 3.0811199208e+00
 1.3273574154e+00	 3.1708490700e-01	 3.0286100946e+00
 1.3244380412e+00	 3.2906603850e-01	 2.9740690178e+00
 1.3214027659e+00	 3.4105034409e-01	 2.9172847660e+00
 1.3182511217e+00	 3.5303625413e-01	 2.8580274856e+00
 1.3561830538e+00	 2.3544637141e-01	 3.3560170342e+00
 1.3540414836e+00	 2.4746550324e-01	 3.3112515807e+00
 1.3517870148e+00	 2.5949842605e-01	 3.2653432779e+00
 1.3494190049e+00	 2.7154368286e-01	 3.2181870842e+00
 1.3469368340e+00	 2.8359979741e-01	 3.1696597857e+00
 1.3443399054e+00	 2.9566527454e-01	 3.1196193897e+00
 1.3416276466e+00	 3.0773860065e-01	 3.0679046456e+00
 1.3387995089e+00	 3.1981824401e-01	 3.0143347070e+00
 1.3358549691e+00	 3.3190265533e-01	 2.9587089487e+00
 1.3327935291e+00	 3.4399026810e-01	 2.9008069527e+00
 1.3296147171e+00	 3.5607949914e-01	 2.8403886784e+00
 1.3677737164e+00	 2.3745862147e-01	 3.3513134047e+00
 1.3656138432e+00	 2.4958047520e-01	 3.3056324828e+00
 1.3633401065e+00	 2.6171623778e-01	 3.2587748053e+00
 1.3609518582e+00	 2.7386443977e-01	 3.2106349464e+00
 1.3584484734e+00	 2.8602359229e-01	 3.1610882003e+00
 1.3558293501e+00	 2.9819218742e-01	 3.1099898717e+00
 1.3530939109e+00	 3.1036869860e-01	 3.0571746971e+00
 1.3502416024e+00	 3.2255158103e-01	 3.0024564102e+00
 1.3472718970e+00	 3.3473927216e-01	 2.9456274681e+00
 1.3441842923e+00	 3.4693019211e-01	 2.8864589524e+00
 1.3409783125e+00	 3.5912274415e-01	 2.8247006606e+00
 1.3793643789e+00	 2.3947087154e-01	 3.3487311814e+00
 1.3771862027e+00	 2.5169544716e-01	 3.3022417471e+00
 1.3748931981e+00	 2.6393404951e-01	 3.2545152799e+00
 1.3724847116e+00	 2.7618519668e-01	 3.2054458040e+00
 1.3699601128e+00	 2.8844738717e-01	 3.1549070081e+00
 1.3673187948e+00	 3.0071910030e-01	 3.1027514292e+00
 1.3645601751e+00	 3.1299879655e-01	 3.0488097691e+00
 1.3616836960e+00	 3.2528491805e-01	 2.9928903604e+00
 1.3586888249e+00	 3.3757588899e-01	 2.9347787969e+00
 1.3555750555e+00	 3.4987011611e-01	 2.8742377457e+00
 1.3523419079e+00	 3.6216598916e-01	 2.8110069560e+00
 1.3909550414e+00	 2.4148312160e-01	 3.3480200458e+00
 1.3887585623e+00	 2.5381041913e-01	 3.3008444138e+00
 1.3864462898e+00	 2.6615186124e-01	 3.2523479831e+00
 1.3840175650e+00	 2.7850595359e-01	 3.2024241726e+00
 1.3814717522e+00	 2.9087118206e-01	 3.1509450613e+00
 1.3788082395e+00	 3.0324601317e-01	 3.0977604598e+00
 1.3760264394e+00	 3.1562889450e-01	 3.0426971183e+00
 1.3731257895e+00	 3.2801825506e-01	 2.9855580879e+00
 1.3701057528e+00	 3.4041250582e-01	 2.9261222514e+00
 1.3669658187e+00	 3.5281004012e-01	 2.8641440419e+00
 1.3637055033e+00	 3.6520923418e-01	 2.7993533644e+00
 1.4025457040e+00	 2.4349537166e-01	 3.3489418063e+00
 1.4003309218e+00	 2.5592539109e-01	 3.3012170303e+00
 1.3979993814e+00	 2.6836967297e-01	 3.2520669905e+00
 1.3955504184e+00	 2.8082671050e-01	 3.2013845582e+00
 1.3929833916e+00	 2.9329497694e-01	 3.1490403082e+00
 1.3902976842e+00	 3.0577292605e-01	 3.0948814741e+00
 1.3874927037e+00	 3.1825899245e-01	 3.0387310429e+00
 1.3845678830e+00	 3.3075159208e-01	 2.9803870066e+00
 1.3815226807e+00	 3.4324912265e-01	 2.9196217890e+00
 1.3783565819e+00	 3.5574996412e-01	 2.8561818649e+00
 1.3750690986e+00	 3.6825247919e-01	 2.7897875908e+00
 1.4141363665e+00	 2.4550762173e-01	 3.3512697968e+00
 1.4119032813e+00	 2.5804036306e-01	 3.3031470566e+00
 1.4095524731e+00	 2.7058748470e-01	 3.2534765891e+00
 1.4070832718e+00	 2.8314746740e-01	 3.2021508883e+00
 1.4044950311e+00	 2.9571877183e-01	 3.1490392420e+00
 1.4017871289e+00	 3.0829983893e-01	 3.0939865656e+00
 1.3989589680e+00	 3.2088909040e-01	 3.0368123782e+00
 1.3960099765e+00	 3.3348492909e-01	 2.9773099393e+00
 1.3929396086e+00	 3.4608573948e-01	 2.9152455660e+00
 1.3897473451e+00	 3.5868988813e-01	 2.8503581483e+00
 1.3864326940e+00	 3.7129572420e-01	 2.7823591013e+00
 1.4257270291e+00	 2.4751987179e-01	 3.3547882984e+00
 1.4234756409e+00	 2.6015533502e-01	 3.3064322938e+00
 1.4211055647e+00	 2.7280529643e-01	 3.2563907146e+00
 1.4186161251e+00	 2.8546822431e-01	 3.2045559624e+00
 1.4160066705e+00	 2.9814256671e-01	 3.1507963681e+00
 1.4132765736e+00	 3.1082675180e-01	 3.0949548985e+00
 1.4104252322e+00	 3.2351918835e-01	 3.0368480081e+00
 1.4074520700e+00	 3.3621826611e-01	 2.9762646562e+00
 1.4043565365e+00	 3.4892235631e-01	 2.9129655078e+00
 1.4011381083e+00	 3.6162981213e-01	 2.8466823401e+00
 1.3977962894e+00	 3.7433896921e-01	 2.7771184567e+00
 1.4373176916e+00	 2.4953212185e-01	 3.3592919836e+00
 1.4350480004e+00	 2.6227030699e-01	 3.3108803338e+00
 1.4326586564e+00	 2.7502310816e-01	 3.2606324105e+00
 1.4301489785e+00	 2.8778898122e-01	 3.2084409234e+00
 1.4275183099e+00	 3.0056636159e-01	 3.1541736905e+00
 1.4247660183e+00	 3.1335366468e-01	 3.0976722119e+00
 1.4218914965e+00	 3.2614928630e-01	 3.0387503913e+00
 1.4188941635e+00	 3.3895160312e-01	 2.9771934265e+00
 1.4157734644e+00	 3.5175897314e-01	 2.9127568893e+00
 1.4125288716e+00	 3.6456973614e-01	 2.8451660162e+00
 1.4091598848e+00	 3.7738221422e-01	 2.7741069170e+00
 1.4489083541e+00	 2.5154437192e-01	 3.3645853817e+00
 1.4466203600e+00	 2.6438527895e-01	 3.3163080300e+00
 1.4442117480e+00	 2.7724091989e-01	 3.2660333060e+00
 1.4416818319e+00	 2.9010973813e-01	 3.2136547455e+00
 1.4390299493e+00	 3.0299015648e-01	 3.1590402138e+00
 1.4362554629e+00	 3.1588057756e-01	 3.1020303399e+00
 1.4333577608e+00	 3.2877938425e-01	 3.0424371015e+00
 1.4303362570e+00	 3.4168494014e-01	 2.9800425827e+00
 1.4271903923e+00	 3.5459558997e-01	 2.9145979263e+00
 1.4239196348e+00	 3.6750966014e-01	 2.8458225025e+00
 1.4205234802e+00	 3.8042545923e-01	 2.7733641585e+00
 1.3068875263e+00	 3.4999300912e-01	 2.8775762128e+00
 1.3036472468e+00	 3.6187561687e-01	 2.8174599922e+00
 1.3002907544e+00	 3.7375665673e-01	 2.7561699377e+00
 1.2968176671e+00	 3.8563452737e-01	 2.6938948352e+00
 1.2932276304e+00	 3.9750761316e-01	 2.6306786318e+00
 1.2895203178e+00	 4.0937428472e-01	 2.5664141531e+00
 1.2856954317e+00	 4.2123289945e-01	 2.5009976126e+00
 1.2817527035e+00	 4.3308180219e-01	 2.4343294918e+00
 1.2776918938e+00	 4.4491932576e-01	 2.3663154161e+00
 1.2735127937e+00	 4.5674379163e-01	 2.2968670228e+00
 1.2692152242e+00	 4.6855351052e-01	 2.2259028182e+00
 1.3182511217e+00	 3.5303625413e-01	 2.8580274856e+00
 1.3149826674e+00	 3.6502218305e-01	 2.7970175984e+00
 1.3115969898e+00	 3.7700653044e-01	 2.7349850383e+00
 1.3080937035e+00	 3.8898768106e-01	 2.6721193031e+00
 1.3044724508e+00	 4.0096400523e-01	 2.6083451376e+00
 1.3007329026e+00	 4.1293385939e-01	 2.5435353140e+00
 1.2968747585e+00	 4.2489558667e-01	 2.4775662679e+00
 1.2928977475e+00	 4.3684751750e-01	 2.4103190427e+00
 1.2888016285e+00	 4.4878797023e-01	 2.3416802289e+00
 1.2845861904e+00	 4.6071525171e-01	 2.2715428936e+00
 1.2802512529e+00	 4.7262765800e-01	 2.1998074967e+00
 1.3296147171e+00	 3.5607949914e-01	 2.8403886784e+00
 1.3263180881e+00	 3.6816874923e-01	 2.7782290727e+00
 1.3229032252e+00	 3.8025640416e-01	 2.7152069310e+00
 1.3193697398e+00	 3.9234083476e-01	 2.6514394397e+00
 1.3157172712e+00	 4.0442039730e-01	 2.5867937938e+00
 1.3119454873e+00	 4.1649343406e-01	 2.5211317132e+00
 1.3080540852e+00	 4.2855827388e-01	 2.4543187291e+00
 1.3040427916e+00	 4.4061323282e-01	 2.3862251804e+00
 1.2999113632e+00	 4.5265661470e-01	 2.3167272024e+00
 1.2956595872e+00	 4.6468671180e-01	 2.2457077051e+00
 1.2912872816e+00	 4.7670180547e-01	 2.1730573345e+00
 1.3409783125e+00	 3.5912274415e-01	 2.8247006606e+00
 1.3376535087e+00	 3.7131531541e-01	 2.7611844773e+00
 1.3342094606e+00	 3.8350627788e-01	 2.6969527787e+00
 1.3306457762e+00	 3.9569398845e-01	 2.6320089127e+00
 1.3269620916e+00	 4.0787678937e-01	 2.5662094841e+00
 1.3231580720e+00	 4.2005300873e-01	 2.4994138929e+00
 1.3192334120e+00	 4.3222096110e-01	 2.4314853742e+00
 1.3151878357e+00	 4.4437894813e-01	 2.3622920335e+00
 1.3110210979e+00	 4.5652525917e-01	 2.2917078736e+00
 1.3067329840e+00	 4.6865817188e-01	 2.2196138064e+00
 1.3023233103e+00	 4.8077595294e-01	 2.1458986477e+00
 1.3523419079e+00	 3.6216598916e-01	 2.8110069560e+00
 1.3489889293e+00	 3.7446188159e-01	 2.7459900680e+00
 1.3455156960e+00	 3.8675615159e-01	 2.6803392034e+00
 1.3419218125e+00	 3.9904714215e-01	 2.6139796866e+00
 1.3382069120e+00	 4.1133318144e-01	 2.5467743996e+00
 1.3343706568e+00	 4.2361258340e-01	 2.4785888939e+00
 1.3304127387e+00	 4.3588364832e-01	 2.4092924594e+00
 1.3263328798e+00	 4.4814466345e-01	 2.3387591869e+00
 1.3221308326e+00	 4.6039390364e-01	 2.2668690186e+00
 1.3178063807e+00	 4.7262963197e-01	 2.1935087830e+00
 1.3133593390e+00	 4.8485010042e-01	 2.1185732087e+00
 1.3637055033e+00	 3.6520923418e-01	 2.7993533644e+00
 1.3603243500e+00	 3.7760844778e-01	 2.7327311138e+00
 1.3568219314e+00	 3.9000602531e-01	 2.6654820945e+00
 1.3531978489e+00	 4.0240029585e-01	 2.5975018623e+00
 1.3494517324e+00	 4.1478957351e-01	 2.5286679007e+00
 1.3455832415e+00	 4.2717215807e-01	 2.4588601317e+00
 1.3415920654e+00	 4.3954633553e-01	 2.3879620021e+00
 1.3374779239e+00	 4.5191037876e-01	 2.3158615603e+00
 1.3332405673e+00	 4.6426254811e-01	 2.2424525192e+00
 1.3288797775e+00	 4.7660109205e-01	 2.1676353011e+00
 1.3243953677e+00	 4.8892424789e-01	 2.0913180571e+00
 1.3750690986e+00	 3.6825247919e-01	 2.7897875908e+00
 1.3716597706e+00	 3.8075501396e-01	 2.7214849243e+00
 1.3681281668e+00	 3.9325589903e-01	 2.6524964181e+00
 1.3644738852e+00	 4.0575344954e-01	 2.5827235157e+00
 1.3606965528e+00	 4.1824596558e-01	 2.5120663777e+00
 1.3567958262e+00	 4.3073173274e-01	 2.4404272709e+00
 1.3527713922e+00	 4.4320902275e-01	 2.3677116592e+00
 1.3486229680e+00	 4.5567609408e-01	 2.2938292834e+00
 1.3443503020e+00	 4.6813119258e-01	 2.2186952249e+00
 1.3399531742e+00	 4.8057255214e-01	 2.1422309467e+00
 1.3354313964e+00	 4.9299839536e-01	 2.0643653079e+00
 1.3864326940e+00	 3.7129572420e-01	 2.7823591013e+00
 1.3829951912e+00	 3.8390158014e-01	 2.7123289151e+00
 1.3794344022e+00	 3.9650577274e-01	 2.6414960299e+00
 1.3757499216e+00	 4.0910660324e-01	 2.5697905372e+00
 1.3719413733e+00	 4.2170235765e-01	 2.4971431099e+00
 1.3680084110e+00	 4.3429130741e-01	 2.4234860959e+00
 1.3639507189e+00	 4.4687170997e-01	 2.3487546023e+00
 1.3597680121e+00	 4.5944180939e-01	 2.2728875673e+00
 1.3554600367e+00	 4.7199983705e-01	 2.1958288112e+00
 1.3510265710e+00	 4.8454401223e-01	 2.1175280632e+00
 1.3464674252e+00	 4.9707254284e-01	 2.0379419576e+00
 1.3977962894e+00	 3.7433896921e-01	 2.7771184567e+00
 1.3943306119e+00	 3.8704814632e-01	 2.7053403905e+00
 1.3907406376e+00	 3.9975564646e-01	 2.6325934896e+00
 1.3870259580e+00	 4.1245975693e-01	 2.5588464718e+00
 1.3831861937e+00	 4.2515874972e-01	 2.4840681238e+00
 1.3792209957e+00	 4.3785088208e-01	 2.4082283800e+00
 1.3751300457e+00	 4.5053439718e-01	 2.3312993905e+00
 1.3709130562e+00	 4.6320752471e-01	 2.2532565714e+00
 1.3665697714e+00	 4.7586848152e-01	 2.1740796341e+00
 1.3620999678e+00	 4.8851547231e-01	 2.0937535840e+00
 1.3575034539e+00	 5.0114669031e-01	 2.0122696872e+00
 1.4091598848e+00	 3.7738221422e-01	 2.7741069170e+00
 1.4056660325e+00	 3.9019471250e-01	 2.7005963300e+00
 1.4020468730e+00	 4.0300552018e-01	 2.6258998773e+00
 1.3983019943e+00	 4.1581291063e-01	 2.5500323589e+00
 1.3944310141e+00	 4.2861514179e-01	 2.4730080495e+00
 1.3904335805e+00	 4.4141045675e-01	 2.3948417523e+00
 1.3863093724e+00	 4.5419708440e-01	 2.3155498387e+00
 1.3820581003e+00	 4.6697324002e-01	 2.2351512683e+00
 1.3776795062e+00	 4.7973712599e-01	 2.1536685819e+00
 1.3731733645e+00	 4.9248693240e-01	 2.0711288634e+00
 1.3685394826e+00	 5.0522083779e-01	 1.9875646636e+00
 1.4205234802e+00	 3.8042545923e-01	 2.7733641585e+00
 1.4170014531e+00	 3.9334127868e-01	 2.6981731789e+00
 1.4133531084e+00	 4.0625539389e-01	 2.6215246122e+00
 1.4095780307e+00	 4.1916606432e-01	 2.5434865727e+00
 1.4056758345e+00	 4.3207153386e-01	 2.4641259769e+00
 1.4016461652e+00	 4.4497003142e-01	 2.3835095615e+00
 1.3974886992e+00	 4.5785977162e-01	 2.3017048847e+00
 1.3932031444e+00	 4.7073895534e-01	 2.2187813038e+00
 1.3887892409e+00	 4.8360577045e-01	 2.1348109229e+00
 1.3842467613e+00	 4.9645839248e-01	 2.0498695043e+00
 1.3795755113e+00	 5.0929498526e-01	 1.9640373387e+00
 1.2692152242e+00	 4.6855351052e-01	 2.2259028182e+00
 1.2647982763e+00	 4.8034878649e-01	 2.1535446105e+00
 1.2602625529e+00	 4.9212590034e-01	 2.0800039075e+00
 1.2556079677e+00	 5.0388313316e-01	 2.0053099753e+00
 1.2508344664e+00	 5.1561875792e-01	 1.9295021317e+00
 1.2459420268e+00	 5.2733104031e-01	 1.8526303752e+00
 1.2409306594e+00	 5.3901823934e-01	 1.7747559828e+00
 1.2358004075e+00	 5.5067860820e-01	 1.6959520724e+00
 1.2305513475e+00	 5.6231039489e-01	 1.6163041288e+00
 1.2251835891e+00	 5.7391184309e-01	 1.5359104921e+00
 1.2196972759e+00	 5.8548119287e-01	 1.4548828057e+00
 1.2802512529e+00	 4.7262765800e-01	 2.1998074967e+00
 1.2757958989e+00	 4.8452549576e-01	 2.1265703568e+00
 1.2712207367e+00	 4.9640501350e-01	 2.0520286985e+00
 1.2665256791e+00	 5.0826447733e-01	 1.9762105227e+00
 1.2617106715e+00	 5.2010214523e-01	 1.8991538416e+00
 1.2567756914e+00	 5.3191626777e-01	 1.8209073208e+00
 1.2517207494e+00	 5.4370508887e-01	 1.7415308864e+00
 1.2465458891e+00	 5.5546684648e-01	 1.6610962948e+00
 1.2412511876e+00	 5.6719977342e-01	 1.5796876624e+00
 1.2358367558e+00	 5.7890209806e-01	 1.4974019553e+00
 1.2303027381e+00	 5.9057204517e-01	 1.4143494362e+00
 1.2912872816e+00	 4.7670180547e-01	 2.1730573345e+00
 1.2867935216e+00	 4.8870220504e-01	 2.0988447426e+00
 1.2821789205e+00	 5.0068412666e-01	 2.0232457766e+00
 1.2774433906e+00	 5.1264582150e-01	 1.9462878032e+00
 1.2725868766e+00	 5.2458553253e-01	 1.8680081295e+00
 1.2676093559e+00	 5.3650149523e-01	 1.7884546555e+00
 1.2625108393e+00	 5.4839193839e-01	 1.7076864884e+00
 1.2572913706e+00	 5.6025508477e-01	 1.6257745175e+00
 1.2519510278e+00	 5.7208915194e-01	 1.5428019453e+00
 1.2464899224e+00	 5.8389235303e-01	 1.4588647756e+00
 1.2409082004e+00	 5.9566289748e-01	 1.3740722559e+00
 1.3023233103e+00	 4.8077595294e-01	 2.1458986477e+00
 1.2977911442e+00	 4.9287891432e-01	 2.0706039961e+00
 1.2931371043e+00	 5.0496323982e-01	 1.9938801539e+00
 1.2883611020e+00	 5.1702716568e-01	 1.9157544425e+00
 1.2834630817e+00	 5.2906891983e-01	 1.8362640238e+00
 1.2784430205e+00	 5.4108672270e-01	 1.7554565609e+00
 1.2733009292e+00	 5.5307878791e-01	 1.6733908387e+00
 1.2680368522e+00	 5.6504332306e-01	 1.5901373400e+00
 1.2626508679e+00	 5.7697853047e-01	 1.5057787761e+00
 1.2571430890e+00	 5.8888260800e-01	 1.4204105708e+00
 1.2515136626e+00	 6.0075374979e-01	 1.3341412952e+00
 1.3133593390e+00	 4.8485010042e-01	 2.1185732087e+00
 1.3087887669e+00	 4.9705562360e-01	 2.0420801496e+00
 1.3040952881e+00	 5.0924235298e-01	 1.9641530254e+00
 1.2992788135e+00	 5.2140850985e-01	 1.8848196598e+00
 1.2943392867e+00	 5.3355230713e-01	 1.8041175906e+00
 1.2892766850e+00	 5.4567195016e-01	 1.7220947370e+00
 1.2840910191e+00	 5.5776563743e-01	 1.6388100234e+00
 1.2787823337e+00	 5.6983156135e-01	 1.5543339548e+00
 1.2733507080e+00	 5.8186790900e-01	 1.4687491451e+00
 1.2677962556e+00	 5.9387286297e-01	 1.3821507929e+00
 1.2621191249e+00	 6.0584460210e-01	 1.2946471065e+00
 1.3243953677e+00	 4.8892424789e-01	 2.0913180571e+00
 1.3197863895e+00	 5.0123233288e-01	 2.0135008123e+00
 1.3150534719e+00	 5.1352146615e-01	 1.9342815004e+00
 1.3101965249e+00	 5.2578985403e-01	 1.8536889561e+00
 1.3052154918e+00	 5.3803569443e-01	 1.7717615775e+00
 1.3001103496e+00	 5.5025717763e-01	 1.6885479979e+00
 1.2948811090e+00	 5.6245248696e-01	 1.6041077108e+00
 1.2895278153e+00	 5.7461979964e-01	 1.5185116430e+00
 1.2840505482e+00	 5.8675728753e-01	 1.4318426761e+00
 1.2784494222e+00	 5.9886311794e-01	 1.3441961134e+00
 1.2727245871e+00	 6.1093545442e-01	 1.2556800910e+00
 1.3354313964e+00	 4.9299839536e-01	 2.0643653079e+00
 1.3307840122e+00	 5.0540904216e-01	 1.9850889404e+00
 1.3260116557e+00	 5.1780057931e-01	 1.9044783334e+00
 1.3211142364e+00	 5.3017119820e-01	 1.8225638039e+00
 1.3160916969e+00	 5.4251908174e-01	 1.7393850591e+00
 1.3109440141e+00	 5.5484240509e-01	 1.6549918720e+00
 1.3056711989e+00	 5.6713933648e-01	 1.5694447045e+00
 1.3002732968e+00	 5.7940803793e-01	 1.4828152760e+00
 1.2947503883e+00	 5.9164666606e-01	 1.3951870762e+00
 1.2891025889e+00	 6.0385337291e-01	 1.3066558192e+00
 1.2833300494e+00	 6.1602630673e-01	 1.2173298385e+00
 1.3464674252e+00	 4.9707254284e-01	 2.0379419576e+00
 1.3417816348e+00	 5.0958575143e-01	 1.9570626067e+00
 1.3369698395e+00	 5.2207969247e-01	 1.8749516553e+00
 1.3320319478e+00	 5.3455254238e-01	 1.7916413375e+00
 1.3269679020e+00	 5.4700246904e-01	 1.7071730856e+00
 1.3217776787e+00	 5.5942763256e-01	 1.6215982065e+00
 1.3164612888e+00	 5.7182618601e-01	 1.5349785010e+00
 1.3110187784e+00	 5.8419627622e-01	 1.4473868262e+00
 1.3054502284e+00	 5.9653604459e-01	 1.3589075960e+00
 1.2997557555e+00	 6.0884362788e-01	 1.2696372203e+00
 1.2939355116e+00	 6.2111715904e-01	 1.1796844805e+00
 1.3575034539e+00	 5.0114669031e-01	 2.0122696872e+00
 1.3527792574e+00	 5.1376246071e-01	 1.9296347685e+00
 1.3479280233e+00	 5.2635880563e-01	 1.8459047038e+00
 1.3429496593e+00	 5.3893388655e-01	 1.7611140451e+00
 1.3378441071e+00	 5.5148585634e-01	 1.6753063338e+00
 1.3326113432e+00	 5.6401286003e-01	 1.5885347752e+00
 1.3272513787e+00	 5.7651303553e-01	 1.5008628534e+00
 1.3217642599e+00	 5.8898451451e-01	 1.4123648833e+00
 1.3161500686e+00	 6.0142542312e-01	 1.3231264976e+00
 1.3104089221e+00	 6.1383388285e-01	 1.2332450674e+00
 1.3045409739e+00	 6.2620801135e-01	 1.1428300552e+00
 1.3685394826e+00	 5.0522083779e-01	 1.9875646636e+00
 1.3637768801e+00	 5.1793916999e-01	 1.9030130345e+00
 1.3588862071e+00	 5.3063791879e-01	 1.8175355546e+00
 1.3538673707e+00	 5.4331523073e-01	 1.7311694617e+00
 1.3487203122e+00	 5.5596924365e-01	 1.6439607599e+00
 1.3434450077e+00	 5.6859808749e-01	 1.5559648905e+00
 1.3380414686e+00	 5.8119988506e-01	 1.4672473395e+00
 1.3325097415e+00	 5.9377275280e-01	 1.3778841777e+00
 1.3268499087e+00	 6.0631480165e-01	 1.2879625307e+00
 1.3210620887e+00	 6.1882413782e-01	 1.1975809789e+00
 1.3151464361e+00	 6.3129886366e-01	 1.1068498844e+00
 1.3795755113e+00	 5.0929498526e-01	 1.9640373387e+00
 1.3747745027e+00	 5.2211587927e-01	 1.8773994306e+00
 1.3698443909e+00	 5.3491703195e-01	 1.7900368516e+00
 1.3647850821e+00	 5.4769657490e-01	 1.7019898627e+00
 1.3595965173e+00	 5.6045263095e-01	 1.6133072555e+00
 1.3542786723e+00	 5.7318331496e-01	 1.5240470185e+00
 1.3488315585e+00	 5.8588673458e-01	 1.4342769354e+00
 1.3432552230e+00	 5.9856099109e-01	 1.3440751098e+00
 1.3375497489e+00	 6.1120418018e-01	 1.2535304167e+00
 1.3317152553e+00	 6.2381439279e-01	 1.1627428780e+00
 1.3257518984e+00	 6.3638971597e-01	 1.0718239604e+00
 1.2196972759e+00	 5.8548119287e-01	 1.4548828057e+00
 1.2140935476e+00	 5.9701472353e-01	 1.3732107992e+00
 1.2083716922e+00	 6.0851264004e-01	 1.2909290344e+00
 1.2025319543e+00	 6.1997317670e-01	 1.2082819987e+00
 1.1965746128e+00	 6.3139456735e-01	 1.1255328493e+00
 1.1904999810e+00	 6.4277504624e-01	 1.0429635350e+00
 1.1843084068e+00	 6.5411284883e-01	 9.6087486867e-01
 1.1780002729e+00	 6.6540621264e-01	 8.7958655542e-01
 1.1715759967e+00	 6.7665337806e-01	 7.9943717680e-01
 1.1650360302e+00	 6.8785258920e-01	 7.2078413257e-01
 1.1583808602e+00	 6.9900209477e-01	 6.4400354307e-01
 1.2303027381e+00	 5.9057204517e-01	 1.4143494362e+00
 1.2246502845e+00	 6.0220586172e-01	 1.3305606334e+00
 1.2188786767e+00	 6.1380375445e-01	 1.2461333768e+00
 1.2129881613e+00	 6.2536394230e-01	 1.1613448867e+00
 1.2069790198e+00	 6.3688464376e-01	 1.0764901340e+00
 1.2008515681e+00	 6.4836407773e-01	 9.9188188539e-01
 1.1946061572e+00	 6.5980046433e-01	 9.0785070101e-01
 1.1882431731e+00	 6.7119202574e-01	 8.2474488442e-01
 1.1817630367e+00	 6.8253698705e-01	 7.4293038761e-01
 1.1751662042e+00	 6.9383357712e-01	 6.6279067314e-01
 1.1684531665e+00	 7.0508002942e-01	 5.8472653604e-01
 1.2409082004e+00	 5.9566289748e-01	 1.3740722559e+00
 1.2352070214e+00	 6.0739699992e-01	 1.2884834020e+00
 1.2293856612e+00	 6.1909486887e-01	 1.2022380789e+00
 1.2234443684e+00	 6.3075470791e-01	 1.1156331444e+00
 1.2173834268e+00	 6.4237472018e-01	 1.0289824480e+00
 1.2112031552e+00	 6.5395310923e-01	 9.4261681954e-01
 1.2049039076e+00	 6.6548807983e-01	 8.5688400638e-01
 1.1984860733e+00	 6.7697783883e-01	 7.7214856243e-01
 1.1919500768e+00	 6.8842059604e-01	 6.8879169029e-01
 1.1852963782e+00	 6.9981456504e-01	 6.0721103951e-01
 1.1785254727e+00	 7.1115796407e-01	 5.2782046375e-01
 1.2515136626e+00	 6.0075374979e-01	 1.3341412952e+00
 1.2457637584e+00	 6.1258813812e-01	 1.2470494169e+00
 1.2398926457e+00	 6.2438598328e-01	 1.1592991095e+00
 1.2339005754e+00	 6.3614547352e-01	 1.0711941020e+00
 1.2277878338e+00	 6.4786479660e-01	 9.8305451716e-01
 1.2215547423e+00	 6.5954214073e-01	 8.9521681914e-01
 1.2152016580e+00	 6.7117569533e-01	 8.0803370734e-01
 1.2087289734e+00	 6.8276365193e-01	 7.2187396009e-01
 1.2021371169e+00	 6.9430420504e-01	 6.3712222989e-01
 1.1954265522e+00	 7.0579555296e-01	 5.5417879319e-01
 1.1885977790e+00	 7.1723589872e-01	 4.7345925816e-01
 1.2621191249e+00	 6.0584460210e-01	 1.2946471065e+00
 1.2563204953e+00	 6.1777927631e-01	 1.2063301365e+00
 1.2503996302e+00	 6.2967709770e-01	 1.1173740285e+00
 1.2443567825e+00	 6.4153623913e-01	 1.0280769364e+00
 1.2381922408e+00	 6.5335487302e-01	 9.3875296998e-01
 1.2319063294e+00	 6.6513117223e-01	 8.4973211633e-01
 1.2254994084e+00	 6.7686331083e-01	 7.6136010712e-01
 1.2189718736e+00	 6.8854946503e-01	 6.7399823220e-01
 1.2123241569e+00	 7.0018781403e-01	 5.8802310333e-01
 1.2055567262e+00	 7.1177654088e-01	 5.0382637078e-01
 1.1986700852e+00	 7.2331383337e-01	 4.2181439653e-01
 1.2727245871e+00	 6.1093545442e-01	 1.2556800910e+00
 1.2668772323e+00	 6.2297041451e-01	 1.1663974367e+00
 1.2609066147e+00	 6.3496821211e-01	 1.0765212088e+00
 1.2548129895e+00	 6.4692700473e-01	 9.8633185176e-01
 1.2485966478e+00	 6.5884494945e-01	 8.9612548530e-01
 1.2422579165e+00	 6.7072020373e-01	 8.0621381718e-01
 1.2357971588e+00	 6.8255092633e-01	 7.1692399797e-01
 1.2292147738e+00	 6.9433527813e-01	 6.2859842045e-01
 1.2225111970e+00	 7.0607142303e-01	 5.4159446678e-01
 1.2156869002e+00	 7.1775752880e-01	 4.5628420656e-01
 1.2087423915e+00	 7.2939176802e-01	 3.7305404997e-01
 1.2833300494e+00	 6.1602630673e-01	 1.2173298385e+00
 1.2774339692e+00	 6.2816155271e-01	 1.1273228961e+00
 1.2714135992e+00	 6.4025932653e-01	 1.0367990750e+00
 1.2652691966e+00	 6.5231777034e-01	 9.4600927774e-01
 1.2590010548e+00	 6.6433502587e-01	 8.5521995902e-01
 1.2526095037e+00	 6.7630923523e-01	 7.6471304452e-01
 1.2460949092e+00	 6.8823854183e-01	 6.7478578878e-01
 1.2394576739e+00	 7.0012109123e-01	 5.8575057512e-01
 1.2326982370e+00	 7.1195503202e-01	 4.9793466078e-01
 1.2258170742e+00	 7.2373851672e-01	 4.1167987097e-01
 1.2188146977e+00	 7.3546970266e-01	 3.2734224591e-01
 1.2939355116e+00	 6.2111715904e-01	 1.1796844805e+00
 1.2879907061e+00	 6.3335269091e-01	 1.0891770970e+00
 1.2819205837e+00	 6.4555044095e-01	 9.9826535821e-01
 1.2757254036e+00	 6.5770853595e-01	 9.0715908622e-01
 1.2694054618e+00	 6.6982510229e-01	 8.1608368888e-01
 1.2629610908e+00	 6.8189826673e-01	 7.2528009919e-01
 1.2563926596e+00	 6.9392615733e-01	 6.3500465107e-01
 1.2497005741e+00	 7.0590690433e-01	 5.4552889431e-01
 1.2428852771e+00	 7.1783864102e-01	 4.5713935202e-01
 1.2359472482e+00	 7.2971950465e-01	 3.7013722447e-01
 1.2288870039e+00	 7.4154763731e-01	 2.8484259178e-01
 1.3045409739e+00	 6.2620801135e-01	 1.1428300552e+00
 1.2985474431e+00	 6.3854382911e-01	 1.0520289402e+00
 1.2924275682e+00	 6.5084155536e-01	 9.6097636633e-01
 1.2861816107e+00	 6.6309930156e-01	 8.6982982351e-01
 1.2798098689e+00	 6.7531517871e-01	 7.7876257625e-01
 1.2733126779e+00	 6.8748729823e-01	 6.8796363856e-01
 1.2666904100e+00	 6.9961377283e-01	 5.9763768207e-01
 1.2599434743e+00	 7.1169271742e-01	 5.0800488001e-01
 1.2530723172e+00	 7.2372225001e-01	 4.1930069083e-01
 1.2460774222e+00	 7.3570049257e-01	 3.3177558549e-01
 1.2389593102e+00	 7.4762557196e-01	 2.4596459430e-01
 1.3151464361e+00	 6.3129886366e-01	 1.1068498844e+00
 1.3091041800e+00	 6.4373496731e-01	 1.0159449722e+00
 1.3029345527e+00	 6.5613266978e-01	 9.2498626868e-01
 1.2966378177e+00	 6.6849006717e-01	 8.3406795831e-01
 1.2902142759e+00	 6.8080525513e-01	 7.4330034393e-01
 1.2836642650e+00	 6.9307632972e-01	 6.5280987144e-01
 1.2769881604e+00	 7.0530138833e-01	 5.6273908417e-01
 1.2701863744e+00	 7.1747853052e-01	 4.7324650980e-01
 1.2632593572e+00	 7.2960585901e-01	 3.8450648355e-01
 1.2562075962e+00	 7.4168148049e-01	 2.9671302923e-01
 1.2490316164e+00	 7.5370350661e-01	 2.1087462266e-01
 1.3257518984e+00	 6.3638971597e-01	 1.0718239604e+00
 1.3196609170e+00	 6.4892610551e-01	 9.8098872541e-01
 1.3134415372e+00	 6.6142378419e-01	 8.9034639412e-01
 1.3070940247e+00	 6.7388083278e-01	 7.9991714409e-01
 1.3006186829e+00	 6.8629533155e-01	 7.0973776921e-01
 1.2940158521e+00	 6.9866536122e-01	 6.1986176835e-01
 1.2872859108e+00	 7.1098900383e-01	 5.3035935963e-01
 1.2804292746e+00	 7.2326434362e-01	 4.4131742353e-01
 1.2734463973e+00	 7.3548946800e-01	 3.5283937888e-01
 1.2663377702e+00	 7.4766246841e-01	 2.6521545376e-01
 1.2591039227e+00	 7.5978144126e-01	 1.7953108948e-01
 1.1583808602e+00	 6.9900209477e-01	 6.4400354307e-01
 1.1516110089e+00	 7.1010014910e-01	 5.6681737695e-01
 1.1447270338e+00	 7.2114501370e-01	 4.8678677997e-01
 1.1377295278e+00	 7.3213495746e-01	 4.0406723292e-01
 1.1306191181e+00	 7.4306825728e-01	 3.1889782103e-01
 1.1233964664e+00	 7.5394319896e-01	 2.3364997504e-01
 1.1160622688e+00	 7.6475807800e-01	 1.4970221632e-01
 1.1086172555e+00	 7.7551120049e-01	 6.7515031971e-02
 1.1010621907e+00	 7.8620088393e-01	-1.2120985930e-02
 1.0933978723e+00	 7.9682545809e-01	-8.9134033165e-02
 1.0856251317e+00	 8.0738326584e-01	-1.6368841739e-01
 1.1684531665e+00	 7.0508002942e-01	 5.8472653604e-01
 1.1616244502e+00	 7.1627458310e-01	 5.0637126325e-01
 1.1546806178e+00	 7.2741548456e-01	 4.2515530682e-01
 1.1476222674e+00	 7.3850098762e-01	 3.4119598533e-01
 1.1404500315e+00	 7.4952935424e-01	 2.5561479783e-01
 1.1331645778e+00	 7.6049885527e-01	 1.7074187745e-01
 1.1257666082e+00	 7.7140777141e-01	 8.7047625220e-02
 1.1182568593e+00	 7.8225439401e-01	 4.9402454938e-03
 1.1106361020e+00	 7.9303702595e-01	-7.5176727043e-02
 1.1029051411e+00	 8.0375398247e-01	-1.5273084318e-01
 1.0950648153e+00	 8.1440359205e-01	-2.2759882122e-01
 1.1785254727e+00	 7.1115796407e-01	 5.2782046375e-01
 1.1716378915e+00	 7.2244901710e-01	 4.4819505191e-01
 1.1646342019e+00	 7.3368595541e-01	 3.6568132193e-01
 1.1575150070e+00	 7.4486701780e-01	 2.8057282190e-01
 1.1502809450e+00	 7.5599045119e-01	 1.9519563879e-01
 1.1429326891e+00	 7.6705451157e-01	 1.1050804650e-01
 1.1354709475e+00	 7.7805746481e-01	 2.6919829954e-02
 1.1278964631e+00	 7.8899758753e-01	-5.5159278944e-02
 1.1202100133e+00	 7.9987316797e-01	-1.3532317596e-01
 1.1124124099e+00	 8.1068250686e-01	-2.1317311729e-01
 1.1045044989e+00	 8.2142391826e-01	-2.8830119968e-01
 1.1885977790e+00	 7.1723589872e-01	 4.7345925816e-01
 1.1816513328e+00	 7.2862345110e-01	 3.9250484766e-01
 1.1745877859e+00	 7.3995642627e-01	 3.0861833222e-01
 1.1674077466e+00	 7.5123304797e-01	 2.2309131288e-01
 1.1601118585e+00	 7.6245154815e-01	 1.3777581246e-01
 1.1527008005e+00	 7.7361016788e-01	 5.3094244679e-02
 1.1451752869e+00	 7.8470715822e-01	-3.0531413166e-02
 1.1375360668e+00	 7.9574078105e-01	-1.1267725488e-01
 1.1297839245e+00	 8.0670930999e-01	-1.9292117523e-01
 1.1219196787e+00	 8.1761103125e-01	-2.7084677174e-01
 1.1139441824e+00	 8.2844424446e-01	-3.4604740099e-01
 1.1986700852e+00	 7.2331383337e-01	 4.2181439653e-01
 1.1916647741e+00	 7.3479788510e-01	 3.3951292629e-01
 1.1845413700e+00	 7.4622689713e-01	 2.5451150104e-01
 1.1773004862e+00	 7.5759907814e-01	 1.6891467221e-01
 1.1699427719e+00	 7.6891264510e-01	 8.3474164179e-02
 1.1624689118e+00	 7.8016582419e-01	-1.3708473605e-03
 1.1548796262e+00	 7.9135685162e-01	-8.5173704199e-02
 1.1471756706e+00	 8.0248397457e-01	-1.6748397237e-01
 1.1393578358e+00	 8.1354545201e-01	-2.4785135138e-01
 1.1314269475e+00	 8.2453955563e-01	-3.2582976952e-01
 1.1233838660e+00	 8.3546457067e-01	-4.0098164735e-01
 1.2087423915e+00	 7.2939176802e-01	 3.7305404997e-01
 1.2016782154e+00	 7.4097231910e-01	 2.8942750807e-01
 1.1944949540e+00	 7.5249736799e-01	 2.0396246926e-01
 1.1871932259e+00	 7.6396510831e-01	 1.1813082036e-01
 1.1797736854e+00	 7.7537374206e-01	 3.2393656052e-02
 1.1722370232e+00	 7.8672148050e-01	-5.2774877095e-02
 1.1645839655e+00	 7.9800654502e-01	-1.3689124212e-01
 1.1568152744e+00	 8.0922716808e-01	-2.1946640624e-01
 1.1489317471e+00	 8.2038159403e-01	-3.0000995344e-01
 1.1409342163e+00	 8.3146808002e-01	-3.7803439789e-01
 1.1328235496e+00	 8.4248489688e-01	-4.5305967948e-01
 1.2188146977e+00	 7.3546970266e-01	 3.2734224591e-01
 1.2116916567e+00	 7.4714675310e-01	 2.4276921271e-01
 1.2044485381e+00	 7.5876783885e-01	 1.5703085100e-01
 1.1970859655e+00	 7.7033113848e-01	 7.0813127704e-02
 1.1896045989e+00	 7.8183483901e-01	-1.5377886035e-02
 1.1820051346e+00	 7.9327713680e-01	-1.0102106011e-01
 1.1742883049e+00	 8.0465623843e-01	-1.8558406128e-01
 1.1664548782e+00	 8.1597036160e-01	-2.6852745897e-01
 1.1585056584e+00	 8.2721773605e-01	-3.4930906496e-01
 1.1504414851e+00	 8.3839660441e-01	-4.2738848944e-01
 1.1422632332e+00	 8.4950522309e-01	-5.0223189356e-01
 1.2288870039e+00	 7.4154763731e-01	 2.8484259178e-01
 1.2217050980e+00	 7.5332118710e-01	 1.9987840213e-01
 1.2144021221e+00	 7.6503830971e-01	 1.1375723623e-01
 1.2069787051e+00	 7.7669716865e-01	 2.7021147293e-02
 1.1994355124e+00	 7.8829593597e-01	-5.9767018679e-02
 1.1917732459e+00	 7.9983279311e-01	-1.4602741403e-01
 1.1839926442e+00	 8.1130593184e-01	-2.3116726222e-01
 1.1760944819e+00	 8.2271355512e-01	-3.1458519780e-01
 1.1680795697e+00	 8.3405387807e-01	-3.9567585723e-01
 1.1599487539e+00	 8.4532512879e-01	-4.7383470183e-01
 1.1517029168e+00	 8.5652554929e-01	-5.4846305233e-01
 1.2389593102e+00	 7.4762557196e-01	 2.4596459430e-01
 1.2317185393e+00	 7.5949562110e-01	 1.6076030444e-01
 1.2243557062e+00	 7.7130878057e-01	 7.4169810596e-02
 1.2168714447e+00	 7.8306319882e-01	-1.3198645122e-02
 1.2092664258e+00	 7.9475703293e-01	-1.0071392092e-01
 1.2015413573e+00	 8.0638844942e-01	-1.8772598689e-01
 1.1936969836e+00	 8.1795562524e-01	-2.7357023695e-01
 1.1857340857e+00	 8.2945674864e-01	-3.5757208620e-01
 1.1776534809e+00	 8.4089002009e-01	-4.3905183645e-01
 1.1694560227e+00	 8.5225365318e-01	-5.1732979045e-01
 1.1611426004e+00	 8.6354587550e-01	-5.9173159338e-01
 1.2490316164e+00	 7.5370350661e-01	 2.1087462266e-01
 1.2417319806e+00	 7.6567005510e-01	 1.2540922130e-01
 1.2343092902e+00	 7.7757925143e-01	 3.8285075762e-02
 1.2267641843e+00	 7.8942922900e-01	-4.9812104090e-02
 1.2190973393e+00	 8.0121812988e-01	-1.3817162825e-01
 1.2113094687e+00	 8.1294410573e-01	-2.2606208001e-01
 1.2034013229e+00	 8.2460531865e-01	-3.1273588927e-01
 1.1953736895e+00	 8.3619994216e-01	-3.9743421020e-01
 1.1872273922e+00	 8.4772616212e-01	-4.7939208508e-01
 1.1789632915e+00	 8.5918217757e-01	-5.5784387422e-01
 1.1705822840e+00	 8.7056620171e-01	-6.3202892927e-01
 1.2591039227e+00	 7.5978144126e-01	 1.7953108948e-01
 1.2517454219e+00	 7.7184448910e-01	 9.3809223786e-02
 1.2442628743e+00	 7.8384972228e-01	 6.1085775416e-03
 1.2366569239e+00	 7.9579525917e-01	-8.2796660945e-02
 1.2289282528e+00	 8.0767922684e-01	-1.7210526098e-01
 1.2210775800e+00	 8.1949976204e-01	-2.6099346598e-01
 1.2131056623e+00	 8.3125501205e-01	-3.4861985024e-01
 1.2050132932e+00	 8.4294313568e-01	-4.3413049969e-01
 1.1968013035e+00	 8.5456230414e-01	-5.1666449778e-01
 1.1884705604e+00	 8.6611070196e-01	-5.9535969520e-01
 1.1800219676e+00	 8.7758652792e-01	-6.6935874000e-01
 1.0856251317e+00	 8.0738326584e-01	-1.6368841739e-01
 1.0777434855e+00	 8.1787444040e-01	-2.3703756598e-01
 1.0697551478e+00	 8.2829554687e-01	-3.1014218205e-01
 1.0616610539e+00	 8.3864496559e-01	-3.8281751132e-01
 1.0534621714e+00	 8.4892109329e-01	-4.5491531654e-01
 1.0451594998e+00	 8.5912234387e-01	-5.2632285590e-01
 1.0367540705e+00	 8.6924714925e-01	-5.9696169464e-01
 1.0282469459e+00	 8.7929396011e-01	-6.6678635683e-01
 1.0196392191e+00	 8.8926124670e-01	-7.3578282530e-01
 1.0109320136e+00	 8.9914749959e-01	-8.0396689848e-01
 1.0021264829e+00	 9.0895123043e-01	-8.7138241369e-01
 1.0950648153e+00	 8.1440359205e-01	-2.2759882122e-01
 1.0871146369e+00	 8.2498598904e-01	-3.0116193449e-01
 1.0790568394e+00	 8.3549770870e-01	-3.7448318698e-01
 1.0708923660e+00	 8.4593711726e-01	-4.4735852197e-01
 1.0626221929e+00	 8.5630259753e-01	-5.1962322357e-01
 1.0542473283e+00	 8.6659254961e-01	-5.9115086109e-01
 1.0457688124e+00	 8.7680539178e-01	-6.6185205632e-01
 1.0371877170e+00	 8.8693956127e-01	-7.3167308135e-01
 1.0285051446e+00	 8.9699351500e-01	-8.0059429514e-01
 1.0197222286e+00	 9.0696573044e-01	-8.6862842795e-01
 1.0108401324e+00	 9.1685470628e-01	-9.3581872371e-01
 1.1045044989e+00	 8.2142391826e-01	-2.8830119968e-01
 1.0964857883e+00	 8.3209753769e-01	-3.6194843347e-01
 1.0883585309e+00	 8.4269987052e-01	-4.3531970127e-01
 1.0801236781e+00	 8.5322926893e-01	-5.0820505503e-01
 1.0717822144e+00	 8.6368410177e-01	-5.8043667988e-01
 1.0633351568e+00	 8.7406275535e-01	-6.5188778255e-01
 1.0547835544e+00	 8.8436363432e-01	-7.2247129237e-01
 1.0461284881e+00	 8.9458516242e-01	-7.9213838279e-01
 1.0373710702e+00	 9.0472578331e-01	-8.6087682210e-01
 1.0285124437e+00	 9.1478396129e-01	-9.2870916287e-01
 1.0195537819e+00	 9.2475818214e-01	-9.9569078076e-01
 1.1139441824e+00	 8.2844424446e-01	-3.4604740099e-01
 1.1058569397e+00	 8.3920908633e-01	-4.1967596994e-01
 1.0976602225e+00	 8.4990203235e-01	-4.9295240674e-01
 1.0893549902e+00	 8.6052142060e-01	-5.6567530280e-01
 1.0809422359e+00	 8.7106560600e-01	-6.3768681678e-01
 1.0724229852e+00	 8.8153296109e-01	-7.0887281743e-01
 1.0637982963e+00	 8.9192187685e-01	-7.7916149640e-01
 1.0550692592e+00	 9.0223076358e-01	-8.4852179127e-01
 1.0462369957e+00	 9.1245805161e-01	-9.1696162804e-01
 1.0373026587e+00	 9.2260219214e-01	-9.8452599309e-01
 1.0282674314e+00	 9.3266165799e-01	-1.0512948459e+00
 1.1233838660e+00	 8.3546457067e-01	-4.0098164735e-01
 1.1152280912e+00	 8.4632063497e-01	-4.7458849152e-01
 1.1069619140e+00	 8.5710419417e-01	-5.4768621048e-01
 1.0985863023e+00	 8.6781357228e-01	-6.2009086896e-01
 1.0901022574e+00	 8.7844711024e-01	-6.9170747412e-01
 1.0815108137e+00	 8.8900316682e-01	-7.6244729121e-01
 1.0728130382e+00	 8.9948011939e-01	-8.3226644433e-01
 1.0640100303e+00	 9.0987636474e-01	-9.0116421892e-01
 1.0551029213e+00	 9.2019031992e-01	-9.6918117374e-01
 1.0460928737e+00	 9.3042042299e-01	-1.0363970730e+00
 1.0369810810e+00	 9.4056513384e-01	-1.1029286502e+00
 1.1328235496e+00	 8.4248489688e-01	-4.5305967948e-01
 1.1245992426e+00	 8.5343218361e-01	-5.2655425096e-01
 1.1162636056e+00	 8.6430635600e-01	-5.9971074633e-01
 1.1078176144e+00	 8.7510572395e-01	-6.7177729619e-01
 1.0992622790e+00	 8.8582861448e-01	-7.4283574532e-01
 1.0905986422e+00	 8.9647337256e-01	-8.1295521386e-01
 1.0818277801e+00	 9.0703836193e-01	-8.8213215499e-01
 1.0729508014e+00	 9.1752196590e-01	-9.5040851779e-01
 1.0639688469e+00	 9.2792258822e-01	-1.0178697066e+00
 1.0548830887e+00	 9.3823865384e-01	-1.0846423508e+00
 1.0456947305e+00	 9.4846860969e-01	-1.1508918978e+00
 1.1422632332e+00	 8.4950522309e-01	-5.0223189356e-01
 1.1339703940e+00	 8.6054373226e-01	-5.7550047313e-01
 1.1255652971e+00	 8.7150851782e-01	-6.4863121069e-01
 1.1170489266e+00	 8.8239787562e-01	-7.2083107947e-01
 1.1084223005e+00	 8.9321011872e-01	-7.9141250687e-01
 1.0996864706e+00	 9.0394357830e-01	-8.6074381968e-01
 1.0908425220e+00	 9.1459660446e-01	-9.2910743388e-01
 1.0818915726e+00	 9.2516756706e-01	-9.9660002079e-01
 1.0728347724e+00	 9.3565485652e-01	-1.0633637915e+00
 1.0636733037e+00	 9.4605688469e-01	-1.1295840820e+00
 1.0544083800e+00	 9.5637208554e-01	-1.1954867530e+00
 1.1517029168e+00	 8.5652554929e-01	-5.4846305233e-01
 1.1433415454e+00	 8.6765528090e-01	-6.2141605636e-01
 1.1348669887e+00	 8.7871067965e-01	-6.9439078280e-01
 1.1262802387e+00	 8.8969002729e-01	-7.6662876420e-01
 1.1175823220e+00	 9.0059162296e-01	-8.3742007919e-01
 1.1087742991e+00	 9.1141378404e-01	-9.0616409173e-01
 1.0998572640e+00	 9.2215484700e-01	-9.7354440117e-01
 1.0908323437e+00	 9.3281316821e-01	-1.0400870666e+00
 1.0817006980e+00	 9.4338712483e-01	-1.1060028258e+00
 1.0724635188e+00	 9.5387511554e-01	-1.1715473273e+00
 1.0631220296e+00	 9.6427556140e-01	-1.2370183141e+00
 1.1611426004e+00	 8.6354587550e-01	-5.9173159338e-01
 1.1527126968e+00	 8.7476682954e-01	-6.6430311211e-01
 1.1441686802e+00	 8.8591284147e-01	-7.3701242753e-01
 1.1355115508e+00	 8.9698217896e-01	-8.0914606074e-01
 1.1267423435e+00	 9.0797312720e-01	-8.8004008455e-01
 1.1178621276e+00	 9.1888398978e-01	-9.4908645254e-01
 1.1088720059e+00	 9.2971308953e-01	-1.0157990046e+00
 1.0997731148e+00	 9.4045876937e-01	-1.0812215098e+00
 1.0905666235e+00	 9.5111939313e-01	-1.1461295400e+00
 1.0812537338e+00	 9.6169334639e-01	-1.2108604363e+00
 1.0718356791e+00	 9.7217903725e-01	-1.2757950734e+00
 1.1705822840e+00	 8.7056620171e-01	-6.3202892927e-01
 1.1620838483e+00	 8.8187837819e-01	-7.0417630323e-01
 1.1534703717e+00	 8.9311500330e-01	-7.7653135478e-01
 1.1447428629e+00	 9.0427433063e-01	-8.4843570513e-01
 1.1359023650e+00	 9.1535463144e-01	-9.1928139465e-01
 1.1269499560e+00	 9.2635419552e-01	-9.8851740723e-01
 1.1178867478e+00	 9.3727133207e-01	-1.0556562295e+00
 1.1087138859e+00	 9.4810437053e-01	-1.1203592161e+00
 1.0994325491e+00	 9.5885166144e-01	-1.1840904834e+00
 1.0900439488e+00	 9.6951157724e-01	-1.2478555177e+00
 1.0805493286e+00	 9.8008251310e-01	-1.3121293639e+00
 1.1800219676e+00	 8.7758652792e-01	-6.6935874000e-01
 1.1714549997e+00	 8.8898992683e-01	-7.4106217293e-01
 1.1627720633e+00	 9.0031716513e-01	-8.1299438264e-01
 1.1539741750e+00	 9.1156648230e-01	-8.8456189121e-01
 1.1450623866e+00	 9.2273613568e-01	-9.5522236690e-01
 1.1360377845e+00	 9.3382440126e-01	-1.0244913392e+00
 1.1269014897e+00	 9.4482957461e-01	-1.0919489570e+00
 1.1176546570e+00	 9.5574997169e-01	-1.1572467520e+00
 1.1082984747e+00	 9.6658392974e-01	-1.2202364977e+00
 1.0988341638e+00	 9.7732980809e-01	-1.2828688971e+00
 1.0892629781e+00	 9.8798598895e-01	-1.3463377953e+00
 1.0021264829e+00	 9.0895123043e-01	-8.7138241369e-01
 9.9322532831e-01	 9.1866933037e-01	-9.3676182007e-01
 9.8422825913e-01	 9.2830204285e-01	-9.9905349594e-01
 9.7513649857e-01	 9.3784796369e-01	-1.0586195199e+00
 9.6595129754e-01	 9.4730571264e-01	-1.1158314479e+00
 9.5667393406e-01	 9.5667393406e-01	-1.1710677118e+00
 9.4730571264e-01	 9.6595129754e-01	-1.2247109684e+00
 9.3784796369e-01	 9.7513649857e-01	-1.2771454163e+00
 9.2830204285e-01	 9.8422825913e-01	-1.3287540904e+00
 9.1866933037e-01	 9.9322532831e-01	-1.3799161521e+00
 9.0895123043e-01	 1.0021264829e+00	-1.4310041853e+00
 1.0108401324e+00	 9.1685470628e-01	-9.3581872371e-01
 1.0018615809e+00	 9.2665730665e-01	-1.0007762460e+00
 9.9278628075e-01	 9.3637377710e-01	-1.0623586351e+00
 9.8361546588e-01	 9.4600270124e-01	-1.1209761772e+00
 9.7435039806e-01	 9.5554268683e-01	-1.1770496847e+00
 9.6499236643e-01	 9.6499236643e-01	-1.2310077144e+00
 9.5554268683e-01	 9.7435039806e-01	-1.2832837346e+00
 9.4600270124e-01	 9.8361546588e-01	-1.3343132555e+00
 9.3637377710e-01	 9.9278628075e-01	-1.3845309367e+00
 9.2665730665e-01	 1.0018615809e+00	-1.4343676876e+00
 9.1685470628e-01	 1.0108401324e+00	-1.4842477756e+00
 1.0195537819e+00	 9.2475818214e-01	-9.9569078076e-01
 1.0104978334e+00	 9.3464528293e-01	-1.0603102430e+00
 1.0013443024e+00	 9.4444551135e-01	-1.1213168152e+00
 9.9209443319e-01	 9.5415743879e-01	-1.1791567419e+00
 9.8274949858e-01	 9.6377966102e-01	-1.2342878253e+00
 9.7331079879e-01	 9.7331079879e-01	-1.2871764766e+00
 9.6377966102e-01	 9.8274949858e-01	-1.3382947119e+00
 9.5415743879e-01	 9.9209443319e-01	-1.3881171082e+00
 9.4444551135e-01	 1.0013443024e+00	-1.4371177357e+00
 9.3464528293e-01	 1.0104978334e+00	-1.4857670808e+00
 9.2475818214e-01	 1.0195537819e+00	-1.5345289766e+00
 1.0282674314e+00	 9.3266165799e-01	-1.0512948459e+00
 1.0191340860e+00	 9.4263325921e-01	-1.1156352257e+00
 1.0099023240e+00	 9.5251724560e-01	-1.1761728809e+00
 1.0005734005e+00	 9.6231217635e-01	-1.2333781320e+00
 9.9114859911e-01	 9.7201663521e-01	-1.2877338753e+00
 9.8162923116e-01	 9.8162923116e-01	-1.3397324769e+00
 9.7201663521e-01	 9.9114859911e-01	-1.3898726098e+00
 9.6231217635e-01	 1.0005734005e+00	-1.4386560471e+00
 9.5251724560e-01	 1.0099023240e+00	-1.4865844298e+00
 9.4263325921e-01	 1.0191340860e+00	-1.5341560239e+00
 9.3266165799e-01	 1.0282674314e+00	-1.5818624844e+00
 1.0369810810e+00	 9.4056513384e-01	-1.1029286502e+00
 1.0277703386e+00	 9.5062123549e-01	-1.1670243971e+00
 1.0184603456e+00	 9.6058897985e-01	-1.2271738138e+00
 1.0090523678e+00	 9.7046691390e-01	-1.2838597735e+00
 9.9954769963e-01	 9.8025360940e-01	-1.3375787296e+00
 9.8994766353e-01	 9.8994766353e-01	-1.3888374661e+00
 9.8025360940e-01	 9.9954769963e-01	-1.4381497851e+00
 9.7046691390e-01	 1.0090523678e+00	-1.4860331492e+00
 9.6058897985e-01	 1.0184603456e+00	-1.5330052948e+00
 9.5062123549e-01	 1.0277703386e+00	-1.5795808341e+00
 9.4056513384e-01	 1.0369810810e+00	-1.6262678638e+00
 1.0456947305e+00	 9.4846860969e-01	-1.1508918978e+00
 1.0364065912e+00	 9.5860921177e-01	-1.2147532186e+00
 1.0270183672e+00	 9.6866071410e-01	-1.2745691696e+00
 1.0175313351e+00	 9.7862165146e-01	-1.3308240003e+00
 1.0079468002e+00	 9.8849058359e-01	-1.3840165361e+00
 9.9826609590e-01	 9.9826609590e-01	-1.4346567936e+00
 9.8849058359e-01	 1.0079468002e+00	-1.4832625306e+00
 9.7862165146e-01	 1.0175313351e+00	-1.5303557466e+00
 9.6866071410e-01	 1.0270183672e+00	-1.5764591534e+00
 9.5860921177e-01	 1.0364065912e+00	-1.6220926316e+00
 9.4846860969e-01	 1.0456947305e+00	-1.6677696938e+00
 1.0544083800e+00	 9.5637208554e-01	-1.1954867530e+00
 1.0450428437e+00	 9.6659718805e-01	-1.2590998675e+00
 1.0355763888e+00	 9.7673244835e-01	-1.3186115012e+00
 1.0260103024e+00	 9.8677638901e-01	-1.3744964440e+00
 1.0163459007e+00	 9.9672755778e-01	-1.4272450493e+00
 1.0065845283e+00	 1.0065845283e+00	-1.4773597250e+00
 9.9672755778e-01	 1.0163459007e+00	-1.5253513557e+00
 9.8677638901e-01	 1.0260103024e+00	-1.5717356717e+00
 9.7673244835e-01	 1.0355763888e+00	-1.6170295861e+00
 9.6659718805e-01	 1.0450428437e+00	-1.6617475163e+00
 9.5637208554e-01	 1.0544083800e+00	-1.7063977105e+00
 1.0631220296e+00	 9.6427556140e-01	-1.2370183141e+00
 1.0536790963e+00	 9.7458516433e-01	-1.3003456800e+00
 1.0441344105e+00	 9.8480418260e-01	-1.3595567712e+00
 1.0344892697e+00	 9.9493112657e-01	-1.4151064129e+00
 1.0247450012e+00	 1.0049645320e+00	-1.4674659756e+00
 1.0149029606e+00	 1.0149029606e+00	-1.5171197525e+00
 1.0049645320e+00	 1.0247450012e+00	-1.5645612625e+00
 9.9493112657e-01	 1.0344892697e+00	-1.6102894983e+00
 9.8480418260e-01	 1.0441344105e+00	-1.6548051381e+00
 9.7458516433e-01	 1.0536790963e+00	-1.6986067420e+00
 9.6427556140e-01	 1.0631220296e+00	-1.7421869514e+00
 1.0718356791e+00	 9.7217903725e-01	-1.2757950734e+00
 1.0623153489e+00	 9.8257314061e-01	-1.3387755830e+00
 1.0526924321e+00	 9.9287591685e-01	-1.3976647528e+00
 1.0429682370e+00	 1.0030858641e+00	-1.4528872608e+00
 1.0331441017e+00	 1.0132015062e+00	-1.5048853094e+00
 1.0232213930e+00	 1.0232213930e+00	-1.5541148977e+00
 1.0132015062e+00	 1.0331441017e+00	-1.6010420155e+00
 1.0030858641e+00	 1.0429682370e+00	-1.6461387779e+00
 9.9287591685e-01	 1.0526924321e+00	-1.6898795226e+00
 9.8257314061e-01	 1.0623153489e+00	-1.7327368884e+00
 9.7217903725e-01	 1.0718356791e+00	-1.7751778969e+00
 1.0805493286e+00	 9.8008251310e-01	-1.3121293639e+00
 1.0709516014e+00	 9.9056111689e-01	-1.3746785137e+00
 1.0612504537e+00	 1.0009476511e+00	-1.4331994205e+00
 1.0514472044e+00	 1.0112406017e+00	-1.4880767478e+00
 1.0415432022e+00	 1.0214384803e+00	-1.5397136620e+00
 1.0315398254e+00	 1.0315398254e+00	-1.5885280086e+00
 1.0214384803e+00	 1.0415432022e+00	-1.6349484051e+00
 1.0112406017e+00	 1.0514472044e+00	-1.6794102719e+00
 1.0009476511e+00	 1.0612504537e+00	-1.7223518222e+00
 9.9056111689e-01	 1.0709516014e+00	-1.7642100320e+00
 9.8008251310e-01	 1.0805493286e+00	-1.8054166120e+00
 1.0892629781e+00	 9.8798598895e-01	-1.3463377953e+00
 1.0795878540e+00	 9.9854909317e-01	-1.4083478285e+00
 1.0698084753e+00	 1.0090193854e+00	-1.4664293304e+00
 1.0599261717e+00	 1.0193953392e+00	-1.5209173907e+00
 1.0499423028e+00	 1.0296754545e+00	-1.5721665822e+00
 1.0398582577e+00	 1.0398582577e+00	-1.6205470491e+00
 1.0296754545e+00	 1.0499423028e+00	-1.6664405074e+00
 1.0193953392e+00	 1.0599261717e+00	-1.7102361799e+00
 1.0090193854e+00	 1.0698084753e+00	-1.7523266868e+00
 9.9854909317e-01	 1.0795878540e+00	-1.7931039148e+00
 9.8798598895e-01	 1.0892629781e+00	-1.8329548874e+00
 9.0895123043e-01	 1.0021264829e+00	-1.4310041853e+00
 8.9914749959e-01	 1.0109320136e+00	-1.4812107877e+00
 8.8926124670e-01	 1.0196392191e+00	-1.5294725490e+00
 8.7929396011e-01	 1.0282469459e+00	-1.5757814149e+00
 8.6924714925e-01	 1.0367540705e+00	-1.6201061541e+00
 8.5912234387e-01	 1.0451594998e+00	-1.6623904298e+00
 8.4892109329e-01	 1.0534621714e+00	-1.7025509690e+00
 8.3864496559e-01	 1.0616610539e+00	-1.7404758390e+00
 8.2829554687e-01	 1.0697551478e+00	-1.7760228451e+00
 8.1787444040e-01	 1.0777434855e+00	-1.8090180572e+00
 8.0738326584e-01	 1.0856251317e+00	-1.8392544765e+00
 9.1685470628e-01	 1.0108401324e+00	-1.4842477756e+00
 9.0696573044e-01	 1.0197222286e+00	-1.5333011273e+00
 8.9699351500e-01	 1.0285051446e+00	-1.5803582615e+00
 8.8693956127e-01	 1.0371877170e+00	-1.6253955578e+00
 8.7680539178e-01	 1.0457688124e+00	-1.6683642761e+00
 8.6659254961e-01	 1.0542473283e+00	-1.7091885540e+00
 8.5630259753e-01	 1.0626221929e+00	-1.7477635055e+00
 8.4593711726e-01	 1.0708923660e+00	-1.7839534359e+00
 8.3549770870e-01	 1.0790568394e+00	-1.8175901819e+00
 8.2498598904e-01	 1.0871146369e+00	-1.8484715898e+00
 8.1440359205e-01	 1.0950648153e+00	-1.8763601404e+00
 9.2475818214e-01	 1.0195537819e+00	-1.5345289766e+00
 9.1478396129e-01	 1.0285124437e+00	-1.5824481432e+00
 9.0472578331e-01	 1.0373710702e+00	-1.6282434121e+00
 8.9458516242e-01	 1.0461284881e+00	-1.6718891129e+00
 8.8436363432e-01	 1.0547835544e+00	-1.7133327267e+00
 8.7406275535e-01	 1.0633351568e+00	-1.7524927845e+00
 8.6368410177e-01	 1.0717822144e+00	-1.7892568721e+00
 8.5322926893e-01	 1.0801236781e+00	-1.8234797571e+00
 8.4269987052e-01	 1.0883585309e+00	-1.8549816488e+00
 8.3209753769e-01	 1.0964857883e+00	-1.8835466022e+00
 8.2142391826e-01	 1.1045044989e+00	-1.9089210778e+00
 9.3266165799e-01	 1.0282674314e+00	-1.5818624844e+00
 9.2260219214e-01	 1.0373026587e+00	-1.6286435067e+00
 9.1245805161e-01	 1.0462369957e+00	-1.6731029156e+00
 9.0223076358e-01	 1.0550692592e+00	-1.7152262301e+00
 8.9192187685e-01	 1.0637982963e+00	-1.7549706015e+00
 8.8153296109e-01	 1.0724229852e+00	-1.7922625878e+00
 8.7106560600e-01	 1.0809422359e+00	-1.8269960403e+00
 8.6052142060e-01	 1.0893549902e+00	-1.8590301194e+00
 8.4990203235e-01	 1.0976602225e+00	-1.8881874482e+00
 8.3920908633e-01	 1.1058569397e+00	-1.9142524195e+00
 8.2844424446e-01	 1.1139441824e+00	-1.9370349852e+00
 9.4056513384e-01	 1.0369810810e+00	-1.6262678638e+00
 9.3042042299e-01	 1.0460928737e+00	-1.6718838663e+00
 9.2019031992e-01	 1.0551029213e+00	-1.7149165622e+00
 9.0987636474e-01	 1.0640100303e+00	-1.7553756350e+00
 8.9948011939e-01	 1.0728130382e+00	-1.7932410865e+00
 8.8900316682e-01	 1.0815108137e+00	-1.8284608614e+00
 8.7844711024e-01	 1.0901022574e+00	-1.8609485933e+00
 8.6781357228e-01	 1.0985863023e+00	-1.8905814826e+00
 8.5710419417e-01	 1.1069619140e+00	-1.9171983213e+00
 8.4632063497e-01	 1.1152280912e+00	-1.9407798711e+00
 8.3546457067e-01	 1.1233838660e+00	-1.9618926197e+00
 9.4846860969e-01	 1.0456947305e+00	-1.6677696938e+00
 9.3823865384e-01	 1.0548830887e+00	-1.7121709648e+00
 9.2792258822e-01	 1.0639688469e+00	-1.7536691147e+00
 9.1752196590e-01	 1.0729508014e+00	-1.7923107151e+00
 9.0703836193e-01	 1.0818277801e+00	-1.8281115402e+00
 8.9647337256e-01	 1.0905986422e+00	-1.8610540209e+00
 8.8582861448e-01	 1.0992622790e+00	-1.8910848230e+00
 8.7510572395e-01	 1.1078176144e+00	-1.9181125644e+00
 8.6430635600e-01	 1.1162636056e+00	-1.9423589315e+00
 8.5343218361e-01	 1.1245992426e+00	-1.9647015919e+00
 8.4248489688e-01	 1.1328235496e+00	-1.9843071048e+00
 9.5637208554e-01	 1.0544083800e+00	-1.7063977105e+00
 9.4605688469e-01	 1.0636733037e+00	-1.7495117552e+00
 9.3565485652e-01	 1.0728347724e+00	-1.7893504069e+00
 9.2516756706e-01	 1.0818915726e+00	-1.8260096061e+00
 9.1459660446e-01	 1.0908425220e+00	-1.8595535773e+00
 9.0394357830e-01	 1.0996864706e+00	-1.8900120862e+00
 8.9321011872e-01	 1.1084223005e+00	-1.9173778266e+00
 8.8239787562e-01	 1.1170489266e+00	-1.9421608207e+00
 8.7150851782e-01	 1.1255652971e+00	-1.9655563833e+00
 8.6054373226e-01	 1.1339703940e+00	-1.9867501750e+00
 8.4950522309e-01	 1.1422632332e+00	-2.0047625862e+00
 9.6427556140e-01	 1.0631220296e+00	-1.7421869514e+00
 9.5387511554e-01	 1.0724635188e+00	-1.7839185186e+00
 9.4338712483e-01	 1.0817006980e+00	-1.8219554414e+00
 9.3281316821e-01	 1.0908323437e+00	-1.8564552803e+00
 9.2215484700e-01	 1.0998572640e+00	-1.8875431526e+00
 9.1141378404e-01	 1.1087742991e+00	-1.9153087684e+00
 9.0059162296e-01	 1.1175823220e+00	-1.9405657991e+00
 8.8969002729e-01	 1.1262802387e+00	-1.9648594952e+00
 8.7871067965e-01	 1.1348669887e+00	-1.9874324931e+00
 8.6765528090e-01	 1.1433415454e+00	-2.0073730968e+00
 8.5652554929e-01	 1.1517029168e+00	-2.0237284311e+00
 9.7217903725e-01	 1.0718356791e+00	-1.7751778969e+00
 9.6169334639e-01	 1.0812537338e+00	-1.8154089807e+00
 9.5111939313e-01	 1.0905666235e+00	-1.8514844893e+00
 9.4045876937e-01	 1.0997731148e+00	-1.8836356345e+00
 9.2971308953e-01	 1.1088720059e+00	-1.9120606447e+00
 9.1888398978e-01	 1.1178621276e+00	-1.9378564357e+00
 9.0797312720e-01	 1.1267423435e+00	-1.9629798373e+00
 8.9698217896e-01	 1.1355115508e+00	-1.9867700765e+00
 8.8591284147e-01	 1.1441686802e+00	-2.0084024100e+00
 8.7476682954e-01	 1.1527126968e+00	-2.0270038590e+00
 8.6354587550e-01	 1.1611426004e+00	-2.0416595540e+00
 9.8008251310e-01	 1.0805493286e+00	-1.8054166120e+00
 9.6951157724e-01	 1.0900439488e+00	-1.8440064289e+00
 9.5885166144e-01	 1.0994325491e+00	-1.8779431900e+00
 9.4810437053e-01	 1.1087138859e+00	-1.9075435797e+00
 9.3727133207e-01	 1.1178867478e+00	-1.9341337411e+00
 9.2635419552e-01	 1.1269499560e+00	-1.9601658671e+00
 9.1535463144e-01	 1.1359023650e+00	-1.9851207590e+00
 9.0427433063e-01	 1.1447428629e+00	-2.0082795776e+00
 8.9311500330e-01	 1.1534703717e+00	-2.0288678957e+00
 8.8187837819e-01	 1.1620838483e+00	-2.0460622579e+00
 8.7056620171e-01	 1.1705822840e+00	-2.0589967361e+00
 9.8798598895e-01	 1.0892629781e+00	-1.8329548874e+00
 9.7732980809e-01	 1.0988341638e+00	-1.8697398298e+00
 9.6658392974e-01	 1.1082984747e+00	-1.9013426515e+00
 9.5574997169e-01	 1.1176546570e+00	-1.9292386877e+00
 9.4482957461e-01	 1.1269014897e+00	-1.9564641149e+00
 9.3382440126e-01	 1.1360377845e+00	-1.9826997489e+00
 9.2273613568e-01	 1.1450623866e+00	-2.0073514816e+00
 9.1156648230e-01	 1.1539741750e+00	-2.0297620032e+00
 9.0031716513e-01	 1.1627720633e+00	-2.0492175443e+00
 8.8898992683e-01	 1.1714549997e+00	-2.0649546491e+00
 8.7758652792e-01	 1.1800219676e+00	-2.0761669388e+00
 8.0738326584e-01	 1.0856251317e+00	-1.8392544765e+00
 7.9682545809e-01	 1.0933978723e+00	-1.8680881349e+00
 7.8620088393e-01	 1.1010621907e+00	-1.8971303604e+00
 7.7551120049e-01	 1.1086172555e+00	-1.9264924840e+00
 7.6475807800e-01	 1.1160622688e+00	-1.9562090217e+00
 7.5394319896e-01	 1.1233964664e+00	-1.9859132853e+00
 7.4306825728e-01	 1.1306191181e+00	-2.0150502093e+00
 7.3213495746e-01	 1.1377295278e+00	-2.0421681005e+00
 7.2114501370e-01	 1.1447270338e+00	-2.0648991578e+00
 7.1010014910e-01	 1.1516110089e+00	-2.0828935050e+00
 6.9900209477e-01	 1.1583808602e+00	-2.0958901634e+00
 8.1440359205e-01	 1.0950648153e+00	-1.8763601404e+00
 8.0375398247e-01	 1.1029051411e+00	-1.9026900671e+00
 7.9303702595e-01	 1.1106361020e+00	-1.9291965326e+00
 7.8225439401e-01	 1.1182568593e+00	-1.9560781148e+00
 7.7140777141e-01	 1.1257666082e+00	-1.9831218632e+00
 7.6049885527e-01	 1.1331645778e+00	-2.0098068414e+00
 7.4952935424e-01	 1.1404500315e+00	-2.0356094706e+00
 7.3850098762e-01	 1.1476222674e+00	-2.0599507173e+00
 7.2741548456e-01	 1.1546806178e+00	-2.0804976236e+00
 7.1627458310e-01	 1.1616244502e+00	-2.0960832324e+00
 7.0508002942e-01	 1.1684531665e+00	-2.1065052695e+00
 8.2142391826e-01	 1.1045044989e+00	-1.9089210778e+00
 8.1068250686e-01	 1.1124124099e+00	-1.9326749291e+00
 7.9987316797e-01	 1.1202100133e+00	-1.9569775204e+00
 7.8899758753e-01	 1.1278964631e+00	-1.9816525551e+00
 7.7805746481e-01	 1.1354709475e+00	-2.0062026037e+00
 7.6705451157e-01	 1.1429326891e+00	-2.0301268166e+00
 7.5599045119e-01	 1.1502809450e+00	-2.0529246419e+00
 7.4486701780e-01	 1.1575150070e+00	-2.0740993967e+00
 7.3368595541e-01	 1.1646342019e+00	-2.0926335520e+00
 7.2244901710e-01	 1.1716378915e+00	-2.1062149158e+00
 7.1115796407e-01	 1.1785254727e+00	-2.1144972535e+00
 8.2844424446e-01	 1.1139441824e+00	-1.9370349852e+00
 8.1761103125e-01	 1.1219196787e+00	-1.9588096083e+00
 8.0670930999e-01	 1.1297839245e+00	-1.9812169972e+00
 7.9574078105e-01	 1.1375360668e+00	-2.0037759538e+00
 7.8470715822e-01	 1.1451752869e+00	-2.0259997151e+00
 7.7361016788e-01	 1.1527008005e+00	-2.0473999490e+00
 7.6245154815e-01	 1.1601118585e+00	-2.0674906103e+00
 7.5123304797e-01	 1.1674077466e+00	-2.0857916379e+00
 7.3995642627e-01	 1.1745877859e+00	-2.1018267423e+00
 7.2862345110e-01	 1.1816513328e+00	-2.1137403043e+00
 7.1723589872e-01	 1.1885977790e+00	-2.1202407720e+00
 8.3546457067e-01	 1.1233838660e+00	-1.9618926197e+00
 8.2453955563e-01	 1.1314269475e+00	-1.9819335850e+00
 8.1354545201e-01	 1.1393578358e+00	-2.0024597844e+00
 8.0248397457e-01	 1.1471756706e+00	-2.0229917129e+00
 7.9135685162e-01	 1.1548796262e+00	-2.0430456265e+00
 7.8016582419e-01	 1.1624689118e+00	-2.0621377090e+00
 7.6891264510e-01	 1.1699427719e+00	-2.0797880872e+00
 7.5759907814e-01	 1.1773004862e+00	-2.0955246743e+00
 7.4622689713e-01	 1.1845413700e+00	-2.1088868232e+00
 7.3479788510e-01	 1.1916647741e+00	-2.1191104368e+00
 7.2331383337e-01	 1.1986700852e+00	-2.1241121169e+00
 8.4248489688e-01	 1.1328235496e+00	-1.9843071048e+00
 8.3146808002e-01	 1.1409342163e+00	-2.0025655809e+00
 8.2038159403e-01	 1.1489317471e+00	-2.0212339246e+00
 8.0922716808e-01	 1.1568152744e+00	-2.0398271975e+00
 7.9800654502e-01	 1.1645839655e+00	-2.0578571839e+00
 7.8672148050e-01	 1.1722370232e+00	-2.0748367487e+00
 7.7537374206e-01	 1.1797736854e+00	-2.0902840331e+00
 7.6396510831e-01	 1.1871932259e+00	-2.1037264643e+00
 7.5249736799e-01	 1.1944949540e+00	-2.1147045633e+00
 7.4097231910e-01	 1.2016782154e+00	-2.1227755299e+00
 7.2939176802e-01	 1.2087423915e+00	-2.1264884326e+00
 8.4950522309e-01	 1.1422632332e+00	-2.0047625862e+00
 8.3839660441e-01	 1.1504414851e+00	-2.0212087289e+00
 8.2721773605e-01	 1.1585056584e+00	-2.0380517133e+00
 8.1597036160e-01	 1.1664548782e+00	-2.0547941804e+00
 8.0465623843e-01	 1.1742883049e+00	-2.0709361001e+00
 7.9327713680e-01	 1.1820051346e+00	-2.0859793426e+00
 7.8183483901e-01	 1.1896045989e+00	-2.0994320748e+00
 7.7033113848e-01	 1.1970859655e+00	-2.1108129579e+00
 7.5876783885e-01	 1.2044485381e+00	-2.1196551285e+00
 7.4714675310e-01	 1.2116916567e+00	-2.1255099428e+00
 7.3546970266e-01	 1.2188146977e+00	-2.1277469393e+00
 8.5652554929e-01	 1.1517029168e+00	-2.0237284311e+00
 8.4532512879e-01	 1.1599487539e+00	-2.0383509529e+00
 8.3405387807e-01	 1.1680795697e+00	-2.0534101134e+00
 8.2271355512e-01	 1.1760944819e+00	-2.0683892759e+00
 8.1130593184e-01	 1.1839926442e+00	-2.0827693943e+00
 7.9983279311e-01	 1.1917732459e+00	-2.0960338196e+00
 7.8829593597e-01	 1.1994355124e+00	-2.1076729168e+00
 7.7669716865e-01	 1.2069787051e+00	-2.1171884723e+00
 7.6503830971e-01	 1.2144021221e+00	-2.1240978681e+00
 7.5332118710e-01	 1.2217050980e+00	-2.1279380057e+00
 7.4154763731e-01	 1.2288870039e+00	-2.1282689627e+00
 8.6354587550e-01	 1.1611426004e+00	-2.0416595540e+00
 8.5225365318e-01	 1.1694560227e+00	-2.0544653409e+00
 8.4089002009e-01	 1.1776534809e+00	-2.0677911606e+00
 8.2945674864e-01	 1.1857340857e+00	-2.0810943648e+00
 8.1795562524e-01	 1.1936969836e+00	-2.0938298238e+00
 8.0638844942e-01	 1.2015413573e+00	-2.1054549874e+00
 7.9475703293e-01	 1.2092664258e+00	-2.1154347455e+00
 7.8306319882e-01	 1.2168714447e+00	-2.1232460644e+00
 7.7130878057e-01	 1.2243557062e+00	-2.1283823757e+00
 7.5949562110e-01	 1.2317185393e+00	-2.1303576997e+00
 7.4762557196e-01	 1.2389593102e+00	-2.1287104842e+00
 8.7056620171e-01	 1.1705822840e+00	-2.0589967361e+00
 8.5918217757e-01	 1.1789632915e+00	-2.0700105094e+00
 8.4772616212e-01	 1.1872273922e+00	-2.0816623598e+00
 8.3619994216e-01	 1.1953736895e+00	-2.0933770106e+00
 8.2460531865e-01	 1.2034013229e+00	-2.1045763059e+00
 8.1294410573e-01	 1.2113094687e+00	-2.1146845492e+00
 8.0121812988e-01	 1.2190973393e+00	-2.1231336277e+00
 7.8942922900e-01	 1.2267641843e+00	-2.1293678991e+00
 7.7757925143e-01	 1.2343092902e+00	-2.1328488156e+00
 7.6567005510e-01	 1.2417319806e+00	-2.1330592668e+00
 7.5370350661e-01	 1.2490316164e+00	-2.1295076207e+00
 8.7758652792e-01	 1.1800219676e+00	-2.0761669388e+00
 8.6611070196e-01	 1.1884705604e+00	-2.0854309605e+00
 8.5456230414e-01	 1.1968013035e+00	-2.0954770743e+00
 8.4294313568e-01	 1.2050132932e+00	-2.1056908667e+00
 8.3125501205e-01	 1.2131056623e+00	-2.1154543328e+00
 8.1949976204e-01	 1.2210775800e+00	-2.1241515130e+00
 8.0767922684e-01	 1.2289282528e+00	-2.1311739036e+00
 7.9579525917e-01	 1.2366569239e+00	-2.1359256143e+00
 7.8384972228e-01	 1.2442628743e+00	-2.1378282485e+00
 7.7184448910e-01	 1.2517454219e+00	-2.1363254855e+00
 7.5978144126e-01	 1.2591039227e+00	-2.1308873436e+00
 6.9900209477e-01	 1.1583808602e+00	-2.0958901634e+00
 6.8785258920e-01	 1.1650360302e+00	-2.1064211173e+00
 6.7665337806e-01	 1.1715759967e+00	-2.1170365820e+00
 6.6540621264e-01	 1.1780002729e+00	-2.1275339293e+00
 6.5411284883e-01	 1.1843084068e+00	-2.1377330373e+00
 6.4277504624e-01	 1.1904999810e+00	-2.1474757851e+00
 6.3139456735e-01	 1.1965746128e+00	-2.1566255120e+00
 6.1997317670e-01	 1.2025319543e+00	-2.1650664407e+00
 6.0851264004e-01	 1.2083716922e+00	-2.1727030648e+00
 5.9701472353e-01	 1.2140935476e+00	-2.1794595004e+00
 5.8548119287e-01	 1.2196972759e+00	-2.1852788031e+00
 7.0508002942e-01	 1.1684531665e+00	-2.1065052695e+00
 6.9383357712e-01	 1.1751662042e+00	-2.1144075387e+00
 6.8253698705e-01	 1.1817630367e+00	-2.1224118899e+00
 6.7119202574e-01	 1.1882431731e+00	-2.1303146025e+00
 6.5980046433e-01	 1.1946061572e+00	-2.1379327246e+00
 6.4836407773e-01	 1.2008515681e+00	-2.1451036019e+00
 6.3688464376e-01	 1.2069790198e+00	-2.1516843719e+00
 6.2536394230e-01	 1.2129881613e+00	-2.1575514229e+00
 6.1380375445e-01	 1.2188786767e+00	-2.1625998169e+00
 6.0220586172e-01	 1.2246502845e+00	-2.1667426778e+00
 5.9057204517e-01	 1.2303027381e+00	-2.1699105440e+00
 7.1115796407e-01	 1.1785254727e+00	-2.1144972535e+00
 6.9981456504e-01	 1.1852963782e+00	-2.1201824612e+00
 6.8842059604e-01	 1.1919500768e+00	-2.1259204524e+00
 6.7697783883e-01	 1.1984860733e+00	-2.1315123247e+00
 6.6548807983e-01	 1.2049039076e+00	-2.1367786034e+00
 6.5395310923e-01	 1.2112031552e+00	-2.1415587942e+00
 6.4237472018e-01	 1.2173834268e+00	-2.1457109010e+00
 6.3075470791e-01	 1.2234443684e+00	-2.1491109095e+00
 6.1909486887e-01	 1.2293856612e+00	-2.1516522342e+00
 6.0739699992e-01	 1.2352070214e+00	-2.1532451302e+00
 5.9566289748e-01	 1.2409082004e+00	-2.1538160683e+00
 7.1723589872e-01	 1.1885977790e+00	-2.1202407720e+00
 7.0579555296e-01	 1.1954265522e+00	-2.1240441515e+00
 6.9430420504e-01	 1.2021371169e+00	-2.1277943230e+00
 6.8276365193e-01	 1.2087289734e+00	-2.1313029452e+00
 6.7117569533e-01	 1.2152016580e+00	-2.1344001534e+00
 6.5954214073e-01	 1.2215547423e+00	-2.1369341257e+00
 6.4786479660e-01	 1.2277878338e+00	-2.1387706148e+00
 6.3614547352e-01	 1.2339005754e+00	-2.1397924442e+00
 6.2438598328e-01	 1.2398926457e+00	-2.1398989680e+00
 6.1258813812e-01	 1.2457637584e+00	-2.1390054940e+00
 6.0075374979e-01	 1.2515136626e+00	-2.1370426701e+00
 7.2331383337e-01	 1.1986700852e+00	-2.1241121169e+00
 7.1177654088e-01	 1.2055567262e+00	-2.1262948436e+00
 7.0018781403e-01	 1.2123241569e+00	-2.1282715214e+00
 6.8854946503e-01	 1.2189718736e+00	-2.1298699489e+00
 6.7686331083e-01	 1.2254994084e+00	-2.1309358338e+00
 6.6513117223e-01	 1.2319063294e+00	-2.1313323638e+00
 6.5335487302e-01	 1.2381922408e+00	-2.1309397410e+00
 6.4153623913e-01	 1.2443567825e+00	-2.1296546808e+00
 6.2967709770e-01	 1.2503996302e+00	-2.1273898725e+00
 6.1777927631e-01	 1.2563204953e+00	-2.1240734026e+00
 6.0584460210e-01	 1.2621191249e+00	-2.1196481397e+00
 7.2939176802e-01	 1.2087423915e+00	-2.1264884326e+00
 7.1775752880e-01	 1.2156869002e+00	-2.1272398849e+00
 7.0607142303e-01	 1.2225111970e+00	-2.1275951223e+00
 6.9433527813e-01	 1.2292147738e+00	-2.1274035015e+00
 6.8255092633e-01	 1.2357971588e+00	-2.1265321001e+00
 6.7072020373e-01	 1.2422579165e+00	-2.1248652805e+00
 6.5884494945e-01	 1.2485966478e+00	-2.1223042183e+00
 6.4692700473e-01	 1.2548129895e+00	-2.1187663929e+00
 6.3496821211e-01	 1.2609066147e+00	-2.1141850383e+00
 6.2297041451e-01	 1.2668772323e+00	-2.1085085548e+00
 6.1093545442e-01	 1.2727245871e+00	-2.1016998808e+00
 7.3546970266e-01	 1.2188146977e+00	-2.1277469393e+00
 7.2373851672e-01	 1.2258170742e+00	-2.1271868926e+00
 7.1195503202e-01	 1.2326982370e+00	-2.1260123582e+00
 7.0012109123e-01	 1.2394576739e+00	-2.1240995139e+00
 6.8823854183e-01	 1.2460949092e+00	-2.1213424413e+00
 6.7630923523e-01	 1.2526095037e+00	-2.1176526759e+00
 6.6433502587e-01	 1.2590010548e+00	-2.1129587184e+00
 6.5231777034e-01	 1.2652691966e+00	-2.1072055072e+00
 6.4025932653e-01	 1.2714135992e+00	-2.1003538485e+00
 6.2816155271e-01	 1.2774339692e+00	-2.0923798061e+00
 6.1602630673e-01	 1.2833300494e+00	-2.0832740474e+00
 7.4154763731e-01	 1.2288870039e+00	-2.1282689627e+00
 7.2971950465e-01	 1.2359472482e+00	-2.1264449207e+00
 7.1783864102e-01	 1.2428852771e+00	-2.1237737379e+00
 7.0590690433e-01	 1.2497005741e+00	-2.1201587223e+00
 6.9392615733e-01	 1.2563926596e+00	-2.1155264361e+00
 6.8189826673e-01	 1.2629610908e+00	-2.1098214223e+00
 6.6982510229e-01	 1.2694054618e+00	-2.1030056900e+00
 6.5770853595e-01	 1.2757254036e+00	-2.0950581584e+00
 6.4555044095e-01	 1.2819205837e+00	-2.0859740570e+00
 6.3335269091e-01	 1.2879907061e+00	-2.0757642808e+00
 6.2111715904e-01	 1.2939355116e+00	-2.0644547014e+00
 7.4762557196e-01	 1.2389593102e+00	-2.1287104842e+00
 7.3570049257e-01	 1.2460774222e+00	-2.1253236381e+00
 7.2372225001e-01	 1.2530723172e+00	-2.1211321769e+00
 7.1169271742e-01	 1.2599434743e+00	-2.1157857852e+00
 6.9961377283e-01	 1.2666904100e+00	-2.1092488273e+00
 6.8748729823e-01	 1.2733126779e+00	-2.1015045278e+00
 6.7531517871e-01	 1.2798098689e+00	-2.0925544230e+00
 6.6309930156e-01	 1.2861816107e+00	-2.0824177661e+00
 6.5084155536e-01	 1.2924275682e+00	-2.0711308872e+00
 6.3854382911e-01	 1.2985474431e+00	-2.0587465045e+00
 6.2620801135e-01	 1.3045409739e+00	-2.0453329879e+00
 7.5370350661e-01	 1.2490316164e+00	-2.1295076207e+00
 7.4168148049e-01	 1.2562075962e+00	-2.1241372714e+00
 7.2960585901e-01	 1.2632593572e+00	-2.1183421417e+00
 7.1747853052e-01	 1.2701863744e+00	-2.1111883959e+00
 7.0530138833e-01	 1.2769881604e+00	-2.1026786134e+00
 6.9307632972e-01	 1.2836642650e+00	-2.0928402188e+00
 6.8080525513e-01	 1.2902142759e+00	-2.0817201326e+00
 6.6849006717e-01	 1.2966378177e+00	-2.0693841303e+00
 6.5613266978e-01	 1.3029345527e+00	-2.0559161509e+00
 6.4373496731e-01	 1.3091041800e+00	-2.0414175549e+00
 6.3129886366e-01	 1.3151464361e+00	-2.0260063291e+00
 7.5978144126e-01	 1.2591039227e+00	-2.1308873436e+00
 7.4766246841e-01	 1.2663377702e+00	-2.1233912699e+00
 7.3548946800e-01	 1.2734463973e+00	-2.1156588050e+00
 7.2326434362e-01	 1.2804292746e+00	-2.1065764082e+00
 7.1098900383e-01	 1.2872859108e+00	-2.0959881568e+00
 6.9866536122e-01	 1.2940158521e+00	-2.0839710397e+00
 6.8629533155e-01	 1.3006186829e+00	-2.0706230615e+00
 6.7388083278e-01	 1.3070940247e+00	-2.0560625460e+00
 6.6142378419e-01	 1.3134415372e+00	-2.0404273847e+00
 6.4892610551e-01	 1.3196609170e+00	-2.0238742303e+00
 6.3638971597e-01	 1.3257518984e+00	-2.0065776340e+00
 5.8548119287e-01	 1.2196972759e+00	-2.1852788031e+00
 5.7391184309e-01	 1.2251835891e+00	-2.1901738423e+00
 5.6231039489e-01	 1.2305513475e+00	-2.1941839358e+00
 5.5067860820e-01	 1.2358004075e+00	-2.1973172759e+00
 5.3901823934e-01	 1.2409306594e+00	-2.1995933479e+00
 5.2733104031e-01	 1.2459420268e+00	-2.2010420879e+00
 5.1561875792e-01	 1.2508344664e+00	-2.2017030203e+00
 5.0388313316e-01	 1.2556079677e+00	-2.2016243764e+00
 4.9212590034e-01	 1.2602625529e+00	-2.2008621983e+00
 4.8034878649e-01	 1.2647982763e+00	-2.1994794292e+00
 4.6855351052e-01	 1.2692152242e+00	-2.1975449929e+00
 5.9057204517e-01	 1.2303027381e+00	-2.1699105440e+00
 5.7890209806e-01	 1.2358367558e+00	-2.1720612604e+00
 5.6719977342e-01	 1.2412511876e+00	-2.1731974570e+00
 5.5546684648e-01	 1.2465458891e+00	-2.1733394567e+00
 5.4370508887e-01	 1.2517207494e+00	-2.1725183687e+00
 5.3191626777e-01	 1.2567756914e+00	-2.1707752255e+00
 5.2010214523e-01	 1.2617106715e+00	-2.1681601005e+00
 5.0826447733e-01	 1.2665256791e+00	-2.1647312039e+00
 4.9640501350e-01	 1.2712207367e+00	-2.1605539632e+00
 4.8452549576e-01	 1.2757958989e+00	-2.1557000887e+00
 4.7262765800e-01	 1.2802512529e+00	-2.1502466276e+00
 5.9566289748e-01	 1.2409082004e+00	-2.1538160683e+00
 5.8389235303e-01	 1.2464899224e+00	-2.1532872419e+00
 5.7208915194e-01	 1.2519510278e+00	-2.1516375422e+00
 5.6025508477e-01	 1.2572913706e+00	-2.1488985630e+00
 5.4839193839e-01	 1.2625108393e+00	-2.1451122578e+00
 5.3650149523e-01	 1.2676093559e+00	-2.1403300604e+00
 5.2458553253e-01	 1.2725868766e+00	-2.1346119808e+00
 5.1264582150e-01	 1.2774433906e+00	-2.1280256814e+00
 5.0068412666e-01	 1.2821789205e+00	-2.1206455336e+00
 4.8870220504e-01	 1.2867935216e+00	-2.1125516593e+00
 4.7670180547e-01	 1.2912872816e+00	-2.1038289591e+00
 6.0075374979e-01	 1.2515136626e+00	-2.1370426701e+00
 5.8888260800e-01	 1.2571430890e+00	-2.1339127681e+00
 5.7697853047e-01	 1.2626508679e+00	-2.1295804162e+00
 5.6504332306e-01	 1.2680368522e+00	-2.1240876678e+00
 5.5307878791e-01	 1.2733009292e+00	-2.1174865914e+00
 5.4108672270e-01	 1.2784430205e+00	-2.1098383742e+00
 5.2906891983e-01	 1.2834630817e+00	-2.1012124004e+00
 5.1702716568e-01	 1.2883611020e+00	-2.0916853055e+00
 5.0496323982e-01	 1.2931371043e+00	-2.0813400120e+00
 4.9287891432e-01	 1.2977911442e+00	-2.0702647461e+00
 4.8077595294e-01	 1.3023233103e+00	-2.0585520401e+00
 6.0584460210e-01	 1.2621191249e+00	-2.1196481397e+00
 5.9387286297e-01	 1.2677962556e+00	-2.1140086442e+00
 5.8186790900e-01	 1.2733507080e+00	-2.1071113985e+00
 5.6983156135e-01	 1.2787823337e+00	-2.0990081511e+00
 5.5776563743e-01	 1.2840910191e+00	-2.0897604023e+00
 5.4567195016e-01	 1.2892766850e+00	-2.0794384923e+00
 5.3355230713e-01	 1.2943392867e+00	-2.0681206620e+00
 5.2140850985e-01	 1.2992788135e+00	-2.0558920885e+00
 5.0924235298e-01	 1.3040952881e+00	-2.0428438987e+00
 4.9705562360e-01	 1.3087887669e+00	-2.0290721619e+00
 4.8485010042e-01	 1.3133593390e+00	-2.0146768672e+00
 6.1093545442e-01	 1.2727245871e+00	-2.1016998808e+00
 5.9886311794e-01	 1.2784494222e+00	-2.0936546706e+00
 5.8675728753e-01	 1.2840505482e+00	-2.0843241312e+00
 5.7461979964e-01	 1.2895278153e+00	-2.0737689860e+00
 5.6245248696e-01	 1.2948811090e+00	-2.0620595277e+00
 5.5025717763e-01	 1.3001103496e+00	-2.0492746930e+00
 5.3803569443e-01	 1.3052154918e+00	-2.0355011070e+00
 5.2578985403e-01	 1.3101965249e+00	-2.0208321008e+00
 5.1352146615e-01	 1.3150534719e+00	-2.0053667031e+00
 5.0123233288e-01	 1.3197863895e+00	-1.9892086105e+00
 4.8892424789e-01	 1.3243953677e+00	-1.9724651382e+00
 6.1602630673e-01	 1.2833300494e+00	-2.0832740474e+00
 6.0385337291e-01	 1.2891025889e+00	-2.0729388333e+00
 5.9164666606e-01	 1.2947503883e+00	-2.0613198243e+00
 5.7940803793e-01	 1.3002732968e+00	-2.0484860403e+00
 5.6713933648e-01	 1.3056711989e+00	-2.0345159691e+00
 5.5484240509e-01	 1.3109440141e+00	-2.0194966290e+00
 5.4251908174e-01	 1.3160916969e+00	-2.0035225991e+00
 5.3017119820e-01	 1.3211142364e+00	-1.9866950188e+00
 5.1780057931e-01	 1.3260116557e+00	-1.9691205594e+00
 5.0540904216e-01	 1.3307840122e+00	-1.9509103709e+00
 4.9299839536e-01	 1.3354313964e+00	-1.9321790072e+00
 6.2111715904e-01	 1.2939355116e+00	-2.0644547014e+00
 6.0884362788e-01	 1.2997557555e+00	-2.0519565118e+00
 5.9653604459e-01	 1.3054502284e+00	-2.0382065166e+00
 5.8419627622e-01	 1.3110187784e+00	-2.0232813927e+00
 5.7182618601e-01	 1.3164612888e+00	-2.0072672650e+00
 5.5942763256e-01	 1.3217776787e+00	-1.9902587584e+00
 5.4700246904e-01	 1.3269679020e+00	-1.9723580156e+00
 5.3455254238e-01	 1.3320319478e+00	-1.9536736792e+00
 5.2207969247e-01	 1.3369698395e+00	-1.9343198441e+00
 5.0958575143e-01	 1.3417816348e+00	-1.9144149814e+00
 4.9707254284e-01	 1.3464674252e+00	-1.8940808378e+00
 6.2620801135e-01	 1.3045409739e+00	-2.0453329879e+00
 6.1383388285e-01	 1.3104089221e+00	-2.0308097047e+00
 6.0142542312e-01	 1.3161500686e+00	-2.0150983522e+00
 5.8898451451e-01	 1.3217642599e+00	-1.9982826619e+00
 5.7651303553e-01	 1.3272513787e+00	-1.9804558747e+00
 5.6401286003e-01	 1.3326113432e+00	-1.9617197851e+00
 5.5148585634e-01	 1.3378441071e+00	-1.9421837464e+00
 5.3893388655e-01	 1.3429496593e+00	-1.9219636377e+00
 5.2635880563e-01	 1.3479280233e+00	-1.9011807976e+00
 5.1376246071e-01	 1.3527792574e+00	-1.8799609251e+00
 5.0114669031e-01	 1.3575034539e+00	-1.8584329533e+00
 6.3129886366e-01	 1.3151464361e+00	-2.0260063291e+00
 6.1882413782e-01	 1.3210620887e+00	-2.0096062711e+00
 6.0631480165e-01	 1.3268499087e+00	-1.9921148719e+00
 5.9377275280e-01	 1.3325097415e+00	-1.9736223492e+00
 5.8119988506e-01	 1.3380414686e+00	-1.9542285741e+00
 5.6859808749e-01	 1.3434450077e+00	-1.9340421086e+00
 5.5596924365e-01	 1.3487203122e+00	-1.9131791999e+00
 5.4331523073e-01	 1.3538673707e+00	-1.8917627334e+00
 5.3063791879e-01	 1.3588862071e+00	-1.8699211480e+00
 5.1793916999e-01	 1.3637768801e+00	-1.8477873148e+00
 5.0522083779e-01	 1.3685394826e+00	-1.8254973860e+00
 6.3638971597e-01	 1.3257518984e+00	-2.0065776340e+00
 6.2381439279e-01	 1.3317152553e+00	-1.9884591871e+00
 6.1120418018e-01	 1.3375497489e+00	-1.9693803172e+00
 5.9856099109e-01	 1.3432552230e+00	-1.9494371924e+00
 5.8588673458e-01	 1.3488315585e+00	-1.9287358608e+00
 5.7318331496e-01	 1.3542786723e+00	-1.9073912827e+00
 5.6045263095e-01	 1.3595965173e+00	-1.8855263162e+00
 5.4769657490e-01	 1.3647850821e+00	-1.8632706574e+00
 5.3491703195e-01	 1.3698443909e+00	-1.8407597372e+00
 5.2211587927e-01	 1.3747745027e+00	-1.8181335798e+00
 5.0929498526e-01	 1.3795755113e+00	-1.7955356243e+00
 4.6855351052e-01	 1.2692152242e+00	-2.1975449929e+00
 4.5674379163e-01	 1.2735127937e+00	-2.1948392562e+00
 4.4491932576e-01	 1.2776918938e+00	-2.1912082117e+00
 4.3308180219e-01	 1.2817527035e+00	-2.1868254721e+00
 4.2123289945e-01	 1.2856954317e+00	-2.1818654297e+00
 4.0937428472e-01	 1.2895203178e+00	-2.1765022297e+00
 3.9750761316e-01	 1.2932276304e+00	-2.1709087565e+00
 3.8563452737e-01	 1.2968176671e+00	-2.1652556372e+00
 3.7375665673e-01	 1.3002907544e+00	-2.1597102659e+00
 3.6187561687e-01	 1.3036472468e+00	-2.1541892214e+00
 3.4999300912e-01	 1.3068875263e+00	-2.1482963233e+00
 4.7262765800e-01	 1.2802512529e+00	-2.1502466276e+00
 4.6071525171e-01	 1.2845861904e+00	-2.1439860187e+00
 4.4878797023e-01	 1.2888016285e+00	-2.1367841310e+00
 4.3684751750e-01	 1.2928977475e+00	-2.1288362355e+00
 4.2489558667e-01	 1.2968747585e+00	-2.1203390196e+00
 4.1293385939e-01	 1.3007329026e+00	-2.1114894851e+00
 4.0096400523e-01	 1.3044724508e+00	-2.1024838578e+00
 3.8898768106e-01	 1.3080937035e+00	-2.0935165132e+00
 3.7700653044e-01	 1.3115969898e+00	-2.0847789220e+00
 3.6502218305e-01	 1.3149826674e+00	-2.0763602373e+00
 3.5303625413e-01	 1.3182511217e+00	-2.0677976791e+00
 4.7670180547e-01	 1.2912872816e+00	-2.1038289591e+00
 4.6468671180e-01	 1.2956595872e+00	-2.0942976268e+00
 4.5265661470e-01	 1.2999113632e+00	-2.0838548612e+00
 4.4061323282e-01	 1.3040427916e+00	-2.0727106769e+00
 4.2855827388e-01	 1.3080540852e+00	-2.0610768413e+00
 4.1649343406e-01	 1.3119454873e+00	-2.0491657118e+00
 4.0442039730e-01	 1.3157172712e+00	-2.0371890823e+00
 3.9234083476e-01	 1.3193697398e+00	-2.0253570446e+00
 3.8025640416e-01	 1.3229032252e+00	-2.0138768693e+00
 3.6816874923e-01	 1.3263180881e+00	-2.0029349603e+00
 3.5607949914e-01	 1.3296147171e+00	-1.9921393800e+00
 4.8077595294e-01	 1.3023233103e+00	-2.0585520401e+00
 4.6865817188e-01	 1.3067329840e+00	-2.0460597759e+00
 4.5652525917e-01	 1.3110210979e+00	-2.0327223216e+00
 4.4437894813e-01	 1.3151878357e+00	-2.0187577600e+00
 4.3222096110e-01	 1.3192334120e+00	-2.0043859703e+00
 4.2005300873e-01	 1.3231580720e+00	-1.9898274162e+00
 4.0787678937e-01	 1.3269620916e+00	-1.9753019441e+00
 3.9569398845e-01	 1.3306457762e+00	-1.9610275939e+00
 3.8350627788e-01	 1.3342094606e+00	-1.9472194280e+00
 3.7131531541e-01	 1.3376535087e+00	-1.9340883826e+00
 3.5912274415e-01	 1.3409783125e+00	-1.9214424022e+00
 4.8485010042e-01	 1.3133593390e+00	-2.0146768672e+00
 4.7262963197e-01	 1.3178063807e+00	-1.9995579615e+00
 4.6039390364e-01	 1.3221308326e+00	-1.9836873955e+00
 4.4814466345e-01	 1.3263328798e+00	-1.9672848777e+00
 4.3588364832e-01	 1.3304127387e+00	-1.9505716682e+00
 4.2361258340e-01	 1.3343706568e+00	-1.9337693327e+00
 4.1133318144e-01	 1.3382069120e+00	-1.9170985042e+00
 3.9904714215e-01	 1.3419218125e+00	-1.9007776573e+00
 3.8675615159e-01	 1.3455156960e+00	-1.8850218990e+00
 3.7446188159e-01	 1.3489889293e+00	-1.8700417801e+00
 3.6216598916e-01	 1.3523419079e+00	-1.8558304718e+00
 4.8892424789e-01	 1.3243953677e+00	-1.9724651382e+00
 4.7660109205e-01	 1.3288797775e+00	-1.9550773041e+00
 4.6426254811e-01	 1.3332405673e+00	-1.9370498101e+00
 4.5191037876e-01	 1.3374779239e+00	-1.9185977722e+00
 4.3954633553e-01	 1.3415920654e+00	-1.8999373316e+00
 4.2717215807e-01	 1.3455832415e+00	-1.8812843877e+00
 4.1478957351e-01	 1.3494517324e+00	-1.8628533367e+00
 4.0240029585e-01	 1.3531978489e+00	-1.8448558222e+00
 3.9000602531e-01	 1.3568219314e+00	-1.8274995001e+00
 3.7760844778e-01	 1.3603243500e+00	-1.8109868247e+00
 3.6520923418e-01	 1.3637055033e+00	-1.7954300945e+00
 4.9299839536e-01	 1.3354313964e+00	-1.9321790072e+00
 4.8057255214e-01	 1.3399531742e+00	-1.9129023701e+00
 4.6813119258e-01	 1.3443503020e+00	-1.8931080095e+00
 4.5567609408e-01	 1.3486229680e+00	-1.8730004482e+00
 4.4320902275e-01	 1.3527713922e+00	-1.8527844320e+00
 4.3073173274e-01	 1.3567958262e+00	-1.8326636549e+00
 4.1824596558e-01	 1.3606965528e+00	-1.8128394876e+00
 4.0575344954e-01	 1.3644738852e+00	-1.7935097165e+00
 3.9325589903e-01	 1.3681281668e+00	-1.7748672963e+00
 3.8075501396e-01	 1.3716597706e+00	-1.7570991226e+00
 3.6825247919e-01	 1.3750690986e+00	-1.7403705859e+00
 4.9707254284e-01	 1.3464674252e+00	-1.8940808378e+00
 4.8454401223e-01	 1.3510265710e+00	-1.8733169878e+00
 4.7199983705e-01	 1.3554600367e+00	-1.8521590216e+00
 4.5944180939e-01	 1.3597680121e+00	-1.8307950781e+00
 4.4687170997e-01	 1.3639507189e+00	-1.8094124478e+00
 4.3429130741e-01	 1.3680084110e+00	-1.7881963021e+00
 4.2170235765e-01	 1.3719413733e+00	-1.7673284249e+00
 4.0910660324e-01	 1.3757499216e+00	-1.7469859521e+00
 3.9650577274e-01	 1.3794344022e+00	-1.7273401247e+00
 3.8390158014e-01	 1.3829951912e+00	-1.7085550600e+00
 3.7129572420e-01	 1.3864326940e+00	-1.6907865460e+00
 5.0114669031e-01	 1.3575034539e+00	-1.8584329533e+00
 4.8851547231e-01	 1.3620999678e+00	-1.8366040588e+00
 4.7586848152e-01	 1.3665697714e+00	-1.8144983183e+00
 4.6320752471e-01	 1.3709130562e+00	-1.7922818997e+00
 4.5053439718e-01	 1.3751300457e+00	-1.7701187879e+00
 4.3785088208e-01	 1.3792209957e+00	-1.7481695299e+00
 4.2515874972e-01	 1.3831861937e+00	-1.7265899817e+00
 4.1245975693e-01	 1.3870259580e+00	-1.7055300617e+00
 3.9975564646e-01	 1.3907406376e+00	-1.6851325150e+00
 3.8704814632e-01	 1.3943306119e+00	-1.6655316962e+00
 3.7433896921e-01	 1.3977962894e+00	-1.6468523731e+00
 5.0522083779e-01	 1.3685394826e+00	-1.8254973860e+00
 4.9248693240e-01	 1.3731733645e+00	-1.8030453656e+00
 4.7973712599e-01	 1.3776795062e+00	-1.7804196701e+00
 4.6697324002e-01	 1.3820581003e+00	-1.7577591073e+00
 4.5419708440e-01	 1.3863093724e+00	-1.7351987085e+00
 4.4141045675e-01	 1.3904335805e+00	-1.7128685031e+00
 4.2861514179e-01	 1.3944310141e+00	-1.6908922927e+00
 4.1581291063e-01	 1.3983019943e+00	-1.6693864294e+00
 4.0300552018e-01	 1.4020468730e+00	-1.6484586049e+00
 3.9019471250e-01	 1.4056660325e+00	-1.6282066551e+00
 3.7738221422e-01	 1.4091598848e+00	-1.6087173860e+00
 5.0929498526e-01	 1.3795755113e+00	-1.7955356243e+00
 4.9645839248e-01	 1.3842467613e+00	-1.7729213752e+00
 4.8360577045e-01	 1.3887892409e+00	-1.7502149962e+00
 4.7073895534e-01	 1.3932031444e+00	-1.7275227363e+00
 4.5785977162e-01	 1.3974886992e+00	-1.7049452223e+00
 4.4497003142e-01	 1.4016461652e+00	-1.6825762752e+00
 4.3207153386e-01	 1.4056758345e+00	-1.6605017227e+00
 4.1916606432e-01	 1.4095780307e+00	-1.6387982155e+00
 4.0625539389e-01	 1.4133531084e+00	-1.6175320511e+00
 3.9334127868e-01	 1.4170014531e+00	-1.5967580134e+00
 3.8042545923e-01	 1.4205234802e+00	-1.5765182310e+00
 3.4999300912e-01	 1.3068875263e+00	-2.1482963233e+00
 3.3811042009e-01	 1.3100120027e+00	-2.1420540808e+00
 3.2622942167e-01	 1.3130211133e+00	-2.1353806674e+00
 3.1435156998e-01	 1.3159153219e+00	-2.1284392274e+00
 3.0247840474e-01	 1.3186951180e+00	-2.1213775495e+00
 2.9061144879e-01	 1.3213610161e+00	-2.1143276366e+00
 2.7875220764e-01	 1.3239135551e+00	-2.1074054810e+00
 2.6690216904e-01	 1.3263532981e+00	-2.1007110292e+00
 2.5506280259e-01	 1.3286808315e+00	-2.0943283243e+00
 2.4323555931e-01	 1.3308967645e+00	-2.0883258100e+00
 2.3142187128e-01	 1.3330017287e+00	-2.0827567834e+00
 3.5303625413e-01	 1.3182511217e+00	-2.0677976791e+00
 3.4105034409e-01	 1.3214027659e+00	-2.0589916312e+00
 3.2906603850e-01	 1.3244380412e+00	-2.0498486583e+00
 3.1708490700e-01	 1.3273574154e+00	-2.0405425837e+00
 3.0510850269e-01	 1.3301613823e+00	-2.0312299056e+00
 2.9313836167e-01	 1.3328504608e+00	-2.0220494337e+00
 2.8117600252e-01	 1.3354251945e+00	-2.0131221390e+00
 2.6922292595e-01	 1.3378861515e+00	-2.0045512037e+00
 2.5728061432e-01	 1.3402339232e+00	-1.9964222573e+00
 2.4535053127e-01	 1.3424691241e+00	-1.9888037806e+00
 2.3343412134e-01	 1.3445923913e+00	-1.9817476662e+00
 3.5607949914e-01	 1.3296147171e+00	-1.9921393800e+00
 3.4399026810e-01	 1.3327935291e+00	-1.9811764011e+00
 3.3190265533e-01	 1.3358549691e+00	-1.9699346576e+00
 3.1981824401e-01	 1.3387995089e+00	-1.9586010905e+00
 3.0773860065e-01	 1.3416276466e+00	-1.9473432087e+00
 2.9566527454e-01	 1.3443399054e+00	-1.9363087925e+00
 2.8359979741e-01	 1.3469368340e+00	-1.9256258233e+00
 2.7154368286e-01	 1.3494190049e+00	-1.9154026222e+00
 2.5949842605e-01	 1.3517870148e+00	-1.9057281827e+00
 2.4746550324e-01	 1.3540414836e+00	-1.8966726812e+00
 2.3544637141e-01	 1.3561830538e+00	-1.8882881484e+00
 3.5912274415e-01	 1.3409783125e+00	-1.9214424022e+00
 3.4693019211e-01	 1.3441842923e+00	-1.9086758886e+00
 3.3473927216e-01	 1.3472718970e+00	-1.8956542236e+00
 3.2255158103e-01	 1.3502416024e+00	-1.8825797830e+00
 3.1036869860e-01	 1.3530939109e+00	-1.8696332593e+00
 2.9819218742e-01	 1.3558293501e+00	-1.8569734368e+00
 2.8602359229e-01	 1.3584484734e+00	-1.8447372039e+00
 2.7386443977e-01	 1.3609518582e+00	-1.8330397844e+00
 2.6171623778e-01	 1.3633401065e+00	-1.8219751730e+00
 2.4958047520e-01	 1.3656138432e+00	-1.8116167550e+00
 2.3745862147e-01	 1.3677737164e+00	-1.8020180958e+00
 3.6216598916e-01	 1.3523419079e+00	-1.8558304718e+00
 3.4987011611e-01	 1.3555750555e+00	-1.8415613681e+00
 3.3757588899e-01	 1.3586888249e+00	-1.8270277477e+00
 3.2528491805e-01	 1.3616836960e+00	-1.8124496169e+00
 3.1299879655e-01	 1.3645601751e+00	-1.7980228989e+00
 3.0071910030e-01	 1.3673187948e+00	-1.7839192847e+00
 2.8844738717e-01	 1.3699601128e+00	-1.7702863321e+00
 2.7618519668e-01	 1.3724847116e+00	-1.7572477942e+00
 2.6393404951e-01	 1.3748931981e+00	-1.7449041620e+00
 2.5169544716e-01	 1.3771862027e+00	-1.7333334000e+00
 2.3947087154e-01	 1.3793643789e+00	-1.7225918583e+00
 3.6520923418e-01	 1.3637055033e+00	-1.7954300945e+00
 3.5281004012e-01	 1.3669658187e+00	-1.7799078539e+00
 3.4041250582e-01	 1.3701057528e+00	-1.7640803529e+00
 3.2801825506e-01	 1.3731257895e+00	-1.7481873030e+00
 3.1562889450e-01	 1.3760264394e+00	-1.7324417807e+00
 3.0324601317e-01	 1.3788082395e+00	-1.7170301570e+00
 2.9087118206e-01	 1.3814717522e+00	-1.7021122875e+00
 2.7850595359e-01	 1.3840175650e+00	-1.6878219440e+00
 2.6615186124e-01	 1.3864462898e+00	-1.6742674686e+00
 2.5381041913e-01	 1.3887585623e+00	-1.6615326315e+00
 2.4148312160e-01	 1.3909550414e+00	-1.6496776719e+00
 3.6825247919e-01	 1.3750690986e+00	-1.7403705859e+00
 3.5574996412e-01	 1.3783565819e+00	-1.7237940675e+00
 3.4324912265e-01	 1.3815226807e+00	-1.7068417981e+00
 3.3075159208e-01	 1.3845678830e+00	-1.6897751506e+00
 3.1825899245e-01	 1.3874927037e+00	-1.6728261528e+00
 3.0577292605e-01	 1.3902976842e+00	-1.6561975002e+00
 2.9329497694e-01	 1.3929833916e+00	-1.6400628418e+00
 2.8082671050e-01	 1.3955504184e+00	-1.6245673202e+00
 2.6836967297e-01	 1.3979993814e+00	-1.6098283434e+00
 2.5592539109e-01	 1.4003309218e+00	-1.5959365707e+00
 2.4349537166e-01	 1.4025457040e+00	-1.5829570884e+00
 3.7129572420e-01	 1.3864326940e+00	-1.6907865460e+00
 3.5868988813e-01	 1.3897473451e+00	-1.6733024058e+00
 3.4608573948e-01	 1.3929396086e+00	-1.6553463877e+00
 3.3348492909e-01	 1.3960099765e+00	-1.6372009186e+00
 3.2088909040e-01	 1.3989589680e+00	-1.6191186519e+00
 3.0829983893e-01	 1.4017871289e+00	-1.6013201234e+00
 2.9571877183e-01	 1.4044950311e+00	-1.5839941389e+00
 2.8314746740e-01	 1.4070832718e+00	-1.5672984274e+00
 2.7058748470e-01	 1.4095524731e+00	-1.5513605375e+00
 2.5804036306e-01	 1.4119032813e+00	-1.5362789574e+00
 2.4550762173e-01	 1.4141363665e+00	-1.5221244332e+00
 3.7433896921e-01	 1.3977962894e+00	-1.6468523731e+00
 3.6162981213e-01	 1.4011381083e+00	-1.6285189124e+00
 3.4892235631e-01	 1.4043565365e+00	-1.6096328863e+00
 3.3621826611e-01	 1.4074520700e+00	-1.5904576739e+00
 3.2351918835e-01	 1.4104252322e+00	-1.5712681061e+00
 3.1082675180e-01	 1.4132765736e+00	-1.5523039472e+00
 2.9814256671e-01	 1.4160066705e+00	-1.5337703905e+00
 2.8546822431e-01	 1.4186161251e+00	-1.5158388306e+00
 2.7280529643e-01	 1.4211055647e+00	-1.4986478914e+00
 2.6015533502e-01	 1.4234756409e+00	-1.4823046866e+00
 2.4751987179e-01	 1.4257270291e+00	-1.4668862889e+00
 3.7738221422e-01	 1.4091598848e+00	-1.6087173860e+00
 3.6456973614e-01	 1.4125288716e+00	-1.5895332505e+00
 3.5175897314e-01	 1.4157734644e+00	-1.5697444366e+00
 3.3895160312e-01	 1.4188941635e+00	-1.5495436570e+00
 3.2614928630e-01	 1.4218914965e+00	-1.5292293485e+00
 3.1335366468e-01	 1.4247660183e+00	-1.5090617651e+00
 3.0056636159e-01	 1.4275183099e+00	-1.4892635859e+00
 2.8778898122e-01	 1.4301489785e+00	-1.4700208142e+00
 2.7502310816e-01	 1.4326586564e+00	-1.4514839436e+00
 2.6227030699e-01	 1.4350480004e+00	-1.4337693667e+00
 2.4953212185e-01	 1.4373176916e+00	-1.4169610028e+00
 3.8042545923e-01	 1.4205234802e+00	-1.5765182310e+00
 3.6750966014e-01	 1.4239196348e+00	-1.5564386781e+00
 3.5459558997e-01	 1.4271903923e+00	-1.5357284835e+00
 3.4168494014e-01	 1.4303362570e+00	-1.5144621539e+00
 3.2877938425e-01	 1.4333577608e+00	-1.4929630391e+00
 3.1588057756e-01	 1.4362554629e+00	-1.4715130158e+00
 3.0299015648e-01	 1.4390299493e+00	-1.4503532155e+00
 2.9010973813e-01	 1.4416818319e+00	-1.4296850569e+00
 2.7724091989e-01	 1.4442117480e+00	-1.4096715571e+00
 2.6438527895e-01	 1.4466203600e+00	-1.3904388979e+00
 2.5154437192e-01	 1.4489083541e+00	-1.3720782182e+00
 2.3142187128e-01	 1.3330017287e+00	-2.0827567834e+00
 2.1962114727e-01	 1.3349967069e+00	-2.0774776434e+00
 2.0783679334e-01	 1.3368820057e+00	-2.0723546879e+00
 1.9607018643e-01	 1.3386583193e+00	-2.0674319452e+00
 1.8432268312e-01	 1.3403263620e+00	-2.0627403527e+00
 1.7259561938e-01	 1.3418868674e+00	-2.0582987447e+00
 1.6089031028e-01	 1.3433405879e+00	-2.0541149047e+00
 1.4920804976e-01	 1.3446882941e+00	-2.0501866678e+00
 1.3755011039e-01	 1.3459307742e+00	-2.0465030614e+00
 1.2591774315e-01	 1.3470688334e+00	-2.0430454720e+00
 1.1431217725e-01	 1.3481032932e+00	-2.0397888248e+00
 2.3343412134e-01	 1.3445923913e+00	-1.9817476662e+00
 2.2153078816e-01	 1.3466047161e+00	-1.9750929131e+00
 2.0964396740e-01	 1.3485064079e+00	-1.9686888752e+00
 1.9777504796e-01	 1.3502981668e+00	-1.9625759372e+00
 1.8592539824e-01	 1.3519807134e+00	-1.9567799226e+00
 1.7409636581e-01	 1.3535547877e+00	-1.9513132176e+00
 1.6228927718e-01	 1.3550211485e+00	-1.9461759593e+00
 1.5050543755e-01	 1.3563805732e+00	-1.9413572771e+00
 1.3874613053e-01	 1.3576338569e+00	-1.9368365706e+00
 1.2701261800e-01	 1.3587818116e+00	-1.9325848131e+00
 1.1530613986e-01	 1.3598252663e+00	-1.9285658672e+00
 2.3544637141e-01	 1.3561830538e+00	-1.8882881484e+00
 2.2344042904e-01	 1.3582127253e+00	-1.8803922715e+00
 2.1145114145e-01	 1.3601308100e+00	-1.8728136704e+00
 1.9947990949e-01	 1.3619380143e+00	-1.8655908780e+00
 1.8752811336e-01	 1.3636350648e+00	-1.8587464936e+00
 1.7559711224e-01	 1.3652227079e+00	-1.8522884435e+00
 1.6368824408e-01	 1.3667017091e+00	-1.8462113072e+00
 1.5180282533e-01	 1.3680728523e+00	-1.8404976972e+00
 1.3994215067e-01	 1.3693369395e+00	-1.8351196757e+00
 1.2810749286e-01	 1.3704947899e+00	-1.8300401959e+00
 1.1630010246e-01	 1.3715472393e+00	-1.8252145530e+00
 2.3745862147e-01	 1.3677737164e+00	-1.8020180958e+00
 2.2535006993e-01	 1.3698207345e+00	-1.7929742905e+00
 2.1325831550e-01	 1.3717552122e+00	-1.7842920649e+00
 2.0118477102e-01	 1.3735778618e+00	-1.7760097139e+00
 1.8913082847e-01	 1.3752894162e+00	-1.7681483208e+00
 1.7709785866e-01	 1.3768906281e+00	-1.7607131551e+00
 1.6508721098e-01	 1.3783822696e+00	-1.7536951387e+00
 1.5310021311e-01	 1.3797651314e+00	-1.7470723655e+00
 1.4113817081e-01	 1.3810400222e+00	-1.7408116582e+00
 1.2920236771e-01	 1.3822077681e+00	-1.7348701477e+00
 1.1729406507e-01	 1.3832692124e+00	-1.7291968619e+00
 2.3947087154e-01	 1.3793643789e+00	-1.7225918583e+00
 2.2725971082e-01	 1.3814287437e+00	-1.7124532990e+00
 2.1506548955e-01	 1.3833796144e+00	-1.7027039296e+00
 2.0288963255e-01	 1.3852177093e+00	-1.6933832444e+00
 1.9073354359e-01	 1.3869437676e+00	-1.6845123377e+00
 1.7859860509e-01	 1.3885585484e+00	-1.6760954414e+00
 1.6648617788e-01	 1.3900628302e+00	-1.6681215329e+00
 1.5439760089e-01	 1.3914574105e+00	-1.6605659962e+00
 1.4233419095e-01	 1.3927431048e+00	-1.6533923201e+00
 1.3029724256e-01	 1.3939207464e+00	-1.6465538183e+00
 1.1828802768e-01	 1.3949911854e+00	-1.6399953563e+00
 2.4148312160e-01	 1.3909550414e+00	-1.6496776719e+00
 2.2916935170e-01	 1.3930367529e+00	-1.6384587272e+00
 2.1687266360e-01	 1.3950040166e+00	-1.6276453094e+00
 2.0459449408e-01	 1.3968575568e+00	-1.6172793733e+00
 1.9233625870e-01	 1.3985981190e+00	-1.6073833718e+00
 1.8009935152e-01	 1.4002264686e+00	-1.5979619352e+00
 1.6788514477e-01	 1.4017433908e+00	-1.5890036233e+00
 1.5569498867e-01	 1.4031496896e+00	-1.5804827299e+00
 1.4353021109e-01	 1.4044461875e+00	-1.5723611253e+00
 1.3139211741e-01	 1.4056337247e+00	-1.5645901186e+00
 1.1928199028e-01	 1.4067131585e+00	-1.5571123246e+00
 2.4349537166e-01	 1.4025457040e+00	-1.5829570884e+00
 2.3107899259e-01	 1.4046447621e+00	-1.5706344816e+00
 2.1867983765e-01	 1.4066284187e+00	-1.5587277503e+00
 2.0629935560e-01	 1.4084974043e+00	-1.5472823962e+00
 1.9393897381e-01	 1.4102524704e+00	-1.5363233986e+00
 1.8160009794e-01	 1.4118943889e+00	-1.5258570400e+00
 1.6928411167e-01	 1.4134239513e+00	-1.5158728037e+00
 1.5699237645e-01	 1.4148419686e+00	-1.5063453258e+00
 1.4472623123e-01	 1.4161492701e+00	-1.4972363835e+00
 1.3248699226e-01	 1.4173467029e+00	-1.4884969024e+00
 1.2027595289e-01	 1.4184351315e+00	-1.4800689659e+00
 2.4550762173e-01	 1.4141363665e+00	-1.5221244332e+00
 2.3298863348e-01	 1.4162527713e+00	-1.5086383508e+00
 2.2048701170e-01	 1.4182528209e+00	-1.4955776607e+00
 2.0800421713e-01	 1.4201372518e+00	-1.4829923223e+00
 1.9554168893e-01	 1.4219068218e+00	-1.4709108312e+00
 1.8310084437e-01	 1.4235623091e+00	-1.4593421936e+00
 1.7068307857e-01	 1.4251045119e+00	-1.4482779730e+00
 1.5828976423e-01	 1.4265342477e+00	-1.4376943928e+00
 1.4592225137e-01	 1.4278523528e+00	-1.4275544734e+00
 1.3358186711e-01	 1.4290596812e+00	-1.4178101874e+00
 1.2126991549e-01	 1.4301571046e+00	-1.4084046145e+00
 2.4751987179e-01	 1.4257270291e+00	-1.4668862889e+00
 2.3489827436e-01	 1.4278607805e+00	-1.4521414399e+00
 2.2229418575e-01	 1.4298772231e+00	-1.4378357019e+00
 2.0970907866e-01	 1.4317770993e+00	-1.4240242287e+00
 1.9714440404e-01	 1.4335611732e+00	-1.4107398443e+00
 1.8460159079e-01	 1.4352302293e+00	-1.3979951680e+00
 1.7208204546e-01	 1.4367850725e+00	-1.3857848160e+00
 1.5958715201e-01	 1.4382265268e+00	-1.3740876572e+00
 1.4711827150e-01	 1.4395554354e+00	-1.3628691030e+00
 1.3467674197e-01	 1.4407726594e+00	-1.3520834137e+00
 1.2226387810e-01	 1.4418790776e+00	-1.3416760018e+00
 2.4953212185e-01	 1.4373176916e+00	-1.4169610028e+00
 2.3680791525e-01	 1.4394687897e+00	-1.4008276303e+00
 2.2410135980e-01	 1.4415016252e+00	-1.3851562076e+00
 2.1141394019e-01	 1.4434169468e+00	-1.3700076457e+00
 1.9874711915e-01	 1.4452155246e+00	-1.3554197298e+00
 1.8610233722e-01	 1.4468981496e+00	-1.3414094016e+00
 1.7348101236e-01	 1.4484656330e+00	-1.3279751183e+00
 1.6088453978e-01	 1.4499188059e+00	-1.3150992658e+00
 1.4831429164e-01	 1.4512585181e+00	-1.3027506062e+00
 1.3577161682e-01	 1.4524856377e+00	-1.2908867385e+00
 1.2325784070e-01	 1.4536010507e+00	-1.2794565539e+00
 2.5154437192e-01	 1.4489083541e+00	-1.3720782182e+00
 2.3871755614e-01	 1.4510767989e+00	-1.3543930664e+00
 2.2590853385e-01	 1.4531260274e+00	-1.3372066314e+00
 2.1311880172e-01	 1.4550567943e+00	-1.3205859697e+00
 2.0034983427e-01	 1.4568698760e+00	-1.3045742834e+00
 1.8760308364e-01	 1.4585660698e+00	-1.2891933639e+00
 1.7487997926e-01	 1.4601461936e+00	-1.2744461136e+00
 1.6218192756e-01	 1.4616110850e+00	-1.2603191214e+00
 1.4951031178e-01	 1.4629616007e+00	-1.2467852714e+00
 1.3686649167e-01	 1.4641986159e+00	-1.2338063630e+00
 1.2425180331e-01	 1.4653230237e+00	-1.2213357220e+00
 1.1431217725e-01	 1.3481032932e+00	-2.0397888248e+00
 1.0273658092e-01	 1.3490348414e+00	-2.0368169047e+00
 9.1190141182e-02	 1.3498645146e+00	-2.0342286638e+00
 7.9673993992e-02	 1.3505931792e+00	-2.0320182845e+00
 6.8189253633e-02	 1.3512217158e+00	-2.0301795115e+00
 5.6737012617e-02	 1.3517510184e+00	-2.0287066941e+00
 4.5318341580e-02	 1.3521819937e+00	-2.0275957845e+00
 3.3934289200e-02	 1.3525155609e+00	-2.0268452852e+00
 2.2585882123e-02	 1.3527526507e+00	-2.0264571392e+00
 1.1274124911e-02	 1.3528942051e+00	-2.0264375575e+00
 0.0000000000e+00	 1.3529411765e+00	-2.0267977783e+00
 1.1530613986e-01	 1.3598252663e+00	-1.9285658672e+00
 1.0362989187e-01	 1.3607649144e+00	-1.9248832302e+00
 9.1983053999e-02	 1.3616018017e+00	-1.9216629412e+00
 8.0366772073e-02	 1.3623368022e+00	-1.9188990881e+00
 6.8782170066e-02	 1.3629708041e+00	-1.9165853109e+00
 5.7230349988e-02	 1.3635047090e+00	-1.9147159445e+00
 4.5712391786e-02	 1.3639394317e+00	-1.9132871120e+00
 3.4229353255e-02	 1.3642758993e+00	-1.9122977624e+00
 2.2782269969e-02	 1.3645150506e+00	-1.9117506457e+00
 1.1372155225e-02	 1.3646578358e+00	-1.9116532203e+00
 0.0000000000e+00	 1.3647052157e+00	-1.9120184854e+00
 1.1630010246e-01	 1.3715472393e+00	-1.8252145530e+00
 1.0452320282e-01	 1.3724949874e+00	-1.8207721361e+00
 9.2775966816e-02	 1.3733390889e+00	-1.8168714397e+00
 8.1059550154e-02	 1.3740804252e+00	-1.8135078465e+00
 6.9375086498e-02	 1.3747198923e+00	-1.8106762942e+00
 5.7723687359e-02	 1.3752583996e+00	-1.8083725211e+00
 4.6106441992e-02	 1.3756968697e+00	-1.8065942580e+00
 3.4524417311e-02	 1.3760362377e+00	-1.8053423592e+00
 2.2978657816e-02	 1.3762774506e+00	-1.8046218653e+00
 1.1470185538e-02	 1.3764214666e+00	-1.8044429923e+00
 0.0000000000e+00	 1.3764692549e+00	-1.8048220403e+00
 1.1729406507e-01	 1.3832692124e+00	-1.7291968619e+00
 1.0541651377e-01	 1.3842250605e+00	-1.7239514105e+00
 9.3568879632e-02	 1.3850763760e+00	-1.7193282932e+00
 8.1752328235e-02	 1.3858240482e+00	-1.7153254240e+00
 6.9968002931e-02	 1.3864689805e+00	-1.7119402892e+00
 5.8217024730e-02	 1.3870120902e+00	-1.7091712993e+00
 4.6500492198e-02	 1.3874543077e+00	-1.7070190829e+00
 3.4819481366e-02	 1.3877965762e+00	-1.7054877144e+00
 2.3175045662e-02	 1.3880398506e+00	-1.7045858671e+00
 1.1568215852e-02	 1.3881850974e+00	-1.7043278868e+00
 0.0000000000e+00	 1.3882332941e+00	-1.7047347791e+00
 1.1828802768e-01	 1.3949911854e+00	-1.6399953563e+00
 1.0630982472e-01	 1.3959551335e+00	-1.6339093015e+00
 9.4361792449e-02	 1.3968136632e+00	-1.6285279446e+00
 8.2445106316e-02	 1.3975676712e+00	-1.6238528150e+00
 7.0560919363e-02	 1.3982180687e+00	-1.6198850473e+00
 5.8710362101e-02	 1.3987657808e+00	-1.6166268440e+00
 4.6894542403e-02	 1.3992117457e+00	-1.6140828753e+00
 3.5114545421e-02	 1.3995569146e+00	-1.6122616059e+00
 2.3371433508e-02	 1.3998022505e+00	-1.6111765432e+00
 1.1666246166e-02	 1.3999487282e+00	-1.6108473974e+00
 0.0000000000e+00	 1.3999973333e+00	-1.6113011497e+00
 1.1928199028e-01	 1.4067131585e+00	-1.5571123246e+00
 1.0720313567e-01	 1.4076852065e+00	-1.5501536671e+00
 9.5154705265e-02	 1.4085509503e+00	-1.5439843041e+00
 8.3137884396e-02	 1.4093112942e+00	-1.5386103114e+00
 7.1153835795e-02	 1.4099671570e+00	-1.5340374207e+00
 5.9203699472e-02	 1.4105194714e+00	-1.5302725975e+00
 4.7288592609e-02	 1.4109691837e+00	-1.5273255502e+00
 3.5409609476e-02	 1.4113172530e+00	-1.5252101612e+00
 2.3567821354e-02	 1.4115646505e+00	-1.5239458317e+00
 1.1764276479e-02	 1.4117123590e+00	-1.5235587331e+00
 0.0000000000e+00	 1.4117613726e+00	-1.5240829587e+00
 1.2027595289e-01	 1.4184351315e+00	-1.4800689659e+00
 1.0809644662e-01	 1.4194152795e+00	-1.4722111668e+00
 9.5947618081e-02	 1.4202882375e+00	-1.4652299484e+00
 8.3830662477e-02	 1.4210549172e+00	-1.4591367108e+00
 7.1746752227e-02	 1.4217162452e+00	-1.4539425803e+00
 5.9697036842e-02	 1.4222731620e+00	-1.4496601071e+00
 4.7682642814e-02	 1.4227266217e+00	-1.4463048883e+00
 3.5704673531e-02	 1.4230775914e+00	-1.4438971066e+00
 2.3764209200e-02	 1.4233270504e+00	-1.4424629767e+00
 1.1862306793e-02	 1.4234759898e+00	-1.4420360902e+00
 0.0000000000e+00	 1.4235254118e+00	-1.4426586545e+00
 1.2126991549e-01	 1.4301571046e+00	-1.4084046145e+00
 1.0898975757e-01	 1.4311453525e+00	-1.3996264928e+00
 9.6740530897e-02	 1.4320255246e+00	-1.3918153595e+00
 8.4523440557e-02	 1.4327985402e+00	-1.3849885636e+00
 7.2339668659e-02	 1.4334653334e+00	-1.3791632718e+00
 6.0190374213e-02	 1.4340268526e+00	-1.3743582914e+00
 4.8076693020e-02	 1.4344840597e+00	-1.3705958116e+00
 3.5999737586e-02	 1.4348379298e+00	-1.3679030545e+00
 2.3960597046e-02	 1.4350894504e+00	-1.3663138264e+00
 1.1960337107e-02	 1.4352396206e+00	-1.3658699605e+00
 0.0000000000e+00	 1.4352894510e+00	-1.3666226462e+00
 1.2226387810e-01	 1.4418790776e+00	-1.3416760018e+00
 1.0988306852e-01	 1.4428754255e+00	-1.3319616385e+00
 9.7533443713e-02	 1.4437628118e+00	-1.3233082006e+00
 8.5216218637e-02	 1.4445421632e+00	-1.3157394566e+00
 7.2932585091e-02	 1.4452144217e+00	-1.3092791078e+00
 6.0683711583e-02	 1.4457805432e+00	-1.3039527413e+00
 4.8470743225e-02	 1.4462414977e+00	-1.2997896946e+00
 3.6294801641e-02	 1.4465982682e+00	-1.2968248238e+00
 2.4156984892e-02	 1.4468518503e+00	-1.2951001636e+00
 1.2058367420e-02	 1.4470032514e+00	-1.2946664728e+00
 0.0000000000e+00	 1.4470534902e+00	-1.2955846563e+00
 1.2325784070e-01	 1.4536010507e+00	-1.2794565539e+00
 1.1077637947e-01	 1.4546054985e+00	-1.2687952016e+00
 9.8326356528e-02	 1.4555000989e+00	-1.2592926258e+00
 8.5908996716e-02	 1.4562857862e+00	-1.2509793308e+00
 7.3525501522e-02	 1.4569635099e+00	-1.2438858944e+00
 6.1177048953e-02	 1.4575342338e+00	-1.2380450555e+00
 4.8864793430e-02	 1.4579989357e+00	-1.2334937089e+00
 3.6589865696e-02	 1.4583586067e+00	-1.2302747942e+00
 2.4353372738e-02	 1.4586142503e+00	-1.2284390703e+00
 1.2156397734e-02	 1.4587668822e+00	-1.2280467668e+00
 0.0000000000e+00	 1.4588175294e+00	-1.2291691034e+00
 1.2425180331e-01	 1.4653230237e+00	-1.2213357220e+00
 1.1166969042e-01	 1.4663355715e+00	-1.2097217204e+00
 9.9119269343e-02	 1.4672373861e+00	-1.1993686233e+00
 8.6601774796e-02	 1.4680294092e+00	-1.1903138321e+00
 7.4118417953e-02	 1.4687125981e+00	-1.1825949890e+00
 6.1670386323e-02	 1.4692879244e+00	-1.1762522072e+00
 4.9258843635e-02	 1.4697563737e+00	-1.1713301987e+00
 3.6884929750e-02	 1.4701189451e+00	-1.1678802912e+00
 2.4549760584e-02	 1.4703766502e+00	-1.1659623214e+00
 1.2254428048e-02	 1.4705305129e+00	-1.1656463965e+00
 0.0000000000e+00	 1.4705815686e+00	-1.1670145158e+00
 1.4705815686e+00	 0.0000000000e+00	 3.8180311883e+00
 1.4705305129e+00	 1.2254428048e-02	 3.8150317004e+00
 1.4703766502e+00	 2.4549760584e-02	 3.8108244018e+00
 1.4701189451e+00	 3.6884929750e-02	 3.8051918616e+00
 1.4697563737e+00	 4.9258843635e-02	 3.7979228443e+00
 1.4692879244e+00	 6.1670386323e-02	 3.7888112940e+00
 1.4687125981e+00	 7.4118417953e-02	 3.7776552115e+00
 1.4680294092e+00	 8.6601774796e-02	 3.7642554308e+00
 1.4672373861e+00	 9.9119269343e-02	 3.7484142985e+00
 1.4663355715e+00	 1.1166969042e-01	 3.7299342619e+00
 1.4653230237e+00	 1.2425180331e-01	 3.7086163732e+00
 1.4823476078e+00	 0.0000000000e+00	 3.8047366243e+00
 1.4822961437e+00	 1.2352475027e-02	 3.8015541687e+00
 1.4821410499e+00	 2.4746181818e-02	 3.7972805079e+00
 1.4818812829e+00	 3.7180043969e-02	 3.7916915052e+00
 1.4815158106e+00	 4.9652960832e-02	 3.7845760305e+00
 1.4810436132e+00	 6.2163807565e-02	 3.7757189540e+00
 1.4804636838e+00	 7.4711435186e-02	 3.7648946890e+00
 1.4797750288e+00	 8.7294670654e-02	 3.7518941094e+00
 1.4789766687e+00	 9.9912316961e-02	 3.7365106818e+00
 1.4780676388e+00	 1.1256315324e-01	 3.7185389120e+00
 1.4770469896e+00	 1.2524593490e-01	 3.6977727684e+00
 1.4941136470e+00	 0.0000000000e+00	 3.7828249195e+00
 1.4940617744e+00	 1.2450522007e-02	 3.7794139687e+00
 1.4939054496e+00	 2.4942603052e-02	 3.7748367050e+00
 1.4936436207e+00	 3.7475158187e-02	 3.7688543145e+00
 1.4932752475e+00	 5.0047078030e-02	 3.7612409075e+00
 1.4927993021e+00	 6.2657228807e-02	 3.7517829053e+00
 1.4922147695e+00	 7.5304452418e-02	 3.7402784008e+00
 1.4915206483e+00	 8.7987566512e-02	 3.7265364867e+00
 1.4907159513e+00	 1.0070536458e-01	 3.7103765431e+00
 1.4897997060e+00	 1.1345661606e-01	 3.6916274746e+00
 1.4887709555e+00	 1.2624006648e-01	 3.6701268891e+00
 1.5058796863e+00	 0.0000000000e+00	 3.7619525672e+00
 1.5058274051e+00	 1.2548568987e-02	 3.7583553162e+00
 1.5056698492e+00	 2.5139024286e-02	 3.7535256100e+00
 1.5054059585e+00	 3.7770272406e-02	 3.7472124978e+00
 1.5050346844e+00	 5.0441195227e-02	 3.7391778115e+00
 1.5045549909e+00	 6.3150650049e-02	 3.7291956177e+00
 1.5039658552e+00	 7.5897469651e-02	 3.7170516501e+00
 1.5032662679e+00	 8.8680462370e-02	 3.7025427154e+00
 1.5024552339e+00	 1.0149841220e-01	 3.6854760652e+00
 1.5015317732e+00	 1.1435007888e-01	 3.6656687229e+00
 1.5004949214e+00	 1.2723419807e-01	 3.6429467569e+00
 1.5176457255e+00	 0.0000000000e+00	 3.7419980134e+00
 1.5175930358e+00	 1.2646615966e-02	 3.7382572883e+00
 1.5174342489e+00	 2.5335445520e-02	 3.7332275771e+00
 1.5171682962e+00	 3.8065386624e-02	 3.7266482347e+00
 1.5167941212e+00	 5.0835312424e-02	 3.7182711938e+00
 1.5163106798e+00	 6.3644071290e-02	 3.7078604831e+00
 1.5157169409e+00	 7.6490486883e-02	 3.6951917327e+00
 1.5150118874e+00	 8.9373358227e-02	 3.6800516608e+00
 1.5141945165e+00	 1.0229145981e-01	 3.6622375310e+00
 1.5132638405e+00	 1.1524354170e-01	 3.6415565729e+00
 1.5122188873e+00	 1.2822832966e-01	 3.6178253528e+00
 1.5294117647e+00	 0.0000000000e+00	 3.7228474808e+00
 1.5293586666e+00	 1.2744662946e-02	 3.7190056119e+00
 1.5291986486e+00	 2.5531866754e-02	 3.7138285550e+00
 1.5289306340e+00	 3.8360500842e-02	 3.7070483160e+00
 1.5285535581e+00	 5.1229429621e-02	 3.6984092051e+00
 1.5280663686e+00	 6.4137492532e-02	 3.6876674226e+00
 1.5274680266e+00	 7.7083504115e-02	 3.6745906394e+00
 1.5267575069e+00	 9.0066254085e-02	 3.6589575661e+00
 1.5259337991e+00	 1.0308450743e-01	 3.6405574997e+00
 1.5249959077e+00	 1.1613700452e-01	 3.6191898398e+00
 1.5239428532e+00	 1.2922246124e-01	 3.5946635606e+00
 1.5411778039e+00	 0.0000000000e+00	 3.7043946725e+00
 1.5411242973e+00	 1.2842709926e-02	 3.7004923881e+00
 1.5409630483e+00	 2.5728287987e-02	 3.6952198320e+00
 1.5406929718e+00	 3.8655615061e-02	 3.6883039089e+00
 1.5403129950e+00	 5.1623546818e-02	 3.6794834805e+00
 1.5398220575e+00	 6.4630913773e-02	 3.6685090207e+00
 1.5392191123e+00	 7.7676521347e-02	 3.6551422735e+00
 1.5385031265e+00	 9.0759149942e-02	 3.6391559066e+00
 1.5376730817e+00	 1.0387755505e-01	 3.6203331507e+00
 1.5367279750e+00	 1.1703046734e-01	 3.5984674146e+00
 1.5356668191e+00	 1.3021659283e-01	 3.5733618631e+00
 1.5529438431e+00	 0.0000000000e+00	 3.6865404883e+00
 1.5528899280e+00	 1.2940756906e-02	 3.6826158283e+00
 1.5527274479e+00	 2.5924709221e-02	 3.6772977920e+00
 1.5524553096e+00	 3.8950729279e-02	 3.6703103327e+00
 1.5520724319e+00	 5.2017664015e-02	 3.6613889348e+00
 1.5515777463e+00	 6.5124335015e-02	 3.6502803400e+00
 1.5509701980e+00	 7.8269538579e-02	 3.6367422846e+00
 1.5502487460e+00	 9.1452045800e-02	 3.6205432409e+00
 1.5494123643e+00	 1.0467060266e-01	 3.6014621522e+00
 1.5484600422e+00	 1.1792393016e-01	 3.5792881505e+00
 1.5473907850e+00	 1.3121072442e-01	 3.5538202444e+00
 1.5647098824e+00	 0.0000000000e+00	 3.6691927553e+00
 1.5646555587e+00	 1.3038803885e-02	 3.6652800032e+00
 1.5644918476e+00	 2.6121130455e-02	 3.6599636819e+00
 1.5642176474e+00	 3.9245843497e-02	 3.6529668450e+00
 1.5638318688e+00	 5.2411781212e-02	 3.6440235674e+00
 1.5633334352e+00	 6.5617756257e-02	 3.6328787440e+00
 1.5627212837e+00	 7.8862555811e-02	 3.6192879094e+00
 1.5619943656e+00	 9.2144941658e-02	 3.6030170699e+00
 1.5611516469e+00	 1.0546365028e-01	 3.5838425374e+00
 1.5601921095e+00	 1.1881739298e-01	 3.5615507548e+00
 1.5591147510e+00	 1.3220485600e-01	 3.5359380974e+00
 1.5764759216e+00	 0.0000000000e+00	 3.6522659690e+00
 1.5764211895e+00	 1.3136850865e-02	 3.6483946023e+00
 1.5762562473e+00	 2.6317551689e-02	 3.6431233893e+00
 1.5759799852e+00	 3.9540957716e-02	 3.6361764376e+00
 1.5755913056e+00	 5.2805898409e-02	 3.6272882760e+00
 1.5750891240e+00	 6.6111177499e-02	 3.6162037291e+00
 1.5744723694e+00	 7.9455573044e-02	 3.6026778211e+00
 1.5737399851e+00	 9.2837837516e-02	 3.5864757025e+00
 1.5728909295e+00	 1.0625669790e-01	 3.5673725871e+00
 1.5719241767e+00	 1.1971085580e-01	 3.5451536878e+00
 1.5708387169e+00	 1.3319898759e-01	 3.5196141383e+00
 1.5882419608e+00	 0.0000000000e+00	 3.6356810470e+00
 1.5881868202e+00	 1.3234897845e-02	 3.6318747042e+00
 1.5880206470e+00	 2.6513972923e-02	 3.6266872305e+00
 1.5877423230e+00	 3.9836071934e-02	 3.6198456414e+00
 1.5873507425e+00	 5.3200015607e-02	 3.6110866790e+00
 1.5868448128e+00	 6.6604598741e-02	 3.6001567633e+00
 1.5862234551e+00	 8.0048590276e-02	 3.5868119851e+00
 1.5854856046e+00	 9.3530733374e-02	 3.5708181290e+00
 1.5846302121e+00	 1.0704974552e-01	 3.5519507183e+00
 1.5836562439e+00	 1.2060431862e-01	 3.5299950669e+00
 1.5825626828e+00	 1.3419311918e-01	 3.5047463252e+00
 1.4653230237e+00	 1.2425180331e-01	 3.7086163732e+00
 1.4641986159e+00	 1.3686649167e-01	 3.6847356011e+00
 1.4629616007e+00	 1.4951031178e-01	 3.6586787828e+00
 1.4616110850e+00	 1.6218192756e-01	 3.6303983406e+00
 1.4601461936e+00	 1.7487997926e-01	 3.5998414329e+00
 1.4585660698e+00	 1.8760308364e-01	 3.5669480409e+00
 1.4568698760e+00	 2.0034983427e-01	 3.5316490265e+00
 1.4550567943e+00	 2.1311880172e-01	 3.4938641755e+00
 1.4531260274e+00	 2.2590853385e-01	 3.4535002419e+00
 1.4510767989e+00	 2.3871755614e-01	 3.4104490086e+00
 1.4489083541e+00	 2.5154437192e-01	 3.3645853817e+00
 1.4770469896e+00	 1.2524593490e-01	 3.6977727684e+00
 1.4759135855e+00	 1.3796155265e-01	 3.6744987337e+00
 1.4746666730e+00	 1.5070653525e-01	 3.6491085419e+00
 1.4733053519e+00	 1.6347953591e-01	 3.6215388333e+00
 1.4718287400e+00	 1.7627918399e-01	 3.5917213648e+00
 1.4702359737e+00	 1.8910408521e-01	 3.5595809915e+00
 1.4685262087e+00	 2.0195282186e-01	 3.5250336151e+00
 1.4666986207e+00	 2.1482395309e-01	 3.4879841129e+00
 1.4647524058e+00	 2.2771601514e-01	 3.4483242637e+00
 1.4626867816e+00	 2.4062752168e-01	 3.4059306875e+00
 1.4605009872e+00	 2.5355696408e-01	 3.3606628162e+00
 1.4887709555e+00	 1.2624006648e-01	 3.6701268891e+00
 1.4876285551e+00	 1.3905661364e-01	 3.6462328412e+00
 1.4863717453e+00	 1.5190275872e-01	 3.6204130165e+00
 1.4849996188e+00	 1.6477714426e-01	 3.5926699655e+00
 1.4835112864e+00	 1.7767838873e-01	 3.5630134513e+00
 1.4819058776e+00	 1.9060508678e-01	 3.5314590405e+00
 1.4801825415e+00	 2.0355580945e-01	 3.4978720446e+00
 1.4783404471e+00	 2.1652910446e-01	 3.4618300928e+00
 1.4763787843e+00	 2.2952349643e-01	 3.4231991066e+00
 1.4742967642e+00	 2.4253748723e-01	 3.3818453694e+00
 1.4720936203e+00	 2.5556955625e-01	 3.3376175941e+00
 1.5004949214e+00	 1.2723419807e-01	 3.6429467569e+00
 1.4993435247e+00	 1.4015167463e-01	 3.6176748838e+00
 1.4980768176e+00	 1.5309898220e-01	 3.5903222135e+00
 1.4966938857e+00	 1.6607475261e-01	 3.5608719644e+00
 1.4951938328e+00	 1.7907759346e-01	 3.5293152132e+00
 1.4935757815e+00	 1.9210608834e-01	 3.4956496052e+00
 1.4918388742e+00	 2.0515879704e-01	 3.4598779242e+00
 1.4899822735e+00	 2.1823425583e-01	 3.4220065072e+00
 1.4880051627e+00	 2.3133097772e-01	 3.3820434865e+00
 1.4859067469e+00	 2.4444745278e-01	 3.3399968418e+00
 1.4836862534e+00	 2.5758214842e-01	 3.2958722460e+00
 1.5122188873e+00	 1.2822832966e-01	 3.6178253528e+00
 1.5110584943e+00	 1.4124673562e-01	 3.5914169865e+00
 1.5097818899e+00	 1.5429520567e-01	 3.5628040458e+00
 1.5083881526e+00	 1.6737236095e-01	 3.5319529448e+00
 1.5068763791e+00	 1.8047679820e-01	 3.4988385528e+00
 1.5052456854e+00	 1.9360708991e-01	 3.4634430268e+00
 1.5034952070e+00	 2.0676178464e-01	 3.4257545059e+00
 1.5016240999e+00	 2.1993940720e-01	 3.3857656501e+00
 1.4996315411e+00	 2.3313845901e-01	 3.3434720063e+00
 1.4975167296e+00	 2.4635741832e-01	 3.2988701830e+00
 1.4952788864e+00	 2.5959474058e-01	 3.2519558149e+00
 1.5239428532e+00	 1.2922246124e-01	 3.5946635606e+00
 1.5227734639e+00	 1.4234179661e-01	 3.5673615032e+00
 1.5214869622e+00	 1.5549142914e-01	 3.5377613127e+00
 1.5200824195e+00	 1.6866996930e-01	 3.5058149757e+00
 1.5185589255e+00	 1.8187600293e-01	 3.4714834796e+00
 1.5169155893e+00	 1.9510809148e-01	 3.4347357719e+00
 1.5151515397e+00	 2.0836477223e-01	 3.3955475835e+00
 1.5132659263e+00	 2.2164455858e-01	 3.3539000964e+00
 1.5112579196e+00	 2.3494594030e-01	 3.3097784393e+00
 1.5091267122e+00	 2.4826738387e-01	 3.2631699890e+00
 1.5068715195e+00	 2.6160733275e-01	 3.2140624602e+00
 1.5356668191e+00	 1.3021659283e-01	 3.5733618631e+00
 1.5344884334e+00	 1.4343685760e-01	 3.5454099843e+00
 1.5331920345e+00	 1.5668765261e-01	 3.5150956898e+00
 1.5317766864e+00	 1.6996757765e-01	 3.4823587635e+00
 1.5302414719e+00	 1.8327520766e-01	 3.4471484824e+00
 1.5285854932e+00	 1.9660909304e-01	 3.4094227079e+00
 1.5268078725e+00	 2.0996775982e-01	 3.3691468425e+00
 1.5249077526e+00	 2.2334970995e-01	 3.3262926330e+00
 1.5228842980e+00	 2.3675342159e-01	 3.2808367996e+00
 1.5207366949e+00	 2.5017734941e-01	 3.2327594711e+00
 1.5184641526e+00	 2.6361992492e-01	 3.1820424043e+00
 1.5473907850e+00	 1.3121072442e-01	 3.5538202444e+00
 1.5462034030e+00	 1.4453191859e-01	 3.5254630935e+00
 1.5448971068e+00	 1.5788387609e-01	 3.4947076592e+00
 1.5434709533e+00	 1.7126518599e-01	 3.4614835938e+00
 1.5419240183e+00	 1.8467441240e-01	 3.4257304804e+00
 1.5402553971e+00	 1.9811009461e-01	 3.3873970611e+00
 1.5384642052e+00	 2.1157074741e-01	 3.3464403329e+00
 1.5365495790e+00	 2.2505486132e-01	 3.3028244912e+00
 1.5345106764e+00	 2.3856090288e-01	 3.2565196997e+00
 1.5323466776e+00	 2.5208731496e-01	 3.2075006646e+00
 1.5300567856e+00	 2.6563251709e-01	 3.1557449914e+00
 1.5591147510e+00	 1.3220485600e-01	 3.5359380974e+00
 1.5579183726e+00	 1.4562697958e-01	 3.5074205306e+00
 1.5566021791e+00	 1.5908009956e-01	 3.4764964447e+00
 1.5551652202e+00	 1.7256279434e-01	 3.4430872776e+00
 1.5536065647e+00	 1.8607361713e-01	 3.4071247789e+00
 1.5519253010e+00	 1.9961109618e-01	 3.3685503802e+00
 1.5501205380e+00	 2.1317373500e-01	 3.3273144367e+00
 1.5481914054e+00	 2.2676001269e-01	 3.2833753171e+00
 1.5461370548e+00	 2.4036838417e-01	 3.2366983210e+00
 1.5439566602e+00	 2.5399728051e-01	 3.1872543987e+00
 1.5416494187e+00	 2.6764510926e-01	 3.1350186517e+00
 1.5708387169e+00	 1.3319898759e-01	 3.5196141383e+00
 1.5696333422e+00	 1.4672204057e-01	 3.4911809597e+00
 1.5683072514e+00	 1.6027632303e-01	 3.4603599526e+00
 1.5668594871e+00	 1.7386040269e-01	 3.4270661031e+00
 1.5652891111e+00	 1.8747282187e-01	 3.3912250296e+00
 1.5635952049e+00	 2.0111209775e-01	 3.3527725034e+00
 1.5617768707e+00	 2.1477672260e-01	 3.3116538410e+00
 1.5598332318e+00	 2.2846516407e-01	 3.2678231483e+00
 1.5577634333e+00	 2.4217586546e-01	 3.2212423916e+00
 1.5555666429e+00	 2.5590724605e-01	 3.1718802711e+00
 1.5532420518e+00	 2.6965770142e-01	 3.1197108724e+00
 1.5825626828e+00	 1.3419311918e-01	 3.5047463252e+00
 1.5813483118e+00	 1.4781710155e-01	 3.4766419412e+00
 1.5800123236e+00	 1.6147254650e-01	 3.4461947170e+00
 1.5785537539e+00	 1.7515801104e-01	 3.4133147915e+00
 1.5769716574e+00	 1.8887202660e-01	 3.3779231964e+00
 1.5752651088e+00	 2.0261309931e-01	 3.3399515313e+00
 1.5734332035e+00	 2.1637971019e-01	 3.2993415159e+00
 1.5714750582e+00	 2.3017031544e-01	 3.2560443943e+00
 1.5693898117e+00	 2.4398334675e-01	 3.2100201676e+00
 1.5671766256e+00	 2.5781721160e-01	 3.1612366292e+00
 1.5648346848e+00	 2.7167029359e-01	 3.1096681748e+00
 1.4489083541e+00	 2.5154437192e-01	 3.3645853817e+00
 1.4466203600e+00	 2.6438527895e-01	 3.3163080300e+00
 1.4442117480e+00	 2.7724091989e-01	 3.2660333060e+00
 1.4416818319e+00	 2.9010973813e-01	 3.2136547455e+00
 1.4390299493e+00	 3.0299015648e-01	 3.1590402138e+00
 1.4362554629e+00	 3.1588057756e-01	 3.1020303399e+00
 1.4333577608e+00	 3.2877938425e-01	 3.0424371015e+00
 1.4303362570e+00	 3.4168494014e-01	 2.9800425827e+00
 1.4271903923e+00	 3.5459558997e-01	 2.9145979263e+00
 1.4239196348e+00	 3.6750966014e-01	 2.8458225025e+00
 1.4205234802e+00	 3.8042545923e-01	 2.7733641585e+00
 1.4605009872e+00	 2.5355696408e-01	 3.3606628162e+00
 1.4581946869e+00	 2.6650061048e-01	 3.3128777760e+00
 1.4557668038e+00	 2.7945910867e-01	 3.2629629096e+00
 1.4532166460e+00	 2.9243088959e-01	 3.2108139580e+00
 1.4505435458e+00	 3.0541436343e-01	 3.1563001696e+00
 1.4477468609e+00	 3.1840792003e-01	 3.0992625861e+00
 1.4448259745e+00	 3.3140992934e-01	 3.0395124814e+00
 1.4417802958e+00	 3.4441874185e-01	 2.9768299777e+00
 1.4386092612e+00	 3.5743268905e-01	 2.9109628598e+00
 1.4353123345e+00	 3.7045008396e-01	 2.8416256114e+00
 1.4318890075e+00	 3.8346922163e-01	 2.7683951778e+00
 1.4720936203e+00	 2.5556955625e-01	 3.3376175941e+00
 1.4697690139e+00	 2.6861594201e-01	 3.2908334399e+00
 1.4673218596e+00	 2.8167729745e-01	 3.2418518787e+00
 1.4647514600e+00	 2.9475204106e-01	 3.1905730643e+00
 1.4620571423e+00	 3.0783857039e-01	 3.1368697101e+00
 1.4592382590e+00	 3.2093526251e-01	 3.0805852139e+00
 1.4562941881e+00	 3.3404047444e-01	 3.0215319390e+00
 1.4532243346e+00	 3.4715254356e-01	 2.9594896755e+00
 1.4500281301e+00	 3.6026978813e-01	 2.8942043058e+00
 1.4467050343e+00	 3.7339050779e-01	 2.8253784811e+00
 1.4432545348e+00	 3.8651298402e-01	 2.7524990791e+00
 1.4836862534e+00	 2.5758214842e-01	 3.2958722460e+00
 1.4813433408e+00	 2.7073127355e-01	 3.2501268356e+00
 1.4788769154e+00	 2.8389548624e-01	 3.2026360453e+00
 1.4762862741e+00	 2.9707319252e-01	 3.1528501175e+00
 1.4735707389e+00	 3.1026277734e-01	 3.1006473861e+00
 1.4707296570e+00	 3.2346260499e-01	 3.0458756228e+00
 1.4677624018e+00	 3.3667101953e-01	 2.9883501475e+00
 1.4646683733e+00	 3.4988634527e-01	 2.9278521225e+00
 1.4614469990e+00	 3.6310688722e-01	 2.8641270561e+00
 1.4580977340e+00	 3.7633093161e-01	 2.7968447436e+00
 1.4546200621e+00	 3.8955674641e-01	 2.7254145141e+00
 1.4952788864e+00	 2.5959474058e-01	 3.2519558149e+00
 1.4929176678e+00	 2.7284660508e-01	 3.2031478211e+00
 1.4904319712e+00	 2.8611367502e-01	 3.1529400138e+00
 1.4878210882e+00	 2.9939434398e-01	 3.1014546793e+00
 1.4850843354e+00	 3.1268698429e-01	 3.0488006012e+00
 1.4822210550e+00	 3.2598994747e-01	 2.9950694846e+00
 1.4792306154e+00	 3.3930156463e-01	 2.9398275288e+00
 1.4761124121e+00	 3.5262014698e-01	 2.8817540898e+00
 1.4728658679e+00	 3.6594398630e-01	 2.8205428805e+00
 1.4694904338e+00	 3.7927135543e-01	 2.7558008302e+00
 1.4659855894e+00	 3.9260050880e-01	 2.6868892812e+00
 1.5068715195e+00	 2.6160733275e-01	 3.2140624602e+00
 1.5044919947e+00	 2.7496193661e-01	 3.1628349762e+00
 1.5019870270e+00	 2.8833186380e-01	 3.1099494462e+00
 1.4993559023e+00	 3.0171549544e-01	 3.0555355684e+00
 1.4965979319e+00	 3.1511119125e-01	 2.9997112987e+00
 1.4937124530e+00	 3.2851728994e-01	 2.9425793499e+00
 1.4906988291e+00	 3.4193210972e-01	 2.8842233511e+00
 1.4875564509e+00	 3.5535394869e-01	 2.8247036455e+00
 1.4842847368e+00	 3.6878108538e-01	 2.7640527098e+00
 1.4808831335e+00	 3.8221177925e-01	 2.7020309637e+00
 1.4773511167e+00	 3.9564427119e-01	 2.6366797486e+00
 1.5184641526e+00	 2.6361992492e-01	 3.1820424043e+00
 1.5160663217e+00	 2.7707726814e-01	 3.1290254491e+00
 1.5135420828e+00	 2.9055005258e-01	 3.0741379709e+00
 1.5108907163e+00	 3.0403664690e-01	 3.0175169778e+00
 1.5081115284e+00	 3.1753539820e-01	 2.9592895026e+00
 1.5052038510e+00	 3.3104463242e-01	 2.8995691856e+00
 1.5021670427e+00	 3.4456265481e-01	 2.8384525056e+00
 1.4990004897e+00	 3.5808775040e-01	 2.7760146376e+00
 1.4957036057e+00	 3.7161818446e-01	 2.7123025736e+00
 1.4922758333e+00	 3.8515220307e-01	 2.6469903831e+00
 1.4887166440e+00	 3.9868803358e-01	 2.5798032952e+00
 1.5300567856e+00	 2.6563251709e-01	 3.1557449914e+00
 1.5276406487e+00	 2.7919259967e-01	 3.1015538998e+00
 1.5250971385e+00	 2.9276824136e-01	 3.0453237222e+00
 1.5224255304e+00	 3.0635779837e-01	 2.9871985718e+00
 1.5196251249e+00	 3.1995960516e-01	 2.9273143636e+00
 1.5166952490e+00	 3.3357197490e-01	 2.8657954895e+00
 1.5136352564e+00	 3.4719319991e-01	 2.8027511299e+00
 1.5104445284e+00	 3.6082155211e-01	 2.7382711787e+00
 1.5071224746e+00	 3.7445528354e-01	 2.6723937509e+00
 1.5036685330e+00	 3.8809262689e-01	 2.6046866654e+00
 1.5000821713e+00	 4.0173179598e-01	 2.5349486590e+00
 1.5416494187e+00	 2.6764510926e-01	 3.1350186517e+00
 1.5392149756e+00	 2.8130793121e-01	 3.0802544252e+00
 1.5366521943e+00	 2.9498643014e-01	 3.0233246701e+00
 1.5339603445e+00	 3.0867894983e-01	 2.9643802938e+00
 1.5311387214e+00	 3.2238381211e-01	 2.9035657967e+00
 1.5281866470e+00	 3.3609931738e-01	 2.8410160476e+00
 1.5251034701e+00	 3.4982374500e-01	 2.7768526861e+00
 1.5218885672e+00	 3.6355535382e-01	 2.7111801231e+00
 1.5185413435e+00	 3.7729238262e-01	 2.6439947545e+00
 1.5150612327e+00	 3.9103305071e-01	 2.5747976943e+00
 1.5114476987e+00	 4.0477555837e-01	 2.5034468487e+00
 1.5532420518e+00	 2.6965770142e-01	 3.1197108724e+00
 1.5507893026e+00	 2.8342326274e-01	 3.0649605239e+00
 1.5482072501e+00	 2.9720461893e-01	 3.0079585757e+00
 1.5454951586e+00	 3.1100010129e-01	 2.9488623109e+00
 1.5426523179e+00	 3.2480801906e-01	 2.8878244123e+00
 1.5396780450e+00	 3.3862665985e-01	 2.8249898498e+00
 1.5365716837e+00	 3.5245429009e-01	 2.7604923820e+00
 1.5333326060e+00	 3.6628915553e-01	 2.6944506427e+00
 1.5299602124e+00	 3.8012948171e-01	 2.6267816599e+00
 1.5264539325e+00	 3.9397347453e-01	 2.5569693127e+00
 1.5228132260e+00	 4.0781932076e-01	 2.4849114084e+00
 1.5648346848e+00	 2.7167029359e-01	 3.1096681748e+00
 1.5623636295e+00	 2.8553859427e-01	 3.0555050667e+00
 1.5597623059e+00	 2.9942280771e-01	 2.9990429549e+00
 1.5570299726e+00	 3.1332125275e-01	 2.9404449671e+00
 1.5541659145e+00	 3.2723222602e-01	 2.8798714574e+00
 1.5511694430e+00	 3.4115400233e-01	 2.8174770160e+00
 1.5480398974e+00	 3.5508483519e-01	 2.7534070799e+00
 1.5447766448e+00	 3.6902295723e-01	 2.6877941158e+00
 1.5413790812e+00	 3.8296658079e-01	 2.6204341830e+00
 1.5378466322e+00	 3.9691389835e-01	 2.5508518039e+00
 1.5341787533e+00	 4.1086308315e-01	 2.4789611793e+00
 1.4205234802e+00	 3.8042545923e-01	 2.7733641585e+00
 1.4170014531e+00	 3.9334127868e-01	 2.6981731789e+00
 1.4133531084e+00	 4.0625539389e-01	 2.6215246122e+00
 1.4095780307e+00	 4.1916606432e-01	 2.5434865727e+00
 1.4056758345e+00	 4.3207153386e-01	 2.4641259769e+00
 1.4016461652e+00	 4.4497003142e-01	 2.3835095615e+00
 1.3974886992e+00	 4.5785977162e-01	 2.3017048847e+00
 1.3932031444e+00	 4.7073895534e-01	 2.2187813038e+00
 1.3887892409e+00	 4.8360577045e-01	 2.1348109229e+00
 1.3842467613e+00	 4.9645839248e-01	 2.0498695043e+00
 1.3795755113e+00	 5.0929498526e-01	 1.9640373387e+00
 1.4318890075e+00	 3.8346922163e-01	 2.7683951778e+00
 1.4283388009e+00	 3.9648837981e-01	 2.6921567899e+00
 1.4246612660e+00	 4.0950582012e-01	 2.6141620634e+00
 1.4208559840e+00	 4.2251978809e-01	 2.5345280994e+00
 1.4169225666e+00	 4.3552851355e-01	 2.4533702104e+00
 1.4128606562e+00	 4.4853021126e-01	 2.3708029109e+00
 1.4086699265e+00	 4.6152308152e-01	 2.2869408867e+00
 1.4043500832e+00	 4.7450531086e-01	 2.2018999382e+00
 1.3999008643e+00	 4.8747507263e-01	 2.1157978888e+00
 1.3953220406e+00	 5.0043052775e-01	 2.0287554532e+00
 1.3906134162e+00	 5.1336982538e-01	 1.9408970601e+00
 1.4432545348e+00	 3.8651298402e-01	 2.7524990791e+00
 1.4396761487e+00	 3.9963548093e-01	 2.6763857598e+00
 1.4359694236e+00	 4.1275624634e-01	 2.5982261951e+00
 1.4321339374e+00	 4.2587351185e-01	 2.5181709377e+00
 1.4281692988e+00	 4.3898549324e-01	 2.4363684011e+00
 1.4240751472e+00	 4.5209039109e-01	 2.3529658470e+00
 1.4198511538e+00	 4.6518639143e-01	 2.2681103491e+00
 1.4154970221e+00	 4.7827166638e-01	 2.1819497262e+00
 1.4110124878e+00	 4.9134437481e-01	 2.0946334361e+00
 1.4063973200e+00	 5.0440266302e-01	 2.0063134257e+00
 1.4016513212e+00	 5.1744466549e-01	 1.9171449301e+00
 1.4546200621e+00	 3.8955674641e-01	 2.7254145141e+00
 1.4510134965e+00	 4.0278258206e-01	 2.6505722834e+00
 1.4472775812e+00	 4.1600667257e-01	 2.5734109963e+00
 1.4434118908e+00	 4.2922723561e-01	 2.4940994510e+00
 1.4394160309e+00	 4.4244247292e-01	 2.4128041946e+00
 1.4352896382e+00	 4.5565057092e-01	 2.3296905329e+00
 1.4310323812e+00	 4.6884970134e-01	 2.2449235134e+00
 1.4266439609e+00	 4.8203802190e-01	 2.1586688724e+00
 1.4221241113e+00	 4.9521367698e-01	 2.0710939396e+00
 1.4174725993e+00	 5.0837479829e-01	 1.9823684936e+00
 1.4126892261e+00	 5.2151950561e-01	 1.8926655614e+00
 1.4659855894e+00	 3.9260050880e-01	 2.6868892812e+00
 1.4623508442e+00	 4.0592968318e-01	 2.6144384259e+00
 1.4585857387e+00	 4.1925709879e-01	 2.5394207811e+00
 1.4546898442e+00	 4.3258095938e-01	 2.4620085023e+00
 1.4506627631e+00	 4.4589945261e-01	 2.3823716204e+00
 1.4465041292e+00	 4.5921075075e-01	 2.3006790984e+00
 1.4422136085e+00	 4.7251301124e-01	 2.2170998584e+00
 1.4377908998e+00	 4.8580437742e-01	 2.1318037671e+00
 1.4332357347e+00	 4.9908297916e-01	 2.0449625753e+00
 1.4285478787e+00	 5.1234693356e-01	 1.9567508030e+00
 1.4237271311e+00	 5.2559434573e-01	 1.8673465626e+00
 1.4773511167e+00	 3.9564427119e-01	 2.6366797486e+00
 1.4736881920e+00	 4.0907678431e-01	 2.5677154987e+00
 1.4698938963e+00	 4.2250752502e-01	 2.4959695267e+00
 1.4659677976e+00	 4.3593468314e-01	 2.4216027648e+00
 1.4619094952e+00	 4.4935643230e-01	 2.3447743846e+00
 1.4577186201e+00	 4.6277093058e-01	 2.2656429256e+00
 1.4533948359e+00	 4.7617632115e-01	 2.1843673897e+00
 1.4489378387e+00	 4.8957073294e-01	 2.1011082909e+00
 1.4443473582e+00	 5.0295228133e-01	 2.0160286525e+00
 1.4396231580e+00	 5.1631906883e-01	 1.9292949460e+00
 1.4347650360e+00	 5.2966918584e-01	 1.8410779612e+00
 1.4887166440e+00	 3.9868803358e-01	 2.5798032952e+00
 1.4850255398e+00	 4.1222388543e-01	 2.5114043536e+00
 1.4812020539e+00	 4.2575795124e-01	 2.4427802351e+00
 1.4772457510e+00	 4.3928840690e-01	 2.3725960567e+00
 1.4731562273e+00	 4.5281341198e-01	 2.2997251875e+00
 1.4689331111e+00	 4.6633111041e-01	 2.2243019587e+00
 1.4645760632e+00	 4.7983963106e-01	 2.1464619531e+00
 1.4600847775e+00	 4.9333708846e-01	 2.0663431423e+00
 1.4554589817e+00	 5.0682158350e-01	 1.9840869666e+00
 1.4506984374e+00	 5.2029120410e-01	 1.8998393501e+00
 1.4458029410e+00	 5.3374402596e-01	 1.8137516422e+00
 1.5000821713e+00	 4.0173179598e-01	 2.5349486590e+00
 1.4963628876e+00	 4.1537098656e-01	 2.4637037737e+00
 1.4925102115e+00	 4.2900837747e-01	 2.3918037633e+00
 1.4885237044e+00	 4.4264213066e-01	 2.3196898233e+00
 1.4844029595e+00	 4.5627039167e-01	 2.2477992302e+00
 1.4801476021e+00	 4.6989129024e-01	 2.1763840386e+00
 1.4757572905e+00	 4.8350294096e-01	 2.1031265708e+00
 1.4712317164e+00	 4.9710344398e-01	 2.0272751864e+00
 1.4665706052e+00	 5.1069088568e-01	 1.9489371710e+00
 1.4617737167e+00	 5.2426333937e-01	 1.8682256852e+00
 1.4568408459e+00	 5.3781886608e-01	 1.7852608007e+00
 1.5114476987e+00	 4.0477555837e-01	 2.5034468487e+00
 1.5077002353e+00	 4.1851808769e-01	 2.4303297651e+00
 1.5038183690e+00	 4.3225880369e-01	 2.3561492684e+00
 1.4998016578e+00	 4.4599585442e-01	 2.2813210715e+00
 1.4956496916e+00	 4.5972737136e-01	 2.2062591671e+00
 1.4913620931e+00	 4.7345147007e-01	 2.1313744766e+00
 1.4869385179e+00	 4.8716625087e-01	 2.0570733293e+00
 1.4823786552e+00	 5.0086979950e-01	 1.9837557618e+00
 1.4776822286e+00	 5.1456018785e-01	 1.9103831683e+00
 1.4728489961e+00	 5.2823547464e-01	 1.8342982868e+00
 1.4678787509e+00	 5.4189370619e-01	 1.7554994090e+00
 1.5228132260e+00	 4.0781932076e-01	 2.4849114084e+00
 1.5190375831e+00	 4.2166518881e-01	 2.4108656651e+00
 1.5151265266e+00	 4.3550922992e-01	 2.3353845191e+00
 1.5110796112e+00	 4.4934957818e-01	 2.2588458465e+00
 1.5068964238e+00	 4.6318435105e-01	 2.1816282565e+00
 1.5025765841e+00	 4.7701164990e-01	 2.1041098313e+00
 1.4981197452e+00	 4.9082956077e-01	 2.0266666874e+00
 1.4935255941e+00	 5.0463615502e-01	 1.9496713514e+00
 1.4887938521e+00	 5.1842949002e-01	 1.8734909438e+00
 1.4839242755e+00	 5.3220760991e-01	 1.7984851652e+00
 1.4789166558e+00	 5.4596854631e-01	 1.7243616956e+00
 1.5341787533e+00	 4.1086308315e-01	 2.4789611793e+00
 1.5303749309e+00	 4.2481228994e-01	 2.4049008957e+00
 1.5264346842e+00	 4.3875965614e-01	 2.3290757712e+00
 1.5223575646e+00	 4.5270330195e-01	 2.2518137543e+00
 1.5181431559e+00	 4.6664133073e-01	 2.1734462348e+00
 1.5137910751e+00	 4.8057182973e-01	 2.0943068962e+00
 1.5093009726e+00	 4.9449287068e-01	 2.0147303833e+00
 1.5046725330e+00	 5.0840251054e-01	 1.9350507768e+00
 1.4999054756e+00	 5.2229879220e-01	 1.8555998678e+00
 1.4949995548e+00	 5.3617974518e-01	 1.7767052265e+00
 1.4899545608e+00	 5.5004338642e-01	 1.6986880574e+00
 1.3795755113e+00	 5.0929498526e-01	 1.9640373387e+00
 1.3747745027e+00	 5.2211587927e-01	 1.8773994306e+00
 1.3698443909e+00	 5.3491703195e-01	 1.7900368516e+00
 1.3647850821e+00	 5.4769657490e-01	 1.7019898627e+00
 1.3595965173e+00	 5.6045263095e-01	 1.6133072555e+00
 1.3542786723e+00	 5.7318331496e-01	 1.5240470185e+00
 1.3488315585e+00	 5.8588673458e-01	 1.4342769354e+00
 1.3432552230e+00	 5.9856099109e-01	 1.3440751098e+00
 1.3375497489e+00	 6.1120418018e-01	 1.2535304167e+00
 1.3317152553e+00	 6.2381439279e-01	 1.1627428780e+00
 1.3257518984e+00	 6.3638971597e-01	 1.0718239604e+00
 1.3906134162e+00	 5.1336982538e-01	 1.9408970601e+00
 1.3857739951e+00	 5.2629329863e-01	 1.8523662958e+00
 1.3808044377e+00	 5.3919687260e-01	 1.7632777769e+00
 1.3757046497e+00	 5.5207866395e-01	 1.6736765124e+00
 1.3704745714e+00	 5.6493678047e-01	 1.5836157896e+00
 1.3651141787e+00	 5.7776932196e-01	 1.4931578322e+00
 1.3596234829e+00	 5.9057438091e-01	 1.4023743842e+00
 1.3540025314e+00	 6.0335004343e-01	 1.3113472165e+00
 1.3482514081e+00	 6.1609438995e-01	 1.2201685544e+00
 1.3423702331e+00	 6.2880549616e-01	 1.1289414239e+00
 1.3363591637e+00	 6.4148143378e-01	 1.0377799159e+00
 1.4016513212e+00	 5.1744466549e-01	 1.9171449301e+00
 1.3967734874e+00	 5.3047071799e-01	 1.8273278952e+00
 1.3917644845e+00	 5.4347671326e-01	 1.7370187821e+00
 1.3866242173e+00	 5.5646075299e-01	 1.6462704267e+00
 1.3813526256e+00	 5.6942093000e-01	 1.5551436698e+00
 1.3759496851e+00	 5.8235532895e-01	 1.4637080007e+00
 1.3704154072e+00	 5.9526202725e-01	 1.3720421222e+00
 1.3647498398e+00	 6.0813909577e-01	 1.2802344321e+00
 1.3589530673e+00	 6.2098459973e-01	 1.1883834209e+00
 1.3530252109e+00	 6.3379659952e-01	 1.0965979821e+00
 1.3469664290e+00	 6.4657315159e-01	 1.0049976358e+00
 1.4126892261e+00	 5.2151950561e-01	 1.8926655614e+00
 1.4077729798e+00	 5.3464813735e-01	 1.8022329304e+00
 1.4027245314e+00	 5.4775655391e-01	 1.7112706232e+00
 1.3975437848e+00	 5.6084284204e-01	 1.6198423036e+00
 1.3922306797e+00	 5.7390507952e-01	 1.5280193489e+00
 1.3867851914e+00	 5.8694133595e-01	 1.4358814746e+00
 1.3812073315e+00	 5.9994967358e-01	 1.3435172733e+00
 1.3754971482e+00	 6.1292814810e-01	 1.2510246667e+00
 1.3696547265e+00	 6.2587480950e-01	 1.1585112655e+00
 1.3636801887e+00	 6.3878770289e-01	 1.0660946385e+00
 1.3575736943e+00	 6.5166486940e-01	 9.7390248812e-01
 1.4237271311e+00	 5.2559434573e-01	 1.8673465626e+00
 1.4187724721e+00	 5.3882555671e-01	 1.7770308637e+00
 1.4136845782e+00	 5.5203639456e-01	 1.6860426295e+00
 1.4084633524e+00	 5.6522493108e-01	 1.5944592779e+00
 1.4031087339e+00	 5.7838922904e-01	 1.5023656351e+00
 1.3976206978e+00	 5.9152734295e-01	 1.4098545351e+00
 1.3919992559e+00	 6.0463731992e-01	 1.3170273286e+00
 1.3862444566e+00	 6.1771720044e-01	 1.2239942972e+00
 1.3803563857e+00	 6.3076501927e-01	 1.1308749715e+00
 1.3743351664e+00	 6.4377880625e-01	 1.0377983506e+00
 1.3681809596e+00	 6.5675658720e-01	 9.4490302325e-01
 1.4347650360e+00	 5.2966918584e-01	 1.8410779612e+00
 1.4297719645e+00	 5.4300297606e-01	 1.7516713980e+00
 1.4246446250e+00	 5.5631623521e-01	 1.6613422380e+00
 1.4193829200e+00	 5.6960702013e-01	 1.5701845076e+00
 1.4139867881e+00	 5.8287337856e-01	 1.4782993260e+00
 1.4084562042e+00	 5.9611334995e-01	 1.3857954744e+00
 1.4027911802e+00	 6.0932496625e-01	 1.2927898683e+00
 1.3969917650e+00	 6.2250625278e-01	 1.1994079295e+00
 1.3910580450e+00	 6.3565522904e-01	 1.1057838543e+00
 1.3849901442e+00	 6.4876990961e-01	 1.0120607783e+00
 1.3787882249e+00	 6.6184830501e-01	 9.1839083537e-01
 1.4458029410e+00	 5.3374402596e-01	 1.8137516422e+00
 1.4407714568e+00	 5.4718039542e-01	 1.7261039688e+00
 1.4356046718e+00	 5.6059607586e-01	 1.6371745362e+00
 1.4303024875e+00	 5.7398910917e-01	 1.5470767651e+00
 1.4248648422e+00	 5.8735752808e-01	 1.4559308462e+00
 1.4192917106e+00	 6.0069935695e-01	 1.3638642752e+00
 1.4135831045e+00	 6.1401261259e-01	 1.2710122822e+00
 1.4077390734e+00	 6.2729530511e-01	 1.1775181550e+00
 1.4017597042e+00	 6.4054543881e-01	 1.0835334523e+00
 1.3956451220e+00	 6.5376101298e-01	 9.8921810575e-01
 1.3893954901e+00	 6.6694002282e-01	 8.9474041113e-01
 1.4568408459e+00	 5.3781886608e-01	 1.7852608007e+00
 1.4517709492e+00	 5.5135781478e-01	 1.7002772479e+00
 1.4465647186e+00	 5.6487591651e-01	 1.6135418143e+00
 1.4412220551e+00	 5.7837119822e-01	 1.5251900340e+00
 1.4357428964e+00	 5.9184167760e-01	 1.4353638868e+00
 1.4301272170e+00	 6.0528536394e-01	 1.3442122909e+00
 1.4243750289e+00	 6.1870025892e-01	 1.2518914862e+00
 1.4184863818e+00	 6.3208435745e-01	 1.1585653023e+00
 1.4124613634e+00	 6.4543564858e-01	 1.0644053096e+00
 1.4063000997e+00	 6.5875211634e-01	 9.6959085310e-01
 1.4000027554e+00	 6.7203174062e-01	 8.7430896749e-01
 1.4678787509e+00	 5.4189370619e-01	 1.7554994090e+00
 1.4627704415e+00	 5.5553523413e-01	 1.6741386576e+00
 1.4575247654e+00	 5.6915575716e-01	 1.5904431240e+00
 1.4521416227e+00	 5.8275328726e-01	 1.5045731123e+00
 1.4466209505e+00	 5.9632582712e-01	 1.4166950480e+00
 1.4409627234e+00	 6.0987137094e-01	 1.3269819256e+00
 1.4351669532e+00	 6.2338790525e-01	 1.2356136382e+00
 1.4292336902e+00	 6.3687340979e-01	 1.1427771849e+00
 1.4231630226e+00	 6.5032585835e-01	 1.0486667537e+00
 1.4169550775e+00	 6.6374321970e-01	 9.5348368001e-01
 1.4106100207e+00	 6.7712345843e-01	 8.5743627883e-01
 1.4789166558e+00	 5.4596854631e-01	 1.7243616956e+00
 1.4737699339e+00	 5.5971265349e-01	 1.6476338952e+00
 1.4684848122e+00	 5.7343559781e-01	 1.5678738464e+00
 1.4630611903e+00	 5.8713537630e-01	 1.4852692189e+00
 1.4574990047e+00	 6.0080997664e-01	 1.4000134845e+00
 1.4517982297e+00	 6.1445737794e-01	 1.3123063147e+00
 1.4459588776e+00	 6.2807555158e-01	 1.2223538507e+00
 1.4399809986e+00	 6.4166246212e-01	 1.1303688439e+00
 1.4338646818e+00	 6.5521606812e-01	 1.0365706653e+00
 1.4276100553e+00	 6.6873432306e-01	 9.4118518075e-01
 1.4212172860e+00	 6.8221517623e-01	 8.4444449401e-01
 1.4899545608e+00	 5.5004338642e-01	 1.6986880574e+00
 1.4847694262e+00	 5.6389007285e-01	 1.6217419090e+00
 1.4794448590e+00	 5.7771543845e-01	 1.5458252660e+00
 1.4739807578e+00	 5.9151746534e-01	 1.4673156060e+00
 1.4683770588e+00	 6.0529412616e-01	 1.3854005528e+00
 1.4626337361e+00	 6.1904338493e-01	 1.3003090054e+00
 1.4567508019e+00	 6.3276319791e-01	 1.2122759017e+00
 1.4507283070e+00	 6.4645151446e-01	 1.1215422873e+00
 1.4445663411e+00	 6.6010627789e-01	 1.0283552429e+00
 1.4382650331e+00	 6.7372542642e-01	 9.3296767150e-01
 1.4318245513e+00	 6.8730689403e-01	 8.3563794382e-01
 1.3257518984e+00	 6.3638971597e-01	 1.0718239604e+00
 1.3196609170e+00	 6.4892610551e-01	 9.8098872541e-01
 1.3134415372e+00	 6.6142378419e-01	 8.9034639412e-01
 1.3070940247e+00	 6.7388083278e-01	 7.9991714409e-01
 1.3006186829e+00	 6.8629533155e-01	 7.0973776921e-01
 1.2940158521e+00	 6.9866536122e-01	 6.1986176835e-01
 1.2872859108e+00	 7.1098900383e-01	 5.3035935963e-01
 1.2804292746e+00	 7.2326434362e-01	 4.4131742353e-01
 1.2734463973e+00	 7.3548946800e-01	 3.5283937888e-01
 1.2663377702e+00	 7.4766246841e-01	 2.6521545376e-01
 1.2591039227e+00	 7.5978144126e-01	 1.7953108948e-01
 1.3363591637e+00	 6.4148143378e-01	 1.0377799159e+00
 1.3302194487e+00	 6.5411812625e-01	 9.4695508337e-01
 1.3239503079e+00	 6.6671579815e-01	 8.5658404105e-01
 1.3175520095e+00	 6.7927251487e-01	 7.6661755290e-01
 1.3110248587e+00	 6.9178634134e-01	 6.7702350425e-01
 1.3043691991e+00	 7.0425534291e-01	 5.8778704551e-01
 1.2975854119e+00	 7.1667758628e-01	 4.9891065739e-01
 1.2906739162e+00	 7.2905114037e-01	 4.1041414096e-01
 1.2836351692e+00	 7.4137407727e-01	 3.2233552868e-01
 1.2764696665e+00	 7.5364447316e-01	 2.3517913232e-01
 1.2691779413e+00	 7.6586040922e-01	 1.4968381139e-01
 1.3469664290e+00	 6.4657315159e-01	 1.0049976358e+00
 1.3407779804e+00	 6.5931014700e-01	 9.1392894718e-01
 1.3344590787e+00	 6.7200781211e-01	 8.2354754175e-01
 1.3280099942e+00	 6.8466419697e-01	 7.3375420605e-01
 1.3214310346e+00	 6.9727735113e-01	 6.4446721514e-01
 1.3147225461e+00	 7.0984532460e-01	 5.5562250049e-01
 1.3078849130e+00	 7.2236616873e-01	 4.6717373482e-01
 1.3009185577e+00	 7.3483793711e-01	 3.7909233753e-01
 1.2938239412e+00	 7.4725868653e-01	 2.9142830366e-01
 1.2866015627e+00	 7.5962647790e-01	 2.0468296221e-01
 1.2792519600e+00	 7.7193937718e-01	 1.1935576987e-01
 1.3575736943e+00	 6.5166486940e-01	 9.7390248812e-01
 1.3513365121e+00	 6.6450216774e-01	 8.8237496599e-01
 1.3449678495e+00	 6.7729982607e-01	 7.9173513162e-01
 1.3384679789e+00	 6.9005587906e-01	 7.0185278993e-01
 1.3318372105e+00	 7.0276836092e-01	 6.1261546770e-01
 1.3250758931e+00	 7.1543530629e-01	 5.2392857468e-01
 1.3181844141e+00	 7.2805475118e-01	 4.3571547701e-01
 1.3111631993e+00	 7.4062473385e-01	 3.4791748674e-01
 1.3040127132e+00	 7.5314329580e-01	 2.6058825161e-01
 1.2967334590e+00	 7.6560848265e-01	 1.7409132453e-01
 1.2893259786e+00	 7.7801834514e-01	 8.8878457911e-02
 1.3681809596e+00	 6.5675658720e-01	 9.4490302325e-01
 1.3618950438e+00	 6.6969418849e-01	 8.5273940316e-01
 1.3554766203e+00	 6.8259184003e-01	 7.6162526661e-01
 1.3489259636e+00	 6.9544756115e-01	 6.7141800844e-01
 1.3422433864e+00	 7.0825937071e-01	 5.8199284839e-01
 1.3354292401e+00	 7.2102528798e-01	 4.9324295514e-01
 1.3284839152e+00	 7.3374333363e-01	 4.0507947737e-01
 1.3214078409e+00	 7.4641153060e-01	 3.1741083637e-01
 1.3142014851e+00	 7.5902790507e-01	 2.3018197316e-01
 1.3068653552e+00	 7.7159048740e-01	 1.4374847907e-01
 1.2993999973e+00	 7.8409731309e-01	 5.8564360528e-02
 1.3787882249e+00	 6.6184830501e-01	 9.1839083537e-01
 1.3724535755e+00	 6.7488620923e-01	 8.2545002193e-01
 1.3659853911e+00	 6.8788385398e-01	 7.3367652671e-01
 1.3593839483e+00	 7.0083924324e-01	 6.4293349657e-01
 1.3526495622e+00	 7.1375038050e-01	 5.5310188009e-01
 1.3457825871e+00	 7.2661526967e-01	 4.6408048406e-01
 1.3387834164e+00	 7.3943191608e-01	 3.7578593152e-01
 1.3316524824e+00	 7.5219832734e-01	 2.8796516545e-01
 1.3243902571e+00	 7.6491251433e-01	 2.0055632327e-01
 1.3169972515e+00	 7.7757249215e-01	 1.1397977779e-01
 1.3094740159e+00	 7.9017628105e-01	 2.8708132995e-02
 1.3893954901e+00	 6.6694002282e-01	 8.9474041113e-01
 1.3830121072e+00	 6.8007822997e-01	 8.0091595727e-01
 1.3764941619e+00	 6.9317586794e-01	 7.0832750391e-01
 1.3698419330e+00	 7.0623092534e-01	 6.1686171749e-01
 1.3630557381e+00	 7.1924139028e-01	 5.2642292046e-01
 1.3561359341e+00	 7.3220525136e-01	 4.3693305013e-01
 1.3490829175e+00	 7.4512049853e-01	 3.4828097719e-01
 1.3418971240e+00	 7.5798512408e-01	 2.5992095088e-01
 1.3345790291e+00	 7.7079712360e-01	 1.7203963070e-01
 1.3271291477e+00	 7.8355449690e-01	 8.5092862614e-02
 1.3195480346e+00	 7.9625524901e-01	-4.1223463492e-04
 1.4000027554e+00	 6.7203174062e-01	 8.7430896749e-01
 1.3935706389e+00	 6.8527025072e-01	 7.7952757471e-01
 1.3870029327e+00	 6.9846788190e-01	 6.8599667577e-01
 1.3802999177e+00	 7.1162260743e-01	 5.9364384382e-01
 1.3734619140e+00	 7.2473240007e-01	 5.0241404366e-01
 1.3664892811e+00	 7.3779523305e-01	 4.1226946293e-01
 1.3593824186e+00	 7.5080908098e-01	 3.2284843457e-01
 1.3521417656e+00	 7.6377192083e-01	 2.3360075598e-01
 1.3447678010e+00	 7.7668173286e-01	 1.4494290139e-01
 1.3372610440e+00	 7.8953650164e-01	 5.7378848503e-02
 1.3296220532e+00	 8.0233421697e-01	-2.8534266123e-02
 1.4106100207e+00	 6.7712345843e-01	 8.5743627883e-01
 1.4041291706e+00	 6.9046227146e-01	 7.6165631687e-01
 1.3975117035e+00	 7.0375989585e-01	 6.6708226515e-01
 1.3907579024e+00	 7.1701428952e-01	 5.7369962406e-01
 1.3838680898e+00	 7.3022340986e-01	 4.8151090640e-01
 1.3768426281e+00	 7.4338521474e-01	 3.9050362362e-01
 1.3696819197e+00	 7.5649766343e-01	 2.9979442200e-01
 1.3623864071e+00	 7.6955871757e-01	 2.0931042869e-01
 1.3549565730e+00	 7.8256634213e-01	 1.1956100667e-01
 1.3473929402e+00	 7.9551850639e-01	 3.1113492450e-02
 1.3396960718e+00	 8.0841318493e-01	-5.5409860004e-02
 1.4212172860e+00	 6.8221517623e-01	 8.4444449401e-01
 1.4146877023e+00	 6.9565429220e-01	 7.4765453818e-01
 1.4080204743e+00	 7.0905190981e-01	 6.5196208685e-01
 1.4012158872e+00	 7.2240597161e-01	 5.5742723483e-01
 1.3942742657e+00	 7.3571441965e-01	 4.6412659911e-01
 1.3871959751e+00	 7.4897519643e-01	 3.7180361704e-01
 1.3799814209e+00	 7.6218624588e-01	 2.7941211101e-01
 1.3726310487e+00	 7.7534551431e-01	 1.8734028356e-01
 1.3651453450e+00	 7.8845095139e-01	 9.6173857056e-02
 1.3575248365e+00	 8.0150051114e-01	 6.5583492355e-03
 1.3497700905e+00	 8.1449215288e-01	-8.0804162290e-02
 1.4318245513e+00	 6.8730689403e-01	 8.3563794382e-01
 1.4252462340e+00	 7.0084631294e-01	 7.3785532865e-01
 1.4185292451e+00	 7.1434392377e-01	 6.4099338197e-01
 1.4116738719e+00	 7.2779765370e-01	 5.4520311982e-01
 1.4046804416e+00	 7.4120542943e-01	 4.5064997902e-01
 1.3975493221e+00	 7.5456517812e-01	 3.5641189164e-01
 1.3902809220e+00	 7.6787482833e-01	 2.6197990904e-01
 1.3828756903e+00	 7.8113231106e-01	 1.6796626934e-01
 1.3753341169e+00	 7.9433556066e-01	 7.5047562452e-02
 1.3676567327e+00	 8.0748251589e-01	-1.6038085423e-02
 1.3598441091e+00	 8.2057112084e-01	-1.0449445029e-01
 1.2591039227e+00	 7.5978144126e-01	 1.7953108948e-01
 1.2517454219e+00	 7.7184448910e-01	 9.3809223786e-02
 1.2442628743e+00	 7.8384972228e-01	 6.1085775416e-03
 1.2366569239e+00	 7.9579525917e-01	-8.2796660945e-02
 1.2289282528e+00	 8.0767922684e-01	-1.7210526098e-01
 1.2210775800e+00	 8.1949976204e-01	-2.6099346598e-01
 1.2131056623e+00	 8.3125501205e-01	-3.4861985024e-01
 1.2050132932e+00	 8.4294313568e-01	-4.3413049969e-01
 1.1968013035e+00	 8.5456230414e-01	-5.1666449778e-01
 1.1884705604e+00	 8.6611070196e-01	-5.9535969520e-01
 1.1800219676e+00	 8.7758652792e-01	-6.6935874000e-01
 1.2691779413e+00	 7.6586040922e-01	 1.4968381139e-01
 1.2617605656e+00	 7.7801997282e-01	 6.3779537352e-02
 1.2542181505e+00	 7.9012125919e-01	-2.4399396722e-02
 1.2465513454e+00	 8.0216237163e-01	-1.1399602779e-01
 1.2387608376e+00	 8.1414142225e-01	-2.0412429644e-01
 1.2308473521e+00	 8.2605653287e-01	-2.9387382461e-01
 1.2228116515e+00	 8.3790583597e-01	-3.8231505469e-01
 1.2146545358e+00	 8.4968747562e-01	-4.6850473296e-01
 1.2063768424e+00	 8.6139960837e-01	-5.5149171773e-01
 1.1979794455e+00	 8.7304040426e-01	-6.3032309006e-01
 1.1894632560e+00	 8.8460804766e-01	-7.0405054215e-01
 1.2792519600e+00	 7.7193937718e-01	 1.1935576987e-01
 1.2717757093e+00	 7.8419545654e-01	 3.3369453370e-02
 1.2641734268e+00	 7.9639279609e-01	-5.5089664196e-02
 1.2564457669e+00	 8.0852948409e-01	-1.4510377997e-01
 1.2485934224e+00	 8.2060361766e-01	-2.3572393971e-01
 1.2406171241e+00	 8.3261330371e-01	-3.2597505212e-01
 1.2325176407e+00	 8.4455665990e-01	-4.1486128621e-01
 1.2242957784e+00	 8.5643181555e-01	-5.0137183416e-01
 1.2159523814e+00	 8.6823691261e-01	-5.8448701898e-01
 1.2074883306e+00	 8.7997010657e-01	-6.6318472411e-01
 1.1989045444e+00	 8.9162956740e-01	-7.3644711905e-01
 1.2893259786e+00	 7.7801834514e-01	 8.8878457911e-02
 1.2817908530e+00	 7.9037094025e-01	 2.8717174530e-03
 1.2741287031e+00	 8.0266433299e-01	-8.5709628894e-02
 1.2663401884e+00	 8.1489659655e-01	-1.7590837509e-01
 1.2584260073e+00	 8.2706581307e-01	-2.6673409903e-01
 1.2503868962e+00	 8.3917007455e-01	-3.5716838931e-01
 1.2422236298e+00	 8.5120748382e-01	-4.4617047737e-01
 1.2339370210e+00	 8.6317615548e-01	-5.3268325681e-01
 1.2255279203e+00	 8.7507421685e-01	-6.1563966855e-01
 1.2169972158e+00	 8.8689980888e-01	-6.9396942788e-01
 1.2083458329e+00	 8.9865108713e-01	-7.6660606662e-01
 1.2993999973e+00	 7.8409731309e-01	 5.8564360528e-02
 1.2918059967e+00	 7.9654642397e-01	-2.7438686849e-02
 1.2840839793e+00	 8.0893586989e-01	-1.1602321736e-01
 1.2762346099e+00	 8.2126370901e-01	-2.0621357604e-01
 1.2682585921e+00	 8.3352800848e-01	-2.9699880872e-01
 1.2601566682e+00	 8.4572684538e-01	-3.8733807754e-01
 1.2519296190e+00	 8.5785830774e-01	-4.7616650477e-01
 1.2435782636e+00	 8.6992049541e-01	-5.6240142627e-01
 1.2351034593e+00	 8.8191152108e-01	-6.4494903249e-01
 1.2265061009e+00	 8.9382951119e-01	-7.2271137229e-01
 1.2177871213e+00	 9.0567260687e-01	-7.9459369146e-01
 1.3094740159e+00	 7.9017628105e-01	 2.8708132995e-02
 1.3018211404e+00	 8.0272190768e-01	-5.7303402610e-02
 1.2940392556e+00	 8.1520740679e-01	-1.4580978846e-01
 1.2861290314e+00	 8.2763082147e-01	-2.3583740776e-01
 1.2780911769e+00	 8.3999020389e-01	-3.2637523415e-01
 1.2699264403e+00	 8.5228361622e-01	-4.1638041240e-01
 1.2616356082e+00	 8.6450913166e-01	-5.0478429148e-01
 1.2532195063e+00	 8.7666483535e-01	-5.9049889021e-01
 1.2446789982e+00	 8.8874882532e-01	-6.7242377320e-01
 1.2360149861e+00	 9.0075921350e-01	-7.4945331097e-01
 1.2272284097e+00	 9.1269412661e-01	-8.2048429563e-01
 1.3195480346e+00	 7.9625524901e-01	-4.1223463492e-04
 1.3118362841e+00	 8.0889739140e-01	-8.6479575759e-02
 1.3039945319e+00	 8.2147894369e-01	-1.7486305259e-01
 1.2960234529e+00	 8.3399793393e-01	-2.6461112134e-01
 1.2879237618e+00	 8.4645239929e-01	-3.5473268173e-01
 1.2796962123e+00	 8.5884038706e-01	-4.4420280028e-01
 1.2713415974e+00	 8.7115995558e-01	-5.3196891014e-01
 1.2628607489e+00	 8.8340917528e-01	-6.1695746786e-01
 1.2542545371e+00	 8.9558612956e-01	-6.9808104348e-01
 1.2455238712e+00	 9.0768891581e-01	-7.7424581749e-01
 1.2366696982e+00	 9.1971564635e-01	-8.4435945477e-01
 1.3296220532e+00	 8.0233421697e-01	-2.8534266123e-02
 1.3218514278e+00	 8.1507287512e-01	-1.1473874238e-01
 1.3139498081e+00	 8.2775048060e-01	-2.0299000004e-01
 1.3059178744e+00	 8.4036504639e-01	-2.9237816489e-01
 1.2977563466e+00	 8.5291459470e-01	-3.8195161377e-01
 1.2894659844e+00	 8.6539715789e-01	-4.7072281769e-01
 1.2810475866e+00	 8.7781077951e-01	-5.5767468696e-01
 1.2725019915e+00	 8.9015351521e-01	-6.4176739797e-01
 1.2638300761e+00	 9.0242343379e-01	-7.2194567762e-01
 1.2550327563e+00	 9.1461861812e-01	-7.9714651789e-01
 1.2461109866e+00	 9.2673716609e-01	-8.6630728986e-01
 1.3396960718e+00	 8.0841318493e-01	-5.5409860004e-02
 1.3318665715e+00	 8.2124835883e-01	-1.4186572651e-01
 1.3239050844e+00	 8.3402201750e-01	-2.3000983773e-01
 1.3158122959e+00	 8.4673215886e-01	-3.1899316116e-01
 1.3075889314e+00	 8.5937679011e-01	-4.0792266784e-01
 1.2992357564e+00	 8.7195392873e-01	-4.9586727321e-01
 1.2907535758e+00	 8.8446160343e-01	-5.8186430620e-01
 1.2821432341e+00	 8.9689785514e-01	-6.6492648564e-01
 1.2734056150e+00	 9.0926073803e-01	-7.4404937952e-01
 1.2645416415e+00	 9.2154832043e-01	-8.1821931863e-01
 1.2555522750e+00	 9.3375868583e-01	-8.8642173302e-01
 1.3497700905e+00	 8.1449215288e-01	-8.0804162290e-02
 1.3418817152e+00	 8.2742384255e-01	-1.6765754782e-01
 1.3338603606e+00	 8.4029355440e-01	-2.5575293410e-01
 1.3257067173e+00	 8.5309927132e-01	-3.4432089117e-01
 1.3174215163e+00	 8.6583898552e-01	-4.3254568050e-01
 1.3090055285e+00	 8.7851069957e-01	-5.1957127187e-01
 1.3004595650e+00	 8.9111242735e-01	-6.0450791546e-01
 1.2917844767e+00	 9.0364219508e-01	-6.8643924807e-01
 1.2829811540e+00	 9.1609804227e-01	-7.6442990808e-01
 1.2740505266e+00	 9.2847802274e-01	-8.3753363028e-01
 1.2649935635e+00	 9.4078020556e-01	-9.0480178761e-01
 1.3598441091e+00	 8.2057112084e-01	-1.0449445029e-01
 1.3518968589e+00	 8.3359932626e-01	-1.9192233877e-01
 1.3438156369e+00	 8.4656509130e-01	-2.8005977169e-01
 1.3356011388e+00	 8.5946638378e-01	-3.6823528385e-01
 1.3272541011e+00	 8.7230118093e-01	-4.5572871514e-01
 1.3187753005e+00	 8.8506747040e-01	-5.4177728187e-01
 1.3101655542e+00	 8.9776325127e-01	-6.2558223154e-01
 1.3014257193e+00	 9.1038653501e-01	-7.0631605926e-01
 1.2925566929e+00	 9.2293534650e-01	-7.8313026003e-01
 1.2835594118e+00	 9.3540772505e-01	-8.5516358715e-01
 1.2744348519e+00	 9.4780172530e-01	-9.2155078297e-01
 1.1800219676e+00	 8.7758652792e-01	-6.6935874000e-01
 1.1714549997e+00	 8.8898992683e-01	-7.4106217293e-01
 1.1627720633e+00	 9.0031716513e-01	-8.1299438264e-01
 1.1539741750e+00	 9.1156648230e-01	-8.8456189121e-01
 1.1450623866e+00	 9.2273613568e-01	-9.5522236690e-01
 1.1360377845e+00	 9.3382440126e-01	-1.0244913392e+00
 1.1269014897e+00	 9.4482957461e-01	-1.0919489570e+00
 1.1176546570e+00	 9.5574997169e-01	-1.1572467520e+00
 1.1082984747e+00	 9.6658392974e-01	-1.2202364977e+00
 1.0988341638e+00	 9.7732980809e-01	-1.2828688971e+00
 1.0892629781e+00	 9.8798598895e-01	-1.3463377953e+00
 1.1894632560e+00	 8.8460804766e-01	-7.0405054215e-01
 1.1808277443e+00	 8.9610268452e-01	-7.7524175204e-01
 1.1720753362e+00	 9.0752055139e-01	-8.4668929817e-01
 1.1632070565e+00	 9.1885987372e-01	-9.1786038647e-01
 1.1542239654e+00	 9.3011889485e-01	-9.8827384071e-01
 1.1451271580e+00	 9.4129587702e-01	-1.0575070237e+00
 1.1359177642e+00	 9.5238910213e-01	-1.1252028104e+00
 1.1265969482e+00	 9.6339687268e-01	-1.1910765736e+00
 1.1171659075e+00	 9.7431751261e-01	-1.2549231446e+00
 1.1076258733e+00	 9.8514936811e-01	-1.3168308819e+00
 1.0979781091e+00	 9.9589080848e-01	-1.3792782750e+00
 1.1989045444e+00	 8.9162956740e-01	-7.3644711905e-01
 1.1902004889e+00	 9.0321544220e-01	-8.0701341077e-01
 1.1813786092e+00	 9.1472393766e-01	-8.7792291709e-01
 1.1724399381e+00	 9.2615326513e-01	-9.4868570898e-01
 1.1633855442e+00	 9.3750165403e-01	-1.0188635785e+00
 1.1542165315e+00	 9.4876735277e-01	-1.0880772012e+00
 1.1449340388e+00	 9.5994862964e-01	-1.1560133595e+00
 1.1355392393e+00	 9.7104377367e-01	-1.2224321890e+00
 1.1260333404e+00	 9.8205109548e-01	-1.2871744039e+00
 1.1164175827e+00	 9.9296892814e-01	-1.3501684610e+00
 1.1066932400e+00	 1.0037956280e+00	-1.4117997271e+00
 1.2083458329e+00	 8.9865108713e-01	-7.6660606662e-01
 1.1995732335e+00	 9.1032819988e-01	-8.3646286244e-01
 1.1906818821e+00	 9.2192732393e-01	-9.0680315805e-01
 1.1816728196e+00	 9.3344665654e-01	-9.7716241368e-01
 1.1725471230e+00	 9.4488441320e-01	-1.0471275460e+00
 1.1633059050e+00	 9.5623882852e-01	-1.1163443661e+00
 1.1539503133e+00	 9.6750815716e-01	-1.1845250905e+00
 1.1444815304e+00	 9.7869067466e-01	-1.2514558835e+00
 1.1349007732e+00	 9.8978467835e-01	-1.3170043872e+00
 1.1252092922e+00	 1.0007884882e+00	-1.3811271955e+00
 1.1154083709e+00	 1.0117004475e+00	-1.4438772254e+00
 1.2177871213e+00	 9.0567260687e-01	-7.9459369146e-01
 1.2089459781e+00	 9.1744095756e-01	-8.6368408500e-01
 1.1999851550e+00	 9.2913071020e-01	-9.3344597791e-01
 1.1909057011e+00	 9.4074004796e-01	-1.0034230731e+00
 1.1817087018e+00	 9.5226717237e-01	-1.0732098971e+00
 1.1723952785e+00	 9.6371030428e-01	-1.1424595489e+00
 1.1629665878e+00	 9.7506768468e-01	-1.2108915348e+00
 1.1534238216e+00	 9.8633757565e-01	-1.2782996437e+00
 1.1437682061e+00	 9.9751826122e-01	-1.3445598210e+00
 1.1340010016e+00	 1.0086080482e+00	-1.4096379906e+00
 1.1241235019e+00	 1.0196052670e+00	-1.4735977812e+00
 1.2272284097e+00	 9.1269412661e-01	-8.2048429563e-01
 1.2183187227e+00	 9.2455371524e-01	-8.8877864356e-01
 1.2092884280e+00	 9.3633409647e-01	-9.5797472612e-01
 1.2001385827e+00	 9.4803343937e-01	-1.0276076577e+00
 1.1908702807e+00	 9.5964993155e-01	-1.0972623752e+00
 1.1814846520e+00	 9.7118178003e-01	-1.1665817331e+00
 1.1719828623e+00	 9.8262721219e-01	-1.2352746977e+00
 1.1623661127e+00	 9.9398447664e-01	-1.3031245944e+00
 1.1526356389e+00	 1.0052518441e+00	-1.3699973617e+00
 1.1427927110e+00	 1.0164276082e+00	-1.4358497633e+00
 1.1328386328e+00	 1.0275100866e+00	-1.5007375070e+00
 1.2366696982e+00	 9.1971564635e-01	-8.4435945477e-01
 1.2276914673e+00	 9.3166647293e-01	-9.1185500506e-01
 1.2185917009e+00	 9.4353748274e-01	-9.8051948994e-01
 1.2093714642e+00	 9.5532683079e-01	-1.0498629065e+00
 1.2000318595e+00	 9.6703269072e-01	-1.1194437044e+00
 1.1905740255e+00	 9.7865325578e-01	-1.1888772622e+00
 1.1809991368e+00	 9.9018673971e-01	-1.2578444779e+00
 1.1713084038e+00	 1.0016313776e+00	-1.3261004254e+00
 1.1615030718e+00	 1.0129854270e+00	-1.3934830282e+00
 1.1515844205e+00	 1.0242471683e+00	-1.4599216995e+00
 1.1415537637e+00	 1.0354149061e+00	-1.5254458962e+00
 1.2461109866e+00	 9.2673716609e-01	-8.6630728986e-01
 1.2370642120e+00	 9.3877923061e-01	-9.3302784511e-01
 1.2278949738e+00	 9.5074086901e-01	-1.0012164310e+00
 1.2186043457e+00	 9.6262022220e-01	-1.0703416883e+00
 1.2091934383e+00	 9.7441544989e-01	-1.1399189704e+00
 1.1996633989e+00	 9.8612473153e-01	-1.2095192367e+00
 1.1900154113e+00	 9.9774626723e-01	-1.2787780758e+00
 1.1802506950e+00	 1.0092782786e+00	-1.3474048094e+00
 1.1703705046e+00	 1.0207190098e+00	-1.4151916241e+00
 1.1603761299e+00	 1.0320667283e+00	-1.4820226800e+00
 1.1502688947e+00	 1.0433197256e+00	-1.5478831396e+00
 1.2555522750e+00	 9.3375868583e-01	-8.8642173302e-01
 1.2464369566e+00	 9.4589198829e-01	-9.5241734772e-01
 1.2371982468e+00	 9.5794425528e-01	-1.0202071139e+00
 1.2278372272e+00	 9.6991361362e-01	-1.0892023541e+00
 1.2183550171e+00	 9.8179820907e-01	-1.1588589926e+00
 1.2087527724e+00	 9.9359620729e-01	-1.2286869015e+00
 1.1990316859e+00	 1.0053057947e+00	-1.2982593932e+00
 1.1891929861e+00	 1.0169251796e+00	-1.3672228097e+00
 1.1792379375e+00	 1.0284525927e+00	-1.4353061523e+00
 1.1691678394e+00	 1.0398862883e+00	-1.5023306980e+00
 1.1589840256e+00	 1.0512245451e+00	-1.5682195451e+00
 1.2649935635e+00	 9.4078020556e-01	-9.0480178761e-01
 1.2558097012e+00	 9.5300474597e-01	-9.7014849816e-01
 1.2465015197e+00	 9.6514764155e-01	-1.0376378265e+00
 1.2370701088e+00	 9.7720700503e-01	-1.1066080807e+00
 1.2275165959e+00	 9.8918096824e-01	-1.1764396870e+00
 1.2178421459e+00	 1.0010676830e+00	-1.2465650242e+00
 1.2080479604e+00	 1.0128653223e+00	-1.3164784234e+00
 1.1981352773e+00	 1.0245720806e+00	-1.3857462798e+00
 1.1881053704e+00	 1.0361861756e+00	-1.4540172206e+00
 1.1779595488e+00	 1.0477058483e+00	-1.5210322695e+00
 1.1676991565e+00	 1.0591293647e+00	-1.5866349493e+00
 1.2744348519e+00	 9.4780172530e-01	-9.2155078297e-01
 1.2651824458e+00	 9.6011750365e-01	-9.8635036926e-01
 1.2558047926e+00	 9.7235102782e-01	-1.0536588936e+00
 1.2463029903e+00	 9.8450039644e-01	-1.1227262072e+00
 1.2366781748e+00	 9.9656372741e-01	-1.1928414212e+00
 1.2269315194e+00	 1.0085391588e+00	-1.2633432657e+00
 1.2170642349e+00	 1.0204248498e+00	-1.3336306337e+00
 1.2070775684e+00	 1.0322189816e+00	-1.4031732547e+00
 1.1969728032e+00	 1.0439197584e+00	-1.4715224399e+00
 1.1867512583e+00	 1.0555254084e+00	-1.5383218352e+00
 1.1764142875e+00	 1.0670341842e+00	-1.6033181234e+00
 1.0892629781e+00	 9.8798598895e-01	-1.3463377953e+00
 1.0795878540e+00	 9.9854909317e-01	-1.4083478285e+00
 1.0698084753e+00	 1.0090193854e+00	-1.4664293304e+00
 1.0599261717e+00	 1.0193953392e+00	-1.5209173907e+00
 1.0499423028e+00	 1.0296754545e+00	-1.5721665822e+00
 1.0398582577e+00	 1.0398582577e+00	-1.6205470491e+00
 1.0296754545e+00	 1.0499423028e+00	-1.6664405074e+00
 1.0193953392e+00	 1.0599261717e+00	-1.7102361799e+00
 1.0090193854e+00	 1.0698084753e+00	-1.7523266868e+00
 9.9854909317e-01	 1.0795878540e+00	-1.7931039148e+00
 9.8798598895e-01	 1.0892629781e+00	-1.8329548874e+00
 1.0979781091e+00	 9.9589080848e-01	-1.3792782750e+00
 1.0882255748e+00	 1.0065384275e+00	-1.4405019268e+00
 1.0783679519e+00	 1.0170924919e+00	-1.4978763658e+00
 1.0684065805e+00	 1.0275514632e+00	-1.5516904817e+00
 1.0583428312e+00	 1.0379138291e+00	-1.6022536839e+00
 1.0481781043e+00	 1.0481781043e+00	-1.6498918918e+00
 1.0379138291e+00	 1.0583428312e+00	-1.6949434321e+00
 1.0275514632e+00	 1.0684065805e+00	-1.7377548674e+00
 1.0170924919e+00	 1.0783679519e+00	-1.7786767773e+00
 1.0065384275e+00	 1.0882255748e+00	-1.8180595159e+00
 9.9589080848e-01	 1.0979781091e+00	-1.8562489688e+00
 1.1066932400e+00	 1.0037956280e+00	-1.4117997271e+00
 1.0968632956e+00	 1.0145277618e+00	-1.4718496001e+00
 1.0869274284e+00	 1.0251655984e+00	-1.5280536764e+00
 1.0768869893e+00	 1.0357075871e+00	-1.5806705666e+00
 1.0667433597e+00	 1.0461522037e+00	-1.6299805480e+00
 1.0564979509e+00	 1.0564979509e+00	-1.6762814279e+00
 1.0461522037e+00	 1.0667433597e+00	-1.7198843096e+00
 1.0357075871e+00	 1.0768869893e+00	-1.7611092857e+00
 1.0251655984e+00	 1.0869274284e+00	-1.8002810802e+00
 1.0145277618e+00	 1.0968632956e+00	-1.8377246662e+00
 1.0037956280e+00	 1.1066932400e+00	-1.8737608804e+00
 1.1154083709e+00	 1.0117004475e+00	-1.4438772254e+00
 1.1055010164e+00	 1.0225170961e+00	-1.5026943845e+00
 1.0954869050e+00	 1.0332387049e+00	-1.5572412063e+00
 1.0853673981e+00	 1.0438637111e+00	-1.6081144360e+00
 1.0751438881e+00	 1.0543905782e+00	-1.6555809569e+00
 1.0648177975e+00	 1.0648177975e+00	-1.6999262854e+00
 1.0543905782e+00	 1.0751438881e+00	-1.7414501765e+00
 1.0438637111e+00	 1.0853673981e+00	-1.7804621533e+00
 1.0332387049e+00	 1.0954869050e+00	-1.8172769816e+00
 1.0225170961e+00	 1.1055010164e+00	-1.8522101178e+00
 1.0117004475e+00	 1.1154083709e+00	-1.8861297164e+00
 1.1241235019e+00	 1.0196052670e+00	-1.4735977812e+00
 1.1141387373e+00	 1.0305064304e+00	-1.5331584850e+00
 1.1040463816e+00	 1.0413118115e+00	-1.5857250664e+00
 1.0938478069e+00	 1.0520198350e+00	-1.6342850363e+00
 1.0835444166e+00	 1.0626289528e+00	-1.6792948070e+00
 1.0731376441e+00	 1.0731376441e+00	-1.7210431451e+00
 1.0626289528e+00	 1.0835444166e+00	-1.7598340545e+00
 1.0520198350e+00	 1.0938478069e+00	-1.7959821122e+00
 1.0413118115e+00	 1.1040463816e+00	-1.8298077469e+00
 1.0305064304e+00	 1.1141387373e+00	-1.8619220540e+00
 1.0196052670e+00	 1.1241235019e+00	-1.8969575664e+00
 1.1328386328e+00	 1.0275100866e+00	-1.5007375070e+00
 1.1227764581e+00	 1.0384957648e+00	-1.5612883504e+00
 1.1126058581e+00	 1.0493849180e+00	-1.6137493702e+00
 1.1023282158e+00	 1.0601759589e+00	-1.6594517816e+00
 1.0919449450e+00	 1.0708673273e+00	-1.7013683989e+00
 1.0814574907e+00	 1.0814574907e+00	-1.7398550105e+00
 1.0708673273e+00	 1.0919449450e+00	-1.7752351995e+00
 1.0601759589e+00	 1.1023282158e+00	-1.8078439547e+00
 1.0493849180e+00	 1.1126058581e+00	-1.8380962819e+00
 1.0384957648e+00	 1.1227764581e+00	-1.8704638762e+00
 1.0275100866e+00	 1.1328386328e+00	-1.9071417378e+00
 1.1415537637e+00	 1.0354149061e+00	-1.5254458962e+00
 1.1314141789e+00	 1.0464850991e+00	-1.5865961089e+00
 1.1211653347e+00	 1.0574580245e+00	-1.6395402743e+00
 1.1108086246e+00	 1.0683320829e+00	-1.6838908598e+00
 1.1003454735e+00	 1.0791057019e+00	-1.7220547240e+00
 1.0897773373e+00	 1.0897773373e+00	-1.7565914736e+00
 1.0791057019e+00	 1.1003454735e+00	-1.7878593460e+00
 1.0683320829e+00	 1.1108086246e+00	-1.8162288465e+00
 1.0574580245e+00	 1.1211653347e+00	-1.8454235175e+00
 1.0464850991e+00	 1.1314141789e+00	-1.8791330726e+00
 1.0354149061e+00	 1.1415537637e+00	-1.9169891491e+00
 1.1502688947e+00	 1.0433197256e+00	-1.5478831396e+00
 1.1400518997e+00	 1.0544744334e+00	-1.6092323882e+00
 1.1297248113e+00	 1.0655311310e+00	-1.6621849517e+00
 1.1192890334e+00	 1.0764882068e+00	-1.7063527809e+00
 1.1087460019e+00	 1.0873440764e+00	-1.7416137439e+00
 1.0980971838e+00	 1.0980971838e+00	-1.7714889747e+00
 1.0873440764e+00	 1.1087460019e+00	-1.7979189481e+00
 1.0764882068e+00	 1.1192890334e+00	-1.8235989646e+00
 1.0655311310e+00	 1.1297248113e+00	-1.8537202261e+00
 1.0544744334e+00	 1.1400518997e+00	-1.8882369253e+00
 1.0433197256e+00	 1.1502688947e+00	-1.9267909323e+00
 1.1589840256e+00	 1.0512245451e+00	-1.5682195451e+00
 1.1486896205e+00	 1.0624637677e+00	-1.6293589651e+00
 1.1382842878e+00	 1.0736042376e+00	-1.6818371878e+00
 1.1277694422e+00	 1.0846443308e+00	-1.7252787702e+00
 1.1171465304e+00	 1.0955824510e+00	-1.7594490493e+00
 1.1064170304e+00	 1.1064170304e+00	-1.7847910596e+00
 1.0955824510e+00	 1.1171465304e+00	-1.8068964442e+00
 1.0846443308e+00	 1.1277694422e+00	-1.8328324716e+00
 1.0736042376e+00	 1.1382842878e+00	-1.8632915611e+00
 1.0624637677e+00	 1.1486896205e+00	-1.8980659721e+00
 1.0512245451e+00	 1.1589840256e+00	-1.9368224683e+00
 1.1676991565e+00	 1.0591293647e+00	-1.5866349493e+00
 1.1573273414e+00	 1.0704531020e+00	-1.6471481806e+00
 1.1468437644e+00	 1.0816773441e+00	-1.6986623483e+00
 1.1362498510e+00	 1.0928004547e+00	-1.7408253638e+00
 1.1255470589e+00	 1.1038208256e+00	-1.7734310608e+00
 1.1147368770e+00	 1.1147368770e+00	-1.7968903168e+00
 1.1038208256e+00	 1.1255470589e+00	-1.8184857883e+00
 1.0928004547e+00	 1.1362498510e+00	-1.8442333755e+00
 1.0816773441e+00	 1.1468437644e+00	-1.8744250131e+00
 1.0704531020e+00	 1.1573273414e+00	-1.9088940360e+00
 1.0591293647e+00	 1.1676991565e+00	-1.9473434205e+00
 1.1764142875e+00	 1.0670341842e+00	-1.6033181234e+00
 1.1659650622e+00	 1.0784424363e+00	-1.6627823480e+00
 1.1554032410e+00	 1.0897504506e+00	-1.7128367927e+00
 1.1447302599e+00	 1.1009565787e+00	-1.7531630901e+00
 1.1339475873e+00	 1.1120592001e+00	-1.7836259959e+00
 1.1230567236e+00	 1.1230567236e+00	-1.8091335918e+00
 1.1120592001e+00	 1.1339475873e+00	-1.8331515080e+00
 1.1009565787e+00	 1.1447302599e+00	-1.8580841638e+00
 1.0897504506e+00	 1.1554032410e+00	-1.8873904315e+00
 1.0784424363e+00	 1.1659650622e+00	-1.9209782533e+00
 1.0670341842e+00	 1.1764142875e+00	-1.9585977683e+00
 9.8798598895e-01	 1.0892629781e+00	-1.8329548874e+00
 9.7732980809e-01	 1.0988341638e+00	-1.8697398298e+00
 9.6658392974e-01	 1.1082984747e+00	-1.9013426515e+00
 9.5574997169e-01	 1.1176546570e+00	-1.9292386877e+00
 9.4482957461e-01	 1.1269014897e+00	-1.9564641149e+00
 9.3382440126e-01	 1.1360377845e+00	-1.9826997489e+00
 9.2273613568e-01	 1.1450623866e+00	-2.0073514816e+00
 9.1156648230e-01	 1.1539741750e+00	-2.0297620032e+00
 9.0031716513e-01	 1.1627720633e+00	-2.0492175443e+00
 8.8898992683e-01	 1.1714549997e+00	-2.0649546491e+00
 8.7758652792e-01	 1.1800219676e+00	-2.0761669388e+00
 9.9589080848e-01	 1.0979781091e+00	-1.8562489688e+00
 9.8514936811e-01	 1.1076258733e+00	-1.8909386211e+00
 9.7431751261e-01	 1.1171659075e+00	-1.9209196459e+00
 9.6339687268e-01	 1.1265969482e+00	-1.9498699058e+00
 9.5238910213e-01	 1.1359177642e+00	-1.9777444650e+00
 9.4129587702e-01	 1.1451271580e+00	-2.0040832987e+00
 9.3011889485e-01	 1.1542239654e+00	-2.0283553137e+00
 9.1885987372e-01	 1.1632070565e+00	-2.0499652522e+00
 9.0752055139e-01	 1.1720753362e+00	-2.0682606618e+00
 8.9610268452e-01	 1.1808277443e+00	-2.0825388918e+00
 8.8460804766e-01	 1.1894632560e+00	-2.0920540743e+00
 1.0037956280e+00	 1.1066932400e+00	-1.8737608804e+00
 9.9296892814e-01	 1.1164175827e+00	-1.9067379656e+00
 9.8205109548e-01	 1.1260333404e+00	-1.9380770235e+00
 9.7104377367e-01	 1.1355392393e+00	-1.9681130816e+00
 9.5994862964e-01	 1.1449340388e+00	-1.9965204720e+00
 9.4876735277e-01	 1.1542165315e+00	-2.0228942989e+00
 9.3750165403e-01	 1.1633855442e+00	-2.0467574902e+00
 9.2615326513e-01	 1.1724399381e+00	-2.0675679559e+00
 9.1472393766e-01	 1.1813786092e+00	-2.0847258112e+00
 9.0321544220e-01	 1.1902004889e+00	-2.0975806186e+00
 8.9162956740e-01	 1.1989045444e+00	-2.1054386100e+00
 1.0117004475e+00	 1.1154083709e+00	-1.8861297164e+00
 1.0007884882e+00	 1.1252092922e+00	-1.9205601397e+00
 9.8978467835e-01	 1.1349007732e+00	-1.9533370546e+00
 9.7869067466e-01	 1.1444815304e+00	-1.9842699810e+00
 9.6750815716e-01	 1.1539503133e+00	-2.0130807228e+00
 9.5623882852e-01	 1.1633059050e+00	-2.0394105495e+00
 9.4488441320e-01	 1.1725471230e+00	-2.0628275306e+00
 9.3344665654e-01	 1.1816728196e+00	-2.0828339738e+00
 9.2192732393e-01	 1.1906818821e+00	-2.0988739242e+00
 9.1032819988e-01	 1.1995732335e+00	-2.1103406789e+00
 8.9865108713e-01	 1.2083458329e+00	-2.1165842722e+00
 1.0196052670e+00	 1.1241235019e+00	-1.8969575664e+00
 1.0086080482e+00	 1.1340010016e+00	-1.9330623067e+00
 9.9751826122e-01	 1.1437682061e+00	-1.9670030170e+00
 9.8633757565e-01	 1.1534238216e+00	-1.9986293326e+00
 9.7506768468e-01	 1.1629665878e+00	-2.0277016156e+00
 9.6371030428e-01	 1.1723952785e+00	-2.0538984446e+00
 9.5226717237e-01	 1.1817087018e+00	-2.0768242563e+00
 9.4074004796e-01	 1.1909057011e+00	-2.0960170901e+00
 9.2913071020e-01	 1.1999851550e+00	-2.1109563893e+00
 9.1744095756e-01	 1.2089459781e+00	-2.1210708108e+00
 9.0567260687e-01	 1.2177871213e+00	-2.1257459993e+00
 1.0275100866e+00	 1.1328386328e+00	-1.9071417378e+00
 1.0164276082e+00	 1.1427927110e+00	-1.9445495434e+00
 1.0052518441e+00	 1.1526356389e+00	-1.9793642858e+00
 9.9398447664e-01	 1.1623661127e+00	-2.0114668736e+00
 9.8262721219e-01	 1.1719828623e+00	-2.0406474133e+00
 9.7118178003e-01	 1.1814846520e+00	-2.0666130337e+00
 9.5964993155e-01	 1.1908702807e+00	-2.0889958618e+00
 9.4803343937e-01	 1.2001385827e+00	-2.1073610996e+00
 9.3633409647e-01	 1.2092884280e+00	-2.1212151525e+00
 9.2455371524e-01	 1.2183187227e+00	-2.1300137603e+00
 9.1269412661e-01	 1.2272284097e+00	-2.1331700830e+00
 1.0354149061e+00	 1.1415537637e+00	-1.9169891491e+00
 1.0242471683e+00	 1.1515844205e+00	-1.9553121037e+00
 1.0129854270e+00	 1.1615030718e+00	-1.9906963759e+00
 1.0016313776e+00	 1.1713084038e+00	-2.0230453979e+00
 9.9018673971e-01	 1.1809991368e+00	-2.0521702977e+00
 9.7865325578e-01	 1.1905740255e+00	-2.0777980852e+00
 9.6703269072e-01	 1.2000318595e+00	-2.0995799896e+00
 9.5532683079e-01	 1.2093714642e+00	-2.1170998948e+00
 9.4353748274e-01	 1.2185917009e+00	-2.1298828214e+00
 9.3166647293e-01	 1.2276914673e+00	-2.1374034036e+00
 9.1971564635e-01	 1.2366696982e+00	-2.1390943119e+00
 1.0433197256e+00	 1.1502688947e+00	-1.9267909323e+00
 1.0320667283e+00	 1.1603761299e+00	-1.9656254577e+00
 1.0207190098e+00	 1.1703705046e+00	-2.0012609851e+00
 1.0092782786e+00	 1.1802506950e+00	-2.0336148048e+00
 9.9774626723e-01	 1.1900154113e+00	-2.0625104260e+00
 9.8612473153e-01	 1.1996633989e+00	-2.0876861520e+00
 9.7441544989e-01	 1.2091934383e+00	-2.1088038071e+00
 9.6262022220e-01	 1.2186043457e+00	-2.1254575570e+00
 9.5074086901e-01	 1.2278949738e+00	-2.1371827713e+00
 9.3877923061e-01	 1.2370642120e+00	-2.1434648718e+00
 9.2673716609e-01	 1.2461109866e+00	-2.1437481175e+00
 1.0512245451e+00	 1.1589840256e+00	-1.9368224683e+00
 1.0398862883e+00	 1.1691678394e+00	-1.9757503305e+00
 1.0284525927e+00	 1.1792379375e+00	-2.0113060376e+00
 1.0169251796e+00	 1.1891929861e+00	-2.0434121489e+00
 1.0053057947e+00	 1.1990316859e+00	-2.0718959883e+00
 9.9359620729e-01	 1.2087527724e+00	-2.0964986390e+00
 9.8179820907e-01	 1.2183550171e+00	-2.1168840857e+00
 9.6991361362e-01	 1.2278372272e+00	-2.1326484491e+00
 9.5794425528e-01	 1.2371982468e+00	-2.1433292545e+00
 9.4589198829e-01	 1.2464369566e+00	-2.1484146789e+00
 9.3375868583e-01	 1.2555522750e+00	-2.1473527228e+00
 1.0591293647e+00	 1.1676991565e+00	-1.9473434205e+00
 1.0477058483e+00	 1.1779595488e+00	-1.9859327402e+00
 1.0361861756e+00	 1.1881053704e+00	-2.0210657281e+00
 1.0245720806e+00	 1.1981352773e+00	-2.0526616905e+00
 1.0128653223e+00	 1.2080479604e+00	-2.0805432673e+00
 1.0010676830e+00	 1.2178421459e+00	-2.1044458725e+00
 9.8918096824e-01	 1.2275165959e+00	-2.1240272824e+00
 9.7720700503e-01	 1.2370701088e+00	-2.1388773108e+00
 9.6514764155e-01	 1.2465015197e+00	-2.1485275117e+00
 9.5300474597e-01	 1.2558097012e+00	-2.1524608512e+00
 9.4078020556e-01	 1.2649935635e+00	-2.1501212925e+00
 1.0670341842e+00	 1.1764142875e+00	-1.9585977683e+00
 1.0555254084e+00	 1.1867512583e+00	-1.9964040364e+00
 1.0439197584e+00	 1.1969728032e+00	-2.0307605657e+00
 1.0322189816e+00	 1.2070775684e+00	-2.0615749481e+00
 1.0204248498e+00	 1.2170642349e+00	-2.0886566986e+00
 1.0085391588e+00	 1.2269315194e+00	-2.1117271715e+00
 9.9656372741e-01	 1.2366781748e+00	-2.1304296234e+00
 9.8450039644e-01	 1.2463029903e+00	-2.1443393568e+00
 9.7235102782e-01	 1.2558047926e+00	-2.1529738858e+00
 9.6011750365e-01	 1.2651824458e+00	-2.1558030594e+00
 9.4780172530e-01	 1.2744348519e+00	-2.1522590860e+00
 8.7758652792e-01	 1.1800219676e+00	-2.0761669388e+00
 8.6611070196e-01	 1.1884705604e+00	-2.0854309605e+00
 8.5456230414e-01	 1.1968013035e+00	-2.0954770743e+00
 8.4294313568e-01	 1.2050132932e+00	-2.1056908667e+00
 8.3125501205e-01	 1.2131056623e+00	-2.1154543328e+00
 8.1949976204e-01	 1.2210775800e+00	-2.1241515130e+00
 8.0767922684e-01	 1.2289282528e+00	-2.1311739036e+00
 7.9579525917e-01	 1.2366569239e+00	-2.1359256143e+00
 7.8384972228e-01	 1.2442628743e+00	-2.1378282485e+00
 7.7184448910e-01	 1.2517454219e+00	-2.1363254855e+00
 7.5978144126e-01	 1.2591039227e+00	-2.1308873436e+00
 8.8460804766e-01	 1.1894632560e+00	-2.0920540743e+00
 8.7304040426e-01	 1.1979794455e+00	-2.0996029583e+00
 8.6139960837e-01	 1.2063768424e+00	-2.1080700010e+00
 8.4968747562e-01	 1.2146545358e+00	-2.1168022370e+00
 8.3790583597e-01	 1.2228116515e+00	-2.1251423939e+00
 8.2605653287e-01	 1.2308473521e+00	-2.1324348385e+00
 8.1414142225e-01	 1.2387608376e+00	-2.1380312817e+00
 8.0216237163e-01	 1.2465513454e+00	-2.1412962161e+00
 7.9012125919e-01	 1.2542181505e+00	-2.1416120601e+00
 7.7801997282e-01	 1.2617605656e+00	-2.1383839865e+00
 7.6586040922e-01	 1.2691779413e+00	-2.1310444145e+00
 8.9162956740e-01	 1.1989045444e+00	-2.1054386100e+00
 8.7997010657e-01	 1.2074883306e+00	-2.1112931310e+00
 8.6823691261e-01	 1.2159523814e+00	-2.1181694721e+00
 8.5643181555e-01	 1.2242957784e+00	-2.1253835754e+00
 8.4455665990e-01	 1.2325176407e+00	-2.1322466648e+00
 8.3261330371e-01	 1.2406171241e+00	-2.1380714989e+00
 8.2060361766e-01	 1.2485934224e+00	-2.1421783683e+00
 8.0852948409e-01	 1.2564457669e+00	-2.1439008095e+00
 7.9639279609e-01	 1.2641734268e+00	-2.1425910075e+00
 7.8419545654e-01	 1.2717757093e+00	-2.1376248657e+00
 7.7193937718e-01	 1.2792519600e+00	-2.1284067189e+00
 8.9865108713e-01	 1.2083458329e+00	-2.1165842722e+00
 8.8689980888e-01	 1.2169972158e+00	-2.1207724941e+00
 8.7507421685e-01	 1.2255279203e+00	-2.1260594235e+00
 8.6317615548e-01	 1.2339370210e+00	-2.1317371286e+00
 8.5120748382e-01	 1.2422236298e+00	-2.1370928530e+00
 8.3917007455e-01	 1.2503868962e+00	-2.1414155737e+00
 8.2706581307e-01	 1.2584260073e+00	-2.1440022892e+00
 8.1489659655e-01	 1.2663401884e+00	-2.1441640054e+00
 8.0266433299e-01	 1.2741287031e+00	-2.1412313939e+00
 7.9037094025e-01	 1.2817908530e+00	-2.1345600960e+00
 7.7801834514e-01	 1.2893259786e+00	-2.1235356519e+00
 9.0567260687e-01	 1.2177871213e+00	-2.1257459993e+00
 8.9382951119e-01	 1.2265061009e+00	-2.1283034418e+00
 8.8191152108e-01	 1.2351034593e+00	-2.1320151374e+00
 8.6992049541e-01	 1.2435782636e+00	-2.1361562622e+00
 8.5785830774e-01	 1.2519296190e+00	-2.1399973662e+00
 8.4572684538e-01	 1.2601566682e+00	-2.1428112376e+00
 8.3352800848e-01	 1.2682585921e+00	-2.1438794776e+00
 8.2126370901e-01	 1.2762346099e+00	-2.1424987580e+00
 8.0893586989e-01	 1.2840839793e+00	-2.1379867289e+00
 7.9654642397e-01	 1.2918059967e+00	-2.1296875538e+00
 7.8409731309e-01	 1.2993999973e+00	-2.1169770475e+00
 9.1269412661e-01	 1.2272284097e+00	-2.1331700830e+00
 9.0075921350e-01	 1.2360149861e+00	-2.1341399142e+00
 8.8874882532e-01	 1.2446789982e+00	-2.1363034424e+00
 8.7666483535e-01	 1.2532195063e+00	-2.1389256990e+00
 8.6450913166e-01	 1.2616356082e+00	-2.1412675958e+00
 8.5228361622e-01	 1.2699264403e+00	-2.1425930931e+00
 8.3999020389e-01	 1.2780911769e+00	-2.1421760629e+00
 8.2763082147e-01	 1.2861290314e+00	-2.1393068125e+00
 8.1520740679e-01	 1.2940392556e+00	-2.1332982412e+00
 8.0272190768e-01	 1.3018211404e+00	-2.1234916000e+00
 7.9017628105e-01	 1.3094740159e+00	-2.1092618332e+00
 9.1971564635e-01	 1.2366696982e+00	-2.1390943119e+00
 9.0768891581e-01	 1.2455238712e+00	-2.1385275673e+00
 8.9558612956e-01	 1.2542545371e+00	-2.1391829146e+00
 8.8340917528e-01	 1.2628607489e+00	-2.1403217584e+00
 8.7115995558e-01	 1.2713415974e+00	-2.1412021978e+00
 8.5884038706e-01	 1.2796962123e+00	-2.1410865008e+00
 8.4645239929e-01	 1.2879237618e+00	-2.1392482525e+00
 8.3399793393e-01	 1.2960234529e+00	-2.1349791458e+00
 8.2147894369e-01	 1.3039945319e+00	-2.1275953813e+00
 8.0889739140e-01	 1.3118362841e+00	-2.1164436494e+00
 7.9625524901e-01	 1.3195480346e+00	-2.1009066692e+00
 9.2673716609e-01	 1.2461109866e+00	-2.1437481175e+00
 9.1461861812e-01	 1.2550327563e+00	-2.1417039441e+00
 9.0242343379e-01	 1.2638300761e+00	-2.1409040805e+00
 8.9015351521e-01	 1.2725019915e+00	-2.1406125947e+00
 8.7781077951e-01	 1.2810475866e+00	-2.1400913741e+00
 8.6539715789e-01	 1.2894659844e+00	-2.1386079057e+00
 8.5291459470e-01	 1.2977563466e+00	-2.1354427109e+00
 8.4036504639e-01	 1.3059178744e+00	-2.1298964003e+00
 8.2775048060e-01	 1.3139498081e+00	-2.1212963154e+00
 8.1507287512e-01	 1.3218514278e+00	-2.1090027284e+00
 8.0233421697e-01	 1.3296220532e+00	-2.0924145738e+00
 9.3375868583e-01	 1.2555522750e+00	-2.1473527228e+00
 9.2154832043e-01	 1.2645416415e+00	-2.1438986480e+00
 9.0926073803e-01	 1.2734056150e+00	-2.1417096202e+00
 8.9689785514e-01	 1.2821432341e+00	-2.1400584367e+00
 8.8446160343e-01	 1.2907535758e+00	-2.1382171513e+00
 8.7195392873e-01	 1.2992357564e+00	-2.1354651623e+00
 8.5937679011e-01	 1.3075889314e+00	-2.1310969333e+00
 8.4673215886e-01	 1.3158122959e+00	-2.1244293119e+00
 8.3402201750e-01	 1.3239050844e+00	-2.1148084105e+00
 8.2124835883e-01	 1.3318665715e+00	-2.1016160211e+00
 8.0841318493e-01	 1.3396960718e+00	-2.0842755344e+00
 9.4078020556e-01	 1.2649935635e+00	-2.1501212925e+00
 9.2847802274e-01	 1.2740505266e+00	-2.1453335180e+00
 9.1609804227e-01	 1.2829811540e+00	-2.1418345726e+00
 9.0364219508e-01	 1.2917844767e+00	-2.1389118269e+00
 8.9111242735e-01	 1.3004595650e+00	-2.1358536599e+00
 8.7851069957e-01	 1.3090055285e+00	-2.1319578566e+00
 8.6583898552e-01	 1.3174215163e+00	-2.1265396156e+00
 8.5309927132e-01	 1.3257067173e+00	-2.1189391311e+00
 8.4029355440e-01	 1.3338603606e+00	-2.1085287117e+00
 8.2742384255e-01	 1.3418817152e+00	-2.0947194060e+00
 8.1449215288e-01	 1.3497700905e+00	-2.0769671066e+00
 9.4780172530e-01	 1.2744348519e+00	-2.1522590860e+00
 9.3540772505e-01	 1.2835594118e+00	-2.1462228056e+00
 9.2293534650e-01	 1.2925566929e+00	-2.1415065409e+00
 9.1038653501e-01	 1.3014257193e+00	-2.1374178606e+00
 8.9776325127e-01	 1.3101655542e+00	-2.1332674111e+00
 8.8506747040e-01	 1.3187753005e+00	-2.1283776254e+00
 8.7230118093e-01	 1.3272541011e+00	-2.1220910199e+00
 8.5946638378e-01	 1.3356011388e+00	-2.1137780390e+00
 8.4656509130e-01	 1.3438156369e+00	-2.1028444110e+00
 8.3359932626e-01	 1.3518968589e+00	-2.0887379819e+00
 8.2057112084e-01	 1.3598441091e+00	-2.0709549998e+00
 7.5978144126e-01	 1.2591039227e+00	-2.1308873436e+00
 7.4766246841e-01	 1.2663377702e+00	-2.1233912699e+00
 7.3548946800e-01	 1.2734463973e+00	-2.1156588050e+00
 7.2326434362e-01	 1.2804292746e+00	-2.1065764082e+00
 7.1098900383e-01	 1.2872859108e+00	-2.0959881568e+00
 6.9866536122e-01	 1.2940158521e+00	-2.0839710397e+00
 6.8629533155e-01	 1.3006186829e+00	-2.0706230615e+00
 6.7388083278e-01	 1.3070940247e+00	-2.0560625460e+00
 6.6142378419e-01	 1.3134415372e+00	-2.0404273847e+00
 6.4892610551e-01	 1.3196609170e+00	-2.0238742303e+00
 6.3638971597e-01	 1.3257518984e+00	-2.0065776340e+00
 7.6586040922e-01	 1.2691779413e+00	-2.1310444145e+00
 7.5364447316e-01	 1.2764696665e+00	-2.1214315953e+00
 7.4137407727e-01	 1.2836351692e+00	-2.1114741522e+00
 7.2905114037e-01	 1.2906739162e+00	-2.1004241761e+00
 7.1667758628e-01	 1.2975854119e+00	-2.0877643680e+00
 7.0425534291e-01	 1.3043691991e+00	-2.0736172747e+00
 6.9178634134e-01	 1.3110248587e+00	-2.0581293831e+00
 6.7927251487e-01	 1.3175520095e+00	-2.0414689503e+00
 6.6671579815e-01	 1.3239503079e+00	-2.0238251989e+00
 6.5411812625e-01	 1.3302194487e+00	-2.0054074526e+00
 6.4148143378e-01	 1.3363591637e+00	-1.9864442106e+00
 7.7193937718e-01	 1.2792519600e+00	-2.1284067189e+00
 7.5962647790e-01	 1.2866015627e+00	-2.1167637728e+00
 7.4725868653e-01	 1.2938239412e+00	-2.1046422643e+00
 7.3483793711e-01	 1.3009185577e+00	-2.0916084844e+00
 7.2236616873e-01	 1.3078849130e+00	-2.0770289950e+00
 7.0984532460e-01	 1.3147225461e+00	-2.0609550386e+00
 6.9727735113e-01	 1.3214310346e+00	-2.0435709428e+00
 6.8466419697e-01	 1.3280099942e+00	-2.0250839115e+00
 6.7200781211e-01	 1.3344590787e+00	-2.0057231882e+00
 6.5931014700e-01	 1.3407779804e+00	-1.9857391549e+00
 6.4657315159e-01	 1.3469664290e+00	-1.9654023666e+00
 7.7801834514e-01	 1.2893259786e+00	-2.1235356519e+00
 7.6560848265e-01	 1.2967334590e+00	-2.1099949746e+00
 7.5314329580e-01	 1.3040127132e+00	-2.0959102365e+00
 7.4062473385e-01	 1.3111631993e+00	-2.0809271273e+00
 7.2805475118e-01	 1.3181844141e+00	-2.0645905439e+00
 7.1543530629e-01	 1.3250758931e+00	-2.0467941075e+00
 7.0276836092e-01	 1.3318372105e+00	-2.0277496038e+00
 6.9005587906e-01	 1.3384679789e+00	-2.0076924623e+00
 6.7729982607e-01	 1.3449678495e+00	-1.9868809081e+00
 6.6450216774e-01	 1.3513365121e+00	-1.9655950476e+00
 6.5166486940e-01	 1.3575736943e+00	-1.9441358823e+00
 7.8409731309e-01	 1.2993999973e+00	-2.1169770475e+00
 7.7159048740e-01	 1.3068653552e+00	-2.1017154146e+00
 7.5902790507e-01	 1.3142014851e+00	-2.0859022236e+00
 7.4641153060e-01	 1.3214078409e+00	-2.0691829884e+00
 7.3374333363e-01	 1.3284839152e+00	-2.0512378868e+00
 7.2102528798e-01	 1.3354292401e+00	-2.0319246815e+00
 7.0825937071e-01	 1.3422433864e+00	-2.0114480001e+00
 6.9544756115e-01	 1.3489259636e+00	-1.9900610306e+00
 6.8259184003e-01	 1.3554766203e+00	-1.9680402025e+00
 6.6969418849e-01	 1.3618950438e+00	-1.9456842784e+00
 6.5675658720e-01	 1.3681809596e+00	-1.9233133712e+00
 7.9017628105e-01	 1.3094740159e+00	-2.1092618332e+00
 7.7757249215e-01	 1.3169972515e+00	-2.0924990715e+00
 7.6491251433e-01	 1.3243902571e+00	-2.0752250899e+00
 7.5219832734e-01	 1.3316524824e+00	-2.0570763566e+00
 7.3943191608e-01	 1.3387834164e+00	-2.0377401901e+00
 7.2661526967e-01	 1.3457825871e+00	-2.0171173452e+00
 7.1375038050e-01	 1.3526495622e+00	-1.9954295169e+00
 7.0083924324e-01	 1.3593839483e+00	-1.9729374304e+00
 6.8788385398e-01	 1.3659853911e+00	-1.9499251924e+00
 6.7488620923e-01	 1.3724535755e+00	-1.9266994112e+00
 6.6184830501e-01	 1.3787882249e+00	-1.9035882382e+00
 7.9625524901e-01	 1.3195480346e+00	-2.1009066692e+00
 7.8355449690e-01	 1.3271291477e+00	-2.0829043941e+00
 7.7079712360e-01	 1.3345790291e+00	-2.0644691674e+00
 7.5798512408e-01	 1.3418971240e+00	-2.0452197905e+00
 7.4512049853e-01	 1.3490829175e+00	-2.0248275458e+00
 7.3220525136e-01	 1.3561359341e+00	-2.0031230039e+00
 7.1924139028e-01	 1.3630557381e+00	-1.9804382477e+00
 7.0623092534e-01	 1.3698419330e+00	-1.9570508281e+00
 6.9317586794e-01	 1.3764941619e+00	-1.9332422432e+00
 6.8007822997e-01	 1.3830121072e+00	-1.9093163836e+00
 6.6694002282e-01	 1.3893954901e+00	-1.8855986190e+00
 8.0233421697e-01	 1.3296220532e+00	-2.0924145738e+00
 7.8953650164e-01	 1.3372610440e+00	-2.0734749893e+00
 7.7668173286e-01	 1.3447678010e+00	-2.0542089956e+00
 7.6377192083e-01	 1.3521417656e+00	-2.0342093362e+00
 7.5080908098e-01	 1.3593824186e+00	-2.0131232450e+00
 7.3779523305e-01	 1.3664892811e+00	-1.9906727978e+00
 7.2473240007e-01	 1.3734619140e+00	-1.9671989285e+00
 7.1162260743e-01	 1.3802999177e+00	-1.9431116877e+00
 6.9846788190e-01	 1.3870029327e+00	-1.9186799111e+00
 6.8527025072e-01	 1.3935706389e+00	-1.8941944452e+00
 6.7203174062e-01	 1.4000027554e+00	-1.8699673008e+00
 8.0841318493e-01	 1.3396960718e+00	-2.0842755344e+00
 7.9551850639e-01	 1.3473929402e+00	-2.0647402944e+00
 7.8256634213e-01	 1.3549565730e+00	-2.0450040418e+00
 7.6955871757e-01	 1.3623864071e+00	-2.0246252962e+00
 7.5649766343e-01	 1.3696819197e+00	-2.0032188751e+00
 7.4338521474e-01	 1.3768426281e+00	-1.9804590596e+00
 7.3022340986e-01	 1.3838680898e+00	-1.9564168512e+00
 7.1701428952e-01	 1.3907579024e+00	-1.9318116952e+00
 7.0375989585e-01	 1.3975117035e+00	-1.9069088688e+00
 6.9046227146e-01	 1.4041291706e+00	-1.8819760764e+00
 6.7712345843e-01	 1.4106100207e+00	-1.8573016265e+00
 8.1449215288e-01	 1.3497700905e+00	-2.0769671066e+00
 8.0150051114e-01	 1.3575248365e+00	-2.0572162341e+00
 7.8845095139e-01	 1.3651453450e+00	-2.0373994065e+00
 7.7534551431e-01	 1.3726310487e+00	-2.0170329700e+00
 7.6218624588e-01	 1.3799814209e+00	-1.9956911884e+00
 7.4897519643e-01	 1.3871959751e+00	-1.9730095875e+00
 7.3571441965e-01	 1.3942742657e+00	-1.9487777567e+00
 7.2240597161e-01	 1.4012158872e+00	-1.9238236626e+00
 7.0905190981e-01	 1.4080204743e+00	-1.8985818126e+00
 6.9565429220e-01	 1.4146877023e+00	-1.8732868898e+00
 6.8221517623e-01	 1.4212172860e+00	-1.8481933816e+00
 8.2057112084e-01	 1.3598441091e+00	-2.0709549998e+00
 8.0748251589e-01	 1.3676567327e+00	-2.0514058623e+00
 7.9433556066e-01	 1.3753341169e+00	-2.0319265103e+00
 7.8113231106e-01	 1.3828756903e+00	-2.0119833769e+00
 7.6787482833e-01	 1.3902809220e+00	-1.9911022585e+00
 7.5456517812e-01	 1.3975493221e+00	-1.9688718543e+00
 7.4120542943e-01	 1.4046804416e+00	-1.9449466769e+00
 7.2779765370e-01	 1.4116738719e+00	-1.9198014142e+00
 7.1434392377e-01	 1.4185292451e+00	-1.8943333517e+00
 7.0084631294e-01	 1.4252462340e+00	-1.8687355147e+00
 6.8730689403e-01	 1.4318245513e+00	-1.8432186666e+00
 6.3638971597e-01	 1.3257518984e+00	-2.0065776340e+00
 6.2381439279e-01	 1.3317152553e+00	-1.9884591871e+00
 6.1120418018e-01	 1.3375497489e+00	-1.9693803172e+00
 5.9856099109e-01	 1.3432552230e+00	-1.9494371924e+00
 5.8588673458e-01	 1.3488315585e+00	-1.9287358608e+00
 5.7318331496e-01	 1.3542786723e+00	-1.9073912827e+00
 5.6045263095e-01	 1.3595965173e+00	-1.8855263162e+00
 5.4769657490e-01	 1.3647850821e+00	-1.8632706574e+00
 5.3491703195e-01	 1.3698443909e+00	-1.8407597372e+00
 5.2211587927e-01	 1.3747745027e+00	-1.8181335798e+00
 5.0929498526e-01	 1.3795755113e+00	-1.7955356243e+00
 6.4148143378e-01	 1.3363591637e+00	-1.9864442106e+00
 6.2880549616e-01	 1.3423702331e+00	-1.9668377921e+00
 6.1609438995e-01	 1.3482514081e+00	-1.9463973082e+00
 6.0335004343e-01	 1.3540025314e+00	-1.9252235355e+00
 5.9057438091e-01	 1.3596234829e+00	-1.9034272649e+00
 5.7776932196e-01	 1.3651141787e+00	-1.8811283354e+00
 5.6493678047e-01	 1.3704745714e+00	-1.8584546154e+00
 5.5207866395e-01	 1.3757046497e+00	-1.8355409338e+00
 5.3919687260e-01	 1.3808044377e+00	-1.8125279648e+00
 5.2629329863e-01	 1.3857739951e+00	-1.7895610681e+00
 5.1336982538e-01	 1.3906134162e+00	-1.7667890902e+00
 6.4657315159e-01	 1.3469664290e+00	-1.9654023666e+00
 6.3379659952e-01	 1.3530252109e+00	-1.9445706963e+00
 6.2098459973e-01	 1.3589530673e+00	-1.9229824385e+00
 6.0813909577e-01	 1.3647498398e+00	-1.9007408453e+00
 5.9526202725e-01	 1.3704154072e+00	-1.8779590570e+00
 5.8235532895e-01	 1.3759496851e+00	-1.8547591444e+00
 5.6942093000e-01	 1.3813526256e+00	-1.8312710944e+00
 5.5646075299e-01	 1.3866242173e+00	-1.8076317415e+00
 5.4347671326e-01	 1.3917644845e+00	-1.7839836471e+00
 5.3047071799e-01	 1.3967734874e+00	-1.7604739320e+00
 5.1744466549e-01	 1.4016513212e+00	-1.7372530629e+00
 6.5166486940e-01	 1.3575736943e+00	-1.9441358823e+00
 6.3878770289e-01	 1.3636801887e+00	-1.9222923034e+00
 6.2587480950e-01	 1.3696547265e+00	-1.8997137843e+00
 6.1292814810e-01	 1.3754971482e+00	-1.8765039747e+00
 5.9994967358e-01	 1.3812073315e+00	-1.8527760317e+00
 5.8694133595e-01	 1.3867851914e+00	-1.8286516789e+00
 5.7390507952e-01	 1.3922306797e+00	-1.8042602050e+00
 5.6084284204e-01	 1.3975437848e+00	-1.7797374030e+00
 5.4775655391e-01	 1.4027245314e+00	-1.7552244536e+00
 5.3464813735e-01	 1.4077729798e+00	-1.7308667565e+00
 5.2151950561e-01	 1.4126892261e+00	-1.7068127125e+00
 6.5675658720e-01	 1.3681809596e+00	-1.9233133712e+00
 6.4377880625e-01	 1.3743351664e+00	-1.9006234712e+00
 6.3076501927e-01	 1.3803563857e+00	-1.8771577046e+00
 6.1771720044e-01	 1.3862444566e+00	-1.8530180927e+00
 6.0463731992e-01	 1.3919992559e+00	-1.8283155348e+00
 5.9152734295e-01	 1.3976206978e+00	-1.8031688932e+00
 5.7838922904e-01	 1.4031087339e+00	-1.7777040120e+00
 5.6522493108e-01	 1.4084633524e+00	-1.7520526735e+00
 5.5203639456e-01	 1.4136845782e+00	-1.7263514931e+00
 5.3882555671e-01	 1.4187724721e+00	-1.7007407579e+00
 5.2559434573e-01	 1.4237271311e+00	-1.6753632118e+00
 6.6184830501e-01	 1.3787882249e+00	-1.9035882382e+00
 6.4876990961e-01	 1.3849901442e+00	-1.8801714404e+00
 6.3565522904e-01	 1.3910580450e+00	-1.8558687326e+00
 6.2250625278e-01	 1.3969917650e+00	-1.8307785301e+00
 6.0932496625e-01	 1.4027911802e+00	-1.8050072548e+00
 5.9611334995e-01	 1.4084562042e+00	-1.7786684544e+00
 5.8287337856e-01	 1.4139867881e+00	-1.7518818504e+00
 5.6960702013e-01	 1.4193829200e+00	-1.7247723188e+00
 5.5631623521e-01	 1.4246446250e+00	-1.6974688053e+00
 5.4300297606e-01	 1.4297719645e+00	-1.6701031794e+00
 5.2966918584e-01	 1.4347650360e+00	-1.6428090303e+00
 6.6694002282e-01	 1.3893954901e+00	-1.8855986190e+00
 6.5376101298e-01	 1.3956451220e+00	-1.8615297467e+00
 6.4054543881e-01	 1.4017597042e+00	-1.8363894524e+00
 6.2729530511e-01	 1.4077390734e+00	-1.8102706126e+00
 6.1401261259e-01	 1.4135831045e+00	-1.7832730045e+00
 6.0069935695e-01	 1.4192917106e+00	-1.7555024661e+00
 5.8735752808e-01	 1.4248648422e+00	-1.7270699821e+00
 5.7398910917e-01	 1.4303024875e+00	-1.6980906974e+00
 5.6059607586e-01	 1.4356046718e+00	-1.6686828608e+00
 5.4718039542e-01	 1.4407714568e+00	-1.6389667020e+00
 5.3374402596e-01	 1.4458029410e+00	-1.6090632468e+00
 6.7203174062e-01	 1.4000027554e+00	-1.8699673008e+00
 6.5875211634e-01	 1.4063000997e+00	-1.8452781167e+00
 6.4543564858e-01	 1.4124613634e+00	-1.8192503616e+00
 6.3208435745e-01	 1.4184863818e+00	-1.7919694839e+00
 6.1870025892e-01	 1.4243750289e+00	-1.7635264964e+00
 6.0528536394e-01	 1.4301272170e+00	-1.7340171873e+00
 5.9184167760e-01	 1.4357428964e+00	-1.7035412518e+00
 5.7837119822e-01	 1.4412220551e+00	-1.6722013464e+00
 5.6487591651e-01	 1.4465647186e+00	-1.6401020689e+00
 5.5135781478e-01	 1.4517709492e+00	-1.6073488671e+00
 5.3781886608e-01	 1.4568408459e+00	-1.5740468804e+00
 6.7712345843e-01	 1.4106100207e+00	-1.8573016265e+00
 6.6374321970e-01	 1.4169550775e+00	-1.8319823481e+00
 6.5032585835e-01	 1.4231630226e+00	-1.8049697220e+00
 6.3687340979e-01	 1.4292336902e+00	-1.7763399173e+00
 6.2338790525e-01	 1.4351669532e+00	-1.7461731092e+00
 6.0987137094e-01	 1.4409627234e+00	-1.7145527475e+00
 5.9632582712e-01	 1.4466209505e+00	-1.6815647430e+00
 5.8275328726e-01	 1.4521416227e+00	-1.6472965705e+00
 5.6915575716e-01	 1.4575247654e+00	-1.6118362935e+00
 5.5553523413e-01	 1.4627704415e+00	-1.5752715121e+00
 5.4189370619e-01	 1.4678787509e+00	-1.5376882390e+00
 6.8221517623e-01	 1.4212172860e+00	-1.8481933816e+00
 6.6873432306e-01	 1.4276100553e+00	-1.8221941765e+00
 6.5521606812e-01	 1.4338646818e+00	-1.7940533968e+00
 6.4166246212e-01	 1.4399809986e+00	-1.7638361188e+00
 6.2807555158e-01	 1.4459588776e+00	-1.7316096484e+00
 6.1445737794e-01	 1.4517982297e+00	-1.6974428577e+00
 6.0080997664e-01	 1.4574990047e+00	-1.6614054327e+00
 5.8713537630e-01	 1.4630611903e+00	-1.6235670345e+00
 5.7343559781e-01	 1.4684848122e+00	-1.5839963761e+00
 5.5971265349e-01	 1.4737699339e+00	-1.5427602173e+00
 5.4596854631e-01	 1.4789166558e+00	-1.4999222833e+00
 6.8730689403e-01	 1.4318245513e+00	-1.8432186666e+00
 6.7372542642e-01	 1.4382650331e+00	-1.8164511268e+00
 6.6010627789e-01	 1.4445663411e+00	-1.7869946770e+00
 6.4645151446e-01	 1.4507283070e+00	-1.7549015196e+00
 6.3276319791e-01	 1.4567508019e+00	-1.7202240998e+00
 6.1904338493e-01	 1.4626337361e+00	-1.6830145176e+00
 6.0529412616e-01	 1.4683770588e+00	-1.6433238462e+00
 5.9151746534e-01	 1.4739807578e+00	-1.6012013589e+00
 5.7771543845e-01	 1.4794448590e+00	-1.5566936657e+00
 5.6389007285e-01	 1.4847694262e+00	-1.5108333661e+00
 5.5004338642e-01	 1.4899545608e+00	-1.4673335431e+00
 5.0929498526e-01	 1.3795755113e+00	-1.7955356243e+00
 4.9645839248e-01	 1.3842467613e+00	-1.7729213752e+00
 4.8360577045e-01	 1.3887892409e+00	-1.7502149962e+00
 4.7073895534e-01	 1.3932031444e+00	-1.7275227363e+00
 4.5785977162e-01	 1.3974886992e+00	-1.7049452223e+00
 4.4497003142e-01	 1.4016461652e+00	-1.6825762752e+00
 4.3207153386e-01	 1.4056758345e+00	-1.6605017227e+00
 4.1916606432e-01	 1.4095780307e+00	-1.6387982155e+00
 4.0625539389e-01	 1.4133531084e+00	-1.6175320511e+00
 3.9334127868e-01	 1.4170014531e+00	-1.5967580134e+00
 3.8042545923e-01	 1.4205234802e+00	-1.5765182310e+00
 5.1336982538e-01	 1.3906134162e+00	-1.7667890902e+00
 5.0043052775e-01	 1.3953220406e+00	-1.7441013501e+00
 4.8747507263e-01	 1.3999008643e+00	-1.7213330815e+00
 4.7450531086e-01	 1.4043500832e+00	-1.6985606259e+00
 4.6152308152e-01	 1.4086699265e+00	-1.6758530238e+00
 4.4853021126e-01	 1.4128606562e+00	-1.6532708649e+00
 4.3552851355e-01	 1.4169225666e+00	-1.6308651339e+00
 4.2251978809e-01	 1.4208559840e+00	-1.6086760573e+00
 4.0950582012e-01	 1.4246612660e+00	-1.5867319563e+00
 3.9648837981e-01	 1.4283388009e+00	-1.5650481123e+00
 3.8346922163e-01	 1.4318890075e+00	-1.5436256519e+00
 5.1744466549e-01	 1.4016513212e+00	-1.7372530629e+00
 5.0440266302e-01	 1.4063973200e+00	-1.7141243886e+00
 4.9134437481e-01	 1.4110124878e+00	-1.6908234613e+00
 4.7827166638e-01	 1.4154970221e+00	-1.6674069308e+00
 4.6518639143e-01	 1.4198511538e+00	-1.6439230427e+00
 4.5209039109e-01	 1.4240751472e+00	-1.6204105005e+00
 4.3898549324e-01	 1.4281692988e+00	-1.5968973192e+00
 4.2587351185e-01	 1.4321339374e+00	-1.5733996781e+00
 4.1275624634e-01	 1.4359694236e+00	-1.5499207770e+00
 3.9963548093e-01	 1.4396761487e+00	-1.5264497038e+00
 3.8651298402e-01	 1.4432545348e+00	-1.5029603180e+00
 5.2151950561e-01	 1.4126892261e+00	-1.7068127125e+00
 5.0837479829e-01	 1.4174725993e+00	-1.6827705769e+00
 4.9521367698e-01	 1.4221241113e+00	-1.6583758558e+00
 4.8203802190e-01	 1.4266439609e+00	-1.6336754669e+00
 4.6884970134e-01	 1.4310323812e+00	-1.6087073915e+00
 4.5565057092e-01	 1.4352896382e+00	-1.5834995244e+00
 4.4244247292e-01	 1.4394160309e+00	-1.5580685120e+00
 4.2922723561e-01	 1.4434118908e+00	-1.5324185860e+00
 4.1600667257e-01	 1.4472775812e+00	-1.5065403985e+00
 4.0278258206e-01	 1.4510134965e+00	-1.4804098651e+00
 3.8955674641e-01	 1.4546200621e+00	-1.4539870228e+00
 5.2559434573e-01	 1.4237271311e+00	-1.6753632118e+00
 5.1234693356e-01	 1.4285478787e+00	-1.6498332254e+00
 4.9908297916e-01	 1.4332357347e+00	-1.6236959579e+00
 4.8580437742e-01	 1.4377908998e+00	-1.5969983066e+00
 4.7251301124e-01	 1.4422136085e+00	-1.5697782659e+00
 4.5921075075e-01	 1.4465041292e+00	-1.5420637409e+00
 4.4589945261e-01	 1.4506627631e+00	-1.5138713468e+00
 4.3258095938e-01	 1.4546898442e+00	-1.4852051994e+00
 4.1925709879e-01	 1.4585857387e+00	-1.4560557038e+00
 4.0592968318e-01	 1.4623508442e+00	-1.4263983483e+00
 3.9260050880e-01	 1.4659855894e+00	-1.3961925106e+00
 5.2966918584e-01	 1.4347650360e+00	-1.6428090303e+00
 5.1631906883e-01	 1.4396231580e+00	-1.6151180646e+00
 5.0295228133e-01	 1.4443473582e+00	-1.5865045484e+00
 4.8957073294e-01	 1.4489378387e+00	-1.5570248304e+00
 4.7617632115e-01	 1.4533948359e+00	-1.5267269494e+00
 4.6277093058e-01	 1.4577186201e+00	-1.4956493897e+00
 4.4935643230e-01	 1.4619094952e+00	-1.4638198179e+00
 4.3593468314e-01	 1.4659677976e+00	-1.4312538057e+00
 4.2250752502e-01	 1.4698938963e+00	-1.3979535485e+00
 4.0907678431e-01	 1.4736881920e+00	-1.3639065847e+00
 3.9564427119e-01	 1.4773511167e+00	-1.3290845250e+00
 5.3374402596e-01	 1.4458029410e+00	-1.6090632468e+00
 5.2029120410e-01	 1.4506984374e+00	-1.5784424652e+00
 5.0682158350e-01	 1.4554589817e+00	-1.5465366405e+00
 4.9333708846e-01	 1.4600847775e+00	-1.5134208108e+00
 4.7983963106e-01	 1.4645760632e+00	-1.4791628529e+00
 4.6633111041e-01	 1.4689331111e+00	-1.4438221568e+00
 4.5281341198e-01	 1.4731562273e+00	-1.4074482757e+00
 4.3928840690e-01	 1.4772457510e+00	-1.3700795587e+00
 4.2575795124e-01	 1.4812020539e+00	-1.3317417734e+00
 4.1222388543e-01	 1.4850255398e+00	-1.2936521881e+00
 3.9868803358e-01	 1.4887166440e+00	-1.2572113371e+00
 5.3781886608e-01	 1.4568408459e+00	-1.5740468804e+00
 5.2426333937e-01	 1.4617737167e+00	-1.5396346817e+00
 5.1069088568e-01	 1.4665706052e+00	-1.5035406506e+00
 4.9710344398e-01	 1.4712317164e+00	-1.4658675267e+00
 4.8350294096e-01	 1.4757572905e+00	-1.4267125876e+00
 4.6989129024e-01	 1.4801476021e+00	-1.3861662201e+00
 4.5627039167e-01	 1.4844029595e+00	-1.3451279103e+00
 4.4264213066e-01	 1.4885237044e+00	-1.3059823097e+00
 4.2900837747e-01	 1.4925102115e+00	-1.2686400566e+00
 4.1537098656e-01	 1.4963628876e+00	-1.2328194804e+00
 4.0173179598e-01	 1.5000821713e+00	-1.1982201605e+00
 5.4189370619e-01	 1.4678787509e+00	-1.5376882390e+00
 5.2823547464e-01	 1.4728489961e+00	-1.4985331173e+00
 5.1456018785e-01	 1.4776822286e+00	-1.4572775956e+00
 5.0086979950e-01	 1.4823786552e+00	-1.4141364594e+00
 4.8716625087e-01	 1.4869385179e+00	-1.3718551704e+00
 4.7345147007e-01	 1.4913620931e+00	-1.3316186855e+00
 4.5972737136e-01	 1.4956496916e+00	-1.2932208673e+00
 4.4599585442e-01	 1.4998016578e+00	-1.2564349524e+00
 4.3225880369e-01	 1.5038183690e+00	-1.2210151739e+00
 4.1851808769e-01	 1.5077002353e+00	-1.1866982433e+00
 4.0477555837e-01	 1.5114476987e+00	-1.1532046987e+00
 5.4596854631e-01	 1.4789166558e+00	-1.4999222833e+00
 5.3220760991e-01	 1.4839242755e+00	-1.4555420076e+00
 5.1842949002e-01	 1.4887938521e+00	-1.4125533629e+00
 5.0463615502e-01	 1.4935255941e+00	-1.3714466119e+00
 4.9082956077e-01	 1.4981197452e+00	-1.3320747924e+00
 4.7701164990e-01	 1.5025765841e+00	-1.2942699836e+00
 4.6318435105e-01	 1.5068964238e+00	-1.2578451675e+00
 4.4934957818e-01	 1.5110796112e+00	-1.2225959351e+00
 4.3550922992e-01	 1.5151265266e+00	-1.1883020416e+00
 4.2166518881e-01	 1.5190375831e+00	-1.1547288133e+00
 4.0781932076e-01	 1.5228132260e+00	-1.1216284134e+00
 5.5004338642e-01	 1.4899545608e+00	-1.4673335431e+00
 5.3617974518e-01	 1.4949995548e+00	-1.4258976726e+00
 5.2229879220e-01	 1.4999054756e+00	-1.3859392526e+00
 5.0840251054e-01	 1.5046725330e+00	-1.3473503520e+00
 4.9449287068e-01	 1.5093009726e+00	-1.3100040029e+00
 4.8057182973e-01	 1.5137910751e+00	-1.2737561602e+00
 4.6664133073e-01	 1.5181431559e+00	-1.2384474932e+00
 4.5270330195e-01	 1.5223575646e+00	-1.2039050120e+00
 4.3875965614e-01	 1.5264346842e+00	-1.1699435338e+00
 4.2481228994e-01	 1.5303749309e+00	-1.1363669927e+00
 4.1086308315e-01	 1.5341787533e+00	-1.1029695992e+00
 3.8042545923e-01	 1.4205234802e+00	-1.5765182310e+00
 3.6750966014e-01	 1.4239196348e+00	-1.5564386781e+00
 3.5459558997e-01	 1.4271903923e+00	-1.5357284835e+00
 3.4168494014e-01	 1.4303362570e+00	-1.5144621539e+00
 3.2877938425e-01	 1.4333577608e+00	-1.4929630391e+00
 3.1588057756e-01	 1.4362554629e+00	-1.4715130158e+00
 3.0299015648e-01	 1.4390299493e+00	-1.4503532155e+00
 2.9010973813e-01	 1.4416818319e+00	-1.4296850569e+00
 2.7724091989e-01	 1.4442117480e+00	-1.4096715571e+00
 2.6438527895e-01	 1.4466203600e+00	-1.3904388979e+00
 2.5154437192e-01	 1.4489083541e+00	-1.3720782182e+00
 3.8346922163e-01	 1.4318890075e+00	-1.5436256519e+00
 3.7045008396e-01	 1.4353123345e+00	-1.5221511941e+00
 3.5743268905e-01	 1.4386092612e+00	-1.5000787579e+00
 3.4441874185e-01	 1.4417802958e+00	-1.4773206683e+00
 3.3140992934e-01	 1.4448259745e+00	-1.4542243779e+00
 3.1840792003e-01	 1.4477468609e+00	-1.4310924426e+00
 3.0541436343e-01	 1.4505435458e+00	-1.4081833704e+00
 2.9243088959e-01	 1.4532166460e+00	-1.3857127977e+00
 2.7945910867e-01	 1.4557668038e+00	-1.3638549561e+00
 2.6650061048e-01	 1.4581946869e+00	-1.3427444045e+00
 2.5355696408e-01	 1.4605009872e+00	-1.3224779987e+00
 3.8651298402e-01	 1.4432545348e+00	-1.5029603180e+00
 3.7339050779e-01	 1.4467050343e+00	-1.4792070116e+00
 3.6026978813e-01	 1.4500281301e+00	-1.4549319666e+00
 3.4715254356e-01	 1.4532243346e+00	-1.4299164521e+00
 3.3404047444e-01	 1.4562941881e+00	-1.4045059256e+00
 3.2093526251e-01	 1.4592382590e+00	-1.3790206664e+00
 3.0783857039e-01	 1.4620571423e+00	-1.3537335082e+00
 2.9475204106e-01	 1.4647514600e+00	-1.3288711691e+00
 2.8167729745e-01	 1.4673218596e+00	-1.3046158869e+00
 2.6861594201e-01	 1.4697690139e+00	-1.2811073302e+00
 2.5556955625e-01	 1.4720936203e+00	-1.2584447567e+00
 3.8955674641e-01	 1.4546200621e+00	-1.4539870228e+00
 3.7633093161e-01	 1.4580977340e+00	-1.4271182815e+00
 3.6310688722e-01	 1.4614469990e+00	-1.3998034926e+00
 3.4988634527e-01	 1.4646683733e+00	-1.3717896938e+00
 3.3667101953e-01	 1.4677624018e+00	-1.3433754326e+00
 3.2346260499e-01	 1.4707296570e+00	-1.3148957377e+00
 3.1026277734e-01	 1.4735707389e+00	-1.2866346907e+00
 2.9707319252e-01	 1.4762862741e+00	-1.2588269234e+00
 2.8389548624e-01	 1.4788769154e+00	-1.2316594331e+00
 2.7073127355e-01	 1.4813433408e+00	-1.2052736855e+00
 2.5758214842e-01	 1.4836862534e+00	-1.1802014481e+00
 3.9260050880e-01	 1.4659855894e+00	-1.3961925106e+00
 3.7927135543e-01	 1.4694904338e+00	-1.3653953209e+00
 3.6594398630e-01	 1.4728658679e+00	-1.3342296424e+00
 3.5262014698e-01	 1.4761124121e+00	-1.3024999880e+00
 3.3930156463e-01	 1.4792306154e+00	-1.2704185440e+00
 3.2598994747e-01	 1.4822210550e+00	-1.2383825687e+00
 3.1268698429e-01	 1.4850843354e+00	-1.2077353738e+00
 2.9939434398e-01	 1.4878210882e+00	-1.1789559101e+00
 2.8611367502e-01	 1.4904319712e+00	-1.1520050925e+00
 2.7284660508e-01	 1.4929176678e+00	-1.1268106144e+00
 2.5959474058e-01	 1.4952788864e+00	-1.1032709232e+00
 3.9564427119e-01	 1.4773511167e+00	-1.3290845250e+00
 3.8221177925e-01	 1.4808831335e+00	-1.2935685513e+00
 3.6878108538e-01	 1.4842847368e+00	-1.2585138976e+00
 3.5535394869e-01	 1.4875564509e+00	-1.2251215562e+00
 3.4193210972e-01	 1.4906988291e+00	-1.1932384522e+00
 3.2851728994e-01	 1.4937124530e+00	-1.1629470595e+00
 3.1511119125e-01	 1.4965979319e+00	-1.1342836773e+00
 3.0171549544e-01	 1.4993559023e+00	-1.1072432639e+00
 2.8833186380e-01	 1.5019870270e+00	-1.0817839487e+00
 2.7496193661e-01	 1.5044919947e+00	-1.0578312385e+00
 2.6160733275e-01	 1.5068715195e+00	-1.0352819355e+00
 3.9868803358e-01	 1.4887166440e+00	-1.2572113371e+00
 3.8515220307e-01	 1.4922758333e+00	-1.2223306060e+00
 3.7161818446e-01	 1.4957036057e+00	-1.1892576215e+00
 3.5808775040e-01	 1.4990004897e+00	-1.1578359883e+00
 3.4456265481e-01	 1.5021670427e+00	-1.1277278821e+00
 3.3104463242e-01	 1.5052038510e+00	-1.0990062829e+00
 3.1753539820e-01	 1.5081115284e+00	-1.0717021249e+00
 3.0403664690e-01	 1.5108907163e+00	-1.0458058557e+00
 2.9055005258e-01	 1.5135420828e+00	-1.0212719055e+00
 2.7707726814e-01	 1.5160663217e+00	-9.9802283627e-01
 2.6361992492e-01	 1.5184641526e+00	-9.7595319133e-01
 4.0173179598e-01	 1.5000821713e+00	-1.1982201605e+00
 3.8809262689e-01	 1.5036685330e+00	-1.1648549342e+00
 3.7445528354e-01	 1.5071224746e+00	-1.1330845734e+00
 3.6082155211e-01	 1.5104445284e+00	-1.1029113730e+00
 3.4719319991e-01	 1.5136352564e+00	-1.0739176017e+00
 3.3357197490e-01	 1.5166952490e+00	-1.0461377470e+00
 3.1995960516e-01	 1.5196251249e+00	-1.0195962392e+00
 3.0635779837e-01	 1.5224255304e+00	-9.9427805328e-01
 2.9276824136e-01	 1.5250971385e+00	-9.7013312477e-01
 2.7919259967e-01	 1.5276406487e+00	-9.4708043378e-01
 2.6563251709e-01	 1.5300567856e+00	-9.2501177622e-01
 4.0477555837e-01	 1.5114476987e+00	-1.1532046987e+00
 3.9103305071e-01	 1.5150612327e+00	-1.1206536627e+00
 3.7729238262e-01	 1.5185413435e+00	-1.0895075799e+00
 3.6355535382e-01	 1.5218885672e+00	-1.0598860060e+00
 3.4982374500e-01	 1.5251034701e+00	-1.0313718789e+00
 3.3609931738e-01	 1.5281866470e+00	-1.0039322166e+00
 3.2238381211e-01	 1.5311387214e+00	-9.7758391881e-01
 3.0867894983e-01	 1.5339603445e+00	-9.5230564062e-01
 2.9498643014e-01	 1.5366521943e+00	-9.2804214779e-01
 2.8130793121e-01	 1.5392149756e+00	-9.0470832488e-01
 2.6764510926e-01	 1.5416494187e+00	-8.8219285851e-01
 4.0781932076e-01	 1.5228132260e+00	-1.1216284134e+00
 3.9397347453e-01	 1.5264539325e+00	-1.0892184906e+00
 3.8012948171e-01	 1.5299602124e+00	-1.0580471368e+00
 3.6628915553e-01	 1.5333326060e+00	-1.0283123367e+00
 3.5245429009e-01	 1.5365716837e+00	-9.9966846255e-01
 3.3862665985e-01	 1.5396780450e+00	-9.7199318427e-01
 3.2480801906e-01	 1.5426523179e+00	-9.4529495613e-01
 3.1100010129e-01	 1.5454951586e+00	-9.1954538428e-01
 2.9720461893e-01	 1.5482072501e+00	-8.9468351082e-01
 2.8342326274e-01	 1.5507893026e+00	-8.7061973653e-01
 2.6965770142e-01	 1.5532420518e+00	-8.4723940536e-01
 4.1086308315e-01	 1.5341787533e+00	-1.1029695992e+00
 3.9691389835e-01	 1.5378466322e+00	-1.0700551486e+00
 3.8296658079e-01	 1.5413790812e+00	-1.0382369365e+00
 3.6902295723e-01	 1.5447766448e+00	-1.0077563695e+00
 3.5508483519e-01	 1.5480398974e+00	-9.7839802858e-01
 3.4115400233e-01	 1.5511694430e+00	-9.4993636121e-01
 3.2723222602e-01	 1.5541659145e+00	-9.2237057554e-01
 3.1332125275e-01	 1.5570299726e+00	-8.9566461813e-01
 2.9942280771e-01	 1.5597623059e+00	-8.6975137708e-01
 2.8553859427e-01	 1.5623636295e+00	-8.4453650846e-01
 2.7167029359e-01	 1.5648346848e+00	-8.1990191086e-01
 2.5154437192e-01	 1.4489083541e+00	-1.3720782182e+00
 2.3871755614e-01	 1.4510767989e+00	-1.3543930664e+00
 2.2590853385e-01	 1.4531260274e+00	-1.3372066314e+00
 2.1311880172e-01	 1.4550567943e+00	-1.3205859697e+00
 2.0034983427e-01	 1.4568698760e+00	-1.3045742834e+00
 1.8760308364e-01	 1.4585660698e+00	-1.2891933639e+00
 1.7487997926e-01	 1.4601461936e+00	-1.2744461136e+00
 1.6218192756e-01	 1.4616110850e+00	-1.2603191214e+00
 1.4951031178e-01	 1.4629616007e+00	-1.2467852714e+00
 1.3686649167e-01	 1.4641986159e+00	-1.2338063630e+00
 1.2425180331e-01	 1.4653230237e+00	-1.2213357220e+00
 2.5355696408e-01	 1.4605009872e+00	-1.3224779987e+00
 2.4062752168e-01	 1.4626867816e+00	-1.3029082579e+00
 2.2771601514e-01	 1.4647524058e+00	-1.2839092240e+00
 2.1482395309e-01	 1.4666986207e+00	-1.2655529130e+00
 2.0195282186e-01	 1.4685262087e+00	-1.2478866666e+00
 1.8910408521e-01	 1.4702359737e+00	-1.2309357686e+00
 1.7627918399e-01	 1.4718287400e+00	-1.2147061394e+00
 1.6347953591e-01	 1.4733053519e+00	-1.1991870850e+00
 1.5070653525e-01	 1.4746666730e+00	-1.1843540780e+00
 1.3796155265e-01	 1.4759135855e+00	-1.1701715467e+00
 1.2524593490e-01	 1.4770469896e+00	-1.1565956534e+00
 2.5556955625e-01	 1.4720936203e+00	-1.2584447567e+00
 2.4253748723e-01	 1.4742967642e+00	-1.2365397892e+00
 2.2952349643e-01	 1.4763787843e+00	-1.2153281840e+00
 2.1652910446e-01	 1.4783404471e+00	-1.1948842283e+00
 2.0355580945e-01	 1.4801825415e+00	-1.1752564684e+00
 1.9060508678e-01	 1.4819058776e+00	-1.1564855225e+00
 1.7767838873e-01	 1.4835112864e+00	-1.1388794693e+00
 1.6477714426e-01	 1.4849996188e+00	-1.1224673545e+00
 1.5190275872e-01	 1.4863717453e+00	-1.1071298706e+00
 1.3905661364e-01	 1.4876285551e+00	-1.0927484780e+00
 1.2624006648e-01	 1.4887709555e+00	-1.0792075024e+00
 2.5758214842e-01	 1.4836862534e+00	-1.1802014481e+00
 2.4444745278e-01	 1.4859067469e+00	-1.1568533500e+00
 2.3133097772e-01	 1.4880051627e+00	-1.1350675302e+00
 2.1823425583e-01	 1.4899822735e+00	-1.1147647933e+00
 2.0515879704e-01	 1.4918388742e+00	-1.0958547510e+00
 1.9210608834e-01	 1.4935757815e+00	-1.0782385519e+00
 1.7907759346e-01	 1.4951938328e+00	-1.0618114346e+00
 1.6607475261e-01	 1.4966938857e+00	-1.0464651184e+00
 1.5309898220e-01	 1.4980768176e+00	-1.0320900481e+00
 1.4015167463e-01	 1.4993435247e+00	-1.0185775055e+00
 1.2723419807e-01	 1.5004949214e+00	-1.0058216047e+00
 2.5959474058e-01	 1.4952788864e+00	-1.1032709232e+00
 2.4635741832e-01	 1.4975167296e+00	-1.0812566989e+00
 2.3313845901e-01	 1.4996315411e+00	-1.0606862416e+00
 2.1993940720e-01	 1.5016240999e+00	-1.0414884089e+00
 2.0676178464e-01	 1.5034952070e+00	-1.0235813088e+00
 1.9360708991e-01	 1.5052456854e+00	-1.0068749265e+00
 1.8047679820e-01	 1.5068763791e+00	-9.9127357069e-01
 1.6737236095e-01	 1.5083881526e+00	-9.7667815619e-01
 1.5429520567e-01	 1.5097818899e+00	-9.6298833936e-01
 1.4124673562e-01	 1.5110584943e+00	-9.5010452178e-01
 1.2822832966e-01	 1.5122188873e+00	-9.3792973766e-01
 2.6160733275e-01	 1.5068715195e+00	-1.0352819355e+00
 2.4826738387e-01	 1.5091267122e+00	-1.0140873611e+00
 2.3494594030e-01	 1.5112579196e+00	-9.9425240283e-01
 2.2164455858e-01	 1.5132659263e+00	-9.7571429301e-01
 2.0836477223e-01	 1.5151515397e+00	-9.5839982474e-01
 1.9510809148e-01	 1.5169155893e+00	-9.4222786925e-01
 1.8187600293e-01	 1.5185589255e+00	-9.2711171025e-01
 1.6866996930e-01	 1.5200824195e+00	-9.1296121291e-01
 1.5549142914e-01	 1.5214869622e+00	-8.9968484497e-01
 1.4234179661e-01	 1.5227734639e+00	-8.8719156699e-01
 1.2922246124e-01	 1.5239428532e+00	-8.7539260813e-01
 2.6361992492e-01	 1.5184641526e+00	-9.7595319133e-01
 2.5017734941e-01	 1.5207366949e+00	-9.5509586075e-01
 2.3675342159e-01	 1.5228842980e+00	-9.3554411516e-01
 2.2334970995e-01	 1.5249077526e+00	-9.1724400897e-01
 2.0996775982e-01	 1.5268078725e+00	-9.0013133857e-01
 1.9660909304e-01	 1.5285854932e+00	-8.8413404436e-01
 1.8327520766e-01	 1.5302414719e+00	-8.6917442685e-01
 1.6996757765e-01	 1.5317766864e+00	-8.5517119598e-01
 1.5668765261e-01	 1.5331920345e+00	-8.4204137229e-01
 1.4343685760e-01	 1.5344884334e+00	-8.2970205829e-01
 1.3021659283e-01	 1.5356668191e+00	-8.1807209731e-01
 2.6563251709e-01	 1.5300567856e+00	-9.2501177622e-01
 2.5208731496e-01	 1.5323466776e+00	-9.0403987871e-01
 2.3856090288e-01	 1.5345106764e+00	-8.8434551904e-01
 2.2505486132e-01	 1.5365495790e+00	-8.6588414847e-01
 2.1157074741e-01	 1.5384642052e+00	-8.4860101701e-01
 1.9811009461e-01	 1.5402553971e+00	-8.3243345321e-01
 1.8467441240e-01	 1.5419240183e+00	-8.1731295528e-01
 1.7126518599e-01	 1.5434709533e+00	-8.0316711418e-01
 1.5788387609e-01	 1.5448971068e+00	-7.8992138870e-01
 1.4453191859e-01	 1.5462034030e+00	-7.7750075180e-01
 1.3121072442e-01	 1.5473907850e+00	-7.6583122691e-01
 2.6764510926e-01	 1.5416494187e+00	-8.8219285851e-01
 2.5399728051e-01	 1.5439566602e+00	-8.6068400653e-01
 2.4036838417e-01	 1.5461370548e+00	-8.4044659245e-01
 2.2676001269e-01	 1.5481914054e+00	-8.2144616926e-01
 2.1317373500e-01	 1.5501205380e+00	-8.0363802537e-01
 1.9961109618e-01	 1.5519253010e+00	-7.8696933465e-01
 1.8607361713e-01	 1.5536065647e+00	-7.7138111537e-01
 1.7256279434e-01	 1.5551652202e+00	-7.5681002000e-01
 1.5908009956e-01	 1.5566021791e+00	-7.4318997718e-01
 1.4562697958e-01	 1.5579183726e+00	-7.3045370665e-01
 1.3220485600e-01	 1.5591147510e+00	-7.1853412674e-01
 2.6965770142e-01	 1.5532420518e+00	-8.4723940536e-01
 2.5590724605e-01	 1.5555666429e+00	-8.2479951062e-01
 2.4217586546e-01	 1.5577634333e+00	-8.0364295820e-01
 2.2846516407e-01	 1.5598332318e+00	-7.8374624019e-01
 2.1477672260e-01	 1.5617768707e+00	-7.6507540506e-01
 2.0111209775e-01	 1.5635952049e+00	-7.4758806994e-01
 1.8747282187e-01	 1.5652891111e+00	-7.3123523944e-01
 1.7386040269e-01	 1.5668594871e+00	-7.1596295451e-01
 1.6027632303e-01	 1.5683072514e+00	-7.0171379397e-01
 1.4672204057e-01	 1.5696333422e+00	-6.8842825078e-01
 1.3319898759e-01	 1.5708387169e+00	-6.7604600403e-01
 2.7167029359e-01	 1.5648346848e+00	-8.1990191086e-01
 2.5781721160e-01	 1.5671766256e+00	-7.9616410671e-01
 2.4398334675e-01	 1.5693898117e+00	-7.7373569949e-01
 2.3017031544e-01	 1.5714750582e+00	-7.5260509287e-01
 2.1637971019e-01	 1.5734332035e+00	-7.3274995650e-01
 2.0261309931e-01	 1.5752651088e+00	-7.1413909196e-01
 1.8887202660e-01	 1.5769716574e+00	-6.9673410296e-01
 1.7515801104e-01	 1.5785537539e+00	-6.8049089500e-01
 1.6147254650e-01	 1.5800123236e+00	-6.6536102844e-01
 1.4781710155e-01	 1.5813483118e+00	-6.5129294848e-01
 1.3419311918e-01	 1.5825626828e+00	-6.3823311426e-01
 1.2425180331e-01	 1.4653230237e+00	-1.2213357220e+00
 1.1166969042e-01	 1.4663355715e+00	-1.2097217204e+00
 9.9119269343e-02	 1.4672373861e+00	-1.1993686233e+00
 8.6601774796e-02	 1.4680294092e+00	-1.1903138321e+00
 7.4118417953e-02	 1.4687125981e+00	-1.1825949890e+00
 6.1670386323e-02	 1.4692879244e+00	-1.1762522072e+00
 4.9258843635e-02	 1.4697563737e+00	-1.1713301987e+00
 3.6884929750e-02	 1.4701189451e+00	-1.1678802912e+00
 2.4549760584e-02	 1.4703766502e+00	-1.1659623214e+00
 1.2254428048e-02	 1.4705305129e+00	-1.1656463965e+00
 0.0000000000e+00	 1.4705815686e+00	-1.1670145158e+00
 1.2524593490e-01	 1.4770469896e+00	-1.1565956534e+00
 1.1256315324e-01	 1.4780676388e+00	-1.1439773676e+00
 9.9912316961e-02	 1.4789766687e+00	-1.1327240320e+00
 8.7294670654e-02	 1.4797750288e+00	-1.1228774463e+00
 7.4711435186e-02	 1.4804636838e+00	-1.1144798447e+00
 6.2163807565e-02	 1.4810436132e+00	-1.1075762764e+00
 4.9652960832e-02	 1.4815158106e+00	-1.1022169461e+00
 3.7180043969e-02	 1.4818812829e+00	-1.0984719192e+00
 2.4746181818e-02	 1.4821410499e+00	-1.0964050815e+00
 1.2352475027e-02	 1.4822961437e+00	-1.0960807972e+00
 0.0000000000e+00	 1.4823476078e+00	-1.0975815833e+00
 1.2624006648e-01	 1.4887709555e+00	-1.0792075024e+00
 1.1345661606e-01	 1.4897997060e+00	-1.0667876099e+00
 1.0070536458e-01	 1.4907159513e+00	-1.0558352857e+00
 8.7987566512e-02	 1.4915206483e+00	-1.0463485451e+00
 7.5304452418e-02	 1.4922147695e+00	-1.0383332745e+00
 6.2657228807e-02	 1.4927993021e+00	-1.0318048597e+00
 5.0047078030e-02	 1.4932752475e+00	-1.0267897655e+00
 3.7475158187e-02	 1.4936436207e+00	-1.0233270760e+00
 2.4942603052e-02	 1.4939054496e+00	-1.0214700008e+00
 1.2450522007e-02	 1.4940617744e+00	-1.0212873564e+00
 0.0000000000e+00	 1.4941136470e+00	-1.0228650258e+00
 1.2723419807e-01	 1.5004949214e+00	-1.0058216047e+00
 1.1435007888e-01	 1.5015317732e+00	-9.9409711734e-01
 1.0149841220e-01	 1.5024552339e+00	-9.8374396249e-01
 8.8680462370e-02	 1.5032662679e+00	-9.7476789455e-01
 7.5897469651e-02	 1.5039658552e+00	-9.6718170919e-01
 6.3150650049e-02	 1.5045549909e+00	-9.6100679797e-01
 5.0441195227e-02	 1.5050346844e+00	-9.5627466040e-01
 3.7770272406e-02	 1.5054059585e+00	-9.5302838240e-01
 2.5139024286e-02	 1.5056698492e+00	-9.5132408893e-01
 1.2548568987e-02	 1.5058274051e+00	-9.5123237792e-01
 0.0000000000e+00	 1.5058796863e+00	-9.5283974173e-01
 1.2822832966e-01	 1.5122188873e+00	-9.3792973766e-01
 1.1524354170e-01	 1.5132638405e+00	-9.2672656188e-01
 1.0229145981e-01	 1.5141945165e+00	-9.1682131735e-01
 8.9373358227e-02	 1.5150118874e+00	-9.0822545359e-01
 7.6490486883e-02	 1.5157169409e+00	-9.0095655765e-01
 6.3644071290e-02	 1.5163106798e+00	-8.9503983099e-01
 5.0835312424e-02	 1.5167941212e+00	-8.9050953036e-01
 3.8065386624e-02	 1.5171682962e+00	-8.8741038185e-01
 2.5335445520e-02	 1.5174342489e+00	-8.8579897672e-01
 1.2646615966e-02	 1.5175930358e+00	-8.8574515637e-01
 0.0000000000e+00	 1.5176457255e+00	-8.8733339286e-01
 1.2922246124e-01	 1.5239428532e+00	-8.7539260813e-01
 1.1613700452e-01	 1.5249959077e+00	-8.6453349311e-01
 1.0308450743e-01	 1.5259337991e+00	-8.5492137436e-01
 9.0066254085e-02	 1.5267575069e+00	-8.4657150495e-01
 7.7083504115e-02	 1.5274680266e+00	-8.3950429531e-01
 6.4137492532e-02	 1.5280663686e+00	-8.3374670828e-01
 5.1229429621e-02	 1.5285535581e+00	-8.2933362474e-01
 3.8360500842e-02	 1.5289306340e+00	-8.2630918999e-01
 2.5531866754e-02	 1.5291986486e+00	-8.2472814971e-01
 1.2744662946e-02	 1.5293586666e+00	-8.2465718336e-01
 0.0000000000e+00	 1.5294117647e+00	-8.2617624183e-01
 1.3021659283e-01	 1.5356668191e+00	-8.1807209731e-01
 1.1703046734e-01	 1.5367279750e+00	-8.0737652221e-01
 1.0387755505e-01	 1.5376730817e+00	-7.9789915755e-01
 9.0759149942e-02	 1.5385031265e+00	-7.8965732209e-01
 7.7676521347e-02	 1.5392191123e+00	-7.8267243310e-01
 6.4630913773e-02	 1.5398220575e+00	-7.7697131480e-01
 5.1623546818e-02	 1.5403129950e+00	-7.7258748462e-01
 3.8655615061e-02	 1.5406929718e+00	-7.6956242804e-01
 2.5728287987e-02	 1.5409630483e+00	-7.6794687130e-01
 1.2842709926e-02	 1.5411242973e+00	-7.6780206038e-01
 0.0000000000e+00	 1.5411778039e+00	-7.6920105337e-01
 1.3121072442e-01	 1.5473907850e+00	-7.6583122691e-01
 1.1792393016e-01	 1.5484600422e+00	-7.5511528837e-01
 1.0467060266e-01	 1.5494123643e+00	-7.4561065589e-01
 9.1452045800e-02	 1.5502487460e+00	-7.3733513130e-01
 7.8269538579e-02	 1.5509701980e+00	-7.3030947497e-01
 6.5124335015e-02	 1.5515777463e+00	-7.2455862259e-01
 5.2017664015e-02	 1.5520724319e+00	-7.2011288732e-01
 3.8950729279e-02	 1.5524553096e+00	-7.1700915895e-01
 2.5924709221e-02	 1.5527274479e+00	-7.1529210964e-01
 1.2940756906e-02	 1.5528899280e+00	-7.1501541527e-01
 0.0000000000e+00	 1.5529438431e+00	-7.1624299977e-01
 1.3220485600e-01	 1.5591147510e+00	-7.1853412674e-01
 1.1881739298e-01	 1.5601921095e+00	-7.0761042684e-01
 1.0546365028e-01	 1.5611516469e+00	-6.9791279008e-01
 9.2144941658e-02	 1.5619943656e+00	-6.8945807558e-01
 7.8862555811e-02	 1.5627212837e+00	-6.8226487757e-01
 6.5617756257e-02	 1.5633334352e+00	-6.7635464474e-01
 5.2411781212e-02	 1.5638318688e+00	-6.7175279347e-01
 3.9245843497e-02	 1.5642176474e+00	-6.6848982653e-01
 2.6121130455e-02	 1.5644918476e+00	-6.6660246784e-01
 1.3038803885e-02	 1.5646555587e+00	-6.6613482262e-01
 0.0000000000e+00	 1.5647098824e+00	-6.6713957068e-01
 1.3319898759e-01	 1.5708387169e+00	-6.7604600403e-01
 1.1971085580e-01	 1.5719241767e+00	-6.6472353863e-01
 1.0625669790e-01	 1.5728909295e+00	-6.5466338096e-01
 9.2837837516e-02	 1.5737399851e+00	-6.4588018037e-01
 7.9455573044e-02	 1.5744723694e+00	-6.3838901171e-01
 6.6111177499e-02	 1.5750891240e+00	-6.3220639150e-01
 5.2805898409e-02	 1.5755913056e+00	-6.2735129656e-01
 3.9540957716e-02	 1.5759799852e+00	-6.2384619733e-01
 2.6317551689e-02	 1.5762562473e+00	-6.2171811724e-01
 1.3136850865e-02	 1.5764211895e+00	-6.2099972767e-01
 0.0000000000e+00	 1.5764759216e+00	-6.2173048687e-01
 1.3419311918e-01	 1.5825626828e+00	-6.3823311426e-01
 1.2060431862e-01	 1.5836562439e+00	-6.2631716169e-01
 1.0704974552e-01	 1.5846302121e+00	-6.1572111953e-01
 9.3530733374e-02	 1.5854856046e+00	-6.0645632081e-01
 8.0048590276e-02	 1.5862234551e+00	-5.9853312575e-01
 6.6604598741e-02	 1.5868448128e+00	-5.9196182842e-01
 5.3200015607e-02	 1.5873507425e+00	-5.8675357473e-01
 3.9836071934e-02	 1.5877423230e+00	-5.8292130516e-01
 2.6513972923e-02	 1.5880206470e+00	-5.8048073375e-01
 1.3234897845e-02	 1.5881868202e+00	-5.7945137364e-01
 0.0000000000e+00	 1.5882419608e+00	-5.7985761791e-01
 1.5882419608e+00	 0.0000000000e+00	 3.6356810470e+00
 1.5881868202e+00	 1.3234897845e-02	 3.6318747042e+00
 1.5880206470e+00	 2.6513972923e-02	 3.6266872305e+00
 1.5877423230e+00	 3.9836071934e-02	 3.6198456414e+00
 1.5873507425e+00	 5.3200015607e-02	 3.6110866790e+00
 1.5868448128e+00	 6.6604598741e-02	 3.6001567633e+00
 1.5862234551e+00	 8.0048590276e-02	 3.5868119851e+00
 1.5854856046e+00	 9.3530733374e-02	 3.5708181290e+00
 1.5846302121e+00	 1.0704974552e-01	 3.5519507183e+00
 1.5836562439e+00	 1.2060431862e-01	 3.5299950669e+00
 1.5825626828e+00	 1.3419311918e-01	 3.5047463252e+00
 1.6000060000e+00	 0.0000000000e+00	 3.6188267004e+00
 1.5999504510e+00	 1.3332928159e-02	 3.6150893857e+00
 1.5997830469e+00	 2.6710360769e-02	 3.6099924703e+00
 1.5995026614e+00	 4.0131135989e-02	 3.6032670736e+00
 1.5991081805e+00	 5.3594065812e-02	 3.5946532552e+00
 1.5985985034e+00	 6.7097936111e-02	 3.5839000485e+00
 1.5979725433e+00	 8.0641506707e-02	 3.5707655439e+00
 1.5972292276e+00	 9.4223511453e-02	 3.5550170162e+00
 1.5963674993e+00	 1.0784265833e-01	 3.5364310802e+00
 1.5953863169e+00	 1.2149762957e-01	 3.5147938656e+00
 1.5942846558e+00	 1.3518708178e-01	 3.4899011939e+00
 1.6117700392e+00	 0.0000000000e+00	 3.6010858190e+00
 1.6117140818e+00	 1.3430958472e-02	 3.5974052029e+00
 1.6115454469e+00	 2.6906748615e-02	 3.5923777612e+00
 1.6112629998e+00	 4.0426200044e-02	 3.5857392722e+00
 1.6108656185e+00	 5.3988116017e-02	 3.5772335814e+00
 1.6103521940e+00	 6.7591273481e-02	 3.5666127203e+00
 1.6097216315e+00	 8.1234423139e-02	 3.5536370879e+00
 1.6089728506e+00	 9.4916289533e-02	 3.5380756854e+00
 1.6081047864e+00	 1.0863557115e-01	 3.5197063920e+00
 1.6071163899e+00	 1.2239094052e-01	 3.4983162681e+00
 1.6060066288e+00	 1.3618104439e-01	 3.4737018714e+00
 1.6235340784e+00	 0.0000000000e+00	 3.5823881222e+00
 1.6234777125e+00	 1.3528988786e-02	 3.5787493094e+00
 1.6233078468e+00	 2.7103136461e-02	 3.5737697559e+00
 1.6230233383e+00	 4.0721264099e-02	 3.5671903783e+00
 1.6226230565e+00	 5.4382166222e-02	 3.5587591944e+00
 1.6221058846e+00	 6.8084610851e-02	 3.5482315321e+00
 1.6214707197e+00	 8.1827339570e-02	 3.5353703138e+00
 1.6207164736e+00	 9.5609067613e-02	 3.5199464055e+00
 1.6198420736e+00	 1.0942848396e-01	 3.5017390187e+00
 1.6188464629e+00	 1.2328425147e-01	 3.4805361507e+00
 1.6177286019e+00	 1.3717500699e-01	 3.4561350472e+00
 1.6352981176e+00	 0.0000000000e+00	 3.5626691264e+00
 1.6352413433e+00	 1.3627019099e-02	 3.5590535056e+00
 1.6350702468e+00	 2.7299524307e-02	 3.5540986529e+00
 1.6347836767e+00	 4.1016328154e-02	 3.5475510272e+00
 1.6343804945e+00	 5.4776216427e-02	 3.5391631214e+00
 1.6338595752e+00	 6.8577948221e-02	 3.5286937683e+00
 1.6332198080e+00	 8.2420256002e-02	 3.5159085334e+00
 1.6324600966e+00	 9.6301845693e-02	 3.5005801849e+00
 1.6315793607e+00	 1.1022139678e-01	 3.4824892288e+00
 1.6305765360e+00	 1.2417756242e-01	 3.4614244937e+00
 1.6294505749e+00	 1.3816896960e-01	 3.4371837490e+00
 1.6470621568e+00	 0.0000000000e+00	 3.5418699393e+00
 1.6470049741e+00	 1.3725049413e-02	 3.5382540518e+00
 1.6468326467e+00	 2.7495912153e-02	 3.5332980324e+00
 1.6465440151e+00	 4.1311392209e-02	 3.5267542061e+00
 1.6461379325e+00	 5.5170266633e-02	 3.5183797598e+00
 1.6456132658e+00	 6.9071285592e-02	 3.5079371483e+00
 1.6449688962e+00	 8.3013172434e-02	 3.4951946026e+00
 1.6442037196e+00	 9.6994623773e-02	 3.4799267271e+00
 1.6433166479e+00	 1.1101430959e-01	 3.4619151757e+00
 1.6423066090e+00	 1.2507087337e-01	 3.4409493893e+00
 1.6411725480e+00	 1.3916293220e-01	 3.4168273784e+00
 1.6588261961e+00	 0.0000000000e+00	 3.5199370610e+00
 1.6587686049e+00	 1.3823079727e-02	 3.5162914903e+00
 1.6585950467e+00	 2.7692299999e-02	 3.5113046974e+00
 1.6583043535e+00	 4.1606456264e-02	 3.5047351177e+00
 1.6578953705e+00	 5.5564316838e-02	 3.4963447634e+00
 1.6573669564e+00	 6.9564622963e-02	 3.4858997359e+00
 1.6567179844e+00	 8.3606088867e-02	 3.4731708541e+00
 1.6559473426e+00	 9.7687401854e-02	 3.4579343877e+00
 1.6550539350e+00	 1.1180722241e-01	 3.4399728809e+00
 1.6540366820e+00	 1.2596418432e-01	 3.4190760514e+00
 1.6528945210e+00	 1.4015689481e-01	 3.3950417466e+00
 1.6705902353e+00	 0.0000000000e+00	 3.4968221954e+00
 1.6705322357e+00	 1.3921110040e-02	 3.4931104744e+00
 1.6703574466e+00	 2.7888687845e-02	 3.4880585225e+00
 1.6700646919e+00	 4.1901520319e-02	 3.4814310486e+00
 1.6696528085e+00	 5.5958367044e-02	 3.4729949330e+00
 1.6691206470e+00	 7.0057960334e-02	 3.4625198520e+00
 1.6684670726e+00	 8.4199005299e-02	 3.4497790342e+00
 1.6676909656e+00	 9.8380179935e-02	 3.4345501354e+00
 1.6667912222e+00	 1.1260013523e-01	 3.4166162191e+00
 1.6657667550e+00	 1.2685749527e-01	 3.3957668254e+00
 1.6646164941e+00	 1.4115085742e-01	 3.3717991107e+00
 1.6823542745e+00	 0.0000000000e+00	 3.4724820679e+00
 1.6822958665e+00	 1.4019140354e-02	 3.4686596042e+00
 1.6821198466e+00	 2.8085075692e-02	 3.4635023095e+00
 1.6818250303e+00	 4.2196584374e-02	 3.4567812453e+00
 1.6814102465e+00	 5.6352417250e-02	 3.4482681119e+00
 1.6808743376e+00	 7.0551297705e-02	 3.4377359924e+00
 1.6802161609e+00	 8.4791921731e-02	 3.4249602422e+00
 1.6794345886e+00	 9.9072958016e-02	 3.4097195143e+00
 1.6785285093e+00	 1.1339304804e-01	 3.3917969044e+00
 1.6774968280e+00	 1.2775080622e-01	 3.3709811994e+00
 1.6763384671e+00	 1.4214482002e-01	 3.3470682097e+00
 1.6941183137e+00	 0.0000000000e+00	 3.4468782520e+00
 1.6940594973e+00	 1.4117170668e-02	 3.4428912702e+00
 1.6938822465e+00	 2.8281463538e-02	 3.4375816483e+00
 1.6935853688e+00	 4.2491648429e-02	 3.4307267935e+00
 1.6931676845e+00	 5.6746467455e-02	 3.4221030864e+00
 1.6926280282e+00	 7.1044635076e-02	 3.4114867483e+00
 1.6919652491e+00	 8.5384838164e-02	 3.3986548730e+00
 1.6911782116e+00	 9.9765736097e-02	 3.3833866089e+00
 1.6902657965e+00	 1.1418596086e-01	 3.3654644786e+00
 1.6892269010e+00	 1.2864411717e-01	 3.3446758153e+00
 1.6880604402e+00	 1.4313878263e-01	 3.3208142996e+00
 1.7058823529e+00	 0.0000000000e+00	 3.4199770018e+00
 1.7058231281e+00	 1.4215200981e-02	 3.4157615026e+00
 1.7056446465e+00	 2.8477851384e-02	 3.4102447836e+00
 1.7053457072e+00	 4.2786712484e-02	 3.4032105042e+00
 1.7049251225e+00	 5.7140517661e-02	 3.3944394900e+00
 1.7043817188e+00	 7.1537972447e-02	 3.3837107312e+00
 1.7037143373e+00	 8.5977754597e-02	 3.3708025624e+00
 1.7029218347e+00	 1.0045851418e-01	 3.3554940113e+00
 1.7020030836e+00	 1.1497887368e-01	 3.3375663001e+00
 1.7009569740e+00	 1.2953742812e-01	 3.3168044817e+00
 1.6997824132e+00	 1.4413274524e-01	 3.2929991898e+00
 1.5825626828e+00	 1.3419311918e-01	 3.5047463252e+00
 1.5813483118e+00	 1.4781710155e-01	 3.4766419412e+00
 1.5800123236e+00	 1.6147254650e-01	 3.4461947170e+00
 1.5785537539e+00	 1.7515801104e-01	 3.4133147915e+00
 1.5769716574e+00	 1.8887202660e-01	 3.3779231964e+00
 1.5752651088e+00	 2.0261309931e-01	 3.3399515313e+00
 1.5734332035e+00	 2.1637971019e-01	 3.2993415159e+00
 1.5714750582e+00	 2.3017031544e-01	 3.2560443943e+00
 1.5693898117e+00	 2.4398334675e-01	 3.2100201676e+00
 1.5671766256e+00	 2.5781721160e-01	 3.1612366292e+00
 1.5648346848e+00	 2.7167029359e-01	 3.1096681748e+00
 1.5942846558e+00	 1.3518708178e-01	 3.4899011939e+00
 1.5930612900e+00	 1.4891197640e-01	 3.4621995246e+00
 1.5917154063e+00	 1.6266856664e-01	 3.4322077292e+00
 1.5902460330e+00	 1.7645539882e-01	 3.3998324428e+00
 1.5886522180e+00	 1.9027099350e-01	 3.3649914171e+00
 1.5869330290e+00	 2.0411384574e-01	 3.3276133594e+00
 1.5850875549e+00	 2.1798242530e-01	 3.2876376515e+00
 1.5831149057e+00	 2.3187517697e-01	 3.2450139235e+00
 1.5810142139e+00	 2.4579052080e-01	 3.1997014571e+00
 1.5787846348e+00	 2.5972685249e-01	 3.1516683906e+00
 1.5764253474e+00	 2.7368254365e-01	 3.1008906975e+00
 1.6060066288e+00	 1.3618104439e-01	 3.4737018714e+00
 1.6047742683e+00	 1.5000685125e-01	 3.4463165771e+00
 1.6034184889e+00	 1.6386458678e-01	 3.4166839692e+00
 1.6019383121e+00	 1.7775278659e-01	 3.3847082638e+00
 1.6003327786e+00	 1.9166996040e-01	 3.3503050073e+00
 1.5986009493e+00	 2.0561459216e-01	 3.3134010876e+00
 1.5967419063e+00	 2.1958514042e-01	 3.2739346289e+00
 1.5947547532e+00	 2.3358003849e-01	 3.2318547455e+00
 1.5926386160e+00	 2.4759769485e-01	 3.1871211251e+00
 1.5903926440e+00	 2.6163649337e-01	 3.1397034149e+00
 1.5880160099e+00	 2.7569479372e-01	 3.0895803783e+00
 1.6177286019e+00	 1.3717500699e-01	 3.4561350472e+00
 1.6164872465e+00	 1.5110172611e-01	 3.4289936848e+00
 1.6151215716e+00	 1.6506060692e-01	 3.3996387576e+00
 1.6136305912e+00	 1.7905017437e-01	 3.3679729984e+00
 1.6120133391e+00	 1.9306892729e-01	 3.3339106697e+00
 1.6102688695e+00	 2.0711533859e-01	 3.2973777563e+00
 1.6083962577e+00	 2.2118785553e-01	 3.2583120477e+00
 1.6063946007e+00	 2.3528490002e-01	 3.2166630807e+00
 1.6042630182e+00	 2.4940486890e-01	 3.1723919142e+00
 1.6020006531e+00	 2.6354613426e-01	 3.1254707065e+00
 1.5996066724e+00	 2.7770704378e-01	 3.0758820622e+00
 1.6294505749e+00	 1.3816896960e-01	 3.4371837490e+00
 1.6282002248e+00	 1.5219660096e-01	 3.4102270394e+00
 1.6268246542e+00	 1.6625662705e-01	 3.3810823244e+00
 1.6253228703e+00	 1.8034756215e-01	 3.3496516363e+00
 1.6236938997e+00	 1.9446789419e-01	 3.3158487191e+00
 1.6219367897e+00	 2.0861608501e-01	 3.2795994138e+00
 1.6200506090e+00	 2.2279057064e-01	 3.2408419372e+00
 1.6180344482e+00	 2.3698976155e-01	 3.1995270249e+00
 1.6158874203e+00	 2.5121204295e-01	 3.1556179092e+00
 1.6136086623e+00	 2.6545577515e-01	 3.1090900984e+00
 1.6111973350e+00	 2.7971929384e-01	 3.0599309255e+00
 1.6411725480e+00	 1.3916293220e-01	 3.4168273784e+00
 1.6399132030e+00	 1.5329147581e-01	 3.3900085033e+00
 1.6385277369e+00	 1.6745264719e-01	 3.3610199015e+00
 1.6370151494e+00	 1.8164494993e-01	 3.3297635331e+00
 1.6353744602e+00	 1.9586686109e-01	 3.2961532321e+00
 1.6336047100e+00	 2.1011683144e-01	 3.2601152937e+00
 1.6317049604e+00	 2.2439328576e-01	 3.2215889614e+00
 1.6296742956e+00	 2.3869462308e-01	 3.1805267820e+00
 1.6275118225e+00	 2.5301921700e-01	 3.1368947973e+00
 1.6252166715e+00	 2.6736541603e-01	 3.0906725386e+00
 1.6227879975e+00	 2.8173154391e-01	 3.0418527890e+00
 1.6528945210e+00	 1.4015689481e-01	 3.3950417466e+00
 1.6516261813e+00	 1.5438635066e-01	 3.3683256717e+00
 1.6502308195e+00	 1.6864866733e-01	 3.3394518123e+00
 1.6487074285e+00	 1.8294233771e-01	 3.3083225284e+00
 1.6470550208e+00	 1.9726582798e-01	 3.2748521917e+00
 1.6452726302e+00	 2.1161757786e-01	 3.2389679870e+00
 1.6433593118e+00	 2.2599600087e-01	 3.2006106190e+00
 1.6413141431e+00	 2.4039948460e-01	 3.1597348905e+00
 1.6391362247e+00	 2.5482639105e-01	 3.1163101214e+00
 1.6368246807e+00	 2.6927505692e-01	 3.0703203699e+00
 1.6343786600e+00	 2.8374379397e-01	 3.0217644220e+00
 1.6646164941e+00	 1.4115085742e-01	 3.3717991107e+00
 1.6633391595e+00	 1.5548122551e-01	 3.3451619353e+00
 1.6619339022e+00	 1.6984468747e-01	 3.3163735611e+00
 1.6603997075e+00	 1.8423972549e-01	 3.2853370606e+00
 1.6587355814e+00	 1.9866479488e-01	 3.2519676289e+00
 1.6569405504e+00	 2.1311832429e-01	 3.2161936105e+00
 1.6550136632e+00	 2.2759871599e-01	 3.1779574373e+00
 1.6529539906e+00	 2.4210434613e-01	 3.1372164441e+00
 1.6507606268e+00	 2.5663356510e-01	 3.0939435260e+00
 1.6484326899e+00	 2.7118469781e-01	 3.0481276010e+00
 1.6459693226e+00	 2.8575604403e-01	 2.9997738393e+00
 1.6763384671e+00	 1.4214482002e-01	 3.3470682097e+00
 1.6750521378e+00	 1.5657610036e-01	 3.3204965412e+00
 1.6736369848e+00	 1.7104070761e-01	 3.2917759191e+00
 1.6720919866e+00	 1.8553711327e-01	 3.2608102797e+00
 1.6704161419e+00	 2.0006376178e-01	 3.2275157615e+00
 1.6686084707e+00	 2.1461907072e-01	 3.1918219705e+00
 1.6666680146e+00	 2.2920143110e-01	 3.1536731623e+00
 1.6645938381e+00	 2.4380920766e-01	 3.1130293064e+00
 1.6623850290e+00	 2.5844073916e-01	 3.0698669973e+00
 1.6600406991e+00	 2.7309433869e-01	 3.0241801712e+00
 1.6575599851e+00	 2.8776829410e-01	 2.9759805890e+00
 1.6880604402e+00	 1.4313878263e-01	 3.3208142996e+00
 1.6867651160e+00	 1.5767097522e-01	 3.2943046534e+00
 1.6853400675e+00	 1.7223672775e-01	 3.2656450103e+00
 1.6837842657e+00	 1.8683450105e-01	 3.2347401570e+00
 1.6820967025e+00	 2.0146272868e-01	 3.2015071285e+00
 1.6802763909e+00	 2.1611981714e-01	 3.1658767234e+00
 1.6783223660e+00	 2.3080414622e-01	 3.1277949434e+00
 1.6762336856e+00	 2.4551406919e-01	 3.0872243210e+00
 1.6740094312e+00	 2.6024791321e-01	 3.0441450972e+00
 1.6716487083e+00	 2.7500397958e-01	 2.9985562076e+00
 1.6691506476e+00	 2.8978054416e-01	 2.9504760339e+00
 1.6997824132e+00	 1.4413274524e-01	 3.2929991898e+00
 1.6984780943e+00	 1.5876585007e-01	 3.2665574124e+00
 1.6970431501e+00	 1.7343274789e-01	 3.2379623944e+00
 1.6954765448e+00	 1.8813188884e-01	 3.2071195933e+00
 1.6937772631e+00	 2.0286169558e-01	 3.1739467228e+00
 1.6919443111e+00	 2.1762056357e-01	 3.1383755316e+00
 1.6899767174e+00	 2.3240686133e-01	 3.1003535139e+00
 1.6878735331e+00	 2.4721893072e-01	 3.0598455152e+00
 1.6856338333e+00	 2.6205508726e-01	 3.0168351909e+00
 1.6832567175e+00	 2.7691362047e-01	 2.9713262769e+00
 1.6807413102e+00	 2.9179279422e-01	 2.9233436253e+00
 1.5648346848e+00	 2.7167029359e-01	 3.1096681748e+00
 1.5623636295e+00	 2.8553859427e-01	 3.0555050667e+00
 1.5597623059e+00	 2.9942280771e-01	 2.9990429549e+00
 1.5570299726e+00	 3.1332125275e-01	 2.9404449671e+00
 1.5541659145e+00	 3.2723222602e-01	 2.8798714574e+00
 1.5511694430e+00	 3.4115400233e-01	 2.8174770160e+00
 1.5480398974e+00	 3.5508483519e-01	 2.7534070799e+00
 1.5447766448e+00	 3.6902295723e-01	 2.6877941158e+00
 1.5413790812e+00	 3.8296658079e-01	 2.6204341830e+00
 1.5378466322e+00	 3.9691389835e-01	 2.5508518039e+00
 1.5341787533e+00	 4.1086308315e-01	 2.4789611793e+00
 1.5764253474e+00	 2.7368254365e-01	 3.1008906975e+00
 1.5739359891e+00	 2.8765356623e-01	 3.0475239528e+00
 1.5713153976e+00	 3.0164061944e-01	 2.9918312072e+00
 1.5685628260e+00	 3.1564200966e-01	 2.9339822328e+00
 1.5656775539e+00	 3.2965602090e-01	 2.8741459053e+00
 1.5626588877e+00	 3.4368091521e-01	 2.8124873452e+00
 1.5595061616e+00	 3.5771493314e-01	 2.7491646478e+00
 1.5562187383e+00	 3.7175629425e-01	 2.6843216463e+00
 1.5527960091e+00	 3.8580319762e-01	 2.6176009209e+00
 1.5492373954e+00	 3.9985382235e-01	 2.5486233892e+00
 1.5455423487e+00	 4.1390632816e-01	 2.4772977356e+00
 1.5880160099e+00	 2.7569479372e-01	 3.0895803783e+00
 1.5855083486e+00	 2.8976853820e-01	 3.0368744099e+00
 1.5828684892e+00	 3.0385843117e-01	 2.9818179450e+00
 1.5800956794e+00	 3.1796276657e-01	 2.9245894941e+00
 1.5771891933e+00	 3.3207981579e-01	 2.8653686295e+00
 1.5741483324e+00	 3.4620782808e-01	 2.8043332674e+00
 1.5709724259e+00	 3.6034503109e-01	 2.7416565261e+00
 1.5676608318e+00	 3.7448963126e-01	 2.6774701277e+00
 1.5642129370e+00	 3.8863981445e-01	 2.6112972392e+00
 1.5606281587e+00	 4.0279374636e-01	 2.5428505438e+00
 1.5569059440e+00	 4.1694957317e-01	 2.4720324595e+00
 1.5996066724e+00	 2.7770704378e-01	 3.0758820622e+00
 1.5970807081e+00	 2.9188351016e-01	 3.0237163606e+00
 1.5944215808e+00	 3.0607624290e-01	 2.9691770593e+00
 1.5916285327e+00	 3.2028352348e-01	 2.9124533279e+00
 1.5887008327e+00	 3.3450361067e-01	 2.8537374400e+00
 1.5856377771e+00	 3.4873474096e-01	 2.7932222055e+00
 1.5824386902e+00	 3.6297512904e-01	 2.7310979670e+00
 1.5791029253e+00	 3.7722296828e-01	 2.6674550671e+00
 1.5756298649e+00	 3.9147643128e-01	 2.6017468350e+00
 1.5720189219e+00	 4.0573367036e-01	 2.5337599161e+00
 1.5682695394e+00	 4.1999281818e-01	 2.4633931487e+00
 1.6111973350e+00	 2.7971929384e-01	 3.0599309255e+00
 1.6086530677e+00	 2.9399848213e-01	 3.0081995810e+00
 1.6059746725e+00	 3.0829405463e-01	 2.9540718387e+00
 1.6031613861e+00	 3.2260428039e-01	 2.8977492736e+00
 1.6002124721e+00	 3.3692740555e-01	 2.8394386926e+00
 1.5971272217e+00	 3.5126165384e-01	 2.7793497283e+00
 1.5939049545e+00	 3.6560522699e-01	 2.7176919833e+00
 1.5905450188e+00	 3.7995630530e-01	 2.6544835951e+00
 1.5870467928e+00	 3.9431304811e-01	 2.5891613302e+00
 1.5834096851e+00	 4.0867359437e-01	 2.5215659533e+00
 1.5796331348e+00	 4.2303606319e-01	 2.4515953223e+00
 1.6227879975e+00	 2.8173154391e-01	 3.0418527890e+00
 1.6202254272e+00	 2.9611345409e-01	 2.9904640387e+00
 1.6175277641e+00	 3.1051186636e-01	 2.9366553323e+00
 1.6146942395e+00	 3.2492503730e-01	 2.8806422187e+00
 1.6117241115e+00	 3.3935120044e-01	 2.8226476960e+00
 1.6086166664e+00	 3.5378856671e-01	 2.7628999770e+00
 1.6053712187e+00	 3.6823532494e-01	 2.7016297932e+00
 1.6019871123e+00	 3.8268964231e-01	 2.6387514065e+00
 1.5984637207e+00	 3.9714966493e-01	 2.5737407569e+00
 1.5948004483e+00	 4.1161351837e-01	 2.5064714057e+00
 1.5909967302e+00	 4.2607930820e-01	 2.4368427426e+00
 1.6343786600e+00	 2.8374379397e-01	 3.0217644220e+00
 1.6317977867e+00	 2.9822842605e-01	 2.9706402224e+00
 1.6290808558e+00	 3.1272967809e-01	 2.9170707020e+00
 1.6262270929e+00	 3.2724579421e-01	 2.8612867736e+00
 1.6232357510e+00	 3.4177499532e-01	 2.8035291070e+00
 1.6201061111e+00	 3.5631547959e-01	 2.7440460803e+00
 1.6168374830e+00	 3.7086542289e-01	 2.6830908631e+00
 1.6134292058e+00	 3.8542297933e-01	 2.6204432142e+00
 1.6098806486e+00	 3.9998628176e-01	 2.5556740306e+00
 1.6061912115e+00	 4.1455344238e-01	 2.4886678181e+00
 1.6023603256e+00	 4.2912255322e-01	 2.4193279235e+00
 1.6459693226e+00	 2.8575604403e-01	 2.9997738393e+00
 1.6433701463e+00	 3.0034339802e-01	 2.9488494619e+00
 1.6406339474e+00	 3.1494748982e-01	 2.8954515659e+00
 1.6377599462e+00	 3.2956655111e-01	 2.8398276357e+00
 1.6347473904e+00	 3.4419879021e-01	 2.7822373158e+00
 1.6315955558e+00	 3.5884239247e-01	 2.7229505577e+00
 1.6283037473e+00	 3.7349552084e-01	 2.6622280107e+00
 1.6248712993e+00	 3.8815631634e-01	 2.5997331904e+00
 1.6212975765e+00	 4.0282289859e-01	 2.5351394109e+00
 1.6175819747e+00	 4.1749336638e-01	 2.4683360086e+00
 1.6137239210e+00	 4.3216579823e-01	 2.3992326264e+00
 1.6575599851e+00	 2.8776829410e-01	 2.9759805890e+00
 1.6549425058e+00	 3.0245836998e-01	 2.9252042394e+00
 1.6521870391e+00	 3.1716530155e-01	 2.8719223314e+00
 1.6492927996e+00	 3.3188730802e-01	 2.8163999450e+00
 1.6462590298e+00	 3.4662258509e-01	 2.7589168199e+00
 1.6430850005e+00	 3.6136930534e-01	 2.6997657123e+00
 1.6397700116e+00	 3.7612561879e-01	 2.6391914606e+00
 1.6363133928e+00	 3.9088965336e-01	 2.5767853958e+00
 1.6327145044e+00	 4.0565951542e-01	 2.5123049501e+00
 1.6289727379e+00	 4.2043329039e-01	 2.4456465349e+00
 1.6250875163e+00	 4.3520904324e-01	 2.3767283425e+00
 1.6691506476e+00	 2.8978054416e-01	 2.9504760339e+00
 1.6665148653e+00	 3.0457334195e-01	 2.8998084937e+00
 1.6637401307e+00	 3.1938311328e-01	 2.8465985210e+00
 1.6608256530e+00	 3.3420806493e-01	 2.7911296288e+00
 1.6577706692e+00	 3.4904637997e-01	 2.7337025892e+00
 1.6545744452e+00	 3.6389621822e-01	 2.6746340137e+00
 1.6512362758e+00	 3.7875571674e-01	 2.6141303098e+00
 1.6477554863e+00	 3.9362299037e-01	 2.5517541987e+00
 1.6441314323e+00	 4.0849613225e-01	 2.4873289300e+00
 1.6403635011e+00	 4.2337321439e-01	 2.4207601489e+00
 1.6364511117e+00	 4.3825228825e-01	 2.3519767645e+00
 1.6807413102e+00	 2.9179279422e-01	 2.9233436253e+00
 1.6780872249e+00	 3.0668831391e-01	 2.8727579157e+00
 1.6752932224e+00	 3.2160092501e-01	 2.8195870889e+00
 1.6723585063e+00	 3.3652882184e-01	 2.7641337390e+00
 1.6692823086e+00	 3.5147017486e-01	 2.7067204214e+00
 1.6660638898e+00	 3.6642313110e-01	 2.6476884703e+00
 1.6627025401e+00	 3.8138581469e-01	 2.5871844718e+00
 1.6591975798e+00	 3.9635632739e-01	 2.5247846834e+00
 1.6555483602e+00	 4.1133274908e-01	 2.4603602891e+00
 1.6517542643e+00	 4.2631313840e-01	 2.3938282410e+00
 1.6478147071e+00	 4.4129553326e-01	 2.3251302467e+00
 1.5341787533e+00	 4.1086308315e-01	 2.4789611793e+00
 1.5303749309e+00	 4.2481228994e-01	 2.4049008957e+00
 1.5264346842e+00	 4.3875965614e-01	 2.3290757712e+00
 1.5223575646e+00	 4.5270330195e-01	 2.2518137543e+00
 1.5181431559e+00	 4.6664133073e-01	 2.1734462348e+00
 1.5137910751e+00	 4.8057182973e-01	 2.0943068962e+00
 1.5093009726e+00	 4.9449287068e-01	 2.0147303833e+00
 1.5046725330e+00	 5.0840251054e-01	 1.9350507768e+00
 1.4999054756e+00	 5.2229879220e-01	 1.8555998678e+00
 1.4949995548e+00	 5.3617974518e-01	 1.7767052265e+00
 1.4899545608e+00	 5.5004338642e-01	 1.6986880574e+00
 1.5455423487e+00	 4.1390632816e-01	 2.4772977356e+00
 1.5417103515e+00	 4.2795885612e-01	 2.4036602221e+00
 1.5377409196e+00	 4.4200952985e-01	 2.3279841870e+00
 1.5336336009e+00	 4.5605645564e-01	 2.2505478711e+00
 1.5293879763e+00	 4.7009772280e-01	 2.1716356668e+00
 1.5250036598e+00	 4.8413140439e-01	 2.0915370867e+00
 1.5204802993e+00	 4.9815555789e-01	 2.0105455388e+00
 1.5158175771e+00	 5.1216822585e-01	 1.9289569032e+00
 1.5110152103e+00	 5.2616743666e-01	 1.8470678999e+00
 1.5060729516e+00	 5.4015120526e-01	 1.7651742412e+00
 1.5009905895e+00	 5.5411753389e-01	 1.6835685634e+00
 1.5569059440e+00	 4.1694957317e-01	 2.4720324595e+00
 1.5530457721e+00	 4.3110542230e-01	 2.3987947402e+00
 1.5490471550e+00	 4.4525940357e-01	 2.3233034107e+00
 1.5449096373e+00	 4.5940960933e-01	 2.2457991349e+00
 1.5406327967e+00	 4.7355411486e-01	 2.1665311954e+00
 1.5362162446e+00	 4.8769097906e-01	 2.0857565595e+00
 1.5316596261e+00	 5.0181824510e-01	 2.0037387458e+00
 1.5269626212e+00	 5.1593394116e-01	 1.9207464847e+00
 1.5221249450e+00	 5.3003608112e-01	 1.8370521619e+00
 1.5171463483e+00	 5.4412266534e-01	 1.7529300381e+00
 1.5120266182e+00	 5.5819168136e-01	 1.6686542378e+00
 1.5682695394e+00	 4.1999281818e-01	 2.4633931487e+00
 1.5643811928e+00	 4.3425198847e-01	 2.3905280211e+00
 1.5603533904e+00	 4.4850927728e-01	 2.3152436884e+00
 1.5561856736e+00	 4.6276276302e-01	 2.2377550625e+00
 1.5518776172e+00	 4.7701050693e-01	 2.1582879007e+00
 1.5474288293e+00	 4.9125055373e-01	 2.0770779536e+00
 1.5428389528e+00	 5.0548093232e-01	 1.9943699057e+00
 1.5381076652e+00	 5.1969965647e-01	 1.9104161025e+00
 1.5332346797e+00	 5.3390472559e-01	 1.8254750526e+00
 1.5282197451e+00	 5.4809412542e-01	 1.7398096977e+00
 1.5230626469e+00	 5.6226582883e-01	 1.6536854413e+00
 1.5796331348e+00	 4.2303606319e-01	 2.4515953223e+00
 1.5757166134e+00	 4.3739855465e-01	 2.3790714293e+00
 1.5716596258e+00	 4.5175915100e-01	 2.3040033875e+00
 1.5674617100e+00	 4.6611591672e-01	 2.2265918804e+00
 1.5631224376e+00	 4.8046689900e-01	 2.1470504299e+00
 1.5586414140e+00	 4.9481012840e-01	 2.0656046075e+00
 1.5540182795e+00	 5.0914361953e-01	 1.9824910334e+00
 1.5492527093e+00	 5.2346537178e-01	 1.8979561532e+00
 1.5443444144e+00	 5.3777337005e-01	 1.8122547824e+00
 1.5392931419e+00	 5.5206558550e-01	 1.7256484089e+00
 1.5340986756e+00	 5.6633997629e-01	 1.6384032454e+00
 1.5909967302e+00	 4.2607930820e-01	 2.4368427426e+00
 1.5870520341e+00	 4.4054512083e-01	 2.3646246574e+00
 1.5829658612e+00	 4.5500902471e-01	 2.2897695333e+00
 1.5787377463e+00	 4.6946907041e-01	 2.2124750566e+00
 1.5743672580e+00	 4.8392329107e-01	 2.1329535135e+00
 1.5698539988e+00	 4.9836970307e-01	 2.0514310502e+00
 1.5651976063e+00	 5.1280630674e-01	 1.9681467130e+00
 1.5603977534e+00	 5.2723108709e-01	 1.8833512594e+00
 1.5554541491e+00	 5.4164201452e-01	 1.7973057273e+00
 1.5503665386e+00	 5.5603704558e-01	 1.7102797550e+00
 1.5451347043e+00	 5.7041412376e-01	 1.6225496409e+00
 1.6023603256e+00	 4.2912255322e-01	 2.4193279235e+00
 1.5983874547e+00	 4.4369168701e-01	 2.3473762467e+00
 1.5942720966e+00	 4.5825889843e-01	 2.2727183346e+00
 1.5900137827e+00	 4.7282222411e-01	 2.1955598200e+00
 1.5856120784e+00	 4.8737968313e-01	 2.1161224709e+00
 1.5810665835e+00	 5.0192927773e-01	 2.0346434833e+00
 1.5763769330e+00	 5.1646899396e-01	 1.9513745471e+00
 1.5715427975e+00	 5.3099680241e-01	 1.8665806747e+00
 1.5665638838e+00	 5.4551065899e-01	 1.7805387809e+00
 1.5614399354e+00	 5.6000850566e-01	 1.6935360028e+00
 1.5561707330e+00	 5.7448827123e-01	 1.6058677513e+00
 1.6137239210e+00	 4.3216579823e-01	 2.3992326264e+00
 1.6097228753e+00	 4.4683825319e-01	 2.3275040945e+00
 1.6055783320e+00	 4.6150877214e-01	 2.2530156943e+00
 1.6012898190e+00	 4.7617537780e-01	 2.1759916677e+00
 1.5968568988e+00	 4.9083607520e-01	 2.0966737047e+00
 1.5922791682e+00	 5.0548885240e-01	 2.0153202534e+00
 1.5875562598e+00	 5.2013168117e-01	 1.9322055971e+00
 1.5826878416e+00	 5.3476251772e-01	 1.8476186846e+00
 1.5776736185e+00	 5.4937930345e-01	 1.7618617046e+00
 1.5725133321e+00	 5.6397996574e-01	 1.6752483913e+00
 1.5672067617e+00	 5.7856241870e-01	 1.5881020507e+00
 1.6250875163e+00	 4.3520904324e-01	 2.3767283425e+00
 1.6210582960e+00	 4.4998481937e-01	 2.3051759496e+00
 1.6168845674e+00	 4.6475864586e-01	 2.2308177099e+00
 1.6125658554e+00	 4.7952853149e-01	 2.1539068612e+00
 1.6081017192e+00	 4.9429246727e-01	 2.0747151844e+00
 1.6034917530e+00	 5.0904842707e-01	 1.9935323155e+00
 1.5987355865e+00	 5.2379436838e-01	 1.9106648180e+00
 1.5938328857e+00	 5.3852823303e-01	 1.8264350017e+00
 1.5887833532e+00	 5.5324794792e-01	 1.7411794751e+00
 1.5835867289e+00	 5.6795142582e-01	 1.6552474216e+00
 1.5782427904e+00	 5.8263656617e-01	 1.5689985867e+00
 1.6364511117e+00	 4.3825228825e-01	 2.3519767645e+00
 1.6323937166e+00	 4.5313138555e-01	 2.2805498958e+00
 1.6281908028e+00	 4.6800851958e-01	 2.2062711612e+00
 1.6238418918e+00	 4.8288168519e-01	 2.1294329117e+00
 1.6193465396e+00	 4.9774885934e-01	 2.0503469214e+00
 1.6147043377e+00	 5.1260800174e-01	 1.9693436880e+00
 1.6099149132e+00	 5.2745705560e-01	 1.8867714857e+00
 1.6049779298e+00	 5.4229394834e-01	 1.8029951570e+00
 1.5998930879e+00	 5.5711659239e-01	 1.7183946296e+00
 1.5946601257e+00	 5.7192288591e-01	 1.6333631483e+00
 1.5892788191e+00	 5.8671071364e-01	 1.5483052073e+00
 1.6478147071e+00	 4.4129553326e-01	 2.3251302467e+00
 1.6437291372e+00	 4.5627795173e-01	 2.2537748240e+00
 1.6394970382e+00	 4.7125839329e-01	 2.1795139878e+00
 1.6351179281e+00	 4.8623483888e-01	 2.1026890546e+00
 1.6305913600e+00	 5.0120525140e-01	 2.0236614334e+00
 1.6259169225e+00	 5.1616757641e-01	 1.9428119003e+00
 1.6210942400e+00	 5.3111974281e-01	 1.8605396181e+00
 1.6161229739e+00	 5.4605966365e-01	 1.7772608866e+00
 1.6110028226e+00	 5.6098523685e-01	 1.6934076104e+00
 1.6057335224e+00	 5.7589434599e-01	 1.6094254711e+00
 1.6003148479e+00	 5.9078486111e-01	 1.5257717915e+00
 1.4899545608e+00	 5.5004338642e-01	 1.6986880574e+00
 1.4847694262e+00	 5.6389007285e-01	 1.6217419090e+00
 1.4794448590e+00	 5.7771543845e-01	 1.5458252660e+00
 1.4739807578e+00	 5.9151746534e-01	 1.4673156060e+00
 1.4683770588e+00	 6.0529412616e-01	 1.3854005528e+00
 1.4626337361e+00	 6.1904338493e-01	 1.3003090054e+00
 1.4567508019e+00	 6.3276319791e-01	 1.2122759017e+00
 1.4507283070e+00	 6.4645151446e-01	 1.1215422873e+00
 1.4445663411e+00	 6.6010627789e-01	 1.0283552429e+00
 1.4382650331e+00	 6.7372542642e-01	 9.3296767150e-01
 1.4318245513e+00	 6.8730689403e-01	 8.3563794382e-01
 1.5009905895e+00	 5.5411753389e-01	 1.6835685634e+00
 1.4957670489e+00	 5.6806678212e-01	 1.6022646826e+00
 1.4904030428e+00	 5.8199455161e-01	 1.5214983897e+00
 1.4848984693e+00	 5.9589880951e-01	 1.4418300605e+00
 1.4792532639e+00	 6.0977751346e-01	 1.3633270698e+00
 1.4734674007e+00	 6.2362861239e-01	 1.2819779767e+00
 1.4675408918e+00	 6.3745004743e-01	 1.1969474879e+00
 1.4614737885e+00	 6.5123975274e-01	 1.1084989818e+00
 1.4552661812e+00	 6.6499565642e-01	 1.0169015565e+00
 1.4489181997e+00	 6.7871568139e-01	 9.2242973478e-01
 1.4424300136e+00	 6.9239774634e-01	 8.2536302077e-01
 1.5120266182e+00	 5.5819168136e-01	 1.6686542378e+00
 1.5067646715e+00	 5.7224349139e-01	 1.5840312135e+00
 1.5013612266e+00	 5.8627366476e-01	 1.4991322147e+00
 1.4958161807e+00	 6.0028015368e-01	 1.4145646767e+00
 1.4901294690e+00	 6.1426090076e-01	 1.3309070128e+00
 1.4843010652e+00	 6.2821383985e-01	 1.2487046044e+00
 1.4783309817e+00	 6.4213689695e-01	 1.1675684220e+00
 1.4722192701e+00	 6.5602799103e-01	 1.0830334610e+00
 1.4659660213e+00	 6.6988503494e-01	 9.9465417857e-01
 1.4595713663e+00	 6.8370593636e-01	 9.0271362655e-01
 1.4530354758e+00	 6.9748859865e-01	 8.0749993948e-01
 1.5230626469e+00	 5.6226582883e-01	 1.6536854413e+00
 1.5177622942e+00	 5.7642020067e-01	 1.5666842194e+00
 1.5123194104e+00	 5.9055277792e-01	 1.4786789926e+00
 1.5067338922e+00	 6.0466149785e-01	 1.3903096699e+00
 1.5010056741e+00	 6.1874428805e-01	 1.3021882864e+00
 1.4951347298e+00	 6.3279906731e-01	 1.2148949033e+00
 1.4891210716e+00	 6.4682374647e-01	 1.1289732549e+00
 1.4829647516e+00	 6.6081622931e-01	 1.0449261414e+00
 1.4766658615e+00	 6.7477441346e-01	 9.6119063765e-01
 1.4702245329e+00	 6.8869619132e-01	 8.7339945662e-01
 1.4636409381e+00	 7.0257945095e-01	 7.8164432474e-01
 1.5340986756e+00	 5.6633997629e-01	 1.6384032454e+00
 1.5287599168e+00	 5.8059690994e-01	 1.5498697350e+00
 1.5232775942e+00	 5.9483189108e-01	 1.4596993915e+00
 1.5176516036e+00	 6.0904284202e-01	 1.3685503277e+00
 1.5118818792e+00	 6.2322767535e-01	 1.2770543855e+00
 1.5059683943e+00	 6.3738429477e-01	 1.1858129734e+00
 1.4999111615e+00	 6.5151059599e-01	 1.0953926372e+00
 1.4937102332e+00	 6.6560446759e-01	 1.0063203653e+00
 1.4873657016e+00	 6.7966379199e-01	 9.1907862896e-01
 1.4808776996e+00	 6.9368644629e-01	 8.3406861828e-01
 1.4742464004e+00	 7.0767030326e-01	 7.4739195582e-01
 1.5451347043e+00	 5.7041412376e-01	 1.6225496409e+00
 1.5397575395e+00	 5.8477361921e-01	 1.5332372406e+00
 1.5342357780e+00	 5.9911100423e-01	 1.4417597509e+00
 1.5285693151e+00	 6.1342418619e-01	 1.3487795221e+00
 1.5227580843e+00	 6.2771106265e-01	 1.2549346901e+00
 1.5168020589e+00	 6.4196952223e-01	 1.1608349756e+00
 1.5107012515e+00	 6.5619744550e-01	 1.0670572057e+00
 1.5044557147e+00	 6.7039270588e-01	 9.7414055432e-01
 1.4980655418e+00	 6.8455317051e-01	 8.8258150654e-01
 1.4915308662e+00	 6.9867670125e-01	 7.9282854618e-01
 1.4848518626e+00	 7.1276115557e-01	 7.0527657356e-01
 1.5561707330e+00	 5.7448827123e-01	 1.6058677513e+00
 1.5507551621e+00	 5.8895032849e-01	 1.5164398014e+00
 1.5451939619e+00	 6.0339011739e-01	 1.4244321552e+00
 1.5394870265e+00	 6.1780553036e-01	 1.3304977290e+00
 1.5336342894e+00	 6.3219444994e-01	 1.2352677307e+00
 1.5276357234e+00	 6.4655474969e-01	 1.1393474476e+00
 1.5214913414e+00	 6.6088429502e-01	 1.0433117424e+00
 1.5152011963e+00	 6.7518094416e-01	 9.4770025508e-01
 1.5087653819e+00	 6.8944254904e-01	 8.5301231306e-01
 1.5021840328e+00	 7.0366695622e-01	 7.5970155155e-01
 1.4954573249e+00	 7.1785200787e-01	 6.6817024770e-01
 1.5672067617e+00	 5.7856241870e-01	 1.5881020507e+00
 1.5617527848e+00	 5.9312703776e-01	 1.4991342132e+00
 1.5561521457e+00	 6.0766923054e-01	 1.4072945183e+00
 1.5504047379e+00	 6.2218687453e-01	 1.3132130609e+00
 1.5445104945e+00	 6.3667783724e-01	 1.2175011809e+00
 1.5384693880e+00	 6.5113997715e-01	 1.1207472653e+00
 1.5322814313e+00	 6.6557114454e-01	 1.0235122433e+00
 1.5259466779e+00	 6.7996918245e-01	 9.2632477386e-01
 1.5194652221e+00	 6.9433192756e-01	 8.2967612605e-01
 1.5128371994e+00	 7.0865721118e-01	 7.3401475404e-01
 1.5060627871e+00	 7.2294286018e-01	 6.3974057026e-01
 1.5782427904e+00	 5.8263656617e-01	 1.5689985867e+00
 1.5727504074e+00	 5.9730374704e-01	 1.4809811576e+00
 1.5671103295e+00	 6.1194834370e-01	 1.3899306800e+00
 1.5613224494e+00	 6.2656821870e-01	 1.2964413146e+00
 1.5553866996e+00	 6.4116122454e-01	 1.2010918656e+00
 1.5493030525e+00	 6.5572520461e-01	 1.1044416223e+00
 1.5430715212e+00	 6.7025799406e-01	 1.0070258786e+00
 1.5366921594e+00	 6.8475742073e-01	 9.0935112981e-01
 1.5301650622e+00	 6.9922130608e-01	 8.1188994711e-01
 1.5234903661e+00	 7.1364746615e-01	 7.1507552976e-01
 1.5166682494e+00	 7.2803371249e-01	 6.1929593914e-01
 1.5892788191e+00	 5.8671071364e-01	 1.5483052073e+00
 1.5837480300e+00	 6.0148045631e-01	 1.4616453642e+00
 1.5780685133e+00	 6.1622745686e-01	 1.3719305126e+00
 1.5722401608e+00	 6.3094956287e-01	 1.2797060312e+00
 1.5662629047e+00	 6.4564461184e-01	 1.1855057841e+00
 1.5601367171e+00	 6.6031043207e-01	 1.0898480263e+00
 1.5538616111e+00	 6.7494484358e-01	 9.9323097237e-01
 1.5474376410e+00	 6.8954565902e-01	 8.9612802743e-01
 1.5408649023e+00	 7.0411068461e-01	 7.9898267806e-01
 1.5341435327e+00	 7.1863772112e-01	 7.0220304499e-01
 1.5272737116e+00	 7.3312456479e-01	 6.0615609958e-01
 1.6003148479e+00	 5.9078486111e-01	 1.5257717915e+00
 1.5947456527e+00	 6.0565716559e-01	 1.4407957799e+00
 1.5890266971e+00	 6.2050657002e-01	 1.3528900374e+00
 1.5831578723e+00	 6.3533090704e-01	 1.2625385692e+00
 1.5771391098e+00	 6.5012799914e-01	 1.1702181485e+00
 1.5709703816e+00	 6.6489565953e-01	 1.0763943113e+00
 1.5646517010e+00	 6.7963169310e-01	 9.8151699909e-01
 1.5581831225e+00	 6.9433389730e-01	 8.8601584696e-01
 1.5515647425e+00	 7.0900006314e-01	 7.9029511528e-01
 1.5447966993e+00	 7.2362797608e-01	 6.9472826485e-01
 1.5378791739e+00	 7.3821541710e-01	 5.9965217762e-01
 1.4318245513e+00	 6.8730689403e-01	 8.3563794382e-01
 1.4252462340e+00	 7.0084631294e-01	 7.3785532865e-01
 1.4185292451e+00	 7.1434392377e-01	 6.4099338197e-01
 1.4116738719e+00	 7.2779765370e-01	 5.4520311982e-01
 1.4046804416e+00	 7.4120542943e-01	 4.5064997902e-01
 1.3975493221e+00	 7.5456517812e-01	 3.5641189164e-01
 1.3902809220e+00	 7.6787482833e-01	 2.6197990904e-01
 1.3828756903e+00	 7.8113231106e-01	 1.6796626934e-01
 1.3753341169e+00	 7.9433556066e-01	 7.5047562452e-02
 1.3676567327e+00	 8.0748251589e-01	-1.6038085423e-02
 1.3598441091e+00	 8.2057112084e-01	-1.0449445029e-01
 1.4424300136e+00	 6.9239774634e-01	 8.2536302077e-01
 1.4358029709e+00	 7.0603745114e-01	 7.2737243372e-01
 1.4290362296e+00	 7.1963503818e-01	 6.3006057238e-01
 1.4221300789e+00	 7.3318841930e-01	 5.3366980792e-01
 1.4150848486e+00	 7.4669550585e-01	 4.3821826574e-01
 1.4079009093e+00	 7.6015420961e-01	 3.4227182080e-01
 1.4005786724e+00	 7.7356244383e-01	 2.4607065123e-01
 1.3931185904e+00	 7.8691812415e-01	 1.5031506920e-01
 1.3855211570e+00	 8.0021916965e-01	 5.5771794944e-02
 1.3777869067e+00	 8.1346350380e-01	-3.6729031997e-02
 1.3699164154e+00	 8.2664905549e-01	-1.2629749458e-01
 1.4530354758e+00	 6.9748859865e-01	 8.0749993948e-01
 1.4463597079e+00	 7.1122858933e-01	 7.1085083454e-01
 1.4395432141e+00	 7.2492615259e-01	 6.1458145865e-01
 1.4325862860e+00	 7.3857918491e-01	 5.1901058479e-01
 1.4254892556e+00	 7.5218558227e-01	 4.2351424791e-01
 1.4182524964e+00	 7.6574324111e-01	 3.2691089654e-01
 1.4108764228e+00	 7.7925005933e-01	 2.2986791950e-01
 1.4033614906e+00	 7.9270393725e-01	 1.3315787328e-01
 1.3957081971e+00	 8.0610277865e-01	 3.7622117361e-02
 1.3879170807e+00	 8.1944449172e-01	-5.5832323926e-02
 1.3799887216e+00	 8.3272699014e-01	-1.4623658386e-01
 1.4636409381e+00	 7.0257945095e-01	 7.8164432474e-01
 1.4569164448e+00	 7.1641972753e-01	 6.8790943151e-01
 1.4500501986e+00	 7.3021726700e-01	 5.9420084891e-01
 1.4430424930e+00	 7.4396995051e-01	 5.0081386684e-01
 1.4358936626e+00	 7.5767565869e-01	 4.0614712949e-01
 1.4286040835e+00	 7.7133227261e-01	 3.0998003291e-01
 1.4211741732e+00	 7.8493767482e-01	 2.1306772400e-01
 1.4136043908e+00	 7.9848975035e-01	 1.1623944655e-01
 1.4058952371e+00	 8.1198638764e-01	 2.0395987729e-02
 1.3980472547e+00	 8.2542547964e-01	-7.3493585646e-02
 1.3900610279e+00	 8.3880492479e-01	-1.6439590767e-01
 1.4742464004e+00	 7.0767030326e-01	 7.4739195582e-01
 1.4674731817e+00	 7.2161086572e-01	 6.5816591999e-01
 1.4605571831e+00	 7.3550838141e-01	 5.6856090629e-01
 1.4534987001e+00	 7.4936071612e-01	 4.7836818447e-01
 1.4462980697e+00	 7.6316573510e-01	 3.8573313910e-01
 1.4389556706e+00	 7.7692130410e-01	 2.9113646128e-01
 1.4314719236e+00	 7.9062529032e-01	 1.9537152821e-01
 1.4238472910e+00	 8.0427556344e-01	 9.9308975405e-02
 1.4160822772e+00	 8.1786999663e-01	 3.8940746241e-03
 1.4081774287e+00	 8.3140646756e-01	-8.9856631620e-02
 1.4001333341e+00	 8.4488285943e-01	-1.8085944632e-01
 1.4848518626e+00	 7.1276115557e-01	 7.0527657356e-01
 1.4780299187e+00	 7.2680200391e-01	 6.2123589342e-01
 1.4710641676e+00	 7.4079949582e-01	 5.3730018622e-01
 1.4639549071e+00	 7.5475148172e-01	 4.5122581991e-01
 1.4567024767e+00	 7.6865581152e-01	 3.6189597414e-01
 1.4493072578e+00	 7.8251033560e-01	 2.7004422220e-01
 1.4417696740e+00	 7.9631290582e-01	 1.7648679164e-01
 1.4340901911e+00	 8.1006137654e-01	 8.2120664542e-02
 1.4262693172e+00	 8.2375360563e-01	-1.2079088037e-02
 1.4183076028e+00	 8.3738745548e-01	-1.0506274964e-01
 1.4102056404e+00	 8.5096079408e-01	-1.9571018802e-01
 1.4954573249e+00	 7.1785200787e-01	 6.6817024770e-01
 1.4885866556e+00	 7.3199314211e-01	 5.8080312722e-01
 1.4815711521e+00	 7.4609061024e-01	 4.9978008238e-01
 1.4744111142e+00	 7.6014224733e-01	 4.1898136302e-01
 1.4671068837e+00	 7.7414588794e-01	 3.3426726137e-01
 1.4596588449e+00	 7.8809936710e-01	 2.4637467222e-01
 1.4520674244e+00	 8.0200052132e-01	 1.5612752568e-01
 1.4443330913e+00	 8.1584718964e-01	 6.4434345053e-02
 1.4364563573e+00	 8.2963721462e-01	-2.7714437211e-02
 1.4284377768e+00	 8.4336844340e-01	-1.1924997754e-01
 1.4202779466e+00	 8.5703872873e-01	-2.0902934190e-01
 1.5060627871e+00	 7.2294286018e-01	 6.3974057026e-01
 1.4991433926e+00	 7.3718428030e-01	 5.4930381540e-01
 1.4920781366e+00	 7.5138172465e-01	 4.6414405371e-01
 1.4848673212e+00	 7.6553301294e-01	 3.8211430415e-01
 1.4775112907e+00	 7.7963596436e-01	 3.0248703334e-01
 1.4700104320e+00	 7.9368839859e-01	 2.1980700486e-01
 1.4623651748e+00	 8.0768813682e-01	 1.3401486191e-01
 1.4545759915e+00	 8.2163300273e-01	 4.6016093098e-02
 1.4466433974e+00	 8.3552082361e-01	-4.3197708401e-02
 1.4385679508e+00	 8.4934943132e-01	-1.3255237364e-01
 1.4303502529e+00	 8.6311666338e-01	-2.2089554744e-01
 1.5166682494e+00	 7.2803371249e-01	 6.1929593914e-01
 1.5097001295e+00	 7.4237541850e-01	 5.2699636860e-01
 1.5025851211e+00	 7.5667283906e-01	 4.3830389717e-01
 1.4953235283e+00	 7.7092377854e-01	 3.5219952150e-01
 1.4879156977e+00	 7.8512604078e-01	 2.6927325594e-01
 1.4803620191e+00	 7.9927743009e-01	 1.9002878514e-01
 1.4726629252e+00	 8.1337575232e-01	 1.0987763236e-01
 1.4648188916e+00	 8.2741881583e-01	 2.6638858685e-02
 1.4568304374e+00	 8.4140443261e-01	-5.8708755207e-02
 1.4486981248e+00	 8.5533041925e-01	-1.4509928124e-01
 1.4404225591e+00	 8.6919459803e-01	-2.3138408017e-01
 1.5272737116e+00	 7.3312456479e-01	 6.0615609958e-01
 1.5202568665e+00	 7.4756655669e-01	 5.1280803615e-01
 1.5130921056e+00	 7.6196395347e-01	 4.2156293060e-01
 1.5057797353e+00	 7.7631454415e-01	 3.3242522274e-01
 1.4983201047e+00	 7.9061611720e-01	 2.4598743543e-01
 1.4907136063e+00	 8.0486646159e-01	 1.6284623747e-01
 1.4829606756e+00	 8.1906336781e-01	 8.3604299288e-02
 1.4750617918e+00	 8.3320462893e-01	 6.0831040463e-03
 1.4670174775e+00	 8.4728804160e-01	-7.4420861148e-02
 1.4588282988e+00	 8.6131140717e-01	-1.5701458742e-01
 1.4504948654e+00	 8.7527253268e-01	-2.4056605404e-01
 1.5378791739e+00	 7.3821541710e-01	 5.9965217762e-01
 1.5308136034e+00	 7.5275769489e-01	 5.0592442152e-01
 1.5235990901e+00	 7.6725506789e-01	 4.1324786631e-01
 1.5162359424e+00	 7.8170530976e-01	 3.2213990108e-01
 1.5087245117e+00	 7.9610619362e-01	 2.3318358078e-01
 1.5010651934e+00	 8.1045549309e-01	 1.4696516100e-01
 1.4932584260e+00	 8.2475098331e-01	 6.4076026678e-02
 1.4853046920e+00	 8.3899044203e-01	-1.4885160104e-02
 1.4772045176e+00	 8.5317165060e-01	-9.0500044126e-02
 1.4689584728e+00	 8.6729239509e-01	-1.6841597648e-01
 1.4605671716e+00	 8.8135046733e-01	-2.4850762049e-01
 1.3598441091e+00	 8.2057112084e-01	-1.0449445029e-01
 1.3518968589e+00	 8.3359932626e-01	-1.9192233877e-01
 1.3438156369e+00	 8.4656509130e-01	-2.8005977169e-01
 1.3356011388e+00	 8.5946638378e-01	-3.6823528385e-01
 1.3272541011e+00	 8.7230118093e-01	-4.5572871514e-01
 1.3187753005e+00	 8.8506747040e-01	-5.4177728187e-01
 1.3101655542e+00	 8.9776325127e-01	-6.2558223154e-01
 1.3014257193e+00	 9.1038653501e-01	-7.0631605926e-01
 1.2925566929e+00	 9.2293534650e-01	-7.8313026003e-01
 1.2835594118e+00	 9.3540772505e-01	-8.5516358715e-01
 1.2744348519e+00	 9.4780172530e-01	-9.2155078297e-01
 1.3699164154e+00	 8.2664905549e-01	-1.2629749458e-01
 1.3619103003e+00	 8.3977376026e-01	-2.1436770806e-01
 1.3537692210e+00	 8.5283556216e-01	-3.0263840829e-01
 1.3454938785e+00	 8.6583241395e-01	-3.9053256218e-01
 1.3370850146e+00	 8.7876227789e-01	-4.7742199049e-01
 1.3285434119e+00	 8.9162312671e-01	-5.6263350276e-01
 1.3198698935e+00	 9.0441294468e-01	-6.4545564470e-01
 1.3110653230e+00	 9.1712972853e-01	-7.2514603612e-01
 1.3021306042e+00	 9.2977148853e-01	-8.0093927279e-01
 1.2930666806e+00	 9.4233624943e-01	-8.7205536189e-01
 1.2838745355e+00	 9.5482205151e-01	-9.3770865613e-01
 1.3799887216e+00	 8.3272699014e-01	-1.4623658386e-01
 1.3719237416e+00	 8.4594819426e-01	-2.3484620516e-01
 1.3637228050e+00	 8.5910603302e-01	-3.2328266130e-01
 1.3553866181e+00	 8.7219844412e-01	-4.1103858335e-01
 1.3469159280e+00	 8.8522337484e-01	-4.9755294832e-01
 1.3383115232e+00	 8.9817878302e-01	-5.8221731639e-01
 1.3295742329e+00	 9.1106263808e-01	-6.6438271121e-01
 1.3207049268e+00	 9.2387292205e-01	-7.4336712075e-01
 1.3117045155e+00	 9.3660763055e-01	-8.1846359149e-01
 1.3025739494e+00	 9.4926477382e-01	-8.8894888469e-01
 1.2933142191e+00	 9.6184237772e-01	-9.5409265880e-01
 1.3900610279e+00	 8.3880492479e-01	-1.6439590767e-01
 1.3819371829e+00	 8.5212262826e-01	-2.5338071325e-01
 1.3736763891e+00	 8.6537650388e-01	-3.4195944200e-01
 1.3652793577e+00	 8.7856447429e-01	-4.2967015548e-01
 1.3567468415e+00	 8.9168447180e-01	-5.1599468565e-01
 1.3480796346e+00	 9.0473443933e-01	-6.0036501284e-01
 1.3392785722e+00	 9.1771233149e-01	-6.8217031882e-01
 1.3303445306e+00	 9.3061611557e-01	-7.6076469170e-01
 1.3212784267e+00	 9.4344377257e-01	-8.3547545501e-01
 1.3120812182e+00	 9.5619329821e-01	-9.0561208835e-01
 1.3027539026e+00	 9.6886270393e-01	-9.7047570281e-01
 1.4001333341e+00	 8.4488285943e-01	-1.8085944632e-01
 1.3919506242e+00	 8.5829706226e-01	-2.6999557512e-01
 1.3836299731e+00	 8.7164697473e-01	-3.5863870945e-01
 1.3751720973e+00	 8.8493050446e-01	-4.4634862723e-01
 1.3665777550e+00	 8.9814556876e-01	-5.3262622250e-01
 1.3578477460e+00	 9.1129009564e-01	-6.1692006220e-01
 1.3489829116e+00	 9.2436202489e-01	-6.9863365155e-01
 1.3399841344e+00	 9.3735930909e-01	-7.7713338402e-01
 1.3308523380e+00	 9.5027991459e-01	-8.5175714736e-01
 1.3215884870e+00	 9.6312182260e-01	-9.2182355221e-01
 1.3121935862e+00	 9.7588303014e-01	-9.8664174512e-01
 1.4102056404e+00	 8.5096079408e-01	-1.9571018802e-01
 1.4019640655e+00	 8.6447149626e-01	-2.8471574447e-01
 1.3935835572e+00	 8.7791744559e-01	-3.7329256180e-01
 1.3850648369e+00	 8.9129653464e-01	-4.6099892546e-01
 1.3764086685e+00	 9.0460666571e-01	-5.4733149268e-01
 1.3676158573e+00	 9.1784575195e-01	-6.3173206592e-01
 1.3586872509e+00	 9.3101171830e-01	-7.1359510967e-01
 1.3496237381e+00	 9.4410250261e-01	-7.9227598622e-01
 1.3404262493e+00	 9.5711605661e-01	-8.6709988065e-01
 1.3310957558e+00	 9.7005034698e-01	-9.3737138072e-01
 1.3216332698e+00	 9.8290335635e-01	-1.0023846719e+00
 1.4202779466e+00	 8.5703872873e-01	-2.0902934190e-01
 1.4119775068e+00	 8.7064593026e-01	-2.9756593588e-01
 1.4035371412e+00	 8.8418791645e-01	-3.8589432871e-01
 1.3949575765e+00	 8.9766256481e-01	-4.7354859618e-01
 1.3862395819e+00	 9.1106776267e-01	-5.5999834001e-01
 1.3773839687e+00	 9.2440140825e-01	-6.4465571538e-01
 1.3683915902e+00	 9.3766141170e-01	-7.2688323818e-01
 1.3592633419e+00	 9.5084569613e-01	-8.0600234692e-01
 1.3500001606e+00	 9.6395219863e-01	-8.8130268858e-01
 1.3406030246e+00	 9.7697887137e-01	-9.5205209280e-01
 1.3310729534e+00	 9.8992368255e-01	-1.0175071935e+00
 1.4303502529e+00	 8.6311666338e-01	-2.2089554744e-01
 1.4219909481e+00	 8.7682036426e-01	-3.0856977350e-01
 1.4134907253e+00	 8.9045838731e-01	-3.9641766484e-01
 1.4048503162e+00	 9.0402859498e-01	-4.8392684874e-01
 1.3960704954e+00	 9.1752885963e-01	-5.7051751950e-01
 1.3871520801e+00	 9.3095706456e-01	-6.5554975704e-01
 1.3780959296e+00	 9.4431110511e-01	-7.3833166334e-01
 1.3689029457e+00	 9.5758888965e-01	-8.1812829060e-01
 1.3595740719e+00	 9.7078834065e-01	-8.9417132966e-01
 1.3501102934e+00	 9.8390739576e-01	-9.6566952148e-01
 1.3405126370e+00	 9.9694400876e-01	-1.0318197495e+00
 1.4404225591e+00	 8.6919459803e-01	-2.3138408017e-01
 1.4320043894e+00	 8.8299479827e-01	-3.1774893866e-01
 1.4234443093e+00	 8.9672885817e-01	-4.0483564438e-01
 1.4147430558e+00	 9.1039462515e-01	-4.9206360305e-01
 1.4059014089e+00	 9.2398995658e-01	-5.7878170347e-01
 1.3969201914e+00	 9.3751272087e-01	-6.6427596409e-01
 1.3878002689e+00	 9.5096079852e-01	-7.4777803693e-01
 1.3785425494e+00	 9.6433208317e-01	-8.2847454206e-01
 1.3691479831e+00	 9.7762448267e-01	-9.0551719998e-01
 1.3596175622e+00	 9.9083592014e-01	-9.7803372334e-01
 1.3499523206e+00	 1.0039643350e+00	-1.0451394242e+00
 1.4504948654e+00	 8.7527253268e-01	-2.4056605404e-01
 1.4420178307e+00	 8.8916923227e-01	-3.2512231620e-01
 1.4333978934e+00	 9.0299932903e-01	-4.1111985659e-01
 1.4246357954e+00	 9.1676065533e-01	-4.9788853971e-01
 1.4157323223e+00	 9.3045105354e-01	-5.8468449227e-01
 1.4066883028e+00	 9.4406837718e-01	-6.7069811411e-01
 1.3975046083e+00	 9.5761049192e-01	-7.5506298779e-01
 1.3881821532e+00	 9.7107527669e-01	-8.3686565913e-01
 1.3787218944e+00	 9.8446062470e-01	-9.1515625482e-01
 1.3691248310e+00	 9.9776444453e-01	-9.8895989722e-01
 1.3593920042e+00	 1.0109846612e+00	-1.0572888707e+00
 1.4605671716e+00	 8.8135046733e-01	-2.4850762049e-01
 1.4520312720e+00	 8.9534366627e-01	-3.3070513984e-01
 1.4433514774e+00	 9.0926979989e-01	-4.1523950218e-01
 1.4345285350e+00	 9.2312668550e-01	-5.0133015285e-01
 1.4255632358e+00	 9.3691215050e-01	-5.8811942932e-01
 1.4164564141e+00	 9.5062403349e-01	-6.7468097259e-01
 1.4072089476e+00	 9.6426018533e-01	-7.6002908037e-01
 1.3978217570e+00	 9.7781847021e-01	-8.4312897327e-01
 1.3882958057e+00	 9.9129676672e-01	-9.2290793880e-01
 1.3786320998e+00	 1.0046929689e+00	-9.9826731187e-01
 1.3688316878e+00	 1.0180049874e+00	-1.0680952443e+00
 1.2744348519e+00	 9.4780172530e-01	-9.2155078297e-01
 1.2651824458e+00	 9.6011750365e-01	-9.8635036926e-01
 1.2558047926e+00	 9.7235102782e-01	-1.0536588936e+00
 1.2463029903e+00	 9.8450039644e-01	-1.1227262072e+00
 1.2366781748e+00	 9.9656372741e-01	-1.1928414212e+00
 1.2269315194e+00	 1.0085391588e+00	-1.2633432657e+00
 1.2170642349e+00	 1.0204248498e+00	-1.3336306337e+00
 1.2070775684e+00	 1.0322189816e+00	-1.4031732547e+00
 1.1969728032e+00	 1.0439197584e+00	-1.4715224399e+00
 1.1867512583e+00	 1.0555254084e+00	-1.5383218352e+00
 1.1764142875e+00	 1.0670341842e+00	-1.6033181234e+00
 1.2838745355e+00	 9.5482205151e-01	-9.3770865613e-01
 1.2745535972e+00	 9.6722905230e-01	-1.0020762160e+00
 1.2651064842e+00	 9.7955318964e-01	-1.0692618309e+00
 1.2555343024e+00	 9.9179254811e-01	-1.1384240428e+00
 1.2458381963e+00	 1.0039452317e+00	-1.2087576567e+00
 1.2360193479e+00	 1.0160093645e+00	-1.2795046423e+00
 1.2260789768e+00	 1.0279830923e+00	-1.3499652434e+00
 1.2160183395e+00	 1.0398645828e+00	-1.4195092343e+00
 1.2058387288e+00	 1.0516520267e+00	-1.4875872631e+00
 1.1955414733e+00	 1.0633436392e+00	-1.5537422176e+00
 1.1851279370e+00	 1.0749376600e+00	-1.6176205486e+00
 1.2933142191e+00	 9.6184237772e-01	-9.5409265880e-01
 1.2839247486e+00	 9.7434060094e-01	-1.0181472210e+00
 1.2744081757e+00	 9.8675535147e-01	-1.0852025138e+00
 1.2647656145e+00	 9.9908469979e-01	-1.1543351043e+00
 1.2549982178e+00	 1.0113267359e+00	-1.2246549160e+00
 1.2451071764e+00	 1.0234795703e+00	-1.2953166769e+00
 1.2350937187e+00	 1.0355413348e+00	-1.3655315965e+00
 1.2249591106e+00	 1.0475101839e+00	-1.4345792096e+00
 1.2147046543e+00	 1.0593842951e+00	-1.5018193228e+00
 1.2043316883e+00	 1.0711618701e+00	-1.5667039978e+00
 1.1938415865e+00	 1.0828411359e+00	-1.6287895016e+00
 1.3027539026e+00	 9.6886270393e-01	-9.7047570281e-01
 1.2932959000e+00	 9.8145214959e-01	-1.0343482344e+00
 1.2837098673e+00	 9.9395751330e-01	-1.1012818658e+00
 1.2739969266e+00	 1.0063768515e+00	-1.1702802169e+00
 1.2641582393e+00	 1.0187082401e+00	-1.2403774383e+00
 1.2541950048e+00	 1.0309497760e+00	-1.3106502096e+00
 1.2441084607e+00	 1.0430995774e+00	-1.3802299882e+00
 1.2338998817e+00	 1.0551557851e+00	-1.4483154454e+00
 1.2235705799e+00	 1.0671165634e+00	-1.5141850217e+00
 1.2131219033e+00	 1.0789801009e+00	-1.5772095323e+00
 1.2025552361e+00	 1.0907446117e+00	-1.6368647519e+00
 1.3121935862e+00	 9.7588303014e-01	-9.8664174512e-01
 1.3026670515e+00	 9.8856369823e-01	-1.0504754110e+00
 1.2930115588e+00	 1.0011596751e+00	-1.1173123135e+00
 1.2832282388e+00	 1.0136690031e+00	-1.1860918507e+00
 1.2733182608e+00	 1.0260897444e+00	-1.2557811974e+00
 1.2632828333e+00	 1.0384199818e+00	-1.3253878580e+00
 1.2531232026e+00	 1.0506578199e+00	-1.3939724919e+00
 1.2428406529e+00	 1.0628013862e+00	-1.4606619473e+00
 1.2324365055e+00	 1.0748488317e+00	-1.5246624316e+00
 1.2219121183e+00	 1.0867983318e+00	-1.5852727459e+00
 1.2112688856e+00	 1.0986480876e+00	-1.6418975112e+00
 1.3216332698e+00	 9.8290335635e-01	-1.0023846719e+00
 1.3120382029e+00	 9.9567524687e-01	-1.0663351075e+00
 1.3023132504e+00	 1.0083618369e+00	-1.1331167017e+00
 1.2924595509e+00	 1.0209611548e+00	-1.2016130582e+00
 1.2824782824e+00	 1.0334712486e+00	-1.2707328666e+00
 1.2723706618e+00	 1.0458901875e+00	-1.3394230130e+00
 1.2621379445e+00	 1.0582160625e+00	-1.4066819892e+00
 1.2517814240e+00	 1.0704469874e+00	-1.4715735294e+00
 1.2413024310e+00	 1.0825811000e+00	-1.5332404029e+00
 1.2307023334e+00	 1.0946165626e+00	-1.5909182854e+00
 1.2199825351e+00	 1.1065515635e+00	-1.6439496334e+00
 1.3310729534e+00	 9.8992368255e-01	-1.0175071935e+00
 1.3214093543e+00	 1.0027867955e+00	-1.0817427906e+00
 1.3116149419e+00	 1.0155639988e+00	-1.1485272188e+00
 1.3016908630e+00	 1.0282533065e+00	-1.2166964221e+00
 1.2916383039e+00	 1.0408527529e+00	-1.2851087921e+00
 1.2814584902e+00	 1.0533603932e+00	-1.3526588424e+00
 1.2711526864e+00	 1.0657743050e+00	-1.4182912074e+00
 1.2607221951e+00	 1.0780925885e+00	-1.4810148890e+00
 1.2501683566e+00	 1.0903133683e+00	-1.5399176792e+00
 1.2394925484e+00	 1.1024347935e+00	-1.5941806765e+00
 1.2286961846e+00	 1.1144550393e+00	-1.6434547597e+00
 1.3405126370e+00	 9.9694400876e-01	-1.0318197495e+00
 1.3307805057e+00	 1.0098983442e+00	-1.0965219548e+00
 1.3209166335e+00	 1.0227661606e+00	-1.1633843322e+00
 1.3109221751e+00	 1.0355454581e+00	-1.2312030119e+00
 1.3007983254e+00	 1.0482342571e+00	-1.2987939756e+00
 1.2905463187e+00	 1.0608305990e+00	-1.3650073027e+00
 1.2801674284e+00	 1.0733325475e+00	-1.4287417638e+00
 1.2696629662e+00	 1.0857381897e+00	-1.4889596866e+00
 1.2590342821e+00	 1.0980456366e+00	-1.5447020162e+00
 1.2482827634e+00	 1.1102530243e+00	-1.5951034852e+00
 1.2374098342e+00	 1.1223585152e+00	-1.6434432437e+00
 1.3499523206e+00	 1.0039643350e+00	-1.0451394242e+00
 1.3401516571e+00	 1.0170098928e+00	-1.1105030502e+00
 1.3302183250e+00	 1.0299683224e+00	-1.1775357330e+00
 1.3201534872e+00	 1.0428376098e+00	-1.2450013491e+00
 1.3099583469e+00	 1.0556157613e+00	-1.3116810645e+00
 1.2996341472e+00	 1.0683008047e+00	-1.3763881575e+00
 1.2891821703e+00	 1.0808907901e+00	-1.4379832165e+00
 1.2786037373e+00	 1.0933837909e+00	-1.4953896324e+00
 1.2679002077e+00	 1.1057779049e+00	-1.5476093058e+00
 1.2570729784e+00	 1.1180712552e+00	-1.5952238353e+00
 1.2461234837e+00	 1.1302619910e+00	-1.6445259080e+00
 1.3593920042e+00	 1.0109846612e+00	-1.0572888707e+00
 1.3495228086e+00	 1.0241214414e+00	-1.1235224189e+00
 1.3395200166e+00	 1.0371704843e+00	-1.1908352886e+00
 1.3293847993e+00	 1.0501297615e+00	-1.2579663815e+00
 1.3191183684e+00	 1.0629972656e+00	-1.3236693499e+00
 1.3087219756e+00	 1.0757710105e+00	-1.3867280039e+00
 1.2981969122e+00	 1.0884490326e+00	-1.4459721214e+00
 1.2875445084e+00	 1.1010293920e+00	-1.5002935767e+00
 1.2767661333e+00	 1.1135101732e+00	-1.5488315875e+00
 1.2658631935e+00	 1.1258894860e+00	-1.5967312970e+00
 1.2548371332e+00	 1.1381654669e+00	-1.6466285755e+00
 1.3688316878e+00	 1.0180049874e+00	-1.0680952443e+00
 1.3588939600e+00	 1.0312329901e+00	-1.1354212409e+00
 1.3488217081e+00	 1.0443726461e+00	-1.2031420051e+00
 1.3386161114e+00	 1.0574219132e+00	-1.2699784648e+00
 1.3282783900e+00	 1.0703787698e+00	-1.3346637723e+00
 1.3178098041e+00	 1.0832412162e+00	-1.3959593048e+00
 1.3072116541e+00	 1.0960072751e+00	-1.4526710953e+00
 1.2964852796e+00	 1.1086749932e+00	-1.5036666071e+00
 1.2856320588e+00	 1.1212424415e+00	-1.5508383117e+00
 1.2746534085e+00	 1.1337077169e+00	-1.5995296300e+00
 1.2635507828e+00	 1.1460689427e+00	-1.6496691461e+00
 1.1764142875e+00	 1.0670341842e+00	-1.6033181234e+00
 1.1659650622e+00	 1.0784424363e+00	-1.6627823480e+00
 1.1554032410e+00	 1.0897504506e+00	-1.7128367927e+00
 1.1447302599e+00	 1.1009565787e+00	-1.7531630901e+00
 1.1339475873e+00	 1.1120592001e+00	-1.7836259959e+00
 1.1230567236e+00	 1.1230567236e+00	-1.8091335918e+00
 1.1120592001e+00	 1.1339475873e+00	-1.8331515080e+00
 1.1009565787e+00	 1.1447302599e+00	-1.8580841638e+00
 1.0897504506e+00	 1.1554032410e+00	-1.8873904315e+00
 1.0784424363e+00	 1.1659650622e+00	-1.9209782533e+00
 1.0670341842e+00	 1.1764142875e+00	-1.9585977683e+00
 1.1851279370e+00	 1.0749376600e+00	-1.6176205486e+00
 1.1746013147e+00	 1.0864304126e+00	-1.6754645246e+00
 1.1639612626e+00	 1.0978221849e+00	-1.7234562209e+00
 1.1532092272e+00	 1.1091113162e+00	-1.7613151266e+00
 1.1423466878e+00	 1.1202961743e+00	-1.7918798910e+00
 1.1313751560e+00	 1.1313751560e+00	-1.8207381656e+00
 1.1202961743e+00	 1.1423466878e+00	-1.8479257021e+00
 1.1091113162e+00	 1.1532092272e+00	-1.8734428332e+00
 1.0978221849e+00	 1.1639612626e+00	-1.9012495905e+00
 1.0864304126e+00	 1.1746013147e+00	-1.9333825200e+00
 1.0749376600e+00	 1.1851279370e+00	-1.9696433442e+00
 1.1938415865e+00	 1.0828411359e+00	-1.6287895016e+00
 1.1832375673e+00	 1.0944183889e+00	-1.6843216201e+00
 1.1725192842e+00	 1.1058939191e+00	-1.7295662563e+00
 1.1616881945e+00	 1.1172660538e+00	-1.7655999887e+00
 1.1507457884e+00	 1.1285331485e+00	-1.7990167537e+00
 1.1396935883e+00	 1.1396935883e+00	-1.8306764112e+00
 1.1285331485e+00	 1.1507457884e+00	-1.8605095403e+00
 1.1172660538e+00	 1.1616881945e+00	-1.8884516693e+00
 1.1058939191e+00	 1.1725192842e+00	-1.9151128774e+00
 1.0944183889e+00	 1.1832375673e+00	-1.9452379505e+00
 1.0828411359e+00	 1.1938415865e+00	-1.9796235379e+00
 1.2025552361e+00	 1.0907446117e+00	-1.6368647519e+00
 1.1918738199e+00	 1.1024063652e+00	-1.6894303500e+00
 1.1810773058e+00	 1.1139656534e+00	-1.7315589612e+00
 1.1701671618e+00	 1.1254207913e+00	-1.7693047402e+00
 1.1591448889e+00	 1.1367701227e+00	-1.8051734715e+00
 1.1480120207e+00	 1.1480120207e+00	-1.8391205126e+00
 1.1367701227e+00	 1.1591448889e+00	-1.8711089852e+00
 1.1254207913e+00	 1.1701671618e+00	-1.9011069206e+00
 1.1139656534e+00	 1.1810773058e+00	-1.9290843924e+00
 1.1024063652e+00	 1.1918738199e+00	-1.9568684428e+00
 1.0907446117e+00	 1.2025552361e+00	-1.9888781037e+00
 1.2112688856e+00	 1.0986480876e+00	-1.6418975112e+00
 1.2005100724e+00	 1.1103943415e+00	-1.6908787698e+00
 1.1896353274e+00	 1.1220373876e+00	-1.7327887270e+00
 1.1786461291e+00	 1.1335755289e+00	-1.7726563324e+00
 1.1675439894e+00	 1.1450070969e+00	-1.8104743631e+00
 1.1563304531e+00	 1.1563304531e+00	-1.8462295105e+00
 1.1450070969e+00	 1.1675439894e+00	-1.8799163261e+00
 1.1335755289e+00	 1.1786461291e+00	-1.9115341450e+00
 1.1220373876e+00	 1.1896353274e+00	-1.9410839952e+00
 1.1103943415e+00	 1.2005100724e+00	-1.9685779560e+00
 1.0986480876e+00	 1.2112688856e+00	-1.9977271394e+00
 1.2199825351e+00	 1.1065515635e+00	-1.6439496334e+00
 1.2091463250e+00	 1.1183823177e+00	-1.6905273973e+00
 1.1981933491e+00	 1.1301091219e+00	-1.7342318496e+00
 1.1871250964e+00	 1.1417302664e+00	-1.7757312778e+00
 1.1759430899e+00	 1.1532440711e+00	-1.8150315524e+00
 1.1646488854e+00	 1.1646488854e+00	-1.8521496858e+00
 1.1532440711e+00	 1.1759430899e+00	-1.8871105698e+00
 1.1417302664e+00	 1.1871250964e+00	-1.9199436691e+00
 1.1301091219e+00	 1.1981933491e+00	-1.9506796990e+00
 1.1183823177e+00	 1.2091463250e+00	-1.9793473173e+00
 1.1065515635e+00	 1.2199825351e+00	-2.0064712624e+00
 1.2286961846e+00	 1.1144550393e+00	-1.6434547597e+00
 1.2177825776e+00	 1.1263702940e+00	-1.6908772196e+00
 1.2067513707e+00	 1.1381808561e+00	-1.7359171618e+00
 1.1956040637e+00	 1.1498850040e+00	-1.7785948616e+00
 1.1843421904e+00	 1.1614810453e+00	-1.8189453395e+00
 1.1729673178e+00	 1.1729673178e+00	-1.8570149389e+00
 1.1614810453e+00	 1.1843421904e+00	-1.8928578273e+00
 1.1498850040e+00	 1.1956040637e+00	-1.9265324501e+00
 1.1381808561e+00	 1.2067513707e+00	-1.9580979697e+00
 1.1263702940e+00	 1.2177825776e+00	-1.9876107187e+00
 1.1144550393e+00	 1.2286961846e+00	-2.0151206991e+00
 1.2374098342e+00	 1.1223585152e+00	-1.6434432437e+00
 1.2264188302e+00	 1.1343582703e+00	-1.6919265544e+00
 1.2153093923e+00	 1.1462525904e+00	-1.7378632514e+00
 1.2040830310e+00	 1.1580397415e+00	-1.7813015005e+00
 1.1927412910e+00	 1.1697180194e+00	-1.8223045701e+00
 1.1812857502e+00	 1.1812857502e+00	-1.8609471678e+00
 1.1697180194e+00	 1.1927412910e+00	-1.8973116968e+00
 1.1580397415e+00	 1.2040830310e+00	-1.9314844622e+00
 1.1462525904e+00	 1.2153093923e+00	-1.9635518619e+00
 1.1343582703e+00	 1.2264188302e+00	-1.9935965925e+00
 1.1223585152e+00	 1.2374098342e+00	-2.0216939038e+00
 1.2461234837e+00	 1.1302619910e+00	-1.6445259080e+00
 1.2350550827e+00	 1.1423462466e+00	-1.6936474874e+00
 1.2238674139e+00	 1.1543243246e+00	-1.7400788093e+00
 1.2125619984e+00	 1.1661944791e+00	-1.7838951026e+00
 1.2011403915e+00	 1.1779549936e+00	-1.8251870034e+00
 1.1896041825e+00	 1.1896041825e+00	-1.8640566417e+00
 1.1779549936e+00	 1.2011403915e+00	-1.9006136431e+00
 1.1661944791e+00	 1.2125619984e+00	-1.9349710798e+00
 1.1543243246e+00	 1.2238674139e+00	-1.9672414029e+00
 1.1423462466e+00	 1.2350550827e+00	-1.9975323930e+00
 1.1302619910e+00	 1.2461234837e+00	-2.0259431611e+00
 1.2548371332e+00	 1.1381654669e+00	-1.6466285755e+00
 1.2436913353e+00	 1.1503342229e+00	-1.6960031900e+00
 1.2324254355e+00	 1.1623960589e+00	-1.7425629779e+00
 1.2210409657e+00	 1.1743492167e+00	-1.7864094249e+00
 1.2095394920e+00	 1.1861919678e+00	-1.8276596780e+00
 1.1979226149e+00	 1.1979226149e+00	-1.8664423733e+00
 1.1861919678e+00	 1.2095394920e+00	-1.9028933741e+00
 1.1743492167e+00	 1.2210409657e+00	-1.9371514559e+00
 1.1623960589e+00	 1.2324254355e+00	-1.9693539724e+00
 1.1503342229e+00	 1.2436913353e+00	-1.9996325399e+00
 1.1381654669e+00	 1.2548371332e+00	-2.0281087759e+00
 1.2635507828e+00	 1.1460689427e+00	-1.6496691461e+00
 1.2523275879e+00	 1.1583221992e+00	-1.6989482582e+00
 1.2409834572e+00	 1.1704677932e+00	-1.7453057004e+00
 1.2295199330e+00	 1.1825039542e+00	-1.7888684308e+00
 1.2179385926e+00	 1.1944289420e+00	-1.8297792755e+00
 1.2062410473e+00	 1.2062410473e+00	-1.8681924878e+00
 1.1944289420e+00	 1.2179385926e+00	-1.9042692129e+00
 1.1825039542e+00	 1.2295199330e+00	-1.9381728972e+00
 1.1704677932e+00	 1.2409834572e+00	-1.9700646778e+00
 1.1583221992e+00	 1.2523275879e+00	-2.0000987919e+00
 1.1460689427e+00	 1.2635507828e+00	-2.0284180425e+00
 1.0670341842e+00	 1.1764142875e+00	-1.9585977683e+00
 1.0555254084e+00	 1.1867512583e+00	-1.9964040364e+00
 1.0439197584e+00	 1.1969728032e+00	-2.0307605657e+00
 1.0322189816e+00	 1.2070775684e+00	-2.0615749481e+00
 1.0204248498e+00	 1.2170642349e+00	-2.0886566986e+00
 1.0085391588e+00	 1.2269315194e+00	-2.1117271715e+00
 9.9656372741e-01	 1.2366781748e+00	-2.1304296234e+00
 9.8450039644e-01	 1.2463029903e+00	-2.1443393568e+00
 9.7235102782e-01	 1.2558047926e+00	-2.1529738858e+00
 9.6011750365e-01	 1.2651824458e+00	-2.1558030594e+00
 9.4780172530e-01	 1.2744348519e+00	-2.1522590860e+00
 1.0749376600e+00	 1.1851279370e+00	-1.9696433442e+00
 1.0633436392e+00	 1.1955414733e+00	-2.0062041413e+00
 1.0516520267e+00	 1.2058387288e+00	-2.0394037963e+00
 1.0398645828e+00	 1.2160183395e+00	-2.0691332740e+00
 1.0279830923e+00	 1.2260789768e+00	-2.0951840410e+00
 1.0160093645e+00	 1.2360193479e+00	-2.1172584840e+00
 1.0039452317e+00	 1.2458381963e+00	-2.1349804706e+00
 9.9179254811e-01	 1.2555343024e+00	-2.1479059878e+00
 9.7955318964e-01	 1.2651064842e+00	-2.1555337927e+00
 9.6722905230e-01	 1.2745535972e+00	-2.1573160116e+00
 9.5482205151e-01	 1.2838745355e+00	-2.1526686257e+00
 1.0828411359e+00	 1.1938415865e+00	-1.9796235379e+00
 1.0711618701e+00	 1.2043316883e+00	-2.0144765595e+00
 1.0593842951e+00	 1.2147046543e+00	-2.0461296954e+00
 1.0475101839e+00	 1.2249591106e+00	-2.0744558110e+00
 1.0355413348e+00	 1.2350937187e+00	-2.0992268120e+00
 1.0234795703e+00	 1.2451071764e+00	-2.1201245845e+00
 1.0113267359e+00	 1.2549982178e+00	-2.1367520755e+00
 9.9908469979e-01	 1.2647656145e+00	-2.1486444461e+00
 9.8675535147e-01	 1.2744081757e+00	-2.1552802280e+00
 9.7434060094e-01	 1.2839247486e+00	-2.1560924172e+00
 9.6184237772e-01	 1.2933142191e+00	-2.1504794401e+00
 1.0907446117e+00	 1.2025552361e+00	-1.9888781037e+00
 1.0789801009e+00	 1.2131219033e+00	-2.0215769438e+00
 1.0671165634e+00	 1.2235705799e+00	-2.0513106824e+00
 1.0551557851e+00	 1.2338998817e+00	-2.0779325128e+00
 1.0430995774e+00	 1.2441084607e+00	-2.1011931651e+00
 1.0309497760e+00	 1.2541950048e+00	-2.1207523907e+00
 1.0187082401e+00	 1.2641582393e+00	-2.1361905847e+00
 1.0063768515e+00	 1.2739969266e+00	-2.1470204739e+00
 9.9395751330e-01	 1.2837098673e+00	-2.1526988003e+00
 9.8145214959e-01	 1.2932959000e+00	-2.1526379295e+00
 9.6886270393e-01	 1.3027539026e+00	-2.1462173172e+00
 1.0986480876e+00	 1.2112688856e+00	-1.9977271394e+00
 1.0867983318e+00	 1.2219121183e+00	-2.0278415989e+00
 1.0748488317e+00	 1.2324365055e+00	-2.0553001338e+00
 1.0628013862e+00	 1.2428406529e+00	-2.0799345871e+00
 1.0506578199e+00	 1.2531232026e+00	-2.1014727939e+00
 1.0384199818e+00	 1.2632828333e+00	-2.1195506327e+00
 1.0260897444e+00	 1.2733182608e+00	-2.1337242115e+00
 1.0136690031e+00	 1.2832282388e+00	-2.1434821134e+00
 1.0011596751e+00	 1.2930115588e+00	-2.1482576281e+00
 9.8856369823e-01	 1.3026670515e+00	-2.1474408953e+00
 9.7588303014e-01	 1.3121935862e+00	-2.1403908921e+00
 1.1065515635e+00	 1.2199825351e+00	-2.0064712624e+00
 1.0946165626e+00	 1.2307023334e+00	-2.0335876917e+00
 1.0825811000e+00	 1.2413024310e+00	-2.0584326270e+00
 1.0704469874e+00	 1.2517814240e+00	-2.0808147740e+00
 1.0582160625e+00	 1.2621379445e+00	-2.1004372448e+00
 1.0458901875e+00	 1.2723706618e+00	-2.1169101989e+00
 1.0334712486e+00	 1.2824782824e+00	-2.1297636159e+00
 1.0209611548e+00	 1.2924595509e+00	-2.1384601214e+00
 1.0083618369e+00	 1.3023132504e+00	-2.1424077878e+00
 9.9567524687e-01	 1.3120382029e+00	-2.1409728358e+00
 9.8290335635e-01	 1.3216332698e+00	-2.1334921609e+00
 1.1144550393e+00	 1.2286961846e+00	-2.0151206991e+00
 1.1024347935e+00	 1.2394925484e+00	-2.0391134537e+00
 1.0903133683e+00	 1.2501683566e+00	-2.0610241760e+00
 1.0780925885e+00	 1.2607221951e+00	-2.0809076150e+00
 1.0657743050e+00	 1.2711526864e+00	-2.0984402195e+00
 1.0533603932e+00	 1.2814584902e+00	-2.1132044726e+00
 1.0408527529e+00	 1.2916383039e+00	-2.1247022745e+00
 1.0282533065e+00	 1.3016908630e+00	-2.1323683715e+00
 1.0155639988e+00	 1.3116149419e+00	-2.1355837496e+00
 1.0027867955e+00	 1.3214093543e+00	-2.1336889149e+00
 9.8992368255e-01	 1.3310729534e+00	-2.1259969817e+00
 1.1223585152e+00	 1.2374098342e+00	-2.0216939038e+00
 1.1102530243e+00	 1.2482827634e+00	-2.0446983757e+00
 1.0980456366e+00	 1.2590342821e+00	-2.0633724600e+00
 1.0857381897e+00	 1.2696629662e+00	-2.0805297145e+00
 1.0733325475e+00	 1.2801674284e+00	-2.0958178693e+00
 1.0608305990e+00	 1.2905463187e+00	-2.1087896590e+00
 1.0482342571e+00	 1.3007983254e+00	-2.1189168399e+00
 1.0355454581e+00	 1.3109221751e+00	-2.1256042466e+00
 1.0227661606e+00	 1.3209166335e+00	-2.1282038013e+00
 1.0098983442e+00	 1.3307805057e+00	-2.1260283954e+00
 9.9694400876e-01	 1.3405126370e+00	-2.1183655625e+00
 1.1302619910e+00	 1.2461234837e+00	-2.0259431611e+00
 1.1180712552e+00	 1.2570729784e+00	-2.0494627630e+00
 1.1057779049e+00	 1.2679002077e+00	-2.0657570437e+00
 1.0933837909e+00	 1.2786037373e+00	-2.0799799926e+00
 1.0808907901e+00	 1.2891821703e+00	-2.0928890803e+00
 1.0683008047e+00	 1.2996341472e+00	-2.1040051024e+00
 1.0556157613e+00	 1.3099583469e+00	-2.1127674904e+00
 1.0428376098e+00	 1.3201534872e+00	-2.1185490202e+00
 1.0299683224e+00	 1.3302183250e+00	-2.1206704615e+00
 1.0170098928e+00	 1.3401516571e+00	-2.1184150840e+00
 1.0039643350e+00	 1.3499523206e+00	-2.1110429369e+00
 1.1381654669e+00	 1.2548371332e+00	-2.0281087759e+00
 1.1258894860e+00	 1.2658631935e+00	-2.0519477920e+00
 1.1135101732e+00	 1.2767661333e+00	-2.0683080265e+00
 1.1010293920e+00	 1.2875445084e+00	-2.0795399311e+00
 1.0884490326e+00	 1.2981969122e+00	-2.0899557511e+00
 1.0757710105e+00	 1.3087219756e+00	-2.0991735956e+00
 1.0629972656e+00	 1.3191183684e+00	-2.1065982706e+00
 1.0501297615e+00	 1.3293847993e+00	-2.1115682285e+00
 1.0371704843e+00	 1.3395200166e+00	-2.1133708830e+00
 1.0241214414e+00	 1.3495228086e+00	-2.1112577644e+00
 1.0109846612e+00	 1.3593920042e+00	-2.1044594280e+00
 1.1460689427e+00	 1.2635507828e+00	-2.0284180425e+00
 1.1337077169e+00	 1.2746534085e+00	-2.0523888409e+00
 1.1212424415e+00	 1.2856320588e+00	-2.0693365035e+00
 1.1086749932e+00	 1.2964852796e+00	-2.0794738119e+00
 1.0960072751e+00	 1.3072116541e+00	-2.0873030623e+00
 1.0832412162e+00	 1.3178098041e+00	-2.0946016809e+00
 1.0703787698e+00	 1.3282783900e+00	-2.1007374231e+00
 1.0574219132e+00	 1.3386161114e+00	-2.1050120323e+00
 1.0443726461e+00	 1.3488217081e+00	-2.1066772454e+00
 1.0312329901e+00	 1.3588939600e+00	-2.1049506211e+00
 1.0180049874e+00	 1.3688316878e+00	-2.0990311021e+00
 9.4780172530e-01	 1.2744348519e+00	-2.1522590860e+00
 9.3540772505e-01	 1.2835594118e+00	-2.1462228056e+00
 9.2293534650e-01	 1.2925566929e+00	-2.1415065409e+00
 9.1038653501e-01	 1.3014257193e+00	-2.1374178606e+00
 8.9776325127e-01	 1.3101655542e+00	-2.1332674111e+00
 8.8506747040e-01	 1.3187753005e+00	-2.1283776254e+00
 8.7230118093e-01	 1.3272541011e+00	-2.1220910199e+00
 8.5946638378e-01	 1.3356011388e+00	-2.1137780390e+00
 8.4656509130e-01	 1.3438156369e+00	-2.1028444110e+00
 8.3359932626e-01	 1.3518968589e+00	-2.0887379819e+00
 8.2057112084e-01	 1.3598441091e+00	-2.0709549998e+00
 9.5482205151e-01	 1.2838745355e+00	-2.1526686257e+00
 9.4233624943e-01	 1.2930666806e+00	-2.1455166738e+00
 9.2977148853e-01	 1.3021306042e+00	-2.1397370969e+00
 9.1712972853e-01	 1.3110653230e+00	-2.1346551475e+00
 9.0441294468e-01	 1.3198698935e+00	-2.1296011818e+00
 8.9162312671e-01	 1.3285434119e+00	-2.1239196978e+00
 8.7876227789e-01	 1.3370850146e+00	-2.1169779360e+00
 8.6583241395e-01	 1.3454938785e+00	-2.1081740025e+00
 8.5283556216e-01	 1.3537692210e+00	-2.0969444749e+00
 8.3977376026e-01	 1.3619103003e+00	-2.0827714582e+00
 8.2664905549e-01	 1.3699164154e+00	-2.0651890612e+00
 9.6184237772e-01	 1.2933142191e+00	-2.1504794401e+00
 9.4926477382e-01	 1.3025739494e+00	-2.1423952609e+00
 9.3660763055e-01	 1.3117045155e+00	-2.1357603311e+00
 9.2387292205e-01	 1.3207049268e+00	-2.1299071785e+00
 9.1106263808e-01	 1.3295742329e+00	-2.1241750663e+00
 8.9817878302e-01	 1.3383115232e+00	-2.1179193901e+00
 8.8522337484e-01	 1.3469159280e+00	-2.1105206135e+00
 8.7219844412e-01	 1.3553866181e+00	-2.1013926992e+00
 8.5910603302e-01	 1.3637228050e+00	-2.0899909939e+00
 8.4594819426e-01	 1.3719237416e+00	-2.0758195350e+00
 8.3272699014e-01	 1.3799887216e+00	-2.0584377455e+00
 9.6886270393e-01	 1.3027539026e+00	-2.1462173172e+00
 9.5619329821e-01	 1.3120812182e+00	-2.1373988628e+00
 9.4344377257e-01	 1.3212784267e+00	-2.1301198496e+00
 9.3061611557e-01	 1.3303445306e+00	-2.1237098051e+00
 9.1771233149e-01	 1.3392785722e+00	-2.1175062417e+00
 9.0473443933e-01	 1.3480796346e+00	-2.1108644445e+00
 8.9168447180e-01	 1.3567468415e+00	-2.1031667730e+00
 8.7856447429e-01	 1.3652793577e+00	-2.0938314277e+00
 8.6537650388e-01	 1.3736763891e+00	-2.0823206460e+00
 8.5212262826e-01	 1.3819371829e+00	-2.0681482856e+00
 8.3880492479e-01	 1.3900610279e+00	-2.0508867673e+00
 9.7588303014e-01	 1.3121935862e+00	-2.1403908921e+00
 9.6312182260e-01	 1.3215884870e+00	-2.1310509057e+00
 9.5027991459e-01	 1.3308523380e+00	-2.1233429580e+00
 9.3735930909e-01	 1.3399841344e+00	-2.1165834236e+00
 9.2436202489e-01	 1.3489829116e+00	-2.1100975442e+00
 9.1129009564e-01	 1.3578477460e+00	-2.1032296380e+00
 8.9814556876e-01	 1.3665777550e+00	-2.0953527961e+00
 8.8493050446e-01	 1.3751720973e+00	-2.0858780187e+00
 8.7164697473e-01	 1.3836299731e+00	-2.0742627467e+00
 8.5829706226e-01	 1.3919506242e+00	-2.0600187538e+00
 8.4488285943e-01	 1.4001333341e+00	-2.0427193623e+00
 9.8290335635e-01	 1.3216332698e+00	-2.1334921609e+00
 9.7005034698e-01	 1.3310957558e+00	-2.1238584877e+00
 9.5711605661e-01	 1.3404262493e+00	-2.1159412171e+00
 9.4410250261e-01	 1.3496237381e+00	-2.1090335354e+00
 9.3101171830e-01	 1.3586872509e+00	-2.1024380225e+00
 9.1784575195e-01	 1.3676158573e+00	-2.0954773151e+00
 9.0460666571e-01	 1.3764086685e+00	-2.0875042301e+00
 8.9129653464e-01	 1.3850648369e+00	-2.0779112976e+00
 8.7791744559e-01	 1.3935835572e+00	-2.0661396611e+00
 8.6447149626e-01	 1.4019640655e+00	-2.0516873035e+00
 8.5096079408e-01	 1.4102056404e+00	-2.0341165664e+00
 9.8992368255e-01	 1.3310729534e+00	-2.1259969817e+00
 9.7697887137e-01	 1.3406030246e+00	-2.1163129053e+00
 9.6395219863e-01	 1.3500001606e+00	-2.1084109862e+00
 9.5084569613e-01	 1.3592633419e+00	-2.1015512939e+00
 9.3766141170e-01	 1.3683915902e+00	-2.0950034768e+00
 9.2440140825e-01	 1.3773839687e+00	-2.0880579112e+00
 9.1106776267e-01	 1.3862395819e+00	-2.0800362811e+00
 8.9766256481e-01	 1.3949575765e+00	-2.0703015408e+00
 8.8418791645e-01	 1.4035371412e+00	-2.0582672108e+00
 8.7064593026e-01	 1.4119775068e+00	-2.0434059685e+00
 8.5703872873e-01	 1.4202779466e+00	-2.0252574961e+00
 9.9694400876e-01	 1.3405126370e+00	-2.1183655625e+00
 9.8390739576e-01	 1.3501102934e+00	-2.1088901683e+00
 9.7078834065e-01	 1.3595740719e+00	-2.1012339517e+00
 9.5758888965e-01	 1.3689029457e+00	-2.0946140378e+00
 9.4431110511e-01	 1.3780959296e+00	-2.0882569874e+00
 9.3095706456e-01	 1.3871520801e+00	-2.0814104633e+00
 9.1752885963e-01	 1.3960704954e+00	-2.0733543001e+00
 9.0402859498e-01	 1.4048503162e+00	-2.0634109244e+00
 8.9045838731e-01	 1.4134907253e+00	-2.0509550776e+00
 8.7682036426e-01	 1.4219909481e+00	-2.0354227991e+00
 8.6311666338e-01	 1.4303502529e+00	-2.0163196314e+00
 1.0039643350e+00	 1.3499523206e+00	-2.1110429369e+00
 9.9083592014e-01	 1.3596175622e+00	-2.1020515005e+00
 9.7762448267e-01	 1.3691479831e+00	-2.0948776444e+00
 9.6433208317e-01	 1.3785425494e+00	-2.0886858135e+00
 9.5096079852e-01	 1.3878002689e+00	-2.0826494305e+00
 9.3751272087e-01	 1.3969201914e+00	-2.0759631124e+00
 9.2398995658e-01	 1.4059014089e+00	-2.0678542596e+00
 9.1039462515e-01	 1.4147430558e+00	-2.0575939666e+00
 8.9672885817e-01	 1.4234443093e+00	-2.0445072012e+00
 8.8299479827e-01	 1.4320043894e+00	-2.0279822082e+00
 8.6919459803e-01	 1.4404225591e+00	-2.0074790998e+00
 1.0109846612e+00	 1.3593920042e+00	-2.1044594280e+00
 9.9776444453e-01	 1.3691248310e+00	-2.0962438297e+00
 9.8446062470e-01	 1.3787218944e+00	-2.0897959436e+00
 9.7107527669e-01	 1.3881821532e+00	-2.0842178843e+00
 9.5761049192e-01	 1.3975046083e+00	-2.0786199849e+00
 9.4406837718e-01	 1.4066883028e+00	-2.0721335945e+00
 9.3045105354e-01	 1.4157323223e+00	-2.0639232216e+00
 9.1676065533e-01	 1.4246357954e+00	-2.0531979642e+00
 9.0299932903e-01	 1.4333978934e+00	-2.0392221751e+00
 8.8916923227e-01	 1.4420178307e+00	-2.0213253164e+00
 8.7527253268e-01	 1.4504948654e+00	-1.9989109623e+00
 1.0180049874e+00	 1.3688316878e+00	-2.0990311021e+00
 1.0046929689e+00	 1.3786320998e+00	-2.0919002650e+00
 9.9129676672e-01	 1.3882958057e+00	-2.0864295704e+00
 9.7781847021e-01	 1.3978217570e+00	-2.0816492301e+00
 9.6426018533e-01	 1.4072089476e+00	-2.0765966262e+00
 9.5062403349e-01	 1.4164564141e+00	-2.0703297238e+00
 9.3691215050e-01	 1.4255632358e+00	-2.0619397995e+00
 9.2312668550e-01	 1.4345285350e+00	-2.0505634225e+00
 9.0926979989e-01	 1.4433514774e+00	-2.0353936367e+00
 8.9534366627e-01	 1.4520312720e+00	-2.0156902947e+00
 8.8135046733e-01	 1.4605671716e+00	-1.9907895006e+00
 8.2057112084e-01	 1.3598441091e+00	-2.0709549998e+00
 8.0748251589e-01	 1.3676567327e+00	-2.0514058623e+00
 7.9433556066e-01	 1.3753341169e+00	-2.0319265103e+00
 7.8113231106e-01	 1.3828756903e+00	-2.0119833769e+00
 7.6787482833e-01	 1.3902809220e+00	-1.9911022585e+00
 7.5456517812e-01	 1.3975493221e+00	-1.9688718543e+00
 7.4120542943e-01	 1.4046804416e+00	-1.9449466769e+00
 7.2779765370e-01	 1.4116738719e+00	-1.9198014142e+00
 7.1434392377e-01	 1.4185292451e+00	-1.8943333517e+00
 7.0084631294e-01	 1.4252462340e+00	-1.8687355147e+00
 6.8730689403e-01	 1.4318245513e+00	-1.8432186666e+00
 8.2664905549e-01	 1.3699164154e+00	-2.0651890612e+00
 8.1346350380e-01	 1.3777869067e+00	-2.0460373221e+00
 8.0021916965e-01	 1.3855211570e+00	-2.0270203539e+00
 7.8691812415e-01	 1.3931185904e+00	-2.0075540846e+00
 7.7356244383e-01	 1.4005786724e+00	-1.9871153665e+00
 7.6015420961e-01	 1.4079009093e+00	-1.9652457188e+00
 7.4669550585e-01	 1.4150848486e+00	-1.9415544084e+00
 7.3318841930e-01	 1.4221300789e+00	-1.9160050887e+00
 7.1963503818e-01	 1.4290362296e+00	-1.8898637666e+00
 7.0603745114e-01	 1.4358029709e+00	-1.8634471003e+00
 6.9239774634e-01	 1.4424300136e+00	-1.8369210404e+00
 8.3272699014e-01	 1.3799887216e+00	-2.0584377455e+00
 8.1944449172e-01	 1.3879170807e+00	-2.0395763444e+00
 8.0610277865e-01	 1.3957081971e+00	-2.0207811096e+00
 7.9270393725e-01	 1.4033614906e+00	-2.0014237550e+00
 7.7925005933e-01	 1.4108764228e+00	-1.9809388853e+00
 7.6574324111e-01	 1.4182524964e+00	-1.9588279311e+00
 7.5218558227e-01	 1.4254892556e+00	-1.9346623921e+00
 7.3857918491e-01	 1.4325862860e+00	-1.9081113905e+00
 7.2492615259e-01	 1.4395432141e+00	-1.8802638866e+00
 7.1122858933e-01	 1.4463597079e+00	-1.8519180838e+00
 6.9748859865e-01	 1.4530354758e+00	-1.8232025546e+00
 8.3880492479e-01	 1.3900610279e+00	-2.0508867673e+00
 8.2542547964e-01	 1.3980472547e+00	-2.0321254810e+00
 8.1198638764e-01	 1.4058952371e+00	-2.0132320448e+00
 7.9848975035e-01	 1.4136043908e+00	-1.9935400927e+00
 7.8493767482e-01	 1.4211741732e+00	-1.9724485260e+00
 7.7133227261e-01	 1.4286040835e+00	-1.9494256336e+00
 7.5767565869e-01	 1.4358936626e+00	-1.9240124870e+00
 7.4396995051e-01	 1.4430424930e+00	-1.8958256075e+00
 7.3021726700e-01	 1.4500501986e+00	-1.8652468647e+00
 7.1641972753e-01	 1.4569164448e+00	-1.8338091987e+00
 7.0257945095e-01	 1.4636409381e+00	-1.8016748141e+00
 8.4488285943e-01	 1.4001333341e+00	-2.0427193623e+00
 8.3140646756e-01	 1.4081774287e+00	-2.0237873732e+00
 8.1786999663e-01	 1.4160822772e+00	-2.0043989088e+00
 8.0427556344e-01	 1.4238472910e+00	-1.9838555043e+00
 7.9062529032e-01	 1.4314719236e+00	-1.9615267548e+00
 7.7692130410e-01	 1.4389556706e+00	-1.9368546141e+00
 7.6316573510e-01	 1.4462980697e+00	-1.9093569310e+00
 7.4936071612e-01	 1.4534987001e+00	-1.8786302248e+00
 7.3550838141e-01	 1.4605571831e+00	-1.8445320952e+00
 7.2161086572e-01	 1.4674731817e+00	-1.8087893700e+00
 7.0767030326e-01	 1.4742464004e+00	-1.7719594640e+00
 8.5096079408e-01	 1.4102056404e+00	-2.0341165664e+00
 8.3738745548e-01	 1.4183076028e+00	-2.0146649557e+00
 8.2375360563e-01	 1.4262693172e+00	-1.9943100663e+00
 8.1006137654e-01	 1.4340901911e+00	-1.9723271656e+00
 7.9631290582e-01	 1.4417696740e+00	-1.9480627978e+00
 7.8251033560e-01	 1.4493072578e+00	-1.9209392513e+00
 7.6865581152e-01	 1.4567024767e+00	-1.8904582289e+00
 7.5475148172e-01	 1.4639549071e+00	-1.8562037197e+00
 7.4079949582e-01	 1.4710641676e+00	-1.8178440764e+00
 7.2680200391e-01	 1.4780299187e+00	-1.7765346055e+00
 7.1276115557e-01	 1.4848518626e+00	-1.7345698634e+00
 8.5703872873e-01	 1.4202779466e+00	-2.0252574961e+00
 8.4336844340e-01	 1.4284377768e+00	-2.0048616674e+00
 8.2963721462e-01	 1.4364563573e+00	-1.9829966406e+00
 8.1584718964e-01	 1.4443330913e+00	-1.9589171015e+00
 8.0200052132e-01	 1.4520674244e+00	-1.9319526592e+00
 7.8809936710e-01	 1.4596588449e+00	-1.9015124761e+00
 7.7414588794e-01	 1.4671068837e+00	-1.8670890608e+00
 7.6014224733e-01	 1.4744111142e+00	-1.8282612269e+00
 7.4609061024e-01	 1.4815711521e+00	-1.7846967396e+00
 7.3199314211e-01	 1.4885866556e+00	-1.7405401682e+00
 7.1785200787e-01	 1.4954573249e+00	-1.7016167351e+00
 8.6311666338e-01	 1.4303502529e+00	-2.0163196314e+00
 8.4934943132e-01	 1.4385679508e+00	-1.9944816654e+00
 8.3552082361e-01	 1.4466433974e+00	-1.9704926640e+00
 8.2163300273e-01	 1.4545759915e+00	-1.9435922753e+00
 8.0768813682e-01	 1.4623651748e+00	-1.9130991552e+00
 7.9368839859e-01	 1.4700104320e+00	-1.8784157508e+00
 7.7963596436e-01	 1.4775112907e+00	-1.8390322096e+00
 7.6553301294e-01	 1.4848673212e+00	-1.7953429752e+00
 7.5138172465e-01	 1.4920781366e+00	-1.7527933784e+00
 7.3718428030e-01	 1.4991433926e+00	-1.7124781267e+00
 7.2294286018e-01	 1.5060627871e+00	-1.6765269915e+00
 8.6919459803e-01	 1.4404225591e+00	-2.0074790998e+00
 8.5533041925e-01	 1.4486981248e+00	-1.9836300456e+00
 8.4140443261e-01	 1.4568304374e+00	-1.9568352372e+00
 8.2741881583e-01	 1.4648188916e+00	-1.9263246908e+00
 8.1337575232e-01	 1.4726629252e+00	-1.8914119594e+00
 7.9927743009e-01	 1.4803620191e+00	-1.8514990638e+00
 7.8512604078e-01	 1.4879156977e+00	-1.8089133463e+00
 7.7092377854e-01	 1.4953235283e+00	-1.7682724733e+00
 7.5667283906e-01	 1.5025851211e+00	-1.7295382445e+00
 7.4237541850e-01	 1.5097001295e+00	-1.6925895440e+00
 7.2803371249e-01	 1.5166682494e+00	-1.6586270039e+00
 8.7527253268e-01	 1.4504948654e+00	-1.9989109623e+00
 8.6131140717e-01	 1.4588282988e+00	-1.9724130667e+00
 8.4728804160e-01	 1.4670174775e+00	-1.9420646951e+00
 8.3320462893e-01	 1.4750617918e+00	-1.9070915025e+00
 8.1906336781e-01	 1.4829606756e+00	-1.8669456535e+00
 8.0486646159e-01	 1.4907136063e+00	-1.8262215481e+00
 7.9061611720e-01	 1.4983201047e+00	-1.7872991567e+00
 7.7631454415e-01	 1.5057797353e+00	-1.7500344463e+00
 7.6196395347e-01	 1.5130921056e+00	-1.7142858040e+00
 7.4756655669e-01	 1.5202568665e+00	-1.6799119757e+00
 7.3312456479e-01	 1.5272737116e+00	-1.6472564413e+00
 8.8135046733e-01	 1.4605671716e+00	-1.9907895006e+00
 8.6729239509e-01	 1.4689584728e+00	-1.9609383793e+00
 8.5317165060e-01	 1.4772045176e+00	-1.9262247807e+00
 8.3899044203e-01	 1.4853046920e+00	-1.8867587772e+00
 8.2475098331e-01	 1.4932584260e+00	-1.8479313070e+00
 8.1045549309e-01	 1.5010651934e+00	-1.8106427989e+00
 7.9610619362e-01	 1.5087245117e+00	-1.7747313471e+00
 7.8170530976e-01	 1.5162359424e+00	-1.7400391223e+00
 7.6725506789e-01	 1.5235990901e+00	-1.7064100959e+00
 7.5275769489e-01	 1.5308136034e+00	-1.6736879537e+00
 7.3821541710e-01	 1.5378791739e+00	-1.6417679337e+00
 6.8730689403e-01	 1.4318245513e+00	-1.8432186666e+00
 6.7372542642e-01	 1.4382650331e+00	-1.8164511268e+00
 6.6010627789e-01	 1.4445663411e+00	-1.7869946770e+00
 6.4645151446e-01	 1.4507283070e+00	-1.7549015196e+00
 6.3276319791e-01	 1.4567508019e+00	-1.7202240998e+00
 6.1904338493e-01	 1.4626337361e+00	-1.6830145176e+00
 6.0529412616e-01	 1.4683770588e+00	-1.6433238462e+00
 5.9151746534e-01	 1.4739807578e+00	-1.6012013589e+00
 5.7771543845e-01	 1.4794448590e+00	-1.5566936657e+00
 5.6389007285e-01	 1.4847694262e+00	-1.5108333661e+00
 5.5004338642e-01	 1.4899545608e+00	-1.4673335431e+00
 6.9239774634e-01	 1.4424300136e+00	-1.8369210404e+00
 6.7871568139e-01	 1.4489181997e+00	-1.8087186338e+00
 6.6499565642e-01	 1.4552661812e+00	-1.7771922726e+00
 6.5123975274e-01	 1.4614737885e+00	-1.7423855965e+00
 6.3745004743e-01	 1.4675408918e+00	-1.7043408368e+00
 6.2362861239e-01	 1.4734674007e+00	-1.6630982957e+00
 6.0977751346e-01	 1.4792532639e+00	-1.6186957285e+00
 5.9589880951e-01	 1.4848984693e+00	-1.5722102347e+00
 5.8199455161e-01	 1.4904030428e+00	-1.5277466383e+00
 5.6806678212e-01	 1.4957670489e+00	-1.4855141055e+00
 5.5411753389e-01	 1.5009905895e+00	-1.4452361429e+00
 6.9748859865e-01	 1.4530354758e+00	-1.8232025546e+00
 6.8370593636e-01	 1.4595713663e+00	-1.7923190614e+00
 6.6988503494e-01	 1.4659660213e+00	-1.7574163262e+00
 6.5602799103e-01	 1.4722192701e+00	-1.7185396245e+00
 6.4213689695e-01	 1.4783309817e+00	-1.6757320421e+00
 6.2821383985e-01	 1.4843010652e+00	-1.6297220081e+00
 6.1426090076e-01	 1.4901294690e+00	-1.5850627637e+00
 6.0028015368e-01	 1.4958161807e+00	-1.5424302926e+00
 5.8627366476e-01	 1.5013612266e+00	-1.5015962040e+00
 5.7224349139e-01	 1.5067646715e+00	-1.4622839408e+00
 5.5819168136e-01	 1.5120266182e+00	-1.4241723708e+00
 7.0257945095e-01	 1.4636409381e+00	-1.8016748141e+00
 6.8869619132e-01	 1.4702245329e+00	-1.7668257660e+00
 6.7477441346e-01	 1.4766658615e+00	-1.7272203924e+00
 6.6081622931e-01	 1.4829647516e+00	-1.6830984017e+00
 6.4682374647e-01	 1.4891210716e+00	-1.6389286118e+00
 6.3279906731e-01	 1.4951347298e+00	-1.5965310670e+00
 6.1874428805e-01	 1.5010056741e+00	-1.5557540170e+00
 6.0466149785e-01	 1.5067338922e+00	-1.5163897790e+00
 5.9055277792e-01	 1.5123194104e+00	-1.4781788056e+00
 5.7642020067e-01	 1.5177622942e+00	-1.4408135701e+00
 5.6226582883e-01	 1.5230626469e+00	-1.4039422673e+00
 7.0767030326e-01	 1.4742464004e+00	-1.7719594640e+00
 6.9368644629e-01	 1.4808776996e+00	-1.7318236708e+00
 6.7966379199e-01	 1.4873657016e+00	-1.6889967155e+00
 6.6560446759e-01	 1.4937102332e+00	-1.6475236638e+00
 6.5151059599e-01	 1.4999111615e+00	-1.6073856376e+00
 6.3738429477e-01	 1.5059683943e+00	-1.5684698963e+00
 6.2322767535e-01	 1.5118818792e+00	-1.5306041438e+00
 6.0904284202e-01	 1.5176516036e+00	-1.4935608872e+00
 5.9483189108e-01	 1.5232775942e+00	-1.4570616092e+00
 5.8059690994e-01	 1.5287599168e+00	-1.4207807470e+00
 5.6633997629e-01	 1.5340986756e+00	-1.3843494751e+00
 7.1276115557e-01	 1.4848518626e+00	-1.7345698634e+00
 6.9867670125e-01	 1.4915308662e+00	-1.6949469688e+00
 6.8455317051e-01	 1.4980655418e+00	-1.6561942903e+00
 6.7039270588e-01	 1.5044557147e+00	-1.6183178171e+00
 6.5619744550e-01	 1.5107012515e+00	-1.5812559408e+00
 6.4196952223e-01	 1.5168020589e+00	-1.5448842854e+00
 6.2771106265e-01	 1.5227580843e+00	-1.5090203521e+00
 6.1342418619e-01	 1.5285693151e+00	-1.4734279702e+00
 5.9911100423e-01	 1.5342357780e+00	-1.4378215495e+00
 5.8477361921e-01	 1.5397575395e+00	-1.4018701273e+00
 5.7041412376e-01	 1.5451347043e+00	-1.3652012077e+00
 7.1785200787e-01	 1.4954573249e+00	-1.7016167351e+00
 7.0366695622e-01	 1.5021840328e+00	-1.6656155212e+00
 6.8944254904e-01	 1.5087653819e+00	-1.6299996150e+00
 6.7518094416e-01	 1.5152011963e+00	-1.5947684247e+00
 6.6088429502e-01	 1.5214913414e+00	-1.5598558209e+00
 6.4655474969e-01	 1.5276357234e+00	-1.5251350628e+00
 6.3219444994e-01	 1.5336342894e+00	-1.4904235245e+00
 6.1780553036e-01	 1.5394870265e+00	-1.4554872157e+00
 6.0339011739e-01	 1.5451939619e+00	-1.4200450886e+00
 5.8895032849e-01	 1.5507551621e+00	-1.3837731291e+00
 5.7448827123e-01	 1.5561707330e+00	-1.3463082260e+00
 7.2294286018e-01	 1.5060627871e+00	-1.6765269915e+00
 7.0865721118e-01	 1.5128371994e+00	-1.6431527308e+00
 6.9433192756e-01	 1.5194652221e+00	-1.6097033032e+00
 6.7996918245e-01	 1.5259466779e+00	-1.5761788927e+00
 6.6557114454e-01	 1.5322814313e+00	-1.5425170472e+00
 6.5113997715e-01	 1.5384693880e+00	-1.5085976785e+00
 6.3667783724e-01	 1.5445104945e+00	-1.4742478500e+00
 6.2218687453e-01	 1.5504047379e+00	-1.4392463424e+00
 6.0766923054e-01	 1.5561521457e+00	-1.4033279934e+00
 5.9312703776e-01	 1.5617527848e+00	-1.3661878061e+00
 5.7856241870e-01	 1.5672067617e+00	-1.3274848231e+00
 7.2803371249e-01	 1.5166682494e+00	-1.6586270039e+00
 7.1364746615e-01	 1.5234903661e+00	-1.6268669514e+00
 6.9922130608e-01	 1.5301650622e+00	-1.5946112656e+00
 6.8475742073e-01	 1.5366921594e+00	-1.5618680325e+00
 6.7025799406e-01	 1.5430715212e+00	-1.5285864358e+00
 6.5572520461e-01	 1.5493030525e+00	-1.4946618123e+00
 6.4116122454e-01	 1.5553866996e+00	-1.4599404780e+00
 6.2656821870e-01	 1.5613224494e+00	-1.4242243169e+00
 6.1194834370e-01	 1.5671103295e+00	-1.3872751291e+00
 5.9730374704e-01	 1.5727504074e+00	-1.3488187324e+00
 5.8263656617e-01	 1.5782427904e+00	-1.3085488155e+00
 7.3312456479e-01	 1.5272737116e+00	-1.6472564413e+00
 7.1863772112e-01	 1.5341435327e+00	-1.6160808608e+00
 7.0411068461e-01	 1.5408649023e+00	-1.5840443010e+00
 6.8954565902e-01	 1.5474376410e+00	-1.5511696494e+00
 6.7494484358e-01	 1.5538616111e+00	-1.5174254528e+00
 6.6031043207e-01	 1.5601367171e+00	-1.4827310059e+00
 6.4564461184e-01	 1.5662629047e+00	-1.4469611951e+00
 6.3094956287e-01	 1.5722401608e+00	-1.4099510884e+00
 6.1622745686e-01	 1.5780685133e+00	-1.3715002678e+00
 6.0148045631e-01	 1.5837480300e+00	-1.3313769000e+00
 5.8671071364e-01	 1.5892788191e+00	-1.2893215430e+00
 7.3821541710e-01	 1.5378791739e+00	-1.6417679337e+00
 7.2362797608e-01	 1.5447966993e+00	-1.6101310927e+00
 7.0900006314e-01	 1.5515647425e+00	-1.5773377103e+00
 6.9433389730e-01	 1.5581831225e+00	-1.5434321565e+00
 6.7963169310e-01	 1.5646517010e+00	-1.5084098412e+00
 6.6489565953e-01	 1.5709703816e+00	-1.4722223178e+00
 6.5012799914e-01	 1.5771391098e+00	-1.4347821226e+00
 6.3533090704e-01	 1.5831578723e+00	-1.3959673435e+00
 6.2050657002e-01	 1.5890266971e+00	-1.3556259138e+00
 6.0565716559e-01	 1.5947456527e+00	-1.3135796273e+00
 5.9078486111e-01	 1.6003148479e+00	-1.2696278734e+00
 5.5004338642e-01	 1.4899545608e+00	-1.4673335431e+00
 5.3617974518e-01	 1.4949995548e+00	-1.4258976726e+00
 5.2229879220e-01	 1.4999054756e+00	-1.3859392526e+00
 5.0840251054e-01	 1.5046725330e+00	-1.3473503520e+00
 4.9449287068e-01	 1.5093009726e+00	-1.3100040029e+00
 4.8057182973e-01	 1.5137910751e+00	-1.2737561602e+00
 4.6664133073e-01	 1.5181431559e+00	-1.2384474932e+00
 4.5270330195e-01	 1.5223575646e+00	-1.2039050120e+00
 4.3875965614e-01	 1.5264346842e+00	-1.1699435338e+00
 4.2481228994e-01	 1.5303749309e+00	-1.1363669927e+00
 4.1086308315e-01	 1.5341787533e+00	-1.1029695992e+00
 5.5411753389e-01	 1.5009905895e+00	-1.4452361429e+00
 5.4015120526e-01	 1.5060729516e+00	-1.4063770522e+00
 5.2616743666e-01	 1.5110152103e+00	-1.3685401708e+00
 5.1216822585e-01	 1.5158175771e+00	-1.3316339594e+00
 4.9815555789e-01	 1.5204802993e+00	-1.2955517567e+00
 4.8413140439e-01	 1.5250036598e+00	-1.2601736780e+00
 4.7009772280e-01	 1.5293879763e+00	-1.2253683357e+00
 4.5605645564e-01	 1.5336336009e+00	-1.1909943855e+00
 4.4200952985e-01	 1.5377409196e+00	-1.1569019018e+00
 4.2795885612e-01	 1.5417103515e+00	-1.1229335894e+00
 4.1390632816e-01	 1.5455423487e+00	-1.0889258352e+00
 5.5819168136e-01	 1.5120266182e+00	-1.4241723708e+00
 5.4412266534e-01	 1.5171463483e+00	-1.3869277451e+00
 5.3003608112e-01	 1.5221249450e+00	-1.3503911369e+00
 5.1593394116e-01	 1.5269626212e+00	-1.3144814022e+00
 5.0181824510e-01	 1.5316596261e+00	-1.2791055879e+00
 4.8769097906e-01	 1.5362162446e+00	-1.2441607880e+00
 4.7355411486e-01	 1.5406327967e+00	-1.2095358123e+00
 4.5940960933e-01	 1.5449096373e+00	-1.1751126697e+00
 4.4525940357e-01	 1.5490471550e+00	-1.1407678732e+00
 4.3110542230e-01	 1.5530457721e+00	-1.1063735713e+00
 4.1694957317e-01	 1.5569059440e+00	-1.0717985122e+00
 5.6226582883e-01	 1.5230626469e+00	-1.4039422673e+00
 5.4809412542e-01	 1.5282197451e+00	-1.3674787981e+00
 5.3390472559e-01	 1.5332346797e+00	-1.3315341332e+00
 5.1969965647e-01	 1.5381076652e+00	-1.2960317155e+00
 5.0548093232e-01	 1.5428389528e+00	-1.2608859009e+00
 4.9125055373e-01	 1.5474288293e+00	-1.2260037911e+00
 4.7701050693e-01	 1.5518776172e+00	-1.1912868674e+00
 4.6276276302e-01	 1.5561856736e+00	-1.1566324309e+00
 4.4850927728e-01	 1.5603533904e+00	-1.1219348548e+00
 4.3425198847e-01	 1.5643811928e+00	-1.0870866547e+00
 4.1999281818e-01	 1.5682695394e+00	-1.0519793842e+00
 5.6633997629e-01	 1.5340986756e+00	-1.3843494751e+00
 5.5206558550e-01	 1.5392931419e+00	-1.3479593891e+00
 5.3777337005e-01	 1.5443444144e+00	-1.3120082382e+00
 5.2346537178e-01	 1.5492527093e+00	-1.2764184264e+00
 5.0914361953e-01	 1.5540182795e+00	-1.2411054143e+00
 4.9481012840e-01	 1.5586414140e+00	-1.2059795448e+00
 4.8046689900e-01	 1.5631224376e+00	-1.1709476606e+00
 4.6611591672e-01	 1.5674617100e+00	-1.1359145190e+00
 4.5175915100e-01	 1.5716596258e+00	-1.1007840097e+00
 4.3739855465e-01	 1.5757166134e+00	-1.0654601827e+00
 4.2303606319e-01	 1.5796331348e+00	-1.0298480936e+00
 5.7041412376e-01	 1.5451347043e+00	-1.3652012077e+00
 5.5603704558e-01	 1.5503665386e+00	-1.3282989182e+00
 5.4164201452e-01	 1.5554541491e+00	-1.2918498229e+00
 5.2723108709e-01	 1.5603977534e+00	-1.2557698407e+00
 5.1280630674e-01	 1.5651976063e+00	-1.2199695218e+00
 4.9836970307e-01	 1.5698539988e+00	-1.1843558839e+00
 4.8392329107e-01	 1.5743672580e+00	-1.1488340311e+00
 4.6946907041e-01	 1.5787377463e+00	-1.1133085607e+00
 4.5500902471e-01	 1.5829658612e+00	-1.0776847643e+00
 4.4054512083e-01	 1.5870520341e+00	-1.0418696317e+00
 4.2607930820e-01	 1.5909967302e+00	-1.0057726639e+00
 5.7448827123e-01	 1.5561707330e+00	-1.3463082260e+00
 5.6000850566e-01	 1.5614399354e+00	-1.3084271005e+00
 5.4551065899e-01	 1.5665638838e+00	-1.2710927457e+00
 5.3099680241e-01	 1.5715427975e+00	-1.2342093236e+00
 5.1646899396e-01	 1.5763769330e+00	-1.1976766439e+00
 5.0192927773e-01	 1.5810665835e+00	-1.1613920283e+00
 4.8737968313e-01	 1.5856120784e+00	-1.1252519472e+00
 4.7282222411e-01	 1.5900137827e+00	-1.0891534361e+00
 4.5825889843e-01	 1.5942720966e+00	-1.0529952984e+00
 4.4369168701e-01	 1.5983874547e+00	-1.0166791014e+00
 4.2912255322e-01	 1.6023603256e+00	-9.8010997568e-01
 5.7856241870e-01	 1.5672067617e+00	-1.3274848231e+00
 5.6397996574e-01	 1.5725133321e+00	-1.2882740623e+00
 5.4937930345e-01	 1.5776736185e+00	-1.2497685449e+00
 5.3476251772e-01	 1.5826878416e+00	-1.2118555743e+00
 5.2013168117e-01	 1.5875562598e+00	-1.1744185706e+00
 5.0548885240e-01	 1.5922791682e+00	-1.1373389792e+00
 4.9083607520e-01	 1.5968568988e+00	-1.1004979421e+00
 4.7617537780e-01	 1.6012898190e+00	-1.0637777416e+00
 4.6150877214e-01	 1.6055783320e+00	-1.0270630204e+00
 4.4683825319e-01	 1.6097228753e+00	-9.9024178860e-01
 4.3216579823e-01	 1.6137239210e+00	-9.5320622643e-01
 5.8263656617e-01	 1.5782427904e+00	-1.3085488155e+00
 5.6795142582e-01	 1.5835867289e+00	-1.2677704394e+00
 5.5324794792e-01	 1.5887833532e+00	-1.2279066296e+00
 5.3852823303e-01	 1.5938328857e+00	-1.1888228958e+00
 5.2379436838e-01	 1.5987355865e+00	-1.1503807958e+00
 5.0904842707e-01	 1.6034917530e+00	-1.1124399047e+00
 4.9429246727e-01	 1.6081017192e+00	-1.0748595378e+00
 4.7952853149e-01	 1.6125658554e+00	-1.0375002371e+00
 4.6475864586e-01	 1.6168845674e+00	-1.0002250264e+00
 4.4998481937e-01	 1.6210582960e+00	-9.6290044615e-01
 4.3520904324e-01	 1.6250875163e+00	-9.2539737606e-01
 5.8671071364e-01	 1.5892788191e+00	-1.2893215430e+00
 5.7192288591e-01	 1.5946601257e+00	-1.2468474784e+00
 5.5711659239e-01	 1.5998930879e+00	-1.2055344691e+00
 5.4229394834e-01	 1.6049779298e+00	-1.1652214586e+00
 5.2745705560e-01	 1.6099149132e+00	-1.1257428427e+00
 5.1260800174e-01	 1.6147043377e+00	-1.0869305144e+00
 4.9774885934e-01	 1.6193465396e+00	-1.0486156552e+00
 4.8288168519e-01	 1.6238418918e+00	-1.0106302802e+00
 4.6800851958e-01	 1.6281908028e+00	-9.7280854560e-01
 4.5313138555e-01	 1.6323937166e+00	-9.3498782671e-01
 4.3825228825e-01	 1.6364511117e+00	-8.9700957781e-01
 5.9078486111e-01	 1.6003148479e+00	-1.2696278734e+00
 5.7589434599e-01	 1.6057335224e+00	-1.2254371390e+00
 5.6098523685e-01	 1.6110028226e+00	-1.1826777801e+00
 5.4605966365e-01	 1.6161229739e+00	-1.1411575606e+00
 5.3111974281e-01	 1.6210942400e+00	-1.1006785828e+00
 5.1616757641e-01	 1.6259169225e+00	-1.0610394245e+00
 5.0120525140e-01	 1.6305913600e+00	-1.0220370134e+00
 4.8623483888e-01	 1.6351179281e+00	-9.8346824808e-01
 4.7125839329e-01	 1.6394970382e+00	-9.4513137211e-01
 4.5627795173e-01	 1.6437291372e+00	-9.0682711320e-01
 4.4129553326e-01	 1.6478147071e+00	-8.6835959577e-01
 4.1086308315e-01	 1.5341787533e+00	-1.1029695992e+00
 3.9691389835e-01	 1.5378466322e+00	-1.0700551486e+00
 3.8296658079e-01	 1.5413790812e+00	-1.0382369365e+00
 3.6902295723e-01	 1.5447766448e+00	-1.0077563695e+00
 3.5508483519e-01	 1.5480398974e+00	-9.7839802858e-01
 3.4115400233e-01	 1.5511694430e+00	-9.4993636121e-01
 3.2723222602e-01	 1.5541659145e+00	-9.2237057554e-01
 3.1332125275e-01	 1.5570299726e+00	-8.9566461813e-01
 2.9942280771e-01	 1.5597623059e+00	-8.6975137708e-01
 2.8553859427e-01	 1.5623636295e+00	-8.4453650846e-01
 2.7167029359e-01	 1.5648346848e+00	-8.1990191086e-01
 4.1390632816e-01	 1.5455423487e+00	-1.0889258352e+00
 3.9985382235e-01	 1.5492373954e+00	-1.0552445921e+00
 3.8580319762e-01	 1.5527960091e+00	-1.0225428701e+00
 3.7175629425e-01	 1.5562187383e+00	-9.9107760209e-01
 3.5771493314e-01	 1.5595061616e+00	-9.6079825437e-01
 3.4368091521e-01	 1.5626588877e+00	-9.3137923772e-01
 3.2965602090e-01	 1.5656775539e+00	-9.0280570471e-01
 3.1564200966e-01	 1.5685628260e+00	-8.7503237668e-01
 3.0164061944e-01	 1.5713153976e+00	-8.4798456220e-01
 2.8765356623e-01	 1.5739359891e+00	-8.2156187791e-01
 2.7368254365e-01	 1.5764253474e+00	-7.9564160330e-01
 4.1694957317e-01	 1.5569059440e+00	-1.0717985122e+00
 4.0279374636e-01	 1.5606281587e+00	-1.0374423788e+00
 3.8863981445e-01	 1.5642129370e+00	-1.0039743053e+00
 3.7448963126e-01	 1.5676608318e+00	-9.7166039381e-01
 3.6034503109e-01	 1.5709724259e+00	-9.4058366623e-01
 3.4620782808e-01	 1.5741483324e+00	-9.1037973667e-01
 3.3207981579e-01	 1.5771891933e+00	-8.8099742015e-01
 3.1796276657e-01	 1.5800956794e+00	-8.5237971209e-01
 3.0385843117e-01	 1.5828684892e+00	-8.2444194263e-01
 2.8976853820e-01	 1.5855083486e+00	-7.9707538381e-01
 2.7569479372e-01	 1.5880160099e+00	-7.7015047621e-01
 4.1999281818e-01	 1.5682695394e+00	-1.0519793842e+00
 4.0573367036e-01	 1.5720189219e+00	-1.0170240906e+00
 3.9147643128e-01	 1.5756298649e+00	-9.8288838233e-01
 3.7722296828e-01	 1.5791029253e+00	-9.4984470101e-01
 3.6297512904e-01	 1.5824386902e+00	-9.1807097224e-01
 3.4873474096e-01	 1.5856377771e+00	-8.8722573667e-01
 3.3450361067e-01	 1.5887008327e+00	-8.5720241989e-01
 3.2028352348e-01	 1.5916285327e+00	-8.2792994590e-01
 3.0607624290e-01	 1.5944215808e+00	-7.9931142894e-01
 2.9188351016e-01	 1.5970807081e+00	-7.7122765853e-01
 2.7770704378e-01	 1.5996066724e+00	-7.4354018885e-01
 4.2303606319e-01	 1.5796331348e+00	-1.0298480936e+00
 4.0867359437e-01	 1.5834096851e+00	-9.9435367847e-01
 3.9431304811e-01	 1.5870467928e+00	-9.5963114074e-01
 3.7995630530e-01	 1.5905450188e+00	-9.2595651279e-01
 3.6560522699e-01	 1.5939049545e+00	-8.9356793388e-01
 3.5126165384e-01	 1.5971272217e+00	-8.6219712572e-01
 3.3692740555e-01	 1.6002124721e+00	-8.3167036399e-01
 3.2260428039e-01	 1.6031613861e+00	-8.0190031179e-01
 3.0829405463e-01	 1.6059746725e+00	-7.7277579266e-01
 2.9399848213e-01	 1.6086530677e+00	-7.4416514420e-01
 2.7971929384e-01	 1.6111973350e+00	-7.1591916044e-01
 4.2607930820e-01	 1.5909967302e+00	-1.0057726639e+00
 4.1161351837e-01	 1.5948004483e+00	-9.6978393285e-01
 3.9714966493e-01	 1.5984637207e+00	-9.3453796451e-01
 3.8268964231e-01	 1.6019871123e+00	-9.0031171434e-01
 3.6823532494e-01	 1.6053712187e+00	-8.6737362109e-01
 3.5378856671e-01	 1.6086166664e+00	-8.3556604143e-01
 3.3935120044e-01	 1.6117241115e+00	-8.0464409711e-01
 3.2492503730e-01	 1.6146942395e+00	-7.7450215819e-01
 3.1051186636e-01	 1.6175277641e+00	-7.4501284660e-01
 2.9611345409e-01	 1.6202254272e+00	-7.1603024848e-01
 2.8173154391e-01	 1.6227879975e+00	-6.8739269926e-01
 4.2912255322e-01	 1.6023603256e+00	-9.8010997568e-01
 4.1455344238e-01	 1.6061912115e+00	-9.4365693769e-01
 3.9998628176e-01	 1.6098806486e+00	-9.0793401306e-01
 3.8542297933e-01	 1.6134292058e+00	-8.7321649240e-01
 3.7086542289e-01	 1.6168374830e+00	-8.3977891503e-01
 3.5631547959e-01	 1.6201061111e+00	-8.0759709893e-01
 3.4177499532e-01	 1.6232357510e+00	-7.7635986007e-01
 3.2724579421e-01	 1.6262270929e+00	-7.4594114102e-01
 3.1272967809e-01	 1.6290808558e+00	-7.1619561642e-01
 2.9822842605e-01	 1.6317977867e+00	-6.8696149290e-01
 2.8374379397e-01	 1.6343786600e+00	-6.5806312575e-01
 4.3216579823e-01	 1.6137239210e+00	-9.5320622643e-01
 4.1749336638e-01	 1.6175819747e+00	-9.1630450957e-01
 4.0282289859e-01	 1.6212975765e+00	-8.8013463753e-01
 3.8815631634e-01	 1.6248712993e+00	-8.4496772730e-01
 3.7349552084e-01	 1.6283037473e+00	-8.1107557272e-01
 3.5884239247e-01	 1.6315955558e+00	-7.7854760733e-01
 3.4419879021e-01	 1.6347473904e+00	-7.4704749084e-01
 3.2956655111e-01	 1.6377599462e+00	-7.1641740691e-01
 3.1494748982e-01	 1.6406339474e+00	-6.8649250402e-01
 3.0034339802e-01	 1.6433701463e+00	-6.5709365426e-01
 2.8575604403e-01	 1.6459693226e+00	-6.2802988979e-01
 4.3520904324e-01	 1.6250875163e+00	-9.2539737606e-01
 4.2043329039e-01	 1.6289727379e+00	-8.8804862253e-01
 4.0565951542e-01	 1.6327145044e+00	-8.5144578362e-01
 3.9088965336e-01	 1.6363133928e+00	-8.1585337220e-01
 3.7612561879e-01	 1.6397700116e+00	-7.8153801627e-01
 3.6136930534e-01	 1.6430850005e+00	-7.4866777509e-01
 3.4662258509e-01	 1.6462590298e+00	-7.1693061550e-01
 3.3188730802e-01	 1.6492927996e+00	-6.8612576756e-01
 3.1716530155e-01	 1.6521870391e+00	-6.5606744304e-01
 3.0245836998e-01	 1.6549425058e+00	-6.2655789912e-01
 2.8776829410e-01	 1.6575599851e+00	-5.9738968248e-01
 4.3825228825e-01	 1.6364511117e+00	-8.9700957781e-01
 4.2337321439e-01	 1.6403635011e+00	-8.5920181936e-01
 4.0849613225e-01	 1.6441314323e+00	-8.2216438155e-01
 3.9362299037e-01	 1.6477554863e+00	-7.8615282016e-01
 3.7875571674e-01	 1.6512362758e+00	-7.5142625619e-01
 3.6389621822e-01	 1.6545744452e+00	-7.1820090494e-01
 3.4904637997e-01	 1.6577706692e+00	-6.8622682968e-01
 3.3420806493e-01	 1.6608256530e+00	-6.5525586549e-01
 3.1938311328e-01	 1.6637401307e+00	-6.2508004679e-01
 3.0457334195e-01	 1.6665148653e+00	-5.9548191215e-01
 2.8978054416e-01	 1.6691506476e+00	-5.6623654269e-01
 4.4129553326e-01	 1.6478147071e+00	-8.6835959577e-01
 4.2631313840e-01	 1.6517542643e+00	-8.3006760990e-01
 4.1133274908e-01	 1.6555483602e+00	-7.9257872360e-01
 3.9635632739e-01	 1.6591975798e+00	-7.5613725969e-01
 3.8138581469e-01	 1.6627025401e+00	-7.2099256939e-01
 3.6642313110e-01	 1.6660638898e+00	-6.8738357890e-01
 3.5147017486e-01	 1.6692823086e+00	-6.5514787099e-01
 3.3652882184e-01	 1.6723585063e+00	-6.2399233165e-01
 3.2160092501e-01	 1.6752932224e+00	-5.9368574918e-01
 3.0668831391e-01	 1.6780872249e+00	-5.6399001821e-01
 2.9179279422e-01	 1.6807413102e+00	-5.3466195871e-01
 2.7167029359e-01	 1.5648346848e+00	-8.1990191086e-01
 2.5781721160e-01	 1.5671766256e+00	-7.9616410671e-01
 2.4398334675e-01	 1.5693898117e+00	-7.7373569949e-01
 2.3017031544e-01	 1.5714750582e+00	-7.5260509287e-01
 2.1637971019e-01	 1.5734332035e+00	-7.3274995650e-01
 2.0261309931e-01	 1.5752651088e+00	-7.1413909196e-01
 1.8887202660e-01	 1.5769716574e+00	-6.9673410296e-01
 1.7515801104e-01	 1.5785537539e+00	-6.8049089500e-01
 1.6147254650e-01	 1.5800123236e+00	-6.6536102844e-01
 1.4781710155e-01	 1.5813483118e+00	-6.5129294848e-01
 1.3419311918e-01	 1.5825626828e+00	-6.3823311426e-01
 2.7368254365e-01	 1.5764253474e+00	-7.9564160330e-01
 2.5972685249e-01	 1.5787846348e+00	-7.7058762590e-01
 2.4579052080e-01	 1.5810142139e+00	-7.4687022540e-01
 2.3187517697e-01	 1.5831149057e+00	-7.2448887437e-01
 2.1798242530e-01	 1.5850875549e+00	-7.0343206859e-01
 2.0411384574e-01	 1.5869330290e+00	-6.8367903608e-01
 1.9027099350e-01	 1.5886522180e+00	-6.6520124828e-01
 1.7645539882e-01	 1.5902460330e+00	-6.4796375993e-01
 1.6266856664e-01	 1.5917154063e+00	-6.3192640341e-01
 1.4891197640e-01	 1.5930612900e+00	-6.1704486221e-01
 1.3518708178e-01	 1.5942846558e+00	-6.0327164729e-01
 2.7569479372e-01	 1.5880160099e+00	-7.7015047621e-01
 2.6163649337e-01	 1.5903926440e+00	-7.4406629065e-01
 2.4759769485e-01	 1.5926386160e+00	-7.1933809088e-01
 2.3358003849e-01	 1.5947547532e+00	-6.9597379904e-01
 2.1958514042e-01	 1.5967419063e+00	-6.7397032137e-01
 2.0561459216e-01	 1.5986009493e+00	-6.5331508784e-01
 1.9166996040e-01	 1.6003327786e+00	-6.3398739160e-01
 1.7775278659e-01	 1.6019383121e+00	-6.1595955652e-01
 1.6386458678e-01	 1.6034184889e+00	-5.9919795998e-01
 1.5000685125e-01	 1.6047742683e+00	-5.8366393726e-01
 1.3618104439e-01	 1.6060066288e+00	-5.6931459255e-01
 2.7770704378e-01	 1.5996066724e+00	-7.4354018885e-01
 2.6354613426e-01	 1.6020006531e+00	-7.1667308308e-01
 2.4940486890e-01	 1.6042630182e+00	-6.9117591002e-01
 2.3528490002e-01	 1.6063946007e+00	-6.6706261176e-01
 2.2118785553e-01	 1.6083962577e+00	-6.4433627916e-01
 2.0711533859e-01	 1.6102688695e+00	-6.2299050912e-01
 1.9306892729e-01	 1.6120133391e+00	-6.0301055912e-01
 1.7905017437e-01	 1.6136305912e+00	-5.8437432904e-01
 1.6506060692e-01	 1.6151215716e+00	-5.6705319921e-01
 1.5110172611e-01	 1.6164872465e+00	-5.5101275247e-01
 1.3717500699e-01	 1.6177286019e+00	-5.3621340683e-01
 2.7971929384e-01	 1.6111973350e+00	-7.1591916044e-01
 2.6545577515e-01	 1.6136086623e+00	-6.8847864608e-01
 2.5121204295e-01	 1.6158874203e+00	-6.6241875820e-01
 2.3698976155e-01	 1.6180344482e+00	-6.3775722026e-01
 2.2279057064e-01	 1.6200506090e+00	-6.1450127347e-01
 2.0861608501e-01	 1.6219367897e+00	-5.9264883796e-01
 1.9446789419e-01	 1.6236938997e+00	-5.7218946854e-01
 1.8034756215e-01	 1.6253228703e+00	-5.5310513708e-01
 1.6625662705e-01	 1.6268246542e+00	-5.3537087184e-01
 1.5219660096e-01	 1.6282002248e+00	-5.1895528345e-01
 1.3816896960e-01	 1.6294505749e+00	-5.0382100563e-01
 2.8173154391e-01	 1.6227879975e+00	-6.8739269926e-01
 2.6736541603e-01	 1.6252166715e+00	-6.5955138577e-01
 2.5301921700e-01	 1.6275118225e+00	-6.3310024951e-01
 2.3869462308e-01	 1.6296742956e+00	-6.0805874962e-01
 2.2439328576e-01	 1.6317049604e+00	-5.8443643669e-01
 2.1011683144e-01	 1.6336047100e+00	-5.6223390352e-01
 1.9586686109e-01	 1.6353744602e+00	-5.4144352784e-01
 1.8164494993e-01	 1.6370151494e+00	-5.2205004053e-01
 1.6745264719e-01	 1.6385277369e+00	-5.0403095199e-01
 1.5329147581e-01	 1.6399132030e+00	-4.8735686760e-01
 1.3916293220e-01	 1.6411725480e+00	-4.7199172232e-01
 2.8374379397e-01	 1.6343786600e+00	-6.5806312575e-01
 2.6927505692e-01	 1.6368246807e+00	-6.2995756900e-01
 2.5482639105e-01	 1.6391362247e+00	-6.0325261065e-01
 2.4039948460e-01	 1.6413141431e+00	-5.7796759434e-01
 2.2599600087e-01	 1.6433593118e+00	-5.5411273426e-01
 2.1161757786e-01	 1.6452726302e+00	-5.3168984063e-01
 1.9726582798e-01	 1.6470550208e+00	-5.1069283416e-01
 1.8294233771e-01	 1.6487074285e+00	-4.9110808524e-01
 1.6864866733e-01	 1.6502308195e+00	-4.7291461207e-01
 1.5438635066e-01	 1.6516261813e+00	-4.5608417081e-01
 1.4015689481e-01	 1.6528945210e+00	-4.4058126928e-01
 2.8575604403e-01	 1.6459693226e+00	-6.2802988979e-01
 2.7118469781e-01	 1.6484326899e+00	-5.9976141653e-01
 2.5663356510e-01	 1.6507606268e+00	-5.7290675147e-01
 2.4210434613e-01	 1.6529539906e+00	-5.4748346804e-01
 2.2759871599e-01	 1.6550136632e+00	-5.2350099552e-01
 2.1311832429e-01	 1.6569405504e+00	-5.0096110358e-01
 1.9866479488e-01	 1.6587355814e+00	-4.7985817290e-01
 1.8423972549e-01	 1.6603997075e+00	-4.6017928947e-01
 1.6984468747e-01	 1.6619339022e+00	-4.4190419892e-01
 1.5548122551e-01	 1.6633391595e+00	-4.2500515577e-01
 1.4115085742e-01	 1.6646164941e+00	-4.0944670082e-01
 2.8776829410e-01	 1.6575599851e+00	-5.9738968248e-01
 2.7309433869e-01	 1.6600406991e+00	-5.6902519170e-01
 2.5844073916e-01	 1.6623850290e+00	-5.4209233220e-01
 2.4380920766e-01	 1.6645938381e+00	-5.1660545097e-01
 2.2920143110e-01	 1.6666680146e+00	-4.9257194316e-01
 2.1461907072e-01	 1.6686084707e+00	-4.6999247955e-01
 2.0006376178e-01	 1.6704161419e+00	-4.4886101691e-01
 1.8553711327e-01	 1.6720919866e+00	-4.2916463110e-01
 1.7104070761e-01	 1.6736369848e+00	-4.1088321119e-01
 1.5657610036e-01	 1.6750521378e+00	-3.9398905172e-01
 1.4214482002e-01	 1.6763384671e+00	-3.7844637787e-01
 2.8978054416e-01	 1.6691506476e+00	-5.6623654269e-01
 2.7500397958e-01	 1.6716487083e+00	-5.3780928517e-01
 2.6024791321e-01	 1.6740094312e+00	-5.1083782782e-01
 2.4551406919e-01	 1.6762336856e+00	-4.8533203542e-01
 2.3080414622e-01	 1.6783223660e+00	-4.6129622144e-01
 2.1611981714e-01	 1.6802763909e+00	-4.3872910138e-01
 2.0146272868e-01	 1.6820967025e+00	-4.1762352584e-01
 1.8683450105e-01	 1.6837842657e+00	-3.9796603542e-01
 1.7223672775e-01	 1.6853400675e+00	-3.7973627772e-01
 1.5767097522e-01	 1.6867651160e+00	-3.6290632574e-01
 1.4313878263e-01	 1.6880604402e+00	-3.4743993427e-01
 2.9179279422e-01	 1.6807413102e+00	-5.3466195871e-01
 2.7691362047e-01	 1.6832567175e+00	-5.0617229570e-01
 2.6205508726e-01	 1.6856338333e+00	-4.7917058928e-01
 2.4721893072e-01	 1.6878735331e+00	-4.5366116912e-01
 2.3240686133e-01	 1.6899767174e+00	-4.2964442329e-01
 2.1762056357e-01	 1.6919443111e+00	-4.0711645998e-01
 2.0286169558e-01	 1.6937772631e+00	-3.8606854560e-01
 1.8813188884e-01	 1.6954765448e+00	-3.6648636365e-01
 1.7343274789e-01	 1.6970431501e+00	-3.4834913708e-01
 1.5876585007e-01	 1.6984780943e+00	-3.3162865529e-01
 1.4413274524e-01	 1.6997824132e+00	-3.1628824473e-01
 1.3419311918e-01	 1.5825626828e+00	-6.3823311426e-01
 1.2060431862e-01	 1.5836562439e+00	-6.2631716169e-01
 1.0704974552e-01	 1.5846302121e+00	-6.1572111953e-01
 9.3530733374e-02	 1.5854856046e+00	-6.0645632081e-01
 8.0048590276e-02	 1.5862234551e+00	-5.9853312575e-01
 6.6604598741e-02	 1.5868448128e+00	-5.9196182842e-01
 5.3200015607e-02	 1.5873507425e+00	-5.8675357473e-01
 3.9836071934e-02	 1.5877423230e+00	-5.8292130516e-01
 2.6513972923e-02	 1.5880206470e+00	-5.8048073375e-01
 1.3234897845e-02	 1.5881868202e+00	-5.7945137364e-01
 0.0000000000e+00	 1.5882419608e+00	-5.7985761791e-01
 1.3518708178e-01	 1.5942846558e+00	-6.0327164729e-01
 1.2149762957e-01	 1.5953863169e+00	-5.9072382958e-01
 1.0784265833e-01	 1.5963674993e+00	-5.7955355956e-01
 9.4223511453e-02	 1.5972292276e+00	-5.6976861408e-01
 8.0641506707e-02	 1.5979725433e+00	-5.6137436772e-01
 6.7097936111e-02	 1.5985985034e+00	-5.5437458067e-01
 5.3594065812e-02	 1.5991081805e+00	-5.4877220770e-01
 4.0131135989e-02	 1.5995026614e+00	-5.4457024204e-01
 2.6710360769e-02	 1.5997830469e+00	-5.4177260657e-01
 1.3332928159e-02	 1.5999504510e+00	-5.4038510303e-01
 0.0000000000e+00	 1.6000060000e+00	-5.4041642852e-01
 1.3618104439e-01	 1.6060066288e+00	-5.6931459255e-01
 1.2239094052e-01	 1.6071163899e+00	-5.5625014083e-01
 1.0863557115e-01	 1.6081047864e+00	-5.4460190384e-01
 9.4916289533e-02	 1.6089728506e+00	-5.3437470495e-01
 8.1234423139e-02	 1.6097216315e+00	-5.2556956048e-01
 6.7591273481e-02	 1.6103521940e+00	-5.1818433700e-01
 5.3988116017e-02	 1.6108656185e+00	-5.1221443989e-01
 4.0426200044e-02	 1.6112629998e+00	-5.0765354775e-01
 2.6906748615e-02	 1.6115454469e+00	-5.0449440557e-01
 1.3430958472e-02	 1.6117140818e+00	-5.0272968813e-01
 0.0000000000e+00	 1.6117700392e+00	-5.0235294310e-01
 1.3717500699e-01	 1.6177286019e+00	-5.3621340683e-01
 1.2328425147e-01	 1.6188464629e+00	-5.2273999768e-01
 1.0942848396e-01	 1.6198420736e+00	-5.1070580273e-01
 9.5609067613e-02	 1.6207164736e+00	-5.0011342476e-01
 8.1827339570e-02	 1.6214707197e+00	-4.9096027508e-01
 6.8084610851e-02	 1.6221058846e+00	-4.8323908804e-01
 5.4382166222e-02	 1.6226230565e+00	-4.7693847760e-01
 4.0721264099e-02	 1.6230233383e+00	-4.7204355099e-01
 2.7103136461e-02	 1.6233078468e+00	-4.6853659351e-01
 1.3528988786e-02	 1.6234777125e+00	-4.6639783611e-01
 0.0000000000e+00	 1.6235340784e+00	-4.6560631602e-01
 1.3816896960e-01	 1.6294505749e+00	-5.0382100563e-01
 1.2417756242e-01	 1.6305765360e+00	-4.9003875185e-01
 1.1022139678e-01	 1.6315793607e+00	-4.7770629060e-01
 9.6301845693e-02	 1.6324600966e+00	-4.6682487038e-01
 8.2420256002e-02	 1.6332198080e+00	-4.5738917992e-01
 6.8577948221e-02	 1.6338595752e+00	-4.4938770735e-01
 5.4776216427e-02	 1.6343804945e+00	-4.4280315247e-01
 4.1016328154e-02	 1.6347836767e+00	-4.3761290839e-01
 2.7299524307e-02	 1.6350702468e+00	-4.3378962691e-01
 1.3627019099e-02	 1.6352413433e+00	-4.3130188020e-01
 0.0000000000e+00	 1.6352981176e+00	-4.3011492938e-01
 1.3916293220e-01	 1.6411725480e+00	-4.7199172232e-01
 1.2507087337e-01	 1.6423066090e+00	-4.5799316043e-01
 1.1101430959e-01	 1.6433166479e+00	-4.4544574043e-01
 9.6994623773e-02	 1.6442037196e+00	-4.3435035971e-01
 8.3013172434e-02	 1.6449688962e+00	-4.2469999950e-01
 6.9071285592e-02	 1.6456132658e+00	-4.1647991550e-01
 5.5170266633e-02	 1.6461379325e+00	-4.0966789343e-01
 4.1311392209e-02	 1.6465440151e+00	-4.0423458666e-01
 2.7495912153e-02	 1.6468326467e+00	-4.0014395097e-01
 1.3725049413e-02	 1.6470049741e+00	-3.9735378978e-01
 0.0000000000e+00	 1.6470621568e+00	-3.9581642084e-01
 1.4015689481e-01	 1.6528945210e+00	-4.4058126928e-01
 1.2596418432e-01	 1.6540366820e+00	-4.2645134370e-01
 1.1180722241e-01	 1.6550539350e+00	-4.1376782040e-01
 9.7687401854e-02	 1.6559473426e+00	-4.0253238919e-01
 8.3606088867e-02	 1.6567179844e+00	-3.9273747490e-01
 6.9564622963e-02	 1.6573669564e+00	-3.8436624588e-01
 5.5564316838e-02	 1.6578953705e+00	-3.7739269995e-01
 4.1606456264e-02	 1.6583043535e+00	-3.7178184560e-01
 2.7692299999e-02	 1.6585950467e+00	-3.6748999465e-01
 1.3823079727e-02	 1.6587686049e+00	-3.6446517999e-01
 0.0000000000e+00	 1.6588261961e+00	-3.6264771030e-01
 1.4115085742e-01	 1.6646164941e+00	-4.0944670082e-01
 1.2685749527e-01	 1.6657667550e+00	-3.9526274502e-01
 1.1260013523e-01	 1.6667912222e+00	-3.8251745263e-01
 9.8380179935e-02	 1.6676909656e+00	-3.7121459330e-01
 8.4199005299e-02	 1.6684670726e+00	-3.6134732610e-01
 7.0057960334e-02	 1.6691206470e+00	-3.5289801194e-01
 5.5958367044e-02	 1.6696528085e+00	-3.4583811637e-01
 4.1901520319e-02	 1.6700646919e+00	-3.4012822183e-01
 2.7888687845e-02	 1.6703574466e+00	-3.3571816602e-01
 1.3921110040e-02	 1.6705322357e+00	-3.3254732100e-01
 0.0000000000e+00	 1.6705902353e+00	-3.3054502536e-01
 1.4214482002e-01	 1.6763384671e+00	-3.7844637787e-01
 1.2775080622e-01	 1.6774968280e+00	-3.6427809244e-01
 1.1339304804e-01	 1.6785285093e+00	-3.5154077363e-01
 9.9072958016e-02	 1.6794345886e+00	-3.4024170579e-01
 8.4791921731e-02	 1.6802161609e+00	-3.3037621601e-01
 7.0551297705e-02	 1.6808743376e+00	-3.2192727588e-01
 5.6352417250e-02	 1.6814102465e+00	-3.1486520746e-01
 4.2196584374e-02	 1.6818250303e+00	-3.0914751320e-01
 2.8085075692e-02	 1.6821198466e+00	-3.0471884779e-01
 1.4019140354e-02	 1.6822958665e+00	-3.0151114686e-01
 0.0000000000e+00	 1.6823542745e+00	-2.9944392585e-01
 1.4313878263e-01	 1.6880604402e+00	-3.4743993427e-01
 1.2864411717e-01	 1.6892269010e+00	-3.3334936221e-01
 1.1418596086e-01	 1.6902657965e+00	-3.2068509671e-01
 9.9765736097e-02	 1.6911782116e+00	-3.0945952277e-01
 8.5384838164e-02	 1.6919652491e+00	-2.9967171602e-01
 7.1044635076e-02	 1.6926280282e+00	-2.9130681884e-01
 5.6746467455e-02	 1.6931676845e+00	-2.8433553501e-01
 4.2491648429e-02	 1.6935853688e+00	-2.7871376396e-01
 2.8281463538e-02	 1.6938822465e+00	-2.7438239304e-01
 1.4117170668e-02	 1.6940594973e+00	-2.7126726400e-01
 0.0000000000e+00	 1.6941183137e+00	-2.6927932718e-01
 1.4413274524e-01	 1.6997824132e+00	-3.1628824473e-01
 1.2953742812e-01	 1.7009569740e+00	-3.0232974390e-01
 1.1497887368e-01	 1.7020030836e+00	-2.8979887594e-01
 1.0045851418e-01	 1.7029218347e+00	-2.7871486733e-01
 8.5977754597e-02	 1.7037143373e+00	-2.6908227317e-01
 7.1537972447e-02	 1.7043817188e+00	-2.6089011221e-01
 5.7140517661e-02	 1.7049251225e+00	-2.5411113542e-01
 4.2786712484e-02	 1.7053457072e+00	-2.4870125044e-01
 2.8477851384e-02	 1.7056446465e+00	-2.4459912113e-01
 1.4215200981e-02	 1.7058231281e+00	-2.4172595932e-01
 0.0000000000e+00	 1.7058823529e+00	-2.3998552283e-01
 1.7058823529e+00	 0.0000000000e+00	 3.4199770018e+00
 1.7058231281e+00	 1.4215200981e-02	 3.4157615026e+00
 1.7056446465e+00	 2.8477851384e-02	 3.4102447836e+00
 1.7053457072e+00	 4.2786712484e-02	 3.4032105042e+00
 1.7049251225e+00	 5.7140517661e-02	 3.3944394900e+00
 1.7043817188e+00	 7.1537972447e-02	 3.3837107312e+00
 1.7037143373e+00	 8.5977754597e-02	 3.3708025624e+00
 1.7029218347e+00	 1.0045851418e-01	 3.3554940113e+00
 1.7020030836e+00	 1.1497887368e-01	 3.3375663001e+00
 1.7009569740e+00	 1.2953742812e-01	 3.3168044817e+00
 1.6997824132e+00	 1.4413274524e-01	 3.2929991898e+00
 1.7176463921e+00	 0.0000000000e+00	 3.3929515167e+00
 1.7175867589e+00	 1.4313231295e-02	 3.3885235420e+00
 1.7174070464e+00	 2.8674239230e-02	 3.3828047001e+00
 1.7171060456e+00	 4.3081776540e-02	 3.3755869831e+00
 1.7166825605e+00	 5.7534567867e-02	 3.3666576080e+00
 1.7161354094e+00	 7.2031309818e-02	 3.3558001506e+00
 1.7154634256e+00	 8.6570671029e-02	 3.3427958788e+00
 1.7146654577e+00	 1.0115129226e-01	 3.3274252733e+00
 1.7137403708e+00	 1.1577178649e-01	 3.3094697179e+00
 1.7126870470e+00	 1.3043073907e-01	 3.2887133423e+00
 1.7115043863e+00	 1.4512670784e-01	 3.2649449947e+00
 1.7294104314e+00	 0.0000000000e+00	 3.3669132621e+00
 1.7293503897e+00	 1.4411261609e-02	 3.3623833109e+00
 1.7291694464e+00	 2.8870627076e-02	 3.3565409943e+00
 1.7288663840e+00	 4.3376840595e-02	 3.3491908264e+00
 1.7284399985e+00	 5.7928618073e-02	 3.3401304789e+00
 1.7278891000e+00	 7.2524647189e-02	 3.3291520517e+00
 1.7272125138e+00	 8.7163587462e-02	 3.3160435622e+00
 1.7264090807e+00	 1.0184407034e-01	 3.3005906418e+00
 1.7254776579e+00	 1.1656469931e-01	 3.2825784201e+00
 1.7244171200e+00	 1.3132405003e-01	 3.2617935787e+00
 1.7232263593e+00	 1.4612067045e-01	 3.2380265528e+00
 1.7411744706e+00	 0.0000000000e+00	 3.3417444596e+00
 1.7411140205e+00	 1.4509291922e-02	 3.3372324456e+00
 1.7409318464e+00	 2.9067014923e-02	 3.3313565300e+00
 1.7406267224e+00	 4.3671904650e-02	 3.3239377545e+00
 1.7401974365e+00	 5.8322668278e-02	 3.3147881151e+00
 1.7396427906e+00	 7.3017984560e-02	 3.3037119725e+00
 1.7389616020e+00	 8.7756503895e-02	 3.2905077016e+00
 1.7381527037e+00	 1.0253684842e-01	 3.2749695664e+00
 1.7372149451e+00	 1.1735761213e-01	 3.2568898030e+00
 1.7361471930e+00	 1.3221736098e-01	 3.2360608911e+00
 1.7349483324e+00	 1.4711463306e-01	 3.2122779898e+00
 1.7529385098e+00	 0.0000000000e+00	 3.3173340175e+00
 1.7528776512e+00	 1.4607322236e-02	 3.3129676784e+00
 1.7526942463e+00	 2.9263402769e-02	 3.3071577594e+00
 1.7523870609e+00	 4.3966968705e-02	 3.2997456496e+00
 1.7519548745e+00	 5.8716718484e-02	 3.2905613466e+00
 1.7513964812e+00	 7.3511321931e-02	 3.2794250080e+00
 1.7507106903e+00	 8.8349420327e-02	 3.2661487644e+00
 1.7498963267e+00	 1.0322962650e-01	 3.2505387782e+00
 1.7489522322e+00	 1.1815052494e-01	 3.2323975302e+00
 1.7478772660e+00	 1.3311067193e-01	 3.2115263141e+00
 1.7466703054e+00	 1.4810859567e-01	 3.1877279139e+00
 1.7647025490e+00	 0.0000000000e+00	 3.2935773084e+00
 1.7646412820e+00	 1.4705352550e-02	 3.2894906499e+00
 1.7644566463e+00	 2.9459790615e-02	 3.2838545676e+00
 1.7641473993e+00	 4.4262032760e-02	 3.2765344349e+00
 1.7637123125e+00	 5.9110768690e-02	 3.2673817346e+00
 1.7631501718e+00	 7.4004659302e-02	 3.2562357564e+00
 1.7624597785e+00	 8.8942336759e-02	 3.2429255763e+00
 1.7616399497e+00	 1.0392240458e-01	 3.2272723039e+00
 1.7606895194e+00	 1.1894343776e-01	 3.2090915789e+00
 1.7596073390e+00	 1.3400398288e-01	 3.1881962946e+00
 1.7583922785e+00	 1.4910255827e-01	 3.1643995250e+00
 1.7764665882e+00	 0.0000000000e+00	 3.2703759559e+00
 1.7764049128e+00	 1.4803382863e-02	 3.2667077267e+00
 1.7762190462e+00	 2.9656178461e-02	 3.2613601244e+00
 1.7759077377e+00	 4.4557096815e-02	 3.2542259585e+00
 1.7754697505e+00	 5.9504818895e-02	 3.2451814884e+00
 1.7749038624e+00	 7.4497996672e-02	 3.2340882695e+00
 1.7742088667e+00	 8.9535253192e-02	 3.2207953036e+00
 1.7733835727e+00	 1.0461518266e-01	 3.2051414794e+00
 1.7724268065e+00	 1.1973635058e-01	 3.1869582853e+00
 1.7713374121e+00	 1.3489729383e-01	 3.1660727688e+00
 1.7701142515e+00	 1.5009652088e-01	 3.1423107207e+00
 1.7882306274e+00	 0.0000000000e+00	 3.2476376288e+00
 1.7881685436e+00	 1.4901413177e-02	 3.2445298280e+00
 1.7879814462e+00	 2.9852566307e-02	 3.2395907412e+00
 1.7876680761e+00	 4.4852160870e-02	 3.2327438821e+00
 1.7872271885e+00	 5.9898869101e-02	 3.2238933855e+00
 1.7866575530e+00	 7.4991334043e-02	 3.2129260042e+00
 1.7859579550e+00	 9.0128169624e-02	 3.1997134362e+00
 1.7851271957e+00	 1.0530796074e-01	 3.1841149640e+00
 1.7841640937e+00	 1.2052926339e-01	 3.1659803889e+00
 1.7830674851e+00	 1.3579060478e-01	 3.1451532354e+00
 1.7818362246e+00	 1.5109048348e-01	 3.1214741998e+00
 1.7999946667e+00	 0.0000000000e+00	 3.2252758444e+00
 1.7999321744e+00	 1.4999443491e-02	 3.2228722580e+00
 1.7997438461e+00	 3.0048954153e-02	 3.2184657341e+00
 1.7994284146e+00	 4.5147224925e-02	 3.2120135749e+00
 1.7989846265e+00	 6.0292919306e-02	 3.2034506954e+00
 1.7984112437e+00	 7.5484671413e-02	 3.1926917764e+00
 1.7977070432e+00	 9.0721086055e-02	 3.1796337720e+00
 1.7968708187e+00	 1.0600073882e-01	 3.1641587544e+00
 1.7959013808e+00	 1.2132217621e-01	 3.1461370766e+00
 1.7947975581e+00	 1.3668391573e-01	 3.1254308292e+00
 1.7935581976e+00	 1.5208444609e-01	 3.1018975630e+00
 1.8117587059e+00	 0.0000000000e+00	 3.2032097789e+00
 1.8116958052e+00	 1.5097473804e-02	 3.2016545451e+00
 1.8115062461e+00	 3.0245341999e-02	 3.1979072922e+00
 1.8111887530e+00	 4.5442288980e-02	 3.1919620104e+00
 1.8107420645e+00	 6.0686969511e-02	 3.1837871067e+00
 1.8101649343e+00	 7.5978008783e-02	 3.1733277176e+00
 1.8094561314e+00	 9.1314002487e-02	 3.1605084023e+00
 1.8086144417e+00	 1.0669351690e-01	 3.1452361991e+00
 1.8076386680e+00	 1.2211508903e-01	 3.1274040248e+00
 1.8065276311e+00	 1.3757722668e-01	 3.1068943911e+00
 1.8052801707e+00	 1.5307840870e-01	 3.0835834111e+00
 1.8235227451e+00	 0.0000000000e+00	 3.1813640849e+00
 1.8234594360e+00	 1.5195504118e-02	 3.1808002878e+00
 1.8232686460e+00	 3.0441729845e-02	 3.1778403510e+00
 1.8229490914e+00	 4.5737353035e-02	 3.1725176687e+00
 1.8224995025e+00	 6.1081019716e-02	 3.1648366572e+00
 1.8219186249e+00	 7.6471346153e-02	 3.1547752331e+00
 1.8212052197e+00	 9.1906918918e-02	 3.1422876981e+00
 1.8203580647e+00	 1.0738629498e-01	 3.1273080132e+00
 1.8193759551e+00	 1.2290800184e-01	 3.1097534422e+00
 1.8182577041e+00	 1.3847053763e-01	 3.0895285376e+00
 1.8170021437e+00	 1.5407237130e-01	 3.0665294406e+00
 1.6997824132e+00	 1.4413274524e-01	 3.2929991898e+00
 1.6984780943e+00	 1.5876585007e-01	 3.2665574124e+00
 1.6970431501e+00	 1.7343274789e-01	 3.2379623944e+00
 1.6954765448e+00	 1.8813188884e-01	 3.2071195933e+00
 1.6937772631e+00	 2.0286169558e-01	 3.1739467228e+00
 1.6919443111e+00	 2.1762056357e-01	 3.1383755316e+00
 1.6899767174e+00	 2.3240686133e-01	 3.1003535139e+00
 1.6878735331e+00	 2.4721893072e-01	 3.0598455152e+00
 1.6856338333e+00	 2.6205508726e-01	 3.0168351909e+00
 1.6832567175e+00	 2.7691362047e-01	 2.9713262769e+00
 1.6807413102e+00	 2.9179279422e-01	 2.9233436253e+00
 1.7115043863e+00	 1.4512670784e-01	 3.2649449947e+00
 1.7101910725e+00	 1.5986072492e-01	 3.2385519175e+00
 1.7087462328e+00	 1.7462876803e-01	 3.2100000789e+00
 1.7071688239e+00	 1.8942927662e-01	 3.1791961661e+00
 1.7054578236e+00	 2.0426066248e-01	 3.1460590567e+00
 1.7036122314e+00	 2.1912131000e-01	 3.1105218730e+00
 1.7016310688e+00	 2.3400957645e-01	 3.0725339766e+00
 1.6995133806e+00	 2.4892379225e-01	 3.0320628641e+00
 1.6972582355e+00	 2.6386226131e-01	 2.9890959217e+00
 1.6948647267e+00	 2.7882326136e-01	 2.9436419926e+00
 1.6923319727e+00	 2.9380504429e-01	 2.8957327125e+00
 1.7232263593e+00	 1.4612067045e-01	 3.2380265528e+00
 1.7219040508e+00	 1.6095559977e-01	 3.2116445412e+00
 1.7204493154e+00	 1.7582478817e-01	 3.1830946550e+00
 1.7188611030e+00	 1.9072666440e-01	 3.1522860786e+00
 1.7171383842e+00	 2.0565962938e-01	 3.1191400132e+00
 1.7152801516e+00	 2.2062205643e-01	 3.0835920160e+00
 1.7132854202e+00	 2.3561229156e-01	 3.0455942903e+00
 1.7111532281e+00	 2.5062865378e-01	 3.0051178836e+00
 1.7088826376e+00	 2.6566943536e-01	 2.9621547495e+00
 1.7064727358e+00	 2.8073290225e-01	 2.9167196265e+00
 1.7039226352e+00	 2.9581729436e-01	 2.8688516847e+00
 1.7349483324e+00	 1.4711463306e-01	 3.2122779898e+00
 1.7336170290e+00	 1.6205047463e-01	 3.1858875521e+00
 1.7321523981e+00	 1.7702080831e-01	 3.1573158576e+00
 1.7305533820e+00	 1.9202405218e-01	 3.1264756425e+00
 1.7288189448e+00	 2.0705859627e-01	 3.0932913730e+00
 1.7269480718e+00	 2.2212280285e-01	 3.0577018823e+00
 1.7249397715e+00	 2.3721500668e-01	 3.0196629679e+00
 1.7227930756e+00	 2.5233351531e-01	 2.9791499045e+00
 1.7205070398e+00	 2.6747660942e-01	 2.9361598267e+00
 1.7180807450e+00	 2.8264254313e-01	 2.8907139318e+00
 1.7155132978e+00	 2.9782954442e-01	 2.8428594524e+00
 1.7466703054e+00	 1.4810859567e-01	 3.1877279139e+00
 1.7453300073e+00	 1.6314534948e-01	 3.1613269332e+00
 1.7438554807e+00	 1.7821682845e-01	 3.1327264569e+00
 1.7422456611e+00	 1.9332143996e-01	 3.1018436102e+00
 1.7404995053e+00	 2.0845756317e-01	 3.0686068468e+00
 1.7386159921e+00	 2.2362354928e-01	 3.0329588949e+00
 1.7365941229e+00	 2.3881772180e-01	 2.9948596743e+00
 1.7344329231e+00	 2.5403837684e-01	 2.9542891376e+00
 1.7321314420e+00	 2.6928378347e-01	 2.9112499873e+00
 1.7296887542e+00	 2.8455218402e-01	 2.8657702174e+00
 1.7271039603e+00	 2.9984179449e-01	 2.8179054257e+00
 1.7583922785e+00	 1.4910255827e-01	 3.1643995250e+00
 1.7570429856e+00	 1.6424022433e-01	 3.1380025219e+00
 1.7555585634e+00	 1.7941284859e-01	 3.1093824255e+00
 1.7539379402e+00	 1.9461882774e-01	 3.0784613697e+00
 1.7521800659e+00	 2.0985653007e-01	 3.0451722960e+00
 1.7502839123e+00	 2.2512429571e-01	 3.0094622219e+00
 1.7482484743e+00	 2.4042043691e-01	 2.9712954914e+00
 1.7460727706e+00	 2.5574323837e-01	 2.9306569576e+00
 1.7437558441e+00	 2.7109095753e-01	 2.8875550492e+00
 1.7412967634e+00	 2.8646182491e-01	 2.8420246656e+00
 1.7386946229e+00	 3.0185404455e-01	 2.7941298449e+00
 1.7701142515e+00	 1.5009652088e-01	 3.1423107207e+00
 1.7687559638e+00	 1.6533509918e-01	 3.1159481443e+00
 1.7672616460e+00	 1.8060886873e-01	 3.0873331015e+00
 1.7656302193e+00	 1.9591621553e-01	 3.0563931332e+00
 1.7638606265e+00	 2.1125549697e-01	 3.0230659455e+00
 1.7619518325e+00	 2.2662504214e-01	 2.9873030131e+00
 1.7599028257e+00	 2.4202315203e-01	 2.9490731761e+00
 1.7577126181e+00	 2.5744809990e-01	 2.9083661804e+00
 1.7553802463e+00	 2.7289813158e-01	 2.8651961080e+00
 1.7529047726e+00	 2.8837146580e-01	 2.8196046412e+00
 1.7502852854e+00	 3.0386629462e-01	 2.7716641024e+00
 1.7818362246e+00	 1.5109048348e-01	 3.1214741998e+00
 1.7804689421e+00	 1.6642997404e-01	 3.0951917477e+00
 1.7789647287e+00	 1.8180488887e-01	 3.0666213466e+00
 1.7773224984e+00	 1.9721360331e-01	 3.0356961212e+00
 1.7755411870e+00	 2.1265446387e-01	 3.0023585922e+00
 1.7736197528e+00	 2.2812578857e-01	 2.9665646294e+00
 1.7715571771e+00	 2.4362586715e-01	 2.9282874103e+00
 1.7693524656e+00	 2.5915296143e-01	 2.8875213324e+00
 1.7670046485e+00	 2.7470530563e-01	 2.8442858236e+00
 1.7645127818e+00	 2.9028110669e-01	 2.7986289924e+00
 1.7618759479e+00	 3.0587854468e-01	 2.7506310564e+00
 1.7935581976e+00	 1.5208444609e-01	 3.1018975630e+00
 1.7921819203e+00	 1.6752484889e-01	 3.0757555273e+00
 1.7906678113e+00	 1.8300090901e-01	 3.0472837002e+00
 1.7890147775e+00	 1.9851099109e-01	 3.0164207408e+00
 1.7872217476e+00	 2.1405343077e-01	 2.9831138060e+00
 1.7852876730e+00	 2.2962653499e-01	 2.9473228670e+00
 1.7832115285e+00	 2.4522858226e-01	 2.9090250452e+00
 1.7809923131e+00	 2.6085782296e-01	 2.8682189124e+00
 1.7786290506e+00	 2.7651247968e-01	 2.8249286984e+00
 1.7761207910e+00	 2.9219074758e-01	 2.7792083438e+00
 1.7734666105e+00	 3.0789079475e-01	 2.7311453358e+00
 1.8052801707e+00	 1.5307840870e-01	 3.0835834111e+00
 1.8038948986e+00	 1.6861972374e-01	 3.0576560520e+00
 1.8023708940e+00	 1.8419692915e-01	 3.0293505291e+00
 1.8007070566e+00	 1.9980837887e-01	 2.9986107597e+00
 1.7989023082e+00	 2.1545239767e-01	 2.9653881268e+00
 1.7969555932e+00	 2.3112728142e-01	 2.9296461747e+00
 1.7948658799e+00	 2.4683129738e-01	 2.8913653381e+00
 1.7926321605e+00	 2.6256268449e-01	 2.8505476469e+00
 1.7902534528e+00	 2.7831965374e-01	 2.8072213485e+00
 1.7877288002e+00	 2.9410038847e-01	 2.7614453822e+00
 1.7850572730e+00	 3.0990304481e-01	 2.7133136388e+00
 1.8170021437e+00	 1.5407237130e-01	 3.0665294406e+00
 1.8156078768e+00	 1.6971459859e-01	 3.0409043848e+00
 1.8140739766e+00	 1.8539294929e-01	 3.0128461734e+00
 1.8123993357e+00	 2.0110576665e-01	 2.9823034755e+00
 1.8105828687e+00	 2.1685136456e-01	 2.9492312559e+00
 1.8086235135e+00	 2.3262802784e-01	 2.9135958663e+00
 1.8065202313e+00	 2.4843401249e-01	 2.8753801838e+00
 1.8042720080e+00	 2.6426754602e-01	 2.8345887386e+00
 1.8018778550e+00	 2.8012682779e-01	 2.7912527688e+00
 1.7993368094e+00	 2.9601002936e-01	 2.7454351347e+00
 1.7966479355e+00	 3.1191529488e-01	 2.6972350232e+00
 1.6807413102e+00	 2.9179279422e-01	 2.9233436253e+00
 1.6780872249e+00	 3.0668831391e-01	 2.8727579157e+00
 1.6752932224e+00	 3.2160092501e-01	 2.8195870889e+00
 1.6723585063e+00	 3.3652882184e-01	 2.7641337390e+00
 1.6692823086e+00	 3.5147017486e-01	 2.7067204214e+00
 1.6660638898e+00	 3.6642313110e-01	 2.6476884703e+00
 1.6627025401e+00	 3.8138581469e-01	 2.5871844718e+00
 1.6591975798e+00	 3.9635632739e-01	 2.5247846834e+00
 1.6555483602e+00	 4.1133274908e-01	 2.4603602891e+00
 1.6517542643e+00	 4.2631313840e-01	 2.3938282410e+00
 1.6478147071e+00	 4.4129553326e-01	 2.3251302467e+00
 1.6923319727e+00	 2.9380504429e-01	 2.8957327125e+00
 1.6896595844e+00	 3.0880328588e-01	 2.8452047677e+00
 1.6868463140e+00	 3.2381873674e-01	 2.7920491427e+00
 1.6838913597e+00	 3.3884957875e-01	 2.7365890848e+00
 1.6807939480e+00	 3.5389396974e-01	 2.6791705755e+00
 1.6775533345e+00	 3.6895004397e-01	 2.6201614002e+00
 1.6741688044e+00	 3.8401591264e-01	 2.5596297272e+00
 1.6706396733e+00	 3.9908966440e-01	 2.4972060970e+00
 1.6669652881e+00	 4.1416936591e-01	 2.4327935022e+00
 1.6631450275e+00	 4.2925306240e-01	 2.3663230694e+00
 1.6591783025e+00	 4.4433877827e-01	 2.2977521348e+00
 1.7039226352e+00	 2.9581729436e-01	 2.8688516847e+00
 1.7012319440e+00	 3.1091825784e-01	 2.8183534001e+00
 1.6983994056e+00	 3.2603654847e-01	 2.7651897082e+00
 1.6954242131e+00	 3.4117033566e-01	 2.7097069663e+00
 1.6923055875e+00	 3.5631776463e-01	 2.6522770803e+00
 1.6890427792e+00	 3.7147695685e-01	 2.5932953385e+00
 1.6856350687e+00	 3.8664601059e-01	 2.5327407101e+00
 1.6820817668e+00	 4.0182300142e-01	 2.4703319011e+00
 1.6783822160e+00	 4.1700598274e-01	 2.4059912206e+00
 1.6745357907e+00	 4.3219298640e-01	 2.3396675997e+00
 1.6705418979e+00	 4.4738202328e-01	 2.2713375495e+00
 1.7155132978e+00	 2.9782954442e-01	 2.8428594524e+00
 1.7128043035e+00	 3.1303322981e-01	 2.7923642961e+00
 1.7099524973e+00	 3.2825436020e-01	 2.7391680960e+00
 1.7069570664e+00	 3.4349109257e-01	 2.6836425261e+00
 1.7038172269e+00	 3.5874155951e-01	 2.6261876683e+00
 1.7005322239e+00	 3.7400386973e-01	 2.5672154764e+00
 1.6971013329e+00	 3.8927610854e-01	 2.5066427324e+00
 1.6935238603e+00	 4.0455633843e-01	 2.4442709687e+00
 1.6897991439e+00	 4.1984259957e-01	 2.3800425657e+00
 1.6859265539e+00	 4.3513291041e-01	 2.3139277563e+00
 1.6819054933e+00	 4.5042526829e-01	 2.2459256409e+00
 1.7271039603e+00	 2.9984179449e-01	 2.8179054257e+00
 1.7243766630e+00	 3.1514820178e-01	 2.7673884473e+00
 1.7215055889e+00	 3.3047217194e-01	 2.7141341947e+00
 1.7184899198e+00	 3.4581184948e-01	 2.6585416136e+00
 1.7153288663e+00	 3.6116535440e-01	 2.6010409649e+00
 1.7120216686e+00	 3.7653078260e-01	 2.5420491032e+00
 1.7085675972e+00	 3.9190620649e-01	 2.4814530990e+00
 1.7049659538e+00	 4.0728967545e-01	 2.4191247136e+00
 1.7012160718e+00	 4.2267921640e-01	 2.3550298430e+00
 1.6973173171e+00	 4.3807283441e-01	 2.2891633863e+00
 1.6932690886e+00	 4.5346851330e-01	 2.2215503170e+00
 1.7386946229e+00	 3.0185404455e-01	 2.7941298449e+00
 1.7359490226e+00	 3.1726317374e-01	 2.7435676949e+00
 1.7330586806e+00	 3.3268998367e-01	 2.6902288202e+00
 1.7300227732e+00	 3.4813260639e-01	 2.6345411397e+00
 1.7268405057e+00	 3.6358914928e-01	 2.5769668466e+00
 1.7235111132e+00	 3.7905769548e-01	 2.5179182210e+00
 1.7200338615e+00	 3.9453630444e-01	 2.4572814623e+00
 1.7164080473e+00	 4.1002301246e-01	 2.3949874444e+00
 1.7126329997e+00	 4.2551583323e-01	 2.3310288911e+00
 1.7087080803e+00	 4.4101275842e-01	 2.2654286019e+00
 1.7046326840e+00	 4.5651175831e-01	 2.1982405769e+00
 1.7502852854e+00	 3.0386629462e-01	 2.7716641024e+00
 1.7475213821e+00	 3.1937814571e-01	 2.7210350620e+00
 1.7446117722e+00	 3.3490779540e-01	 2.6675840563e+00
 1.7415556266e+00	 3.5045336330e-01	 2.6117694233e+00
 1.7383521451e+00	 3.6601294417e-01	 2.5540867895e+00
 1.7350005579e+00	 3.8158460836e-01	 2.4949370691e+00
 1.7315001258e+00	 3.9716640239e-01	 2.4342301695e+00
 1.7278501408e+00	 4.1275634948e-01	 2.3719467104e+00
 1.7240499276e+00	 4.2835245005e-01	 2.3081094249e+00
 1.7200988435e+00	 4.4395268242e-01	 2.2427721171e+00
 1.7159962794e+00	 4.5955500332e-01	 2.1760208385e+00
 1.7618759479e+00	 3.0587854468e-01	 2.7506310564e+00
 1.7590937416e+00	 3.2149311767e-01	 2.6999150777e+00
 1.7561648639e+00	 3.3712560713e-01	 2.6463235867e+00
 1.7530884799e+00	 3.5277412021e-01	 2.5903465287e+00
 1.7498637845e+00	 3.6843673905e-01	 2.5325142109e+00
 1.7464900026e+00	 3.8411152123e-01	 2.4732124612e+00
 1.7429663900e+00	 3.9979650034e-01	 2.4123946014e+00
 1.7392922344e+00	 4.1548968649e-01	 2.3500836398e+00
 1.7354668555e+00	 4.3118906688e-01	 2.2863353706e+00
 1.7314896067e+00	 4.4689260642e-01	 2.2212375781e+00
 1.7273598748e+00	 4.6259824833e-01	 2.1549112614e+00
 1.7734666105e+00	 3.0789079475e-01	 2.7311453358e+00
 1.7706661012e+00	 3.2360808964e-01	 2.6803240926e+00
 1.7677179555e+00	 3.3934341886e-01	 2.6265630190e+00
 1.7646213333e+00	 3.5509487712e-01	 2.5703845957e+00
 1.7613754240e+00	 3.7086053393e-01	 2.5123546972e+00
 1.7579794473e+00	 3.8663843411e-01	 2.4528441154e+00
 1.7544326543e+00	 4.0242659829e-01	 2.3918635049e+00
 1.7507343279e+00	 4.1822302351e-01	 2.3294732722e+00
 1.7468837834e+00	 4.3402568371e-01	 2.2657651964e+00
 1.7428803699e+00	 4.4983253043e-01	 2.2008638882e+00
 1.7387234702e+00	 4.6564149334e-01	 2.1349280641e+00
 1.7850572730e+00	 3.0990304481e-01	 2.7133136388e+00
 1.7822384607e+00	 3.2572306160e-01	 2.6623705873e+00
 1.7792710472e+00	 3.4156123059e-01	 2.6084102005e+00
 1.7761541867e+00	 3.5741563403e-01	 2.5519881612e+00
 1.7728870634e+00	 3.7328432882e-01	 2.4937033913e+00
 1.7694688920e+00	 3.8916534699e-01	 2.4339249767e+00
 1.7658989186e+00	 4.0505669625e-01	 2.3727193177e+00
 1.7621764214e+00	 4.2095636052e-01	 2.3101848842e+00
 1.7583007113e+00	 4.3686230054e-01	 2.2464522352e+00
 1.7542711331e+00	 4.5277245443e-01	 2.1816855280e+00
 1.7500870656e+00	 4.6868473835e-01	 2.1160838382e+00
 1.7966479355e+00	 3.1191529488e-01	 2.6972350232e+00
 1.7938108203e+00	 3.2783803357e-01	 2.6461554727e+00
 1.7908241388e+00	 3.4377904232e-01	 2.5919655276e+00
 1.7876870401e+00	 3.5973639094e-01	 2.5352544743e+00
 1.7843987028e+00	 3.7570812370e-01	 2.4766521701e+00
 1.7809583367e+00	 3.9169225986e-01	 2.4165415330e+00
 1.7773651829e+00	 4.0768679420e-01	 2.3550384871e+00
 1.7736185149e+00	 4.2368969754e-01	 2.2922823083e+00
 1.7697176392e+00	 4.3969891737e-01	 2.2284450038e+00
 1.7656618963e+00	 4.5571237844e-01	 2.1637328696e+00
 1.7614506609e+00	 4.7172798336e-01	 2.0983878567e+00
 1.6478147071e+00	 4.4129553326e-01	 2.3251302467e+00
 1.6437291372e+00	 4.5627795173e-01	 2.2537748240e+00
 1.6394970382e+00	 4.7125839329e-01	 2.1795139878e+00
 1.6351179281e+00	 4.8623483888e-01	 2.1026890546e+00
 1.6305913600e+00	 5.0120525140e-01	 2.0236614334e+00
 1.6259169225e+00	 5.1616757641e-01	 1.9428119003e+00
 1.6210942400e+00	 5.3111974281e-01	 1.8605396181e+00
 1.6161229739e+00	 5.4605966365e-01	 1.7772608866e+00
 1.6110028226e+00	 5.6098523685e-01	 1.6934076104e+00
 1.6057335224e+00	 5.7589434599e-01	 1.6094254711e+00
 1.6003148479e+00	 5.9078486111e-01	 1.5257717915e+00
 1.6591783025e+00	 4.4433877827e-01	 2.2977521348e+00
 1.6550645579e+00	 4.5942451791e-01	 2.2265155958e+00
 1.6508032736e+00	 4.7450826701e-01	 2.1523116817e+00
 1.6463939645e+00	 4.8958799258e-01	 2.0755287493e+00
 1.6418361804e+00	 5.0466164347e-01	 1.9965759471e+00
 1.6371295072e+00	 5.1972715108e-01	 1.9158824695e+00
 1.6322735667e+00	 5.3478243003e-01	 1.8338965491e+00
 1.6272680180e+00	 5.4982537897e-01	 1.7510841710e+00
 1.6221125573e+00	 5.6485388132e-01	 1.6679274964e+00
 1.6168069192e+00	 5.7986580607e-01	 1.5849229816e+00
 1.6113508766e+00	 5.9485900859e-01	 1.5025791784e+00
 1.6705418979e+00	 4.4738202328e-01	 2.2713375495e+00
 1.6663999785e+00	 4.6257108409e-01	 2.2003536486e+00
 1.6621095090e+00	 4.7775814072e-01	 2.1263402873e+00
 1.6576700008e+00	 4.9294114627e-01	 2.0497194968e+00
 1.6530810008e+00	 5.0811803554e-01	 1.9709350661e+00
 1.6483420919e+00	 5.2328672575e-01	 1.8904518003e+00
 1.6434528935e+00	 5.3844511724e-01	 1.8087545104e+00
 1.6384130621e+00	 5.5359109428e-01	 1.7263467179e+00
 1.6332222920e+00	 5.6872252579e-01	 1.6437490586e+00
 1.6278803159e+00	 5.8383726616e-01	 1.5614973731e+00
 1.6223869053e+00	 5.9893315606e-01	 1.4801404684e+00
 1.6819054933e+00	 4.5042526829e-01	 2.2459256409e+00
 1.6777353991e+00	 4.6571765027e-01	 2.1753025926e+00
 1.6734157444e+00	 4.8100801443e-01	 2.1015941679e+00
 1.6689460372e+00	 4.9629429996e-01	 2.0252429450e+00
 1.6643258213e+00	 5.1157442761e-01	 1.9467144891e+00
 1.6595546767e+00	 5.2684630041e-01	 1.8664966421e+00
 1.6546322202e+00	 5.4210780446e-01	 1.7850985344e+00
 1.6495581062e+00	 5.5735680959e-01	 1.7030493042e+00
 1.6443320267e+00	 5.7259117026e-01	 1.6208965077e+00
 1.6389537127e+00	 5.8780872624e-01	 1.5392042047e+00
 1.6334229340e+00	 6.0300730353e-01	 1.4585507066e+00
 1.6932690886e+00	 4.5346851330e-01	 2.2215503170e+00
 1.6890708198e+00	 4.6886421645e-01	 2.1513715966e+00
 1.6847219798e+00	 4.8425788815e-01	 2.0780638736e+00
 1.6802220735e+00	 4.9964745366e-01	 2.0020773736e+00
 1.6755706417e+00	 5.1503081968e-01	 1.9238868017e+00
 1.6707672614e+00	 5.3040587508e-01	 1.8439906872e+00
 1.6658115470e+00	 5.4577049167e-01	 1.7629104435e+00
 1.6607031502e+00	 5.6112252491e-01	 1.6811891277e+00
 1.6554417614e+00	 5.7645981472e-01	 1.5993898803e+00
 1.6500271095e+00	 5.9178018632e-01	 1.5180940329e+00
 1.6444589627e+00	 6.0708145100e-01	 1.4378988659e+00
 1.7046326840e+00	 4.5651175831e-01	 2.1982405769e+00
 1.7004062404e+00	 4.7201078263e-01	 2.1285657130e+00
 1.6960282152e+00	 4.8750776186e-01	 2.0557364634e+00
 1.6914981099e+00	 5.0300060735e-01	 1.9801980219e+00
 1.6868154621e+00	 5.1848721174e-01	 1.9024218147e+00
 1.6819798461e+00	 5.3396544975e-01	 1.8229049257e+00
 1.6769908737e+00	 5.4943317889e-01	 1.7421692301e+00
 1.6718481943e+00	 5.6488824022e-01	 1.6607602176e+00
 1.6665514961e+00	 5.8032845919e-01	 1.5792454888e+00
 1.6611005062e+00	 5.9575164641e-01	 1.4982129084e+00
 1.6554949914e+00	 6.1115559848e-01	 1.4182683969e+00
 1.7159962794e+00	 4.5955500332e-01	 2.1760208385e+00
 1.7117416610e+00	 4.7515734880e-01	 2.1068861986e+00
 1.7073344506e+00	 4.9075763558e-01	 2.0345958249e+00
 1.7027741462e+00	 5.0635376104e-01	 1.9595774117e+00
 1.6980602825e+00	 5.2194360381e-01	 1.8822868979e+00
 1.6931924309e+00	 5.3752502442e-01	 1.8032079976e+00
 1.6881702004e+00	 5.5309586610e-01	 1.7228514316e+00
 1.6829932384e+00	 5.6865395553e-01	 1.6417538414e+00
 1.6776612308e+00	 5.8419710366e-01	 1.5604763661e+00
 1.6721739030e+00	 5.9972310649e-01	 1.4796028651e+00
 1.6665310201e+00	 6.1522974595e-01	 1.3997377698e+00
 1.7273598748e+00	 4.6259824833e-01	 2.1549112614e+00
 1.7230770817e+00	 4.7830391498e-01	 2.0863308302e+00
 1.7186406860e+00	 4.9400750929e-01	 2.0146229888e+00
 1.7140501826e+00	 5.0970691474e-01	 1.9401856680e+00
 1.7093051029e+00	 5.2539999588e-01	 1.8634473119e+00
 1.7044050156e+00	 5.4108459909e-01	 1.7848665399e+00
 1.6993495272e+00	 5.5675855332e-01	 1.7049315018e+00
 1.6941382825e+00	 5.7241967085e-01	 1.6241589061e+00
 1.6887709655e+00	 5.8806574813e-01	 1.5430927029e+00
 1.6832472998e+00	 6.0369456658e-01	 1.4623024018e+00
 1.6775670488e+00	 6.1930389342e-01	 1.3823810073e+00
 1.7387234702e+00	 4.6564149334e-01	 2.1349280641e+00
 1.7344125023e+00	 4.8145048116e-01	 2.0668942172e+00
 1.7299469214e+00	 4.9725738301e-01	 1.9957964414e+00
 1.7253262189e+00	 5.1306006843e-01	 1.9219908352e+00
 1.7205499233e+00	 5.2885638795e-01	 1.8458665348e+00
 1.7156176003e+00	 5.4464417376e-01	 1.7678455324e+00
 1.7105288539e+00	 5.6042124053e-01	 1.6883821793e+00
 1.7052833266e+00	 5.7618538616e-01	 1.6079623553e+00
 1.6998807002e+00	 5.9193439260e-01	 1.5271022815e+00
 1.6943206965e+00	 6.0766602666e-01	 1.4463469585e+00
 1.6886030775e+00	 6.2337804090e-01	 1.3662682094e+00
 1.7500870656e+00	 4.6868473835e-01	 2.1160838382e+00
 1.7457479230e+00	 4.8459704734e-01	 2.0485681094e+00
 1.7412531568e+00	 5.0050725672e-01	 1.9780924323e+00
 1.7366022553e+00	 5.1641322212e-01	 1.9049591916e+00
 1.7317947437e+00	 5.3231278001e-01	 1.8295065882e+00
 1.7268301851e+00	 5.4820374843e-01	 1.7521086382e+00
 1.7217081807e+00	 5.6408392775e-01	 1.6731748508e+00
 1.7164283707e+00	 5.7995110147e-01	 1.5931495618e+00
 1.7109904350e+00	 5.9580303707e-01	 1.5125109029e+00
 1.7053940933e+00	 6.1163748675e-01	 1.4317693842e+00
 1.6996391063e+00	 6.2745218837e-01	 1.3514660703e+00
 1.7614506609e+00	 4.7172798336e-01	 2.0983878567e+00
 1.7570833436e+00	 4.8774361352e-01	 2.0313417021e+00
 1.7525593922e+00	 5.0375713044e-01	 1.9614852798e+00
 1.7478782916e+00	 5.1976637582e-01	 1.8890555596e+00
 1.7430395641e+00	 5.3576917208e-01	 1.8143283577e+00
 1.7380427698e+00	 5.5176332310e-01	 1.7376185427e+00
 1.7328875074e+00	 5.6774661496e-01	 1.6592799120e+00
 1.7275734148e+00	 5.8371681679e-01	 1.5797047165e+00
 1.7221001697e+00	 5.9967168153e-01	 1.4993228098e+00
 1.7164674901e+00	 6.1560894683e-01	 1.4186004011e+00
 1.7106751350e+00	 6.3152633584e-01	 1.3380383879e+00
 1.6003148479e+00	 5.9078486111e-01	 1.5257717915e+00
 1.5947456527e+00	 6.0565716559e-01	 1.4407957799e+00
 1.5890266971e+00	 6.2050657002e-01	 1.3528900374e+00
 1.5831578723e+00	 6.3533090704e-01	 1.2625385692e+00
 1.5771391098e+00	 6.5012799914e-01	 1.1702181485e+00
 1.5709703816e+00	 6.6489565953e-01	 1.0763943113e+00
 1.5646517010e+00	 6.7963169310e-01	 9.8151699909e-01
 1.5581831225e+00	 6.9433389730e-01	 8.8601584696e-01
 1.5515647425e+00	 7.0900006314e-01	 7.9029511528e-01
 1.5447966993e+00	 7.2362797608e-01	 6.9472826485e-01
 1.5378791739e+00	 7.3821541710e-01	 5.9965217762e-01
 1.6113508766e+00	 5.9485900859e-01	 1.5025791784e+00
 1.6057432753e+00	 6.0983387486e-01	 1.4192186719e+00
 1.5999848809e+00	 6.2478568318e-01	 1.3331323011e+00
 1.5940755837e+00	 6.3971225121e-01	 1.2447468586e+00
 1.5880153148e+00	 6.5461138644e-01	 1.1544862606e+00
 1.5818040462e+00	 6.6948088700e-01	 1.0627676291e+00
 1.5754417909e+00	 6.8431854262e-01	 9.6999700640e-01
 1.5689286041e+00	 6.9912213559e-01	 8.7656469764e-01
 1.5622645826e+00	 7.1388944166e-01	 7.8284023949e-01
 1.5554498659e+00	 7.2861823105e-01	 6.8916699408e-01
 1.5484846362e+00	 7.4330626941e-01	 5.9578581956e-01
 1.6223869053e+00	 5.9893315606e-01	 1.4801404684e+00
 1.6167408980e+00	 6.1401058414e-01	 1.3980114808e+00
 1.6109430647e+00	 6.2906479634e-01	 1.3133576550e+00
 1.6049932952e+00	 6.4409359539e-01	 1.2265690213e+00
 1.5988915199e+00	 6.5909477374e-01	 1.1380368020e+00
 1.5926377107e+00	 6.7406611446e-01	 1.0481495517e+00
 1.5862318808e+00	 6.8900539214e-01	 9.5728891419e-01
 1.5796740856e+00	 7.0391037388e-01	 8.6582499091e-01
 1.5729644228e+00	 7.1877882019e-01	 7.7411131651e-01
 1.5661030326e+00	 7.3360848602e-01	 6.8247944183e-01
 1.5590900984e+00	 7.4839712172e-01	 5.9061099532e-01
 1.6334229340e+00	 6.0300730353e-01	 1.4585507066e+00
 1.6277385206e+00	 6.1818729342e-01	 1.3773074643e+00
 1.6219012485e+00	 6.3334390950e-01	 1.2937264260e+00
 1.6159110066e+00	 6.4847493956e-01	 1.2081808748e+00
 1.6097677250e+00	 6.6357816104e-01	 1.1210490736e+00
 1.6034713753e+00	 6.7865134192e-01	 1.0327104364e+00
 1.5970219707e+00	 6.9369224167e-01	 9.4354129855e-01
 1.5904195672e+00	 7.0869861217e-01	 8.5391028205e-01
 1.5836642629e+00	 7.2366819872e-01	 7.6417324941e-01
 1.5767561992e+00	 7.3859874099e-01	 6.7466784615e-01
 1.5696955607e+00	 7.5348797403e-01	 5.8398244534e-01
 1.6444589627e+00	 6.0708145100e-01	 1.4378988659e+00
 1.6387361433e+00	 6.2236400270e-01	 1.3572327457e+00
 1.6328594323e+00	 6.3762302266e-01	 1.2743910161e+00
 1.6268287181e+00	 6.5285628373e-01	 1.1897498018e+00
 1.6206439301e+00	 6.6806154834e-01	 1.1036937228e+00
 1.6143050398e+00	 6.8323656939e-01	 1.0166120682e+00
 1.6078120607e+00	 6.9837909119e-01	 9.2889455349e-01
 1.6011650487e+00	 7.1348685046e-01	 8.4092665296e-01
 1.5943641030e+00	 7.2855757725e-01	 7.5308450414e-01
 1.5874093658e+00	 7.4358899596e-01	 6.6564348912e-01
 1.5803010229e+00	 7.5857882634e-01	 5.7582614080e-01
 1.6554949914e+00	 6.1115559848e-01	 1.4182683969e+00
 1.6497337659e+00	 6.2654071198e-01	 1.3379069180e+00
 1.6438176161e+00	 6.4190213582e-01	 1.2554965506e+00
 1.6377464295e+00	 6.5723762791e-01	 1.1714354333e+00
 1.6315201352e+00	 6.7254493565e-01	 1.0861334495e+00
 1.6251387044e+00	 6.8782179685e-01	 1.0000083787e+00
 1.6186021506e+00	 7.0306594071e-01	 9.1348161162e-01
 1.6119105303e+00	 7.1827508875e-01	 8.2697342333e-01
 1.6050639432e+00	 7.3344695578e-01	 7.4089779943e-01
 1.5980625325e+00	 7.4857925093e-01	 6.5501871267e-01
 1.5909064852e+00	 7.6366967865e-01	 5.6607499156e-01
 1.6665310201e+00	 6.1522974595e-01	 1.3997377698e+00
 1.6607313886e+00	 6.3071742125e-01	 1.3194436370e+00
 1.6547757999e+00	 6.4618124898e-01	 1.2371815142e+00
 1.6486641410e+00	 6.6161897208e-01	 1.1533903167e+00
 1.6423963403e+00	 6.7702832295e-01	 1.0685236984e+00
 1.6359723689e+00	 6.9240702432e-01	 9.8304615112e-01
 1.6293922405e+00	 7.0775279024e-01	 8.9742865195e-01
 1.6226560118e+00	 7.2306332704e-01	 8.1214384989e-01
 1.6157637833e+00	 7.3833633431e-01	 7.2766078601e-01
 1.6087156991e+00	 7.5356950590e-01	 6.4274812583e-01
 1.6015119474e+00	 7.6876053097e-01	 5.5466871970e-01
 1.6775670488e+00	 6.1930389342e-01	 1.3823810073e+00
 1.6717290112e+00	 6.3489413053e-01	 1.3019512053e+00
 1.6657339837e+00	 6.5046036214e-01	 1.2195783751e+00
 1.6595818524e+00	 6.6600031626e-01	 1.1357605737e+00
 1.6532725454e+00	 6.8151171025e-01	 1.0510133392e+00
 1.6468060335e+00	 6.9699225179e-01	 9.6586571349e-01
 1.6401823304e+00	 7.1243963976e-01	 8.8085579549e-01
 1.6334014934e+00	 7.2785156533e-01	 7.9652581407e-01
 1.6264636235e+00	 7.4322571284e-01	 7.1335440881e-01
 1.6193688657e+00	 7.5855976088e-01	 6.2883763128e-01
 1.6121174097e+00	 7.7385138328e-01	 5.4155372682e-01
 1.6886030775e+00	 6.2337804090e-01	 1.3662682094e+00
 1.6827266338e+00	 6.3907083981e-01	 1.2855331448e+00
 1.6766921675e+00	 6.5473947530e-01	 1.2028141996e+00
 1.6704995639e+00	 6.7038166043e-01	 1.1186865454e+00
 1.6641487505e+00	 6.8599509756e-01	 1.0337453340e+00
 1.6576396980e+00	 7.0157747925e-01	 9.4860161936e-01
 1.6509724203e+00	 7.1712648929e-01	 8.6387778914e-01
 1.6441469750e+00	 7.3263980362e-01	 7.8020249892e-01
 1.6371634636e+00	 7.4811509137e-01	 6.9767403463e-01
 1.6300220323e+00	 7.6355001585e-01	 6.1329827727e-01
 1.6227228720e+00	 7.7894223559e-01	 5.2668295523e-01
 1.6996391063e+00	 6.2745218837e-01	 1.3514660703e+00
 1.6937242565e+00	 6.4324754909e-01	 1.2702887620e+00
 1.6876503513e+00	 6.5901858846e-01	 1.1870112556e+00
 1.6814172753e+00	 6.7476300461e-01	 1.1023034265e+00
 1.6750249556e+00	 6.9047848486e-01	 1.0168573942e+00
 1.6684733626e+00	 7.0616270672e-01	 9.3138331708e-01
 1.6617625102e+00	 7.2181333881e-01	 8.4660467839e-01
 1.6548924565e+00	 7.3742804191e-01	 7.6325305543e-01
 1.6478633037e+00	 7.5300446990e-01	 6.8062468134e-01
 1.6406751990e+00	 7.6854027082e-01	 5.9614616470e-01
 1.6333283342e+00	 7.8403308790e-01	 5.1001574335e-01
 1.7106751350e+00	 6.3152633584e-01	 1.3380383879e+00
 1.7047218791e+00	 6.4742425837e-01	 1.2563137029e+00
 1.6986085352e+00	 6.6329770162e-01	 1.1722876060e+00
 1.6923349868e+00	 6.7914434878e-01	 1.0867418896e+00
 1.6859011607e+00	 6.9496187216e-01	 1.0004826257e+00
 1.6793070271e+00	 7.1074793418e-01	 9.1433580813e-01
 1.6725526001e+00	 7.2650018834e-01	 8.2914246948e-01
 1.6656379381e+00	 7.4221628020e-01	 7.4573282434e-01
 1.6585631439e+00	 7.5789384843e-01	 6.6227125416e-01
 1.6513283656e+00	 7.7353052579e-01	 5.7740234694e-01
 1.6439337965e+00	 7.8912394021e-01	 4.9151767561e-01
 1.5378791739e+00	 7.3821541710e-01	 5.9965217762e-01
 1.5308136034e+00	 7.5275769489e-01	 5.0592442152e-01
 1.5235990901e+00	 7.6725506789e-01	 4.1324786631e-01
 1.5162359424e+00	 7.8170530976e-01	 3.2213990108e-01
 1.5087245117e+00	 7.9610619362e-01	 2.3318358078e-01
 1.5010651934e+00	 8.1045549309e-01	 1.4696516100e-01
 1.4932584260e+00	 8.2475098331e-01	 6.4076026678e-02
 1.4853046920e+00	 8.3899044203e-01	-1.4885160104e-02
 1.4772045176e+00	 8.5317165060e-01	-9.0500044126e-02
 1.4689584728e+00	 8.6729239509e-01	-1.6841597648e-01
 1.4605671716e+00	 8.8135046733e-01	-2.4850762049e-01
 1.5484846362e+00	 7.4330626941e-01	 5.9578581956e-01
 1.5413703404e+00	 7.5794883309e-01	 5.0201947272e-01
 1.5341060746e+00	 7.7254618230e-01	 4.0872832816e-01
 1.5266921494e+00	 7.8709607536e-01	 3.1647551267e-01
 1.5191289188e+00	 8.0159627004e-01	 2.2582468534e-01
 1.5114167805e+00	 8.1604452459e-01	 1.3734181956e-01
 1.5035561764e+00	 8.3043859881e-01	 5.1597220484e-02
 1.4955475921e+00	 8.4477625513e-01	-3.0832224683e-02
 1.4873915576e+00	 8.5905525959e-01	-1.0936056791e-01
 1.4790886468e+00	 8.7327338301e-01	-1.8374761012e-01
 1.4706394779e+00	 8.8742840198e-01	-2.5935788571e-01
 1.5590900984e+00	 7.4839712172e-01	 5.9061099532e-01
 1.5519270773e+00	 7.6313997128e-01	 4.9711132564e-01
 1.5446130591e+00	 7.7783729672e-01	 4.0365921715e-01
 1.5371483565e+00	 7.9248684097e-01	 3.1079132962e-01
 1.5295333258e+00	 8.0708634646e-01	 2.1904397556e-01
 1.5217683676e+00	 8.2163355609e-01	 1.2895498952e-01
 1.5138539268e+00	 8.3612621431e-01	 4.1065846965e-02
 1.5057904923e+00	 8.5056206823e-01	-4.4075969680e-02
 1.4975785977e+00	 8.6493886859e-01	-1.2591436210e-01
 1.4892188208e+00	 8.7925437093e-01	-2.0388177085e-01
 1.4807117841e+00	 8.9350633663e-01	-2.7743178910e-01
 1.5696955607e+00	 7.5348797403e-01	 5.8398244534e-01
 1.5624838143e+00	 7.6833110948e-01	 4.9104771572e-01
 1.5551200436e+00	 7.8312841113e-01	 3.9782035394e-01
 1.5476045635e+00	 7.9787760658e-01	 3.0480270338e-01
 1.5399377328e+00	 8.1257642288e-01	 2.1249595742e-01
 1.5321199548e+00	 8.2722258758e-01	 1.2140212794e-01
 1.5241516772e+00	 8.4181382982e-01	 3.2026278213e-02
 1.5160333925e+00	 8.5634788133e-01	-5.5120982158e-02
 1.5077656378e+00	 8.7082247759e-01	-1.3952074470e-01
 1.4993489948e+00	 8.8523535885e-01	-2.2064279842e-01
 1.4907840904e+00	 8.9958427128e-01	-2.9794238390e-01
 1.5803010229e+00	 7.5857882634e-01	 5.7582614080e-01
 1.5730405512e+00	 7.7352224768e-01	 4.8368520928e-01
 1.5656270281e+00	 7.8841952555e-01	 3.9100207767e-01
 1.5580607706e+00	 8.0326837219e-01	 2.9823710320e-01
 1.5503421398e+00	 8.1806649930e-01	 2.0584876195e-01
 1.5424715419e+00	 8.3281161908e-01	 1.1429572856e-01
 1.5344494276e+00	 8.4750144532e-01	 2.4039235420e-02
 1.5262762927e+00	 8.6213369443e-01	-6.4454290628e-02
 1.5179526778e+00	 8.7670608658e-01	-1.5071031871e-01
 1.5094791689e+00	 8.9121634678e-01	-2.3424303803e-01
 1.5008563966e+00	 9.0566220593e-01	-3.1455192472e-01
 1.5909064852e+00	 7.6366967865e-01	 5.6607499156e-01
 1.5835972882e+00	 7.7871338588e-01	 4.7488901939e-01
 1.5761340126e+00	 7.9371063996e-01	 3.8300500113e-01
 1.5685169776e+00	 8.0865913780e-01	 2.9083381414e-01
 1.5607465468e+00	 8.2355657572e-01	 1.9878379017e-01
 1.5528231290e+00	 8.3840065058e-01	 1.0726291773e-01
 1.5447471780e+00	 8.5318906082e-01	 1.6681339932e-02
 1.5365191928e+00	 8.6791950753e-01	-7.2545854501e-02
 1.5281397179e+00	 8.8258969558e-01	-1.5999555129e-01
 1.5196093429e+00	 8.9719733470e-01	-2.4523324875e-01
 1.5109287029e+00	 9.1174014058e-01	-3.2780942317e-01
 1.6015119474e+00	 7.6876053097e-01	 5.5466871970e-01
 1.5941540251e+00	 7.8390452408e-01	 4.6453281751e-01
 1.5866409972e+00	 7.9900175438e-01	 3.7363976385e-01
 1.5789731847e+00	 8.1404990341e-01	 2.8234363544e-01
 1.5711509538e+00	 8.2904665214e-01	 1.9099536035e-01
 1.5631747161e+00	 8.4398968208e-01	 9.9945054562e-02
 1.5550449284e+00	 8.5887667632e-01	 9.5446703093e-03
 1.5467620930e+00	 8.7370532062e-01	-7.9849045920e-02
 1.5383267580e+00	 8.8847330457e-01	-1.6787129013e-01
 1.5297395169e+00	 9.0317832262e-01	-2.5414563935e-01
 1.5210010091e+00	 9.1781807523e-01	-3.3828020141e-01
 1.6121174097e+00	 7.7385138328e-01	 5.4155372682e-01
 1.6047107621e+00	 7.8909566228e-01	 4.5249854112e-01
 1.5971479817e+00	 8.0429286880e-01	 3.6272678357e-01
 1.5894293917e+00	 8.1944066902e-01	 2.7252857916e-01
 1.5815553609e+00	 8.3453672857e-01	 1.8219035758e-01
 1.5735263033e+00	 8.4957871358e-01	 9.1997335077e-02
 1.5653426788e+00	 8.6456429182e-01	 2.2363251092e-03
 1.5570049932e+00	 8.7949113372e-01	-8.6801124345e-02
 1.5485137980e+00	 8.9435691357e-01	-1.7481527126e-01
 1.5398696909e+00	 9.0915931054e-01	-2.6149440501e-01
 1.5310733154e+00	 9.2389600988e-01	-3.4651076651e-01
 1.6227228720e+00	 7.7894223559e-01	 5.2668295523e-01
 1.6152674990e+00	 7.9428680048e-01	 4.3867619753e-01
 1.6076549662e+00	 8.0958398321e-01	 3.5009600578e-01
 1.5998855988e+00	 8.2483143463e-01	 2.6116156901e-01
 1.5919597679e+00	 8.4002680499e-01	 1.7208788537e-01
 1.5838778904e+00	 8.5516774508e-01	 8.3088400310e-02
 1.5756404292e+00	 8.7025190732e-01	-5.6220088681e-03
 1.5672478933e+00	 8.8527694682e-01	-9.3823704214e-02
 1.5587008381e+00	 9.0024052256e-01	-1.8128861857e-01
 1.5499998649e+00	 9.1514029846e-01	-2.6777625457e-01
 1.5411456216e+00	 9.2997394453e-01	-3.5302936124e-01
 1.6333283342e+00	 7.8403308790e-01	 5.1001574335e-01
 1.6258242359e+00	 7.9947793868e-01	 4.2296366400e-01
 1.6181619507e+00	 8.1487509763e-01	 3.3558665182e-01
 1.6103418058e+00	 8.3022220024e-01	 2.4802613956e-01
 1.6023641749e+00	 8.4551688141e-01	 1.6041891936e-01
 1.5942294775e+00	 8.6075677658e-01	 7.2899948031e-02
 1.5859381796e+00	 8.7593952282e-01	-1.4394483117e-02
 1.5774907935e+00	 8.9106275992e-01	-1.0132321599e-01
 1.5688878781e+00	 9.0612413156e-01	-1.8773633550e-01
 1.5601300389e+00	 9.2112128638e-01	-2.7347092885e-01
 1.5512179279e+00	 9.3605187918e-01	-3.5834650486e-01
 1.6439337965e+00	 7.8912394021e-01	 4.9151767561e-01
 1.6363809729e+00	 8.0466907688e-01	 4.0526648441e-01
 1.6286689352e+00	 8.2016621204e-01	 3.1904696526e-01
 1.6207980129e+00	 8.3561296584e-01	 2.3291613557e-01
 1.6127685819e+00	 8.5100695783e-01	 1.4692596291e-01
 1.6045810646e+00	 8.6634580808e-01	 6.1126348017e-02
 1.5962359300e+00	 8.8162713832e-01	-2.4431508986e-02
 1.5877336937e+00	 8.9684857302e-01	-1.0969136092e-01
 1.5790749182e+00	 9.1200774055e-01	-1.9458778919e-01
 1.5702602129e+00	 9.2710227430e-01	-2.7904171039e-01
 1.5612902341e+00	 9.4212981382e-01	-3.6295552444e-01
 1.4605671716e+00	 8.8135046733e-01	-2.4850762049e-01
 1.4520312720e+00	 8.9534366627e-01	-3.3070513984e-01
 1.4433514774e+00	 9.0926979989e-01	-4.1523950218e-01
 1.4345285350e+00	 9.2312668550e-01	-5.0133015285e-01
 1.4255632358e+00	 9.3691215050e-01	-5.8811942932e-01
 1.4164564141e+00	 9.5062403349e-01	-6.7468097259e-01
 1.4072089476e+00	 9.6426018533e-01	-7.6002908037e-01
 1.3978217570e+00	 9.7781847021e-01	-8.4312897327e-01
 1.3882958057e+00	 9.9129676672e-01	-9.2290793880e-01
 1.3786320998e+00	 1.0046929689e+00	-9.9826731187e-01
 1.3688316878e+00	 1.0180049874e+00	-1.0680952443e+00
 1.4706394779e+00	 8.8742840198e-01	-2.5935788571e-01
 1.4620447134e+00	 9.0151810027e-01	-3.3827482713e-01
 1.4533050615e+00	 9.1554027075e-01	-4.2054106283e-01
 1.4444212746e+00	 9.2949271567e-01	-5.0526234875e-01
 1.4353941493e+00	 9.4337324745e-01	-5.9146352096e-01
 1.4262245255e+00	 9.5717968980e-01	-6.7809731771e-01
 1.4169132870e+00	 9.7090987873e-01	-7.6405418832e-01
 1.4074613608e+00	 9.8456166372e-01	-8.4817305913e-01
 1.3978697170e+00	 9.9813290874e-01	-9.2925302000e-01
 1.3881393686e+00	 1.0116214933e+00	-1.0060658885e+00
 1.3782713714e+00	 1.0250253136e+00	-1.0773696027e+00
 1.4807117841e+00	 8.9350633663e-01	-2.7743178910e-01
 1.4720581547e+00	 9.0769253427e-01	-3.5182371267e-01
 1.4632586455e+00	 9.2181074161e-01	-4.3062668544e-01
 1.4543140143e+00	 9.3585874584e-01	-5.1284663911e-01
 1.4452250628e+00	 9.4983434441e-01	-5.9740404369e-01
 1.4359926369e+00	 9.6373534610e-01	-6.8314312475e-01
 1.4266176263e+00	 9.7755957214e-01	-7.6884211475e-01
 1.4171009645e+00	 9.9130485724e-01	-8.5322450784e-01
 1.4074436282e+00	 1.0049690508e+00	-9.3497128024e-01
 1.3976466375e+00	 1.0185500177e+00	-1.0127340320e+00
 1.3877110549e+00	 1.0320456398e+00	-1.0851489988e+00
 1.4907840904e+00	 8.9958427128e-01	-2.9794238390e-01
 1.4820715960e+00	 9.1386696827e-01	-3.7165533128e-01
 1.4732122296e+00	 9.2808121247e-01	-4.4583487918e-01
 1.4642067539e+00	 9.4222477601e-01	-5.2442948147e-01
 1.4550559762e+00	 9.5629544137e-01	-6.0628743366e-01
 1.4457607483e+00	 9.7029100241e-01	-6.9015655877e-01
 1.4363219657e+00	 9.8420926554e-01	-7.7471421911e-01
 1.4267405683e+00	 9.9804805076e-01	-8.5857904942e-01
 1.4170175395e+00	 1.0118051928e+00	-9.4032370306e-01
 1.4071539063e+00	 1.0254785421e+00	-1.0184885654e+00
 1.3971507385e+00	 1.0390659660e+00	-1.0915963813e+00
 1.5008563966e+00	 9.0566220593e-01	-3.1455192472e-01
 1.4920850373e+00	 9.2004140227e-01	-3.9184106330e-01
 1.4831658136e+00	 9.3435168333e-01	-4.6633644262e-01
 1.4740994935e+00	 9.4859080619e-01	-5.4034091618e-01
 1.4648868897e+00	 9.6275653833e-01	-6.1844385057e-01
 1.4555288596e+00	 9.7684665872e-01	-6.9945996843e-01
 1.4460263050e+00	 9.9085895895e-01	-7.8197683063e-01
 1.4363801721e+00	 1.0047912443e+00	-8.6451850230e-01
 1.4265914508e+00	 1.0186413348e+00	-9.4555881721e-01
 1.4166611751e+00	 1.0324070665e+00	-1.0235356575e+00
 1.4065904221e+00	 1.0460862922e+00	-1.0968661941e+00
 1.5109287029e+00	 9.1174014058e-01	-3.2780942317e-01
 1.5020984786e+00	 9.2621583628e-01	-4.0791594394e-01
 1.4931193977e+00	 9.4062215419e-01	-4.8569289460e-01
 1.4839922331e+00	 9.5495683636e-01	-5.6057452590e-01
 1.4747178032e+00	 9.6921763528e-01	-6.3418662230e-01
 1.4652969710e+00	 9.8340231503e-01	-7.1135932088e-01
 1.4557306444e+00	 9.9750865235e-01	-7.9092066569e-01
 1.4460197758e+00	 1.0115344378e+00	-8.7131016521e-01
 1.4361653621e+00	 1.0254774768e+00	-9.5091205505e-01
 1.4261684439e+00	 1.0393355909e+00	-1.0280701393e+00
 1.4160301057e+00	 1.0531066184e+00	-1.1011036417e+00
 1.5210010091e+00	 9.1781807523e-01	-3.3828020141e-01
 1.5121119199e+00	 9.3239027028e-01	-4.2047235267e-01
 1.5030729817e+00	 9.4689262505e-01	-5.0079824228e-01
 1.4938849728e+00	 9.6132286653e-01	-5.7864473724e-01
 1.4845487167e+00	 9.7567873224e-01	-6.5336105538e-01
 1.4750650824e+00	 9.8995797134e-01	-7.2614362402e-01
 1.4654349837e+00	 1.0041583458e+00	-8.0182023339e-01
 1.4556593796e+00	 1.0182776313e+00	-8.7920619845e-01
 1.4457392734e+00	 1.0323136188e+00	-9.5660510173e-01
 1.4356757127e+00	 1.0462641152e+00	-1.0322748133e+00
 1.4254697893e+00	 1.0601269446e+00	-1.1044439506e+00
 1.5310733154e+00	 9.2389600988e-01	-3.4651076651e-01
 1.5221253612e+00	 9.3856470428e-01	-4.3008320049e-01
 1.5130265658e+00	 9.5316309591e-01	-5.1224404836e-01
 1.5037777124e+00	 9.6768889670e-01	-5.9234518506e-01
 1.4943796302e+00	 9.8213982919e-01	-6.6969987404e-01
 1.4848331937e+00	 9.9651362764e-01	-7.4357762973e-01
 1.4751393231e+00	 1.0108080392e+00	-8.1493322979e-01
 1.4652989834e+00	 1.0250208248e+00	-8.8844299494e-01
 1.4553131847e+00	 1.0391497609e+00	-9.6284523554e-01
 1.4451829815e+00	 1.0531926396e+00	-1.0363197551e+00
 1.4349094729e+00	 1.0671472708e+00	-1.1070116247e+00
 1.5411456216e+00	 9.2997394453e-01	-3.5302936124e-01
 1.5321388025e+00	 9.4473913828e-01	-4.3730249847e-01
 1.5229801498e+00	 9.5943356677e-01	-5.2060253070e-01
 1.5136704520e+00	 9.7405492687e-01	-6.0225849510e-01
 1.5042105436e+00	 9.8860092615e-01	-6.8155951012e-01
 1.4946013051e+00	 1.0030692840e+00	-7.5774945009e-01
 1.4848436624e+00	 1.0174577326e+00	-8.3002142282e-01
 1.4749385872e+00	 1.0317640184e+00	-8.9924054153e-01
 1.4648870959e+00	 1.0459859029e+00	-9.6982466002e-01
 1.4546902503e+00	 1.0601211640e+00	-1.0403616094e+00
 1.4443491565e+00	 1.0741675971e+00	-1.1089196970e+00
 1.5512179279e+00	 9.3605187918e-01	-3.5834650486e-01
 1.5421522439e+00	 9.5091357228e-01	-4.4266591534e-01
 1.5329337339e+00	 9.6570403762e-01	-5.2642712973e-01
 1.5235631916e+00	 9.8042095704e-01	-6.0894827089e-01
 1.5140414571e+00	 9.9506202311e-01	-6.8950589921e-01
 1.5043694165e+00	 1.0096249403e+00	-7.6732947421e-01
 1.4945480018e+00	 1.0241074260e+00	-8.4159560645e-01
 1.4845781909e+00	 1.0385072119e+00	-9.1142212931e-01
 1.4744610072e+00	 1.0528220449e+00	-9.7771982795e-01
 1.4641975191e+00	 1.0670496884e+00	-1.0445428787e+00
 1.4537888401e+00	 1.0811879233e+00	-1.1102689765e+00
 1.5612902341e+00	 9.4212981382e-01	-3.6295552444e-01
 1.5521656852e+00	 9.5708800628e-01	-4.4669132512e-01
 1.5428873179e+00	 9.7197450848e-01	-5.3025306529e-01
 1.5334559312e+00	 9.8678698721e-01	-6.1295965267e-01
 1.5238723706e+00	 1.0015231201e+00	-6.9408646052e-01
 1.5141375278e+00	 1.0161805966e+00	-7.7285955136e-01
 1.5042523411e+00	 1.0307571194e+00	-8.4844967775e-01
 1.4942177947e+00	 1.0452504054e+00	-9.1996609096e-01
 1.4840349185e+00	 1.0596581869e+00	-9.8645019123e-01
 1.4737047879e+00	 1.0739782128e+00	-1.0489912066e+00
 1.4632285237e+00	 1.0882082495e+00	-1.1111472910e+00
 1.3688316878e+00	 1.0180049874e+00	-1.0680952443e+00
 1.3588939600e+00	 1.0312329901e+00	-1.1354212409e+00
 1.3488217081e+00	 1.0443726461e+00	-1.2031420051e+00
 1.3386161114e+00	 1.0574219132e+00	-1.2699784648e+00
 1.3282783900e+00	 1.0703787698e+00	-1.3346637723e+00
 1.3178098041e+00	 1.0832412162e+00	-1.3959593048e+00
 1.3072116541e+00	 1.0960072751e+00	-1.4526710953e+00
 1.2964852796e+00	 1.1086749932e+00	-1.5036666071e+00
 1.2856320588e+00	 1.1212424415e+00	-1.5508383117e+00
 1.2746534085e+00	 1.1337077169e+00	-1.5995296300e+00
 1.2635507828e+00	 1.1460689427e+00	-1.6496691461e+00
 1.3782713714e+00	 1.0250253136e+00	-1.0773696027e+00
 1.3682651114e+00	 1.0383445387e+00	-1.1457940331e+00
 1.3581233997e+00	 1.0515748079e+00	-1.2139099350e+00
 1.3478474235e+00	 1.0647140648e+00	-1.2804170198e+00
 1.3374384115e+00	 1.0777602741e+00	-1.3440248444e+00
 1.3268976326e+00	 1.0907114219e+00	-1.4034694275e+00
 1.3162263960e+00	 1.1035655177e+00	-1.4575303248e+00
 1.3054260507e+00	 1.1163205943e+00	-1.5057849916e+00
 1.2944979844e+00	 1.1289747098e+00	-1.5539229997e+00
 1.2834436235e+00	 1.1415259477e+00	-1.6031808567e+00
 1.2722644323e+00	 1.1539724186e+00	-1.6533205704e+00
 1.3877110549e+00	 1.0320456398e+00	-1.0851489988e+00
 1.3776362628e+00	 1.0454560874e+00	-1.1544145631e+00
 1.3674250912e+00	 1.0587769697e+00	-1.2227295574e+00
 1.3570787357e+00	 1.0720062165e+00	-1.2887592516e+00
 1.3465984330e+00	 1.0851417783e+00	-1.3511766598e+00
 1.3359854611e+00	 1.0981816277e+00	-1.4086798104e+00
 1.3252411380e+00	 1.1111237602e+00	-1.4600095124e+00
 1.3143668218e+00	 1.1239661955e+00	-1.5083509961e+00
 1.3033639099e+00	 1.1367069781e+00	-1.5575009694e+00
 1.2922338385e+00	 1.1493441786e+00	-1.6072034077e+00
 1.2809780818e+00	 1.1618758944e+00	-1.6572090319e+00
 1.3971507385e+00	 1.0390659660e+00	-1.0915963813e+00
 1.3870074142e+00	 1.0525676360e+00	-1.1613916583e+00
 1.3767267828e+00	 1.0659791316e+00	-1.2296650996e+00
 1.3663100478e+00	 1.0792983682e+00	-1.2950344191e+00
 1.3557584545e+00	 1.0925232825e+00	-1.3561232364e+00
 1.3450732895e+00	 1.1056518334e+00	-1.4115790387e+00
 1.3342558799e+00	 1.1186820028e+00	-1.4615148378e+00
 1.3233075929e+00	 1.1316117967e+00	-1.5113026721e+00
 1.3122298355e+00	 1.1444392464e+00	-1.5613580551e+00
 1.3010240536e+00	 1.1571624094e+00	-1.6114042289e+00
 1.2896917313e+00	 1.1697793703e+00	-1.6611725843e+00
 1.4065904221e+00	 1.0460862922e+00	-1.0968661941e+00
 1.3963785657e+00	 1.0596791847e+00	-1.1668278811e+00
 1.3860284743e+00	 1.0731812934e+00	-1.2347765894e+00
 1.3755413599e+00	 1.0865905198e+00	-1.2992694643e+00
 1.3649184761e+00	 1.0999047868e+00	-1.3588679671e+00
 1.3541611180e+00	 1.1131220392e+00	-1.4122501740e+00
 1.3432706218e+00	 1.1262402453e+00	-1.4632949464e+00
 1.3322483640e+00	 1.1392573978e+00	-1.5144101797e+00
 1.3210957611e+00	 1.1521715147e+00	-1.5652757637e+00
 1.3098142686e+00	 1.1649806403e+00	-1.6155857241e+00
 1.2984053809e+00	 1.1776828461e+00	-1.6650442403e+00
 1.4160301057e+00	 1.0531066184e+00	-1.1011036417e+00
 1.4057497171e+00	 1.0667907333e+00	-1.1708187448e+00
 1.3953301659e+00	 1.0803834552e+00	-1.2381190284e+00
 1.3847726720e+00	 1.0938826715e+00	-1.3014881522e+00
 1.3740784976e+00	 1.1072862910e+00	-1.3594127359e+00
 1.3632489465e+00	 1.1205922449e+00	-1.4124140802e+00
 1.3522853637e+00	 1.1337984878e+00	-1.4651136108e+00
 1.3411891352e+00	 1.1469029990e+00	-1.5174395792e+00
 1.3299616866e+00	 1.1599037830e+00	-1.5690315574e+00
 1.3186044836e+00	 1.1727988711e+00	-1.6195460343e+00
 1.3071190304e+00	 1.1855863220e+00	-1.6686522551e+00
 1.4254697893e+00	 1.0601269446e+00	-1.1044439506e+00
 1.4151208685e+00	 1.0739022820e+00	-1.1734519259e+00
 1.4046318574e+00	 1.0875856170e+00	-1.2397415644e+00
 1.3940039841e+00	 1.1011748232e+00	-1.3017102120e+00
 1.3832385191e+00	 1.1146677953e+00	-1.3580176305e+00
 1.3723367749e+00	 1.1280624506e+00	-1.4125407399e+00
 1.3613001057e+00	 1.1413567304e+00	-1.4667304965e+00
 1.3501299063e+00	 1.1545486002e+00	-1.5201531296e+00
 1.3388276122e+00	 1.1676360513e+00	-1.5723991406e+00
 1.3273946986e+00	 1.1806171020e+00	-1.6230793204e+00
 1.3158326799e+00	 1.1934897979e+00	-1.6718204135e+00
 1.4349094729e+00	 1.0671472708e+00	-1.1070116247e+00
 1.4244920199e+00	 1.0810138306e+00	-1.1748064734e+00
 1.4139335490e+00	 1.0947877789e+00	-1.2396866635e+00
 1.4032352962e+00	 1.1084669749e+00	-1.2999504791e+00
 1.3923985406e+00	 1.1220492995e+00	-1.3562754622e+00
 1.3814246034e+00	 1.1355326564e+00	-1.4123915908e+00
 1.3703148476e+00	 1.1489149729e+00	-1.4679014845e+00
 1.3590706774e+00	 1.1621942013e+00	-1.5223095926e+00
 1.3476935378e+00	 1.1753683197e+00	-1.5751487516e+00
 1.3361849136e+00	 1.1884353329e+00	-1.6259760506e+00
 1.3245463295e+00	 1.2013932737e+00	-1.6743683211e+00
 1.4443491565e+00	 1.0741675971e+00	-1.1089196970e+00
 1.4338631713e+00	 1.0881253792e+00	-1.1749520169e+00
 1.4232352405e+00	 1.1019899407e+00	-1.2379892809e+00
 1.4124666083e+00	 1.1157591265e+00	-1.2966085730e+00
 1.4015585622e+00	 1.1294308037e+00	-1.3542661955e+00
 1.3905124319e+00	 1.1430028621e+00	-1.4117240994e+00
 1.3793295895e+00	 1.1564732155e+00	-1.4683789985e+00
 1.3680114485e+00	 1.1698398025e+00	-1.5236645400e+00
 1.3565594633e+00	 1.1831005880e+00	-1.5770474585e+00
 1.3449751287e+00	 1.1962535637e+00	-1.6280232917e+00
 1.3332599790e+00	 1.2092967496e+00	-1.6761116978e+00
 1.4537888401e+00	 1.0811879233e+00	-1.1102689765e+00
 1.4432343228e+00	 1.0952369279e+00	-1.1739479710e+00
 1.4325369321e+00	 1.1091921025e+00	-1.2346760317e+00
 1.4216979205e+00	 1.1230512782e+00	-1.2929924440e+00
 1.4107185837e+00	 1.1368123080e+00	-1.3517560343e+00
 1.3996002604e+00	 1.1504730679e+00	-1.4102921176e+00
 1.3883443314e+00	 1.1640314580e+00	-1.4679123350e+00
 1.3769522196e+00	 1.1774854036e+00	-1.5239706656e+00
 1.3654253889e+00	 1.1908328563e+00	-1.5778594590e+00
 1.3537653437e+00	 1.2040717946e+00	-1.6290050041e+00
 1.3419736285e+00	 1.2172002254e+00	-1.6768626757e+00
 1.4632285237e+00	 1.0882082495e+00	-1.1111472910e+00
 1.4526054742e+00	 1.1023484765e+00	-1.1718427383e+00
 1.4418386236e+00	 1.1163942643e+00	-1.2302002369e+00
 1.4309292326e+00	 1.1303434299e+00	-1.2890136982e+00
 1.4198786052e+00	 1.1441938122e+00	-1.3485072333e+00
 1.4086880888e+00	 1.1579432736e+00	-1.4078462408e+00
 1.3973590734e+00	 1.1715897005e+00	-1.4662479974e+00
 1.3858929907e+00	 1.1851310048e+00	-1.5229781007e+00
 1.3742913144e+00	 1.1985651246e+00	-1.5773463839e+00
 1.3625555587e+00	 1.2118900254e+00	-1.6287023403e+00
 1.3506872780e+00	 1.2251037013e+00	-1.6764300991e+00
 1.2635507828e+00	 1.1460689427e+00	-1.6496691461e+00
 1.2523275879e+00	 1.1583221992e+00	-1.6989482582e+00
 1.2409834572e+00	 1.1704677932e+00	-1.7453057004e+00
 1.2295199330e+00	 1.1825039542e+00	-1.7888684308e+00
 1.2179385926e+00	 1.1944289420e+00	-1.8297792755e+00
 1.2062410473e+00	 1.2062410473e+00	-1.8681924878e+00
 1.1944289420e+00	 1.2179385926e+00	-1.9042692129e+00
 1.1825039542e+00	 1.2295199330e+00	-1.9381728972e+00
 1.1704677932e+00	 1.2409834572e+00	-1.9700646778e+00
 1.1583221992e+00	 1.2523275879e+00	-2.0000987919e+00
 1.1460689427e+00	 1.2635507828e+00	-2.0284180425e+00
 1.2722644323e+00	 1.1539724186e+00	-1.6533205704e+00
 1.2609638404e+00	 1.1663101754e+00	-1.7022562765e+00
 1.2495414788e+00	 1.1785395274e+00	-1.7481679151e+00
 1.2379989003e+00	 1.1906586918e+00	-1.7912075593e+00
 1.2263376931e+00	 1.2026659162e+00	-1.8315433663e+00
 1.2145594797e+00	 1.2145594797e+00	-1.8693548571e+00
 1.2026659162e+00	 1.2263376931e+00	-1.9048280975e+00
 1.1906586918e+00	 1.2379989003e+00	-1.9381508206e+00
 1.1785395274e+00	 1.2495414788e+00	-1.9695075287e+00
 1.1663101754e+00	 1.2609638404e+00	-1.9990746168e+00
 1.1539724186e+00	 1.2722644323e+00	-2.0270155545e+00
 1.2809780818e+00	 1.1618758944e+00	-1.6572090319e+00
 1.2696000930e+00	 1.1742981517e+00	-1.7056545453e+00
 1.2580995004e+00	 1.1866112617e+00	-1.7509660452e+00
 1.2464778676e+00	 1.1988134293e+00	-1.7933207805e+00
 1.2347367936e+00	 1.2109028904e+00	-1.8329123655e+00
 1.2228779120e+00	 1.2228779120e+00	-1.8699457687e+00
 1.2109028904e+00	 1.2347367936e+00	-1.9046321984e+00
 1.1988134293e+00	 1.2464778676e+00	-1.9371839257e+00
 1.1866112617e+00	 1.2580995004e+00	-1.9678090877e+00
 1.1742981517e+00	 1.2696000930e+00	-1.9967065117e+00
 1.1618758944e+00	 1.2809780818e+00	-2.0240606021e+00
 1.2896917313e+00	 1.1697793703e+00	-1.6611725843e+00
 1.2782363456e+00	 1.1822861280e+00	-1.7090175584e+00
 1.2666575220e+00	 1.1946829959e+00	-1.7536116035e+00
 1.2549568349e+00	 1.2069681669e+00	-1.7951572165e+00
 1.2431358941e+00	 1.2191398646e+00	-1.8338736077e+00
 1.2311963444e+00	 1.2311963444e+00	-1.8699913872e+00
 1.2191398646e+00	 1.2431358941e+00	-1.9037471416e+00
 1.2069681669e+00	 1.2549568349e+00	-1.9353779470e+00
 1.1946829959e+00	 1.2666575220e+00	-1.9651158595e+00
 1.1822861280e+00	 1.2782363456e+00	-1.9931824282e+00
 1.1697793703e+00	 1.2896917313e+00	-2.0197832740e+00
 1.2984053809e+00	 1.1776828461e+00	-1.6650442403e+00
 1.2868725982e+00	 1.1902741043e+00	-1.7122141114e+00
 1.2752155437e+00	 1.2027547302e+00	-1.7560097197e+00
 1.2634358022e+00	 1.2151229044e+00	-1.7966588954e+00
 1.2515349947e+00	 1.2273768388e+00	-1.8344065985e+00
 1.2395147768e+00	 1.2395147768e+00	-1.8695092898e+00
 1.2273768388e+00	 1.2515349947e+00	-1.9022291877e+00
 1.2151229044e+00	 1.2634358022e+00	-1.9328284568e+00
 1.2027547302e+00	 1.2752155437e+00	-1.9615633737e+00
 1.1902741043e+00	 1.2868725982e+00	-1.9886785152e+00
 1.1776828461e+00	 1.2984053809e+00	-2.0144010168e+00
 1.3071190304e+00	 1.1855863220e+00	-1.6686522551e+00
 1.2955088507e+00	 1.1982620806e+00	-1.7151075948e+00
 1.2837735653e+00	 1.2108264644e+00	-1.7580594428e+00
 1.2719147696e+00	 1.2232776420e+00	-1.7977610627e+00
 1.2599340952e+00	 1.2356138130e+00	-1.8344833344e+00
 1.2478332092e+00	 1.2478332092e+00	-1.8685087967e+00
 1.2356138130e+00	 1.2599340952e+00	-1.9001255717e+00
 1.2232776420e+00	 1.2719147696e+00	-1.9296212153e+00
 1.2108264644e+00	 1.2837735653e+00	-1.9572765451e+00
 1.1982620806e+00	 1.2955088507e+00	-1.9833594908e+00
 1.1855863220e+00	 1.3071190304e+00	-2.0081190178e+00
 1.3158326799e+00	 1.1934897979e+00	-1.6718204135e+00
 1.3041451033e+00	 1.2062500569e+00	-1.7175562892e+00
 1.2923315869e+00	 1.2188981987e+00	-1.7596540444e+00
 1.2803937369e+00	 1.2314323796e+00	-1.7983924934e+00
 1.2683331957e+00	 1.2438507872e+00	-1.8340686240e+00
 1.2561516415e+00	 1.2561516415e+00	-1.8669913009e+00
 1.2438507872e+00	 1.2683331957e+00	-1.8974748417e+00
 1.2314323796e+00	 1.2803937369e+00	-1.9258325183e+00
 1.2188981987e+00	 1.2923315869e+00	-1.9523700309e+00
 1.2062500569e+00	 1.3041451033e+00	-1.9773790080e+00
 1.1934897979e+00	 1.3158326799e+00	-2.0011305811e+00
 1.3245463295e+00	 1.2013932737e+00	-1.6743683211e+00
 1.3127813559e+00	 1.2142380332e+00	-1.7194136637e+00
 1.3008896085e+00	 1.2269699329e+00	-1.7606813252e+00
 1.2888727042e+00	 1.2395871171e+00	-1.7984758053e+00
 1.2767322962e+00	 1.2520877614e+00	-1.8331204094e+00
 1.2644700739e+00	 1.2644700739e+00	-1.8649505967e+00
 1.2520877614e+00	 1.2767322962e+00	-1.8943071960e+00
 1.2395871171e+00	 1.2888727042e+00	-1.9215295422e+00
 1.2269699329e+00	 1.3008896085e+00	-1.9469485840e+00
 1.2142380332e+00	 1.3127813559e+00	-1.9708800177e+00
 1.2013932737e+00	 1.3245463295e+00	-1.9936174991e+00
 1.3332599790e+00	 1.2092967496e+00	-1.6761116978e+00
 1.3214176084e+00	 1.2222260094e+00	-1.7205286770e+00
 1.3094476301e+00	 1.2350416672e+00	-1.7610239217e+00
 1.2973516715e+00	 1.2477418547e+00	-1.7979277737e+00
 1.2851313968e+00	 1.2603247356e+00	-1.8315900869e+00
 1.2727885063e+00	 1.2727885063e+00	-1.8623732081e+00
 1.2603247356e+00	 1.2851313968e+00	-1.8906448179e+00
 1.2477418547e+00	 1.2973516715e+00	-1.9167706870e+00
 1.2350416672e+00	 1.3094476301e+00	-1.9411074036e+00
 1.2222260094e+00	 1.3214176084e+00	-1.9639951261e+00
 1.2092967496e+00	 1.3332599790e+00	-1.9857504178e+00
 1.3419736285e+00	 1.2172002254e+00	-1.6768626757e+00
 1.3300538610e+00	 1.2302139857e+00	-1.7207460800e+00
 1.3180056518e+00	 1.2431134015e+00	-1.7605596161e+00
 1.3058306388e+00	 1.2558965922e+00	-1.7966596460e+00
 1.2935304973e+00	 1.2685617098e+00	-1.8294228285e+00
 1.2811069386e+00	 1.2811069386e+00	-1.8592387168e+00
 1.2685617098e+00	 1.2935304973e+00	-1.8865022101e+00
 1.2558965922e+00	 1.3058306388e+00	-1.9116059162e+00
 1.2431134015e+00	 1.3180056518e+00	-1.9349324816e+00
 1.2302139857e+00	 1.3300538610e+00	-1.9568469490e+00
 1.2172002254e+00	 1.3419736285e+00	-1.9776891988e+00
 1.3506872780e+00	 1.2251037013e+00	-1.6764300991e+00
 1.3386901136e+00	 1.2382019620e+00	-1.7199067220e+00
 1.3265636734e+00	 1.2511851357e+00	-1.7591616467e+00
 1.3143096061e+00	 1.2640513298e+00	-1.7945774586e+00
 1.3019295978e+00	 1.2767986840e+00	-1.8265579035e+00
 1.2894253710e+00	 1.2894253710e+00	-1.8555200882e+00
 1.2767986840e+00	 1.3019295978e+00	-1.8818865271e+00
 1.2640513298e+00	 1.3143096061e+00	-1.9060770955e+00
 1.2511851357e+00	 1.3265636734e+00	-1.9285009474e+00
 1.2382019620e+00	 1.3386901136e+00	-1.9495484617e+00
 1.2251037013e+00	 1.3506872780e+00	-1.9695832750e+00
 1.1460689427e+00	 1.2635507828e+00	-2.0284180425e+00
 1.1337077169e+00	 1.2746534085e+00	-2.0523888409e+00
 1.1212424415e+00	 1.2856320588e+00	-2.0693365035e+00
 1.1086749932e+00	 1.2964852796e+00	-2.0794738119e+00
 1.0960072751e+00	 1.3072116541e+00	-2.0873030623e+00
 1.0832412162e+00	 1.3178098041e+00	-2.0946016809e+00
 1.0703787698e+00	 1.3282783900e+00	-2.1007374231e+00
 1.0574219132e+00	 1.3386161114e+00	-2.1050120323e+00
 1.0443726461e+00	 1.3488217081e+00	-2.1066772454e+00
 1.0312329901e+00	 1.3588939600e+00	-2.1049506211e+00
 1.0180049874e+00	 1.3688316878e+00	-2.0990311021e+00
 1.1539724186e+00	 1.2722644323e+00	-2.0270155545e+00
 1.1415259477e+00	 1.2834436235e+00	-2.0509234151e+00
 1.1289747098e+00	 1.2944979844e+00	-2.0683148593e+00
 1.1163205943e+00	 1.3054260507e+00	-2.0792399033e+00
 1.1035655177e+00	 1.3162263960e+00	-2.0849360724e+00
 1.0907114219e+00	 1.3268976326e+00	-2.0902344691e+00
 1.0777602741e+00	 1.3374384115e+00	-2.0950526620e+00
 1.0647140648e+00	 1.3478474235e+00	-2.0986504196e+00
 1.0515748079e+00	 1.3581233997e+00	-2.1002382949e+00
 1.0383445387e+00	 1.3682651114e+00	-2.0989941589e+00
 1.0250253136e+00	 1.3782713714e+00	-2.0940794450e+00
 1.1618758944e+00	 1.2809780818e+00	-2.0240606021e+00
 1.1493441786e+00	 1.2922338385e+00	-2.0477120331e+00
 1.1367069781e+00	 1.3033639099e+00	-2.0653875162e+00
 1.1239661955e+00	 1.3143668218e+00	-2.0770999332e+00
 1.1111237602e+00	 1.3252411380e+00	-2.0828582592e+00
 1.0981816277e+00	 1.3359854611e+00	-2.0859935271e+00
 1.0851417783e+00	 1.3465984330e+00	-2.0893585182e+00
 1.0720062165e+00	 1.3570787357e+00	-2.0921629491e+00
 1.0587769697e+00	 1.3674250912e+00	-2.0935675660e+00
 1.0454560874e+00	 1.3776362628e+00	-2.0927014252e+00
 1.0320456398e+00	 1.3877110549e+00	-2.0886788572e+00
 1.1697793703e+00	 1.2896917313e+00	-2.0197832740e+00
 1.1571624094e+00	 1.3010240536e+00	-2.0430217004e+00
 1.1444392464e+00	 1.3122298355e+00	-2.0608472959e+00
 1.1316117967e+00	 1.3233075929e+00	-2.0732321780e+00
 1.1186820028e+00	 1.3342558799e+00	-2.0801434941e+00
 1.1056518334e+00	 1.3450732895e+00	-2.0821268054e+00
 1.0925232825e+00	 1.3557584545e+00	-2.0838818632e+00
 1.0792983682e+00	 1.3663100478e+00	-2.0857444194e+00
 1.0659791316e+00	 1.3767267828e+00	-2.0868167683e+00
 1.0525676360e+00	 1.3870074142e+00	-2.0861700155e+00
 1.0390659660e+00	 1.3971507385e+00	-2.0828617990e+00
 1.1776828461e+00	 1.2984053809e+00	-2.0144010168e+00
 1.1649806403e+00	 1.3098142686e+00	-2.0371060903e+00
 1.1521715147e+00	 1.3210957611e+00	-2.0549733073e+00
 1.1392573978e+00	 1.3322483640e+00	-2.0679304753e+00
 1.1262402453e+00	 1.3432706218e+00	-2.0758986927e+00
 1.1131220392e+00	 1.3541611180e+00	-2.0787878314e+00
 1.0999047868e+00	 1.3649184761e+00	-2.0788365145e+00
 1.0865905198e+00	 1.3755413599e+00	-2.0795786083e+00
 1.0731812934e+00	 1.3860284743e+00	-2.0801288942e+00
 1.0596791847e+00	 1.3963785657e+00	-2.0794913759e+00
 1.0460862922e+00	 1.4065904221e+00	-2.0766574059e+00
 1.1855863220e+00	 1.3071190304e+00	-2.0081190178e+00
 1.1727988711e+00	 1.3186044836e+00	-2.0302059327e+00
 1.1599037830e+00	 1.3299616866e+00	-2.0480313305e+00
 1.1469029990e+00	 1.3411891352e+00	-2.0614752481e+00
 1.1337984878e+00	 1.3522853637e+00	-2.0704086042e+00
 1.1205922449e+00	 1.3632489465e+00	-2.0746884871e+00
 1.1072862910e+00	 1.3740784976e+00	-2.0744234792e+00
 1.0938826715e+00	 1.3847726720e+00	-2.0738384954e+00
 1.0803834552e+00	 1.3953301659e+00	-2.0736384101e+00
 1.0667907333e+00	 1.4057497171e+00	-2.0727509517e+00
 1.0531066184e+00	 1.4160301057e+00	-2.0700915861e+00
 1.1934897979e+00	 1.3158326799e+00	-2.0011305811e+00
 1.1806171020e+00	 1.3273946986e+00	-2.0225493950e+00
 1.1676360513e+00	 1.3388276122e+00	-2.0402741935e+00
 1.1545486002e+00	 1.3501299063e+00	-2.0541338673e+00
 1.1413567304e+00	 1.3613001057e+00	-2.0639451148e+00
 1.1280624506e+00	 1.3723367749e+00	-2.0695075316e+00
 1.1146677953e+00	 1.3832385191e+00	-2.0705990163e+00
 1.1011748232e+00	 1.3940039841e+00	-2.0686864820e+00
 1.0875856170e+00	 1.4046318574e+00	-2.0674714468e+00
 1.0739022820e+00	 1.4151208685e+00	-2.0660283394e+00
 1.0601269446e+00	 1.4254697893e+00	-2.0631871225e+00
 1.2013932737e+00	 1.3245463295e+00	-1.9936174991e+00
 1.1884353329e+00	 1.3361849136e+00	-2.0143524582e+00
 1.1753683197e+00	 1.3476935378e+00	-2.0319421430e+00
 1.1621942013e+00	 1.3590706774e+00	-2.0461610074e+00
 1.1489149729e+00	 1.3703148476e+00	-2.0567675804e+00
 1.1355326564e+00	 1.3814246034e+00	-2.0634993507e+00
 1.1220492995e+00	 1.3923985406e+00	-2.0660679865e+00
 1.1084669749e+00	 1.4032352962e+00	-2.0642746076e+00
 1.0947877789e+00	 1.4139335490e+00	-2.0617459882e+00
 1.0810138306e+00	 1.4244920199e+00	-2.0593974383e+00
 1.0671472708e+00	 1.4349094729e+00	-2.0559637790e+00
 1.2092967496e+00	 1.3332599790e+00	-1.9857504178e+00
 1.1962535637e+00	 1.3449751287e+00	-2.0058192861e+00
 1.1831005880e+00	 1.3565594633e+00	-2.0232632082e+00
 1.1698398025e+00	 1.3680114485e+00	-2.0377989967e+00
 1.1564732155e+00	 1.3793295895e+00	-2.0491231524e+00
 1.1430028621e+00	 1.3905124319e+00	-2.0569065394e+00
 1.1294308037e+00	 1.4015585622e+00	-2.0607894132e+00
 1.1157591265e+00	 1.4124666083e+00	-2.0603768485e+00
 1.1019899407e+00	 1.4232352405e+00	-2.0565720599e+00
 1.0881253792e+00	 1.4338631713e+00	-2.0529266038e+00
 1.0741675971e+00	 1.4443491565e+00	-2.0484384096e+00
 1.2172002254e+00	 1.3419736285e+00	-1.9776891988e+00
 1.2040717946e+00	 1.3537653437e+00	-1.9971425892e+00
 1.1908328563e+00	 1.3654253889e+00	-2.0144535588e+00
 1.1774854036e+00	 1.3769522196e+00	-2.0292781603e+00
 1.1640314580e+00	 1.3883443314e+00	-2.0412470991e+00
 1.1504730679e+00	 1.3996002604e+00	-2.0499601920e+00
 1.1368123080e+00	 1.4107185837e+00	-2.0549811994e+00
 1.1230512782e+00	 1.4216979205e+00	-2.0558330793e+00
 1.1091921025e+00	 1.4325369321e+00	-2.0520519165e+00
 1.0952369279e+00	 1.4432343228e+00	-2.0466788020e+00
 1.0811879233e+00	 1.4537888401e+00	-2.0406250715e+00
 1.2251037013e+00	 1.3506872780e+00	-1.9695832750e+00
 1.2118900254e+00	 1.3625555587e+00	-1.9885039838e+00
 1.1985651246e+00	 1.3742913144e+00	-2.0057178580e+00
 1.1851310048e+00	 1.3858929907e+00	-2.0208171589e+00
 1.1715897005e+00	 1.3973590734e+00	-2.0333631207e+00
 1.1579432736e+00	 1.4086880888e+00	-2.0428801862e+00
 1.1441938122e+00	 1.4198786052e+00	-2.0488506379e+00
 1.1303434299e+00	 1.4309292326e+00	-2.0507096738e+00
 1.1163942643e+00	 1.4418386236e+00	-2.0478409733e+00
 1.1023484765e+00	 1.4526054742e+00	-2.0407117652e+00
 1.0882082495e+00	 1.4632285237e+00	-2.0325351410e+00
 1.0180049874e+00	 1.3688316878e+00	-2.0990311021e+00
 1.0046929689e+00	 1.3786320998e+00	-2.0919002650e+00
 9.9129676672e-01	 1.3882958057e+00	-2.0864295704e+00
 9.7781847021e-01	 1.3978217570e+00	-2.0816492301e+00
 9.6426018533e-01	 1.4072089476e+00	-2.0765966262e+00
 9.5062403349e-01	 1.4164564141e+00	-2.0703297238e+00
 9.3691215050e-01	 1.4255632358e+00	-2.0619397995e+00
 9.2312668550e-01	 1.4345285350e+00	-2.0505634225e+00
 9.0926979989e-01	 1.4433514774e+00	-2.0353936367e+00
 8.9534366627e-01	 1.4520312720e+00	-2.0156902947e+00
 8.8135046733e-01	 1.4605671716e+00	-1.9907895006e+00
 1.0250253136e+00	 1.3782713714e+00	-2.0940794450e+00
 1.0116214933e+00	 1.3881393686e+00	-2.0881281460e+00
 9.9813290874e-01	 1.3978697170e+00	-2.0836381523e+00
 9.8456166372e-01	 1.4074613608e+00	-2.0795636038e+00
 9.7090987873e-01	 1.4169132870e+00	-2.0748650361e+00
 9.5717968980e-01	 1.4262245255e+00	-2.0685234314e+00
 9.4337324745e-01	 1.4353941493e+00	-2.0595535497e+00
 9.2949271567e-01	 1.4444212746e+00	-2.0470164811e+00
 9.1554027075e-01	 1.4533050615e+00	-2.0300313599e+00
 9.0151810027e-01	 1.4620447134e+00	-2.0077861926e+00
 8.8742840198e-01	 1.4706394779e+00	-1.9795477540e+00
 1.0320456398e+00	 1.3877110549e+00	-2.0886788572e+00
 1.0185500177e+00	 1.3976466375e+00	-2.0837315051e+00
 1.0049690508e+00	 1.4074436282e+00	-2.0799357924e+00
 9.9130485724e-01	 1.4171009645e+00	-2.0761708408e+00
 9.7755957214e-01	 1.4266176263e+00	-2.0713222218e+00
 9.6373534610e-01	 1.4359926369e+00	-2.0642966532e+00
 9.4983434441e-01	 1.4452250628e+00	-2.0540359430e+00
 9.3585874584e-01	 1.4543140143e+00	-2.0395301161e+00
 9.2181074161e-01	 1.4632586455e+00	-2.0198296642e+00
 9.0769253427e-01	 1.4720581547e+00	-1.9940568678e+00
 8.9350633663e-01	 1.4807117841e+00	-1.9614161434e+00
 1.0390659660e+00	 1.3971507385e+00	-2.0828617990e+00
 1.0254785421e+00	 1.4071539063e+00	-2.0786779693e+00
 1.0118051928e+00	 1.4170175395e+00	-2.0752367440e+00
 9.9804805076e-01	 1.4267405683e+00	-2.0713430845e+00
 9.8420926554e-01	 1.4363219657e+00	-2.0658092827e+00
 9.7029100241e-01	 1.4457607483e+00	-2.0574703135e+00
 9.5629544137e-01	 1.4550559762e+00	-2.0451983997e+00
 9.4222477601e-01	 1.4642067539e+00	-2.0279167184e+00
 9.2808121247e-01	 1.4732122296e+00	-2.0046121906e+00
 9.1386696827e-01	 1.4820715960e+00	-1.9743640677e+00
 8.9958427128e-01	 1.4907840904e+00	-1.9407241539e+00
 1.0460862922e+00	 1.4065904221e+00	-2.0766574059e+00
 1.0324070665e+00	 1.4166611751e+00	-2.0729346118e+00
 1.0186413348e+00	 1.4265914508e+00	-2.0694571205e+00
 1.0047912443e+00	 1.4363801721e+00	-2.0649563945e+00
 9.9085895895e-01	 1.4460263050e+00	-2.0581729329e+00
 9.7684665872e-01	 1.4555288596e+00	-2.0478722928e+00
 9.6275653833e-01	 1.4648868897e+00	-2.0328602819e+00
 9.4859080619e-01	 1.4740994935e+00	-2.0119972526e+00
 9.3435168333e-01	 1.4831658136e+00	-1.9843409578e+00
 9.2004140227e-01	 1.4920850373e+00	-1.9539484335e+00
 9.0566220593e-01	 1.5008563966e+00	-1.9230802687e+00
 1.0531066184e+00	 1.4160301057e+00	-2.0700915861e+00
 1.0393355909e+00	 1.4261684439e+00	-2.0664679992e+00
 1.0254774768e+00	 1.4361653621e+00	-2.0625149014e+00
 1.0115344378e+00	 1.4460197758e+00	-2.0568907207e+00
 9.9750865235e-01	 1.4557306444e+00	-2.0482654542e+00
 9.8340231503e-01	 1.4652969710e+00	-2.0353373692e+00
 9.6921763528e-01	 1.4747178032e+00	-2.0168488340e+00
 9.5495683636e-01	 1.4839922331e+00	-1.9918700725e+00
 9.4062215419e-01	 1.4931193977e+00	-1.9645960910e+00
 9.2621583628e-01	 1.5020984786e+00	-1.9366947694e+00
 9.1174014058e-01	 1.5109287029e+00	-1.9080133143e+00
 1.0601269446e+00	 1.4254697893e+00	-2.0631871225e+00
 1.0462641152e+00	 1.4356757127e+00	-2.0592442445e+00
 1.0323136188e+00	 1.4457392734e+00	-2.0543299464e+00
 1.0182776313e+00	 1.4556593796e+00	-2.0470298890e+00
 1.0041583458e+00	 1.4654349837e+00	-2.0359446614e+00
 9.8995797134e-01	 1.4750650824e+00	-2.0197071737e+00
 9.7567873224e-01	 1.4845487167e+00	-1.9973716600e+00
 9.6132286653e-01	 1.4938849728e+00	-1.9730471059e+00
 9.4689262505e-01	 1.5030729817e+00	-1.9480213631e+00
 9.3239027028e-01	 1.5121119199e+00	-1.9220781393e+00
 9.1781807523e-01	 1.5210010091e+00	-1.8950332063e+00
 1.0671472708e+00	 1.4349094729e+00	-2.0559637790e+00
 1.0531926396e+00	 1.4451829815e+00	-2.0512290669e+00
 1.0391497609e+00	 1.4553131847e+00	-2.0448240178e+00
 1.0250208248e+00	 1.4652989834e+00	-2.0352615957e+00
 1.0108080392e+00	 1.4751393231e+00	-2.0210738787e+00
 9.9651362764e-01	 1.4848331937e+00	-2.0012408216e+00
 9.8213982919e-01	 1.4943796302e+00	-1.9796466138e+00
 9.6768889670e-01	 1.5037777124e+00	-1.9573529863e+00
 9.5316309591e-01	 1.5130265658e+00	-1.9340802273e+00
 9.3856470428e-01	 1.5221253612e+00	-1.9095862335e+00
 9.2389600988e-01	 1.5310733154e+00	-1.8836618059e+00
 1.0741675971e+00	 1.4443491565e+00	-2.0484384096e+00
 1.0601211640e+00	 1.4546902503e+00	-2.0423878572e+00
 1.0459859029e+00	 1.4648870959e+00	-2.0339208119e+00
 1.0317640184e+00	 1.4749385872e+00	-2.0214774130e+00
 1.0174577326e+00	 1.4848436624e+00	-2.0039012735e+00
 1.0030692840e+00	 1.4946013051e+00	-1.9847527820e+00
 9.8860092615e-01	 1.5042105436e+00	-1.9649840139e+00
 9.7405492687e-01	 1.5136704520e+00	-1.9442496927e+00
 9.5943356677e-01	 1.5229801498e+00	-1.9222486622e+00
 9.4473913828e-01	 1.5321388025e+00	-1.8987188543e+00
 9.2997394453e-01	 1.5411456216e+00	-1.8734324274e+00
 1.0811879233e+00	 1.4537888401e+00	-2.0406250715e+00
 1.0670496884e+00	 1.4641975191e+00	-2.0326857495e+00
 1.0528220449e+00	 1.4744610072e+00	-2.0215459974e+00
 1.0385072119e+00	 1.4845781909e+00	-2.0058664959e+00
 1.0241074260e+00	 1.4945480018e+00	-1.9887919760e+00
 1.0096249403e+00	 1.5043694165e+00	-1.9712595331e+00
 9.9506202311e-01	 1.5140414571e+00	-1.9528538799e+00
 9.8042095704e-01	 1.5235631916e+00	-1.9332113764e+00
 9.6570403762e-01	 1.5329337339e+00	-1.9120146570e+00
 9.5091357228e-01	 1.5421522439e+00	-1.8889874124e+00
 9.3605187918e-01	 1.5512179279e+00	-1.8638893548e+00
 1.0882082495e+00	 1.4632285237e+00	-2.0325351410e+00
 1.0739782128e+00	 1.4737047879e+00	-2.0220876983e+00
 1.0596581869e+00	 1.4840349185e+00	-2.0078083825e+00
 1.0452504054e+00	 1.4942177947e+00	-1.9923213375e+00
 1.0307571194e+00	 1.5042523411e+00	-1.9766319339e+00
 1.0161805966e+00	 1.5141375278e+00	-1.9602480565e+00
 1.0015231201e+00	 1.5238723706e+00	-1.9427378218e+00
 9.8678698721e-01	 1.5334559312e+00	-1.9237238557e+00
 9.7197450848e-01	 1.5428873179e+00	-1.9028777083e+00
 9.5708800628e-01	 1.5521656852e+00	-1.8799144346e+00
 9.4212981382e-01	 1.5612902341e+00	-1.8545873679e+00
 8.8135046733e-01	 1.4605671716e+00	-1.9907895006e+00
 8.6729239509e-01	 1.4689584728e+00	-1.9609383793e+00
 8.5317165060e-01	 1.4772045176e+00	-1.9262247807e+00
 8.3899044203e-01	 1.4853046920e+00	-1.8867587772e+00
 8.2475098331e-01	 1.4932584260e+00	-1.8479313070e+00
 8.1045549309e-01	 1.5010651934e+00	-1.8106427989e+00
 7.9610619362e-01	 1.5087245117e+00	-1.7747313471e+00
 7.8170530976e-01	 1.5162359424e+00	-1.7400391223e+00
 7.6725506789e-01	 1.5235990901e+00	-1.7064100959e+00
 7.5275769489e-01	 1.5308136034e+00	-1.6736879537e+00
 7.3821541710e-01	 1.5378791739e+00	-1.6417679337e+00
 8.8742840198e-01	 1.4706394779e+00	-1.9795477540e+00
 8.7327338301e-01	 1.4790886468e+00	-1.9453998896e+00
 8.5905525959e-01	 1.4873915576e+00	-1.9073236596e+00
 8.4477625513e-01	 1.4955475921e+00	-1.8703880159e+00
 8.3043859881e-01	 1.5035561764e+00	-1.8347269240e+00
 8.1604452459e-01	 1.5114167805e+00	-1.8001653797e+00
 8.0159627004e-01	 1.5191289188e+00	-1.7665345285e+00
 7.8709607536e-01	 1.5266921494e+00	-1.7336691456e+00
 7.7254618230e-01	 1.5341060746e+00	-1.7014053125e+00
 7.5794883309e-01	 1.5413703404e+00	-1.6695782936e+00
 7.4330626941e-01	 1.5484846362e+00	-1.6380206155e+00
 8.9350633663e-01	 1.4807117841e+00	-1.9614161434e+00
 8.7925437093e-01	 1.4892188208e+00	-1.9251224113e+00
 8.6493886859e-01	 1.4975785977e+00	-1.8900307651e+00
 8.5056206823e-01	 1.5057904923e+00	-1.8559781063e+00
 8.3612621431e-01	 1.5138539268e+00	-1.8227816982e+00
 8.2163355609e-01	 1.5217683676e+00	-1.7902675369e+00
 8.0708634646e-01	 1.5295333258e+00	-1.7582675549e+00
 7.9248684097e-01	 1.5371483565e+00	-1.7266170295e+00
 7.7783729672e-01	 1.5446130591e+00	-1.6951521972e+00
 7.6313997128e-01	 1.5519270773e+00	-1.6637080824e+00
 7.4839712172e-01	 1.5590900984e+00	-1.6321165388e+00
 8.9958427128e-01	 1.4907840904e+00	-1.9407241539e+00
 8.8523535885e-01	 1.4993489948e+00	-1.9074437843e+00
 8.7082247759e-01	 1.5077656378e+00	-1.8749815192e+00
 8.5634788133e-01	 1.5160333925e+00	-1.8431510792e+00
 8.4181382982e-01	 1.5241516772e+00	-1.8117780716e+00
 8.2722258758e-01	 1.5321199548e+00	-1.7806968893e+00
 8.1257642288e-01	 1.5399377328e+00	-1.7497478178e+00
 7.9787760658e-01	 1.5476045635e+00	-1.7187743568e+00
 7.8312841113e-01	 1.5551200436e+00	-1.6876207626e+00
 7.6833110948e-01	 1.5624838143e+00	-1.6561298140e+00
 7.5348797403e-01	 1.5696955607e+00	-1.6241408048e+00
 9.0566220593e-01	 1.5008563966e+00	-1.9230802687e+00
 8.9121634678e-01	 1.5094791689e+00	-1.8922105334e+00
 8.7670608658e-01	 1.5179526778e+00	-1.8617539203e+00
 8.6213369443e-01	 1.5262762927e+00	-1.8315392008e+00
 8.4750144532e-01	 1.5344494276e+00	-1.8014073856e+00
 8.3281161908e-01	 1.5424715419e+00	-1.7712085007e+00
 8.1806649930e-01	 1.5503421398e+00	-1.7407985833e+00
 8.0326837219e-01	 1.5580607706e+00	-1.7100369045e+00
 7.8841952555e-01	 1.5656270281e+00	-1.6787834262e+00
 7.7352224768e-01	 1.5730405512e+00	-1.6468964936e+00
 7.5857882634e-01	 1.5803010229e+00	-1.6142307660e+00
 9.1174014058e-01	 1.5109287029e+00	-1.9080133143e+00
 8.9719733470e-01	 1.5196093429e+00	-1.8789633926e+00
 8.8258969558e-01	 1.5281397179e+00	-1.8499369578e+00
 8.6791950753e-01	 1.5365191928e+00	-1.8207845569e+00
 8.5318906082e-01	 1.5447471780e+00	-1.7913695129e+00
 8.3840065058e-01	 1.5528231290e+00	-1.7615645633e+00
 8.2355657572e-01	 1.5607465468e+00	-1.7312487327e+00
 8.0865913780e-01	 1.5685169776e+00	-1.7003044439e+00
 7.9371063996e-01	 1.5761340126e+00	-1.6686148766e+00
 7.7871338588e-01	 1.5835972882e+00	-1.6360615743e+00
 7.6366967865e-01	 1.5909064852e+00	-1.6025223030e+00
 9.1781807523e-01	 1.5210010091e+00	-1.8950332063e+00
 9.0317832262e-01	 1.5297395169e+00	-1.8672546517e+00
 8.8847330457e-01	 1.5383267580e+00	-1.8391301626e+00
 8.7370532062e-01	 1.5467620930e+00	-1.8105386447e+00
 8.5887667632e-01	 1.5550449284e+00	-1.7813724936e+00
 8.4398968208e-01	 1.5631747161e+00	-1.7515340837e+00
 8.2904665214e-01	 1.5711509538e+00	-1.7209325029e+00
 8.1404990341e-01	 1.5789731847e+00	-1.6894805407e+00
 7.9900175438e-01	 1.5866409972e+00	-1.6570919358e+00
 7.8390452408e-01	 1.5941540251e+00	-1.6236788865e+00
 7.6876053097e-01	 1.6015119474e+00	-1.5891498254e+00
 9.2389600988e-01	 1.5310733154e+00	-1.8836618059e+00
 9.0915931054e-01	 1.5398696909e+00	-1.8566476818e+00
 8.9435691357e-01	 1.5485137980e+00	-1.8289431668e+00
 8.7949113372e-01	 1.5570049932e+00	-1.8004619702e+00
 8.6456429182e-01	 1.5653426788e+00	-1.7711321769e+00
 8.4957871358e-01	 1.5735263033e+00	-1.7408925725e+00
 8.3453672857e-01	 1.5815553609e+00	-1.7096892281e+00
 8.1944066902e-01	 1.5894293917e+00	-1.6774723528e+00
 8.0429286880e-01	 1.5971479817e+00	-1.6441934183e+00
 7.8909566228e-01	 1.6047107621e+00	-1.6098025612e+00
 7.7385138328e-01	 1.6121174097e+00	-1.5742462625e+00
 9.2997394453e-01	 1.5411456216e+00	-1.8734324274e+00
 9.1514029846e-01	 1.5499998649e+00	-1.8467164694e+00
 9.0024052256e-01	 1.5587008381e+00	-1.8189952705e+00
 8.8527694682e-01	 1.5672478933e+00	-1.7902236534e+00
 8.7025190732e-01	 1.5756404292e+00	-1.7603718674e+00
 8.5516774508e-01	 1.5838778904e+00	-1.7294217366e+00
 8.4002680499e-01	 1.5919597679e+00	-1.6973630824e+00
 8.2483143463e-01	 1.5998855988e+00	-1.6641904273e+00
 8.0958398321e-01	 1.6076549662e+00	-1.6298999858e+00
 7.9428680048e-01	 1.6152674990e+00	-1.5944869466e+00
 7.7894223559e-01	 1.6227228720e+00	-1.5579430462e+00
 9.3605187918e-01	 1.5512179279e+00	-1.8638893548e+00
 9.2112128638e-01	 1.5601300389e+00	-1.8370451608e+00
 9.0612413156e-01	 1.5688878781e+00	-1.8089150174e+00
 8.9106275992e-01	 1.5774907935e+00	-1.7795010389e+00
 8.7593952282e-01	 1.5859381796e+00	-1.7488219758e+00
 8.6075677658e-01	 1.5942294775e+00	-1.7169091742e+00
 8.4551688141e-01	 1.6023641749e+00	-1.6838028226e+00
 8.3022220024e-01	 1.6103418058e+00	-1.6495484954e+00
 8.1487509763e-01	 1.6181619507e+00	-1.6141939982e+00
 7.9947793868e-01	 1.6258242359e+00	-1.5777865189e+00
 7.8403308790e-01	 1.6333283342e+00	-1.5403700851e+00
 9.4212981382e-01	 1.5612902341e+00	-1.8545873679e+00
 9.2710227430e-01	 1.5702602129e+00	-1.8272276138e+00
 9.1200774055e-01	 1.5790749182e+00	-1.7983397769e+00
 8.9684857302e-01	 1.5877336937e+00	-1.7679793123e+00
 8.8162713832e-01	 1.5962359300e+00	-1.7362196740e+00
 8.6634580808e-01	 1.6045810646e+00	-1.7031480723e+00
 8.5100695783e-01	 1.6127685819e+00	-1.6688615326e+00
 8.3561296584e-01	 1.6207980129e+00	-1.6334632669e+00
 8.2016621204e-01	 1.6286689352e+00	-1.5970593619e+00
 8.0466907688e-01	 1.6363809729e+00	-1.5597557880e+00
 7.8912394021e-01	 1.6439337965e+00	-1.5216557304e+00
 7.3821541710e-01	 1.5378791739e+00	-1.6417679337e+00
 7.2362797608e-01	 1.5447966993e+00	-1.6101310927e+00
 7.0900006314e-01	 1.5515647425e+00	-1.5773377103e+00
 6.9433389730e-01	 1.5581831225e+00	-1.5434321565e+00
 6.7963169310e-01	 1.5646517010e+00	-1.5084098412e+00
 6.6489565953e-01	 1.5709703816e+00	-1.4722223178e+00
 6.5012799914e-01	 1.5771391098e+00	-1.4347821226e+00
 6.3533090704e-01	 1.5831578723e+00	-1.3959673435e+00
 6.2050657002e-01	 1.5890266971e+00	-1.3556259138e+00
 6.0565716559e-01	 1.5947456527e+00	-1.3135796273e+00
 5.9078486111e-01	 1.6003148479e+00	-1.2696278734e+00
 7.4330626941e-01	 1.5484846362e+00	-1.6380206155e+00
 7.2861823105e-01	 1.5554498659e+00	-1.6052260448e+00
 7.1388944166e-01	 1.5622645826e+00	-1.5710456595e+00
 6.9912213559e-01	 1.5689286041e+00	-1.5356023991e+00
 6.8431854262e-01	 1.5754417909e+00	-1.4989160421e+00
 6.6948088700e-01	 1.5818040462e+00	-1.4609679166e+00
 6.5461138644e-01	 1.5880153148e+00	-1.4217057398e+00
 6.3971225121e-01	 1.5940755837e+00	-1.3810481687e+00
 6.2478568318e-01	 1.5999848809e+00	-1.3388890581e+00
 6.0983387486e-01	 1.6057432753e+00	-1.2951014228e+00
 5.9485900859e-01	 1.6113508766e+00	-1.2495411032e+00
 7.4839712172e-01	 1.5590900984e+00	-1.6321165388e+00
 7.3360848602e-01	 1.5661030326e+00	-1.5981768119e+00
 7.1877882019e-01	 1.5729644228e+00	-1.5623702165e+00
 7.0391037388e-01	 1.5796740856e+00	-1.5252979628e+00
 6.8900539214e-01	 1.5862318808e+00	-1.4869920215e+00
 6.7406611446e-01	 1.5926377107e+00	-1.4474505557e+00
 6.5909477374e-01	 1.5988915199e+00	-1.4066427879e+00
 6.4409359539e-01	 1.6049932952e+00	-1.3645135616e+00
 6.2906479634e-01	 1.6109430647e+00	-1.3209875917e+00
 6.1401058414e-01	 1.6167408980e+00	-1.2759734030e+00
 5.9893315606e-01	 1.6223869053e+00	-1.2293669551e+00
 7.5348797403e-01	 1.5696955607e+00	-1.6241408048e+00
 7.3859874099e-01	 1.5767561992e+00	-1.5892261067e+00
 7.2366819872e-01	 1.5836642629e+00	-1.5516199849e+00
 7.0869861217e-01	 1.5904195672e+00	-1.5128742808e+00
 6.9369224167e-01	 1.5970219707e+00	-1.4730212267e+00
 6.7865134192e-01	 1.6034713753e+00	-1.4320631398e+00
 6.6357816104e-01	 1.6097677250e+00	-1.3899773463e+00
 6.4847493956e-01	 1.6159110066e+00	-1.3467207805e+00
 6.3334390950e-01	 1.6219012485e+00	-1.3022342570e+00
 6.1818729342e-01	 1.6277385206e+00	-1.2564464131e+00
 6.0300730353e-01	 1.6334229340e+00	-1.2092773220e+00
 7.5857882634e-01	 1.5803010229e+00	-1.6142307660e+00
 7.4358899596e-01	 1.5874093658e+00	-1.5785306540e+00
 7.2855757725e-01	 1.5943641030e+00	-1.5390917454e+00
 7.1348685046e-01	 1.6011650487e+00	-1.4986741652e+00
 6.9837909119e-01	 1.6078120607e+00	-1.4573741562e+00
 6.8323656939e-01	 1.6143050398e+00	-1.4151857624e+00
 6.6806154834e-01	 1.6206439301e+00	-1.3720812776e+00
 6.5285628373e-01	 1.6268287181e+00	-1.3280159117e+00
 6.3762302266e-01	 1.6328594323e+00	-1.2829321111e+00
 6.2236400270e-01	 1.6387361433e+00	-1.2367635340e+00
 6.0708145100e-01	 1.6444589627e+00	-1.1894386795e+00
 7.6366967865e-01	 1.5909064852e+00	-1.6025223030e+00
 7.4857925093e-01	 1.5980625325e+00	-1.5659725741e+00
 7.3344695578e-01	 1.6050639432e+00	-1.5250710145e+00
 7.1827508875e-01	 1.6119105303e+00	-1.4830283928e+00
 7.0306594071e-01	 1.6186021506e+00	-1.4404089580e+00
 6.8782179685e-01	 1.6251387044e+00	-1.3971862985e+00
 6.7254493565e-01	 1.6315201352e+00	-1.3533147999e+00
 6.5723762791e-01	 1.6377464295e+00	-1.3087344046e+00
 6.4190213582e-01	 1.6438176161e+00	-1.2633750093e+00
 6.2654071198e-01	 1.6497337659e+00	-1.2171604993e+00
 6.1115559848e-01	 1.6554949914e+00	-1.1700124220e+00
 7.6876053097e-01	 1.6015119474e+00	-1.5891498254e+00
 7.5356950590e-01	 1.6087156991e+00	-1.5517196967e+00
 7.3833633431e-01	 1.6157637833e+00	-1.5098325884e+00
 7.2306332704e-01	 1.6226560118e+00	-1.4662562761e+00
 7.0775279024e-01	 1.6293922405e+00	-1.4224720105e+00
 6.9240702432e-01	 1.6359723689e+00	-1.3784209815e+00
 6.7702832295e-01	 1.6423963403e+00	-1.3340270433e+00
 6.6161897208e-01	 1.6486641410e+00	-1.2892015942e+00
 6.4618124898e-01	 1.6547757999e+00	-1.2438480772e+00
 6.3071742125e-01	 1.6607313886e+00	-1.1978661027e+00
 6.1522974595e-01	 1.6665310201e+00	-1.1511551913e+00
 7.7385138328e-01	 1.6121174097e+00	-1.5742462625e+00
 7.5855976088e-01	 1.6193688657e+00	-1.5359768429e+00
 7.4322571284e-01	 1.6264636235e+00	-1.4935839012e+00
 7.2785156533e-01	 1.6334014934e+00	-1.4486662190e+00
 7.1243963976e-01	 1.6401823304e+00	-1.4038984887e+00
 6.9699225179e-01	 1.6468060335e+00	-1.3592349644e+00
 6.8151171025e-01	 1.6532725454e+00	-1.3145565921e+00
 6.6600031626e-01	 1.6595818524e+00	-1.2697332081e+00
 6.5046036214e-01	 1.6657339837e+00	-1.2246281708e+00
 6.3489413053e-01	 1.6717290112e+00	-1.1791025958e+00
 6.1930389342e-01	 1.6775670488e+00	-1.1330191985e+00
 7.7894223559e-01	 1.6227228720e+00	-1.5579430462e+00
 7.6355001585e-01	 1.6300220323e+00	-1.5189458070e+00
 7.4811509137e-01	 1.6371634636e+00	-1.4762579416e+00
 7.3263980362e-01	 1.6441469750e+00	-1.4305562588e+00
 7.1712648929e-01	 1.6509724203e+00	-1.3850129162e+00
 7.0157747925e-01	 1.6576396980e+00	-1.3399628671e+00
 6.8599509756e-01	 1.6641487505e+00	-1.2952320125e+00
 6.7038166043e-01	 1.6704995639e+00	-1.2506358626e+00
 6.5473947530e-01	 1.6766921675e+00	-1.2059843242e+00
 6.3907083981e-01	 1.6827266338e+00	-1.1610860771e+00
 6.2337804090e-01	 1.6886030775e+00	-1.1157525400e+00
 7.8403308790e-01	 1.6333283342e+00	-1.5403700851e+00
 7.6854027082e-01	 1.6406751990e+00	-1.5008253877e+00
 7.5300446990e-01	 1.6478633037e+00	-1.4580554945e+00
 7.3742804191e-01	 1.6548924565e+00	-1.4122145943e+00
 7.2181333881e-01	 1.6617625102e+00	-1.3661297018e+00
 7.0616270672e-01	 1.6684733626e+00	-1.3209293081e+00
 6.9047848486e-01	 1.6750249556e+00	-1.2763723671e+00
 6.7476300461e-01	 1.6814172753e+00	-1.2322075445e+00
 6.5901858846e-01	 1.6876503513e+00	-1.1881781885e+00
 6.4324754909e-01	 1.6937242565e+00	-1.1440268716e+00
 6.2745218837e-01	 1.6996391063e+00	-1.0994995073e+00
 7.8912394021e-01	 1.6439337965e+00	-1.5216557304e+00
 7.7353052579e-01	 1.6513283656e+00	-1.4818114104e+00
 7.5789384843e-01	 1.6585631439e+00	-1.4392240829e+00
 7.4221628020e-01	 1.6656379381e+00	-1.3939003564e+00
 7.2650018834e-01	 1.6725526001e+00	-1.3475536642e+00
 7.1074793418e-01	 1.6793070271e+00	-1.3024494248e+00
 6.9496187216e-01	 1.6859011607e+00	-1.2582877160e+00
 6.7914434878e-01	 1.6923349868e+00	-1.2147380823e+00
 6.6329770162e-01	 1.6986085352e+00	-1.1714644583e+00
 6.4742425837e-01	 1.7047218791e+00	-1.1281299027e+00
 6.3152633584e-01	 1.7106751350e+00	-1.0844008905e+00
 5.9078486111e-01	 1.6003148479e+00	-1.2696278734e+00
 5.7589434599e-01	 1.6057335224e+00	-1.2254371390e+00
 5.6098523685e-01	 1.6110028226e+00	-1.1826777801e+00
 5.4605966365e-01	 1.6161229739e+00	-1.1411575606e+00
 5.3111974281e-01	 1.6210942400e+00	-1.1006785828e+00
 5.1616757641e-01	 1.6259169225e+00	-1.0610394245e+00
 5.0120525140e-01	 1.6305913600e+00	-1.0220370134e+00
 4.8623483888e-01	 1.6351179281e+00	-9.8346824808e-01
 4.7125839329e-01	 1.6394970382e+00	-9.4513137211e-01
 4.5627795173e-01	 1.6437291372e+00	-9.0682711320e-01
 4.4129553326e-01	 1.6478147071e+00	-8.6835959577e-01
 5.9485900859e-01	 1.6113508766e+00	-1.2495411032e+00
 5.7986580607e-01	 1.6168069192e+00	-1.2039530081e+00
 5.6485388132e-01	 1.6221125573e+00	-1.1600251632e+00
 5.4982537897e-01	 1.6272680180e+00	-1.1175344838e+00
 5.3478243003e-01	 1.6322735667e+00	-1.0762512086e+00
 5.1972715108e-01	 1.6371295072e+00	-1.0359411255e+00
 5.0466164347e-01	 1.6418361804e+00	-9.9636752750e-01
 4.8958799258e-01	 1.6463939645e+00	-9.5729290500e-01
 4.7450826701e-01	 1.6508032736e+00	-9.1848038486e-01
 4.5942451791e-01	 1.6550645579e+00	-8.7969492569e-01
 4.4433877827e-01	 1.6591783025e+00	-8.4070428007e-01
 5.9893315606e-01	 1.6223869053e+00	-1.2293669551e+00
 5.8383726616e-01	 1.6278803159e+00	-1.1829159149e+00
 5.6872252579e-01	 1.6332222920e+00	-1.1382647165e+00
 5.5359109428e-01	 1.6384130621e+00	-1.0951644960e+00
 5.3844511724e-01	 1.6434528935e+00	-1.0533594015e+00
 5.2328672575e-01	 1.6483420919e+00	-1.0125888893e+00
 5.0811803554e-01	 1.6530810008e+00	-9.7258973794e-01
 4.9294114627e-01	 1.6576700008e+00	-9.3309779186e-01
 4.7775814072e-01	 1.6621095090e+00	-8.9384944159e-01
 4.6257108409e-01	 1.6663999785e+00	-8.5458285267e-01
 4.4738202328e-01	 1.6705418979e+00	-8.1503895374e-01
 6.0300730353e-01	 1.6334229340e+00	-1.2092773220e+00
 5.8780872624e-01	 1.6389537127e+00	-1.1624168420e+00
 5.7259117026e-01	 1.6443320267e+00	-1.1174193029e+00
 5.5735680959e-01	 1.6495581062e+00	-1.0740149807e+00
 5.4210780446e-01	 1.6546322202e+00	-1.0319275520e+00
 5.2684630041e-01	 1.6595546767e+00	-9.9087643800e-01
 5.1157442761e-01	 1.6643258213e+00	-9.5057885800e-01
 4.9629429996e-01	 1.6689460372e+00	-9.1075160074e-01
 4.8100801443e-01	 1.6734157444e+00	-8.7111252436e-01
 4.6571765027e-01	 1.6777353991e+00	-8.3138179566e-01
 4.5042526829e-01	 1.6819054933e+00	-7.9128288053e-01
 6.0708145100e-01	 1.6444589627e+00	-1.1894386795e+00
 5.9178018632e-01	 1.6500271095e+00	-1.1425437242e+00
 5.7645981472e-01	 1.6554417614e+00	-1.0975107333e+00
 5.6112252491e-01	 1.6607031502e+00	-1.0540538981e+00
 5.4577049167e-01	 1.6658115470e+00	-1.0118818921e+00
 5.3040587508e-01	 1.6707672614e+00	-9.7070024360e-01
 5.1503081968e-01	 1.6755706417e+00	-9.3021340686e-01
 4.9964745366e-01	 1.6802220735e+00	-8.9012654015e-01
 4.8425788815e-01	 1.6847219798e+00	-8.5014700269e-01
 4.6886421645e-01	 1.6890708198e+00	-8.0998558148e-01
 4.5346851330e-01	 1.6932690886e+00	-7.6935746061e-01
 6.1115559848e-01	 1.6554949914e+00	-1.1700124220e+00
 5.9575164641e-01	 1.6611005062e+00	-1.1233817016e+00
 5.8032845919e-01	 1.6665514961e+00	-1.0785599495e+00
 5.6488824022e-01	 1.6718481943e+00	-1.0352499078e+00
 5.4943317889e-01	 1.6769908737e+00	-9.9315057090e-01
 5.3396544975e-01	 1.6819798461e+00	-9.5195956672e-01
 5.1848721174e-01	 1.6868154621e+00	-9.1137522399e-01
 5.0300060735e-01	 1.6914981099e+00	-8.7109833602e-01
 4.8750776186e-01	 1.6960282152e+00	-8.3083363215e-01
 4.7201078263e-01	 1.7004062404e+00	-7.9029096933e-01
 4.5651175831e-01	 1.7046326840e+00	-7.4918625697e-01
 6.1522974595e-01	 1.6665310201e+00	-1.1511551913e+00
 5.9972310649e-01	 1.6721739030e+00	-1.1050133679e+00
 5.8419710366e-01	 1.6776612308e+00	-1.0605872034e+00
 5.6865395553e-01	 1.6829932384e+00	-1.0175724915e+00
 5.5309586610e-01	 1.6881702004e+00	-9.7566373184e-01
 5.3752502442e-01	 1.6931924309e+00	-9.3455649944e-01
 5.2194360381e-01	 1.6980602825e+00	-8.9394948804e-01
 5.0635376104e-01	 1.7027741462e+00	-8.5354623747e-01
 4.9075763558e-01	 1.7073344506e+00	-8.1305655761e-01
 4.7515734880e-01	 1.7117416610e+00	-7.7219766200e-01
 4.5955500332e-01	 1.7159962794e+00	-7.3069502482e-01
 6.1930389342e-01	 1.6775670488e+00	-1.1330191985e+00
 6.0369456658e-01	 1.6832472998e+00	-1.0875190162e+00
 5.8806574813e-01	 1.6887709655e+00	-1.0436122374e+00
 5.7241967085e-01	 1.6941382825e+00	-1.0009920782e+00
 5.5675855332e-01	 1.6993495272e+00	-9.5935359270e-01
 5.4108459909e-01	 1.7044050156e+00	-9.1839601158e-01
 5.2539999588e-01	 1.7093051029e+00	-8.7782473993e-01
 5.0970691474e-01	 1.7140501826e+00	-8.3735302706e-01
 4.9400750929e-01	 1.7186406860e+00	-7.9670332095e-01
 4.7830391498e-01	 1.7230770817e+00	-7.5560832099e-01
 4.6259824833e-01	 1.7273598748e+00	-7.1381174402e-01
 6.2337804090e-01	 1.6886030775e+00	-1.1157525400e+00
 6.0766602666e-01	 1.6943206965e+00	-1.0709768802e+00
 5.9193439260e-01	 1.6998807002e+00	-1.0276544619e+00
 5.7618538616e-01	 1.7052833266e+00	-9.8548016830e-01
 5.6042124053e-01	 1.7105288539e+00	-9.4415452785e-01
 5.4464417376e-01	 1.7156176003e+00	-9.0338600045e-01
 5.2885638795e-01	 1.7205499233e+00	-8.6289291011e-01
 5.1306006843e-01	 1.7253262189e+00	-8.2240503555e-01
 4.9725738301e-01	 1.7299469214e+00	-7.8166487295e-01
 4.8145048116e-01	 1.7344125023e+00	-7.4042858532e-01
 4.6564149334e-01	 1.7387234702e+00	-6.9846665432e-01
 6.2745218837e-01	 1.6996391063e+00	-1.0994995073e+00
 6.1163748675e-01	 1.7053940933e+00	-1.0554633728e+00
 5.9580303707e-01	 1.7109904350e+00	-1.0127331322e+00
 5.7995110147e-01	 1.7164283707e+00	-9.7100946009e-01
 5.6408392775e-01	 1.7217081807e+00	-9.3000315278e-01
 5.4820374843e-01	 1.7268301851e+00	-8.8943734374e-01
 5.3231278001e-01	 1.7317947437e+00	-8.4904934965e-01
 5.1641322212e-01	 1.7366022553e+00	-8.0859216066e-01
 5.0050725672e-01	 1.7412531568e+00	-7.6783558928e-01
 4.8459704734e-01	 1.7457479230e+00	-7.2656709392e-01
 4.6868473835e-01	 1.7500870656e+00	-6.8459229326e-01
 6.3152633584e-01	 1.7106751350e+00	-1.0844008905e+00
 6.1560894683e-01	 1.7164674901e+00	-1.0410533209e+00
 5.9967168153e-01	 1.7221001697e+00	-9.9886752508e-01
 5.8371681679e-01	 1.7275734148e+00	-9.5755397585e-01
 5.6774661496e-01	 1.7328875074e+00	-9.1683841060e-01
 5.5176332310e-01	 1.7380427698e+00	-8.7646395559e-01
 5.3576917208e-01	 1.7430395641e+00	-8.3619286513e-01
 5.1976637582e-01	 1.7478782916e+00	-7.9580788992e-01
 5.0375713044e-01	 1.7525593922e+00	-7.5511329037e-01
 4.8774361352e-01	 1.7570833436e+00	-7.1393551143e-01
 4.7172798336e-01	 1.7614506609e+00	-6.7212353662e-01
 4.4129553326e-01	 1.6478147071e+00	-8.6835959577e-01
 4.2631313840e-01	 1.6517542643e+00	-8.3006760990e-01
 4.1133274908e-01	 1.6555483602e+00	-7.9257872360e-01
 3.9635632739e-01	 1.6591975798e+00	-7.5613725969e-01
 3.8138581469e-01	 1.6627025401e+00	-7.2099256939e-01
 3.6642313110e-01	 1.6660638898e+00	-6.8738357890e-01
 3.5147017486e-01	 1.6692823086e+00	-6.5514787099e-01
 3.3652882184e-01	 1.6723585063e+00	-6.2399233165e-01
 3.2160092501e-01	 1.6752932224e+00	-5.9368574918e-01
 3.0668831391e-01	 1.6780872249e+00	-5.6399001821e-01
 2.9179279422e-01	 1.6807413102e+00	-5.3466195871e-01
 4.4433877827e-01	 1.6591783025e+00	-8.4070428007e-01
 4.2925306240e-01	 1.6631450275e+00	-8.0188384502e-01
 4.1416936591e-01	 1.6669652881e+00	-7.6391200408e-01
 3.9908966440e-01	 1.6706396733e+00	-7.2701872893e-01
 3.8401591264e-01	 1.6741688044e+00	-6.9144049282e-01
 3.6895004397e-01	 1.6775533345e+00	-6.5741796780e-01
 3.5389396974e-01	 1.6807939480e+00	-6.2488795066e-01
 3.3884957875e-01	 1.6838913597e+00	-5.9352078085e-01
 3.2381873674e-01	 1.6868463140e+00	-5.6306017859e-01
 3.0880328588e-01	 1.6896595844e+00	-5.3324572603e-01
 2.9380504429e-01	 1.6923319727e+00	-5.0381445362e-01
 4.4738202328e-01	 1.6705418979e+00	-8.1503895374e-01
 4.3219298640e-01	 1.6745357907e+00	-7.7565783362e-01
 4.1700598274e-01	 1.6783822160e+00	-7.3718751658e-01
 4.0182300142e-01	 1.6820817668e+00	-6.9983969919e-01
 3.8664601059e-01	 1.6856350687e+00	-6.6383405918e-01
 3.7147695685e-01	 1.6890427792e+00	-6.2939756866e-01
 3.5631776463e-01	 1.6923055875e+00	-5.9656183693e-01
 3.4117033566e-01	 1.6954242131e+00	-5.6497714115e-01
 3.2603654847e-01	 1.6983994056e+00	-5.3435885393e-01
 3.1091825784e-01	 1.7012319440e+00	-5.0442187113e-01
 2.9581729436e-01	 1.7039226352e+00	-4.7488121049e-01
 4.5042526829e-01	 1.6819054933e+00	-7.9128288053e-01
 4.3513291041e-01	 1.6859265539e+00	-7.5134161011e-01
 4.1984259957e-01	 1.6897991439e+00	-7.1238765301e-01
 4.0455633843e-01	 1.6935238603e+00	-6.7461063619e-01
 3.8927610854e-01	 1.6971013329e+00	-6.3820965531e-01
 3.7400386973e-01	 1.7005322239e+00	-6.0339254088e-01
 3.5874155951e-01	 1.7038172269e+00	-5.7025603379e-01
 3.4349109257e-01	 1.7069570664e+00	-5.3846579498e-01
 3.2825436020e-01	 1.7099524973e+00	-5.0770165448e-01
 3.1303322981e-01	 1.7128043035e+00	-4.7765168561e-01
 2.9782954442e-01	 1.7155132978e+00	-4.4800691393e-01
 4.5346851330e-01	 1.6932690886e+00	-7.6935746061e-01
 4.3807283441e-01	 1.6973173171e+00	-7.2888842029e-01
 4.2267921640e-01	 1.7012160718e+00	-6.8949514002e-01
 4.0728967545e-01	 1.7049659538e+00	-6.5134151052e-01
 3.9190620649e-01	 1.7085675972e+00	-6.1460238781e-01
 3.7653078260e-01	 1.7120216686e+00	-5.7946281505e-01
 3.6116535440e-01	 1.7153288663e+00	-5.4605470984e-01
 3.4581184948e-01	 1.7184899198e+00	-5.1408844405e-01
 3.3047217194e-01	 1.7215055889e+00	-4.8320541770e-01
 3.1514820178e-01	 1.7243766630e+00	-4.5306498380e-01
 2.9984179449e-01	 1.7271039603e+00	-4.2333244080e-01
 4.5651175831e-01	 1.7046326840e+00	-7.4918625697e-01
 4.4101275842e-01	 1.7087080803e+00	-7.0825277127e-01
 4.2551583323e-01	 1.7126329997e+00	-6.6849311101e-01
 4.1002301246e-01	 1.7164080473e+00	-6.3004188992e-01
 3.9453630444e-01	 1.7200338615e+00	-5.9304619422e-01
 3.7905769548e-01	 1.7235111132e+00	-5.5766476241e-01
 3.6358914928e-01	 1.7268405057e+00	-5.2403973420e-01
 3.4813260639e-01	 1.7300227732e+00	-4.9194417267e-01
 3.3268998367e-01	 1.7330586806e+00	-4.6098402796e-01
 3.1726317374e-01	 1.7359490226e+00	-4.3078827441e-01
 3.0185404455e-01	 1.7386946229e+00	-4.0099499426e-01
 4.5955500332e-01	 1.7159962794e+00	-7.3069502482e-01
 4.4395268242e-01	 1.7200988435e+00	-6.8939048351e-01
 4.2835245005e-01	 1.7240499276e+00	-6.4936517888e-01
 4.1275634948e-01	 1.7278501408e+00	-6.1072103140e-01
 3.9716640239e-01	 1.7315001258e+00	-5.7357395301e-01
 3.8158460836e-01	 1.7350005579e+00	-5.3805298698e-01
 3.6601294417e-01	 1.7383521451e+00	-5.0429070950e-01
 3.5045336330e-01	 1.7415556266e+00	-4.7212950734e-01
 3.3490779540e-01	 1.7446117722e+00	-4.4114850077e-01
 3.1937814571e-01	 1.7475213821e+00	-4.1094486762e-01
 3.0386629462e-01	 1.7502852854e+00	-3.8112823181e-01
 4.6259824833e-01	 1.7273598748e+00	-7.1381174402e-01
 4.4689260642e-01	 1.7314896067e+00	-6.7225874452e-01
 4.3118906688e-01	 1.7354668555e+00	-6.3209550962e-01
 4.1548968649e-01	 1.7392922344e+00	-5.9338797315e-01
 3.9979650034e-01	 1.7429663900e+00	-5.5621759243e-01
 3.8411152123e-01	 1.7464900026e+00	-5.2068045022e-01
 3.6843673905e-01	 1.7498637845e+00	-4.8688500207e-01
 3.5277412021e-01	 1.7530884799e+00	-4.5473847283e-01
 3.3712560713e-01	 1.7561648639e+00	-4.2380706279e-01
 3.2149311767e-01	 1.7590937416e+00	-3.9365497717e-01
 3.0587854468e-01	 1.7618759479e+00	-3.6386238789e-01
 4.6564149334e-01	 1.7387234702e+00	-6.9846665432e-01
 4.4983253043e-01	 1.7428803699e+00	-6.5681616441e-01
 4.3402568371e-01	 1.7468837834e+00	-6.1666889667e-01
 4.1822302351e-01	 1.7507343279e+00	-5.7805162626e-01
 4.0242659829e-01	 1.7544326543e+00	-5.4100819833e-01
 3.8663843411e-01	 1.7579794473e+00	-5.0559859362e-01
 3.7086053393e-01	 1.7613754240e+00	-4.7189780436e-01
 3.5509487712e-01	 1.7646213333e+00	-4.3986264483e-01
 3.3934341886e-01	 1.7677179555e+00	-4.0906522767e-01
 3.2360808964e-01	 1.7706661012e+00	-3.7903581768e-01
 3.0789079475e-01	 1.7734666105e+00	-3.4932439100e-01
 4.6868473835e-01	 1.7500870656e+00	-6.8459229326e-01
 4.5277245443e-01	 1.7542711331e+00	-6.4302283313e-01
 4.3686230054e-01	 1.7583007113e+00	-6.0307083594e-01
 4.2095636052e-01	 1.7621764214e+00	-5.6472086630e-01
 4.0505669625e-01	 1.7658989186e+00	-5.2797612096e-01
 3.8916534699e-01	 1.7694688920e+00	-4.9285745958e-01
 3.7328432882e-01	 1.7728870634e+00	-4.5940223927e-01
 3.5741563403e-01	 1.7761541867e+00	-4.2759119930e-01
 3.4156123059e-01	 1.7792710472e+00	-3.9702586808e-01
 3.2572306160e-01	 1.7822384607e+00	-3.6720169754e-01
 3.0990304481e-01	 1.7850572730e+00	-3.3763797582e-01
 4.7172798336e-01	 1.7614506609e+00	-6.7212353662e-01
 4.5571237844e-01	 1.7656618963e+00	-6.3084037924e-01
 4.3969891737e-01	 1.7697176392e+00	-5.9128760158e-01
 4.2368969754e-01	 1.7736185149e+00	-5.5340462467e-01
 4.0768679420e-01	 1.7773651829e+00	-5.1715108079e-01
 3.9169225986e-01	 1.7809583367e+00	-4.8250581061e-01
 3.7570812370e-01	 1.7843987028e+00	-4.4946565742e-01
 3.5973639094e-01	 1.7876870401e+00	-4.1801095885e-01
 3.4377904232e-01	 1.7908241388e+00	-3.8778928393e-01
 3.2783803357e-01	 1.7938108203e+00	-3.5826410738e-01
 3.1191529488e-01	 1.7966479355e+00	-3.2892379041e-01
 2.9179279422e-01	 1.6807413102e+00	-5.3466195871e-01
 2.7691362047e-01	 1.6832567175e+00	-5.0617229570e-01
 2.6205508726e-01	 1.6856338333e+00	-4.7917058928e-01
 2.4721893072e-01	 1.6878735331e+00	-4.5366116912e-01
 2.3240686133e-01	 1.6899767174e+00	-4.2964442329e-01
 2.1762056357e-01	 1.6919443111e+00	-4.0711645998e-01
 2.0286169558e-01	 1.6937772631e+00	-3.8606854560e-01
 1.8813188884e-01	 1.6954765448e+00	-3.6648636365e-01
 1.7343274789e-01	 1.6970431501e+00	-3.4834913708e-01
 1.5876585007e-01	 1.6984780943e+00	-3.3162865529e-01
 1.4413274524e-01	 1.6997824132e+00	-3.1628824473e-01
 2.9380504429e-01	 1.6923319727e+00	-5.0381445362e-01
 2.7882326136e-01	 1.6948647267e+00	-4.7524540846e-01
 2.6386226131e-01	 1.6972582355e+00	-4.4820362718e-01
 2.4892379225e-01	 1.6995133806e+00	-4.2268752062e-01
 2.3400957645e-01	 1.7016310688e+00	-3.9869324450e-01
 2.1912131000e-01	 1.7036122314e+00	-3.7621405385e-01
 2.0426066248e-01	 1.7054578236e+00	-3.5523943041e-01
 1.8942927662e-01	 1.7071688239e+00	-3.3575402999e-01
 1.7462876803e-01	 1.7087462328e+00	-3.1773649481e-01
 1.5986072492e-01	 1.7101910725e+00	-3.0115817403e-01
 1.4512670784e-01	 1.7115043863e+00	-2.8598179378e-01
 2.9581729436e-01	 1.7039226352e+00	-4.7488121049e-01
 2.8073290225e-01	 1.7064727358e+00	-4.4622584872e-01
 2.6566943536e-01	 1.7088826376e+00	-4.1913953855e-01
 2.5062865378e-01	 1.7111532281e+00	-3.9361506631e-01
 2.3561229156e-01	 1.7132854202e+00	-3.6964459643e-01
 2.2062205643e-01	 1.7152801516e+00	-3.4721870465e-01
 2.0565962938e-01	 1.7171383842e+00	-3.2632518113e-01
 1.9072666440e-01	 1.7188611030e+00	-3.0694765283e-01
 1.7582478817e-01	 1.7204493154e+00	-2.8906407260e-01
 1.6095559977e-01	 1.7219040508e+00	-2.7264512064e-01
 1.4612067045e-01	 1.7232263593e+00	-2.5765256139e-01
 2.9782954442e-01	 1.7155132978e+00	-4.4800691393e-01
 2.8264254313e-01	 1.7180807450e+00	-4.1926675227e-01
 2.6747660942e-01	 1.7205070398e+00	-3.9213578287e-01
 2.5233351531e-01	 1.7227930756e+00	-3.6660168135e-01
 2.3721500668e-01	 1.7249397715e+00	-3.4265308618e-01
 2.2212280285e-01	 1.7269480718e+00	-3.2027829617e-01
 2.0705859627e-01	 1.7288189448e+00	-2.9946373478e-01
 1.9202405218e-01	 1.7305533820e+00	-2.8019223331e-01
 1.7702080831e-01	 1.7321523981e+00	-2.6244118282e-01
 1.6205047463e-01	 1.7336170290e+00	-2.4618060282e-01
 1.4711463306e-01	 1.7349483324e+00	-2.3137117225e-01
 2.9984179449e-01	 1.7271039603e+00	-4.2333244080e-01
 2.8455218402e-01	 1.7296887542e+00	-3.9451708069e-01
 2.6928378347e-01	 1.7321314420e+00	-3.6734534070e-01
 2.5403837684e-01	 1.7344329231e+00	-3.4180052123e-01
 2.3881772180e-01	 1.7365941229e+00	-3.1786842691e-01
 2.2362354928e-01	 1.7386159921e+00	-2.9553571287e-01
 2.0845756317e-01	 1.7404995053e+00	-2.7478799501e-01
 1.9332143996e-01	 1.7422456611e+00	-2.5560777888e-01
 1.7821682845e-01	 1.7438554807e+00	-2.3797225982e-01
 1.6314534948e-01	 1.7453300073e+00	-2.2185104454e-01
 1.4810859567e-01	 1.7466703054e+00	-2.0720384225e-01
 3.0185404455e-01	 1.7386946229e+00	-4.0099499426e-01
 2.8646182491e-01	 1.7412967634e+00	-3.7212177427e-01
 2.7109095753e-01	 1.7437558441e+00	-3.4491688147e-01
 2.5574323837e-01	 1.7460727706e+00	-3.1936020079e-01
 2.4042043691e-01	 1.7482484743e+00	-2.9543562436e-01
 2.2512429571e-01	 1.7502839123e+00	-2.7312903027e-01
 2.0985653007e-01	 1.7521800659e+00	-2.5242602273e-01
 1.9461882774e-01	 1.7539379402e+00	-2.3330949083e-01
 1.7941284859e-01	 1.7555585634e+00	-2.1575704123e-01
 1.6424022433e-01	 1.7570429856e+00	-1.9973835772e-01
 1.4910255827e-01	 1.7583922785e+00	-1.8521253776e-01
 3.0386629462e-01	 1.7502852854e+00	-3.8112823181e-01
 2.8837146580e-01	 1.7529047726e+00	-3.5222189845e-01
 2.7289813158e-01	 1.7553802463e+00	-3.2499492453e-01
 2.5744809990e-01	 1.7577126181e+00	-2.9942496610e-01
 2.4202315203e-01	 1.7599028257e+00	-2.7549515591e-01
 2.2662504214e-01	 1.7619518325e+00	-2.5319169772e-01
 2.1125549697e-01	 1.7638606265e+00	-2.3250121935e-01
 1.9591621553e-01	 1.7656302193e+00	-2.1340794456e-01
 1.8060886873e-01	 1.7672616460e+00	-1.9589074214e-01
 1.6533509918e-01	 1.7687559638e+00	-1.7992010736e-01
 1.5009652088e-01	 1.7701142515e+00	-1.6545512867e-01
 3.0587854468e-01	 1.7618759479e+00	-3.6386238789e-01
 2.9028110669e-01	 1.7645127818e+00	-3.3495478409e-01
 2.7470530563e-01	 1.7670046485e+00	-3.0771999353e-01
 2.5915296143e-01	 1.7693524656e+00	-2.8213485930e-01
 2.4362586715e-01	 1.7715571771e+00	-2.5818314251e-01
 2.2812578857e-01	 1.7736197528e+00	-2.3585271407e-01
 2.1265446387e-01	 1.7755411870e+00	-2.1513250276e-01
 1.9721360331e-01	 1.7773224984e+00	-1.9600926293e-01
 1.8180488887e-01	 1.7789647287e+00	-1.7846422262e-01
 1.6642997404e-01	 1.7804689421e+00	-1.6246967029e-01
 1.5109048348e-01	 1.7818362246e+00	-1.4798553552e-01
 3.0789079475e-01	 1.7734666105e+00	-3.4932439100e-01
 2.9219074758e-01	 1.7761207910e+00	-3.2045416196e-01
 2.7651247968e-01	 1.7786290506e+00	-2.9322876450e-01
 2.6085782296e-01	 1.7809923131e+00	-2.6762587699e-01
 2.4522858226e-01	 1.7832115285e+00	-2.4363151393e-01
 2.2962653499e-01	 1.7852876730e+00	-2.2123679640e-01
 2.1405343077e-01	 1.7872217476e+00	-2.0043447661e-01
 1.9851099109e-01	 1.7890147775e+00	-1.8121528286e-01
 1.8300090901e-01	 1.7906678113e+00	-1.6356414879e-01
 1.6752484889e-01	 1.7921819203e+00	-1.4745638788e-01
 1.5208444609e-01	 1.7935581976e+00	-1.3285387113e-01
 3.0990304481e-01	 1.7850572730e+00	-3.3763797582e-01
 2.9410038847e-01	 1.7877288002e+00	-3.0885029147e-01
 2.7831965374e-01	 1.7902534528e+00	-2.8165420797e-01
 2.6256268449e-01	 1.7926321605e+00	-2.5603012222e-01
 2.4683129738e-01	 1.7948658799e+00	-2.3196816741e-01
 2.3112728142e-01	 1.7969555932e+00	-2.0946454237e-01
 2.1545239767e-01	 1.7989023082e+00	-1.8851759305e-01
 1.9980837887e-01	 1.8007070566e+00	-1.6912371559e-01
 1.8419692915e-01	 1.8023708940e+00	-1.5127314776e-01
 1.6861972374e-01	 1.8038948986e+00	-1.3494571290e-01
 1.5307840870e-01	 1.8052801707e+00	-1.2010657677e-01
 3.1191529488e-01	 1.7966479355e+00	-3.2892379041e-01
 2.9601002936e-01	 1.7993368094e+00	-3.0027008420e-01
 2.8012682779e-01	 1.8018778550e+00	-2.7312572535e-01
 2.6426754602e-01	 1.8042720080e+00	-2.4747595059e-01
 2.4843401249e-01	 1.8065202313e+00	-2.2331712029e-01
 2.3262802784e-01	 1.8086235135e+00	-2.0065258617e-01
 2.1685136456e-01	 1.8105828687e+00	-1.7948830928e-01
 2.0110576665e-01	 1.8123993357e+00	-1.5982830094e-01
 1.8539294929e-01	 1.8140739766e+00	-1.4166995683e-01
 1.6971459859e-01	 1.8156078768e+00	-1.2499935100e-01
 1.5407237130e-01	 1.8170021437e+00	-1.0978655334e-01
 1.4413274524e-01	 1.6997824132e+00	-3.1628824473e-01
 1.2953742812e-01	 1.7009569740e+00	-3.0232974390e-01
 1.1497887368e-01	 1.7020030836e+00	-2.8979887594e-01
 1.0045851418e-01	 1.7029218347e+00	-2.7871486733e-01
 8.5977754597e-02	 1.7037143373e+00	-2.6908227317e-01
 7.1537972447e-02	 1.7043817188e+00	-2.6089011221e-01
 5.7140517661e-02	 1.7049251225e+00	-2.5411113542e-01
 4.2786712484e-02	 1.7053457072e+00	-2.4870125044e-01
 2.8477851384e-02	 1.7056446465e+00	-2.4459912113e-01
 1.4215200981e-02	 1.7058231281e+00	-2.4172595932e-01
 0.0000000000e+00	 1.7058823529e+00	-2.3998552283e-01
 1.4512670784e-01	 1.7115043863e+00	-2.8598179378e-01
 1.3043073907e-01	 1.7126870470e+00	-2.7219822313e-01
 1.1577178649e-01	 1.7137403708e+00	-2.5984777999e-01
 1.0115129226e-01	 1.7146654577e+00	-2.4895614605e-01
 8.6570671029e-02	 1.7154634256e+00	-2.3953291274e-01
 7.2031309818e-02	 1.7161354094e+00	-2.3157046274e-01
 5.7534567867e-02	 1.7166825605e+00	-2.2504300114e-01
 4.3081776540e-02	 1.7171060456e+00	-2.1990575917e-01
 2.8674239230e-02	 1.7174070464e+00	-2.1609439115e-01
 1.4313231295e-02	 1.7175867589e+00	-2.1352458217e-01
 0.0000000000e+00	 1.7176463921e+00	-2.1209188172e-01
 1.4612067045e-01	 1.7232263593e+00	-2.5765256139e-01
 1.3132405003e-01	 1.7244171200e+00	-2.4406561490e-01
 1.1656469931e-01	 1.7254776579e+00	-2.3191725238e-01
 1.0184407034e-01	 1.7264090807e+00	-2.2123716777e-01
 8.7163587462e-02	 1.7272125138e+00	-2.1203744225e-01
 7.2524647189e-02	 1.7278891000e+00	-2.0431116349e-01
 5.7928618073e-02	 1.7284399985e+00	-1.9803121094e-01
 4.3376840595e-02	 1.7288663840e+00	-1.9314923139e-01
 2.8870627076e-02	 1.7291694464e+00	-1.8959482633e-01
 1.4411261609e-02	 1.7293503897e+00	-1.8727496971e-01
 0.0000000000e+00	 1.7294104314e+00	-1.8607367169e-01
 1.4711463306e-01	 1.7349483324e+00	-2.3137117225e-01
 1.3221736098e-01	 1.7361471930e+00	-2.1798060345e-01
 1.1735761213e-01	 1.7372149451e+00	-2.0603341260e-01
 1.0253684842e-01	 1.7381527037e+00	-1.9556112659e-01
 8.7756503895e-02	 1.7389616020e+00	-1.8657603019e-01
 7.3017984560e-02	 1.7396427906e+00	-1.7906951329e-01
 5.8322668278e-02	 1.7401974365e+00	-1.7301060150e-01
 4.3671904650e-02	 1.7406267224e+00	-1.6834469536e-01
 2.9067014923e-02	 1.7409318464e+00	-1.6499254081e-01
 1.4509291922e-02	 1.7411140205e+00	-1.6284945035e-01
 0.0000000000e+00	 1.7411744706e+00	-1.6178479128e-01
 1.4810859567e-01	 1.7466703054e+00	-2.0720384225e-01
 1.3311067193e-01	 1.7478772660e+00	-1.9398780676e-01
 1.1815052494e-01	 1.7489522322e+00	-1.8221870985e-01
 1.0322962650e-01	 1.7498963267e+00	-1.7192799728e-01
 8.8349420327e-02	 1.7507106903e+00	-1.6312613275e-01
 7.3511321931e-02	 1.7513964812e+00	-1.5580066308e-01
 5.8716718484e-02	 1.7519548745e+00	-1.4991448447e-01
 4.3966968705e-02	 1.7523870609e+00	-1.4540433674e-01
 2.9263402769e-02	 1.7526942463e+00	-1.4217954893e-01
 1.4607322236e-02	 1.7528776512e+00	-1.4012105684e-01
 0.0000000000e+00	 1.7529385098e+00	-1.3908070952e-01
 1.4910255827e-01	 1.7583922785e+00	-1.8521253776e-01
 1.3400398288e-01	 1.7596073390e+00	-1.7212792075e-01
 1.1894343776e-01	 1.7606895194e+00	-1.6049205061e-01
 1.0392240458e-01	 1.7616399497e+00	-1.5033464442e-01
 8.8942336759e-02	 1.7624597785e+00	-1.4166258323e-01
 7.4004659302e-02	 1.7631501718e+00	-1.3445768419e-01
 5.9110768690e-02	 1.7637123125e+00	-1.2867469250e-01
 4.4262032760e-02	 1.7641473993e+00	-1.2423952123e-01
 2.9459790615e-02	 1.7644566463e+00	-1.2104776370e-01
 1.4705352550e-02	 1.7646412820e+00	-1.1896349972e-01
 0.0000000000e+00	 1.7647025490e+00	-1.1781841371e-01
 1.5009652088e-01	 1.7701142515e+00	-1.6545512867e-01
 1.3489729383e-01	 1.7713374121e+00	-1.5243785799e-01
 1.1973635058e-01	 1.7724268065e+00	-1.4086892124e-01
 1.0461518266e-01	 1.7733835727e+00	-1.3077492746e-01
 8.9535253192e-02	 1.7742088667e+00	-1.2215767801e-01
 7.4497996672e-02	 1.7749038624e+00	-1.1499163406e-01
 5.9504818895e-02	 1.7754697505e+00	-1.0922162348e-01
 4.4557096815e-02	 1.7759077377e+00	-1.0476081641e-01
 2.9656178461e-02	 1.7762190462e+00	-1.0148899531e-01
 1.4803382863e-02	 1.7764049128e+00	-9.9251141860e-02
 0.0000000000e+00	 1.7764665882e+00	-9.7856359437e-02
 1.5109048348e-01	 1.7818362246e+00	-1.4798553552e-01
 1.3579060478e-01	 1.7830674851e+00	-1.3495088105e-01
 1.2052926339e-01	 1.7841640937e+00	-1.2336150588e-01
 1.0530796074e-01	 1.7851271957e+00	-1.1323980167e-01
 9.0128169624e-02	 1.7859579550e+00	-1.0458125924e-01
 7.4991334043e-02	 1.7866575530e+00	-9.7351619352e-02
 5.9898869101e-02	 1.7872271885e+00	-9.1484283094e-02
 4.4852160870e-02	 1.7876680761e+00	-8.6878012712e-02
 2.9852566307e-02	 1.7879814462e+00	-8.3394949768e-02
 1.4901413177e-02	 1.7881685436e+00	-8.0858973973e-02
 0.0000000000e+00	 1.7882306274e+00	-7.9054422407e-02
 1.5208444609e-01	 1.7935581976e+00	-1.3285387113e-01
 1.3668391573e-01	 1.7947975581e+00	-1.1969673077e-01
 1.2132217621e-01	 1.7959013808e+00	-1.0797879992e-01
 1.0600073882e-01	 1.7968708187e+00	-9.7717415266e-02
 9.0721086055e-02	 1.7977070432e+00	-8.8900794363e-02
 7.5484671413e-02	 1.7984112437e+00	-8.1484856718e-02
 6.0292919306e-02	 1.7989846265e+00	-7.5390325734e-02
 4.5147224925e-02	 1.7994284146e+00	-7.0500143629e-02
 3.0048954153e-02	 1.7997438461e+00	-6.6657227538e-02
 1.4999443491e-02	 1.7999321744e+00	-6.3662591120e-02
 0.0000000000e+00	 1.7999946667e+00	-6.1273852279e-02
 1.5307840870e-01	 1.8052801707e+00	-1.2010657677e-01
 1.3757722668e-01	 1.8065276311e+00	-1.0670174976e-01
 1.2211508903e-01	 1.8076386680e+00	-9.4726719123e-02
 1.0669351690e-01	 1.8086144417e+00	-8.4193202902e-02
 9.1314002487e-02	 1.8094561314e+00	-7.5081452641e-02
 7.5978008783e-02	 1.8101649343e+00	-6.7336731269e-02
 6.0686969511e-02	 1.8107420645e+00	-6.0866093898e-02
 4.5442288980e-02	 1.8111887530e+00	-5.5535505123e-02
 3.0245341999e-02	 1.8115062461e+00	-5.1167322289e-02
 1.5097473804e-02	 1.8116958052e+00	-4.7538170120e-02
 0.0000000000e+00	 1.8117587059e+00	-4.4377228227e-02
 1.5407237130e-01	 1.8170021437e+00	-1.0978655334e-01
 1.3847053763e-01	 1.8182577041e+00	-9.5989001193e-02
 1.2290800184e-01	 1.8193759551e+00	-8.3608204739e-02
 1.0738629498e-01	 1.8203580647e+00	-7.2649975658e-02
 9.1906918918e-02	 1.8212052197e+00	-6.3086178849e-02
 7.6471346153e-02	 1.8219186249e+00	-5.4850852837e-02
 6.1081019716e-02	 1.8224995025e+00	-4.7836656096e-02
 4.5737353035e-02	 1.8229490914e+00	-4.1891674357e-02
 3.0441729845e-02	 1.8232686460e+00	-3.6816619686e-02
 1.5195504118e-02	 1.8234594360e+00	-3.2362447827e-02
 0.0000000000e+00	 1.8235227451e+00	-2.8228416250e-02
 1.8235227451e+00	 0.0000000000e+00	 3.1813640849e+00
 1.8234594360e+00	 1.5195504118e-02	 3.1808002878e+00
 1.8232686460e+00	 3.0441729845e-02	 3.1778403510e+00
 1.8229490914e+00	 4.5737353035e-02	 3.1725176687e+00
 1.8224995025e+00	 6.1081019716e-02	 3.1648366572e+00
 1.8219186249e+00	 7.6471346153e-02	 3.1547752331e+00
 1.8212052197e+00	 9.1906918918e-02	 3.1422876981e+00
 1.8203580647e+00	 1.0738629498e-01	 3.1273080132e+00
 1.8193759551e+00	 1.2290800184e-01	 3.1097534422e+00
 1.8182577041e+00	 1.3847053763e-01	 3.0895285376e+00
 1.8170021437e+00	 1.5407237130e-01	 3.0665294406e+00
 1.8352887832e+00	 0.0000000000e+00	 3.1580636463e+00
 1.8352250656e+00	 1.5293551088e-02	 3.1582542439e+00
 1.8350330446e+00	 3.0638151061e-02	 3.1558853918e+00
 1.8347114281e+00	 4.6032467225e-02	 3.1510292258e+00
 1.8342589383e+00	 6.1475136876e-02	 3.1437252505e+00
 1.8336743126e+00	 7.6964767349e-02	 3.1339829895e+00
 1.8329563042e+00	 9.2499936095e-02	 3.1217850710e+00
 1.8321036831e+00	 1.0807919078e-01	 3.1070907306e+00
 1.8311152366e+00	 1.2370104938e-01	 3.0898397103e+00
 1.8299897702e+00	 1.3936400037e-01	 3.0699565265e+00
 1.8287261085e+00	 1.5506650279e-01	 3.0473550772e+00
 1.8470548146e+00	 0.0000000000e+00	 3.1318928922e+00
 1.8469906886e+00	 1.5391598003e-02	 3.1321966488e+00
 1.8467974365e+00	 3.0834572165e-02	 3.1298743431e+00
 1.8464737581e+00	 4.6327581249e-02	 3.1250328819e+00
 1.8460183674e+00	 6.1869253813e-02	 3.1177425678e+00
 1.8454299937e+00	 7.7458188264e-02	 3.1080399330e+00
 1.8447073822e+00	 9.3092952935e-02	 3.0959310371e+00
 1.8438492949e+00	 1.0877208618e-01	 3.0813952130e+00
 1.8428545115e+00	 1.2449409648e-01	 3.0643892359e+00
 1.8417218297e+00	 1.4025746259e-01	 3.0448518904e+00
 1.8404500667e+00	 1.5606063372e-01	 3.0227089031e+00
 1.8588208328e+00	 0.0000000000e+00	 3.1037266201e+00
 1.8587562982e+00	 1.5489644807e-02	 3.1035799933e+00
 1.8585618151e+00	 3.1030993046e-02	 3.1007910261e+00
 1.8582360748e+00	 4.6622694937e-02	 3.0954904226e+00
 1.8577777832e+00	 6.2263370303e-02	 3.0877742218e+00
 1.8571856614e+00	 7.7951608621e-02	 3.0777071217e+00
 1.8564584468e+00	 9.3685969103e-02	 3.0653258993e+00
 1.8555948934e+00	 1.0946498079e-01	 3.0506429299e+00
 1.8545937730e+00	 1.2528714267e-01	 3.0336498120e+00
 1.8534538759e+00	 1.4115092381e-01	 3.0143211034e+00
 1.8521740115e+00	 1.5705476353e-01	 2.9926181754e+00
 1.8705868309e+00	 0.0000000000e+00	 3.0761494628e+00
 1.8705218878e+00	 1.5587691444e-02	 3.0755268583e+00
 1.8703261737e+00	 3.1227413593e-02	 3.0722411404e+00
 1.8699983715e+00	 4.6917808124e-02	 3.0664334748e+00
 1.8695371790e+00	 6.2657486122e-02	 3.0582112670e+00
 1.8689413092e+00	 7.8445028138e-02	 3.0476514894e+00
 1.8682094914e+00	 9.4278984263e-02	 3.0348040965e+00
 1.8673404719e+00	 1.1015787423e-01	 3.0196955326e+00
 1.8663330146e+00	 1.2608018752e-01	 3.0023323374e+00
 1.8651859021e+00	 1.4204438351e-01	 2.9827048566e+00
 1.8638979364e+00	 1.5804889164e-01	 2.9607910637e+00
 1.8823528023e+00	 0.0000000000e+00	 3.0493769701e+00
 1.8822874507e+00	 1.5685737859e-02	 3.0483377539e+00
 1.8820905056e+00	 3.1423833696e-02	 3.0446263442e+00
 1.8817606415e+00	 4.7212920642e-02	 3.0383917199e+00
 1.8812965481e+00	 6.3051601049e-02	 3.0297500378e+00
 1.8806969303e+00	 7.8938446537e-02	 3.0187879622e+00
 1.8799605094e+00	 9.4871998078e-02	 3.0055660740e+00
 1.8790860237e+00	 1.1085076609e-01	 2.9901223649e+00
 1.8780722296e+00	 1.2687323056e-01	 2.9724758225e+00
 1.8769179018e+00	 1.4293784118e-01	 2.9526301121e+00
 1.8756218348e+00	 1.5904301750e-01	 2.9305773644e+00
 1.8941187404e+00	 0.0000000000e+00	 3.0233331526e+00
 1.8940529803e+00	 1.5783783996e-02	 3.0219518881e+00
 1.8938548041e+00	 3.1620253241e-02	 3.0178990616e+00
 1.8935228782e+00	 4.7508032324e-02	 3.0113288722e+00
 1.8930558839e+00	 6.3445714858e-02	 3.0023636730e+00
 1.8924525181e+00	 7.9431863537e-02	 2.9910973016e+00
 1.8917114941e+00	 9.5465010213e-02	 2.9775984822e+00
 1.8908315423e+00	 1.1154365599e-01	 2.9619143049e+00
 1.8898114113e+00	 1.2766627136e-01	 2.9440737875e+00
 1.8886498682e+00	 1.4383129632e-01	 2.9240915271e+00
 1.8873456999e+00	 1.6003714054e-01	 2.9019714497e+00
 1.9058846385e+00	 0.0000000000e+00	 2.9979380159e+00
 1.9058184699e+00	 1.5881829800e-02	 2.9963049393e+00
 1.9056190627e+00	 3.1816672119e-02	 2.9920086447e+00
 1.9052850749e+00	 4.7803143003e-02	 2.9852060138e+00
 1.9048151797e+00	 6.3839827328e-02	 2.9760231009e+00
 1.9042080659e+00	 7.9925278860e-02	 2.9645584629e+00
 1.9034624388e+00	 9.6058020332e-02	 2.9508865534e+00
 1.9025770210e+00	 1.1223654354e-01	 2.9350611846e+00
 1.9015505531e+00	 1.2845930947e-01	 2.9171190635e+00
 1.9003817947e+00	 1.4472474842e-01	 2.8970834113e+00
 1.8990695252e+00	 1.6103126020e-01	 2.8749676716e+00
 1.9176504899e+00	 0.0000000000e+00	 2.9731076826e+00
 1.9175839129e+00	 1.5979875215e-02	 2.9713291756e+00
 1.9173832746e+00	 3.2013090218e-02	 2.9669014885e+00
 1.9170472250e+00	 4.8098252511e-02	 2.9599817044e+00
 1.9165744289e+00	 6.4233938234e-02	 2.9506971441e+00
 1.9159635672e+00	 8.0418692226e-02	 2.9391486951e+00
 1.9152133370e+00	 9.6651028098e-02	 2.9254141954e+00
 1.9143224530e+00	 1.1292942834e-01	 2.9095518762e+00
 1.9132896483e+00	 1.2925234443e-01	 2.8916038709e+00
 1.9121136747e+00	 1.4561819698e-01	 2.8715997979e+00
 1.9107933040e+00	 1.6202537592e-01	 2.8495604251e+00
 1.9294162880e+00	 0.0000000000e+00	 2.9487545102e+00
 1.9293493025e+00	 1.6077920185e-02	 2.9469535690e+00
 1.9291474332e+00	 3.2209507426e-02	 2.9425211417e+00
 1.9288093217e+00	 4.8393360681e-02	 2.9356120878e+00
 1.9283336248e+00	 6.4628047354e-02	 2.9263526208e+00
 1.9277190151e+00	 8.0912103355e-02	 2.9148436358e+00
 1.9269641818e+00	 9.7244033177e-02	 2.9011640800e+00
 1.9260678318e+00	 1.1362230999e-01	 2.8853743751e+00
 1.9250286903e+00	 1.3004537579e-01	 2.8675198956e+00
 1.9238455015e+00	 1.4651164149e-01	 2.8476345122e+00
 1.9225170296e+00	 1.6301948713e-01	 2.8257442096e+00
 1.9411820260e+00	 0.0000000000e+00	 2.9247872040e+00
 1.9411146320e+00	 1.6175964655e-02	 2.9231039058e+00
 1.9409115317e+00	 3.2405923632e-02	 2.9188084132e+00
 1.9405713584e+00	 4.8688467346e-02	 2.9120509937e+00
 1.9400927607e+00	 6.5022154464e-02	 2.9029544421e+00
 1.9394744030e+00	 8.1405511968e-02	 2.8916174032e+00
 1.9387149667e+00	 9.7837035231e-02	 2.8781177295e+00
 1.9378131507e+00	 1.1431518812e-01	 2.8625158792e+00
 1.9367676724e+00	 1.3083840311e-01	 2.8448583614e+00
 1.9355772684e+00	 1.4740508144e-01	 2.8251812372e+00
 1.9342406954e+00	 1.6401359327e-01	 2.8035136866e+00
 1.8170021437e+00	 1.5407237130e-01	 3.0665294406e+00
 1.8156078768e+00	 1.6971459859e-01	 3.0409043848e+00
 1.8140739766e+00	 1.8539294929e-01	 3.0128461734e+00
 1.8123993357e+00	 2.0110576665e-01	 2.9823034755e+00
 1.8105828687e+00	 2.1685136456e-01	 2.9492312559e+00
 1.8086235135e+00	 2.3262802784e-01	 2.9135958663e+00
 1.8065202313e+00	 2.4843401249e-01	 2.8753801838e+00
 1.8042720080e+00	 2.6426754602e-01	 2.8345887386e+00
 1.8018778550e+00	 2.8012682779e-01	 2.7912527688e+00
 1.7993368094e+00	 2.9601002936e-01	 2.7454351347e+00
 1.7966479355e+00	 3.1191529488e-01	 2.6972350232e+00
 1.8287261085e+00	 1.5506650279e-01	 3.0473550772e+00
 1.8273228453e+00	 1.7080965947e-01	 3.0221400501e+00
 1.8257790478e+00	 1.8658917265e-01	 2.9944524211e+00
 1.8240936014e+00	 2.0240337487e-01	 2.9642437709e+00
 1.8222654140e+00	 2.1825056917e-01	 2.9314707170e+00
 1.8202934163e+00	 2.3412902927e-01	 2.8961004179e+00
 1.8181765629e+00	 2.5003699993e-01	 2.8581161426e+00
 1.8159138333e+00	 2.6597269723e-01	 2.8175228413e+00
 1.8135042323e+00	 2.8193430891e-01	 2.7743526544e+00
 1.8109467909e+00	 2.9791999472e-01	 2.7286702890e+00
 1.8082405675e+00	 3.1392788685e-01	 2.6805781909e+00
 1.8404500667e+00	 1.5606063372e-01	 3.0227089031e+00
 1.8390378071e+00	 1.7190471974e-01	 2.9980119429e+00
 1.8374841123e+00	 1.8778539533e-01	 2.9708426497e+00
 1.8357878606e+00	 2.0370098236e-01	 2.9411523696e+00
 1.8339479527e+00	 2.1964977297e-01	 2.9088961830e+00
 1.8319633125e+00	 2.3563002984e-01	 2.8740388461e+00
 1.8298328880e+00	 2.5163998646e-01	 2.8365608132e+00
 1.8275556520e+00	 2.6767784747e-01	 2.7964642750e+00
 1.8251306030e+00	 2.8374178900e-01	 2.7537791465e+00
 1.8225567659e+00	 2.9982995900e-01	 2.7085689310e+00
 1.8198331929e+00	 3.1594047769e-01	 2.6609363851e+00
 1.8521740115e+00	 1.5705476353e-01	 2.9926181754e+00
 1.8507527557e+00	 1.7299977876e-01	 2.9685287636e+00
 1.8491891636e+00	 1.8898161665e-01	 2.9420120923e+00
 1.8474821065e+00	 2.0499858838e-01	 2.9130137952e+00
 1.8456304781e+00	 2.2104897520e-01	 2.8814840278e+00
 1.8436331954e+00	 2.3713102871e-01	 2.8473817307e+00
 1.8414891998e+00	 2.5324297118e-01	 2.8106811288e+00
 1.8391974575e+00	 2.6938299578e-01	 2.7713782620e+00
 1.8367569606e+00	 2.8554926704e-01	 2.7294974774e+00
 1.8341667278e+00	 3.0173992112e-01	 2.6850978072e+00
 1.8314258052e+00	 3.1795306624e-01	 2.6382791532e+00
 1.8638979364e+00	 1.5804889164e-01	 2.9607910637e+00
 1.8624676843e+00	 1.7409483592e-01	 2.9365615877e+00
 1.8608941950e+00	 1.9017783594e-01	 2.9100123493e+00
 1.8591763325e+00	 2.0629619219e-01	 2.8811364924e+00
 1.8573129836e+00	 2.2244817504e-01	 2.8499250849e+00
 1.8553030585e+00	 2.3863202503e-01	 2.8163714587e+00
 1.8531454918e+00	 2.5484595316e-01	 2.7804757298e+00
 1.8508392432e+00	 2.7108814120e-01	 2.7422257519e+00
 1.8483832984e+00	 2.8735674201e-01	 2.7014687592e+00
 1.8457766699e+00	 3.0364987999e-01	 2.6582196719e+00
 1.8430183977e+00	 3.1996565138e-01	 2.6125721492e+00
 1.8756218348e+00	 1.5904301750e-01	 2.9305773644e+00
 1.8741825864e+00	 1.7518989060e-01	 2.9062346958e+00
 1.8725991999e+00	 1.9137405252e-01	 2.8795472111e+00
 1.8708705321e+00	 2.0759379306e-01	 2.8505272601e+00
 1.8689954627e+00	 2.2384737171e-01	 2.8191856637e+00
 1.8669728952e+00	 2.4013301795e-01	 2.7855359875e+00
 1.8648017574e+00	 2.5644893152e-01	 2.7495989921e+00
 1.8624810025e+00	 2.7279328274e-01	 2.7114072770e+00
 1.8600096099e+00	 2.8916421289e-01	 2.6710101314e+00
 1.8573865857e+00	 3.0555983453e-01	 2.6284786093e+00
 1.8546109640e+00	 3.2197823195e-01	 2.5839108467e+00
 1.8873456999e+00	 1.6003714054e-01	 2.9019714497e+00
 1.8858974553e+00	 1.7628494218e-01	 2.8775743883e+00
 1.8843041716e+00	 1.9257026571e-01	 2.8507938982e+00
 1.8825646984e+00	 2.0889139025e-01	 2.8216623692e+00
 1.8806779087e+00	 2.2524656442e-01	 2.7902113217e+00
 1.8786426988e+00	 2.4163400662e-01	 2.7564756075e+00
 1.8764579900e+00	 2.5805190533e-01	 2.7204977846e+00
 1.8741227289e+00	 2.7449841946e-01	 2.6823326830e+00
 1.8716358884e+00	 2.9097167864e-01	 2.6420521752e+00
 1.8689964686e+00	 3.0746978366e-01	 2.5997501723e+00
 1.8662034975e+00	 3.2399080681e-01	 2.5555478608e+00
 1.8990695252e+00	 1.6103126020e-01	 2.8749676716e+00
 1.8976122844e+00	 1.7737999003e-01	 2.8505743930e+00
 1.8960091035e+00	 1.9376647483e-01	 2.8237455871e+00
 1.8942588251e+00	 2.1018898303e-01	 2.7945345573e+00
 1.8923603149e+00	 2.2664575237e-01	 2.7629945107e+00
 1.8903124627e+00	 2.4313499018e-01	 2.7291826797e+00
 1.8881141829e+00	 2.5965487369e-01	 2.6931646149e+00
 1.8857644156e+00	 2.7620355037e-01	 2.6550186645e+00
 1.8832621273e+00	 2.9277913825e-01	 2.6148406586e+00
 1.8806063120e+00	 3.0937972629e-01	 2.5727488168e+00
 1.8777959915e+00	 3.2600337484e-01	 2.5288888984e+00
 1.9107933040e+00	 1.6202537592e-01	 2.8495604251e+00
 1.9093270670e+00	 1.7847503354e-01	 2.8252287706e+00
 1.9077139889e+00	 1.9496267921e-01	 2.7983960307e+00
 1.9059529053e+00	 2.1148657067e-01	 2.7691373386e+00
 1.9040426748e+00	 2.2804493477e-01	 2.7375286183e+00
 1.9019821804e+00	 2.4463596778e-01	 2.7036506217e+00
 1.8997703296e+00	 2.6125783570e-01	 2.6675931310e+00
 1.8974060562e+00	 2.7790867453e-01	 2.6294593458e+00
 1.8948883202e+00	 2.9458659068e-01	 2.5893704725e+00
 1.8922161093e+00	 3.1128966135e-01	 2.5474705356e+00
 1.8893884395e+00	 3.2801593488e-01	 2.5039314325e+00
 1.9225170296e+00	 1.6301948713e-01	 2.8257442096e+00
 1.9210417964e+00	 1.7957007208e-01	 2.8015319674e+00
 1.9194188213e+00	 1.9615887817e-01	 2.7747396051e+00
 1.9176469325e+00	 2.1278415242e-01	 2.7454650451e+00
 1.9157249818e+00	 2.2944411082e-01	 2.7138080047e+00
 1.9136518451e+00	 2.4613693859e-01	 2.6798739396e+00
 1.9114264235e+00	 2.6286079043e-01	 2.6437781505e+00
 1.9090476440e+00	 2.7961379095e-01	 2.6056500686e+00
 1.9065144603e+00	 2.9639403493e-01	 2.5656377423e+00
 1.9038258540e+00	 3.1319958775e-01	 2.5239125446e+00
 1.9009808350e+00	 3.3002848580e-01	 2.4806741225e+00
 1.9342406954e+00	 1.6401359327e-01	 2.8035136866e+00
 1.9327564662e+00	 1.8066510504e-01	 2.7794788672e+00
 1.9311235940e+00	 1.9735507102e-01	 2.7527713543e+00
 1.9293409001e+00	 2.1408172755e-01	 2.7235128663e+00
 1.9274072292e+00	 2.3084327975e-01	 2.6918280369e+00
 1.9253214503e+00	 2.4763790173e-01	 2.6578482596e+00
 1.9230824579e+00	 2.6446373700e-01	 2.6217156890e+00
 1.9206891724e+00	 2.8131889868e-01	 2.5835874179e+00
 1.9181405412e+00	 2.9820146995e-01	 2.5436398526e+00
 1.9154355396e+00	 3.1510950441e-01	 2.5020733068e+00
 1.9125731713e+00	 3.3204102645e-01	 2.4591168381e+00
 1.7966479355e+00	 3.1191529488e-01	 2.6972350232e+00
 1.7938108203e+00	 3.2783803357e-01	 2.6461554727e+00
 1.7908241388e+00	 3.4377904232e-01	 2.5919655276e+00
 1.7876870401e+00	 3.5973639094e-01	 2.5352544743e+00
 1.7843987028e+00	 3.7570812370e-01	 2.4766521701e+00
 1.7809583367e+00	 3.9169225986e-01	 2.4165415330e+00
 1.7773651829e+00	 4.0768679420e-01	 2.3550384871e+00
 1.7736185149e+00	 4.2368969754e-01	 2.2922823083e+00
 1.7697176392e+00	 4.3969891737e-01	 2.2284450038e+00
 1.7656618963e+00	 4.5571237844e-01	 2.1637328696e+00
 1.7614506609e+00	 4.7172798336e-01	 2.0983878567e+00
 1.8082405675e+00	 3.1392788685e-01	 2.6805781909e+00
 1.8053851461e+00	 3.2995336490e-01	 2.6295347473e+00
 1.8023791935e+00	 3.4599723089e-01	 2.5752783011e+00
 1.7992218530e+00	 3.6205754218e-01	 2.5184258880e+00
 1.7959122982e+00	 3.7813233043e-01	 2.4596330676e+00
 1.7924497336e+00	 3.9421960210e-01	 2.3993014822e+00
 1.7888333954e+00	 4.1031733904e-01	 2.3375865853e+00
 1.7850625526e+00	 4.2642349899e-01	 2.2746652535e+00
 1.7811365071e+00	 4.4253601618e-01	 2.2107477259e+00
 1.7770545950e+00	 4.5865280198e-01	 2.1460792183e+00
 1.7728161872e+00	 4.7477174546e-01	 2.0809413439e+00
 1.8198331929e+00	 3.1594047769e-01	 2.6609363851e+00
 1.8169594654e+00	 3.3206869503e-01	 2.6102903585e+00
 1.8139342417e+00	 3.4821541821e-01	 2.5563276023e+00
 1.8107566595e+00	 3.6437869211e-01	 2.4996809388e+00
 1.8074258871e+00	 3.8055653578e-01	 2.4410236467e+00
 1.8039411240e+00	 3.9674694291e-01	 2.3807701911e+00
 1.8003016015e+00	 4.1294788240e-01	 2.3191020469e+00
 1.7965065838e+00	 4.2915729889e-01	 2.2562246840e+00
 1.7925553684e+00	 4.4537311339e-01	 2.1923776175e+00
 1.7884472872e+00	 4.6159322386e-01	 2.1278360957e+00
 1.7841817070e+00	 4.7781550585e-01	 2.0629125933e+00
 1.8314258052e+00	 3.1795306624e-01	 2.6382791532e+00
 1.8285337716e+00	 3.3418402277e-01	 2.5883958445e+00
 1.8254892767e+00	 3.5043360301e-01	 2.5350921765e+00
 1.8222914529e+00	 3.6669983941e-01	 2.4790047582e+00
 1.8189394630e+00	 3.8298073838e-01	 2.4208201139e+00
 1.8154325014e+00	 3.9927428085e-01	 2.3609545614e+00
 1.8117697946e+00	 4.1557842277e-01	 2.2996046458e+00
 1.8079506020e+00	 4.3189109570e-01	 2.2369955317e+00
 1.8039742168e+00	 4.4821020738e-01	 2.1733871620e+00
 1.7998399665e+00	 4.6453364240e-01	 2.1090760373e+00
 1.7955472139e+00	 4.8085926278e-01	 2.0443967991e+00
 1.8430183977e+00	 3.1996565138e-01	 2.6125721492e+00
 1.8401080581e+00	 3.3629934691e-01	 2.5638209134e+00
 1.8370442921e+00	 3.5265178404e-01	 2.5115469548e+00
 1.8338262266e+00	 3.6902098276e-01	 2.4563786243e+00
 1.8304530193e+00	 3.8540493686e-01	 2.3990149257e+00
 1.8269238592e+00	 4.0180161450e-01	 2.3398577230e+00
 1.8232379682e+00	 4.1820895867e-01	 2.2791103241e+00
 1.8193946008e+00	 4.3462488785e-01	 2.2170087931e+00
 1.8153930458e+00	 4.5104729655e-01	 2.1538247544e+00
 1.8112326264e+00	 4.6747405595e-01	 2.0898672821e+00
 1.8069127015e+00	 4.8390301453e-01	 2.0254845902e+00
 1.8546109640e+00	 3.2197823195e-01	 2.5839108467e+00
 1.8516823184e+00	 3.3841466625e-01	 2.5365316294e+00
 1.8485992814e+00	 3.5486996004e-01	 2.4856632528e+00
 1.8453609743e+00	 3.7134212084e-01	 2.4317805921e+00
 1.8419665495e+00	 3.8782912985e-01	 2.3755970073e+00
 1.8384151911e+00	 4.0432894241e-01	 2.3174792720e+00
 1.8347061158e+00	 4.2083948861e-01	 2.2576314512e+00
 1.8308385737e+00	 4.3735867381e-01	 2.1962918110e+00
 1.8268118489e+00	 4.5388437929e-01	 2.1337350085e+00
 1.8226252606e+00	 4.7041446283e-01	 2.0702741074e+00
 1.8182781633e+00	 4.8694675939e-01	 2.0062623947e+00
 1.8662034975e+00	 3.2399080681e-01	 2.5555478608e+00
 1.8632565459e+00	 3.4052997960e-01	 2.5086351676e+00
 1.8601542378e+00	 3.5708812975e-01	 2.4584407591e+00
 1.8568956892e+00	 3.7366325236e-01	 2.4055298162e+00
 1.8534800470e+00	 3.9025331597e-01	 2.3505824714e+00
 1.8499064903e+00	 4.0685626317e-01	 2.2938155047e+00
 1.8461742309e+00	 4.2347001109e-01	 2.2351770784e+00
 1.8422825141e+00	 4.4009245203e-01	 2.1748685525e+00
 1.8382306197e+00	 4.5672145399e-01	 2.1131590588e+00
 1.8340178624e+00	 4.7335486138e-01	 2.0503571576e+00
 1.8296435929e+00	 4.8999049563e-01	 1.9868127986e+00
 1.8777959915e+00	 3.2600337484e-01	 2.5288888984e+00
 1.8748307340e+00	 3.4264528576e-01	 2.4824154591e+00
 1.8717091550e+00	 3.5930629193e-01	 2.4326976410e+00
 1.8684303649e+00	 3.7598437597e-01	 2.3803027345e+00
 1.8649935054e+00	 3.9267749384e-01	 2.3259302699e+00
 1.8613977505e+00	 4.0938357533e-01	 2.2698051900e+00
 1.8576423070e+00	 4.2610052464e-01	 2.2120464207e+00
 1.8537264156e+00	 4.4282622095e-01	 2.1527844040e+00
 1.8496493516e+00	 4.5955851904e-01	 2.0921348586e+00
 1.8454104255e+00	 4.7629524993e-01	 2.0301737689e+00
 1.8410089839e+00	 4.9303422151e-01	 1.9672148989e+00
 1.8893884395e+00	 3.2801593488e-01	 2.5039314325e+00
 1.8864048762e+00	 3.4476058352e-01	 2.4578726681e+00
 1.8832640264e+00	 3.6152444530e-01	 2.4085986156e+00
 1.8799649949e+00	 3.7830549039e-01	 2.3566832763e+00
 1.8765069182e+00	 3.9510166210e-01	 2.3028308466e+00
 1.8728889651e+00	 4.1191087747e-01	 2.2472299186e+00
 1.8691103376e+00	 4.2873102774e-01	 2.1899986489e+00
 1.8651702717e+00	 4.4555997902e-01	 2.1312658784e+00
 1.8610680382e+00	 4.6239557284e-01	 2.0711728696e+00
 1.8568029434e+00	 4.7923562682e-01	 2.0098752560e+00
 1.8523743298e+00	 4.9607793532e-01	 1.9475452207e+00
 1.9009808350e+00	 3.3002848580e-01	 2.4806741225e+00
 1.8979789660e+00	 3.4687587170e-01	 2.4350074011e+00
 1.8948188454e+00	 3.6374258862e-01	 2.3861469932e+00
 1.8914995726e+00	 3.8062659428e-01	 2.3346811812e+00
 1.8880202787e+00	 3.9752581937e-01	 2.2812995038e+00
 1.8843801275e+00	 4.1443816815e-01	 2.2261525675e+00
 1.8805783162e+00	 4.3136151892e-01	 2.1693515582e+00
 1.8766140759e+00	 4.4829372470e-01	 2.1110175219e+00
 1.8724866731e+00	 4.6523261378e-01	 2.0512830225e+00
 1.8681954097e+00	 4.8217599038e-01	 1.9902940177e+00
 1.8637396242e+00	 4.9912163533e-01	 1.9282119705e+00
 1.9125731713e+00	 3.3204102645e-01	 2.4591168381e+00
 1.9095529967e+00	 3.4899114909e-01	 2.4138214132e+00
 1.9063736054e+00	 3.6596072063e-01	 2.3653471431e+00
 1.9030340914e+00	 3.8294768633e-01	 2.3143071122e+00
 1.8995335805e+00	 3.9994996428e-01	 2.2613522382e+00
 1.8958712314e+00	 4.1696544594e-01	 2.2065956766e+00
 1.8920462363e+00	 4.3399199669e-01	 2.1501356232e+00
 1.8880578218e+00	 4.5102745644e-01	 2.0920793169e+00
 1.8839052497e+00	 4.6806964024e-01	 2.0325446219e+00
 1.8795878178e+00	 4.8511633894e-01	 1.9716618319e+00
 1.8751048606e+00	 5.0216531982e-01	 1.9095757186e+00
 1.7614506609e+00	 4.7172798336e-01	 2.0983878567e+00
 1.7570833436e+00	 4.8774361352e-01	 2.0313417021e+00
 1.7525593922e+00	 5.0375713044e-01	 1.9614852798e+00
 1.7478782916e+00	 5.1976637582e-01	 1.8890555596e+00
 1.7430395641e+00	 5.3576917208e-01	 1.8143283577e+00
 1.7380427698e+00	 5.5176332310e-01	 1.7376185427e+00
 1.7328875074e+00	 5.6774661496e-01	 1.6592799120e+00
 1.7275734148e+00	 5.8371681679e-01	 1.5797047165e+00
 1.7221001697e+00	 5.9967168153e-01	 1.4993228098e+00
 1.7164674901e+00	 6.1560894683e-01	 1.4186004011e+00
 1.7106751350e+00	 6.3152633584e-01	 1.3380383879e+00
 1.7728161872e+00	 4.7477174546e-01	 2.0809413439e+00
 1.7684206903e+00	 4.9089071435e-01	 2.0143029773e+00
 1.7638675487e+00	 5.0700755636e-01	 1.9450213541e+00
 1.7591562440e+00	 5.2312009927e-01	 1.8732696942e+00
 1.7542862952e+00	 5.3922615144e-01	 1.7992631231e+00
 1.7492572598e+00	 5.5532350259e-01	 1.7232590883e+00
 1.7440687337e+00	 5.7140992452e-01	 1.6455574383e+00
 1.7387203526e+00	 5.8748317196e-01	 1.5665001420e+00
 1.7332117921e+00	 6.0354098335e-01	 1.4864706221e+00
 1.7275427684e+00	 6.1958108173e-01	 1.4058926807e+00
 1.7217130389e+00	 6.3560117558e-01	 1.3252289929e+00
 1.7841817070e+00	 4.7781550585e-01	 2.0629125933e+00
 1.7797580306e+00	 4.9403781340e-01	 1.9966334746e+00
 1.7751756988e+00	 5.1025798043e-01	 1.9278583911e+00
 1.7704341899e+00	 5.2647382081e-01	 1.8567115083e+00
 1.7655330199e+00	 5.4268312885e-01	 1.7833617642e+00
 1.7604717433e+00	 5.5888368007e-01	 1.7080234781e+00
 1.7552499537e+00	 5.7507323201e-01	 1.6309566160e+00
 1.7498672841e+00	 5.9124952499e-01	 1.5524666865e+00
 1.7443234082e+00	 6.0741028296e-01	 1.4729042407e+00
 1.7386180404e+00	 6.2355321437e-01	 1.3926639533e+00
 1.7327509365e+00	 6.3967601300e-01	 1.3121832590e+00
 1.7955472139e+00	 4.8085926278e-01	 2.0443967991e+00
 1.7910953580e+00	 4.9718490888e-01	 1.9784486639e+00
 1.7864838361e+00	 5.1350840083e-01	 1.9101244523e+00
 1.7817121231e+00	 5.2982753856e-01	 1.8395136094e+00
 1.7767797319e+00	 5.4614010234e-01	 1.7667530300e+00
 1.7716862142e+00	 5.6244385352e-01	 1.6920278442e+00
 1.7664311609e+00	 5.7873653534e-01	 1.6155718515e+00
 1.7610142030e+00	 5.9501587375e-01	 1.5376675761e+00
 1.7554350117e+00	 6.1127957820e-01	 1.4586459170e+00
 1.7496932999e+00	 6.2752534252e-01	 1.3788853670e+00
 1.7437888217e+00	 6.4375084581e-01	 1.2988107744e+00
 1.8069127015e+00	 4.8390301453e-01	 2.0254845902e+00
 1.8024326662e+00	 5.0033199901e-01	 1.9598592433e+00
 1.7977919541e+00	 5.1675881570e-01	 1.8919428129e+00
 1.7929900370e+00	 5.3318125060e-01	 1.8218040023e+00
 1.7880264247e+00	 5.4959706994e-01	 1.7495614556e+00
 1.7829006660e+00	 5.6600402091e-01	 1.6753847037e+00
 1.7776123492e+00	 5.8239983245e-01	 1.5994947510e+00
 1.7721611029e+00	 5.9878221611e-01	 1.5221642737e+00
 1.7665465964e+00	 6.1514886685e-01	 1.4437174036e+00
 1.7607685405e+00	 6.3149746391e-01	 1.3645290682e+00
 1.7548266881e+00	 6.4782567168e-01	 1.2850238609e+00
 1.8182781633e+00	 4.8694675939e-01	 2.0062623947e+00
 1.8137699486e+00	 5.0347908201e-01	 1.9409715316e+00
 1.8091000466e+00	 5.2000922320e-01	 1.8734323772e+00
 1.8042679255e+00	 5.3653495505e-01	 1.8037065220e+00
 1.7992730921e+00	 5.5305402972e-01	 1.7319078052e+00
 1.7941150924e+00	 5.6956418023e-01	 1.6582034056e+00
 1.7887935121e+00	 5.8606312125e-01	 1.5828145648e+00
 1.7833079775e+00	 6.0254854993e-01	 1.5060169135e+00
 1.7776581559e+00	 6.1901814673e-01	 1.4281403718e+00
 1.7718437561e+00	 6.3546957629e-01	 1.3495685949e+00
 1.7658645294e+00	 6.5190048832e-01	 1.2707379354e+00
 1.8296435929e+00	 4.8999049563e-01	 1.9868127986e+00
 1.8251071990e+00	 5.0662615609e-01	 1.9218878551e+00
 1.8204081069e+00	 5.2325962149e-01	 1.8547080877e+00
 1.8155457819e+00	 5.3988864999e-01	 1.7853412589e+00
 1.8105197276e+00	 5.5651097969e-01	 1.7139095081e+00
 1.8053294870e+00	 5.7312432946e-01	 1.6405905712e+00
 1.7999746434e+00	 5.8972639968e-01	 1.5656186261e+00
 1.7944548206e+00	 6.0631487309e-01	 1.4892847308e+00
 1.7887696838e+00	 6.2288741565e-01	 1.4119368253e+00
 1.7829189402e+00	 6.3944167742e-01	 1.3339792672e+00
 1.7769023395e+00	 6.5597529342e-01	 1.2558718701e+00
 1.8410089839e+00	 4.9303422151e-01	 1.9672148989e+00
 1.8364444107e+00	 5.0977321946e-01	 1.9027069274e+00
 1.8317161289e+00	 5.2651000873e-01	 1.8358813266e+00
 1.8268236000e+00	 5.4324233352e-01	 1.7668249773e+00
 1.8217663248e+00	 5.5996791792e-01	 1.6956810875e+00
 1.8165438435e+00	 5.7668446659e-01	 1.6226505277e+00
 1.8111557366e+00	 5.9338966564e-01	 1.5479927823e+00
 1.8056016257e+00	 6.1008118343e-01	 1.4720264854e+00
 1.7998811740e+00	 6.2675667142e-01	 1.3951295094e+00
 1.7939940868e+00	 6.4341376505e-01	 1.3177385747e+00
 1.7879401121e+00	 6.6005008466e-01	 1.2403483503e+00
 1.8523743298e+00	 4.9607793532e-01	 1.9475452207e+00
 1.8477815775e+00	 5.1292027036e-01	 1.8835242233e+00
 1.8430241060e+00	 5.2976038307e-01	 1.8170603116e+00
 1.8381013734e+00	 5.4659600376e-01	 1.7482715265e+00
 1.8330128774e+00	 5.6342484243e-01	 1.6773345831e+00
 1.8277581555e+00	 5.8024458960e-01	 1.6044857357e+00
 1.8223367855e+00	 5.9705291708e-01	 1.5300218218e+00
 1.8167483867e+00	 6.1384747883e-01	 1.4543008810e+00
 1.8109926201e+00	 6.3062591183e-01	 1.3777423158e+00
 1.8050691893e+00	 6.4738583692e-01	 1.3008265614e+00
 1.7989778408e+00	 6.6412485973e-01	 1.2240942324e+00
 1.8637396242e+00	 4.9912163533e-01	 1.9282119705e+00
 1.8591186930e+00	 5.1606730699e-01	 1.8644728058e+00
 1.8543320318e+00	 5.3301074268e-01	 1.7983454825e+00
 1.8493790957e+00	 5.4994965878e-01	 1.7297922467e+00
 1.8442593791e+00	 5.6688175127e-01	 1.6589799671e+00
 1.8389724166e+00	 5.8380469646e-01	 1.5861972103e+00
 1.8335177837e+00	 6.0071615190e-01	 1.5117898945e+00
 1.8278950971e+00	 6.1761375716e-01	 1.4361669792e+00
 1.8221040159e+00	 6.3449513470e-01	 1.3598006847e+00
 1.8161442417e+00	 6.5135789078e-01	 1.2832262074e+00
 1.8100155196e+00	 6.6819961633e-01	 1.2070408993e+00
 1.8751048606e+00	 5.0216531982e-01	 1.9095757186e+00
 1.8704557506e+00	 5.1921432756e-01	 1.8457894358e+00
 1.8656398999e+00	 5.3626108571e-01	 1.7796960492e+00
 1.8606567604e+00	 5.5330329671e-01	 1.7113089215e+00
 1.8555058234e+00	 5.7033864247e-01	 1.6406730305e+00
 1.8501866206e+00	 5.8736478517e-01	 1.5678849366e+00
 1.8446987248e+00	 6.0437936805e-01	 1.4933809271e+00
 1.8390417507e+00	 6.2138001628e-01	 1.4176846089e+00
 1.8332153550e+00	 6.3836433784e-01	 1.3413320015e+00
 1.8272192376e+00	 6.5532992438e-01	 1.2649238085e+00
 1.8210531420e+00	 6.7227435215e-01	 1.1891246159e+00
 1.7106751350e+00	 6.3152633584e-01	 1.3380383879e+00
 1.7047218791e+00	 6.4742425837e-01	 1.2563137029e+00
 1.6986085352e+00	 6.6329770162e-01	 1.1722876060e+00
 1.6923349868e+00	 6.7914434878e-01	 1.0867418896e+00
 1.6859011607e+00	 6.9496187216e-01	 1.0004826257e+00
 1.6793070271e+00	 7.1074793418e-01	 9.1433580813e-01
 1.6725526001e+00	 7.2650018834e-01	 8.2914246948e-01
 1.6656379381e+00	 7.4221628020e-01	 7.4573282434e-01
 1.6585631439e+00	 7.5789384843e-01	 6.6227125416e-01
 1.6513283656e+00	 7.7353052579e-01	 5.7740234694e-01
 1.6439337965e+00	 7.8912394021e-01	 4.9151767561e-01
 1.7217130389e+00	 6.3560117558e-01	 1.3252289929e+00
 1.7157213705e+00	 6.5160167733e-01	 1.2431151158e+00
 1.7095685809e+00	 6.6757754187e-01	 1.1584664757e+00
 1.7032545533e+00	 6.8352643741e-01	 1.0721747407e+00
 1.6967792138e+00	 6.9944602126e-01	 9.8515798902e-01
 1.6901425325e+00	 7.1533394075e-01	 8.9835620760e-01
 1.6833445235e+00	 7.3118783423e-01	 8.1272624288e-01
 1.6763852454e+00	 7.4700533208e-01	 7.2888909909e-01
 1.6692648021e+00	 7.6278405774e-01	 6.4442388880e-01
 1.6619833424e+00	 7.7852162868e-01	 5.5905291643e-01
 1.6545410608e+00	 7.9421565754e-01	 4.7326093357e-01
 1.7327509365e+00	 6.3967601300e-01	 1.3121832590e+00
 1.7267208555e+00	 6.5577909393e-01	 1.2300378795e+00
 1.7205286205e+00	 6.7185737969e-01	 1.1451562457e+00
 1.7141741136e+00	 6.8790852356e-01	 1.0585190556e+00
 1.7076572608e+00	 7.0393016782e-01	 9.7113596515e-01
 1.7009780317e+00	 7.1991994472e-01	 8.8404097706e-01
 1.6941364407e+00	 7.3587547746e-01	 7.9828726235e-01
 1.6871325467e+00	 7.5179438126e-01	 7.1389556935e-01
 1.6799664542e+00	 7.6767426428e-01	 6.2862885615e-01
 1.6726383131e+00	 7.8351272875e-01	 5.4285875634e-01
 1.6651483191e+00	 7.9930737198e-01	 4.5714589201e-01
 1.7437888217e+00	 6.4375084581e-01	 1.2988107744e+00
 1.7377203282e+00	 6.5995650579e-01	 1.2169282020e+00
 1.7314886476e+00	 6.7613721266e-01	 1.1321470373e+00
 1.7250936616e+00	 6.9229060475e-01	 1.0455165237e+00
 1.7185352954e+00	 7.0841430930e-01	 9.5811782536e-01
 1.7118135187e+00	 7.2450594348e-01	 8.7105934310e-01
 1.7049283456e+00	 7.4056311539e-01	 7.8547144160e-01
 1.6978798358e+00	 7.5658342500e-01	 7.0042146677e-01
 1.6906680943e+00	 7.7256446527e-01	 6.1455907897e-01
 1.6832932717e+00	 7.8850382315e-01	 5.2850693206e-01
 1.6757555653e+00	 8.0439908065e-01	 4.4288461991e-01
 1.7548266881e+00	 6.4782567168e-01	 1.2850238609e+00
 1.7487197821e+00	 6.6413391055e-01	 1.2036367783e+00
 1.7424486562e+00	 6.8041703836e-01	 1.1192349995e+00
 1.7360131910e+00	 6.9667267848e-01	 1.0329161761e+00
 1.7294133116e+00	 7.1289844315e-01	 9.4581325984e-01
 1.7226489872e+00	 7.2909193446e-01	 8.5908977934e-01
 1.7157202323e+00	 7.4525074534e-01	 7.7377745500e-01
 1.7086271067e+00	 7.6137246060e-01	 6.8815006191e-01
 1.7013697161e+00	 7.7745465796e-01	 6.0190122276e-01
 1.6939482123e+00	 7.9349490908e-01	 5.1569769726e-01
 1.6863627935e+00	 8.0949078066e-01	 4.3020155350e-01
 1.7658645294e+00	 6.5190048832e-01	 1.2707379354e+00
 1.7597192111e+00	 6.6831130584e-01	 1.1900191198e+00
 1.7534086398e+00	 6.8469685435e-01	 1.1062226099e+00
 1.7469326957e+00	 7.0105474228e-01	 1.0204746669e+00
 1.7402913031e+00	 7.1738256684e-01	 9.3394064496e-01
 1.7334844311e+00	 7.3367791503e-01	 8.4782026716e-01
 1.7265120944e+00	 7.4993836467e-01	 7.6271876938e-01
 1.7193743532e+00	 7.6616148535e-01	 6.7677824794e-01
 1.7120713137e+00	 7.8234483955e-01	 5.9035528035e-01
 1.7046031287e+00	 7.9848598368e-01	 5.0414408806e-01
 1.6969699977e+00	 8.1458246914e-01	 4.1883310913e-01
 1.7769023395e+00	 6.5597529342e-01	 1.2558718701e+00
 1.7707186089e+00	 6.7248868930e-01	 1.1759358818e+00
 1.7643685924e+00	 6.8897665822e-01	 1.0929189785e+00
 1.7578521694e+00	 7.0543679366e-01	 1.0079565566e+00
 1.7511692637e+00	 7.2186667782e-01	 9.2222731446e-01
 1.7443198444e+00	 7.3826388262e-01	 8.3694856111e-01
 1.7373039260e+00	 7.5462597071e-01	 7.5201182851e-01
 1.7301215692e+00	 7.7095049652e-01	 6.6601612957e-01
 1.7227728809e+00	 7.8723500730e-01	 5.7963416142e-01
 1.7152580149e+00	 8.0347704415e-01	 4.9357152171e-01
 1.7075771719e+00	 8.1967414318e-01	 4.0852730002e-01
 1.7879401121e+00	 6.6005008466e-01	 1.2403483503e+00
 1.7817179693e+00	 6.7666605855e-01	 1.1612531927e+00
 1.7753285078e+00	 6.9325644753e-01	 1.0791401515e+00
 1.7687716060e+00	 7.0981883014e-01	 9.9513459923e-01
 1.7620471874e+00	 7.2635077355e-01	 9.1040983438e-01
 1.7551552208e+00	 7.4284983460e-01	 8.2615333018e-01
 1.7480957209e+00	 7.5931356082e-01	 7.4138611451e-01
 1.7408687487e+00	 7.7573949142e-01	 6.5558661687e-01
 1.7334744118e+00	 7.9212515841e-01	 5.6946328676e-01
 1.7259128648e+00	 8.0846808765e-01	 4.8371739954e-01
 1.7181843099e+00	 8.2476579991e-01	 3.9904335625e-01
 1.7989778408e+00	 6.6412485973e-01	 1.2240942324e+00
 1.7927172861e+00	 6.8084341123e-01	 1.1458429830e+00
 1.7862883797e+00	 6.9753621987e-01	 1.0647094179e+00
 1.7796909993e+00	 7.1420084924e-01	 9.8179003131e-01
 1.7729250679e+00	 7.3083485150e-01	 8.9823428161e-01
 1.7659905542e+00	 7.4743576840e-01	 8.1496706803e-01
 1.7588874730e+00	 7.6400113233e-01	 7.3058358951e-01
 1.7516158855e+00	 7.8052846731e-01	 6.4522502375e-01
 1.7441759002e+00	 7.9701529012e-01	 5.5958018706e-01
 1.7365676725e+00	 8.1345911134e-01	 4.7433071394e-01
 1.7287914059e+00	 8.2985743644e-01	 3.9015134832e-01
 1.8100155196e+00	 6.6819961633e-01	 1.2070408993e+00
 1.8037165530e+00	 6.8502074497e-01	 1.1295833143e+00
 1.7972482018e+00	 7.0181597280e-01	 1.0494576178e+00
 1.7906103431e+00	 7.1858284847e-01	 9.6771286407e-01
 1.7838028991e+00	 7.3531890911e-01	 8.8545652585e-01
 1.7768258385e+00	 7.5202168141e-01	 8.0311909220e-01
 1.7696791761e+00	 7.6868868258e-01	 7.1935830599e-01
 1.7623629737e+00	 7.8531742149e-01	 6.3467867107e-01
 1.7548773401e+00	 8.0190539967e-01	 5.4973410607e-01
 1.7472224319e+00	 8.1845011241e-01	 4.6517165933e-01
 1.7393984538e+00	 8.3494904989e-01	 3.8163181369e-01
 1.8210531420e+00	 6.7227435215e-01	 1.1891246159e+00
 1.8147157638e+00	 6.8919805740e-01	 1.1123587089e+00
 1.8082079681e+00	 7.0609570391e-01	 1.0332234507e+00
 1.8015296311e+00	 7.2296482535e-01	 9.5270217778e-01
 1.7946806749e+00	 7.3980294386e-01	 8.7184251479e-01
 1.7876610676e+00	 7.5660757102e-01	 7.9039005897e-01
 1.7804708243e+00	 7.7337620893e-01	 7.0747602131e-01
 1.7731100070e+00	 7.9010635125e-01	 6.2370649392e-01
 1.7655787254e+00	 8.0679548427e-01	 5.3968560794e-01
 1.7578771370e+00	 8.2344108802e-01	 4.5601124680e-01
 1.7500054476e+00	 8.4004063737e-01	 3.7327538653e-01
 1.6439337965e+00	 7.8912394021e-01	 4.9151767561e-01
 1.6363809729e+00	 8.0466907688e-01	 4.0526648441e-01
 1.6286689352e+00	 8.2016621204e-01	 3.1904696526e-01
 1.6207980129e+00	 8.3561296584e-01	 2.3291613557e-01
 1.6127685819e+00	 8.5100695783e-01	 1.4692596291e-01
 1.6045810646e+00	 8.6634580808e-01	 6.1126348017e-02
 1.5962359300e+00	 8.8162713832e-01	-2.4431508986e-02
 1.5877336937e+00	 8.9684857302e-01	-1.0969136092e-01
 1.5790749182e+00	 9.1200774055e-01	-1.9458778919e-01
 1.5702602129e+00	 9.2710227430e-01	-2.7904171039e-01
 1.5612902341e+00	 9.4212981382e-01	-3.6295552444e-01
 1.6545410608e+00	 7.9421565754e-01	 4.7326093357e-01
 1.6469395036e+00	 8.0986109713e-01	 3.8764659320e-01
 1.6391777050e+00	 8.2545822550e-01	 3.0244442995e-01
 1.6312559966e+00	 8.4100464743e-01	 2.1763231432e-01
 1.6231747568e+00	 8.5649796710e-01	 1.3318262120e-01
 1.6149344106e+00	 8.7193578924e-01	 4.9065384259e-02
 1.6065354301e+00	 8.8731572023e-01	-3.4748147090e-02
 1.5979783343e+00	 9.0263536922e-01	-1.1828154974e-01
 1.5892636892e+00	 9.1789234926e-01	-2.0154887284e-01
 1.5803921082e+00	 9.3308427848e-01	-2.8454989532e-01
 1.5713642518e+00	 9.4820878121e-01	-3.6726500605e-01
 1.6651483191e+00	 7.9930737198e-01	 4.5714589201e-01
 1.6574980283e+00	 8.1505311444e-01	 3.7205336026e-01
 1.6496864688e+00	 8.3075023596e-01	 2.8768971154e-01
 1.6417139744e+00	 8.4639632596e-01	 2.0397060429e-01
 1.6335809258e+00	 8.6198897326e-01	 1.2080564340e-01
 1.6252877508e+00	 8.7752576724e-01	 3.8101682884e-02
 1.6168349244e+00	 8.9300429892e-01	-4.4233448798e-02
 1.6082229691e+00	 9.0842216213e-01	-1.2628680234e-01
 1.5994524544e+00	 9.2377695464e-01	-2.0813574496e-01
 1.5905239978e+00	 9.3906627928e-01	-2.8984298932e-01
 1.5814382638e+00	 9.5428774515e-01	-3.7145122537e-01
 1.6757555653e+00	 8.0439908065e-01	 4.4288461991e-01
 1.6680565411e+00	 8.2024512587e-01	 3.5822836256e-01
 1.6601952208e+00	 8.3604224042e-01	 2.7455160615e-01
 1.6521719403e+00	 8.5178799837e-01	 1.9172446151e-01
 1.6439870830e+00	 8.6747997319e-01	 1.0961031205e-01
 1.6356410792e+00	 8.8311573890e-01	 2.8069242060e-02
 1.6271344071e+00	 8.9869287117e-01	-5.3038091924e-02
 1.6184675923e+00	 9.1420894849e-01	-1.3384614795e-01
 1.6096412081e+00	 9.2966155334e-01	-2.1447974833e-01
 1.6006558758e+00	 9.4504827329e-01	-2.9504890022e-01
 1.5915122643e+00	 9.6036670220e-01	-3.7564319846e-01
 1.6863627935e+00	 8.0949078066e-01	 4.3020155350e-01
 1.6786150359e+00	 8.2543712847e-01	 3.4592461851e-01
 1.6707039548e+00	 8.4133423589e-01	 2.6280949383e-01
 1.6626298885e+00	 8.5717966163e-01	 1.8069714485e-01
 1.6543932225e+00	 8.7297096379e-01	 9.9421016405e-02
 1.6459943900e+00	 8.8870570105e-01	 1.8810563748e-02
 1.6374338722e+00	 9.0438143374e-01	-6.1304752157e-02
 1.6287121980e+00	 9.1999572501e-01	-1.4109100609e-01
 1.6198299445e+00	 9.3554614204e-01	-2.2070489137e-01
 1.6107877367e+00	 9.5103025713e-01	-3.0028835204e-01
 1.6015862478e+00	 9.6644564891e-01	-3.7996277594e-01
 1.6969699977e+00	 8.1458246914e-01	 4.1883310913e-01
 1.6891735067e+00	 8.3062911930e-01	 3.3490622397e-01
 1.6812126651e+00	 8.4662621936e-01	 2.5225299604e-01
 1.6730878130e+00	 8.6257131265e-01	 1.7070139382e-01
 1.6647993384e+00	 8.7846194195e-01	 9.0070948801e-02
 1.6563476774e+00	 8.9429565054e-01	 1.0176366634e-02
 1.6477333140e+00	 9.1006998341e-01	-6.9168375659e-02
 1.6389567806e+00	 9.2578248842e-01	-1.4814544709e-01
 1.6300186577e+00	 9.4143071741e-01	-2.2692809918e-01
 1.6209195745e+00	 9.5701222741e-01	-3.0567512949e-01
 1.6116602084e+00	 9.7252458184e-01	-3.8452488389e-01
 1.7075771719e+00	 8.1967414318e-01	 4.0852730002e-01
 1.6997319477e+00	 8.3582109542e-01	 3.2494799072e-01
 1.6917213456e+00	 8.5191818783e-01	 2.4268163510e-01
 1.6835457078e+00	 8.6796294841e-01	 1.6155910732e-01
 1.6752054248e+00	 8.8395290454e-01	 8.1401801152e-02
 1.6667009354e+00	 8.9988558418e-01	 2.0252986193e-03
 1.6580327266e+00	 9.1575851697e-01	-7.6756452669e-02
 1.6492013341e+00	 9.3156923543e-01	-1.5512645405e-01
 1.6402073421e+00	 9.4731527609e-01	-2.3325946633e-01
 1.6310513837e+00	 9.6299418075e-01	-3.1131632425e-01
 1.6217341404e+00	 9.7860349755e-01	-3.8943776665e-01
 1.7181843099e+00	 8.2476579991e-01	 3.9904335625e-01
 1.7102903527e+00	 8.4101305389e-01	 3.1583508770e-01
 1.7022299903e+00	 8.5721013831e-01	 2.3390449519e-01
 1.6940035671e+00	 8.7335456582e-01	 1.5310102331e-01
 1.6856114759e+00	 8.8944384846e-01	 7.3263461696e-02
 1.6770541582e+00	 9.0547549882e-01	-5.7763511209e-03
 1.6683321042e+00	 9.2144703119e-01	-8.4189292077e-02
 1.6594458528e+00	 9.3735596276e-01	-1.6214418621e-01
 1.6503959919e+00	 9.5319981477e-01	-2.3980251145e-01
 1.6411831584e+00	 9.6897611374e-01	-3.1731258337e-01
 1.6318080382e+00	 9.8468239259e-01	-3.9480323178e-01
 1.7287914059e+00	 8.2985743644e-01	 3.9015134832e-01
 1.7208487159e+00	 8.4620499176e-01	 3.0736268452e-01
 1.7127385934e+00	 8.6250206780e-01	 2.2573988509e-01
 1.7044613848e+00	 8.7874616186e-01	 1.4516639934e-01
 1.6960174857e+00	 8.9493477061e-01	 6.5513711928e-02
 1.6874073400e+00	 9.1106539128e-01	-1.3354940483e-02
 1.6786314409e+00	 9.2713552284e-01	-9.1580296909e-02
 1.6696903308e+00	 9.4314266713e-01	-1.6930224364e-01
 1.6605846012e+00	 9.5908433011e-01	-2.4665443337e-01
 1.6513148929e+00	 9.7495802301e-01	-3.2375835938e-01
 1.6418818961e+00	 9.9076126352e-01	-4.0071689683e-01
 1.7393984538e+00	 8.3494904989e-01	 3.8163181369e-01
 1.7314070312e+00	 8.5139690609e-01	 2.9933559748e-01
 1.7232471488e+00	 8.6779397329e-01	 2.1801500241e-01
 1.7149191552e+00	 8.8413773344e-01	 1.3760269393e-01
 1.7064234483e+00	 9.0042566786e-01	 5.8017923712e-02
 1.6977604748e+00	 9.1665525840e-01	-2.0829763167e-02
 1.6889307309e+00	 9.3282398870e-01	-9.9036240692e-02
 1.6799347624e+00	 9.4892934527e-01	-1.7669793325e-01
 1.6707731644e+00	 9.6496881877e-01	-2.5390636892e-01
 1.6614465815e+00	 9.8093990515e-01	-3.3074216224e-01
 1.6519557083e+00	 9.9684010689e-01	-4.0726843806e-01
 1.7500054476e+00	 8.4004063737e-01	 3.7327538653e-01
 1.7419652927e+00	 8.5658879394e-01	 2.9156793771e-01
 1.7337556506e+00	 8.7308585180e-01	 2.1056559938e-01
 1.7253768723e+00	 8.8952927753e-01	 1.3026524881e-01
 1.7168293578e+00	 9.0591653710e-01	 5.0648756589e-02
 1.7081135568e+00	 9.2224509702e-01	-2.8313337781e-02
 1.6992299684e+00	 9.3851242555e-01	-1.0665754466e-01
 1.6901791417e+00	 9.5471599390e-01	-1.8442253592e-01
 1.6809616755e+00	 9.7085327742e-01	-2.6164365221e-01
 1.6715782184e+00	 9.8692175679e-01	-3.3834681293e-01
 1.6620294690e+00	 1.0029189193e+00	-4.1454184077e-01
 1.5612902341e+00	 9.4212981382e-01	-3.6295552444e-01
 1.5521656852e+00	 9.5708800628e-01	-4.4669132512e-01
 1.5428873179e+00	 9.7197450848e-01	-5.3025306529e-01
 1.5334559312e+00	 9.8678698721e-01	-6.1295965267e-01
 1.5238723706e+00	 1.0015231201e+00	-6.9408646052e-01
 1.5141375278e+00	 1.0161805966e+00	-7.7285955136e-01
 1.5042523411e+00	 1.0307571194e+00	-8.4844967775e-01
 1.4942177947e+00	 1.0452504054e+00	-9.1996609096e-01
 1.4840349185e+00	 1.0596581869e+00	-9.8645019123e-01
 1.4737047879e+00	 1.0739782128e+00	-1.0489912066e+00
 1.4632285237e+00	 1.0882082495e+00	-1.1111472910e+00
 1.5713642518e+00	 9.4820878121e-01	-3.6726500605e-01
 1.5621808279e+00	 9.6326348941e-01	-4.5011527880e-01
 1.5528425932e+00	 9.7824604479e-01	-5.3311814698e-01
 1.5433503518e+00	 9.9315409907e-01	-6.1560009345e-01
 1.5337049545e+00	 1.0079853149e+00	-6.9684208691e-01
 1.5239072990e+00	 1.0227373668e+00	-7.7607355138e-01
 1.5139583294e+00	 1.0374079427e+00	-8.5246609887e-01
 1.5038590364e+00	 1.0519947447e+00	-9.2512705726e-01
 1.4936104565e+00	 1.0664954905e+00	-9.9309282810e-01
 1.4832136722e+00	 1.0809079144e+00	-1.0553221120e+00
 1.4726698112e+00	 1.0952297685e+00	-1.1132191265e+00
 1.5814382638e+00	 9.5428774515e-01	-3.7145122537e-01
 1.5721959650e+00	 9.6943896904e-01	-4.5343002515e-01
 1.5627978629e+00	 9.8451757754e-01	-5.3581133399e-01
 1.5532447667e+00	 9.9952120732e-01	-6.1793121885e-01
 1.5435375328e+00	 1.0144475060e+00	-6.9907856127e-01
 1.5336770645e+00	 1.0292941333e+00	-7.7848876491e-01
 1.5236643122e+00	 1.0440587622e+00	-8.5533721129e-01
 1.5135002726e+00	 1.0587390802e+00	-9.2873249696e-01
 1.5031859891e+00	 1.0733327902e+00	-9.9770948801e-01
 1.4927225510e+00	 1.0878376122e+00	-1.0612222310e+00
 1.4821110934e+00	 1.1022512836e+00	-1.1181367617e+00
 1.5915122643e+00	 9.6036670220e-01	-3.7564319846e-01
 1.5822110907e+00	 9.7561444167e-01	-4.5677015898e-01
 1.5727531213e+00	 9.9078910319e-01	-5.3847698565e-01
 1.5631391705e+00	 1.0058883084e+00	-6.2011131453e-01
 1.5533701000e+00	 1.0209096898e+00	-7.0097223438e-01
 1.5434468190e+00	 1.0358508923e+00	-7.8030372422e-01
 1.5333702840e+00	 1.0507095742e+00	-8.5728782341e-01
 1.5231414979e+00	 1.0654834080e+00	-9.3103756791e-01
 1.5127615109e+00	 1.0801700822e+00	-1.0005897305e+00
 1.5022314191e+00	 1.0947673020e+00	-1.0648974052e+00
 1.4915523649e+00	 1.1092727908e+00	-1.1228224785e+00
 1.6015862478e+00	 9.6644564891e-01	-3.7996277594e-01
 1.5922261994e+00	 9.8178990381e-01	-4.6026299770e-01
 1.5827083628e+00	 9.9706061817e-01	-5.4125194901e-01
 1.5730335574e+00	 1.0122553986e+00	-6.2229079732e-01
 1.5632026505e+00	 1.0273718626e+00	-7.0269111111e-01
 1.5532165569e+00	 1.0424076403e+00	-7.8170801978e-01
 1.5430762392e+00	 1.0573603748e+00	-8.5853308871e-01
 1.5327827068e+00	 1.0722277243e+00	-9.3228694468e-01
 1.5223370164e+00	 1.0870073625e+00	-1.0020116904e+00
 1.5117402710e+00	 1.1016969801e+00	-1.0666631499e+00
 1.5009936203e+00	 1.1162942860e+00	-1.1254026301e+00
 1.6116602084e+00	 9.7252458184e-01	-3.8452488389e-01
 1.6022412854e+00	 9.8796535194e-01	-4.6402882151e-01
 1.5926635817e+00	 1.0033321189e+00	-5.4426580128e-01
 1.5829279219e+00	 1.0186224743e+00	-6.2461246252e-01
 1.5730351786e+00	 1.0338340208e+00	-7.0439510553e-01
 1.5629862727e+00	 1.0489643733e+00	-7.8288256572e-01
 1.5527821725e+00	 1.0640111604e+00	-8.5927878440e-01
 1.5424238939e+00	 1.0789720254e+00	-9.3271511298e-01
 1.5319125001e+00	 1.0938446274e+00	-1.0022423903e+00
 1.5212491014e+00	 1.1086266425e+00	-1.0668228368e+00
 1.5104348544e+00	 1.1233157652e+00	-1.1268984676e+00
 1.6217341404e+00	 9.7860349755e-01	-3.8943776665e-01
 1.6122563430e+00	 9.9414078258e-01	-4.6818111577e-01
 1.6026187724e+00	 1.0096036019e+00	-5.4764109415e-01
 1.5928222583e+00	 1.0249895321e+00	-6.2721173292e-01
 1.5828676790e+00	 1.0402961607e+00	-7.0623629718e-01
 1.5727559608e+00	 1.0555210878e+00	-7.8399986604e-01
 1.5624880782e+00	 1.0706619272e+00	-8.5972159000e-01
 1.5520650536e+00	 1.0857163074e+00	-9.3254666317e-01
 1.5414879568e+00	 1.1006818728e+00	-1.0015380520e+00
 1.5307579048e+00	 1.1155562852e+00	-1.0658507715e+00
 1.5198760616e+00	 1.1303372246e+00	-1.1275216301e+00
 1.6318080382e+00	 9.8468239259e-01	-3.9480323178e-01
 1.6222713666e+00	 1.0003161922e+00	-4.7282681515e-01
 1.6125739292e+00	 1.0158750636e+00	-5.5149359991e-01
 1.6027165611e+00	 1.0313565682e+00	-6.3021690936e-01
 1.5927001458e+00	 1.0467582786e+00	-7.0835918845e-01
 1.5825256156e+00	 1.0620777800e+00	-7.8522428140e-01
 1.5721939510e+00	 1.0773126713e+00	-8.6004936595e-01
 1.5617061806e+00	 1.0924605664e+00	-9.3199658320e-01
 1.5510633809e+00	 1.1075190951e+00	-1.0001444056e+00
 1.5402666759e+00	 1.1224859044e+00	-1.0646090453e+00
 1.5293172368e+00	 1.1373586601e+00	-1.1274409772e+00
 1.6418818961e+00	 9.9076126352e-01	-4.0071689683e-01
 1.6322863504e+00	 1.0064915774e+00	-4.7806654979e-01
 1.6225290466e+00	 1.0221465004e+00	-5.5593255924e-01
 1.6126108247e+00	 1.0377235790e+00	-6.3374942265e-01
 1.6025325737e+00	 1.0532203708e+00	-7.1090096317e-01
 1.5922952317e+00	 1.0686344462e+00	-7.8671229647e-01
 1.5818997853e+00	 1.0839633891e+00	-8.6044143229e-01
 1.5713472693e+00	 1.0992047987e+00	-9.3127055077e-01
 1.5606387670e+00	 1.1143562902e+00	-9.9837663872e-01
 1.5497754092e+00	 1.1294154961e+00	-1.0632877524e+00
 1.5387583746e+00	 1.1443800678e+00	-1.1268220173e+00
 1.6519557083e+00	 9.9684010689e-01	-4.0726843806e-01
 1.6423012889e+00	 1.0126669345e+00	-4.8399489316e-01
 1.6324841188e+00	 1.0284179088e+00	-5.6106093076e-01
 1.6225050434e+00	 1.0440905610e+00	-6.3792408695e-01
 1.6123649570e+00	 1.0596824338e+00	-7.1399174602e-01
 1.6020648035e+00	 1.0751910826e+00	-7.8861278793e-01
 1.5916055755e+00	 1.0906140767e+00	-8.6106884720e-01
 1.5809883143e+00	 1.1059490004e+00	-9.3056522483e-01
 1.5702141096e+00	 1.1211934543e+00	-9.9694320745e-01
 1.5592840995e+00	 1.1363450564e+00	-1.0620148166e+00
 1.5481994695e+00	 1.1514014436e+00	-1.1258270323e+00
 1.6620294690e+00	 1.0029189193e+00	-4.1454184077e-01
 1.6523161762e+00	 1.0188422602e+00	-4.9070061173e-01
 1.6424391403e+00	 1.0346892852e+00	-5.6697564203e-01
 1.6323992116e+00	 1.0504575105e+00	-6.4284935446e-01
 1.6221972902e+00	 1.0661444638e+00	-7.1775486316e-01
 1.6118343255e+00	 1.0817476856e+00	-7.9106729296e-01
 1.6013113163e+00	 1.0972647304e+00	-8.6209468572e-01
 1.5906293101e+00	 1.1126931677e+00	-9.3008379235e-01
 1.5797894035e+00	 1.1280305835e+00	-9.9604224531e-01
 1.5687927412e+00	 1.1432745813e+00	-1.0609159380e+00
 1.5576405163e+00	 1.1584227837e+00	-1.1246151995e+00
 1.4632285237e+00	 1.0882082495e+00	-1.1111472910e+00
 1.4526054742e+00	 1.1023484765e+00	-1.1718427383e+00
 1.4418386236e+00	 1.1163942643e+00	-1.2302002369e+00
 1.4309292326e+00	 1.1303434299e+00	-1.2890136982e+00
 1.4198786052e+00	 1.1441938122e+00	-1.3485072333e+00
 1.4086880888e+00	 1.1579432736e+00	-1.4078462408e+00
 1.3973590734e+00	 1.1715897005e+00	-1.4662479974e+00
 1.3858929907e+00	 1.1851310048e+00	-1.5229781007e+00
 1.3742913144e+00	 1.1985651246e+00	-1.5773463839e+00
 1.3625555587e+00	 1.2118900254e+00	-1.6287023403e+00
 1.3506872780e+00	 1.2251037013e+00	-1.6764300991e+00
 1.4726698112e+00	 1.0952297685e+00	-1.1132191265e+00
 1.4619782179e+00	 1.1094612335e+00	-1.1701976082e+00
 1.4511418957e+00	 1.1235976499e+00	-1.2270076040e+00
 1.4401621132e+00	 1.1376368206e+00	-1.2857256778e+00
 1.4290401832e+00	 1.1515765707e+00	-1.3453937061e+00
 1.4177774615e+00	 1.1654147487e+00	-1.4050771999e+00
 1.4063753470e+00	 1.1791492273e+00	-1.4638997800e+00
 1.3948352810e+00	 1.1927779051e+00	-1.5210395197e+00
 1.3831587465e+00	 1.2062987067e+00	-1.5757247309e+00
 1.3713472673e+00	 1.2197095847e+00	-1.6272292312e+00
 1.3594024082e+00	 1.2330085201e+00	-1.6748671361e+00
 1.4821110934e+00	 1.1022512836e+00	-1.1181367617e+00
 1.4713509563e+00	 1.1165739865e+00	-1.1710322776e+00
 1.4604451625e+00	 1.1308010314e+00	-1.2264959520e+00
 1.4493949887e+00	 1.1449302072e+00	-1.2843428081e+00
 1.4382017559e+00	 1.1589593250e+00	-1.3434819636e+00
 1.4268668289e+00	 1.1728862195e+00	-1.4028897842e+00
 1.4153916156e+00	 1.1867087499e+00	-1.4616067273e+00
 1.4037775663e+00	 1.2004248010e+00	-1.5187335600e+00
 1.3920261734e+00	 1.2140322845e+00	-1.5734269893e+00
 1.3801389710e+00	 1.2275291396e+00	-1.6248947449e+00
 1.3681175333e+00	 1.2409133344e+00	-1.6723901607e+00
 1.4915523649e+00	 1.1092727908e+00	-1.1228224785e+00
 1.4807236841e+00	 1.1236867314e+00	-1.1752780852e+00
 1.4697484187e+00	 1.1380044048e+00	-1.2286391087e+00
 1.4586278536e+00	 1.1522235855e+00	-1.2848752003e+00
 1.4473633183e+00	 1.1663420709e+00	-1.3428109825e+00
 1.4359561861e+00	 1.1803576818e+00	-1.4013441894e+00
 1.4244078739e+00	 1.1942682638e+00	-1.4594423904e+00
 1.4127198414e+00	 1.2080716883e+00	-1.5161390576e+00
 1.4008935904e+00	 1.2217658535e+00	-1.5705290130e+00
 1.3889306646e+00	 1.2353486856e+00	-1.6217633008e+00
 1.3768326486e+00	 1.2488181397e+00	-1.6690435299e+00
 1.5009936203e+00	 1.1162942860e+00	-1.1254026301e+00
 1.4900963960e+00	 1.1307994643e+00	-1.1807424882e+00
 1.4790516591e+00	 1.1452077659e+00	-1.2334022025e+00
 1.4678607029e+00	 1.1595169514e+00	-1.2873237526e+00
 1.4565248651e+00	 1.1737248043e+00	-1.3434101639e+00
 1.4450455279e+00	 1.1878291315e+00	-1.4004908305e+00
 1.4334241169e+00	 1.2018277649e+00	-1.4574704993e+00
 1.4216621012e+00	 1.2157185625e+00	-1.5133251583e+00
 1.4097609923e+00	 1.2294994093e+00	-1.5670972754e+00
 1.3977223433e+00	 1.2431682183e+00	-1.6178904322e+00
 1.3855477491e+00	 1.2567229316e+00	-1.6648634005e+00
 1.5104348544e+00	 1.1233157652e+00	-1.1268984676e+00
 1.4994690866e+00	 1.1379121809e+00	-1.1845908007e+00
 1.4883548784e+00	 1.1524111106e+00	-1.2394779485e+00
 1.4770935312e+00	 1.1668103008e+00	-1.2916807725e+00
 1.4656863911e+00	 1.1811075209e+00	-1.3452999583e+00
 1.4541348490e+00	 1.1953005642e+00	-1.4003709646e+00
 1.4424403395e+00	 1.2093872489e+00	-1.4557455760e+00
 1.4306043409e+00	 1.2233654195e+00	-1.5103519146e+00
 1.4186283740e+00	 1.2372329476e+00	-1.5631894424e+00
 1.4065140021e+00	 1.2509877332e+00	-1.6133233290e+00
 1.3942628298e+00	 1.2646277056e+00	-1.6598782351e+00
 1.5198760616e+00	 1.1303372246e+00	-1.1275216301e+00
 1.5088417506e+00	 1.1450248775e+00	-1.1870138751e+00
 1.4976580714e+00	 1.1596144350e+00	-1.2437446499e+00
 1.4863263334e+00	 1.1741036296e+00	-1.2973521568e+00
 1.4748478912e+00	 1.1884902166e+00	-1.3484924850e+00
 1.4632241443e+00	 1.2027719757e+00	-1.4010173055e+00
 1.4514565365e+00	 1.2169467114e+00	-1.4543135398e+00
 1.4395465551e+00	 1.2310122547e+00	-1.5072708752e+00
 1.4274957307e+00	 1.2449664640e+00	-1.5588549397e+00
 1.4153056360e+00	 1.2588072261e+00	-1.6081013762e+00
 1.4029778859e+00	 1.2725324572e+00	-1.6541093040e+00
 1.5293172368e+00	 1.1373586601e+00	-1.1274409772e+00
 1.5182143828e+00	 1.1521375499e+00	-1.1882154105e+00
 1.5069612328e+00	 1.1668177348e+00	-1.2462724301e+00
 1.4955591042e+00	 1.1813969335e+00	-1.3012668626e+00
 1.4840093601e+00	 1.1958728873e+00	-1.3528475929e+00
 1.4723134088e+00	 1.2102433618e+00	-1.4024546329e+00
 1.4604727029e+00	 1.2245061483e+00	-1.4532123066e+00
 1.4484887390e+00	 1.2386590640e+00	-1.5041256681e+00
 1.4363630572e+00	 1.2526999541e+00	-1.5541355140e+00
 1.4240972400e+00	 1.2666266923e+00	-1.6022566858e+00
 1.4116929122e+00	 1.2804371819e+00	-1.6475711821e+00
 1.5387583746e+00	 1.1443800678e+00	-1.1268220173e+00
 1.5275869778e+00	 1.1592501940e+00	-1.1883948535e+00
 1.5162643572e+00	 1.1740210061e+00	-1.2472886736e+00
 1.5047918383e+00	 1.1886902085e+00	-1.3031867603e+00
 1.4931707927e+00	 1.2032555286e+00	-1.3557671883e+00
 1.4814026372e+00	 1.2177147183e+00	-1.4047003938e+00
 1.4694888335e+00	 1.2320655551e+00	-1.4524723812e+00
 1.4574308874e+00	 1.2463058429e+00	-1.5009525779e+00
 1.4452303485e+00	 1.2604334136e+00	-1.5490657878e+00
 1.4328888091e+00	 1.2744461275e+00	-1.5958146239e+00
 1.4204079041e+00	 1.2883418752e+00	-1.6402722415e+00
 1.5481994695e+00	 1.1514014436e+00	-1.1258270323e+00
 1.5369595303e+00	 1.1663628059e+00	-1.1877475457e+00
 1.5255674394e+00	 1.1812242448e+00	-1.2470159203e+00
 1.5140245306e+00	 1.1959834504e+00	-1.3033555385e+00
 1.5023321838e+00	 1.2106381364e+00	-1.3564850000e+00
 1.4904918244e+00	 1.2251860409e+00	-1.4061153628e+00
 1.4785049232e+00	 1.2396249277e+00	-1.4521174436e+00
 1.4663729953e+00	 1.2539525872e+00	-1.4977811160e+00
 1.4540975996e+00	 1.2681668379e+00	-1.5436738091e+00
 1.4416803384e+00	 1.2822655273e+00	-1.5887943329e+00
 1.4291228564e+00	 1.2962465327e+00	-1.6322151403e+00
 1.5576405163e+00	 1.1584227837e+00	-1.1246151995e+00
 1.5463320350e+00	 1.1734753815e+00	-1.1864648668e+00
 1.5348704743e+00	 1.1884274467e+00	-1.2456720257e+00
 1.5232571758e+00	 1.2032766552e+00	-1.3020116191e+00
 1.5114935281e+00	 1.2180207067e+00	-1.3552539291e+00
 1.4995809653e+00	 1.2326573255e+00	-1.4051616165e+00
 1.4875209670e+00	 1.2471842617e+00	-1.4514866745e+00
 1.4753150575e+00	 1.2615992925e+00	-1.4946345863e+00
 1.4629648055e+00	 1.2759002229e+00	-1.5379815953e+00
 1.4504718228e+00	 1.2900848872e+00	-1.5812092487e+00
 1.4378377643e+00	 1.3041511499e+00	-1.6233973067e+00
 1.3506872780e+00	 1.2251037013e+00	-1.6764300991e+00
 1.3386901136e+00	 1.2382019620e+00	-1.7199067220e+00
 1.3265636734e+00	 1.2511851357e+00	-1.7591616467e+00
 1.3143096061e+00	 1.2640513298e+00	-1.7945774586e+00
 1.3019295978e+00	 1.2767986840e+00	-1.8265579035e+00
 1.2894253710e+00	 1.2894253710e+00	-1.8555200882e+00
 1.2767986840e+00	 1.3019295978e+00	-1.8818865271e+00
 1.2640513298e+00	 1.3143096061e+00	-1.9060770955e+00
 1.2511851357e+00	 1.3265636734e+00	-1.9285009474e+00
 1.2382019620e+00	 1.3386901136e+00	-1.9495484617e+00
 1.2251037013e+00	 1.3506872780e+00	-1.9695832750e+00
 1.3594024082e+00	 1.2330085201e+00	-1.6748671361e+00
 1.3473278336e+00	 1.2461912956e+00	-1.7180474077e+00
 1.3351231491e+00	 1.2592582415e+00	-1.7568865781e+00
 1.3227900141e+00	 1.2722074530e+00	-1.7917851966e+00
 1.3103301255e+00	 1.2850370577e+00	-1.8231659178e+00
 1.2977452168e+00	 1.2977452168e+00	-1.8514653017e+00
 1.2850370577e+00	 1.3103301255e+00	-1.8771254519e+00
 1.2722074530e+00	 1.3227900141e+00	-1.9005855538e+00
 1.2592582415e+00	 1.3351231491e+00	-1.9222733769e+00
 1.2461912956e+00	 1.3473278336e+00	-1.9425968036e+00
 1.2330085201e+00	 1.3594024082e+00	-1.9619354490e+00
 1.3681175333e+00	 1.2409133344e+00	-1.6723901607e+00
 1.3559655487e+00	 1.2541806246e+00	-1.7153305551e+00
 1.3436826200e+00	 1.2673313427e+00	-1.7538789927e+00
 1.3312704173e+00	 1.2803635715e+00	-1.7884374576e+00
 1.3187306484e+00	 1.2932754269e+00	-1.8194310685e+00
 1.3060650579e+00	 1.3060650579e+00	-1.8472994846e+00
 1.2932754269e+00	 1.3187306484e+00	-1.8724881420e+00
 1.2803635715e+00	 1.3312704173e+00	-1.8954393842e+00
 1.2673313427e+00	 1.3436826200e+00	-1.9165835539e+00
 1.2541806246e+00	 1.3559655487e+00	-1.9363301117e+00
 1.2409133344e+00	 1.3681175333e+00	-1.9550588478e+00
 1.3768326486e+00	 1.2488181397e+00	-1.6690435299e+00
 1.3646032540e+00	 1.2621699446e+00	-1.7117761150e+00
 1.3522420813e+00	 1.2754044347e+00	-1.7501346946e+00
 1.3397508110e+00	 1.2885196808e+00	-1.7845064855e+00
 1.3271311618e+00	 1.3015137866e+00	-1.8153029535e+00
 1.3143848896e+00	 1.3143848896e+00	-1.8429508326e+00
 1.3015137866e+00	 1.3271311618e+00	-1.8678829651e+00
 1.2885196808e+00	 1.3397508110e+00	-1.8905290306e+00
 1.2754044347e+00	 1.3522420813e+00	-1.9113062328e+00
 1.2621699446e+00	 1.3646032540e+00	-1.9306100125e+00
 1.2488181397e+00	 1.3768326486e+00	-1.9488048573e+00
 1.3855477491e+00	 1.2567229316e+00	-1.6648634005e+00
 1.3732409446e+00	 1.2701592510e+00	-1.7073966101e+00
 1.3608015279e+00	 1.2834775130e+00	-1.7456428060e+00
 1.3482311901e+00	 1.2966757763e+00	-1.7799585560e+00
 1.3355316609e+00	 1.3097521324e+00	-1.8107258792e+00
 1.3227047071e+00	 1.3227047071e+00	-1.8383428838e+00
 1.3097521324e+00	 1.3355316609e+00	-1.8632142175e+00
 1.2966757763e+00	 1.3482311901e+00	-1.8857413990e+00
 1.2834775130e+00	 1.3608015279e+00	-1.9063131047e+00
 1.2701592510e+00	 1.3732409446e+00	-1.9252954812e+00
 1.2567229316e+00	 1.3855477491e+00	-1.9430225563e+00
 1.3942628298e+00	 1.2646277056e+00	-1.6598782351e+00
 1.3818786157e+00	 1.2781485393e+00	-1.7021976011e+00
 1.3693609552e+00	 1.2915505730e+00	-1.7403861923e+00
 1.3567115501e+00	 1.3048318532e+00	-1.7747543611e+00
 1.3439321409e+00	 1.3179904595e+00	-1.8056392040e+00
 1.3310245057e+00	 1.3310245057e+00	-1.8333948228e+00
 1.3179904595e+00	 1.3439321409e+00	-1.8583823892e+00
 1.3048318532e+00	 1.3567115501e+00	-1.8809600846e+00
 1.2915505730e+00	 1.3693609552e+00	-1.9014729895e+00
 1.2781485393e+00	 1.3818786157e+00	-1.9202429997e+00
 1.2646277056e+00	 1.3942628298e+00	-1.9375588422e+00
 1.4029778859e+00	 1.2725324572e+00	-1.6541093040e+00
 1.3905162623e+00	 1.2861378049e+00	-1.6961781482e+00
 1.3779203582e+00	 1.2996236102e+00	-1.7343418832e+00
 1.3651918860e+00	 1.3129879071e+00	-1.7688493909e+00
 1.3523325972e+00	 1.3262287632e+00	-1.7999776816e+00
 1.3393442808e+00	 1.3393442808e+00	-1.8280217847e+00
 1.3262287632e+00	 1.3523325972e+00	-1.8532844305e+00
 1.3129879071e+00	 1.3651918860e+00	-1.8760656018e+00
 1.2996236102e+00	 1.3779203582e+00	-1.8966520299e+00
 1.2861378049e+00	 1.3905162623e+00	-1.9153067170e+00
 1.2725324572e+00	 1.4029778859e+00	-1.9322585597e+00
 1.4116929122e+00	 1.2804371819e+00	-1.6475711821e+00
 1.3991538795e+00	 1.2941270434e+00	-1.6893312695e+00
 1.3864797321e+00	 1.3076966199e+00	-1.7274814931e+00
 1.3736721931e+00	 1.3211439332e+00	-1.7621943145e+00
 1.3607330249e+00	 1.3344670390e+00	-1.7936718033e+00
 1.3476640276e+00	 1.3476640276e+00	-1.8221351600e+00
 1.3344670390e+00	 1.3607330249e+00	-1.8478140196e+00
 1.3211439332e+00	 1.3736721931e+00	-1.8709356162e+00
 1.3076966199e+00	 1.3864797321e+00	-1.8917138893e+00
 1.2941270434e+00	 1.3991538795e+00	-1.9103386139e+00
 1.2804371819e+00	 1.4116929122e+00	-1.9269646345e+00
 1.4204079041e+00	 1.2883418752e+00	-1.6402722415e+00
 1.4077914624e+00	 1.3021162502e+00	-1.6816443959e+00
 1.3950390720e+00	 1.3157695975e+00	-1.7197716373e+00
 1.3821524666e+00	 1.3292999269e+00	-1.7547353589e+00
 1.3691334192e+00	 1.3427052820e+00	-1.7866481391e+00
 1.3559837414e+00	 1.3559837414e+00	-1.8156428993e+00
 1.3427052820e+00	 1.3691334192e+00	-1.8418618313e+00
 1.3292999269e+00	 1.3821524666e+00	-1.8654451781e+00
 1.3157695975e+00	 1.3950390720e+00	-1.8865199514e+00
 1.3021162502e+00	 1.4077914624e+00	-1.9051886711e+00
 1.2883418752e+00	 1.4204079041e+00	-1.9215182109e+00
 1.4291228564e+00	 1.2962465327e+00	-1.6322151403e+00
 1.4164290062e+00	 1.3101054208e+00	-1.6730998228e+00
 1.4035983731e+00	 1.3238425386e+00	-1.7111743470e+00
 1.3906327016e+00	 1.3374558837e+00	-1.7464146871e+00
 1.3775337755e+00	 1.3509434878e+00	-1.7788296797e+00
 1.3643034174e+00	 1.3643034174e+00	-1.8084498183e+00
 1.3509434878e+00	 1.3775337755e+00	-1.8353158070e+00
 1.3374558837e+00	 1.3906327016e+00	-1.8594669585e+00
 1.3238425386e+00	 1.4035983731e+00	-1.8809295234e+00
 1.3101054208e+00	 1.4164290062e+00	-1.8997050401e+00
 1.2962465327e+00	 1.4291228564e+00	-1.9157587930e+00
 1.4378377643e+00	 1.3041511499e+00	-1.6233973067e+00
 1.4250665060e+00	 1.3180945506e+00	-1.6636751584e+00
 1.4121576306e+00	 1.3319154385e+00	-1.7016474817e+00
 1.3991128934e+00	 1.3456117989e+00	-1.7371707746e+00
 1.3859340890e+00	 1.3591816515e+00	-1.7701361766e+00
 1.3726230511e+00	 1.3726230511e+00	-1.8004579034e+00
 1.3591816515e+00	 1.3859340890e+00	-1.8280614259e+00
 1.3456117989e+00	 1.3991128934e+00	-1.8528714865e+00
 1.3319154385e+00	 1.4121576306e+00	-1.8748000407e+00
 1.3180945506e+00	 1.4250665060e+00	-1.8937342175e+00
 1.3041511499e+00	 1.4378377643e+00	-1.9095243891e+00
 1.2251037013e+00	 1.3506872780e+00	-1.9695832750e+00
 1.2118900254e+00	 1.3625555587e+00	-1.9885039838e+00
 1.1985651246e+00	 1.3742913144e+00	-2.0057178580e+00
 1.1851310048e+00	 1.3858929907e+00	-2.0208171589e+00
 1.1715897005e+00	 1.3973590734e+00	-2.0333631207e+00
 1.1579432736e+00	 1.4086880888e+00	-2.0428801862e+00
 1.1441938122e+00	 1.4198786052e+00	-2.0488506379e+00
 1.1303434299e+00	 1.4309292326e+00	-2.0507096738e+00
 1.1163942643e+00	 1.4418386236e+00	-2.0478409733e+00
 1.1023484765e+00	 1.4526054742e+00	-2.0407117652e+00
 1.0882082495e+00	 1.4632285237e+00	-2.0325351410e+00
 1.2330085201e+00	 1.3594024082e+00	-1.9619354490e+00
 1.2197095847e+00	 1.3713472673e+00	-1.9803715236e+00
 1.2062987067e+00	 1.3831587465e+00	-1.9974490047e+00
 1.1927779051e+00	 1.3948352810e+00	-2.0126997823e+00
 1.1791492273e+00	 1.4063753470e+00	-2.0256188398e+00
 1.1654147487e+00	 1.4177774615e+00	-2.0356582488e+00
 1.1515765707e+00	 1.4290401832e+00	-2.0422215810e+00
 1.1376368206e+00	 1.4401621132e+00	-2.0446587899e+00
 1.1235976499e+00	 1.4511418957e+00	-2.0422616087e+00
 1.1094612335e+00	 1.4619782179e+00	-2.0342991771e+00
 1.0952297685e+00	 1.4726698112e+00	-2.0233127026e+00
 1.2409133344e+00	 1.3681175333e+00	-1.9550588478e+00
 1.2275291396e+00	 1.3801389710e+00	-1.9729989168e+00
 1.2140322845e+00	 1.3920261734e+00	-1.9898111386e+00
 1.2004248010e+00	 1.4037775663e+00	-2.0049767559e+00
 1.1867087499e+00	 1.4153916156e+00	-2.0179344644e+00
 1.1728862195e+00	 1.4268668289e+00	-2.0280741375e+00
 1.1589593250e+00	 1.4382017559e+00	-2.0347309903e+00
 1.1449302072e+00	 1.4493949887e+00	-2.0371802376e+00
 1.1308010314e+00	 1.4604451625e+00	-2.0346322958e+00
 1.1165739865e+00	 1.4713509563e+00	-2.0262285757e+00
 1.1022512836e+00	 1.4821110934e+00	-2.0121216790e+00
 1.2488181397e+00	 1.3768326486e+00	-1.9488048573e+00
 1.2353486856e+00	 1.3889306646e+00	-1.9662321732e+00
 1.2217658535e+00	 1.4008935904e+00	-1.9826514188e+00
 1.2080716883e+00	 1.4127198414e+00	-1.9975027502e+00
 1.1942682638e+00	 1.4244078739e+00	-2.0101783695e+00
 1.1803576818e+00	 1.4359561861e+00	-2.0200159494e+00
 1.1663420709e+00	 1.4473633183e+00	-2.0262925193e+00
 1.1522235855e+00	 1.4586278536e+00	-2.0282188706e+00
 1.1380044048e+00	 1.4697484187e+00	-2.0249345337e+00
 1.1236867314e+00	 1.4807236841e+00	-2.0155033752e+00
 1.1092727908e+00	 1.4915523649e+00	-2.0011848167e+00
 1.2567229316e+00	 1.3855477491e+00	-1.9430225563e+00
 1.2431682183e+00	 1.3977223433e+00	-1.9599152261e+00
 1.2294994093e+00	 1.4097609923e+00	-1.9758150044e+00
 1.2157185625e+00	 1.4216621012e+00	-1.9901303667e+00
 1.2018277649e+00	 1.4334241169e+00	-2.0022166545e+00
 1.1878291315e+00	 1.4450455279e+00	-2.0113691682e+00
 1.1737248043e+00	 1.4565248651e+00	-2.0168167468e+00
 1.1595169514e+00	 1.4678607029e+00	-2.0177158907e+00
 1.1452077659e+00	 1.4790516591e+00	-2.0131454847e+00
 1.1307994643e+00	 1.4900963960e+00	-2.0035567824e+00
 1.1162942860e+00	 1.5009936203e+00	-1.9916432235e+00
 1.2646277056e+00	 1.3942628298e+00	-1.9375588422e+00
 1.2509877332e+00	 1.4065140021e+00	-1.9538900278e+00
 1.2372329476e+00	 1.4186283740e+00	-1.9691451266e+00
 1.2233654195e+00	 1.4306043409e+00	-1.9827101917e+00
 1.2093872489e+00	 1.4424403395e+00	-1.9939131814e+00
 1.1953005642e+00	 1.4541348490e+00	-2.0020166920e+00
 1.1811075209e+00	 1.4656863911e+00	-2.0062111990e+00
 1.1668103008e+00	 1.4770935312e+00	-2.0056088684e+00
 1.1524111106e+00	 1.4883548784e+00	-2.0000595237e+00
 1.1379121809e+00	 1.4994690866e+00	-1.9922012702e+00
 1.1233157652e+00	 1.5104348544e+00	-1.9823041994e+00
 1.2725324572e+00	 1.4029778859e+00	-1.9322585597e+00
 1.2588072261e+00	 1.4153056360e+00	-1.9479966511e+00
 1.2449664640e+00	 1.4274957307e+00	-1.9624831665e+00
 1.2310122547e+00	 1.4395465551e+00	-1.9750908535e+00
 1.2169467114e+00	 1.4514565365e+00	-1.9851296186e+00
 1.2027719757e+00	 1.4632241443e+00	-1.9918388670e+00
 1.1884902166e+00	 1.4748478912e+00	-1.9943803767e+00
 1.1741036296e+00	 1.4863263334e+00	-1.9921919165e+00
 1.1596144350e+00	 1.4976580714e+00	-1.9875956420e+00
 1.1450248775e+00	 1.5088417506e+00	-1.9811641669e+00
 1.1303372246e+00	 1.5198760616e+00	-1.9728692399e+00
 1.2804371819e+00	 1.4116929122e+00	-1.9269646345e+00
 1.2666266923e+00	 1.4240972400e+00	-1.9420733947e+00
 1.2526999541e+00	 1.4363630572e+00	-1.9556687368e+00
 1.2386590640e+00	 1.4484887390e+00	-1.9671190869e+00
 1.2245061483e+00	 1.4604727029e+00	-1.9757254893e+00
 1.2102433618e+00	 1.4723134088e+00	-1.9807135253e+00
 1.1958728873e+00	 1.4840093601e+00	-1.9813116983e+00
 1.1813969335e+00	 1.4955591042e+00	-1.9792606144e+00
 1.1668177348e+00	 1.5069612328e+00	-1.9755517203e+00
 1.1521375499e+00	 1.5182143828e+00	-1.9701632159e+00
 1.1373586601e+00	 1.5293172368e+00	-1.9630867128e+00
 1.2883418752e+00	 1.4204079041e+00	-1.9215182109e+00
 1.2744461275e+00	 1.4328888091e+00	-1.9359568932e+00
 1.2604334136e+00	 1.4452303485e+00	-1.9485397699e+00
 1.2463058429e+00	 1.4574308874e+00	-1.9586398007e+00
 1.2320655551e+00	 1.4694888335e+00	-1.9655582256e+00
 1.2177147183e+00	 1.4814026372e+00	-1.9685160279e+00
 1.2032555286e+00	 1.4931707927e+00	-1.9684247928e+00
 1.1886902085e+00	 1.5047918383e+00	-1.9667945867e+00
 1.1740210061e+00	 1.5162643572e+00	-1.9636219916e+00
 1.1592501940e+00	 1.5275869778e+00	-1.9589182936e+00
 1.1443800678e+00	 1.5387583746e+00	-1.9527062912e+00
 1.2962465327e+00	 1.4291228564e+00	-1.9157587930e+00
 1.2822655273e+00	 1.4416803384e+00	-1.9294822320e+00
 1.2681668379e+00	 1.4540975996e+00	-1.9409326084e+00
 1.2539525872e+00	 1.4663729953e+00	-1.9494961515e+00
 1.2396249277e+00	 1.4785049232e+00	-1.9544832266e+00
 1.2251860409e+00	 1.4904918244e+00	-1.9560391327e+00
 1.2106381364e+00	 1.5023321838e+00	-1.9559960761e+00
 1.1959834504e+00	 1.5140245306e+00	-1.9544701754e+00
 1.1812242448e+00	 1.5255674394e+00	-1.9515034910e+00
 1.1663628059e+00	 1.5369595303e+00	-1.9471513617e+00
 1.1514014436e+00	 1.5481994695e+00	-1.9414789232e+00
 1.3041511499e+00	 1.4378377643e+00	-1.9095243891e+00
 1.2900848872e+00	 1.4504718228e+00	-1.9224830655e+00
 1.2759002229e+00	 1.4629648055e+00	-1.9326821026e+00
 1.2615992925e+00	 1.4753150575e+00	-1.9395296208e+00
 1.2471842617e+00	 1.4875209670e+00	-1.9427110274e+00
 1.2326573255e+00	 1.4995809653e+00	-1.9439649261e+00
 1.2180207067e+00	 1.5114935281e+00	-1.9436894572e+00
 1.2032766552e+00	 1.5232571758e+00	-1.9419670729e+00
 1.1884274467e+00	 1.5348704743e+00	-1.9388959964e+00
 1.1734753815e+00	 1.5463320350e+00	-1.9345864218e+00
 1.1584227837e+00	 1.5576405163e+00	-1.9291568034e+00
 1.0882082495e+00	 1.4632285237e+00	-2.0325351410e+00
 1.0739782128e+00	 1.4737047879e+00	-2.0220876983e+00
 1.0596581869e+00	 1.4840349185e+00	-2.0078083825e+00
 1.0452504054e+00	 1.4942177947e+00	-1.9923213375e+00
 1.0307571194e+00	 1.5042523411e+00	-1.9766319339e+00
 1.0161805966e+00	 1.5141375278e+00	-1.9602480565e+00
 1.0015231201e+00	 1.5238723706e+00	-1.9427378218e+00
 9.8678698721e-01	 1.5334559312e+00	-1.9237238557e+00
 9.7197450848e-01	 1.5428873179e+00	-1.9028777083e+00
 9.5708800628e-01	 1.5521656852e+00	-1.8799144346e+00
 9.4212981382e-01	 1.5612902341e+00	-1.8545873679e+00
 1.0952297685e+00	 1.4726698112e+00	-2.0233127026e+00
 1.0809079144e+00	 1.4832136722e+00	-2.0097198644e+00
 1.0664954905e+00	 1.4936104565e+00	-1.9951724132e+00
 1.0519947447e+00	 1.5038590364e+00	-1.9808196898e+00
 1.0374079427e+00	 1.5139583294e+00	-1.9660818101e+00
 1.0227373668e+00	 1.5239072990e+00	-1.9504484367e+00
 1.0079853149e+00	 1.5337049545e+00	-1.9334727108e+00
 9.9315409907e-01	 1.5433503518e+00	-1.9147652987e+00
 9.7824604479e-01	 1.5528425932e+00	-1.8939885839e+00
 9.6326348941e-01	 1.5621808279e+00	-1.8708510367e+00
 9.4820878121e-01	 1.5713642518e+00	-1.8451017871e+00
 1.1022512836e+00	 1.4821110934e+00	-2.0121216790e+00
 1.0878376122e+00	 1.4927225510e+00	-1.9975828733e+00
 1.0733327902e+00	 1.5031859891e+00	-1.9838269897e+00
 1.0587390802e+00	 1.5135002726e+00	-1.9701727937e+00
 1.0440587622e+00	 1.5236643122e+00	-1.9560182934e+00
 1.0292941333e+00	 1.5336770645e+00	-1.9408343386e+00
 1.0144475060e+00	 1.5435375328e+00	-1.9241583084e+00
 9.9952120732e-01	 1.5532447667e+00	-1.9055879205e+00
 9.8451757754e-01	 1.5627978629e+00	-1.8847751987e+00
 9.6943896904e-01	 1.5721959650e+00	-1.8614206267e+00
 9.5428774515e-01	 1.5814382638e+00	-1.8352675194e+00
 1.1092727908e+00	 1.4915523649e+00	-2.0011848167e+00
 1.0947673020e+00	 1.5022314191e+00	-1.9869716500e+00
 1.0801700822e+00	 1.5127615109e+00	-1.9735392122e+00
 1.0654834080e+00	 1.5231414979e+00	-1.9601804370e+00
 1.0507095742e+00	 1.5333702840e+00	-1.9462708628e+00
 1.0358508923e+00	 1.5434468190e+00	-1.9312619736e+00
 1.0209096898e+00	 1.5533701000e+00	-1.9146746345e+00
 1.0058883084e+00	 1.5631391705e+00	-1.8960926615e+00
 9.9078910319e-01	 1.5727531213e+00	-1.8751565583e+00
 9.7561444167e-01	 1.5822110907e+00	-1.8515574528e+00
 9.6036670220e-01	 1.5915122643e+00	-1.8250312631e+00
 1.1162942860e+00	 1.5009936203e+00	-1.9916432235e+00
 1.1016969801e+00	 1.5117402710e+00	-1.9776211794e+00
 1.0870073625e+00	 1.5223370164e+00	-1.9640789690e+00
 1.0722277243e+00	 1.5327827068e+00	-1.9506444671e+00
 1.0573603748e+00	 1.5430762392e+00	-1.9366704194e+00
 1.0424076403e+00	 1.5532165569e+00	-1.9215884268e+00
 1.0273718626e+00	 1.5632026505e+00	-1.9049021259e+00
 1.0122553986e+00	 1.5730335574e+00	-1.8861805119e+00
 9.9706061817e-01	 1.5827083628e+00	-1.8650514417e+00
 9.8178990381e-01	 1.5922261994e+00	-1.8411953496e+00
 9.6644564891e-01	 1.6015862478e+00	-1.8143392058e+00
 1.1233157652e+00	 1.5104348544e+00	-1.9823041994e+00
 1.1086266425e+00	 1.5212491014e+00	-1.9692698291e+00
 1.0938446274e+00	 1.5319125001e+00	-1.9552187294e+00
 1.0789720254e+00	 1.5424238939e+00	-1.9413685992e+00
 1.0640111604e+00	 1.5527821725e+00	-1.9270491056e+00
 1.0489643733e+00	 1.5629862727e+00	-1.9116714881e+00
 1.0338340208e+00	 1.5730351786e+00	-1.8947214753e+00
 1.0186224743e+00	 1.5829279219e+00	-1.8757523577e+00
 1.0033321189e+00	 1.5926635817e+00	-1.8543782520e+00
 9.8796535194e-01	 1.6022412854e+00	-1.8302675924e+00
 9.7252458184e-01	 1.6116602084e+00	-1.8031368793e+00
 1.1303372246e+00	 1.5198760616e+00	-1.9728692399e+00
 1.1155562852e+00	 1.5307579048e+00	-1.9614122343e+00
 1.1006818728e+00	 1.5414879568e+00	-1.9467333377e+00
 1.0857163074e+00	 1.5520650536e+00	-1.9321582228e+00
 1.0706619272e+00	 1.5624880782e+00	-1.9172401252e+00
 1.0555210878e+00	 1.5727559608e+00	-1.9013694811e+00
 1.0402961607e+00	 1.5828676790e+00	-1.8840134689e+00
 1.0249895321e+00	 1.5928222583e+00	-1.8647088250e+00
 1.0096036019e+00	 1.6026187724e+00	-1.8430548652e+00
 9.9414078258e-01	 1.6122563430e+00	-1.8187067484e+00
 9.7860349755e-01	 1.6217341404e+00	-1.7913690122e+00
 1.1373586601e+00	 1.5293172368e+00	-1.9630867128e+00
 1.1224859044e+00	 1.5402666759e+00	-1.9529347501e+00
 1.1075190951e+00	 1.5510633809e+00	-1.9383998068e+00
 1.0924605664e+00	 1.5617061806e+00	-1.9228202092e+00
 1.0773126713e+00	 1.5721939510e+00	-1.9070775607e+00
 1.0620777800e+00	 1.5825256156e+00	-1.8905410909e+00
 1.0467582786e+00	 1.5927001458e+00	-1.8726588215e+00
 1.0313565682e+00	 1.6027165611e+00	-1.8529501204e+00
 1.0158750636e+00	 1.6125739292e+00	-1.8309984749e+00
 1.0003161922e+00	 1.6222713666e+00	-1.8064445240e+00
 9.8468239259e-01	 1.6318080382e+00	-1.7789793786e+00
 1.1443800678e+00	 1.5387583746e+00	-1.9527062912e+00
 1.1294154961e+00	 1.5497754092e+00	-1.9435402664e+00
 1.1143562902e+00	 1.5606387670e+00	-1.9298738951e+00
 1.0992047987e+00	 1.5713472693e+00	-1.9131627178e+00
 1.0839633891e+00	 1.5818997853e+00	-1.8963961909e+00
 1.0686344462e+00	 1.5922952317e+00	-1.8790451897e+00
 1.0532203708e+00	 1.6025325737e+00	-1.8605380097e+00
 1.0377235790e+00	 1.6126108247e+00	-1.8403758703e+00
 1.0221465004e+00	 1.6225290466e+00	-1.8181254357e+00
 1.0064915774e+00	 1.6322863504e+00	-1.7934116108e+00
 9.9076126352e-01	 1.6418818961e+00	-1.7659106436e+00
 1.1514014436e+00	 1.5481994695e+00	-1.9414789232e+00
 1.1363450564e+00	 1.5592840995e+00	-1.9330094742e+00
 1.1211934543e+00	 1.5702141096e+00	-1.9201289145e+00
 1.1059490004e+00	 1.5809883143e+00	-1.9029950017e+00
 1.0906140767e+00	 1.5916055755e+00	-1.8850313068e+00
 1.0751910826e+00	 1.6020648035e+00	-1.8667406616e+00
 1.0596824338e+00	 1.6123649570e+00	-1.8475311032e+00
 1.0440905610e+00	 1.6225050434e+00	-1.8268849574e+00
 1.0284179088e+00	 1.6324841188e+00	-1.8043511031e+00
 1.0126669345e+00	 1.6423012889e+00	-1.7795375274e+00
 9.9684010689e-01	 1.6519557083e+00	-1.7521042073e+00
 1.1584227837e+00	 1.5576405163e+00	-1.9291568034e+00
 1.1432745813e+00	 1.5687927412e+00	-1.9211235079e+00
 1.1280305835e+00	 1.5797894035e+00	-1.9088213773e+00
 1.1126931677e+00	 1.5906293101e+00	-1.8920995218e+00
 1.0972647304e+00	 1.6013113163e+00	-1.8728185263e+00
 1.0817476856e+00	 1.6118343255e+00	-1.8534862255e+00
 1.0661444638e+00	 1.6221972902e+00	-1.8335175941e+00
 1.0504575105e+00	 1.6323992116e+00	-1.8123753549e+00
 1.0346892852e+00	 1.6424391403e+00	-1.7895896714e+00
 1.0188422602e+00	 1.6523161762e+00	-1.7647504595e+00
 1.0029189193e+00	 1.6620294690e+00	-1.7375000443e+00
 9.4212981382e-01	 1.5612902341e+00	-1.8545873679e+00
 9.2710227430e-01	 1.5702602129e+00	-1.8272276138e+00
 9.1200774055e-01	 1.5790749182e+00	-1.7983397769e+00
 8.9684857302e-01	 1.5877336937e+00	-1.7679793123e+00
 8.8162713832e-01	 1.5962359300e+00	-1.7362196740e+00
 8.6634580808e-01	 1.6045810646e+00	-1.7031480723e+00
 8.5100695783e-01	 1.6127685819e+00	-1.6688615326e+00
 8.3561296584e-01	 1.6207980129e+00	-1.6334632669e+00
 8.2016621204e-01	 1.6286689352e+00	-1.5970593619e+00
 8.0466907688e-01	 1.6363809729e+00	-1.5597557880e+00
 7.8912394021e-01	 1.6439337965e+00	-1.5216557304e+00
 9.4820878121e-01	 1.5713642518e+00	-1.8451017871e+00
 9.3308427848e-01	 1.5803921082e+00	-1.8170804637e+00
 9.1789234926e-01	 1.5892636892e+00	-1.7873362310e+00
 9.0263536922e-01	 1.5979783343e+00	-1.7559771219e+00
 8.8731572023e-01	 1.6065354301e+00	-1.7231304023e+00
 8.7193578924e-01	 1.6149344106e+00	-1.6889381243e+00
 8.5649796710e-01	 1.6231747568e+00	-1.6535529978e+00
 8.4100464743e-01	 1.6312559966e+00	-1.6171345897e+00
 8.2545822550e-01	 1.6391777050e+00	-1.5798458566e+00
 8.0986109713e-01	 1.6469395036e+00	-1.5418500135e+00
 7.9421565754e-01	 1.6545410608e+00	-1.5033077418e+00
 9.5428774515e-01	 1.5814382638e+00	-1.8352675194e+00
 9.3906627928e-01	 1.5905239978e+00	-1.8066596028e+00
 9.2377695464e-01	 1.5994524544e+00	-1.7761826146e+00
 9.0842216213e-01	 1.6082229691e+00	-1.7439897423e+00
 8.9300429892e-01	 1.6168349244e+00	-1.7102542329e+00
 8.7752576724e-01	 1.6252877508e+00	-1.6751647528e+00
 8.6198897326e-01	 1.6335809258e+00	-1.6389210841e+00
 8.4639632596e-01	 1.6417139744e+00	-1.6017301648e+00
 8.3075023596e-01	 1.6496864688e+00	-1.5638024790e+00
 8.1505311444e-01	 1.6574980283e+00	-1.5253488014e+00
 7.9930737198e-01	 1.6651483191e+00	-1.4865772960e+00
 9.6036670220e-01	 1.5915122643e+00	-1.8250312631e+00
 9.4504827329e-01	 1.6006558758e+00	-1.7959194160e+00
 9.2966155334e-01	 1.6096412081e+00	-1.7648343286e+00
 9.1420894849e-01	 1.6184675923e+00	-1.7319670460e+00
 8.9869287117e-01	 1.6271344071e+00	-1.6975290917e+00
 8.8311573890e-01	 1.6356410792e+00	-1.6617476461e+00
 8.6747997319e-01	 1.6439870830e+00	-1.6248610782e+00
 8.5178799837e-01	 1.6521719403e+00	-1.5871148400e+00
 8.3604224042e-01	 1.6601952208e+00	-1.5487577282e+00
 8.2024512587e-01	 1.6680565411e+00	-1.5100385187e+00
 8.0439908065e-01	 1.6757555653e+00	-1.4712029724e+00
 9.6644564891e-01	 1.6015862478e+00	-1.8143392058e+00
 9.5103025713e-01	 1.6107877367e+00	-1.7848138190e+00
 9.3554614204e-01	 1.6198299445e+00	-1.7532465331e+00
 9.1999572501e-01	 1.6287121980e+00	-1.7198590761e+00
 9.0438143374e-01	 1.6374338722e+00	-1.6848936667e+00
 8.8870570105e-01	 1.6459943900e+00	-1.6486080213e+00
 8.7297096379e-01	 1.6543932225e+00	-1.6112707338e+00
 8.5717966163e-01	 1.6626298885e+00	-1.5731570355e+00
 8.4133423589e-01	 1.6707039548e+00	-1.5345449435e+00
 8.2543712847e-01	 1.6786150359e+00	-1.4957117989e+00
 8.0949078066e-01	 1.6863627935e+00	-1.4569311951e+00
 9.7252458184e-01	 1.6116602084e+00	-1.8031368793e+00
 9.5701222741e-01	 1.6209195745e+00	-1.7732961113e+00
 9.4143071741e-01	 1.6300186577e+00	-1.7413739935e+00
 9.2578248842e-01	 1.6389567806e+00	-1.7076158813e+00
 9.1006998341e-01	 1.6477333140e+00	-1.6722872261e+00
 8.9429565054e-01	 1.6563476774e+00	-1.6356684218e+00
 8.7846194195e-01	 1.6647993384e+00	-1.5980500434e+00
 8.6257131265e-01	 1.6730878130e+00	-1.5597284861e+00
 8.4662621936e-01	 1.6812126651e+00	-1.5210020131e+00
 8.3062911930e-01	 1.6891735067e+00	-1.4821672117e+00
 8.1458246914e-01	 1.6969699977e+00	-1.4435158611e+00
 9.7860349755e-01	 1.6217341404e+00	-1.7913690122e+00
 9.6299418075e-01	 1.6310513837e+00	-1.7613188264e+00
 9.4731527609e-01	 1.6402073421e+00	-1.7291709236e+00
 9.3156923543e-01	 1.6492013341e+00	-1.6951873468e+00
 9.1575851697e-01	 1.6580327266e+00	-1.6596494338e+00
 8.9988558418e-01	 1.6667009354e+00	-1.6228525123e+00
 8.8395290454e-01	 1.6752054248e+00	-1.5851010098e+00
 8.6796294841e-01	 1.6835457078e+00	-1.5467039841e+00
 8.5191818783e-01	 1.6917213456e+00	-1.5079710835e+00
 8.3582109542e-01	 1.6997319477e+00	-1.4692089368e+00
 8.1967414318e-01	 1.7075771719e+00	-1.4307179744e+00
 9.8468239259e-01	 1.6318080382e+00	-1.7789793786e+00
 9.6897611374e-01	 1.6411831584e+00	-1.7488335783e+00
 9.5319981477e-01	 1.6503959919e+00	-1.7165908256e+00
 9.3735596276e-01	 1.6594458528e+00	-1.6825230243e+00
 9.2144703119e-01	 1.6683321042e+00	-1.6469201636e+00
 9.0547549882e-01	 1.6770541582e+00	-1.6100848736e+00
 8.8944384846e-01	 1.6856114759e+00	-1.5723274167e+00
 8.7335456582e-01	 1.6940035671e+00	-1.5339611223e+00
 8.5721013831e-01	 1.7022299903e+00	-1.4952982727e+00
 8.4101305389e-01	 1.7102903527e+00	-1.4566464417e+00
 8.2476579991e-01	 1.7181843099e+00	-1.4183052844e+00
 9.9076126352e-01	 1.6418818961e+00	-1.7659106436e+00
 9.7495802301e-01	 1.6513148929e+00	-1.7357909053e+00
 9.5908433011e-01	 1.6605846012e+00	-1.7035863278e+00
 9.4314266713e-01	 1.6696903308e+00	-1.6695719579e+00
 9.2713552284e-01	 1.6786314409e+00	-1.6340393110e+00
 9.1106539128e-01	 1.6874073400e+00	-1.5972907959e+00
 8.9493477061e-01	 1.6960174857e+00	-1.5596345996e+00
 8.7874616186e-01	 1.7044613848e+00	-1.5213800385e+00
 8.6250206780e-01	 1.7127385934e+00	-1.4828333836e+00
 8.4620499176e-01	 1.7208487159e+00	-1.4442941615e+00
 8.2985743644e-01	 1.7287914059e+00	-1.4060519289e+00
 9.9684010689e-01	 1.6519557083e+00	-1.7521042073e+00
 9.8093990515e-01	 1.6614465815e+00	-1.7221401110e+00
 9.6496881877e-01	 1.6707731644e+00	-1.6901090187e+00
 9.4892934527e-01	 1.6799347624e+00	-1.6562825090e+00
 9.3282398870e-01	 1.6889307309e+00	-1.6209466033e+00
 9.1665525840e-01	 1.6977604748e+00	-1.5843960706e+00
 9.0042566786e-01	 1.7064234483e+00	-1.5469292159e+00
 8.8413773344e-01	 1.7149191552e+00	-1.5088431604e+00
 8.6779397329e-01	 1.7232471488e+00	-1.4704296200e+00
 8.5139690609e-01	 1.7314070312e+00	-1.4319711824e+00
 8.3494904989e-01	 1.7393984538e+00	-1.3937380820e+00
 1.0029189193e+00	 1.6620294690e+00	-1.7375000443e+00
 9.8692175679e-01	 1.6715782184e+00	-1.7078291026e+00
 9.7085327742e-01	 1.6809616755e+00	-1.6761092796e+00
 9.5471599390e-01	 1.6901791417e+00	-1.6426021782e+00
 9.3851242555e-01	 1.6992299684e+00	-1.6075814083e+00
 9.2224509702e-01	 1.7081135568e+00	-1.5713267815e+00
 9.0591653710e-01	 1.7168293578e+00	-1.5341190147e+00
 8.8952927753e-01	 1.7253768723e+00	-1.4962349509e+00
 8.7308585180e-01	 1.7337556506e+00	-1.4579433043e+00
 8.5658879394e-01	 1.7419652927e+00	-1.4195009284e+00
 8.4004063737e-01	 1.7500054476e+00	-1.3811496063e+00
 7.8912394021e-01	 1.6439337965e+00	-1.5216557304e+00
 7.7353052579e-01	 1.6513283656e+00	-1.4818114104e+00
 7.5789384843e-01	 1.6585631439e+00	-1.4392240829e+00
 7.4221628020e-01	 1.6656379381e+00	-1.3939003564e+00
 7.2650018834e-01	 1.6725526001e+00	-1.3475536642e+00
 7.1074793418e-01	 1.6793070271e+00	-1.3024494248e+00
 6.9496187216e-01	 1.6859011607e+00	-1.2582877160e+00
 6.7914434878e-01	 1.6923349868e+00	-1.2147380823e+00
 6.6329770162e-01	 1.6986085352e+00	-1.1714644583e+00
 6.4742425837e-01	 1.7047218791e+00	-1.1281299027e+00
 6.3152633584e-01	 1.7106751350e+00	-1.0844008905e+00
 7.9421565754e-01	 1.6545410608e+00	-1.5033077418e+00
 7.7852162868e-01	 1.6619833424e+00	-1.4633991626e+00
 7.6278405774e-01	 1.6692648021e+00	-1.4211801889e+00
 7.4700533208e-01	 1.6763852454e+00	-1.3766023621e+00
 7.3118783423e-01	 1.6833445235e+00	-1.3303730884e+00
 7.1533394075e-01	 1.6901425325e+00	-1.2853889647e+00
 6.9944602126e-01	 1.6967792138e+00	-1.2415910174e+00
 6.8352643741e-01	 1.7032545533e+00	-1.1985684654e+00
 6.6757754187e-01	 1.7095685809e+00	-1.1559047728e+00
 6.5160167733e-01	 1.7157213705e+00	-1.1131825758e+00
 6.3560117558e-01	 1.7217130389e+00	-1.0699881499e+00
 7.9930737198e-01	 1.6651483191e+00	-1.4865772960e+00
 7.8351272875e-01	 1.6726383131e+00	-1.4467539369e+00
 7.6767426428e-01	 1.6799664542e+00	-1.4049577364e+00
 7.5179438126e-01	 1.6871325467e+00	-1.3610913425e+00
 7.3587547746e-01	 1.6941364407e+00	-1.3152465078e+00
 7.1991994472e-01	 1.7009780317e+00	-1.2701927188e+00
 7.0393016782e-01	 1.7076572608e+00	-1.2265028629e+00
 6.8790852356e-01	 1.7141741136e+00	-1.1836954250e+00
 6.7185737969e-01	 1.7205286205e+00	-1.1412838532e+00
 6.5577909393e-01	 1.7267208555e+00	-1.0987816517e+00
 6.3967601300e-01	 1.7327509365e+00	-1.0557069978e+00
 8.0439908065e-01	 1.6757555653e+00	-1.4712029724e+00
 7.8850382315e-01	 1.6832932717e+00	-1.4315716767e+00
 7.7256446527e-01	 1.6906680943e+00	-1.3902257860e+00
 7.5658342500e-01	 1.6978798358e+00	-1.3470250081e+00
 7.4056311539e-01	 1.7049283456e+00	-1.3018240029e+00
 7.2450594348e-01	 1.7118135187e+00	-1.2565342917e+00
 7.0841430930e-01	 1.7185352954e+00	-1.2127347828e+00
 6.9229060475e-01	 1.7250936616e+00	-1.1698826040e+00
 6.7613721266e-01	 1.7314886476e+00	-1.1274314197e+00
 6.5995650579e-01	 1.7377203282e+00	-1.0848366664e+00
 6.4375084581e-01	 1.7437888217e+00	-1.0415602921e+00
 8.0949078066e-01	 1.6863627935e+00	-1.4569311951e+00
 7.9349490908e-01	 1.6939482123e+00	-1.4175576281e+00
 7.7745465796e-01	 1.7013697161e+00	-1.3766637690e+00
 7.6137246060e-01	 1.7086271067e+00	-1.3340721218e+00
 7.4525074534e-01	 1.7157202323e+00	-1.2895987950e+00
 7.2909193446e-01	 1.7226489872e+00	-1.2440951839e+00
 7.1289844315e-01	 1.7294133116e+00	-1.2000055673e+00
 6.9667267848e-01	 1.7360131910e+00	-1.1568998740e+00
 6.8041703836e-01	 1.7424486562e+00	-1.1141820026e+00
 6.6413391055e-01	 1.7487197821e+00	-1.0712601650e+00
 6.4782567168e-01	 1.7548266881e+00	-1.0275517240e+00
 8.1458246914e-01	 1.6969699977e+00	-1.4435158611e+00
 7.9848598368e-01	 1.7046031287e+00	-1.4044259306e+00
 7.8234483955e-01	 1.7120713137e+00	-1.3639610540e+00
 7.6616148535e-01	 1.7193743532e+00	-1.3219120544e+00
 7.4993836467e-01	 1.7265120944e+00	-1.2780629112e+00
 7.3367791503e-01	 1.7334844311e+00	-1.2325647686e+00
 7.1738256684e-01	 1.7402913031e+00	-1.1880412604e+00
 7.0105474228e-01	 1.7469326957e+00	-1.1445233587e+00
 6.8469685435e-01	 1.7534086398e+00	-1.1013750049e+00
 6.6831130584e-01	 1.7597192111e+00	-1.0579678165e+00
 6.5190048832e-01	 1.7658645294e+00	-1.0136859955e+00
 8.1967414318e-01	 1.7075771719e+00	-1.4307179744e+00
 8.0347704415e-01	 1.7152580149e+00	-1.3918992154e+00
 7.8723500730e-01	 1.7227728809e+00	-1.3518165218e+00
 7.7095049652e-01	 1.7301215692e+00	-1.3102343478e+00
 7.5462597071e-01	 1.7373039260e+00	-1.2669105746e+00
 7.3826388262e-01	 1.7443198444e+00	-1.2216402762e+00
 7.2186667782e-01	 1.7511692637e+00	-1.1765751606e+00
 7.0543679366e-01	 1.7578521694e+00	-1.1325354616e+00
 6.8897665822e-01	 1.7643685924e+00	-1.0888547696e+00
 6.7248868930e-01	 1.7707186089e+00	-1.0448785298e+00
 6.5597529342e-01	 1.7769023395e+00	-9.9996899627e-01
 8.2476579991e-01	 1.7181843099e+00	-1.4183052844e+00
 8.0846808765e-01	 1.7259128648e+00	-1.3797082094e+00
 7.9212515841e-01	 1.7334744118e+00	-1.3399381472e+00
 7.7573949142e-01	 1.7408687487e+00	-1.2987382873e+00
 7.5931356082e-01	 1.7480957209e+00	-1.2558462228e+00
 7.4284983460e-01	 1.7551552208e+00	-1.2109934028e+00
 7.2635077355e-01	 1.7620471874e+00	-1.1653478285e+00
 7.0981883014e-01	 1.7687716060e+00	-1.1207249003e+00
 6.9325644753e-01	 1.7753285078e+00	-1.0764706506e+00
 6.7666605855e-01	 1.7817179693e+00	-1.0319145725e+00
 6.6005008466e-01	 1.7879401121e+00	-9.8640797940e-01
 8.2985743644e-01	 1.7287914059e+00	-1.4060519289e+00
 8.1345911134e-01	 1.7365676725e+00	-1.3675913456e+00
 7.9701529012e-01	 1.7441759002e+00	-1.3280425875e+00
 7.8052846731e-01	 1.7516158855e+00	-1.2871324793e+00
 7.6400113233e-01	 1.7588874730e+00	-1.2445839191e+00
 7.4743576840e-01	 1.7659905542e+00	-1.2001153735e+00
 7.3083485150e-01	 1.7729250679e+00	-1.1541071006e+00
 7.1420084924e-01	 1.7796909993e+00	-1.1088867457e+00
 6.9753621987e-01	 1.7862883797e+00	-1.0640770869e+00
 6.8084341123e-01	 1.7927172861e+00	-1.0190016910e+00
 6.6412485973e-01	 1.7989778408e+00	-9.7301173734e-01
 8.3494904989e-01	 1.7393984538e+00	-1.3937380820e+00
 8.1845011241e-01	 1.7472224319e+00	-1.3552943786e+00
 8.0190539967e-01	 1.7548773401e+00	-1.3158547781e+00
 7.8531742149e-01	 1.7623629737e+00	-1.2751344380e+00
 7.6868868258e-01	 1.7696791761e+00	-1.2328469399e+00
 7.5202168141e-01	 1.7768258385e+00	-1.1887038146e+00
 7.3531890911e-01	 1.7838028991e+00	-1.1426081098e+00
 7.1858284847e-01	 1.7906103431e+00	-1.0968224658e+00
 7.0181597280e-01	 1.7972482018e+00	-1.0515336813e+00
 6.8502074497e-01	 1.8037165530e+00	-1.0060692320e+00
 6.6819961633e-01	 1.8100155196e+00	-9.5979077680e-01
 8.4004063737e-01	 1.7500054476e+00	-1.3811496063e+00
 8.2344108802e-01	 1.7578771370e+00	-1.3425700065e+00
 8.0679548427e-01	 1.7655787254e+00	-1.3031075344e+00
 7.9010635125e-01	 1.7731100070e+00	-1.2624701777e+00
 7.7337620893e-01	 1.7804708243e+00	-1.2203673688e+00
 7.5660757102e-01	 1.7876610676e+00	-1.1765095255e+00
 7.3980294386e-01	 1.7946806749e+00	-1.1306133109e+00
 7.2296482535e-01	 1.8015296311e+00	-1.0843399750e+00
 7.0609570391e-01	 1.8082079681e+00	-1.0387052814e+00
 6.8919805740e-01	 1.8147157638e+00	-9.9305026595e-01
 6.7227435215e-01	 1.8210531420e+00	-9.4675749321e-01
 6.3152633584e-01	 1.7106751350e+00	-1.0844008905e+00
 6.1560894683e-01	 1.7164674901e+00	-1.0410533209e+00
 5.9967168153e-01	 1.7221001697e+00	-9.9886752508e-01
 5.8371681679e-01	 1.7275734148e+00	-9.5755397585e-01
 5.6774661496e-01	 1.7328875074e+00	-9.1683841060e-01
 5.5176332310e-01	 1.7380427698e+00	-8.7646395559e-01
 5.3576917208e-01	 1.7430395641e+00	-8.3619286513e-01
 5.1976637582e-01	 1.7478782916e+00	-7.9580788992e-01
 5.0375713044e-01	 1.7525593922e+00	-7.5511329037e-01
 4.8774361352e-01	 1.7570833436e+00	-7.1393551143e-01
 4.7172798336e-01	 1.7614506609e+00	-6.7212353662e-01
 6.3560117558e-01	 1.7217130389e+00	-1.0699881499e+00
 6.1958108173e-01	 1.7275427684e+00	-1.0270588998e+00
 6.0354098335e-01	 1.7332117921e+00	-9.8519322540e-01
 5.8748317196e-01	 1.7387203526e+00	-9.4411021036e-01
 5.7140992452e-01	 1.7440687337e+00	-9.0354939502e-01
 5.5532350259e-01	 1.7492572598e+00	-8.6327280791e-01
 5.3922615144e-01	 1.7542862952e+00	-8.2306659608e-01
 5.2312009927e-01	 1.7591562440e+00	-7.8274226955e-01
 5.0700755636e-01	 1.7638675487e+00	-7.4213757642e-01
 4.9089071435e-01	 1.7684206903e+00	-7.0111702658e-01
 4.7477174546e-01	 1.7728161872e+00	-6.5957208235e-01
 6.3967601300e-01	 1.7327509365e+00	-1.0557069978e+00
 6.2355321437e-01	 1.7386180404e+00	-1.0128122683e+00
 6.0741028296e-01	 1.7443234082e+00	-9.7095495473e-01
 5.9124952499e-01	 1.7498672841e+00	-9.2985656608e-01
 5.7507323201e-01	 1.7552499537e+00	-8.8926370006e-01
 5.5888368007e-01	 1.7604717433e+00	-8.4894999870e-01
 5.4268312885e-01	 1.7655330199e+00	-8.0871768643e-01
 5.2647382081e-01	 1.7704341899e+00	-7.6839870731e-01
 5.1025798043e-01	 1.7751756988e+00	-7.2785547898e-01
 4.9403781340e-01	 1.7797580306e+00	-6.8698128213e-01
 4.7781550585e-01	 1.7841817070e+00	-6.4570030503e-01
 6.4375084581e-01	 1.7437888217e+00	-1.0415602921e+00
 6.2752534252e-01	 1.7496932999e+00	-9.9840895731e-01
 6.1127957820e-01	 1.7554350117e+00	-9.5632642252e-01
 5.9501587375e-01	 1.7610142030e+00	-9.1503061939e-01
 5.7873653534e-01	 1.7664311609e+00	-8.7426865182e-01
 5.6244385352e-01	 1.7716862142e+00	-8.3381869131e-01
 5.4614010234e-01	 1.7767797319e+00	-7.9349143910e-01
 5.2982753856e-01	 1.7817121231e+00	-7.5313117253e-01
 5.1350840083e-01	 1.7864838361e+00	-7.1261639430e-01
 4.9718490888e-01	 1.7910953580e+00	-6.7186010433e-01
 4.8085926278e-01	 1.7955472139e+00	-6.3080971496e-01
 6.4782567168e-01	 1.7548266881e+00	-1.0275517240e+00
 6.3149746391e-01	 1.7607685405e+00	-9.8394313817e-01
 6.1514886685e-01	 1.7665465964e+00	-9.4147811716e-01
 5.9878221611e-01	 1.7721611029e+00	-8.9986519308e-01
 5.8239983245e-01	 1.7776123492e+00	-8.5884561555e-01
 5.6600402091e-01	 1.7829006660e+00	-8.1819520259e-01
 5.4959706994e-01	 1.7880264247e+00	-7.7772574262e-01
 5.3318125060e-01	 1.7929900370e+00	-7.3728596599e-01
 5.1675881570e-01	 1.7977919541e+00	-6.9676210554e-01
 5.0033199901e-01	 1.8024326662e+00	-6.5607806715e-01
 4.8390301453e-01	 1.8069127015e+00	-6.1519523174e-01
 6.5190048832e-01	 1.7658645294e+00	-1.0136859955e+00
 6.3546957629e-01	 1.7718437561e+00	-9.6950786235e-01
 6.1901814673e-01	 1.7776581559e+00	-9.2657759794e-01
 6.0254854993e-01	 1.7833079775e+00	-8.8458868952e-01
 5.8606312125e-01	 1.7887935121e+00	-8.4327035939e-01
 5.6956418023e-01	 1.7941150924e+00	-8.0238938672e-01
 5.5305402972e-01	 1.7992730921e+00	-7.6175146485e-01
 5.3653495505e-01	 1.8042679255e+00	-7.2120211346e-01
 5.2000922320e-01	 1.8091000466e+00	-6.8062716625e-01
 5.0347908201e-01	 1.8137699486e+00	-6.3995285581e-01
 4.8694675939e-01	 1.8182781633e+00	-5.9914551845e-01
 6.5597529342e-01	 1.7769023395e+00	-9.9996899627e-01
 6.3944167742e-01	 1.7829189402e+00	-9.5519529859e-01
 6.2288741565e-01	 1.7887696838e+00	-9.1178978182e-01
 6.0631487309e-01	 1.7944548206e+00	-8.6942541680e-01
 5.8972639968e-01	 1.7999746434e+00	-8.2781340975e-01
 5.7312432946e-01	 1.8053294870e+00	-7.8670500983e-01
 5.5651097969e-01	 1.8105197276e+00	-7.4589283682e-01
 5.3988864999e-01	 1.8155457819e+00	-7.0521174914e-01
 5.2325962149e-01	 1.8204081069e+00	-6.6453927377e-01
 5.0662615609e-01	 1.8251071990e+00	-6.2379562094e-01
 4.8999049563e-01	 1.8296435929e+00	-5.8294330717e-01
 6.6005008466e-01	 1.7879401121e+00	-9.8640797940e-01
 6.4341376505e-01	 1.7939940868e+00	-9.4109696681e-01
 6.2675667142e-01	 1.7998811740e+00	-8.9727722506e-01
 6.1008118343e-01	 1.8056016257e+00	-8.5459590813e-01
 5.9338966564e-01	 1.8111557366e+00	-8.1274039860e-01
 5.7668446659e-01	 1.8165438435e+00	-7.7144011551e-01
 5.5996791792e-01	 1.8217663248e+00	-7.3046782711e-01
 5.4324233352e-01	 1.8268236000e+00	-6.8964048938e-01
 5.2651000873e-01	 1.8317161289e+00	-6.4881963317e-01
 5.0977321946e-01	 1.8364444107e+00	-6.0791132360e-01
 4.9303422151e-01	 1.8410089839e+00	-5.6686571637e-01
 6.6412485973e-01	 1.7989778408e+00	-9.7301173734e-01
 6.4738583692e-01	 1.8050691893e+00	-9.2730396919e-01
 6.3062591183e-01	 1.8109926201e+00	-8.8320040003e-01
 6.1384747883e-01	 1.8167483867e+00	-8.4031723479e-01
 5.9705291708e-01	 1.8223367855e+00	-7.9831240314e-01
 5.8024458960e-01	 1.8277581555e+00	-7.5688738192e-01
 5.6342484243e-01	 1.8330128774e+00	-7.1578850707e-01
 5.4659600376e-01	 1.8381013734e+00	-6.7480779713e-01
 5.2976038307e-01	 1.8430241060e+00	-6.3378331205e-01
 5.1292027036e-01	 1.8477815775e+00	-5.9259907175e-01
 4.9607793532e-01	 1.8523743298e+00	-5.5118565360e-01
 6.6819961633e-01	 1.8100155196e+00	-9.5979077680e-01
 6.5135789078e-01	 1.8161442417e+00	-9.1390721840e-01
 6.3449513470e-01	 1.8221040159e+00	-8.6971796732e-01
 6.1761375716e-01	 1.8278950971e+00	-8.2680331287e-01
 6.0071615190e-01	 1.8335177837e+00	-7.8478627810e-01
 5.8380469646e-01	 1.8389724166e+00	-7.4333447056e-01
 5.6688175127e-01	 1.8442593791e+00	-7.0216140732e-01
 5.4994965878e-01	 1.8493790957e+00	-6.6102733748e-01
 5.3301074268e-01	 1.8543320318e+00	-6.1974785248e-01
 5.1606730699e-01	 1.8591186930e+00	-5.7830524527e-01
 4.9912163533e-01	 1.8637396242e+00	-5.3679430044e-01
 6.7227435215e-01	 1.8210531420e+00	-9.4675749321e-01
 6.5532992438e-01	 1.8272192376e+00	-9.0099766321e-01
 6.3836433784e-01	 1.8332153550e+00	-8.5698704346e-01
 6.2138001628e-01	 1.8390417507e+00	-8.1426520417e-01
 6.0437936805e-01	 1.8446987248e+00	-7.7241498095e-01
 5.8736478517e-01	 1.8501866206e+00	-7.3106436725e-01
 5.7033864247e-01	 1.8555058234e+00	-6.8986407812e-01
 5.5330329671e-01	 1.8606567604e+00	-6.4858489498e-01
 5.3626108571e-01	 1.8656398999e+00	-6.0722864419e-01
 5.1921432756e-01	 1.8704557506e+00	-5.6582629994e-01
 5.0216531982e-01	 1.8751048606e+00	-5.2442606775e-01
 4.7172798336e-01	 1.7614506609e+00	-6.7212353662e-01
 4.5571237844e-01	 1.7656618963e+00	-6.3084037924e-01
 4.3969891737e-01	 1.7697176392e+00	-5.9128760158e-01
 4.2368969754e-01	 1.7736185149e+00	-5.5340462467e-01
 4.0768679420e-01	 1.7773651829e+00	-5.1715108079e-01
 3.9169225986e-01	 1.7809583367e+00	-4.8250581061e-01
 3.7570812370e-01	 1.7843987028e+00	-4.4946565742e-01
 3.5973639094e-01	 1.7876870401e+00	-4.1801095885e-01
 3.4377904232e-01	 1.7908241388e+00	-3.8778928393e-01
 3.2783803357e-01	 1.7938108203e+00	-3.5826410738e-01
 3.1191529488e-01	 1.7966479355e+00	-3.2892379041e-01
 4.7477174546e-01	 1.7728161872e+00	-6.5957208235e-01
 4.5865280198e-01	 1.7770545950e+00	-6.1868342567e-01
 4.4253601618e-01	 1.7811365071e+00	-5.7961044229e-01
 4.2642349899e-01	 1.7850625526e+00	-5.4224972432e-01
 4.1031733904e-01	 1.7888333954e+00	-5.0651971834e-01
 3.9421960210e-01	 1.7924497336e+00	-4.7235968180e-01
 3.7813233043e-01	 1.7959122982e+00	-4.3972842998e-01
 3.6205754218e-01	 1.7992218530e+00	-4.0859171992e-01
 3.4599723089e-01	 1.8023791935e+00	-3.7865497456e-01
 3.2995336490e-01	 1.8053851461e+00	-3.4936232492e-01
 3.1392788685e-01	 1.8082405675e+00	-3.2017651025e-01
 4.7781550585e-01	 1.7841817070e+00	-6.4570030503e-01
 4.6159322386e-01	 1.7884472872e+00	-6.0517551362e-01
 4.4537311339e-01	 1.7925553684e+00	-5.6650034783e-01
 4.2915729889e-01	 1.7965065838e+00	-5.2953599902e-01
 4.1294788240e-01	 1.8003016015e+00	-4.9416726652e-01
 3.9674694291e-01	 1.8039411240e+00	-4.6030145816e-01
 3.8055653578e-01	 1.8074258871e+00	-4.2786707496e-01
 3.6437869211e-01	 1.8107566595e+00	-3.9681104944e-01
 3.4821541821e-01	 1.8139342417e+00	-3.6690397850e-01
 3.3206869503e-01	 1.8169594654e+00	-3.3759246136e-01
 3.1594047769e-01	 1.8198331929e+00	-3.0832432767e-01
 4.8085926278e-01	 1.7955472139e+00	-6.3080971496e-01
 4.6453364240e-01	 1.7998399665e+00	-5.9058248635e-01
 4.4821020738e-01	 1.8039742168e+00	-5.5218929732e-01
 4.3189109570e-01	 1.8079506020e+00	-5.1546326307e-01
 4.1557842277e-01	 1.8117697946e+00	-4.8026297125e-01
 3.9927428085e-01	 1.8154325014e+00	-4.4647131152e-01
 3.8298073838e-01	 1.8189394630e+00	-4.1399408274e-01
 3.6669983941e-01	 1.8222914529e+00	-3.8275957717e-01
 3.5043360301e-01	 1.8254892767e+00	-3.5260173468e-01
 3.3418402277e-01	 1.8285337716e+00	-3.2299465172e-01
 3.1795306624e-01	 1.8314258052e+00	-2.9338200077e-01
 4.8390301453e-01	 1.8069127015e+00	-6.1519523174e-01
 4.6747405595e-01	 1.8112326264e+00	-5.7516437467e-01
 4.5104729655e-01	 1.8153930458e+00	-5.3690417433e-01
 4.3462488785e-01	 1.8193946008e+00	-5.0022689531e-01
 4.1820895867e-01	 1.8232379682e+00	-4.6497225091e-01
 4.0180161450e-01	 1.8269238592e+00	-4.3100614644e-01
 3.8540493686e-01	 1.8304530193e+00	-3.9821919382e-01
 3.6902098276e-01	 1.8338262266e+00	-3.6652540159e-01
 3.5265178404e-01	 1.8370442921e+00	-3.3581197427e-01
 3.3629934691e-01	 1.8401080581e+00	-3.0560805791e-01
 3.1996565138e-01	 1.8430183977e+00	-2.7536396795e-01
 4.8694675939e-01	 1.8182781633e+00	-5.9914551845e-01
 4.7041446283e-01	 1.8226252606e+00	-5.5917569793e-01
 4.5388437929e-01	 1.8268118489e+00	-5.2086703649e-01
 4.3735867381e-01	 1.8308385737e+00	-4.8401807915e-01
 4.2083948861e-01	 1.8347061158e+00	-4.4845690846e-01
 4.0432894241e-01	 1.8384151911e+00	-4.1403978613e-01
 3.8782912985e-01	 1.8419665495e+00	-3.8064955982e-01
 3.7134212084e-01	 1.8453609743e+00	-3.4819385940e-01
 3.5486996004e-01	 1.8485992814e+00	-3.1659675088e-01
 3.3841466625e-01	 1.8516823184e+00	-2.8547088839e-01
 3.2197823195e-01	 1.8546109640e+00	-2.5442554345e-01
 4.8999049563e-01	 1.8296435929e+00	-5.8294330717e-01
 4.7335486138e-01	 1.8340178624e+00	-5.4286575739e-01
 4.5672145399e-01	 1.8382306197e+00	-5.0429537855e-01
 4.4009245203e-01	 1.8422825141e+00	-4.6702403702e-01
 4.2347001109e-01	 1.8461742309e+00	-4.3087533881e-01
 4.0685626317e-01	 1.8499064903e+00	-3.9570315417e-01
 3.9025331597e-01	 1.8534800470e+00	-3.6142462605e-01
 3.7366325236e-01	 1.8568956892e+00	-3.2822276782e-01
 3.5708812975e-01	 1.8601542378e+00	-2.9614061697e-01
 3.4052997960e-01	 1.8632565459e+00	-2.6491826039e-01
 3.2399080681e-01	 1.8662034975e+00	-2.3405935162e-01
 4.9303422151e-01	 1.8410089839e+00	-5.6686571637e-01
 4.7629524993e-01	 1.8454104255e+00	-5.2647892251e-01
 4.5955851904e-01	 1.8496493516e+00	-4.8740238917e-01
 4.4282622095e-01	 1.8537264156e+00	-4.4945949187e-01
 4.2610052464e-01	 1.8576423070e+00	-4.1273757689e-01
 4.0938357533e-01	 1.8613977505e+00	-3.7722665579e-01
 3.9267749384e-01	 1.8649935054e+00	-3.4288495549e-01
 3.7598437597e-01	 1.8684303649e+00	-3.0967621370e-01
 3.5930629193e-01	 1.8717091550e+00	-2.7759237873e-01
 3.4264528576e-01	 1.8748307340e+00	-2.4645816747e-01
 3.2600337484e-01	 1.8777959915e+00	-2.1579583893e-01
 4.9607793532e-01	 1.8523743298e+00	-5.5118565360e-01
 4.7923562682e-01	 1.8568029434e+00	-5.1040249286e-01
 4.6239557284e-01	 1.8610680382e+00	-4.7104077578e-01
 4.4555997902e-01	 1.8651702717e+00	-4.3302612063e-01
 4.2873102774e-01	 1.8691103376e+00	-3.9629393610e-01
 4.1191087747e-01	 1.8728889651e+00	-3.6078803699e-01
 3.9510166210e-01	 1.8765069182e+00	-3.2645938129e-01
 3.7830549039e-01	 1.8799649949e+00	-2.9326491496e-01
 3.6152444530e-01	 1.8832640264e+00	-2.6118944045e-01
 3.4476058352e-01	 1.8864048762e+00	-2.3014009826e-01
 3.2801593488e-01	 1.8893884395e+00	-1.9967290977e-01
 4.9912163533e-01	 1.8637396242e+00	-5.3679430044e-01
 4.8217599038e-01	 1.8681954097e+00	-4.9602886050e-01
 4.6523261378e-01	 1.8724866731e+00	-4.5669257395e-01
 4.4829372470e-01	 1.8766140759e+00	-4.1870774985e-01
 4.3136151892e-01	 1.8805783162e+00	-3.8200679725e-01
 4.1443816815e-01	 1.8843801275e+00	-3.4653090291e-01
 3.9752581937e-01	 1.8880202787e+00	-3.1222883319e-01
 3.8062659428e-01	 1.8914995726e+00	-2.7905584524e-01
 3.6374258862e-01	 1.8948188454e+00	-2.4698955064e-01
 3.4687587170e-01	 1.8979789660e+00	-2.1601116920e-01
 3.3002848580e-01	 1.9009808350e+00	-1.8572735705e-01
 5.0216531982e-01	 1.8751048606e+00	-5.2442606775e-01
 4.8511633894e-01	 1.8795878178e+00	-4.8377859703e-01
 4.6806964024e-01	 1.8839052497e+00	-4.4453809613e-01
 4.5102745644e-01	 1.8880578218e+00	-4.0662838588e-01
 4.3399199669e-01	 1.8920462363e+00	-3.6998373160e-01
 4.1696544594e-01	 1.8958712314e+00	-3.3454757955e-01
 3.9994996428e-01	 1.8995335805e+00	-3.0027142043e-01
 3.8294768633e-01	 1.9030340914e+00	-2.6711376424e-01
 3.6596072063e-01	 1.9063736054e+00	-2.3504830877e-01
 3.4899114909e-01	 1.9095529967e+00	-2.0411688462e-01
 3.3204102645e-01	 1.9125731713e+00	-1.7399487799e-01
 3.1191529488e-01	 1.7966479355e+00	-3.2892379041e-01
 2.9601002936e-01	 1.7993368094e+00	-3.0027008420e-01
 2.8012682779e-01	 1.8018778550e+00	-2.7312572535e-01
 2.6426754602e-01	 1.8042720080e+00	-2.4747595059e-01
 2.4843401249e-01	 1.8065202313e+00	-2.2331712029e-01
 2.3262802784e-01	 1.8086235135e+00	-2.0065258617e-01
 2.1685136456e-01	 1.8105828687e+00	-1.7948830928e-01
 2.0110576665e-01	 1.8123993357e+00	-1.5982830094e-01
 1.8539294929e-01	 1.8140739766e+00	-1.4166995683e-01
 1.6971459859e-01	 1.8156078768e+00	-1.2499935100e-01
 1.5407237130e-01	 1.8170021437e+00	-1.0978655334e-01
 3.1392788685e-01	 1.8082405675e+00	-3.2017651025e-01
 2.9791999472e-01	 1.8109467909e+00	-2.9158304091e-01
 2.8193430891e-01	 1.8135042323e+00	-2.6440712454e-01
 2.6597269723e-01	 1.8159138333e+00	-2.3864091714e-01
 2.5003699993e-01	 1.8181765629e+00	-2.1428922042e-01
 2.3412902927e-01	 1.8202934163e+00	-1.9136486319e-01
 2.1825056917e-01	 1.8222654140e+00	-1.6988383111e-01
 2.0240337487e-01	 1.8240936014e+00	-1.4986022123e-01
 1.8658917265e-01	 1.8257790478e+00	-1.3130109447e-01
 1.7080965947e-01	 1.8273228453e+00	-1.1420129614e-01
 1.5506650279e-01	 1.8287261085e+00	-9.8538310942e-02
 3.1594047769e-01	 1.8198331929e+00	-3.0832432767e-01
 2.9982995900e-01	 1.8225567659e+00	-2.7957147437e-01
 2.8374178900e-01	 1.8251306030e+00	-2.5215824835e-01
 2.6767784747e-01	 1.8275556520e+00	-2.2608575154e-01
 2.5163998646e-01	 1.8298328880e+00	-2.0136953310e-01
 2.3563002984e-01	 1.8319633125e+00	-1.7803445580e-01
 2.1964977297e-01	 1.8339479527e+00	-1.5610930898e-01
 2.0370098236e-01	 1.8357878606e+00	-1.3562124807e-01
 1.8778539533e-01	 1.8374841123e+00	-1.1659013727e-01
 1.7190471974e-01	 1.8390378071e+00	-9.9022868727e-02
 1.5606063372e-01	 1.8404500667e+00	-8.2907727564e-02
 3.1795306624e-01	 1.8314258052e+00	-2.9338200077e-01
 3.0173992112e-01	 1.8341667278e+00	-2.6422566847e-01
 2.8554926704e-01	 1.8367569606e+00	-2.3634691498e-01
 2.6938299578e-01	 1.8391974575e+00	-2.0975804449e-01
 2.5324297118e-01	 1.8414891998e+00	-1.8448789127e-01
 2.3713102871e-01	 1.8436331954e+00	-1.6057614151e-01
 2.2104897520e-01	 1.8456304781e+00	-1.3806739999e-01
 2.0499858838e-01	 1.8474821065e+00	-1.1700508521e-01
 1.8898161665e-01	 1.8491891636e+00	-9.7425233230e-02
 1.7299977876e-01	 1.8507527557e+00	-7.9350286695e-02
 1.5705476353e-01	 1.8521740115e+00	-6.2784927575e-02
 3.1996565138e-01	 1.8430183977e+00	-2.7536396795e-01
 3.0364987999e-01	 1.8457766699e+00	-2.4553614406e-01
 2.8735674201e-01	 1.8483832984e+00	-2.1694162102e-01
 2.7108814120e-01	 1.8508392432e+00	-1.8960639495e-01
 2.5484595316e-01	 1.8531454918e+00	-1.6361172918e-01
 2.3863202503e-01	 1.8553030585e+00	-1.3918107533e-01
 2.2244817504e-01	 1.8573129836e+00	-1.1636981380e-01
 2.0629619219e-01	 1.8591763325e+00	-9.5199390918e-02
 1.9017783594e-01	 1.8608941950e+00	-7.5677060201e-02
 1.7409483592e-01	 1.8624676843e+00	-5.7791585584e-02
 1.5804889164e-01	 1.8638979364e+00	-4.1509078197e-02
 3.2197823195e-01	 1.8546109640e+00	-2.5442554345e-01
 3.0555983453e-01	 1.8573865857e+00	-2.2410406839e-01
 2.8916421289e-01	 1.8600096099e+00	-1.9531305110e-01
 2.7279328274e-01	 1.8624810025e+00	-1.6807046530e-01
 2.5644893152e-01	 1.8648017574e+00	-1.4239972739e-01
 2.4013301795e-01	 1.8669728952e+00	-1.1832481534e-01
 2.2384737171e-01	 1.8689954627e+00	-9.5865553521e-02
 2.0759379306e-01	 1.8708705321e+00	-7.5033053720e-02
 1.9137405252e-01	 1.8725991999e+00	-5.5825303026e-02
 1.7518989060e-01	 1.8741825864e+00	-3.8222889782e-02
 1.5904301750e-01	 1.8756218348e+00	-2.2184859301e-02
 3.2399080681e-01	 1.8662034975e+00	-2.3405935162e-01
 3.0746978366e-01	 1.8689964686e+00	-2.0400819757e-01
 2.9097167864e-01	 1.8716358884e+00	-1.7553341713e-01
 2.7449841946e-01	 1.8741227289e+00	-1.4863621597e-01
 2.5805190533e-01	 1.8764579900e+00	-1.2332438382e-01
 2.4163400662e-01	 1.8786426988e+00	-9.9607449783e-02
 2.2524656442e-01	 1.8806779087e+00	-7.7492002054e-02
 2.0889139025e-01	 1.8825646984e+00	-5.6977161662e-02
 1.9257026571e-01	 1.8843041716e+00	-3.8050200101e-02
 1.7628494218e-01	 1.8858974553e+00	-2.0682291381e-02
 1.6003714054e-01	 1.8873456999e+00	-4.8243895901e-03
 3.2600337484e-01	 1.8777959915e+00	-2.1579583893e-01
 3.0937972629e-01	 1.8806063120e+00	-1.8602798439e-01
 2.9277913825e-01	 1.8832621273e+00	-1.5788240261e-01
 2.7620355037e-01	 1.8857644156e+00	-1.3134106599e-01
 2.5965487369e-01	 1.8881141829e+00	-1.0639386063e-01
 2.4313499018e-01	 1.8903124627e+00	-8.3033783111e-02
 2.2664575237e-01	 1.8923603149e+00	-6.1252299921e-02
 2.1018898303e-01	 1.8942588251e+00	-4.1034858335e-02
 1.9376647483e-01	 1.8960091035e+00	-2.2356537789e-02
 1.7737999003e-01	 1.8976122844e+00	-5.1778316317e-03
 1.6103126020e-01	 1.8990695252e+00	 1.0559450302e-02
 3.2801593488e-01	 1.8893884395e+00	-1.9967290977e-01
 3.1128966135e-01	 1.8922161093e+00	-1.7019145531e-01
 2.9458659068e-01	 1.8948883202e+00	-1.4237988246e-01
 2.7790867453e-01	 1.8974060562e+00	-1.1619844078e-01
 2.6125783570e-01	 1.8997703296e+00	-9.1616809823e-02
 2.4463596778e-01	 1.9019821804e+00	-6.8609342790e-02
 2.2804493477e-01	 1.9040426748e+00	-4.7150470728e-02
 2.1148657067e-01	 1.9059529053e+00	-2.7210255178e-02
 1.9496267921e-01	 1.9077139889e+00	-8.7500776101e-03
 1.7847503354e-01	 1.9093270670e+00	 8.2815452775e-03
 1.6202537592e-01	 1.9107933040e+00	 2.3953030573e-02
 3.3002848580e-01	 1.9009808350e+00	-1.8572735705e-01
 3.1319958775e-01	 1.9038258540e+00	-1.5652601519e-01
 2.9639403493e-01	 1.9065144603e+00	-1.2904553821e-01
 2.7961379095e-01	 1.9090476440e+00	-1.0322193656e-01
 2.6286079043e-01	 1.9114264235e+00	-7.9002352079e-02
 2.4613693859e-01	 1.9136518451e+00	-5.6340354188e-02
 2.2944411082e-01	 1.9157249818e+00	-3.5191394255e-02
 2.1278415242e-01	 1.9176469325e+00	-1.5508404944e-02
 1.9615887817e-01	 1.9194188213e+00	 2.7624677502e-03
 1.7957007208e-01	 1.9210417964e+00	 1.9686011520e-02
 1.6301948713e-01	 1.9225170296e+00	 3.5341984693e-02
 3.3204102645e-01	 1.9125731713e+00	-1.7399487799e-01
 3.1510950441e-01	 1.9154355396e+00	-1.4505845076e-01
 2.9820146995e-01	 1.9181405412e+00	-1.1789885138e-01
 2.8131889868e-01	 1.9206891724e+00	-9.2425305756e-02
 2.6446373700e-01	 1.9230824579e+00	-6.8560056191e-02
 2.4763790173e-01	 1.9253214503e+00	-4.6233716152e-02
 2.3084327975e-01	 1.9274072292e+00	-2.5380780313e-02
 2.1408172755e-01	 1.9293409001e+00	-5.9352759219e-03
 1.9735507102e-01	 1.9311235940e+00	 1.2173457756e-02
 1.8066510504e-01	 1.9327564662e+00	 2.9024874396e-02
 1.6401359327e-01	 1.9342406954e+00	 4.4711221562e-02
 1.5407237130e-01	 1.8170021437e+00	-1.0978655334e-01
 1.3847053763e-01	 1.8182577041e+00	-9.5989001193e-02
 1.2290800184e-01	 1.8193759551e+00	-8.3608204739e-02
 1.0738629498e-01	 1.8203580647e+00	-7.2649975658e-02
 9.1906918918e-02	 1.8212052197e+00	-6.3086178849e-02
 7.6471346153e-02	 1.8219186249e+00	-5.4850852837e-02
 6.1081019716e-02	 1.8224995025e+00	-4.7836656096e-02
 4.5737353035e-02	 1.8229490914e+00	-4.1891674357e-02
 3.0441729845e-02	 1.8232686460e+00	-3.6816619686e-02
 1.5195504118e-02	 1.8234594360e+00	-3.2362447827e-02
 0.0000000000e+00	 1.8235227451e+00	-2.8228416250e-02
 1.5506650279e-01	 1.8287261085e+00	-9.8538310942e-02
 1.3936400037e-01	 1.8299897702e+00	-8.4288175654e-02
 1.2370104938e-01	 1.8311152366e+00	-7.1465666335e-02
 1.0807919078e-01	 1.8321036831e+00	-6.0073265631e-02
 9.2499936095e-02	 1.8329563042e+00	-5.0076940575e-02
 7.6964767349e-02	 1.8336743126e+00	-4.1401886073e-02
 6.1475136876e-02	 1.8342589383e+00	-3.3928618312e-02
 4.6032467225e-02	 1.8347114281e+00	-2.7489454716e-02
 3.0638151061e-02	 1.8350330446e+00	-2.1865412571e-02
 1.5293551088e-02	 1.8352250656e+00	-1.6783553969e-02
 0.0000000000e+00	 1.8352887832e+00	-1.1914800475e-02
 1.5606063372e-01	 1.8404500667e+00	-8.2907727564e-02
 1.4025746259e-01	 1.8417218297e+00	-6.8247583675e-02
 1.2449409648e-01	 1.8428545115e+00	-5.5080012521e-02
 1.0877208618e-01	 1.8438492949e+00	-4.3409542686e-02
 9.3092952935e-02	 1.8447073822e+00	-3.3201574112e-02
 7.7458188264e-02	 1.8454299937e+00	-2.4377720225e-02
 6.1869253813e-02	 1.8460183674e+00	-1.6811525064e-02
 4.6327581249e-02	 1.8464737581e+00	-1.0324593674e-02
 3.0834572165e-02	 1.8467974365e+00	-4.6831692718e-03
 1.5391598003e-02	 1.8469906886e+00	 4.0481397618e-04
 0.0000000000e+00	 1.8470548146e+00	 5.2921781391e-03
 1.5705476353e-01	 1.8521740115e+00	-6.2784927575e-02
 1.4115092381e-01	 1.8534538759e+00	-4.7818170984e-02
 1.2528714267e-01	 1.8545937730e+00	-3.4518523914e-02
 1.0946498079e-01	 1.8555948934e+00	-2.2867738355e-02
 9.3685969103e-02	 1.8564584468e+00	-1.2809230566e-02
 7.7951608621e-02	 1.8571856614e+00	-4.2443420806e-03
 6.2263370303e-02	 1.8577777832e+00	 2.9712904575e-03
 4.6622694937e-02	 1.8582360748e+00	 9.0312594999e-03
 3.1030993046e-02	 1.8585618151e+00	 1.4181807085e-02
 1.5489644807e-02	 1.8587562982e+00	 1.8725143207e-02
 0.0000000000e+00	 1.8588208328e+00	 2.3022662798e-02
 1.5804889164e-01	 1.8638979364e+00	-4.1509078197e-02
 1.4204438351e-01	 1.8651859021e+00	-2.6856119243e-02
 1.2608018752e-01	 1.8663330146e+00	-1.3893066136e-02
 1.1015787423e-01	 1.8673404719e+00	-2.5996569897e-03
 9.4278984263e-02	 1.8682094914e+00	 7.0814686757e-03
 7.8445028138e-02	 1.8689413092e+00	 1.5248526342e-02
 6.2657486122e-02	 1.8695371790e+00	 2.2044239936e-02
 4.6917808124e-02	 1.8699983715e+00	 2.7659395375e-02
 3.1227413593e-02	 1.8703261737e+00	 3.2336296570e-02
 1.5587691444e-02	 1.8705218878e+00	 3.6372125561e-02
 0.0000000000e+00	 1.8705868309e+00	 4.0122207528e-02
 1.5904301750e-01	 1.8756218348e+00	-2.2184859301e-02
 1.4293784118e-01	 1.8769179018e+00	-7.7619794710e-03
 1.2687323056e-01	 1.8780722296e+00	 4.9581168346e-03
 1.1085076609e-01	 1.8790860237e+00	 1.5996333825e-02
 9.4871998078e-02	 1.8799605094e+00	 2.5409267912e-02
 7.8938446537e-02	 1.8806969303e+00	 3.3292982145e-02
 6.3051601049e-02	 1.8812965481e+00	 3.9786683955e-02
 4.7212920642e-02	 1.8817606415e+00	 4.5076309462e-02
 3.1423833696e-02	 1.8820905056e+00	 4.9398016828e-02
 1.5685737859e-02	 1.8822874507e+00	 5.3041590403e-02
 0.0000000000e+00	 1.8823528023e+00	 5.6353756395e-02
 1.6003714054e-01	 1.8873456999e+00	-4.8243895901e-03
 1.4383129632e-01	 1.8886498682e+00	 9.4457786118e-03
 1.2766627136e-01	 1.8898114113e+00	 2.2009189695e-02
 1.1154365599e-01	 1.8908315423e+00	 3.2886074362e-02
 9.5465010213e-02	 1.8917114941e+00	 4.2130778460e-02
 7.9431863537e-02	 1.8924525181e+00	 4.9835555857e-02
 6.3445714858e-02	 1.8930558839e+00	 5.6134271325e-02
 4.7508032324e-02	 1.8935228782e+00	 6.1206016859e-02
 3.1620253241e-02	 1.8938548041e+00	 6.5278644056e-02
 1.5783783996e-02	 1.8940529803e+00	 6.8632214351e-02
 0.0000000000e+00	 1.8941187404e+00	 7.1602367874e-02
 1.6103126020e-01	 1.8990695252e+00	 1.0559450302e-02
 1.4472474842e-01	 1.9003817947e+00	 2.4748162671e-02
 1.2845930947e-01	 1.9015505531e+00	 3.7234106462e-02
 1.1223654354e-01	 1.9025770210e+00	 4.8035579753e-02
 9.6058020332e-02	 1.9034624388e+00	 5.7203246554e-02
 7.9925278860e-02	 1.9042080659e+00	 6.4823948344e-02
 6.3839827328e-02	 1.9048151797e+00	 7.1024432738e-02
 4.7803143003e-02	 1.9052850749e+00	 7.5975002896e-02
 3.1816672119e-02	 1.9056190627e+00	 7.9893090426e-02
 1.5881829800e-02	 1.9058184699e+00	 8.3046753668e-02
 0.0000000000e+00	 1.9058846385e+00	 8.5758102100e-02
 1.6202537592e-01	 1.9107933040e+00	 2.3953030573e-02
 1.4561819698e-01	 1.9121136747e+00	 3.8125661429e-02
 1.2925234443e-01	 1.9132896483e+00	 5.0606603312e-02
 1.1292942834e-01	 1.9143224530e+00	 6.1411020284e-02
 9.6651028098e-02	 1.9152133370e+00	 7.0584519419e-02
 8.0418692226e-02	 1.9159635672e+00	 7.8206981021e-02
 6.4233938234e-02	 1.9165744289e+00	 8.4396313513e-02
 4.8098252511e-02	 1.9170472250e+00	 8.9312136843e-02
 3.2013090218e-02	 1.9173832746e+00	 9.3159397250e-02
 1.5979875215e-02	 1.9175839129e+00	 9.6191915385e-02
 0.0000000000e+00	 1.9176504899e+00	 9.8715868498e-02
 1.6301948713e-01	 1.9225170296e+00	 3.5341984693e-02
 1.4651164149e-01	 1.9238455015e+00	 4.9558248343e-02
 1.3004537579e-01	 1.9250286903e+00	 6.2100191801e-02
 1.1362230999e-01	 1.9260678318e+00	 7.2978702506e-02
 9.7244033177e-02	 1.9269641818e+00	 8.2233012663e-02
 8.0912103355e-02	 1.9277190151e+00	 8.9934547938e-02
 6.4628047354e-02	 1.9283336248e+00	 9.6190708837e-02
 4.8393360681e-02	 1.9288093217e+00	 1.0114858881e-01
 3.2209507426e-02	 1.9291474332e+00	 1.0499863205e-01
 1.6077920185e-02	 1.9293493025e+00	 1.0797823311e-01
 0.0000000000e+00	 1.9294162880e+00	 1.1037527894e-01
 1.6401359327e-01	 1.9342406954e+00	 4.4711221562e-02
 1.4740508144e-01	 1.9355772684e+00	 5.9025385285e-02
 1.3083840311e-01	 1.9367676724e+00	 7.1688152445e-02
 1.1431518812e-01	 1.9378131507e+00	 8.2705051127e-02
 9.7837035231e-02	 1.9387149667e+00	 9.2107678916e-02
 8.1405511968e-02	 1.9394744030e+00	 9.9957569657e-02
 6.5022154464e-02	 1.9400927607e+00	 1.0635000138e-01
 4.8688467346e-02	 1.9405713584e+00	 1.1141774964e-01
 3.2405923632e-02	 1.9409115317e+00	 1.1533478935e-01
 1.6175964655e-02	 1.9411146320e+00	 1.1831994735e-01
 0.0000000000e+00	 1.9411820260e+00	 1.2064050626e-01
 1.9411820260e+00	 0.0000000000e+00	 2.9247872040e+00
 1.9411146320e+00	 1.6175964655e-02	 2.9231039058e+00
 1.9409115317e+00	 3.2405923632e-02	 2.9188084132e+00
 1.9405713584e+00	 4.8688467346e-02	 2.9120509937e+00
 1.9400927607e+00	 6.5022154464e-02	 2.9029544421e+00
 1.9394744030e+00	 8.1405511968e-02	 2.8916174032e+00
 1.9387149667e+00	 9.7837035231e-02	 2.8781177295e+00
 1.9378131507e+00	 1.1431518812e-01	 2.8625158792e+00
 1.9367676724e+00	 1.3083840311e-01	 2.8448583614e+00
 1.9355772684e+00	 1.4740508144e-01	 2.8251812372e+00
 1.9342406954e+00	 1.6401359327e-01	 2.8035136866e+00
 1.9529457008e+00	 0.0000000000e+00	 2.9011262693e+00
 1.9528778984e+00	 1.6273991932e-02	 2.8996183479e+00
 1.9526735673e+00	 3.2602305394e-02	 2.8955174884e+00
 1.9523313325e+00	 4.8983522260e-02	 2.8889687836e+00
 1.9518498345e+00	 6.5416192462e-02	 2.8800911066e+00
 1.9512277295e+00	 8.1898834055e-02	 2.8689804257e+00
 1.9504636910e+00	 9.8429933295e-02	 2.8557131446e+00
 1.9495564099e+00	 1.1500794474e-01	 2.8403494721e+00
 1.9485045960e+00	 1.3163129136e-01	 2.8229368294e+00
 1.9473069780e+00	 1.4829836472e-01	 2.8035133033e+00
 1.9459623053e+00	 1.6500752509e-01	 2.7821111560e+00
 1.9647093223e+00	 0.0000000000e+00	 2.8777332224e+00
 1.9646411115e+00	 1.6372018764e-02	 2.8763754570e+00
 1.9644355495e+00	 3.2798686267e-02	 2.8724422472e+00
 1.9640912533e+00	 4.9278575837e-02	 2.8660746717e+00
 1.9636068549e+00	 6.5810228674e-02	 2.8573889446e+00
 1.9629810027e+00	 8.2392153906e-02	 2.8464797191e+00
 1.9622123620e+00	 9.9022828671e-02	 2.8334234036e+00
 1.9612996159e+00	 1.1570069821e-01	 2.8182814971e+00
 1.9602414663e+00	 1.3242417602e-01	 2.8011039513e+00
 1.9590366345e+00	 1.4919164394e-01	 2.7819325689e+00
 1.9576838621e+00	 1.6600145239e-01	 2.7608044473e+00
 1.9764729037e+00	 0.0000000000e+00	 2.8545840095e+00
 1.9764042845e+00	 1.6470045264e-02	 2.8533679700e+00
 1.9761974918e+00	 3.2995066471e-02	 2.8495899787e+00
 1.9758511341e+00	 4.9573628410e-02	 2.8433882568e+00
 1.9753638354e+00	 6.6204263546e-02	 2.8348776241e+00
 1.9747342360e+00	 8.2885472081e-02	 2.8241527853e+00
 1.9739609931e+00	 9.9615722032e-02	 2.8112916165e+00
 1.9730427820e+00	 1.1639344934e-01	 2.7963584602e+00
 1.9719782968e+00	 1.3321705798e-01	 2.7794074344e+00
 1.9707662511e+00	 1.5008492013e-01	 2.7604857681e+00
 1.9694053791e+00	 1.6699537632e-01	 2.7396371720e+00
 1.9882364585e+00	 0.0000000000e+00	 2.8316497061e+00
 1.9881674309e+00	 1.6568071541e-02	 2.8305842547e+00
 1.9879594074e+00	 3.3191446231e-02	 2.8269640837e+00
 1.9876109883e+00	 4.9868680316e-02	 2.8209257124e+00
 1.9871207893e+00	 6.6598297526e-02	 2.8125838342e+00
 1.9864874426e+00	 8.3378789137e-02	 2.8020345796e+00
 1.9857095975e+00	 1.0020861405e-01	 2.7893587677e+00
 1.9847859214e+00	 1.1708619889e-01	 2.7746251530e+00
 1.9837151006e+00	 1.3400993815e-01	 2.7578936756e+00
 1.9824958411e+00	 1.5097819430e-01	 2.7392187251e+00
 1.9811268694e+00	 1.6798929800e-01	 2.7186524294e+00
 2.0000000000e+00	 0.0000000000e+00	 2.8088966617e+00
 1.9999305640e+00	 1.6666097707e-02	 2.8080084513e+00
 1.9997213097e+00	 3.3387825767e-02	 2.8045642124e+00
 1.9993708291e+00	 5.0163731886e-02	 2.7986999192e+00
 1.9988777298e+00	 6.6992331059e-02	 2.7905314122e+00
 1.9982406359e+00	 8.3872105635e-02	 2.7801576319e+00
 1.9974581886e+00	 1.0080150540e-01	 2.7676638294e+00
 1.9965290475e+00	 1.1777894766e-01	 2.7531247586e+00
 1.9954518911e+00	 1.3480281742e-01	 2.7366078595e+00
 1.9942254178e+00	 1.5187146746e-01	 2.7181764424e+00
 1.9928483465e+00	 1.6898321855e-01	 2.6978928859e+00
 2.0117635415e+00	 0.0000000000e+00	 2.7862866396e+00
 2.0116936970e+00	 1.6764123873e-02	 2.7856206086e+00
 2.0114832120e+00	 3.3584205304e-02	 2.7823863966e+00
 2.0111306700e+00	 5.0458783457e-02	 2.7767205929e+00
 2.0106346704e+00	 6.7386364593e-02	 2.7687414657e+00
 2.0099938292e+00	 8.4365422133e-02	 2.7585521622e+00
 2.0092067797e+00	 1.0139439674e-01	 2.7462438713e+00
 2.0082721737e+00	 1.1847169643e-01	 2.7318989541e+00
 2.0071886817e+00	 1.3559569669e-01	 2.7155940526e+00
 2.0059549945e+00	 1.5276474061e-01	 2.6974031864e+00
 2.0045698236e+00	 1.6997713911e-01	 2.6774008506e+00
 2.0235270963e+00	 0.0000000000e+00	 2.7637769519e+00
 2.0234568434e+00	 1.6862150150e-02	 2.7633968157e+00
 2.0232451276e+00	 3.3780585064e-02	 2.7604231778e+00
 2.0228905241e+00	 5.0753835363e-02	 2.7549944074e+00
 2.0223916242e+00	 6.7780398573e-02	 2.7472324911e+00
 2.0217470358e+00	 8.4858739189e-02	 2.7372461939e+00
 2.0209553842e+00	 1.0198728876e-01	 2.7251341665e+00
 2.0200153131e+00	 1.1916444599e-01	 2.7109880084e+00
 2.0189254855e+00	 1.3638857685e-01	 2.6948952932e+00
 2.0176845845e+00	 1.5365801478e-01	 2.6769425691e+00
 2.0162913140e+00	 1.7097106079e-01	 2.6572183479e+00
 2.0352906777e+00	 0.0000000000e+00	 2.7413205889e+00
 2.0352200165e+00	 1.6960176649e-02	 2.7413093291e+00
 2.0350070699e+00	 3.3976965269e-02	 2.7386637303e+00
 2.0346504049e+00	 5.1048887937e-02	 2.7335251138e+00
 2.0341486048e+00	 6.8174433446e-02	 2.7260204875e+00
 2.0335002691e+00	 8.5352057364e-02	 2.7162656610e+00
 2.0327040152e+00	 1.0258018212e-01	 2.7043682931e+00
 2.0317584792e+00	 1.1985719711e-01	 2.6904308777e+00
 2.0306623160e+00	 1.3718145882e-01	 2.6745536791e+00
 2.0294142011e+00	 1.5455129097e-01	 2.6568376271e+00
 2.0280128309e+00	 1.7196498472e-01	 2.6373871874e+00
 2.0470542992e+00	 0.0000000000e+00	 2.7188663450e+00
 2.0469832295e+00	 1.7058203481e-02	 2.7193266949e+00
 2.0467690521e+00	 3.4173346141e-02	 2.7170939800e+00
 2.0464103257e+00	 5.1343941514e-02	 2.7123136551e+00
 2.0459056252e+00	 6.8568469658e-02	 2.7051190658e+00
 2.0452535423e+00	 8.5845377216e-02	 2.6956345131e+00
 2.0444526862e+00	 1.0317307750e-01	 2.6839782324e+00
 2.0435016851e+00	 1.2054995059e-01	 2.6702652964e+00
 2.0423991863e+00	 1.3797434348e-01	 2.6546104511e+00
 2.0411438575e+00	 1.5544457020e-01	 2.6371308969e+00
 2.0397343877e+00	 1.7295891203e-01	 2.6179490308e+00
 2.0588179740e+00	 0.0000000000e+00	 2.6963589392e+00
 2.0587464959e+00	 1.7156230758e-02	 2.6974138670e+00
 2.0585310877e+00	 3.4369727903e-02	 2.6956967194e+00
 2.0581702998e+00	 5.1638996428e-02	 2.6913582766e+00
 2.0576626990e+00	 6.8962507657e-02	 2.6845395555e+00
 2.0570068688e+00	 8.6338699305e-02	 2.6753748155e+00
 2.0562014105e+00	 1.0376597556e-01	 2.6639944633e+00
 2.0552449443e+00	 1.2124270721e-01	 2.6505278650e+00
 2.0541361099e+00	 1.3876723173e-01	 2.6351060738e+00
 2.0528735672e+00	 1.5633785348e-01	 2.6178644884e+00
 2.0514559977e+00	 1.7395284384e-01	 2.5989454563e+00
 1.9342406954e+00	 1.6401359327e-01	 2.8035136866e+00
 1.9327564662e+00	 1.8066510504e-01	 2.7794788672e+00
 1.9311235940e+00	 1.9735507102e-01	 2.7527713543e+00
 1.9293409001e+00	 2.1408172755e-01	 2.7235128663e+00
 1.9274072292e+00	 2.3084327975e-01	 2.6918280369e+00
 1.9253214503e+00	 2.4763790173e-01	 2.6578482596e+00
 1.9230824579e+00	 2.6446373700e-01	 2.6217156890e+00
 1.9206891724e+00	 2.8131889868e-01	 2.5835874179e+00
 1.9181405412e+00	 2.9820146995e-01	 2.5436398526e+00
 1.9154355396e+00	 3.1510950441e-01	 2.5020733068e+00
 1.9125731713e+00	 3.3204102645e-01	 2.4591168381e+00
 1.9459623053e+00	 1.6500752509e-01	 2.7821111560e+00
 1.9444690816e+00	 1.8175994598e-01	 2.7582957339e+00
 1.9428263141e+00	 1.9855105411e-01	 2.7317155758e+00
 1.9410328170e+00	 2.1537907514e-01	 2.7025149758e+00
 1.9390874279e+00	 2.3224220330e-01	 2.6708423141e+00
 1.9369890091e+00	 2.4913860167e-01	 2.6368537955e+00
 1.9347364483e+00	 2.6606640246e-01	 2.6007173396e+00
 1.9323286593e+00	 2.8302370739e-01	 2.5626166428e+00
 1.9297645833e+00	 3.0000858802e-01	 2.5227554343e+00
 1.9270431892e+00	 3.1701908614e-01	 2.4813619505e+00
 1.9241634748e+00	 3.3405321418e-01	 2.4386936503e+00
 1.9576838621e+00	 1.6600145239e-01	 2.7608044473e+00
 1.9561816439e+00	 1.8285478195e-01	 2.7372305378e+00
 1.9545289812e+00	 1.9974703177e-01	 2.7108133053e+00
 1.9527246809e+00	 2.1667641685e-01	 2.6817162346e+00
 1.9507675737e+00	 2.3364112052e-01	 2.6501080511e+00
 1.9486565150e+00	 2.5063929480e-01	 2.6161663493e+00
 1.9463903858e+00	 2.6766906066e-01	 2.5800813661e+00
 1.9439680935e+00	 2.8472850838e-01	 2.5420599218e+00
 1.9413885726e+00	 3.0181569790e-01	 2.5023295526e+00
 1.9386507861e+00	 3.1892865921e-01	 2.4611428579e+00
 1.9357537258e+00	 3.3606539279e-01	 2.4187820901e+00
 1.9694053791e+00	 1.6699537632e-01	 2.7396371720e+00
 1.9678941664e+00	 1.8394961420e-01	 2.7163217772e+00
 1.9662316085e+00	 2.0094300537e-01	 2.6900961653e+00
 1.9644165050e+00	 2.1797375415e-01	 2.6611397538e+00
 1.9624476797e+00	 2.3504003299e-01	 2.6296383437e+00
 1.9603239812e+00	 2.5213998283e-01	 2.5957876310e+00
 1.9580442837e+00	 2.6927171342e-01	 2.5597968583e+00
 1.9556074880e+00	 2.8643330357e-01	 2.5218926289e+00
 1.9530125225e+00	 3.0362280163e-01	 2.4823229090e+00
 1.9502583437e+00	 3.2083822580e-01	 2.4413612435e+00
 1.9473439373e+00	 3.3807756455e-01	 2.3993112122e+00
 1.9811268694e+00	 1.6798929800e-01	 2.7186524294e+00
 1.9796066624e+00	 1.8504444397e-01	 2.6956078346e+00
 1.9779342092e+00	 2.0213897627e-01	 2.6695960539e+00
 1.9761083026e+00	 2.1927108851e-01	 2.6408093086e+00
 1.9741277593e+00	 2.3643894228e-01	 2.6094473364e+00
 1.9719914210e+00	 2.5364066747e-01	 2.5757207815e+00
 1.9696981552e+00	 2.7087436254e-01	 2.5398547172e+00
 1.9672468562e+00	 2.8813809490e-01	 2.5020923275e+00
 1.9646364460e+00	 3.0542990127e-01	 2.4626987727e+00
 1.9618658749e+00	 3.2274778805e-01	 2.4219652664e+00
 1.9589341226e+00	 3.4008973176e-01	 2.3802133927e+00
 1.9928483465e+00	 1.6898321855e-01	 2.6978928859e+00
 1.9913191450e+00	 1.8613927249e-01	 2.6751270451e+00
 1.9896367967e+00	 2.0333494580e-01	 2.6493452028e+00
 1.9878000870e+00	 2.2056842139e-01	 2.6207493840e+00
 1.9858078257e+00	 2.3783784999e-01	 2.5895502571e+00
 1.9836588476e+00	 2.5514135040e-01	 2.5559703954e+00
 1.9813520135e+00	 2.7247700984e-01	 2.5202476656e+00
 1.9788862112e+00	 2.8984288430e-01	 2.4826387695e+00
 1.9762603563e+00	 3.0723699886e-01	 2.4434229664e+00
 1.9734733929e+00	 3.2465734814e-01	 2.4029060044e+00
 1.9705242947e+00	 3.4210189669e-01	 2.3614242918e+00
 2.0045698236e+00	 1.6997713911e-01	 2.6774008506e+00
 2.0030316277e+00	 1.8723410102e-01	 2.6549177618e+00
 2.0013393842e+00	 2.0453091534e-01	 2.6293762321e+00
 1.9994918714e+00	 2.2186575428e-01	 2.6009852196e+00
 1.9974878920e+00	 2.3923675770e-01	 2.5699634500e+00
 1.9953262741e+00	 2.5664203333e-01	 2.5365425424e+00
 1.9930058718e+00	 2.7407965715e-01	 2.5009702577e+00
 1.9905255663e+00	 2.9154767370e-01	 2.4635138926e+00
 1.9878842667e+00	 3.0904409646e-01	 2.4244638522e+00
 1.9850809110e+00	 3.2656690824e-01	 2.3841374283e+00
 1.9821144668e+00	 3.4411406161e-01	 2.3428828164e+00
 2.0162913140e+00	 1.7097106079e-01	 2.6572183479e+00
 2.0147441237e+00	 1.8832893079e-01	 2.6350184189e+00
 2.0130419849e+00	 2.0572688623e-01	 2.6097222028e+00
 2.0111836690e+00	 2.2316308864e-01	 2.5815428510e+00
 2.0091679716e+00	 2.4063566699e-01	 2.5507044062e+00
 2.0069937139e+00	 2.5814271796e-01	 2.5174447870e+00
 2.0046597433e+00	 2.7568230627e-01	 2.4820188876e+00
 2.0021649345e+00	 2.9325246503e-01	 2.4447018179e+00
 1.9995081902e+00	 3.1085119609e-01	 2.4057923182e+00
 1.9966884422e+00	 3.2847647049e-01	 2.3656163761e+00
 1.9937046521e+00	 3.4612622882e-01	 2.3245310830e+00
 2.0280128309e+00	 1.7196498472e-01	 2.6373871874e+00
 2.0264566462e+00	 1.8942376304e-01	 2.6154675917e+00
 2.0247446122e+00	 2.0692285983e-01	 2.5904166673e+00
 2.0228754932e+00	 2.2446042594e-01	 2.5624491499e+00
 2.0208480777e+00	 2.4203457946e-01	 2.5317917936e+00
 2.0186611801e+00	 2.5964340599e-01	 2.4986862071e+00
 2.0163136412e+00	 2.7728495902e-01	 2.4633917968e+00
 2.0138043290e+00	 2.9495726022e-01	 2.4261888461e+00
 2.0111321400e+00	 3.1265829983e-01	 2.3873817625e+00
 2.0082959997e+00	 3.3038603708e-01	 2.3473025274e+00
 2.0052948637e+00	 3.4813840059e-01	 2.3063143812e+00
 2.0397343877e+00	 1.7295891203e-01	 2.6179490308e+00
 2.0381692085e+00	 1.9051859901e-01	 2.5963040547e+00
 2.0364472793e+00	 2.0811883750e-01	 2.5714937174e+00
 2.0345673570e+00	 2.2575776765e-01	 2.5437318622e+00
 2.0325282235e+00	 2.4343349668e-01	 2.5132454843e+00
 2.0303286860e+00	 2.6114409913e-01	 2.4802774111e+00
 2.0279675787e+00	 2.7888761723e-01	 2.4450890809e+00
 2.0254437632e+00	 2.9666206121e-01	 2.4079634530e+00
 2.0227561294e+00	 3.1446540971e-01	 2.3692080795e+00
 2.0199035967e+00	 3.3229561015e-01	 2.3291583778e+00
 2.0168851146e+00	 3.5015057920e-01	 2.2881811372e+00
 2.0514559977e+00	 1.7395284384e-01	 2.5989454563e+00
 2.0498818239e+00	 1.9161343995e-01	 2.5775668365e+00
 2.0481499994e+00	 2.0931482059e-01	 2.5529880303e+00
 2.0462592739e+00	 2.2705511524e-01	 2.5254196443e+00
 2.0442084222e+00	 2.4483242024e-01	 2.4950865809e+00
 2.0419962448e+00	 2.6264479907e-01	 2.4622305537e+00
 2.0396215691e+00	 2.8049028269e-01	 2.4271126948e+00
 2.0370832501e+00	 2.9836686993e-01	 2.3900162850e+00
 2.0343801714e+00	 3.1627252778e-01	 2.3512496434e+00
 2.0315112463e+00	 3.3420519188e-01	 2.3111492127e+00
 2.0284754181e+00	 3.5216276693e-01	 2.2700828780e+00
 1.9125731713e+00	 3.3204102645e-01	 2.4591168381e+00
 1.9095529967e+00	 3.4899114909e-01	 2.4138214132e+00
 1.9063736054e+00	 3.6596072063e-01	 2.3653471431e+00
 1.9030340914e+00	 3.8294768633e-01	 2.3143071122e+00
 1.8995335805e+00	 3.9994996428e-01	 2.2613522382e+00
 1.8958712314e+00	 4.1696544594e-01	 2.2065956766e+00
 1.8920462363e+00	 4.3399199669e-01	 2.1501356232e+00
 1.8880578218e+00	 4.5102745644e-01	 2.0920793169e+00
 1.8839052497e+00	 4.6806964024e-01	 2.0325446219e+00
 1.8795878178e+00	 4.8511633894e-01	 1.9716618319e+00
 1.8751048606e+00	 5.0216531982e-01	 1.9095757186e+00
 1.9241634748e+00	 3.3405321418e-01	 2.4386936503e+00
 1.9211249977e+00	 3.5110605553e-01	 2.3937668606e+00
 1.9179263392e+00	 3.6817846365e-01	 2.3456662557e+00
 1.9145665875e+00	 3.8526837134e-01	 2.2950479166e+00
 1.9110448633e+00	 4.0237368408e-01	 2.2425003534e+00
 1.9073603202e+00	 4.1949228053e-01	 2.1881068523e+00
 1.9035121454e+00	 4.3662201316e-01	 2.1319516508e+00
 1.8994995609e+00	 4.5376070878e-01	 2.0741272412e+00
 1.8953218239e+00	 4.7090616920e-01	 2.0147358720e+00
 1.8909782281e+00	 4.8805617187e-01	 1.9538912778e+00
 1.8864681040e+00	 5.0520847055e-01	 1.8917206607e+00
 1.9357537258e+00	 3.3606539279e-01	 2.4187820901e+00
 1.9326969463e+00	 3.5322095239e-01	 2.3742272057e+00
 1.9294790205e+00	 3.7039619663e-01	 2.3264904281e+00
 1.9260990313e+00	 3.8758904584e-01	 2.2762965321e+00
 1.9225560940e+00	 4.0479739289e-01	 2.2241479062e+00
 1.9188493569e+00	 4.2201910368e-01	 2.1701124727e+00
 1.9149780025e+00	 4.3925201771e-01	 2.1142644659e+00
 1.9109412480e+00	 4.5649394873e-01	 2.0566856333e+00
 1.9067383464e+00	 4.7374268530e-01	 1.9974666467e+00
 1.9023685869e+00	 4.9099599147e-01	 1.9367087470e+00
 1.8978312958e+00	 5.0825160749e-01	 1.8745256489e+00
 1.9473439373e+00	 3.3807756455e-01	 2.3993112122e+00
 1.9442688556e+00	 3.5533584207e-01	 2.3551152120e+00
 1.9410316626e+00	 3.7261392206e-01	 2.3077230812e+00
 1.9376314360e+00	 3.8990971245e-01	 2.2579366948e+00
 1.9340672855e+00	 4.0722109346e-01	 2.2061637700e+00
 1.9303383545e+00	 4.2454591823e-01	 2.1524667685e+00
 1.9264438206e+00	 4.4188201333e-01	 2.0969138739e+00
 1.9223828963e+00	 4.5922717939e-01	 2.0395800868e+00
 1.9181548301e+00	 4.7657919175e-01	 1.9805485351e+00
 1.9137589068e+00	 4.9393580108e-01	 1.9199120247e+00
 1.9091944490e+00	 5.1129473409e-01	 1.8577748548e+00
 1.9589341226e+00	 3.4008973176e-01	 2.3802133927e+00
 1.9558407386e+00	 3.5745072694e-01	 2.3363473325e+00
 1.9525842786e+00	 3.7483164247e-01	 2.2892730641e+00
 1.9491638144e+00	 3.9223037380e-01	 2.2398564229e+00
 1.9455784509e+00	 4.0964478854e-01	 2.1884213396e+00
 1.9418273261e+00	 4.2707272706e-01	 2.1350287127e+00
 1.9379096127e+00	 4.4451200298e-01	 2.0797446268e+00
 1.9338245187e+00	 4.6196040385e-01	 2.0226413320e+00
 1.9295712879e+00	 4.7941569177e-01	 1.9637984432e+00
 1.9251492010e+00	 4.9687560403e-01	 1.9033043843e+00
 1.9205575765e+00	 5.1433785378e-01	 1.8412581056e+00
 1.9705242947e+00	 3.4210189669e-01	 2.3614242918e+00
 1.9674126085e+00	 3.5956560942e-01	 2.3178436614e+00
 1.9641368814e+00	 3.7704936037e-01	 2.2710471597e+00
 1.9606961799e+00	 3.9455103251e-01	 2.2219479252e+00
 1.9570896032e+00	 4.1206848088e-01	 2.1707984285e+00
 1.9533162846e+00	 4.2959953302e-01	 2.1176619056e+00
 1.9493753919e+00	 4.4714198965e-01	 2.0626062970e+00
 1.9452661281e+00	 4.6469362522e-01	 2.0057051003e+00
 1.9409877327e+00	 4.8225218858e-01	 1.9470384475e+00
 1.9365394823e+00	 4.9981540364e-01	 1.8866944325e+00
 1.9319206911e+00	 5.1738097003e-01	 1.8247707186e+00
 1.9821144668e+00	 3.4411406161e-01	 2.3428828164e+00
 1.9789844784e+00	 3.6168049191e-01	 2.2995278851e+00
 1.9756894842e+00	 3.7926707826e-01	 2.2529560160e+00
 1.9722285453e+00	 3.9687169123e-01	 2.2041075124e+00
 1.9686007556e+00	 4.1449217321e-01	 2.1531771678e+00
 1.9648052432e+00	 4.3212633898e-01	 2.1002344632e+00
 1.9608411710e+00	 4.4977197632e-01	 2.0453531550e+00
 1.9567077375e+00	 4.6742684659e-01	 1.9886119906e+00
 1.9524041776e+00	 4.8508868539e-01	 1.9300956520e+00
 1.9479297635e+00	 5.0275520326e-01	 1.8698959559e+00
 1.9432838057e+00	 5.2042408628e-01	 1.8081133395e+00
 1.9937046521e+00	 3.4612622882e-01	 2.3245310830e+00
 1.9905563614e+00	 3.6379537678e-01	 2.2813272349e+00
 1.9872421002e+00	 3.8148479867e-01	 2.2349140693e+00
 1.9837609238e+00	 3.9919235258e-01	 2.1862355084e+00
 1.9801119210e+00	 4.1691586829e-01	 2.1354439067e+00
 1.9762942148e+00	 4.3465314781e-01	 2.0826189064e+00
 1.9723069631e+00	 4.5240196597e-01	 2.0278440483e+00
 1.9681493598e+00	 4.7016007105e-01	 1.9712073385e+00
 1.9638206353e+00	 4.8792518542e-01	 1.9128020477e+00
 1.9593200577e+00	 5.0569500620e-01	 1.8527277714e+00
 1.9546469332e+00	 5.2346720598e-01	 1.7910917839e+00
 2.0052948637e+00	 3.4813840059e-01	 2.3063143812e+00
 2.0021282707e+00	 3.6591026646e-01	 2.2631724391e+00
 1.9987947423e+00	 3.8370252411e-01	 2.2168394694e+00
 1.9952933284e+00	 4.0151301919e-01	 2.1682361642e+00
 1.9916231125e+00	 4.1933956886e-01	 2.1174891146e+00
 1.9877832124e+00	 4.3717996236e-01	 2.0646920525e+00
 1.9837727812e+00	 4.5503196158e-01	 2.0099422822e+00
 1.9795910081e+00	 4.7289330171e-01	 1.9533410874e+00
 1.9752371190e+00	 4.9076169187e-01	 1.8949943738e+00
 1.9707103777e+00	 5.0863481581e-01	 1.8350135790e+00
 1.9660100864e+00	 5.2651033257e-01	 1.7735168811e+00
 2.0168851146e+00	 3.5015057920e-01	 2.2881811372e+00
 2.0137002193e+00	 3.6802516332e-01	 2.2449976774e+00
 2.0103474237e+00	 3.8592025708e-01	 2.1986540054e+00
 2.0068257722e+00	 4.0383369369e-01	 2.1500175717e+00
 2.0031343431e+00	 4.2176327768e-01	 2.0992072846e+00
 1.9992722491e+00	 4.3970678550e-01	 2.0463349083e+00
 1.9952386383e+00	 4.5766196613e-01	 1.9915155033e+00
 1.9910326953e+00	 4.7562654166e-01	 1.9348676620e+00
 1.9866536415e+00	 4.9359820797e-01	 1.8765139831e+00
 1.9821007364e+00	 5.1157463541e-01	 1.8165818173e+00
 1.9773732782e+00	 5.2955346951e-01	 1.7552043215e+00
 2.0284754181e+00	 3.5216276693e-01	 2.2700828780e+00
 2.0252722203e+00	 3.7014006976e-01	 2.2267405344e+00
 2.0219001574e+00	 3.8813800011e-01	 2.1802830322e+00
 2.0183582683e+00	 4.0615437870e-01	 2.1314915800e+00
 2.0146456259e+00	 4.2418699748e-01	 2.0804968387e+00
 2.0107613379e+00	 4.4223362010e-01	 2.0274325649e+00
 2.0067045474e+00	 4.6029198261e-01	 1.9724355844e+00
 2.0024744343e+00	 4.7835979400e-01	 1.9156458446e+00
 1.9980702157e+00	 4.9643473693e-01	 1.8572067077e+00
 1.9934911467e+00	 5.1451446834e-01	 1.7972655220e+00
 1.9887365216e+00	 5.3259662025e-01	 1.7359745064e+00
 1.8751048606e+00	 5.0216531982e-01	 1.9095757186e+00
 1.8704557506e+00	 5.1921432756e-01	 1.8457894358e+00
 1.8656398999e+00	 5.3626108571e-01	 1.7796960492e+00
 1.8606567604e+00	 5.5330329671e-01	 1.7113089215e+00
 1.8555058234e+00	 5.7033864247e-01	 1.6406730305e+00
 1.8501866206e+00	 5.8736478517e-01	 1.5678849366e+00
 1.8446987248e+00	 6.0437936805e-01	 1.4933809271e+00
 1.8390417507e+00	 6.2138001628e-01	 1.4176846089e+00
 1.8332153550e+00	 6.3836433784e-01	 1.3413320015e+00
 1.8272192376e+00	 6.5532992438e-01	 1.2649238085e+00
 1.8210531420e+00	 6.7227435215e-01	 1.1891246159e+00
 1.8864681040e+00	 5.0520847055e-01	 1.8917206607e+00
 1.8817908200e+00	 5.2236079627e-01	 1.8277791368e+00
 1.8769457851e+00	 5.3951085875e-01	 1.7615697181e+00
 1.8719324474e+00	 5.5665634652e-01	 1.6931728470e+00
 1.8667502954e+00	 5.7379492746e-01	 1.6226984134e+00
 1.8613988580e+00	 5.9092424956e-01	 1.5502895795e+00
 1.8558777053e+00	 6.0804194179e-01	 1.4761269794e+00
 1.8501864495e+00	 6.2514561494e-01	 1.4004579706e+00
 1.8443247455e+00	 6.4223286246e-01	 1.3240473716e+00
 1.8382922913e+00	 6.5930126143e-01	 1.2476734924e+00
 1.8320888288e+00	 6.7634837341e-01	 1.1720674622e+00
 1.8978312958e+00	 5.0825160749e-01	 1.8745256489e+00
 1.8931258381e+00	 5.2550725071e-01	 1.8105126452e+00
 1.8882516190e+00	 5.4276061705e-01	 1.7442601305e+00
 1.8832080834e+00	 5.6000938114e-01	 1.6759036468e+00
 1.8779947165e+00	 5.7725119679e-01	 1.6056061588e+00
 1.8726110445e+00	 5.9448369783e-01	 1.5335617451e+00
 1.8670566350e+00	 6.1170449894e-01	 1.4599996802e+00
 1.8613310978e+00	 6.2891119652e-01	 1.3851889245e+00
 1.8554340857e+00	 6.4610136954e-01	 1.3094430404e+00
 1.8493652948e+00	 6.6327258048e-01	 1.2331977408e+00
 1.8431244656e+00	 6.8042237620e-01	 1.1576275626e+00
 1.9091944490e+00	 5.1129473409e-01	 1.8577748548e+00
 1.9044608177e+00	 5.2865369445e-01	 1.7937633109e+00
 1.8995574145e+00	 5.4601036431e-01	 1.7275354053e+00
 1.8944836810e+00	 5.6336240436e-01	 1.6592700822e+00
 1.8892390994e+00	 5.8070745436e-01	 1.5891718217e+00
 1.8838231930e+00	 5.9804313399e-01	 1.5174742109e+00
 1.8782355268e+00	 6.1536704363e-01	 1.4444439208e+00
 1.8724757082e+00	 6.3267676530e-01	 1.3703851068e+00
 1.8665433881e+00	 6.4996986348e-01	 1.2956442524e+00
 1.8604382607e+00	 6.6724388602e-01	 1.2206154703e+00
 1.8541600649e+00	 6.8449636514e-01	 1.1457462778e+00
 1.9205575765e+00	 5.1433785378e-01	 1.8412581056e+00
 1.9157957716e+00	 5.3180013106e-01	 1.7773102420e+00
 1.9108631843e+00	 5.4926010420e-01	 1.7111693940e+00
 1.9057592530e+00	 5.6671541998e-01	 1.6430464896e+00
 1.9004834568e+00	 5.8416370410e-01	 1.5731762387e+00
 1.8950353160e+00	 6.0160256208e-01	 1.5018205980e+00
 1.8894143932e+00	 6.1902958003e-01	 1.4292726559e+00
 1.8836202934e+00	 6.3644232555e-01	 1.3558609571e+00
 1.8776526653e+00	 6.5383834864e-01	 1.2819542873e+00
 1.8715112015e+00	 6.7121518257e-01	 1.2079669349e+00
 1.8651956392e+00	 6.8857034485e-01	 1.1343644456e+00
 1.9319206911e+00	 5.1738097003e-01	 1.8247707186e+00
 1.9271307126e+00	 5.3494656410e-01	 1.7609381322e+00
 1.9221689413e+00	 5.5250984041e-01	 1.6949415057e+00
 1.9170348123e+00	 5.7006843180e-01	 1.6270126064e+00
 1.9117278014e+00	 5.8761994993e-01	 1.5574053590e+00
 1.9062474264e+00	 6.0516198614e-01	 1.4863992164e+00
 1.9005932469e+00	 6.2269211227e-01	 1.4143029653e+00
 1.8947648660e+00	 6.4020788153e-01	 1.3414589880e+00
 1.8887619300e+00	 6.5770682942e-01	 1.2682480024e+00
 1.8825841298e+00	 6.7518647462e-01	 1.1950942983e+00
 1.8762312010e+00	 6.9264431994e-01	 1.1224714861e+00
 1.9432838057e+00	 5.2042408628e-01	 1.8081133395e+00
 1.9384656537e+00	 5.3809299715e-01	 1.7444370920e+00
 1.9334746984e+00	 5.5575957662e-01	 1.6786365347e+00
 1.9283103715e+00	 5.7342144362e-01	 1.6109534004e+00
 1.9229721461e+00	 5.9107619575e-01	 1.5416500798e+00
 1.9174595367e+00	 6.0872141020e-01	 1.4710129098e+00
 1.9117721007e+00	 6.2635464451e-01	 1.3993559126e+00
 1.9059094385e+00	 6.4397343751e-01	 1.3270250072e+00
 1.8998711946e+00	 6.6157531020e-01	 1.2544027184e+00
 1.8936570580e+00	 6.7915776666e-01	 1.1819134003e+00
 1.8872667628e+00	 6.9671829503e-01	 1.1100289960e+00
 1.9546469332e+00	 5.2346720598e-01	 1.7910917839e+00
 1.9498006075e+00	 5.4123943376e-01	 1.7276024834e+00
 1.9447804682e+00	 5.5900931652e-01	 1.6620444925e+00
 1.9395859436e+00	 5.7677445923e-01	 1.5946589025e+00
 1.9342165035e+00	 5.9453244549e-01	 1.5257060837e+00
 1.9286716597e+00	 6.1228083829e-01	 1.4554689030e+00
 1.9229509671e+00	 6.3001718090e-01	 1.3842564074e+00
 1.9170540237e+00	 6.4773899776e-01	 1.3124079986e+00
 1.9109804719e+00	 6.6544379537e-01	 1.2402981232e+00
 1.9047299988e+00	 6.8312906321e-01	 1.1683414983e+00
 1.8983023370e+00	 7.0079227473e-01	 1.0969988933e+00
 1.9660100864e+00	 5.2651033257e-01	 1.7735168811e+00
 1.9611355871e+00	 5.4438587750e-01	 1.7102347572e+00
 1.9560862637e+00	 5.6225906377e-01	 1.6449604420e+00
 1.9508615412e+00	 5.8012748245e-01	 1.5779240420e+00
 1.9454608863e+00	 5.9798870307e-01	 1.5093736797e+00
 1.9398838082e+00	 6.1584027445e-01	 1.4395786515e+00
 1.9341298588e+00	 6.3367972560e-01	 1.3688330680e+00
 1.9281986341e+00	 6.5150456655e-01	 1.2974600029e+00
 1.9220897743e+00	 6.6931228930e-01	 1.2258161769e+00
 1.9158029647e+00	 6.8710036876e-01	 1.1542971982e+00
 1.9093379363e+00	 7.0486626368e-01	 1.0833433814e+00
 1.9773732782e+00	 5.2955346951e-01	 1.7552043215e+00
 1.9724706052e+00	 5.4753233194e-01	 1.6921392935e+00
 1.9673920976e+00	 5.6550882208e-01	 1.6271843355e+00
 1.9621371771e+00	 5.8348051707e-01	 1.5605484851e+00
 1.9567053074e+00	 6.0144497239e-01	 1.4924576455e+00
 1.9510959947e+00	 6.1939972271e-01	 1.4231576933e+00
 1.9453087886e+00	 6.3734228274e-01	 1.3529180867e+00
 1.9393432824e+00	 6.5527014813e-01	 1.2820360003e+00
 1.9331991145e+00	 6.7318079638e-01	 1.2108410150e+00
 1.9268759682e+00	 6.9107168781e-01	 1.1397003860e+00
 1.9203735731e+00	 7.0894026647e-01	 1.0690249114e+00
 1.9887365216e+00	 5.3259662025e-01	 1.7359745064e+00
 1.9838056747e+00	 5.5067880065e-01	 1.6731262453e+00
 1.9786979827e+00	 5.6875859512e-01	 1.6085208546e+00
 1.9734128641e+00	 5.8683356689e-01	 1.5423364763e+00
 1.9679497795e+00	 6.0490125739e-01	 1.4747670742e+00
 1.9623082321e+00	 6.2295918711e-01	 1.4060255035e+00
 1.9564877690e+00	 6.4100485649e-01	 1.3363470964e+00
 1.9504879813e+00	 6.5903574679e-01	 1.2659937940e+00
 1.9443085050e+00	 6.7704932100e-01	 1.1952588540e+00
 1.9379490220e+00	 6.9504302486e-01	 1.1244721579e+00
 1.9314092600e+00	 7.1301428772e-01	 1.0540061433e+00
 1.8210531420e+00	 6.7227435215e-01	 1.1891246159e+00
 1.8147157638e+00	 6.8919805740e-01	 1.1123587089e+00
 1.8082079681e+00	 7.0609570391e-01	 1.0332234507e+00
 1.8015296311e+00	 7.2296482535e-01	 9.5270217778e-01
 1.7946806749e+00	 7.3980294386e-01	 8.7184251479e-01
 1.7876610676e+00	 7.5660757102e-01	 7.9039005897e-01
 1.7804708243e+00	 7.7337620893e-01	 7.0747602131e-01
 1.7731100070e+00	 7.9010635125e-01	 6.2370649392e-01
 1.7655787254e+00	 8.0679548427e-01	 5.3968560794e-01
 1.7578771370e+00	 8.2344108802e-01	 4.5601124680e-01
 1.7500054476e+00	 8.4004063737e-01	 3.7327538653e-01
 1.8320888288e+00	 6.7634837341e-01	 1.1720674622e+00
 1.8257130458e+00	 6.9337463729e-01	 1.0957824281e+00
 1.8191658125e+00	 7.1037468450e-01	 1.0174517200e+00
 1.8124470044e+00	 7.2734603379e-01	 9.3799170115e-01
 1.8055565430e+00	 7.4428619227e-01	 8.5832811458e-01
 1.7984943965e+00	 7.6119265644e-01	 7.7757107509e-01
 1.7912605799e+00	 7.7806291326e-01	 6.9549101043e-01
 1.7838551556e+00	 7.9489444120e-01	 6.1264796812e-01
 1.7762782340e+00	 8.1168471133e-01	 5.2959628034e-01
 1.7685299736e+00	 8.2843118840e-01	 4.4688442831e-01
 1.7606105813e+00	 8.4513133198e-01	 3.6505541282e-01
 1.8431244656e+00	 6.8042237620e-01	 1.1576275626e+00
 1.8367102779e+00	 6.9755119824e-01	 1.0815711570e+00
 1.8301236071e+00	 7.1465364570e-01	 1.0037463202e+00
 1.8233643281e+00	 7.3172722238e-01	 9.2501776871e-01
 1.8164323619e+00	 7.4876942036e-01	 8.4603769559e-01
 1.8093276764e+00	 7.6577772107e-01	 7.6570385946e-01
 1.8020502867e+00	 7.8274959635e-01	 6.8421190507e-01
 1.7946002556e+00	 7.9968250945e-01	 6.0208688460e-01
 1.7869776942e+00	 8.1657391623e-01	 5.1984779979e-01
 1.7791827619e+00	 8.3342126615e-01	 4.3800744341e-01
 1.7712156669e+00	 8.5022200350e-01	 3.5707276814e-01
 1.8541600649e+00	 6.8449636514e-01	 1.1457462778e+00
 1.8477074726e+00	 7.0172774500e-01	 1.0697817021e+00
 1.8410813646e+00	 7.1893259235e-01	 9.9220183977e-01
 1.8342816148e+00	 7.3610839606e-01	 9.1390063981e-01
 1.8273081438e+00	 7.5325263320e-01	 8.3513774233e-01
 1.8201609194e+00	 7.7036277012e-01	 7.5496164820e-01
 1.8128399567e+00	 7.8743626350e-01	 6.7380219926e-01
 1.8053453191e+00	 8.0447056142e-01	 5.9216444614e-01
 1.7976771180e+00	 8.2146310450e-01	 5.1054633582e-01
 1.7898355140e+00	 8.3841132695e-01	 4.2943849706e-01
 1.7818207165e+00	 8.5531265772e-01	 3.4932457569e-01
 1.8651956392e+00	 6.8857034485e-01	 1.1343644456e+00
 1.8587046424e+00	 7.0590428228e-01	 1.0598223189e+00
 1.8520390971e+00	 7.2321152931e-01	 9.8291637552e-01
 1.8451988766e+00	 7.4048955982e-01	 9.0476413610e-01
 1.8381839010e+00	 7.5773583589e-01	 8.2580107287e-01
 1.8309941378e+00	 7.7494780877e-01	 7.4551950697e-01
 1.8236296023e+00	 7.9212292002e-01	 6.6442714911e-01
 1.8160903581e+00	 8.0925860254e-01	 5.8302385354e-01
 1.8083765176e+00	 8.2635228170e-01	 5.0180060278e-01
 1.8004882420e+00	 8.4340137643e-01	 4.2123920386e-01
 1.7924257421e+00	 8.6040330040e-01	 3.4181255806e-01
 1.8762312010e+00	 6.9264431994e-01	 1.1224714861e+00
 1.8697017997e+00	 7.1008081484e-01	 1.0492339670e+00
 1.8629968173e+00	 7.2749046141e-01	 9.7410701935e-01
 1.8561161262e+00	 7.4487071861e-01	 8.9738649590e-01
 1.8490596460e+00	 7.6221903349e-01	 8.1820259463e-01
 1.8418273440e+00	 7.7953284223e-01	 7.3755422641e-01
 1.8344192357e+00	 7.9680957124e-01	 6.5625365908e-01
 1.8268353850e+00	 8.1404663824e-01	 5.7481017457e-01
 1.8190759050e+00	 8.3124145335e-01	 4.9372170316e-01
 1.8111409578e+00	 8.4839142026e-01	 4.1347439720e-01
 1.8030307556e+00	 8.6549393731e-01	 3.3454280352e-01
 1.8872667628e+00	 6.9671829503e-01	 1.1100289960e+00
 1.8806989571e+00	 7.1425734739e-01	 1.0377792066e+00
 1.8739545375e+00	 7.3176939352e-01	 9.6405155434e-01
 1.8670333757e+00	 7.4925187741e-01	 8.8895481591e-01
 1.8599353909e+00	 7.6670223109e-01	 8.1139034631e-01
 1.8526605502e+00	 7.8411787569e-01	 7.3123321119e-01
 1.8452088691e+00	 8.0149622246e-01	 6.4945016285e-01
 1.8375804120e+00	 8.1883467393e-01	 5.6767020800e-01
 1.8297752924e+00	 8.3613062500e-01	 4.8642296662e-01
 1.8217936737e+00	 8.5338146408e-01	 4.0621193519e-01
 1.8136357692e+00	 8.7058457422e-01	 3.2752553053e-01
 1.8983023370e+00	 7.0079227473e-01	 1.0969988933e+00
 1.8916961269e+00	 7.1843388468e-01	 1.0254635209e+00
 1.8849122701e+00	 7.3604833047e-01	 9.5278941696e-01
 1.8779506376e+00	 7.5363304117e-01	 8.7883532134e-01
 1.8708111481e+00	 7.7118543378e-01	 8.0265244284e-01
 1.8634937686e+00	 7.8870291434e-01	 7.2428907152e-01
 1.8559985147e+00	 8.0618287898e-01	 6.4386173433e-01
 1.8483254510e+00	 8.2362271505e-01	 5.6175234279e-01
 1.8404746920e+00	 8.4101980220e-01	 4.8001978505e-01
 1.8324464017e+00	 8.5837151356e-01	 3.9952250362e-01
 1.8242407947e+00	 8.7567521690e-01	 3.2077485057e-01
 1.9093379363e+00	 7.0486626368e-01	 1.0833433814e+00
 1.9026933216e+00	 7.2261043144e-01	 1.0122916652e+00
 1.8958700275e+00	 7.4032727712e-01	 9.4035854997e-01
 1.8888679242e+00	 7.5801421485e-01	 8.6711688258e-01
 1.8816869300e+00	 7.7566864662e-01	 7.9195227771e-01
 1.8743270116e+00	 7.9328796338e-01	 7.1498538238e-01
 1.8667881847e+00	 8.1086954613e-01	 6.3634591234e-01
 1.8590705145e+00	 8.2841076702e-01	 5.5617348635e-01
 1.8511741158e+00	 8.4590899047e-01	 4.7462944367e-01
 1.8430991538e+00	 8.6336157436e-01	 3.9347941594e-01
 1.8348458443e+00	 8.8076587112e-01	 3.1430852927e-01
 1.9203735731e+00	 7.0894026647e-01	 1.0690249114e+00
 1.9136905537e+00	 7.2678699239e-01	 9.9826765957e-01
 1.9068278221e+00	 7.4460623832e-01	 9.2676302518e-01
 1.8997852479e+00	 7.6239540344e-01	 8.5388431177e-01
 1.8925627489e+00	 7.8015187471e-01	 7.7938710590e-01
 1.8851602915e+00	 7.9787302802e-01	 7.0342189643e-01
 1.8775778915e+00	 8.1555622922e-01	 6.2614399172e-01
 1.8698156144e+00	 8.3319883527e-01	 5.4771462535e-01
 1.8618735759e+00	 8.5079819537e-01	 4.6830229002e-01
 1.8537519421e+00	 8.6835165211e-01	 3.8808430337e-01
 1.8454509299e+00	 8.8585654265e-01	 3.0814774600e-01
 1.9314092600e+00	 7.1301428772e-01	 1.0540061433e+00
 1.9246878357e+00	 7.3096357228e-01	 9.8339478005e-01
 1.9177856665e+00	 7.4888521892e-01	 9.1200692014e-01
 1.9107026212e+00	 7.6677661188e-01	 8.3921844400e-01
 1.9034386170e+00	 7.8463512312e-01	 7.6504987600e-01
 1.8959936204e+00	 8.0245811344e-01	 6.8969397030e-01
 1.8883676471e+00	 8.2024293355e-01	 6.1334380851e-01
 1.8805607631e+00	 8.3798692522e-01	 5.3619381110e-01
 1.8725730846e+00	 8.5568742243e-01	 4.5844098995e-01
 1.8644047787e+00	 8.7334175249e-01	 3.8028644610e-01
 1.8560560637e+00	 8.9094723725e-01	 3.0193711567e-01
 1.7500054476e+00	 8.4004063737e-01	 3.7327538653e-01
 1.7419652927e+00	 8.5658879394e-01	 2.9156793771e-01
 1.7337556506e+00	 8.7308585180e-01	 2.1056559938e-01
 1.7253768723e+00	 8.8952927753e-01	 1.3026524881e-01
 1.7168293578e+00	 9.0591653710e-01	 5.0648756589e-02
 1.7081135568e+00	 9.2224509702e-01	-2.8313337781e-02
 1.6992299684e+00	 9.3851242555e-01	-1.0665754466e-01
 1.6901791417e+00	 9.5471599390e-01	-1.8442253592e-01
 1.6809616755e+00	 9.7085327742e-01	-2.6164365221e-01
 1.6715782184e+00	 9.8692175679e-01	-3.3834681293e-01
 1.6620294690e+00	 1.0029189193e+00	-4.1454184077e-01
 1.7606105813e+00	 8.4513133198e-01	 3.6505541282e-01
 1.7525217026e+00	 8.6177977132e-01	 2.8404247950e-01
 1.7442623096e+00	 8.7837680230e-01	 2.0344317763e-01
 1.7358327554e+00	 8.9491987614e-01	 1.2332045811e-01
 1.7272334425e+00	 9.1140644344e-01	 4.3720710315e-02
 1.7184648232e+00	 9.2783395537e-01	-3.5322596774e-02
 1.7095273998e+00	 9.4419986485e-01	-1.1378464167e-01
 1.7004217246e+00	 9.6050162776e-01	-1.9164434369e-01
 1.6911484000e+00	 9.7673670415e-01	-2.6887882464e-01
 1.6817080786e+00	 9.9290255943e-01	-3.4545724600e-01
 1.6721014633e+00	 1.0089966656e+00	-4.2133403288e-01
 1.7712156669e+00	 8.5022200350e-01	 3.5707276814e-01
 1.7630780646e+00	 8.6697072517e-01	 2.7681087968e-01
 1.7547689210e+00	 8.8366772882e-01	 1.9671510476e-01
 1.7462885911e+00	 9.0031045032e-01	 1.1690352678e-01
 1.7376374800e+00	 9.1689632490e-01	 3.7476328842e-02
 1.7288160427e+00	 9.3342278840e-01	-4.1480583080e-02
 1.7198247845e+00	 9.4988727838e-01	-1.1989129858e-01
 1.7106642610e+00	 9.6628723540e-01	-1.9768496004e-01
 1.7013350783e+00	 9.8262010421e-01	-2.7479016049e-01
 1.6918378929e+00	 9.9888333495e-01	-3.5112868876e-01
 1.6821734118e+00	 1.0150743844e+00	-4.2660863332e-01
 1.7818207165e+00	 8.5531265772e-01	 3.4932457569e-01
 1.7736343908e+00	 8.7216166138e-01	 2.6980584034e-01
 1.7652754966e+00	 8.8895863735e-01	 1.9025636800e-01
 1.7567443913e+00	 9.0570100616e-01	 1.1083867970e-01
 1.7480414822e+00	 9.2238618770e-01	 3.1696264642e-02
 1.7391672271e+00	 9.3901160242e-01	-4.7042798672e-02
 1.7301221342e+00	 9.5557467257e-01	-1.2526153546e-01
 1.7209067626e+00	 9.7207282337e-01	-2.0284907833e-01
 1.7115217220e+00	 9.8850348427e-01	-2.7969498319e-01
 1.7019676727e+00	 1.0048640902e+00	-3.5568286354e-01
 1.6922453262e+00	 1.0211520826e+00	-4.3068335477e-01
 1.7924257421e+00	 8.6040330040e-01	 3.4181255806e-01
 1.7841906931e+00	 8.7735258581e-01	 2.6296594857e-01
 1.7757820485e+00	 8.9424953389e-01	 1.8394898534e-01
 1.7672001678e+00	 9.1109154979e-01	 1.0495817471e-01
 1.7584454608e+00	 9.2787603805e-01	 2.6170057817e-02
 1.7495183879e+00	 9.4460040378e-01	-5.2255154670e-02
 1.7404194606e+00	 9.6126205387e-01	-1.3016923366e-01
 1.7311492410e+00	 9.7785839822e-01	-2.0743086465e-01
 1.7217083426e+00	 9.9438685099e-01	-2.8389986369e-01
 1.7120974296e+00	 1.0108448318e+00	-3.5943068230e-01
 1.7023172177e+00	 1.0272297670e+00	-4.3386521285e-01
 1.8030307556e+00	 8.6549393731e-01	 3.3454280352e-01
 1.7947469833e+00	 8.8254350437e-01	 2.5623539800e-01
 1.7862885884e+00	 8.9954042443e-01	 1.7768168754e-01
 1.7776559324e+00	 9.1648208731e-01	 9.9101950270e-02
 1.7688494276e+00	 9.3336588218e-01	 2.0695754807e-02
 1.7598695371e+00	 9.5018919880e-01	-5.7354376009e-02
 1.7507167753e+00	 9.6694942872e-01	-1.3487855819e-01
 1.7413917078e+00	 9.8364396652e-01	-2.1171439206e-01
 1.7318949516e+00	 1.0002702110e+00	-2.8770106056e-01
 1.7222271750e+00	 1.0168255667e+00	-3.6267268645e-01
 1.7123890977e+00	 1.0333074445e+00	-4.3645095953e-01
 1.8136357692e+00	 8.7058457422e-01	 3.2752553053e-01
 1.8053032736e+00	 8.8773442293e-01	 2.4956371010e-01
 1.7967951284e+00	 9.0483131498e-01	 1.7134960111e-01
 1.7881116971e+00	 9.2187262483e-01	 9.3117275230e-02
 1.7792533944e+00	 9.3885572632e-01	 1.5079530207e-02
 1.7702206862e+00	 9.5577799383e-01	-6.2568402218e-02
 1.7610140900e+00	 9.7263680358e-01	-1.3964437558e-01
 1.7516341746e+00	 9.8942953482e-01	-2.1597406989e-01
 1.7420815607e+00	 1.0061535711e+00	-2.9138495497e-01
 1.7323569204e+00	 1.0228063015e+00	-3.6569948157e-01
 1.7224609778e+00	 1.0393851219e+00	-4.3872751162e-01
 1.8242407947e+00	 8.7567521690e-01	 3.2077485057e-01
 1.8158595759e+00	 8.9292534737e-01	 2.4290545515e-01
 1.8073016802e+00	 9.1012221152e-01	 1.6485393229e-01
 1.7985674736e+00	 9.2726316846e-01	 8.6858400658e-02
 1.7896573730e+00	 9.4434557667e-01	 9.1353115370e-03
 1.7805718471e+00	 9.6136679518e-01	-6.8116784494e-02
 1.7713114163e+00	 9.7832418487e-01	-1.4471266741e-01
 1.7618766530e+00	 9.9521510968e-01	-2.2047506834e-01
 1.7522681813e+00	 1.0120369378e+00	-2.9522848069e-01
 1.7424866773e+00	 1.0287870432e+00	-3.6879216723e-01
 1.7325328693e+00	 1.0454628063e+00	-4.4097237447e-01
 1.8348458443e+00	 8.8076587112e-01	 3.1430852927e-01
 1.8264159020e+00	 8.9811628357e-01	 2.3621997295e-01
 1.8178082559e+00	 9.1541312005e-01	 1.5810165183e-01
 1.8090232738e+00	 9.3265372431e-01	 8.0186213610e-02
 1.8000613751e+00	 9.4983543946e-01	 2.6844068483e-03
 1.7909230314e+00	 9.6695560921e-01	-7.4211079215e-02
 1.7816087661e+00	 9.8401157906e-01	-1.5032093983e-01
 1.7721191546e+00	 1.0010006976e+00	-2.2547373863e-01
 1.7624548249e+00	 1.0179203179e+00	-2.9949954955e-01
 1.7526164571e+00	 1.0347677984e+00	-3.7222276209e-01
 1.7426047837e+00	 1.0515405045e+00	-4.4345406119e-01
 1.8454509299e+00	 8.8585654265e-01	 3.0814774600e-01
 1.8369722641e+00	 9.0330723742e-01	 2.2947109320e-01
 1.8283148673e+00	 9.2070404657e-01	 1.5100518073e-01
 1.8194791095e+00	 9.3804429848e-01	 7.2967892764e-02
 1.8104654127e+00	 9.5532532092e-01	-4.4448649550e-03
 1.8012742509e+00	 9.7254444223e-01	-8.1055238055e-02
 1.7919061508e+00	 9.8969899259e-01	-1.5669862908e-01
 1.7823616910e+00	 1.0067863053e+00	-2.3121802880e-01
 1.7726415032e+00	 1.0238037180e+00	-3.0445747225e-01
 1.7627462714e+00	 1.0407485739e+00	-3.7625462447e-01
 1.7526767322e+00	 1.0576182233e+00	-4.4643250743e-01
 1.8560560637e+00	 8.9094723725e-01	 3.0193711567e-01
 1.8475286740e+00	 9.0849821480e-01	 2.2262685563e-01
 1.8388215263e+00	 9.2599499707e-01	 1.4348207676e-01
 1.8299349926e+00	 9.4343489709e-01	 6.5076565836e-02
 1.8208694974e+00	 9.6081522727e-01	-1.2417541202e-02
 1.8116255174e+00	 9.7813330059e-01	-8.8845994836e-02
 1.8022035822e+00	 9.9538643189e-01	-1.6406750325e-01
 1.7926042739e+00	 1.0125719391e+00	-2.3794789548e-01
 1.7828282277e+00	 1.0296871447e+00	-3.1035337501e-01
 1.7728761316e+00	 1.0467293765e+00	-3.8114286866e-01
 1.7627487265e+00	 1.0636959697e+00	-4.5015948210e-01
 1.6620294690e+00	 1.0029189193e+00	-4.1454184077e-01
 1.6523161762e+00	 1.0188422602e+00	-4.9070061173e-01
 1.6424391403e+00	 1.0346892852e+00	-5.6697564203e-01
 1.6323992116e+00	 1.0504575105e+00	-6.4284935446e-01
 1.6221972902e+00	 1.0661444638e+00	-7.1775486316e-01
 1.6118343255e+00	 1.0817476856e+00	-7.9106729296e-01
 1.6013113163e+00	 1.0972647304e+00	-8.6209468572e-01
 1.5906293101e+00	 1.1126931677e+00	-9.3008379235e-01
 1.5797894035e+00	 1.1280305835e+00	-9.9604224531e-01
 1.5687927412e+00	 1.1432745813e+00	-1.0609159380e+00
 1.5576405163e+00	 1.1584227837e+00	-1.1246151995e+00
 1.6721014633e+00	 1.0089966656e+00	-4.2133403288e-01
 1.6623293073e+00	 1.0250165029e+00	-4.9694135348e-01
 1.6523924160e+00	 1.0409595618e+00	-5.7244279111e-01
 1.6422916447e+00	 1.0568233434e+00	-6.4734343666e-01
 1.6320278991e+00	 1.0726053606e+00	-7.2110010048e-01
 1.6216021343e+00	 1.0883031389e+00	-7.9311229948e-01
 1.6110153550e+00	 1.1039142178e+00	-8.6271280563e-01
 1.6002686153e+00	 1.1194361523e+00	-9.2955055400e-01
 1.5893630182e+00	 1.1348665137e+00	-9.9514271272e-01
 1.5782997155e+00	 1.1502028911e+00	-1.0596803810e+00
 1.5670799074e+00	 1.1654428924e+00	-1.1231075135e+00
 1.6821734118e+00	 1.0150743844e+00	-4.2660863332e-01
 1.6723423931e+00	 1.0311907176e+00	-5.0163226337e-01
 1.6623456466e+00	 1.0472298100e+00	-5.7637401922e-01
 1.6521840331e+00	 1.0631891475e+00	-6.5035547548e-01
 1.6418584635e+00	 1.0790662281e+00	-7.2305100611e-01
 1.6313698988e+00	 1.0948585624e+00	-7.9387843966e-01
 1.6207193497e+00	 1.1105636751e+00	-8.6218924944e-01
 1.6099078767e+00	 1.1261791064e+00	-9.2845792926e-01
 1.5989365895e+00	 1.1417024130e+00	-9.9374346437e-01
 1.5878066467e+00	 1.1571311695e+00	-1.0579996105e+00
 1.5765192558e+00	 1.1724629693e+00	-1.1211976286e+00
 1.6922453262e+00	 1.0211520826e+00	-4.3068335477e-01
 1.6823554447e+00	 1.0373649114e+00	-5.0508238425e-01
 1.6722988433e+00	 1.0535000368e+00	-5.7906897814e-01
 1.6620763877e+00	 1.0695549300e+00	-6.5217513108e-01
 1.6516889944e+00	 1.0855270737e+00	-7.2388677458e-01
 1.6411376301e+00	 1.1014139636e+00	-7.9363410041e-01
 1.6304233115e+00	 1.1172131098e+00	-8.6094619865e-01
 1.6195471054e+00	 1.1329220375e+00	-9.2695495541e-01
 1.6085101282e+00	 1.1485382890e+00	-9.9198212366e-01
 1.5973135456e+00	 1.1640594243e+00	-1.0559998961e+00
 1.5859585721e+00	 1.1794830223e+00	-1.1190006450e+00
 1.7023172177e+00	 1.0272297670e+00	-4.3386521285e-01
 1.6923684737e+00	 1.0435390911e+00	-5.0759025786e-01
 1.6822520175e+00	 1.0597702495e+00	-5.8081700434e-01
 1.6719687200e+00	 1.0759206980e+00	-6.5308192175e-01
 1.6615195031e+00	 1.0919879046e+00	-7.2387661743e-01
 1.6509053392e+00	 1.1079693500e+00	-7.9263782803e-01
 1.6401272512e+00	 1.1238625294e+00	-8.5940189559e-01
 1.6291863123e+00	 1.1396649534e+00	-9.2518814455e-01
 1.6180836453e+00	 1.1553741496e+00	-9.8999401807e-01
 1.6068204229e+00	 1.1709876633e+00	-1.0538054289e+00
 1.5953978670e+00	 1.1865030595e+00	-1.1166297877e+00
 1.7123890977e+00	 1.0333074445e+00	-4.3645095953e-01
 1.7023814914e+00	 1.0497132639e+00	-5.0944434827e-01
 1.6922051804e+00	 1.0660404550e+00	-5.8189753146e-01
 1.6818610411e+00	 1.0822864589e+00	-6.5334562459e-01
 1.6713500006e+00	 1.0984487282e+00	-7.2328015151e-01
 1.6606730373e+00	 1.1145247289e+00	-7.9117793763e-01
 1.6498311800e+00	 1.1305119414e+00	-8.5771272795e-01
 1.6388255082e+00	 1.1464078616e+00	-9.2330160098e-01
 1.6276571515e+00	 1.1622100024e+00	-9.8791228520e-01
 1.6163272895e+00	 1.1779158946e+00	-1.0515384163e+00
 1.6048371512e+00	 1.1935230887e+00	-1.1141964908e+00
 1.7224609778e+00	 1.0393851219e+00	-4.3872751162e-01
 1.7123945090e+00	 1.0558874367e+00	-5.1092346055e-01
 1.7021583433e+00	 1.0723106606e+00	-5.8258049841e-01
 1.6917533621e+00	 1.0886522197e+00	-6.5322667228e-01
 1.6811804981e+00	 1.1049095518e+00	-7.2234778361e-01
 1.6704407354e+00	 1.1210801079e+00	-7.8968205380e-01
 1.6595351088e+00	 1.1371613535e+00	-8.5603117518e-01
 1.6484647041e+00	 1.1531507698e+00	-9.2143713589e-01
 1.6372306577e+00	 1.1690458551e+00	-9.8586797659e-01
 1.6258341560e+00	 1.1848441258e+00	-1.0493191750e+00
 1.6142764354e+00	 1.2005431178e+00	-1.1118104791e+00
 1.7325328693e+00	 1.0454628063e+00	-4.4097237447e-01
 1.7224075380e+00	 1.0620616164e+00	-5.1229715501e-01
 1.7121115175e+00	 1.0785808733e+00	-5.8312675330e-01
 1.7016456944e+00	 1.0950179877e+00	-6.5297654586e-01
 1.6910110068e+00	 1.1113703827e+00	-7.2132126398e-01
 1.6802084445e+00	 1.1276354942e+00	-7.8834646754e-01
 1.6692390485e+00	 1.1438107731e+00	-8.5450732993e-01
 1.6581039110e+00	 1.1598936857e+00	-9.1973437966e-01
 1.6468041748e+00	 1.1758817157e+00	-9.8399015926e-01
 1.6353410334e+00	 1.1917723649e+00	-1.0472662221e+00
 1.6237157303e+00	 1.2075631550e+00	-1.1095798492e+00
 1.7426047837e+00	 1.0515405045e+00	-4.4345406119e-01
 1.7324205897e+00	 1.0682358102e+00	-5.1382615722e-01
 1.7220647143e+00	 1.0848511001e+00	-5.8378845334e-01
 1.7115380491e+00	 1.1013837702e+00	-6.5283816383e-01
 1.7008415378e+00	 1.1178312282e+00	-7.2053337734e-01
 1.6899761758e+00	 1.1341908954e+00	-7.8732905037e-01
 1.6789430103e+00	 1.1504602077e+00	-8.5328901822e-01
 1.6677431396e+00	 1.1666366168e+00	-9.1833089166e-01
 1.6563777135e+00	 1.1827175917e+00	-9.8240601530e-01
 1.6448479322e+00	 1.1987006197e+00	-1.0454963641e+00
 1.6331550466e+00	 1.2145832080e+00	-1.1076111479e+00
 1.7526767322e+00	 1.0576182233e+00	-4.4643250743e-01
 1.7424336754e+00	 1.0744100249e+00	-5.1576276383e-01
 1.7320179448e+00	 1.0911213483e+00	-5.8480946094e-01
 1.7214304374e+00	 1.1077495743e+00	-6.5304626775e-01
 1.7106721021e+00	 1.1242920957e+00	-7.2025345256e-01
 1.6997439403e+00	 1.1407463190e+00	-7.8678533133e-01
 1.6886470050e+00	 1.1571096650e+00	-8.5252191703e-01
 1.6773824011e+00	 1.1733795709e+00	-9.1736226791e-01
 1.6659512848e+00	 1.1895534910e+00	-9.8124093938e-01
 1.6543548634e+00	 1.2056288981e+00	-1.0441247845e+00
 1.6425943949e+00	 1.2216032849e+00	-1.1060094503e+00
 1.7627487265e+00	 1.0636959697e+00	-4.5015948210e-01
 1.7524468065e+00	 1.0805842676e+00	-5.1835124452e-01
 1.7419712206e+00	 1.0973916249e+00	-5.8642573611e-01
 1.7313228706e+00	 1.1141154073e+00	-6.5384147590e-01
 1.7205027111e+00	 1.1307529925e+00	-7.2064412772e-01
 1.7095117490e+00	 1.1473017722e+00	-7.8686862168e-01
 1.6983510437e+00	 1.1637591524e+00	-8.5234966945e-01
 1.6870217063e+00	 1.1801225555e+00	-9.1696224643e-01
 1.6755248995e+00	 1.1963894212e+00	-9.8061863436e-01
 1.6638618377e+00	 1.2125572078e+00	-1.0432651297e+00
 1.6520337861e+00	 1.2286233937e+00	-1.1048784358e+00
 1.5576405163e+00	 1.1584227837e+00	-1.1246151995e+00
 1.5463320350e+00	 1.1734753815e+00	-1.1864648668e+00
 1.5348704743e+00	 1.1884274467e+00	-1.2456720257e+00
 1.5232571758e+00	 1.2032766552e+00	-1.3020116191e+00
 1.5114935281e+00	 1.2180207067e+00	-1.3552539291e+00
 1.4995809653e+00	 1.2326573255e+00	-1.4051616165e+00
 1.4875209670e+00	 1.2471842617e+00	-1.4514866745e+00
 1.4753150575e+00	 1.2615992925e+00	-1.4946345863e+00
 1.4629648055e+00	 1.2759002229e+00	-1.5379815953e+00
 1.4504718228e+00	 1.2900848872e+00	-1.5812092487e+00
 1.4378377643e+00	 1.3041511499e+00	-1.6233973067e+00
 1.5670799074e+00	 1.1654428924e+00	-1.1231075135e+00
 1.5557028962e+00	 1.1805867099e+00	-1.1847023776e+00
 1.5441718777e+00	 1.1956293854e+00	-1.2436405084e+00
 1.5324882020e+00	 1.2105685809e+00	-1.2997538410e+00
 1.5206532658e+00	 1.2254019822e+00	-1.3528696831e+00
 1.5086685122e+00	 1.2401272998e+00	-1.4028075401e+00
 1.4965354296e+00	 1.2547422701e+00	-1.4493758495e+00
 1.4842555517e+00	 1.2692446568e+00	-1.4923686475e+00
 1.4718304564e+00	 1.2836322516e+00	-1.5330556888e+00
 1.4592617655e+00	 1.2979028758e+00	-1.5741617926e+00
 1.4465511439e+00	 1.3120543810e+00	-1.6149082317e+00
 1.5765192558e+00	 1.1724629693e+00	-1.1211976286e+00
 1.5650737148e+00	 1.1876980060e+00	-1.1825601720e+00
 1.5534732389e+00	 1.2028312915e+00	-1.2412260029e+00
 1.5417191863e+00	 1.2178604737e+00	-1.2970836090e+00
 1.5298129621e+00	 1.2327832243e+00	-1.3500170059e+00
 1.5177560180e+00	 1.2475972403e+00	-1.3999023441e+00
 1.5055498514e+00	 1.2623002442e+00	-1.4466044194e+00
 1.4931960053e+00	 1.2768899864e+00	-1.4899731115e+00
 1.4806960671e+00	 1.2913642454e+00	-1.5298494998e+00
 1.4680516684e+00	 1.3057208290e+00	-1.5686537918e+00
 1.4552644839e+00	 1.3199575761e+00	-1.6077552717e+00
 1.5859585721e+00	 1.1794830223e+00	-1.1190006450e+00
 1.5744445016e+00	 1.1948092779e+00	-1.1801430065e+00
 1.5627745685e+00	 1.2100331730e+00	-1.2385243287e+00
 1.5509501392e+00	 1.2251523416e+00	-1.2940892385e+00
 1.5389726272e+00	 1.2401644414e+00	-1.3467781690e+00
 1.5268434928e+00	 1.2550671553e+00	-1.3965237435e+00
 1.5145642426e+00	 1.2698581927e+00	-1.4432470570e+00
 1.5021364285e+00	 1.2845352901e+00	-1.4868538820e+00
 1.4895616477e+00	 1.2990962128e+00	-1.5272308215e+00
 1.4768415414e+00	 1.3135387557e+00	-1.5645472723e+00
 1.4639777944e+00	 1.3278607445e+00	-1.6018129438e+00
 1.5953978670e+00	 1.1865030595e+00	-1.1166297877e+00
 1.5838152671e+00	 1.2019205337e+00	-1.1775539383e+00
 1.5720758770e+00	 1.2172350383e+00	-1.2356297396e+00
 1.5601810712e+00	 1.2324441930e+00	-1.2908575722e+00
 1.5481322715e+00	 1.2475456417e+00	-1.3432340238e+00
 1.5359309471e+00	 1.2625370535e+00	-1.3927480452e+00
 1.5235786133e+00	 1.2774161240e+00	-1.4393769990e+00
 1.5110768315e+00	 1.2921805764e+00	-1.4830826267e+00
 1.4984272082e+00	 1.3068281627e+00	-1.5238069591e+00
 1.4856313944e+00	 1.3213566646e+00	-1.5614681988e+00
 1.4726910851e+00	 1.3357638949e+00	-1.5969550538e+00
 1.6048371512e+00	 1.1935230887e+00	-1.1141964908e+00
 1.5931860220e+00	 1.2090317815e+00	-1.1748943979e+00
 1.5813771750e+00	 1.2244368954e+00	-1.2326349874e+00
 1.5694119927e+00	 1.2397360361e+00	-1.2874740355e+00
 1.5572919055e+00	 1.2549268336e+00	-1.3394640491e+00
 1.5450183910e+00	 1.2700069432e+00	-1.3886501895e+00
 1.5325929738e+00	 1.2849740468e+00	-1.4350660824e+00
 1.5200172243e+00	 1.2998258541e+00	-1.4787295416e+00
 1.5072927586e+00	 1.3145601039e+00	-1.5196382314e+00
 1.4944212375e+00	 1.3291745647e+00	-1.5577652980e+00
 1.4814043660e+00	 1.3436670363e+00	-1.5930550822e+00
 1.6142764354e+00	 1.2005431178e+00	-1.1118104791e+00
 1.6025567770e+00	 1.2161430293e+00	-1.1722642615e+00
 1.5906784730e+00	 1.2316387525e+00	-1.2296313846e+00
 1.5786429143e+00	 1.2470278793e+00	-1.2840226906e+00
 1.5664515395e+00	 1.2623080255e+00	-1.3355463982e+00
 1.5541058350e+00	 1.2774768328e+00	-1.3843037900e+00
 1.5416073343e+00	 1.2925319695e+00	-1.4303847787e+00
 1.5289576172e+00	 1.3074711318e+00	-1.4738633814e+00
 1.5161583091e+00	 1.3222920450e+00	-1.5147931288e+00
 1.5032110806e+00	 1.3369924647e+00	-1.5532024390e+00
 1.4901176469e+00	 1.3515701778e+00	-1.5890899861e+00
 1.6237157303e+00	 1.2075631550e+00	-1.1095798492e+00
 1.6119275425e+00	 1.2232542851e+00	-1.1697619210e+00
 1.5999797816e+00	 1.2388406178e+00	-1.2267088659e+00
 1.5878738463e+00	 1.2543197307e+00	-1.2805862899e+00
 1.5756111838e+00	 1.2696892258e+00	-1.3315579450e+00
 1.5631932893e+00	 1.2849467310e+00	-1.3797811741e+00
 1.5506217050e+00	 1.3000899008e+00	-1.4254022291e+00
 1.5378980201e+00	 1.3151164181e+00	-1.4685514898e+00
 1.5250238696e+00	 1.3300239949e+00	-1.5093386139e+00
 1.5120009337e+00	 1.3448103736e+00	-1.5478476472e+00
 1.4988309376e+00	 1.3594733282e+00	-1.5841321266e+00
 1.6331550466e+00	 1.2145832080e+00	-1.1076111479e+00
 1.6212983293e+00	 1.2303655570e+00	-1.1674843540e+00
 1.6092811112e+00	 1.2460424994e+00	-1.2239560488e+00
 1.5971047992e+00	 1.2616115986e+00	-1.2772463289e+00
 1.5847708489e+00	 1.2770704428e+00	-1.3275743293e+00
 1.5722807641e+00	 1.2924166460e+00	-1.3751534217e+00
 1.5596360962e+00	 1.3076478493e+00	-1.4201862781e+00
 1.5468384434e+00	 1.3227617218e+00	-1.4628598292e+00
 1.5338894501e+00	 1.3377559624e+00	-1.5033401483e+00
 1.5207908067e+00	 1.3526283003e+00	-1.5417672926e+00
 1.5075442481e+00	 1.3673764965e+00	-1.5782501336e+00
 1.6425943949e+00	 1.2216032849e+00	-1.1060094503e+00
 1.6306691479e+00	 1.2374768531e+00	-1.1655271915e+00
 1.6185824724e+00	 1.2532444054e+00	-1.2214602929e+00
 1.6063357835e+00	 1.2689034913e+00	-1.2740830974e+00
 1.5939305451e+00	 1.2844516850e+00	-1.3236700020e+00
 1.5813682699e+00	 1.2998865865e+00	-1.3704904048e+00
 1.5686505180e+00	 1.3152058234e+00	-1.4148035080e+00
 1.5557788970e+00	 1.3304070515e+00	-1.4568530102e+00
 1.5427550609e+00	 1.3454879561e+00	-1.4968617187e+00
 1.5295807096e+00	 1.3604462535e+00	-1.5350261136e+00
 1.5162575882e+00	 1.3752796917e+00	-1.5715109003e+00
 1.6520337861e+00	 1.2286233937e+00	-1.1048784358e+00
 1.6400400091e+00	 1.2445881814e+00	-1.1639847849e+00
 1.6278838758e+00	 1.2604463442e+00	-1.2193077589e+00
 1.6155668096e+00	 1.2761954171e+00	-1.2711757311e+00
 1.6030902829e+00	 1.2918329605e+00	-1.3199182695e+00
 1.5904558168e+00	 1.3073565608e+00	-1.3658608253e+00
 1.5776649807e+00	 1.3227638318e+00	-1.4093192712e+00
 1.5647193911e+00	 1.3380524158e+00	-1.4505943209e+00
 1.5516207118e+00	 1.3532199849e+00	-1.4899658622e+00
 1.5383706523e+00	 1.3682642421e+00	-1.5276872398e+00
 1.5249709677e+00	 1.3831829227e+00	-1.5639795203e+00
 1.4378377643e+00	 1.3041511499e+00	-1.6233973067e+00
 1.4250665060e+00	 1.3180945506e+00	-1.6636751584e+00
 1.4121576306e+00	 1.3319154385e+00	-1.7016474817e+00
 1.3991128934e+00	 1.3456117989e+00	-1.7371707746e+00
 1.3859340890e+00	 1.3591816515e+00	-1.7701361766e+00
 1.3726230511e+00	 1.3726230511e+00	-1.8004579034e+00
 1.3591816515e+00	 1.3859340890e+00	-1.8280614259e+00
 1.3456117989e+00	 1.3991128934e+00	-1.8528714865e+00
 1.3319154385e+00	 1.4121576306e+00	-1.8748000407e+00
 1.3180945506e+00	 1.4250665060e+00	-1.8937342175e+00
 1.3041511499e+00	 1.4378377643e+00	-1.9095243891e+00
 1.4465511439e+00	 1.3120543810e+00	-1.6149082317e+00
 1.4337024910e+00	 1.3260822794e+00	-1.6543992234e+00
 1.4207153871e+00	 1.3399869227e+00	-1.6921218739e+00
 1.4075915980e+00	 1.3537662838e+00	-1.7278090583e+00
 1.3943329293e+00	 1.3674183705e+00	-1.7612301476e+00
 1.3809412258e+00	 1.3809412258e+00	-1.7921790683e+00
 1.3674183705e+00	 1.3943329293e+00	-1.8204620955e+00
 1.3537662838e+00	 1.4075915980e+00	-1.8458854738e+00
 1.3399869227e+00	 1.4207153871e+00	-1.8682429574e+00
 1.3260822794e+00	 1.4337024910e+00	-1.8873033672e+00
 1.3120543810e+00	 1.4465511439e+00	-1.9027982579e+00
 1.4552644839e+00	 1.3199575761e+00	-1.6077552717e+00
 1.4423384369e+00	 1.3340699721e+00	-1.6462400205e+00
 1.4292731048e+00	 1.3480583703e+00	-1.6834884012e+00
 1.4160702642e+00	 1.3619207318e+00	-1.7191151643e+00
 1.4027317315e+00	 1.3756550522e+00	-1.7527734560e+00
 1.3892593627e+00	 1.3892593627e+00	-1.7841424778e+00
 1.3756550522e+00	 1.4027317315e+00	-1.8129148662e+00
 1.3619207318e+00	 1.4160702642e+00	-1.8387838905e+00
 1.3480583703e+00	 1.4292731048e+00	-1.8614305647e+00
 1.3340699721e+00	 1.4423384369e+00	-1.8805107731e+00
 1.3199575761e+00	 1.4552644839e+00	-1.8956425084e+00
 1.4639777944e+00	 1.3278607445e+00	-1.6018129438e+00
 1.4509743534e+00	 1.3420576375e+00	-1.6390847157e+00
 1.4378307935e+00	 1.3561297905e+00	-1.6756459701e+00
 1.4245489016e+00	 1.3700751521e+00	-1.7109987876e+00
 1.4111305053e+00	 1.3838917058e+00	-1.7446855953e+00
 1.3975774714e+00	 1.3975774714e+00	-1.7762763981e+00
 1.3838917058e+00	 1.4111305053e+00	-1.8053557184e+00
 1.3700751521e+00	 1.4245489016e+00	-1.8315093426e+00
 1.3561297905e+00	 1.4378307935e+00	-1.8543109768e+00
 1.3420576375e+00	 1.4509743534e+00	-1.8733089130e+00
 1.3278607445e+00	 1.4639777944e+00	-1.8880128104e+00
 1.4726910851e+00	 1.3357638949e+00	-1.5969550538e+00
 1.4596102504e+00	 1.3500452849e+00	-1.6328194419e+00
 1.4463884627e+00	 1.3642011924e+00	-1.6684921246e+00
 1.4330275198e+00	 1.3782295538e+00	-1.7033679298e+00
 1.4195292599e+00	 1.3921283409e+00	-1.7368840363e+00
 1.4058955613e+00	 1.4058955613e+00	-1.7685067507e+00
 1.3921283409e+00	 1.4195292599e+00	-1.7977179774e+00
 1.3782295538e+00	 1.4330275198e+00	-1.8240014870e+00
 1.3642011924e+00	 1.4463884627e+00	-1.8468290859e+00
 1.3500452849e+00	 1.4596102504e+00	-1.8656467958e+00
 1.3357638949e+00	 1.4726910851e+00	-1.8798611487e+00
 1.4814043660e+00	 1.3436670363e+00	-1.5930550822e+00
 1.4682461375e+00	 1.3580329232e+00	-1.6273296749e+00
 1.4549461222e+00	 1.3722725851e+00	-1.6619234120e+00
 1.4415061283e+00	 1.3863839464e+00	-1.6961292524e+00
 1.4279280051e+00	 1.4003649665e+00	-1.7292845684e+00
 1.4142136417e+00	 1.4142136417e+00	-1.7607574396e+00
 1.4003649665e+00	 1.4279280051e+00	-1.7899326262e+00
 1.3863839464e+00	 1.4415061283e+00	-1.8161973283e+00
 1.3722725851e+00	 1.4549461222e+00	-1.8389268425e+00
 1.3580329232e+00	 1.4682461375e+00	-1.8574702239e+00
 1.3436670363e+00	 1.4814043660e+00	-1.8711360668e+00
 1.4901176469e+00	 1.3515701778e+00	-1.5890899861e+00
 1.4768820247e+00	 1.3660205615e+00	-1.6225006093e+00
 1.4635037817e+00	 1.3803439779e+00	-1.6558357478e+00
 1.4499847369e+00	 1.3945383389e+00	-1.6891884303e+00
 1.4363267502e+00	 1.4086015922e+00	-1.7218016393e+00
 1.4225317221e+00	 1.4225317221e+00	-1.7529506781e+00
 1.4086015922e+00	 1.4363267502e+00	-1.7819286168e+00
 1.3945383389e+00	 1.4499847369e+00	-1.8080315154e+00
 1.3803439779e+00	 1.4635037817e+00	-1.8305435352e+00
 1.3660205615e+00	 1.4768820247e+00	-1.8487220559e+00
 1.3515701778e+00	 1.4901176469e+00	-1.8621144028e+00
 1.4988309376e+00	 1.3594733282e+00	-1.5841321266e+00
 1.4855179216e+00	 1.3740082089e+00	-1.6180403219e+00
 1.4720614510e+00	 1.3884153797e+00	-1.6501247798e+00
 1.4584633551e+00	 1.4026927407e+00	-1.6824505037e+00
 1.4447255049e+00	 1.4168382272e+00	-1.7143486953e+00
 1.4308498119e+00	 1.4308498119e+00	-1.7450073145e+00
 1.4168382272e+00	 1.4447255049e+00	-1.7736331826e+00
 1.4026927407e+00	 1.4584633551e+00	-1.7994366372e+00
 1.3884153797e+00	 1.4720614510e+00	-1.8216160703e+00
 1.3740082089e+00	 1.4855179216e+00	-1.8394011632e+00
 1.3594733282e+00	 1.4988309376e+00	-1.8529956198e+00
 1.5075442481e+00	 1.3673764965e+00	-1.5782501336e+00
 1.4941538382e+00	 1.3819958743e+00	-1.6126823813e+00
 1.4806191396e+00	 1.3964867999e+00	-1.6446862523e+00
 1.4669419925e+00	 1.4108471609e+00	-1.6758202305e+00
 1.4531242786e+00	 1.4250748809e+00	-1.7068385196e+00
 1.4391679206e+00	 1.4391679206e+00	-1.7368471575e+00
 1.4250748809e+00	 1.4531242786e+00	-1.7649721480e+00
 1.4108471609e+00	 1.4669419925e+00	-1.7903435180e+00
 1.3964867999e+00	 1.4806191396e+00	-1.8120792503e+00
 1.3819958743e+00	 1.4941538382e+00	-1.8298059547e+00
 1.3673764965e+00	 1.5075442481e+00	-1.8435907302e+00
 1.5162575882e+00	 1.3752796917e+00	-1.5715109003e+00
 1.5027897841e+00	 1.3899835669e+00	-1.6062562548e+00
 1.4891768573e+00	 1.4045582475e+00	-1.6388558810e+00
 1.4754206587e+00	 1.4190016089e+00	-1.6692024371e+00
 1.4615230809e+00	 1.4333115626e+00	-1.6991835714e+00
 1.4474860576e+00	 1.4474860576e+00	-1.7283893012e+00
 1.4333115626e+00	 1.4615230809e+00	-1.7558702398e+00
 1.4190016089e+00	 1.4754206587e+00	-1.7806815124e+00
 1.4045582475e+00	 1.4891768573e+00	-1.8020216181e+00
 1.3899835669e+00	 1.5027897841e+00	-1.8198367218e+00
 1.3752796917e+00	 1.5162575882e+00	-1.8337124902e+00
 1.5249709677e+00	 1.3831829227e+00	-1.5639795203e+00
 1.5114257691e+00	 1.3979712958e+00	-1.5988295035e+00
 1.4977346138e+00	 1.4126297317e+00	-1.6318131412e+00
 1.4838993633e+00	 1.4271560938e+00	-1.6624526044e+00
 1.4699219212e+00	 1.4415482816e+00	-1.6912963236e+00
 1.4558042323e+00	 1.4558042323e+00	-1.7195524493e+00
 1.4415482816e+00	 1.4699219212e+00	-1.7462513962e+00
 1.4271560938e+00	 1.4838993633e+00	-1.7703904828e+00
 1.4126297317e+00	 1.4977346138e+00	-1.7915383345e+00
 1.3979712958e+00	 1.5114257691e+00	-1.8093132802e+00
 1.3831829227e+00	 1.5249709677e+00	-1.8231754814e+00
 1.3041511499e+00	 1.4378377643e+00	-1.9095243891e+00
 1.2900848872e+00	 1.4504718228e+00	-1.9224830655e+00
 1.2759002229e+00	 1.4629648055e+00	-1.9326821026e+00
 1.2615992925e+00	 1.4753150575e+00	-1.9395296208e+00
 1.2471842617e+00	 1.4875209670e+00	-1.9427110274e+00
 1.2326573255e+00	 1.4995809653e+00	-1.9439649261e+00
 1.2180207067e+00	 1.5114935281e+00	-1.9436894572e+00
 1.2032766552e+00	 1.5232571758e+00	-1.9419670729e+00
 1.1884274467e+00	 1.5348704743e+00	-1.9388959964e+00
 1.1734753815e+00	 1.5463320350e+00	-1.9345864218e+00
 1.1584227837e+00	 1.5576405163e+00	-1.9291568034e+00
 1.3120543810e+00	 1.4465511439e+00	-1.9027982579e+00
 1.2979028758e+00	 1.4592617655e+00	-1.9149471065e+00
 1.2836322516e+00	 1.4718304564e+00	-1.9238260078e+00
 1.2692446568e+00	 1.4842555517e+00	-1.9289312005e+00
 1.2547422701e+00	 1.4965354296e+00	-1.9315460947e+00
 1.2401272998e+00	 1.5086685122e+00	-1.9324727453e+00
 1.2254019822e+00	 1.5206532658e+00	-1.9318348336e+00
 1.2105685809e+00	 1.5324882020e+00	-1.9297749810e+00
 1.1956293854e+00	 1.5441718777e+00	-1.9264506327e+00
 1.1805867099e+00	 1.5557028962e+00	-1.9220300115e+00
 1.1654428924e+00	 1.5670799074e+00	-1.9166881686e+00
 1.3199575761e+00	 1.4552644839e+00	-1.8956425084e+00
 1.3057208290e+00	 1.4680516684e+00	-1.9069455222e+00
 1.2913642454e+00	 1.4806960671e+00	-1.9144867237e+00
 1.2768899864e+00	 1.4931960053e+00	-1.9188186108e+00
 1.2623002442e+00	 1.5055498514e+00	-1.9212086967e+00
 1.2475972403e+00	 1.5177560180e+00	-1.9218189745e+00
 1.2327832243e+00	 1.5298129621e+00	-1.9208296451e+00
 1.2178604737e+00	 1.5417191863e+00	-1.9184391837e+00
 1.2028312915e+00	 1.5534732389e+00	-1.9148599719e+00
 1.1876980060e+00	 1.5650737148e+00	-1.9103140057e+00
 1.1724629693e+00	 1.5765192558e+00	-1.9050287074e+00
 1.3278607445e+00	 1.4639777944e+00	-1.8880128104e+00
 1.3135387557e+00	 1.4768415414e+00	-1.8984368303e+00
 1.2990962128e+00	 1.4895616477e+00	-1.9050705211e+00
 1.2845352901e+00	 1.5021364285e+00	-1.9093141507e+00
 1.2698581927e+00	 1.5145642426e+00	-1.9114813137e+00
 1.2550671553e+00	 1.5268434928e+00	-1.9117821835e+00
 1.2401644414e+00	 1.5389726272e+00	-1.9104492449e+00
 1.2251523416e+00	 1.5509501392e+00	-1.9077326203e+00
 1.2100331730e+00	 1.5627745685e+00	-1.9038954500e+00
 1.1948092779e+00	 1.5744445016e+00	-1.8992093534e+00
 1.1794830223e+00	 1.5859585721e+00	-1.8939500019e+00
 1.3357638949e+00	 1.4726910851e+00	-1.8798611487e+00
 1.3213566646e+00	 1.4856313944e+00	-1.8894738916e+00
 1.3068281627e+00	 1.4984272082e+00	-1.8960588628e+00
 1.2921805764e+00	 1.5110768315e+00	-1.9002062626e+00
 1.2774161240e+00	 1.5235786133e+00	-1.9021478545e+00
 1.2625370535e+00	 1.5359309471e+00	-1.9021423198e+00
 1.2475456417e+00	 1.5481322715e+00	-1.9004703001e+00
 1.2324441930e+00	 1.5601810712e+00	-1.8974294664e+00
 1.2172350383e+00	 1.5720758770e+00	-1.8933296457e+00
 1.2019205337e+00	 1.5838152671e+00	-1.8884880357e+00
 1.1865030595e+00	 1.5953978670e+00	-1.8832245378e+00
 1.3436670363e+00	 1.4814043660e+00	-1.8711360668e+00
 1.3291745647e+00	 1.4944212375e+00	-1.8806163426e+00
 1.3145601039e+00	 1.5072927586e+00	-1.8872512002e+00
 1.2998258541e+00	 1.5200172243e+00	-1.8912848831e+00
 1.2849740468e+00	 1.5325929738e+00	-1.8929936761e+00
 1.2700069432e+00	 1.5450183910e+00	-1.8926807214e+00
 1.2549268336e+00	 1.5572919055e+00	-1.8906707983e+00
 1.2397360361e+00	 1.5694119927e+00	-1.8873051338e+00
 1.2244368954e+00	 1.5813771750e+00	-1.8829362749e+00
 1.2090317815e+00	 1.5931860220e+00	-1.8779230559e+00
 1.1935230887e+00	 1.6048371512e+00	-1.8726256908e+00
 1.3515701778e+00	 1.4901176469e+00	-1.8621144028e+00
 1.3369924647e+00	 1.5032110806e+00	-1.8717965547e+00
 1.3222920450e+00	 1.5161583091e+00	-1.8784440668e+00
 1.3074711318e+00	 1.5289576172e+00	-1.8823414703e+00
 1.2925319695e+00	 1.5416073343e+00	-1.8838056037e+00
 1.2774768328e+00	 1.5541058350e+00	-1.8831801302e+00
 1.2623080255e+00	 1.5664515395e+00	-1.8808300543e+00
 1.2470278793e+00	 1.5786429143e+00	-1.8771362715e+00
 1.2316387525e+00	 1.5906784730e+00	-1.8724901865e+00
 1.2161430293e+00	 1.6025567770e+00	-1.8672884307e+00
 1.2005431178e+00	 1.6142764354e+00	-1.8619277137e+00
 1.3594733282e+00	 1.4988309376e+00	-1.8529956198e+00
 1.3448103736e+00	 1.5120009337e+00	-1.8628181123e+00
 1.3300239949e+00	 1.5250238696e+00	-1.8694355958e+00
 1.3151164181e+00	 1.5378980201e+00	-1.8731690317e+00
 1.3000899008e+00	 1.5506217050e+00	-1.8743719514e+00
 1.2849467310e+00	 1.5631932893e+00	-1.8734247060e+00
 1.2696892258e+00	 1.5756111838e+00	-1.8707287178e+00
 1.2543197307e+00	 1.5878738463e+00	-1.8667007683e+00
 1.2388406178e+00	 1.5999797816e+00	-1.8617673596e+00
 1.2232542851e+00	 1.6119275425e+00	-1.8563591825e+00
 1.2075631550e+00	 1.6237157303e+00	-1.8509057244e+00
 1.3673764965e+00	 1.5075442481e+00	-1.8435907302e+00
 1.3526283003e+00	 1.5207908067e+00	-1.8534862842e+00
 1.3377559624e+00	 1.5338894501e+00	-1.8600255552e+00
 1.3227617218e+00	 1.5468384434e+00	-1.8635621516e+00
 1.3076478493e+00	 1.5596360962e+00	-1.8644825429e+00
 1.2924166460e+00	 1.5722807641e+00	-1.8632000407e+00
 1.2770704428e+00	 1.5847708489e+00	-1.8601487819e+00
 1.2616115986e+00	 1.5971047992e+00	-1.8557777546e+00
 1.2460424994e+00	 1.6092811112e+00	-1.8505449006e+00
 1.2303655570e+00	 1.6212983293e+00	-1.8449113321e+00
 1.2145832080e+00	 1.6331550466e+00	-1.8393356954e+00
 1.3752796917e+00	 1.5162575882e+00	-1.8337124902e+00
 1.3604462535e+00	 1.5295807096e+00	-1.8436080658e+00
 1.3454879561e+00	 1.5427550609e+00	-1.8500153830e+00
 1.3304070515e+00	 1.5557788970e+00	-1.8533170193e+00
 1.3152058234e+00	 1.5686505180e+00	-1.8539287333e+00
 1.2998865865e+00	 1.5813682699e+00	-1.8522931732e+00
 1.2844516850e+00	 1.5939305451e+00	-1.8488735917e+00
 1.2689034913e+00	 1.6063357835e+00	-1.8441476063e+00
 1.2532444054e+00	 1.6185824724e+00	-1.8386010416e+00
 1.2374768531e+00	 1.6306691479e+00	-1.8327218926e+00
 1.2216032849e+00	 1.6425943949e+00	-1.8269944430e+00
 1.3831829227e+00	 1.5249709677e+00	-1.8231754814e+00
 1.3682642421e+00	 1.5383706523e+00	-1.8329922215e+00
 1.3532199849e+00	 1.5516207118e+00	-1.8392082223e+00
 1.3380524158e+00	 1.5647193911e+00	-1.8422314579e+00
 1.3227638318e+00	 1.5776649807e+00	-1.8425034305e+00
 1.3073565608e+00	 1.5904558168e+00	-1.8404926053e+00
 1.2918329605e+00	 1.6030902829e+00	-1.8366878544e+00
 1.2761954171e+00	 1.6155668096e+00	-1.8315919487e+00
 1.2604463442e+00	 1.6278838758e+00	-1.8257151392e+00
 1.2445881814e+00	 1.6400400091e+00	-1.8195688637e+00
 1.2286233937e+00	 1.6520337861e+00	-1.8136596184e+00
 1.1584227837e+00	 1.5576405163e+00	-1.9291568034e+00
 1.1432745813e+00	 1.5687927412e+00	-1.9211235079e+00
 1.1280305835e+00	 1.5797894035e+00	-1.9088213773e+00
 1.1126931677e+00	 1.5906293101e+00	-1.8920995218e+00
 1.0972647304e+00	 1.6013113163e+00	-1.8728185263e+00
 1.0817476856e+00	 1.6118343255e+00	-1.8534862255e+00
 1.0661444638e+00	 1.6221972902e+00	-1.8335175941e+00
 1.0504575105e+00	 1.6323992116e+00	-1.8123753549e+00
 1.0346892852e+00	 1.6424391403e+00	-1.7895896714e+00
 1.0188422602e+00	 1.6523161762e+00	-1.7647504595e+00
 1.0029189193e+00	 1.6620294690e+00	-1.7375000443e+00
 1.1654428924e+00	 1.5670799074e+00	-1.9166881686e+00
 1.1502028911e+00	 1.5782997155e+00	-1.9089495007e+00
 1.1348665137e+00	 1.5893630182e+00	-1.8971113945e+00
 1.1194361523e+00	 1.6002686153e+00	-1.8810096404e+00
 1.1039142178e+00	 1.6110153550e+00	-1.8610140774e+00
 1.0883031389e+00	 1.6216021343e+00	-1.8405638352e+00
 1.0726053606e+00	 1.6320278991e+00	-1.8197836408e+00
 1.0568233434e+00	 1.6422916447e+00	-1.7981170288e+00
 1.0409595618e+00	 1.6523924160e+00	-1.7750756314e+00
 1.0250165029e+00	 1.6623293073e+00	-1.7502312392e+00
 1.0089966656e+00	 1.6721014633e+00	-1.7232082287e+00
 1.1724629693e+00	 1.5765192558e+00	-1.9050287074e+00
 1.1571311695e+00	 1.5878066467e+00	-1.8975434123e+00
 1.1417024130e+00	 1.5989365895e+00	-1.8861294100e+00
 1.1261791064e+00	 1.6099078767e+00	-1.8706115118e+00
 1.1105636751e+00	 1.6207193497e+00	-1.8508085658e+00
 1.0948585624e+00	 1.6313698988e+00	-1.8291708454e+00
 1.0790662281e+00	 1.6418584635e+00	-1.8075118827e+00
 1.0631891475e+00	 1.6521840331e+00	-1.7852575246e+00
 1.0472298100e+00	 1.6623456466e+00	-1.7619021300e+00
 1.0311907176e+00	 1.6723423931e+00	-1.7370003713e+00
 1.0150743844e+00	 1.6821734118e+00	-1.7101594258e+00
 1.1794830223e+00	 1.5859585721e+00	-1.8939500019e+00
 1.1640594243e+00	 1.5973135456e+00	-1.8866769965e+00
 1.1485382890e+00	 1.6085101282e+00	-1.8756452260e+00
 1.1329220375e+00	 1.6195471054e+00	-1.8606708461e+00
 1.1172131098e+00	 1.6304233115e+00	-1.8415599883e+00
 1.1014139636e+00	 1.6411376301e+00	-1.8190475659e+00
 1.0855270737e+00	 1.6516889944e+00	-1.7964353128e+00
 1.0695549300e+00	 1.6620763877e+00	-1.7735202283e+00
 1.0535000368e+00	 1.6722988433e+00	-1.7497806401e+00
 1.0373649114e+00	 1.6823554447e+00	-1.7247550918e+00
 1.0211520826e+00	 1.6922453262e+00	-1.6980342904e+00
 1.1865030595e+00	 1.5953978670e+00	-1.8832245378e+00
 1.1709876633e+00	 1.6068204229e+00	-1.8761228029e+00
 1.1553741496e+00	 1.6180836453e+00	-1.8654293940e+00
 1.1396649534e+00	 1.6291863123e+00	-1.8509541181e+00
 1.1238625294e+00	 1.6401272512e+00	-1.8324955562e+00
 1.1079693500e+00	 1.6509053392e+00	-1.8099363500e+00
 1.0919879046e+00	 1.6615195031e+00	-1.7862892197e+00
 1.0759206980e+00	 1.6719687200e+00	-1.7626311526e+00
 1.0597702495e+00	 1.6822520175e+00	-1.7384256742e+00
 1.0435390911e+00	 1.6923684737e+00	-1.7131961717e+00
 1.0272297670e+00	 1.7023172177e+00	-1.6865175907e+00
 1.1935230887e+00	 1.6048371512e+00	-1.8726256908e+00
 1.1779158946e+00	 1.6163272895e+00	-1.8656541589e+00
 1.1622100024e+00	 1.6276571515e+00	-1.8552531906e+00
 1.1464078616e+00	 1.6388255082e+00	-1.8412285360e+00
 1.1305119414e+00	 1.6498311800e+00	-1.8233733134e+00
 1.1145247289e+00	 1.6606730373e+00	-1.8014648757e+00
 1.0984487282e+00	 1.6713500006e+00	-1.7768109052e+00
 1.0822864589e+00	 1.6818610411e+00	-1.7523186402e+00
 1.0660404550e+00	 1.6922051804e+00	-1.7275544712e+00
 1.0497132639e+00	 1.7023814914e+00	-1.7020275853e+00
 1.0333074445e+00	 1.7123890977e+00	-1.6752978573e+00
 1.2005431178e+00	 1.6142764354e+00	-1.8619277137e+00
 1.1848441258e+00	 1.6258341560e+00	-1.8550451526e+00
 1.1690458551e+00	 1.6372306577e+00	-1.8448885942e+00
 1.1531507698e+00	 1.6484647041e+00	-1.8312620109e+00
 1.1371613535e+00	 1.6595351088e+00	-1.8139551318e+00
 1.1210801079e+00	 1.6704407354e+00	-1.7927401711e+00
 1.1049095518e+00	 1.6811804981e+00	-1.7677394049e+00
 1.0886522197e+00	 1.6917533621e+00	-1.7423130688e+00
 1.0723106606e+00	 1.7021583433e+00	-1.7168866849e+00
 1.0558874367e+00	 1.7123945090e+00	-1.6909561818e+00
 1.0393851219e+00	 1.7224609778e+00	-1.6640670358e+00
 1.2075631550e+00	 1.6237157303e+00	-1.8509057244e+00
 1.1917723649e+00	 1.6353410334e+00	-1.8440706163e+00
 1.1758817157e+00	 1.6468041748e+00	-1.8341082637e+00
 1.1598936857e+00	 1.6581039110e+00	-1.8208231274e+00
 1.1438107731e+00	 1.6692390485e+00	-1.8040036097e+00
 1.1276354942e+00	 1.6802084445e+00	-1.7834186367e+00
 1.1113703827e+00	 1.6910110068e+00	-1.7588145345e+00
 1.0950179877e+00	 1.7016456944e+00	-1.7323465589e+00
 1.0785808733e+00	 1.7121115175e+00	-1.7061440763e+00
 1.0620616164e+00	 1.7224075380e+00	-1.6796913606e+00
 1.0454628063e+00	 1.7325328693e+00	-1.6525201443e+00
 1.2145832080e+00	 1.6331550466e+00	-1.8393356954e+00
 1.1987006197e+00	 1.6448479322e+00	-1.8325061116e+00
 1.1827175917e+00	 1.6563777135e+00	-1.8226855167e+00
 1.1666366168e+00	 1.6677431396e+00	-1.8096811156e+00
 1.1504602077e+00	 1.6789430103e+00	-1.7932820349e+00
 1.1341908954e+00	 1.6899761758e+00	-1.7732557526e+00
 1.1178312282e+00	 1.7008415378e+00	-1.7493448352e+00
 1.1013837702e+00	 1.7115380491e+00	-1.7221526838e+00
 1.0848511001e+00	 1.7220647143e+00	-1.6950502087e+00
 1.0682358102e+00	 1.7324205897e+00	-1.6679447494e+00
 1.0515405045e+00	 1.7426047837e+00	-1.6403549333e+00
 1.2216032849e+00	 1.6425943949e+00	-1.8269944430e+00
 1.2056288981e+00	 1.6543548634e+00	-1.8201279150e+00
 1.1895534910e+00	 1.6659512848e+00	-1.8103943101e+00
 1.1733795709e+00	 1.6773824011e+00	-1.7976058240e+00
 1.1571096650e+00	 1.6886470050e+00	-1.7815543493e+00
 1.1407463190e+00	 1.6997439403e+00	-1.7620077463e+00
 1.1242920957e+00	 1.7106721021e+00	-1.7387064341e+00
 1.1077495743e+00	 1.7214304374e+00	-1.7114661822e+00
 1.0911213483e+00	 1.7320179448e+00	-1.6833301445e+00
 1.0744100249e+00	 1.7424336754e+00	-1.6554298855e+00
 1.0576182233e+00	 1.7526767322e+00	-1.6272715505e+00
 1.2286233937e+00	 1.6520337861e+00	-1.8136596184e+00
 1.2125572078e+00	 1.6638618377e+00	-1.8067130037e+00
 1.1963894212e+00	 1.6755248995e+00	-1.7970092206e+00
 1.1801225555e+00	 1.6870217063e+00	-1.7843676937e+00
 1.1637591524e+00	 1.6983510437e+00	-1.7685851154e+00
 1.1473017722e+00	 1.7095117490e+00	-1.7494315495e+00
 1.1307529925e+00	 1.7205027111e+00	-1.7266468719e+00
 1.1141154073e+00	 1.7313228706e+00	-1.6999375677e+00
 1.0973916249e+00	 1.7419712206e+00	-1.6707101455e+00
 1.0805842676e+00	 1.7524468065e+00	-1.6418619007e+00
 1.0636959697e+00	 1.7627487265e+00	-1.6129722084e+00
 1.0029189193e+00	 1.6620294690e+00	-1.7375000443e+00
 9.8692175679e-01	 1.6715782184e+00	-1.7078291026e+00
 9.7085327742e-01	 1.6809616755e+00	-1.6761092796e+00
 9.5471599390e-01	 1.6901791417e+00	-1.6426021782e+00
 9.3851242555e-01	 1.6992299684e+00	-1.6075814083e+00
 9.2224509702e-01	 1.7081135568e+00	-1.5713267815e+00
 9.0591653710e-01	 1.7168293578e+00	-1.5341190147e+00
 8.8952927753e-01	 1.7253768723e+00	-1.4962349509e+00
 8.7308585180e-01	 1.7337556506e+00	-1.4579433043e+00
 8.5658879394e-01	 1.7419652927e+00	-1.4195009284e+00
 8.4004063737e-01	 1.7500054476e+00	-1.3811496063e+00
 1.0089966656e+00	 1.6721014633e+00	-1.7232082287e+00
 9.9290255943e-01	 1.6817080786e+00	-1.6938812215e+00
 9.7673670415e-01	 1.6911484000e+00	-1.6625099210e+00
 9.6050162776e-01	 1.7004217246e+00	-1.6293424757e+00
 9.4419986485e-01	 1.7095273998e+00	-1.5946366939e+00
 9.2783395537e-01	 1.7184648232e+00	-1.5586541277e+00
 9.1140644344e-01	 1.7272334425e+00	-1.5216546933e+00
 8.9491987614e-01	 1.7358327554e+00	-1.4838918346e+00
 8.7837680230e-01	 1.7442623096e+00	-1.4456082358e+00
 8.6177977132e-01	 1.7525217026e+00	-1.4070320842e+00
 8.4513133198e-01	 1.7606105813e+00	-1.3683738789e+00
 1.0150743844e+00	 1.6821734118e+00	-1.7101594258e+00
 9.9888333495e-01	 1.6918378929e+00	-1.6811269803e+00
 9.8262010421e-01	 1.7013350783e+00	-1.6500388953e+00
 9.6628723540e-01	 1.7106642610e+00	-1.6171293247e+00
 9.4988727838e-01	 1.7198247845e+00	-1.5826403112e+00
 9.3342278840e-01	 1.7288160427e+00	-1.5468157522e+00
 9.1689632490e-01	 1.7376374800e+00	-1.5098959269e+00
 9.0031045032e-01	 1.7462885911e+00	-1.4721125939e+00
 8.8366772882e-01	 1.7547689210e+00	-1.4336846634e+00
 8.6697072517e-01	 1.7630780646e+00	-1.3948144451e+00
 8.5022200350e-01	 1.7712156669e+00	-1.3556844673e+00
 1.0211520826e+00	 1.6922453262e+00	-1.6980342904e+00
 1.0048640902e+00	 1.7019676727e+00	-1.6692350532e+00
 9.8850348427e-01	 1.7115217220e+00	-1.6383644452e+00
 9.7207282337e-01	 1.7209067626e+00	-1.6056420559e+00
 9.5557467257e-01	 1.7301221342e+00	-1.5712941571e+00
 9.3901160242e-01	 1.7391672271e+00	-1.5355475415e+00
 9.2238618770e-01	 1.7480414822e+00	-1.4986239475e+00
 9.0570100616e-01	 1.7567443913e+00	-1.4607350823e+00
 8.8895863735e-01	 1.7652754966e+00	-1.4220782449e+00
 8.7216166138e-01	 1.7736343908e+00	-1.3828325506e+00
 8.5531265772e-01	 1.7818207165e+00	-1.3431557526e+00
 1.0272297670e+00	 1.7023172177e+00	-1.6865175907e+00
 1.0108448318e+00	 1.7120974296e+00	-1.6578787255e+00
 9.9438685099e-01	 1.7217083426e+00	-1.6271596758e+00
 9.7785839822e-01	 1.7311492410e+00	-1.5945648688e+00
 9.6126205387e-01	 1.7404194606e+00	-1.5603047591e+00
 9.4460040378e-01	 1.7495183879e+00	-1.5245895301e+00
 9.2787603805e-01	 1.7584454608e+00	-1.4876234088e+00
 9.1109154979e-01	 1.7672001678e+00	-1.4495996049e+00
 8.9424953389e-01	 1.7757820485e+00	-1.4106958769e+00
 8.7735258581e-01	 1.7841906931e+00	-1.3710707251e+00
 8.6040330040e-01	 1.7924257421e+00	-1.3308602062e+00
 1.0333074445e+00	 1.7123890977e+00	-1.6752978573e+00
 1.0168255667e+00	 1.7222271750e+00	-1.6467355261e+00
 1.0002702110e+00	 1.7318949516e+00	-1.6161021799e+00
 9.8364396652e-01	 1.7413917078e+00	-1.5835864580e+00
 9.6694942872e-01	 1.7507167753e+00	-1.5493829103e+00
 9.5018919880e-01	 1.7598695371e+00	-1.5136855526e+00
 9.3336588218e-01	 1.7688494276e+00	-1.4766820631e+00
 9.1648208731e-01	 1.7776559324e+00	-1.4385486294e+00
 8.9954042443e-01	 1.7862885884e+00	-1.3994454483e+00
 8.8254350437e-01	 1.7947469833e+00	-1.3595128802e+00
 8.6549393731e-01	 1.8030307556e+00	-1.3188682496e+00
 1.0393851219e+00	 1.7224609778e+00	-1.6640670358e+00
 1.0228063015e+00	 1.7323569204e+00	-1.6354868653e+00
 1.0061535711e+00	 1.7420815607e+00	-1.6048736685e+00
 9.8942953482e-01	 1.7516341746e+00	-1.5723996438e+00
 9.7263680358e-01	 1.7610140900e+00	-1.5382433084e+00
 9.5577799383e-01	 1.7702206862e+00	-1.5025828992e+00
 9.3885572632e-01	 1.7792533944e+00	-1.4655904421e+00
 9.2187262483e-01	 1.7881116971e+00	-1.4274264986e+00
 9.0483131498e-01	 1.7967951284e+00	-1.3882355926e+00
 8.8773442293e-01	 1.8053032736e+00	-1.3481423167e+00
 8.7058457422e-01	 1.8136357692e+00	-1.3072481115e+00
 1.0454628063e+00	 1.7325328693e+00	-1.6525201443e+00
 1.0287870432e+00	 1.7424866773e+00	-1.6238176764e+00
 1.0120369378e+00	 1.7522681813e+00	-1.5931596052e+00
 9.9521510968e-01	 1.7618766530e+00	-1.5607010077e+00
 9.7832418487e-01	 1.7713114163e+00	-1.5266041999e+00
 9.6136679518e-01	 1.7805718471e+00	-1.4910319756e+00
 9.4434557667e-01	 1.7896573730e+00	-1.4541415394e+00
 9.2726316846e-01	 1.7985674736e+00	-1.4160791453e+00
 9.1012221152e-01	 1.8073016802e+00	-1.3769754418e+00
 8.9292534737e-01	 1.8158595759e+00	-1.3369415237e+00
 8.7567521690e-01	 1.8242407947e+00	-1.2960656818e+00
 1.0515405045e+00	 1.7426047837e+00	-1.6403549333e+00
 1.0347677984e+00	 1.7526164571e+00	-1.6114160618e+00
 1.0179203179e+00	 1.7624548249e+00	-1.5806488453e+00
 1.0010006976e+00	 1.7721191546e+00	-1.5481905314e+00
 9.8401157906e-01	 1.7816087661e+00	-1.5141870272e+00
 9.6695560921e-01	 1.7909230314e+00	-1.4787859660e+00
 9.4983543946e-01	 1.8000613751e+00	-1.4421304973e+00
 9.3265372431e-01	 1.8090232738e+00	-1.4043538082e+00
 9.1541312005e-01	 1.8178082559e+00	-1.3655743801e+00
 8.9811628357e-01	 1.8264159020e+00	-1.3258919773e+00
 8.8076587112e-01	 1.8348458443e+00	-1.2853843619e+00
 1.0576182233e+00	 1.7526767322e+00	-1.6272715505e+00
 1.0407485739e+00	 1.7627462714e+00	-1.5979729439e+00
 1.0238037180e+00	 1.7726415032e+00	-1.5670332795e+00
 1.0067863053e+00	 1.7823616910e+00	-1.5345712414e+00
 9.8969899259e-01	 1.7919061508e+00	-1.5007160801e+00
 9.7254444223e-01	 1.8012742509e+00	-1.4656004995e+00
 9.5532532092e-01	 1.8104654127e+00	-1.4293542948e+00
 9.3804429848e-01	 1.8194791095e+00	-1.3920987499e+00
 9.2070404657e-01	 1.8283148673e+00	-1.3539417975e+00
 9.0330723742e-01	 1.8369722641e+00	-1.3149739384e+00
 8.8585654265e-01	 1.8454509299e+00	-1.2752649130e+00
 1.0636959697e+00	 1.7627487265e+00	-1.6129722084e+00
 1.0467293765e+00	 1.7728761316e+00	-1.5831817183e+00
 1.0296871447e+00	 1.7828282277e+00	-1.5520074811e+00
 1.0125719391e+00	 1.7926042739e+00	-1.5195488564e+00
 9.9538643189e-01	 1.8022035822e+00	-1.4859181514e+00
 9.7813330059e-01	 1.8116255174e+00	-1.4512333195e+00
 9.6081522727e-01	 1.8208694974e+00	-1.4156114383e+00
 9.4343489709e-01	 1.8299349926e+00	-1.3791629755e+00
 9.2599499707e-01	 1.8388215263e+00	-1.3419868447e+00
 9.0849821480e-01	 1.8475286740e+00	-1.3041662486e+00
 8.9094723725e-01	 1.8560560637e+00	-1.2653817800e+00
 8.4004063737e-01	 1.7500054476e+00	-1.3811496063e+00
 8.2344108802e-01	 1.7578771370e+00	-1.3425700065e+00
 8.0679548427e-01	 1.7655787254e+00	-1.3031075344e+00
 7.9010635125e-01	 1.7731100070e+00	-1.2624701777e+00
 7.7337620893e-01	 1.7804708243e+00	-1.2203673688e+00
 7.5660757102e-01	 1.7876610676e+00	-1.1765095255e+00
 7.3980294386e-01	 1.7946806749e+00	-1.1306133109e+00
 7.2296482535e-01	 1.8015296311e+00	-1.0843399750e+00
 7.0609570391e-01	 1.8082079681e+00	-1.0387052814e+00
 6.8919805740e-01	 1.8147157638e+00	-9.9305026595e-01
 6.7227435215e-01	 1.8210531420e+00	-9.4675749321e-01
 8.4513133198e-01	 1.7606105813e+00	-1.3683738789e+00
 8.2843118840e-01	 1.7685299736e+00	-1.3294779450e+00
 8.1168471133e-01	 1.7762782340e+00	-1.2898694483e+00
 7.9489444120e-01	 1.7838551556e+00	-1.2492491918e+00
 7.7806291326e-01	 1.7912605799e+00	-1.2073222162e+00
 7.6119265644e-01	 1.7984943965e+00	-1.1637973634e+00
 7.4428619227e-01	 1.8055565430e+00	-1.1183872540e+00
 7.2734603379e-01	 1.8124470044e+00	-1.0718931772e+00
 7.1037468450e-01	 1.8191658125e+00	-1.0261500347e+00
 6.9337463729e-01	 1.8257130458e+00	-9.8059363328e-01
 6.7634837341e-01	 1.8320888288e+00	-9.3462760692e-01
 8.5022200350e-01	 1.7712156669e+00	-1.3556844673e+00
 8.3342126615e-01	 1.7791827619e+00	-1.3163439051e+00
 8.1657391623e-01	 1.7869776942e+00	-1.2765341203e+00
 7.9968250945e-01	 1.7946002556e+00	-1.2359443629e+00
 7.8274959635e-01	 1.8020502867e+00	-1.1942698053e+00
 7.6577772107e-01	 1.8093276764e+00	-1.1512111528e+00
 7.4876942036e-01	 1.8164323619e+00	-1.1064746848e+00
 7.3172722238e-01	 1.8233643281e+00	-1.0602492856e+00
 7.1465364570e-01	 1.8301236071e+00	-1.0146769025e+00
 6.9755119824e-01	 1.8367102779e+00	-9.6951710988e-01
 6.8042237620e-01	 1.8431244656e+00	-9.2418477614e-01
 8.5531265772e-01	 1.7818207165e+00	-1.3431557526e+00
 8.3841132695e-01	 1.7898355140e+00	-1.3033286176e+00
 8.2146310450e-01	 1.7976771180e+00	-1.2633307609e+00
 8.0447056142e-01	 1.8053453191e+00	-1.2228355540e+00
 7.8743626350e-01	 1.8128399567e+00	-1.1815228742e+00
 7.7036277012e-01	 1.8201609194e+00	-1.1390787893e+00
 7.5325263320e-01	 1.8273081438e+00	-1.0951956875e+00
 7.3610839606e-01	 1.8342816148e+00	-1.0496943734e+00
 7.1893259235e-01	 1.8410813646e+00	-1.0045352117e+00
 7.0172774500e-01	 1.8477074726e+00	-9.6001545326e-01
 6.8449636514e-01	 1.8541600649e+00	-9.1549493981e-01
 8.6040330040e-01	 1.7924257421e+00	-1.3308602062e+00
 8.4340137643e-01	 1.8004882420e+00	-1.2905893073e+00
 8.2635228170e-01	 1.8083765176e+00	-1.2504839157e+00
 8.0925860254e-01	 1.8160903581e+00	-1.2101972370e+00
 7.9212292002e-01	 1.8236296023e+00	-1.1693884742e+00
 7.7494780877e-01	 1.8309941378e+00	-1.1277226102e+00
 7.5773583589e-01	 1.8381839010e+00	-1.0848706551e+00
 7.4048955982e-01	 1.8451988766e+00	-1.0405105956e+00
 7.2321152931e-01	 1.8520390971e+00	-9.9597110184e-01
 7.0590428228e-01	 1.8587046424e+00	-9.5170337808e-01
 6.8857034485e-01	 1.8651956392e+00	-9.0687144595e-01
 8.6549393731e-01	 1.8030307556e+00	-1.3188682496e+00
 8.4839142026e-01	 1.8111409578e+00	-1.2782796088e+00
 8.3124145335e-01	 1.8190759050e+00	-1.2382134246e+00
 8.1404663824e-01	 1.8268353850e+00	-1.1982984849e+00
 7.9680957124e-01	 1.8344192357e+00	-1.1581679809e+00
 7.7953284223e-01	 1.8418273440e+00	-1.1174594142e+00
 7.6221903349e-01	 1.8490596460e+00	-1.0758149886e+00
 7.4487071861e-01	 1.8561161262e+00	-1.0326135602e+00
 7.2749046141e-01	 1.8629968173e+00	-9.8751442907e-01
 7.1008081484e-01	 1.8697017997e+00	-9.4248260092e-01
 6.9264431994e-01	 1.8762312010e+00	-8.9744469001e-01
 8.7058457422e-01	 1.8136357692e+00	-1.3072481115e+00
 8.5338146408e-01	 1.8217936737e+00	-1.2665494777e+00
 8.3613062500e-01	 1.8297752924e+00	-1.2267343756e+00
 8.1883467393e-01	 1.8375804120e+00	-1.1874029550e+00
 8.0149622246e-01	 1.8452088691e+00	-1.1481570975e+00
 7.8411787569e-01	 1.8526605502e+00	-1.1085900709e+00
 7.6670223109e-01	 1.8599353909e+00	-1.0672808067e+00
 7.4925187741e-01	 1.8670333757e+00	-1.0234768008e+00
 7.3176939352e-01	 1.8739545375e+00	-9.7766315014e-01
 7.1425734739e-01	 1.8806989571e+00	-9.3215294303e-01
 6.9671829503e-01	 1.8872667628e+00	-8.8716308673e-01
 8.7567521690e-01	 1.8242407947e+00	-1.2960656818e+00
 8.5837151356e-01	 1.8324464017e+00	-1.2555450964e+00
 8.4101980220e-01	 1.8404746920e+00	-1.2162570512e+00
 8.2362271505e-01	 1.8483254510e+00	-1.1777688661e+00
 8.0618287898e-01	 1.8559985147e+00	-1.1393335157e+00
 7.8870291434e-01	 1.8634937686e+00	-1.0990843821e+00
 7.7118543378e-01	 1.8708111481e+00	-1.0568053752e+00
 7.5363304117e-01	 1.8779506376e+00	-1.0125438654e+00
 7.3604833047e-01	 1.8849122701e+00	-9.6647199893e-01
 7.1843388468e-01	 1.8916961269e+00	-9.2072139095e-01
 7.0079227473e-01	 1.8983023370e+00	-8.7597091487e-01
 8.8076587112e-01	 1.8348458443e+00	-1.2853843619e+00
 8.6336157436e-01	 1.8430991538e+00	-1.2454087749e+00
 8.4590899047e-01	 1.8511741158e+00	-1.2069868691e+00
 8.2841076702e-01	 1.8590705145e+00	-1.1686401054e+00
 8.1086954613e-01	 1.8667881847e+00	-1.1287596849e+00
 7.9328796338e-01	 1.8743270116e+00	-1.0873323422e+00
 7.7566864662e-01	 1.8816869300e+00	-1.0443725127e+00
 7.5801421485e-01	 1.8888679242e+00	-9.9990997603e-01
 7.4032727712e-01	 1.8958700275e+00	-9.5398873645e-01
 7.2261043144e-01	 1.9026933216e+00	-9.0818922844e-01
 7.0486626368e-01	 1.9093379363e+00	-8.6380838619e-01
 8.8585654265e-01	 1.8454509299e+00	-1.2752649130e+00
 8.6835165211e-01	 1.8537519421e+00	-1.2362049602e+00
 8.5079819537e-01	 1.8618735759e+00	-1.1970748303e+00
 8.3319883527e-01	 1.8698156144e+00	-1.1569226708e+00
 8.1555622922e-01	 1.8775778915e+00	-1.1157163605e+00
 7.9787302802e-01	 1.8851602915e+00	-1.0734387287e+00
 7.8015187471e-01	 1.8925627489e+00	-1.0300851937e+00
 7.6239540344e-01	 1.8997852479e+00	-9.8566170828e-01
 7.4460623832e-01	 1.9068278221e+00	-9.4018301057e-01
 7.2678699239e-01	 1.9136905537e+00	-8.9455215297e-01
 7.0894026647e-01	 1.9203735731e+00	-8.5061171182e-01
 8.9094723725e-01	 1.8560560637e+00	-1.2653817800e+00
 8.7334175249e-01	 1.8644047787e+00	-1.2249253181e+00
 8.5568742243e-01	 1.8725730846e+00	-1.1839595444e+00
 8.3798692522e-01	 1.8805607631e+00	-1.1424281594e+00
 8.2024293355e-01	 1.8883676471e+00	-1.1002865741e+00
 8.0245811344e-01	 1.8959936204e+00	-1.0574992691e+00
 7.8463512312e-01	 1.9034386170e+00	-1.0140374806e+00
 7.6677661188e-01	 1.9107026212e+00	-9.6987721493e-01
 7.4888521892e-01	 1.9177856665e+00	-9.2499758674e-01
 7.3096357228e-01	 1.9246878357e+00	-8.7980038825e-01
 7.1301428772e-01	 1.9314092600e+00	-8.3631316610e-01
 6.7227435215e-01	 1.8210531420e+00	-9.4675749321e-01
 6.5532992438e-01	 1.8272192376e+00	-9.0099766321e-01
 6.3836433784e-01	 1.8332153550e+00	-8.5698704346e-01
 6.2138001628e-01	 1.8390417507e+00	-8.1426520417e-01
 6.0437936805e-01	 1.8446987248e+00	-7.7241498095e-01
 5.8736478517e-01	 1.8501866206e+00	-7.3106436725e-01
 5.7033864247e-01	 1.8555058234e+00	-6.8986407812e-01
 5.5330329671e-01	 1.8606567604e+00	-6.4858489498e-01
 5.3626108571e-01	 1.8656398999e+00	-6.0722864419e-01
 5.1921432756e-01	 1.8704557506e+00	-5.6582629994e-01
 5.0216531982e-01	 1.8751048606e+00	-5.2442606775e-01
 6.7634837341e-01	 1.8320888288e+00	-9.3462760692e-01
 6.5930126143e-01	 1.8382922913e+00	-8.8931860120e-01
 6.4223286246e-01	 1.8443247455e+00	-8.4573386559e-01
 6.2514561494e-01	 1.8501864495e+00	-8.0337231777e-01
 6.0804194179e-01	 1.8558777053e+00	-7.6169761897e-01
 5.9092424956e-01	 1.8613988580e+00	-7.2022058071e-01
 5.7379492746e-01	 1.8667502954e+00	-6.7884998492e-01
 5.5665634652e-01	 1.8719324474e+00	-6.3753510002e-01
 5.3951085875e-01	 1.8769457851e+00	-5.9624448489e-01
 5.2236079627e-01	 1.8817908200e+00	-5.5496355109e-01
 5.0520847055e-01	 1.8864681040e+00	-5.1369235475e-01
 6.8042237620e-01	 1.8431244656e+00	-9.2418477614e-01
 6.6327258048e-01	 1.8493652948e+00	-8.7957871586e-01
 6.4610136954e-01	 1.8554340857e+00	-8.3646203840e-01
 6.2891119652e-01	 1.8613310978e+00	-7.9401105692e-01
 6.1170449894e-01	 1.8670566350e+00	-7.5201447123e-01
 5.9448369783e-01	 1.8726110445e+00	-7.1034612359e-01
 5.7725119679e-01	 1.8779947165e+00	-6.6890220281e-01
 5.6000938114e-01	 1.8832080834e+00	-6.2759840615e-01
 5.4276061705e-01	 1.8882516190e+00	-5.8636736868e-01
 5.2550725071e-01	 1.8931258381e+00	-5.4515634677e-01
 5.0825160749e-01	 1.8978312958e+00	-5.0392514118e-01
 6.8449636514e-01	 1.8541600649e+00	-9.1549493981e-01
 6.6724388602e-01	 1.8604382607e+00	-8.7112157400e-01
 6.4996986348e-01	 1.8665433881e+00	-8.2768726937e-01
 6.3267676530e-01	 1.8724757082e+00	-7.8499237813e-01
 6.1536704363e-01	 1.8782355268e+00	-7.4286397046e-01
 5.9804313399e-01	 1.8838231930e+00	-7.0115248389e-01
 5.8070745436e-01	 1.8892390994e+00	-6.5972867690e-01
 5.6336240436e-01	 1.8944836810e+00	-6.1848087501e-01
 5.4601036431e-01	 1.8995574145e+00	-5.7731249631e-01
 5.2865369445e-01	 1.9044608177e+00	-5.3613984198e-01
 5.1129473409e-01	 1.9091944490e+00	-4.9489013625e-01
 6.8857034485e-01	 1.8651956392e+00	-9.0687144595e-01
 6.7121518257e-01	 1.8715112015e+00	-8.6231670219e-01
 6.5383834864e-01	 1.8776526653e+00	-8.1879120894e-01
 6.3644232555e-01	 1.8836202934e+00	-7.7608004314e-01
 6.1902958003e-01	 1.8894143932e+00	-7.3399339918e-01
 6.0160256208e-01	 1.8950353160e+00	-6.9236328209e-01
 5.8416370410e-01	 1.9004834568e+00	-6.5104051875e-01
 5.6671541998e-01	 1.9057592530e+00	-6.0989207449e-01
 5.4926010420e-01	 1.9108631843e+00	-5.6879866095e-01
 5.3180013106e-01	 1.9157957716e+00	-5.2765261974e-01
 5.1433785378e-01	 1.9205575765e+00	-4.8635606539e-01
 6.9264431994e-01	 1.8762312010e+00	-8.9744469001e-01
 6.7518647462e-01	 1.8825841298e+00	-8.5298893468e-01
 6.5770682942e-01	 1.8887619300e+00	-8.0960181123e-01
 6.4020788153e-01	 1.8947648660e+00	-7.6705685128e-01
 6.2269211227e-01	 1.9005932469e+00	-7.2515164747e-01
 6.0516198614e-01	 1.9062474264e+00	-6.8370457717e-01
 5.8761994993e-01	 1.9117278014e+00	-6.4255185803e-01
 5.7006843180e-01	 1.9170348123e+00	-6.0154492162e-01
 5.5250984041e-01	 1.9221689413e+00	-5.6054809020e-01
 5.3494656410e-01	 1.9271307126e+00	-5.1943654008e-01
 5.1738097003e-01	 1.9319206911e+00	-4.7809453395e-01
 6.9671829503e-01	 1.8872667628e+00	-8.8716308673e-01
 6.7915776666e-01	 1.8936570580e+00	-8.4302038172e-01
 6.6157531020e-01	 1.8998711946e+00	-7.9994618049e-01
 6.4397343751e-01	 1.9059094385e+00	-7.5770605335e-01
 6.2635464451e-01	 1.9117721007e+00	-7.1608910966e-01
 6.0872141020e-01	 1.9174595367e+00	-6.7490473917e-01
 5.9107619575e-01	 1.9229721461e+00	-6.3397969880e-01
 5.7342144362e-01	 1.9283103715e+00	-5.9315553034e-01
 5.5575957662e-01	 1.9334746984e+00	-5.5228629308e-01
 5.3809299715e-01	 1.9384656537e+00	-5.1123659371e-01
 5.2042408628e-01	 1.9432838057e+00	-4.6987989494e-01
 7.0079227473e-01	 1.8983023370e+00	-8.7597091487e-01
 6.8312906321e-01	 1.9047299988e+00	-8.3229076820e-01
 6.6544379537e-01	 1.9109804719e+00	-7.8965054101e-01
 6.4773899776e-01	 1.9170540237e+00	-7.4781128258e-01
 6.3001718090e-01	 1.9229509671e+00	-7.0655758425e-01
 6.1228083829e-01	 1.9286716597e+00	-6.6569432566e-01
 5.9453244549e-01	 1.9342165035e+00	-6.2504378016e-01
 5.7677445923e-01	 1.9395859436e+00	-5.8444306391e-01
 5.5900931652e-01	 1.9447804682e+00	-5.4374191157e-01
 5.4123943376e-01	 1.9498006075e+00	-5.0280076008e-01
 5.2346720598e-01	 1.9546469332e+00	-4.6148912075e-01
 7.0486626368e-01	 1.9093379363e+00	-8.6380838619e-01
 6.8710036876e-01	 1.9158029647e+00	-8.2067744959e-01
 6.6931228930e-01	 1.9220897743e+00	-7.7854020771e-01
 6.5150456655e-01	 1.9281986341e+00	-7.3715648755e-01
 6.3367972560e-01	 1.9341298588e+00	-6.9631017664e-01
 6.1584027445e-01	 1.9398838082e+00	-6.5580596188e-01
 5.9798870307e-01	 1.9454608863e+00	-6.1546644126e-01
 5.8012748245e-01	 1.9508615412e+00	-5.7512959195e-01
 5.6225906377e-01	 1.9560862637e+00	-5.3464657683e-01
 5.4438587750e-01	 1.9611355871e+00	-4.9387986972e-01
 5.2651033257e-01	 1.9660100864e+00	-4.5270167862e-01
 7.0894026647e-01	 1.9203735731e+00	-8.5061171182e-01
 6.9107168781e-01	 1.9268759682e+00	-8.0805542692e-01
 6.7318079638e-01	 1.9331991145e+00	-7.6643955733e-01
 6.5527014813e-01	 1.9393432824e+00	-7.2552586697e-01
 6.3734228274e-01	 1.9453087886e+00	-6.8510120487e-01
 6.1939972271e-01	 1.9510959947e+00	-6.4497422460e-01
 6.0144497239e-01	 1.9567053074e+00	-6.0497249025e-01
 5.8348051707e-01	 1.9621371771e+00	-5.6493995163e-01
 5.6550882208e-01	 1.9673920976e+00	-5.2473476957e-01
 5.4753233194e-01	 1.9724706052e+00	-4.8422747068e-01
 5.2955346951e-01	 1.9773732782e+00	-4.4329940973e-01
 7.1301428772e-01	 1.9314092600e+00	-8.3631316610e-01
 6.9504302486e-01	 1.9379490220e+00	-7.9429736108e-01
 6.7704932100e-01	 1.9443085050e+00	-7.5317200027e-01
 6.5903574679e-01	 1.9504879813e+00	-7.1270380625e-01
 6.4100485649e-01	 1.9564877690e+00	-6.7268610800e-01
 6.2295918711e-01	 1.9623082321e+00	-6.3293552928e-01
 6.0490125739e-01	 1.9679497795e+00	-5.9328907726e-01
 5.8683356689e-01	 1.9734128641e+00	-5.5360161314e-01
 5.6875859512e-01	 1.9786979827e+00	-5.1374368468e-01
 5.5067880065e-01	 1.9838056747e+00	-4.7359969885e-01
 5.3259662025e-01	 1.9887365216e+00	-4.3306641173e-01
 5.0216531982e-01	 1.8751048606e+00	-5.2442606775e-01
 4.8511633894e-01	 1.8795878178e+00	-4.8377859703e-01
 4.6806964024e-01	 1.8839052497e+00	-4.4453809613e-01
 4.5102745644e-01	 1.8880578218e+00	-4.0662838588e-01
 4.3399199669e-01	 1.8920462363e+00	-3.6998373160e-01
 4.1696544594e-01	 1.8958712314e+00	-3.3454757955e-01
 3.9994996428e-01	 1.8995335805e+00	-3.0027142043e-01
 3.8294768633e-01	 1.9030340914e+00	-2.6711376424e-01
 3.6596072063e-01	 1.9063736054e+00	-2.3504830877e-01
 3.4899114909e-01	 1.9095529967e+00	-2.0411688462e-01
 3.3204102645e-01	 1.9125731713e+00	-1.7399487799e-01
 5.0520847055e-01	 1.8864681040e+00	-5.1369235475e-01
 4.8805617187e-01	 1.8909782281e+00	-4.7314656497e-01
 4.7090616920e-01	 1.8953218239e+00	-4.3398050443e-01
 4.5376070878e-01	 1.8994995609e+00	-3.9612084051e-01
 4.3662201316e-01	 1.9035121454e+00	-3.5950500109e-01
 4.1949228053e-01	 1.9073603202e+00	-3.2407997270e-01
 4.0237368408e-01	 1.9110448633e+00	-2.8980122866e-01
 3.8526837134e-01	 1.9145665875e+00	-2.5663177071e-01
 3.6817846365e-01	 1.9179263392e+00	-2.2454390950e-01
 3.5110605553e-01	 1.9211249977e+00	-1.9361885324e-01
 3.3405321418e-01	 1.9241634748e+00	-1.6361590506e-01
 5.0825160749e-01	 1.8978312958e+00	-5.0392514118e-01
 4.9099599147e-01	 1.9023685869e+00	-4.6338531272e-01
 4.7374268530e-01	 1.9067383464e+00	-4.2421535150e-01
 4.5649394873e-01	 1.9109412480e+00	-3.8634271947e-01
 4.3925201771e-01	 1.9149780025e+00	-3.4970586397e-01
 4.2201910368e-01	 1.9188493569e+00	-3.1425308674e-01
 4.0479739289e-01	 1.9225560940e+00	-2.7994154576e-01
 3.8758904584e-01	 1.9260990313e+00	-2.4673637294e-01
 3.7039619663e-01	 1.9294790205e+00	-2.1460989033e-01
 3.5322095239e-01	 1.9326969463e+00	-1.8365474685e-01
 3.3606539279e-01	 1.9357537258e+00	-1.5372611166e-01
 5.1129473409e-01	 1.9091944490e+00	-4.9489013625e-01
 4.9393580108e-01	 1.9137589068e+00	-4.5429537876e-01
 4.7657919175e-01	 1.9181548301e+00	-4.1507609486e-01
 4.5922717939e-01	 1.9223828963e+00	-3.7715847741e-01
 4.4188201333e-01	 1.9264438206e+00	-3.4047983841e-01
 4.2454591823e-01	 1.9303383545e+00	-3.0498755793e-01
 4.0722109346e-01	 1.9340672855e+00	-2.7063816910e-01
 3.8990971245e-01	 1.9376314360e+00	-2.3739656117e-01
 3.7261392206e-01	 1.9410316626e+00	-2.0523528225e-01
 3.5533584207e-01	 1.9442688556e+00	-1.7423801282e-01
 3.3807756455e-01	 1.9473439373e+00	-1.4435806483e-01
 5.1433785378e-01	 1.9205575765e+00	-4.8635606539e-01
 4.9687560403e-01	 1.9251492010e+00	-4.4567980635e-01
 4.7941569177e-01	 1.9295712879e+00	-4.0639823004e-01
 4.6196040385e-01	 1.9338245187e+00	-3.6843418321e-01
 4.4451200298e-01	 1.9379096127e+00	-3.3172167404e-01
 4.2707272706e-01	 1.9418273261e+00	-2.9620491044e-01
 4.0964478854e-01	 1.9455784509e+00	-2.6183747772e-01
 3.9223037380e-01	 1.9491638144e+00	-2.2858163640e-01
 3.7483164247e-01	 1.9525842786e+00	-1.9640772123e-01
 3.5745072694e-01	 1.9558407386e+00	-1.6538150561e-01
 3.4008973176e-01	 1.9589341226e+00	-1.3554355332e-01
 5.1738097003e-01	 1.9319206911e+00	-4.7809453395e-01
 4.9981540364e-01	 1.9365394823e+00	-4.3734402518e-01
 4.8225218858e-01	 1.9409877327e+00	-3.9801918922e-01
 4.6469362522e-01	 1.9452661281e+00	-3.6003743452e-01
 4.4714198965e-01	 1.9493753919e+00	-3.2332728155e-01
 4.2959953302e-01	 1.9533162846e+00	-2.8782750009e-01
 4.1206848088e-01	 1.9570896032e+00	-2.5348638913e-01
 3.9455103251e-01	 1.9606961799e+00	-2.2026117940e-01
 3.7704936037e-01	 1.9641368814e+00	-1.8811753814e-01
 3.5956560942e-01	 1.9674126085e+00	-1.5709749194e-01
 3.4210189669e-01	 1.9705242947e+00	-1.2731360037e-01
 5.2042408628e-01	 1.9432838057e+00	-4.6987989494e-01
 5.0275520326e-01	 1.9479297635e+00	-4.2909573639e-01
 4.8508868539e-01	 1.9524041776e+00	-3.8977824266e-01
 4.6742684659e-01	 1.9567077375e+00	-3.5183727469e-01
 4.4977197632e-01	 1.9608411710e+00	-3.1519366412e-01
 4.3212633898e-01	 1.9648052432e+00	-2.7977845921e-01
 4.1449217321e-01	 1.9686007556e+00	-2.4553231697e-01
 3.9687169123e-01	 1.9722285453e+00	-2.1240502015e-01
 3.7926707826e-01	 1.9756894842e+00	-1.8035509771e-01
 3.6168049191e-01	 1.9789844784e+00	-1.4939765560e-01
 3.4411406161e-01	 1.9821144668e+00	-1.1969847574e-01
 5.2346720598e-01	 1.9546469332e+00	-4.6148912075e-01
 5.0569500620e-01	 1.9593200577e+00	-4.2074480108e-01
 4.8792518542e-01	 1.9638206353e+00	-3.8151640290e-01
 4.7016007105e-01	 1.9681493598e+00	-3.4370411183e-01
 4.5240196597e-01	 1.9723069631e+00	-3.0721885045e-01
 4.3465314781e-01	 1.9762942148e+00	-2.7198164295e-01
 4.1691586829e-01	 1.9801119210e+00	-2.3792312949e-01
 3.9919235258e-01	 1.9837609238e+00	-2.0498320765e-01
 3.8148479867e-01	 1.9872421002e+00	-1.7311077891e-01
 3.6379537678e-01	 1.9905563614e+00	-1.4229310205e-01
 3.4612622882e-01	 1.9937046521e+00	-1.1272770739e-01
 5.2651033257e-01	 1.9660100864e+00	-4.5270167862e-01
 5.0863481581e-01	 1.9707103777e+00	-4.1210313181e-01
 4.9076169187e-01	 1.9752371190e+00	-3.7307633162e-01
 4.7289330171e-01	 1.9795910081e+00	-3.3550964002e-01
 4.5503196158e-01	 1.9837727812e+00	-2.9930182952e-01
 4.3717996236e-01	 1.9877832124e+00	-2.6436157665e-01
 4.1933956886e-01	 1.9916231125e+00	-2.3060710875e-01
 4.0151301919e-01	 1.9952933284e+00	-1.9796598030e-01
 3.8370252411e-01	 1.9987947423e+00	-1.6637495546e-01
 3.6591026646e-01	 2.0021282707e+00	-1.3579436273e-01
 3.4813840059e-01	 2.0052948637e+00	-1.0643009247e-01
 5.2955346951e-01	 1.9773732782e+00	-4.4329940973e-01
 5.1157463541e-01	 1.9821007364e+00	-4.0298458725e-01
 4.9359820797e-01	 1.9866536415e+00	-3.6430224891e-01
 4.7562654166e-01	 1.9910326953e+00	-3.2712676253e-01
 4.5766196613e-01	 1.9952386383e+00	-2.9134248688e-01
 4.3970678550e-01	 1.9992722491e+00	-2.5684340439e-01
 4.2176327768e-01	 2.0031343431e+00	-2.2353291071e-01
 4.0383369369e-01	 2.0068257722e+00	-1.9132373647e-01
 3.8592025708e-01	 2.0103474237e+00	-1.6013797637e-01
 3.6802516332e-01	 2.0137002193e+00	-1.2991139921e-01
 3.5015057920e-01	 2.0168851146e+00	-1.0083370787e-01
 5.3259662025e-01	 1.9887365216e+00	-4.3306641173e-01
 5.1451446834e-01	 1.9934911467e+00	-3.9320486978e-01
 4.9643473693e-01	 1.9980702157e+00	-3.5503984511e-01
 4.7835979400e-01	 2.0024744343e+00	-3.1842951701e-01
 4.6029198261e-01	 2.0067045474e+00	-2.8324154247e-01
 4.4223362010e-01	 2.0107613379e+00	-2.4935283862e-01
 4.2418699748e-01	 2.0146456259e+00	-2.1664952588e-01
 4.0615437870e-01	 2.0183582683e+00	-1.8502700561e-01
 3.8813800011e-01	 2.0219001574e+00	-1.5439014656e-01
 3.7014006976e-01	 2.0252722203e+00	-1.2465360698e-01
 3.5216276693e-01	 2.0284754181e+00	-9.5965920310e-02
 3.3204102645e-01	 1.9125731713e+00	-1.7399487799e-01
 3.1510950441e-01	 1.9154355396e+00	-1.4505845076e-01
 2.9820146995e-01	 1.9181405412e+00	-1.1789885138e-01
 2.8131889868e-01	 1.9206891724e+00	-9.2425305756e-02
 2.6446373700e-01	 1.9230824579e+00	-6.8560056191e-02
 2.4763790173e-01	 1.9253214503e+00	-4.6233716152e-02
 2.3084327975e-01	 1.9274072292e+00	-2.5380780313e-02
 2.1408172755e-01	 1.9293409001e+00	-5.9352759219e-03
 1.9735507102e-01	 1.9311235940e+00	 1.2173457756e-02
 1.8066510504e-01	 1.9327564662e+00	 2.9024874396e-02
 1.6401359327e-01	 1.9342406954e+00	 4.4711221562e-02
 3.3405321418e-01	 1.9241634748e+00	-1.6361590506e-01
 3.1701908614e-01	 1.9270431892e+00	-1.3490137293e-01
 3.0000858802e-01	 1.9297645833e+00	-1.0802049810e-01
 2.8302370739e-01	 1.9323286593e+00	-8.2856110771e-02
 2.6606640246e-01	 1.9347364483e+00	-5.9305993908e-02
 2.4913860167e-01	 1.9369890091e+00	-3.7278302131e-02
 2.3224220330e-01	 1.9390874279e+00	-1.6687132916e-02
 2.1537907514e-01	 1.9410328170e+00	 2.5517648483e-03
 1.9855105411e-01	 1.9428263141e+00	 2.0525159038e-02
 1.8175994598e-01	 1.9444690816e+00	 3.7326392512e-02
 1.6500752509e-01	 1.9459623053e+00	 5.3059343688e-02
 3.3606539279e-01	 1.9357537258e+00	-1.5372611166e-01
 3.1892865921e-01	 1.9386507861e+00	-1.2517987618e-01
 3.0181569790e-01	 1.9413885726e+00	-9.8518425310e-02
 2.8472850838e-01	 1.9439680935e+00	-7.3601446703e-02
 2.6766906066e-01	 1.9463903858e+00	-5.0305439014e-02
 2.5063929480e-01	 1.9486565150e+00	-2.8519200224e-02
 2.3364112052e-01	 1.9507675737e+00	-8.1394651983e-03
 2.1667641685e-01	 1.9527246809e+00	 1.0933323345e-02
 1.9974703177e-01	 1.9545289812e+00	 2.8799125537e-02
 1.8285478195e-01	 1.9561816439e+00	 4.5562310828e-02
 1.6600145239e-01	 1.9576838621e+00	 6.1335573372e-02
 3.3807756455e-01	 1.9473439373e+00	-1.4435806483e-01
 3.2083822580e-01	 1.9502583437e+00	-1.1594358451e-01
 3.0362280163e-01	 1.9530125225e+00	-8.9457187251e-02
 2.8643330357e-01	 1.9556074880e+00	-6.4738549509e-02
 2.6927171342e-01	 1.9580442837e+00	-4.1645940650e-02
 2.5213998283e-01	 1.9603239812e+00	-2.0051786200e-02
 2.3504003299e-01	 1.9624476797e+00	 1.6162264662e-04
 2.1797375415e-01	 1.9644165050e+00	 1.9106290175e-02
 2.0094300537e-01	 1.9662316085e+00	 3.6892563954e-02
 1.8394961420e-01	 1.9678941664e+00	 5.3633084306e-02
 1.6699537632e-01	 1.9694053791e+00	 6.9446649384e-02
 3.4008973176e-01	 1.9589341226e+00	-1.3554355332e-01
 3.2274778805e-01	 1.9618658749e+00	-1.0724119229e-01
 3.0542990127e-01	 1.9646364460e+00	-8.0900289369e-02
 2.8813809490e-01	 1.9672468562e+00	-5.6343519091e-02
 2.7087436254e-01	 1.9696981552e+00	-3.3413856077e-02
 2.5364066747e-01	 1.9719914210e+00	-1.1970219137e-02
 2.3643894228e-01	 1.9741277593e+00	 8.1167414189e-03
 2.1927108851e-01	 1.9761083026e+00	 2.6968731229e-02
 2.0213897627e-01	 1.9779342092e+00	 4.4703791097e-02
 1.8504444397e-01	 1.9796066624e+00	 6.1440183912e-02
 1.6798929800e-01	 1.9811268694e+00	 7.7300204039e-02
 3.4210189669e-01	 1.9705242947e+00	-1.2731360037e-01
 3.2465734814e-01	 1.9734733929e+00	-9.9120483845e-02
 3.0723699886e-01	 1.9762603563e+00	-7.2910214135e-02
 2.8984288430e-01	 1.9788862112e+00	-4.8491350527e-02
 2.7247700984e-01	 1.9813520135e+00	-2.5694386518e-02
 2.5514135040e-01	 1.9836588476e+00	-4.3674809685e-03
 2.3783784999e-01	 1.9858078257e+00	 1.5627670593e-02
 2.2056842139e-01	 1.9878000870e+00	 3.4419843610e-02
 2.0333494580e-01	 1.9896367967e+00	 5.2132189125e-02
 1.8613927249e-01	 1.9913191450e+00	 6.8886052307e-02
 1.6898321855e-01	 1.9928483465e+00	 8.4804720516e-02
 3.4411406161e-01	 1.9821144668e+00	-1.1969847574e-01
 3.2656690824e-01	 1.9850809110e+00	-9.1628352231e-02
 3.0904409646e-01	 1.9878842667e+00	-6.5548445763e-02
 2.9154767370e-01	 1.9905255663e+00	-4.1255964028e-02
 2.7407965715e-01	 1.9930058718e+00	-1.8571611551e-02
 2.5664203333e-01	 1.9953262741e+00	 2.6645855329e-03
 2.3923675770e-01	 1.9974878920e+00	 2.2597317670e-02
 2.2186575428e-01	 1.9994918714e+00	 4.1359913286e-02
 2.0453091534e-01	 2.0013393842e+00	 5.9078162523e-02
 1.8723410102e-01	 2.0030316277e+00	 7.5874061232e-02
 1.6997713911e-01	 2.0045698236e+00	 9.1869491789e-02
 3.4612622882e-01	 1.9937046521e+00	-1.1272770739e-01
 3.2847647049e-01	 1.9966884422e+00	-8.4810817190e-02
 3.1085119609e-01	 1.9995081902e+00	-5.8875493908e-02
 2.9325246503e-01	 2.0021649345e+00	-3.4710233667e-02
 2.7568230627e-01	 2.0046597433e+00	-1.2128522116e-02
 2.5814271796e-01	 2.0069937139e+00	 9.0352402914e-03
 2.4063566699e-01	 2.0091679716e+00	 2.8929679125e-02
 2.2316308864e-01	 2.0111836690e+00	 4.7690274385e-02
 2.0572688623e-01	 2.0130419849e+00	 6.5443096737e-02
 1.8832893079e-01	 2.0147441237e+00	 8.2308470528e-02
 1.7097106079e-01	 2.0162913140e+00	 9.8404581130e-02
 3.4813840059e-01	 2.0052948637e+00	-1.0643009247e-01
 3.3038603708e-01	 2.0082959997e+00	-7.8713042329e-02
 3.1265829983e-01	 2.0111321400e+00	-5.2950916363e-02
 2.9495726022e-01	 2.0138043290e+00	-2.8926014934e-02
 2.7728495902e-01	 2.0163136412e+00	-6.4470521902e-03
 2.5964340599e-01	 2.0186611801e+00	 1.4654810909e-02
 2.4203457946e-01	 2.0208480777e+00	 3.4529802887e-02
 2.2446042594e-01	 2.0228754932e+00	 5.3313270076e-02
 2.0692285983e-01	 2.0247446122e+00	 7.1129318408e-02
 1.8942376304e-01	 2.0264566462e+00	 8.8094388715e-02
 1.7196498472e-01	 2.0280128309e+00	 1.0432078410e-01
 3.5015057920e-01	 2.0168851146e+00	-1.0083370787e-01
 3.3229561015e-01	 2.0199035967e+00	-7.3379351566e-02
 3.1446540971e-01	 2.0227561294e+00	-4.7833340816e-02
 2.9666206121e-01	 2.0254437632e+00	-2.3974171159e-02
 2.7888761723e-01	 2.0279675787e+00	-1.6081091970e-03
 2.6114409913e-01	 2.0303286860e+00	 1.9434659037e-02
 2.4343349668e-01	 2.0325282235e+00	 3.9303752301e-02
 2.2575776765e-01	 2.0345673570e+00	 5.8132214967e-02
 2.0811883750e-01	 2.0364472793e+00	 7.6040057119e-02
 1.9051859901e-01	 2.0381692085e+00	 9.3137735077e-02
 1.7295891203e-01	 2.0397343877e+00	 1.0952959197e-01
 3.5216276693e-01	 2.0284754181e+00	-9.5965920310e-02
 3.3420519188e-01	 2.0315112463e+00	-6.8853244853e-02
 3.1627252778e-01	 2.0343801714e+00	-4.3580485689e-02
 2.9836686993e-01	 2.0370832501e+00	-1.9924598857e-02
 2.8049028269e-01	 2.0396215691e+00	 2.3083968237e-03
 2.6264479907e-01	 2.0419962448e+00	 2.3287148087e-02
 2.4483242024e-01	 2.0442084222e+00	 4.3158571485e-02
 2.2705511524e-01	 2.0462592739e+00	 6.2051358957e-02
 2.0931482059e-01	 2.0481499994e+00	 8.0079408626e-02
 1.9161343995e-01	 2.0498818239e+00	 9.7345203186e-02
 1.7395284384e-01	 2.0514559977e+00	 1.1394315656e-01
 1.6401359327e-01	 1.9342406954e+00	 4.4711221562e-02
 1.4740508144e-01	 1.9355772684e+00	 5.9025385285e-02
 1.3083840311e-01	 1.9367676724e+00	 7.1688152445e-02
 1.1431518812e-01	 1.9378131507e+00	 8.2705051127e-02
 9.7837035231e-02	 1.9387149667e+00	 9.2107678916e-02
 8.1405511968e-02	 1.9394744030e+00	 9.9957569657e-02
 6.5022154464e-02	 1.9400927607e+00	 1.0635000138e-01
 4.8688467346e-02	 1.9405713584e+00	 1.1141774964e-01
 3.2405923632e-02	 1.9409115317e+00	 1.1533478935e-01
 1.6175964655e-02	 1.9411146320e+00	 1.1831994735e-01
 0.0000000000e+00	 1.9411820260e+00	 1.2064050626e-01
 1.6500752509e-01	 1.9459623053e+00	 5.3059343688e-02
 1.4829836472e-01	 1.9473069780e+00	 6.7479354748e-02
 1.3163129136e-01	 1.9485045960e+00	 8.0260844799e-02
 1.1500794474e-01	 1.9495564099e+00	 9.1404214716e-02
 9.8429933295e-02	 1.9504636910e+00	 1.0093359629e-01
 8.1898834055e-02	 1.9512277295e+00	 1.0890073221e-01
 6.5416192462e-02	 1.9518498345e+00	 1.1538880623e-01
 4.8983522260e-02	 1.9523313325e+00	 1.2051622770e-01
 3.2602305394e-02	 1.9526735673e+00	 1.2444037415e-01
 1.6273991932e-02	 1.9528778984e+00	 1.2736129369e-01
 0.0000000000e+00	 1.9529457008e+00	 1.2952536830e-01
 1.6600145239e-01	 1.9576838621e+00	 6.1335573372e-02
 1.4919164394e-01	 1.9590366345e+00	 7.5833528745e-02
 1.3242417602e-01	 1.9602414663e+00	 8.8683874622e-02
 1.1570069821e-01	 1.9612996159e+00	 9.9883395879e-02
 9.9022828671e-02	 1.9622123620e+00	 1.0945031746e-01
 8.2392153906e-02	 1.9629810027e+00	 1.1742818847e-01
 6.5810228674e-02	 1.9636068549e+00	 1.2388972574e-01
 4.9278575837e-02	 1.9640912533e+00	 1.2894062144e-01
 3.2798686267e-02	 1.9644355495e+00	 1.3272331835e-01
 1.6372018764e-02	 1.9646411115e+00	 1.3542075498e-01
 0.0000000000e+00	 1.9647093223e+00	 1.3726008120e-01
 1.6699537632e-01	 1.9694053791e+00	 6.9446649384e-02
 1.5008492013e-01	 1.9707662511e+00	 8.4004866499e-02
 1.3321705798e-01	 1.9719782968e+00	 9.6889204961e-02
 1.1639344934e-01	 1.9730427820e+00	 1.0809435666e-01
 9.9615722032e-02	 1.9739609931e+00	 1.1763420599e-01
 8.2885472081e-02	 1.9747342360e+00	 1.2554570874e-01
 6.6204263546e-02	 1.9753638354e+00	 1.3189274021e-01
 4.9573628410e-02	 1.9758511341e+00	 1.3676991750e-01
 3.2995066471e-02	 1.9761974918e+00	 1.4030639959e-01
 1.6470045264e-02	 1.9764042845e+00	 1.4266966761e-01
 0.0000000000e+00	 1.9764729037e+00	 1.4406928610e-01
 1.6798929800e-01	 1.9811268694e+00	 7.7300204039e-02
 1.5097819430e-01	 1.9824958411e+00	 9.1911051545e-02
 1.3400993815e-01	 1.9837151006e+00	 1.0480928993e-01
 1.1708619889e-01	 1.9847859214e+00	 1.1598905535e-01
 1.0020861405e-01	 1.9857095975e+00	 1.2546146768e-01
 8.3378789137e-02	 1.9864874426e+00	 1.3325849479e-01
 6.6598297526e-02	 1.9871207893e+00	 1.3943679624e-01
 4.9868680316e-02	 1.9876109883e+00	 1.4408155167e-01
 3.3191446231e-02	 1.9879594074e+00	 1.4731027771e-01
 1.6568071541e-02	 1.9881674309e+00	 1.4927663592e-01
 0.0000000000e+00	 1.9882364585e+00	 1.5017423256e-01
 1.6898321855e-01	 1.9928483465e+00	 8.4804720516e-02
 1.5187146746e-01	 1.9942254178e+00	 9.9470452460e-02
 1.3480281742e-01	 1.9954518911e+00	 1.1237704124e-01
 1.1777894766e-01	 1.9965290475e+00	 1.2351962115e-01
 1.0080150540e-01	 1.9974581886e+00	 1.3290813576e-01
 8.3872105635e-02	 1.9982406359e+00	 1.4057117796e-01
 6.6992331059e-02	 1.9988777298e+00	 1.4655982007e-01
 5.0163731886e-02	 1.9993708291e+00	 1.5095143976e-01
 3.3387825767e-02	 1.9997213097e+00	 1.5385354564e-01
 1.6666097707e-02	 1.9999305640e+00	 1.5540760525e-01
 0.0000000000e+00	 2.0000000000e+00	 1.5579287632e-01
 1.6997713911e-01	 2.0045698236e+00	 9.1869491789e-02
 1.5276474061e-01	 2.0059549945e+00	 1.0660208509e-01
 1.3559569669e-01	 2.0071886817e+00	 1.1952579597e-01
 1.1847169643e-01	 2.0082721737e+00	 1.3063832985e-01
 1.0139439674e-01	 2.0092067797e+00	 1.3995005675e-01
 8.4365422133e-02	 2.0099938292e+00	 1.4748781738e-01
 6.7386364593e-02	 2.0106346704e+00	 1.5329873050e-01
 5.0458783457e-02	 2.0111306700e+00	 1.5745400750e-01
 3.3584205304e-02	 2.0114832120e+00	 1.6005277846e-01
 1.6764123873e-02	 2.0116936970e+00	 1.6122593251e-01
 0.0000000000e+00	 2.0117635415e+00	 1.6113997344e-01
 1.7097106079e-01	 2.0162913140e+00	 9.8404581130e-02
 1.5365801478e-01	 2.0176845845e+00	 1.1322557618e-01
 1.3638857685e-01	 2.0189254855e+00	 1.2618928562e-01
 1.1916444599e-01	 2.0200153131e+00	 1.3729758039e-01
 1.0198728876e-01	 2.0209553842e+00	 1.4656287672e-01
 8.4858739189e-02	 2.0217470358e+00	 1.5401189829e-01
 6.7780398573e-02	 2.0223916242e+00	 1.5968945140e-01
 5.0753835363e-02	 2.0228905241e+00	 1.6366221938e-01
 3.3780585064e-02	 2.0232451276e+00	 1.6602258076e-01
 1.6862150150e-02	 2.0234568434e+00	 1.6689245423e-01
 0.0000000000e+00	 2.0235270963e+00	 1.6642717129e-01
 1.7196498472e-01	 2.0280128309e+00	 1.0432078410e-01
 1.5455129097e-01	 2.0294142011e+00	 1.1926112843e-01
 1.3718145882e-01	 2.0306623160e+00	 1.3230160624e-01
 1.1985719711e-01	 2.0317584792e+00	 1.4344987233e-01
 1.0258018212e-01	 2.0327040152e+00	 1.5272202824e-01
 8.5352057364e-02	 2.0335002691e+00	 1.6014633044e-01
 6.8174433446e-02	 2.0341486048e+00	 1.6576692373e-01
 5.1048887937e-02	 2.0346504049e+00	 1.6964760649e-01
 3.3976965269e-02	 2.0350070699e+00	 1.7187563246e-01
 1.6960176649e-02	 2.0352200165e+00	 1.7256555236e-01
 0.0000000000e+00	 2.0352906777e+00	 1.7186309639e-01
 1.7295891203e-01	 2.0397343877e+00	 1.0952959197e-01
 1.5544457020e-01	 2.0411438575e+00	 1.2462948678e-01
 1.3797434348e-01	 2.0423991863e+00	 1.3779718975e-01
 1.2054995059e-01	 2.0435016851e+00	 1.4904778415e-01
 1.0317307750e-01	 2.0444526862e+00	 1.5840271773e-01
 8.5845377216e-02	 2.0452535423e+00	 1.6589344662e-01
 6.8568469658e-02	 2.0459056252e+00	 1.7156511732e-01
 5.1343941514e-02	 2.0464103257e+00	 1.7548029349e-01
 3.4173346141e-02	 2.0467690521e+00	 1.7772273292e-01
 1.7058203481e-02	 2.0469832295e+00	 1.7840121772e-01
 0.0000000000e+00	 2.0470542992e+00	 1.7765343921e-01
 1.7395284384e-01	 2.0514559977e+00	 1.1394315656e-01
 1.5633785348e-01	 2.0528735672e+00	 1.2925190604e-01
 1.3876723173e-01	 2.0541361099e+00	 1.4261077626e-01
 1.2124270721e-01	 2.0552449443e+00	 1.5404395237e-01
 1.0376597556e-01	 2.0562014105e+00	 1.6357991334e-01
 8.6338699305e-02	 2.0570068688e+00	 1.7125500129e-01
 6.8962507657e-02	 2.0576626990e+00	 1.7711704211e-01
 5.1638996428e-02	 2.0581702998e+00	 1.8122902460e-01
 3.4369727903e-02	 2.0585310877e+00	 1.8367284370e-01
 1.7156230758e-02	 2.0587464959e+00	 1.8455311133e-01
 0.0000000000e+00	 2.0588179740e+00	 1.8400103609e-01
 2.0588179740e+00	 0.0000000000e+00	 2.6963589392e+00
 2.0587464959e+00	 1.7156230758e-02	 2.6974138670e+00
 2.0585310877e+00	 3.4369727903e-02	 2.6956967194e+00
 2.0581702998e+00	 5.1638996428e-02	 2.6913582766e+00
 2.0576626990e+00	 6.8962507657e-02	 2.6845395555e+00
 2.0570068688e+00	 8.6338699305e-02	 2.6753748155e+00
 2.0562014105e+00	 1.0376597556e-01	 2.6639944633e+00
 2.0552449443e+00	 1.2124270721e-01	 2.6505278650e+00
 2.0541361099e+00	 1.3876723173e-01	 2.6351060738e+00
 2.0528735672e+00	 1.5633785348e-01	 2.6178644884e+00
 2.0514559977e+00	 1.7395284384e-01	 2.5989454563e+00
 2.0705837120e+00	 0.0000000000e+00	 2.6737231207e+00
 2.0705118255e+00	 1.7254275229e-02	 2.6753263785e+00
 2.0702951863e+00	 3.4566144110e-02	 2.6740848783e+00
 2.0699323366e+00	 5.1934103094e-02	 2.6701538401e+00
 2.0694218349e+00	 6.9356614768e-02	 2.6636811823e+00
 2.0687622567e+00	 8.6832107919e-02	 2.6548104663e+00
 2.0679521954e+00	 1.0435897762e-01	 2.6436837207e+00
 2.0669902632e+00	 1.2193558534e-01	 2.6304441567e+00
 2.0658750920e+00	 1.3956025905e-01	 2.6152387819e+00
 2.0646053341e+00	 1.5723129343e-01	 2.5982209280e+00
 2.0631796635e+00	 1.7494694999e-01	 2.5795527078e+00
 2.0823495101e+00	 0.0000000000e+00	 2.6509864830e+00
 2.0822772151e+00	 1.7352320199e-02	 2.6529112501e+00
 2.0820593448e+00	 3.4762561319e-02	 2.6519515503e+00
 2.0816944333e+00	 5.2229211265e-02	 2.6482641270e+00
 2.0811810308e+00	 6.9750723889e-02	 2.6420009772e+00
 2.0805177046e+00	 8.7325519050e-02	 2.6333122305e+00
 2.0797030403e+00	 1.0495198270e-01	 2.6223488914e+00
 2.0787356420e+00	 1.2262846700e-01	 2.6092654530e+00
 2.0776141340e+00	 1.4035329042e-01	 2.5942223924e+00
 2.0763371609e+00	 1.5812473794e-01	 2.5773885629e+00
 2.0749033891e+00	 1.7594106120e-01	 2.5589434983e+00
 2.0941153615e+00	 0.0000000000e+00	 2.6282280794e+00
 2.0940426580e+00	 1.7450365614e-02	 2.6302520752e+00
 2.0938235567e+00	 3.4958979418e-02	 2.6293824363e+00
 2.0934565833e+00	 5.2524320773e-02	 2.6257746020e+00
 2.0929402800e+00	 7.0144834796e-02	 2.6195819186e+00
 2.0922732058e+00	 8.7818932417e-02	 2.6109584510e+00
 2.0914539384e+00	 1.0554499047e-01	 2.6000616389e+00
 2.0904810741e+00	 1.2332135180e-01	 2.5870548050e+00
 2.0893532292e+00	 1.4114632538e-01	 2.5721095274e+00
 2.0880690409e+00	 1.5901818651e-01	 2.5554078898e+00
 2.0866271679e+00	 1.7693517693e-01	 2.5371446284e+00
 2.1058812596e+00	 0.0000000000e+00	 2.6055198674e+00
 2.1058081476e+00	 1.7548411418e-02	 2.6074261955e+00
 2.1055878153e+00	 3.5155398296e-02	 2.6064578026e+00
 2.1052187801e+00	 5.2819431452e-02	 2.6027660851e+00
 2.1046995758e+00	 7.0538947267e-02	 2.5965031044e+00
 2.1040287537e+00	 8.8312347742e-02	 2.5878243286e+00
 2.1032048831e+00	 1.0613800059e-01	 2.5768911984e+00
 2.1022265528e+00	 1.2401423935e-01	 2.5638735256e+00
 2.1010923710e+00	 1.4193936349e-01	 2.5489517371e+00
 2.0998009674e+00	 1.5991163861e-01	 2.5323189782e+00
 2.0983509931e+00	 1.7792929659e-01	 2.5141830948e+00
 2.1176471977e+00	 0.0000000000e+00	 2.5829269048e+00
 2.1175736772e+00	 1.7646457555e-02	 2.5845048841e+00
 2.1173521139e+00	 3.5351817842e-02	 2.5832526501e+00
 2.1169810168e+00	 5.3114543135e-02	 2.5793149068e+00
 2.1164589116e+00	 7.0933061078e-02	 2.5728398924e+00
 2.1157843415e+00	 8.8805764744e-02	 2.5639820475e+00
 2.1149558678e+00	 1.0673101273e-01	 2.5529044866e+00
 2.1139720713e+00	 1.2470712925e-01	 2.5397812828e+00
 2.1128315527e+00	 1.4273240429e-01	 2.5247995777e+00
 2.1115329338e+00	 1.6080509376e-01	 2.5081615318e+00
 2.1100748583e+00	 1.7892341964e-01	 2.4900861349e+00
 2.1294131691e+00	 0.0000000000e+00	 2.5605075398e+00
 2.1293392401e+00	 1.7744503970e-02	 2.5615535225e+00
 2.1291164458e+00	 3.5548237944e-02	 2.5598368776e+00
 2.1287432868e+00	 5.3409655654e-02	 2.5554930577e+00
 2.1282182807e+00	 7.1327176005e-02	 2.5486640355e+00
 2.1275399626e+00	 8.9299183145e-02	 2.5395008955e+00
 2.1267068858e+00	 1.0732402655e-01	 2.5281662070e+00
 2.1257176232e+00	 1.2540002112e-01	 2.5148361902e+00
 2.1245707677e+00	 1.4352544734e-01	 2.4997026860e+00
 2.1232649335e+00	 1.6169855143e-01	 2.4829749472e+00
 2.1217987566e+00	 1.7991754550e-01	 2.4648812706e+00
 2.1411791672e+00	 0.0000000000e+00	 2.5383135950e+00
 2.1411048298e+00	 1.7842550607e-02	 2.5386317720e+00
 2.1408808043e+00	 3.5744658492e-02	 2.5362754407e+00
 2.1405055835e+00	 5.3704768841e-02	 2.5313683334e+00
 2.1399776765e+00	 7.1721291826e-02	 2.5240438125e+00
 2.1392956104e+00	 8.9792602663e-02	 2.5144473807e+00
 2.1384579305e+00	 1.0791704171e-01	 2.5027389523e+00
 2.1374632017e+00	 1.2609291456e-01	 2.4890948943e+00
 2.1363100093e+00	 1.4431849219e-01	 2.4737098514e+00
 2.1349969597e+00	 1.6259201113e-01	 2.4567983712e+00
 2.1335226816e+00	 1.8091167361e-01	 2.4385963491e+00
 2.1529451854e+00	 0.0000000000e+00	 2.5163905451e+00
 2.1528704394e+00	 1.7940597411e-02	 2.5157937395e+00
 2.1526451829e+00	 3.5941079373e-02	 2.5126285043e+00
 2.1522679002e+00	 5.3999882531e-02	 2.5070044747e+00
 2.1517370923e+00	 7.2115408316e-02	 2.4990441549e+00
 2.1510512781e+00	 9.0286023020e-02	 2.4888853446e+00
 2.1502089951e+00	 1.0851005788e-01	 2.4766833024e+00
 2.1492088002e+00	 1.2678580917e-01	 2.4626126582e+00
 2.1480492708e+00	 1.4511153839e-01	 2.4468690858e+00
 2.1467290059e+00	 1.6348547235e-01	 2.4296707548e+00
 2.1452466264e+00	 1.8190580342e-01	 2.4112595830e+00
 2.1647112168e+00	 0.0000000000e+00	 2.4947776890e+00
 2.1646360623e+00	 1.8038644326e-02	 2.4930881377e+00
 2.1644095748e+00	 3.6137500477e-02	 2.4889515912e+00
 2.1640302302e+00	 5.4294996554e-02	 2.4824613026e+00
 2.1634965214e+00	 7.2509525253e-02	 2.4737267691e+00
 2.1628069592e+00	 9.0779443937e-02	 2.4628760704e+00
 2.1619600730e+00	 1.0910307472e-01	 2.4500579203e+00
 2.1609544119e+00	 1.2747870457e-01	 2.4354434434e+00
 2.1597885457e+00	 1.4590458548e-01	 2.4192276898e+00
 2.1584610654e+00	 1.6437893458e-01	 2.4016309065e+00
 2.1569705846e+00	 1.8289993435e-01	 2.3828995881e+00
 2.1764772549e+00	 0.0000000000e+00	 2.4735083164e+00
 2.1764016919e+00	 1.8136691296e-02	 2.4705584405e+00
 2.1761739734e+00	 3.6333921693e-02	 2.4652957255e+00
 2.1757925669e+00	 5.4590110745e-02	 2.4577948500e+00
 2.1752559572e+00	 7.2903642414e-02	 2.4481502550e+00
 2.1745626469e+00	 9.1272865132e-02	 2.4364783891e+00
 2.1737111576e+00	 1.0969609189e-01	 2.4229196436e+00
 2.1727000304e+00	 1.2817160037e-01	 2.4076399875e+00
 2.1715278272e+00	 1.4669763302e-01	 2.3908323178e+00
 2.1701931315e+00	 1.6527239732e-01	 2.3727175422e+00
 2.1686945494e+00	 1.8389406585e-01	 2.3535454201e+00
 2.0514559977e+00	 1.7395284384e-01	 2.5989454563e+00
 2.0498818239e+00	 1.9161343995e-01	 2.5775668365e+00
 2.0481499994e+00	 2.0931482059e-01	 2.5529880303e+00
 2.0462592739e+00	 2.2705511524e-01	 2.5254196443e+00
 2.0442084222e+00	 2.4483242024e-01	 2.4950865809e+00
 2.0419962448e+00	 2.6264479907e-01	 2.4622305537e+00
 2.0396215691e+00	 2.8049028269e-01	 2.4271126948e+00
 2.0370832501e+00	 2.9836686993e-01	 2.3900162850e+00
 2.0343801714e+00	 3.1627252778e-01	 2.3512496434e+00
 2.0315112463e+00	 3.3420519188e-01	 2.3111492127e+00
 2.0284754181e+00	 3.5216276693e-01	 2.2700828780e+00
 2.0631796635e+00	 1.7494694999e-01	 2.5795527078e+00
 2.0615964936e+00	 1.9270847291e-01	 2.5584338137e+00
 2.0598547721e+00	 2.1051101345e-01	 2.5340878583e+00
 2.0579532415e+00	 2.2835269038e-01	 2.5067211940e+00
 2.0558906696e+00	 2.4623158916e-01	 2.4765556655e+00
 2.0536658500e+00	 2.6414576222e-01	 2.4438309516e+00
 2.0512776035e+00	 2.8209322926e-01	 2.4088069912e+00
 2.0487247785e+00	 3.0007197766e-01	 2.3717665245e+00
 2.0460062523e+00	 3.1807996281e-01	 2.3330177893e+00
 2.0431209318e+00	 3.3611510854e-01	 2.2928974087e+00
 2.0400677544e+00	 3.5417530758e-01	 2.2517735117e+00
 2.0749033891e+00	 1.7594106120e-01	 2.5589434983e+00
 2.0733112231e+00	 1.9380351146e-01	 2.5380705522e+00
 2.0715596045e+00	 2.1170721241e-01	 2.5139610537e+00
 2.0696472687e+00	 2.2965027214e-01	 2.4868173859e+00
 2.0675729765e+00	 2.4763076522e-01	 2.4568587151e+00
 2.0653355147e+00	 2.6564673302e-01	 2.4243231499e+00
 2.0629336973e+00	 2.8369618400e-01	 2.3894699740e+00
 2.0603663663e+00	 3.0177709408e-01	 2.3525819885e+00
 2.0576323924e+00	 3.1988740705e-01	 2.3139680022e+00
 2.0547306765e+00	 3.3802503495e-01	 2.2739655107e+00
 2.0516601499e+00	 3.5618785850e-01	 2.2329436065e+00
 2.0866271679e+00	 1.7693517693e-01	 2.5371446284e+00
 2.0850260057e+00	 1.9489855498e-01	 2.5164889729e+00
 2.0832644899e+00	 2.1290341679e-01	 2.4926038446e+00
 2.0813413489e+00	 2.3094785978e-01	 2.4656880390e+00
 2.0792553364e+00	 2.4902994763e-01	 2.4359585231e+00
 2.0770052324e+00	 2.6714771063e-01	 2.4036524009e+00
 2.0745898440e+00	 2.8529914600e-01	 2.3690289421e+00
 2.0720080069e+00	 3.0348221824e-01	 2.3323717139e+00
 2.0692585853e+00	 3.2169485949e-01	 2.2939908535e+00
 2.0663404738e+00	 3.3993497000e-01	 2.2542255257e+00
 2.0632525979e+00	 3.5820041854e-01	 2.2134466102e+00
 2.0983509931e+00	 1.7792929659e-01	 2.5141830948e+00
 2.0967408347e+00	 1.9599360283e-01	 2.4937017903e+00
 2.0949694218e+00	 2.1409962592e-01	 2.4700138196e+00
 2.0930354756e+00	 2.3224545256e-01	 2.4433148717e+00
 2.0909377427e+00	 2.5042913558e-01	 2.4138202950e+00
 2.0886749963e+00	 2.6864869420e-01	 2.3817668578e+00
 2.0862460370e+00	 2.8690211437e-01	 2.3474145624e+00
 2.0836496936e+00	 3.0518734916e-01	 2.3110485531e+00
 2.0808848243e+00	 3.2350231910e-01	 2.2729811595e+00
 2.0779503173e+00	 3.4184491264e-01	 2.2335541200e+00
 2.0748450919e+00	 3.6021298657e-01	 2.1931410314e+00
 2.1100748583e+00	 1.7892341964e-01	 2.4900861349e+00
 2.1084557036e+00	 1.9708865441e-01	 2.4697225405e+00
 2.1066743935e+00	 2.1529583911e-01	 2.4461899403e+00
 2.1047296419e+00	 2.3354304976e-01	 2.4196814990e+00
 2.1026201886e+00	 2.5182832829e-01	 2.3904116304e+00
 2.1003447999e+00	 2.7014968286e-01	 2.3586175421e+00
 2.0979022695e+00	 2.8850508818e-01	 2.3245608222e+00
 2.0952914199e+00	 3.0689248587e-01	 2.2885291121e+00
 2.0925111028e+00	 3.2530978485e-01	 2.2508379070e+00
 2.0895602001e+00	 3.4375486177e-01	 2.2118325314e+00
 2.0864376254e+00	 3.6222556144e-01	 2.1718903396e+00
 2.1217987566e+00	 1.7991754550e-01	 2.4648812706e+00
 2.1201706057e+00	 1.9818370909e-01	 2.4445656093e+00
 2.1183793984e+00	 2.1649205569e-01	 2.4211325536e+00
 2.1164238415e+00	 2.3484065063e-01	 2.3947734290e+00
 2.1143026677e+00	 2.5322752496e-01	 2.3657025050e+00
 2.1120146365e+00	 2.7165067578e-01	 2.3341583108e+00
 2.1095585351e+00	 2.9010806654e-01	 2.3004049833e+00
 2.1069331792e+00	 3.0859762742e-01	 2.2647336914e+00
 2.1041374142e+00	 3.2711725573e-01	 2.2274641799e+00
 2.1011701159e+00	 3.4566481631e-01	 2.1889464845e+00
 2.0980301916e+00	 3.6423814201e-01	 2.1495628674e+00
 2.1335226816e+00	 1.8091167361e-01	 2.4385963491e+00
 2.1318855343e+00	 1.9927876626e-01	 2.4182462581e+00
 2.1300844297e+00	 2.1768827499e-01	 2.3948434025e+00
 2.1281180675e+00	 2.3613825444e-01	 2.3685780599e+00
 2.1259851733e+00	 2.5462672481e-01	 2.3396652528e+00
 2.1236844997e+00	 2.7315167211e-01	 2.3083458248e+00
 2.1212148271e+00	 2.9171104853e-01	 2.2748875364e+00
 2.1185749649e+00	 3.1030277283e-01	 2.2395862266e+00
 2.1157637520e+00	 3.2892473070e-01	 2.2027670881e+00
 2.1127800580e+00	 3.4757477518e-01	 2.1647861064e+00
 2.1096227842e+00	 3.6625072714e-01	 2.1260317159e+00
 2.1452466264e+00	 1.8190580342e-01	 2.4112595830e+00
 2.1436004829e+00	 2.0037382528e-01	 2.3907806487e+00
 2.1417894810e+00	 2.1888449631e-01	 2.3673256368e+00
 2.1398123134e+00	 2.3743586046e-01	 2.3410846753e+00
 2.1376676987e+00	 2.5602592703e-01	 2.3122745480e+00
 2.1353543826e+00	 2.7465267098e-01	 2.2811395174e+00
 2.1328711390e+00	 2.9331403325e-01	 2.2479521558e+00
 2.1302167704e+00	 3.1200792114e-01	 2.2130142311e+00
 2.1273901096e+00	 3.3073220875e-01	 2.1766576978e+00
 2.1243900198e+00	 3.4948473730e-01	 2.1392458453e+00
 2.1212153965e+00	 3.6826331570e-01	 2.1011746609e+00
 2.1569705846e+00	 1.8289993435e-01	 2.3828995881e+00
 2.1553154447e+00	 2.0146888555e-01	 2.3621858668e+00
 2.1534945456e+00	 2.2008071900e-01	 2.3385838220e+00
 2.1515065725e+00	 2.3873346795e-01	 2.3122844402e+00
 2.1493502373e+00	 2.5742513084e-01	 2.2835073867e+00
 2.1470242788e+00	 2.7615367155e-01	 2.2525015623e+00
 2.1445274640e+00	 2.9491701978e-01	 2.2195456558e+00
 2.1418585891e+00	 3.1371307139e-01	 2.1849487397e+00
 2.1390164803e+00	 3.3253968884e-01	 2.1490509622e+00
 2.1359999948e+00	 3.5139470158e-01	 2.1122243902e+00
 2.1328080219e+00	 3.7027590653e-01	 2.0748740622e+00
 2.1686945494e+00	 1.8389406585e-01	 2.3535454201e+00
 2.1670304132e+00	 2.0256394644e-01	 2.3324799445e+00
 2.1651996168e+00	 2.2127694236e-01	 2.3086239481e+00
 2.1632008383e+00	 2.4003107618e-01	 2.2821703958e+00
 2.1610327826e+00	 2.5882433545e-01	 2.2533430691e+00
 2.1586941816e+00	 2.7765467298e-01	 2.2223968433e+00
 2.1561837957e+00	 2.9652000722e-01	 2.1896179469e+00
 2.1535004144e+00	 3.1541822260e-01	 2.1553242527e+00
 2.1506428576e+00	 3.3434716996e-01	 2.1198656552e+00
 2.1476099764e+00	 3.5330466695e-01	 2.0836245929e+00
 2.1444006538e+00	 3.7228849851e-01	 2.0470246053e+00
 2.0284754181e+00	 3.5216276693e-01	 2.2700828780e+00
 2.0252722203e+00	 3.7014006976e-01	 2.2267405344e+00
 2.0219001574e+00	 3.8813800011e-01	 2.1802830322e+00
 2.0183582683e+00	 4.0615437870e-01	 2.1314915800e+00
 2.0146456259e+00	 4.2418699748e-01	 2.0804968387e+00
 2.0107613379e+00	 4.4223362010e-01	 2.0274325649e+00
 2.0067045474e+00	 4.6029198261e-01	 1.9724355844e+00
 2.0024744343e+00	 4.7835979400e-01	 1.9156458446e+00
 1.9980702157e+00	 4.9643473693e-01	 1.8572067077e+00
 1.9934911467e+00	 5.1451446834e-01	 1.7972655220e+00
 1.9887365216e+00	 5.3259662025e-01	 1.7359745064e+00
 2.0400677544e+00	 3.5417530758e-01	 2.2517735117e+00
 2.0368462510e+00	 3.7225534715e-01	 2.2083142280e+00
 2.0334549174e+00	 3.9035613211e-01	 2.1618036030e+00
 2.0298927872e+00	 4.0847547076e-01	 2.1129143219e+00
 2.0261589277e+00	 4.2661114238e-01	 2.0617963933e+00
 2.0222524417e+00	 4.4476089789e-01	 2.0086030417e+00
 2.0181724675e+00	 4.6292246037e-01	 1.9534903621e+00
 2.0139181802e+00	 4.8109352574e-01	 1.8966171847e+00
 2.0094887923e+00	 4.9927176339e-01	 1.8381451836e+00
 2.0048835549e+00	 5.1745481690e-01	 1.7782392689e+00
 2.0001017580e+00	 5.3564030473e-01	 1.7170682984e+00
 2.0516601499e+00	 3.5618785850e-01	 2.2329436065e+00
 2.0484203408e+00	 3.7437063533e-01	 2.1895702303e+00
 2.0450097364e+00	 3.9257427543e-01	 2.1432240193e+00
 2.0414273648e+00	 4.1079657464e-01	 2.0944716679e+00
 2.0376722883e+00	 4.2903529965e-01	 2.0434737913e+00
 2.0337436042e+00	 4.4728818857e-01	 1.9903942162e+00
 2.0296404462e+00	 4.6555295155e-01	 1.9353994501e+00
 2.0253619844e+00	 4.8382727142e-01	 1.8786583608e+00
 2.0209074272e+00	 5.0210880433e-01	 1.8203421055e+00
 2.0162760211e+00	 5.2039518046e-01	 1.7606243473e+00
 2.0114670524e+00	 5.3868400474e-01	 1.6996817991e+00
 2.0632525979e+00	 3.5820041854e-01	 2.2134466102e+00
 2.0599944830e+00	 3.7648593310e-01	 2.1703452192e+00
 2.0565646078e+00	 3.9479242881e-01	 2.1243639827e+00
 2.0529619948e+00	 4.1311768906e-01	 2.0759677374e+00
 2.0491857010e+00	 4.3145946791e-01	 2.0253190798e+00
 2.0452348188e+00	 4.4981549071e-01	 1.9725838192e+00
 2.0411084768e+00	 4.6818345466e-01	 1.9179302638e+00
 2.0368058405e+00	 4.8656102949e-01	 1.8615287189e+00
 2.0323261138e+00	 5.0494585813e-01	 1.8035512399e+00
 2.0276685390e+00	 5.2333555735e-01	 1.7441716765e+00
 2.0228323983e+00	 5.4172771855e-01	 1.6835660536e+00
 2.0748450919e+00	 3.6021298657e-01	 2.1931410314e+00
 2.0715686711e+00	 3.7860123926e-01	 2.1504810695e+00
 2.0681195249e+00	 3.9701059098e-01	 2.1050487782e+00
 2.0644966705e+00	 4.1543881268e-01	 2.0572124431e+00
 2.0606991594e+00	 4.3388364579e-01	 2.0071282598e+00
 2.0567260790e+00	 4.5234280287e-01	 1.9549556431e+00
 2.0525765529e+00	 4.7081396820e-01	 1.9008563331e+00
 2.0482497420e+00	 4.8929479841e-01	 1.8449937154e+00
 2.0437448457e+00	 5.0778292318e-01	 1.7875323996e+00
 2.0390611021e+00	 5.2627594590e-01	 1.7286380968e+00
 2.0341977892e+00	 5.4477144444e-01	 1.6684778385e+00
 2.0864376254e+00	 3.6222556144e-01	 2.1718903396e+00
 2.0831428986e+00	 3.8071655261e-01	 2.1298248532e+00
 2.0796744814e+00	 3.9922876070e-01	 2.0851091341e+00
 2.0760313854e+00	 4.1775994419e-01	 2.0380213404e+00
 2.0722126570e+00	 4.3630783191e-01	 1.9887031248e+00
 2.0682173782e+00	 4.5487012363e-01	 1.9372993719e+00
 2.0640446679e+00	 4.7344449068e-01	 1.8839571255e+00
 2.0596936825e+00	 4.9202857663e-01	 1.8288247343e+00
 2.0551636165e+00	 5.1061999788e-01	 1.7720512584e+00
 2.0504537039e+00	 5.2921634445e-01	 1.7137861817e+00
 2.0455632189e+00	 5.4781518067e-01	 1.6541794742e+00
 2.0980301916e+00	 3.6423814201e-01	 2.1495628674e+00
 2.0947171588e+00	 3.8283187195e-01	 2.1082287157e+00
 2.0912294706e+00	 4.0144693670e-01	 2.0643810851e+00
 2.0875661330e+00	 4.2008108228e-01	 2.0182154788e+00
 2.0837261872e+00	 4.3873202489e-01	 1.9698511031e+00
 2.0797087100e+00	 4.5739745154e-01	 1.9194104147e+00
 2.0755128155e+00	 4.7607502062e-01	 1.8670178726e+00
 2.0711376553e+00	 4.9476236259e-01	 1.8127989091e+00
 2.0665824196e+00	 5.1345708062e-01	 1.7568791681e+00
 2.0618463381e+00	 5.3215675133e-01	 1.6993840544e+00
 2.0569286807e+00	 5.5085892553e-01	 1.6404386416e+00
 2.1096227842e+00	 3.6625072714e-01	 2.1260317159e+00
 2.1062914454e+00	 3.8494719609e-01	 2.0855497536e+00
 2.1027844860e+00	 4.0366511773e-01	 2.0427058387e+00
 2.0991009068e+00	 4.2240222563e-01	 1.9976212576e+00
 2.0952397434e+00	 4.4115622337e-01	 1.9503851029e+00
 2.0912000679e+00	 4.5992478519e-01	 1.9010897434e+00
 2.0869809891e+00	 4.7870555652e-01	 1.8498294004e+00
 2.0825816541e+00	 4.9749615474e-01	 1.7966989474e+00
 2.0780012486e+00	 5.1629416979e-01	 1.7417929806e+00
 2.0732389980e+00	 5.3509716488e-01	 1.6852052073e+00
 2.0682941683e+00	 5.5390267729e-01	 1.6270282021e+00
 2.1212153965e+00	 3.6826331570e-01	 2.1011746609e+00
 2.1178657515e+00	 3.8706252382e-01	 2.0616498950e+00
 2.1143395211e+00	 4.0588330253e-01	 2.0199296435e+00
 2.1106357002e+00	 4.2472337292e-01	 1.9760702835e+00
 2.1067533193e+00	 4.4358042598e-01	 1.9301233614e+00
 2.1026914453e+00	 4.6245212313e-01	 1.8821437326e+00
 2.0984491822e+00	 4.8133609690e-01	 1.8321879634e+00
 2.0940256723e+00	 5.0022995155e-01	 1.7803129600e+00
 2.0894200970e+00	 5.1913126378e-01	 1.7265748728e+00
 2.0846316773e+00	 5.3803758343e-01	 1.6710283256e+00
 2.0796596752e+00	 5.5694643422e-01	 1.6137260210e+00
 2.1328080219e+00	 3.7027590653e-01	 2.0748740622e+00
 2.1294400708e+00	 3.8917785396e-01	 2.0363957824e+00
 2.1258945692e+00	 4.0810148984e-01	 1.9959036608e+00
 2.1221705066e+00	 4.2704452285e-01	 1.9533992320e+00
 2.1182669082e+00	 4.4600463133e-01	 1.9088892965e+00
 2.1141828357e+00	 4.6497946394e-01	 1.8623840039e+00
 2.1099173883e+00	 4.8396664025e-01	 1.8138950815e+00
 2.1054697035e+00	 5.0296375145e-01	 1.7634342926e+00
 2.1008389583e+00	 5.2196836099e-01	 1.7110121752e+00
 2.0960243695e+00	 5.4097800530e-01	 1.6566371137e+00
 2.0910251950e+00	 5.5999019460e-01	 1.6003147946e+00
 2.1444006538e+00	 3.7228849851e-01	 2.0470246053e+00
 2.1410143967e+00	 3.9129318529e-01	 2.0096586579e+00
 2.1374496239e+00	 4.1031967841e-01	 1.9704838388e+00
 2.1337053196e+00	 4.2936567409e-01	 1.9294497111e+00
 2.1297805036e+00	 4.4842883805e-01	 1.8865113612e+00
 2.1256742326e+00	 4.6750680617e-01	 1.8416272726e+00
 2.1213856008e+00	 4.8659718510e-01	 1.7947573807e+00
 2.1169137412e+00	 5.0569755290e-01	 1.7458613612e+00
 2.1122578261e+00	 5.2480545980e-01	 1.6948972038e+00
 2.1074170682e+00	 5.4391842885e-01	 1.6418201256e+00
 2.1023907212e+00	 5.6303395671e-01	 1.5865818796e+00
 1.9887365216e+00	 5.3259662025e-01	 1.7359745064e+00
 1.9838056747e+00	 5.5067880065e-01	 1.6731262453e+00
 1.9786979827e+00	 5.6875859512e-01	 1.6085208546e+00
 1.9734128641e+00	 5.8683356689e-01	 1.5423364763e+00
 1.9679497795e+00	 6.0490125739e-01	 1.4747670742e+00
 1.9623082321e+00	 6.2295918711e-01	 1.4060255035e+00
 1.9564877690e+00	 6.4100485649e-01	 1.3363470964e+00
 1.9504879813e+00	 6.5903574679e-01	 1.2659937940e+00
 1.9443085050e+00	 6.7704932100e-01	 1.1952588540e+00
 1.9379490220e+00	 6.9504302486e-01	 1.1244721579e+00
 1.9314092600e+00	 7.1301428772e-01	 1.0540061433e+00
 2.0001017580e+00	 5.3564030473e-01	 1.7170682984e+00
 1.9951427323e+00	 5.5382582122e-01	 1.6544646625e+00
 1.9900058509e+00	 5.7200893815e-01	 1.5902374759e+00
 1.9846905289e+00	 5.9018720481e-01	 1.5245337607e+00
 1.9791962238e+00	 6.0835814859e-01	 1.4575153055e+00
 1.9735224361e+00	 6.2651927582e-01	 1.3893616904e+00
 1.9676687101e+00	 6.4466807263e-01	 1.3202738459e+00
 1.9616346348e+00	 6.6280200590e-01	 1.2504781780e+00
 1.9554198441e+00	 6.8091852414e-01	 1.1802312895e+00
 1.9490240178e+00	 6.9901505846e-01	 1.1098253243e+00
 1.9424468824e+00	 7.1708902354e-01	 1.0395939592e+00
 2.0114670524e+00	 5.3868400474e-01	 1.6996817991e+00
 2.0064798477e+00	 5.5697285785e-01	 1.6373861383e+00
 2.0013137767e+00	 5.7525929776e-01	 1.5735669682e+00
 1.9959682511e+00	 5.9354085984e-01	 1.5083493548e+00
 1.9904427254e+00	 6.1181505743e-01	 1.4418719454e+00
 1.9847366972e+00	 6.3007938268e-01	 1.3742899285e+00
 1.9788497083e+00	 6.4833130746e-01	 1.3057785464e+00
 1.9727813452e+00	 6.6656828423e-01	 1.2365371946e+00
 1.9665312398e+00	 6.8478774701e-01	 1.1667941373e+00
 1.9600990702e+00	 7.0298711232e-01	 1.0968118707e+00
 1.9534845611e+00	 7.2116378014e-01	 1.0268931572e+00
 2.0228323983e+00	 5.4172771855e-01	 1.6835660536e+00
 2.0178170145e+00	 5.6011990874e-01	 1.6216424292e+00
 2.0126217538e+00	 5.7850967210e-01	 1.5582597824e+00
 2.0072460245e+00	 5.9689453007e-01	 1.4935303053e+00
 2.0016892780e+00	 6.1527198194e-01	 1.4275784525e+00
 1.9959510092e+00	 6.3363950569e-01	 1.3605438168e+00
 1.9900307572e+00	 6.5199455890e-01	 1.2925845763e+00
 1.9839281062e+00	 6.7033457964e-01	 1.2238815470e+00
 1.9776426859e+00	 6.8865698743e-01	 1.1546428756e+00
 1.9711741728e+00	 7.0695918419e-01	 1.0851094017e+00
 1.9645222899e+00	 7.2523855522e-01	 1.0155607177e+00
 2.0341977892e+00	 5.4477144444e-01	 1.6684778385e+00
 2.0291542263e+00	 5.6326697212e-01	 1.6069908249e+00
 2.0239297757e+00	 5.8176005934e-01	 1.5440717588e+00
 2.0185238426e+00	 6.0024821361e-01	 1.4798289614e+00
 2.0129358753e+00	 6.1872892016e-01	 1.4143815631e+00
 2.0071653657e+00	 6.3719964282e-01	 1.3478622748e+00
 2.0012118504e+00	 6.5565782486e-01	 1.2804207478e+00
 1.9950749113e+00	 6.7410088998e-01	 1.2122275622e+00
 1.9887541761e+00	 6.9252624319e-01	 1.1434788760e+00
 1.9822493193e+00	 7.1093127181e-01	 1.0744017689e+00
 1.9755600624e+00	 7.2931334646e-01	 1.0052603095e+00
 2.0455632189e+00	 5.4781518067e-01	 1.6541794742e+00
 2.0404914766e+00	 5.6641404620e-01	 1.5931939626e+00
 2.0352378361e+00	 5.8501045763e-01	 1.5307639401e+00
 2.0298016991e+00	 6.0360190855e-01	 1.4670027866e+00
 2.0241825108e+00	 6.2218587014e-01	 1.4020331015e+00
 2.0183797603e+00	 6.4075979205e-01	 1.3359893480e+00
 2.0123929817e+00	 6.5932110328e-01	 1.2690211081e+00
 2.0062217544e+00	 6.7786721313e-01	 1.2012969847e+00
 1.9998657041e+00	 6.9639551211e-01	 1.1330091891e+00
 1.9933245034e+00	 7.1490337294e-01	 1.0643788471e+00
 1.9865978725e+00	 7.3338815155e-01	 9.9566205560e-01
 2.0569286807e+00	 5.5085892553e-01	 1.6404386416e+00
 2.0518287591e+00	 5.6956112920e-01	 1.5800196442e+00
 2.0465459285e+00	 5.8826086513e-01	 1.5181023886e+00
 2.0410795875e+00	 6.0695561299e-01	 1.4548141750e+00
 2.0354291781e+00	 6.2564282991e-01	 1.3902897927e+00
 2.0295941867e+00	 6.4431995137e-01	 1.3246740184e+00
 2.0235741446e+00	 6.6298439209e-01	 1.2581247444e+00
 2.0173686290e+00	 6.8163354695e-01	 1.1908167757e+00
 2.0109772636e+00	 7.0026479199e-01	 1.1229463356e+00
 2.0043997190e+00	 7.1887548533e-01	 1.0547363156e+00
 1.9976357139e+00	 7.3746296819e-01	 9.8644230311e-01
 2.0682941683e+00	 5.5390267729e-01	 1.6270282021e+00
 2.0631660672e+00	 5.7270821933e-01	 1.5672406568e+00
 2.0578540466e+00	 5.9151128000e-01	 1.5058580072e+00
 2.0523575015e+00	 6.1030932504e-01	 1.4430302704e+00
 2.0466758709e+00	 6.2909979752e-01	 1.3789130797e+00
 2.0408086385e+00	 6.4788011876e-01	 1.3136700169e+00
 2.0347553329e+00	 6.6664768919e-01	 1.2474755918e+00
 2.0285155289e+00	 6.8539988932e-01	 1.1805189147e+00
 2.0220888482e+00	 7.0413408065e-01	 1.1130081006e+00
 2.0154749596e+00	 7.2284760672e-01	 1.0451754440e+00
 2.0086735802e+00	 7.4153779407e-01	 9.7728293272e-01
 2.0796596752e+00	 5.5694643422e-01	 1.6137260210e+00
 2.0745033947e+00	 5.7585531481e-01	 1.5546345970e+00
 2.0691621838e+00	 5.9476170039e-01	 1.4938063628e+00
 2.0636354346e+00	 6.1366304278e-01	 1.4314227885e+00
 2.0579225829e+00	 6.3255677101e-01	 1.3676689437e+00
 2.0520231093e+00	 6.5144029221e-01	 1.3027356405e+00
 2.0459365401e+00	 6.7031099253e-01	 1.2368222453e+00
 2.0396624478e+00	 6.8916623808e-01	 1.1701402054e+00
 2.0332004517e+00	 7.0800337588e-01	 1.1029173323e+00
 2.0265502191e+00	 7.2681973486e-01	 1.0354028813e+00
 2.0197114654e+00	 7.4561262687e-01	 9.6786020291e-01
 2.0910251950e+00	 5.5999019460e-01	 1.6003147946e+00
 2.0858407349e+00	 5.7900241386e-01	 1.5419836984e+00
 2.0804703339e+00	 5.9801212447e-01	 1.4817275133e+00
 2.0749133806e+00	 6.1701676433e-01	 1.4197678432e+00
 2.0691693076e+00	 6.3601374841e-01	 1.3563277270e+00
 2.0632375929e+00	 6.5500046968e-01	 1.2916335716e+00
 2.0571177601e+00	 6.7397430001e-01	 1.2259177748e+00
 2.0508093793e+00	 6.9293259111e-01	 1.1594220849e+00
 2.0443120679e+00	 7.1187267550e-01	 1.0924017432e+00
 2.0376254911e+00	 7.3079186751e-01	 1.0251304498e+00
 2.0307493630e+00	 7.4968746430e-01	 9.5787120883e-01
 2.1023907212e+00	 5.6303395671e-01	 1.5865818796e+00
 2.0971780816e+00	 5.8214951469e-01	 1.5290746619e+00
 2.0917784904e+00	 6.0126255039e-01	 1.4694058379e+00
 2.0861913329e+00	 6.2037048778e-01	 1.4078457745e+00
 2.0804160387e+00	 6.3947072777e-01	 1.3446639592e+00
 2.0744520828e+00	 6.5856064918e-01	 1.2801307011e+00
 2.0682989864e+00	 6.7763760958e-01	 1.2145195435e+00
 2.0619563171e+00	 6.9669894628e-01	 1.1481104363e+00
 2.0554236903e+00	 7.1574197731e-01	 1.0811937168e+00
 2.0487007695e+00	 7.3476400240e-01	 1.0140749422e+00
 2.0417872669e+00	 7.5376230403e-01	 9.4702558343e-01
 1.9314092600e+00	 7.1301428772e-01	 1.0540061433e+00
 1.9246878357e+00	 7.3096357228e-01	 9.8339478005e-01
 1.9177856665e+00	 7.4888521892e-01	 9.1200692014e-01
 1.9107026212e+00	 7.6677661188e-01	 8.3921844400e-01
 1.9034386170e+00	 7.8463512312e-01	 7.6504987600e-01
 1.8959936204e+00	 8.0245811344e-01	 6.8969397030e-01
 1.8883676471e+00	 8.2024293355e-01	 6.1334380851e-01
 1.8805607631e+00	 8.3798692522e-01	 5.3619381110e-01
 1.8725730846e+00	 8.5568742243e-01	 4.5844098995e-01
 1.8644047787e+00	 8.7334175249e-01	 3.8028644610e-01
 1.8560560637e+00	 8.9094723725e-01	 3.0193711567e-01
 1.9424468824e+00	 7.1708902354e-01	 1.0395939592e+00
 1.9356870465e+00	 7.3514088471e-01	 9.6911614060e-01
 1.9287454328e+00	 7.5316495002e-01	 8.9771849133e-01
 1.9216219093e+00	 7.7115858876e-01	 8.2492373791e-01
 1.9143163928e+00	 7.8911915787e-01	 7.5092195044e-01
 1.9068288494e+00	 8.0704400305e-01	 6.7594874853e-01
 1.8991592952e+00	 8.2493045989e-01	 6.0023551757e-01
 1.8913077964e+00	 8.4277585498e-01	 5.2401032358e-01
 1.8832744699e+00	 8.6057750703e-01	 4.4749908258e-01
 1.8750594838e+00	 8.7833272810e-01	 3.7092698881e-01
 1.8666630574e+00	 8.9603882473e-01	 2.9452020527e-01
 1.9534845611e+00	 7.2116378014e-01	 1.0268931572e+00
 1.9466863134e+00	 7.3931821845e-01	 9.5663427478e-01
 1.9397052549e+00	 7.5744470296e-01	 8.8525754466e-01
 1.9325412530e+00	 7.7554058799e-01	 8.1252181671e-01
 1.9251942240e+00	 7.9360321548e-01	 7.3870044139e-01
 1.9176641337e+00	 8.1162991606e-01	 6.6406062267e-01
 1.9099509984e+00	 8.2961801015e-01	 5.8886120657e-01
 1.9020548846e+00	 8.4756480916e-01	 5.1335352048e-01
 1.8939759098e+00	 8.6546761658e-01	 4.3778247993e-01
 1.8857142432e+00	 8.8332372917e-01	 3.6238796806e-01
 1.8772701053e+00	 9.0113043818e-01	 2.8740649125e-01
 1.9645222899e+00	 7.2523855522e-01	 1.0155607177e+00
 1.9576856302e+00	 7.4349557113e-01	 9.4557880449e-01
 1.9506651268e+00	 7.6172447529e-01	 8.7427409196e-01
 1.9434606463e+00	 7.7992260709e-01	 8.0166274366e-01
 1.9360721045e+00	 7.9808729343e-01	 7.2804504982e-01
 1.9284994672e+00	 8.1621584985e-01	 6.5370873922e-01
 1.9207427505e+00	 8.3430558166e-01	 5.7892949005e-01
 1.9128020214e+00	 8.5235378506e-01	 5.0397171415e-01
 1.9046773982e+00	 8.7035774829e-01	 4.2908962184e-01
 1.8963690509e+00	 8.8831475287e-01	 3.5452857288e-01
 1.8878772013e+00	 9.0622207471e-01	 2.8052671758e-01
 1.9755600624e+00	 7.2931334646e-01	 1.0052603095e+00
 1.9686849906e+00	 7.4767294038e-01	 9.3557238300e-01
 1.9616250422e+00	 7.6600426461e-01	 8.6442370457e-01
 1.9543800829e+00	 7.8430464357e-01	 7.9200208838e-01
 1.9469500282e+00	 8.0257138916e-01	 7.1862072825e-01
 1.9393348436e+00	 8.2080180184e-01	 6.4457703531e-01
 1.9315345454e+00	 8.3899317177e-01	 5.7015310154e-01
 1.9235492009e+00	 8.5714277995e-01	 4.9561644932e-01
 1.9153789291e+00	 8.7524789940e-01	 4.2122107451e-01
 1.9070239008e+00	 8.9330579636e-01	 3.4720878913e-01
 1.8984843394e+00	 9.1131373144e-01	 2.7381086795e-01
 1.9865978725e+00	 7.3338815155e-01	 9.9566205560e-01
 1.9796843884e+00	 7.5185032383e-01	 9.2628217764e-01
 1.9725849948e+00	 7.7028406847e-01	 8.5536731642e-01
 1.9652995566e+00	 7.8868669495e-01	 7.8320073126e-01
 1.9578279888e+00	 8.0705550014e-01	 7.1009749244e-01
 1.9501702568e+00	 8.2538776942e-01	 6.3635406352e-01
 1.9423263770e+00	 8.4368077781e-01	 5.6224873770e-01
 1.9342964169e+00	 8.6193179112e-01	 4.8804237265e-01
 1.9260804963e+00	 8.8013806715e-01	 4.1397943195e-01
 1.9176787870e+00	 8.9829685683e-01	 3.4028933933e-01
 1.9090915135e+00	 9.1640540548e-01	 2.6718815061e-01
 1.9976357139e+00	 7.3746296819e-01	 9.8644230311e-01
 1.9906838174e+00	 7.5602771912e-01	 9.1738318134e-01
 1.9835449784e+00	 7.7456388447e-01	 8.4677103232e-01
 1.9762190613e+00	 7.9306875875e-01	 7.7492467305e-01
 1.9687059803e+00	 8.1153962383e-01	 7.0215023787e-01
 1.9610057008e+00	 8.2997375000e-01	 6.2873282112e-01
 1.9531182391e+00	 8.4836839714e-01	 5.5493690615e-01
 1.9450436634e+00	 8.6672081587e-01	 4.8100710532e-01
 1.9367820939e+00	 8.8502824874e-01	 4.0716921940e-01
 1.9283337034e+00	 9.0328793143e-01	 3.3363162319e-01
 1.9196987177e+00	 9.2149709395e-01	 2.6058698237e-01
 2.0086735802e+00	 7.4153779407e-01	 9.7728293272e-01
 2.0016832713e+00	 7.6020512388e-01	 9.0855524023e-01
 1.9945049869e+00	 7.7884371016e-01	 8.3830594132e-01
 1.9871385907e+00	 7.9745083248e-01	 7.6684484943e-01
 1.9795839965e+00	 8.1602375768e-01	 6.9445856100e-01
 1.9718411693e+00	 8.3455974097e-01	 6.2141058358e-01
 1.9639101257e+00	 8.5305602709e-01	 5.4794177708e-01
 1.9557909342e+00	 8.7150985147e-01	 4.7427111841e-01
 1.9474837157e+00	 8.8991844142e-01	 4.0059679850e-01
 1.9389886439e+00	 9.0827901735e-01	 3.2709765865e-01
 1.9303059459e+00	 9.2658879397e-01	 2.5393497165e-01
 2.0197114654e+00	 7.4561262687e-01	 9.6786020291e-01
 2.0126827439e+00	 7.6438253575e-01	 8.9948287575e-01
 2.0054650141e+00	 7.8312354313e-01	 8.2964793486e-01
 1.9980581386e+00	 8.0183291366e-01	 7.5863695034e-01
 1.9904620311e+00	 8.2050789915e-01	 6.8670658506e-01
 1.9826766563e+00	 8.3914573974e-01	 6.1408874225e-01
 1.9747020307e+00	 8.5774366501e-01	 5.4099103820e-01
 1.9665382233e+00	 8.7629889521e-01	 4.6759761099e-01
 1.9581853557e+00	 8.9480864242e-01	 3.9407027423e-01
 1.9496436026e+00	 9.1327011176e-01	 3.2055002348e-01
 1.9409131922e+00	 9.3168050264e-01	 2.4715890085e-01
 2.0307493630e+00	 7.4968746430e-01	 9.5787120883e-01
 2.0236822290e+00	 7.6855995234e-01	 8.8985511144e-01
 2.0164250536e+00	 7.8740338095e-01	 8.2047752962e-01
 2.0089776990e+00	 8.0621499981e-01	 7.4998124388e-01
 2.0013400781e+00	 8.2499204571e-01	 6.7858279019e-01
 1.9935121555e+00	 8.4373174370e-01	 6.0647264593e-01
 1.9854939479e+00	 8.6243130824e-01	 5.3381575328e-01
 1.9772855246e+00	 8.8108794438e-01	 4.6075239086e-01
 1.9688870079e+00	 8.9969884896e-01	 3.8739940347e-01
 1.9602985733e+00	 9.1826121182e-01	 3.1385179750e-01
 1.9515204505e+00	 9.3677221707e-01	 2.4018470782e-01
 2.0417872669e+00	 7.5376230403e-01	 9.4702558343e-01
 2.0346817203e+00	 7.7273737131e-01	 8.7936530402e-01
 2.0273850994e+00	 7.9168322120e-01	 8.1047969476e-01
 2.0198972655e+00	 8.1059708844e-01	 7.4056240465e-01
 2.0122181312e+00	 8.2947619481e-01	 6.6977984773e-01
 2.0043476608e+00	 8.4831775027e-01	 5.9827144632e-01
 1.9962858712e+00	 8.6711895413e-01	 5.2615022371e-01
 1.9880328320e+00	 8.8587699627e-01	 4.5350375776e-01
 1.9795886661e+00	 9.0458905827e-01	 3.8039550526e-01
 1.9709535501e+00	 9.2325231471e-01	 3.0686650516e-01
 1.9621277148e+00	 9.4186393440e-01	 2.3293746660e-01
 1.8560560637e+00	 8.9094723725e-01	 3.0193711567e-01
 1.8475286740e+00	 9.0849821480e-01	 2.2262685563e-01
 1.8388215263e+00	 9.2599499707e-01	 1.4348207676e-01
 1.8299349926e+00	 9.4343489709e-01	 6.5076565836e-02
 1.8208694974e+00	 9.6081522727e-01	-1.2417541202e-02
 1.8116255174e+00	 9.7813330059e-01	-8.8845994836e-02
 1.8022035822e+00	 9.9538643189e-01	-1.6406750325e-01
 1.7926042739e+00	 1.0125719391e+00	-2.3794789548e-01
 1.7828282277e+00	 1.0296871447e+00	-3.1035337501e-01
 1.7728761316e+00	 1.0467293765e+00	-3.8114286866e-01
 1.7627487265e+00	 1.0636959697e+00	-4.5015948210e-01
 1.8666630574e+00	 8.9603882473e-01	 2.9452020527e-01
 1.8580869355e+00	 9.1369010265e-01	 2.1720249035e-01
 1.8493300281e+00	 9.3128687558e-01	 1.3773402171e-01
 1.8403927097e+00	 9.4882644118e-01	 5.8506910957e-02
 1.8312754069e+00	 9.6630609651e-01	-1.9468162848e-02
 1.8219785994e+00	 9.8372313920e-01	-9.6056792930e-02
 1.8125028197e+00	 1.0010748687e+00	-1.7113765149e-01
 1.8028486533e+00	 1.0183585878e+00	-2.4459649160e-01
 1.7930167389e+00	 1.0355716033e+00	-3.1631920371e-01
 1.7830077685e+00	 1.0527112282e+00	-3.8618393139e-01
 1.7728224872e+00	 1.0697747820e+00	-4.5405225767e-01
 1.8772701053e+00	 9.0113043818e-01	 2.8740649125e-01
 1.8686452508e+00	 9.1888201699e-01	 2.1192015267e-01
 1.8598385835e+00	 9.3657878107e-01	 1.3466783157e-01
 1.8508504800e+00	 9.5421801277e-01	 5.5451607076e-02
 1.8416813695e+00	 9.7179699376e-01	-2.3590828182e-02
 1.8323317342e+00	 9.8931300632e-01	-1.0089194043e-01
 1.8228021097e+00	 1.0067633346e+00	-1.7633535142e-01
 1.8130930849e+00	 1.0241452659e+00	-2.4981275721e-01
 1.8032053021e+00	 1.0414560920e+00	-3.2121681455e-01
 1.7931394571e+00	 1.0586931103e+00	-3.9043304820e-01
 1.7828962994e+00	 1.0758536254e+00	-4.5733079053e-01
 1.8878772013e+00	 9.0622207471e-01	 2.8052671758e-01
 1.8792036139e+00	 9.2407395485e-01	 2.0635975905e-01
 1.8703471866e+00	 9.4187071056e-01	 1.3094445313e-01
 1.8613082978e+00	 9.5960960880e-01	 5.4033276324e-02
 1.8520873793e+00	 9.7728791590e-01	-2.4592259517e-02
 1.8426849159e+00	 9.9490289878e-01	-1.0314571069e-01
 1.8331014464e+00	 1.0124518263e+00	-1.7945742253e-01
 1.8233375629e+00	 1.0299319703e+00	-2.5341032033e-01
 1.8133939114e+00	 1.0473406073e+00	-3.2489111931e-01
 1.8032711916e+00	 1.0646750196e+00	-3.9378109953e-01
 1.7929701573e+00	 1.0819324963e+00	-4.5994682087e-01
 1.8984843394e+00	 9.1131373144e-01	 2.7381086795e-01
 1.8897620190e+00	 9.2926591332e-01	 2.0052033067e-01
 1.8808558313e+00	 9.4716266104e-01	 1.2647155567e-01
 1.8717661571e+00	 9.6500122622e-01	 5.1407524039e-02
 1.8624934303e+00	 9.8277885983e-01	-2.4900034621e-02
 1.8530381388e+00	 1.0004928134e+00	-1.0264647531e-01
 1.8434008240e+00	 1.0181403405e+00	-1.8030376393e-01
 1.8335820816e+00	 1.0357186976e+00	-2.5520560594e-01
 1.8235825611e+00	 1.0532251460e+00	-3.2718918319e-01
 1.8134029664e+00	 1.0706569526e+00	-3.9612010961e-01
 1.8030440551e+00	 1.0880113914e+00	-4.6185185220e-01
 1.9090915135e+00	 9.1640540548e-01	 2.6718815061e-01
 1.9003204599e+00	 9.3445788944e-01	 1.9439863660e-01
 1.8913645118e+00	 9.5245462951e-01	 1.2130099096e-01
 1.8822240519e+00	 9.7039286197e-01	 4.7643975671e-02
 1.8728995167e+00	 9.8826982242e-01	-2.6795982137e-02
 1.8633913968e+00	 1.0060827471e+00	-1.0221054452e-01
 1.8537002366e+00	 1.0238288740e+00	-1.7875494326e-01
 1.8438266351e+00	 1.0415054446e+00	-2.5501797724e-01
 1.8337712455e+00	 1.0591097047e+00	-3.2796038293e-01
 1.8235347755e+00	 1.0766389059e+00	-3.9734343035e-01
 1.8131179871e+00	 1.0940903071e+00	-4.6299737000e-01
 1.9196987177e+00	 9.2149709395e-01	 2.6058698237e-01
 1.9108789308e+00	 9.3964988027e-01	 1.8798922059e-01
 1.9018732221e+00	 9.5774661298e-01	 1.1548124166e-01
 1.8926819764e+00	 9.7578451300e-01	 4.2832600979e-02
 1.8833056327e+00	 9.9376080057e-01	-3.0161354601e-02
 1.8737446841e+00	 1.0116726965e+00	-1.0367518887e-01
 1.8639996784e+00	 1.0295174237e+00	-1.7784879139e-01
 1.8540712177e+00	 1.0472922080e+00	-2.5278251682e-01
 1.8439599588e+00	 1.0649942801e+00	-3.2705656957e-01
 1.8336666134e+00	 1.0826208762e+00	-3.9734592900e-01
 1.8231919477e+00	 1.1001692400e+00	-4.6333506292e-01
 1.9303059459e+00	 9.2658879397e-01	 2.5393497165e-01
 1.9214374256e+00	 9.4484188287e-01	 1.8128442556e-01
 1.9123819561e+00	 9.6303860844e-01	 1.0905747951e-01
 1.9031399245e+00	 9.8117617625e-01	 3.7059236892e-02
 1.8937117722e+00	 9.9925179117e-01	-3.4882065667e-02
 1.8840979949e+00	 1.0172626587e+00	-1.0691073424e-01
 1.8742991435e+00	 1.0352059863e+00	-1.7913899244e-01
 1.8643158234e+00	 1.0530789845e+00	-2.5164206629e-01
 1.8541486952e+00	 1.0708788688e+00	-3.2445299221e-01
 1.8437984742e+00	 1.0886028600e+00	-3.9602417940e-01
 1.8332659312e+00	 1.1062481867e+00	-4.6281704649e-01
 1.9409131922e+00	 9.3168050264e-01	 2.4715890085e-01
 1.9319959384e+00	 9.5003389429e-01	 1.7427441591e-01
 1.9228907081e+00	 9.6833061290e-01	 1.0207162032e-01
 1.9135978905e+00	 9.8656784866e-01	 3.0405667474e-02
 1.9041179294e+00	 1.0047427911e+00	-4.0848592836e-02
 1.8944513234e+00	 1.0228526304e+00	-1.1179229026e-01
 1.8845986262e+00	 1.0408945585e+00	-1.8249789327e-01
 1.8745604466e+00	 1.0588657709e+00	-2.5300426306e-01
 1.8643374488e+00	 1.0767634675e+00	-3.2331141547e-01
 1.8539303523e+00	 1.0945848540e+00	-3.9337500652e-01
 1.8433399317e+00	 1.1123271438e+00	-4.6139597516e-01
 1.9515204505e+00	 9.3677221707e-01	 2.4018470782e-01
 1.9425544631e+00	 9.5522591160e-01	 1.6694719778e-01
 1.9333994719e+00	 9.7362262336e-01	 9.4562375682e-02
 1.9240558683e+00	 9.9195952719e-01	 2.2949699929e-02
 1.9145240984e+00	 1.0102337973e+00	-4.7955884700e-02
 1.9048046635e+00	 1.0284426084e+00	-1.1819964846e-01
 1.8948981205e+00	 1.0465831372e+00	-1.8780244510e-01
 1.8848050814e+00	 1.0646525638e+00	-2.5675575830e-01
 1.8745262141e+00	 1.0826480728e+00	-3.2501643953e-01
 1.8640622418e+00	 1.1005668548e+00	-3.9250115303e-01
 1.8534139437e+00	 1.1184061077e+00	-4.5907127634e-01
 1.9621277148e+00	 9.4186393440e-01	 2.3293746660e-01
 1.9531129938e+00	 9.6041793185e-01	 1.5928863725e-01
 1.9439082417e+00	 9.7891463682e-01	 8.6565301767e-02
 1.9345138520e+00	 9.9735120877e-01	 1.4765236788e-02
 1.9249302732e+00	 1.0157248065e+00	-5.6103272540e-02
 1.9151580095e+00	 1.0340325895e+00	-1.2601718497e-01
 1.9051976206e+00	 1.0522717191e+00	-1.9493410498e-01
 1.8950497220e+00	 1.0704393600e+00	-2.6278734495e-01
 1.8847149851e+00	 1.0885326815e+00	-3.2948066077e-01
 1.8741941371e+00	 1.1065488590e+00	-3.9488267702e-01
 1.8634879614e+00	 1.1244850751e+00	-4.5877342050e-01
 1.7627487265e+00	 1.0636959697e+00	-4.5015948210e-01
 1.7524468065e+00	 1.0805842676e+00	-5.1835124452e-01
 1.7419712206e+00	 1.0973916249e+00	-5.8642573611e-01
 1.7313228706e+00	 1.1141154073e+00	-6.5384147590e-01
 1.7205027111e+00	 1.1307529925e+00	-7.2064412772e-01
 1.7095117490e+00	 1.1473017722e+00	-7.8686862168e-01
 1.6983510437e+00	 1.1637591524e+00	-8.5234966945e-01
 1.6870217063e+00	 1.1801225555e+00	-9.1696224643e-01
 1.6755248995e+00	 1.1963894212e+00	-9.8061863436e-01
 1.6638618377e+00	 1.2125572078e+00	-1.0432651297e+00
 1.6520337861e+00	 1.2286233937e+00	-1.1048784358e+00
 1.7728224872e+00	 1.0697747820e+00	-4.5405225767e-01
 1.7624616939e+00	 1.0867595933e+00	-5.2108106495e-01
 1.7519262420e+00	 1.1036630013e+00	-5.8815740372e-01
 1.7412170388e+00	 1.1204823568e+00	-6.5481652211e-01
 1.7303350442e+00	 1.1372150225e+00	-7.2114913876e-01
 1.7192812710e+00	 1.1538583752e+00	-7.8698381592e-01
 1.7080567845e+00	 1.1704098061e+00	-8.5213222106e-01
 1.6966627021e+00	 1.1868667228e+00	-9.1644796878e-01
 1.6851001934e+00	 1.2032265504e+00	-9.7982357587e-01
 1.6733704795e+00	 1.2194867328e+00	-1.0421870690e+00
 1.6614748329e+00	 1.2356447337e+00	-1.1034982636e+00
 1.7828962994e+00	 1.0758536254e+00	-4.5733079053e-01
 1.7724766323e+00	 1.0929349504e+00	-5.2329340037e-01
 1.7618813142e+00	 1.1099344097e+00	-5.8942033440e-01
 1.7511112575e+00	 1.1268493387e+00	-6.5539799754e-01
 1.7401674275e+00	 1.1436770855e+00	-7.2118502010e-01
 1.7290508428e+00	 1.1604150117e+00	-7.8653660041e-01
 1.7177625747e+00	 1.1770604937e+00	-8.5125261057e-01
 1.7063037471e+00	 1.1936109245e+00	-9.1517610562e-01
 1.6946755361e+00	 1.2100637146e+00	-9.7819016960e-01
 1.6828791697e+00	 1.2264162931e+00	-1.0402144012e+00
 1.6709159278e+00	 1.2426661095e+00	-1.1012010583e+00
 1.7929701573e+00	 1.0819324963e+00	-4.5994682087e-01
 1.7824916161e+00	 1.0991103356e+00	-5.2500437794e-01
 1.7718364316e+00	 1.1162058465e+00	-5.9030707251e-01
 1.7610055210e+00	 1.1332163495e+00	-6.5566501756e-01
 1.7499998554e+00	 1.1501391778e+00	-7.2087147675e-01
 1.7388204589e+00	 1.1669716778e+00	-7.8567872759e-01
 1.7274684090e+00	 1.1837112115e+00	-8.4988592109e-01
 1.7159448358e+00	 1.2003551568e+00	-9.1333618738e-01
 1.7042509222e+00	 1.2169009097e+00	-9.7591335117e-01
 1.6923879031e+00	 1.2333458848e+00	-1.0375382743e+00
 1.6803570655e+00	 1.2496875172e+00	-1.0981648450e+00
 1.8030440551e+00	 1.0880113914e+00	-4.6185185220e-01
 1.7925066397e+00	 1.1052857452e+00	-5.2622839086e-01
 1.7817915884e+00	 1.1224773081e+00	-5.9090650793e-01
 1.7708998239e+00	 1.1395833856e+00	-6.5569664683e-01
 1.7598323223e+00	 1.1566012957e+00	-7.2032722364e-01
 1.7485901138e+00	 1.1735283700e+00	-7.8456019612e-01
 1.7371742818e+00	 1.1903619556e+00	-8.4820489840e-01
 1.7255859628e+00	 1.2070994159e+00	-9.1111500793e-01
 1.7138263462e+00	 1.2237381319e+00	-9.7318510916e-01
 1.7018966742e+00	 1.2402755039e+00	-1.0343468717e+00
 1.6897982407e+00	 1.2567089527e+00	-1.0945648632e+00
 1.8131179871e+00	 1.0940903071e+00	-4.6299737000e-01
 1.8025216973e+00	 1.1114611759e+00	-5.2697839808e-01
 1.7917467791e+00	 1.1287487911e+00	-5.9125225985e-01
 1.7807941603e+00	 1.1459504434e+00	-6.5557197419e-01
 1.7696648226e+00	 1.1630634355e+00	-7.1967008293e-01
 1.7583598019e+00	 1.1800850845e+00	-7.8332936535e-01
 1.7468801875e+00	 1.1970127224e+00	-8.4638007708e-01
 1.7352271225e+00	 1.2138436978e+00	-9.0869675711e-01
 1.7234018029e+00	 1.2305753773e+00	-9.7019461837e-01
 1.7114054776e+00	 1.2472051467e+00	-1.0308255403e+00
 1.6992394480e+00	 1.2637304121e+00	-1.0905736847e+00
 1.8231919477e+00	 1.1001692400e+00	-4.6333506292e-01
 1.8125367833e+00	 1.1176366240e+00	-5.2727550335e-01
 1.8017019981e+00	 1.1350202919e+00	-5.9137781572e-01
 1.7906885248e+00	 1.1523175191e+00	-6.5537018677e-01
 1.7794973508e+00	 1.1695255937e+00	-7.1901707969e-01
 1.7681295176e+00	 1.1866418176e+00	-7.8213306744e-01
 1.7565861208e+00	 1.2036635080e+00	-8.4457990404e-01
 1.7448683096e+00	 1.2205879989e+00	-9.0626315027e-01
 1.7329772867e+00	 1.2374126422e+00	-9.6712836999e-01
 1.7209143080e+00	 1.2541348091e+00	-1.0271569162e+00
 1.7086806821e+00	 1.2707518914e+00	-1.0863613287e+00
 1.8332659312e+00	 1.1062481867e+00	-4.6281704649e-01
 1.8225518920e+00	 1.1238120861e+00	-5.2711864387e-01
 1.8116572395e+00	 1.1412918069e+00	-5.9131786545e-01
 1.8005829117e+00	 1.1586846094e+00	-6.5517064333e-01
 1.7893299013e+00	 1.1759877665e+00	-7.1848453601e-01
 1.7778992555e+00	 1.1931985655e+00	-7.8111671744e-01
 1.7662920761e+00	 1.2103143087e+00	-8.4297085942e-01
 1.7545095185e+00	 1.2273323152e+00	-9.0399355491e-01
 1.7425527921e+00	 1.2442499225e+00	-9.6417029887e-01
 1.7304231599e+00	 1.2610644872e+00	-1.0235210468e+00
 1.7181219375e+00	 1.2777733866e+00	-1.0820953735e+00
 1.8433399317e+00	 1.1123271438e+00	-4.6139597516e-01
 1.8325670178e+00	 1.1299875588e+00	-5.2649271116e-01
 1.8216124979e+00	 1.1475633325e+00	-5.9110834918e-01
 1.8104773154e+00	 1.1650517104e+00	-6.5505294680e-01
 1.7991624685e+00	 1.1824499503e+00	-7.1818816366e-01
 1.7876690101e+00	 1.1997553245e+00	-7.8042442118e-01
 1.7759980478e+00	 1.2169651206e+00	-8.4171757503e-01
 1.7641507438e+00	 1.2340766431e+00	-9.0206511468e-01
 1.7521283139e+00	 1.2510872145e+00	-9.6150190797e-01
 1.7399320279e+00	 1.2679941770e+00	-1.0200955110e+00
 1.7275632090e+00	 1.2847948937e+00	-1.0779410673e+00
 1.8534139437e+00	 1.1184061077e+00	-4.5907127634e-01
 1.8425821548e+00	 1.1361630384e+00	-5.2538502019e-01
 1.8315677676e+00	 1.1538348653e+00	-5.9078650526e-01
 1.8203717304e+00	 1.1714188186e+00	-6.5509701606e-01
 1.8089950468e+00	 1.1889121415e+00	-7.1824315520e-01
 1.7974387756e+00	 1.2063120910e+00	-7.8019908129e-01
 1.7857040306e+00	 1.2236159402e+00	-8.4098295033e-01
 1.7737919800e+00	 1.2408209785e+00	-9.0065287067e-01
 1.7617038465e+00	 1.2579245142e+00	-9.5930239004e-01
 1.7494409068e+00	 1.2749238747e+00	-1.0170555361e+00
 1.7370044912e+00	 1.2918164088e+00	-1.0740614353e+00
 1.8634879614e+00	 1.1244850751e+00	-4.5877342050e-01
 1.8525972976e+00	 1.1423385215e+00	-5.2379712250e-01
 1.8415230429e+00	 1.1601064016e+00	-5.9039091827e-01
 1.8302661509e+00	 1.1777859305e+00	-6.5538315706e-01
 1.8188276307e+00	 1.1953743363e+00	-7.1876427383e-01
 1.8072085468e+00	 1.2128688613e+00	-7.8058250118e-01
 1.7954100189e+00	 1.2302667634e+00	-8.4092826625e-01
 1.7834332217e+00	 1.2475653178e+00	-8.9992988020e-01
 1.7712793845e+00	 1.2647618178e+00	-9.5774874680e-01
 1.7589497910e+00	 1.2818535764e+00	-1.0145741127e+00
 1.7464457787e+00	 1.2988379279e+00	-1.0706173849e+00
 1.6520337861e+00	 1.2286233937e+00	-1.1048784358e+00
 1.6400400091e+00	 1.2445881814e+00	-1.1639847849e+00
 1.6278838758e+00	 1.2604463442e+00	-1.2193077589e+00
 1.6155668096e+00	 1.2761954171e+00	-1.2711757311e+00
 1.6030902829e+00	 1.2918329605e+00	-1.3199182695e+00
 1.5904558168e+00	 1.3073565608e+00	-1.3658608253e+00
 1.5776649807e+00	 1.3227638318e+00	-1.4093192712e+00
 1.5647193911e+00	 1.3380524158e+00	-1.4505943209e+00
 1.5516207118e+00	 1.3532199849e+00	-1.4899658622e+00
 1.5383706523e+00	 1.3682642421e+00	-1.5276872398e+00
 1.5249709677e+00	 1.3831829227e+00	-1.5639795203e+00
 1.6614748329e+00	 1.2356447337e+00	-1.1034982636e+00
 1.6494125138e+00	 1.2517007571e+00	-1.1621793969e+00
 1.6371869106e+00	 1.2676495461e+00	-1.2168923482e+00
 1.6247994548e+00	 1.2834886218e+00	-1.2680139240e+00
 1.6122516272e+00	 1.2992155307e+00	-1.3159233700e+00
 1.5995449577e+00	 1.3148278454e+00	-1.3609968039e+00
 1.5866810244e+00	 1.3303231658e+00	-1.4036014900e+00
 1.5736614534e+00	 1.3456991210e+00	-1.4440899867e+00
 1.5604879177e+00	 1.3609533698e+00	-1.4827942037e+00
 1.5471621367e+00	 1.3760836020e+00	-1.5200194012e+00
 1.5336858756e+00	 1.3910875399e+00	-1.5560381705e+00
 1.6709159278e+00	 1.2426661095e+00	-1.1012010583e+00
 1.6587850663e+00	 1.2588133690e+00	-1.1594797317e+00
 1.6464899929e+00	 1.2748527847e+00	-1.2136487017e+00
 1.6340321471e+00	 1.2907818638e+00	-1.2641223320e+00
 1.6214130183e+00	 1.3065981386e+00	-1.3113187534e+00
 1.6086341449e+00	 1.3222991680e+00	-1.3556540516e+00
 1.5956971141e+00	 1.3378825384e+00	-1.3975362865e+00
 1.5826035612e+00	 1.3533458653e+00	-1.4373593773e+00
 1.5693551688e+00	 1.3686867942e+00	-1.4754968907e+00
 1.5559536660e+00	 1.3839030018e+00	-1.5122957671e+00
 1.5424008279e+00	 1.3989921974e+00	-1.5480700228e+00
 1.6803570655e+00	 1.2496875172e+00	-1.0981648450e+00
 1.6681576613e+00	 1.2659260131e+00	-1.1560462652e+00
 1.6557931173e+00	 1.2820560560e+00	-1.2097204652e+00
 1.6432648813e+00	 1.2980751388e+00	-1.2596286966e+00
 1.6305744509e+00	 1.3139807799e+00	-1.3062173923e+00
 1.6177233733e+00	 1.3297705245e+00	-1.3499321166e+00
 1.6047132447e+00	 1.3454419453e+00	-1.3912113386e+00
 1.5915457096e+00	 1.3609926442e+00	-1.4304800638e+00
 1.5782224601e+00	 1.3764202536e+00	-1.4681433612e+00
 1.5647452351e+00	 1.3917224370e+00	-1.5045798237e+00
 1.5511158198e+00	 1.4068968908e+00	-1.5401350013e+00
 1.6897982407e+00	 1.2567089527e+00	-1.0945648632e+00
 1.6775302935e+00	 1.2730386855e+00	-1.1520369555e+00
 1.6650962787e+00	 1.2892593558e+00	-1.2052490075e+00
 1.6524976521e+00	 1.3053684427e+00	-1.2546586945e+00
 1.6397359198e+00	 1.3213634506e+00	-1.3007303730e+00
 1.6268126378e+00	 1.3372419106e+00	-1.3439288026e+00
 1.6137294111e+00	 1.3530013821e+00	-1.3847126814e+00
 1.6004878935e+00	 1.3686394535e+00	-1.4235280327e+00
 1.5870897866e+00	 1.3841537437e+00	-1.4608014787e+00
 1.5735368391e+00	 1.3995419032e+00	-1.4969334432e+00
 1.5598308462e+00	 1.4148016155e+00	-1.5322913220e+00
 1.6992394480e+00	 1.2637304121e+00	-1.0905736847e+00
 1.6869029575e+00	 1.2801513820e+00	-1.1476073467e+00
 1.6743994716e+00	 1.2964626802e+00	-1.2003735120e+00
 1.6617304542e+00	 1.3126617714e+00	-1.2493360163e+00
 1.6488974199e+00	 1.3287461463e+00	-1.2949669628e+00
 1.6359019331e+00	 1.3447133221e+00	-1.3377402252e+00
 1.6227456081e+00	 1.3605608446e+00	-1.3781247537e+00
 1.6094301078e+00	 1.3762862888e+00	-1.4165777232e+00
 1.5959571432e+00	 1.3918872601e+00	-1.4535375629e+00
 1.5823284729e+00	 1.4073613961e+00	-1.4894169076e+00
 1.5685459022e+00	 1.4227063671e+00	-1.5245955126e+00
 1.7086806821e+00	 1.2707518914e+00	-1.0863613287e+00
 1.6962756481e+00	 1.2872640987e+00	-1.1429106708e+00
 1.6837026910e+00	 1.3036660250e+00	-1.1952310661e+00
 1.6709632826e+00	 1.3199551208e+00	-1.2437824439e+00
 1.6580589459e+00	 1.3361288629e+00	-1.2890346759e+00
 1.6449912542e+00	 1.3521847548e+00	-1.3314608680e+00
 1.6317618307e+00	 1.3681203286e+00	-1.3715304442e+00
 1.6183723474e+00	 1.3839331457e+00	-1.4097020652e+00
 1.6048245250e+00	 1.3996207984e+00	-1.4464164199e+00
 1.5911201317e+00	 1.4151809110e+00	-1.4820889331e+00
 1.5772609829e+00	 1.4306111411e+00	-1.5171024316e+00
 1.7181219375e+00	 1.2777733866e+00	-1.0820953735e+00
 1.7056483600e+00	 1.2943768316e+00	-1.1380979479e+00
 1.6930059314e+00	 1.3108693861e+00	-1.1899567487e+00
 1.6801961318e+00	 1.3272484867e+00	-1.2381179265e+00
 1.6672204927e+00	 1.3435115963e+00	-1.2830393386e+00
 1.6540805960e+00	 1.3596562045e+00	-1.3251836365e+00
 1.6407780737e+00	 1.3756798297e+00	-1.3650111365e+00
 1.6273146073e+00	 1.3915800200e+00	-1.4029725155e+00
 1.6136919269e+00	 1.4073543542e+00	-1.4395013714e+00
 1.5999118105e+00	 1.4230004437e+00	-1.4750066935e+00
 1.5859760834e+00	 1.4385159330e+00	-1.5098652869e+00
 1.7275632090e+00	 1.2847948937e+00	-1.0779410673e+00
 1.7150210878e+00	 1.3014895765e+00	-1.1333180833e+00
 1.7023091876e+00	 1.3180727594e+00	-1.1846837156e+00
 1.6894289968e+00	 1.3345418651e+00	-1.2324606549e+00
 1.6763820551e+00	 1.3508943422e+00	-1.2770851525e+00
 1.6631699532e+00	 1.3671276668e+00	-1.3189999121e+00
 1.6497943320e+00	 1.3832393436e+00	-1.3586467541e+00
 1.6362568824e+00	 1.3992269072e+00	-1.3964590950e+00
 1.6225593438e+00	 1.4150879232e+00	-1.4328542840e+00
 1.6087035041e+00	 1.4308199897e+00	-1.4682258431e+00
 1.5946911987e+00	 1.4464207383e+00	-1.5029356544e+00
 1.7370044912e+00	 1.2918164088e+00	-1.0740614353e+00
 1.7243938262e+00	 1.3086023294e+00	-1.1287179633e+00
 1.7116124544e+00	 1.3252761409e+00	-1.1795432839e+00
 1.6986618722e+00	 1.3418352517e+00	-1.2269271342e+00
 1.6855436278e+00	 1.3582770965e+00	-1.2712747571e+00
 1.6722593206e+00	 1.3745991376e+00	-1.3129996047e+00
 1.6588106006e+00	 1.3907988662e+00	-1.3525158032e+00
 1.6451991676e+00	 1.4068738031e+00	-1.3902304231e+00
 1.6314267708e+00	 1.4228215010e+00	-1.4265355980e+00
 1.6174952078e+00	 1.4386395446e+00	-1.4618005398e+00
 1.6034063238e+00	 1.4543255526e+00	-1.4963634963e+00
 1.7464457787e+00	 1.2988379279e+00	-1.0706173849e+00
 1.7337665699e+00	 1.3157150865e+00	-1.1244425488e+00
 1.7209157265e+00	 1.3324795265e+00	-1.1746650142e+00
 1.7078947529e+00	 1.3491286424e+00	-1.2216322556e+00
 1.6947052058e+00	 1.3656598550e+00	-1.2657092911e+00
 1.6813486933e+00	 1.3820706127e+00	-1.3072712043e+00
 1.6678268743e+00	 1.3983583930e+00	-1.3466954166e+00
 1.6541414579e+00	 1.4145207034e+00	-1.3843537541e+00
 1.6402942028e+00	 1.4305550831e+00	-1.4206043556e+00
 1.6262869164e+00	 1.4464591039e+00	-1.4557834679e+00
 1.6121214540e+00	 1.4622303714e+00	-1.4901971792e+00
 1.5249709677e+00	 1.3831829227e+00	-1.5639795203e+00
 1.5114257691e+00	 1.3979712958e+00	-1.5988295035e+00
 1.4977346138e+00	 1.4126297317e+00	-1.6318131412e+00
 1.4838993633e+00	 1.4271560938e+00	-1.6624526044e+00
 1.4699219212e+00	 1.4415482816e+00	-1.6912963236e+00
 1.4558042323e+00	 1.4558042323e+00	-1.7195524493e+00
 1.4415482816e+00	 1.4699219212e+00	-1.7462513962e+00
 1.4271560938e+00	 1.4838993633e+00	-1.7703904828e+00
 1.4126297317e+00	 1.4977346138e+00	-1.7915383345e+00
 1.3979712958e+00	 1.5114257691e+00	-1.8093132802e+00
 1.3831829227e+00	 1.5249709677e+00	-1.8231754814e+00
 1.5336858756e+00	 1.3910875399e+00	-1.5560381705e+00
 1.5200632688e+00	 1.4059604256e+00	-1.5908792246e+00
 1.5062938713e+00	 1.4207026316e+00	-1.6241047217e+00
 1.4923795551e+00	 1.4353120090e+00	-1.6552032098e+00
 1.4783222347e+00	 1.4497864453e+00	-1.6836859007e+00
 1.4641238659e+00	 1.4641238659e+00	-1.7108917201e+00
 1.4497864453e+00	 1.4783222347e+00	-1.7367102040e+00
 1.4353120090e+00	 1.4923795551e+00	-1.7602775251e+00
 1.4207026316e+00	 1.5062938713e+00	-1.7811935225e+00
 1.4059604256e+00	 1.5200632688e+00	-1.7988299522e+00
 1.3910875399e+00	 1.5336858756e+00	-1.8126118769e+00
 1.5424008279e+00	 1.3989921974e+00	-1.5480700228e+00
 1.5287008126e+00	 1.4139495962e+00	-1.5828807207e+00
 1.5148531724e+00	 1.4287755727e+00	-1.6162807304e+00
 1.5008597901e+00	 1.4434679658e+00	-1.6477360969e+00
 1.4867225909e+00	 1.4580246510e+00	-1.6766566018e+00
 1.4724435420e+00	 1.4724435420e+00	-1.7029584608e+00
 1.4580246510e+00	 1.4867225909e+00	-1.7278717943e+00
 1.4434679658e+00	 1.5008597901e+00	-1.7509558908e+00
 1.4287755727e+00	 1.5148531724e+00	-1.7715485376e+00
 1.4139495962e+00	 1.5287008126e+00	-1.7889810760e+00
 1.3989921974e+00	 1.5424008279e+00	-1.8026545860e+00
 1.5511158198e+00	 1.4068968908e+00	-1.5401350013e+00
 1.5373383956e+00	 1.4219388030e+00	-1.5748919530e+00
 1.5234125124e+00	 1.4368485504e+00	-1.6083977380e+00
 1.5093400636e+00	 1.4516239595e+00	-1.6401068692e+00
 1.4951229853e+00	 1.4662628941e+00	-1.6694158686e+00
 1.4807632558e+00	 1.4807632558e+00	-1.6956616462e+00
 1.4662628941e+00	 1.4951229853e+00	-1.7197411649e+00
 1.4516239595e+00	 1.5093400636e+00	-1.7422486400e+00
 1.4368485504e+00	 1.5234125124e+00	-1.7624240704e+00
 1.4219388030e+00	 1.5373383956e+00	-1.7795840636e+00
 1.4068968908e+00	 1.5511158198e+00	-1.7931166905e+00
 1.5598308462e+00	 1.4148016155e+00	-1.5322913220e+00
 1.5459760128e+00	 1.4299280415e+00	-1.5669690467e+00
 1.5319718863e+00	 1.4449215600e+00	-1.6005103401e+00
 1.5178203707e+00	 1.4597799856e+00	-1.6323690093e+00
 1.5035234130e+00	 1.4745011698e+00	-1.6619391405e+00
 1.4890830026e+00	 1.4890830026e+00	-1.6885848931e+00
 1.4745011698e+00	 1.5035234130e+00	-1.7121603830e+00
 1.4597799856e+00	 1.5178203707e+00	-1.7339813853e+00
 1.4449215600e+00	 1.5319718863e+00	-1.7536432092e+00
 1.4299280415e+00	 1.5459760128e+00	-1.7704585826e+00
 1.4148016155e+00	 1.5598308462e+00	-1.7838134038e+00
 1.5685459022e+00	 1.4227063671e+00	-1.5245955126e+00
 1.5546136593e+00	 1.4379173071e+00	-1.5591663058e+00
 1.5405312893e+00	 1.4529945972e+00	-1.5926711684e+00
 1.5263007066e+00	 1.4679360395e+00	-1.6245738877e+00
 1.5119238693e+00	 1.4827394736e+00	-1.6542771487e+00
 1.4974027776e+00	 1.4974027776e+00	-1.6812208170e+00
 1.4827394736e+00	 1.5119238693e+00	-1.7049508297e+00
 1.4679360395e+00	 1.5263007066e+00	-1.7259823551e+00
 1.4529945972e+00	 1.5405312893e+00	-1.7450314984e+00
 1.4379173071e+00	 1.5546136593e+00	-1.7614266103e+00
 1.4227063671e+00	 1.5685459022e+00	-1.7745621190e+00
 1.5772609829e+00	 1.4306111411e+00	-1.5171024316e+00
 1.5632513304e+00	 1.4459065954e+00	-1.5515362289e+00
 1.5490907165e+00	 1.4610676572e+00	-1.5849309024e+00
 1.5347810666e+00	 1.4760921164e+00	-1.6167707708e+00
 1.5203243493e+00	 1.4909778007e+00	-1.6464809544e+00
 1.5057225763e+00	 1.5057225763e+00	-1.6735351197e+00
 1.4909778007e+00	 1.5203243493e+00	-1.6974958019e+00
 1.4760921164e+00	 1.5347810666e+00	-1.7180824573e+00
 1.4610676572e+00	 1.5490907165e+00	-1.7364169978e+00
 1.4459065954e+00	 1.5632513304e+00	-1.7523124869e+00
 1.4306111411e+00	 1.5772609829e+00	-1.7651824570e+00
 1.5859760834e+00	 1.4385159330e+00	-1.5098652869e+00
 1.5718890210e+00	 1.4538959018e+00	-1.5441295237e+00
 1.5576501632e+00	 1.4691407355e+00	-1.5773382811e+00
 1.5432614457e+00	 1.4842482119e+00	-1.6090047497e+00
 1.5287248484e+00	 1.4992161465e+00	-1.6385436083e+00
 1.5140423938e+00	 1.5140423938e+00	-1.6654958186e+00
 1.4992161465e+00	 1.5287248484e+00	-1.6894690403e+00
 1.4842482119e+00	 1.5432614457e+00	-1.7100795368e+00
 1.4691407355e+00	 1.5576501632e+00	-1.7276303409e+00
 1.4538959018e+00	 1.5718890210e+00	-1.7429429699e+00
 1.4385159330e+00	 1.5859760834e+00	-1.7554963158e+00
 1.5946911987e+00	 1.4464207383e+00	-1.5029356544e+00
 1.5805267263e+00	 1.4618852218e+00	-1.5369951218e+00
 1.5662096244e+00	 1.4772138276e+00	-1.5699401134e+00
 1.5517418393e+00	 1.4924043212e+00	-1.6012748646e+00
 1.5371253618e+00	 1.5074545062e+00	-1.6304378067e+00
 1.5223622255e+00	 1.5223622255e+00	-1.6570703045e+00
 1.5074545062e+00	 1.5371253618e+00	-1.6808323832e+00
 1.4924043212e+00	 1.5517418393e+00	-1.7013927765e+00
 1.4772138276e+00	 1.5662096244e+00	-1.7185047939e+00
 1.4618852218e+00	 1.5805267263e+00	-1.7331472877e+00
 1.4464207383e+00	 1.5946911987e+00	-1.7453279177e+00
 1.6034063238e+00	 1.4543255526e+00	-1.4963634963e+00
 1.5891644415e+00	 1.4698745508e+00	-1.5301801932e+00
 1.5747690953e+00	 1.4852869287e+00	-1.5627713008e+00
 1.5602222425e+00	 1.5005604397e+00	-1.5935555627e+00
 1.5455258847e+00	 1.5156928753e+00	-1.6221357769e+00
 1.5306820665e+00	 1.5306820665e+00	-1.6482254370e+00
 1.5156928753e+00	 1.5455258847e+00	-1.6715470757e+00
 1.5005604397e+00	 1.5602222425e+00	-1.6918320396e+00
 1.4852869287e+00	 1.5747690953e+00	-1.7088201971e+00
 1.4698745508e+00	 1.5891644415e+00	-1.7227571933e+00
 1.4543255526e+00	 1.6034063238e+00	-1.7345038589e+00
 1.6121214540e+00	 1.4622303714e+00	-1.4901971792e+00
 1.5978021615e+00	 1.4778638844e+00	-1.5237301610e+00
 1.5833285711e+00	 1.4933600345e+00	-1.5557857966e+00
 1.5687026506e+00	 1.5087165629e+00	-1.5858240220e+00
 1.5539264124e+00	 1.5239312491e+00	-1.6136093713e+00
 1.5390019123e+00	 1.5390019123e+00	-1.6389276398e+00
 1.5239312491e+00	 1.5539264124e+00	-1.6615738662e+00
 1.5087165629e+00	 1.5687026506e+00	-1.6813520106e+00
 1.4933600345e+00	 1.5833285711e+00	-1.6980745605e+00
 1.4778638844e+00	 1.5978021615e+00	-1.7116070178e+00
 1.4622303714e+00	 1.6121214540e+00	-1.7228531566e+00
 1.3831829227e+00	 1.5249709677e+00	-1.8231754814e+00
 1.3682642421e+00	 1.5383706523e+00	-1.8329922215e+00
 1.3532199849e+00	 1.5516207118e+00	-1.8392082223e+00
 1.3380524158e+00	 1.5647193911e+00	-1.8422314579e+00
 1.3227638318e+00	 1.5776649807e+00	-1.8425034305e+00
 1.3073565608e+00	 1.5904558168e+00	-1.8404926053e+00
 1.2918329605e+00	 1.6030902829e+00	-1.8366878544e+00
 1.2761954171e+00	 1.6155668096e+00	-1.8315919487e+00
 1.2604463442e+00	 1.6278838758e+00	-1.8257151392e+00
 1.2445881814e+00	 1.6400400091e+00	-1.8195688637e+00
 1.2286233937e+00	 1.6520337861e+00	-1.8136596184e+00
 1.3910875399e+00	 1.5336858756e+00	-1.8126118769e+00
 1.3760836020e+00	 1.5471621367e+00	-1.8223169306e+00
 1.3609533698e+00	 1.5604879177e+00	-1.8283355270e+00
 1.3456991210e+00	 1.5736614534e+00	-1.8310951367e+00
 1.3303231658e+00	 1.5866810244e+00	-1.8310570781e+00
 1.3148278454e+00	 1.5995449577e+00	-1.8287096793e+00
 1.2992155307e+00	 1.6122516272e+00	-1.8245614514e+00
 1.2834886218e+00	 1.6247994548e+00	-1.8191343147e+00
 1.2676495461e+00	 1.6371869106e+00	-1.8129569186e+00
 1.2517007571e+00	 1.6494125138e+00	-1.8065580953e+00
 1.2356447337e+00	 1.6614748329e+00	-1.8004604845e+00
 1.3989921974e+00	 1.5424008279e+00	-1.8026545860e+00
 1.3839030018e+00	 1.5559536660e+00	-1.8122612597e+00
 1.3686867942e+00	 1.5693551688e+00	-1.8181286095e+00
 1.3533458653e+00	 1.5826035612e+00	-1.8206954223e+00
 1.3378825384e+00	 1.5956971141e+00	-1.8204345696e+00
 1.3222991680e+00	 1.6086341449e+00	-1.8178459006e+00
 1.3065981386e+00	 1.6214130183e+00	-1.8134491504e+00
 1.2907818638e+00	 1.6340321471e+00	-1.8077769042e+00
 1.2748527847e+00	 1.6464899929e+00	-1.8013676619e+00
 1.2588133690e+00	 1.6587850663e+00	-1.7947590422e+00
 1.2426661095e+00	 1.6709159278e+00	-1.7884811685e+00
 1.4068968908e+00	 1.5511158198e+00	-1.7931166905e+00
 1.3917224370e+00	 1.5647452351e+00	-1.8026325233e+00
 1.3764202536e+00	 1.5782224601e+00	-1.8083874127e+00
 1.3609926442e+00	 1.5915457096e+00	-1.8108234649e+00
 1.3454419453e+00	 1.6047132447e+00	-1.8104170252e+00
 1.3297705245e+00	 1.6177233733e+00	-1.8076713072e+00
 1.3139807799e+00	 1.6305744509e+00	-1.8031090390e+00
 1.2980751388e+00	 1.6432648813e+00	-1.7972651709e+00
 1.2820560560e+00	 1.6557931173e+00	-1.7906796886e+00
 1.2659260131e+00	 1.6681576613e+00	-1.7838905739e+00
 1.2496875172e+00	 1.6803570655e+00	-1.7774269543e+00
 1.4148016155e+00	 1.5598308462e+00	-1.7838134038e+00
 1.3995419032e+00	 1.5735368391e+00	-1.7932400714e+00
 1.3841537437e+00	 1.5870897866e+00	-1.7989138523e+00
 1.3686394535e+00	 1.6004878935e+00	-1.8012723557e+00
 1.3530013821e+00	 1.6137294111e+00	-1.8007875033e+00
 1.3372419106e+00	 1.6268126378e+00	-1.7979578976e+00
 1.3213634506e+00	 1.6397359198e+00	-1.7933012113e+00
 1.3053684427e+00	 1.6524976521e+00	-1.7873466414e+00
 1.2892593558e+00	 1.6650962787e+00	-1.7806274763e+00
 1.2730386855e+00	 1.6775302935e+00	-1.7736738167e+00
 1.2567089527e+00	 1.6897982407e+00	-1.7670054957e+00
 1.4227063671e+00	 1.5685459022e+00	-1.7745621190e+00
 1.4073613961e+00	 1.5823284729e+00	-1.7838953313e+00
 1.3918872601e+00	 1.5959571432e+00	-1.7895118516e+00
 1.3762862888e+00	 1.6094301078e+00	-1.7918371539e+00
 1.3605608446e+00	 1.6227456081e+00	-1.7913310177e+00
 1.3447133221e+00	 1.6359019331e+00	-1.7884796389e+00
 1.3287461463e+00	 1.6488974199e+00	-1.7837877652e+00
 1.3126617714e+00	 1.6617304542e+00	-1.7777709017e+00
 1.2964626802e+00	 1.6743994716e+00	-1.7709476348e+00
 1.2801513820e+00	 1.6869029575e+00	-1.7638321183e+00
 1.2637304121e+00	 1.6992394480e+00	-1.7569267674e+00
 1.4306111411e+00	 1.5772609829e+00	-1.7651824570e+00
 1.4151809110e+00	 1.5911201317e+00	-1.7744118498e+00
 1.3996207984e+00	 1.6048245250e+00	-1.7799873759e+00
 1.3839331457e+00	 1.6183723474e+00	-1.7823149126e+00
 1.3681203286e+00	 1.6317618307e+00	-1.7818345551e+00
 1.3521847548e+00	 1.6449912542e+00	-1.7790124741e+00
 1.3361288629e+00	 1.6580589459e+00	-1.7743328003e+00
 1.3199551208e+00	 1.6709632826e+00	-1.7682895847e+00
 1.3036660250e+00	 1.6837026910e+00	-1.7613788830e+00
 1.2872640987e+00	 1.6962756481e+00	-1.7540910116e+00
 1.2707518914e+00	 1.7086806821e+00	-1.7469030195e+00
 1.4385159330e+00	 1.5859760834e+00	-1.7554963158e+00
 1.4230004437e+00	 1.5999118105e+00	-1.7646053351e+00
 1.4073543542e+00	 1.6136919269e+00	-1.7701484677e+00
 1.3915800200e+00	 1.6273146073e+00	-1.7725047060e+00
 1.3756798297e+00	 1.6407780737e+00	-1.7720870935e+00
 1.3596562045e+00	 1.6540805960e+00	-1.7693343317e+00
 1.3435115963e+00	 1.6672204927e+00	-1.7647024170e+00
 1.3272484867e+00	 1.6801961318e+00	-1.7586563583e+00
 1.3108693861e+00	 1.6930059314e+00	-1.7516620267e+00
 1.2943768316e+00	 1.7056483600e+00	-1.7441781831e+00
 1.2777733866e+00	 1.7181219375e+00	-1.7366487330e+00
 1.4464207383e+00	 1.5946911987e+00	-1.7453279177e+00
 1.4308199897e+00	 1.6087035041e+00	-1.7542936991e+00
 1.4150879232e+00	 1.6225593438e+00	-1.7598052818e+00
 1.3992269072e+00	 1.6362568824e+00	-1.7622076568e+00
 1.3832393436e+00	 1.6497943320e+00	-1.7618796208e+00
 1.3671276668e+00	 1.6631699532e+00	-1.7592251348e+00
 1.3508943422e+00	 1.6763820551e+00	-1.7546647159e+00
 1.3345418651e+00	 1.6894289968e+00	-1.7486269159e+00
 1.3180727594e+00	 1.7023091876e+00	-1.7415399379e+00
 1.3014895765e+00	 1.7150210878e+00	-1.7338234403e+00
 1.2847948937e+00	 1.7275632090e+00	-1.7258805777e+00
 1.4543255526e+00	 1.6034063238e+00	-1.7345038589e+00
 1.4386395446e+00	 1.6174952078e+00	-1.7432970999e+00
 1.4228215010e+00	 1.6314267708e+00	-1.7487701208e+00
 1.4068738031e+00	 1.6451991676e+00	-1.7512269639e+00
 1.3907988662e+00	 1.6588106006e+00	-1.7510051543e+00
 1.3745991376e+00	 1.6722593206e+00	-1.7484668117e+00
 1.3582770965e+00	 1.6855436278e+00	-1.7439897995e+00
 1.3418352517e+00	 1.6986618722e+00	-1.7379589670e+00
 1.3252761409e+00	 1.7116124544e+00	-1.7307575357e+00
 1.3086023294e+00	 1.7243938262e+00	-1.7227586830e+00
 1.2918164088e+00	 1.7370044912e+00	-1.7143173721e+00
 1.4622303714e+00	 1.6121214540e+00	-1.7228531566e+00
 1.4464591039e+00	 1.6262869164e+00	-1.7314379841e+00
 1.4305550831e+00	 1.6402942028e+00	-1.7368574705e+00
 1.4145207034e+00	 1.6541414579e+00	-1.7393679304e+00
 1.3983583930e+00	 1.6678268743e+00	-1.7392587607e+00
 1.3820706127e+00	 1.6813486933e+00	-1.7368433071e+00
 1.3656598550e+00	 1.6947052058e+00	-1.7324497736e+00
 1.3491286424e+00	 1.7078947529e+00	-1.7264122294e+00
 1.3324795265e+00	 1.7209157265e+00	-1.7190617684e+00
 1.3157150865e+00	 1.7337665699e+00	-1.7107178749e+00
 1.2988379279e+00	 1.7464457787e+00	-1.7016800448e+00
 1.2286233937e+00	 1.6520337861e+00	-1.8136596184e+00
 1.2125572078e+00	 1.6638618377e+00	-1.8067130037e+00
 1.1963894212e+00	 1.6755248995e+00	-1.7970092206e+00
 1.1801225555e+00	 1.6870217063e+00	-1.7843676937e+00
 1.1637591524e+00	 1.6983510437e+00	-1.7685851154e+00
 1.1473017722e+00	 1.7095117490e+00	-1.7494315495e+00
 1.1307529925e+00	 1.7205027111e+00	-1.7266468719e+00
 1.1141154073e+00	 1.7313228706e+00	-1.6999375677e+00
 1.0973916249e+00	 1.7419712206e+00	-1.6707101455e+00
 1.0805842676e+00	 1.7524468065e+00	-1.6418619007e+00
 1.0636959697e+00	 1.7627487265e+00	-1.6129722084e+00
 1.2356447337e+00	 1.6614748329e+00	-1.8004604845e+00
 1.2194867328e+00	 1.6733704795e+00	-1.7933992050e+00
 1.2032265504e+00	 1.6851001934e+00	-1.7836636172e+00
 1.1868667228e+00	 1.6966627021e+00	-1.7710861278e+00
 1.1704098061e+00	 1.7080567845e+00	-1.7554740981e+00
 1.1538583752e+00	 1.7192812710e+00	-1.7366057666e+00
 1.1372150225e+00	 1.7303350442e+00	-1.7142265230e+00
 1.1204823568e+00	 1.7412170388e+00	-1.6880455563e+00
 1.1036630013e+00	 1.7519262420e+00	-1.6582445693e+00
 1.0867595933e+00	 1.7624616939e+00	-1.6283187318e+00
 1.0697747820e+00	 1.7728224872e+00	-1.5985821058e+00
 1.2426661095e+00	 1.6709159278e+00	-1.7884811685e+00
 1.2264162931e+00	 1.6828791697e+00	-1.7812735044e+00
 1.2100637146e+00	 1.6946755361e+00	-1.7714410868e+00
 1.1936109245e+00	 1.7063037471e+00	-1.7588384879e+00
 1.1770604937e+00	 1.7177625747e+00	-1.7432933527e+00
 1.1604150117e+00	 1.7290508428e+00	-1.7246021205e+00
 1.1436770855e+00	 1.7401674275e+00	-1.7025261102e+00
 1.1268493387e+00	 1.7511112575e+00	-1.6767879969e+00
 1.1099344097e+00	 1.7618813142e+00	-1.6470813721e+00
 1.0929349504e+00	 1.7724766323e+00	-1.6160184285e+00
 1.0758536254e+00	 1.7828962994e+00	-1.5854190213e+00
 1.2496875172e+00	 1.6803570655e+00	-1.7774269543e+00
 1.2333458848e+00	 1.6923879031e+00	-1.7700318254e+00
 1.2169009097e+00	 1.7042509222e+00	-1.7600365714e+00
 1.2003551568e+00	 1.7159448358e+00	-1.7473269840e+00
 1.1837112115e+00	 1.7274684090e+00	-1.7317604724e+00
 1.1669716778e+00	 1.7388204589e+00	-1.7131615599e+00
 1.1501391778e+00	 1.7499998554e+00	-1.6913177599e+00
 1.1332163495e+00	 1.7610055210e+00	-1.6659758584e+00
 1.1162058465e+00	 1.7718364316e+00	-1.6368386219e+00
 1.0991103356e+00	 1.7824916161e+00	-1.6048769920e+00
 1.0819324963e+00	 1.7929701573e+00	-1.5734636664e+00
 1.2567089527e+00	 1.6897982407e+00	-1.7670054957e+00
 1.2402755039e+00	 1.7018966742e+00	-1.7593724904e+00
 1.2237381319e+00	 1.7138263462e+00	-1.7491472647e+00
 1.2070994159e+00	 1.7255859628e+00	-1.7362557611e+00
 1.1903619556e+00	 1.7371742818e+00	-1.7205945015e+00
 1.1735283700e+00	 1.7485901138e+00	-1.7020258380e+00
 1.1566012957e+00	 1.7598323223e+00	-1.6803735981e+00
 1.1395833856e+00	 1.7708998239e+00	-1.6554191506e+00
 1.1224773081e+00	 1.7817915884e+00	-1.6268979151e+00
 1.1052857452e+00	 1.7925066397e+00	-1.5948061888e+00
 1.0880113914e+00	 1.8030440551e+00	-1.5626912156e+00
 1.2637304121e+00	 1.6992394480e+00	-1.7569267674e+00
 1.2472051467e+00	 1.7114054776e+00	-1.7489961623e+00
 1.2305753773e+00	 1.7234018029e+00	-1.7384725513e+00
 1.2138436978e+00	 1.7352271225e+00	-1.7253308383e+00
 1.1970127224e+00	 1.7468801875e+00	-1.7095158798e+00
 1.1800850845e+00	 1.7583598019e+00	-1.6909374677e+00
 1.1630634355e+00	 1.7696648226e+00	-1.6694657211e+00
 1.1459504434e+00	 1.7807941603e+00	-1.6449269155e+00
 1.1287487911e+00	 1.7917467791e+00	-1.6170997704e+00
 1.1114611759e+00	 1.8025216973e+00	-1.5857122174e+00
 1.0940903071e+00	 1.8131179871e+00	-1.5530711632e+00
 1.2707518914e+00	 1.7086806821e+00	-1.7469030195e+00
 1.2541348091e+00	 1.7209143080e+00	-1.7386057900e+00
 1.2374126422e+00	 1.7329772867e+00	-1.7277139469e+00
 1.2205879989e+00	 1.7448683096e+00	-1.7142600505e+00
 1.2036635080e+00	 1.7565861208e+00	-1.6982463907e+00
 1.1866418176e+00	 1.7681295176e+00	-1.6796396793e+00
 1.1695255937e+00	 1.7794973508e+00	-1.6583661683e+00
 1.1523175191e+00	 1.7906885248e+00	-1.6343072184e+00
 1.1350202919e+00	 1.8017019981e+00	-1.6072953450e+00
 1.1176366240e+00	 1.8125367833e+00	-1.5771107602e+00
 1.1001692400e+00	 1.8231919477e+00	-1.5445671768e+00
 1.2777733866e+00	 1.7181219375e+00	-1.7366487330e+00
 1.2610644872e+00	 1.7304231599e+00	-1.7279065553e+00
 1.2442499225e+00	 1.7425527921e+00	-1.7165750418e+00
 1.2273323152e+00	 1.7545095185e+00	-1.7027529923e+00
 1.2103143087e+00	 1.7662920761e+00	-1.6865091093e+00
 1.1931985655e+00	 1.7778992555e+00	-1.6678763794e+00
 1.1759877665e+00	 1.7893299013e+00	-1.6468468943e+00
 1.1586846094e+00	 1.8005829117e+00	-1.6233671392e+00
 1.1412918069e+00	 1.8116572395e+00	-1.5973337736e+00
 1.1238120861e+00	 1.8225518920e+00	-1.5685899268e+00
 1.1062481867e+00	 1.8332659312e+00	-1.5371369480e+00
 1.2847948937e+00	 1.7275632090e+00	-1.7258805777e+00
 1.2679941770e+00	 1.7399320279e+00	-1.7166058221e+00
 1.2510872145e+00	 1.7521283139e+00	-1.7047614459e+00
 1.2340766431e+00	 1.7641507438e+00	-1.6905209635e+00
 1.2169651206e+00	 1.7759980478e+00	-1.6740283540e+00
 1.1997553245e+00	 1.7876690101e+00	-1.6553921106e+00
 1.1824499503e+00	 1.7991624685e+00	-1.6346797432e+00
 1.1650517104e+00	 1.8104773154e+00	-1.6119127640e+00
 1.1475633325e+00	 1.8216124979e+00	-1.5870621821e+00
 1.1299875588e+00	 1.8325670178e+00	-1.5600445304e+00
 1.1123271438e+00	 1.8433399317e+00	-1.5307184450e+00
 1.2918164088e+00	 1.7370044912e+00	-1.7143173721e+00
 1.2749238747e+00	 1.7494409068e+00	-1.7044130875e+00
 1.2579245142e+00	 1.7617038465e+00	-1.6919807365e+00
 1.2408209785e+00	 1.7737919800e+00	-1.6772769173e+00
 1.2236159402e+00	 1.7857040306e+00	-1.6605296385e+00
 1.2063120910e+00	 1.7974387756e+00	-1.6419320135e+00
 1.1889121415e+00	 1.8089950468e+00	-1.6216364233e+00
 1.1714188186e+00	 1.8203717304e+00	-1.5997491774e+00
 1.1538348653e+00	 1.8315677676e+00	-1.5763257004e+00
 1.1361630384e+00	 1.8425821548e+00	-1.5513662697e+00
 1.1184061077e+00	 1.8534139437e+00	-1.5247522138e+00
 1.2988379279e+00	 1.7464457787e+00	-1.7016800448e+00
 1.2818535764e+00	 1.7589497910e+00	-1.6910399360e+00
 1.2647618178e+00	 1.7712793845e+00	-1.6779424073e+00
 1.2475653178e+00	 1.7834332217e+00	-1.6627354100e+00
 1.2302667634e+00	 1.7954100189e+00	-1.6457396265e+00
 1.2128688613e+00	 1.8072085468e+00	-1.6272417895e+00
 1.1953743363e+00	 1.8188276307e+00	-1.6074884823e+00
 1.1777859305e+00	 1.8302661509e+00	-1.5866804535e+00
 1.1601064016e+00	 1.8415230429e+00	-1.5649674745e+00
 1.1423385215e+00	 1.8525972976e+00	-1.5424307544e+00
 1.1244850751e+00	 1.8634879614e+00	-1.5156640003e+00
 1.0636959697e+00	 1.7627487265e+00	-1.6129722084e+00
 1.0467293765e+00	 1.7728761316e+00	-1.5831817183e+00
 1.0296871447e+00	 1.7828282277e+00	-1.5520074811e+00
 1.0125719391e+00	 1.7926042739e+00	-1.5195488564e+00
 9.9538643189e-01	 1.8022035822e+00	-1.4859181514e+00
 9.7813330059e-01	 1.8116255174e+00	-1.4512333195e+00
 9.6081522727e-01	 1.8208694974e+00	-1.4156114383e+00
 9.4343489709e-01	 1.8299349926e+00	-1.3791629755e+00
 9.2599499707e-01	 1.8388215263e+00	-1.3419868447e+00
 9.0849821480e-01	 1.8475286740e+00	-1.3041662486e+00
 8.9094723725e-01	 1.8560560637e+00	-1.2653817800e+00
 1.0697747820e+00	 1.7728224872e+00	-1.5985821058e+00
 1.0527112282e+00	 1.7830077685e+00	-1.5682457553e+00
 1.0355716033e+00	 1.7930167389e+00	-1.5368846154e+00
 1.0183585878e+00	 1.8028486533e+00	-1.5045733827e+00
 1.0010748687e+00	 1.8125028197e+00	-1.4714017791e+00
 9.8372313920e-01	 1.8219785994e+00	-1.4374670692e+00
 9.6630609651e-01	 1.8312754069e+00	-1.4028673856e+00
 9.4882644118e-01	 1.8403927097e+00	-1.3676958732e+00
 9.3128687558e-01	 1.8493300281e+00	-1.3320356503e+00
 9.1369010265e-01	 1.8580869355e+00	-1.2950783785e+00
 8.9603882473e-01	 1.8666630574e+00	-1.2546362684e+00
 1.0758536254e+00	 1.7828962994e+00	-1.5854190213e+00
 1.0586931103e+00	 1.7931394571e+00	-1.5546080981e+00
 1.0414560920e+00	 1.8032053021e+00	-1.5232480780e+00
 1.0241452659e+00	 1.8130930849e+00	-1.4913792194e+00
 1.0067633346e+00	 1.8228021097e+00	-1.4590578134e+00
 9.8931300632e-01	 1.8323317342e+00	-1.4263485415e+00
 9.7179699376e-01	 1.8416813695e+00	-1.3933176725e+00
 9.5421801277e-01	 1.8508504800e+00	-1.3600271095e+00
 9.3657878107e-01	 1.8598385835e+00	-1.3250436930e+00
 9.1888201699e-01	 1.8686452508e+00	-1.2863859084e+00
 9.0113043818e-01	 1.8772701053e+00	-1.2445119269e+00
 1.0819324963e+00	 1.7929701573e+00	-1.5734636664e+00
 1.0646750196e+00	 1.8032711916e+00	-1.5423103895e+00
 1.0473406073e+00	 1.8133939114e+00	-1.5111859154e+00
 1.0299319703e+00	 1.8233375629e+00	-1.4800864611e+00
 1.0124518263e+00	 1.8331014464e+00	-1.4490242178e+00
 9.9490289878e-01	 1.8426849159e+00	-1.4180195694e+00
 9.7728791590e-01	 1.8520873793e+00	-1.3870931890e+00
 9.5960960880e-01	 1.8613082978e+00	-1.3541269164e+00
 9.4187071056e-01	 1.8703471866e+00	-1.3174513848e+00
 9.2407395485e-01	 1.8792036139e+00	-1.2775139481e+00
 9.0622207471e-01	 1.8878772013e+00	-1.2347921935e+00
 1.0880113914e+00	 1.8030440551e+00	-1.5626912156e+00
 1.0706569526e+00	 1.8134029664e+00	-1.5313875545e+00
 1.0532251460e+00	 1.8235825611e+00	-1.5007786375e+00
 1.0357186976e+00	 1.8335820816e+00	-1.4708072051e+00
 1.0181403405e+00	 1.8434008240e+00	-1.4414308506e+00
 1.0004928134e+00	 1.8530381388e+00	-1.4125811561e+00
 9.8277885983e-01	 1.8624934303e+00	-1.3815545884e+00
 9.6500122622e-01	 1.8717661571e+00	-1.3469018949e+00
 9.4716266104e-01	 1.8808558313e+00	-1.3090124405e+00
 9.2926591332e-01	 1.8897620190e+00	-1.2683122935e+00
 9.1131373144e-01	 1.8984843394e+00	-1.2252585866e+00
 1.0940903071e+00	 1.8131179871e+00	-1.5530711632e+00
 1.0766389059e+00	 1.8235347755e+00	-1.5218676878e+00
 1.0591097047e+00	 1.8337712455e+00	-1.4920991270e+00
 1.0415054446e+00	 1.8438266351e+00	-1.4636454732e+00
 1.0238288740e+00	 1.8537002366e+00	-1.4363165377e+00
 1.0060827471e+00	 1.8633913968e+00	-1.4069470003e+00
 9.8826982242e-01	 1.8728995167e+00	-1.3741607363e+00
 9.7039286197e-01	 1.8822240519e+00	-1.3382694739e+00
 9.5245462951e-01	 1.8913645118e+00	-1.2996278805e+00
 9.3445788944e-01	 1.9003204599e+00	-1.2586274587e+00
 9.1640540548e-01	 1.9090915135e+00	-1.2156907968e+00
 1.1001692400e+00	 1.8231919477e+00	-1.5445671768e+00
 1.0826208762e+00	 1.8336666134e+00	-1.5137719370e+00
 1.0649942801e+00	 1.8439599588e+00	-1.4852125432e+00
 1.0472922080e+00	 1.8540712177e+00	-1.4585756681e+00
 1.0295174237e+00	 1.8639996784e+00	-1.4303231449e+00
 1.0116726965e+00	 1.8737446841e+00	-1.3990184607e+00
 9.9376080057e-01	 1.8833056327e+00	-1.3648781218e+00
 9.7578451300e-01	 1.8926819764e+00	-1.3281675394e+00
 9.5774661298e-01	 1.9018732221e+00	-1.2891944718e+00
 9.3964988027e-01	 1.9108789308e+00	-1.2483028172e+00
 9.2149709395e-01	 1.9196987177e+00	-1.2058667781e+00
 1.1062481867e+00	 1.8332659312e+00	-1.5371369480e+00
 1.0886028600e+00	 1.8437984742e+00	-1.5071143814e+00
 1.0708788688e+00	 1.8541486952e+00	-1.4800450591e+00
 1.0530789845e+00	 1.8643158234e+00	-1.4520940190e+00
 1.0352059863e+00	 1.8742991435e+00	-1.4216345049e+00
 1.0172626587e+00	 1.8840979949e+00	-1.3887723317e+00
 9.9925179117e-01	 1.8937117722e+00	-1.3536678848e+00
 9.8117617625e-01	 1.9031399245e+00	-1.3165291202e+00
 9.6303860844e-01	 1.9123819561e+00	-1.2776049078e+00
 9.4484188287e-01	 1.9214374256e+00	-1.2371787415e+00
 9.2658879397e-01	 1.9303059459e+00	-1.1955628390e+00
 1.1123271438e+00	 1.8433399317e+00	-1.5307184450e+00
 1.0945848540e+00	 1.8539303523e+00	-1.5017944092e+00
 1.0767634675e+00	 1.8643374488e+00	-1.4730441209e+00
 1.0588657709e+00	 1.8745604466e+00	-1.4425271144e+00
 1.0408945585e+00	 1.8845986262e+00	-1.4102252042e+00
 1.0228526304e+00	 1.8944513234e+00	-1.3761801147e+00
 1.0047427911e+00	 1.9041179294e+00	-1.3404860502e+00
 9.8656784866e-01	 1.9135978905e+00	-1.3032825972e+00
 9.6833061290e-01	 1.9228907081e+00	-1.2647479863e+00
 9.5003389429e-01	 1.9319959384e+00	-1.2250927408e+00
 9.3168050264e-01	 1.9409131922e+00	-1.1845537331e+00
 1.1184061077e+00	 1.8534139437e+00	-1.5247522138e+00
 1.1005668548e+00	 1.8640622418e+00	-1.4943010169e+00
 1.0826480728e+00	 1.8745262141e+00	-1.4625514099e+00
 1.0646525638e+00	 1.8848050814e+00	-1.4298355060e+00
 1.0465831372e+00	 1.8948981205e+00	-1.3960649060e+00
 1.0284426084e+00	 1.9048046635e+00	-1.3612082641e+00
 1.0102337973e+00	 1.9145240984e+00	-1.3252837582e+00
 9.9195952719e-01	 1.9240558683e+00	-1.2883519096e+00
 9.7362262336e-01	 1.9333994719e+00	-1.2505087839e+00
 9.5522591160e-01	 1.9425544631e+00	-1.2118795969e+00
 9.3677221707e-01	 1.9515204505e+00	-1.1726127498e+00
 1.1244850751e+00	 1.8634879614e+00	-1.5156640003e+00
 1.1065488590e+00	 1.8741941371e+00	-1.4828654812e+00
 1.0885326815e+00	 1.8847149851e+00	-1.4485022756e+00
 1.0704393600e+00	 1.8950497220e+00	-1.4139754858e+00
 1.0522717191e+00	 1.9051976206e+00	-1.3791186006e+00
 1.0340325895e+00	 1.9151580095e+00	-1.3438184299e+00
 1.0157248065e+00	 1.9249302732e+00	-1.3080074896e+00
 9.9735120877e-01	 1.9345138520e+00	-1.2716567571e+00
 9.7891463682e-01	 1.9439082417e+00	-1.2347688277e+00
 9.6041793185e-01	 1.9531129938e+00	-1.1973714989e+00
 9.4186393440e-01	 1.9621277148e+00	-1.1595118040e+00
 8.9094723725e-01	 1.8560560637e+00	-1.2653817800e+00
 8.7334175249e-01	 1.8644047787e+00	-1.2249253181e+00
 8.5568742243e-01	 1.8725730846e+00	-1.1839595444e+00
 8.3798692522e-01	 1.8805607631e+00	-1.1424281594e+00
 8.2024293355e-01	 1.8883676471e+00	-1.1002865741e+00
 8.0245811344e-01	 1.8959936204e+00	-1.0574992691e+00
 7.8463512312e-01	 1.9034386170e+00	-1.0140374806e+00
 7.6677661188e-01	 1.9107026212e+00	-9.6987721493e-01
 7.4888521892e-01	 1.9177856665e+00	-9.2499758674e-01
 7.3096357228e-01	 1.9246878357e+00	-8.7980038825e-01
 7.1301428772e-01	 1.9314092600e+00	-8.3631316610e-01
 8.9603882473e-01	 1.8666630574e+00	-1.2546362684e+00
 8.7833272810e-01	 1.8750594838e+00	-1.2124874708e+00
 8.6057750703e-01	 1.8832744699e+00	-1.1702031988e+00
 8.4277585498e-01	 1.8913077964e+00	-1.1277218010e+00
 8.2493045989e-01	 1.8991592952e+00	-1.0849872791e+00
 8.0704400305e-01	 1.9068288494e+00	-1.0419466727e+00
 7.8911915787e-01	 1.9143163928e+00	-9.9854779391e-01
 7.7115858876e-01	 1.9216219093e+00	-9.5473730983e-01
 7.5316495002e-01	 1.9287454328e+00	-9.1045916935e-01
 7.3514088471e-01	 1.9356870465e+00	-8.6578735764e-01
 7.1708902354e-01	 1.9424468824e+00	-8.2260653267e-01
 9.0113043818e-01	 1.8772701053e+00	-1.2445119269e+00
 8.8332372917e-01	 1.8857142432e+00	-1.2012709713e+00
 8.6546761658e-01	 1.8939759098e+00	-1.1581492621e+00
 8.4756480916e-01	 1.9020548846e+00	-1.1150842666e+00
 8.2961801015e-01	 1.9099509984e+00	-1.0720137477e+00
 8.1162991606e-01	 1.9176641337e+00	-1.0288731579e+00
 7.9360321548e-01	 1.9251942240e+00	-9.8559340208e-01
 7.7554058799e-01	 1.9325412530e+00	-9.4209896951e-01
 7.5744470296e-01	 1.9397052549e+00	-8.9830642970e-01
 7.3931821845e-01	 1.9466863134e+00	-8.5413142741e-01
 7.2116378014e-01	 1.9534845611e+00	-8.1102088981e-01
 9.0622207471e-01	 1.8878772013e+00	-1.2347921935e+00
 8.8831475287e-01	 1.8963690509e+00	-1.1909899367e+00
 8.7035774829e-01	 1.9046773982e+00	-1.1474561557e+00
 8.5235378506e-01	 1.9128020214e+00	-1.1041317927e+00
 8.3430558166e-01	 1.9207427505e+00	-1.0609534181e+00
 8.1621584985e-01	 1.9284994672e+00	-1.0178506140e+00
 7.9808729343e-01	 1.9360721045e+00	-9.7474374736e-01
 7.7992260709e-01	 1.9434606463e+00	-9.3154213235e-01
 7.6172447529e-01	 1.9506651268e+00	-8.8814257619e-01
 7.4349557113e-01	 1.9576856302e+00	-8.4442830189e-01
 7.2523855522e-01	 1.9645222899e+00	-8.0123216748e-01
 9.1131373144e-01	 1.8984843394e+00	-1.2252585866e+00
 8.9330579636e-01	 1.9070239008e+00	-1.1813580784e+00
 8.7524789940e-01	 1.9153789291e+00	-1.1377831237e+00
 8.5714277995e-01	 1.9235492009e+00	-1.0944823854e+00
 8.3899317177e-01	 1.9315345454e+00	-1.0513961652e+00
 8.2080180184e-01	 1.9393348436e+00	-1.0084537586e+00
 8.0257138916e-01	 1.9469500282e+00	-9.6557121963e-01
 7.8430464357e-01	 1.9543800829e+00	-9.2264953484e-01
 7.6600426461e-01	 1.9616250422e+00	-8.7957320051e-01
 7.4767294038e-01	 1.9686849906e+00	-8.3620919559e-01
 7.2931334646e-01	 1.9755600624e+00	-7.9291783725e-01
 9.1640540548e-01	 1.9090915135e+00	-1.2156907968e+00
 8.9829685683e-01	 1.9176787870e+00	-1.1720887423e+00
 8.8013806715e-01	 1.9260804963e+00	-1.1287902305e+00
 8.6193179112e-01	 1.9342964169e+00	-1.0857557828e+00
 8.4368077781e-01	 1.9423263770e+00	-1.0429342372e+00
 8.2538776942e-01	 1.9501702568e+00	-1.0002600561e+00
 8.0705550014e-01	 1.9578279888e+00	-9.5765106447e-01
 7.8868669495e-01	 1.9652995566e+00	-9.1500661735e-01
 7.7028406847e-01	 1.9725849948e+00	-8.7220618911e-01
 7.5185032383e-01	 1.9796843884e+00	-8.2910837847e-01
 7.3338815155e-01	 1.9865978725e+00	-7.8575681727e-01
 9.2149709395e-01	 1.9196987177e+00	-1.2058667781e+00
 9.0328793143e-01	 1.9283337034e+00	-1.1628949509e+00
 8.8502824874e-01	 1.9367820939e+00	-1.1201383611e+00
 8.6672081587e-01	 1.9450436634e+00	-1.0775734218e+00
 8.4836839714e-01	 1.9531182391e+00	-1.0351621962e+00
 8.2997375000e-01	 1.9610057008e+00	-9.9284964013e-01
 8.1153962383e-01	 1.9687059803e+00	-9.5056129609e-01
 7.9306875875e-01	 1.9762190613e+00	-9.0820143472e-01
 7.7456388447e-01	 1.9835449784e+00	-8.6565163910e-01
 7.5602771912e-01	 1.9906838174e+00	-8.2276982257e-01
 7.3746296819e-01	 1.9976357139e+00	-7.7942938020e-01
 9.2658879397e-01	 1.9303059459e+00	-1.1955628390e+00
 9.0827901735e-01	 1.9389886439e+00	-1.1534894453e+00
 8.8991844142e-01	 1.9474837157e+00	-1.1114892228e+00
 8.7150985147e-01	 1.9557909342e+00	-1.0695584073e+00
 8.5305602709e-01	 1.9639101257e+00	-1.0276768628e+00
 8.3455974097e-01	 1.9718411693e+00	-9.8580524157e-01
 8.1602375768e-01	 1.9795839965e+00	-9.4388261482e-01
 7.9745083248e-01	 1.9871385907e+00	-9.0182457150e-01
 7.7884371016e-01	 1.9945049869e+00	-8.5952177840e-01
 7.6020512388e-01	 2.0016832713e+00	-8.1683899302e-01
 7.4153779407e-01	 2.0086735802e+00	-7.7361451747e-01
 9.3168050264e-01	 1.9409131922e+00	-1.1845537331e+00
 9.1327011176e-01	 1.9496436026e+00	-1.1435847300e+00
 8.9480864242e-01	 1.9581853557e+00	-1.1025053507e+00
 8.7629889521e-01	 1.9665382233e+00	-1.0613354857e+00
 8.5774366501e-01	 1.9747020307e+00	-1.0200772652e+00
 8.3914573974e-01	 1.9826766563e+00	-9.7871211961e-01
 8.2050789915e-01	 1.9904620311e+00	-9.3719832915e-01
 8.0183291366e-01	 1.9980581386e+00	-8.9546906149e-01
 7.8312354313e-01	 2.0054650141e+00	-8.5343089011e-01
 7.6438253575e-01	 2.0126827439e+00	-8.1096278414e-01
 7.4561262687e-01	 2.0197114654e+00	-7.6791555758e-01
 9.3677221707e-01	 1.9515204505e+00	-1.1726127498e+00
 9.1826121182e-01	 1.9602985733e+00	-1.1328931169e+00
 8.9969884896e-01	 1.9688870079e+00	-1.0928501137e+00
 8.8108794438e-01	 1.9772855246e+00	-1.0525310200e+00
 8.6243130824e-01	 1.9854939479e+00	-1.0119645906e+00
 8.4373174370e-01	 1.9935121555e+00	-9.7115799776e-01
 8.2499204571e-01	 2.0013400781e+00	-9.3009428204e-01
 8.0621499981e-01	 2.0089776990e+00	-8.8873031161e-01
 7.8740338095e-01	 2.0164250536e+00	-8.4699524076e-01
 7.6855995234e-01	 2.0236822290e+00	-8.0478945899e-01
 7.4968746430e-01	 2.0307493630e+00	-7.6198401781e-01
 9.4186393440e-01	 1.9621277148e+00	-1.1595118040e+00
 9.2325231471e-01	 1.9709535501e+00	-1.1211267719e+00
 9.0458905827e-01	 1.9795886661e+00	-1.0821877237e+00
 8.8587699627e-01	 1.9880328320e+00	-1.0427729694e+00
 8.6711895413e-01	 1.9962858712e+00	-1.0029421420e+00
 8.4831775027e-01	 2.0043476608e+00	-9.6273300356e-01
 8.2947619481e-01	 2.0122181312e+00	-9.2215878135e-01
 8.1059708844e-01	 2.0198972655e+00	-8.8120602984e-01
 7.9168322120e-01	 2.0273850994e+00	-8.3983301244e-01
 7.7273737131e-01	 2.0346817203e+00	-7.9796859224e-01
 7.5376230403e-01	 2.0417872669e+00	-7.5551161878e-01
 7.1301428772e-01	 1.9314092600e+00	-8.3631316610e-01
 6.9504302486e-01	 1.9379490220e+00	-7.9429736108e-01
 6.7704932100e-01	 1.9443085050e+00	-7.5317200027e-01
 6.5903574679e-01	 1.9504879813e+00	-7.1270380625e-01
 6.4100485649e-01	 1.9564877690e+00	-6.7268610800e-01
 6.2295918711e-01	 1.9623082321e+00	-6.3293552928e-01
 6.0490125739e-01	 1.9679497795e+00	-5.9328907726e-01
 5.8683356689e-01	 1.9734128641e+00	-5.5360161314e-01
 5.6875859512e-01	 1.9786979827e+00	-5.1374368468e-01
 5.5067880065e-01	 1.9838056747e+00	-4.7359969885e-01
 5.3259662025e-01	 1.9887365216e+00	-4.3306641173e-01
 7.1708902354e-01	 1.9424468824e+00	-8.2260653267e-01
 6.9901505846e-01	 1.9490240178e+00	-7.8095466736e-01
 6.8091852414e-01	 1.9554198441e+00	-7.4017142446e-01
 6.6280200590e-01	 1.9616346348e+00	-7.0002836664e-01
 6.4466807263e-01	 1.9676687101e+00	-6.6032515991e-01
 6.2651927582e-01	 1.9735224361e+00	-6.2088623309e-01
 6.0835814859e-01	 1.9791962238e+00	-5.8155785173e-01
 5.9018720481e-01	 1.9846905289e+00	-5.4220558728e-01
 5.7200893815e-01	 1.9900058509e+00	-5.0271216027e-01
 5.5382582122e-01	 1.9951427323e+00	-4.6297563480e-01
 5.3564030473e-01	 2.0001017580e+00	-4.2290794009e-01
 7.2116378014e-01	 1.9534845611e+00	-8.1102088981e-01
 7.0298711232e-01	 1.9600990702e+00	-7.6948695880e-01
 6.8478774701e-01	 1.9665312398e+00	-7.2884075929e-01
 6.6656828423e-01	 1.9727813452e+00	-6.8885555027e-01
 6.4833130746e-01	 1.9788497083e+00	-6.4933365223e-01
 6.3007938268e-01	 1.9847366972e+00	-6.1010309357e-01
 6.1181505743e-01	 1.9904427254e+00	-5.7101468662e-01
 5.9354085984e-01	 1.9959682511e+00	-5.3193951298e-01
 5.7525929776e-01	 2.0013137767e+00	-4.9276679576e-01
 5.5697285785e-01	 2.0064798477e+00	-4.5340213499e-01
 5.3868400474e-01	 2.0114670524e+00	-4.1376608069e-01
 7.2523855522e-01	 1.9645222899e+00	-8.0123216748e-01
 7.0695918419e-01	 1.9711741728e+00	-7.5962060546e-01
 6.8865698743e-01	 1.9776426859e+00	-7.1894905230e-01
 6.7033457964e-01	 1.9839281062e+00	-6.7898935752e-01
 6.5199455890e-01	 1.9900307572e+00	-6.3954285322e-01
 6.3363950569e-01	 1.9959510092e+00	-6.0043700327e-01
 6.1527198194e-01	 2.0016892780e+00	-5.6152249833e-01
 5.9689453007e-01	 2.0072460245e+00	-5.2267077499e-01
 5.7850967210e-01	 2.0126217538e+00	-4.8377193565e-01
 5.6011990874e-01	 2.0178170145e+00	-4.4473304400e-01
 5.4172771855e-01	 2.0228323983e+00	-4.0547676934e-01
 7.2931334646e-01	 1.9755600624e+00	-7.9291783725e-01
 7.1093127181e-01	 1.9822493193e+00	-7.5108256942e-01
 6.9252624319e-01	 1.9887541761e+00	-7.1026518821e-01
 6.7410088998e-01	 1.9950749113e+00	-6.7023306387e-01
 6.5565782486e-01	 2.0012118504e+00	-6.3078293458e-01
 6.3719964282e-01	 2.0071653657e+00	-5.9173757454e-01
 6.1872892016e-01	 2.0129358753e+00	-5.5294292476e-01
 6.0024821361e-01	 2.0185238426e+00	-5.1426566384e-01
 5.8176005934e-01	 2.0239297757e+00	-4.7559119409e-01
 5.6326697212e-01	 2.0291542263e+00	-4.3682201626e-01
 5.4477144444e-01	 2.0341977892e+00	-3.9787646525e-01
 7.3338815155e-01	 1.9865978725e+00	-7.8575681727e-01
 7.1490337294e-01	 1.9933245034e+00	-7.4360033280e-01
 6.9639551211e-01	 1.9998657041e+00	-7.0255783538e-01
 6.7786721313e-01	 2.0062217544e+00	-6.6238918004e-01
 6.5932110328e-01	 2.0123929817e+00	-6.2288294071e-01
 6.4075979205e-01	 2.0183797603e+00	-5.8385311323e-01
 6.2218587014e-01	 2.0241825108e+00	-5.4513629888e-01
 6.0360190855e-01	 2.0298016991e+00	-5.0658934476e-01
 5.8501045763e-01	 2.0352378361e+00	-4.6808741463e-01
 5.6641404620e-01	 2.0404914766e+00	-4.2952246250e-01
 5.4781518067e-01	 2.0455632189e+00	-3.9080207957e-01
 7.3746296819e-01	 1.9976357139e+00	-7.7942938020e-01
 7.1887548533e-01	 2.0043997190e+00	-7.3690182801e-01
 7.0026479199e-01	 2.0109772636e+00	-6.9559539375e-01
 6.8163354695e-01	 2.0173686290e+00	-6.5525941315e-01
 6.6298439209e-01	 2.0235741446e+00	-6.1567075852e-01
 6.4431995137e-01	 2.0295941867e+00	-5.7663059272e-01
 6.2564282991e-01	 2.0354291781e+00	-5.3796162268e-01
 6.0695561299e-01	 2.0410795875e+00	-4.9950582710e-01
 5.8826086513e-01	 2.0465459285e+00	-4.6112263095e-01
 5.6956112920e-01	 2.0518287591e+00	-4.2268749730e-01
 5.5085892553e-01	 2.0569286807e+00	-3.8409090572e-01
 7.4153779407e-01	 2.0086735802e+00	-7.7361451747e-01
 7.2284760672e-01	 2.0154749596e+00	-7.3071537014e-01
 7.0413408065e-01	 2.0220888482e+00	-6.8914594430e-01
 6.8539988932e-01	 2.0285155289e+00	-6.4864462884e-01
 6.6664768919e-01	 2.0347553329e+00	-6.0897308788e-01
 6.4788011876e-01	 2.0408086385e+00	-5.6991562854e-01
 6.2909979752e-01	 2.0466758709e+00	-5.3127654153e-01
 6.1030932504e-01	 2.0523575015e+00	-4.9287793435e-01
 5.9151128000e-01	 2.0578540466e+00	-4.5455802823e-01
 5.7270821933e-01	 2.0631660672e+00	-4.1616988783e-01
 5.5390267729e-01	 2.0682941683e+00	-3.7758055137e-01
 7.4561262687e-01	 2.0197114654e+00	-7.6791555758e-01
 7.2681973486e-01	 2.0265502191e+00	-7.2476959144e-01
 7.0800337588e-01	 2.0332004517e+00	-6.8297719988e-01
 6.8916623808e-01	 2.0396624478e+00	-6.4234481435e-01
 6.7031099253e-01	 2.0459365401e+00	-6.0261541278e-01
 6.5144029221e-01	 2.0520231093e+00	-5.6355245327e-01
 6.3255677101e-01	 2.0579225829e+00	-5.2493731889e-01
 6.1366304278e-01	 2.0636354346e+00	-4.8656727453e-01
 5.9476170039e-01	 2.0691621838e+00	-4.4825390528e-01
 5.7585531481e-01	 2.0745033947e+00	-4.0982200370e-01
 5.5694643422e-01	 2.0796596752e+00	-3.7110887213e-01
 7.4968746430e-01	 2.0307493630e+00	-7.6198401781e-01
 7.3079186751e-01	 2.0376254911e+00	-7.1879337773e-01
 7.1187267550e-01	 2.0443120679e+00	-6.7685645754e-01
 6.9293259111e-01	 2.0508093793e+00	-6.3615904246e-01
 6.7397430001e-01	 2.0571177601e+00	-5.9642197292e-01
 6.5500046968e-01	 2.0632375929e+00	-5.5738389191e-01
 6.3601374841e-01	 2.0691693076e+00	-5.1879881140e-01
 6.1701676433e-01	 2.0749133806e+00	-4.8043421111e-01
 5.9801212447e-01	 2.0804703339e+00	-4.4206963738e-01
 5.7900241386e-01	 2.0858407349e+00	-4.0349576792e-01
 5.5999019460e-01	 2.0910251950e+00	-3.6451390674e-01
 7.5376230403e-01	 2.0417872669e+00	-7.5551161878e-01
 7.3476400240e-01	 2.0487007695e+00	-7.1251580681e-01
 7.1574197731e-01	 2.0554236903e+00	-6.7055055202e-01
 6.9669894628e-01	 2.0619563171e+00	-6.2988543639e-01
 6.7763760958e-01	 2.0682989864e+00	-5.9021573602e-01
 6.5856064918e-01	 2.0744520828e+00	-5.5125133768e-01
 6.3947072777e-01	 2.0804160387e+00	-5.1271444438e-01
 6.2037048778e-01	 2.0861913329e+00	-4.7433783439e-01
 6.0126255039e-01	 2.0917784904e+00	-4.3586363981e-01
 5.8214951469e-01	 2.0971780816e+00	-3.9704260881e-01
 5.6303395671e-01	 2.1023907212e+00	-3.5763381387e-01
 5.3259662025e-01	 1.9887365216e+00	-4.3306641173e-01
 5.1451446834e-01	 1.9934911467e+00	-3.9320486978e-01
 4.9643473693e-01	 1.9980702157e+00	-3.5503984511e-01
 4.7835979400e-01	 2.0024744343e+00	-3.1842951701e-01
 4.6029198261e-01	 2.0067045474e+00	-2.8324154247e-01
 4.4223362010e-01	 2.0107613379e+00	-2.4935283862e-01
 4.2418699748e-01	 2.0146456259e+00	-2.1664952588e-01
 4.0615437870e-01	 2.0183582683e+00	-1.8502700561e-01
 3.8813800011e-01	 2.0219001574e+00	-1.5439014656e-01
 3.7014006976e-01	 2.0252722203e+00	-1.2465360698e-01
 3.5216276693e-01	 2.0284754181e+00	-9.5965920310e-02
 5.3564030473e-01	 2.0001017580e+00	-4.2290794009e-01
 5.1745481690e-01	 2.0048835549e+00	-3.8357316282e-01
 4.9927176339e-01	 2.0094887923e+00	-3.4597944710e-01
 4.8109352574e-01	 2.0139181802e+00	-3.0997134789e-01
 4.6292246037e-01	 2.0181724675e+00	-2.7540240828e-01
 4.4476089789e-01	 2.0222524417e+00	-2.4213509350e-01
 4.2661114238e-01	 2.0261589277e+00	-2.1004088954e-01
 4.0847547076e-01	 2.0298927872e+00	-1.7900053894e-01
 3.9035613211e-01	 2.0334549174e+00	-1.4890438672e-01
 3.7225534715e-01	 2.0368462510e+00	-1.1965280972e-01
 3.5417530758e-01	 2.0400677544e+00	-9.1341956631e-02
 5.3868400474e-01	 2.0114670524e+00	-4.1376608069e-01
 5.2039518046e-01	 2.0162760211e+00	-3.7490109720e-01
 5.0210880433e-01	 2.0209074272e+00	-3.3778334137e-01
 4.8382727142e-01	 2.0253619844e+00	-3.0225094405e-01
 4.6555295155e-01	 2.0296404462e+00	-2.6815067424e-01
 4.4728818857e-01	 2.0337436042e+00	-2.3533801796e-01
 4.2903529965e-01	 2.0376722883e+00	-2.0367742578e-01
 4.1079657464e-01	 2.0414273648e+00	-1.7304270033e-01
 3.9257427543e-01	 2.0450097364e+00	-1.4331749530e-01
 3.7437063533e-01	 2.0484203408e+00	-1.1439589827e-01
 3.5618785850e-01	 2.0516601499e+00	-8.6330003189e-02
 5.4172771855e-01	 2.0228323983e+00	-4.0547676934e-01
 5.2333555735e-01	 2.0276685390e+00	-3.6700519357e-01
 5.0494585813e-01	 2.0323261138e+00	-3.3025285185e-01
 4.8656102949e-01	 2.0368058405e+00	-2.9505843490e-01
 4.6818345466e-01	 2.0411084768e+00	-2.6126905862e-01
 4.4981549071e-01	 2.0452348188e+00	-2.2874048136e-01
 4.3145946791e-01	 2.0491857010e+00	-1.9733749418e-01
 4.1311768906e-01	 2.0529619948e+00	-1.6693445399e-01
 3.9479242881e-01	 2.0565646078e+00	-1.3741592988e-01
 3.7648593310e-01	 2.0599944830e+00	-1.0867743337e-01
 3.5820041854e-01	 2.0632525979e+00	-8.0737055489e-02
 5.4477144444e-01	 2.0341977892e+00	-3.9787646525e-01
 5.2627594590e-01	 2.0390611021e+00	-3.5970324864e-01
 5.0778292318e-01	 2.0437448457e+00	-3.2319123997e-01
 4.8929479841e-01	 2.0482497420e+00	-2.8818646028e-01
 4.7081396820e-01	 2.0525765529e+00	-2.5454327696e-01
 4.5234280287e-01	 2.0567260790e+00	-2.2212475354e-01
 4.3388364579e-01	 2.0606991594e+00	-1.9080317690e-01
 4.1543881268e-01	 2.0644966705e+00	-1.6046073037e-01
 3.9701059098e-01	 2.0681195249e+00	-1.3099028175e-01
 3.7860123926e-01	 2.0715686711e+00	-1.0229625570e-01
 3.6021298657e-01	 2.0748450919e+00	-7.4374016324e-02
 5.4781518067e-01	 2.0455632189e+00	-3.9080207957e-01
 5.2921634445e-01	 2.0504537039e+00	-3.5281424513e-01
 5.1061999788e-01	 2.0551636165e+00	-3.1640359914e-01
 4.9202857663e-01	 2.0596936825e+00	-2.8143005207e-01
 4.7344449068e-01	 2.0640446679e+00	-2.4776191348e-01
 4.5487012363e-01	 2.0682173782e+00	-2.1527636871e-01
 4.3630783191e-01	 2.0722126570e+00	-1.8386013756e-01
 4.1775994419e-01	 2.0760313854e+00	-1.5341028212e-01
 3.9922876070e-01	 2.0796744814e+00	-1.2383513140e-01
 3.8071655261e-01	 2.0831428986e+00	-9.5055290737e-02
 3.6222556144e-01	 2.0864376254e+00	-6.7055568938e-02
 5.5085892553e-01	 2.0569286807e+00	-3.8409090572e-01
 5.3215675133e-01	 2.0618463381e+00	-3.4615826422e-01
 5.1345708062e-01	 2.0665824196e+00	-3.0969675198e-01
 4.9476236259e-01	 2.0711376553e+00	-2.7458651906e-01
 4.7607502062e-01	 2.0755128155e+00	-2.4071629624e-01
 4.5739745154e-01	 2.0797087100e+00	-2.0798399325e-01
 4.3873202489e-01	 2.0837261872e+00	-1.7629748402e-01
 4.2008108228e-01	 2.0875661330e+00	-1.4557554436e-01
 4.0144693670e-01	 2.0912294706e+00	-1.1574890829e-01
 3.8283187195e-01	 2.0947171588e+00	-8.6761410002e-02
 3.6423814201e-01	 2.0980301916e+00	-5.8600054280e-02
 5.5390267729e-01	 2.0682941683e+00	-3.7758055137e-01
 5.3509716488e-01	 2.0732389980e+00	-3.3955640018e-01
 5.1629416979e-01	 2.0780012486e+00	-3.0287915038e-01
 4.9749615474e-01	 2.0825816541e+00	-2.6745533506e-01
 4.7870555652e-01	 2.0869809891e+00	-2.3320037569e-01
 4.5992478519e-01	 2.0912000679e+00	-2.0003929724e-01
 4.4115622337e-01	 2.0952397434e+00	-1.6790763525e-01
 4.2240222563e-01	 2.0991009068e+00	-1.3675249886e-01
 4.0366511773e-01	 2.1027844860e+00	-1.0653375460e-01
 3.8494719609e-01	 2.1062914454e+00	-7.7225296388e-02
 3.6625072714e-01	 2.1096227842e+00	-4.8829352179e-02
 5.5694643422e-01	 2.0796596752e+00	-3.7110887213e-01
 5.3803758343e-01	 2.0846316773e+00	-3.3283067724e-01
 5.1913126378e-01	 2.0894200970e+00	-2.9576077824e-01
 5.0022995155e-01	 2.0940256723e+00	-2.5983802994e-01
 4.8133609690e-01	 2.0984491822e+00	-2.2501060662e-01
 4.6245212313e-01	 2.1026914453e+00	-1.9123682960e-01
 4.4358042598e-01	 2.1067533193e+00	-1.5848619182e-01
 4.2472337292e-01	 2.1106357002e+00	-1.2674054220e-01
 4.0588330253e-01	 2.1143395211e+00	-9.5995392855e-02
 3.8706252382e-01	 2.1178657515e+00	-6.6261313285e-02
 3.6826331570e-01	 2.1212153965e+00	-3.7568766310e-02
 5.5999019460e-01	 2.0910251950e+00	-3.6451390674e-01
 5.4097800530e-01	 2.0960243695e+00	-3.2580396858e-01
 5.2196836099e-01	 2.1008389583e+00	-2.8815305673e-01
 5.0296375145e-01	 2.1054697035e+00	-2.5153808374e-01
 4.8396664025e-01	 2.1099173883e+00	-2.1594583339e-01
 4.6497946394e-01	 2.1141828357e+00	-1.8137389666e-01
 4.4600463133e-01	 2.1182669082e+00	-1.4783181006e-01
 4.2704452285e-01	 2.1221705066e+00	-1.1534235750e-01
 4.0810148984e-01	 2.1258945692e+00	-8.3942997365e-02
 3.8917785396e-01	 2.1294400708e+00	-5.3687377457e-02
 3.7027590653e-01	 2.1328080219e+00	-2.4646912784e-02
 5.6303395671e-01	 2.1023907212e+00	-3.5763381387e-01
 5.4391842885e-01	 2.1074170682e+00	-3.1829991732e-01
 5.2480545980e-01	 2.1122578261e+00	-2.7986875204e-01
 5.0569755290e-01	 2.1169137412e+00	-2.4236082350e-01
 4.8659718510e-01	 2.1213856008e+00	-2.0580717816e-01
 4.6750680617e-01	 2.1256742326e+00	-1.7025044410e-01
 4.4842883805e-01	 2.1297805036e+00	-1.3574607973e-01
 4.2936567409e-01	 2.1337053196e+00	-1.0236378980e-01
 4.1031967841e-01	 2.1374496239e+00	-7.0189069217e-02
 3.9129318529e-01	 2.1410143967e+00	-3.9324835478e-02
 3.7228849851e-01	 2.1444006538e+00	-9.8931122711e-03
 3.5216276693e-01	 2.0284754181e+00	-9.5965920310e-02
 3.3420519188e-01	 2.0315112463e+00	-6.8853244853e-02
 3.1627252778e-01	 2.0343801714e+00	-4.3580485689e-02
 2.9836686993e-01	 2.0370832501e+00	-1.9924598857e-02
 2.8049028269e-01	 2.0396215691e+00	 2.3083968237e-03
 2.6264479907e-01	 2.0419962448e+00	 2.3287148087e-02
 2.4483242024e-01	 2.0442084222e+00	 4.3158571485e-02
 2.2705511524e-01	 2.0462592739e+00	 6.2051358957e-02
 2.0931482059e-01	 2.0481499994e+00	 8.0079408626e-02
 1.9161343995e-01	 2.0498818239e+00	 9.7345203186e-02
 1.7395284384e-01	 2.0514559977e+00	 1.1394315656e-01
 3.5417530758e-01	 2.0400677544e+00	-9.1341956631e-02
 3.3611510854e-01	 2.0431209318e+00	-6.4552789861e-02
 3.1807996281e-01	 2.0460062523e+00	-3.9534227523e-02
 3.0007197766e-01	 2.0487247785e+00	-1.6061583701e-02
 2.8209322926e-01	 2.0512776035e+00	 6.0594252838e-03
 2.6414576222e-01	 2.0536658500e+00	 2.6996277304e-02
 2.4623158916e-01	 2.0558906696e+00	 4.6893120357e-02
 2.2835269038e-01	 2.0579532415e+00	 6.5874154773e-02
 2.1051101345e-01	 2.0598547721e+00	 8.4046946947e-02
 1.9270847291e-01	 2.0615964936e+00	 1.0150569819e-01
 1.7494694999e-01	 2.0631796635e+00	 1.1833449045e-01
 3.5618785850e-01	 2.0516601499e+00	-8.6330003189e-02
 3.3802503495e-01	 2.0547306765e+00	-5.9747619471e-02
 3.1988740705e-01	 2.0576323924e+00	-3.4888770830e-02
 3.0177709408e-01	 2.0603663663e+00	-1.1524701374e-02
 2.8369618400e-01	 2.0629336973e+00	 1.0541444349e-02
 2.6564673302e-01	 2.0653355147e+00	 3.1478076642e-02
 2.4763076522e-01	 2.0675729765e+00	 5.1428499413e-02
 2.2965027214e-01	 2.0696472687e+00	 7.0514160623e-02
 2.1170721241e-01	 2.0715596045e+00	 8.8837841024e-02
 1.9380351146e-01	 2.0733112231e+00	 1.0648680604e-01
 1.7594106120e-01	 2.0749033891e+00	 1.2353594377e-01
 3.5820041854e-01	 2.0632525979e+00	-8.0737055489e-02
 3.3993497000e-01	 2.0663404738e+00	-5.4258842788e-02
 3.2169485949e-01	 2.0692585853e+00	-2.9480606853e-02
 3.0348221824e-01	 2.0720080069e+00	-6.1670289295e-03
 2.8529914600e-01	 2.0745898440e+00	 1.5883653704e-02
 2.6714771063e-01	 2.0770052324e+00	 3.6842952284e-02
 2.4902994763e-01	 2.0792553364e+00	 5.6855318926e-02
 2.3094785978e-01	 2.0813413489e+00	 7.6041256527e-02
 2.1290341679e-01	 2.0832644899e+00	 9.4500374231e-02
 1.9489855498e-01	 2.0850260057e+00	 1.1231441460e-01
 1.7693517693e-01	 2.0866271679e+00	 1.2955027661e-01
 3.6021298657e-01	 2.0748450919e+00	-7.4374016324e-02
 3.4184491264e-01	 2.0779503173e+00	-4.7911421398e-02
 3.2350231910e-01	 2.0808848243e+00	-2.3149982324e-02
 3.0518734916e-01	 2.0836496936e+00	 1.5474258102e-04
 2.8690211437e-01	 2.0862460370e+00	 2.2211827347e-02
 2.6864869420e-01	 2.0886749963e+00	 4.3198122149e-02
 2.5042913558e-01	 2.0909377427e+00	 6.3261289679e-02
 2.3224545256e-01	 2.0930354756e+00	 8.2522765362e-02
 2.1409962592e-01	 2.0949694218e+00	 1.0108067089e-01
 1.9599360283e-01	 2.0967408347e+00	 1.1901270858e-01
 1.7792929659e-01	 2.0983509931e+00	 1.3637906184e-01
 3.6222556144e-01	 2.0864376254e+00	-6.7055568938e-02
 3.4375486177e-01	 2.0895602001e+00	-4.0534045979e-02
 3.2530978485e-01	 2.0925111028e+00	-1.5740781041e-02
 3.0689248587e-01	 2.0952914199e+00	 7.5804200836e-03
 2.8850508818e-01	 2.0979022695e+00	 2.9648417629e-02
 2.7014968286e-01	 2.1003447999e+00	 5.0647710512e-02
 2.5182832829e-01	 2.1026201886e+00	 7.0731306717e-02
 2.3354304976e-01	 2.1047296419e+00	 9.0023524304e-02
 2.1529583911e-01	 2.1066743935e+00	 1.0862275399e-01
 1.9708865441e-01	 2.1084557036e+00	 1.2660421218e-01
 1.7892341964e-01	 2.1100748583e+00	 1.4402271110e-01
 3.6423814201e-01	 2.0980301916e+00	-5.8600054280e-02
 3.4566481631e-01	 2.1011701159e+00	-3.1959016856e-02
 3.2711725573e-01	 2.1041374142e+00	-7.1004091895e-03
 3.0859762742e-01	 2.1069331792e+00	 1.6246416930e-02
 2.9010806654e-01	 2.1095585351e+00	 3.8312656037e-02
 2.7165067578e-01	 2.1120146365e+00	 5.9292839696e-02
 2.5322752496e-01	 2.1143026677e+00	 7.9347530531e-02
 2.3484065063e-01	 2.1164238415e+00	 9.8605954098e-02
 2.1649205569e-01	 2.1183793984e+00	 1.1716860111e-01
 1.9818370909e-01	 2.1201706057e+00	 1.3510983033e-01
 1.7991754550e-01	 2.1217987566e+00	 1.5248050009e-01
 3.6625072714e-01	 2.1096227842e+00	-4.8829352179e-02
 3.4757477518e-01	 2.1127800580e+00	-2.2022128355e-02
 3.2892473070e-01	 2.1157637520e+00	 2.9203157144e-03
 3.1030277283e-01	 2.1185749649e+00	 2.6285857958e-02
 2.9171104853e-01	 2.1212148271e+00	 4.8320650845e-02
 2.7315167211e-01	 2.1236844997e+00	 6.9231718934e-02
 2.5462672481e-01	 2.1259851733e+00	 8.9189465751e-02
 2.3613825444e-01	 2.1281180675e+00	 1.0833012622e-01
 2.1768827499e-01	 2.1300844297e+00	 1.2675819877e-01
 1.9927876626e-01	 2.1318855343e+00	 1.4454888883e-01
 1.8091167361e-01	 2.1335226816e+00	 1.6175059315e-01
 3.6826331570e-01	 2.1212153965e+00	-3.7568766310e-02
 3.4948473730e-01	 2.1243900198e+00	-1.0562556787e-02
 3.3073220875e-01	 2.1273901096e+00	 1.4467272419e-02
 3.1200792114e-01	 2.1302167704e+00	 3.7828681292e-02
 2.9331403325e-01	 2.1328711390e+00	 5.9785481769e-02
 2.7465267098e-01	 2.1353543826e+00	 8.0559730516e-02
 2.5602592703e-01	 2.1376676987e+00	 1.0033403746e-01
 2.3743586046e-01	 2.1398123134e+00	 1.1925382805e-01
 2.1888449631e-01	 2.1417894810e+00	 1.3742959509e-01
 2.0037382528e-01	 2.1436004829e+00	 1.5493917325e-01
 1.8190580342e-01	 2.1452466264e+00	 1.7183006721e-01
 3.7027590653e-01	 2.1328080219e+00	-2.4646912784e-02
 3.5139470158e-01	 2.1359999948e+00	 2.5772480454e-03
 3.3253968884e-01	 2.1390164803e+00	 2.7683140184e-02
 3.1371307139e-01	 2.1418585891e+00	 5.1001737002e-02
 2.9491701978e-01	 2.1445274640e+00	 7.2817291714e-02
 2.7615367155e-01	 2.1470242788e+00	 9.3369513322e-02
 2.5742513084e-01	 2.1493502373e+00	 1.1285566519e-01
 2.3873346795e-01	 2.1515065725e+00	 1.3143262606e-01
 2.2008071900e-01	 2.1534945456e+00	 1.4921895096e-01
 2.0146888555e-01	 2.1553154447e+00	 1.6629696682e-01
 1.8289993435e-01	 2.1569705846e+00	 1.8271493510e-01
 3.7228849851e-01	 2.1444006538e+00	-9.8931122711e-03
 3.5330466695e-01	 2.1476099764e+00	 1.7551667973e-02
 3.3434716996e-01	 2.1506428576e+00	 4.2707499813e-02
 3.1541822260e-01	 2.1535004144e+00	 6.5928882753e-02
 2.9652000722e-01	 2.1561837957e+00	 8.7523375742e-02
 2.7765467298e-01	 2.1586941816e+00	 1.0775104383e-01
 2.5882433545e-01	 2.1610327826e+00	 1.2682633477e-01
 2.4003107618e-01	 2.1632008383e+00	 1.4491992720e-01
 2.2127694236e-01	 2.1651996168e+00	 1.6216058971e-01
 2.0256394644e-01	 2.1670304132e+00	 1.7863708719e-01
 1.8389406585e-01	 2.1686945494e+00	 1.9440016818e-01
 1.7395284384e-01	 2.0514559977e+00	 1.1394315656e-01
 1.5633785348e-01	 2.0528735672e+00	 1.2925190604e-01
 1.3876723173e-01	 2.0541361099e+00	 1.4261077626e-01
 1.2124270721e-01	 2.0552449443e+00	 1.5404395237e-01
 1.0376597556e-01	 2.0562014105e+00	 1.6357991334e-01
 8.6338699305e-02	 2.0570068688e+00	 1.7125500129e-01
 6.8962507657e-02	 2.0576626990e+00	 1.7711704211e-01
 5.1638996428e-02	 2.0581702998e+00	 1.8122902460e-01
 3.4369727903e-02	 2.0585310877e+00	 1.8367284370e-01
 1.7156230758e-02	 2.0587464959e+00	 1.8455311133e-01
 0.0000000000e+00	 2.0588179740e+00	 1.8400103609e-01
 1.7494694999e-01	 2.0631796635e+00	 1.1833449045e-01
 1.5723129343e-01	 2.0646053341e+00	 1.3388178477e-01
 1.3956025905e-01	 2.0658750920e+00	 1.4747175609e-01
 1.2193558534e-01	 2.0669902632e+00	 1.5913751224e-01
 1.0435897762e-01	 2.0679521954e+00	 1.6891429322e-01
 8.6832107919e-02	 2.0687622567e+00	 1.7684295985e-01
 6.9356614768e-02	 2.0694218349e+00	 1.8297354750e-01
 5.1934103094e-02	 2.0699323366e+00	 1.8736889267e-01
 3.4566144110e-02	 2.0702951863e+00	 1.9010833831e-01
 1.7254275229e-02	 2.0705118255e+00	 1.9129152146e-01
 0.0000000000e+00	 2.0705837120e+00	 1.9104224476e-01
 1.7594106120e-01	 2.0749033891e+00	 1.2353594377e-01
 1.5812473794e-01	 2.0763371609e+00	 1.3930962446e-01
 1.4035329042e-01	 2.0776141340e+00	 1.5312107217e-01
 1.2262846700e-01	 2.0787356420e+00	 1.6501033085e-01
 1.0495198270e-01	 2.0797030403e+00	 1.7501722338e-01
 8.7325519050e-02	 2.0805177046e+00	 1.8318475774e-01
 6.9750723889e-02	 2.0811810308e+00	 1.8956261274e-01
 5.2229211265e-02	 2.0816944333e+00	 1.9421071153e-01
 3.4762561319e-02	 2.0820593448e+00	 1.9720288899e-01
 1.7352320199e-02	 2.0822772151e+00	 1.9863065692e-01
 0.0000000000e+00	 2.0823495101e+00	 1.9860706870e-01
 1.7693517693e-01	 2.0866271679e+00	 1.2955027661e-01
 1.5901818651e-01	 2.0880690409e+00	 1.4551438992e-01
 1.4114632538e-01	 2.0893532292e+00	 1.5951330964e-01
 1.2332135180e-01	 2.0904810741e+00	 1.7159213332e-01
 1.0554499047e-01	 2.0914539384e+00	 1.8179319009e-01
 8.7818932417e-02	 2.0922732058e+00	 1.9015936239e-01
 7.0144834796e-02	 2.0929402800e+00	 1.9673750230e-01
 5.2524320773e-02	 2.0934565833e+00	 2.0158195115e-01
 3.4958979418e-02	 2.0938235567e+00	 2.0475816883e-01
 1.7450365614e-02	 2.0940426580e+00	 2.0634647704e-01
 0.0000000000e+00	 2.0941153615e+00	 2.0644591810e-01
 1.7792929659e-01	 2.0983509931e+00	 1.3637906184e-01
 1.5991163861e-01	 2.0998009674e+00	 1.5247443652e-01
 1.4193936349e-01	 2.1010923710e+00	 1.6660308546e-01
 1.2401423935e-01	 2.1022265528e+00	 1.7881338216e-01
 1.0613800059e-01	 2.1032048831e+00	 1.8914818779e-01
 8.8312347742e-02	 2.1040287537e+00	 1.9764808619e-01
 7.0538947267e-02	 2.1046995758e+00	 2.0435472909e-01
 5.2819431453e-02	 2.1052187801e+00	 2.0931430078e-01
 3.5155398296e-02	 2.1055878153e+00	 2.1258110896e-01
 1.7548411418e-02	 2.1058081476e+00	 2.1422130624e-01
 0.0000000000e+00	 2.1058812596e+00	 2.1431674409e-01
 1.7892341964e-01	 2.1100748583e+00	 1.4402271110e-01
 1.6080509376e-01	 2.1115329338e+00	 1.6016751830e-01
 1.4273240429e-01	 2.1128315527e+00	 1.7434503722e-01
 1.2470712925e-01	 2.1139720713e+00	 1.8660524550e-01
 1.0673101273e-01	 2.1149558678e+00	 1.9698966551e-01
 8.8805764744e-02	 2.1157843415e+00	 2.0553450986e-01
 7.0933061078e-02	 2.1164589116e+00	 2.1227395363e-01
 5.3114543135e-02	 2.1169810168e+00	 2.1724354277e-01
 3.5351817842e-02	 2.1173521139e+00	 2.2048374587e-01
 1.7646457555e-02	 2.1175736772e+00	 2.2204365396e-01
 0.0000000000e+00	 2.1176471977e+00	 2.2198483024e-01
 1.7991754550e-01	 2.1217987566e+00	 1.5248050009e-01
 1.6169855143e-01	 2.1232649335e+00	 1.6857079588e-01
 1.4352544734e-01	 2.1245707677e+00	 1.8269381235e-01
 1.2540002112e-01	 2.1257176232e+00	 1.9489956644e-01
 1.0732402655e-01	 2.1267068858e+00	 2.0522647506e-01
 8.9299183145e-02	 2.1275399626e+00	 2.1370440832e-01
 7.1327176005e-02	 2.1282182807e+00	 2.2035788647e-01
 5.3409655654e-02	 2.1287432868e+00	 2.2520943051e-01
 3.5548237944e-02	 2.1291164458e+00	 2.2828307393e-01
 1.7744503970e-02	 2.1293392401e+00	 2.2960804063e-01
 0.0000000000e+00	 2.1294131691e+00	 2.2922259102e-01
 1.8091167361e-01	 2.1335226816e+00	 1.6175059315e-01
 1.6259201113e-01	 2.1349969597e+00	 1.7766084425e-01
 1.4431849219e-01	 2.1363100093e+00	 1.9160405792e-01
 1.2609291456e-01	 2.1374632017e+00	 2.0362883349e-01
 1.0791704171e-01	 2.1384579305e+00	 2.1376882103e-01
 8.9792602663e-02	 2.1392956104e+00	 2.2204567914e-01
 7.1721291826e-02	 2.1399776765e+00	 2.2847219402e-01
 5.3704768841e-02	 2.1405055835e+00	 2.3305557049e-01
 3.5744658492e-02	 2.1408808043e+00	 2.3580090260e-01
 1.7842550607e-02	 2.1411048298e+00	 2.3671482925e-01
 0.0000000000e+00	 2.1411791672e+00	 2.3580937683e-01
 1.8190580342e-01	 2.1452466264e+00	 1.7183006721e-01
 1.6348547235e-01	 2.1467290059e+00	 1.8741366045e-01
 1.4511153839e-01	 2.1480492708e+00	 2.0103041079e-01
 1.2678580917e-01	 2.1492088002e+00	 2.1272615208e-01
 1.0851005788e-01	 2.1502089951e+00	 2.2252821251e-01
 9.0286023020e-02	 2.1510512781e+00	 2.3044827330e-01
 7.2115408316e-02	 2.1517370923e+00	 2.3648540731e-01
 5.3999882531e-02	 2.1522679002e+00	 2.4062930815e-01
 3.5941079373e-02	 2.1526451829e+00	 2.4286371847e-01
 1.7940597411e-02	 2.1528704394e+00	 2.4317006249e-01
 0.0000000000e+00	 2.1529451854e+00	 2.4153128538e-01
 1.8289993435e-01	 2.1569705846e+00	 1.8271493510e-01
 1.6437893458e-01	 2.1584610654e+00	 1.9780467109e-01
 1.4590458548e-01	 2.1597885457e+00	 2.1092748819e-01
 1.2747870457e-01	 2.1609544119e+00	 2.2212521712e-01
 1.0910307472e-01	 2.1619600730e+00	 2.3141741640e-01
 9.0779443937e-02	 2.1628069592e+00	 2.3880412835e-01
 7.2509525253e-02	 2.1634965214e+00	 2.4426883388e-01
 5.4294996554e-02	 2.1640302302e+00	 2.4778161754e-01
 3.6137500477e-02	 2.1644095748e+00	 2.4930255168e-01
 1.8038644326e-02	 2.1646360623e+00	 2.4878530515e-01
 0.0000000000e+00	 2.1647112168e+00	 2.4618097922e-01
 1.8389406585e-01	 2.1686945494e+00	 1.9440016818e-01
 1.6527239732e-01	 2.1701931315e+00	 2.0880873980e-01
 1.4669763302e-01	 2.1715278272e+00	 2.2124987880e-01
 1.2817160037e-01	 2.1727000304e+00	 2.3176028643e-01
 1.0969609189e-01	 2.1737111576e+00	 2.4035041236e-01
 9.1272865132e-02	 2.1745626469e+00	 2.4700710366e-01
 7.2903642414e-02	 2.1752559572e+00	 2.5169647250e-01
 5.4590110745e-02	 2.1757925669e+00	 2.5436699446e-01
 3.6333921693e-02	 2.1761739734e+00	 2.5495284667e-01
 1.8136691296e-02	 2.1764016919e+00	 2.5337749159e-01
 0.0000000000e+00	 2.1764772549e+00	 2.4955750908e-01
 2.1764772549e+00	 0.0000000000e+00	 2.4735083164e+00
 2.1764016919e+00	 1.8136691296e-02	 2.4705584405e+00
 2.1761739734e+00	 3.6333921693e-02	 2.4652957255e+00
 2.1757925669e+00	 5.4590110745e-02	 2.4577948500e+00
 2.1752559572e+00	 7.2903642414e-02	 2.4481502550e+00
 2.1745626469e+00	 9.1272865132e-02	 2.4364783891e+00
 2.1737111576e+00	 1.0969609189e-01	 2.4229196436e+00
 2.1727000304e+00	 1.2817160037e-01	 2.4076399875e+00
 2.1715278272e+00	 1.4669763302e-01	 2.3908323178e+00
 2.1701931315e+00	 1.6527239732e-01	 2.3727175422e+00
 2.1686945494e+00	 1.8389406585e-01	 2.3535454201e+00
 2.1882412941e+00	 0.0000000000e+00	 2.4530952679e+00
 2.1881653227e+00	 1.8234721610e-02	 2.4492183601e+00
 2.1879363733e+00	 3.6530309539e-02	 2.4431374174e+00
 2.1875529053e+00	 5.4885174799e-02	 2.4349063736e+00
 2.1870133952e+00	 7.3297692619e-02	 2.4246026209e+00
 2.1863163375e+00	 9.1766202502e-02	 2.4123291600e+00
 2.1854602458e+00	 1.1028900832e-01	 2.3982164124e+00
 2.1844436534e+00	 1.2886437844e-01	 2.3824237095e+00
 2.1832651143e+00	 1.4749054584e-01	 2.3651404705e+00
 2.1819232045e+00	 1.6616570826e-01	 2.3465870908e+00
 2.1804165224e+00	 1.8488802845e-01	 2.3270155640e+00
 2.2000053333e+00	 0.0000000000e+00	 2.4338711874e+00
 2.1999289535e+00	 1.8332751923e-02	 2.4299116186e+00
 2.1996987733e+00	 3.6726697385e-02	 2.4237940720e+00
 2.1993132437e+00	 5.5180238854e-02	 2.4155495832e+00
 2.1987708332e+00	 7.3691742823e-02	 2.4052365584e+00
 2.1980700281e+00	 9.2259539871e-02	 2.3929428244e+00
 2.1972093340e+00	 1.1088192476e-01	 2.3787873155e+00
 2.1961872764e+00	 1.2955715652e-01	 2.3629214100e+00
 2.1950024015e+00	 1.4828345865e-01	 2.3455299310e+00
 2.1936532775e+00	 1.6705901921e-01	 2.3268318327e+00
 2.1921384955e+00	 1.8588199105e-01	 2.3070805955e+00
 2.2117693726e+00	 0.0000000000e+00	 2.4156053386e+00
 2.2116925843e+00	 1.8430782237e-02	 2.4124345468e+00
 2.2114611732e+00	 3.6923085230e-02	 2.4070873363e+00
 2.2110735821e+00	 5.5475302908e-02	 2.3995697894e+00
 2.2105282712e+00	 7.4085793028e-02	 2.3899194929e+00
 2.2098237187e+00	 9.2752877241e-02	 2.3782074842e+00
 2.2089584223e+00	 1.1147484119e-01	 2.3645398089e+00
 2.2079308994e+00	 1.3024993460e-01	 2.3490586989e+00
 2.2067396886e+00	 1.4907637147e-01	 2.3319433899e+00
 2.2053833505e+00	 1.6795233016e-01	 2.3134105976e+00
 2.2038604685e+00	 1.8687595366e-01	 2.2937146783e+00
 2.2235334118e+00	 0.0000000000e+00	 2.3980552196e+00
 2.2234562151e+00	 1.8528812550e-02	 2.3965656026e+00
 2.2232235732e+00	 3.7119473076e-02	 2.3928224628e+00
 2.2228339206e+00	 5.5770366963e-02	 2.3868048474e+00
 2.2222857092e+00	 7.4479843232e-02	 2.3785199010e+00
 2.2215774093e+00	 9.3246214610e-02	 2.3680127389e+00
 2.2207075105e+00	 1.1206775762e-01	 2.3553830139e+00
 2.2196745224e+00	 1.3094271268e-01	 2.3407629711e+00
 2.2184769758e+00	 1.4986928428e-01	 2.3243253957e+00
 2.2171134235e+00	 1.6884564111e-01	 2.3062841010e+00
 2.2155824416e+00	 1.8786991626e-01	 2.2868938463e+00
 2.2352974510e+00	 0.0000000000e+00	 2.3799784647e+00
 2.2352198459e+00	 1.8626842864e-02	 2.3802862803e+00
 2.2349859731e+00	 3.7315860922e-02	 2.3783042419e+00
 2.2345942590e+00	 5.6065431017e-02	 2.3740305673e+00
 2.2340431472e+00	 7.4873893437e-02	 2.3674913644e+00
 2.2333310999e+00	 9.3739551979e-02	 2.3587397309e+00
 2.2324565987e+00	 1.1266067405e-01	 2.3478548405e+00
 2.2314181454e+00	 1.3163549076e-01	 2.3349410344e+00
 2.2302142629e+00	 1.5066219709e-01	 2.3201269373e+00
 2.2288434965e+00	 1.6973895206e-01	 2.3035646186e+00
 2.2273044146e+00	 1.8886387886e-01	 2.2854288199e+00
 2.2470614902e+00	 0.0000000000e+00	 2.3607063801e+00
 2.2469834767e+00	 1.8724873178e-02	 2.3623741551e+00
 2.2467483731e+00	 3.7512248768e-02	 2.3617147435e+00
 2.2463545974e+00	 5.6360495072e-02	 2.3587443998e+00
 2.2458005852e+00	 7.5267943641e-02	 2.3535070751e+00
 2.2450847905e+00	 9.4232889348e-02	 2.3460733708e+00
 2.2442056870e+00	 1.1325359048e-01	 2.3365394757e+00
 2.2431617684e+00	 1.3232826884e-01	 2.3250261031e+00
 2.2419515501e+00	 1.5145510991e-01	 2.3116774494e+00
 2.2405735696e+00	 1.7063226300e-01	 2.2966601935e+00
 2.2390263877e+00	 1.8985784147e-01	 2.2801625629e+00
 2.2588255294e+00	 0.0000000000e+00	 2.3403104588e+00
 2.2587471075e+00	 1.8822903491e-02	 2.3428901148e+00
 2.2585107731e+00	 3.7708636614e-02	 2.3431048117e+00
 2.2581149358e+00	 5.6655559126e-02	 2.3409877788e+00
 2.2575580232e+00	 7.5661993846e-02	 2.3365997618e+00
 2.2568384811e+00	 9.4726226718e-02	 2.3300278303e+00
 2.2559547752e+00	 1.1384650691e-01	 2.3213841615e+00
 2.2549053914e+00	 1.3302104691e-01	 2.3108048213e+00
 2.2536888372e+00	 1.5224802272e-01	 2.2984485621e+00
 2.2523036426e+00	 1.7152557395e-01	 2.2844956586e+00
 2.2507483607e+00	 1.9085180407e-01	 2.2691468074e+00
 2.2705895686e+00	 0.0000000000e+00	 2.3188621055e+00
 2.2705107383e+00	 1.8920933805e-02	 2.3218950140e+00
 2.2702731730e+00	 3.7905024460e-02	 2.3225252967e+00
 2.2698752742e+00	 5.6950623181e-02	 2.3208021669e+00
 2.2693154612e+00	 7.6056044050e-02	 2.3168021896e+00
 2.2685921717e+00	 9.5219564087e-02	 2.3106279393e+00
 2.2677038634e+00	 1.1443942334e-01	 2.3024066293e+00
 2.2666490144e+00	 1.3371382499e-01	 2.2922887330e+00
 2.2654261244e+00	 1.5304093553e-01	 2.2804466178e+00
 2.2640337156e+00	 1.7241888490e-01	 2.2670732150e+00
 2.2624703338e+00	 1.9184576667e-01	 2.2523807494e+00
 2.2823536079e+00	 0.0000000000e+00	 2.2964326387e+00
 2.2822743691e+00	 1.9018964118e-02	 2.2994496749e+00
 2.2820355730e+00	 3.8101412306e-02	 2.3000270545e+00
 2.2816356127e+00	 5.7245687235e-02	 2.2982290555e+00
 2.2810728992e+00	 7.6450094255e-02	 2.2941471587e+00
 2.2803458623e+00	 9.5712901456e-02	 2.2878985540e+00
 2.2794529517e+00	 1.1503233977e-01	 2.2796246118e+00
 2.2783926374e+00	 1.3440660307e-01	 2.2694893420e+00
 2.2771634115e+00	 1.5383384835e-01	 2.2576778613e+00
 2.2757637886e+00	 1.7331219585e-01	 2.2443948930e+00
 2.2741923068e+00	 1.9283972928e-01	 2.2298633242e+00
 2.2941176471e+00	 0.0000000000e+00	 2.2730932929e+00
 2.2940379999e+00	 1.9116994432e-02	 2.2756148883e+00
 2.2937979729e+00	 3.8297800152e-02	 2.2756609474e+00
 2.2933959511e+00	 5.7540751290e-02	 2.2733099639e+00
 2.2928303372e+00	 7.6844144460e-02	 2.2686675038e+00
 2.2920995529e+00	 9.6206238826e-02	 2.2618645556e+00
 2.2912020399e+00	 1.1562525620e-01	 2.2530558416e+00
 2.2901362604e+00	 1.3509938115e-01	 2.2424181117e+00
 2.2889006987e+00	 1.5462676116e-01	 2.2301484404e+00
 2.2874938616e+00	 1.7420550680e-01	 2.2164625537e+00
 2.2859142799e+00	 1.9383369188e-01	 2.2015932100e+00
 2.1686945494e+00	 1.8389406585e-01	 2.3535454201e+00
 2.1670304132e+00	 2.0256394644e-01	 2.3324799445e+00
 2.1651996168e+00	 2.2127694236e-01	 2.3086239481e+00
 2.1632008383e+00	 2.4003107618e-01	 2.2821703958e+00
 2.1610327826e+00	 2.5882433545e-01	 2.2533430691e+00
 2.1586941816e+00	 2.7765467298e-01	 2.2223968433e+00
 2.1561837957e+00	 2.9652000722e-01	 2.1896179469e+00
 2.1535004144e+00	 3.1541822260e-01	 2.1553242527e+00
 2.1506428576e+00	 3.3434716996e-01	 2.1198656552e+00
 2.1476099764e+00	 3.5330466695e-01	 2.0836245929e+00
 2.1444006538e+00	 3.7228849851e-01	 2.0470246053e+00
 2.1804165224e+00	 1.8488802845e-01	 2.3270155640e+00
 2.1787433915e+00	 2.0365882129e-01	 2.3056067091e+00
 2.1769026994e+00	 2.2247296249e-01	 2.2814776818e+00
 2.1748931174e+00	 2.4132846396e-01	 2.2548234820e+00
 2.1727133432e+00	 2.6022330234e-01	 2.2258721434e+00
 2.1703621018e+00	 2.7915541940e-01	 2.1948847188e+00
 2.1678381471e+00	 2.9812272233e-01	 2.1621552318e+00
 2.1651402619e+00	 3.1712308413e-01	 2.1280106491e+00
 2.1622672598e+00	 3.3615434401e-01	 2.0928109290e+00
 2.1592179856e+00	 3.5521430783e-01	 2.0569492068e+00
 2.1559913164e+00	 3.7430074857e-01	 2.0208857475e+00
 2.1921384955e+00	 1.8588199105e-01	 2.3070805955e+00
 2.1904563697e+00	 2.0475369613e-01	 2.2854783119e+00
 2.1886057821e+00	 2.2366898263e-01	 2.2611605754e+00
 2.1865853965e+00	 2.4262585174e-01	 2.2343234408e+00
 2.1843939037e+00	 2.6162226924e-01	 2.2051982608e+00
 2.1820300221e+00	 2.8065616583e-01	 2.1740513649e+00
 2.1794924984e+00	 2.9972543745e-01	 2.1411836907e+00
 2.1767801094e+00	 3.1882794566e-01	 2.1069304234e+00
 2.1738916620e+00	 3.3796151806e-01	 2.0716607001e+00
 2.1708259948e+00	 3.5712394872e-01	 2.0357774436e+00
 2.1675819789e+00	 3.7631299864e-01	 1.9997947562e+00
 2.2038604685e+00	 1.8687595366e-01	 2.2937146783e+00
 2.2021693480e+00	 2.0584857098e-01	 2.2720827946e+00
 2.2003088647e+00	 2.2486500277e-01	 2.2476724439e+00
 2.1982776756e+00	 2.4392323951e-01	 2.2206799104e+00
 2.1960744643e+00	 2.6302123614e-01	 2.1913390896e+00
 2.1936979423e+00	 2.8215691225e-01	 2.1599208485e+00
 2.1911468498e+00	 3.0132815256e-01	 2.1267323223e+00
 2.1884199569e+00	 3.2053280718e-01	 2.0921162052e+00
 2.1855160641e+00	 3.3976869211e-01	 2.0564500967e+00
 2.1824340040e+00	 3.5903358961e-01	 2.0201459680e+00
 2.1791726414e+00	 3.7832524870e-01	 1.9837889961e+00
 2.2155824416e+00	 1.8786991626e-01	 2.2868938463e+00
 2.2138823262e+00	 2.0694344583e-01	 2.2654100282e+00
 2.2120119474e+00	 2.2606102290e-01	 2.2410148843e+00
 2.2099699547e+00	 2.4522062729e-01	 2.2139042576e+00
 2.2077550249e+00	 2.6442020303e-01	 2.1843139703e+00
 2.2053658625e+00	 2.8365765868e-01	 2.1525188506e+00
 2.2028012012e+00	 3.0293086767e-01	 2.1188316802e+00
 2.2000598044e+00	 3.2223766871e-01	 2.0836021217e+00
 2.1971404663e+00	 3.4157586616e-01	 2.0472156904e+00
 2.1940420132e+00	 3.6094323050e-01	 2.0100928385e+00
 2.1907633040e+00	 3.8033749877e-01	 1.9729070052e+00
 2.2273044146e+00	 1.8886387886e-01	 2.2854288199e+00
 2.2255953045e+00	 2.0803832068e-01	 2.2649039418e+00
 2.2237150300e+00	 2.2725704304e-01	 2.2410757499e+00
 2.2216622338e+00	 2.4651801507e-01	 2.2140095767e+00
 2.2194355854e+00	 2.6581916993e-01	 2.1841439146e+00
 2.2170337828e+00	 2.8515840510e-01	 2.1518726648e+00
 2.2144555526e+00	 3.0453358279e-01	 2.1175138718e+00
 2.2116996519e+00	 3.2394253024e-01	 2.0814237958e+00
 2.2087648685e+00	 3.4338304021e-01	 2.0439954939e+00
 2.2056500224e+00	 3.6285287138e-01	 2.0056575038e+00
 2.2023539665e+00	 3.8234974883e-01	 1.9671884766e+00
 2.2390263877e+00	 1.8985784147e-01	 2.2801625629e+00
 2.2373082827e+00	 2.0913319553e-01	 2.2614108474e+00
 2.2354181127e+00	 2.2845306318e-01	 2.2395236670e+00
 2.2333545129e+00	 2.4781540285e-01	 2.2145506555e+00
 2.2311161460e+00	 2.6721813682e-01	 2.1865627273e+00
 2.2287017030e+00	 2.8665915153e-01	 2.1556521377e+00
 2.2261099040e+00	 3.0613629790e-01	 2.1219327736e+00
 2.2233394994e+00	 3.2564739177e-01	 2.0855407034e+00
 2.2203892706e+00	 3.4519021427e-01	 2.0468289563e+00
 2.2172580315e+00	 3.6476251227e-01	 2.0068807990e+00
 2.2139446290e+00	 3.8436199889e-01	 1.9666742403e+00
 2.2507483607e+00	 1.9085180407e-01	 2.2691468074e+00
 2.2490212610e+00	 2.1022807038e-01	 2.2516702792e+00
 2.2471211953e+00	 2.2964908331e-01	 2.2312173841e+00
 2.2450467919e+00	 2.4911279063e-01	 2.2078346899e+00
 2.2427967066e+00	 2.6861710372e-01	 2.1815882398e+00
 2.2403696232e+00	 2.8815989795e-01	 2.1525634639e+00
 2.2377642554e+00	 3.0773901302e-01	 2.1208653254e+00
 2.2349793469e+00	 3.2735225330e-01	 2.0866187308e+00
 2.2320136728e+00	 3.4699738832e-01	 2.0499692370e+00
 2.2288660407e+00	 3.6667215316e-01	 2.0110840869e+00
 2.2255352916e+00	 3.8637424896e-01	 1.9707128053e+00
 2.2624703338e+00	 1.9184576667e-01	 2.2523807494e+00
 2.2607342392e+00	 2.1132294523e-01	 2.2356789240e+00
 2.2588242780e+00	 2.3084510345e-01	 2.2161509390e+00
 2.2567390710e+00	 2.5041017840e-01	 2.1938386455e+00
 2.2544772671e+00	 2.7001607062e-01	 2.1688014587e+00
 2.2520375435e+00	 2.8966064438e-01	 2.1411161170e+00
 2.2494186068e+00	 3.0934172813e-01	 2.1108766785e+00
 2.2466191943e+00	 3.2905711483e-01	 2.0781947877e+00
 2.2436380750e+00	 3.4880456237e-01	 2.0432002451e+00
 2.2404740499e+00	 3.6858179405e-01	 2.0060419124e+00
 2.2371259541e+00	 3.8838649902e-01	 1.9675927917e+00
 2.2741923068e+00	 1.9283972928e-01	 2.2298633242e+00
 2.2724472175e+00	 2.1241782008e-01	 2.2134331170e+00
 2.2705273606e+00	 2.3204112359e-01	 2.1943179406e+00
 2.2684313501e+00	 2.5170756618e-01	 2.1725533581e+00
 2.2661578277e+00	 2.7141503751e-01	 2.1481904803e+00
 2.2637054637e+00	 2.9116139080e-01	 2.1212955672e+00
 2.2610729582e+00	 3.1094444324e-01	 2.0919498708e+00
 2.2582590418e+00	 3.3076197635e-01	 2.0602497531e+00
 2.2552624771e+00	 3.5061173642e-01	 2.0263071133e+00
 2.2520820591e+00	 3.7049143493e-01	 1.9902501764e+00
 2.2487166166e+00	 3.9039874909e-01	 1.9530867518e+00
 2.2859142799e+00	 1.9383369188e-01	 2.2015932100e+00
 2.2841601958e+00	 2.1351269493e-01	 2.1849288466e+00
 2.2822304433e+00	 2.3323714372e-01	 2.1657115745e+00
 2.2801236292e+00	 2.5300495396e-01	 2.1439691767e+00
 2.2778383883e+00	 2.7281400441e-01	 2.1197428633e+00
 2.2753733839e+00	 2.9266213723e-01	 2.0930867095e+00
 2.2727273096e+00	 3.1254715836e-01	 2.0640673396e+00
 2.2698988893e+00	 3.3246683788e-01	 2.0327638919e+00
 2.2668868793e+00	 3.5241891047e-01	 1.9992682992e+00
 2.2636900683e+00	 3.7240107582e-01	 1.9636939555e+00
 2.2603072792e+00	 3.9241099915e-01	 1.9271696462e+00
 2.1444006538e+00	 3.7228849851e-01	 2.0470246053e+00
 2.1410143967e+00	 3.9129318529e-01	 2.0096586579e+00
 2.1374496239e+00	 4.1031967841e-01	 1.9704838388e+00
 2.1337053196e+00	 4.2936567409e-01	 1.9294497111e+00
 2.1297805036e+00	 4.4842883805e-01	 1.8865113612e+00
 2.1256742326e+00	 4.6750680617e-01	 1.8416272726e+00
 2.1213856008e+00	 4.8659718510e-01	 1.7947573807e+00
 2.1169137412e+00	 5.0569755290e-01	 1.7458613612e+00
 2.1122578261e+00	 5.2480545980e-01	 1.6948972038e+00
 2.1074170682e+00	 5.4391842885e-01	 1.6418201256e+00
 2.1023907212e+00	 5.6303395671e-01	 1.5865818796e+00
 2.1559913164e+00	 3.7430074857e-01	 2.0208857475e+00
 2.1525867562e+00	 3.9340815725e-01	 1.9843884129e+00
 2.1490027156e+00	 4.1253749014e-01	 1.9462846251e+00
 2.1452381730e+00	 4.3168643100e-01	 1.9064777368e+00
 2.1412921430e+00	 4.5085263294e-01	 1.8648768656e+00
 2.1371636773e+00	 4.7003371905e-01	 1.8213945768e+00
 2.1328518651e+00	 4.8922728305e-01	 1.7759447479e+00
 2.1283558347e+00	 5.0843088992e-01	 1.7284406689e+00
 2.1236747540e+00	 5.2764207663e-01	 1.6787934341e+00
 2.1188078314e+00	 5.4685835285e-01	 1.6269106804e+00
 2.1137543166e+00	 5.6607720172e-01	 1.5726957295e+00
 2.1675819789e+00	 3.7631299864e-01	 1.9997947562e+00
 2.1641591158e+00	 3.9552312922e-01	 1.9636323856e+00
 2.1605558072e+00	 4.1475530188e-01	 1.9260251985e+00
 2.1567710264e+00	 4.3400718791e-01	 1.8868484716e+00
 2.1528037824e+00	 4.5327642782e-01	 1.8459835190e+00
 2.1486531219e+00	 4.7256063193e-01	 1.8033151499e+00
 2.1443181294e+00	 4.9185738100e-01	 1.7587293084e+00
 2.1397979283e+00	 5.1116422693e-01	 1.7121109528e+00
 2.1350916819e+00	 5.3047869346e-01	 1.6633422288e+00
 2.1301985946e+00	 5.4979827686e-01	 1.6123009987e+00
 2.1251179120e+00	 5.6912044673e-01	 1.5588597813e+00
 2.1791726414e+00	 3.7832524870e-01	 1.9837889961e+00
 2.1757314753e+00	 3.9763810118e-01	 1.9474262134e+00
 2.1721088989e+00	 4.1697311361e-01	 1.9097362236e+00
 2.1683038797e+00	 4.3632794482e-01	 1.8705841844e+00
 2.1643154219e+00	 4.5570022271e-01	 1.8298415936e+00
 2.1601425666e+00	 4.7508754480e-01	 1.7873834880e+00
 2.1557843937e+00	 4.9448747895e-01	 1.7430858253e+00
 2.1512400218e+00	 5.1389756395e-01	 1.6968231061e+00
 2.1465086098e+00	 5.3331531029e-01	 1.6484662954e+00
 2.1415893578e+00	 5.5273820086e-01	 1.5978811053e+00
 2.1364815074e+00	 5.7216369174e-01	 1.5449266986e+00
 2.1907633040e+00	 3.8033749877e-01	 1.9729070052e+00
 2.1873038348e+00	 3.9975307315e-01	 1.9358065970e+00
 2.1836619905e+00	 4.1919092534e-01	 1.8974493631e+00
 2.1798367331e+00	 4.3864870173e-01	 1.8577081292e+00
 2.1758270613e+00	 4.5812401759e-01	 1.8164623933e+00
 2.1716320113e+00	 4.7761445768e-01	 1.7735952335e+00
 2.1672506579e+00	 4.9711757690e-01	 1.7289903963e+00
 2.1626821153e+00	 5.1663090096e-01	 1.6825296277e+00
 2.1579255377e+00	 5.3615192711e-01	 1.6340903070e+00
 2.1529801210e+00	 5.5567812486e-01	 1.5835434477e+00
 2.1478451028e+00	 5.7520693675e-01	 1.5307521288e+00
 2.2023539665e+00	 3.8234974883e-01	 1.9671884766e+00
 2.1988761944e+00	 4.0186804511e-01	 1.9288112788e+00
 2.1952150822e+00	 4.2140873707e-01	 1.8891972521e+00
 2.1913695865e+00	 4.4096945864e-01	 1.8482445135e+00
 2.1873387007e+00	 4.6054781247e-01	 1.8058582152e+00
 2.1831214560e+00	 4.8014137056e-01	 1.7619471263e+00
 2.1787169222e+00	 4.9974767485e-01	 1.7164203942e+00
 2.1741242088e+00	 5.1936423798e-01	 1.6691845488e+00
 2.1693424656e+00	 5.3898854394e-01	 1.6201408136e+00
 2.1643708842e+00	 5.5861804887e-01	 1.5691827892e+00
 2.1592086982e+00	 5.7825018175e-01	 1.5161945755e+00
 2.2139446290e+00	 3.8436199889e-01	 1.9666742403e+00
 2.2104485539e+00	 4.0398301708e-01	 1.9264790219e+00
 2.2067681738e+00	 4.2362654880e-01	 1.8850134721e+00
 2.2029024398e+00	 4.4329021555e-01	 1.8422184665e+00
 2.1988503401e+00	 4.6297160736e-01	 1.7980423095e+00
 2.1946109007e+00	 4.8266828343e-01	 1.7524369551e+00
 2.1901831865e+00	 5.0237777280e-01	 1.7053544067e+00
 2.1855663023e+00	 5.2209757499e-01	 1.6567433598e+00
 2.1807593935e+00	 5.4182516077e-01	 1.6065461540e+00
 2.1757616474e+00	 5.6155797287e-01	 1.5546961035e+00
 2.1705722935e+00	 5.8129342676e-01	 1.5011152737e+00
 2.2255352916e+00	 3.8637424896e-01	 1.9707128053e+00
 2.2220209135e+00	 4.0609798904e-01	 1.9288495875e+00
 2.2183212655e+00	 4.2584436053e-01	 1.8849325239e+00
 2.2144352932e+00	 4.4561097246e-01	 1.8396560063e+00
 2.2103619795e+00	 4.6539540224e-01	 1.7930288398e+00
 2.2061003454e+00	 4.8519519631e-01	 1.7450635080e+00
 2.2016494508e+00	 5.0500787075e-01	 1.6957721763e+00
 2.1970083958e+00	 5.2483091200e-01	 1.6451629372e+00
 2.1921763214e+00	 5.4466177760e-01	 1.5932363677e+00
 2.1871524106e+00	 5.6449789687e-01	 1.5399824698e+00
 2.1819358889e+00	 5.8433667177e-01	 1.4853780658e+00
 2.2371259541e+00	 3.8838649902e-01	 1.9675927917e+00
 2.2335932730e+00	 4.0821296101e-01	 1.9278041038e+00
 2.2298743571e+00	 4.2806217226e-01	 1.8852505711e+00
 2.2259681466e+00	 4.4793172937e-01	 1.8396739458e+00
 2.2218736189e+00	 4.6781919713e-01	 1.7908328419e+00
 2.2175897900e+00	 4.8772210918e-01	 1.7398265230e+00
 2.2131157150e+00	 5.0763796870e-01	 1.6876545404e+00
 2.2084504893e+00	 5.2756424902e-01	 1.6344014716e+00
 2.2035932493e+00	 5.4749839442e-01	 1.5801431081e+00
 2.1985431738e+00	 5.6743782087e-01	 1.5249429692e+00
 2.1932994843e+00	 5.8737991678e-01	 1.4688492792e+00
 2.2487166166e+00	 3.9039874909e-01	 1.9530867518e+00
 2.2451656325e+00	 4.1032793297e-01	 1.9146970907e+00
 2.2414274488e+00	 4.3027998399e-01	 1.8737597617e+00
 2.2375010000e+00	 4.5025248627e-01	 1.8300720409e+00
 2.2333852584e+00	 4.7024299201e-01	 1.7834403983e+00
 2.2290792347e+00	 4.9024902206e-01	 1.7336802893e+00
 2.2245819793e+00	 5.1026806664e-01	 1.6806160738e+00
 2.2198925828e+00	 5.3029758603e-01	 1.6244183946e+00
 2.2150101772e+00	 5.5033501125e-01	 1.5671995560e+00
 2.2099339370e+00	 5.7037774487e-01	 1.5094805826e+00
 2.2046630797e+00	 5.9042316179e-01	 1.4513976056e+00
 2.2603072792e+00	 3.9241099915e-01	 1.9271696462e+00
 2.2567379921e+00	 4.1244290494e-01	 1.8894996401e+00
 2.2529805404e+00	 4.3249779572e-01	 1.8494835362e+00
 2.2490338533e+00	 4.5257324318e-01	 1.8069881402e+00
 2.2448968978e+00	 4.7266678689e-01	 1.7618880977e+00
 2.2405686794e+00	 4.9277593493e-01	 1.7140655934e+00
 2.2360482436e+00	 5.1289816459e-01	 1.6634101822e+00
 2.2313346763e+00	 5.3303092304e-01	 1.6098187534e+00
 2.2264271051e+00	 5.5317162808e-01	 1.5531956309e+00
 2.2213247002e+00	 5.7331766888e-01	 1.4935000887e+00
 2.2160266751e+00	 5.9346640679e-01	 1.4328939821e+00
 2.1023907212e+00	 5.6303395671e-01	 1.5865818796e+00
 2.0971780816e+00	 5.8214951469e-01	 1.5290746619e+00
 2.0917784904e+00	 6.0126255039e-01	 1.4694058379e+00
 2.0861913329e+00	 6.2037048778e-01	 1.4078457745e+00
 2.0804160387e+00	 6.3947072777e-01	 1.3446639592e+00
 2.0744520828e+00	 6.5856064918e-01	 1.2801307011e+00
 2.0682989864e+00	 6.7763760958e-01	 1.2145195435e+00
 2.0619563171e+00	 6.9669894628e-01	 1.1481104363e+00
 2.0554236903e+00	 7.1574197731e-01	 1.0811937168e+00
 2.0487007695e+00	 7.3476400240e-01	 1.0140749422e+00
 2.0417872669e+00	 7.5376230403e-01	 9.4702558343e-01
 2.1137543166e+00	 5.6607720172e-01	 1.5726957295e+00
 2.1085135023e+00	 5.8529608087e-01	 1.5159835732e+00
 2.1030847258e+00	 6.0451242411e-01	 1.4568886615e+00
 2.0974673692e+00	 6.2372364147e-01	 1.3957269780e+00
 2.0916608591e+00	 6.4292711984e-01	 1.3328112212e+00
 2.0856646676e+00	 6.6212022385e-01	 1.2684522686e+00
 2.0794783131e+00	 6.8130029679e-01	 1.2029613738e+00
 2.0731013612e+00	 7.0046466159e-01	 1.1366531482e+00
 2.0665334250e+00	 7.1961062178e-01	 1.0698493770e+00
 2.0597741662e+00	 7.3873546248e-01	 1.0028837160e+00
 2.0528232956e+00	 7.5783645150e-01	 9.3604325623e-01
 2.1251179120e+00	 5.6912044673e-01	 1.5588597813e+00
 2.1198489229e+00	 5.8844264705e-01	 1.5027966708e+00
 2.1143909612e+00	 6.0776229782e-01	 1.4442121177e+00
 2.1087434056e+00	 6.2707679516e-01	 1.3834530800e+00
 2.1029056795e+00	 6.4638351191e-01	 1.3208607900e+00
 2.0968772523e+00	 6.6567979852e-01	 1.2567719932e+00
 2.0906576399e+00	 6.8496298401e-01	 1.1915209420e+00
 2.0842464053e+00	 7.0423037690e-01	 1.1254421993e+00
 2.0776431597e+00	 7.2347926624e-01	 1.0588743035e+00
 2.0708475630e+00	 7.4270692257e-01	 9.9216347459e-01
 2.0638593244e+00	 7.6191059897e-01	 9.2561958789e-01
 2.1364815074e+00	 5.7216369174e-01	 1.5449266986e+00
 2.1311843435e+00	 5.9158921322e-01	 1.4893285843e+00
 2.1256971966e+00	 6.1101217154e-01	 1.4311564854e+00
 2.1200194420e+00	 6.3042994886e-01	 1.3707740304e+00
 2.1141504999e+00	 6.4983990398e-01	 1.3085366439e+00
 2.1080898370e+00	 6.6923937319e-01	 1.2447925699e+00
 2.1018369666e+00	 6.8862567122e-01	 1.1798846742e+00
 2.0953914494e+00	 7.0799609222e-01	 1.1141530817e+00
 2.0887528944e+00	 7.2734791071e-01	 1.0479387038e+00
 2.0819209597e+00	 7.4667838265e-01	 9.8158289155e-01
 2.0748953531e+00	 7.6598474645e-01	 9.1543940238e-01
 2.1478451028e+00	 5.7520693675e-01	 1.5307521288e+00
 2.1425197642e+00	 5.9473577940e-01	 1.4753975107e+00
 2.1370034320e+00	 6.1426204525e-01	 1.4175061279e+00
 2.1312954783e+00	 6.3378310255e-01	 1.3574443112e+00
 2.1253953203e+00	 6.5329629604e-01	 1.2955676666e+00
 2.1193024218e+00	 6.7279894786e-01	 1.2322218944e+00
 2.1130162933e+00	 6.9228835844e-01	 1.1677444101e+00
 2.1065364934e+00	 7.1176180753e-01	 1.1024668274e+00
 2.0998626291e+00	 7.3121655518e-01	 1.0367183607e+00
 2.0929943565e+00	 7.5064984274e-01	 9.7082447088e-01
 2.0859313818e+00	 7.7005889392e-01	 9.0519179250e-01
 2.1592086982e+00	 5.7825018175e-01	 1.5161945755e+00
 2.1538551848e+00	 5.9788234558e-01	 1.4608250668e+00
 2.1483096674e+00	 6.1751191896e-01	 1.4030493280e+00
 2.1425715147e+00	 6.3713625624e-01	 1.3432227548e+00
 2.1366401407e+00	 6.5675268811e-01	 1.2816874522e+00
 2.1305150065e+00	 6.7635852252e-01	 1.2187728570e+00
 2.1241956201e+00	 6.9595104565e-01	 1.1547971884e+00
 2.1176815375e+00	 7.1552752284e-01	 1.0900697884e+00
 2.1109723638e+00	 7.3508519965e-01	 1.0248944106e+00
 2.1040677533e+00	 7.5462130282e-01	 9.5957621877e-01
 2.0969674105e+00	 7.7413304139e-01	 8.9456995700e-01
 2.1705722935e+00	 5.8129342676e-01	 1.5011152737e+00
 2.1651906054e+00	 6.0102891176e-01	 1.4454361437e+00
 2.1596159028e+00	 6.2076179268e-01	 1.3875781238e+00
 2.1538475510e+00	 6.4048940994e-01	 1.3278723655e+00
 2.1478849612e+00	 6.6020908018e-01	 1.2666341130e+00
 2.1417275913e+00	 6.7991809719e-01	 1.2041631394e+00
 2.1353749468e+00	 6.9961373286e-01	 1.1407450365e+00
 2.1288265816e+00	 7.1929323816e-01	 1.0766534220e+00
 2.1220820985e+00	 7.3895384411e-01	 1.0121531274e+00
 2.1151411500e+00	 7.5859276290e-01	 9.4753029223e-01
 2.1080034392e+00	 7.7820718886e-01	 8.8327104171e-01
 2.1819358889e+00	 5.8433667177e-01	 1.4853780658e+00
 2.1765260261e+00	 6.0417547794e-01	 1.4290587638e+00
 2.1709221382e+00	 6.2401166639e-01	 1.3708881490e+00
 2.1651235874e+00	 6.4384256363e-01	 1.3111601432e+00
 2.1591297816e+00	 6.6366547224e-01	 1.2501500909e+00
 2.1529401760e+00	 6.8347767186e-01	 1.1881150170e+00
 2.1465542736e+00	 7.0327642008e-01	 1.1252947645e+00
 2.1399716257e+00	 7.2305895347e-01	 1.0619140795e+00
 2.1331918332e+00	 7.4282248858e-01	 9.9818567991e-01
 2.1262145468e+00	 7.6256422299e-01	 9.3438283991e-01
 2.1190394679e+00	 7.8228133633e-01	 8.7099598431e-01
 2.1932994843e+00	 5.8737991678e-01	 1.4688492792e+00
 2.1878614467e+00	 6.0732204411e-01	 1.4115239396e+00
 2.1822283736e+00	 6.2726154010e-01	 1.3527784742e+00
 2.1763996237e+00	 6.4719571732e-01	 1.2928569110e+00
 2.1703746020e+00	 6.6712186431e-01	 1.2319819725e+00
 2.1641527607e+00	 6.8703724653e-01	 1.1703551628e+00
 2.1577336003e+00	 7.0693910729e-01	 1.1081577622e+00
 2.1511166698e+00	 7.2682466878e-01	 1.0455527990e+00
 2.1443015679e+00	 7.4669113305e-01	 9.8268965187e-01
 2.1372879435e+00	 7.6653568307e-01	 9.1983384656e-01
 2.1300754966e+00	 7.8635548381e-01	 8.5744936296e-01
 2.2046630797e+00	 5.9042316179e-01	 1.4513976056e+00
 2.1991968674e+00	 6.1046861029e-01	 1.3926655343e+00
 2.1935346090e+00	 6.3051141381e-01	 1.3330514519e+00
 2.1876756601e+00	 6.5054887101e-01	 1.2727371455e+00
 2.1816194224e+00	 6.7057825638e-01	 1.2118803069e+00
 2.1753653455e+00	 6.9059682119e-01	 1.1506144561e+00
 2.1689129270e+00	 7.1060179450e-01	 1.0890498002e+00
 2.1622617139e+00	 7.3059038409e-01	 1.0272751015e+00
 2.1554113026e+00	 7.5055977752e-01	 9.6536945924e-01
 2.1483613403e+00	 7.7050714315e-01	 9.0358698122e-01
 2.1411115253e+00	 7.9042963128e-01	 8.4233924824e-01
 2.2160266751e+00	 5.9346640679e-01	 1.4328939821e+00
 2.2105322880e+00	 6.1361517647e-01	 1.3723201251e+00
 2.2048408444e+00	 6.3376128753e-01	 1.3115125628e+00
 2.1989516964e+00	 6.5390202470e-01	 1.2505788091e+00
 2.1928642428e+00	 6.7403464844e-01	 1.1895994268e+00
 2.1865779302e+00	 6.9415639586e-01	 1.1286277939e+00
 2.1800922538e+00	 7.1426448172e-01	 1.0676908345e+00
 2.1734067580e+00	 7.3435609940e-01	 1.0067907914e+00
 2.1665210373e+00	 7.5442842198e-01	 9.4593333411e-01
 2.1594347371e+00	 7.7447860323e-01	 8.8534944900e-01
 2.1521475540e+00	 7.9450377875e-01	 8.2537705863e-01
 2.0417872669e+00	 7.5376230403e-01	 9.4702558343e-01
 2.0346817203e+00	 7.7273737131e-01	 8.7936530402e-01
 2.0273850994e+00	 7.9168322120e-01	 8.1047969476e-01
 2.0198972655e+00	 8.1059708844e-01	 7.4056240465e-01
 2.0122181312e+00	 8.2947619481e-01	 6.6977984773e-01
 2.0043476608e+00	 8.4831775027e-01	 5.9827144632e-01
 1.9962858712e+00	 8.6711895413e-01	 5.2615022371e-01
 1.9880328320e+00	 8.8587699627e-01	 4.5350375776e-01
 1.9795886661e+00	 9.0458905827e-01	 3.8039550526e-01
 1.9709535501e+00	 9.2325231471e-01	 3.0686650516e-01
 1.9621277148e+00	 9.4186393440e-01	 2.3293746660e-01
 2.0528232956e+00	 7.5783645150e-01	 9.3604325623e-01
 2.0456793429e+00	 7.7691408058e-01	 8.6876304706e-01
 2.0383432832e+00	 7.9596233436e-01	 8.0041047443e-01
 2.0308149770e+00	 8.1497843261e-01	 7.3112845935e-01
 2.0230943363e+00	 8.3395958211e-01	 6.6103179727e-01
 2.0151813254e+00	 8.5290297773e-01	 5.9020746220e-01
 2.0070759611e+00	 8.7180580366e-01	 5.1871527237e-01
 1.9987783136e+00	 8.9066523455e-01	 4.4658892959e-01
 1.9902885062e+00	 9.0947843679e-01	 3.7383744234e-01
 1.9816067167e+00	 9.2824256968e-01	 3.0044694100e-01
 1.9727331770e+00	 9.4695478671e-01	 2.2638289141e-01
 2.0638593244e+00	 7.6191059897e-01	 9.2561958789e-01
 2.0566769656e+00	 7.8109078986e-01	 8.5878960137e-01
 2.0493014670e+00	 8.0024144752e-01	 7.9102758736e-01
 2.0417326884e+00	 8.1935977679e-01	 7.2243267273e-01
 2.0339705414e+00	 8.3844296941e-01	 6.5307482407e-01
 2.0260149899e+00	 8.5748820519e-01	 5.8299520104e-01
 2.0178660511e+00	 8.7649265318e-01	 5.1220688382e-01
 2.0095237951e+00	 8.9545347284e-01	 4.4069598733e-01
 2.0009883464e+00	 9.1436781532e-01	 3.6842317251e-01
 1.9922598833e+00	 9.3323282465e-01	 2.9532556340e-01
 1.9833386393e+00	 9.5204563901e-01	 2.2131907652e-01
 2.0748953531e+00	 7.6598474645e-01	 9.1543940238e-01
 2.0676745882e+00	 7.8526749914e-01	 8.4913770708e-01
 2.0602596508e+00	 8.0452056068e-01	 7.8203007233e-01
 2.0526503999e+00	 8.2374112096e-01	 7.1417867315e-01
 2.0448467465e+00	 8.4292635671e-01	 6.4561534448e-01
 2.0368486545e+00	 8.6207343266e-01	 5.7634197216e-01
 2.0286561410e+00	 8.8117950270e-01	 5.0633127109e-01
 2.0202692767e+00	 9.0024171113e-01	 4.3552796332e-01
 2.0116881865e+00	 9.1925719384e-01	 3.6385036710e-01
 2.0029130500e+00	 9.3822307961e-01	 2.9119240570e-01
 1.9939441015e+00	 9.5713649132e-01	 2.1742604294e-01
 2.0859313818e+00	 7.7005889392e-01	 9.0519179250e-01
 2.0786722109e+00	 7.8944420842e-01	 8.3950412443e-01
 2.0712178346e+00	 8.0879967384e-01	 7.7312078702e-01
 2.0635681113e+00	 8.2812246513e-01	 7.0607375674e-01
 2.0557229516e+00	 8.4740974401e-01	 6.3836334402e-01
 2.0476823190e+00	 8.6665866012e-01	 5.6995861052e-01
 2.0394462309e+00	 8.8586635222e-01	 5.0079818669e-01
 2.0310147582e+00	 9.0502994941e-01	 4.3079150302e-01
 2.0223880266e+00	 9.2414657237e-01	 3.5982044627e-01
 2.0135662166e+00	 9.4321333458e-01	 2.8774145009e-01
 2.0045495638e+00	 9.6222734363e-01	 2.1438802701e-01
 2.0969674105e+00	 7.7413304139e-01	 8.9456995700e-01
 2.0896698335e+00	 7.9362091769e-01	 8.2958947650e-01
 2.0821760184e+00	 8.1307878700e-01	 7.6400625543e-01
 2.0744858228e+00	 8.3250380930e-01	 6.9782873837e-01
 2.0665991567e+00	 8.5189313131e-01	 6.3103223085e-01
 2.0585159836e+00	 8.7124388758e-01	 5.6355933141e-01
 2.0502363208e+00	 8.9055320174e-01	 4.9532077740e-01
 2.0417602398e+00	 9.0981818770e-01	 4.2619671854e-01
 2.0330878668e+00	 9.2903595089e-01	 3.5603842996e-01
 2.0242193832e+00	 9.4820358955e-01	 2.8467047455e-01
 2.0151550260e+00	 9.6731819594e-01	 2.1189332193e-01
 2.1080034392e+00	 7.7820718886e-01	 8.8327104171e-01
 2.1006674562e+00	 7.9779762697e-01	 8.1909809582e-01
 2.0931342023e+00	 8.1735790015e-01	 7.5439651889e-01
 2.0854035342e+00	 8.3688515348e-01	 6.8915780612e-01
 2.0774753617e+00	 8.5637651861e-01	 6.2333869257e-01
 2.0693496481e+00	 8.7582911504e-01	 5.5686158850e-01
 2.0610264107e+00	 8.9524005126e-01	 4.8961544226e-01
 2.0525057213e+00	 9.1460642598e-01	 4.2145704539e-01
 2.0437877069e+00	 9.3392532942e-01	 3.5221279206e-01
 2.0348725498e+00	 9.5319384451e-01	 2.8168090318e-01
 2.0257604883e+00	 9.7240904824e-01	 2.0963412278e-01
 2.1190394679e+00	 7.8228133633e-01	 8.7099598431e-01
 2.1116650788e+00	 8.0197433625e-01	 8.0773787443e-01
 2.1040923861e+00	 8.2163701331e-01	 7.4400499046e-01
 2.0963212457e+00	 8.4126649765e-01	 6.7977837897e-01
 2.0883515668e+00	 8.6085990591e-01	 6.1500255615e-01
 2.0801833127e+00	 8.8041434251e-01	 5.4958593490e-01
 2.0718165006e+00	 8.9992690078e-01	 4.8340169370e-01
 2.0632512029e+00	 9.1939466427e-01	 4.1628910245e-01
 2.0544875471e+00	 9.3881470795e-01	 3.4805531799e-01
 2.0455257165e+00	 9.5818409948e-01	 2.7847765996e-01
 2.0363659506e+00	 9.7749990055e-01	 2.0730637519e-01
 2.1300754966e+00	 7.8635548381e-01	 8.5744936296e-01
 2.1226627014e+00	 8.0615104552e-01	 7.9522011750e-01
 2.1150505699e+00	 8.2591612647e-01	 7.3254831267e-01
 2.1072389571e+00	 8.4564784182e-01	 6.6941096774e-01
 2.0992277719e+00	 8.6534329321e-01	 6.0574665106e-01
 2.0910169772e+00	 8.8499956997e-01	 5.4145588740e-01
 2.0826065905e+00	 9.0461375030e-01	 4.7640202171e-01
 2.0739966844e+00	 9.2418290256e-01	 4.1041255493e-01
 2.0651873872e+00	 9.4370408647e-01	 3.4328096522e-01
 2.0561788831e+00	 9.6317435445e-01	 2.7476902570e-01
 2.0469714128e+00	 9.8259075286e-01	 2.0460962736e-01
 2.1411115253e+00	 7.9042963128e-01	 8.4233924824e-01
 2.1336603241e+00	 8.1032775480e-01	 7.8125940022e-01
 2.1260087537e+00	 8.3019523963e-01	 7.1974621843e-01
 2.1181566685e+00	 8.5002918599e-01	 6.5777903907e-01
 2.1101039770e+00	 8.6982668051e-01	 5.9529667531e-01
 2.1018506418e+00	 8.8958479743e-01	 5.3219779357e-01
 2.0933966804e+00	 9.0930059982e-01	 4.6834176095e-01
 2.0847421660e+00	 9.2897114084e-01	 4.0354998034e-01
 2.0758872273e+00	 9.4859346500e-01	 3.3760772694e-01
 2.0668320497e+00	 9.6816460942e-01	 2.7026649809e-01
 2.0575768751e+00	 9.8768160517e-01	 2.0124688526e-01
 2.1521475540e+00	 7.9450377875e-01	 8.2537705863e-01
 2.1446579467e+00	 8.1450446407e-01	 7.6557342792e-01
 2.1369669375e+00	 8.3447435279e-01	 7.0532139503e-01
 2.1290743800e+00	 8.5441053016e-01	 6.4460888231e-01
 2.1209801821e+00	 8.7431006781e-01	 5.8338106436e-01
 2.1126843063e+00	 8.9417002489e-01	 5.2154070165e-01
 2.1041867703e+00	 9.1398744934e-01	 4.5894896061e-01
 2.0954876475e+00	 9.3375937913e-01	 3.9542673720e-01
 2.0865870675e+00	 9.5348284352e-01	 3.3075649851e-01
 2.0774852163e+00	 9.7315486438e-01	 2.6468465477e-01
 2.0681823373e+00	 9.9277245747e-01	 1.9692447104e-01
 1.9621277148e+00	 9.4186393440e-01	 2.3293746660e-01
 1.9531129938e+00	 9.6041793185e-01	 1.5928863725e-01
 1.9439082417e+00	 9.7891463682e-01	 8.6565301767e-02
 1.9345138520e+00	 9.9735120877e-01	 1.4765236788e-02
 1.9249302732e+00	 1.0157248065e+00	-5.6103272540e-02
 1.9151580095e+00	 1.0340325895e+00	-1.2601718497e-01
 1.9051976206e+00	 1.0522717191e+00	-1.9493410498e-01
 1.8950497220e+00	 1.0704393600e+00	-2.6278734495e-01
 1.8847149851e+00	 1.0885326815e+00	-3.2948066077e-01
 1.8741941371e+00	 1.1065488590e+00	-3.9488267702e-01
 1.8634879614e+00	 1.1244850751e+00	-4.5877342050e-01
 1.9727331770e+00	 9.4695478671e-01	 2.2638289141e-01
 1.9636697307e+00	 9.6560907005e-01	 1.5241202690e-01
 1.9544152262e+00	 9.8420575123e-01	 7.9359053622e-02
 1.9449700591e+00	 1.0027419744e+00	 7.3020346289e-03
 1.9353346803e+00	 1.0212148829e+00	-6.3675651651e-02
 1.9255095967e+00	 1.0396216210e+00	-1.3348111832e-01
 1.9154953710e+00	 1.0579593346e+00	-2.0200740821e-01
 1.9052926222e+00	 1.0762251731e+00	-2.6912857403e-01
 1.8949020251e+00	 1.0944162905e+00	-3.3469441367e-01
 1.8843243111e+00	 1.1125298469e+00	-3.9852411190e-01
 1.8735602677e+00	 1.1305630097e+00	-4.6027067770e-01
 1.9833386393e+00	 9.5204563901e-01	 2.2131907652e-01
 1.9742264677e+00	 9.7080020824e-01	 1.4721777566e-01
 1.9649222107e+00	 9.8949686564e-01	 7.3976338090e-02
 1.9554262661e+00	 1.0081327400e+00	 1.7433288085e-03
 1.9457390873e+00	 1.0267049594e+00	-6.9332237099e-02
 1.9358611838e+00	 1.0452106525e+00	-1.3909673788e-01
 1.9257931214e+00	 1.0636469501e+00	-2.0738740153e-01
 1.9155355223e+00	 1.0820109862e+00	-2.7402738584e-01
 1.9050890652e+00	 1.1002998995e+00	-3.3882049507e-01
 1.8944544852e+00	 1.1185108348e+00	-4.0152086293e-01
 1.8836325739e+00	 1.1366409444e+00	-4.6166734741e-01
 1.9939441015e+00	 9.5713649132e-01	 2.1742604294e-01
 1.9847832046e+00	 9.7599134644e-01	 1.4337825736e-01
 1.9754291952e+00	 9.9478798005e-01	 7.0089154141e-02
 1.9658824732e+00	 1.0135235056e+00	-2.2318294182e-03
 1.9561434943e+00	 1.0321950358e+00	-7.3379349885e-02
 1.9462127709e+00	 1.0507996840e+00	-1.4314801966e-01
 1.9360908718e+00	 1.0693345656e+00	-2.1132786368e-01
 1.9257784225e+00	 1.0877967993e+00	-2.7769938121e-01
 1.9152761053e+00	 1.1061835085e+00	-3.4202822608e-01
 1.9045846592e+00	 1.1244918228e+00	-4.0396657854e-01
 1.8937048802e+00	 1.1427188790e+00	-4.6300138076e-01
 2.0045495638e+00	 9.6222734363e-01	 2.1438802701e-01
 1.9953399416e+00	 9.8118248463e-01	 1.4057029384e-01
 1.9859361797e+00	 1.0000790945e+00	 6.7374043824e-02
 1.9763386802e+00	 1.0189142712e+00	-4.9398917556e-03
 1.9665479013e+00	 1.0376851122e+00	-7.6119004402e-02
 1.9565643580e+00	 1.0563887155e+00	-1.4591497119e-01
 1.9463886222e+00	 1.0750221811e+00	-2.1407909384e-01
 1.9360213227e+00	 1.0935826124e+00	-2.8035732451e-01
 1.9254631453e+00	 1.1120671175e+00	-3.4448436413e-01
 1.9147148332e+00	 1.1304728107e+00	-4.0596201153e-01
 1.9037771864e+00	 1.1487968137e+00	-4.6431275151e-01
 2.0151550260e+00	 9.6731819594e-01	 2.1189332193e-01
 2.0058966785e+00	 9.8637362283e-01	 1.3847499224e-01
 1.9964431642e+00	 1.0053702089e+00	 6.5511929174e-02
 1.9867948873e+00	 1.0243050368e+00	-6.6929722485e-03
 1.9769523083e+00	 1.0431751886e+00	-7.7849060003e-02
 1.9669159452e+00	 1.0619777470e+00	-1.4767377102e-01
 1.9566863726e+00	 1.0807097966e+00	-2.1588803497e-01
 1.9462642229e+00	 1.0993684255e+00	-2.8221124619e-01
 1.9356501854e+00	 1.1179507265e+00	-3.4632665141e-01
 1.9248450072e+00	 1.1364537986e+00	-4.0760873770e-01
 1.9138494927e+00	 1.1548747483e+00	-4.6564334217e-01
 2.0257604883e+00	 9.7240904824e-01	 2.0963412278e-01
 2.0164534155e+00	 9.9156476102e-01	 1.3677758594e-01
 2.0069501487e+00	 1.0106613233e+00	 6.4187952908e-02
 1.9972510943e+00	 1.0296958024e+00	-7.7990029898e-03
 1.9873567153e+00	 1.0486652650e+00	-7.8863369119e-02
 1.9772675323e+00	 1.0675667785e+00	-1.4869690525e-01
 1.9669841230e+00	 1.0863974121e+00	-2.1699839446e-01
 1.9565071230e+00	 1.1051542386e+00	-2.8346854352e-01
 1.9458372255e+00	 1.1238343355e+00	-3.4769579652e-01
 1.9349751812e+00	 1.1424347865e+00	-4.0900907663e-01
 1.9239217989e+00	 1.1609526830e+00	-4.6703683074e-01
 2.0363659506e+00	 9.7749990055e-01	 2.0730637519e-01
 2.0270101524e+00	 9.9675589922e-01	 1.3516727925e-01
 2.0174571332e+00	 1.0159524377e+00	 6.3091322768e-02
 2.0077073014e+00	 1.0350865680e+00	-8.5618862887e-03
 1.9977611224e+00	 1.0541553415e+00	-7.9451922086e-02
 1.9876191194e+00	 1.0731558100e+00	-1.4925330103e-01
 1.9772818734e+00	 1.0920850276e+00	-2.1765076234e-01
 1.9667500232e+00	 1.1109400517e+00	-2.8433407935e-01
 1.9560242655e+00	 1.1297179445e+00	-3.4874476196e-01
 1.9451053552e+00	 1.1484157744e+00	-4.1026601231e-01
 1.9339941052e+00	 1.1670306176e+00	-4.6853857831e-01
 2.0469714128e+00	 9.8259075286e-01	 2.0460962736e-01
 2.0375668893e+00	 1.0019470374e+00	 1.3333709551e-01
 2.0279641177e+00	 1.0212435521e+00	 6.1915159378e-02
 2.0181635084e+00	 1.0404773336e+00	-9.2816434299e-03
 2.0081655294e+00	 1.0596454179e+00	-7.9900988765e-02
 1.9979707065e+00	 1.0787448415e+00	-1.4960845724e-01
 1.9875796238e+00	 1.0977726431e+00	-2.1808272711e-01
 1.9769929234e+00	 1.1167258648e+00	-2.8498800772e-01
 1.9662113056e+00	 1.1356015535e+00	-3.4962626160e-01
 1.9552355292e+00	 1.1543967624e+00	-4.1148311339e-01
 1.9440664114e+00	 1.1731085523e+00	-4.7019551736e-01
 2.0575768751e+00	 9.8768160517e-01	 2.0124688526e-01
 2.0481236263e+00	 1.0071381756e+00	 1.3098372859e-01
 2.0384711023e+00	 1.0265346665e+00	 6.0356347484e-02
 2.0286197155e+00	 1.0458680992e+00	-1.0254560144e-02
 2.0185699364e+00	 1.0651354943e+00	-8.0493257103e-02
 2.0083222936e+00	 1.0843338730e+00	-1.5002457241e-01
 1.9978773742e+00	 1.1034602586e+00	-2.1852898929e-01
 1.9872358235e+00	 1.1225116779e+00	-2.8560146124e-01
 1.9763983456e+00	 1.1414851625e+00	-3.5049270798e-01
 1.9653657032e+00	 1.1603777503e+00	-4.1276445325e-01
 1.9541387176e+00	 1.1791864869e+00	-4.7205604073e-01
 2.0681823373e+00	 9.9277245747e-01	 1.9692447104e-01
 2.0586803632e+00	 1.0123293138e+00	 1.2780739771e-01
 2.0489780868e+00	 1.0318257809e+00	 5.8115390468e-02
 2.0390759225e+00	 1.0512588648e+00	-1.1773328912e-02
 2.0289743434e+00	 1.0706255707e+00	-8.1507968721e-02
 2.0186738808e+00	 1.0899229045e+00	-1.5076067002e-01
 2.0081751246e+00	 1.1091478741e+00	-2.1922147271e-01
 1.9974787237e+00	 1.1282974910e+00	-2.8636692961e-01
 1.9865853857e+00	 1.1473687715e+00	-3.5149615852e-01
 1.9754958772e+00	 1.1663587382e+00	-4.1421452988e-01
 1.9642110239e+00	 1.1852644216e+00	-4.7416989126e-01
 1.8634879614e+00	 1.1244850751e+00	-4.5877342050e-01
 1.8525972976e+00	 1.1423385215e+00	-5.2379712250e-01
 1.8415230429e+00	 1.1601064016e+00	-5.9039091827e-01
 1.8302661509e+00	 1.1777859305e+00	-6.5538315706e-01
 1.8188276307e+00	 1.1953743363e+00	-7.1876427383e-01
 1.8072085468e+00	 1.2128688613e+00	-7.8058250118e-01
 1.7954100189e+00	 1.2302667634e+00	-8.4092826625e-01
 1.7834332217e+00	 1.2475653178e+00	-8.9992988020e-01
 1.7712793845e+00	 1.2647618178e+00	-9.5774874680e-01
 1.7589497910e+00	 1.2818535764e+00	-1.0145741127e+00
 1.7464457787e+00	 1.2988379279e+00	-1.0706173849e+00
 1.8735602677e+00	 1.1305630097e+00	-4.6027067770e-01
 1.8626107389e+00	 1.1485129555e+00	-5.2254183376e-01
 1.8514766270e+00	 1.1663768725e+00	-5.8827046942e-01
 1.8401588905e+00	 1.1841519607e+00	-6.5447136703e-01
 1.8286585442e+00	 1.2018354332e+00	-7.1853831978e-01
 1.8169766581e+00	 1.2194245176e+00	-7.8059164309e-01
 1.8051143582e+00	 1.2369164569e+00	-8.4079228325e-01
 1.7930728255e+00	 1.2543085114e+00	-8.9933724059e-01
 1.7808532958e+00	 1.2715979598e+00	-9.5645449828e-01
 1.7684570598e+00	 1.2887821008e+00	-1.0123974804e+00
 1.7558854623e+00	 1.3058582541e+00	-1.0674390655e+00
 1.8836325739e+00	 1.1366409444e+00	-4.6166734741e-01
 1.8726241802e+00	 1.1546873895e+00	-5.2179210830e-01
 1.8614302110e+00	 1.1726473433e+00	-5.8478165154e-01
 1.8500516302e+00	 1.1905179908e+00	-6.5077326035e-01
 1.8384894576e+00	 1.2082965302e+00	-7.1616503038e-01
 1.8267447695e+00	 1.2259801739e+00	-7.7903007180e-01
 1.8148186976e+00	 1.2435661503e+00	-8.3958665291e-01
 1.8027124292e+00	 1.2610517049e+00	-8.9808812030e-01
 1.7904272071e+00	 1.2784341018e+00	-9.5481756598e-01
 1.7779643287e+00	 1.2957106252e+00	-1.0100820095e+00
 1.7653251459e+00	 1.3128785803e+00	-1.0642061227e+00
 1.8937048802e+00	 1.1427188790e+00	-4.6300138076e-01
 1.8826376215e+00	 1.1608618235e+00	-5.2152507161e-01
 1.8713837951e+00	 1.1789178142e+00	-5.8231005923e-01
 1.8599443698e+00	 1.1968840210e+00	-6.4563532398e-01
 1.8483203711e+00	 1.2147576271e+00	-7.1148224448e-01
 1.8365128809e+00	 1.2325358302e+00	-7.7572284507e-01
 1.8245230369e+00	 1.2502158437e+00	-8.3713510786e-01
 1.8123520330e+00	 1.2677948984e+00	-8.9601660854e-01
 1.8000011184e+00	 1.2852702438e+00	-9.5269429703e-01
 1.7874715975e+00	 1.3026391496e+00	-1.0075184199e+00
 1.7747648295e+00	 1.3198989065e+00	-1.0608559712e+00
 1.9037771864e+00	 1.1487968137e+00	-4.6431275151e-01
 1.8926510628e+00	 1.1670362575e+00	-5.2172096536e-01
 1.8813373791e+00	 1.1851882850e+00	-5.8079051545e-01
 1.8698371094e+00	 1.2032500512e+00	-6.4185101516e-01
 1.8581512846e+00	 1.2212187241e+00	-7.0521958022e-01
 1.8462809922e+00	 1.2390914865e+00	-7.7050093884e-01
 1.8342273763e+00	 1.2568655371e+00	-8.3326722534e-01
 1.8219916368e+00	 1.2745380919e+00	-8.9296230149e-01
 1.8095750297e+00	 1.2921063859e+00	-9.4994594010e-01
 1.7969788663e+00	 1.3095676739e+00	-1.0046014564e+00
 1.7842045131e+00	 1.3269192327e+00	-1.0573288987e+00
 1.9138494927e+00	 1.1548747483e+00	-4.6564334217e-01
 1.9026645041e+00	 1.1732106915e+00	-5.2236299916e-01
 1.8912909632e+00	 1.1914587559e+00	-5.8015779787e-01
 1.8797298490e+00	 1.2096160813e+00	-6.3939387492e-01
 1.8679821981e+00	 1.2276798210e+00	-7.0042433142e-01
 1.8560491036e+00	 1.2456471428e+00	-7.6358667021e-01
 1.8439317156e+00	 1.2635152305e+00	-8.2781834531e-01
 1.8316312406e+00	 1.2812812854e+00	-8.8877022426e-01
 1.8191489409e+00	 1.2989425279e+00	-9.4643857786e-01
 1.8064861351e+00	 1.3164961983e+00	-1.0012298377e+00
 1.7936441967e+00	 1.3339395589e+00	-1.0535680393e+00
 1.9239217989e+00	 1.1609526830e+00	-4.6703683074e-01
 1.9126779455e+00	 1.1793851255e+00	-5.2343720414e-01
 1.9012445472e+00	 1.1977292267e+00	-5.8035031367e-01
 1.8896225886e+00	 1.2159821115e+00	-6.3816495782e-01
 1.8778131115e+00	 1.2341409180e+00	-6.9725703535e-01
 1.8658172150e+00	 1.2522027991e+00	-7.5798687136e-01
 1.8536360550e+00	 1.2701649239e+00	-8.2069651638e-01
 1.8412708443e+00	 1.2880244789e+00	-8.8329075659e-01
 1.8287228522e+00	 1.3057786699e+00	-9.4204306278e-01
 1.8159934039e+00	 1.3234247227e+00	-9.9730620988e-01
 1.8030838802e+00	 1.3409598851e+00	-1.0495193501e+00
 1.9339941052e+00	 1.1670306176e+00	-4.6853857831e-01
 1.9226913868e+00	 1.1855595595e+00	-5.2493228825e-01
 1.9111981313e+00	 1.2039996976e+00	-5.8130992839e-01
 1.8995153283e+00	 1.2223481417e+00	-6.3806934172e-01
 1.8876440250e+00	 1.2406020150e+00	-6.9559627413e-01
 1.8755853263e+00	 1.2587584554e+00	-7.5426160978e-01
 1.8633403943e+00	 1.2768146173e+00	-8.1441857825e-01
 1.8509104481e+00	 1.2947676725e+00	-8.7637956218e-01
 1.8382967635e+00	 1.3126148119e+00	-9.3663495625e-01
 1.8255006727e+00	 1.3303532471e+00	-9.9273710087e-01
 1.8125235638e+00	 1.3479802113e+00	-1.0451315887e+00
 1.9440664114e+00	 1.1731085523e+00	-4.7019551736e-01
 1.9327048281e+00	 1.1917339935e+00	-5.2683949325e-01
 1.9211517153e+00	 1.2102701685e+00	-5.8298179717e-01
 1.9094080679e+00	 1.2287141719e+00	-6.3901593907e-01
 1.8974749385e+00	 1.2470631119e+00	-6.9532479447e-01
 1.8853534377e+00	 1.2653141117e+00	-7.5227776944e-01
 1.8730447337e+00	 1.2834643107e+00	-8.1022793541e-01
 1.8605500519e+00	 1.3015108660e+00	-8.6950914913e-01
 1.8478706748e+00	 1.3194509539e+00	-9.3009447086e-01
 1.8350079415e+00	 1.3372817715e+00	-9.8743287873e-01
 1.8219632474e+00	 1.3550005375e+00	-1.0403562931e+00
 1.9541387176e+00	 1.1791864869e+00	-4.7205604073e-01
 1.9427182694e+00	 1.1979084275e+00	-5.2915245331e-01
 1.9311052994e+00	 1.2165406393e+00	-5.8531419841e-01
 1.9193008075e+00	 1.2350802020e+00	-6.4091731110e-01
 1.9073058520e+00	 1.2535242089e+00	-6.9632930809e-01
 1.8951215491e+00	 1.2718697680e+00	-7.5190630245e-01
 1.8827490730e+00	 1.2901140041e+00	-8.0799008528e-01
 1.8701896556e+00	 1.3082540595e+00	-8.6490519012e-01
 1.8574445861e+00	 1.3262870960e+00	-9.2295595606e-01
 1.8445152103e+00	 1.3442102959e+00	-9.8130771186e-01
 1.8314029310e+00	 1.3620208637e+00	-1.0351477628e+00
 1.9642110239e+00	 1.1852644216e+00	-4.7416989126e-01
 1.9527317107e+00	 1.2040828615e+00	-5.3186705521e-01
 1.9410588834e+00	 1.2228111102e+00	-5.8825836970e-01
 1.9291935471e+00	 1.2414462322e+00	-6.4368948482e-01
 1.9171367654e+00	 1.2599853058e+00	-6.9850029536e-01
 1.9048896604e+00	 1.2784254243e+00	-7.5302202490e-01
 1.8924534124e+00	 1.2967636975e+00	-8.0757427345e-01
 1.8798292594e+00	 1.3149972530e+00	-8.6246204461e-01
 1.8670184973e+00	 1.3331232380e+00	-9.1797276859e-01
 1.8540224791e+00	 1.3511388203e+00	-9.7437333739e-01
 1.8408426146e+00	 1.3690411899e+00	-1.0294630424e+00
 1.7464457787e+00	 1.2988379279e+00	-1.0706173849e+00
 1.7337665699e+00	 1.3157150865e+00	-1.1244425488e+00
 1.7209157265e+00	 1.3324795265e+00	-1.1746650142e+00
 1.7078947529e+00	 1.3491286424e+00	-1.2216322556e+00
 1.6947052058e+00	 1.3656598550e+00	-1.2657092911e+00
 1.6813486933e+00	 1.3820706127e+00	-1.3072712043e+00
 1.6678268743e+00	 1.3983583930e+00	-1.3466954166e+00
 1.6541414579e+00	 1.4145207034e+00	-1.3843537541e+00
 1.6402942028e+00	 1.4305550831e+00	-1.4206043556e+00
 1.6262869164e+00	 1.4464591039e+00	-1.4557834679e+00
 1.6121214540e+00	 1.4622303714e+00	-1.4901971792e+00
 1.7558854623e+00	 1.3058582541e+00	-1.0674390655e+00
 1.7431377213e+00	 1.3228266351e+00	-1.1203537947e+00
 1.7302174180e+00	 1.3396816883e+00	-1.1699007542e+00
 1.7171260650e+00	 1.3564207940e+00	-1.2163873529e+00
 1.7038652273e+00	 1.3730413592e+00	-1.2601404390e+00
 1.6904365217e+00	 1.3895408184e+00	-1.3014986310e+00
 1.6768416162e+00	 1.4059166355e+00	-1.3408043880e+00
 1.6630822290e+00	 1.4221663046e+00	-1.3783958642e+00
 1.6491601284e+00	 1.4382873514e+00	-1.4145985953e+00
 1.6350771314e+00	 1.4542773347e+00	-1.4497170665e+00
 1.6208351035e+00	 1.4701338472e+00	-1.4840262108e+00
 1.7653251459e+00	 1.3128785803e+00	-1.0642061227e+00
 1.7525088728e+00	 1.3299381837e+00	-1.1162071350e+00
 1.7395191096e+00	 1.3468838501e+00	-1.1650350748e+00
 1.7263573771e+00	 1.3637129457e+00	-1.2109707406e+00
 1.7130252488e+00	 1.3804228634e+00	-1.2543158931e+00
 1.6995243502e+00	 1.3970110242e+00	-1.2953853702e+00
 1.6858563581e+00	 1.4134748780e+00	-1.3344989292e+00
 1.6720230001e+00	 1.4298119057e+00	-1.3719728643e+00
 1.6580260539e+00	 1.4460196197e+00	-1.4081114464e+00
 1.6438673464e+00	 1.4620955656e+00	-1.4431982384e+00
 1.6295487530e+00	 1.4780373231e+00	-1.4774873356e+00
 1.7747648295e+00	 1.3198989065e+00	-1.0608559712e+00
 1.7618800242e+00	 1.3370497324e+00	-1.1119896669e+00
 1.7488208011e+00	 1.3540860120e+00	-1.1600981461e+00
 1.7355886892e+00	 1.3710050974e+00	-1.2054488897e+00
 1.7221852703e+00	 1.3878043677e+00	-1.2483314981e+00
 1.7086121787e+00	 1.4044812299e+00	-1.2890495637e+00
 1.6948711000e+00	 1.4210331206e+00	-1.3279122600e+00
 1.6809637713e+00	 1.4374575069e+00	-1.3652256960e+00
 1.6668919795e+00	 1.4537518880e+00	-1.4012840852e+00
 1.6526575614e+00	 1.4699137964e+00	-1.4363607835e+00
 1.6382624025e+00	 1.4859407989e+00	-1.4706731840e+00
 1.7842045131e+00	 1.3269192327e+00	-1.0573288987e+00
 1.7712511756e+00	 1.3441612810e+00	-1.1076901324e+00
 1.7581224927e+00	 1.3612881738e+00	-1.1551206821e+00
 1.7448200013e+00	 1.3782972491e+00	-1.1998878472e+00
 1.7313452919e+00	 1.3951858719e+00	-1.2422818438e+00
 1.7177000071e+00	 1.4119514356e+00	-1.2826074093e+00
 1.7038858420e+00	 1.4285913631e+00	-1.3211751126e+00
 1.6899045424e+00	 1.4451031080e+00	-1.3582924198e+00
 1.6757579051e+00	 1.4614841563e+00	-1.3942545683e+00
 1.6614477765e+00	 1.4777320273e+00	-1.4293353016e+00
 1.6469760521e+00	 1.4938442748e+00	-1.4635576411e+00
 1.7936441967e+00	 1.3339395589e+00	-1.0535680393e+00
 1.7806223270e+00	 1.3512728297e+00	-1.1032989179e+00
 1.7674241842e+00	 1.3684903356e+00	-1.1501339634e+00
 1.7540513134e+00	 1.3855894007e+00	-1.1943532773e+00
 1.7405053134e+00	 1.4025673761e+00	-1.2362603211e+00
 1.7267878356e+00	 1.4194216414e+00	-1.2761732273e+00
 1.7129005839e+00	 1.4361496056e+00	-1.3144158049e+00
 1.6988453135e+00	 1.4527487092e+00	-1.3513082917e+00
 1.6846238306e+00	 1.4692164247e+00	-1.3871579073e+00
 1.6702379915e+00	 1.4855502581e+00	-1.4222240558e+00
 1.6556897016e+00	 1.5017477506e+00	-1.4561928427e+00
 1.8030838802e+00	 1.3409598851e+00	-1.0495193501e+00
 1.7899934784e+00	 1.3583843783e+00	-1.0988080551e+00
 1.7767258758e+00	 1.3756924974e+00	-1.1451698595e+00
 1.7632826256e+00	 1.3928815524e+00	-1.1889105019e+00
 1.7496653349e+00	 1.4099488804e+00	-1.2303591768e+00
 1.7358756641e+00	 1.4268918471e+00	-1.2698595257e+00
 1.7219153258e+00	 1.4437078482e+00	-1.3077603125e+00
 1.7077860846e+00	 1.4603943104e+00	-1.3444058369e+00
 1.6934897562e+00	 1.4769486930e+00	-1.3801261412e+00
 1.6790282065e+00	 1.4933684890e+00	-1.4149955112e+00
 1.6644033511e+00	 1.5096512265e+00	-1.4486438665e+00
 1.8125235638e+00	 1.3479802113e+00	-1.0451315887e+00
 1.7993646299e+00	 1.3654959269e+00	-1.0942112237e+00
 1.7860275673e+00	 1.3828946592e+00	-1.1402608520e+00
 1.7725139377e+00	 1.4001737041e+00	-1.1836245409e+00
 1.7588253564e+00	 1.4173303846e+00	-1.2246695675e+00
 1.7449634926e+00	 1.4343620529e+00	-1.2637770643e+00
 1.7309300677e+00	 1.4512660907e+00	-1.3013323389e+00
 1.7167268557e+00	 1.4680399115e+00	-1.3377149231e+00
 1.7023556817e+00	 1.4846809613e+00	-1.3732712559e+00
 1.6878184215e+00	 1.5011867198e+00	-1.4077104380e+00
 1.6731170006e+00	 1.5175547023e+00	-1.4409747503e+00
 1.8219632474e+00	 1.3550005375e+00	-1.0403562931e+00
 1.8087357813e+00	 1.3726074756e+00	-1.0895037539e+00
 1.7953292589e+00	 1.3900968211e+00	-1.1354400575e+00
 1.7817452498e+00	 1.4074658557e+00	-1.1785601519e+00
 1.7679853780e+00	 1.4247118889e+00	-1.2192816124e+00
 1.7540513210e+00	 1.4418322586e+00	-1.2580349170e+00
 1.7399448096e+00	 1.4588243332e+00	-1.2952533839e+00
 1.7256676268e+00	 1.4756855127e+00	-1.3313628307e+00
 1.7112216073e+00	 1.4924132296e+00	-1.3665581344e+00
 1.6966086365e+00	 1.5090049507e+00	-1.4004483809e+00
 1.6818306502e+00	 1.5254581782e+00	-1.4332486187e+00
 1.8314029310e+00	 1.3620208637e+00	-1.0351477628e+00
 1.8181069327e+00	 1.3797190242e+00	-1.0846826307e+00
 1.8046309504e+00	 1.3972989829e+00	-1.1307412516e+00
 1.7909765619e+00	 1.4147580074e+00	-1.1737818700e+00
 1.7771453995e+00	 1.4320933931e+00	-1.2142844463e+00
 1.7631391495e+00	 1.4493024643e+00	-1.2527405341e+00
 1.7489595516e+00	 1.4663825758e+00	-1.2896428112e+00
 1.7346083980e+00	 1.4833311138e+00	-1.3254682555e+00
 1.7200875329e+00	 1.5001454979e+00	-1.3600421129e+00
 1.7053988516e+00	 1.5168231815e+00	-1.3932878966e+00
 1.6905442997e+00	 1.5333616540e+00	-1.4255278079e+00
 1.8408426146e+00	 1.3690411899e+00	-1.0294630424e+00
 1.8274780841e+00	 1.3868305729e+00	-1.0797464990e+00
 1.8139326420e+00	 1.4045011447e+00	-1.1261988919e+00
 1.8002078740e+00	 1.4220501591e+00	-1.1693540470e+00
 1.7863054210e+00	 1.4394748973e+00	-1.2097662703e+00
 1.7722269780e+00	 1.4567726701e+00	-1.2479998018e+00
 1.7579742935e+00	 1.4739408183e+00	-1.2846179139e+00
 1.7435491691e+00	 1.4909767150e+00	-1.3200028561e+00
 1.7289534584e+00	 1.5078777662e+00	-1.3538100940e+00
 1.7141890666e+00	 1.5246414124e+00	-1.3863066823e+00
 1.6992579492e+00	 1.5412651299e+00	-1.4178739895e+00
 1.6121214540e+00	 1.4622303714e+00	-1.4901971792e+00
 1.5978021615e+00	 1.4778638844e+00	-1.5237301610e+00
 1.5833285711e+00	 1.4933600345e+00	-1.5557857966e+00
 1.5687026506e+00	 1.5087165629e+00	-1.5858240220e+00
 1.5539264124e+00	 1.5239312491e+00	-1.6136093713e+00
 1.5390019123e+00	 1.5390019123e+00	-1.6389276398e+00
 1.5239312491e+00	 1.5539264124e+00	-1.6615738662e+00
 1.5087165629e+00	 1.5687026506e+00	-1.6813520106e+00
 1.4933600345e+00	 1.5833285711e+00	-1.6980745605e+00
 1.4778638844e+00	 1.5978021615e+00	-1.7116070178e+00
 1.4622303714e+00	 1.6121214540e+00	-1.7228531566e+00
 1.6208351035e+00	 1.4701338472e+00	-1.4840262108e+00
 1.6064384140e+00	 1.4858518607e+00	-1.5173104494e+00
 1.5918865927e+00	 1.5014317688e+00	-1.5487375038e+00
 1.5771816179e+00	 1.5168713005e+00	-1.5780091165e+00
 1.5623255129e+00	 1.5321682233e+00	-1.6049731118e+00
 1.5473203447e+00	 1.5473203447e+00	-1.6294871300e+00
 1.5321682233e+00	 1.5623255129e+00	-1.6514182796e+00
 1.5168713005e+00	 1.5771816179e+00	-1.6706427179e+00
 1.5014317688e+00	 1.5918865927e+00	-1.6870451587e+00
 1.4858518607e+00	 1.6064384140e+00	-1.7005183033e+00
 1.4701338472e+00	 1.6208351035e+00	-1.7113503808e+00
 1.6295487530e+00	 1.4780373231e+00	-1.4774873356e+00
 1.6150746666e+00	 1.4938398369e+00	-1.5105223191e+00
 1.6004446143e+00	 1.5095035030e+00	-1.5414166566e+00
 1.5856605852e+00	 1.5250260380e+00	-1.5700544251e+00
 1.5707246134e+00	 1.5404051975e+00	-1.5963443116e+00
 1.5556387771e+00	 1.5556387771e+00	-1.6202051480e+00
 1.5404051975e+00	 1.5707246134e+00	-1.6415654842e+00
 1.5250260380e+00	 1.5856605852e+00	-1.6603630877e+00
 1.5095035030e+00	 1.6004446143e+00	-1.6765443665e+00
 1.4938398369e+00	 1.6150746666e+00	-1.6900637136e+00
 1.4780373231e+00	 1.6295487530e+00	-1.7009156473e+00
 1.6382624025e+00	 1.4859407989e+00	-1.4706731840e+00
 1.6237109192e+00	 1.5018278132e+00	-1.5034012283e+00
 1.6090026359e+00	 1.5175752373e+00	-1.5338482832e+00
 1.5941395525e+00	 1.5331807756e+00	-1.5619625173e+00
 1.5791237139e+00	 1.5486421717e+00	-1.5877029985e+00
 1.5639572094e+00	 1.5639572094e+00	-1.6110392787e+00
 1.5486421717e+00	 1.5791237139e+00	-1.6319509038e+00
 1.5331807756e+00	 1.5941395525e+00	-1.6504268473e+00
 1.5175752373e+00	 1.6090026359e+00	-1.6664648640e+00
 1.5018278132e+00	 1.6237109192e+00	-1.6800707615e+00
 1.4859407989e+00	 1.6382624025e+00	-1.6912575885e+00
 1.6469760521e+00	 1.4938442748e+00	-1.4635576411e+00
 1.6323471717e+00	 1.5098157895e+00	-1.4959932806e+00
 1.6175606575e+00	 1.5256469715e+00	-1.5260566067e+00
 1.6026185198e+00	 1.5413355131e+00	-1.5537354704e+00
 1.5875228144e+00	 1.5568791459e+00	-1.5790290166e+00
 1.5722756418e+00	 1.5722756418e+00	-1.6019472243e+00
 1.5568791459e+00	 1.5875228144e+00	-1.6225103690e+00
 1.5413355131e+00	 1.6026185198e+00	-1.6407484055e+00
 1.5256469715e+00	 1.6175606575e+00	-1.6567002672e+00
 1.5098157895e+00	 1.6323471717e+00	-1.6704130799e+00
 1.4938442748e+00	 1.6469760521e+00	-1.6819412893e+00
 1.6556897016e+00	 1.5017477506e+00	-1.4561928427e+00
 1.6409834243e+00	 1.5178037658e+00	-1.4883435841e+00
 1.6261186791e+00	 1.5337187058e+00	-1.5180651595e+00
 1.6110974871e+00	 1.5494902507e+00	-1.5453749755e+00
 1.5959219150e+00	 1.5651161201e+00	-1.5703021244e+00
 1.5805940742e+00	 1.5805940742e+00	-1.5928868939e+00
 1.5651161201e+00	 1.5959219150e+00	-1.6131801985e+00
 1.5494902507e+00	 1.6110974871e+00	-1.6312429251e+00
 1.5337187058e+00	 1.6261186791e+00	-1.6471451938e+00
 1.5178037658e+00	 1.6409834243e+00	-1.6609655290e+00
 1.5017477506e+00	 1.6556897016e+00	-1.6727899391e+00
 1.6644033511e+00	 1.5096512265e+00	-1.4486438665e+00
 1.6496196769e+00	 1.5257917421e+00	-1.4804963734e+00
 1.6346767008e+00	 1.5417904400e+00	-1.5098968972e+00
 1.6195764544e+00	 1.5576449882e+00	-1.5368824435e+00
 1.6043210155e+00	 1.5733530943e+00	-1.5615020922e+00
 1.5889125066e+00	 1.5889125066e+00	-1.5838164935e+00
 1.5733530943e+00	 1.6043210155e+00	-1.6038972808e+00
 1.5576449882e+00	 1.6195764544e+00	-1.6218263971e+00
 1.5417904400e+00	 1.6346767008e+00	-1.6376953299e+00
 1.5257917421e+00	 1.6496196769e+00	-1.6516042546e+00
 1.5096512265e+00	 1.6644033511e+00	-1.6636610819e+00
 1.6731170006e+00	 1.5175547023e+00	-1.4409747503e+00
 1.6582559294e+00	 1.5337797183e+00	-1.4724951298e+00
 1.6432347224e+00	 1.5498621743e+00	-1.5015743116e+00
 1.6280554217e+00	 1.5657997258e+00	-1.5282591100e+00
 1.6127201160e+00	 1.5815900684e+00	-1.5526088000e+00
 1.5972309389e+00	 1.5972309389e+00	-1.5746946148e+00
 1.5815900684e+00	 1.6127201160e+00	-1.5945991564e+00
 1.5657997258e+00	 1.6280554217e+00	-1.6124157153e+00
 1.5498621743e+00	 1.6432347224e+00	-1.6282474967e+00
 1.5337797183e+00	 1.6582559294e+00	-1.6422067492e+00
 1.5175547023e+00	 1.6731170006e+00	-1.6544137947e+00
 1.6818306502e+00	 1.5254581782e+00	-1.4332486187e+00
 1.6668921820e+00	 1.5417676946e+00	-1.4643827008e+00
 1.6517927440e+00	 1.5579339085e+00	-1.4931195428e+00
 1.6365343891e+00	 1.5739544633e+00	-1.5195061400e+00
 1.6211192165e+00	 1.5898270426e+00	-1.5436023340e+00
 1.6055493713e+00	 1.6055493713e+00	-1.5654803258e+00
 1.5898270426e+00	 1.6211192165e+00	-1.5852240996e+00
 1.5739544633e+00	 1.6365343891e+00	-1.6029287511e+00
 1.5579339085e+00	 1.6517927440e+00	-1.6186997187e+00
 1.5417676946e+00	 1.6668921820e+00	-1.6326519128e+00
 1.5254581782e+00	 1.6818306502e+00	-1.6449087418e+00
 1.6905442997e+00	 1.5333616540e+00	-1.4255278079e+00
 1.6755284346e+00	 1.5497556709e+00	-1.4562014179e+00
 1.6603507656e+00	 1.5660056428e+00	-1.4845544902e+00
 1.6450133564e+00	 1.5821092009e+00	-1.5106247324e+00
 1.6295183171e+00	 1.5980640168e+00	-1.5344630839e+00
 1.6138678037e+00	 1.6138678037e+00	-1.5561332597e+00
 1.5980640168e+00	 1.6295183171e+00	-1.5757112011e+00
 1.5821092009e+00	 1.6450133564e+00	-1.5932844289e+00
 1.5660056428e+00	 1.6603507656e+00	-1.6089512927e+00
 1.5497556709e+00	 1.6755284346e+00	-1.6228201159e+00
 1.5333616540e+00	 1.6905442997e+00	-1.6350082320e+00
 1.6992579492e+00	 1.5412651299e+00	-1.4178739895e+00
 1.6841646871e+00	 1.5577436472e+00	-1.4479932146e+00
 1.6689087872e+00	 1.5740773770e+00	-1.4759009231e+00
 1.6534923237e+00	 1.5902639384e+00	-1.5016162230e+00
 1.6379174176e+00	 1.6063009910e+00	-1.5251718394e+00
 1.6221862360e+00	 1.6221862360e+00	-1.5466137046e+00
 1.6063009910e+00	 1.6379174176e+00	-1.5660004511e+00
 1.5902639384e+00	 1.6534923237e+00	-1.5834028024e+00
 1.5740773770e+00	 1.6689087872e+00	-1.5989028572e+00
 1.5577436472e+00	 1.6841646871e+00	-1.6125932628e+00
 1.5412651299e+00	 1.6992579492e+00	-1.6245762760e+00
 1.4622303714e+00	 1.6121214540e+00	-1.7228531566e+00
 1.4464591039e+00	 1.6262869164e+00	-1.7314379841e+00
 1.4305550831e+00	 1.6402942028e+00	-1.7368574705e+00
 1.4145207034e+00	 1.6541414579e+00	-1.7393679304e+00
 1.3983583930e+00	 1.6678268743e+00	-1.7392587607e+00
 1.3820706127e+00	 1.6813486933e+00	-1.7368433071e+00
 1.3656598550e+00	 1.6947052058e+00	-1.7324497736e+00
 1.3491286424e+00	 1.7078947529e+00	-1.7264122294e+00
 1.3324795265e+00	 1.7209157265e+00	-1.7190617684e+00
 1.3157150865e+00	 1.7337665699e+00	-1.7107178749e+00
 1.2988379279e+00	 1.7464457787e+00	-1.7016800448e+00
 1.4701338472e+00	 1.6208351035e+00	-1.7113503808e+00
 1.4542773347e+00	 1.6350771314e+00	-1.7197352533e+00
 1.4382873514e+00	 1.6491601284e+00	-1.7250889876e+00
 1.4221663046e+00	 1.6630822290e+00	-1.7276235562e+00
 1.4059166355e+00	 1.6768416162e+00	-1.7275838037e+00
 1.3895408184e+00	 1.6904365217e+00	-1.7252380560e+00
 1.3730413592e+00	 1.7038652273e+00	-1.7208687751e+00
 1.3564207940e+00	 1.7171260650e+00	-1.7147633178e+00
 1.3396816883e+00	 1.7302174180e+00	-1.7072048542e+00
 1.3228266351e+00	 1.7431377213e+00	-1.6984635006e+00
 1.3058582541e+00	 1.7558854623e+00	-1.6887877211e+00
 1.4780373231e+00	 1.6295487530e+00	-1.7009156473e+00
 1.4620955656e+00	 1.6438673464e+00	-1.7091491134e+00
 1.4460196197e+00	 1.6580260539e+00	-1.7144289113e+00
 1.4298119057e+00	 1.6720230001e+00	-1.7169359874e+00
 1.4134748780e+00	 1.6858563581e+00	-1.7168844067e+00
 1.3970110242e+00	 1.6995243502e+00	-1.7145116741e+00
 1.3804228634e+00	 1.7130252488e+00	-1.7100691065e+00
 1.3637129457e+00	 1.7263573771e+00	-1.7038123123e+00
 1.3468838501e+00	 1.7395191096e+00	-1.6959918395e+00
 1.3299381837e+00	 1.7525088728e+00	-1.6868440465e+00
 1.3128785803e+00	 1.7653251459e+00	-1.6765822514e+00
 1.4859407989e+00	 1.6382624025e+00	-1.6912575885e+00
 1.4699137964e+00	 1.6526575614e+00	-1.6994251961e+00
 1.4537518880e+00	 1.6668919795e+00	-1.7046166516e+00
 1.4374575069e+00	 1.6809637713e+00	-1.7070449739e+00
 1.4210331206e+00	 1.6948711000e+00	-1.7069070616e+00
 1.4044812299e+00	 1.7086121787e+00	-1.7044236341e+00
 1.3878043677e+00	 1.7221852703e+00	-1.6998292904e+00
 1.3710050974e+00	 1.7355886892e+00	-1.6933626811e+00
 1.3540860120e+00	 1.7488208011e+00	-1.6852568551e+00
 1.3370497324e+00	 1.7618800242e+00	-1.6757298384e+00
 1.3198989065e+00	 1.7747648295e+00	-1.6649755011e+00
 1.4938442748e+00	 1.6469760521e+00	-1.6819412893e+00
 1.4777320273e+00	 1.6614477765e+00	-1.6903133812e+00
 1.4614841563e+00	 1.6757579051e+00	-1.6953956928e+00
 1.4451031080e+00	 1.6899045424e+00	-1.6976940262e+00
 1.4285913631e+00	 1.7038858420e+00	-1.6974015725e+00
 1.4119514356e+00	 1.7177000071e+00	-1.6947361422e+00
 1.3951858719e+00	 1.7313452919e+00	-1.6899298805e+00
 1.3782972491e+00	 1.7448200013e+00	-1.6832191025e+00
 1.3612881738e+00	 1.7581224927e+00	-1.6748343076e+00
 1.3441612810e+00	 1.7712511756e+00	-1.6649904363e+00
 1.3269192327e+00	 1.7842045131e+00	-1.6538774249e+00
 1.5017477506e+00	 1.6556897016e+00	-1.6727899391e+00
 1.4855502581e+00	 1.6702379915e+00	-1.6815357128e+00
 1.4692164247e+00	 1.6846238306e+00	-1.6865135833e+00
 1.4527487092e+00	 1.6988453135e+00	-1.6886304031e+00
 1.4361496056e+00	 1.7129005839e+00	-1.6881210452e+00
 1.4194216414e+00	 1.7267878356e+00	-1.6852141340e+00
 1.4025673761e+00	 1.7405053134e+00	-1.6801534671e+00
 1.3855894007e+00	 1.7540513134e+00	-1.6731874824e+00
 1.3684903356e+00	 1.7674241842e+00	-1.6645589116e+00
 1.3512728297e+00	 1.7806223270e+00	-1.6544946840e+00
 1.3339395589e+00	 1.7936441967e+00	-1.6431961384e+00
 1.5096512265e+00	 1.6644033511e+00	-1.6636610819e+00
 1.4933684890e+00	 1.6790282065e+00	-1.6727044646e+00
 1.4769486930e+00	 1.6934897562e+00	-1.6777219265e+00
 1.4603943104e+00	 1.7077860846e+00	-1.6796051022e+00
 1.4437078482e+00	 1.7219153258e+00	-1.6788218798e+00
 1.4268918471e+00	 1.7358756641e+00	-1.6756252722e+00
 1.4099488804e+00	 1.7496653349e+00	-1.6702846819e+00
 1.3928815524e+00	 1.7632826256e+00	-1.6630749708e+00
 1.3756924974e+00	 1.7767258758e+00	-1.6542657217e+00
 1.3583843783e+00	 1.7899934784e+00	-1.6441107589e+00
 1.3409598851e+00	 1.8030838802e+00	-1.6328379879e+00
 1.5175547023e+00	 1.6731170006e+00	-1.6544137947e+00
 1.5011867198e+00	 1.6878184215e+00	-1.6636333292e+00
 1.4846809613e+00	 1.7023556817e+00	-1.6687617805e+00
 1.4680399115e+00	 1.7167268557e+00	-1.6703728511e+00
 1.4512660907e+00	 1.7309300677e+00	-1.6692637635e+00
 1.4343620529e+00	 1.7449634926e+00	-1.6657399440e+00
 1.4173303846e+00	 1.7588253564e+00	-1.6601102049e+00
 1.4001737041e+00	 1.7725139377e+00	-1.6526899798e+00
 1.3828946592e+00	 1.7860275673e+00	-1.6437901638e+00
 1.3654959269e+00	 1.7993646299e+00	-1.6337062206e+00
 1.3479802113e+00	 1.8125235638e+00	-1.6227076183e+00
 1.5254581782e+00	 1.6818306502e+00	-1.6449087418e+00
 1.5090049507e+00	 1.6966086365e+00	-1.6541683249e+00
 1.4924132296e+00	 1.7112216073e+00	-1.6592912821e+00
 1.4756855127e+00	 1.7256676268e+00	-1.6606921003e+00
 1.4588243332e+00	 1.7399448096e+00	-1.6592096653e+00
 1.4418322586e+00	 1.7540513210e+00	-1.6553312612e+00
 1.4247118889e+00	 1.7679853780e+00	-1.6494187713e+00
 1.4074658557e+00	 1.7817452498e+00	-1.6418422011e+00
 1.3900968211e+00	 1.7953292589e+00	-1.6329680668e+00
 1.3726074756e+00	 1.8087357813e+00	-1.6231480579e+00
 1.3550005375e+00	 1.8219632474e+00	-1.6127080394e+00
 1.5333616540e+00	 1.6905442997e+00	-1.6350082320e+00
 1.5168231815e+00	 1.7053988516e+00	-1.6441572084e+00
 1.5001454979e+00	 1.7200875329e+00	-1.6491156596e+00
 1.4833311138e+00	 1.7346083980e+00	-1.6503217149e+00
 1.4663825758e+00	 1.7489595516e+00	-1.6484258316e+00
 1.4493024643e+00	 1.7631391495e+00	-1.6441750597e+00
 1.4320933931e+00	 1.7771453995e+00	-1.6380011789e+00
 1.4147580074e+00	 1.7909765619e+00	-1.6303426239e+00
 1.3972989829e+00	 1.8046309504e+00	-1.6216356931e+00
 1.3797190242e+00	 1.8181069327e+00	-1.6123027358e+00
 1.3620208637e+00	 1.8314029310e+00	-1.6027406908e+00
 1.5412651299e+00	 1.6992579492e+00	-1.6245762760e+00
 1.5246414124e+00	 1.7141890666e+00	-1.6334495289e+00
 1.5078777662e+00	 1.7289534584e+00	-1.6380758204e+00
 1.4909767150e+00	 1.7435491691e+00	-1.6389681873e+00
 1.4739408183e+00	 1.7579742935e+00	-1.6366817833e+00
 1.4567726701e+00	 1.7722269780e+00	-1.6320499010e+00
 1.4394748973e+00	 1.7863054210e+00	-1.6256502968e+00
 1.4220501591e+00	 1.8002078740e+00	-1.6180035534e+00
 1.4045011447e+00	 1.8139326420e+00	-1.6096297693e+00
 1.3868305729e+00	 1.8274780841e+00	-1.6010362409e+00
 1.3690411899e+00	 1.8408426146e+00	-1.5927055053e+00
 1.2988379279e+00	 1.7464457787e+00	-1.7016800448e+00
 1.2818535764e+00	 1.7589497910e+00	-1.6910399360e+00
 1.2647618178e+00	 1.7712793845e+00	-1.6779424073e+00
 1.2475653178e+00	 1.7834332217e+00	-1.6627354100e+00
 1.2302667634e+00	 1.7954100189e+00	-1.6457396265e+00
 1.2128688613e+00	 1.8072085468e+00	-1.6272417895e+00
 1.1953743363e+00	 1.8188276307e+00	-1.6074884823e+00
 1.1777859305e+00	 1.8302661509e+00	-1.5866804535e+00
 1.1601064016e+00	 1.8415230429e+00	-1.5649674745e+00
 1.1423385215e+00	 1.8525972976e+00	-1.5424307544e+00
 1.1244850751e+00	 1.8634879614e+00	-1.5156640003e+00
 1.3058582541e+00	 1.7558854623e+00	-1.6887877211e+00
 1.2887821008e+00	 1.7684570598e+00	-1.6774182861e+00
 1.2715979598e+00	 1.7808532958e+00	-1.6637425848e+00
 1.2543085114e+00	 1.7930728255e+00	-1.6481977470e+00
 1.2369164569e+00	 1.8051143582e+00	-1.6311947403e+00
 1.2194245176e+00	 1.8169766581e+00	-1.6131113103e+00
 1.2018354332e+00	 1.8286585442e+00	-1.5942854174e+00
 1.1841519607e+00	 1.8401588905e+00	-1.5750092041e+00
 1.1663768725e+00	 1.8514766270e+00	-1.5555235223e+00
 1.1485129555e+00	 1.8626107389e+00	-1.5330486600e+00
 1.1305630097e+00	 1.8735602677e+00	-1.5043984146e+00
 1.3128785803e+00	 1.7653251459e+00	-1.6765822514e+00
 1.2957106252e+00	 1.7779643287e+00	-1.6646351015e+00
 1.2784341018e+00	 1.7904272071e+00	-1.6506527665e+00
 1.2610517049e+00	 1.8027124292e+00	-1.6351492097e+00
 1.2435661503e+00	 1.8148186976e+00	-1.6186125428e+00
 1.2259801739e+00	 1.8267447695e+00	-1.6014976033e+00
 1.2082965302e+00	 1.8384894576e+00	-1.5842190452e+00
 1.1905179908e+00	 1.8500516302e+00	-1.5671449768e+00
 1.1726473433e+00	 1.8614302110e+00	-1.5482578830e+00
 1.1546873895e+00	 1.8726241802e+00	-1.5236868622e+00
 1.1366409444e+00	 1.8836325739e+00	-1.4937123619e+00
 1.3198989065e+00	 1.7747648295e+00	-1.6649755011e+00
 1.3026391496e+00	 1.7874715975e+00	-1.6526409490e+00
 1.2852702438e+00	 1.8000011184e+00	-1.6386515150e+00
 1.2677948984e+00	 1.8123520330e+00	-1.6235859102e+00
 1.2502158437e+00	 1.8245230369e+00	-1.6079965140e+00
 1.2325358302e+00	 1.8365128809e+00	-1.5924016039e+00
 1.2147576271e+00	 1.8483203711e+00	-1.5772781172e+00
 1.1968840210e+00	 1.8599443698e+00	-1.5614067096e+00
 1.1789178142e+00	 1.8713837951e+00	-1.5403371942e+00
 1.1608618235e+00	 1.8826376215e+00	-1.5141829845e+00
 1.1427188790e+00	 1.8937048802e+00	-1.4833884944e+00
 1.3269192327e+00	 1.7842045131e+00	-1.6538774249e+00
 1.3095676739e+00	 1.7969788663e+00	-1.6413834132e+00
 1.2921063859e+00	 1.8095750297e+00	-1.6277135792e+00
 1.2745380919e+00	 1.8219916368e+00	-1.6134995520e+00
 1.2568655371e+00	 1.8342273763e+00	-1.5993453621e+00
 1.2390914865e+00	 1.8462809922e+00	-1.5858193401e+00
 1.2212187241e+00	 1.8581512846e+00	-1.5724620924e+00
 1.2032500512e+00	 1.8698371094e+00	-1.5545020731e+00
 1.1851882850e+00	 1.8813373791e+00	-1.5316425756e+00
 1.1670362575e+00	 1.8926510628e+00	-1.5043770755e+00
 1.1487968137e+00	 1.9037771864e+00	-1.4732127535e+00
 1.3339395589e+00	 1.7936441967e+00	-1.6431961384e+00
 1.3164961983e+00	 1.8064861351e+00	-1.6308071870e+00
 1.2989425279e+00	 1.8191489409e+00	-1.6178099988e+00
 1.2812812854e+00	 1.8316312406e+00	-1.6048775416e+00
 1.2635152305e+00	 1.8439317156e+00	-1.5926531368e+00
 1.2456471428e+00	 1.8560491036e+00	-1.5813137612e+00
 1.2276798210e+00	 1.8679821981e+00	-1.5661947544e+00
 1.2096160813e+00	 1.8797298490e+00	-1.5462690721e+00
 1.1914587559e+00	 1.8912909632e+00	-1.5220613162e+00
 1.1732106915e+00	 1.9026645041e+00	-1.4941117471e+00
 1.1548747483e+00	 1.9138494927e+00	-1.4629744785e+00
 1.3409598851e+00	 1.8030838802e+00	-1.6328379879e+00
 1.3234247227e+00	 1.8159934039e+00	-1.6208541604e+00
 1.3057786699e+00	 1.8287228522e+00	-1.6089082048e+00
 1.2880244789e+00	 1.8412708443e+00	-1.5977030963e+00
 1.2701649239e+00	 1.8536360550e+00	-1.5878349495e+00
 1.2522027991e+00	 1.8658172150e+00	-1.5753565124e+00
 1.2341409180e+00	 1.8778131115e+00	-1.5581091947e+00
 1.2159821115e+00	 1.8896225886e+00	-1.5366324080e+00
 1.1977292267e+00	 1.9012445472e+00	-1.5114827743e+00
 1.1793851255e+00	 1.9126779455e+00	-1.4832323111e+00
 1.1609526830e+00	 1.9239217989e+00	-1.4524665155e+00
 1.3479802113e+00	 1.8125235638e+00	-1.6227076183e+00
 1.3303532471e+00	 1.8255006727e+00	-1.6114635061e+00
 1.3126148119e+00	 1.8382967635e+00	-1.6009721184e+00
 1.2947676725e+00	 1.8509104481e+00	-1.5919553494e+00
 1.2768146173e+00	 1.8633403943e+00	-1.5819139071e+00
 1.2587584554e+00	 1.8755853263e+00	-1.5671424418e+00
 1.2406020150e+00	 1.8876440250e+00	-1.5481580216e+00
 1.2223481417e+00	 1.8995153283e+00	-1.5255185778e+00
 1.2039996976e+00	 1.9111981313e+00	-1.4997985357e+00
 1.1855595595e+00	 1.9226913868e+00	-1.4715869149e+00
 1.1670306176e+00	 1.9339941052e+00	-1.4414853254e+00
 1.3550005375e+00	 1.8219632474e+00	-1.6127080394e+00
 1.3372817715e+00	 1.8350079415e+00	-1.6025717634e+00
 1.3194509539e+00	 1.8478706748e+00	-1.5939622457e+00
 1.3015108660e+00	 1.8605500519e+00	-1.5858256781e+00
 1.2834643107e+00	 1.8730447337e+00	-1.5733349040e+00
 1.2653141117e+00	 1.8853534377e+00	-1.5566428752e+00
 1.2470631119e+00	 1.8974749385e+00	-1.5362955733e+00
 1.2287141719e+00	 1.9094080679e+00	-1.5128560470e+00
 1.2102701685e+00	 1.9211517153e+00	-1.4869025694e+00
 1.1917339935e+00	 1.9327048281e+00	-1.4590266752e+00
 1.1731085523e+00	 1.9440664114e+00	-1.4298310915e+00
 1.3620208637e+00	 1.8314029310e+00	-1.6027406908e+00
 1.3442102959e+00	 1.8445152103e+00	-1.5941129198e+00
 1.3262870960e+00	 1.8574445861e+00	-1.5871190675e+00
 1.3082540595e+00	 1.8701896556e+00	-1.5766826897e+00
 1.2901140041e+00	 1.8827490730e+00	-1.5620791038e+00
 1.2718697680e+00	 1.8951215491e+00	-1.5438309989e+00
 1.2535242089e+00	 1.9073058520e+00	-1.5224780995e+00
 1.2350802020e+00	 1.9193008075e+00	-1.4985754196e+00
 1.2165406393e+00	 1.9311052994e+00	-1.4726913811e+00
 1.1979084275e+00	 1.9427182694e+00	-1.4454058108e+00
 1.1791864869e+00	 1.9541387176e+00	-1.4173078265e+00
 1.3690411899e+00	 1.8408426146e+00	-1.5927055053e+00
 1.3511388203e+00	 1.8540224791e+00	-1.5859153907e+00
 1.3331232380e+00	 1.8670184973e+00	-1.5772447684e+00
 1.3149972530e+00	 1.8798292594e+00	-1.5644862257e+00
 1.2967636975e+00	 1.8924534124e+00	-1.5481298484e+00
 1.2784254243e+00	 1.9048896604e+00	-1.5286820464e+00
 1.2599853058e+00	 1.9171367654e+00	-1.5066639415e+00
 1.2414462322e+00	 1.9291935471e+00	-1.4826096062e+00
 1.2228111102e+00	 1.9410588834e+00	-1.4570641656e+00
 1.2040828615e+00	 1.9527317107e+00	-1.4305817739e+00
 1.1852644216e+00	 1.9642110239e+00	-1.4037234785e+00
 1.1244850751e+00	 1.8634879614e+00	-1.5156640003e+00
 1.1065488590e+00	 1.8741941371e+00	-1.4828654812e+00
 1.0885326815e+00	 1.8847149851e+00	-1.4485022756e+00
 1.0704393600e+00	 1.8950497220e+00	-1.4139754858e+00
 1.0522717191e+00	 1.9051976206e+00	-1.3791186006e+00
 1.0340325895e+00	 1.9151580095e+00	-1.3438184299e+00
 1.0157248065e+00	 1.9249302732e+00	-1.3080074896e+00
 9.9735120877e-01	 1.9345138520e+00	-1.2716567571e+00
 9.7891463682e-01	 1.9439082417e+00	-1.2347688277e+00
 9.6041793185e-01	 1.9531129938e+00	-1.1973714989e+00
 9.4186393440e-01	 1.9621277148e+00	-1.1595118040e+00
 1.1305630097e+00	 1.8735602677e+00	-1.5043984146e+00
 1.1125298469e+00	 1.8843243111e+00	-1.4703644537e+00
 1.0944162905e+00	 1.8949020251e+00	-1.4338095800e+00
 1.0762251731e+00	 1.9052926222e+00	-1.3978160219e+00
 1.0579593346e+00	 1.9154953710e+00	-1.3621571969e+00
 1.0396216210e+00	 1.9255095967e+00	-1.3266374657e+00
 1.0212148829e+00	 1.9353346803e+00	-1.2911028582e+00
 1.0027419744e+00	 1.9449700591e+00	-1.2554337617e+00
 9.8420575123e-01	 1.9544152262e+00	-1.2195380327e+00
 9.6560907005e-01	 1.9636697307e+00	-1.1833445581e+00
 9.4695478671e-01	 1.9727331770e+00	-1.1467972892e+00
 1.1366409444e+00	 1.8836325739e+00	-1.4937123619e+00
 1.1185108348e+00	 1.8944544852e+00	-1.4591278268e+00
 1.1002998995e+00	 1.9050890652e+00	-1.4212120962e+00
 1.0820109862e+00	 1.9155355223e+00	-1.3840149806e+00
 1.0636469501e+00	 1.9257931214e+00	-1.3477173579e+00
 1.0452106525e+00	 1.9358611838e+00	-1.3120484775e+00
 1.0267049594e+00	 1.9457390873e+00	-1.2767756323e+00
 1.0081327400e+00	 1.9554262661e+00	-1.2416967596e+00
 9.8949686564e-01	 1.9649222107e+00	-1.2066334878e+00
 9.7080020824e-01	 1.9742264677e+00	-1.1714246538e+00
 9.5204563901e-01	 1.9833386393e+00	-1.1359203171e+00
 1.1427188790e+00	 1.8937048802e+00	-1.4833884944e+00
 1.1244918228e+00	 1.9045846592e+00	-1.4486943124e+00
 1.1061835085e+00	 1.9152761053e+00	-1.4103914898e+00
 1.0877967993e+00	 1.9257784225e+00	-1.3722201007e+00
 1.0693345656e+00	 1.9360908718e+00	-1.3354211732e+00
 1.0507996840e+00	 1.9462127709e+00	-1.2996560923e+00
 1.0321950358e+00	 1.9561434943e+00	-1.2646210644e+00
 1.0135235056e+00	 1.9658824732e+00	-1.2300396110e+00
 9.9478798005e-01	 1.9754291952e+00	-1.1956555281e+00
 9.7599134644e-01	 1.9847832046e+00	-1.1612263413e+00
 9.5713649132e-01	 1.9939441015e+00	-1.1265172789e+00
 1.1487968137e+00	 1.9037771864e+00	-1.4732127535e+00
 1.1304728107e+00	 1.9147148332e+00	-1.4387955634e+00
 1.1120671175e+00	 1.9254631453e+00	-1.4010236442e+00
 1.0935826124e+00	 1.9360213227e+00	-1.3620821594e+00
 1.0750221811e+00	 1.9463886222e+00	-1.3248940530e+00
 1.0563887155e+00	 1.9565643580e+00	-1.2890683820e+00
 1.0376851122e+00	 1.9665479013e+00	-1.2542378223e+00
 1.0189142712e+00	 1.9763386802e+00	-1.2200594100e+00
 1.0000790945e+00	 1.9859361797e+00	-1.1862073945e+00
 9.8118248463e-01	 1.9953399416e+00	-1.1523666103e+00
 9.6222734363e-01	 2.0045495638e+00	-1.1182263894e+00
 1.1548747483e+00	 1.9138494927e+00	-1.4629744785e+00
 1.1364537986e+00	 1.9248450072e+00	-1.4291674666e+00
 1.1179507265e+00	 1.9356501854e+00	-1.3923972230e+00
 1.0993684255e+00	 1.9462642229e+00	-1.3532550366e+00
 1.0807097966e+00	 1.9566863726e+00	-1.3157647720e+00
 1.0619777470e+00	 1.9669159452e+00	-1.2798968918e+00
 1.0431751886e+00	 1.9769523083e+00	-1.2452280051e+00
 1.0243050368e+00	 1.9867948873e+00	-1.2113564941e+00
 1.0053702089e+00	 1.9964431642e+00	-1.1778952407e+00
 9.8637362283e-01	 2.0058966785e+00	-1.1444648933e+00
 9.6731819594e-01	 2.0151550260e+00	-1.1106876999e+00
 1.1609526830e+00	 1.9239217989e+00	-1.4524665155e+00
 1.1424347865e+00	 1.9349751812e+00	-1.4195502232e+00
 1.1238343355e+00	 1.9458372255e+00	-1.3839876557e+00
 1.1051542386e+00	 1.9565071230e+00	-1.3453957811e+00
 1.0863974121e+00	 1.9669841230e+00	-1.3076655154e+00
 1.0675667785e+00	 1.9772675323e+00	-1.2717566699e+00
 1.0486652650e+00	 1.9873567153e+00	-1.2371971624e+00
 1.0296958024e+00	 1.9972510943e+00	-1.2035344568e+00
 1.0106613233e+00	 2.0069501487e+00	-1.1703281421e+00
 9.9156476102e-01	 2.0164534155e+00	-1.1371430752e+00
 9.7240904824e-01	 2.0257604883e+00	-1.1035431138e+00
 1.1670306176e+00	 1.9339941052e+00	-1.4414853254e+00
 1.1484157744e+00	 1.9451053552e+00	-1.4096884295e+00
 1.1297179445e+00	 1.9560242655e+00	-1.3754953281e+00
 1.1109400517e+00	 1.9667500232e+00	-1.3381646776e+00
 1.0920850276e+00	 1.9772818734e+00	-1.3002319275e+00
 1.0731558100e+00	 1.9876191194e+00	-1.2642663013e+00
 1.0541553415e+00	 1.9977611224e+00	-1.2297543165e+00
 1.0350865680e+00	 2.0077073014e+00	-1.1962001617e+00
 1.0159524377e+00	 2.0174571332e+00	-1.1631181078e+00
 9.9675589922e-01	 2.0270101524e+00	-1.1300255066e+00
 9.7749990055e-01	 2.0363659506e+00	-1.0964364040e+00
 1.1731085523e+00	 1.9440664114e+00	-1.4298310915e+00
 1.1543967624e+00	 1.9552355292e+00	-1.3993311572e+00
 1.1356015535e+00	 1.9662113056e+00	-1.3666256940e+00
 1.1167258648e+00	 1.9769929234e+00	-1.3309413466e+00
 1.0977726431e+00	 1.9875796238e+00	-1.2931031607e+00
 1.0787448415e+00	 1.9979707065e+00	-1.2570479422e+00
 1.0596454179e+00	 2.0081655294e+00	-1.2225119862e+00
 1.0404773336e+00	 2.0181635084e+00	-1.1889637599e+00
 1.0212435521e+00	 2.0279641177e+00	-1.1558800943e+00
 1.0019470374e+00	 2.0375668893e+00	-1.1227390183e+00
 9.8259075286e-01	 2.0469714128e+00	-1.0890132319e+00
 1.1791864869e+00	 1.9541387176e+00	-1.4173078265e+00
 1.1603777503e+00	 1.9653657032e+00	-1.3882320351e+00
 1.1414851625e+00	 1.9763983456e+00	-1.3570893348e+00
 1.1225116779e+00	 1.9872358235e+00	-1.3230805334e+00
 1.1034602586e+00	 1.9978773742e+00	-1.2859219281e+00
 1.0843338730e+00	 2.0083222936e+00	-1.2497273572e+00
 1.0651354943e+00	 2.0185699364e+00	-1.2150862132e+00
 1.0458680992e+00	 2.0286197155e+00	-1.1814387098e+00
 1.0265346665e+00	 2.0384711023e+00	-1.1482320225e+00
 1.0071381756e+00	 2.0481236263e+00	-1.1149129382e+00
 9.8768160517e-01	 2.0575768751e+00	-1.0809211692e+00
 1.1852644216e+00	 1.9642110239e+00	-1.4037234785e+00
 1.1663587382e+00	 1.9754958772e+00	-1.3761493298e+00
 1.1473687715e+00	 1.9865853857e+00	-1.3466020188e+00
 1.1282974910e+00	 1.9974787237e+00	-1.3142623774e+00
 1.1091478741e+00	 2.0081751246e+00	-1.2783345571e+00
 1.0899229045e+00	 2.0186738808e+00	-1.2419339590e+00
 1.0706255707e+00	 2.0289743434e+00	-1.2070965911e+00
 1.0512588648e+00	 2.0390759225e+00	-1.1732417985e+00
 1.0318257809e+00	 2.0489780868e+00	-1.1397947955e+00
 1.0123293138e+00	 2.0586803632e+00	-1.1061791105e+00
 9.9277245747e-01	 2.0681823373e+00	-1.0718097202e+00
 9.4186393440e-01	 1.9621277148e+00	-1.1595118040e+00
 9.2325231471e-01	 1.9709535501e+00	-1.1211267719e+00
 9.0458905827e-01	 1.9795886661e+00	-1.0821877237e+00
 8.8587699627e-01	 1.9880328320e+00	-1.0427729694e+00
 8.6711895413e-01	 1.9962858712e+00	-1.0029421420e+00
 8.4831775027e-01	 2.0043476608e+00	-9.6273300356e-01
 8.2947619481e-01	 2.0122181312e+00	-9.2215878135e-01
 8.1059708844e-01	 2.0198972655e+00	-8.8120602984e-01
 7.9168322120e-01	 2.0273850994e+00	-8.3983301244e-01
 7.7273737131e-01	 2.0346817203e+00	-7.9796859224e-01
 7.5376230403e-01	 2.0417872669e+00	-7.5551161878e-01
 9.4695478671e-01	 1.9727331770e+00	-1.1467972892e+00
 9.2824256968e-01	 1.9816067167e+00	-1.1096240784e+00
 9.0947843679e-01	 1.9902885062e+00	-1.0716794517e+00
 8.9066523455e-01	 1.9987783136e+00	-1.0330747761e+00
 8.7180580366e-01	 2.0070759611e+00	-9.9390262311e-01
 8.5290297773e-01	 2.0151813254e+00	-9.5423343240e-01
 8.3395958211e-01	 2.0230943363e+00	-9.1411272600e-01
 8.1497843261e-01	 2.0308149770e+00	-8.7355886853e-01
 7.9596233436e-01	 2.0383432832e+00	-8.3256136668e-01
 7.7691408058e-01	 2.0456793429e+00	-7.9107969720e-01
 7.5783645150e-01	 2.0528232956e+00	-7.4904264987e-01
 9.5204563901e-01	 1.9833386393e+00	-1.1359203171e+00
 9.3323282465e-01	 1.9922598833e+00	-1.0996832109e+00
 9.1436781532e-01	 2.0009883464e+00	-1.0624895382e+00
 8.9545347284e-01	 2.0095237951e+00	-1.0244842172e+00
 8.7649265318e-01	 2.0178660511e+00	-9.8579271522e-01
 8.5748820519e-01	 2.0260149899e+00	-9.4651757348e-01
 8.3844296941e-01	 2.0339705414e+00	-9.0673550470e-01
 8.1935977679e-01	 2.0417326884e+00	-8.6649505763e-01
 8.0024144752e-01	 2.0493014670e+00	-8.2581484181e-01
 7.8109078986e-01	 2.0566769656e+00	-7.8468230130e-01
 7.6191059897e-01	 2.0638593244e+00	-7.4305302343e-01
 9.5713649132e-01	 1.9939441015e+00	-1.1265172789e+00
 9.3822307961e-01	 2.0029130500e+00	-1.0909631662e+00
 9.1925719384e-01	 2.0116881865e+00	-1.0542935982e+00
 9.0024171113e-01	 2.0202692767e+00	-1.0166875528e+00
 8.8117950270e-01	 2.0286561410e+00	-9.7830336534e-01
 8.6207343266e-01	 2.0368486545e+00	-9.3927511876e-01
 8.4292635671e-01	 2.0448467465e+00	-8.9970962949e-01
 8.2374112096e-01	 2.0526503999e+00	-8.5968402258e-01
 8.0452056068e-01	 2.0602596508e+00	-8.1924388905e-01
 7.8526749914e-01	 2.0676745882e+00	-7.7840201398e-01
 7.6598474645e-01	 2.0748953531e+00	-7.3713766046e-01
 9.6222734363e-01	 2.0045495638e+00	-1.1182263894e+00
 9.4321333458e-01	 2.0135662166e+00	-1.0831241590e+00
 9.2414657237e-01	 2.0223880266e+00	-1.0467680088e+00
 9.0502994941e-01	 2.0310147582e+00	-1.0093714993e+00
 8.8586635222e-01	 2.0394462309e+00	-9.7112582098e-01
 8.6665866012e-01	 2.0476823190e+00	-9.3219605476e-01
 8.4740974401e-01	 2.0557229516e+00	-8.9271805079e-01
 8.2812246513e-01	 2.0635681113e+00	-8.5279592035e-01
 8.0879967384e-01	 2.0712178346e+00	-8.1250013321e-01
 7.8944420842e-01	 2.0786722109e+00	-7.7186620845e-01
 7.7005889392e-01	 2.0859313818e+00	-7.3089398323e-01
 9.6731819594e-01	 2.0151550260e+00	-1.1106876999e+00
 9.4820358955e-01	 2.0242193832e+00	-1.0758276409e+00
 9.2903595089e-01	 2.0330878668e+00	-1.0395899310e+00
 9.0981818770e-01	 2.0417602398e+00	-1.0022232497e+00
 8.9055320174e-01	 2.0502363208e+00	-9.6395164560e-01
 8.7124388758e-01	 2.0585159836e+00	-9.2497066991e-01
 8.5189313131e-01	 2.0665991567e+00	-8.8544415320e-01
 8.3250380930e-01	 2.0744858228e+00	-8.4550162035e-01
 8.1307878700e-01	 2.0821760184e+00	-8.0523633522e-01
 7.9362091769e-01	 2.0896698335e+00	-7.6470396256e-01
 7.7413304139e-01	 2.0969674105e+00	-7.2392183119e-01
 9.7240904824e-01	 2.0257604883e+00	-1.1035431138e+00
 9.5319384451e-01	 2.0348725498e+00	-1.0687363214e+00
 9.3392532942e-01	 2.0437877069e+00	-1.0324373317e+00
 9.1460642598e-01	 2.0525057213e+00	-9.9493049478e-01
 8.9524005126e-01	 2.0610264107e+00	-9.5647273544e-01
 8.7582911504e-01	 2.0693496481e+00	-9.1728956343e-01
 8.5637651861e-01	 2.0774753617e+00	-8.7757175310e-01
 8.3688515348e-01	 2.0854035342e+00	-8.3747268744e-01
 8.1735790015e-01	 2.0931342023e+00	-7.9710635730e-01
 7.9779762697e-01	 2.1006674562e+00	-7.5654600283e-01
 7.7820718886e-01	 2.1080034392e+00	-7.1582338062e-01
 9.7749990055e-01	 2.0363659506e+00	-1.0964364040e+00
 9.5818409948e-01	 2.0455257165e+00	-1.0615141904e+00
 9.3881470795e-01	 2.0544875471e+00	-1.0249890087e+00
 9.1939466427e-01	 2.0632512029e+00	-9.8718144631e-01
 8.9992690078e-01	 2.0718165006e+00	-9.4838133779e-01
 8.8041434251e-01	 2.0801833127e+00	-9.0884365571e-01
 8.6085990591e-01	 2.0883515668e+00	-8.6878509800e-01
 8.4126649765e-01	 2.0963212457e+00	-8.2838136702e-01
 8.2163701331e-01	 2.1040923861e+00	-7.8776513063e-01
 8.0197433625e-01	 2.1116650788e+00	-7.4702465158e-01
 7.8228133633e-01	 2.1190394679e+00	-7.0620306808e-01
 9.8259075286e-01	 2.0469714128e+00	-1.0890132319e+00
 9.6317435445e-01	 2.0561788831e+00	-1.0538265419e+00
 9.4370408647e-01	 2.0651873872e+00	-1.0169246162e+00
 9.2418290256e-01	 2.0739966844e+00	-9.7866486108e-01
 9.0461375030e-01	 2.0826065905e+00	-9.3937007051e-01
 8.8499956997e-01	 2.0910169772e+00	-8.9932420013e-01
 8.6534329321e-01	 2.0992277719e+00	-8.5876886748e-01
 8.4564784182e-01	 2.1072389571e+00	-8.1790057205e-01
 8.2591612647e-01	 2.1150505699e+00	-7.7686862540e-01
 8.0615104552e-01	 2.1226627014e+00	-7.3577377692e-01
 7.8635548381e-01	 2.1300754966e+00	-6.9466751728e-01
 9.8768160517e-01	 2.0575768751e+00	-1.0809211692e+00
 9.6816460942e-01	 2.0668320497e+00	-1.0453400001e+00
 9.4859346500e-01	 2.0758872273e+00	-1.0079246915e+00
 9.2897114084e-01	 2.0847421660e+00	-9.6907006631e-01
 9.0930059982e-01	 2.0933966804e+00	-9.2913194286e-01
 8.8958479743e-01	 2.1018506418e+00	-8.8842279624e-01
 8.6982668051e-01	 2.1101039770e+00	-8.4720817575e-01
 8.5002918599e-01	 2.1181566685e+00	-8.0570387198e-01
 8.3019523963e-01	 2.1260087537e+00	-7.6407382314e-01
 8.1032775480e-01	 2.1336603241e+00	-7.2242874554e-01
 7.9042963128e-01	 2.1411115253e+00	-6.8082546946e-01
 9.9277245747e-01	 2.0681823373e+00	-1.0718097202e+00
 9.7315486438e-01	 2.0774852163e+00	-1.0357225462e+00
 9.5348284352e-01	 2.0865870675e+00	-9.9767068389e-01
 9.3375937913e-01	 2.0954876475e+00	-9.5808698639e-01
 9.1398744934e-01	 2.1041867703e+00	-9.1736037755e-01
 8.9417002489e-01	 2.1126843063e+00	-8.7583140426e-01
 8.7431006781e-01	 2.1209801821e+00	-8.3378857572e-01
 8.5441053016e-01	 2.1290743800e+00	-7.9146548354e-01
 8.3447435279e-01	 2.1369669375e+00	-7.4903869132e-01
 8.1450446407e-01	 2.1446579467e+00	-7.0662637828e-01
 7.9450377875e-01	 2.1521475540e+00	-6.6428771708e-01
 7.5376230403e-01	 2.0417872669e+00	-7.5551161878e-01
 7.3476400240e-01	 2.0487007695e+00	-7.1251580681e-01
 7.1574197731e-01	 2.0554236903e+00	-6.7055055202e-01
 6.9669894628e-01	 2.0619563171e+00	-6.2988543639e-01
 6.7763760958e-01	 2.0682989864e+00	-5.9021573602e-01
 6.5856064918e-01	 2.0744520828e+00	-5.5125133768e-01
 6.3947072777e-01	 2.0804160387e+00	-5.1271444438e-01
 6.2037048778e-01	 2.0861913329e+00	-4.7433783439e-01
 6.0126255039e-01	 2.0917784904e+00	-4.3586363981e-01
 5.8214951469e-01	 2.0971780816e+00	-3.9704260881e-01
 5.6303395671e-01	 2.1023907212e+00	-3.5763381387e-01
 7.5783645150e-01	 2.0528232956e+00	-7.4904264987e-01
 7.3873546248e-01	 2.0597741662e+00	-7.0643246927e-01
 7.1961062178e-01	 2.0665334250e+00	-6.6450340543e-01
 7.0046466159e-01	 2.0731013612e+00	-6.2391227080e-01
 6.8130029679e-01	 2.0794783131e+00	-5.8433134090e-01
 6.6212022385e-01	 2.0856646676e+00	-5.4544429120e-01
 6.4292711984e-01	 2.0916608591e+00	-5.0694404238e-01
 6.2372364147e-01	 2.0974673692e+00	-4.6853118084e-01
 6.0451242411e-01	 2.1030847258e+00	-4.2991291873e-01
 5.8529608087e-01	 2.1085135023e+00	-3.9080255593e-01
 5.6607720172e-01	 2.1137543166e+00	-3.5091940428e-01
 7.6191059897e-01	 2.0638593244e+00	-7.4305302343e-01
 7.4270692257e-01	 2.0708475630e+00	-7.0090977426e-01
 7.2347926624e-01	 2.0776431597e+00	-6.5900704498e-01
 7.0423037690e-01	 2.0842464053e+00	-6.1845158781e-01
 6.8496298401e-01	 2.0906576399e+00	-5.7891443108e-01
 6.6567979852e-01	 2.0968772523e+00	-5.4006188912e-01
 6.4638351191e-01	 2.1029056795e+00	-5.0156690292e-01
 6.2707679516e-01	 2.1087434056e+00	-4.6310760639e-01
 6.0776229782e-01	 2.1143909612e+00	-4.2436645261e-01
 5.8844264705e-01	 2.1198489229e+00	-3.8502986023e-01
 5.6912044673e-01	 2.1251179120e+00	-3.4478833878e-01
 7.6598474645e-01	 2.0748953531e+00	-7.3713766046e-01
 7.4667838265e-01	 2.0819209597e+00	-6.9543215220e-01
 7.2734791071e-01	 2.0887528944e+00	-6.5360656430e-01
 7.0799609222e-01	 2.0953914494e+00	-6.1304309097e-01
 6.8862567122e-01	 2.1018369666e+00	-5.7351019034e-01
 6.6923937319e-01	 2.1080898370e+00	-5.3466543609e-01
 6.4983990398e-01	 2.1141504999e+00	-4.9617085302e-01
 6.3042994886e-01	 2.1200194420e+00	-4.5769161390e-01
 6.1101217154e-01	 2.1256971966e+00	-4.1889531683e-01
 5.9158921322e-01	 2.1311843435e+00	-3.7945180149e-01
 5.7216369174e-01	 2.1364815074e+00	-3.3903346107e-01
 7.7005889392e-01	 2.0859313818e+00	-7.3089398323e-01
 7.5064984274e-01	 2.0929943565e+00	-6.8955661066e-01
 7.3121655518e-01	 2.0998626291e+00	-6.4785115219e-01
 7.1176180753e-01	 2.1065364934e+00	-6.0723088166e-01
 6.9228835844e-01	 2.1130162933e+00	-5.6766829697e-01
 6.7279894786e-01	 2.1193024218e+00	-5.2882062522e-01
 6.5329629604e-01	 2.1253953203e+00	-4.9034780260e-01
 6.3378310255e-01	 2.1312954783e+00	-4.5191128715e-01
 6.1426204525e-01	 2.1370034320e+00	-4.1317347276e-01
 5.9473577940e-01	 2.1425197642e+00	-3.7379766096e-01
 5.7520693675e-01	 2.1478451028e+00	-3.3344854552e-01
 7.7413304139e-01	 2.0969674105e+00	-7.2392183119e-01
 7.5462130282e-01	 2.1040677533e+00	-6.8285648176e-01
 7.3508519965e-01	 2.1109723638e+00	-6.4129392815e-01
 7.1552752284e-01	 2.1176815375e+00	-6.0056328425e-01
 6.9595104565e-01	 2.1241956201e+00	-5.6094274477e-01
 6.7635852252e-01	 2.1305150065e+00	-5.2209736082e-01
 6.5675268811e-01	 2.1366401407e+00	-4.8369357480e-01
 6.3713625624e-01	 2.1425715147e+00	-4.4539813468e-01
 6.1751191896e-01	 2.1483096674e+00	-4.0687763066e-01
 5.9788234558e-01	 2.1538551848e+00	-3.6779860880e-01
 5.7825018175e-01	 2.1592086982e+00	-3.2782821464e-01
 7.7820718886e-01	 2.1080034392e+00	-7.1582338062e-01
 7.5859276290e-01	 2.1151411500e+00	-6.7490808938e-01
 7.3895384411e-01	 2.1220820985e+00	-6.3349178277e-01
 7.1929323816e-01	 2.1288265816e+00	-5.9259267648e-01
 6.9961373286e-01	 2.1353749468e+00	-5.5289166926e-01
 6.7991809719e-01	 2.1417275913e+00	-5.1406958633e-01
 6.6020908018e-01	 2.1478849612e+00	-4.7580774125e-01
 6.4048940994e-01	 2.1538475510e+00	-4.3778693795e-01
 6.2076179268e-01	 2.1596159028e+00	-3.9968711632e-01
 6.0102891176e-01	 2.1651906054e+00	-3.6118759447e-01
 5.8129342676e-01	 2.1705722935e+00	-3.2196785838e-01
 7.8228133633e-01	 2.1190394679e+00	-7.0620306808e-01
 7.6256422299e-01	 2.1262145468e+00	-6.6529065020e-01
 7.4282248858e-01	 2.1331918332e+00	-6.2399117399e-01
 7.2305895347e-01	 2.1399716257e+00	-5.8287532478e-01
 7.0327642008e-01	 2.1465542736e+00	-5.4307717891e-01
 6.8347767186e-01	 2.1529401760e+00	-5.0431511705e-01
 6.6366547224e-01	 2.1591297816e+00	-4.6629346201e-01
 6.4384256363e-01	 2.1651235874e+00	-4.2871560380e-01
 6.2401166639e-01	 2.1709221382e+00	-3.9128374127e-01
 6.0417547794e-01	 2.1765260261e+00	-3.5369924000e-01
 5.8433667177e-01	 2.1819358889e+00	-3.1566355558e-01
 7.8635548381e-01	 2.1300754966e+00	-6.9466751728e-01
 7.6653568307e-01	 2.1372879435e+00	-6.5358617896e-01
 7.4669113305e-01	 2.1443015679e+00	-6.1228721351e-01
 7.2682466878e-01	 2.1511166698e+00	-5.7097122442e-01
 7.0693910729e-01	 2.1577336003e+00	-5.3106519130e-01
 6.8703724653e-01	 2.1641527607e+00	-4.9241547785e-01
 6.6712186431e-01	 2.1703746020e+00	-4.5475732995e-01
 6.4719571732e-01	 2.1763996237e+00	-4.1782502095e-01
 6.2726154010e-01	 2.1822283736e+00	-3.8135167653e-01
 6.0732204411e-01	 2.1878614467e+00	-3.4506973602e-01
 5.8737991678e-01	 2.1932994843e+00	-3.0871199707e-01
 7.9042963128e-01	 2.1411115253e+00	-6.8082546946e-01
 7.7050714315e-01	 2.1483613403e+00	-6.3937939768e-01
 7.5055977752e-01	 2.1554113026e+00	-5.9794090750e-01
 7.3059038409e-01	 2.1622617139e+00	-5.5644394424e-01
 7.1060179450e-01	 2.1689129270e+00	-5.1642527393e-01
 6.9059682119e-01	 2.1753653455e+00	-4.7795574523e-01
 6.7057825638e-01	 2.1816194224e+00	-4.4080921953e-01
 6.5054887101e-01	 2.1876756601e+00	-4.0475892044e-01
 6.3051141381e-01	 2.1935346090e+00	-3.6957732978e-01
 6.1046861029e-01	 2.1991968674e+00	-3.3503674039e-01
 5.9042316179e-01	 2.2046630797e+00	-3.0091041076e-01
 7.9450377875e-01	 2.1521475540e+00	-6.6428771708e-01
 7.7447860323e-01	 2.1594347371e+00	-6.2225764871e-01
 7.5442842198e-01	 2.1665210373e+00	-5.8052605335e-01
 7.3435609940e-01	 2.1734067580e+00	-5.3886047586e-01
 7.1426448172e-01	 2.1800922538e+00	-4.9873048952e-01
 6.9415639586e-01	 2.1865779302e+00	-4.6052439403e-01
 6.7403464844e-01	 2.1928642428e+00	-4.2406213976e-01
 6.5390202470e-01	 2.1989516964e+00	-3.8916373987e-01
 6.3376128753e-01	 2.2048408444e+00	-3.5564922564e-01
 6.1361517647e-01	 2.2105322880e+00	-3.2333927949e-01
 5.9346640679e-01	 2.2160266751e+00	-2.9205648834e-01
 5.6303395671e-01	 2.1023907212e+00	-3.5763381387e-01
 5.4391842885e-01	 2.1074170682e+00	-3.1829991732e-01
 5.2480545980e-01	 2.1122578261e+00	-2.7986875204e-01
 5.0569755290e-01	 2.1169137412e+00	-2.4236082350e-01
 4.8659718510e-01	 2.1213856008e+00	-2.0580717816e-01
 4.6750680617e-01	 2.1256742326e+00	-1.7025044410e-01
 4.4842883805e-01	 2.1297805036e+00	-1.3574607973e-01
 4.2936567409e-01	 2.1337053196e+00	-1.0236378980e-01
 4.1031967841e-01	 2.1374496239e+00	-7.0189069217e-02
 3.9129318529e-01	 2.1410143967e+00	-3.9324835478e-02
 3.7228849851e-01	 2.1444006538e+00	-9.8931122711e-03
 5.6607720172e-01	 2.1137543166e+00	-3.5091940428e-01
 5.4685835285e-01	 2.1188078314e+00	-3.1093638692e-01
 5.2764207663e-01	 2.1236747540e+00	-2.7174466492e-01
 5.0843088992e-01	 2.1283558347e+00	-2.3340333504e-01
 4.8922728305e-01	 2.1328518651e+00	-1.9598259037e-01
 4.7003371905e-01	 2.1371636773e+00	-1.5956488101e-01
 4.5085263294e-01	 2.1412921430e+00	-1.2424628838e-01
 4.3168643100e-01	 2.1452381730e+00	-9.0138070814e-02
 4.1253749014e-01	 2.1490027156e+00	-5.7368339361e-02
 3.9340815725e-01	 2.1525867562e+00	-2.6083822993e-02
 3.7430074857e-01	 2.1559913164e+00	 3.5483157009e-03
 5.6912044673e-01	 2.1251179120e+00	-3.4478833878e-01
 5.4979827686e-01	 2.1301985946e+00	-3.0435199288e-01
 5.3047869346e-01	 2.1350916819e+00	-2.6468474324e-01
 5.1116422693e-01	 2.1397979283e+00	-2.2586900864e-01
 4.9185738100e-01	 2.1443181294e+00	-1.8799851561e-01
 4.7256063193e-01	 2.1486531219e+00	-1.5117961321e-01
 4.5327642782e-01	 2.1528037824e+00	-1.1553280679e-01
 4.3400718791e-01	 2.1567710264e+00	-8.1194467206e-02
 4.1475530188e-01	 2.1605558072e+00	-4.8318672055e-02
 3.9552312922e-01	 2.1641591158e+00	-1.7079137117e-02
 3.7631299864e-01	 2.1675819789e+00	 1.2328802910e-02
 5.7216369174e-01	 2.1364815074e+00	-3.3903346107e-01
 5.5273820086e-01	 2.1415893578e+00	-2.9840593676e-01
 5.3331531029e-01	 2.1465086098e+00	-2.5860707686e-01
 5.1389756395e-01	 2.1512400218e+00	-2.1972752879e-01
 4.9448747895e-01	 2.1557843937e+00	-1.8186911632e-01
 4.7508754480e-01	 2.1601425666e+00	-1.4514634234e-01
 4.5570022271e-01	 2.1643154219e+00	-1.0968811637e-01
 4.3632794482e-01	 2.1683038797e+00	-7.5639661019e-02
 4.1697311361e-01	 2.1721088989e+00	-4.3164552626e-02
 3.9763810118e-01	 2.1757314753e+00	-1.2446852236e-02
 3.7832524870e-01	 2.1791726414e+00	 1.6306715519e-02
 5.7520693675e-01	 2.1478451028e+00	-3.3344854552e-01
 5.5567812486e-01	 2.1529801210e+00	-2.9295727263e-01
 5.3615192711e-01	 2.1579255377e+00	-2.5342869483e-01
 5.1663090096e-01	 2.1626821153e+00	-2.1494676444e-01
 4.9711757690e-01	 2.1672506579e+00	-1.7760613669e-01
 4.7761445768e-01	 2.1716320113e+00	-1.4151389476e-01
 4.5812401759e-01	 2.1758270613e+00	-1.0679150502e-01
 4.3864870173e-01	 2.1798367331e+00	-7.3576954916e-02
 4.1919092534e-01	 2.1836619905e+00	-4.2027026683e-02
 3.9975307315e-01	 2.1873038348e+00	-1.2319661454e-02
 3.8033749877e-01	 2.1907633040e+00	 1.5343630580e-02
 5.7825018175e-01	 2.1592086982e+00	-3.2782821464e-01
 5.5861804887e-01	 2.1643708842e+00	-2.8786485505e-01
 5.3898854394e-01	 2.1693424656e+00	-2.4906554008e-01
 5.1936423798e-01	 2.1741242088e+00	-2.1149276650e-01
 4.9974767485e-01	 2.1787169222e+00	-1.7521891944e-01
 4.8014137056e-01	 2.1831214560e+00	-1.4032825385e-01
 4.6054781247e-01	 2.1873387007e+00	-1.0691911177e-01
 4.4096945864e-01	 2.1913695865e+00	-7.5106325703e-02
 4.2140873707e-01	 2.1952150822e+00	-4.5023759386e-02
 4.0186804511e-01	 2.1988761944e+00	-1.6826938577e-02
 3.8234974883e-01	 2.2023539665e+00	 9.3042742295e-03
 5.8129342676e-01	 2.1705722935e+00	-3.2196785838e-01
 5.6155797287e-01	 2.1757616474e+00	-2.8298728812e-01
 5.4182516077e-01	 2.1807593935e+00	-2.4543244429e-01
 5.2209757499e-01	 2.1855663023e+00	-2.0932976494e-01
 5.0237777280e-01	 2.1901831865e+00	-1.7471442144e-01
 4.8266828343e-01	 2.1946109007e+00	-1.4163259082e-01
 4.6297160736e-01	 2.1988503401e+00	-1.1014396935e-01
 4.4329021555e-01	 2.2029024398e+00	-8.0324475596e-02
 4.2362654880e-01	 2.2067681738e+00	-5.2269092317e-02
 4.0398301708e-01	 2.2104485539e+00	-2.6094797637e-02
 3.8436199889e-01	 2.2139446290e+00	-1.9435376733e-03
 5.8433667177e-01	 2.1819358889e+00	-3.1566355558e-01
 5.6449789687e-01	 2.1871524106e+00	-2.7818287551e-01
 5.4466177760e-01	 2.1921763214e+00	-2.4244310295e-01
 5.2483091200e-01	 2.1970083958e+00	-2.0842016524e-01
 5.0500787075e-01	 2.2016494508e+00	-1.7609722824e-01
 4.8519519631e-01	 2.2061003454e+00	-1.4546729396e-01
 4.6539540224e-01	 2.2103619795e+00	-1.1653604494e-01
 4.4561097246e-01	 2.2144352932e+00	-8.9324881342e-02
 4.2584436053e-01	 2.2183212655e+00	-6.3874098029e-02
 4.0609798904e-01	 2.2220209135e+00	-4.0246150037e-02
 3.8637424896e-01	 2.2255352916e+00	-1.7854228040e-02
 5.8737991678e-01	 2.1932994843e+00	-3.0871199707e-01
 5.6743782087e-01	 2.1985431738e+00	-2.7330957146e-01
 5.4749839442e-01	 2.2035932493e+00	-2.4001005058e-01
 5.2756424902e-01	 2.2084504893e+00	-2.0872454444e-01
 5.0763796870e-01	 2.2131157150e+00	-1.7936956751e-01
 4.8772210918e-01	 2.2175897900e+00	-1.5186999630e-01
 4.6781919713e-01	 2.2218736189e+00	-1.2616227903e-01
 4.4793172937e-01	 2.2259681466e+00	-1.0130042187e-01
 4.2806217226e-01	 2.2298743571e+00	-7.6274314522e-02
 4.0821296101e-01	 2.2335932730e+00	-5.1420528865e-02
 3.8838649902e-01	 2.2371259541e+00	-2.7105369960e-02
 5.9042316179e-01	 2.2046630797e+00	-3.0091041076e-01
 5.7037774487e-01	 2.2099339370e+00	-2.6822493272e-01
 5.5033501125e-01	 2.2150101772e+00	-2.3804463615e-01
 5.3029758603e-01	 2.2198925828e+00	-2.1020164669e-01
 5.1026806664e-01	 2.2245819793e+00	-1.8416472406e-01
 4.9024902206e-01	 2.2290792347e+00	-1.5784631119e-01
 4.7024299201e-01	 2.2333852584e+00	-1.3113219409e-01
 4.5025248627e-01	 2.2375010000e+00	-1.0427065074e-01
 4.3027998399e-01	 2.2414274488e+00	-7.7533244231e-02
 4.1032793297e-01	 2.2451656325e+00	-5.1213706074e-02
 3.9039874909e-01	 2.2487166166e+00	-2.5627002891e-02
 5.9346640679e-01	 2.2160266751e+00	-2.9205648834e-01
 5.7331766888e-01	 2.2213247002e+00	-2.6278607134e-01
 5.5317162808e-01	 2.2264271051e+00	-2.3530593897e-01
 5.3303092304e-01	 2.2313346763e+00	-2.0744149973e-01
 5.1289816459e-01	 2.2360482436e+00	-1.7926638754e-01
 4.9277593493e-01	 2.2405686794e+00	-1.5092679204e-01
 4.7266678689e-01	 2.2448968978e+00	-1.2259214744e-01
 4.5257324318e-01	 2.2490338533e+00	-9.4453725053e-02
 4.3249779572e-01	 2.2529805404e+00	-6.6723427645e-02
 4.1244290494e-01	 2.2567379921e+00	-3.9632780836e-02
 3.9241099915e-01	 2.2603072792e+00	-1.3432115708e-02
 3.7228849851e-01	 2.1444006538e+00	-9.8931122711e-03
 3.5330466695e-01	 2.1476099764e+00	 1.7551667973e-02
 3.3434716996e-01	 2.1506428576e+00	 4.2707499813e-02
 3.1541822260e-01	 2.1535004144e+00	 6.5928882753e-02
 2.9652000722e-01	 2.1561837957e+00	 8.7523375742e-02
 2.7765467298e-01	 2.1586941816e+00	 1.0775104383e-01
 2.5882433545e-01	 2.1610327826e+00	 1.2682633477e-01
 2.4003107618e-01	 2.1632008383e+00	 1.4491992720e-01
 2.2127694236e-01	 2.1651996168e+00	 1.6216058971e-01
 2.0256394644e-01	 2.1670304132e+00	 1.7863708719e-01
 1.8389406585e-01	 2.1686945494e+00	 1.9440016818e-01
 3.7430074857e-01	 2.1559913164e+00	 3.5483157009e-03
 3.5521430783e-01	 2.1592179856e+00	 3.1021797473e-02
 3.3615434401e-01	 2.1622672598e+00	 5.6056446191e-02
 3.1712308413e-01	 2.1651402619e+00	 7.9025342432e-02
 2.9812272233e-01	 2.1678381471e+00	 1.0025963331e-01
 2.7915541940e-01	 2.1703621018e+00	 1.2003998888e-01
 2.6022330234e-01	 2.1727133432e+00	 1.3859824478e-01
 2.4132846396e-01	 2.1748931174e+00	 1.5611902599e-01
 2.2247296249e-01	 2.1769026994e+00	 1.7274139284e-01
 2.0365882129e-01	 2.1787433915e+00	 1.8856054721e-01
 1.8488802845e-01	 2.1804165224e+00	 2.0362963442e-01
 3.7631299864e-01	 2.1675819789e+00	 1.2328802910e-02
 3.5712394872e-01	 2.1708259948e+00	 3.9455499310e-02
 3.3796151806e-01	 2.1738916620e+00	 6.4062459135e-02
 3.1882794566e-01	 2.1767801094e+00	 8.6534590781e-02
 2.9972543745e-01	 2.1794924984e+00	 1.0722439105e-01
 2.8065616583e-01	 2.1820300221e+00	 1.2643098726e-01
 2.6162226924e-01	 2.1843939037e+00	 1.4440153394e-01
 2.4262585174e-01	 2.1865853965e+00	 1.6133260041e-01
 2.2366898263e-01	 2.1886057821e+00	 1.7737159205e-01
 2.0475369613e-01	 2.1904563697e+00	 1.9261824523e-01
 1.8588199105e-01	 2.1921384955e+00	 2.0712623270e-01
 3.7832524870e-01	 2.1791726414e+00	 1.6306715519e-02
 3.5903358961e-01	 2.1824340040e+00	 4.2709326067e-02
 3.3976869211e-01	 2.1855160641e+00	 6.6581563676e-02
 3.2053280718e-01	 2.1884199569e+00	 8.8314655871e-02
 3.0132815256e-01	 2.1911468498e+00	 1.0828037480e-01
 2.8215691225e-01	 2.1936979423e+00	 1.2679431923e-01
 2.6302123614e-01	 2.1960744643e+00	 1.4411705288e-01
 2.4392323951e-01	 2.1982776756e+00	 1.6045524359e-01
 2.2486500277e-01	 2.2003088647e+00	 1.7596284788e-01
 2.0584857098e-01	 2.2021693480e+00	 1.9074238291e-01
 1.8687595366e-01	 2.2038604685e+00	 2.0484632407e-01
 3.8033749877e-01	 2.1907633040e+00	 1.5343630580e-02
 3.6094323050e-01	 2.1940420132e+00	 4.0643056113e-02
 3.4157586616e-01	 2.1971404663e+00	 6.3472767254e-02
 3.2223766871e-01	 2.2000598044e+00	 8.4226265484e-02
 3.0293086767e-01	 2.2028012012e+00	 1.0329268895e-01
 2.8365765868e-01	 2.2053658625e+00	 1.2100228488e-01
 2.6442020303e-01	 2.2077550249e+00	 1.3762727677e-01
 2.4522062729e-01	 2.2099699547e+00	 1.5338274230e-01
 2.2606102290e-01	 2.2120119474e+00	 1.6842754897e-01
 2.0694344583e-01	 2.2138823262e+00	 1.8286539089e-01
 1.8786991626e-01	 2.2155824416e+00	 1.9674596689e-01
 3.8234974883e-01	 2.2023539665e+00	 9.3042742295e-03
 3.6285287138e-01	 2.2056500224e+00	 3.3119623054e-02
 3.4338304021e-01	 2.2087648685e+00	 5.4597993583e-02
 3.2394253024e-01	 2.2116996519e+00	 7.4132786147e-02
 3.0453358279e-01	 2.2144555526e+00	 9.2128761439e-02
 2.8515840510e-01	 2.2170337828e+00	 1.0892915599e-01
 2.6581916993e-01	 2.2194355854e+00	 1.2481626481e-01
 2.4651801507e-01	 2.2216622338e+00	 1.4001204508e-01
 2.2725704304e-01	 2.2237150300e+00	 1.5478657206e-01
 2.0803832068e-01	 2.2255953045e+00	 1.6942810749e-01
 1.8886387886e-01	 2.2273044146e+00	 1.8385746682e-01
 3.8436199889e-01	 2.2139446290e+00	-1.9435376733e-03
 3.6476251227e-01	 2.2172580315e+00	 2.0005047517e-02
 3.4519021427e-01	 2.2203892706e+00	 3.9822018752e-02
 3.2564739177e-01	 2.2233394994e+00	 5.7974594239e-02
 3.0613629790e-01	 2.2261099040e+00	 7.5497565006e-02
 2.8665915153e-01	 2.2287017030e+00	 9.2690264314e-02
 2.6721813682e-01	 2.2311161460e+00	 1.0961953058e-01
 2.4781540285e-01	 2.2333545129e+00	 1.2630916408e-01
 2.2845306318e-01	 2.2354181127e+00	 1.4274226906e-01
 2.0913319553e-01	 2.2373082827e+00	 1.5886333107e-01
 1.8985784147e-01	 2.2390263877e+00	 1.7458006335e-01
 3.8637424896e-01	 2.2255352916e+00	-1.7854228040e-02
 3.6667215316e-01	 2.2288660407e+00	 3.8040007606e-03
 3.4699738832e-01	 2.2320136728e+00	 2.4593081821e-02
 3.2735225330e-01	 2.2349793469e+00	 4.4615108900e-02
 3.0773901302e-01	 2.2377642554e+00	 6.4025641674e-02
 2.8815989795e-01	 2.2403696232e+00	 8.2932660256e-02
 2.6861710372e-01	 2.2427967066e+00	 1.0139940686e-01
 2.4911279063e-01	 2.2450467919e+00	 1.1944688394e-01
 2.2964908331e-01	 2.2471211953e+00	 1.3705604446e-01
 2.1022807038e-01	 2.2490212610e+00	 1.5416971006e-01
 1.9085180407e-01	 2.2507483607e+00	 1.7069425233e-01
 3.8838649902e-01	 2.2371259541e+00	-2.7105369960e-02
 3.6858179405e-01	 2.2404740499e+00	-3.7087645613e-03
 3.4880456237e-01	 2.2436380750e+00	 1.8698915065e-02
 3.2905711483e-01	 2.2466191943e+00	 4.0200940874e-02
 3.0934172813e-01	 2.2494186068e+00	 6.0944320479e-02
 2.8966064438e-01	 2.2520375435e+00	 8.1029797249e-02
 2.7001607062e-01	 2.2544772671e+00	 1.0051455293e-01
 2.5041017840e-01	 2.2567390710e+00	 1.1941455534e-01
 2.3084510345e-01	 2.2588242780e+00	 1.3770658860e-01
 2.1132294523e-01	 2.2607342392e+00	 1.5533000332e-01
 1.9184576667e-01	 2.2624703338e+00	 1.7218822386e-01
 3.9039874909e-01	 2.2487166166e+00	-2.5627002891e-02
 3.7049143493e-01	 2.2520820591e+00	-1.1162882921e-03
 3.5061173642e-01	 2.2552624771e+00	 2.2306774302e-02
 3.3076197635e-01	 2.2582590418e+00	 4.4710647698e-02
 3.1094444324e-01	 2.2610729582e+00	 6.6230941534e-02
 2.9116139080e-01	 2.2637054637e+00	 8.6958564696e-02
 2.7141503751e-01	 2.2661578277e+00	 1.0694227805e-01
 2.5170756618e-01	 2.2684313501e+00	 1.2619088356e-01
 2.3204112359e-01	 2.2705273606e+00	 1.4467508594e-01
 2.1241782008e-01	 2.2724472175e+00	 1.6232906590e-01
 1.9283972928e-01	 2.2741923068e+00	 1.7905180400e-01
 3.9241099915e-01	 2.2603072792e+00	-1.3432115708e-02
 3.7240107582e-01	 2.2636900683e+00	 1.1569079965e-02
 3.5241891047e-01	 2.2668868793e+00	 3.5400567988e-02
 3.3246683788e-01	 2.2698988893e+00	 5.8126241412e-02
 3.1254715836e-01	 2.2727273096e+00	 7.9866223646e-02
 2.9266213723e-01	 2.2753733839e+00	 1.0069909294e-01
 2.7281400441e-01	 2.2778383883e+00	 1.2066293258e-01
 2.5300495396e-01	 2.2801236292e+00	 1.3975735309e-01
 2.3323714372e-01	 2.2822304433e+00	 1.5794517628e-01
 2.1351269493e-01	 2.2841601958e+00	 1.7515382244e-01
 1.9383369188e-01	 2.2859142799e+00	 1.9127644110e-01
 1.8389406585e-01	 2.1686945494e+00	 1.9440016818e-01
 1.6527239732e-01	 2.1701931315e+00	 2.0880873980e-01
 1.4669763302e-01	 2.1715278272e+00	 2.2124987880e-01
 1.2817160037e-01	 2.1727000304e+00	 2.3176028643e-01
 1.0969609189e-01	 2.1737111576e+00	 2.4035041236e-01
 9.1272865132e-02	 2.1745626469e+00	 2.4700710366e-01
 7.2903642414e-02	 2.1752559572e+00	 2.5169647250e-01
 5.4590110745e-02	 2.1757925669e+00	 2.5436699446e-01
 3.6333921693e-02	 2.1761739734e+00	 2.5495284667e-01
 1.8136691296e-02	 2.1764016919e+00	 2.5337749159e-01
 0.0000000000e+00	 2.1764772549e+00	 2.4955750908e-01
 1.8488802845e-01	 2.1804165224e+00	 2.0362963442e-01
 1.6616570826e-01	 2.1819232045e+00	 2.1733980596e-01
 1.4749054584e-01	 2.1832651143e+00	 2.2910856445e-01
 1.2886437844e-01	 2.1844436534e+00	 2.3896650853e-01
 1.1028900832e-01	 2.1854602458e+00	 2.4691387930e-01
 9.1766202502e-02	 2.1863163375e+00	 2.5292309590e-01
 7.3297692619e-02	 2.1870133952e+00	 2.5694153023e-01
 5.4885174799e-02	 2.1875529053e+00	 2.5889453348e-01
 3.6530309539e-02	 2.1879363733e+00	 2.5868872385e-01
 1.8234721610e-02	 2.1881653227e+00	 2.5621554174e-01
 0.0000000000e+00	 2.1882412941e+00	 2.5135507515e-01
 1.8588199105e-01	 2.1921384955e+00	 2.0712623270e-01
 1.6705901921e-01	 2.1936532775e+00	 2.2032248081e-01
 1.4828345865e-01	 2.1950024015e+00	 2.3165920563e-01
 1.2955715652e-01	 2.1961872764e+00	 2.4116008169e-01
 1.1088192476e-01	 2.1972093340e+00	 2.4881427709e-01
 9.2259539871e-02	 2.1980700281e+00	 2.5457886678e-01
 7.3691742823e-02	 2.1987708332e+00	 2.5838150609e-01
 5.5180238854e-02	 2.1993132437e+00	 2.6012337789e-01
 3.6726697385e-02	 2.1996987733e+00	 2.5968242312e-01
 1.8332751923e-02	 2.1999289535e+00	 2.5691686114e-01
 0.0000000000e+00	 2.2000053333e+00	 2.5166900312e-01
 1.8687595366e-01	 2.2038604685e+00	 2.0484632407e-01
 1.6795233016e-01	 2.2053833505e+00	 2.1774080102e-01
 1.4907637147e-01	 2.2067396886e+00	 2.2891692203e-01
 1.3024993460e-01	 2.2079308994e+00	 2.3839073011e-01
 1.1147484119e-01	 2.2089584223e+00	 2.4613956479e-01
 9.2752877241e-02	 2.2098237187e+00	 2.5210434394e-01
 7.4085793028e-02	 2.2105282712e+00	 2.5619212768e-01
 5.5475302908e-02	 2.2110735821e+00	 2.5827897831e-01
 3.6923085230e-02	 2.2114611732e+00	 2.5821312659e-01
 1.8430782237e-02	 2.2116925843e+00	 2.5581845099e-01
 0.0000000000e+00	 2.2117693726e+00	 2.5089827332e-01
 1.8786991626e-01	 2.2155824416e+00	 1.9674596689e-01
 1.6884564111e-01	 2.2171134235e+00	 2.0957794249e-01
 1.4986928428e-01	 2.2184769758e+00	 2.2089539436e-01
 1.3094271268e-01	 2.2196745224e+00	 2.3070614194e-01
 1.1206775762e-01	 2.2207075105e+00	 2.3897505084e-01
 9.3246214610e-02	 2.2215774093e+00	 2.4562617367e-01
 7.4479843232e-02	 2.2222857092e+00	 2.5054539791e-01
 5.5770366963e-02	 2.2228339206e+00	 2.5358956386e-01
 3.7119473076e-02	 2.2232235732e+00	 2.5456936476e-01
 1.8528812550e-02	 2.2234562151e+00	 2.5326647993e-01
 0.0000000000e+00	 2.2235334118e+00	 2.4944425447e-01
 1.8886387886e-01	 2.2273044146e+00	 1.8385746682e-01
 1.6973895206e-01	 2.2288434965e+00	 1.9751254162e-01
 1.5066219709e-01	 2.2302142629e+00	 2.0988001425e-01
 1.3163549076e-01	 2.2314181454e+00	 2.2088641565e-01
 1.1266067405e-01	 2.2324565987e+00	 2.3043234182e-01
 9.3739551979e-02	 2.2333310999e+00	 2.3839354786e-01
 7.4873893437e-02	 2.2340431472e+00	 2.4462199226e-01
 5.6065431017e-02	 2.2345942590e+00	 2.4894685699e-01
 3.7315860922e-02	 2.2349859731e+00	 2.5117556686e-01
 1.8626842864e-02	 2.2352198459e+00	 2.5109483053e-01
 0.0000000000e+00	 2.2352974510e+00	 2.4847172293e-01
 1.8985784147e-01	 2.2390263877e+00	 1.7458006335e-01
 1.7063226300e-01	 2.2405735696e+00	 1.8938918824e-01
 1.5145510991e-01	 2.2419515501e+00	 2.0284255377e-01
 1.3232826884e-01	 2.2431617684e+00	 2.1487590829e-01
 1.1325359048e-01	 2.2442056870e+00	 2.2539885767e-01
 9.4232889348e-02	 2.2450847905e+00	 2.3429577740e-01
 7.5267943641e-02	 2.2458005852e+00	 2.4142667822e-01
 5.6360495072e-02	 2.2463545974e+00	 2.4662805175e-01
 3.7512248768e-02	 2.2467483731e+00	 2.4971372111e-01
 1.8724873178e-02	 2.2469834767e+00	 2.5047571959e-01
 0.0000000000e+00	 2.2470614902e+00	 2.4868521841e-01
 1.9085180407e-01	 2.2507483607e+00	 1.7069425233e-01
 1.7152557395e-01	 2.2523036426e+00	 1.8618805725e-01
 1.5224802272e-01	 2.2536888372e+00	 2.0027163115e-01
 1.3302104691e-01	 2.2549053914e+00	 2.1288970509e-01
 1.1384650691e-01	 2.2559547752e+00	 2.2396078828e-01
 9.4726226718e-02	 2.2568384811e+00	 2.3337788826e-01
 7.5661993846e-02	 2.2575580232e+00	 2.4100918786e-01
 5.6655559126e-02	 2.2581149358e+00	 2.4669870658e-01
 3.7708636614e-02	 2.2585107731e+00	 2.5026697257e-01
 1.8822903491e-02	 2.2587471075e+00	 2.5151172944e-01
 0.0000000000e+00	 2.2588255294e+00	 2.5020869989e-01
 1.9184576667e-01	 2.2624703338e+00	 1.7218822386e-01
 1.7241888490e-01	 2.2640337156e+00	 1.8790402768e-01
 1.5304093553e-01	 2.2654261244e+00	 2.0216995960e-01
 1.3371382499e-01	 2.2666490144e+00	 2.1493959409e-01
 1.1443942334e-01	 2.2677038634e+00	 2.2614033252e-01
 9.5219564087e-02	 2.2685921717e+00	 2.3567392122e-01
 7.6056044050e-02	 2.2693154612e+00	 2.4341692951e-01
 5.6950623181e-02	 2.2698752742e+00	 2.4922121667e-01
 3.7905024460e-02	 2.2702731730e+00	 2.5291441530e-01
 1.8920933805e-02	 2.2705107383e+00	 2.5430045631e-01
 0.0000000000e+00	 2.2705895686e+00	 2.5316015880e-01
 1.9283972928e-01	 2.2741923068e+00	 1.7905180400e-01
 1.7331219585e-01	 2.2757637886e+00	 1.9453309671e-01
 1.5383384835e-01	 2.2771634115e+00	 2.0854080009e-01
 1.3440660307e-01	 2.2783926374e+00	 2.2103728875e-01
 1.1503233977e-01	 2.2794529517e+00	 2.3195894119e-01
 9.5712901456e-02	 2.2803458623e+00	 2.4121644519e-01
 7.6450094255e-02	 2.2810728992e+00	 2.4869506634e-01
 5.7245687235e-02	 2.2816356127e+00	 2.5425491029e-01
 3.8101412306e-02	 2.2820355730e+00	 2.5773120706e-01
 1.9018964118e-02	 2.2822743691e+00	 2.5893464420e-01
 0.0000000000e+00	 2.2823536079e+00	 2.5765177286e-01
 1.9383369188e-01	 2.2859142799e+00	 1.9127644110e-01
 1.7420550680e-01	 2.2874938616e+00	 2.0607237962e-01
 1.5462676116e-01	 2.2889006987e+00	 2.1938797533e-01
 1.3509938115e-01	 2.2901362604e+00	 2.3119445657e-01
 1.1562525620e-01	 2.2912020399e+00	 2.4143736088e-01
 9.6206238826e-02	 2.2920995529e+00	 2.5003661687e-01
 7.6844144460e-02	 2.2928303372e+00	 2.5688659258e-01
 5.7540751290e-02	 2.2933959511e+00	 2.6185614211e-01
 3.8297800152e-02	 2.2937979729e+00	 2.6478868052e-01
 1.9116994432e-02	 2.2940379999e+00	 2.6550231460e-01
 0.0000000000e+00	 2.2941176471e+00	 2.6379005509e-01
 2.2941176471e+00	 0.0000000000e+00	 2.2730932929e+00
 2.2940379999e+00	 1.9116994432e-02	 2.2756148883e+00
 2.2937979729e+00	 3.8297800152e-02	 2.2756609474e+00
 2.2933959511e+00	 5.7540751290e-02	 2.2733099639e+00
 2.2928303372e+00	 7.6844144460e-02	 2.2686675038e+00
 2.2920995529e+00	 9.6206238826e-02	 2.2618645556e+00
 2.2912020399e+00	 1.1562525620e-01	 2.2530558416e+00
 2.2901362604e+00	 1.3509938115e-01	 2.2424181117e+00
 2.2889006987e+00	 1.5462676116e-01	 2.2301484404e+00
 2.2874938616e+00	 1.7420550680e-01	 2.2164625537e+00
 2.2859142799e+00	 1.9383369188e-01	 2.2015932100e+00
 2.3058816863e+00	 0.0000000000e+00	 2.2500485164e+00
 2.3058016307e+00	 1.9215024746e-02	 2.2519024038e+00
 2.3055603729e+00	 3.8494187998e-02	 2.2512488312e+00
 2.3051562895e+00	 5.7835815344e-02	 2.2481787757e+00
 2.3045877752e+00	 7.7238194665e-02	 2.2428101594e+00
 2.3038532435e+00	 9.6699576196e-02	 2.2352860428e+00
 2.3029511281e+00	 1.1621817263e-01	 2.2257727739e+00
 2.3018798834e+00	 1.3579215923e-01	 2.2144581132e+00
 2.3006379858e+00	 1.5541967398e-01	 2.2015493595e+00
 2.2992239346e+00	 1.7509881774e-01	 2.1872714997e+00
 2.2976362529e+00	 1.9482765448e-01	 2.1718654115e+00
 2.3176457255e+00	 0.0000000000e+00	 2.2284555518e+00
 2.3175652615e+00	 1.9313055059e-02	 2.2297703806e+00
 2.3173227728e+00	 3.8690575844e-02	 2.2285525499e+00
 2.3169166279e+00	 5.8130879399e-02	 2.2249029192e+00
 2.3163452132e+00	 7.7632244870e-02	 2.2189491574e+00
 2.3156069341e+00	 9.7192913566e-02	 2.2108437780e+00
 2.3147002164e+00	 1.1681108906e-01	 2.2007621238e+00
 2.3136235064e+00	 1.3648493731e-01	 2.1889003223e+00
 2.3123752730e+00	 1.5621258679e-01	 2.1754732373e+00
 2.3109540076e+00	 1.7599212869e-01	 2.1607124411e+00
 2.3093582259e+00	 1.9582161709e-01	 2.1448642356e+00
 2.3294097647e+00	 0.0000000000e+00	 2.2083157764e+00
 2.3293288922e+00	 1.9411085373e-02	 2.2092003981e+00
 2.3290851728e+00	 3.8886963690e-02	 2.2075343210e+00
 2.3286769663e+00	 5.8425943454e-02	 2.2034257822e+00
 2.3281026512e+00	 7.8026295075e-02	 2.1970096852e+00
 2.3273606247e+00	 9.7686250936e-02	 2.1884454755e+00
 2.3264493046e+00	 1.1740400549e-01	 2.1779149594e+00
 2.3253671294e+00	 1.3717771539e-01	 2.1656200876e+00
 2.3241125601e+00	 1.5700549961e-01	 2.1517807311e+00
 2.3226840806e+00	 1.7688543964e-01	 2.1366324727e+00
 2.3210801990e+00	 1.9681557969e-01	 2.1204244458e+00
 2.3411738039e+00	 0.0000000000e+00	 2.1896318913e+00
 2.3410925230e+00	 1.9509115686e-02	 2.1901755985e+00
 2.3408475727e+00	 3.9083351536e-02	 2.1881581507e+00
 2.3404373048e+00	 5.8721007509e-02	 2.1836927525e+00
 2.3398600892e+00	 7.8420345280e-02	 2.1769191263e+00
 2.3391143153e+00	 9.8179588307e-02	 2.1680012268e+00
 2.3381983928e+00	 1.1799692192e-01	 2.1571248907e+00
 2.3371107524e+00	 1.3787049347e-01	 2.1444954483e+00
 2.3358498473e+00	 1.5779841242e-01	 2.1303353198e+00
 2.3344141536e+00	 1.7777875059e-01	 2.1148816254e+00
 2.3328021720e+00	 1.9780954230e-01	 2.0983838380e+00
 2.3529378432e+00	 0.0000000000e+00	 2.1724078879e+00
 2.3528561538e+00	 1.9607146000e-02	 2.1726806485e+00
 2.3526099727e+00	 3.9279739382e-02	 2.1703897895e+00
 2.3521976432e+00	 5.9016071564e-02	 2.1656511679e+00
 2.3516175272e+00	 7.8814395486e-02	 2.1586070055e+00
 2.3508680059e+00	 9.8672925677e-02	 2.1494234398e+00
 2.3499474810e+00	 1.1858983836e-01	 2.1382880045e+00
 2.3488543754e+00	 1.3856327155e-01	 2.1254070642e+00
 2.3475871344e+00	 1.5859132524e-01	 2.1110032310e+00
 2.3461442266e+00	 1.7867206154e-01	 2.0953127894e+00
 2.3445241451e+00	 1.9880350490e-01	 2.0785831609e+00
 2.3647018824e+00	 0.0000000000e+00	 2.1566490158e+00
 2.3646197846e+00	 1.9705176314e-02	 2.1567017013e+00
 2.3643723726e+00	 3.9476127228e-02	 2.1541966892e+00
 2.3639579816e+00	 5.9311135619e-02	 2.1492502679e+00
 2.3633749652e+00	 7.9208445691e-02	 2.1420049348e+00
 2.3626216965e+00	 9.9166263048e-02	 2.1326267815e+00
 2.3616965693e+00	 1.1918275479e-01	 2.1213028019e+00
 2.3605979984e+00	 1.3925604963e-01	 2.1082381494e+00
 2.3593244216e+00	 1.5938423806e-01	 2.0936533701e+00
 2.3578742996e+00	 1.7956537249e-01	 2.0777816396e+00
 2.3562461181e+00	 1.9979746751e-01	 2.0608660380e+00
 2.3764659216e+00	 0.0000000000e+00	 2.1423617520e+00
 2.3763834154e+00	 1.9803206627e-02	 2.1422263600e+00
 2.3761347726e+00	 3.9672515074e-02	 2.1395479607e+00
 2.3757183200e+00	 5.9606199674e-02	 2.1344411467e+00
 2.3751324032e+00	 7.9602495897e-02	 2.1270465623e+00
 2.3743753871e+00	 9.9659600419e-02	 2.1175281205e+00
 2.3734456575e+00	 1.1977567122e-01	 2.1060701371e+00
 2.3723416214e+00	 1.3994882771e-01	 2.0928744068e+00
 2.3710617087e+00	 1.6017715087e-01	 2.0781572508e+00
 2.3696043726e+00	 1.8045868344e-01	 2.0621465634e+00
 2.3679680912e+00	 2.0079143012e-01	 2.0450788926e+00
 2.3882299608e+00	 0.0000000000e+00	 2.1295537704e+00
 2.3881470462e+00	 1.9901236941e-02	 2.1292436425e+00
 2.3878971725e+00	 3.9868902920e-02	 2.1264143337e+00
 2.3874786584e+00	 5.9901263729e-02	 2.1211767075e+00
 2.3868898412e+00	 7.9996546103e-02	 2.1136675212e+00
 2.3861290777e+00	 1.0015293779e-01	 2.1040464728e+00
 2.3851947457e+00	 1.2036858765e-01	 2.0924931583e+00
 2.3840852444e+00	 1.4064160579e-01	 2.0792039649e+00
 2.3827989958e+00	 1.6097006369e-01	 2.0643889289e+00
 2.3813344456e+00	 1.8135199440e-01	 2.0482685900e+00
 2.3796900642e+00	 2.0178539272e-01	 2.0310708741e+00
 2.3999940000e+00	 0.0000000000e+00	 2.1182339125e+00
 2.3999106770e+00	 1.9999267255e-02	 2.1177439463e+00
 2.3996595725e+00	 4.0065290767e-02	 2.1147681173e+00
 2.3992389968e+00	 6.0196327785e-02	 2.1094116187e+00
 2.3986472792e+00	 8.0390596308e-02	 2.1018053813e+00
 2.3978827683e+00	 1.0064627516e-01	 2.0921029478e+00
 2.3969438340e+00	 1.2096150409e-01	 2.0804772500e+00
 2.3958288674e+00	 1.4133438387e-01	 2.0671173161e+00
 2.3945362830e+00	 1.6176297651e-01	 2.0522249367e+00
 2.3930645186e+00	 1.8224530535e-01	 2.0360113227e+00
 2.3914120373e+00	 2.0277935533e-01	 2.0186937873e+00
 2.4117580392e+00	 0.0000000000e+00	 2.1084121589e+00
 2.4116743078e+00	 2.0097297568e-02	 2.1077190162e+00
 2.4114219724e+00	 4.0261678613e-02	 2.1045831613e+00
 2.4109993353e+00	 6.0491391840e-02	 2.0991022700e+00
 2.4104047172e+00	 8.0784646514e-02	 2.0913996011e+00
 2.4096364589e+00	 1.0113961253e-01	 2.0816206969e+00
 2.4086929222e+00	 1.2155442052e-01	 2.0699299772e+00
 2.4075724904e+00	 1.4202716195e-01	 2.0565072575e+00
 2.4062735701e+00	 1.6255588932e-01	 2.0415442202e+00
 2.4047945917e+00	 1.8313861630e-01	 2.0252408719e+00
 2.4031340103e+00	 2.0377331793e-01	 2.0078020226e+00
 2.2859142799e+00	 1.9383369188e-01	 2.2015932100e+00
 2.2841601958e+00	 2.1351269493e-01	 2.1849288466e+00
 2.2822304433e+00	 2.3323714372e-01	 2.1657115745e+00
 2.2801236292e+00	 2.5300495396e-01	 2.1439691767e+00
 2.2778383883e+00	 2.7281400441e-01	 2.1197428633e+00
 2.2753733839e+00	 2.9266213723e-01	 2.0930867095e+00
 2.2727273096e+00	 3.1254715836e-01	 2.0640673396e+00
 2.2698988893e+00	 3.3246683788e-01	 2.0327638919e+00
 2.2668868793e+00	 3.5241891047e-01	 1.9992682992e+00
 2.2636900683e+00	 3.7240107582e-01	 1.9636939555e+00
 2.2603072792e+00	 3.9241099915e-01	 1.9271696462e+00
 2.2976362529e+00	 1.9482765448e-01	 2.1718654115e+00
 2.2958731740e+00	 2.1460756978e-01	 2.1547551494e+00
 2.2939335259e+00	 2.3443316386e-01	 2.1352096192e+00
 2.2918159083e+00	 2.5430234174e-01	 2.1132487500e+00
 2.2895189488e+00	 2.7421297130e-01	 2.0889037394e+00
 2.2870413042e+00	 2.9416288365e-01	 2.0622163237e+00
 2.2843816610e+00	 3.1414987347e-01	 2.0332382971e+00
 2.2815387368e+00	 3.3417169941e-01	 2.0020313176e+00
 2.2785112814e+00	 3.5422608452e-01	 1.9686670356e+00
 2.2752980775e+00	 3.7431071671e-01	 1.9332577821e+00
 2.2718979417e+00	 3.9442324921e-01	 1.8970214949e+00
 2.3093582259e+00	 1.9582161709e-01	 2.1448642356e+00
 2.3075861523e+00	 2.1570244463e-01	 2.1273849088e+00
 2.3056366085e+00	 2.3562918400e-01	 2.1075694159e+00
 2.3035081874e+00	 2.5559972952e-01	 2.0854311490e+00
 2.3011995094e+00	 2.7561193820e-01	 2.0609926403e+00
 2.2987092244e+00	 2.9566363008e-01	 2.0342846566e+00
 2.2960360123e+00	 3.1575258858e-01	 2.0053455489e+00
 2.2931785843e+00	 3.3587656094e-01	 1.9742208927e+00
 2.2901356836e+00	 3.5603325857e-01	 1.9409634584e+00
 2.2869060867e+00	 3.7622035759e-01	 1.9056992489e+00
 2.2834886043e+00	 3.9643549927e-01	 1.8697062705e+00
 2.3210801990e+00	 1.9681557969e-01	 2.1204244458e+00
 2.3192991305e+00	 2.1679731948e-01	 2.1026420083e+00
 2.3173396912e+00	 2.3682520414e-01	 2.0826056033e+00
 2.3152004664e+00	 2.5689711730e-01	 2.0603234443e+00
 2.3128800700e+00	 2.7701090510e-01	 2.0358107836e+00
 2.3103771446e+00	 2.9716437650e-01	 2.0090888267e+00
 2.3076903637e+00	 3.1735530370e-01	 1.9801839047e+00
 2.3048184318e+00	 3.3758142246e-01	 1.9491269433e+00
 2.3017600858e+00	 3.5784043262e-01	 1.9159532679e+00
 2.2985140959e+00	 3.7812999848e-01	 1.8808163813e+00
 2.2950792668e+00	 3.9844774934e-01	 1.8450264557e+00
 2.3328021720e+00	 1.9780954230e-01	 2.0983838380e+00
 2.3310121088e+00	 2.1789219433e-01	 2.0803534395e+00
 2.3290427738e+00	 2.3802122427e-01	 2.0601359820e+00
 2.3268927455e+00	 2.5819450508e-01	 2.0377358995e+00
 2.3245606305e+00	 2.7840987199e-01	 2.0131625910e+00
 2.3220450649e+00	 2.9866512293e-01	 1.9864291473e+00
 2.3193447151e+00	 3.1895801881e-01	 1.9575513408e+00
 2.3164582793e+00	 3.3928628399e-01	 1.9265469152e+00
 2.3133844879e+00	 3.5964760667e-01	 1.8934352197e+00
 2.3101221051e+00	 3.8003963936e-01	 1.8584100668e+00
 2.3066699293e+00	 4.0045999940e-01	 1.8227873103e+00
 2.3445241451e+00	 1.9880350490e-01	 2.0785831609e+00
 2.3427250870e+00	 2.1898706918e-01	 2.0603492203e+00
 2.3407458565e+00	 2.3921724441e-01	 2.0399814299e+00
 2.3385850246e+00	 2.5949189286e-01	 2.0174818860e+00
 2.3362411911e+00	 2.7980883889e-01	 1.9928556017e+00
 2.3337129851e+00	 3.0016586935e-01	 1.9661090399e+00
 2.3309990665e+00	 3.2056073392e-01	 1.9372489131e+00
 2.3280981268e+00	 3.4099114552e-01	 1.9062812880e+00
 2.3250088901e+00	 3.6145478072e-01	 1.8732110411e+00
 2.3217301142e+00	 3.8194928025e-01	 1.8382839833e+00
 2.3182605919e+00	 4.0247224946e-01	 1.8027968033e+00
 2.3562461181e+00	 1.9979746751e-01	 2.0608660380e+00
 2.3544380653e+00	 2.2008194403e-01	 2.0424623143e+00
 2.3524489391e+00	 2.4041326455e-01	 2.0219658202e+00
 2.3502773037e+00	 2.6078928064e-01	 1.9993777991e+00
 2.3479217516e+00	 2.8120780579e-01	 1.9747003877e+00
 2.3453809053e+00	 3.0166661578e-01	 1.9479349488e+00
 2.3426534179e+00	 3.2216344904e-01	 1.9190806730e+00
 2.3397379743e+00	 3.4269600705e-01	 1.8881334922e+00
 2.3366332922e+00	 3.6326195477e-01	 1.8550853488e+00
 2.3333381234e+00	 3.8385892114e-01	 1.8202445305e+00
 2.3298512544e+00	 4.0448449952e-01	 1.7848655470e+00
 2.3679680912e+00	 2.0079143012e-01	 2.0450788926e+00
 2.3661510435e+00	 2.2117681888e-01	 2.0265285528e+00
 2.3641520218e+00	 2.4160928469e-01	 2.0059159408e+00
 2.3619695828e+00	 2.6208666842e-01	 1.9832429763e+00
 2.3596023122e+00	 2.8260677268e-01	 1.9585104720e+00
 2.3570488256e+00	 3.0316736220e-01	 1.9317162591e+00
 2.3543077693e+00	 3.2376616415e-01	 1.9028535850e+00
 2.3513778218e+00	 3.4440086857e-01	 1.8719098273e+00
 2.3482576944e+00	 3.6506912882e-01	 1.8388655695e+00
 2.3449461326e+00	 3.8576856202e-01	 1.8041007618e+00
 2.3414419169e+00	 4.0649674958e-01	 1.7688067329e+00
 2.3796900642e+00	 2.0178539272e-01	 2.0310708741e+00
 2.3778640218e+00	 2.2227169373e-01	 2.0123865591e+00
 2.3758551044e+00	 2.4280530483e-01	 1.9916614175e+00
 2.3736618619e+00	 2.6338405619e-01	 1.9688996187e+00
 2.3712828728e+00	 2.8400573958e-01	 1.9441022478e+00
 2.3687167458e+00	 3.0466810863e-01	 1.9172652160e+00
 2.3659621207e+00	 3.2536887926e-01	 1.8883774467e+00
 2.3630176693e+00	 3.4610573010e-01	 1.8574193828e+00
 2.3598820966e+00	 3.6687630287e-01	 1.8243618617e+00
 2.3565541418e+00	 3.8767820290e-01	 1.7896643198e+00
 2.3530325795e+00	 4.0850899964e-01	 1.7544360701e+00
 2.3914120373e+00	 2.0277935533e-01	 2.0186937873e+00
 2.3895770000e+00	 2.2336656858e-01	 1.9998776750e+00
 2.3875581871e+00	 2.4400132497e-01	 1.9790346375e+00
 2.3853541410e+00	 2.6468144397e-01	 1.9561727135e+00
 2.3829634333e+00	 2.8540470648e-01	 1.9312949014e+00
 2.3803846660e+00	 3.0616885505e-01	 1.9043968471e+00
 2.3776164721e+00	 3.2697159438e-01	 1.8754648111e+00
 2.3746575168e+00	 3.4781059163e-01	 1.8444739615e+00
 2.3715064987e+00	 3.6868347692e-01	 1.8113870405e+00
 2.3681621510e+00	 3.8958784379e-01	 1.7767493723e+00
 2.3646232420e+00	 4.1052124970e-01	 1.7415717246e+00
 2.4031340103e+00	 2.0377331793e-01	 2.0078020226e+00
 2.4012899783e+00	 2.2446144344e-01	 1.9888458888e+00
 2.3992612697e+00	 2.4519734510e-01	 1.9678706764e+00
 2.3970464200e+00	 2.6597883175e-01	 1.9448899597e+00
 2.3946439939e+00	 2.8680367337e-01	 1.9199103364e+00
 2.3920525863e+00	 3.0766960148e-01	 1.8929288862e+00
 2.3892708235e+00	 3.2857430949e-01	 1.8639309107e+00
 2.3862973643e+00	 3.4951545315e-01	 1.8328880041e+00
 2.3831309009e+00	 3.7049065097e-01	 1.7997565147e+00
 2.3797701602e+00	 3.9149748467e-01	 1.7651725514e+00
 2.3762139045e+00	 4.1253349977e-01	 1.7300342607e+00
 2.2603072792e+00	 3.9241099915e-01	 1.9271696462e+00
 2.2567379921e+00	 4.1244290494e-01	 1.8894996401e+00
 2.2529805404e+00	 4.3249779572e-01	 1.8494835362e+00
 2.2490338533e+00	 4.5257324318e-01	 1.8069881402e+00
 2.2448968978e+00	 4.7266678689e-01	 1.7618880977e+00
 2.2405686794e+00	 4.9277593493e-01	 1.7140655934e+00
 2.2360482436e+00	 5.1289816459e-01	 1.6634101822e+00
 2.2313346763e+00	 5.3303092304e-01	 1.6098187534e+00
 2.2264271051e+00	 5.5317162808e-01	 1.5531956309e+00
 2.2213247002e+00	 5.7331766888e-01	 1.4935000887e+00
 2.2160266751e+00	 5.9346640679e-01	 1.4328939821e+00
 2.2718979417e+00	 3.9442324921e-01	 1.8970214949e+00
 2.2683103516e+00	 4.1455787690e-01	 1.8597004957e+00
 2.2645336320e+00	 4.3471560745e-01	 1.8202143800e+00
 2.2605667067e+00	 4.5489400009e-01	 1.7785002028e+00
 2.2564085372e+00	 4.7509058177e-01	 1.7345014563e+00
 2.2520581241e+00	 4.9530284781e-01	 1.6881676760e+00
 2.2475145079e+00	 5.1552826254e-01	 1.6394541826e+00
 2.2427767698e+00	 5.3576426005e-01	 1.5883219602e+00
 2.2378440330e+00	 5.5600824490e-01	 1.5347376753e+00
 2.2327154634e+00	 5.7625759288e-01	 1.4786738362e+00
 2.2273902704e+00	 5.9650965180e-01	 1.4201090944e+00
 2.2834886043e+00	 3.9643549927e-01	 1.8697062705e+00
 2.2798827111e+00	 4.1667284886e-01	 1.8326781387e+00
 2.2760867237e+00	 4.3693341918e-01	 1.7936430234e+00
 2.2720995601e+00	 4.5721475700e-01	 1.7525959414e+00
 2.2679201766e+00	 4.7751437665e-01	 1.7095368925e+00
 2.2635475688e+00	 4.9782976068e-01	 1.6644703892e+00
 2.2589807721e+00	 5.1815836049e-01	 1.6174051246e+00
 2.2542188633e+00	 5.3849759707e-01	 1.5683537830e+00
 2.2492609609e+00	 5.5884486173e-01	 1.5173329941e+00
 2.2441062266e+00	 5.7919751688e-01	 1.4643634328e+00
 2.2387538658e+00	 5.9955289681e-01	 1.4094700653e+00
 2.2950792668e+00	 3.9844774934e-01	 1.8450264557e+00
 2.2914550707e+00	 4.1878782082e-01	 1.8082415868e+00
 2.2876398153e+00	 4.3915123090e-01	 1.7695875113e+00
 2.2836324134e+00	 4.5953551390e-01	 1.7291051036e+00
 2.2794318160e+00	 4.7993817153e-01	 1.6868387156e+00
 2.2750370135e+00	 5.0035667355e-01	 1.6428356445e+00
 2.2704470364e+00	 5.2078845843e-01	 1.5971457453e+00
 2.2656609568e+00	 5.4123093408e-01	 1.5498211884e+00
 2.2606778888e+00	 5.6168147855e-01	 1.5009163675e+00
 2.2554969898e+00	 5.8213744088e-01	 1.4504879566e+00
 2.2501174612e+00	 6.0259614181e-01	 1.3985951194e+00
 2.3066699293e+00	 4.0045999940e-01	 1.8227873103e+00
 2.3030274302e+00	 4.2090279279e-01	 1.7862025245e+00
 2.2991929070e+00	 4.4136904263e-01	 1.7478684111e+00
 2.2951652668e+00	 4.6185627081e-01	 1.7078597774e+00
 2.2909434555e+00	 4.8236196642e-01	 1.6662533502e+00
 2.2865264581e+00	 5.0288358643e-01	 1.6231271988e+00
 2.2819133007e+00	 5.2341855638e-01	 1.5785603063e+00
 2.2771030503e+00	 5.4396427109e-01	 1.5326322926e+00
 2.2720948167e+00	 5.6451809538e-01	 1.4854232919e+00
 2.2668877530e+00	 5.8507736488e-01	 1.4370139853e+00
 2.2614810566e+00	 6.0563938682e-01	 1.3874857904e+00
 2.3182605919e+00	 4.0247224946e-01	 1.8027968033e+00
 2.3145997897e+00	 4.2301776475e-01	 1.7663752394e+00
 2.3107459986e+00	 4.4358685436e-01	 1.7283087542e+00
 2.3066981202e+00	 4.6417702772e-01	 1.6886943385e+00
 2.3024550949e+00	 4.8478576130e-01	 1.6476292922e+00
 2.2980159028e+00	 5.0541049930e-01	 1.6052106179e+00
 2.2933795650e+00	 5.2604865433e-01	 1.5615345673e+00
 2.2885451438e+00	 5.4669760810e-01	 1.5166963459e+00
 2.2835117446e+00	 5.6735471220e-01	 1.4707899775e+00
 2.2782785162e+00	 5.8801728888e-01	 1.4239083289e+00
 2.2728446520e+00	 6.0868263183e-01	 1.3761432986e+00
 2.3298512544e+00	 4.0448449952e-01	 1.7848655470e+00
 2.3261721493e+00	 4.2513273671e-01	 1.7485765607e+00
 2.3222990903e+00	 4.4580466609e-01	 1.7107339794e+00
 2.3182309736e+00	 4.6649778462e-01	 1.6714453998e+00
 2.3139667343e+00	 4.8720955618e-01	 1.6308170646e+00
 2.3095053475e+00	 5.0793741217e-01	 1.5889532412e+00
 2.3048458292e+00	 5.2867875227e-01	 1.5459557605e+00
 2.2999872373e+00	 5.4943094511e-01	 1.5019237188e+00
 2.2949286725e+00	 5.7019132903e-01	 1.4569533464e+00
 2.2896692794e+00	 5.9095721288e-01	 1.4111380423e+00
 2.2842082474e+00	 6.1172587683e-01	 1.3645685782e+00
 2.3414419169e+00	 4.0649674958e-01	 1.7688067329e+00
 2.3377445088e+00	 4.2724770867e-01	 1.7326257986e+00
 2.3338521819e+00	 4.4802247781e-01	 1.6949718774e+00
 2.3297638269e+00	 4.6881854153e-01	 1.6559517623e+00
 2.3254783737e+00	 4.8963335106e-01	 1.6156691754e+00
 2.3209947922e+00	 5.1046432505e-01	 1.5742241477e+00
 2.3163120935e+00	 5.3130885022e-01	 1.5317125656e+00
 2.3114293308e+00	 5.5216428212e-01	 1.4882258871e+00
 2.3063456004e+00	 5.7302794585e-01	 1.4438510302e+00
 2.3010600426e+00	 5.9389713688e-01	 1.3986704358e+00
 2.2955718427e+00	 6.1476912184e-01	 1.3527623041e+00
 2.3530325795e+00	 4.0850899964e-01	 1.7544360701e+00
 2.3493168684e+00	 4.2936268063e-01	 1.7183446869e+00
 2.3454052736e+00	 4.5024028954e-01	 1.6808525380e+00
 2.3412966803e+00	 4.7113929843e-01	 1.6420543672e+00
 2.3369900131e+00	 4.9205714594e-01	 1.6020400766e+00
 2.3324842369e+00	 5.1299123792e-01	 1.5608941225e+00
 2.3277783578e+00	 5.3393894817e-01	 1.5186950858e+00
 2.3228714243e+00	 5.5489761913e-01	 1.4755154181e+00
 2.3177625283e+00	 5.7586456268e-01	 1.4314213680e+00
 2.3124508058e+00	 5.9683706088e-01	 1.3864730869e+00
 2.3069354381e+00	 6.1781236685e-01	 1.3407249177e+00
 2.3646232420e+00	 4.1052124970e-01	 1.7415717246e+00
 2.3608892279e+00	 4.3147765259e-01	 1.7055573257e+00
 2.3569583652e+00	 4.5245810127e-01	 1.6682082974e+00
 2.3528295337e+00	 4.7346005534e-01	 1.6295962493e+00
 2.3485016525e+00	 4.9448094082e-01	 1.5897861240e+00
 2.3439736816e+00	 5.1551815079e-01	 1.5488356245e+00
 2.3392446221e+00	 5.3656904612e-01	 1.5067948238e+00
 2.3343135178e+00	 5.5763095615e-01	 1.4637059576e+00
 2.3291794562e+00	 5.7870117951e-01	 1.4196034038e+00
 2.3238415690e+00	 5.9977698488e-01	 1.3745138504e+00
 2.3182990335e+00	 6.2085561186e-01	 1.3284566519e+00
 2.3762139045e+00	 4.1253349977e-01	 1.7300342607e+00
 2.3724615874e+00	 4.3359262456e-01	 1.6940901272e+00
 2.3685114569e+00	 4.5467591300e-01	 1.6568736883e+00
 2.3643623870e+00	 4.7578081225e-01	 1.6184224921e+00
 2.3600132920e+00	 4.9690473570e-01	 1.5787655387e+00
 2.3554631263e+00	 5.1804506367e-01	 1.5379227552e+00
 2.3507108863e+00	 5.3919914406e-01	 1.4959046594e+00
 2.3457556113e+00	 5.6036429316e-01	 1.4527122158e+00
 2.3405963841e+00	 5.8153779633e-01	 1.4083368848e+00
 2.3352323323e+00	 6.0271690889e-01	 1.3627608689e+00
 2.3296626289e+00	 6.2389885687e-01	 1.3159575544e+00
 2.2160266751e+00	 5.9346640679e-01	 1.4328939821e+00
 2.2105322880e+00	 6.1361517647e-01	 1.3723201251e+00
 2.2048408444e+00	 6.3376128753e-01	 1.3115125628e+00
 2.1989516964e+00	 6.5390202470e-01	 1.2505788091e+00
 2.1928642428e+00	 6.7403464844e-01	 1.1895994268e+00
 2.1865779302e+00	 6.9415639586e-01	 1.1286277939e+00
 2.1800922538e+00	 7.1426448172e-01	 1.0676908345e+00
 2.1734067580e+00	 7.3435609940e-01	 1.0067907914e+00
 2.1665210373e+00	 7.5442842198e-01	 9.4593333411e-01
 2.1594347371e+00	 7.7447860323e-01	 8.8534944900e-01
 2.1521475540e+00	 7.9450377875e-01	 8.2537705863e-01
 2.2273902704e+00	 5.9650965180e-01	 1.4201090944e+00
 2.2218677086e+00	 6.1676174264e-01	 1.3586198577e+00
 2.2161470798e+00	 6.3701116124e-01	 1.2958573729e+00
 2.2102277328e+00	 6.5725517839e-01	 1.2335616183e+00
 2.2041090632e+00	 6.7749104051e-01	 1.1717437591e+00
 2.1977905149e+00	 6.9771597053e-01	 1.1103845786e+00
 2.1912715805e+00	 7.1792716893e-01	 1.0494350599e+00
 2.1845518021e+00	 7.3812181471e-01	 9.8881804237e-01
 2.1776307720e+00	 7.5829706645e-01	 9.2848464792e-01
 2.1705081338e+00	 7.7845006332e-01	 8.6864285430e-01
 2.1631835827e+00	 7.9857792622e-01	 8.0955812916e-01
 2.2387538658e+00	 5.9955289681e-01	 1.4094700653e+00
 2.2332031293e+00	 6.1990830882e-01	 1.3522948958e+00
 2.2274533152e+00	 6.4026103495e-01	 1.2922523670e+00
 2.2215037691e+00	 6.6060833208e-01	 1.2290660912e+00
 2.2153538836e+00	 6.8094743257e-01	 1.1651410637e+00
 2.2090030997e+00	 7.0127554519e-01	 1.1021134089e+00
 2.2024509073e+00	 7.2158985614e-01	 1.0398846589e+00
 2.1956968462e+00	 7.4188753002e-01	 9.7832437437e-01
 2.1887405067e+00	 7.6216571091e-01	 9.1736894366e-01
 2.1815815306e+00	 7.8242152340e-01	 8.5721610257e-01
 2.1742196115e+00	 8.0265207369e-01	 7.9808154067e-01
 2.2501174612e+00	 6.0259614181e-01	 1.3985951194e+00
 2.2445385499e+00	 6.2305487499e-01	 1.3449595935e+00
 2.2387595506e+00	 6.4351090866e-01	 1.2890123314e+00
 2.2327798055e+00	 6.6396148577e-01	 1.2303857006e+00
 2.2265987040e+00	 6.8440382464e-01	 1.1687230446e+00
 2.2202156844e+00	 7.0483511986e-01	 1.1039081016e+00
 2.2136302340e+00	 7.2525254335e-01	 1.0391317290e+00
 2.2068418903e+00	 7.4565324533e-01	 9.7539514627e-01
 2.1998502414e+00	 7.6603435538e-01	 9.1265729531e-01
 2.1926549274e+00	 7.8639298348e-01	 8.5111713626e-01
 2.1852556402e+00	 8.0672622116e-01	 7.9096437542e-01
 2.2614810566e+00	 6.0563938682e-01	 1.3874857904e+00
 2.2558739705e+00	 6.2620144117e-01	 1.3366439061e+00
 2.2500657860e+00	 6.4676078237e-01	 1.2839631942e+00
 2.2440558418e+00	 6.6731463946e-01	 1.2290366992e+00
 2.2378435244e+00	 6.8786021670e-01	 1.1714672811e+00
 2.2314282691e+00	 7.0839469452e-01	 1.1108693685e+00
 2.2248095608e+00	 7.2891523056e-01	 1.0468708634e+00
 2.2179869344e+00	 7.4941896064e-01	 9.8011295062e-01
 2.2109599761e+00	 7.6990299984e-01	 9.1441674956e-01
 2.2037283241e+00	 7.9036444356e-01	 8.5039022103e-01
 2.1962916689e+00	 8.1080036863e-01	 7.8822055822e-01
 2.2728446520e+00	 6.0868263183e-01	 1.3761432986e+00
 2.2672093912e+00	 6.2934800734e-01	 1.3273833540e+00
 2.2613720214e+00	 6.5001065608e-01	 1.2771703781e+00
 2.2553318782e+00	 6.7066779315e-01	 1.2250812235e+00
 2.2490883448e+00	 6.9131660876e-01	 1.1707012422e+00
 2.2426408539e+00	 7.1195426919e-01	 1.1136261048e+00
 2.2359888875e+00	 7.3257791777e-01	 1.0534637767e+00
 2.2291319784e+00	 7.5318467595e-01	 9.8985402495e-01
 2.2220697108e+00	 7.7377164431e-01	 9.2271037005e-01
 2.2148017209e+00	 7.9433590364e-01	 8.5507597974e-01
 2.2073276976e+00	 8.1487451610e-01	 7.8986087606e-01
 2.2842082474e+00	 6.1172587683e-01	 1.3645685782e+00
 2.2785448118e+00	 6.3249457352e-01	 1.3172126558e+00
 2.2726782568e+00	 6.5326052979e-01	 1.2686980872e+00
 2.2666079145e+00	 6.7402094684e-01	 1.2186082872e+00
 2.2603331653e+00	 6.9477300083e-01	 1.1665336994e+00
 2.2538534386e+00	 7.1551384385e-01	 1.1120736487e+00
 2.2471682142e+00	 7.3624060499e-01	 1.0548383583e+00
 2.2402770225e+00	 7.5695039126e-01	 9.9448660360e-01
 2.2331794455e+00	 7.7764028877e-01	 9.3099003318e-01
 2.2258751176e+00	 7.9830736372e-01	 8.6448613658e-01
 2.2183637263e+00	 8.1894866357e-01	 7.9589299597e-01
 2.2955718427e+00	 6.1476912184e-01	 1.3527623041e+00
 2.2898802324e+00	 6.3564113969e-01	 1.3061657698e+00
 2.2839844922e+00	 6.5651040351e-01	 1.2586093606e+00
 2.2778839509e+00	 6.7737410053e-01	 1.2097054389e+00
 2.2715779857e+00	 6.9822939289e-01	 1.1590717688e+00
 2.2650660234e+00	 7.1907341852e-01	 1.1063333736e+00
 2.2583475410e+00	 7.3990329220e-01	 1.0511245598e+00
 2.2514220666e+00	 7.6071610657e-01	 9.9315329145e-01
 2.2442891802e+00	 7.8150893323e-01	 9.3246543335e-01
 2.2369485144e+00	 8.0227882380e-01	 8.6922749965e-01
 2.2293997550e+00	 8.2302281104e-01	 8.0362419723e-01
 2.3069354381e+00	 6.1781236685e-01	 1.3407249177e+00
 2.3012156531e+00	 6.3878770587e-01	 1.2942759337e+00
 2.2952907276e+00	 6.5976027722e-01	 1.2469661252e+00
 2.2891599872e+00	 6.8072725423e-01	 1.1984588233e+00
 2.2828228061e+00	 7.0168578496e-01	 1.1484209800e+00
 2.2762786081e+00	 7.2263299319e-01	 1.0965249976e+00
 2.2695268677e+00	 7.4356597941e-01	 1.0424506129e+00
 2.2625671107e+00	 7.6448182188e-01	 9.8598612117e-01
 2.2553989149e+00	 7.8537757770e-01	 9.2726336329e-01
 2.2480219112e+00	 8.0625028388e-01	 8.6649740303e-01
 2.2404357837e+00	 8.2709695850e-01	 8.0392075732e-01
 2.3182990335e+00	 6.2085561186e-01	 1.3284566519e+00
 2.3125510737e+00	 6.4193427205e-01	 1.2815757042e+00
 2.3065969630e+00	 6.6301015093e-01	 1.2338292456e+00
 2.3004360236e+00	 6.8408040792e-01	 1.1849532415e+00
 2.2940676265e+00	 7.0514217702e-01	 1.1346853420e+00
 2.2874911928e+00	 7.2619256785e-01	 1.0827666537e+00
 2.2807061945e+00	 7.4722866662e-01	 1.0289437739e+00
 2.2737121548e+00	 7.6824753719e-01	 9.7311545552e-01
 2.2665086497e+00	 7.8924622216e-01	 9.1551000306e-01
 2.2590953079e+00	 8.1022174396e-01	 8.5641117990e-01
 2.2514718124e+00	 8.3117110597e-01	 7.9611919847e-01
 2.3296626289e+00	 6.2389885687e-01	 1.3159575544e+00
 2.3238864943e+00	 6.4508083822e-01	 1.2680969938e+00
 2.3179031984e+00	 6.6626002464e-01	 1.2192585736e+00
 2.3117120599e+00	 6.8743356161e-01	 1.1692722087e+00
 2.3053124469e+00	 7.0859856909e-01	 1.1179674079e+00
 2.2987037776e+00	 7.2975214252e-01	 1.0651749580e+00
 2.2918855212e+00	 7.5089135383e-01	 1.0107305182e+00
 2.2848571989e+00	 7.7201325250e-01	 9.5467006281e-01
 2.2776183844e+00	 7.9311486663e-01	 8.9733021142e-01
 2.2701687047e+00	 8.1419320404e-01	 8.3908324435e-01
 2.2625078411e+00	 8.3524525344e-01	 7.8031660451e-01
 2.1521475540e+00	 7.9450377875e-01	 8.2537705863e-01
 2.1446579467e+00	 8.1450446407e-01	 7.6557342792e-01
 2.1369669375e+00	 8.3447435279e-01	 7.0532139503e-01
 2.1290743800e+00	 8.5441053016e-01	 6.4460888231e-01
 2.1209801821e+00	 8.7431006781e-01	 5.8338106436e-01
 2.1126843063e+00	 8.9417002489e-01	 5.2154070165e-01
 2.1041867703e+00	 9.1398744934e-01	 4.5894896061e-01
 2.0954876475e+00	 9.3375937913e-01	 3.9542673720e-01
 2.0865870675e+00	 9.5348284352e-01	 3.3075649851e-01
 2.0774852163e+00	 9.7315486438e-01	 2.6468465477e-01
 2.0681823373e+00	 9.9277245747e-01	 1.9692447104e-01
 2.1631835827e+00	 7.9857792622e-01	 8.0955812916e-01
 2.1556555694e+00	 8.1868117335e-01	 7.5069908266e-01
 2.1479251213e+00	 8.3875346595e-01	 6.9141622032e-01
 2.1399920914e+00	 8.5879187434e-01	 6.3170622918e-01
 2.1318563872e+00	 8.7879345511e-01	 5.7152073714e-01
 2.1235179709e+00	 8.9875525235e-01	 5.1076660150e-01
 2.1149768603e+00	 9.1867429886e-01	 4.4930669963e-01
 2.1062331291e+00	 9.3854761742e-01	 3.8696123942e-01
 2.0972869076e+00	 9.5837222205e-01	 3.2350960481e-01
 2.0881383830e+00	 9.7814511935e-01	 2.5869274912e-01
 2.0787877996e+00	 9.9786330978e-01	 1.9221614629e-01
 2.1742196115e+00	 8.0265207369e-01	 7.9808154067e-01
 2.1666531920e+00	 8.2285788263e-01	 7.3935005088e-01
 2.1588833051e+00	 8.4303257911e-01	 6.8032520283e-01
 2.1509098029e+00	 8.6317321851e-01	 6.2100666062e-01
 2.1427325923e+00	 8.8327684241e-01	 5.6134669601e-01
 2.1343516354e+00	 9.0334047982e-01	 5.0125043853e-01
 2.1257669502e+00	 9.2336114839e-01	 4.4057664368e-01
 2.1169786107e+00	 9.4333585570e-01	 3.7913899766e-01
 2.1079867478e+00	 9.6326160058e-01	 3.1670797456e-01
 2.0987915496e+00	 9.8313537432e-01	 2.5301325941e-01
 2.0893932618e+00	 1.0029541621e+00	 1.8774674750e-01
 2.1852556402e+00	 8.0672622116e-01	 7.9096437542e-01
 2.1776508147e+00	 8.2703459190e-01	 7.3150958376e-01
 2.1698414889e+00	 8.4731169226e-01	 6.7199986921e-01
 2.1618275143e+00	 8.6755456268e-01	 6.1243219743e-01
 2.1536087974e+00	 8.8776022971e-01	 5.5275378411e-01
 2.1451853000e+00	 9.0792570728e-01	 4.9286231292e-01
 2.1365570401e+00	 9.2804799791e-01	 4.3260668808e-01
 2.1277240922e+00	 9.4812409399e-01	 3.7178834064e-01
 2.1186865879e+00	 9.6815097910e-01	 3.1016310497e-01
 2.1094447162e+00	 9.8812562929e-01	 2.4744367962e-01
 2.0999987241e+00	 1.0080450144e+00	 1.8330268334e-01
 2.1962916689e+00	 8.1080036863e-01	 7.8822055822e-01
 2.1886484373e+00	 8.3121130117e-01	 7.2715836827e-01
 2.1807996727e+00	 8.5159080542e-01	 6.6638974771e-01
 2.1727452258e+00	 8.7193590685e-01	 6.0590339899e-01
 2.1644850025e+00	 8.9224361701e-01	 5.4563588959e-01
 2.1560189645e+00	 9.1251093474e-01	 4.8547184417e-01
 2.1473471300e+00	 9.3273484743e-01	 4.2524468810e-01
 2.1384695738e+00	 9.5291233228e-01	 3.6473796232e-01
 2.1293864280e+00	 9.7304035763e-01	 3.0368722679e-01
 2.1200978828e+00	 9.9311588426e-01	 2.4178256703e-01
 2.1106041864e+00	 1.0131358667e+00	 1.7867171532e-01
 2.2073276976e+00	 8.1487451610e-01	 7.8986087606e-01
 2.1996460600e+00	 8.3538801045e-01	 7.2627453083e-01
 2.1917578565e+00	 8.5586991858e-01	 6.6344235695e-01
 2.1836629372e+00	 8.7631725102e-01	 6.0133933794e-01
 2.1753612076e+00	 8.9672700431e-01	 5.3988590732e-01
 2.1668526291e+00	 9.1709616220e-01	 4.7894812092e-01
 2.1581372199e+00	 9.3742169695e-01	 4.1833839793e-01
 2.1492150553e+00	 9.5770057057e-01	 3.5781685128e-01
 2.1400862682e+00	 9.7792973616e-01	 2.9709322535e-01
 2.1307510495e+00	 9.9810613923e-01	 2.3582945615e-01
 2.1212096486e+00	 1.0182267190e+00	 1.7364286592e-01
 2.2183637263e+00	 8.1894866357e-01	 7.9589299597e-01
 2.2106436826e+00	 8.3956471972e-01	 7.2883363979e-01
 2.2027160403e+00	 8.6014903173e-01	 6.6310319376e-01
 2.1945806487e+00	 8.8069859519e-01	 5.9865757445e-01
 2.1862374127e+00	 9.0121039161e-01	 5.3539570048e-01
 2.1776862936e+00	 9.2168138967e-01	 4.7315965097e-01
 2.1689273098e+00	 9.4210854647e-01	 4.1173541031e-01
 2.1599605369e+00	 9.6248880886e-01	 3.5085422098e-01
 2.1507861083e+00	 9.8281911469e-01	 2.9019456271e-01
 2.1414042161e+00	 1.0030963942e+00	 2.2938477397e-01
 2.1318151109e+00	 1.0233175713e+00	 1.6800632825e-01
 2.2293997550e+00	 8.2302281104e-01	 8.0362419723e-01
 2.2216413052e+00	 8.4374142900e-01	 7.3480870659e-01
 2.2136742241e+00	 8.6442814489e-01	 6.6531572022e-01
 2.2054983601e+00	 8.8507993936e-01	 5.9777413000e-01
 2.1971136178e+00	 9.0569377891e-01	 5.3205606217e-01
 2.1885199582e+00	 9.2626661713e-01	 4.6797431161e-01
 2.1797173997e+00	 9.4679539599e-01	 4.0528309668e-01
 2.1707060184e+00	 9.6727704714e-01	 3.4367944090e-01
 2.1614859485e+00	 9.8770849321e-01	 2.8280520084e-01
 2.1520573827e+00	 1.0080866492e+00	 2.2224975646e-01
 2.1424205731e+00	 1.0284084236e+00	 1.6155337705e-01
 2.2404357837e+00	 8.2709695850e-01	 8.0392075732e-01
 2.2326389279e+00	 8.4791813827e-01	 7.3867759474e-01
 2.2246324079e+00	 8.6870725805e-01	 6.6972988319e-01
 2.2164160716e+00	 8.8946128353e-01	 5.9860346081e-01
 2.2079898228e+00	 9.1017716621e-01	 5.2975667684e-01
 2.1993536227e+00	 9.3085184459e-01	 4.6325930021e-01
 2.1905074896e+00	 9.5148224551e-01	 3.9882854782e-01
 2.1814515000e+00	 9.7206528543e-01	 3.3612196837e-01
 2.1721857886e+00	 9.9259787174e-01	 2.7473952587e-01
 2.1627105493e+00	 1.0130769041e+00	 2.1422636630e-01
 2.1530260354e+00	 1.0334992760e+00	 1.5407628117e-01
 2.2514718124e+00	 8.3117110597e-01	 7.9611919847e-01
 2.2436365505e+00	 8.5209484755e-01	 7.3381875994e-01
 2.2355905917e+00	 8.7298637120e-01	 6.6842184137e-01
 2.2273337830e+00	 8.9384262770e-01	 5.9981119651e-01
 2.2188660279e+00	 9.1466055351e-01	 5.2838608177e-01
 2.2101872873e+00	 9.3543707205e-01	 4.5888108502e-01
 2.2012975795e+00	 9.5616909503e-01	 3.9221851512e-01
 2.1921969815e+00	 9.7685352372e-01	 3.2801128127e-01
 2.1828856287e+00	 9.9748725027e-01	 2.6581227324e-01
 2.1733637160e+00	 1.0180671591e+00	 2.0511721170e-01
 2.1636314976e+00	 1.0385901283e+00	 1.4536821728e-01
 2.2625078411e+00	 8.3524525344e-01	 7.8031660451e-01
 2.2546341732e+00	 8.5627155682e-01	 7.2029403715e-01
 2.2465487755e+00	 8.7726548436e-01	 6.5789897066e-01
 2.2382514944e+00	 8.9822397188e-01	 5.9294080073e-01
 2.2297422330e+00	 9.1914394081e-01	 5.2524361714e-01
 2.2210209518e+00	 9.4002229952e-01	 4.5470535622e-01
 2.2120876695e+00	 9.6085594456e-01	 3.8529935227e-01
 2.2029424631e+00	 9.8164176201e-01	 3.1917681140e-01
 2.1935854689e+00	 1.0023766288e+00	 2.5583845386e-01
 2.1840168826e+00	 1.0230574141e+00	 1.9472546649e-01
 2.1742369599e+00	 1.0436809806e+00	 1.3522318488e-01
 2.0681823373e+00	 9.9277245747e-01	 1.9692447104e-01
 2.0586803632e+00	 1.0123293138e+00	 1.2780739771e-01
 2.0489780868e+00	 1.0318257809e+00	 5.8115390468e-02
 2.0390759225e+00	 1.0512588648e+00	-1.1773328912e-02
 2.0289743434e+00	 1.0706255707e+00	-8.1507968721e-02
 2.0186738808e+00	 1.0899229045e+00	-1.5076067002e-01
 2.0081751246e+00	 1.1091478741e+00	-2.1922147271e-01
 1.9974787237e+00	 1.1282974910e+00	-2.8636692961e-01
 1.9865853857e+00	 1.1473687715e+00	-3.5149615852e-01
 1.9754958772e+00	 1.1663587382e+00	-4.1421452988e-01
 1.9642110239e+00	 1.1852644216e+00	-4.7416989126e-01
 2.0787877996e+00	 9.9786330978e-01	 1.9221614629e-01
 2.0692371002e+00	 1.0175204520e+00	 1.2430296531e-01
 2.0594850713e+00	 1.0371168954e+00	 5.5627891286e-02
 2.0495321296e+00	 1.0566496304e+00	-1.3441321799e-02
 2.0393787504e+00	 1.0761156471e+00	-8.2566689140e-02
 2.0290254679e+00	 1.0955119360e+00	-1.5143538044e-01
 2.0184728750e+00	 1.1148354896e+00	-2.1974462992e-01
 2.0077216239e+00	 1.1340833041e+00	-2.8682896721e-01
 1.9967724258e+00	 1.1532523805e+00	-3.5211500003e-01
 1.9856260512e+00	 1.1723397261e+00	-4.1522467138e-01
 1.9742833301e+00	 1.1913423562e+00	-4.7582088031e-01
 2.0893932618e+00	 1.0029541621e+00	 1.8774674750e-01
 2.0797938371e+00	 1.0227115902e+00	 1.2101449585e-01
 2.0699920558e+00	 1.0424080098e+00	 5.3374018110e-02
 2.0599883366e+00	 1.0620403960e+00	-1.4824764761e-02
 2.0497831574e+00	 1.0816057236e+00	-8.3264055640e-02
 2.0393770550e+00	 1.1011009675e+00	-1.5165343699e-01
 2.0287706254e+00	 1.1205231051e+00	-2.1965977996e-01
 2.0179645240e+00	 1.1398691172e+00	-2.8655378992e-01
 2.0069594658e+00	 1.1591359895e+00	-3.5187079380e-01
 1.9957562253e+00	 1.1783207141e+00	-4.1525375370e-01
 1.9843556364e+00	 1.1974202909e+00	-4.7638760587e-01
 2.0999987241e+00	 1.0080450144e+00	 1.8330268334e-01
 2.0903505741e+00	 1.0279027284e+00	 1.1771983632e-01
 2.0804990403e+00	 1.0476991242e+00	 5.1125193602e-02
 2.0704445437e+00	 1.0674311617e+00	-1.6156420497e-02
 2.0601875644e+00	 1.0870958000e+00	-8.3834679024e-02
 2.0497286421e+00	 1.1066899990e+00	-1.5164886636e-01
 2.0390683758e+00	 1.1262107206e+00	-2.1919232803e-01
 2.0282074242e+00	 1.1456549303e+00	-2.8576429215e-01
 2.0171465059e+00	 1.1650195985e+00	-3.5097866802e-01
 2.0058863993e+00	 1.1843017020e+00	-4.1450646277e-01
 1.9944279426e+00	 1.2034982255e+00	-4.7606155983e-01
 2.1106041864e+00	 1.0131358667e+00	 1.7867171532e-01
 2.1009073110e+00	 1.0330938666e+00	 1.1419844378e-01
 2.0910060248e+00	 1.0529902386e+00	 4.8654683330e-02
 2.0809007507e+00	 1.0728219273e+00	-1.7667002611e-02
 2.0705919714e+00	 1.0925858764e+00	-8.4510943581e-02
 2.0600802292e+00	 1.1122790305e+00	-1.5165241095e-01
 2.0493661262e+00	 1.1318983361e+00	-2.1856864482e-01
 2.0384503244e+00	 1.1514407434e+00	-2.8468156210e-01
 2.0273335459e+00	 1.1709032075e+00	-3.4965187555e-01
 2.0160165733e+00	 1.1902826899e+00	-4.1318558848e-01
 2.0045002489e+00	 1.2095761602e+00	-4.7503236821e-01
 2.1212096486e+00	 1.0182267190e+00	 1.7364286592e-01
 2.1114640480e+00	 1.0382850048e+00	 1.1023128893e-01
 2.1015130093e+00	 1.0582813530e+00	 4.5737495544e-02
 2.0913569577e+00	 1.0782126929e+00	-1.9585278573e-02
 2.0809963785e+00	 1.0980759528e+00	-8.5523111747e-02
 2.0704318164e+00	 1.1178680620e+00	-1.5186559816e-01
 2.0596638766e+00	 1.1375859516e+00	-2.1801339116e-01
 2.0486932245e+00	 1.1572265565e+00	-2.8352485999e-01
 2.0375205860e+00	 1.1767868165e+00	-3.4810176801e-01
 2.0261467473e+00	 1.1962636778e+00	-4.1149199346e-01
 2.0145725551e+00	 1.2156540948e+00	-4.7348775334e-01
 2.1318151109e+00	 1.0233175713e+00	 1.6800632825e-01
 2.1220207849e+00	 1.0434761430e+00	 1.0560076116e-01
 2.1120199938e+00	 1.0635724674e+00	 4.2150282682e-02
 2.1018131648e+00	 1.0836034585e+00	-2.2138170864e-02
 2.0914007855e+00	 1.1035660292e+00	-8.7099426891e-02
 2.0807834035e+00	 1.1234570935e+00	-1.5250175663e-01
 2.0699616270e+00	 1.1432735671e+00	-2.1774949742e-01
 2.0589361247e+00	 1.1630123696e+00	-2.8251159447e-01
 2.0477076261e+00	 1.1826704255e+00	-3.4653776809e-01
 2.0362769213e+00	 1.2022446657e+00	-4.0962458012e-01
 2.0246448614e+00	 1.2217320295e+00	-4.7161349452e-01
 2.1424205731e+00	 1.0284084236e+00	 1.6155337705e-01
 2.1325775219e+00	 1.0486672812e+00	 1.0009057525e-01
 2.1225269783e+00	 1.0688635818e+00	 3.7671244528e-02
 2.1122693718e+00	 1.0889942241e+00	-2.5550856396e-02
 2.1018051925e+00	 1.1090561057e+00	-8.9466214313e-02
 2.0911349906e+00	 1.1290461250e+00	-1.5378535745e-01
 2.0802593774e+00	 1.1489611826e+00	-2.1799814121e-01
 2.0691790249e+00	 1.1687981827e+00	-2.8185729726e-01
 2.0578946661e+00	 1.1885540345e+00	-3.4516734011e-01
 2.0464070953e+00	 1.2082256537e+00	-4.0778025614e-01
 2.0347171676e+00	 1.2278099641e+00	-4.6959338728e-01
 2.1530260354e+00	 1.0334992760e+00	 1.5407628117e-01
 2.1431342588e+00	 1.0538584194e+00	 9.3485679540e-02
 2.1330339628e+00	 1.0741546963e+00	 3.2080032972e-02
 2.1227255789e+00	 1.0943849897e+00	-3.0046864227e-02
 2.1122095995e+00	 1.1145461821e+00	-9.2841251825e-02
 2.1014865777e+00	 1.1346351565e+00	-1.5593926130e-01
 2.0905571278e+00	 1.1546487981e+00	-2.1897872317e-01
 2.0794219250e+00	 1.1745839958e+00	-2.8177559604e-01
 2.0680817062e+00	 1.1944376434e+00	-3.4419595893e-01
 2.0565372693e+00	 1.2142066416e+00	-4.0615389830e-01
 2.0447894739e+00	 1.2338878988e+00	-4.6760920104e-01
 2.1636314976e+00	 1.0385901283e+00	 1.4536821728e-01
 2.1536909957e+00	 1.0590495576e+00	 8.5572165495e-02
 2.1435409473e+00	 1.0794458107e+00	 2.5157658323e-02
 2.1331817859e+00	 1.0997757553e+00	-3.5848171675e-02
 2.1226140065e+00	 1.1200362585e+00	-9.7422159143e-02
 2.1118381649e+00	 1.1402241880e+00	-1.5918469457e-01
 2.1008548782e+00	 1.1603364136e+00	-2.2090884114e-01
 2.0896648252e+00	 1.1803698089e+00	-2.8247818564e-01
 2.0782687462e+00	 1.2003212524e+00	-3.4382707729e-01
 2.0666674433e+00	 1.2201876295e+00	-4.0493831493e-01
 2.0548617801e+00	 1.2399658334e+00	-4.6584063562e-01
 2.1742369599e+00	 1.0436809806e+00	 1.3522318488e-01
 2.1642477327e+00	 1.0642406958e+00	 7.6137178750e-02
 2.1540479318e+00	 1.0847369251e+00	 1.6686397108e-02
 2.1436379930e+00	 1.1051665209e+00	-4.3175298844e-02
 2.1330184135e+00	 1.1255263349e+00	-1.0342774461e-01
 2.1221897520e+00	 1.1458132195e+00	-1.6374122385e-01
 2.1111526286e+00	 1.1660240291e+00	-2.2400426271e-01
 2.0999077254e+00	 1.1861556220e+00	-2.8417479770e-01
 2.0884557863e+00	 1.2062048614e+00	-3.4426209153e-01
 2.0767976173e+00	 1.2261686174e+00	-4.0432420676e-01
 2.0649340864e+00	 1.2460437681e+00	-4.6446527621e-01
 1.9642110239e+00	 1.1852644216e+00	-4.7416989126e-01
 1.9527317107e+00	 1.2040828615e+00	-5.3186705521e-01
 1.9410588834e+00	 1.2228111102e+00	-5.8825836970e-01
 1.9291935471e+00	 1.2414462322e+00	-6.4368948482e-01
 1.9171367654e+00	 1.2599853058e+00	-6.9850029536e-01
 1.9048896604e+00	 1.2784254243e+00	-7.5302202490e-01
 1.8924534124e+00	 1.2967636975e+00	-8.0757427345e-01
 1.8798292594e+00	 1.3149972530e+00	-8.6246204461e-01
 1.8670184973e+00	 1.3331232380e+00	-9.1797276859e-01
 1.8540224791e+00	 1.3511388203e+00	-9.7437333739e-01
 1.8408426146e+00	 1.3690411899e+00	-1.0294630424e+00
 1.9742833301e+00	 1.1913423562e+00	-4.7582088031e-01
 1.9627451520e+00	 1.2102572955e+00	-5.3414757500e-01
 1.9510124675e+00	 1.2290815810e+00	-5.9085973906e-01
 1.9390862867e+00	 1.2478122624e+00	-6.4626641893e-01
 1.9269676789e+00	 1.2664464028e+00	-7.0067395992e-01
 1.9146577718e+00	 1.2849810806e+00	-7.5438306798e-01
 1.9021577517e+00	 1.3034133909e+00	-8.0768583127e-01
 1.8894688632e+00	 1.3217404465e+00	-8.6086271763e-01
 1.8765924086e+00	 1.3399593800e+00	-9.1417956499e-01
 1.8635297479e+00	 1.3580673446e+00	-9.6788458113e-01
 1.8502822982e+00	 1.3760615161e+00	-1.0221539173e+00
 1.9843556364e+00	 1.1974202909e+00	-4.7638760587e-01
 1.9727585933e+00	 1.2164317295e+00	-5.3527833213e-01
 1.9609660515e+00	 1.2353520519e+00	-5.9230211087e-01
 1.9489790264e+00	 1.2541782926e+00	-6.4773172269e-01
 1.9367985924e+00	 1.2729074997e+00	-7.0184024123e-01
 1.9244258832e+00	 1.2915367369e+00	-7.5489806969e-01
 1.9118620911e+00	 1.3100630843e+00	-8.0716993320e-01
 1.8991084669e+00	 1.3284836401e+00	-8.5891184397e-01
 1.8861663199e+00	 1.3467955220e+00	-9.1036805620e-01
 1.8730370167e+00	 1.3649958690e+00	-9.6176802788e-01
 1.8597219818e+00	 1.3830818423e+00	-1.0133234065e+00
 1.9944279426e+00	 1.2034982255e+00	-4.7606155983e-01
 1.9827720346e+00	 1.2226061635e+00	-5.3543556272e-01
 1.9709196356e+00	 1.2416225228e+00	-5.9274516076e-01
 1.9588717660e+00	 1.2605443227e+00	-6.4822723312e-01
 1.9466295058e+00	 1.2793685967e+00	-7.0212188700e-01
 1.9341939945e+00	 1.2980923933e+00	-7.5466946567e-01
 1.9215664304e+00	 1.3167127777e+00	-8.0610750872e-01
 1.9087480707e+00	 1.3352268336e+00	-8.5666768180e-01
 1.8957402312e+00	 1.3536316640e+00	-9.0657269340e-01
 1.8825442855e+00	 1.3719243934e+00	-9.5603321603e-01
 1.8691616654e+00	 1.3901021685e+00	-1.0052448294e+00
 2.0045002489e+00	 1.2095761602e+00	-4.7503236821e-01
 1.9927854759e+00	 1.2287805975e+00	-5.3479370502e-01
 1.9808732196e+00	 1.2478929936e+00	-5.9234685798e-01
 1.9687645056e+00	 1.2669103529e+00	-6.4789319631e-01
 1.9564604193e+00	 1.2858296937e+00	-7.0164019369e-01
 1.9439621059e+00	 1.3046480496e+00	-7.5379840459e-01
 1.9312707697e+00	 1.3233624711e+00	-8.0457838934e-01
 1.9183876745e+00	 1.3419700271e+00	-8.5418760547e-01
 1.9053141424e+00	 1.3604678061e+00	-9.0282728344e-01
 1.8920515543e+00	 1.3788529178e+00	-9.5068930456e-01
 1.8786013490e+00	 1.3971224948e+00	-9.9795309899e-01
 2.0145725551e+00	 1.2156540948e+00	-4.7348775334e-01
 2.0027989172e+00	 1.2349550315e+00	-5.3352535413e-01
 1.9908268037e+00	 1.2541634645e+00	-5.9126341231e-01
 1.9786572452e+00	 1.2732763831e+00	-6.4686820596e-01
 1.9662913328e+00	 1.2922907906e+00	-7.0051493615e-01
 1.9537302172e+00	 1.3112037059e+00	-7.5238466838e-01
 1.9409751091e+00	 1.3300121645e+00	-8.0266121910e-01
 1.9280272783e+00	 1.3487132206e+00	-8.5152800572e-01
 1.9148880537e+00	 1.3673039481e+00	-8.9916487827e-01
 1.9015588231e+00	 1.3857814422e+00	-9.4574495130e-01
 1.8880410325e+00	 1.4041428210e+00	-9.9143145414e-01
 2.0246448614e+00	 1.2217320295e+00	-4.7161349452e-01
 2.0128123585e+00	 1.2411294655e+00	-5.3180121553e-01
 2.0007803877e+00	 1.2604339353e+00	-5.8964921982e-01
 1.9885499848e+00	 1.2796424132e+00	-6.4528914089e-01
 1.9761222463e+00	 1.2987518876e+00	-6.9886429658e-01
 1.9634983286e+00	 1.3177593622e+00	-7.5052659206e-01
 1.9506794484e+00	 1.3366618579e+00	-8.0043336480e-01
 1.9376668820e+00	 1.3554564141e+00	-8.4874418986e-01
 1.9244619650e+00	 1.3741400901e+00	-8.9561766464e-01
 1.9110660920e+00	 1.3927099666e+00	-9.4120819174e-01
 1.8974807161e+00	 1.4111631472e+00	-9.8566277890e-01
 2.0347171676e+00	 1.2278099641e+00	-4.6959338728e-01
 2.0228257998e+00	 1.2473038995e+00	-5.2979005716e-01
 2.0107339718e+00	 1.2667044062e+00	-5.8765680744e-01
 1.9984427244e+00	 1.2860084434e+00	-6.4329110174e-01
 1.9859531597e+00	 1.3052129845e+00	-6.9680479265e-01
 1.9732664400e+00	 1.3243150185e+00	-7.4832098306e-01
 1.9603837878e+00	 1.3433115513e+00	-7.9797082599e-01
 1.9473064858e+00	 1.3621996077e+00	-8.4589028206e-01
 1.9340358763e+00	 1.3809762321e+00	-8.9221685416e-01
 1.9205733608e+00	 1.3996384910e+00	-9.3708631844e-01
 1.9069203997e+00	 1.4181834734e+00	-9.8062947099e-01
 2.0447894739e+00	 1.2338878988e+00	-4.6760920104e-01
 2.0328392412e+00	 1.2534783335e+00	-5.2765866028e-01
 2.0206875558e+00	 1.2729748771e+00	-5.8543677652e-01
 2.0083354641e+00	 1.2923744736e+00	-6.4100734660e-01
 1.9957840732e+00	 1.3116740815e+00	-6.9445120505e-01
 1.9830345513e+00	 1.3308706748e+00	-7.4586304004e-01
 1.9700881271e+00	 1.3499612447e+00	-7.9534814470e-01
 1.9569460896e+00	 1.3689428012e+00	-8.4301912350e-01
 1.9436097875e+00	 1.3878123742e+00	-8.8899257362e-01
 1.9300806296e+00	 1.4065670154e+00	-9.3338576100e-01
 1.9163600833e+00	 1.4252037996e+00	-9.7631331105e-01
 2.0548617801e+00	 1.2399658334e+00	-4.6584063562e-01
 2.0428526825e+00	 1.2596527675e+00	-5.2557176917e-01
 2.0306411399e+00	 1.2792453479e+00	-5.8313774525e-01
 2.0182282037e+00	 1.2987405038e+00	-6.3856922595e-01
 2.0056149867e+00	 1.3181351784e+00	-6.9191650432e-01
 1.9928026627e+00	 1.3374263311e+00	-7.4324627129e-01
 1.9797924665e+00	 1.3566109381e+00	-7.9263831502e-01
 1.9665856933e+00	 1.3756859947e+00	-8.4018217275e-01
 1.9531836988e+00	 1.3946485162e+00	-8.8597375560e-01
 1.9395878984e+00	 1.4134955397e+00	-9.3011196666e-01
 1.9257997669e+00	 1.4322241258e+00	-9.7269533269e-01
 2.0649340864e+00	 1.2460437681e+00	-4.6446527621e-01
 2.0528661238e+00	 1.2658272015e+00	-5.2369203951e-01
 2.0405947239e+00	 1.2855158188e+00	-5.8090629012e-01
 2.0281209433e+00	 1.3051065339e+00	-6.3610611665e-01
 2.0154459001e+00	 1.3245962754e+00	-6.8931177702e-01
 2.0025707741e+00	 1.3439819874e+00	-7.4056241268e-01
 1.9894968058e+00	 1.3632606315e+00	-7.8991269239e-01
 1.9762252971e+00	 1.3824291882e+00	-8.3742940599e-01
 1.9627576101e+00	 1.4014846582e+00	-8.8318802936e-01
 1.9490951672e+00	 1.4204240641e+00	-9.2726928134e-01
 1.9352394505e+00	 1.4392444520e+00	-9.6975569344e-01
 1.8408426146e+00	 1.3690411899e+00	-1.0294630424e+00
 1.8274780841e+00	 1.3868305729e+00	-1.0797464990e+00
 1.8139326420e+00	 1.4045011447e+00	-1.1261988919e+00
 1.8002078740e+00	 1.4220501591e+00	-1.1693540470e+00
 1.7863054210e+00	 1.4394748973e+00	-1.2097662703e+00
 1.7722269780e+00	 1.4567726701e+00	-1.2479998018e+00
 1.7579742935e+00	 1.4739408183e+00	-1.2846179139e+00
 1.7435491691e+00	 1.4909767150e+00	-1.3200028561e+00
 1.7289534584e+00	 1.5078777662e+00	-1.3538100940e+00
 1.7141890666e+00	 1.5246414124e+00	-1.3863066823e+00
 1.6992579492e+00	 1.5412651299e+00	-1.4178739895e+00
 1.8502822982e+00	 1.3760615161e+00	-1.0221539173e+00
 1.8368492355e+00	 1.3939421215e+00	-1.0736841857e+00
 1.8232343335e+00	 1.4117033065e+00	-1.1209638071e+00
 1.8094391861e+00	 1.4293423107e+00	-1.1646054384e+00
 1.7954654425e+00	 1.4468564016e+00	-1.2052409776e+00
 1.7813148064e+00	 1.4642428758e+00	-1.2435105812e+00
 1.7669890354e+00	 1.4814990609e+00	-1.2800513160e+00
 1.7524899402e+00	 1.4986223162e+00	-1.3149089915e+00
 1.7378193840e+00	 1.5156100345e+00	-1.3479941817e+00
 1.7229792816e+00	 1.5324596432e+00	-1.3797384544e+00
 1.7079715988e+00	 1.5491686057e+00	-1.4105847045e+00
 1.8597219818e+00	 1.3830818423e+00	-1.0133234065e+00
 1.8462203870e+00	 1.4010536702e+00	-1.0654644899e+00
 1.8325360251e+00	 1.4189054684e+00	-1.1141302396e+00
 1.8186704982e+00	 1.4366344624e+00	-1.1587778326e+00
 1.8046254641e+00	 1.4542379058e+00	-1.2001114600e+00
 1.7904026349e+00	 1.4717130815e+00	-1.2388422088e+00
 1.7760037773e+00	 1.4890573034e+00	-1.2755660674e+00
 1.7614307113e+00	 1.5062679173e+00	-1.3100442589e+00
 1.7466853095e+00	 1.5233423028e+00	-1.3425879389e+00
 1.7317694966e+00	 1.5402778741e+00	-1.3736886457e+00
 1.7166852483e+00	 1.5570720816e+00	-1.4038467291e+00
 1.8691616654e+00	 1.3901021685e+00	-1.0052448294e+00
 1.8555915384e+00	 1.4081652188e+00	-1.0553263799e+00
 1.8418377166e+00	 1.4261076302e+00	-1.1056501665e+00
 1.8279018103e+00	 1.4439266141e+00	-1.1518069459e+00
 1.8137854856e+00	 1.4616194101e+00	-1.1943006709e+00
 1.7994904634e+00	 1.4791832873e+00	-1.2339085026e+00
 1.7850185192e+00	 1.4966155459e+00	-1.2709431449e+00
 1.7703714824e+00	 1.5139135185e+00	-1.3052878698e+00
 1.7555512351e+00	 1.5310745711e+00	-1.3374725903e+00
 1.7405597116e+00	 1.5480961049e+00	-1.3680445166e+00
 1.7253988978e+00	 1.5649755574e+00	-1.3975574629e+00
 1.8786013490e+00	 1.3971224948e+00	-9.9795309899e-01
 1.8649626898e+00	 1.4152767674e+00	-1.0457650094e+00
 1.8511394082e+00	 1.4333097920e+00	-1.0954780466e+00
 1.8371331225e+00	 1.4512187658e+00	-1.1436310445e+00
 1.8229455071e+00	 1.4690009143e+00	-1.1877341005e+00
 1.8085782918e+00	 1.4866534930e+00	-1.2285740923e+00
 1.7940332612e+00	 1.5041737885e+00	-1.2660675928e+00
 1.7793122535e+00	 1.5215591196e+00	-1.3005228706e+00
 1.7644171606e+00	 1.5388068394e+00	-1.3325330370e+00
 1.7493499267e+00	 1.5559143358e+00	-1.3626967578e+00
 1.7341125473e+00	 1.5728790333e+00	-1.3916173998e+00
 1.8880410325e+00	 1.4041428210e+00	-9.9143145414e-01
 1.8743338412e+00	 1.4223883161e+00	-1.0373648605e+00
 1.8604410997e+00	 1.4405119538e+00	-1.0849512598e+00
 1.8463644346e+00	 1.4585109174e+00	-1.1341909180e+00
 1.8321055286e+00	 1.4763824185e+00	-1.1803397416e+00
 1.8176661203e+00	 1.4941236988e+00	-1.2225925338e+00
 1.8030480031e+00	 1.5117320310e+00	-1.2608283745e+00
 1.7882530246e+00	 1.5292047208e+00	-1.2956361566e+00
 1.7732830862e+00	 1.5465391077e+00	-1.3276578760e+00
 1.7581401417e+00	 1.5637325666e+00	-1.3575395165e+00
 1.7428261968e+00	 1.5807825091e+00	-1.3859301641e+00
 1.8974807161e+00	 1.4111631472e+00	-9.8566277890e-01
 1.8837049926e+00	 1.4294998647e+00	-1.0300848290e+00
 1.8697427912e+00	 1.4477141157e+00	-1.0758880564e+00
 1.8555957467e+00	 1.4658030691e+00	-1.1236813325e+00
 1.8412655501e+00	 1.4837639228e+00	-1.1720381196e+00
 1.8267539488e+00	 1.5015939045e+00	-1.2158525796e+00
 1.8120627450e+00	 1.5192902735e+00	-1.2551183848e+00
 1.7971937958e+00	 1.5368503219e+00	-1.2905184888e+00
 1.7821490118e+00	 1.5542713760e+00	-1.3227394210e+00
 1.7669303567e+00	 1.5715507975e+00	-1.3524704249e+00
 1.7515398464e+00	 1.5886859850e+00	-1.3804025478e+00
 1.9069203997e+00	 1.4181834734e+00	-9.8062947099e-01
 1.8930761440e+00	 1.4366114134e+00	-1.0238835632e+00
 1.8790444828e+00	 1.4549162775e+00	-1.0682371754e+00
 1.8648270588e+00	 1.4730952208e+00	-1.1143443849e+00
 1.8504255716e+00	 1.4911454270e+00	-1.1626073228e+00
 1.8358417772e+00	 1.5090641102e+00	-1.2082567976e+00
 1.8210774869e+00	 1.5268485161e+00	-1.2488344659e+00
 1.8061345669e+00	 1.5444959231e+00	-1.2850645114e+00
 1.7910149373e+00	 1.5620036443e+00	-1.3176737257e+00
 1.7757205717e+00	 1.5793690283e+00	-1.3473906302e+00
 1.7602534959e+00	 1.5965894608e+00	-1.3749445491e+00
 1.9163600833e+00	 1.4252037996e+00	-9.7631331105e-01
 1.9024472955e+00	 1.4437229620e+00	-1.0187193231e+00
 1.8883461743e+00	 1.4621184393e+00	-1.0619366264e+00
 1.8740583709e+00	 1.4803873724e+00	-1.1066593762e+00
 1.8595855932e+00	 1.4985269313e+00	-1.1529582052e+00
 1.8449296057e+00	 1.5165343160e+00	-1.1997117037e+00
 1.8300922288e+00	 1.5344067586e+00	-1.2418774231e+00
 1.8150753380e+00	 1.5521415243e+00	-1.2791727718e+00
 1.7998808629e+00	 1.5697359126e+00	-1.3123606087e+00
 1.7845107867e+00	 1.5871872592e+00	-1.3422048255e+00
 1.7689671454e+00	 1.6044929367e+00	-1.3694694126e+00
 1.9257997669e+00	 1.4322241258e+00	-9.7269533269e-01
 1.9118184469e+00	 1.4508345107e+00	-1.0145498404e+00
 1.8976478659e+00	 1.4693206011e+00	-1.0569240522e+00
 1.8832896830e+00	 1.4876795241e+00	-1.1004729667e+00
 1.8687456147e+00	 1.5059084355e+00	-1.1448649695e+00
 1.8540174342e+00	 1.5240045217e+00	-1.1902049386e+00
 1.8391069708e+00	 1.5419650011e+00	-1.2341520441e+00
 1.8240161091e+00	 1.5597871254e+00	-1.2727457420e+00
 1.8087467884e+00	 1.5774681809e+00	-1.3067036791e+00
 1.7933010017e+00	 1.5950054900e+00	-1.3368212830e+00
 1.7776807949e+00	 1.6123964126e+00	-1.3638936700e+00
 1.9352394505e+00	 1.4392444520e+00	-9.6975569344e-01
 1.9211895983e+00	 1.4579460593e+00	-1.0113321801e+00
 1.9069495574e+00	 1.4765227630e+00	-1.0531365820e+00
 1.8925209951e+00	 1.4949716758e+00	-1.0955667001e+00
 1.8779056362e+00	 1.5132899397e+00	-1.1382558416e+00
 1.8631052626e+00	 1.5314747275e+00	-1.1815472435e+00
 1.8481217127e+00	 1.5495232437e+00	-1.2255671186e+00
 1.8329568802e+00	 1.5674327266e+00	-1.2656898418e+00
 1.8176127140e+00	 1.5852004492e+00	-1.3006103646e+00
 1.8020912168e+00	 1.6028237209e+00	-1.3311518880e+00
 1.7863944445e+00	 1.6202998884e+00	-1.3581371833e+00
 1.6992579492e+00	 1.5412651299e+00	-1.4178739895e+00
 1.6841646871e+00	 1.5577436472e+00	-1.4479932146e+00
 1.6689087872e+00	 1.5740773770e+00	-1.4759009231e+00
 1.6534923237e+00	 1.5902639384e+00	-1.5016162230e+00
 1.6379174176e+00	 1.6063009910e+00	-1.5251718394e+00
 1.6221862360e+00	 1.6221862360e+00	-1.5466137046e+00
 1.6063009910e+00	 1.6379174176e+00	-1.5660004511e+00
 1.5902639384e+00	 1.6534923237e+00	-1.5834028024e+00
 1.5740773770e+00	 1.6689087872e+00	-1.5989028572e+00
 1.5577436472e+00	 1.6841646871e+00	-1.6125932628e+00
 1.5412651299e+00	 1.6992579492e+00	-1.6245762760e+00
 1.7079715988e+00	 1.5491686057e+00	-1.4105847045e+00
 1.6928009397e+00	 1.5657316235e+00	-1.4400801314e+00
 1.6774668088e+00	 1.5821491113e+00	-1.4674743114e+00
 1.6619712910e+00	 1.5984186760e+00	-1.4927668553e+00
 1.6463165181e+00	 1.6145379652e+00	-1.5159713936e+00
 1.6305046684e+00	 1.6305046684e+00	-1.5371152156e+00
 1.6145379652e+00	 1.6463165181e+00	-1.5562388083e+00
 1.5984186760e+00	 1.6619712910e+00	-1.5733952885e+00
 1.5821491113e+00	 1.6774668088e+00	-1.5886497238e+00
 1.5657316235e+00	 1.6928009397e+00	-1.6020783384e+00
 1.5491686057e+00	 1.7079715988e+00	-1.6137676007e+00
 1.7166852483e+00	 1.5570720816e+00	-1.4038467291e+00
 1.7014371923e+00	 1.5737195997e+00	-1.4326948450e+00
 1.6860248305e+00	 1.5902208455e+00	-1.4595224743e+00
 1.6704502583e+00	 1.6065734136e+00	-1.4843170861e+00
 1.6547156186e+00	 1.6227749394e+00	-1.5070806049e+00
 1.6388231008e+00	 1.6388231008e+00	-1.5278290912e+00
 1.6227749394e+00	 1.6547156186e+00	-1.5465923178e+00
 1.6065734136e+00	 1.6704502583e+00	-1.5634132357e+00
 1.5902208455e+00	 1.6860248305e+00	-1.5783473228e+00
 1.5737195997e+00	 1.7014371923e+00	-1.5914618143e+00
 1.5570720816e+00	 1.7166852483e+00	-1.6028348078e+00
 1.7253988978e+00	 1.5649755574e+00	-1.3975574629e+00
 1.7100734448e+00	 1.5817075760e+00	-1.4257470187e+00
 1.6945828521e+00	 1.5982925798e+00	-1.4519673770e+00
 1.6789292256e+00	 1.6147281511e+00	-1.4762011329e+00
 1.6631147191e+00	 1.6310119136e+00	-1.4984458063e+00
 1.6471415331e+00	 1.6471415331e+00	-1.5187135563e+00
 1.6310119136e+00	 1.6631147191e+00	-1.5370307878e+00
 1.6147281511e+00	 1.6789292256e+00	-1.5534376412e+00
 1.5982925798e+00	 1.6945828521e+00	-1.5679873632e+00
 1.5817075760e+00	 1.7100734448e+00	-1.5807455512e+00
 1.5649755574e+00	 1.7253988978e+00	-1.5917892694e+00
 1.7341125473e+00	 1.5728790333e+00	-1.3916173998e+00
 1.7187096974e+00	 1.5896955523e+00	-1.4191490246e+00
 1.7031408737e+00	 1.6063643140e+00	-1.4447333005e+00
 1.6874081929e+00	 1.6228828887e+00	-1.4683551296e+00
 1.6715138197e+00	 1.6392488878e+00	-1.4900148431e+00
 1.6554599655e+00	 1.6554599655e+00	-1.5097279418e+00
 1.6392488878e+00	 1.6715138197e+00	-1.5275247238e+00
 1.6228828887e+00	 1.6874081929e+00	-1.5434497928e+00
 1.6063643140e+00	 1.7031408737e+00	-1.5575614400e+00
 1.5896955523e+00	 1.7187096974e+00	-1.5699308961e+00
 1.5728790333e+00	 1.7341125473e+00	-1.5806414493e+00
 1.7428261968e+00	 1.5807825091e+00	-1.3859301641e+00
 1.7273459500e+00	 1.5976835286e+00	-1.4128159904e+00
 1.7116988953e+00	 1.6144360483e+00	-1.4377468979e+00
 1.6958871602e+00	 1.6310376262e+00	-1.4607171930e+00
 1.6799129202e+00	 1.6474858620e+00	-1.4817371500e+00
 1.6637783979e+00	 1.6637783979e+00	-1.5008327708e+00
 1.6474858620e+00	 1.6799129202e+00	-1.5180454268e+00
 1.6310376262e+00	 1.6958871602e+00	-1.5334313762e+00
 1.6144360483e+00	 1.7116988953e+00	-1.5470611509e+00
 1.5976835286e+00	 1.7273459500e+00	-1.5590188073e+00
 1.5807825091e+00	 1.7428261968e+00	-1.5694010373e+00
 1.7515398464e+00	 1.5886859850e+00	-1.3804025478e+00
 1.7359822025e+00	 1.6056715048e+00	-1.4066658461e+00
 1.7202569169e+00	 1.6225077825e+00	-1.4309372525e+00
 1.7043661275e+00	 1.6391923638e+00	-1.4532274910e+00
 1.6883120207e+00	 1.6557228361e+00	-1.4735638287e+00
 1.6720968302e+00	 1.6720968302e+00	-1.4919898470e+00
 1.6557228361e+00	 1.6883120207e+00	-1.5085650894e+00
 1.6391923638e+00	 1.7043661275e+00	-1.5233645810e+00
 1.6225077825e+00	 1.7202569169e+00	-1.5364782120e+00
 1.6056715048e+00	 1.7359822025e+00	-1.5480099792e+00
 1.5886859850e+00	 1.7515398464e+00	-1.5580770828e+00
 1.7602534959e+00	 1.5965894608e+00	-1.3749445491e+00
 1.7446184551e+00	 1.6136594811e+00	-1.4006193733e+00
 1.7288149385e+00	 1.6305795168e+00	-1.4242359356e+00
 1.7128450948e+00	 1.6473471013e+00	-1.4458283101e+00
 1.6967111212e+00	 1.6639598103e+00	-1.4654477260e+00
 1.6804152626e+00	 1.6804152626e+00	-1.4831623419e+00
 1.6639598103e+00	 1.6967111212e+00	-1.4990568937e+00
 1.6473471013e+00	 1.7128450948e+00	-1.5132322077e+00
 1.6305795168e+00	 1.7288149385e+00	-1.5258045729e+00
 1.6136594811e+00	 1.7446184551e+00	-1.5369049663e+00
 1.5965894608e+00	 1.7602534959e+00	-1.5466781261e+00
 1.7689671454e+00	 1.6044929367e+00	-1.3694694126e+00
 1.7532547077e+00	 1.6216474574e+00	-1.3946002539e+00
 1.7373729602e+00	 1.6386512510e+00	-1.4175770658e+00
 1.7213240621e+00	 1.6555018389e+00	-1.4384641248e+00
 1.7051102217e+00	 1.6721967845e+00	-1.4573435117e+00
 1.6887336950e+00	 1.6887336950e+00	-1.4743148823e+00
 1.6721967845e+00	 1.7051102217e+00	-1.4894951075e+00
 1.6555018389e+00	 1.7213240621e+00	-1.5030177726e+00
 1.6386512510e+00	 1.7373729602e+00	-1.5150325313e+00
 1.6216474574e+00	 1.7532547077e+00	-1.5257043059e+00
 1.6044929367e+00	 1.7689671454e+00	-1.5352123304e+00
 1.7776807949e+00	 1.6123964126e+00	-1.3638936700e+00
 1.7618909602e+00	 1.6296354337e+00	-1.3885351215e+00
 1.7459309818e+00	 1.6467229853e+00	-1.4108973691e+00
 1.7298030294e+00	 1.6636565764e+00	-1.4310816662e+00
 1.7135093223e+00	 1.6804337587e+00	-1.4492077571e+00
 1.6970521273e+00	 1.6970521273e+00	-1.4654136380e+00
 1.6804337587e+00	 1.7135093223e+00	-1.4798551811e+00
 1.6636565764e+00	 1.7298030294e+00	-1.4927056140e+00
 1.6467229853e+00	 1.7459309818e+00	-1.5041548468e+00
 1.6296354337e+00	 1.7618909602e+00	-1.5144086404e+00
 1.6123964126e+00	 1.7776807949e+00	-1.5236876108e+00
 1.7863944445e+00	 1.6202998884e+00	-1.3581371833e+00
 1.7705272128e+00	 1.6376234100e+00	-1.3823536121e+00
 1.7544890034e+00	 1.6547947195e+00	-1.4041362394e+00
 1.7382819968e+00	 1.6718113140e+00	-1.4236299923e+00
 1.7219084228e+00	 1.6886707329e+00	-1.4409990144e+00
 1.7053705597e+00	 1.7053705597e+00	-1.4564264097e+00
 1.6886707329e+00	 1.7219084228e+00	-1.4701138439e+00
 1.6718113140e+00	 1.7382819968e+00	-1.4822809967e+00
 1.6547947195e+00	 1.7544890034e+00	-1.4931648543e+00
 1.6376234100e+00	 1.7705272128e+00	-1.5030188384e+00
 1.6202998884e+00	 1.7863944445e+00	-1.5121117640e+00
 1.5412651299e+00	 1.6992579492e+00	-1.6245762760e+00
 1.5246414124e+00	 1.7141890666e+00	-1.6334495289e+00
 1.5078777662e+00	 1.7289534584e+00	-1.6380758204e+00
 1.4909767150e+00	 1.7435491691e+00	-1.6389681873e+00
 1.4739408183e+00	 1.7579742935e+00	-1.6366817833e+00
 1.4567726701e+00	 1.7722269780e+00	-1.6320499010e+00
 1.4394748973e+00	 1.7863054210e+00	-1.6256502968e+00
 1.4220501591e+00	 1.8002078740e+00	-1.6180035534e+00
 1.4045011447e+00	 1.8139326420e+00	-1.6096297693e+00
 1.3868305729e+00	 1.8274780841e+00	-1.6010362409e+00
 1.3690411899e+00	 1.8408426146e+00	-1.5927055053e+00
 1.5491686057e+00	 1.7079715988e+00	-1.6137676007e+00
 1.5324596432e+00	 1.7229792816e+00	-1.6222912408e+00
 1.5156100345e+00	 1.7378193840e+00	-1.6265494168e+00
 1.4986223162e+00	 1.7524899402e+00	-1.6271341204e+00
 1.4814990609e+00	 1.7669890354e+00	-1.6246400203e+00
 1.4642428758e+00	 1.7813148064e+00	-1.6198251551e+00
 1.4468564016e+00	 1.7954654425e+00	-1.6134502891e+00
 1.4293423107e+00	 1.8094391861e+00	-1.6061229202e+00
 1.4117033065e+00	 1.8232343335e+00	-1.5984517084e+00
 1.3939421215e+00	 1.8368492355e+00	-1.5910336362e+00
 1.3760615161e+00	 1.8502822982e+00	-1.5844415395e+00
 1.5570720816e+00	 1.7166852483e+00	-1.6028348078e+00
 1.5402778741e+00	 1.7317694966e+00	-1.6110406411e+00
 1.5233423028e+00	 1.7466853095e+00	-1.6150342534e+00
 1.5062679173e+00	 1.7614307113e+00	-1.6154831565e+00
 1.4890573034e+00	 1.7760037773e+00	-1.6130605274e+00
 1.4717130815e+00	 1.7904026349e+00	-1.6084771271e+00
 1.4542379058e+00	 1.8046254641e+00	-1.6025749300e+00
 1.4366344624e+00	 1.8186704982e+00	-1.5960651360e+00
 1.4189054684e+00	 1.8325360251e+00	-1.5896406544e+00
 1.4010536702e+00	 1.8462203870e+00	-1.5839835322e+00
 1.3830818423e+00	 1.8597219818e+00	-1.5784113402e+00
 1.5649755574e+00	 1.7253988978e+00	-1.5917892694e+00
 1.5480961049e+00	 1.7405597116e+00	-1.5997161392e+00
 1.5310745711e+00	 1.7555512351e+00	-1.6035515762e+00
 1.5139135185e+00	 1.7703714824e+00	-1.6040352632e+00
 1.4966155459e+00	 1.7850185192e+00	-1.6019152745e+00
 1.4791832873e+00	 1.7994904634e+00	-1.5979465105e+00
 1.4616194101e+00	 1.8137854856e+00	-1.5929526494e+00
 1.4439266141e+00	 1.8279018103e+00	-1.5877427764e+00
 1.4261076302e+00	 1.8418377166e+00	-1.5830898725e+00
 1.4081652188e+00	 1.8555915384e+00	-1.5794666245e+00
 1.3901021685e+00	 1.8691616654e+00	-1.5719907994e+00
 1.5728790333e+00	 1.7341125473e+00	-1.5806414493e+00
 1.5559143358e+00	 1.7493499267e+00	-1.5883348856e+00
 1.5388068394e+00	 1.7644171606e+00	-1.5921210995e+00
 1.5215591196e+00	 1.7793122535e+00	-1.5928086796e+00
 1.5041737885e+00	 1.7940332612e+00	-1.5912170753e+00
 1.4866534930e+00	 1.8085782918e+00	-1.5881739906e+00
 1.4690009143e+00	 1.8229455071e+00	-1.5845113889e+00
 1.4512187658e+00	 1.8371331225e+00	-1.5810678739e+00
 1.4333097920e+00	 1.8511394082e+00	-1.5786921075e+00
 1.4152767674e+00	 1.8649626898e+00	-1.5746305350e+00
 1.3971224948e+00	 1.8786013490e+00	-1.5650165296e+00
 1.5807825091e+00	 1.7428261968e+00	-1.5694010373e+00
 1.5637325666e+00	 1.7581401417e+00	-1.5769129131e+00
 1.5465391077e+00	 1.7732830862e+00	-1.5807611520e+00
 1.5292047208e+00	 1.7882530246e+00	-1.5818200667e+00
 1.5117320310e+00	 1.8030480031e+00	-1.5809770453e+00
 1.4941236988e+00	 1.8176661203e+00	-1.5791298235e+00
 1.4763824185e+00	 1.8321055286e+00	-1.5771786778e+00
 1.4585109174e+00	 1.8463644346e+00	-1.5759519850e+00
 1.4405119538e+00	 1.8604410997e+00	-1.5748586091e+00
 1.4223883161e+00	 1.8743338412e+00	-1.5687206578e+00
 1.4041428210e+00	 1.8880410325e+00	-1.5573876555e+00
 1.5886859850e+00	 1.7515398464e+00	-1.5580770828e+00
 1.5715507975e+00	 1.7669303567e+00	-1.5654652775e+00
 1.5542713760e+00	 1.7821490118e+00	-1.5694888232e+00
 1.5368503219e+00	 1.7971937958e+00	-1.5710846557e+00
 1.5192902735e+00	 1.8120627450e+00	-1.5712047513e+00
 1.5015939045e+00	 1.8267539488e+00	-1.5708132826e+00
 1.4837639228e+00	 1.8412655501e+00	-1.5708836205e+00
 1.4658030691e+00	 1.8555957467e+00	-1.5720387336e+00
 1.4477141157e+00	 1.8697427912e+00	-1.5695122303e+00
 1.4294998647e+00	 1.8837049926e+00	-1.5616687933e+00
 1.4111631472e+00	 1.8974807161e+00	-1.5490096432e+00
 1.5965894608e+00	 1.7602534959e+00	-1.5466781261e+00
 1.5793690283e+00	 1.7757205717e+00	-1.5540061966e+00
 1.5620036443e+00	 1.7910149373e+00	-1.5583201071e+00
 1.5444959231e+00	 1.8061345669e+00	-1.5606163953e+00
 1.5268485161e+00	 1.8210774869e+00	-1.5619083594e+00
 1.5090641102e+00	 1.8358417772e+00	-1.5632231018e+00
 1.4911454270e+00	 1.8504255716e+00	-1.5655984123e+00
 1.4730952208e+00	 1.8648270588e+00	-1.5668106843e+00
 1.4549162775e+00	 1.8790444828e+00	-1.5626022138e+00
 1.4366114134e+00	 1.8930761440e+00	-1.5534129297e+00
 1.4181834734e+00	 1.9069203997e+00	-1.5397944098e+00
 1.6044929367e+00	 1.7689671454e+00	-1.5352123304e+00
 1.5871872592e+00	 1.7845107867e+00	-1.5425491884e+00
 1.5697359126e+00	 1.7998808629e+00	-1.5472700448e+00
 1.5521415243e+00	 1.8150753380e+00	-1.5504280974e+00
 1.5344067586e+00	 1.8300922288e+00	-1.5530947817e+00
 1.5165343160e+00	 1.8449296057e+00	-1.5563567095e+00
 1.4985269313e+00	 1.8595855932e+00	-1.5602183574e+00
 1.4803873724e+00	 1.8740583709e+00	-1.5596570087e+00
 1.4621184393e+00	 1.8883461743e+00	-1.5540952281e+00
 1.4437229620e+00	 1.9024472955e+00	-1.5438973610e+00
 1.4252037996e+00	 1.9163600833e+00	-1.5296604326e+00
 1.6123964126e+00	 1.7776807949e+00	-1.5236876108e+00
 1.5950054900e+00	 1.7933010017e+00	-1.5311072074e+00
 1.5774681809e+00	 1.8087467884e+00	-1.5363528663e+00
 1.5597871254e+00	 1.8240161091e+00	-1.5405315809e+00
 1.5419650011e+00	 1.8391069708e+00	-1.5447698213e+00
 1.5240045217e+00	 1.8540174342e+00	-1.5501303619e+00
 1.5059084355e+00	 1.8687456147e+00	-1.5528100545e+00
 1.4876795241e+00	 1.8832896830e+00	-1.5506034229e+00
 1.4693206011e+00	 1.8976478659e+00	-1.5439641747e+00
 1.4508345107e+00	 1.9118184469e+00	-1.5330728060e+00
 1.4322241258e+00	 1.9257997669e+00	-1.5185328573e+00
 1.6202998884e+00	 1.7863944445e+00	-1.5121117640e+00
 1.6028237209e+00	 1.8020912168e+00	-1.5196927799e+00
 1.5852004492e+00	 1.8176127140e+00	-1.5255821300e+00
 1.5674327266e+00	 1.8329568802e+00	-1.5309378149e+00
 1.5495232437e+00	 1.8481217127e+00	-1.5369383163e+00
 1.5314747275e+00	 1.8631052626e+00	-1.5425860818e+00
 1.5132899397e+00	 1.8779056362e+00	-1.5434017720e+00
 1.4949716758e+00	 1.8925209951e+00	-1.5397384168e+00
 1.4765227630e+00	 1.9069495574e+00	-1.5321883136e+00
 1.4579460593e+00	 1.9211895983e+00	-1.5208965252e+00
 1.4392444520e+00	 1.9352394505e+00	-1.5063436065e+00
 1.3690411899e+00	 1.8408426146e+00	-1.5927055053e+00
 1.3511388203e+00	 1.8540224791e+00	-1.5859153907e+00
 1.3331232380e+00	 1.8670184973e+00	-1.5772447684e+00
 1.3149972530e+00	 1.8798292594e+00	-1.5644862257e+00
 1.2967636975e+00	 1.8924534124e+00	-1.5481298484e+00
 1.2784254243e+00	 1.9048896604e+00	-1.5286820464e+00
 1.2599853058e+00	 1.9171367654e+00	-1.5066639415e+00
 1.2414462322e+00	 1.9291935471e+00	-1.4826096062e+00
 1.2228111102e+00	 1.9410588834e+00	-1.4570641656e+00
 1.2040828615e+00	 1.9527317107e+00	-1.4305817739e+00
 1.1852644216e+00	 1.9642110239e+00	-1.4037234785e+00
 1.3760615161e+00	 1.8502822982e+00	-1.5844415395e+00
 1.3580673446e+00	 1.8635297479e+00	-1.5771862390e+00
 1.3399593800e+00	 1.8765924086e+00	-1.5660042167e+00
 1.3217404465e+00	 1.8894688632e+00	-1.5512926982e+00
 1.3034133909e+00	 1.9021577517e+00	-1.5335204760e+00
 1.2849810806e+00	 1.9146577718e+00	-1.5131701778e+00
 1.2664464028e+00	 1.9269676789e+00	-1.4907366549e+00
 1.2478122624e+00	 1.9390862867e+00	-1.4667252170e+00
 1.2290815810e+00	 1.9510124675e+00	-1.4416497283e+00
 1.2102572955e+00	 1.9627451520e+00	-1.4160305745e+00
 1.1913423562e+00	 1.9742833301e+00	-1.3903925156e+00
 1.3830818423e+00	 1.8597219818e+00	-1.5784113402e+00
 1.3649958690e+00	 1.8730370167e+00	-1.5686068623e+00
 1.3467955220e+00	 1.8861663199e+00	-1.5553392825e+00
 1.3284836401e+00	 1.8991084669e+00	-1.5390394828e+00
 1.3100630843e+00	 1.9118620911e+00	-1.5201513803e+00
 1.2915367369e+00	 1.9244258832e+00	-1.4991304830e+00
 1.2729074997e+00	 1.9367985924e+00	-1.4764422794e+00
 1.2541782926e+00	 1.9489790264e+00	-1.4525604724e+00
 1.2353520519e+00	 1.9609660515e+00	-1.4279650695e+00
 1.2164317295e+00	 1.9727585933e+00	-1.4031403422e+00
 1.1974202909e+00	 1.9843556364e+00	-1.3785726671e+00
 1.3901021685e+00	 1.8691616654e+00	-1.5719907994e+00
 1.3719243934e+00	 1.8825442855e+00	-1.5600362336e+00
 1.3536316640e+00	 1.8957402312e+00	-1.5450836247e+00
 1.3352268336e+00	 1.9087480707e+00	-1.5275374919e+00
 1.3167127777e+00	 1.9215664304e+00	-1.5078133788e+00
 1.2980923933e+00	 1.9341939945e+00	-1.4863364176e+00
 1.2793685967e+00	 1.9466295058e+00	-1.4635397231e+00
 1.2605443227e+00	 1.9588717660e+00	-1.4398626270e+00
 1.2416225228e+00	 1.9709196356e+00	-1.4157487640e+00
 1.2226061635e+00	 1.9827720346e+00	-1.3916440230e+00
 1.2034982255e+00	 1.9944279426e+00	-1.3679943779e+00
 1.3971224948e+00	 1.8786013490e+00	-1.5650165296e+00
 1.3788529178e+00	 1.8920515543e+00	-1.5513397419e+00
 1.3604678061e+00	 1.9053141424e+00	-1.5350775505e+00
 1.3419700271e+00	 1.9183876745e+00	-1.5166044562e+00
 1.3233624711e+00	 1.9312707697e+00	-1.4963042124e+00
 1.3046480496e+00	 1.9439621059e+00	-1.4745684007e+00
 1.2858296937e+00	 1.9564604193e+00	-1.4517948318e+00
 1.2669103529e+00	 1.9687645056e+00	-1.4283857814e+00
 1.2478929936e+00	 1.9808732196e+00	-1.4047460732e+00
 1.2287805975e+00	 1.9927854759e+00	-1.3812810228e+00
 1.2095761602e+00	 2.0045002489e+00	-1.3583942572e+00
 1.4041428210e+00	 1.8880410325e+00	-1.5573876555e+00
 1.3857814422e+00	 1.9015588231e+00	-1.5423892915e+00
 1.3673039481e+00	 1.9148880537e+00	-1.5251681052e+00
 1.3487132206e+00	 1.9280272783e+00	-1.5060650051e+00
 1.3300121645e+00	 1.9409751091e+00	-1.4854286186e+00
 1.3112037059e+00	 1.9537302172e+00	-1.4636138827e+00
 1.2922907906e+00	 1.9662913328e+00	-1.4409804529e+00
 1.2732763831e+00	 1.9786572452e+00	-1.4178909427e+00
 1.2541634645e+00	 1.9908268037e+00	-1.3947090040e+00
 1.2349550315e+00	 2.0027989172e+00	-1.3717972651e+00
 1.2156540948e+00	 2.0145725551e+00	-1.3495151377e+00
 1.4111631472e+00	 1.8974807161e+00	-1.5490096432e+00
 1.3927099666e+00	 1.9110660920e+00	-1.5330634006e+00
 1.3741400901e+00	 1.9244619650e+00	-1.5152091613e+00
 1.3554564141e+00	 1.9376668820e+00	-1.4957507477e+00
 1.3366618579e+00	 1.9506794484e+00	-1.4749984061e+00
 1.3177593622e+00	 1.9634983286e+00	-1.4532674137e+00
 1.2987518876e+00	 1.9761222463e+00	-1.4308764990e+00
 1.2796424132e+00	 1.9885499848e+00	-1.4081460845e+00
 1.2604339353e+00	 2.0007803877e+00	-1.3853963675e+00
 1.2411294655e+00	 2.0128123585e+00	-1.3629452500e+00
 1.2217320295e+00	 2.0246448614e+00	-1.3411061354e+00
 1.4181834734e+00	 1.9069203997e+00	-1.5397944098e+00
 1.3996384910e+00	 1.9205733608e+00	-1.5232473013e+00
 1.3809762321e+00	 1.9340358763e+00	-1.5050615086e+00
 1.3621996077e+00	 1.9473064858e+00	-1.4855003549e+00
 1.3433115513e+00	 1.9603837878e+00	-1.4648325291e+00
 1.3243150185e+00	 1.9732664400e+00	-1.4433307127e+00
 1.3052129845e+00	 1.9859531597e+00	-1.4212700125e+00
 1.2860084434e+00	 1.9984427244e+00	-1.3989262094e+00
 1.2667044062e+00	 2.0107339718e+00	-1.3765738388e+00
 1.2473038995e+00	 2.0228257998e+00	-1.3544841137e+00
 1.2278099641e+00	 2.0347171676e+00	-1.3329227100e+00
 1.4252037996e+00	 1.9163600833e+00	-1.5296604326e+00
 1.4065670154e+00	 1.9300806296e+00	-1.5128330374e+00
 1.3878123742e+00	 1.9436097875e+00	-1.4945929440e+00
 1.3689428012e+00	 1.9569460896e+00	-1.4751596412e+00
 1.3499612447e+00	 1.9700881271e+00	-1.4547571632e+00
 1.3308706748e+00	 1.9830345513e+00	-1.4336127373e+00
 1.3116740815e+00	 1.9957840732e+00	-1.4119552317e+00
 1.2923744736e+00	 2.0083354641e+00	-1.3900134115e+00
 1.2729748771e+00	 2.0206875558e+00	-1.3680140185e+00
 1.2534783335e+00	 2.0328392412e+00	-1.3461796894e+00
 1.2338878988e+00	 2.0447894739e+00	-1.3247267271e+00
 1.4322241258e+00	 1.9257997669e+00	-1.5185328573e+00
 1.4134955397e+00	 1.9395878984e+00	-1.5017195638e+00
 1.3946485162e+00	 1.9531836988e+00	-1.4836783611e+00
 1.3756859947e+00	 1.9665856933e+00	-1.4645816472e+00
 1.3566109381e+00	 1.9797924665e+00	-1.4446057807e+00
 1.3374263311e+00	 1.9928026627e+00	-1.4239297543e+00
 1.3181351784e+00	 2.0056149867e+00	-1.4027336571e+00
 1.2987405038e+00	 2.0182282037e+00	-1.3811969396e+00
 1.2792453479e+00	 2.0306411399e+00	-1.3594964945e+00
 1.2596527675e+00	 2.0428526825e+00	-1.3378045684e+00
 1.2399658334e+00	 2.0548617801e+00	-1.3162865200e+00
 1.4392444520e+00	 1.9352394505e+00	-1.5063436065e+00
 1.4204240641e+00	 1.9490951672e+00	-1.4898128451e+00
 1.4014846582e+00	 1.9627576101e+00	-1.4721998412e+00
 1.3824291882e+00	 1.9762252971e+00	-1.4536267219e+00
 1.3632606315e+00	 1.9894968058e+00	-1.4342192277e+00
 1.3439819874e+00	 2.0025707741e+00	-1.4141054113e+00
 1.3245962754e+00	 2.0154459001e+00	-1.3934141183e+00
 1.3051065339e+00	 2.0281209433e+00	-1.3722732620e+00
 1.2855158188e+00	 2.0405947239e+00	-1.3508079045e+00
 1.2658272015e+00	 2.0528661238e+00	-1.3291381628e+00
 1.2460437681e+00	 2.0649340864e+00	-1.3073769533e+00
 1.1852644216e+00	 1.9642110239e+00	-1.4037234785e+00
 1.1663587382e+00	 1.9754958772e+00	-1.3761493298e+00
 1.1473687715e+00	 1.9865853857e+00	-1.3466020188e+00
 1.1282974910e+00	 1.9974787237e+00	-1.3142623774e+00
 1.1091478741e+00	 2.0081751246e+00	-1.2783345571e+00
 1.0899229045e+00	 2.0186738808e+00	-1.2419339590e+00
 1.0706255707e+00	 2.0289743434e+00	-1.2070965911e+00
 1.0512588648e+00	 2.0390759225e+00	-1.1732417985e+00
 1.0318257809e+00	 2.0489780868e+00	-1.1397947955e+00
 1.0123293138e+00	 2.0586803632e+00	-1.1061791105e+00
 9.9277245747e-01	 2.0681823373e+00	-1.0718097202e+00
 1.1913423562e+00	 1.9742833301e+00	-1.3903925156e+00
 1.1723397261e+00	 1.9856260512e+00	-1.3642391655e+00
 1.1532523805e+00	 1.9967724258e+00	-1.3361754977e+00
 1.1340833041e+00	 2.0077216239e+00	-1.3053727440e+00
 1.1148354896e+00	 2.0184728750e+00	-1.2709916851e+00
 1.0955119360e+00	 2.0290254679e+00	-1.2343701679e+00
 1.0761156471e+00	 2.0393787504e+00	-1.1992034952e+00
 1.0566496304e+00	 2.0495321296e+00	-1.1650248096e+00
 1.0371168954e+00	 2.0594850713e+00	-1.1312479060e+00
 1.0175204520e+00	 2.0692371002e+00	-1.0972835453e+00
 9.9786330978e-01	 2.0787877996e+00	-1.0625323887e+00
 1.1974202909e+00	 1.9843556364e+00	-1.3785726671e+00
 1.1783207141e+00	 1.9957562253e+00	-1.3536328596e+00
 1.1591359895e+00	 2.0069594658e+00	-1.3268230431e+00
 1.1398691172e+00	 2.0179645240e+00	-1.2973196677e+00
 1.1205231051e+00	 2.0287706254e+00	-1.2642891678e+00
 1.1011009675e+00	 2.0393770550e+00	-1.2277823174e+00
 1.0816057236e+00	 2.0497831574e+00	-1.1921143698e+00
 1.0620403960e+00	 2.0599883366e+00	-1.1574838390e+00
 1.0424080098e+00	 2.0699920558e+00	-1.1233064402e+00
 1.0227115902e+00	 2.0797938371e+00	-1.0889931192e+00
 1.0029541621e+00	 2.0893932618e+00	-1.0539427679e+00
 1.2034982255e+00	 1.9944279426e+00	-1.3679943779e+00
 1.1843017020e+00	 2.0058863993e+00	-1.3440593432e+00
 1.1650195985e+00	 2.0171465059e+00	-1.3182707548e+00
 1.1456549303e+00	 2.0282074242e+00	-1.2898249274e+00
 1.1262107206e+00	 2.0390683758e+00	-1.2579084245e+00
 1.1066899990e+00	 2.0497286421e+00	-1.2218703768e+00
 1.0870958000e+00	 2.0601875644e+00	-1.1855238493e+00
 1.0674311617e+00	 2.0704445437e+00	-1.1503062831e+00
 1.0476991242e+00	 2.0804990403e+00	-1.1156484933e+00
 1.0279027284e+00	 2.0903505741e+00	-1.0809744023e+00
 1.0080450144e+00	 2.0999987241e+00	-1.0456935169e+00
 1.2095761602e+00	 2.0045002489e+00	-1.3583942572e+00
 1.1902826899e+00	 2.0160165733e+00	-1.3352533926e+00
 1.1709032075e+00	 2.0273335459e+00	-1.3102502805e+00
 1.1514407434e+00	 2.0384503244e+00	-1.2826155807e+00
 1.1318983361e+00	 2.0493661262e+00	-1.2515702970e+00
 1.1122790305e+00	 2.0600802292e+00	-1.2163248128e+00
 1.0925858764e+00	 2.0705919714e+00	-1.1791289658e+00
 1.0728219273e+00	 2.0809007507e+00	-1.1431817611e+00
 1.0529902386e+00	 2.0910060248e+00	-1.1079542718e+00
 1.0330938666e+00	 2.1009073110e+00	-1.0728960326e+00
 1.0131358667e+00	 2.1106041864e+00	-1.0374393919e+00
 1.2156540948e+00	 2.0145725551e+00	-1.3495151377e+00
 1.1962636778e+00	 2.0261467473e+00	-1.3269556888e+00
 1.1767868165e+00	 2.0375205860e+00	-1.3024988772e+00
 1.1572265565e+00	 2.0486932245e+00	-1.2754240251e+00
 1.1375859516e+00	 2.0596638766e+00	-1.2450007286e+00
 1.1178680620e+00	 2.0704318164e+00	-1.2104877251e+00
 1.0980759528e+00	 2.0809963785e+00	-1.1726292198e+00
 1.0782126929e+00	 2.0913569577e+00	-1.1358021767e+00
 1.0582813530e+00	 2.1015130093e+00	-1.0999061461e+00
 1.0382850048e+00	 2.1114640480e+00	-1.0644287582e+00
 1.0182267190e+00	 2.1212096486e+00	-1.0288372764e+00
 1.2217320295e+00	 2.0246448614e+00	-1.3411061354e+00
 1.2022446657e+00	 2.0362769213e+00	-1.3189128793e+00
 1.1826704255e+00	 2.0477076261e+00	-1.2947594727e+00
 1.1630123696e+00	 2.0589361247e+00	-1.2679880597e+00
 1.1432735671e+00	 2.0699616270e+00	-1.2379308251e+00
 1.1234570935e+00	 2.0807834035e+00	-1.2039086728e+00
 1.1035660292e+00	 2.0914007855e+00	-1.1657266522e+00
 1.0836034585e+00	 2.1018131648e+00	-1.1278617823e+00
 1.0635724674e+00	 2.1120199938e+00	-1.0911887045e+00
 1.0434761430e+00	 2.1220207849e+00	-1.0552454800e+00
 1.0233175713e+00	 2.1318151109e+00	-1.0195462117e+00
 1.2278099641e+00	 2.0347171676e+00	-1.3329227100e+00
 1.2082256537e+00	 2.0464070953e+00	-1.3108776402e+00
 1.1885540345e+00	 2.0578946661e+00	-1.2867807287e+00
 1.1687981827e+00	 2.0691790249e+00	-1.2600509474e+00
 1.1489611826e+00	 2.0802593774e+00	-1.2300969156e+00
 1.1290461250e+00	 2.0911349906e+00	-1.1963153678e+00
 1.1090561057e+00	 2.1018051925e+00	-1.1581259171e+00
 1.0889942241e+00	 2.1122693718e+00	-1.1190572434e+00
 1.0688635818e+00	 2.1225269783e+00	-1.0814888084e+00
 1.0486672812e+00	 2.1325775219e+00	-1.0450212964e+00
 1.0284084236e+00	 2.1424205731e+00	-1.0092274296e+00
 1.2338878988e+00	 2.0447894739e+00	-1.3247267271e+00
 1.2142066416e+00	 2.0565372693e+00	-1.3026087388e+00
 1.1944376434e+00	 2.0680817062e+00	-1.2783171038e+00
 1.1745839958e+00	 2.0794219250e+00	-1.2513614783e+00
 1.1546487981e+00	 2.0905571278e+00	-1.2212406148e+00
 1.1346351565e+00	 2.1014865777e+00	-1.1874405982e+00
 1.1145461821e+00	 2.1122095995e+00	-1.1494330370e+00
 1.0943849897e+00	 2.1227255789e+00	-1.1090877036e+00
 1.0741546963e+00	 2.1330339628e+00	-1.0704956479e+00
 1.0538584194e+00	 2.1431342588e+00	-1.0334335487e+00
 1.0334992760e+00	 2.1530260354e+00	-9.9754438651e-01
 1.2399658334e+00	 2.0548617801e+00	-1.3162865200e+00
 1.2201876295e+00	 2.0666674433e+00	-1.2938710975e+00
 1.2003212524e+00	 2.0782687462e+00	-1.2691289181e+00
 1.1803698089e+00	 2.0896648252e+00	-1.2416740338e+00
 1.1603364136e+00	 2.1008548782e+00	-1.2111088856e+00
 1.1402241880e+00	 2.1118381649e+00	-1.1770222892e+00
 1.1200362585e+00	 2.1226140065e+00	-1.1389873732e+00
 1.0997757553e+00	 2.1331817859e+00	-1.0976548508e+00
 1.0794458107e+00	 2.1435409473e+00	-1.0579007992e+00
 1.0590495576e+00	 2.1536909957e+00	-1.0201618680e+00
 1.0385901283e+00	 2.1636314976e+00	-9.8416279787e-01
 1.2460437681e+00	 2.0649340864e+00	-1.3073769533e+00
 1.2261686174e+00	 2.0767976173e+00	-1.2844358579e+00
 1.2062048614e+00	 2.0884557863e+00	-1.2589824180e+00
 1.1861556220e+00	 2.0999077254e+00	-1.2307486505e+00
 1.1660240291e+00	 2.1111526286e+00	-1.1994541024e+00
 1.1458132195e+00	 2.1221897520e+00	-1.1648035639e+00
 1.1255263349e+00	 2.1330184135e+00	-1.1264847337e+00
 1.1051665209e+00	 2.1436379930e+00	-1.0844629845e+00
 1.0847369251e+00	 2.1540479318e+00	-1.0433982821e+00
 1.0642406958e+00	 2.1642477327e+00	-1.0048882224e+00
 1.0436809806e+00	 2.1742369599e+00	-9.6875067522e-01
 9.9277245747e-01	 2.0681823373e+00	-1.0718097202e+00
 9.7315486438e-01	 2.0774852163e+00	-1.0357225462e+00
 9.5348284352e-01	 2.0865870675e+00	-9.9767068389e-01
 9.3375937913e-01	 2.0954876475e+00	-9.5808698639e-01
 9.1398744934e-01	 2.1041867703e+00	-9.1736037755e-01
 8.9417002489e-01	 2.1126843063e+00	-8.7583140426e-01
 8.7431006781e-01	 2.1209801821e+00	-8.3378857572e-01
 8.5441053016e-01	 2.1290743800e+00	-7.9146548354e-01
 8.3447435279e-01	 2.1369669375e+00	-7.4903869132e-01
 8.1450446407e-01	 2.1446579467e+00	-7.0662637828e-01
 7.9450377875e-01	 2.1521475540e+00	-6.6428771708e-01
 9.9786330978e-01	 2.0787877996e+00	-1.0625323887e+00
 9.7814511935e-01	 2.0881383830e+00	-1.0259736201e+00
 9.5837222205e-01	 2.0972869076e+00	-9.8734129832e-01
 9.3854761742e-01	 2.1062331291e+00	-9.4710540304e-01
 9.1867429886e-01	 2.1149768603e+00	-9.0568702456e-01
 8.9875525235e-01	 2.1235179709e+00	-8.6345380478e-01
 8.7879345511e-01	 2.1318563872e+00	-8.2071619735e-01
 8.5879187434e-01	 2.1399920914e+00	-7.7772454029e-01
 8.3875346595e-01	 2.1479251213e+00	-7.3466692920e-01
 8.1868117335e-01	 2.1556555694e+00	-6.9166787491e-01
 7.9857792622e-01	 2.1631835827e+00	-6.4878772471e-01
 1.0029541621e+00	 2.0893932618e+00	-1.0539427679e+00
 9.8313537432e-01	 2.0987915496e+00	-1.0170736368e+00
 9.6326160058e-01	 2.1079867478e+00	-9.7808651897e-01
 9.4333585570e-01	 2.1169786107e+00	-9.3748610984e-01
 9.2336114839e-01	 2.1257669502e+00	-8.9572370926e-01
 9.0334047982e-01	 2.1343516354e+00	-8.5319254398e-01
 8.8327684241e-01	 2.1427325923e+00	-8.1022394200e-01
 8.6317321851e-01	 2.1509098029e+00	-7.6708435098e-01
 8.4303257911e-01	 2.1588833051e+00	-7.2397318857e-01
 8.2285788263e-01	 2.1666531920e+00	-6.8102150761e-01
 8.0265207369e-01	 2.1742196115e+00	-6.3829145460e-01
 1.0080450144e+00	 2.0999987241e+00	-1.0456935169e+00
 9.8812562929e-01	 2.1094447162e+00	-1.0086646295e+00
 9.6815097910e-01	 2.1186865879e+00	-9.6954684830e-01
 9.4812409399e-01	 2.1277240922e+00	-9.2887720469e-01
 9.2804799791e-01	 2.1365570401e+00	-8.8713527111e-01
 9.0792570728e-01	 2.1451853000e+00	-8.4473835890e-01
 8.8776022971e-01	 2.1536087974e+00	-8.0203759983e-01
 8.6755456268e-01	 2.1618275143e+00	-7.5931490376e-01
 8.4731169226e-01	 2.1698414889e+00	-7.1678077965e-01
 8.2703459190e-01	 2.1776508147e+00	-6.7457300202e-01
 8.0672622116e-01	 2.1852556402e+00	-6.3275610055e-01
 1.0131358667e+00	 2.1106041864e+00	-1.0374393919e+00
 9.9311588426e-01	 2.1200978828e+00	-1.0003907174e+00
 9.7304035763e-01	 2.1293864280e+00	-9.6136470781e-01
 9.5291233228e-01	 2.1384695738e+00	-9.2092838077e-01
 9.3273484743e-01	 2.1473471300e+00	-8.7958766497e-01
 9.1251093474e-01	 2.1560189645e+00	-8.3778246605e-01
 8.9224361701e-01	 2.1644850025e+00	-7.9588264877e-01
 8.7193590685e-01	 2.1727452258e+00	-7.5418492741e-01
 8.5159080542e-01	 2.1807996727e+00	-7.1291065109e-01
 8.3121130117e-01	 2.1886484373e+00	-6.7220446534e-01
 8.1080036863e-01	 2.1962916689e+00	-6.3213382677e-01
 1.0182267190e+00	 2.1212096486e+00	-1.0288372764e+00
 9.9810613923e-01	 2.1307510495e+00	-9.9189812509e-01
 9.7792973616e-01	 2.1400862682e+00	-9.5318445018e-01
 9.5770057057e-01	 2.1492150553e+00	-9.1329093669e-01
 9.3742169695e-01	 2.1581372199e+00	-8.7274797356e-01
 9.1709616220e-01	 2.1668526291e+00	-8.3201658068e-01
 8.9672700431e-01	 2.1753612076e+00	-7.9148428506e-01
 8.7631725102e-01	 2.1836629372e+00	-7.5146193756e-01
 8.5586991858e-01	 2.1917578565e+00	-7.1218145624e-01
 8.3538801045e-01	 2.1996460600e+00	-6.7379447698e-01
 8.1487451610e-01	 2.2073276976e+00	-6.3637188743e-01
 1.0233175713e+00	 2.1318151109e+00	-1.0195462117e+00
 1.0030963942e+00	 2.1414042161e+00	-9.8283520258e-01
 9.8281911469e-01	 2.1507861083e+00	-9.4465237326e-01
 9.6248880886e-01	 2.1599605369e+00	-9.0561778828e-01
 9.4210854647e-01	 2.1689273098e+00	-8.6628442141e-01
 9.2168138967e-01	 2.1776862936e+00	-8.2713293717e-01
 9.0121039161e-01	 2.1862374127e+00	-7.8856745438e-01
 8.8069859519e-01	 2.1945806487e+00	-7.5091228287e-01
 8.6014903173e-01	 2.2027160403e+00	-7.1440961866e-01
 8.3956471972e-01	 2.2106436826e+00	-6.7921817784e-01
 8.1894866357e-01	 2.2183637263e+00	-6.4541274389e-01
 1.0284084236e+00	 2.1424205731e+00	-1.0092274296e+00
 1.0080866492e+00	 2.1520573827e+00	-9.7285244719e-01
 9.8770849321e-01	 2.1614859485e+00	-9.3541673559e-01
 9.6727704714e-01	 2.1707060184e+00	-8.9756348193e-01
 9.4679539599e-01	 2.1797173997e+00	-8.5986639018e-01
 9.2626661713e-01	 2.1885199582e+00	-8.2282431050e-01
 9.0569377891e-01	 2.1971136178e+00	-7.8685688365e-01
 8.8507993936e-01	 2.2054983601e+00	-7.5230119130e-01
 8.6442814489e-01	 2.2136742241e+00	-7.1940939716e-01
 8.4374142900e-01	 2.2216413052e+00	-6.8834735809e-01
 8.2302281104e-01	 2.2293997550e+00	-6.5643405141e-01
 1.0334992760e+00	 2.1530260354e+00	-9.9754438651e-01
 1.0130769041e+00	 2.1627105493e+00	-9.6160252710e-01
 9.9259787174e-01	 2.1721857886e+00	-9.2512777356e-01
 9.7206528543e-01	 2.1814515000e+00	-8.8878420947e-01
 9.5148224551e-01	 2.1905074896e+00	-8.5316443532e-01
 9.3085184459e-01	 2.1993536227e+00	-8.1878403875e-01
 9.1017716621e-01	 2.2079898228e+00	-7.8607711338e-01
 8.8946128353e-01	 2.2164160716e+00	-7.5539281649e-01
 8.6870725805e-01	 2.2246324079e+00	-7.2669601684e-01
 8.4791813827e-01	 2.2326389279e+00	-6.9544364018e-01
 8.2709695850e-01	 2.2404357837e+00	-6.6003607656e-01
 1.0385901283e+00	 2.1636314976e+00	-9.8416279787e-01
 1.0180671591e+00	 2.1733637160e+00	-9.4874030634e-01
 9.9748725027e-01	 2.1828856287e+00	-9.1343772014e-01
 9.7685352372e-01	 2.1921969815e+00	-8.7893782455e-01
 9.5616909503e-01	 2.2012975795e+00	-8.4585030400e-01
 9.3543707205e-01	 2.2101872873e+00	-8.1470604657e-01
 9.1466055351e-01	 2.2188660279e+00	-7.8595253067e-01
 8.9384262770e-01	 2.2273337830e+00	-7.5868442393e-01
 8.7298637120e-01	 2.2355905917e+00	-7.2807929631e-01
 8.5209484755e-01	 2.2436365505e+00	-6.9366984419e-01
 8.3117110597e-01	 2.2514718124e+00	-6.5550379804e-01
 1.0436809806e+00	 2.1742369599e+00	-9.6875067522e-01
 1.0230574141e+00	 2.1840168826e+00	-9.3392287116e-01
 1.0023766288e+00	 2.1935854689e+00	-9.0000082504e-01
 9.8164176201e-01	 2.2029424631e+00	-8.6768386040e-01
 9.6085594456e-01	 2.2120876695e+00	-8.3759695437e-01
 9.4002229952e-01	 2.2210209518e+00	-8.1028486965e-01
 9.1914394081e-01	 2.2297422330e+00	-7.8359259061e-01
 8.9822397188e-01	 2.2382514944e+00	-7.5346198962e-01
 8.7726548436e-01	 2.2465487755e+00	-7.1991123925e-01
 8.5627155682e-01	 2.2546341732e+00	-6.8302592253e-01
 8.3524525344e-01	 2.2625078411e+00	-6.4290170335e-01
 7.9450377875e-01	 2.1521475540e+00	-6.6428771708e-01
 7.7447860323e-01	 2.1594347371e+00	-6.2225764871e-01
 7.5442842198e-01	 2.1665210373e+00	-5.8052605335e-01
 7.3435609940e-01	 2.1734067580e+00	-5.3886047586e-01
 7.1426448172e-01	 2.1800922538e+00	-4.9873048952e-01
 6.9415639586e-01	 2.1865779302e+00	-4.6052439403e-01
 6.7403464844e-01	 2.1928642428e+00	-4.2406213976e-01
 6.5390202470e-01	 2.1989516964e+00	-3.8916373987e-01
 6.3376128753e-01	 2.2048408444e+00	-3.5564922564e-01
 6.1361517647e-01	 2.2105322880e+00	-3.2333927949e-01
 5.9346640679e-01	 2.2160266751e+00	-2.9205648834e-01
 7.9857792622e-01	 2.1631835827e+00	-6.4878772471e-01
 7.7845006332e-01	 2.1705081338e+00	-6.0642540703e-01
 7.5829706645e-01	 2.1776307720e+00	-5.6475189621e-01
 7.3812181471e-01	 2.1845518021e+00	-5.2345370487e-01
 7.1792716893e-01	 2.1912715805e+00	-4.8374947472e-01
 6.9771597053e-01	 2.1977905149e+00	-4.4642123496e-01
 6.7749104051e-01	 2.2041090632e+00	-4.1132834452e-01
 6.5725517839e-01	 2.2102277328e+00	-3.7833066017e-01
 6.3701116124e-01	 2.2161470798e+00	-3.4728856971e-01
 6.1676174264e-01	 2.2218677086e+00	-3.1806372410e-01
 5.9650965180e-01	 2.2273902704e+00	-2.8880070464e-01
 8.0265207369e-01	 2.1742196115e+00	-6.3829145460e-01
 7.8242152340e-01	 2.1815815306e+00	-5.9638139615e-01
 7.6216571091e-01	 2.1887405067e+00	-5.5566726919e-01
 7.4188753002e-01	 2.1956968462e+00	-5.1582121242e-01
 7.2158985614e-01	 2.2024509073e+00	-4.7763325086e-01
 7.0127554519e-01	 2.2090030997e+00	-4.4232640667e-01
 6.8094743257e-01	 2.2153538836e+00	-4.0978317429e-01
 6.6060833208e-01	 2.2215037691e+00	-3.7988184917e-01
 6.4026103495e-01	 2.2274533152e+00	-3.5076910526e-01
 6.1990830882e-01	 2.2332031293e+00	-3.1986463683e-01
 5.9955289681e-01	 2.2387538658e+00	-2.8736950856e-01
 8.0672622116e-01	 2.1852556402e+00	-6.3275610055e-01
 7.8639298348e-01	 2.1926549274e+00	-5.9215138966e-01
 7.6603435538e-01	 2.1998502414e+00	-5.5335192486e-01
 7.4565324533e-01	 2.2068418903e+00	-5.1601872919e-01
 7.2525254335e-01	 2.2136302340e+00	-4.8052464269e-01
 7.0483511986e-01	 2.2202156844e+00	-4.4839496342e-01
 6.8440382464e-01	 2.2265987040e+00	-4.1839640604e-01
 6.6396148577e-01	 2.2327798055e+00	-3.8703123229e-01
 6.4351090866e-01	 2.2387595506e+00	-3.5423952067e-01
 6.2305487499e-01	 2.2445385499e+00	-3.2024990012e-01
 6.0259614181e-01	 2.2501174612e+00	-2.8534249751e-01
 8.1080036863e-01	 2.1962916689e+00	-6.3213382677e-01
 7.9036444356e-01	 2.2037283241e+00	-5.9375480562e-01
 7.6990299984e-01	 2.2109599761e+00	-5.5787825438e-01
 7.4941896064e-01	 2.2179869344e+00	-5.2413702145e-01
 7.2891523056e-01	 2.2248095608e+00	-4.9215442892e-01
 7.0839469452e-01	 2.2314282691e+00	-4.5966353812e-01
 6.8786021670e-01	 2.2378435244e+00	-4.2595535953e-01
 6.6731463946e-01	 2.2440558418e+00	-3.9117480460e-01
 6.4676078237e-01	 2.2500657860e+00	-3.5552585745e-01
 6.2620144117e-01	 2.2558739705e+00	-3.1926748055e-01
 6.0563938682e-01	 2.2614810566e+00	-2.8270974110e-01
 8.1487451610e-01	 2.2073276976e+00	-6.3637188743e-01
 7.9433590364e-01	 2.2148017209e+00	-6.0120485354e-01
 7.7377164431e-01	 2.2220697108e+00	-5.6931145436e-01
 7.5318467595e-01	 2.2291319784e+00	-5.3750756027e-01
 7.3257791777e-01	 2.2359888875e+00	-5.0268207170e-01
 7.1195426919e-01	 2.2426408539e+00	-4.6658926181e-01
 6.9131660876e-01	 2.2490883448e+00	-4.2978486192e-01
 6.7066779315e-01	 2.2553318782e+00	-3.9242688410e-01
 6.5001065608e-01	 2.2613720214e+00	-3.5473153483e-01
 6.2934800734e-01	 2.2672093912e+00	-3.1696901265e-01
 6.0868263183e-01	 2.2728446520e+00	-2.7945953741e-01
 8.1894866357e-01	 2.2183637263e+00	-6.4541274389e-01
 7.9830736372e-01	 2.2258751176e+00	-6.1376523441e-01
 7.7764028877e-01	 2.2331794455e+00	-5.8093428425e-01
 7.5695039126e-01	 2.2402770225e+00	-5.4576453926e-01
 7.3624060499e-01	 2.2471682142e+00	-5.0797991529e-01
 7.1551384385e-01	 2.2538534386e+00	-4.6912058186e-01
 6.9477300083e-01	 2.2603331653e+00	-4.3005158750e-01
 6.7402094684e-01	 2.2666079145e+00	-3.9092675697e-01
 6.5326052979e-01	 2.2726782568e+00	-3.5195647691e-01
 6.3249457352e-01	 2.2785448118e+00	-3.1340341918e-01
 6.1172587683e-01	 2.2842082474e+00	-2.7557850729e-01
 8.2302281104e-01	 2.2293997550e+00	-6.5643405141e-01
 8.0227882380e-01	 2.2369485144e+00	-6.2178288378e-01
 7.8150893323e-01	 2.2442891802e+00	-5.8579401418e-01
 7.6071610657e-01	 2.2514220666e+00	-5.4806372981e-01
 7.3990329220e-01	 2.2583475410e+00	-5.0822837160e-01
 7.1907341852e-01	 2.2650660234e+00	-4.6743517380e-01
 6.9822939289e-01	 2.2715779857e+00	-4.2691811369e-01
 6.7737410053e-01	 2.2778839509e+00	-3.8680986089e-01
 6.5651040351e-01	 2.2839844922e+00	-3.4729726465e-01
 6.3564113969e-01	 2.2898802324e+00	-3.0861703630e-01
 6.1476912184e-01	 2.2955718427e+00	-2.7105168695e-01
 8.2709695850e-01	 2.2404357837e+00	-6.6003607656e-01
 8.0625028388e-01	 2.2480219112e+00	-6.2237662365e-01
 7.8537757770e-01	 2.2553989149e+00	-5.8403784391e-01
 7.6448182188e-01	 2.2625671107e+00	-5.4457500110e-01
 7.4356597941e-01	 2.2695268677e+00	-5.0357971437e-01
 7.2263299319e-01	 2.2762786081e+00	-4.6170682118e-01
 7.0168578496e-01	 2.2828228061e+00	-4.2054310382e-01
 6.8072725423e-01	 2.2891599872e+00	-3.8020795375e-01
 6.5976027722e-01	 2.2952907276e+00	-3.4084728443e-01
 6.3878770587e-01	 2.3012156531e+00	-3.0265373618e-01
 6.1781236685e-01	 2.3069354381e+00	-2.6586261864e-01
 8.3117110597e-01	 2.2514718124e+00	-6.5550379804e-01
 8.1022174396e-01	 2.2590953079e+00	-6.1565815484e-01
 7.8924622216e-01	 2.2665086497e+00	-5.7581159428e-01
 7.6824753719e-01	 2.2737121548e+00	-5.3546530786e-01
 7.4722866662e-01	 2.2807061945e+00	-4.9415432934e-01
 7.2619256785e-01	 2.2874911928e+00	-4.5210560185e-01
 7.0514217702e-01	 2.2940676265e+00	-4.1108148572e-01
 6.8408040792e-01	 2.3004360236e+00	-3.7124927849e-01
 6.6301015093e-01	 2.3065969630e+00	-3.3269687336e-01
 6.4193427205e-01	 2.3125510737e+00	-2.9555504693e-01
 6.2085561186e-01	 2.3182990335e+00	-2.5999343976e-01
 8.3524525344e-01	 2.2625078411e+00	-6.4290170335e-01
 8.1419320404e-01	 2.2701687047e+00	-6.0173813635e-01
 7.9311486663e-01	 2.2776183844e+00	-5.6125906761e-01
 7.7201325250e-01	 2.2848571989e+00	-5.2089886209e-01
 7.5089135383e-01	 2.2918855212e+00	-4.8012245020e-01
 7.2975214252e-01	 2.2987037776e+00	-4.3879807009e-01
 7.0859856909e-01	 2.3053124469e+00	-3.9868462632e-01
 6.8743356161e-01	 2.3117120599e+00	-3.6005872441e-01
 6.6626002464e-01	 2.3179031984e+00	-3.2293346143e-01
 6.4508083822e-01	 2.3238864943e+00	-2.8736027007e-01
 6.2389885687e-01	 2.3296626289e+00	-2.5342497024e-01
 5.9346640679e-01	 2.2160266751e+00	-2.9205648834e-01
 5.7331766888e-01	 2.2213247002e+00	-2.6278607134e-01
 5.5317162808e-01	 2.2264271051e+00	-2.3530593897e-01
 5.3303092304e-01	 2.2313346763e+00	-2.0744149973e-01
 5.1289816459e-01	 2.2360482436e+00	-1.7926638754e-01
 4.9277593493e-01	 2.2405686794e+00	-1.5092679204e-01
 4.7266678689e-01	 2.2448968978e+00	-1.2259214744e-01
 4.5257324318e-01	 2.2490338533e+00	-9.4453725053e-02
 4.3249779572e-01	 2.2529805404e+00	-6.6723427645e-02
 4.1244290494e-01	 2.2567379921e+00	-3.9632780836e-02
 3.9241099915e-01	 2.2603072792e+00	-1.3432115708e-02
 5.9650965180e-01	 2.2273902704e+00	-2.8880070464e-01
 5.7625759288e-01	 2.2327154634e+00	-2.5846596051e-01
 5.5600824490e-01	 2.2378440330e+00	-2.2817017334e-01
 5.3576426005e-01	 2.2427767698e+00	-1.9796133425e-01
 5.1552826254e-01	 2.2475145079e+00	-1.6791111530e-01
 4.9530284781e-01	 2.2520581241e+00	-1.3811312160e-01
 4.7509058177e-01	 2.2564085372e+00	-1.0868136108e-01
 4.5489400009e-01	 2.2605667067e+00	-7.9748928859e-02
 4.3471560745e-01	 2.2645336320e+00	-5.1466902509e-02
 4.1455787690e-01	 2.2683103516e+00	-2.4003442714e-02
 3.9442324921e-01	 2.2718979417e+00	 2.4569067479e-03
 5.9955289681e-01	 2.2387538658e+00	-2.8736950856e-01
 5.7919751688e-01	 2.2441062266e+00	-2.5441171988e-01
 5.5884486173e-01	 2.2492609609e+00	-2.2193703947e-01
 5.3849759707e-01	 2.2542188633e+00	-1.8995544220e-01
 5.1815836049e-01	 2.2589807721e+00	-1.5849794241e-01
 4.9782976068e-01	 2.2635475688e+00	-1.2761489911e-01
 4.7751437665e-01	 2.2679201766e+00	-9.7374548471e-02
 4.5721475700e-01	 2.2720995601e+00	-6.7861760604e-02
 4.3693341918e-01	 2.2760867237e+00	-3.9177016193e-02
 4.1667284886e-01	 2.2798827111e+00	-1.1435597388e-02
 3.9643549927e-01	 2.2834886043e+00	 1.5233013741e-02
 6.0259614181e-01	 2.2501174612e+00	-2.8534249751e-01
 5.8213744088e-01	 2.2554969898e+00	-2.5050051725e-01
 5.6168147855e-01	 2.2606778888e+00	-2.1647294251e-01
 5.4123093408e-01	 2.2656609568e+00	-1.8324023310e-01
 5.2078845843e-01	 2.2704470364e+00	-1.5080159730e-01
 5.0035667355e-01	 2.2750370135e+00	-1.1917333017e-01
 4.7993817153e-01	 2.2794318160e+00	-8.8387389235e-02
 4.5953551390e-01	 2.2836324134e+00	-5.8490204180e-02
 4.3915123090e-01	 2.2876398153e+00	-2.9541715695e-02
 4.1878782082e-01	 2.2914550707e+00	-1.6146376289e-03
 3.9844774934e-01	 2.2950792668e+00	 2.5206064744e-02
 6.0563938682e-01	 2.2614810566e+00	-2.8270974110e-01
 5.8507736488e-01	 2.2668877530e+00	-2.4665650678e-01
 5.6451809538e-01	 2.2720948167e+00	-2.1164458091e-01
 5.4396427109e-01	 2.2771030503e+00	-1.7763326778e-01
 5.2341855638e-01	 2.2819133007e+00	-1.4459867396e-01
 5.0288358643e-01	 2.2865264581e+00	-1.1253206010e-01
 4.8236196642e-01	 2.2909434555e+00	-8.1438440377e-02
 4.6185627081e-01	 2.2951652668e+00	-5.1335425743e-02
 4.4136904263e-01	 2.2991929070e+00	-2.2252306044e-02
 4.2090279279e-01	 2.3030274302e+00	 5.7706353721e-03
 4.0045999940e-01	 2.3066699293e+00	 3.2682582041e-02
 6.0868263183e-01	 2.2728446520e+00	-2.7945953741e-01
 5.8801728888e-01	 2.2782785162e+00	-2.4280319137e-01
 5.6735471220e-01	 2.2835117446e+00	-2.0731897554e-01
 5.4669760810e-01	 2.2885451438e+00	-1.7295325989e-01
 5.2604865433e-01	 2.2933795650e+00	-1.3966760983e-01
 5.0541049930e-01	 2.2980159028e+00	-1.0743713207e-01
 4.8478576130e-01	 2.3024550949e+00	-7.6249078399e-02
 4.6417702772e-01	 2.3066981202e+00	-4.6101703463e-02
 4.4358685436e-01	 2.3107459986e+00	-1.7003371269e-02
 4.2301776475e-01	 2.3145997897e+00	 1.1028096316e-02
 4.0247224946e-01	 2.3182605919e+00	 3.7965836917e-02
 6.1172587683e-01	 2.2842082474e+00	-2.7557850729e-01
 5.9095721288e-01	 2.2896692794e+00	-2.3886348242e-01
 5.7019132903e-01	 2.2949286725e+00	-2.0336349874e-01
 5.4943094511e-01	 2.2999872373e+00	-1.6902007815e-01
 5.2867875227e-01	 2.3048458292e+00	-1.3578866512e-01
 5.0793741217e-01	 2.3095053475e+00	-1.0363694714e-01
 4.8720955618e-01	 2.3139667343e+00	-7.2543443754e-02
 4.6649778462e-01	 2.3182309736e+00	-4.2496359935e-02
 4.4580466609e-01	 2.3222990903e+00	-1.3492698256e-02
 4.2513273671e-01	 2.3261721493e+00	 1.4462377113e-02
 4.0448449952e-01	 2.3298512544e+00	 4.1355932838e-02
 6.1476912184e-01	 2.2955718427e+00	-2.7105168695e-01
 5.9389713688e-01	 2.3010600426e+00	-2.3475975867e-01
 5.7302794585e-01	 2.3063456004e+00	-1.9964590337e-01
 5.5216428212e-01	 2.3114293308e+00	-1.6565474943e-01
 5.3130885022e-01	 2.3163120935e+00	-1.3274390347e-01
 5.1046432505e-01	 2.3209947922e+00	-1.0088222619e-01
 4.8963335106e-01	 2.3254783737e+00	-7.0048387584e-02
 4.6881854153e-01	 2.3297638269e+00	-4.0229697181e-02
 4.4802247781e-01	 2.3338521819e+00	-1.1421203383e-02
 4.2724770867e-01	 2.3377445088e+00	 1.6374945305e-02
 4.0649674958e-01	 2.3414419169e+00	 4.3149885727e-02
 6.1781236685e-01	 2.3069354381e+00	-2.6586261864e-01
 5.9683706088e-01	 2.3124508058e+00	-2.3041392424e-01
 5.7586456268e-01	 2.3177625283e+00	-1.9603435185e-01
 5.5489761913e-01	 2.3228714243e+00	-1.6267946242e-01
 5.3393894817e-01	 2.3277783578e+00	-1.3031717395e-01
 5.1299123792e-01	 2.3324842369e+00	-9.8925973675e-02
 4.9205714594e-01	 2.3369900131e+00	-6.8493420644e-02
 4.7113929843e-01	 2.3412966803e+00	-3.9014934139e-02
 4.5024028954e-01	 2.3454052736e+00	-1.0492861855e-02
 4.2936268063e-01	 2.3493168684e+00	 1.7064179699e-02
 4.0850899964e-01	 2.3530325795e+00	 4.3641701447e-02
 6.2085561186e-01	 2.3182990335e+00	-2.5999343976e-01
 5.9977698488e-01	 2.3238415690e+00	-2.2574746586e-01
 5.7870117951e-01	 2.3291794562e+00	-1.9239744519e-01
 5.5763095615e-01	 2.3343135178e+00	-1.5991757199e-01
 5.3656904612e-01	 2.3392446221e+00	-1.2829409420e-01
 5.1551815079e-01	 2.3439736816e+00	-9.7523443060e-02
 4.9448094082e-01	 2.3485016525e+00	-6.7610664359e-02
 4.7346005534e-01	 2.3528295337e+00	-3.8568146562e-02
 4.5245810127e-01	 2.3569583652e+00	-1.0414639632e-02
 4.3147765259e-01	 2.3608892279e+00	 1.6825443297e-02
 4.1052124970e-01	 2.3646232420e+00	 4.3122450562e-02
 6.2389885687e-01	 2.3296626289e+00	-2.5342497024e-01
 6.0271690889e-01	 2.3352323323e+00	-2.2068150934e-01
 5.8153779633e-01	 2.3405963841e+00	-1.8860425205e-01
 5.6036429316e-01	 2.3457556113e+00	-1.5719360429e-01
 5.3919914406e-01	 2.3507108863e+00	-1.2646203493e-01
 5.1804506367e-01	 2.3554631263e+00	-9.6432103984e-02
 4.9690473570e-01	 2.3600132920e+00	-6.7134803921e-02
 4.7578081225e-01	 2.3643623870e+00	-3.8608209235e-02
 4.5467591300e-01	 2.3685114569e+00	-1.0896427862e-02
 4.3359262456e-01	 2.3724615874e+00	 1.5951153631e-02
 4.1253349977e-01	 2.3762139045e+00	 4.1880340497e-02
 3.9241099915e-01	 2.2603072792e+00	-1.3432115708e-02
 3.7240107582e-01	 2.2636900683e+00	 1.1569079965e-02
 3.5241891047e-01	 2.2668868793e+00	 3.5400567988e-02
 3.3246683788e-01	 2.2698988893e+00	 5.8126241412e-02
 3.1254715836e-01	 2.2727273096e+00	 7.9866223646e-02
 2.9266213723e-01	 2.2753733839e+00	 1.0069909294e-01
 2.7281400441e-01	 2.2778383883e+00	 1.2066293258e-01
 2.5300495396e-01	 2.2801236292e+00	 1.3975735309e-01
 2.3323714372e-01	 2.2822304433e+00	 1.5794517628e-01
 2.1351269493e-01	 2.2841601958e+00	 1.7515382244e-01
 1.9383369188e-01	 2.2859142799e+00	 1.9127644110e-01
 3.9442324921e-01	 2.2718979417e+00	 2.4569067479e-03
 3.7431071671e-01	 2.2752980775e+00	 2.7626032419e-02
 3.5422608452e-01	 2.2785112814e+00	 5.1551976181e-02
 3.3417169941e-01	 2.2815387368e+00	 7.4308536692e-02
 3.1414987347e-01	 2.2843816610e+00	 9.5997608069e-02
 2.9416288365e-01	 2.2870413042e+00	 1.1668440032e-01
 2.7421297130e-01	 2.2895189488e+00	 1.3639545606e-01
 2.5430234174e-01	 2.2918159083e+00	 1.5512049666e-01
 2.3443316386e-01	 2.2939335259e+00	 1.7281391952e-01
 2.1460756978e-01	 2.2958731740e+00	 1.8939598928e-01
 1.9482765448e-01	 2.2976362529e+00	 2.0475376571e-01
 3.9643549927e-01	 2.2834886043e+00	 1.5233013741e-02
 3.7622035759e-01	 2.2869060867e+00	 4.0542429015e-02
 3.5603325857e-01	 2.2901356836e+00	 6.4537807582e-02
 3.3587656094e-01	 2.2931785843e+00	 8.7316673655e-02
 3.1575258858e-01	 2.2960360123e+00	 1.0896287792e-01
 2.9566363008e-01	 2.2987092244e+00	 1.2952865523e-01
 2.7561193820e-01	 2.3011995094e+00	 1.4902951116e-01
 2.5559972952e-01	 2.3035081874e+00	 1.6744588261e-01
 2.3562918400e-01	 2.3056366085e+00	 1.8472443821e-01
 2.1570244463e-01	 2.3075861523e+00	 2.0077906361e-01
 1.9582161709e-01	 2.3093582259e+00	 2.1549157603e-01
 3.9844774934e-01	 2.2950792668e+00	 2.5206064744e-02
 3.7812999848e-01	 2.2985140959e+00	 5.0619329629e-02
 3.5784043262e-01	 2.3017600858e+00	 7.4649992055e-02
 3.3758142246e-01	 2.3048184318e+00	 9.7430639917e-02
 3.1735530370e-01	 2.3076903637e+00	 1.1902884537e-01
 2.9716437650e-01	 2.3103771446e+00	 1.3948432141e-01
 2.7701090510e-01	 2.3128800700e+00	 1.5880210433e-01
 2.5689711730e-01	 2.3152004664e+00	 1.7695401886e-01
 2.3682520414e-01	 2.3173396912e+00	 1.9387977151e-01
 2.1679731948e-01	 2.3192991305e+00	 2.0948771943e-01
 1.9681557969e-01	 2.3210801990e+00	 2.2365536113e-01
 4.0045999940e-01	 2.3066699293e+00	 3.2682582041e-02
 3.8003963936e-01	 2.3101221051e+00	 5.8154584396e-02
 3.5964760667e-01	 2.3133844879e+00	 8.2177556329e-02
 3.3928628399e-01	 2.3164582793e+00	 1.0492774156e-01
 3.1895801881e-01	 2.3193447151e+00	 1.2645983591e-01
 2.9866512293e-01	 2.3220450649e+00	 1.4680154475e-01
 2.7840987199e-01	 2.3245606305e+00	 1.6594806778e-01
 2.5819450508e-01	 2.3268927455e+00	 1.8386335840e-01
 2.3802122427e-01	 2.3290427738e+00	 2.0048099954e-01
 2.1789219433e-01	 2.3310121088e+00	 2.1570474528e-01
 1.9780954230e-01	 2.3328021720e+00	 2.2940877682e-01
 4.0247224946e-01	 2.3182605919e+00	 3.7965836917e-02
 3.8194928025e-01	 2.3217301142e+00	 6.3442920006e-02
 3.6145478072e-01	 2.3250088901e+00	 8.7406683423e-02
 3.4099114552e-01	 2.3280981268e+00	 1.1008266561e-01
 3.2056073392e-01	 2.3309990665e+00	 1.3151775344e-01
 3.0016586935e-01	 2.3337129851e+00	 1.5172822054e-01
 2.7980883889e-01	 2.3362411911e+00	 1.7070012846e-01
 2.5949189286e-01	 2.3385850246e+00	 1.8839036957e-01
 2.3921724441e-01	 2.3407458565e+00	 2.0472731461e-01
 2.1898706918e-01	 2.3427250870e+00	 2.1961111596e-01
 1.9880350490e-01	 2.3445241451e+00	 2.3291371753e-01
 4.0448449952e-01	 2.3298512544e+00	 4.1355932838e-02
 3.8385892114e-01	 2.3333381234e+00	 6.6776023028e-02
 3.6326195477e-01	 2.3366332922e+00	 9.0620769146e-02
 3.4269600705e-01	 2.3397379743e+00	 1.1316753969e-01
 3.2216344904e-01	 2.3426534179e+00	 1.3446214253e-01
 3.0166661578e-01	 2.3453809053e+00	 1.5451005799e-01
 2.8120780579e-01	 2.3479217516e+00	 1.7328897439e-01
 2.6078928064e-01	 2.3502773037e+00	 1.9074960379e-01
 2.4041326455e-01	 2.3524489391e+00	 2.0681608991e-01
 2.2008194403e-01	 2.3544380653e+00	 2.2138606171e-01
 1.9979746751e-01	 2.3562461181e+00	 2.3433038567e-01
 4.0649674958e-01	 2.3414419169e+00	 4.3149885727e-02
 3.8576856202e-01	 2.3449461326e+00	 6.8442620366e-02
 3.6506912882e-01	 2.3482576944e+00	 9.2100475779e-02
 3.4440086857e-01	 2.3513778218e+00	 1.1445198883e-01
 3.2376616415e-01	 2.3543077693e+00	 1.3555024802e-01
 3.0316736220e-01	 2.3570488256e+00	 1.5539064202e-01
 2.8260677268e-01	 2.3596023122e+00	 1.7394331831e-01
 2.6208666842e-01	 2.3619695828e+00	 1.9115376059e-01
 2.4160928469e-01	 2.3641520218e+00	 2.0694294555e-01
 2.2117681888e-01	 2.3661510435e+00	 2.2120713503e-01
 2.0079143012e-01	 2.3679680912e+00	 2.3381735870e-01
 4.0850899964e-01	 2.3530325795e+00	 4.3641701447e-02
 3.8767820290e-01	 2.3565541418e+00	 6.8728556959e-02
 3.6687630287e-01	 2.3598820966e+00	 9.2123783028e-02
 3.4610573010e-01	 2.3630176693e+00	 1.1420318963e-01
 3.2536887926e-01	 2.3659621207e+00	 1.3503707192e-01
 3.0466810863e-01	 2.3687167458e+00	 1.5461149256e-01
 2.8400573958e-01	 2.3712828728e+00	 1.7288995885e-01
 2.6338405619e-01	 2.3736618619e+00	 1.8981375029e-01
 2.4280530483e-01	 2.3758551044e+00	 2.0530181234e-01
 2.2227169373e-01	 2.3778640218e+00	 2.1925027504e-01
 2.0178539272e-01	 2.3796900642e+00	 2.3153165386e-01
 4.1052124970e-01	 2.3646232420e+00	 4.3122450562e-02
 3.8958784379e-01	 2.3681621510e+00	 6.7916870801e-02
 3.6868347692e-01	 2.3715064987e+00	 9.0966036354e-02
 3.4781059163e-01	 2.3746575168e+00	 1.1268592187e-01
 3.2697159438e-01	 2.3776164721e+00	 1.3317542779e-01
 3.0616885505e-01	 2.3803846660e+00	 1.5241212124e-01
 2.8540470648e-01	 2.3829634333e+00	 1.7035383920e-01
 2.6468144397e-01	 2.3853541410e+00	 1.8693875423e-01
 2.4400132497e-01	 2.3875581871e+00	 2.0208499315e-01
 2.2336656858e-01	 2.3895770000e+00	 2.1568986965e-01
 2.0277935533e-01	 2.3914120373e+00	 2.2762879067e-01
 4.1253349977e-01	 2.3762139045e+00	 4.1880340497e-02
 3.9149748467e-01	 2.3797701602e+00	 6.6287865392e-02
 3.7049065097e-01	 2.3831309009e+00	 8.8899991303e-02
 3.4951545315e-01	 2.3862973643e+00	 1.1016261754e-01
 3.2857430949e-01	 2.3892708235e+00	 1.3021599267e-01
 3.0766960148e-01	 2.3920525863e+00	 1.4903008580e-01
 2.8680367337e-01	 2.3946439939e+00	 1.6655810346e-01
 2.6597883175e-01	 2.3970464200e+00	 1.8273628267e-01
 2.4519734510e-01	 2.3992612697e+00	 1.9748322204e-01
 2.2446144344e-01	 2.4012899783e+00	 2.1069881552e-01
 2.0377331793e-01	 2.4031340103e+00	 2.2226285138e-01
 1.9383369188e-01	 2.2859142799e+00	 1.9127644110e-01
 1.7420550680e-01	 2.2874938616e+00	 2.0607237962e-01
 1.5462676116e-01	 2.2889006987e+00	 2.1938797533e-01
 1.3509938115e-01	 2.2901362604e+00	 2.3119445657e-01
 1.1562525620e-01	 2.2912020399e+00	 2.4143736088e-01
 9.6206238826e-02	 2.2920995529e+00	 2.5003661687e-01
 7.6844144460e-02	 2.2928303372e+00	 2.5688659258e-01
 5.7540751290e-02	 2.2933959511e+00	 2.6185614211e-01
 3.8297800152e-02	 2.2937979729e+00	 2.6478868052e-01
 1.9116994432e-02	 2.2940379999e+00	 2.6550231460e-01
 0.0000000000e+00	 2.2941176471e+00	 2.6379005509e-01
 1.9482765448e-01	 2.2976362529e+00	 2.0475376571e-01
 1.7509881774e-01	 2.2992239346e+00	 2.1871890485e-01
 1.5541967398e-01	 2.3006379858e+00	 2.3121826907e-01
 1.3579215923e-01	 2.3018798834e+00	 2.4223079870e-01
 1.1621817263e-01	 2.3029511281e+00	 2.5171005926e-01
 9.6699576196e-02	 2.3038532435e+00	 2.5958409285e-01
 7.7238194665e-02	 2.3045877752e+00	 2.6575523951e-01
 5.7835815344e-02	 2.3051562895e+00	 2.7009996166e-01
 3.8494187998e-02	 2.3055603729e+00	 2.7246870304e-01
 1.9215024746e-02	 2.3058016307e+00	 2.7268581085e-01
 0.0000000000e+00	 2.3058816863e+00	 2.7054954797e-01
 1.9582161709e-01	 2.3093582259e+00	 2.1549157603e-01
 1.7599212869e-01	 2.3109540076e+00	 2.2876795694e-01
 1.5621258679e-01	 2.3123752730e+00	 2.4061557170e-01
 1.3648493731e-01	 2.3136235064e+00	 2.5101876499e-01
 1.1681108906e-01	 2.3147002164e+00	 2.5993671705e-01
 9.7192913566e-02	 2.3156069341e+00	 2.6730306180e-01
 7.7632244870e-02	 2.3163452132e+00	 2.7302547830e-01
 5.8130879399e-02	 2.3169166279e+00	 2.7698529037e-01
 3.8690575844e-02	 2.3173227728e+00	 2.7903710702e-01
 1.9313055059e-02	 2.3175652615e+00	 2.7900853377e-01
 0.0000000000e+00	 2.3176457255e+00	 2.7669998289e-01
 1.9681557969e-01	 2.3210801990e+00	 2.2365536113e-01
 1.7688543964e-01	 2.3226840806e+00	 2.3636350299e-01
 1.5700549961e-01	 2.3241125601e+00	 2.4769850799e-01
 1.3717771539e-01	 2.3253671294e+00	 2.5764795861e-01
 1.1740400549e-01	 2.3264493046e+00	 2.6617438049e-01
 9.7686250936e-02	 2.3273606247e+00	 2.7321462376e-01
 7.8026295075e-02	 2.3281026512e+00	 2.7867922148e-01
 5.8425943454e-02	 2.3286769663e+00	 2.8245176142e-01
 3.8886963690e-02	 2.3290851728e+00	 2.8438830510e-01
 1.9411085373e-02	 2.3293288922e+00	 2.8431688572e-01
 0.0000000000e+00	 2.3294097647e+00	 2.8203711408e-01
 1.9780954230e-01	 2.3328021720e+00	 2.2940877682e-01
 1.7777875059e-01	 2.3344141536e+00	 2.4164774101e-01
 1.5779841242e-01	 2.3358498473e+00	 2.5258404215e-01
 1.3787049347e-01	 2.3371107524e+00	 2.6220647527e-01
 1.1799692192e-01	 2.3381983928e+00	 2.7047878583e-01
 9.8179588307e-02	 2.3391143153e+00	 2.7733881070e-01
 7.8420345280e-02	 2.3398600892e+00	 2.8269759996e-01
 5.8721007509e-02	 2.3404373048e+00	 2.8643855730e-01
 3.9083351536e-02	 2.3408475727e+00	 2.8841663466e-01
 1.9509115686e-02	 2.3410925230e+00	 2.8845761374e-01
 0.0000000000e+00	 2.3411738039e+00	 2.8635750488e-01
 1.9880350490e-01	 2.3445241451e+00	 2.3291371753e-01
 1.7867206154e-01	 2.3461442266e+00	 2.4476117069e-01
 1.5859132524e-01	 2.3475871344e+00	 2.5538754571e-01
 1.3856327155e-01	 2.3488543754e+00	 2.6478096608e-01
 1.1858983836e-01	 2.3499474810e+00	 2.7290441551e-01
 9.8672925677e-02	 2.3508680059e+00	 2.7969463427e-01
 7.8814395486e-02	 2.3516175272e+00	 2.8506100043e-01
 5.9016071564e-02	 2.3521976432e+00	 2.8888443524e-01
 3.9279739382e-02	 2.3526099727e+00	 2.9101636964e-01
 1.9607146000e-02	 2.3528561538e+00	 2.9127780612e-01
 0.0000000000e+00	 2.3529378432e+00	 2.8945850751e-01
 1.9979746751e-01	 2.3562461181e+00	 2.3433038567e-01
 1.7956537249e-01	 2.3578742996e+00	 2.4584266190e-01
 1.5938423806e-01	 2.3593244216e+00	 2.5622286310e-01
 1.3925604963e-01	 2.3605979984e+00	 2.6545669859e-01
 1.1918275479e-01	 2.3616965693e+00	 2.7350455267e-01
 9.9166263048e-02	 2.3626216965e+00	 2.8030013197e-01
 7.9208445691e-02	 2.3633749652e+00	 2.8574910171e-01
 5.9311135619e-02	 2.3639579816e+00	 2.8972775194e-01
 3.9476127228e-02	 2.3643723726e+00	 2.9208173200e-01
 1.9705176314e-02	 2.3646197846e+00	 2.9262488904e-01
 0.0000000000e+00	 2.3647018824e+00	 2.9113824340e-01
 2.0079143012e-01	 2.3679680912e+00	 2.3381735870e-01
 1.8045868344e-01	 2.3696043726e+00	 2.4502952080e-01
 1.6017715087e-01	 2.3710617087e+00	 2.5520237515e-01
 1.3994882771e-01	 2.3723416214e+00	 2.6431761571e-01
 1.1977567122e-01	 2.3734456575e+00	 2.7233133388e-01
 9.9659600419e-02	 2.3743753871e+00	 2.7917241196e-01
 7.9602495897e-02	 2.3751324032e+00	 2.8474090986e-01
 5.9606199674e-02	 2.3757183200e+00	 2.8890648745e-01
 3.9672515074e-02	 2.3761347726e+00	 2.9150690283e-01
 1.9803206627e-02	 2.3763834154e+00	 2.9234662342e-01
 0.0000000000e+00	 2.3764659216e+00	 2.9119558419e-01
 2.0178539272e-01	 2.3796900642e+00	 2.3153165386e-01
 1.8135199440e-01	 2.3813344456e+00	 2.4245755388e-01
 1.6097006369e-01	 2.3827989958e+00	 2.5243706054e-01
 1.4064160579e-01	 2.3840852444e+00	 2.6144639286e-01
 1.2036858765e-01	 2.3851947457e+00	 2.6943580018e-01
 1.0015293779e-01	 2.3861290777e+00	 2.7632769649e-01
 7.9996546103e-02	 2.3868898412e+00	 2.8201479228e-01
 5.9901263729e-02	 2.3874786584e+00	 2.8635826837e-01
 3.9868902920e-02	 2.3878971725e+00	 2.8918603312e-01
 1.9901236941e-02	 2.3881470462e+00	 2.9029110173e-01
 0.0000000000e+00	 2.3882299608e+00	 2.8943013327e-01
 2.0277935533e-01	 2.3914120373e+00	 2.2762879067e-01
 1.8224530535e-01	 2.3930645186e+00	 2.3826112977e-01
 1.6176297651e-01	 2.3945362830e+00	 2.4803655515e-01
 1.4133438387e-01	 2.3958288674e+00	 2.5692449320e-01
 1.2096150409e-01	 2.3969438340e+00	 2.6486794662e-01
 1.0064627516e-01	 2.3978827683e+00	 2.7178136387e-01
 8.0390596308e-02	 2.3986472792e+00	 2.7754851077e-01
 6.0196327785e-02	 2.3992389968e+00	 2.8202039038e-01
 4.0065290767e-02	 2.3996595725e+00	 2.8501325421e-01
 1.9999267255e-02	 2.3999106770e+00	 2.8630674495e-01
 0.0000000000e+00	 2.3999940000e+00	 2.8564220780e-01
 2.0377331793e-01	 2.4031340103e+00	 2.2226285138e-01
 1.8313861630e-01	 2.4047945917e+00	 2.3257323906e-01
 1.6255588932e-01	 2.4062735701e+00	 2.4210920960e-01
 1.4202716195e-01	 2.4075724904e+00	 2.5083222122e-01
 1.2155442052e-01	 2.4086929222e+00	 2.5867677017e-01
 1.0113961253e-01	 2.4096364589e+00	 2.6554798930e-01
 8.0784646514e-02	 2.4104047172e+00	 2.7131925352e-01
 6.0491391840e-02	 2.4109993353e+00	 2.7582983999e-01
 4.0261678613e-02	 2.4114219724e+00	 2.7888268794e-01
 2.0097297568e-02	 2.4116743078e+00	 2.8024229967e-01
 0.0000000000e+00	 2.4117580392e+00	 2.7963282132e-01
 2.4117580392e+00	 0.0000000000e+00	 2.1084121589e+00
 2.4116743078e+00	 2.0097297568e-02	 2.1077190162e+00
 2.4114219724e+00	 4.0261678613e-02	 2.1045831613e+00
 2.4109993353e+00	 6.0491391840e-02	 2.0991022700e+00
 2.4104047172e+00	 8.0784646514e-02	 2.0913996011e+00
 2.4096364589e+00	 1.0113961253e-01	 2.0816206969e+00
 2.4086929222e+00	 1.2155442052e-01	 2.0699299772e+00
 2.4075724904e+00	 1.4202716195e-01	 2.0565072575e+00
 2.4062735701e+00	 1.6255588932e-01	 2.0415442202e+00
 2.4047945917e+00	 1.8313861630e-01	 2.0252408719e+00
 2.4031340103e+00	 2.0377331793e-01	 2.0078020226e+00
 2.4235240784e+00	 0.0000000000e+00	 2.0980808798e+00
 2.4234399385e+00	 2.0195344548e-02	 2.0972344483e+00
 2.4231863721e+00	 4.0458099847e-02	 2.0939922640e+00
 2.4227616731e+00	 6.0786506059e-02	 2.0884439821e+00
 2.4221641541e+00	 8.1178763712e-02	 2.0807046972e+00
 2.4213921478e+00	 1.0163303378e-01	 2.0709114639e+00
 2.4204440079e+00	 1.2214743775e-01	 2.0592197044e+00
 2.4193181100e+00	 1.4272005781e-01	 2.0457995320e+00
 2.4180128527e+00	 1.6334893694e-01	 2.0308320231e+00
 2.4165266589e+00	 1.8403207912e-01	 2.0145054687e+00
 2.4148579762e+00	 2.0476744952e-01	 1.9970116446e+00
 2.4352901176e+00	 0.0000000000e+00	 2.0851997351e+00
 2.4352055692e+00	 2.0293391528e-02	 2.0843294154e+00
 2.4349507718e+00	 4.0654521081e-02	 2.0811077984e+00
 2.4345240108e+00	 6.1081620278e-02	 2.0756173402e+00
 2.4339235909e+00	 8.1572880911e-02	 2.0679658096e+00
 2.4331478366e+00	 1.0212645502e-01	 2.0582826232e+00
 2.4321950936e+00	 1.2274045499e-01	 2.0467150602e+00
 2.4310637295e+00	 1.4341295367e-01	 2.0334243857e+00
 2.4297521354e+00	 1.6414198456e-01	 2.0185819156e+00
 2.4282587261e+00	 1.8492554194e-01	 2.0023650570e+00
 2.4265819421e+00	 2.0576158111e-01	 1.9849533610e+00
 2.4470561569e+00	 0.0000000000e+00	 2.0697274421e+00
 2.4469711999e+00	 2.0391438508e-02	 2.0689538817e+00
 2.4467151715e+00	 4.0850942315e-02	 2.0658708974e+00
 2.4462863486e+00	 6.1376734497e-02	 2.0605546236e+00
 2.4456830278e+00	 8.1966998109e-02	 2.0531063991e+00
 2.4449035255e+00	 1.0261987626e-01	 2.0436489108e+00
 2.4439461793e+00	 1.2333347222e-01	 2.0323222097e+00
 2.4428093491e+00	 1.4410584953e-01	 2.0192796272e+00
 2.4414914180e+00	 1.6493503218e-01	 2.0046836265e+00
 2.4399907934e+00	 1.8581900476e-01	 1.9887016240e+00
 2.4383059080e+00	 2.0675571270e-01	 1.9715018187e+00
 2.4588221961e+00	 0.0000000000e+00	 2.0516247953e+00
 2.4587368307e+00	 2.0489485488e-02	 2.0510599078e+00
 2.4584795711e+00	 4.1047363549e-02	 2.0482248037e+00
 2.4580486864e+00	 6.1671848716e-02	 2.0431902296e+00
 2.4574424647e+00	 8.2361115307e-02	 2.0360520482e+00
 2.4566592143e+00	 1.0311329750e-01	 2.0269271847e+00
 2.4556972650e+00	 1.2392648946e-01	 2.0159494365e+00
 2.4545549686e+00	 1.4479874539e-01	 2.0032651774e+00
 2.4532307006e+00	 1.6572807980e-01	 1.9890289877e+00
 2.4517228606e+00	 1.8671246759e-01	 1.9733992496e+00
 2.4500298739e+00	 2.0774984429e-01	 1.9565337452e+00
 2.4705882353e+00	 0.0000000000e+00	 2.0308546174e+00
 2.4705024614e+00	 2.0587532468e-02	 2.0306016014e+00
 2.4702439708e+00	 4.1243784784e-02	 2.0281148199e+00
 2.4698110242e+00	 6.1966962935e-02	 2.0234606236e+00
 2.4692019016e+00	 8.2755232505e-02	 2.0167304111e+00
 2.4684149032e+00	 1.0360671875e-01	 2.0080363734e+00
 2.4674483506e+00	 1.2451950669e-01	 1.9975070907e+00
 2.4663005881e+00	 1.4549164125e-01	 1.9852830166e+00
 2.4649699832e+00	 1.6652112742e-01	 1.9715118811e+00
 2.4634549279e+00	 1.8760593041e-01	 1.9563440519e+00
 2.4617538398e+00	 2.0874397588e-01	 1.9399278940e+00
 2.4823542745e+00	 0.0000000000e+00	 2.0073817115e+00
 2.4822680921e+00	 2.0685579447e-02	 2.0075350682e+00
 2.4820083705e+00	 4.1440206018e-02	 2.0054882598e+00
 2.4815733620e+00	 6.2262077154e-02	 2.0013042896e+00
 2.4809613385e+00	 8.3149349703e-02	 1.9950711637e+00
 2.4801705920e+00	 1.0410013999e-01	 1.9868974264e+00
 2.4791994363e+00	 1.2511252392e-01	 1.9769075383e+00
 2.4780462077e+00	 1.4618453711e-01	 1.9652371332e+00
 2.4767092658e+00	 1.6731417504e-01	 1.9520281865e+00
 2.4751869951e+00	 1.8849939323e-01	 1.9374241354e+00
 2.4734778057e+00	 2.0973810747e-01	 1.9215649916e+00
 2.4941203137e+00	 0.0000000000e+00	 1.9811728137e+00
 2.4940337228e+00	 2.0783626427e-02	 1.9818183658e+00
 2.4937727702e+00	 4.1636627252e-02	 1.9802944014e+00
 2.4933356998e+00	 6.2557191373e-02	 1.9766616831e+00
 2.4927207753e+00	 8.3543466901e-02	 1.9710059557e+00
 2.4919262808e+00	 1.0459356123e-01	 1.9634332652e+00
 2.4909505220e+00	 1.2570554116e-01	 1.9540651123e+00
 2.4897918272e+00	 1.4687743297e-01	 1.9430334743e+00
 2.4884485484e+00	 1.6810722266e-01	 1.9304757318e+00
 2.4869190623e+00	 1.8939285605e-01	 1.9165295398e+00
 2.4852017716e+00	 2.1073223906e-01	 1.9013276857e+00
 2.5058863530e+00	 0.0000000000e+00	 1.9521965483e+00
 2.5057993536e+00	 2.0881673407e-02	 1.9534114575e+00
 2.5055371698e+00	 4.1833048486e-02	 1.9524844404e+00
 2.5050980376e+00	 6.2852305592e-02	 1.9494751843e+00
 2.5044802122e+00	 8.3937584099e-02	 1.9444683636e+00
 2.5036819697e+00	 1.0508698248e-01	 1.9375687361e+00
 2.5027016077e+00	 1.2629855839e-01	 1.9288960646e+00
 2.5015374467e+00	 1.4757032883e-01	 1.9185798970e+00
 2.5001878310e+00	 1.6890027028e-01	 1.9067542434e+00
 2.4986511296e+00	 1.9028631888e-01	 1.8935521901e+00
 2.4969257375e+00	 2.1172637065e-01	 1.8791004951e+00
 2.5176523922e+00	 0.0000000000e+00	 1.9204233834e+00
 2.5175649843e+00	 2.0979720387e-02	 1.9222761684e+00
 2.5173015695e+00	 4.2029469720e-02	 1.9220114462e+00
 2.5168603754e+00	 6.3147419810e-02	 1.9196890536e+00
 2.5162396491e+00	 8.4331701297e-02	 1.9153938457e+00
 2.5154376585e+00	 1.0558040372e-01	 1.9092305644e+00
 2.5144526934e+00	 1.2689157562e-01	 1.9013185197e+00
 2.5132830663e+00	 1.4826322469e-01	 1.8917861215e+00
 2.5119271136e+00	 1.6969331790e-01	 1.8807652987e+00
 2.5103831968e+00	 1.9117978170e-01	 1.8683858485e+00
 2.5086497034e+00	 2.1272050224e-01	 1.8547697605e+00
 2.5294184314e+00	 0.0000000000e+00	 1.8858255882e+00
 2.5293306150e+00	 2.1077767367e-02	 1.8883761419e+00
 2.5290659692e+00	 4.2225890954e-02	 1.8888303183e+00
 2.5286227132e+00	 6.3442534029e-02	 1.8872493871e+00
 2.5279990860e+00	 8.4725818494e-02	 1.8837196974e+00
 2.5271933474e+00	 1.0607382496e-01	 1.8783473093e+00
 2.5262037791e+00	 1.2748459286e-01	 1.8712524293e+00
 2.5250286858e+00	 1.4895612055e-01	 1.8625636850e+00
 2.5236663962e+00	 1.7048636552e-01	 1.8524122796e+00
 2.5221152641e+00	 1.9207324452e-01	 1.8409260670e+00
 2.5203736693e+00	 2.1371463383e-01	 1.8282235968e+00
 2.4031340103e+00	 2.0377331793e-01	 2.0078020226e+00
 2.4012899783e+00	 2.2446144344e-01	 1.9888458888e+00
 2.3992612697e+00	 2.4519734510e-01	 1.9678706764e+00
 2.3970464200e+00	 2.6597883175e-01	 1.9448899597e+00
 2.3946439939e+00	 2.8680367337e-01	 1.9199103364e+00
 2.3920525863e+00	 3.0766960148e-01	 1.8929288862e+00
 2.3892708235e+00	 3.2857430949e-01	 1.8639309107e+00
 2.3862973643e+00	 3.4951545315e-01	 1.8328880041e+00
 2.3831309009e+00	 3.7049065097e-01	 1.7997565147e+00
 2.3797701602e+00	 3.9149748467e-01	 1.7651725514e+00
 2.3762139045e+00	 4.1253349977e-01	 1.7300342607e+00
 2.4148579762e+00	 2.0476744952e-01	 1.9970116446e+00
 2.4130049479e+00	 2.2555650443e-01	 1.9779808586e+00
 2.4109663420e+00	 2.4639356858e-01	 1.9569371531e+00
 2.4087406869e+00	 2.6727644010e-01	 1.9338992007e+00
 2.4063265403e+00	 2.8820287811e-01	 1.9088767331e+00
 2.4037224902e+00	 3.0917060305e-01	 1.8818677639e+00
 2.4009271562e+00	 3.3017729708e-01	 1.8528560957e+00
 2.3979391906e+00	 3.5122060452e-01	 1.8218091618e+00
 2.3947572793e+00	 3.7229813225e-01	 1.7886811007e+00
 2.3913801429e+00	 3.9340745022e-01	 1.7541853651e+00
 2.3878065376e+00	 4.1454609193e-01	 1.7191078950e+00
 2.4265819421e+00	 2.0576158111e-01	 1.9849533610e+00
 2.4247199174e+00	 2.2665156542e-01	 1.9659893207e+00
 2.4226714143e+00	 2.4758979205e-01	 1.9450207043e+00
 2.4204349538e+00	 2.6857404845e-01	 1.9220687815e+00
 2.4180090867e+00	 2.8960208284e-01	 1.8971438417e+00
 2.4153923941e+00	 3.1067160461e-01	 1.8702421765e+00
 2.4125834890e+00	 3.3178028467e-01	 1.8413433487e+00
 2.4095810170e+00	 3.5292575589e-01	 1.8104078015e+00
 2.4063836578e+00	 3.7410561354e-01	 1.7773925367e+00
 2.4029901255e+00	 3.9531741576e-01	 1.7430614772e+00
 2.3993991707e+00	 4.1655868409e-01	 1.7080985032e+00
 2.4383059080e+00	 2.0675571270e-01	 1.9715018187e+00
 2.4364348870e+00	 2.2774662641e-01	 1.9527391314e+00
 2.4343764866e+00	 2.4878601553e-01	 1.9319831271e+00
 2.4321292207e+00	 2.6987165680e-01	 1.9092552812e+00
 2.4296916330e+00	 2.9100128758e-01	 1.8845639742e+00
 2.4270622980e+00	 3.1217260618e-01	 1.8579012286e+00
 2.4242398217e+00	 3.3338327226e-01	 1.8292397361e+00
 2.4212228434e+00	 3.5463090726e-01	 1.7985302285e+00
 2.4180100362e+00	 3.7591309483e-01	 1.7657365763e+00
 2.4146001082e+00	 3.9722738131e-01	 1.7316483324e+00
 2.4109918038e+00	 4.1857127626e-01	 1.6968566554e+00
 2.4500298739e+00	 2.0774984429e-01	 1.9565337452e+00
 2.4481498566e+00	 2.2884168740e-01	 1.9381002133e+00
 2.4460815589e+00	 2.4998223900e-01	 1.9176882669e+00
 2.4438234876e+00	 2.7116926515e-01	 1.8953173049e+00
 2.4413741794e+00	 2.9240049232e-01	 1.8709914417e+00
 2.4387322019e+00	 3.1367360775e-01	 1.8446959929e+00
 2.4358961545e+00	 3.3498625986e-01	 1.8163942558e+00
 2.4328646698e+00	 3.5633605864e-01	 1.7860246376e+00
 2.4296364146e+00	 3.7772057612e-01	 1.7535607852e+00
 2.4262100909e+00	 3.9913734685e-01	 1.7197951552e+00
 2.4225844368e+00	 4.2058386842e-01	 1.6852346594e+00
 2.4617538398e+00	 2.0874397588e-01	 1.9399278940e+00
 2.4598648262e+00	 2.2993674839e-01	 1.9219445002e+00
 2.4577866312e+00	 2.5117846248e-01	 1.9020019616e+00
 2.4555177545e+00	 2.7246687350e-01	 1.8801154278e+00
 2.4530567258e+00	 2.9379969705e-01	 1.8562824984e+00
 2.4504021058e+00	 3.1517460931e-01	 1.8304794533e+00
 2.4475524872e+00	 3.3658924745e-01	 1.8026577809e+00
 2.4445064962e+00	 3.5804121001e-01	 1.7727410579e+00
 2.4412627931e+00	 3.7952805740e-01	 1.7407144964e+00
 2.4378200736e+00	 4.0104731239e-01	 1.7073529079e+00
 2.4341770699e+00	 4.2259646059e-01	 1.6730865207e+00
 2.4734778057e+00	 2.0973810747e-01	 1.9215649916e+00
 2.4715797958e+00	 2.3103180938e-01	 1.9041458836e+00
 2.4694917035e+00	 2.5237468595e-01	 1.8847919880e+00
 2.4672120214e+00	 2.7376448185e-01	 1.8635121407e+00
 2.4647392722e+00	 2.9519890179e-01	 1.8402952871e+00
 2.4620720097e+00	 3.1667561088e-01	 1.8151064515e+00
 2.4592088200e+00	 3.3819223504e-01	 1.7878830061e+00
 2.4561483226e+00	 3.5974636138e-01	 1.7585312991e+00
 2.4528891715e+00	 3.8133553869e-01	 1.7270487674e+00
 2.4494300562e+00	 4.0295727794e-01	 1.6941742494e+00
 2.4457697030e+00	 4.2460905276e-01	 1.6602679032e+00
 2.4852017716e+00	 2.1073223906e-01	 1.9013276857e+00
 2.4832947654e+00	 2.3212687037e-01	 1.8845801603e+00
 2.4811967758e+00	 2.5357090942e-01	 1.8659280084e+00
 2.4789062883e+00	 2.7506209020e-01	 1.8453717969e+00
 2.4764218186e+00	 2.9659810652e-01	 1.8228897862e+00
 2.4737419136e+00	 3.1817661245e-01	 1.7984336326e+00
 2.4708651527e+00	 3.3979522263e-01	 1.7719243943e+00
 2.4677901490e+00	 3.6145151275e-01	 1.7432488992e+00
 2.4645155499e+00	 3.8314301998e-01	 1.7124163385e+00
 2.4610400389e+00	 4.0486724348e-01	 1.6801134948e+00
 2.4573623360e+00	 4.2662164492e-01	 1.6466360920e+00
 2.4969257375e+00	 2.1172637065e-01	 1.8791004951e+00
 2.4950097349e+00	 2.3322193136e-01	 1.8631249814e+00
 2.4929018481e+00	 2.5476713290e-01	 1.8452815195e+00
 2.4906005552e+00	 2.7635969854e-01	 1.8255605603e+00
 2.4881043650e+00	 2.9799731126e-01	 1.8039277568e+00
 2.4854118175e+00	 3.1967761402e-01	 1.7803193941e+00
 2.4825214855e+00	 3.4139821022e-01	 1.7546381249e+00
 2.4794319754e+00	 3.6315666412e-01	 1.7267490734e+00
 2.4761419284e+00	 3.8495050127e-01	 1.6966715919e+00
 2.4726500216e+00	 4.0677720903e-01	 1.6650265774e+00
 2.4689549691e+00	 4.2863423709e-01	 1.6320499563e+00
 2.5086497034e+00	 2.1272050224e-01	 1.8547697605e+00
 2.5067247045e+00	 2.3431699235e-01	 1.8396598030e+00
 2.5046069204e+00	 2.5596335637e-01	 1.8227258025e+00
 2.5022948221e+00	 2.7765730689e-01	 1.8039463553e+00
 2.4997869113e+00	 2.9939651599e-01	 1.7832726932e+00
 2.4970817214e+00	 3.2117861558e-01	 1.7606238345e+00
 2.4941778182e+00	 3.4300119781e-01	 1.7358820437e+00
 2.4910738018e+00	 3.6486181549e-01	 1.7088886634e+00
 2.4877683068e+00	 3.8675798256e-01	 1.6796705126e+00
 2.4842600043e+00	 4.0868717457e-01	 1.6487710100e+00
 2.4805476022e+00	 4.3064682925e-01	 1.6163699135e+00
 2.5203736693e+00	 2.1371463383e-01	 1.8282235968e+00
 2.5184396741e+00	 2.3541205334e-01	 1.8140658374e+00
 2.5163119927e+00	 2.5715957984e-01	 1.7981358736e+00
 2.5139890890e+00	 2.7895491524e-01	 1.7803988170e+00
 2.5114694577e+00	 3.0079572073e-01	 1.7607897724e+00
 2.5087516253e+00	 3.2267961715e-01	 1.7392087043e+00
 2.5058341510e+00	 3.4460418540e-01	 1.7155156129e+00
 2.5027156282e+00	 3.6656696686e-01	 1.6895260895e+00
 2.4993946852e+00	 3.8856546385e-01	 1.6612706494e+00
 2.4958699869e+00	 4.1059714012e-01	 1.6312058487e+00
 2.4921402353e+00	 4.3265942142e-01	 1.5994578949e+00
 2.3762139045e+00	 4.1253349977e-01	 1.7300342607e+00
 2.3724615874e+00	 4.3359262456e-01	 1.6940901272e+00
 2.3685114569e+00	 4.5467591300e-01	 1.6568736883e+00
 2.3643623870e+00	 4.7578081225e-01	 1.6184224921e+00
 2.3600132920e+00	 4.9690473570e-01	 1.5787655387e+00
 2.3554631263e+00	 5.1804506367e-01	 1.5379227552e+00
 2.3507108863e+00	 5.3919914406e-01	 1.4959046594e+00
 2.3457556113e+00	 5.6036429316e-01	 1.4527122158e+00
 2.3405963841e+00	 5.8153779633e-01	 1.4083368848e+00
 2.3352323323e+00	 6.0271690889e-01	 1.3627608689e+00
 2.3296626289e+00	 6.2389885687e-01	 1.3159575544e+00
 2.3878065376e+00	 4.1454609193e-01	 1.7191078950e+00
 2.3840359144e+00	 4.3570795609e-01	 1.6832458325e+00
 2.3800665126e+00	 4.5689410178e-01	 1.6461641372e+00
 2.3758972011e+00	 4.7810196370e-01	 1.6078658581e+00
 2.3715268885e+00	 4.9932894265e-01	 1.5683435650e+00
 2.3669545243e+00	 5.2057240614e-01	 1.5275788715e+00
 2.3621791000e+00	 5.4182968916e-01	 1.4855421556e+00
 2.3571996501e+00	 5.6309809487e-01	 1.4421924799e+00
 2.3520152530e+00	 5.8437489542e-01	 1.3974777130e+00
 2.3466250320e+00	 6.0565733271e-01	 1.3513348561e+00
 2.3410281562e+00	 6.2694261926e-01	 1.3036905719e+00
 2.3993991707e+00	 4.1655868409e-01	 1.7080985032e+00
 2.3956102413e+00	 4.3782328761e-01	 1.6723473487e+00
 2.3916215684e+00	 4.5911229055e-01	 1.6354117256e+00
 2.3874320152e+00	 4.8042311516e-01	 1.5972700401e+00
 2.3830404850e+00	 5.0175314960e-01	 1.5578882413e+00
 2.3784459223e+00	 5.2309974862e-01	 1.5172193812e+00
 2.3736473136e+00	 5.4446023425e-01	 1.4752033793e+00
 2.3686436889e+00	 5.6583189658e-01	 1.4317669943e+00
 2.3634341219e+00	 5.8721199450e-01	 1.3868240069e+00
 2.3580177318e+00	 6.0859775653e-01	 1.3402756125e+00
 2.3523936835e+00	 6.2998638165e-01	 1.2920110265e+00
 2.4109918038e+00	 4.1857127626e-01	 1.6968566554e+00
 2.4071845683e+00	 4.3993861914e-01	 1.6612487985e+00
 2.4031766242e+00	 4.6133047933e-01	 1.6244734092e+00
 2.3989668293e+00	 4.8274426662e-01	 1.5864939479e+00
 2.3945540815e+00	 5.0417735656e-01	 1.5472593927e+00
 2.3899373203e+00	 5.2562709109e-01	 1.5067038240e+00
 2.3851155273e+00	 5.4709077934e-01	 1.4647462213e+00
 2.3800877277e+00	 5.6856569829e-01	 1.4212904750e+00
 2.3748529908e+00	 5.9004909358e-01	 1.3762256167e+00
 2.3694104315e+00	 6.1153818035e-01	 1.3294262675e+00
 2.3637592108e+00	 6.3303014404e-01	 1.2807533061e+00
 2.4225844368e+00	 4.2058386842e-01	 1.6852346594e+00
 2.4187588953e+00	 4.4205395067e-01	 1.6498060086e+00
 2.4147316800e+00	 4.6354866811e-01	 1.6132078437e+00
 2.4105016434e+00	 4.8506541808e-01	 1.5753982201e+00
 2.4060676780e+00	 5.0660156351e-01	 1.5363186369e+00
 2.4014287183e+00	 5.2815443357e-01	 1.4958936341e+00
 2.3965837410e+00	 5.4972132443e-01	 1.4540306099e+00
 2.3915317665e+00	 5.7129950000e-01	 1.4106198610e+00
 2.3862718597e+00	 5.9288619266e-01	 1.3655348475e+00
 2.3808031313e+00	 6.1447860417e-01	 1.3186326855e+00
 2.3751247381e+00	 6.3607390644e-01	 1.2697548650e+00
 2.4341770699e+00	 4.2259646059e-01	 1.6730865207e+00
 2.4303332222e+00	 4.4416928220e-01	 1.6378764713e+00
 2.4262867358e+00	 4.6576685689e-01	 1.6014753483e+00
 2.4220364574e+00	 4.8738656954e-01	 1.5638451885e+00
 2.4175812745e+00	 5.0902577046e-01	 1.5249293488e+00
 2.4129201163e+00	 5.3068177605e-01	 1.4846521040e+00
 2.4080519546e+00	 5.5235186953e-01	 1.4429184727e+00
 2.4029758052e+00	 5.7403330171e-01	 1.3996142737e+00
 2.3976907286e+00	 5.9572329175e-01	 1.3546064150e+00
 2.3921958310e+00	 6.1741902799e-01	 1.3077434169e+00
 2.3864902655e+00	 6.3911766883e-01	 1.2588561694e+00
 2.4457697030e+00	 4.2460905276e-01	 1.6602679032e+00
 2.4419075492e+00	 4.4628461373e-01	 1.6253193083e+00
 2.4378417916e+00	 4.6798504567e-01	 1.5891378702e+00
 2.4335712715e+00	 4.8970772101e-01	 1.5516988432e+00
 2.4290948711e+00	 5.1144997741e-01	 1.5129566261e+00
 2.4244115143e+00	 5.3320911852e-01	 1.4728443498e+00
 2.4195201683e+00	 5.5498241462e-01	 1.4312736999e+00
 2.4144198440e+00	 5.7676710342e-01	 1.3881349781e+00
 2.4091095975e+00	 5.9856039083e-01	 1.3432974027e+00
 2.4035885308e+00	 6.2035945181e-01	 1.2966096513e+00
 2.3978557928e+00	 6.4216143122e-01	 1.2479006441e+00
 2.4573623360e+00	 4.2662164492e-01	 1.6466360920e+00
 2.4534818761e+00	 4.4839994526e-01	 1.6119952344e+00
 2.4493968474e+00	 4.7020323445e-01	 1.5760589509e+00
 2.4451060856e+00	 4.9202887247e-01	 1.5388247999e+00
 2.4406084676e+00	 5.1387418437e-01	 1.5002672561e+00
 2.4359029123e+00	 5.3573646100e-01	 1.4603372765e+00
 2.4309883819e+00	 5.5761295972e-01	 1.4189621085e+00
 2.4258638828e+00	 5.7950090513e-01	 1.3760453440e+00
 2.4205284664e+00	 6.0139748991e-01	 1.3314672202e+00
 2.4149812305e+00	 6.2329987564e-01	 1.2850851699e+00
 2.4092213201e+00	 6.4520519362e-01	 1.2367346199e+00
 2.4689549691e+00	 4.2863423709e-01	 1.6320499563e+00
 2.4650562031e+00	 4.5051527679e-01	 1.5977665231e+00
 2.4609519032e+00	 4.7242142323e-01	 1.5621036922e+00
 2.4566408997e+00	 4.9435002393e-01	 1.5250902664e+00
 2.4521220641e+00	 5.1629839132e-01	 1.4867296826e+00
 2.4473943103e+00	 5.3826380348e-01	 1.4469995451e+00
 2.4424565956e+00	 5.6024350481e-01	 1.4058514077e+00
 2.4373079216e+00	 5.8223470684e-01	 1.3632108090e+00
 2.4319473353e+00	 6.0423458899e-01	 1.3189775623e+00
 2.4263739303e+00	 6.2624029946e-01	 1.2730263017e+00
 2.4205868474e+00	 6.4824895601e-01	 1.2252072834e+00
 2.4805476022e+00	 4.3064682925e-01	 1.6163699135e+00
 2.4766305301e+00	 4.5263060832e-01	 1.5824969726e+00
 2.4725069590e+00	 4.7463961201e-01	 1.5471387242e+00
 2.4681757138e+00	 4.9667117539e-01	 1.5103640115e+00
 2.4636356606e+00	 5.1872259828e-01	 1.4722139747e+00
 2.4588857083e+00	 5.4079114596e-01	 1.4327015401e+00
 2.4539248093e+00	 5.6287404990e-01	 1.3918111647e+00
 2.4487519604e+00	 5.8496850855e-01	 1.3494988421e+00
 2.4433662042e+00	 6.0707168808e-01	 1.3056923694e+00
 2.4377666300e+00	 6.2918072328e-01	 1.2602918782e+00
 2.4319523747e+00	 6.5129271840e-01	 1.2131706274e+00
 2.4921402353e+00	 4.3265942142e-01	 1.5994578949e+00
 2.4882048570e+00	 4.5474593986e-01	 1.5660518729e+00
 2.4840620148e+00	 4.7685780079e-01	 1.5310321733e+00
 2.4797105278e+00	 4.9899232685e-01	 1.4945163338e+00
 2.4751492571e+00	 5.2114680523e-01	 1.4565917959e+00
 2.4703771063e+00	 5.4331848843e-01	 1.4173153378e+00
 2.4653930229e+00	 5.6550459500e-01	 1.3767127717e+00
 2.4601959991e+00	 5.8770231026e-01	 1.3347789081e+00
 2.4547850731e+00	 6.0990878716e-01	 1.2914777890e+00
 2.4491593298e+00	 6.3212114710e-01	 1.2467431919e+00
 2.4433179020e+00	 6.5433648080e-01	 1.2004794031e+00
 2.3296626289e+00	 6.2389885687e-01	 1.3159575544e+00
 2.3238864943e+00	 6.4508083822e-01	 1.2680969938e+00
 2.3179031984e+00	 6.6626002464e-01	 1.2192585736e+00
 2.3117120599e+00	 6.8743356161e-01	 1.1692722087e+00
 2.3053124469e+00	 7.0859856909e-01	 1.1179674079e+00
 2.2987037776e+00	 7.2975214252e-01	 1.0651749580e+00
 2.2918855212e+00	 7.5089135383e-01	 1.0107305182e+00
 2.2848571989e+00	 7.7201325250e-01	 9.5467006281e-01
 2.2776183844e+00	 7.9311486663e-01	 8.9733021142e-01
 2.2701687047e+00	 8.1419320404e-01	 8.3908324435e-01
 2.2625078411e+00	 8.3524525344e-01	 7.8031660451e-01
 2.3410281562e+00	 6.2694261926e-01	 1.3036905719e+00
 2.3352238421e+00	 6.4822793935e-01	 1.2547249081e+00
 2.3292113560e+00	 6.6951045087e-01	 1.2046229505e+00
 2.3229900133e+00	 6.9078728537e-01	 1.1533088107e+00
 2.3165591790e+00	 7.1205554877e-01	 1.1007040527e+00
 2.3099182686e+00	 7.3331232235e-01	 1.0467292893e+00
 2.3030667485e+00	 7.5455466374e-01	 9.9131164594e-01
 2.2960041378e+00	 7.7577960802e-01	 9.3462806200e-01
 2.2887300078e+00	 7.9698416880e-01	 8.7711660251e-01
 2.2812439840e+00	 8.1816533931e-01	 8.1923788495e-01
 2.2735457461e+00	 8.3932009356e-01	 7.6146641051e-01
 2.3523936835e+00	 6.2998638165e-01	 1.2920110265e+00
 2.3465611899e+00	 6.5137504048e-01	 1.2422110396e+00
 2.3405195136e+00	 6.7276087709e-01	 1.1911374234e+00
 2.3342679667e+00	 6.9414100913e-01	 1.1387880457e+00
 2.3278059112e+00	 7.1551252846e-01	 1.0851561385e+00
 2.3211327595e+00	 7.3687250218e-01	 1.0302318353e+00
 2.3142479759e+00	 7.5821797364e-01	 9.7401644901e-01
 2.3071510766e+00	 7.7954596354e-01	 9.1680946937e-01
 2.2998416313e+00	 8.0085347098e-01	 8.5912494171e-01
 2.2923192634e+00	 8.2213747458e-01	 8.0149201607e-01
 2.2845836510e+00	 8.4339493367e-01	 7.4445274218e-01
 2.3637592108e+00	 6.3303014404e-01	 1.2807533061e+00
 2.3578985377e+00	 6.5452214160e-01	 1.2303820830e+00
 2.3518276712e+00	 6.7601130332e-01	 1.1786254052e+00
 2.3455459201e+00	 6.9749473290e-01	 1.1255347294e+00
 2.3390526433e+00	 7.1896950815e-01	 1.0711548405e+00
 2.3323472505e+00	 7.4043268201e-01	 1.0155253597e+00
 2.3254292032e+00	 7.6188128355e-01	 9.5870512593e-01
 2.3182980155e+00	 7.8331231906e-01	 9.0109646011e-01
 2.3109532548e+00	 8.0472277315e-01	 8.4326523365e-01
 2.3033945427e+00	 8.2610960985e-01	 7.8578957884e-01
 2.2956215560e+00	 8.4746977379e-01	 7.2925983793e-01
 2.3751247381e+00	 6.3607390644e-01	 1.2697548650e+00
 2.3692358854e+00	 6.5766924273e-01	 1.2190681235e+00
 2.3631358287e+00	 6.7926172955e-01	 1.1669139496e+00
 2.3568238735e+00	 7.0084845666e-01	 1.1133774897e+00
 2.3502993755e+00	 7.2242648784e-01	 1.0585352340e+00
 2.3435617415e+00	 7.4399286184e-01	 1.0024551444e+00
 2.3366104306e+00	 7.6554459346e-01	 9.4524142629e-01
 2.3294449543e+00	 7.8707867458e-01	 8.8737453277e-01
 2.3220648782e+00	 8.0859207532e-01	 8.2945046569e-01
 2.3144698221e+00	 8.3008174512e-01	 7.7207703783e-01
 2.3066594609e+00	 8.5154461391e-01	 7.1587387574e-01
 2.3864902655e+00	 6.3911766883e-01	 1.2588561694e+00
 2.3805732332e+00	 6.6081634386e-01	 1.2081025755e+00
 2.3744439863e+00	 6.8251215577e-01	 1.1558336860e+00
 2.3681018269e+00	 7.0420218043e-01	 1.1021487004e+00
 2.3615461076e+00	 7.2588346753e-01	 1.0471362269e+00
 2.3547762325e+00	 7.4755304167e-01	 9.9087017401e-01
 2.3477916579e+00	 7.6920790337e-01	 9.3349259924e-01
 2.3405918932e+00	 7.9084503011e-01	 8.7553246426e-01
 2.3331765017e+00	 8.1246137750e-01	 8.1759657202e-01
 2.3255451014e+00	 8.3405388039e-01	 7.6030335672e-01
 2.3176973659e+00	 8.5561945402e-01	 7.0428296325e-01
 2.3978557928e+00	 6.4216143122e-01	 1.2479006441e+00
 2.3919105810e+00	 6.6396344499e-01	 1.1973221242e+00
 2.3857521439e+00	 6.8576258200e-01	 1.1452187573e+00
 2.3793797803e+00	 7.0755590419e-01	 1.0916844159e+00
 2.3727928398e+00	 7.2934044722e-01	 1.0368004948e+00
 2.3659907235e+00	 7.5111322151e-01	 9.8062510791e-01
 2.3589728853e+00	 7.7287121327e-01	 9.2332934335e-01
 2.3517388321e+00	 7.9461138563e-01	 8.6546226617e-01
 2.3442881252e+00	 8.1633067967e-01	 8.0762239866e-01
 2.3366203808e+00	 8.3802601566e-01	 7.5041997466e-01
 2.3287352708e+00	 8.5969429414e-01	 6.9447712809e-01
 2.4092213201e+00	 6.4520519362e-01	 1.2367346199e+00
 2.4032479288e+00	 6.6711054612e-01	 1.1865666674e+00
 2.3970603015e+00	 6.8901300823e-01	 1.1349067579e+00
 2.3906577337e+00	 7.1090962795e-01	 1.0818243076e+00
 2.3840395719e+00	 7.3279742691e-01	 1.0273744174e+00
 2.3772052145e+00	 7.5467340134e-01	 9.7157812508e-01
 2.3701541126e+00	 7.7653452318e-01	 9.1462575814e-01
 2.3628857709e+00	 7.9837774115e-01	 8.5705914227e-01
 2.3553997487e+00	 8.2019998185e-01	 7.9944966956e-01
 2.3476956602e+00	 8.4199815093e-01	 7.4238078330e-01
 2.3397731758e+00	 8.6376913426e-01	 6.8644830843e-01
 2.4205868474e+00	 6.4824895601e-01	 1.2252072834e+00
 2.4145852765e+00	 6.7025764724e-01	 1.1756792601e+00
 2.4083684590e+00	 6.9226343445e-01	 1.1247386739e+00
 2.4019356871e+00	 7.1426335172e-01	 1.0724116027e+00
 2.3952863040e+00	 7.3625440660e-01	 1.0187080166e+00
 2.3884197055e+00	 7.5823358117e-01	 9.6359086316e-01
 2.3813353399e+00	 7.8019783309e-01	 9.0725929691e-01
 2.3740327098e+00	 8.0214409667e-01	 8.5022144743e-01
 2.3665113721e+00	 8.2406928403e-01	 7.9300295362e-01
 2.3587709395e+00	 8.4597028620e-01	 7.3614210445e-01
 2.3508110807e+00	 8.6784397437e-01	 6.8019034377e-01
 2.4319523747e+00	 6.5129271840e-01	 1.2131706274e+00
 2.4259226243e+00	 6.7340474837e-01	 1.1645060593e+00
 2.4196766166e+00	 6.9551386068e-01	 1.1145588257e+00
 2.4132136405e+00	 7.1761707548e-01	 1.0632930234e+00
 2.4065330362e+00	 7.3971138629e-01	 1.0106548962e+00
 2.3996341965e+00	 7.6179376100e-01	 9.5652836897e-01
 2.3925165673e+00	 7.8386114300e-01	 9.0111072100e-01
 2.3851796487e+00	 8.0591045219e-01	 8.4485064758e-01
 2.3776229956e+00	 8.2793858620e-01	 7.8820963272e-01
 2.3698462189e+00	 8.4994242147e-01	 7.3166266831e-01
 2.3618489857e+00	 8.7191881449e-01	 6.7569896590e-01
 2.4433179020e+00	 6.5433648080e-01	 1.2004794031e+00
 2.4372599721e+00	 6.7655184950e-01	 1.1528962717e+00
 2.4309847742e+00	 6.9876428691e-01	 1.1042148103e+00
 2.4244915939e+00	 7.2097079925e-01	 1.0543187290e+00
 2.4177797683e+00	 7.4316836598e-01	 1.0030705024e+00
 2.4108486875e+00	 7.6535394084e-01	 9.5025905058e-01
 2.4036977946e+00	 7.8752445291e-01	 8.9606405544e-01
 2.3963265875e+00	 8.0967680772e-01	 8.4085128093e-01
 2.3887346191e+00	 8.3180788838e-01	 7.8499987057e-01
 2.3809214982e+00	 8.5391455674e-01	 7.2890359241e-01
 2.3728868906e+00	 8.7599365461e-01	 6.7297179012e-01
 2.2625078411e+00	 8.3524525344e-01	 7.8031660451e-01
 2.2546341732e+00	 8.5627155682e-01	 7.2029403715e-01
 2.2465487755e+00	 8.7726548436e-01	 6.5789897066e-01
 2.2382514944e+00	 8.9822397188e-01	 5.9294080073e-01
 2.2297422330e+00	 9.1914394081e-01	 5.2524361714e-01
 2.2210209518e+00	 9.4002229952e-01	 4.5470535622e-01
 2.2120876695e+00	 9.6085594456e-01	 3.8529935227e-01
 2.2029424631e+00	 9.8164176201e-01	 3.1917681140e-01
 2.1935854689e+00	 1.0023766288e+00	 2.5583845386e-01
 2.1840168826e+00	 1.0230574141e+00	 1.9472546649e-01
 2.1742369599e+00	 1.0436809806e+00	 1.3522318488e-01
 2.2735457461e+00	 8.3932009356e-01	 7.6146641051e-01
 2.2656336655e+00	 8.6044897618e-01	 7.0317217559e-01
 2.2575088223e+00	 8.8154532501e-01	 6.4324175585e-01
 2.2491710620e+00	 9.0260606092e-01	 5.8141747525e-01
 2.2406202872e+00	 9.2362809033e-01	 5.1745759767e-01
 2.2318564582e+00	 9.4460830651e-01	 4.5113592683e-01
 2.2228795938e+00	 9.6554359089e-01	 3.8224107181e-01
 2.2136897715e+00	 9.8643081434e-01	 3.1348491184e-01
 2.2042871281e+00	 1.0072668386e+00	 2.4833327898e-01
 2.1946718604e+00	 1.0280485174e+00	 1.8619973633e-01
 2.1848442252e+00	 1.0487726984e+00	 1.2641951985e-01
 2.2845836510e+00	 8.4339493367e-01	 7.4445274218e-01
 2.2766331579e+00	 8.6462639553e-01	 6.8749318537e-01
 2.2684688691e+00	 8.8582516566e-01	 6.2953852405e-01
 2.2600906296e+00	 9.0698814996e-01	 5.7028296230e-01
 2.2514983413e+00	 9.2811223985e-01	 5.0943778588e-01
 2.2426919646e+00	 9.4919431351e-01	 4.4673108397e-01
 2.2336715181e+00	 9.7023123722e-01	 3.8190712412e-01
 2.2244370799e+00	 9.9121986668e-01	 3.1472536416e-01
 2.2149887873e+00	 1.0121570483e+00	 2.4694817070e-01
 2.2053268381e+00	 1.0330396208e+00	 1.8282961231e-01
 2.1954514905e+00	 1.0538644162e+00	 1.2187542724e-01
 2.2956215560e+00	 8.4746977379e-01	 7.2925983793e-01
 2.2876326502e+00	 8.6880381489e-01	 6.7328299072e-01
 2.2794289160e+00	 8.9010500631e-01	 6.1685290855e-01
 2.2710101971e+00	 9.1137023901e-01	 5.5963431485e-01
 2.2623763955e+00	 9.3259638937e-01	 5.0131005558e-01
 2.2535274710e+00	 9.5378032051e-01	 4.4158091761e-01
 2.2444634425e+00	 9.7491888356e-01	 3.8016508761e-01
 2.2351843882e+00	 9.9600891902e-01	 3.1679723421e-01
 2.2256904465e+00	 1.0170472581e+00	 2.5122719862e-01
 2.2159818159e+00	 1.0380307242e+00	 1.8462173874e-01
 2.2060587558e+00	 1.0589561340e+00	 1.2158718765e-01
 2.3066594609e+00	 8.5154461391e-01	 7.1587387574e-01
 2.2986321426e+00	 8.7298123425e-01	 6.6056884144e-01
 2.2903889628e+00	 8.9438484696e-01	 6.0524932582e-01
 2.2819297647e+00	 9.1575232805e-01	 5.4956890363e-01
 2.2732544496e+00	 9.3708053889e-01	 4.9320021500e-01
 2.2643629773e+00	 9.5836632751e-01	 4.3583485578e-01
 2.2552553668e+00	 9.7960652989e-01	 3.7718289495e-01
 2.2459316966e+00	 1.0007979714e+00	 3.1697200133e-01
 2.2363921057e+00	 1.0219374679e+00	 2.5494616373e-01
 2.2266367937e+00	 1.0430218275e+00	 1.9086399170e-01
 2.2166660210e+00	 1.0640478518e+00	 1.2554774068e-01
 2.3176973659e+00	 8.5561945402e-01	 7.0428296325e-01
 2.3096316349e+00	 8.7715865361e-01	 6.4937931784e-01
 2.3013490096e+00	 8.9866468761e-01	 5.9479299343e-01
 2.2928493323e+00	 9.2013441710e-01	 5.4018444586e-01
 2.2841325038e+00	 9.4156468841e-01	 4.8523404425e-01
 2.2751984837e+00	 9.6295233450e-01	 4.2964200877e-01
 2.2660472911e+00	 9.8429417622e-01	 3.7312796173e-01
 2.2566790050e+00	 1.0055870237e+00	 3.1543007307e-01
 2.2470937650e+00	 1.0268276777e+00	 2.5630378410e-01
 2.2372917714e+00	 1.0480129309e+00	 1.9552009578e-01
 2.2272732863e+00	 1.0691395696e+00	 1.3286341088e-01
 2.3287352708e+00	 8.5969429414e-01	 6.9447712809e-01
 2.3206311273e+00	 8.8133607297e-01	 6.3974433552e-01
 2.3123090564e+00	 9.0294452826e-01	 5.8554994734e-01
 2.3037688998e+00	 9.2451650614e-01	 5.3157903309e-01
 2.2950105580e+00	 9.4604883793e-01	 4.7753733143e-01
 2.2860339901e+00	 9.6753834150e-01	 4.2315121141e-01
 2.2768392155e+00	 9.8898182256e-01	 3.6816723232e-01
 2.2674263134e+00	 1.0103760760e+00	 3.1235128284e-01
 2.2577954242e+00	 1.0317178874e+00	 2.5548728250e-01
 2.2479467492e+00	 1.0530040343e+00	 1.9737543112e-01
 2.2378805516e+00	 1.0742312874e+00	 1.3782999520e-01
 2.3397731758e+00	 8.6376913426e-01	 6.8644830843e-01
 2.3316306196e+00	 8.8551349232e-01	 6.3169514988e-01
 2.3232691032e+00	 9.0722436891e-01	 5.7758705861e-01
 2.3146884674e+00	 9.2889859519e-01	 5.2385115802e-01
 2.3058886121e+00	 9.5053298746e-01	 4.7023590765e-01
 2.2968694965e+00	 9.7212434850e-01	 4.1651106385e-01
 2.2876311398e+00	 9.9366946889e-01	 3.6246722422e-01
 2.2781736218e+00	 1.0151651284e+00	 3.0791493533e-01
 2.2684970834e+00	 1.0366080972e+00	 2.5268334628e-01
 2.2586017270e+00	 1.0579951376e+00	 1.9661839337e-01
 2.2484878169e+00	 1.0793230052e+00	 1.3958050407e-01
 2.3508110807e+00	 8.6784397437e-01	 6.8019034377e-01
 2.3426301120e+00	 8.8969091168e-01	 6.2526436047e-01
 2.3342291500e+00	 9.1150420956e-01	 5.7097204941e-01
 2.3256080350e+00	 9.3328068423e-01	 5.1709974047e-01
 2.3167666663e+00	 9.5501713698e-01	 4.6345568066e-01
 2.3077050029e+00	 9.7671035550e-01	 4.0986997094e-01
 2.2984230641e+00	 9.9835711522e-01	 3.5619407085e-01
 2.2889209302e+00	 1.0199541807e+00	 3.0229985023e-01
 2.2791987426e+00	 1.0414983070e+00	 2.4807816964e-01
 2.2692567047e+00	 1.0629862410e+00	 1.9343697432e-01
 2.2590950822e+00	 1.0844147230e+00	 1.3829888953e-01
 2.3618489857e+00	 8.7191881449e-01	 6.7569896590e-01
 2.3536296043e+00	 8.9386833104e-01	 6.2048591510e-01
 2.3451891968e+00	 9.1578405021e-01	 5.6577350866e-01
 2.3365276025e+00	 9.3766277328e-01	 5.1142415241e-01
 2.3276447204e+00	 9.5950128650e-01	 4.5732266758e-01
 2.3185405093e+00	 9.8129636250e-01	 4.0337618030e-01
 2.3092149885e+00	 1.0030447616e+00	 3.4951356278e-01
 2.2996682386e+00	 1.0247432330e+00	 2.9568440445e-01
 2.2899004018e+00	 1.0463885167e+00	 2.4185749426e-01
 2.2799116825e+00	 1.0679773443e+00	 1.8801879843e-01
 2.2697023475e+00	 1.0895064408e+00	 1.3416892104e-01
 2.3728868906e+00	 8.7599365461e-01	 6.7297179012e-01
 2.3646290967e+00	 8.9804575040e-01	 6.1739511384e-01
 2.3561492436e+00	 9.2006389087e-01	 5.6206090690e-01
 2.3474471701e+00	 9.4204486232e-01	 5.0692424216e-01
 2.3385227746e+00	 9.6398543602e-01	 4.5196302626e-01
 2.3293760156e+00	 9.8588236949e-01	 3.9717781904e-01
 2.3200069128e+00	 1.0077324079e+00	 3.4259118760e-01
 2.3104155470e+00	 1.0295322854e+00	 2.8824657273e-01
 2.3006020611e+00	 1.0512787265e+00	 2.3420664839e-01
 2.2905666603e+00	 1.0729684477e+00	 1.8055115789e-01
 2.2803096128e+00	 1.0945981586e+00	 1.2737421393e-01
 2.1742369599e+00	 1.0436809806e+00	 1.3522318488e-01
 2.1642477327e+00	 1.0642406958e+00	 7.6137178750e-02
 2.1540479318e+00	 1.0847369251e+00	 1.6686397108e-02
 2.1436379930e+00	 1.1051665209e+00	-4.3175298844e-02
 2.1330184135e+00	 1.1255263349e+00	-1.0342774461e-01
 2.1221897520e+00	 1.1458132195e+00	-1.6374122385e-01
 2.1111526286e+00	 1.1660240291e+00	-2.2400426271e-01
 2.0999077254e+00	 1.1861556220e+00	-2.8417479770e-01
 2.0884557863e+00	 1.2062048614e+00	-3.4426209153e-01
 2.0767976173e+00	 1.2261686174e+00	-4.0432420676e-01
 2.0649340864e+00	 1.2460437681e+00	-4.6446527621e-01
 2.1848442252e+00	 1.0487726984e+00	 1.2641951985e-01
 2.1748062644e+00	 1.0694327165e+00	 6.7595733319e-02
 2.1645567025e+00	 1.0900289391e+00	 8.7303783053e-03
 2.1540959777e+00	 1.1105582030e+00	-5.0298462662e-02
 2.1434245894e+00	 1.1310173447e+00	-1.0944202821e-01
 2.1325430990e+00	 1.1514032012e+00	-1.6848185622e-01
 2.1214521297e+00	 1.1717126116e+00	-2.2739851604e-01
 2.1101523669e+00	 1.1919424187e+00	-2.8622710298e-01
 2.0986445583e+00	 1.2120894707e+00	-3.4505458191e-01
 2.0869295136e+00	 1.2321506222e+00	-4.0401703954e-01
 2.0750081050e+00	 1.2521227360e+00	-4.6329672893e-01
 2.1954514905e+00	 1.0538644162e+00	 1.2187542724e-01
 2.1853647961e+00	 1.0746247373e+00	 6.2498093242e-02
 2.1750654733e+00	 1.0953209530e+00	 3.4833492652e-03
 2.1645539624e+00	 1.1159498851e+00	-5.5354539849e-02
 2.1538307653e+00	 1.1365083545e+00	-1.1393389525e-01
 2.1428964460e+00	 1.1569931829e+00	-1.7217345788e-01
 2.1317516308e+00	 1.1774011940e+00	-2.3012924247e-01
 2.1203970085e+00	 1.1977292155e+00	-2.8791245395e-01
 2.1088333302e+00	 1.2179740800e+00	-3.4568674687e-01
 2.0970614098e+00	 1.2381326269e+00	-4.0366525449e-01
 2.0850821236e+00	 1.2582017040e+00	-4.6210740562e-01
 2.2060587558e+00	 1.0589561340e+00	 1.2158718765e-01
 2.1959233278e+00	 1.0798167580e+00	 6.0827531488e-02
 2.1855742441e+00	 1.1006129670e+00	 9.1617852327e-04
 2.1750119471e+00	 1.1213415672e+00	-5.8369327304e-02
 2.1642369411e+00	 1.1419993643e+00	-1.1695544691e-01
 2.1532497930e+00	 1.1625831645e+00	-1.7487872608e-01
 2.1420511319e+00	 1.1830897765e+00	-2.3226946202e-01
 2.1306416501e+00	 1.2035160122e+00	-2.8931397886e-01
 2.1190221022e+00	 1.2238586892e+00	-3.4625166762e-01
 2.1071933061e+00	 1.2441146317e+00	-4.0337179032e-01
 2.0951561423e+00	 1.2642806719e+00	-4.6101006705e-01
 2.2166660210e+00	 1.0640478518e+00	 1.2554774068e-01
 2.2064818595e+00	 1.0850087788e+00	 6.2564327134e-02
 2.1960830149e+00	 1.1059049809e+00	 9.9709706626e-04
 2.1854699318e+00	 1.1267332493e+00	-5.9385904068e-02
 2.1746431170e+00	 1.1474903741e+00	-1.1856036877e-01
 2.1636031400e+00	 1.1681731462e+00	-1.7666148589e-01
 2.1523506331e+00	 1.1887783589e+00	-2.3389286357e-01
 2.1408862916e+00	 1.2093028090e+00	-2.9051501340e-01
 2.1292108742e+00	 1.2297432985e+00	-3.4684216886e-01
 2.1173252023e+00	 1.2500966364e+00	-4.0323886252e-01
 2.1052301609e+00	 1.2703596399e+00	-4.6011628122e-01
 2.2272732863e+00	 1.0691395696e+00	 1.3286341088e-01
 2.2170403912e+00	 1.0902007995e+00	 6.7685770843e-02
 2.2065917857e+00	 1.1111969949e+00	 3.6916999949e-03
 2.1959279165e+00	 1.1321249314e+00	-5.8449410174e-02
 2.1850492929e+00	 1.1529813839e+00	-1.1880382406e-01
 2.1739564870e+00	 1.1737631279e+00	-1.7758658798e-01
 2.1626501342e+00	 1.1944669414e+00	-2.3507370740e-01
 2.1511309332e+00	 1.2150896057e+00	-2.9159900805e-01
 2.1393996461e+00	 1.2356279078e+00	-3.4755073101e-01
 2.1274570986e+00	 1.2560786412e+00	-4.0336788062e-01
 2.1153041796e+00	 1.2764386079e+00	-4.5953634579e-01
 2.2378805516e+00	 1.0742312874e+00	 1.3782999520e-01
 2.2275989229e+00	 1.0953928203e+00	 7.5224524716e-02
 2.2171005565e+00	 1.1164890088e+00	 8.9722381817e-03
 2.2063859012e+00	 1.1375166135e+00	-5.5606802840e-02
 2.1954554687e+00	 1.1584723937e+00	-1.1774234768e-01
 2.1843098340e+00	 1.1793531096e+00	-1.7771980713e-01
 2.1729496353e+00	 1.2001555238e+00	-2.3588672807e-01
 2.1613755748e+00	 1.2208764024e+00	-2.9264943563e-01
 2.1495884181e+00	 1.2415125170e+00	-3.4846940244e-01
 2.1375889948e+00	 1.2620606459e+00	-4.0385936533e-01
 2.1253781982e+00	 1.2825175758e+00	-4.5937921023e-01
 2.2484878169e+00	 1.0793230052e+00	 1.3958050407e-01
 2.2381574546e+00	 1.1005848410e+00	 7.9851892188e-02
 2.2276093273e+00	 1.1217810228e+00	 1.5921772073e-02
 2.2168438860e+00	 1.1429082956e+00	-5.0906747081e-02
 2.2058616446e+00	 1.1639634034e+00	-1.1543374102e-01
 2.1946631810e+00	 1.1849430913e+00	-1.7712774123e-01
 2.1832491364e+00	 1.2058441063e+00	-2.3640703792e-01
 2.1716202163e+00	 1.2266631992e+00	-2.9374969907e-01
 2.1597771901e+00	 1.2473971263e+00	-3.4968971186e-01
 2.1477208910e+00	 1.2680426507e+00	-4.0481286551e-01
 2.1354522169e+00	 1.2885965438e+00	-4.5975239757e-01
 2.2590950822e+00	 1.0844147230e+00	 1.3829888953e-01
 2.2487159863e+00	 1.1057768617e+00	 8.0883804081e-02
 2.2381180981e+00	 1.1270730368e+00	 1.9584963022e-02
 2.2273018707e+00	 1.1482999777e+00	-4.5135835627e-02
 2.2162678205e+00	 1.1694544132e+00	-1.1193696748e-01
 2.2050165280e+00	 1.1905330730e+00	-1.7587771099e-01
 2.1935486375e+00	 1.2115326887e+00	-2.3671003077e-01
 2.1818648579e+00	 1.2324499959e+00	-2.9498303949e-01
 2.1699659620e+00	 1.2532817356e+00	-3.5130258065e-01
 2.1578527873e+00	 1.2740246554e+00	-4.0632687504e-01
 2.1455262355e+00	 1.2946755117e+00	-4.6076192587e-01
 2.2697023475e+00	 1.0895064408e+00	 1.3416892104e-01
 2.2592745180e+00	 1.1109688825e+00	 7.8497185288e-02
 2.2486268689e+00	 1.1323650507e+00	 1.9344042756e-02
 2.2377598554e+00	 1.1536916597e+00	-4.2885109808e-02
 2.2266739963e+00	 1.1749454230e+00	-1.0783852086e-01
 2.2153698750e+00	 1.1961230547e+00	-1.7403766009e-01
 2.2038481387e+00	 1.2172212712e+00	-2.3687128612e-01
 2.1921094995e+00	 1.2382367927e+00	-2.9643244444e-01
 2.1801547340e+00	 1.2591663448e+00	-3.5339823532e-01
 2.1679846835e+00	 1.2800066602e+00	-4.0849874953e-01
 2.1556002541e+00	 1.3007544797e+00	-4.6251222947e-01
 2.2803096128e+00	 1.0945981586e+00	 1.2737421393e-01
 2.2698330496e+00	 1.1161609032e+00	 7.2874853731e-02
 2.2591356397e+00	 1.1376570647e+00	 1.5371366192e-02
 2.2482178401e+00	 1.1590833418e+00	-4.4802405779e-02
 2.2370801722e+00	 1.1804364328e+00	-1.0734776401e-01
 2.2257232220e+00	 1.2017130364e+00	-1.7197828507e-01
 2.2141476398e+00	 1.2229098536e+00	-2.3696647377e-01
 2.2023541410e+00	 1.2440235894e+00	-2.9818055635e-01
 2.1903435059e+00	 1.2650509541e+00	-3.5606612001e-01
 2.1781165798e+00	 1.2859886649e+00	-4.1142462298e-01
 2.1656742728e+00	 1.3068334476e+00	-4.6510607977e-01
 2.0649340864e+00	 1.2460437681e+00	-4.6446527621e-01
 2.0528661238e+00	 1.2658272015e+00	-5.2369203951e-01
 2.0405947239e+00	 1.2855158188e+00	-5.8090629012e-01
 2.0281209433e+00	 1.3051065339e+00	-6.3610611665e-01
 2.0154459001e+00	 1.3245962754e+00	-6.8931177702e-01
 2.0025707741e+00	 1.3439819874e+00	-7.4056241268e-01
 1.9894968058e+00	 1.3632606315e+00	-7.8991269239e-01
 1.9762252971e+00	 1.3824291882e+00	-8.3742940599e-01
 1.9627576101e+00	 1.4014846582e+00	-8.8318802936e-01
 1.9490951672e+00	 1.4204240641e+00	-9.2726928134e-01
 1.9352394505e+00	 1.4392444520e+00	-9.6975569344e-01
 2.0750081050e+00	 1.2521227360e+00	-4.6329672893e-01
 2.0628812675e+00	 1.2720026852e+00	-5.2189585130e-01
 2.0505500002e+00	 1.2917873557e+00	-5.7864166509e-01
 2.0380153648e+00	 1.3114736464e+00	-6.3350717771e-01
 2.0252784850e+00	 1.3310584708e+00	-6.8648999344e-01
 2.0123405461e+00	 1.3505387583e+00	-7.3760896128e-01
 1.9992027950e+00	 1.3699114555e+00	-7.8690074938e-01
 1.9858665397e+00	 1.3891735282e+00	-8.3441636736e-01
 1.9723331490e+00	 1.4083219624e+00	-8.8021765814e-01
 1.9586040523e+00	 1.4273537664e+00	-9.2437378054e-01
 1.9446807389e+00	 1.4462659717e+00	-9.6695770427e-01
 2.0850821236e+00	 1.2582017040e+00	-4.6210740562e-01
 2.0728964112e+00	 1.2781781690e+00	-5.2003427808e-01
 2.0605052764e+00	 1.2980588926e+00	-5.7623223414e-01
 2.0479097863e+00	 1.3178407589e+00	-6.3066350412e-01
 2.0351110698e+00	 1.3375206662e+00	-6.8331717608e-01
 2.0221103182e+00	 1.3570955291e+00	-7.3420575353e-01
 2.0089087842e+00	 1.3765622794e+00	-7.8336163701e-01
 1.9955077823e+00	 1.3959178681e+00	-8.3083355160e-01
 1.9819086880e+00	 1.4151592667e+00	-8.7668294244e-01
 1.9681129375e+00	 1.4342834687e+00	-9.2098036027e-01
 1.9541220273e+00	 1.4532874915e+00	-9.6380185924e-01
 2.0951561423e+00	 1.2642806719e+00	-4.6101006705e-01
 2.0829115549e+00	 1.2843536527e+00	-5.1822835652e-01
 2.0704605527e+00	 1.3043304295e+00	-5.7380410364e-01
 2.0578042078e+00	 1.3242078713e+00	-6.2770290327e-01
 2.0449436546e+00	 1.3439828616e+00	-6.7991930375e-01
 2.0318800902e+00	 1.3636522999e+00	-7.3047325081e-01
 2.0186147734e+00	 1.3832131033e+00	-7.7940645292e-01
 2.0051490249e+00	 1.4026622080e+00	-8.2677869057e-01
 1.9914842269e+00	 1.4219965709e+00	-8.7266409255e-01
 1.9776218226e+00	 1.4412131711e+00	-9.1714740165e-01
 1.9635633158e+00	 1.4603090112e+00	-9.6032025282e-01
 2.1052301609e+00	 1.2703596399e+00	-4.6011628122e-01
 2.0929266986e+00	 1.2905291364e+00	-5.1659748800e-01
 2.0804158290e+00	 1.3106019664e+00	-5.7148136201e-01
 2.0676986292e+00	 1.3305749838e+00	-6.2475084581e-01
 2.0547762395e+00	 1.3504450570e+00	-6.7641976767e-01
 2.0416498623e+00	 1.3702090708e+00	-7.2652914807e-01
 2.0283207626e+00	 1.3898639272e+00	-7.7514342533e-01
 2.0147902675e+00	 1.4094065479e+00	-8.2234662360e-01
 2.0010597659e+00	 1.4288338751e+00	-8.6823848673e-01
 1.9871307077e+00	 1.4481428734e+00	-9.1293060161e-01
 1.9730046042e+00	 1.4673305310e+00	-9.5654253428e-01
 2.1153041796e+00	 1.2764386079e+00	-4.5953634579e-01
 2.1029418423e+00	 1.2967046201e+00	-5.1525936574e-01
 2.0903711052e+00	 1.3168735033e+00	-5.6938601010e-01
 2.0775930507e+00	 1.3369420962e+00	-6.2193039798e-01
 2.0646088243e+00	 1.3569072524e+00	-6.7293930428e-01
 2.0514196343e+00	 1.3767658416e+00	-7.2248830545e-01
 2.0380267518e+00	 1.3965147512e+00	-7.7067784197e-01
 2.0244315101e+00	 1.4161508879e+00	-8.1762922184e-01
 2.0106353048e+00	 1.4356711794e+00	-8.6348058924e-01
 1.9966395929e+00	 1.4550725757e+00	-9.0838288278e-01
 1.9824458926e+00	 1.4743520507e+00	-9.5249580739e-01
 2.1253781982e+00	 1.2825175758e+00	-4.5937921023e-01
 2.1129569860e+00	 1.3028801038e+00	-5.1432990129e-01
 2.1003263815e+00	 1.3231450402e+00	-5.6763789096e-01
 2.0874874722e+00	 1.3433092087e+00	-6.1936215316e-01
 2.0744414091e+00	 1.3633694478e+00	-6.6959592719e-01
 2.0611894063e+00	 1.3833226124e+00	-7.1846267917e-01
 2.0477327410e+00	 1.4031655751e+00	-7.6611197815e-01
 2.0340727527e+00	 1.4228952278e+00	-8.1271531198e-01
 2.0202108438e+00	 1.4425084836e+00	-8.5846186788e-01
 2.0061484780e+00	 1.4620022780e+00	-9.0355430303e-01
 1.9918871811e+00	 1.4813735704e+00	-9.4820453010e-01
 2.1354522169e+00	 1.2885965438e+00	-4.5975239757e-01
 2.1229721297e+00	 1.3090555875e+00	-5.1392315067e-01
 2.1102816577e+00	 1.3294165771e+00	-5.6635461893e-01
 2.0973818937e+00	 1.3496763212e+00	-6.1716416273e-01
 2.0842739940e+00	 1.3698316433e+00	-6.6650485832e-01
 2.0709591784e+00	 1.3898793833e+00	-7.1456125149e-01
 2.0574387301e+00	 1.4098163990e+00	-7.6154502413e-01
 2.0437139953e+00	 1.4296395677e+00	-8.0769059930e-01
 2.0297863827e+00	 1.4493457879e+00	-8.5325071101e-01
 2.0156573632e+00	 1.4689319803e+00	-8.9849196471e-01
 2.0013284695e+00	 1.4883950902e+00	-9.4360542690e-01
 2.1455262355e+00	 1.2946755117e+00	-4.6076192587e-01
 2.1329872734e+00	 1.3152310713e+00	-5.1415123995e-01
 2.1202369340e+00	 1.3356881140e+00	-5.6565150817e-01
 2.1072763152e+00	 1.3560434336e+00	-6.1545186625e-01
 2.0941065788e+00	 1.3762938387e+00	-6.6377845840e-01
 2.0807289504e+00	 1.3964361541e+00	-7.1088996012e-01
 2.0671447193e+00	 1.4164672229e+00	-7.5707301177e-01
 2.0533552379e+00	 1.4363839077e+00	-8.0263759005e-01
 2.0393619216e+00	 1.4561830921e+00	-8.4791234415e-01
 2.0251662483e+00	 1.4758616826e+00	-8.9323992358e-01
 2.0107697580e+00	 1.4954166099e+00	-9.3862192118e-01
 2.1556002541e+00	 1.3007544797e+00	-4.6251222947e-01
 2.1430024171e+00	 1.3214065550e+00	-5.1512429035e-01
 2.1301922103e+00	 1.3419596509e+00	-5.6564150063e-01
 2.1171707367e+00	 1.3624105461e+00	-6.1433802092e-01
 2.1039391636e+00	 1.3827560341e+00	-6.6152615670e-01
 2.0904987225e+00	 1.4029929249e+00	-7.0755162670e-01
 2.0768507085e+00	 1.4231180468e+00	-7.5278874051e-01
 2.0629964805e+00	 1.4431282476e+00	-7.9763551337e-01
 2.0489374606e+00	 1.4630203963e+00	-8.4250874602e-01
 2.0346751335e+00	 1.4827913849e+00	-8.8783624466e-01
 2.0202110464e+00	 1.5024381296e+00	-9.3326411247e-01
 2.1656742728e+00	 1.3068334476e+00	-4.6510607977e-01
 2.1530175608e+00	 1.3275820387e+00	-5.1695034300e-01
 2.1401474865e+00	 1.3482311878e+00	-5.6643509336e-01
 2.1270651582e+00	 1.3687776585e+00	-6.1393263044e-01
 2.1137717485e+00	 1.3892182295e+00	-6.5985438003e-01
 2.1002684945e+00	 1.4095496958e+00	-7.0464588476e-01
 2.0865566977e+00	 1.4297688708e+00	-7.4878170269e-01
 2.0726377232e+00	 1.4498725875e+00	-7.9276024245e-01
 2.0585129995e+00	 1.4698577006e+00	-8.3709856416e-01
 2.0441840186e+00	 1.4897210872e+00	-8.8221229770e-01
 2.0296523348e+00	 1.5094596494e+00	-9.2754132690e-01
 1.9352394505e+00	 1.4392444520e+00	-9.6975569344e-01
 1.9211895983e+00	 1.4579460593e+00	-1.0113321801e+00
 1.9069495574e+00	 1.4765227630e+00	-1.0531365820e+00
 1.8925209951e+00	 1.4949716758e+00	-1.0955667001e+00
 1.8779056362e+00	 1.5132899397e+00	-1.1382558416e+00
 1.8631052626e+00	 1.5314747275e+00	-1.1815472435e+00
 1.8481217127e+00	 1.5495232437e+00	-1.2255671186e+00
 1.8329568802e+00	 1.5674327266e+00	-1.2656898418e+00
 1.8176127140e+00	 1.5852004492e+00	-1.3006103646e+00
 1.8020912168e+00	 1.6028237209e+00	-1.3311518880e+00
 1.7863944445e+00	 1.6202998884e+00	-1.3581371833e+00
 1.9446807389e+00	 1.4462659717e+00	-9.6695770427e-01
 1.9305623429e+00	 1.4650588170e+00	-1.0084972840e+00
 1.9162528304e+00	 1.4837261492e+00	-1.0499849412e+00
 1.9017538766e+00	 1.5022650672e+00	-1.0913507636e+00
 1.8870672150e+00	 1.5206726989e+00	-1.1325689752e+00
 1.8721946361e+00	 1.5389462032e+00	-1.1740406694e+00
 1.8571379872e+00	 1.5570827712e+00	-1.2161349166e+00
 1.8418991714e+00	 1.5750796276e+00	-1.2576287850e+00
 1.8264801468e+00	 1.5929340321e+00	-1.2937703056e+00
 1.8108829262e+00	 1.6106432809e+00	-1.3249555796e+00
 1.7951095754e+00	 1.6282047079e+00	-1.3520290255e+00
 1.9541220273e+00	 1.4532874915e+00	-9.6380185924e-01
 1.9399350875e+00	 1.4721715747e+00	-1.0055103638e+00
 1.9255561033e+00	 1.4909295355e+00	-1.0467774499e+00
 1.9109867582e+00	 1.5095584586e+00	-1.0872679214e+00
 1.8962287938e+00	 1.5280554581e+00	-1.1272703561e+00
 1.8812840096e+00	 1.5464176790e+00	-1.1671884411e+00
 1.8661542617e+00	 1.5646422987e+00	-1.2073927064e+00
 1.8508414625e+00	 1.5827265286e+00	-1.2482083855e+00
 1.8353475797e+00	 1.6006676150e+00	-1.2858921476e+00
 1.8196746357e+00	 1.6184628409e+00	-1.3180075992e+00
 1.8038247063e+00	 1.6361095275e+00	-1.3454123010e+00
 1.9635633158e+00	 1.4603090112e+00	-9.6032025282e-01
 1.9493078321e+00	 1.4792843324e+00	-1.0023763308e+00
 1.9348593762e+00	 1.4981329218e+00	-1.0434360994e+00
 1.9202196397e+00	 1.5168518500e+00	-1.0832654387e+00
 1.9053903727e+00	 1.5354382173e+00	-1.1222906754e+00
 1.8903733831e+00	 1.5538891547e+00	-1.1609079898e+00
 1.8751705362e+00	 1.5722018262e+00	-1.1994794657e+00
 1.8597837536e+00	 1.5903734295e+00	-1.2383381782e+00
 1.8442150126e+00	 1.6084011978e+00	-1.2769141316e+00
 1.8284663451e+00	 1.6262824010e+00	-1.3102466082e+00
 1.8125398373e+00	 1.6440143470e+00	-1.3382298667e+00
 1.9730046042e+00	 1.4673305310e+00	-9.5654253428e-01
 1.9586805767e+00	 1.4863970900e+00	-9.9905349954e-01
 1.9441626492e+00	 1.5053363081e+00	-1.0399277998e+00
 1.9294525212e+00	 1.5241452414e+00	-1.0792908243e+00
 1.9145519515e+00	 1.5428209764e+00	-1.1175611615e+00
 1.8994627566e+00	 1.5613606305e+00	-1.1551175173e+00
 1.8841868108e+00	 1.5797613537e+00	-1.1923037534e+00
 1.8687260448e+00	 1.5980203305e+00	-1.2294342245e+00
 1.8530824454e+00	 1.6161347807e+00	-1.2667993679e+00
 1.8372580545e+00	 1.6341019610e+00	-1.3016147317e+00
 1.8212549682e+00	 1.6519191665e+00	-1.3304278483e+00
 1.9824458926e+00	 1.4743520507e+00	-9.5249580739e-01
 1.9680533214e+00	 1.4935098477e+00	-9.9540407630e-01
 1.9534659221e+00	 1.5125396943e+00	-1.0362193700e+00
 1.9386854028e+00	 1.5314386329e+00	-1.0752918423e+00
 1.9237135303e+00	 1.5502037356e+00	-1.1130135889e+00
 1.9085521301e+00	 1.5688321062e+00	-1.1497360035e+00
 1.8932030853e+00	 1.5873208813e+00	-1.1857750765e+00
 1.8776683359e+00	 1.6056672315e+00	-1.2214170026e+00
 1.8619498783e+00	 1.6238683636e+00	-1.2569240490e+00
 1.8460497640e+00	 1.6419215210e+00	-1.2920576069e+00
 1.8299700992e+00	 1.6598239860e+00	-1.3219556937e+00
 1.9918871811e+00	 1.4813735704e+00	-9.4820453010e-01
 1.9774260660e+00	 1.5006226054e+00	-9.9140764952e-01
 1.9627691950e+00	 1.5197430806e+00	-1.0322775545e+00
 1.9479182843e+00	 1.5387320243e+00	-1.0712165251e+00
 1.9328751091e+00	 1.5575864948e+00	-1.1085802889e+00
 1.9176415036e+00	 1.5763035820e+00	-1.1446832159e+00
 1.9022193598e+00	 1.5948804088e+00	-1.1798038993e+00
 1.8866106271e+00	 1.6133141325e+00	-1.2141910547e+00
 1.8708173111e+00	 1.6316019464e+00	-1.2480696889e+00
 1.8548414734e+00	 1.6497410810e+00	-1.2816474875e+00
 1.8386852301e+00	 1.6677288056e+00	-1.3127662282e+00
 2.0013284695e+00	 1.4883950902e+00	-9.4360542690e-01
 1.9867988106e+00	 1.5077353631e+00	-9.8705211104e-01
 1.9720724680e+00	 1.5269464669e+00	-1.0280690402e+00
 1.9571511658e+00	 1.5460254157e+00	-1.0670131864e+00
 1.9420366880e+00	 1.5649692539e+00	-1.1041941601e+00
 1.9267308771e+00	 1.5837750577e+00	-1.1398797191e+00
 1.9112356343e+00	 1.6024399363e+00	-1.1743016536e+00
 1.8955529182e+00	 1.6209610335e+00	-1.2076619985e+00
 1.8796847440e+00	 1.6393355293e+00	-1.2401395242e+00
 1.8636331829e+00	 1.6575606411e+00	-1.2718964519e+00
 1.8474003610e+00	 1.6756336251e+00	-1.3028157093e+00
 2.0107697580e+00	 1.4954166099e+00	-9.3862192118e-01
 1.9961715552e+00	 1.5148481208e+00	-9.8232492898e-01
 1.9813757409e+00	 1.5341498531e+00	-1.0235604739e+00
 1.9663840474e+00	 1.5533188071e+00	-1.0626304351e+00
 1.9511982668e+00	 1.5723520131e+00	-1.0997886797e+00
 1.9358202506e+00	 1.5912465335e+00	-1.1352468853e+00
 1.9202519088e+00	 1.6099994638e+00	-1.1691807499e+00
 1.9044952093e+00	 1.6286079345e+00	-1.2017365405e+00
 1.8885521769e+00	 1.6470691122e+00	-1.2330379262e+00
 1.8724248923e+00	 1.6653802011e+00	-1.2631930433e+00
 1.8561154920e+00	 1.6835384446e+00	-1.2923017355e+00
 2.0202110464e+00	 1.5024381296e+00	-9.3326411247e-01
 2.0055442998e+00	 1.5219608784e+00	-9.7721317034e-01
 1.9906790138e+00	 1.5413532394e+00	-1.0187184805e+00
 1.9756169289e+00	 1.5606121985e+00	-1.0580171900e+00
 1.9603598456e+00	 1.5797347723e+00	-1.0952979165e+00
 1.9449096241e+00	 1.5987180092e+00	-1.1307069058e+00
 1.9292681834e+00	 1.6175589913e+00	-1.1643545897e+00
 1.9134375005e+00	 1.6362548355e+00	-1.1963224901e+00
 1.8974196097e+00	 1.6548026950e+00	-1.2266704187e+00
 1.8812166018e+00	 1.6731997611e+00	-1.2554439120e+00
 1.8648306229e+00	 1.6914432641e+00	-1.2826818474e+00
 2.0296523348e+00	 1.5094596494e+00	-9.2754132690e-01
 2.0149170444e+00	 1.5290736361e+00	-9.7170352379e-01
 1.9999822868e+00	 1.5485566257e+00	-1.0135096812e+00
 1.9848498104e+00	 1.5679055899e+00	-1.0531226947e+00
 1.9695214244e+00	 1.5871175315e+00	-1.0906565433e+00
 1.9539989976e+00	 1.6061894850e+00	-1.1261828039e+00
 1.9382844579e+00	 1.6251185188e+00	-1.1597375780e+00
 1.9223797916e+00	 1.6439017365e+00	-1.1913287746e+00
 1.9062870426e+00	 1.6625362779e+00	-1.2209436962e+00
 1.8900083112e+00	 1.6810193212e+00	-1.2485568677e+00
 1.8735457538e+00	 1.6993480836e+00	-1.2741380483e+00
 1.7863944445e+00	 1.6202998884e+00	-1.3581371833e+00
 1.7705272128e+00	 1.6376234100e+00	-1.3823536121e+00
 1.7544890034e+00	 1.6547947195e+00	-1.4041362394e+00
 1.7382819968e+00	 1.6718113140e+00	-1.4236299923e+00
 1.7219084228e+00	 1.6886707329e+00	-1.4409990144e+00
 1.7053705597e+00	 1.7053705597e+00	-1.4564264097e+00
 1.6886707329e+00	 1.7219084228e+00	-1.4701138439e+00
 1.6718113140e+00	 1.7382819968e+00	-1.4822809967e+00
 1.6547947195e+00	 1.7544890034e+00	-1.4931648543e+00
 1.6376234100e+00	 1.7705272128e+00	-1.5030188384e+00
 1.6202998884e+00	 1.7863944445e+00	-1.5121117640e+00
 1.7951095754e+00	 1.6282047079e+00	-1.3520290255e+00
 1.7791649336e+00	 1.6456127443e+00	-1.3759520898e+00
 1.7630484800e+00	 1.6628678260e+00	-1.3972533668e+00
 1.7467624056e+00	 1.6799674379e+00	-1.4161294176e+00
 1.7303089512e+00	 1.6969091075e+00	-1.4327967710e+00
 1.7136904063e+00	 1.7136904063e+00	-1.4474916406e+00
 1.6969091075e+00	 1.7303089512e+00	-1.4604694959e+00
 1.6799674379e+00	 1.7467624056e+00	-1.4720044763e+00
 1.6628678260e+00	 1.7630484800e+00	-1.4823886417e+00
 1.6456127443e+00	 1.7791649336e+00	-1.4919310519e+00
 1.6282047079e+00	 1.7951095754e+00	-1.5009566689e+00
 1.8038247063e+00	 1.6361095275e+00	-1.3454123010e+00
 1.7878026544e+00	 1.6536020786e+00	-1.3692388298e+00
 1.7716079565e+00	 1.6709409326e+00	-1.3902180479e+00
 1.7552428144e+00	 1.6881235619e+00	-1.4086073335e+00
 1.7387094797e+00	 1.7051474820e+00	-1.4246847944e+00
 1.7220102529e+00	 1.7220102529e+00	-1.4387489493e+00
 1.7051474820e+00	 1.7387094797e+00	-1.4511182564e+00
 1.6881235619e+00	 1.7552428144e+00	-1.4621304801e+00
 1.6709409326e+00	 1.7716079565e+00	-1.4721418879e+00
 1.6536020786e+00	 1.7878026544e+00	-1.4815262690e+00
 1.6361095275e+00	 1.8038247063e+00	-1.4906737701e+00
 1.8125398373e+00	 1.6440143470e+00	-1.3382298667e+00
 1.7964403753e+00	 1.6615914129e+00	-1.3621626617e+00
 1.7801674331e+00	 1.6790140391e+00	-1.3829846999e+00
 1.7637232232e+00	 1.6962796858e+00	-1.4010232461e+00
 1.7471100082e+00	 1.7133858566e+00	-1.4166270694e+00
 1.7303300995e+00	 1.7303300995e+00	-1.4301660785e+00
 1.7133858566e+00	 1.7471100082e+00	-1.4420307967e+00
 1.6962796858e+00	 1.7637232232e+00	-1.4526316712e+00
 1.6790140391e+00	 1.7801674331e+00	-1.4623982043e+00
 1.6615914129e+00	 1.7964403753e+00	-1.4717779020e+00
 1.6440143470e+00	 1.8125398373e+00	-1.4812350314e+00
 1.8212549682e+00	 1.6519191665e+00	-1.3304278483e+00
 1.8050780961e+00	 1.6695807472e+00	-1.3546754463e+00
 1.7887269097e+00	 1.6870871456e+00	-1.3755105318e+00
 1.7722036320e+00	 1.7044358097e+00	-1.3933392148e+00
 1.7555105366e+00	 1.7216242311e+00	-1.4085898992e+00
 1.7386499460e+00	 1.7386499460e+00	-1.4217128592e+00
 1.7216242311e+00	 1.7555105366e+00	-1.4331796532e+00
 1.7044358097e+00	 1.7722036320e+00	-1.4434823625e+00
 1.6870871456e+00	 1.7887269097e+00	-1.4531326487e+00
 1.6695807472e+00	 1.8050780961e+00	-1.4626606196e+00
 1.6519191665e+00	 1.8212549682e+00	-1.4726134979e+00
 1.8299700992e+00	 1.6598239860e+00	-1.3219556937e+00
 1.8137158169e+00	 1.6775700816e+00	-1.3467321358e+00
 1.7972863862e+00	 1.6951602522e+00	-1.3677556116e+00
 1.7806840409e+00	 1.7125919337e+00	-1.3855199270e+00
 1.7639110651e+00	 1.7298626057e+00	-1.4005419852e+00
 1.7469697926e+00	 1.7469697926e+00	-1.4133612965e+00
 1.7298626057e+00	 1.7639110651e+00	-1.4245393179e+00
 1.7125919337e+00	 1.7806840409e+00	-1.4346586139e+00
 1.6951602522e+00	 1.7972863862e+00	-1.4443218270e+00
 1.6775700816e+00	 1.8137158169e+00	-1.4541504519e+00
 1.6598239860e+00	 1.8299700992e+00	-1.4647834046e+00
 1.8386852301e+00	 1.6677288056e+00	-1.3127662282e+00
 1.8223535377e+00	 1.6855594159e+00	-1.3382908352e+00
 1.8058458628e+00	 1.7032333587e+00	-1.3596829345e+00
 1.7891644497e+00	 1.7207480576e+00	-1.3775327713e+00
 1.7723115935e+00	 1.7381009803e+00	-1.3924545077e+00
 1.7552896392e+00	 1.7552896392e+00	-1.4050856548e+00
 1.7381009803e+00	 1.7723115935e+00	-1.4160863300e+00
 1.7207480576e+00	 1.7891644497e+00	-1.4261383274e+00
 1.7032333587e+00	 1.8058458628e+00	-1.4359439930e+00
 1.6855594159e+00	 1.8223535377e+00	-1.4462248949e+00
 1.6677288056e+00	 1.8386852301e+00	-1.4577202835e+00
 1.8474003610e+00	 1.6756336251e+00	-1.3028157093e+00
 1.8309912586e+00	 1.6935487502e+00	-1.3293128639e+00
 1.8144053394e+00	 1.7113064652e+00	-1.3512584907e+00
 1.7976448585e+00	 1.7289041816e+00	-1.3693479125e+00
 1.7807121220e+00	 1.7463393548e+00	-1.3843012055e+00
 1.7636094858e+00	 1.7636094858e+00	-1.3968625445e+00
 1.7463393548e+00	 1.7807121220e+00	-1.4077993669e+00
 1.7289041816e+00	 1.7976448585e+00	-1.4179013439e+00
 1.7113064652e+00	 1.8144053394e+00	-1.4279791486e+00
 1.6935487502e+00	 1.8309912586e+00	-1.4388630139e+00
 1.6756336251e+00	 1.8474003610e+00	-1.4514010713e+00
 1.8561154920e+00	 1.6835384446e+00	-1.2923017355e+00
 1.8396289794e+00	 1.7015380845e+00	-1.3197628186e+00
 1.8229648159e+00	 1.7193795718e+00	-1.3424513344e+00
 1.8061252673e+00	 1.7370603055e+00	-1.3609383659e+00
 1.7891126504e+00	 1.7545777294e+00	-1.3760584566e+00
 1.7719293324e+00	 1.7719293324e+00	-1.3886710070e+00
 1.7545777294e+00	 1.7891126504e+00	-1.3996593350e+00
 1.7370603055e+00	 1.8061252673e+00	-1.4099295379e+00
 1.7193795718e+00	 1.8229648159e+00	-1.4204091443e+00
 1.7015380845e+00	 1.8396289794e+00	-1.4320455479e+00
 1.6835384446e+00	 1.8561154920e+00	-1.4455830549e+00
 1.8648306229e+00	 1.6914432641e+00	-1.2826818474e+00
 1.8482667002e+00	 1.7095274188e+00	-1.3096086362e+00
 1.8315242925e+00	 1.7274526783e+00	-1.3332336529e+00
 1.8146056762e+00	 1.7452164295e+00	-1.3522800726e+00
 1.7975131789e+00	 1.7628161039e+00	-1.3677053593e+00
 1.7802491790e+00	 1.7802491790e+00	-1.3804926017e+00
 1.7628161039e+00	 1.7975131789e+00	-1.3916494610e+00
 1.7452164295e+00	 1.8146056762e+00	-1.4022069141e+00
 1.7274526783e+00	 1.8315242925e+00	-1.4132177785e+00
 1.7095274188e+00	 1.8482667002e+00	-1.4257550129e+00
 1.6914432641e+00	 1.8648306229e+00	-1.4388776187e+00
 1.8735457538e+00	 1.6993480836e+00	-1.2741380483e+00
 1.8569044210e+00	 1.7175167532e+00	-1.2991362928e+00
 1.8400837691e+00	 1.7355257848e+00	-1.3235808359e+00
 1.8230860850e+00	 1.7533725534e+00	-1.3433519748e+00
 1.8059137074e+00	 1.7710544785e+00	-1.3592238127e+00
 1.7885690256e+00	 1.7885690256e+00	-1.3723114915e+00
 1.7710544785e+00	 1.8059137074e+00	-1.3837553833e+00
 1.7533725534e+00	 1.8230860850e+00	-1.3947197028e+00
 1.7355257848e+00	 1.8400837691e+00	-1.4063908978e+00
 1.7175167532e+00	 1.8569044210e+00	-1.4196922072e+00
 1.6993480836e+00	 1.8735457538e+00	-1.4311199823e+00
 1.6202998884e+00	 1.7863944445e+00	-1.5121117640e+00
 1.6028237209e+00	 1.8020912168e+00	-1.5196927799e+00
 1.5852004492e+00	 1.8176127140e+00	-1.5255821300e+00
 1.5674327266e+00	 1.8329568802e+00	-1.5309378149e+00
 1.5495232437e+00	 1.8481217127e+00	-1.5369383163e+00
 1.5314747275e+00	 1.8631052626e+00	-1.5425860818e+00
 1.5132899397e+00	 1.8779056362e+00	-1.5434017720e+00
 1.4949716758e+00	 1.8925209951e+00	-1.5397384168e+00
 1.4765227630e+00	 1.9069495574e+00	-1.5321883136e+00
 1.4579460593e+00	 1.9211895983e+00	-1.5208965252e+00
 1.4392444520e+00	 1.9352394505e+00	-1.5063436065e+00
 1.6282047079e+00	 1.7951095754e+00	-1.5009566689e+00
 1.6106432809e+00	 1.8108829262e+00	-1.5088581085e+00
 1.5929340321e+00	 1.8264801468e+00	-1.5155905191e+00
 1.5750796276e+00	 1.8418991714e+00	-1.5223562560e+00
 1.5570827712e+00	 1.8571379872e+00	-1.5299224289e+00
 1.5389462032e+00	 1.8721946361e+00	-1.5337891404e+00
 1.5206726989e+00	 1.8870672150e+00	-1.5329624605e+00
 1.5022650672e+00	 1.9017538766e+00	-1.5280571110e+00
 1.4837261492e+00	 1.9162528304e+00	-1.5197168495e+00
 1.4650588170e+00	 1.9305623429e+00	-1.5082883177e+00
 1.4462659717e+00	 1.9446807389e+00	-1.4939600237e+00
 1.6361095275e+00	 1.8038247063e+00	-1.4906737701e+00
 1.6184628409e+00	 1.8196746357e+00	-1.4991297556e+00
 1.6006676150e+00	 1.8353475797e+00	-1.5069805829e+00
 1.5827265286e+00	 1.8508414625e+00	-1.5154625019e+00
 1.5646422987e+00	 1.8661542617e+00	-1.5225041573e+00
 1.5464176790e+00	 1.8812840096e+00	-1.5246318829e+00
 1.5280554581e+00	 1.8962287938e+00	-1.5224292270e+00
 1.5095584586e+00	 1.9109867582e+00	-1.5165238035e+00
 1.4909295355e+00	 1.9255561033e+00	-1.5075730101e+00
 1.4721715747e+00	 1.9399350875e+00	-1.4961467255e+00
 1.4532874915e+00	 1.9541220273e+00	-1.4822335100e+00
 1.6440143470e+00	 1.8125398373e+00	-1.4812350314e+00
 1.6262824010e+00	 1.8284663451e+00	-1.4904763685e+00
 1.6084011978e+00	 1.8442150126e+00	-1.4997153543e+00
 1.5903734295e+00	 1.8597837536e+00	-1.5092471457e+00
 1.5722018262e+00	 1.8751705362e+00	-1.5144888528e+00
 1.5538891547e+00	 1.8903733831e+00	-1.5151474550e+00
 1.5354382173e+00	 1.9053903727e+00	-1.5118243426e+00
 1.5168518500e+00	 1.9202196397e+00	-1.5051484194e+00
 1.4981329218e+00	 1.9348593762e+00	-1.4957790576e+00
 1.4792843324e+00	 1.9493078321e+00	-1.4844014283e+00
 1.4603090112e+00	 1.9635633158e+00	-1.4710766566e+00
 1.6519191665e+00	 1.8212549682e+00	-1.4726134979e+00
 1.6341019610e+00	 1.8372580545e+00	-1.4828675283e+00
 1.6161347807e+00	 1.8530824454e+00	-1.4937377965e+00
 1.5980203305e+00	 1.8687260448e+00	-1.5022337303e+00
 1.5797613537e+00	 1.8841868108e+00	-1.5059237642e+00
 1.5613606305e+00	 1.8994627566e+00	-1.5053740069e+00
 1.5428209764e+00	 1.9145519515e+00	-1.5011752626e+00
 1.5241452414e+00	 1.9294525212e+00	-1.4939462780e+00
 1.5053363081e+00	 1.9441626492e+00	-1.4843368883e+00
 1.4863970900e+00	 1.9586805767e+00	-1.4730310256e+00
 1.4673305310e+00	 1.9730046042e+00	-1.4604100363e+00
 1.6598239860e+00	 1.8299700992e+00	-1.4647834046e+00
 1.6419215210e+00	 1.8460497640e+00	-1.4762738601e+00
 1.6238683636e+00	 1.8619498783e+00	-1.4876209216e+00
 1.6056672315e+00	 1.8776683359e+00	-1.4944643422e+00
 1.5873208813e+00	 1.8932030853e+00	-1.4968608082e+00
 1.5688321062e+00	 1.9085521301e+00	-1.4953545050e+00
 1.5502037356e+00	 1.9237135303e+00	-1.4905144400e+00
 1.5314386329e+00	 1.9386854028e+00	-1.4829379058e+00
 1.5125396943e+00	 1.9534659221e+00	-1.4732538412e+00
 1.4935098477e+00	 1.9680533214e+00	-1.4621260512e+00
 1.4743520507e+00	 1.9824458926e+00	-1.4501622920e+00
 1.6677288056e+00	 1.8386852301e+00	-1.4577202835e+00
 1.6497410810e+00	 1.8548414734e+00	-1.4705494388e+00
 1.6316019464e+00	 1.8708173111e+00	-1.4805635964e+00
 1.6133141325e+00	 1.8866106271e+00	-1.4860024994e+00
 1.5948804088e+00	 1.9022193598e+00	-1.4873563799e+00
 1.5763035820e+00	 1.9176415036e+00	-1.4851365440e+00
 1.5575864948e+00	 1.9328751091e+00	-1.4798791380e+00
 1.5387320243e+00	 1.9479182843e+00	-1.4721488503e+00
 1.5197430806e+00	 1.9627691950e+00	-1.4625425111e+00
 1.5006226054e+00	 1.9774260660e+00	-1.4516925468e+00
 1.4813735704e+00	 1.9918871811e+00	-1.4402702244e+00
 1.6756336251e+00	 1.8474003610e+00	-1.4514010713e+00
 1.6575606411e+00	 1.8636331829e+00	-1.4641927960e+00
 1.6393355293e+00	 1.8796847440e+00	-1.4726387330e+00
 1.6209610335e+00	 1.8955529182e+00	-1.4769158916e+00
 1.6024399363e+00	 1.9112356343e+00	-1.4774711625e+00
 1.5837750577e+00	 1.9267308771e+00	-1.4747721586e+00
 1.5649692539e+00	 1.9420366880e+00	-1.4693112429e+00
 1.5460254157e+00	 1.9571511658e+00	-1.4616094936e+00
 1.5269464669e+00	 1.9720724680e+00	-1.4522205633e+00
 1.5077353631e+00	 1.9867988106e+00	-1.4417343919e+00
 1.4883950902e+00	 2.0013284695e+00	-1.4307807298e+00
 1.6835384446e+00	 1.8561154920e+00	-1.4455830549e+00
 1.6653802011e+00	 1.8724248923e+00	-1.4568177957e+00
 1.6470691122e+00	 1.8885521769e+00	-1.4639231418e+00
 1.6286079345e+00	 1.9044952093e+00	-1.4672761874e+00
 1.6099994638e+00	 1.9202519088e+00	-1.4672699366e+00
 1.5912465335e+00	 1.9358202506e+00	-1.4643176340e+00
 1.5723520131e+00	 1.9511982668e+00	-1.4588570768e+00
 1.5533188071e+00	 1.9663840474e+00	-1.4513548653e+00
 1.5341498531e+00	 1.9813757409e+00	-1.4423105463e+00
 1.5148481208e+00	 1.9961715552e+00	-1.4322606062e+00
 1.4954166099e+00	 2.0107697580e+00	-1.4217822702e+00
 1.6914432641e+00	 1.8648306229e+00	-1.4388776187e+00
 1.6731997611e+00	 1.8812166018e+00	-1.4485081670e+00
 1.6548026950e+00	 1.8974196097e+00	-1.4544973363e+00
 1.6362548355e+00	 1.9134375005e+00	-1.4571588413e+00
 1.6175589913e+00	 1.9292681834e+00	-1.4568213897e+00
 1.5987180092e+00	 1.9449096241e+00	-1.4538333176e+00
 1.5797347723e+00	 1.9603598456e+00	-1.4485672092e+00
 1.5606121985e+00	 1.9756169289e+00	-1.4414244560e+00
 1.5413532394e+00	 1.9906790138e+00	-1.4328397063e+00
 1.5219608784e+00	 2.0055442998e+00	-1.4232851627e+00
 1.5024381296e+00	 2.0202110464e+00	-1.4132746805e+00
 1.6993480836e+00	 1.8735457538e+00	-1.4311199823e+00
 1.6810193212e+00	 1.8900083112e+00	-1.4393510995e+00
 1.6625362779e+00	 1.9062870426e+00	-1.4444453355e+00
 1.6439017365e+00	 1.9223797916e+00	-1.4466428998e+00
 1.6251185188e+00	 1.9382844579e+00	-1.4461979247e+00
 1.6061894850e+00	 1.9539989976e+00	-1.4433834293e+00
 1.5871175315e+00	 1.9695214244e+00	-1.4384962698e+00
 1.5679055899e+00	 1.9848498104e+00	-1.4318620298e+00
 1.5485566257e+00	 1.9999822868e+00	-1.4238397999e+00
 1.5290736361e+00	 2.0149170444e+00	-1.4148268021e+00
 1.5094596494e+00	 2.0296523348e+00	-1.4052628102e+00
 1.4392444520e+00	 1.9352394505e+00	-1.5063436065e+00
 1.4204240641e+00	 1.9490951672e+00	-1.4898128451e+00
 1.4014846582e+00	 1.9627576101e+00	-1.4721998412e+00
 1.3824291882e+00	 1.9762252971e+00	-1.4536267219e+00
 1.3632606315e+00	 1.9894968058e+00	-1.4342192277e+00
 1.3439819874e+00	 2.0025707741e+00	-1.4141054113e+00
 1.3245962754e+00	 2.0154459001e+00	-1.3934141183e+00
 1.3051065339e+00	 2.0281209433e+00	-1.3722732620e+00
 1.2855158188e+00	 2.0405947239e+00	-1.3508079045e+00
 1.2658272015e+00	 2.0528661238e+00	-1.3291381628e+00
 1.2460437681e+00	 2.0649340864e+00	-1.3073769533e+00
 1.4462659717e+00	 1.9446807389e+00	-1.4939600237e+00
 1.4273537664e+00	 1.9586040523e+00	-1.4778998793e+00
 1.4083219624e+00	 1.9723331490e+00	-1.4608458915e+00
 1.3891735282e+00	 1.9858665397e+00	-1.4428761756e+00
 1.3699114555e+00	 1.9992027950e+00	-1.4240723211e+00
 1.3505387583e+00	 2.0123405461e+00	-1.4045181061e+00
 1.3310584708e+00	 2.0252784850e+00	-1.3842979848e+00
 1.3114736464e+00	 2.0380153648e+00	-1.3634953595e+00
 1.2917873557e+00	 2.0505500002e+00	-1.3421906520e+00
 1.2720026852e+00	 2.0628812675e+00	-1.3204591901e+00
 1.2521227360e+00	 2.0750081050e+00	-1.2983689261e+00
 1.4532874915e+00	 1.9541220273e+00	-1.4822335100e+00
 1.4342834687e+00	 1.9681129375e+00	-1.4667578135e+00
 1.4151592667e+00	 1.9819086880e+00	-1.4503013665e+00
 1.3959178681e+00	 1.9955077823e+00	-1.4329138093e+00
 1.3765622794e+00	 2.0089087842e+00	-1.4146482979e+00
 1.3570955291e+00	 2.0221103182e+00	-1.3955602110e+00
 1.3375206662e+00	 2.0351110698e+00	-1.3757056204e+00
 1.3178407589e+00	 2.0479097863e+00	-1.3551395366e+00
 1.2980588926e+00	 2.0605052764e+00	-1.3339139452e+00
 1.2781781690e+00	 2.0728964112e+00	-1.3120756495e+00
 1.2582017040e+00	 2.0850821236e+00	-1.2896639393e+00
 1.4603090112e+00	 1.9635633158e+00	-1.4710766566e+00
 1.4412131711e+00	 1.9776218226e+00	-1.4562828182e+00
 1.4219965709e+00	 1.9914842269e+00	-1.4404482313e+00
 1.4026622080e+00	 2.0051490249e+00	-1.4236094089e+00
 1.3832131033e+00	 2.0186147734e+00	-1.4058066036e+00
 1.3636522999e+00	 2.0318800902e+00	-1.3870824829e+00
 1.3439828616e+00	 2.0449436546e+00	-1.3674805593e+00
 1.3242078713e+00	 2.0578042078e+00	-1.3470433849e+00
 1.3043304295e+00	 2.0704605527e+00	-1.3258105287e+00
 1.2843536527e+00	 2.0829115549e+00	-1.3038163521e+00
 1.2642806719e+00	 2.0951561423e+00	-1.2810876013e+00
 1.4673305310e+00	 1.9730046042e+00	-1.4604100363e+00
 1.4481428734e+00	 1.9871307077e+00	-1.4463790725e+00
 1.4288338751e+00	 2.0010597659e+00	-1.4311764291e+00
 1.4094065479e+00	 2.0147902675e+00	-1.4148406559e+00
 1.3898639272e+00	 2.0283207626e+00	-1.3974144481e+00
 1.3702090708e+00	 2.0416498623e+00	-1.3789432681e+00
 1.3504450570e+00	 2.0547762395e+00	-1.3594737095e+00
 1.3305749838e+00	 2.0676986292e+00	-1.3390516190e+00
 1.3106019664e+00	 2.0804158290e+00	-1.3177199894e+00
 1.2905291364e+00	 2.0929266986e+00	-1.2955166435e+00
 1.2703596399e+00	 2.1052301609e+00	-1.2724717259e+00
 1.4743520507e+00	 1.9824458926e+00	-1.4501622920e+00
 1.4550725757e+00	 1.9966395929e+00	-1.4369588481e+00
 1.4356711794e+00	 2.0106353048e+00	-1.4223839626e+00
 1.4161508879e+00	 2.0244315101e+00	-1.4064932058e+00
 1.3965147512e+00	 2.0380267518e+00	-1.3893468828e+00
 1.3767658416e+00	 2.0514196343e+00	-1.3710085775e+00
 1.3569072524e+00	 2.0646088243e+00	-1.3515434288e+00
 1.3369420962e+00	 2.0775930507e+00	-1.3310161538e+00
 1.3168735033e+00	 2.0903711052e+00	-1.3094888343e+00
 1.2967046201e+00	 2.1029418423e+00	-1.2870184833e+00
 1.2764386079e+00	 2.1153041796e+00	-1.2636544134e+00
 1.4813735704e+00	 1.9918871811e+00	-1.4402702244e+00
 1.4620022780e+00	 2.0061484780e+00	-1.4279425936e+00
 1.4425084836e+00	 2.0202108438e+00	-1.4139769749e+00
 1.4228952278e+00	 2.0340727527e+00	-1.3984607673e+00
 1.4031655751e+00	 2.0477327410e+00	-1.3814868779e+00
 1.3833226124e+00	 2.0611894063e+00	-1.3631521647e+00
 1.3633694478e+00	 2.0744414091e+00	-1.3435556021e+00
 1.3433092087e+00	 2.0874874722e+00	-1.3227961819e+00
 1.3231450402e+00	 2.1003263815e+00	-1.3009705684e+00
 1.3028801038e+00	 2.1129569860e+00	-1.2781705247e+00
 1.2825175758e+00	 2.1253781982e+00	-1.2544801317e+00
 1.4883950902e+00	 2.0013284695e+00	-1.4307807298e+00
 1.4689319803e+00	 2.0156573632e+00	-1.4192590185e+00
 1.4493457879e+00	 2.0297863827e+00	-1.4058698309e+00
 1.4296395677e+00	 2.0437139953e+00	-1.3906451817e+00
 1.4098163990e+00	 2.0574387301e+00	-1.3737254007e+00
 1.3898793833e+00	 2.0709591784e+00	-1.3552556028e+00
 1.3698316433e+00	 2.0842739940e+00	-1.3353837189e+00
 1.3496763212e+00	 2.0973818937e+00	-1.3142582515e+00
 1.3294165771e+00	 2.1102816577e+00	-1.2920257744e+00
 1.3090555875e+00	 2.1229721297e+00	-1.2688281945e+00
 1.2885965438e+00	 2.1354522169e+00	-1.2447997979e+00
 1.4954166099e+00	 2.0107697580e+00	-1.4217822702e+00
 1.4758616826e+00	 2.0251662483e+00	-1.4108451785e+00
 1.4561830921e+00	 2.0393619216e+00	-1.3979851992e+00
 1.4363839077e+00	 2.0533552379e+00	-1.3829565024e+00
 1.4164672229e+00	 2.0671447193e+00	-1.3659614939e+00
 1.3964361541e+00	 2.0807289504e+00	-1.3472083622e+00
 1.3762938387e+00	 2.0941065788e+00	-1.3269089506e+00
 1.3560434336e+00	 2.1072763152e+00	-1.3052763444e+00
 1.3356881140e+00	 2.1202369340e+00	-1.2825221910e+00
 1.3152310713e+00	 2.1329872734e+00	-1.2588537736e+00
 1.2946755117e+00	 2.1455262355e+00	-1.2344708598e+00
 1.5024381296e+00	 2.0202110464e+00	-1.4132746805e+00
 1.4827913849e+00	 2.0346751335e+00	-1.4026506264e+00
 1.4630203963e+00	 2.0489374606e+00	-1.3902541346e+00
 1.4431282476e+00	 2.0629964805e+00	-1.3753130751e+00
 1.4231180468e+00	 2.0768507085e+00	-1.3581023546e+00
 1.4029929249e+00	 2.0904987225e+00	-1.3389078892e+00
 1.3827560341e+00	 2.1039391636e+00	-1.3180202293e+00
 1.3624105461e+00	 2.1171707367e+00	-1.2957319549e+00
 1.3419596509e+00	 2.1301922103e+00	-1.2723347928e+00
 1.3214065550e+00	 2.1430024171e+00	-1.2481164774e+00
 1.3007544797e+00	 2.1556002541e+00	-1.2233573784e+00
 1.5094596494e+00	 2.0296523348e+00	-1.4052628102e+00
 1.4897210872e+00	 2.0441840186e+00	-1.3947875316e+00
 1.4698577006e+00	 2.0585129995e+00	-1.3826161599e+00
 1.4498725875e+00	 2.0726377232e+00	-1.3676416187e+00
 1.4297688708e+00	 2.0865566977e+00	-1.3500634138e+00
 1.4095496958e+00	 2.1002684945e+00	-1.3302596845e+00
 1.3892182295e+00	 2.1137717485e+00	-1.3086143260e+00
 1.3687776585e+00	 2.1270651582e+00	-1.2855141689e+00
 1.3482311878e+00	 2.1401474865e+00	-1.2613458700e+00
 1.3275820387e+00	 2.1530175608e+00	-1.2364925367e+00
 1.3068334476e+00	 2.1656742728e+00	-1.2113301093e+00
 1.2460437681e+00	 2.0649340864e+00	-1.3073769533e+00
 1.2261686174e+00	 2.0767976173e+00	-1.2844358579e+00
 1.2062048614e+00	 2.0884557863e+00	-1.2589824180e+00
 1.1861556220e+00	 2.0999077254e+00	-1.2307486505e+00
 1.1660240291e+00	 2.1111526286e+00	-1.1994541024e+00
 1.1458132195e+00	 2.1221897520e+00	-1.1648035639e+00
 1.1255263349e+00	 2.1330184135e+00	-1.1264847337e+00
 1.1051665209e+00	 2.1436379930e+00	-1.0844629845e+00
 1.0847369251e+00	 2.1540479318e+00	-1.0433982821e+00
 1.0642406958e+00	 2.1642477327e+00	-1.0048882224e+00
 1.0436809806e+00	 2.1742369599e+00	-9.6875067522e-01
 1.2521227360e+00	 2.0750081050e+00	-1.2983689261e+00
 1.2321506222e+00	 2.0869295136e+00	-1.2748264619e+00
 1.2120894707e+00	 2.0986445583e+00	-1.2486065466e+00
 1.1919424187e+00	 2.1101523669e+00	-1.2195639134e+00
 1.1717126116e+00	 2.1214521297e+00	-1.1875399997e+00
 1.1514032012e+00	 2.1325430990e+00	-1.1523603764e+00
 1.1310173447e+00	 2.1434245894e+00	-1.1138321297e+00
 1.1105582030e+00	 2.1540959777e+00	-1.0717437066e+00
 1.0900289391e+00	 2.1645567025e+00	-1.0295687365e+00
 1.0694327165e+00	 2.1748062644e+00	-9.9053808644e-01
 1.0487726984e+00	 2.1848442252e+00	-9.5456678845e-01
 1.2582017040e+00	 2.0850821236e+00	-1.2896639393e+00
 1.2381326269e+00	 2.0970614098e+00	-1.2655988213e+00
 1.2179740800e+00	 2.1088333302e+00	-1.2387670270e+00
 1.1977292155e+00	 2.1203970085e+00	-1.2091420653e+00
 1.1774011940e+00	 2.1317516308e+00	-1.1766835384e+00
 1.1569931829e+00	 2.1428964460e+00	-1.1413342880e+00
 1.1365083545e+00	 2.1538307653e+00	-1.1030174917e+00
 1.1159498851e+00	 2.1645539624e+00	-1.0616337344e+00
 1.0953209530e+00	 2.1750654733e+00	-1.0191121120e+00
 1.0746247373e+00	 2.1853647961e+00	-9.8018165335e-01
 1.0538644162e+00	 2.1954514905e+00	-9.4504346323e-01
 1.2642806719e+00	 2.0951561423e+00	-1.2810876013e+00
 1.2441146317e+00	 2.1071933061e+00	-1.2565767902e+00
 1.2238586892e+00	 2.1190221022e+00	-1.2292883206e+00
 1.2035160122e+00	 2.1306416501e+00	-1.1993106496e+00
 1.1830897765e+00	 2.1420511319e+00	-1.1667179311e+00
 1.1625831645e+00	 2.1532497930e+00	-1.1315668775e+00
 1.1419993643e+00	 2.1642369411e+00	-1.0938935702e+00
 1.1213415672e+00	 2.1750119471e+00	-1.0537102444e+00
 1.1006129670e+00	 2.1855742441e+00	-1.0118948909e+00
 1.0798167580e+00	 2.1959233278e+00	-9.7371031134e-01
 1.0589561340e+00	 2.2060587558e+00	-9.4010058664e-01
 1.2703596399e+00	 2.1052301609e+00	-1.2724717259e+00
 1.2500966364e+00	 2.1173252023e+00	-1.2475900645e+00
 1.2297432985e+00	 2.1292108742e+00	-1.2200003165e+00
 1.2093028090e+00	 2.1408862916e+00	-1.1899021719e+00
 1.1887783589e+00	 2.1523506331e+00	-1.1574808339e+00
 1.1681731462e+00	 2.1636031400e+00	-1.1229035954e+00
 1.1474903741e+00	 2.1746431170e+00	-1.0863163620e+00
 1.1267332493e+00	 2.1854699318e+00	-1.0478401483e+00
 1.1059049809e+00	 2.1960830149e+00	-1.0077830847e+00
 1.0850087788e+00	 2.2064818595e+00	-9.7101411738e-01
 1.0640478518e+00	 2.2166660210e+00	-9.3965581303e-01
 1.2764386079e+00	 2.1153041796e+00	-1.2636544134e+00
 1.2560786412e+00	 2.1274570986e+00	-1.2384742651e+00
 1.2356279078e+00	 2.1393996461e+00	-1.2107384180e+00
 1.2150896057e+00	 2.1511309332e+00	-1.1807541905e+00
 1.1944669414e+00	 2.1626501342e+00	-1.1488144428e+00
 1.1737631279e+00	 2.1739564870e+00	-1.1151938666e+00
 1.1529813839e+00	 2.1850492929e+00	-1.0801452196e+00
 1.1321249314e+00	 2.1959279165e+00	-1.0438955307e+00
 1.1111969949e+00	 2.2065917857e+00	-1.0066423062e+00
 1.0902007995e+00	 2.2170403912e+00	-9.7198194210e-01
 1.0691395696e+00	 2.2272732863e+00	-9.4276810004e-01
 1.2825175758e+00	 2.1253781982e+00	-1.2544801317e+00
 1.2620606459e+00	 2.1375889948e+00	-1.2290710215e+00
 1.2415125170e+00	 2.1495884181e+00	-1.2013436288e+00
 1.2208764024e+00	 2.1613755748e+00	-1.1717094064e+00
 1.2001555238e+00	 2.1729496353e+00	-1.1405655884e+00
 1.1793531096e+00	 2.1843098340e+00	-1.1082911917e+00
 1.1584723937e+00	 2.1954554687e+00	-1.0752429599e+00
 1.1375166135e+00	 2.2063859012e+00	-1.0417512763e+00
 1.1164890088e+00	 2.2171005565e+00	-1.0081160762e+00
 1.0953928203e+00	 2.2275989229e+00	-9.7559737877e-01
 1.0742312874e+00	 2.2378805516e+00	-9.4385669452e-01
 1.2885965438e+00	 2.1354522169e+00	-1.2447997979e+00
 1.2680426507e+00	 2.1477208910e+00	-1.2192280553e+00
 1.2473971263e+00	 2.1597771901e+00	-1.1916626398e+00
 1.2266631992e+00	 2.1716202163e+00	-1.1626157542e+00
 1.2058441063e+00	 2.1832491364e+00	-1.1325858316e+00
 1.1849430913e+00	 2.1946631810e+00	-1.1020532476e+00
 1.1639634034e+00	 2.2058616446e+00	-1.0714759720e+00
 1.1429082956e+00	 2.2168438860e+00	-1.0412851865e+00
 1.1217810228e+00	 2.2276093273e+00	-1.0110387180e+00
 1.1005848410e+00	 2.2381574546e+00	-9.7668380554e-01
 1.0793230052e+00	 2.2484878169e+00	-9.4207298999e-01
 1.2946755117e+00	 2.1455262355e+00	-1.2344708598e+00
 1.2740246554e+00	 2.1578527873e+00	-1.2087992637e+00
 1.2532817356e+00	 2.1699659620e+00	-1.1815479152e+00
 1.2324499959e+00	 2.1818648579e+00	-1.1533264919e+00
 1.2115326887e+00	 2.1935486375e+00	-1.1247315582e+00
 1.1905330730e+00	 2.2050165280e+00	-1.0963419889e+00
 1.1694544132e+00	 2.2162678205e+00	-1.0687143249e+00
 1.1482999777e+00	 2.2273018707e+00	-1.0416864311e+00
 1.1270730368e+00	 2.2381180981e+00	-1.0106618996e+00
 1.1057768617e+00	 2.2487159863e+00	-9.7456631656e-01
 1.0844147230e+00	 2.2590950822e+00	-9.3759262234e-01
 1.3007544797e+00	 2.1556002541e+00	-1.2233573784e+00
 1.2800066602e+00	 2.1679846835e+00	-1.1976448031e+00
 1.2591663448e+00	 2.1801547340e+00	-1.1708577793e+00
 1.2382367927e+00	 2.1921094995e+00	-1.1437002909e+00
 1.2172212712e+00	 2.2038481387e+00	-1.1168640738e+00
 1.1961230547e+00	 2.2153698750e+00	-1.0910237474e+00
 1.1749454230e+00	 2.2266739963e+00	-1.0663433993e+00
 1.1536916597e+00	 2.2377598554e+00	-1.0386006664e+00
 1.1323650507e+00	 2.2486268689e+00	-1.0064025026e+00
 1.1109688825e+00	 2.2592745180e+00	-9.6940195631e-01
 1.0895064408e+00	 2.2697023475e+00	-9.3059316208e-01
 1.3068334476e+00	 2.1656742728e+00	-1.2113301093e+00
 1.2859886649e+00	 2.1781165798e+00	-1.1856311734e+00
 1.2650509541e+00	 2.1903435059e+00	-1.1594565028e+00
 1.2440235894e+00	 2.2023541410e+00	-1.1336013264e+00
 1.2229098536e+00	 2.2141476398e+00	-1.1088496977e+00
 1.2017130364e+00	 2.2257232220e+00	-1.0856926699e+00
 1.1804364328e+00	 2.2370801722e+00	-1.0604157376e+00
 1.1590833418e+00	 2.2482178401e+00	-1.0314226471e+00
 1.1376570647e+00	 2.2591356397e+00	-9.9843497725e-01
 1.1161609032e+00	 2.2698330496e+00	-9.6117207117e-01
 1.0945981586e+00	 2.2803096128e+00	-9.2125421867e-01
 1.0436809806e+00	 2.1742369599e+00	-9.6875067522e-01
 1.0230574141e+00	 2.1840168826e+00	-9.3392287116e-01
 1.0023766288e+00	 2.1935854689e+00	-9.0000082504e-01
 9.8164176201e-01	 2.2029424631e+00	-8.6768386040e-01
 9.6085594456e-01	 2.2120876695e+00	-8.3759695437e-01
 9.4002229952e-01	 2.2210209518e+00	-8.1028486965e-01
 9.1914394081e-01	 2.2297422330e+00	-7.8359259061e-01
 8.9822397188e-01	 2.2382514944e+00	-7.5346198962e-01
 8.7726548436e-01	 2.2465487755e+00	-7.1991123925e-01
 8.5627155682e-01	 2.2546341732e+00	-6.8302592253e-01
 8.3524525344e-01	 2.2625078411e+00	-6.4290170335e-01
 1.0487726984e+00	 2.1848442252e+00	-9.5456678845e-01
 1.0280485174e+00	 2.1946718604e+00	-9.2072706404e-01
 1.0072668386e+00	 2.2042871281e+00	-8.8869452634e-01
 9.8643081434e-01	 2.2136897715e+00	-8.5917754915e-01
 9.6554359089e-01	 2.2228795938e+00	-8.3278864420e-01
 9.4460830651e-01	 2.2318564582e+00	-8.0604794012e-01
 9.2362809033e-01	 2.2406202872e+00	-7.7615454164e-01
 9.0260606092e-01	 2.2491710620e+00	-7.4321105592e-01
 8.8154532501e-01	 2.2575088223e+00	-7.0732852703e-01
 8.6044897618e-01	 2.2656336655e+00	-6.6862961150e-01
 8.3932009356e-01	 2.2735457461e+00	-6.2725118910e-01
 1.0538644162e+00	 2.1954514905e+00	-9.4504346323e-01
 1.0330396208e+00	 2.2053268381e+00	-9.1292764049e-01
 1.0121570483e+00	 2.2149887873e+00	-8.8360613783e-01
 9.9121986668e-01	 2.2244370799e+00	-8.5758253215e-01
 9.7023123722e-01	 2.2336715181e+00	-8.3059638897e-01
 9.4919431351e-01	 2.2426919646e+00	-8.0078357786e-01
 9.2811223985e-01	 2.2514983413e+00	-7.6825188638e-01
 9.0698814996e-01	 2.2600906296e+00	-7.3311782018e-01
 8.8582516566e-01	 2.2684688691e+00	-6.9551027263e-01
 8.6462639553e-01	 2.2766331579e+00	-6.5557358364e-01
 8.4339493367e-01	 2.2845836510e+00	-6.1347001223e-01
 1.0589561340e+00	 2.2060587558e+00	-9.4010058664e-01
 1.0380307242e+00	 2.2159818159e+00	-9.1046974527e-01
 1.0170472581e+00	 2.2256904465e+00	-8.8423503197e-01
 9.9600891902e-01	 2.2351843882e+00	-8.5680330060e-01
 9.7491888356e-01	 2.2444634425e+00	-8.2689032255e-01
 9.5378032051e-01	 2.2535274710e+00	-7.9459208830e-01
 9.3259638937e-01	 2.2623763955e+00	-7.6001258626e-01
 9.1137023901e-01	 2.2710101971e+00	-7.2326805849e-01
 8.9010500631e-01	 2.2794289160e+00	-6.8449059987e-01
 8.6880381489e-01	 2.2876326502e+00	-6.4383112343e-01
 8.4746977379e-01	 2.2956215560e+00	-6.0146171813e-01
 1.0640478518e+00	 2.2166660210e+00	-9.3965581303e-01
 1.0430218275e+00	 2.2266367937e+00	-9.1259558650e-01
 1.0219374679e+00	 2.2363921057e+00	-8.8440681862e-01
 1.0007979714e+00	 2.2459316966e+00	-8.5413623598e-01
 9.7960652989e-01	 2.2552553668e+00	-8.2185345029e-01
 9.5836632751e-01	 2.2643629773e+00	-7.8763419493e-01
 9.3708053889e-01	 2.2732544496e+00	-7.5156525868e-01
 9.1575232805e-01	 2.2819297647e+00	-7.1374871844e-01
 8.9438484696e-01	 2.2903889628e+00	-6.7430549115e-01
 8.7298123425e-01	 2.2986321426e+00	-6.3337822880e-01
 8.5154461391e-01	 2.3066594609e+00	-5.9113358404e-01
 1.0691395696e+00	 2.2272732863e+00	-9.4276810004e-01
 1.0480129309e+00	 2.2372917714e+00	-9.1335911657e-01
 1.0268276777e+00	 2.2470937650e+00	-8.8235161592e-01
 1.0055870237e+00	 2.2566790050e+00	-8.4977686620e-01
 9.8429417622e-01	 2.2660472911e+00	-8.1566907009e-01
 9.6295233450e-01	 2.2751984837e+00	-7.8007106776e-01
 9.4156468841e-01	 2.2841325038e+00	-7.4303929630e-01
 9.2013441710e-01	 2.2928493323e+00	-7.0464802262e-01
 8.9866468761e-01	 2.3013490096e+00	-6.6499287091e-01
 8.7715865361e-01	 2.3096316349e+00	-6.2419367003e-01
 8.5561945402e-01	 2.3176973659e+00	-5.8239664941e-01
 1.0742312874e+00	 2.2378805516e+00	-9.4385669452e-01
 1.0530040343e+00	 2.2479467492e+00	-9.1157356807e-01
 1.0317178874e+00	 2.2577954242e+00	-8.7826770075e-01
 1.0103760760e+00	 2.2674263134e+00	-8.4392117222e-01
 9.8898182256e-01	 2.2768392155e+00	-8.0852090667e-01
 9.6753834150e-01	 2.2860339901e+00	-7.7206445123e-01
 9.4604883793e-01	 2.2950105580e+00	-7.3456498415e-01
 9.2451650614e-01	 2.3037688998e+00	-6.9605557052e-01
 9.0294452826e-01	 2.3123090564e+00	-6.5659268791e-01
 8.8133607297e-01	 2.3206311273e+00	-6.1625904831e-01
 8.5969429414e-01	 2.3287352708e+00	-5.7516574647e-01
 1.0793230052e+00	 2.2484878169e+00	-9.4207298999e-01
 1.0579951376e+00	 2.2586017270e+00	-9.0743048986e-01
 1.0366080972e+00	 2.2684970834e+00	-8.7235413693e-01
 1.0151651284e+00	 2.2781736218e+00	-8.3676572130e-01
 9.9366946889e-01	 2.2876311398e+00	-8.0059324321e-01
 9.7212434850e-01	 2.2968694965e+00	-7.6377678980e-01
 9.5053298746e-01	 2.3058886121e+00	-7.2627361464e-01
 9.2889859519e-01	 2.3146884674e+00	-6.8806243873e-01
 9.0722436891e-01	 2.3232691032e+00	-6.4914699641e-01
 8.8551349232e-01	 2.3316306196e+00	-6.0955885382e-01
 8.6376913426e-01	 2.3397731758e+00	-5.6935953126e-01
 1.0844147230e+00	 2.2590950822e+00	-9.3759262234e-01
 1.0629862410e+00	 2.2692567047e+00	-9.0112271495e-01
 1.0414983070e+00	 2.2791987426e+00	-8.6481090304e-01
 1.0199541807e+00	 2.2889209302e+00	-8.2850779771e-01
 9.9835711522e-01	 2.2984230641e+00	-7.9207105050e-01
 9.7671035550e-01	 2.3077050029e+00	-7.5537135112e-01
 9.5501713698e-01	 2.3167666663e+00	-7.1829760059e-01
 9.3328068423e-01	 2.3256080350e+00	-6.8076127954e-01
 9.1150420956e-01	 2.3342291500e+00	-6.4270003632e-01
 8.8969091168e-01	 2.3426301120e+00	-6.0408052339e-01
 8.6784397437e-01	 2.3508110807e+00	-5.6490051500e-01
 1.0895064408e+00	 2.2697023475e+00	-9.3059316208e-01
 1.0679773443e+00	 2.2799116825e+00	-8.9284447847e-01
 1.0463885167e+00	 2.2899004018e+00	-8.5583901771e-01
 1.0247432330e+00	 2.2996682386e+00	-8.1934553090e-01
 1.0030447616e+00	 2.3092149885e+00	-7.8314011367e-01
 9.8129636250e-01	 2.3185405093e+00	-7.4701234706e-01
 9.5950128650e-01	 2.3276447204e+00	-7.1077058627e-01
 9.3766277328e-01	 2.3365276025e+00	-6.7424641806e-01
 9.1578405021e-01	 2.3451891968e+00	-6.3729831232e-01
 8.9386833104e-01	 2.3536296043e+00	-5.9981449776e-01
 8.7191881449e-01	 2.3618489857e+00	-5.6171509574e-01
 1.0945981586e+00	 2.2803096128e+00	-9.2125421867e-01
 1.0729684477e+00	 2.2905666603e+00	-8.8279153359e-01
 1.0512787265e+00	 2.3006020611e+00	-8.4564066266e-01
 1.0295322854e+00	 2.3104155470e+00	-8.0947802135e-01
 1.0077324079e+00	 2.3200069128e+00	-7.7398715657e-01
 9.8588236949e-01	 2.3293760156e+00	-7.3886505248e-01
 9.6398543602e-01	 2.3385227746e+00	-7.0382755662e-01
 9.4204486232e-01	 2.3474471701e+00	-6.6861394774e-01
 9.2006389087e-01	 2.3561492436e+00	-6.3299067197e-01
 8.9804575040e-01	 2.3646290967e+00	-5.9675427855e-01
 8.7599365461e-01	 2.3728868906e+00	-5.5973359035e-01
 8.3524525344e-01	 2.2625078411e+00	-6.4290170335e-01
 8.1419320404e-01	 2.2701687047e+00	-6.0173813635e-01
 7.9311486663e-01	 2.2776183844e+00	-5.6125906761e-01
 7.7201325250e-01	 2.2848571989e+00	-5.2089886209e-01
 7.5089135383e-01	 2.2918855212e+00	-4.8012245020e-01
 7.2975214252e-01	 2.2987037776e+00	-4.3879807009e-01
 7.0859856909e-01	 2.3053124469e+00	-3.9868462632e-01
 6.8743356161e-01	 2.3117120599e+00	-3.6005872441e-01
 6.6626002464e-01	 2.3179031984e+00	-3.2293346143e-01
 6.4508083822e-01	 2.3238864943e+00	-2.8736027007e-01
 6.2389885687e-01	 2.3296626289e+00	-2.5342497024e-01
 8.3932009356e-01	 2.2735457461e+00	-6.2725118910e-01
 8.1816533931e-01	 2.2812439840e+00	-5.8545158460e-01
 7.9698416880e-01	 2.2887300078e+00	-5.4494117460e-01
 7.7577960802e-01	 2.2960041378e+00	-5.0508820678e-01
 7.5455466374e-01	 2.3030667485e+00	-4.6528823958e-01
 7.3331232235e-01	 2.3099182686e+00	-4.2513340615e-01
 7.1205554877e-01	 2.3165591790e+00	-3.8621965493e-01
 6.9078728537e-01	 2.3229900133e+00	-3.4900868671e-01
 6.6951045087e-01	 2.3292113560e+00	-3.1343907115e-01
 6.4822793935e-01	 2.3352238421e+00	-2.7948308044e-01
 6.2694261926e-01	 2.3410281562e+00	-2.4714281130e-01
 8.4339493367e-01	 2.2845836510e+00	-6.1347001223e-01
 8.2213747458e-01	 2.2923192634e+00	-5.7145436489e-01
 8.0085347098e-01	 2.2998416313e+00	-5.3118104545e-01
 7.7954596354e-01	 2.3071510766e+00	-4.9196607123e-01
 7.5821797364e-01	 2.3142479759e+00	-4.5315031544e-01
 7.3687250218e-01	 2.3211327595e+00	-4.1414553368e-01
 7.1551252846e-01	 2.3278059112e+00	-3.7624452757e-01
 6.9414100913e-01	 2.3342679667e+00	-3.4018386512e-01
 6.7276087709e-01	 2.3405195136e+00	-3.0584457611e-01
 6.5137504048e-01	 2.3465611899e+00	-2.7313728761e-01
 6.2998638165e-01	 2.3523936835e+00	-2.4199838259e-01
 8.4746977379e-01	 2.2956215560e+00	-6.0146171813e-01
 8.2610960985e-01	 2.3033945427e+00	-5.5958232188e-01
 8.0472277315e-01	 2.3109532548e+00	-5.1975946928e-01
 7.8331231906e-01	 2.3182980155e+00	-4.8127066320e-01
 7.6188128355e-01	 2.3254292032e+00	-4.4341660203e-01
 7.4043268201e-01	 2.3323472505e+00	-4.0552252027e-01
 7.1896950815e-01	 2.3390526433e+00	-3.6844168785e-01
 6.9749473290e-01	 2.3455459201e+00	-3.3327303258e-01
 6.7601130332e-01	 2.3518276712e+00	-2.9985680975e-01
 6.5452214160e-01	 2.3578985377e+00	-2.6805928699e-01
 6.3303014404e-01	 2.3637592108e+00	-2.3776890603e-01
 8.5154461391e-01	 2.3066594609e+00	-5.9113358404e-01
 8.3008174512e-01	 2.3144698221e+00	-5.4967600646e-01
 8.0859207532e-01	 2.3220648782e+00	-5.1046267018e-01
 7.8707867458e-01	 2.3294449543e+00	-4.7274611351e-01
 7.6554459346e-01	 2.3366104306e+00	-4.3580119932e-01
 7.4399286184e-01	 2.3435617415e+00	-3.9892614585e-01
 7.2242648784e-01	 2.3502993755e+00	-3.6249946940e-01
 7.0084845666e-01	 2.3568238735e+00	-3.2797039122e-01
 6.7926172955e-01	 2.3631358287e+00	-2.9518737031e-01
 6.5766924273e-01	 2.3692358854e+00	-2.6398937628e-01
 6.3607390644e-01	 2.3751247381e+00	-2.3423445058e-01
 8.5561945402e-01	 2.3176973659e+00	-5.8239664941e-01
 8.3405388039e-01	 2.3255451014e+00	-5.4158067810e-01
 8.1246137750e-01	 2.3331765017e+00	-5.0308228724e-01
 7.9084503011e-01	 2.3405918932e+00	-4.6614243928e-01
 7.6920790337e-01	 2.3477916579e+00	-4.3002433471e-01
 7.4755304167e-01	 2.3547762325e+00	-3.9401432496e-01
 7.2588346753e-01	 2.3615461076e+00	-3.5811204313e-01
 7.0420218043e-01	 2.3681018269e+00	-3.2397552242e-01
 6.8251215577e-01	 2.3744439863e+00	-2.9155257897e-01
 6.6081634386e-01	 2.3805732332e+00	-2.6067172656e-01
 6.3911766883e-01	 2.3864902655e+00	-2.3117792109e-01
 8.5969429414e-01	 2.3287352708e+00	-5.7516574647e-01
 8.3802601566e-01	 2.3366203808e+00	-5.3514630838e-01
 8.1633067967e-01	 2.3442881252e+00	-4.9741535637e-01
 7.9461138563e-01	 2.3517388321e+00	-4.6121550933e-01
 7.7287121327e-01	 2.3589728853e+00	-4.2581231731e-01
 7.5111322151e-01	 2.3659907235e+00	-3.9049501993e-01
 7.2934044722e-01	 2.3727928398e+00	-3.5497936724e-01
 7.0755590419e-01	 2.3793797803e+00	-3.2099333950e-01
 6.8576258200e-01	 2.3857521439e+00	-2.8867344006e-01
 6.6396344499e-01	 2.3919105810e+00	-2.5785435505e-01
 6.4216143122e-01	 2.3978557928e+00	-2.2838504834e-01
 8.6376913426e-01	 2.3397731758e+00	-5.6935953126e-01
 8.4199815093e-01	 2.3476956602e+00	-5.3022758560e-01
 8.2019998185e-01	 2.3553997487e+00	-4.9326429378e-01
 7.9837774115e-01	 2.3628857709e+00	-4.5772701174e-01
 7.7653452318e-01	 2.3701541126e+00	-4.2289749471e-01
 7.5467340134e-01	 2.3772052145e+00	-3.8808246442e-01
 7.3279742691e-01	 2.3840395719e+00	-3.5280713977e-01
 7.1090962795e-01	 2.3906577337e+00	-3.1873404285e-01
 6.8901300823e-01	 2.3970603015e+00	-2.8627560367e-01
 6.6711054612e-01	 2.4032479288e+00	-2.5528909972e-01
 6.4520519362e-01	 2.4092213201e+00	-2.2564438035e-01
 8.6784397437e-01	 2.3508110807e+00	-5.6490051500e-01
 8.4597028620e-01	 2.3587709395e+00	-5.2668392049e-01
 8.2406928403e-01	 2.3665113721e+00	-4.9043688119e-01
 8.0214409667e-01	 2.3740327098e+00	-4.5544442356e-01
 7.8019783309e-01	 2.3813353399e+00	-4.2101821199e-01
 7.5823358117e-01	 2.3884197055e+00	-3.8649688828e-01
 7.3625440660e-01	 2.3952863040e+00	-3.5130675368e-01
 7.1426335172e-01	 2.4019356871e+00	-3.1691307743e-01
 6.9226343445e-01	 2.4083684590e+00	-2.8408933016e-01
 6.7025764724e-01	 2.4145852765e+00	-2.5273159555e-01
 6.4824895601e-01	 2.4205868474e+00	-2.2274727479e-01
 8.7191881449e-01	 2.3618489857e+00	-5.6171509574e-01
 8.4994242147e-01	 2.3698462189e+00	-5.2437945296e-01
 8.2793858620e-01	 2.3776229956e+00	-4.8874625257e-01
 8.0591045219e-01	 2.3851796487e+00	-4.5414098244e-01
 7.8386114300e-01	 2.3925165673e+00	-4.1991877318e-01
 7.6179376100e-01	 2.3996341965e+00	-3.8546447329e-01
 7.3971138629e-01	 2.4065330362e+00	-3.5019525441e-01
 7.1761707548e-01	 2.4132136405e+00	-3.1525109254e-01
 6.9551386068e-01	 2.4196766166e+00	-2.8184945681e-01
 6.7340474837e-01	 2.4259226243e+00	-2.4994125249e-01
 6.5129271840e-01	 2.4319523747e+00	-2.1948789263e-01
 8.7599365461e-01	 2.3728868906e+00	-5.5973359035e-01
 8.5391455674e-01	 2.3809214982e+00	-5.2318305984e-01
 8.3180788838e-01	 2.3887346191e+00	-4.8801088250e-01
 8.0967680772e-01	 2.3963265875e+00	-4.5359566032e-01
 7.8752445291e-01	 2.4036977946e+00	-4.1934940482e-01
 7.6535394084e-01	 2.4108486875e+00	-3.8471731138e-01
 7.4316836598e-01	 2.4177797683e+00	-3.4917703152e-01
 7.2097079925e-01	 2.4244915939e+00	-3.1347390387e-01
 6.9876428691e-01	 2.4309847742e+00	-2.7929536646e-01
 6.7655184950e-01	 2.4372599721e+00	-2.4668123496e-01
 6.5433648080e-01	 2.4433179020e+00	-2.1566319272e-01
 6.2389885687e-01	 2.3296626289e+00	-2.5342497024e-01
 6.0271690889e-01	 2.3352323323e+00	-2.2068150934e-01
 5.8153779633e-01	 2.3405963841e+00	-1.8860425205e-01
 5.6036429316e-01	 2.3457556113e+00	-1.5719360429e-01
 5.3919914406e-01	 2.3507108863e+00	-1.2646203493e-01
 5.1804506367e-01	 2.3554631263e+00	-9.6432103984e-02
 4.9690473570e-01	 2.3600132920e+00	-6.7134803921e-02
 4.7578081225e-01	 2.3643623870e+00	-3.8608209235e-02
 4.5467591300e-01	 2.3685114569e+00	-1.0896427862e-02
 4.3359262456e-01	 2.3724615874e+00	 1.5951153631e-02
 4.1253349977e-01	 2.3762139045e+00	 4.1880340497e-02
 6.2694261926e-01	 2.3410281562e+00	-2.4714281130e-01
 6.0565733271e-01	 2.3466250320e+00	-2.1583422190e-01
 5.8437489542e-01	 2.3520152530e+00	-1.8496982027e-01
 5.6309809487e-01	 2.3571996501e+00	-1.5457712005e-01
 5.4182968916e-01	 2.3621791000e+00	-1.2469561399e-01
 5.2057240614e-01	 2.3669545243e+00	-9.5374699308e-02
 4.9932894265e-01	 2.3715268885e+00	-6.6671928006e-02
 4.7810196370e-01	 2.3758972011e+00	-3.8651577188e-02
 4.5689410178e-01	 2.3800665126e+00	-1.1383532745e-02
 4.3570795609e-01	 2.3840359144e+00	 1.5057521895e-02
 4.1454609193e-01	 2.3878065376e+00	 4.0592621673e-02
 6.2998638165e-01	 2.3523936835e+00	-2.4199838259e-01
 6.0859775653e-01	 2.3580177318e+00	-2.1175769159e-01
 5.8721199450e-01	 2.3634341219e+00	-1.8180199048e-01
 5.6583189658e-01	 2.3686436889e+00	-1.5218027492e-01
 5.4446023425e-01	 2.3736473136e+00	-1.2295294160e-01
 5.2309974862e-01	 2.3784459223e+00	-9.4189626476e-02
 5.0175314960e-01	 2.3830404850e+00	-6.5967380405e-02
 4.8042311516e-01	 2.3874320152e+00	-3.8369177005e-02
 4.5911229055e-01	 2.3916215684e+00	-1.1482745796e-02
 4.3782328761e-01	 2.3956102413e+00	 1.4600277858e-02
 4.1655868409e-01	 2.3993991707e+00	 3.9784896088e-02
 6.3303014404e-01	 2.3637592108e+00	-2.3776890603e-01
 6.1153818035e-01	 2.3694104315e+00	-2.0827231285e-01
 5.9004909358e-01	 2.3748529908e+00	-1.7895800765e-01
 5.6856569829e-01	 2.3800877277e+00	-1.4989097711e-01
 5.4709077934e-01	 2.3851155273e+00	-1.2114653806e-01
 5.2562709109e-01	 2.3899373203e+00	-9.2808104226e-02
 5.0417735656e-01	 2.3945540815e+00	-6.4965303333e-02
 4.8274426662e-01	 2.3989668293e+00	-3.7712439067e-02
 4.6133047933e-01	 2.4031766242e+00	-1.1147290802e-02
 4.3993861914e-01	 2.4071845683e+00	 1.4629757772e-02
 4.1857127626e-01	 2.4109918038e+00	 3.9516271553e-02
 6.3607390644e-01	 2.3751247381e+00	-2.3423445058e-01
 6.1447860417e-01	 2.3808031313e+00	-2.0520025061e-01
 5.9288619266e-01	 2.3862718597e+00	-1.7629595598e-01
 5.7129950000e-01	 2.3915317665e+00	-1.4759718618e-01
 5.4972132443e-01	 2.3965837410e+00	-1.1918832853e-01
 5.2815443357e-01	 2.4014287183e+00	-9.1160248939e-02
 5.0660156351e-01	 2.4060676780e+00	-6.3608366420e-02
 4.8506541808e-01	 2.4105016434e+00	-3.6631085662e-02
 4.6354866811e-01	 2.4147316800e+00	-1.0328580282e-02
 4.4205395067e-01	 2.4187588953e+00	 1.5198082484e-02
 4.2058386842e-01	 2.4225844368e+00	 3.9847486499e-02
 6.3911766883e-01	 2.3864902655e+00	-2.3117792109e-01
 6.1741902799e-01	 2.3921958310e+00	-2.0236544773e-01
 5.9572329175e-01	 2.3976907286e+00	-1.7367478183e-01
 5.7403330171e-01	 2.4029758052e+00	-1.4518694837e-01
 5.5235186953e-01	 2.4080519546e+00	-1.1698968770e-01
 5.3068177605e-01	 2.4129201163e+00	-8.9175125641e-02
 5.0902577046e-01	 2.4175812745e+00	-6.1837821171e-02
 4.8738656954e-01	 2.4220364574e+00	-3.5073186045e-02
 4.6576685689e-01	 2.4262867358e+00	-8.9762683508e-03
 4.4416928220e-01	 2.4303332222e+00	 1.6359109495e-02
 4.2259646059e-01	 2.4341770699e+00	 4.0840869628e-02
 6.4216143122e-01	 2.3978557928e+00	-2.2838504834e-01
 6.2035945181e-01	 2.4035885308e+00	-1.9959363308e-01
 5.9856039083e-01	 2.4091095975e+00	-1.7095431677e-01
 5.7676710342e-01	 2.4144198440e+00	-1.4254843164e-01
 5.5498241462e-01	 2.4195201683e+00	-1.1446148389e-01
 5.3320911852e-01	 2.4244115143e+00	-8.6780798219e-02
 5.1144997741e-01	 2.4290948711e+00	-5.9593554481e-02
 4.8970772101e-01	 2.4335712715e+00	-3.2985210484e-02
 4.6798504567e-01	 2.4378417916e+00	-7.0383025791e-03
 4.4628461373e-01	 2.4419075492e+00	 1.8168385926e-02
 4.2460905276e-01	 2.4457697030e+00	 4.2560300289e-02
 6.4520519362e-01	 2.4092213201e+00	-2.2564438035e-01
 6.2329987564e-01	 2.4149812305e+00	-1.9671233031e-01
 6.0139748991e-01	 2.4205284664e+00	-1.6799530084e-01
 5.7950090513e-01	 2.4258638828e+00	-1.3956996049e-01
 5.5761295972e-01	 2.4309883819e+00	-1.1151412254e-01
 5.3573646100e-01	 2.4359029123e+00	-8.3904378856e-02
 5.1387418437e-01	 2.4406084676e+00	-5.6814141226e-02
 4.9202887247e-01	 2.4451060856e+00	-3.0312083318e-02
 4.7020323445e-01	 2.4493968474e+00	-4.4609748934e-03
 4.4839994526e-01	 2.4534818761e+00	 2.0683102356e-02
 4.2662164492e-01	 2.4573623360e+00	 4.5071169564e-02
 6.4824895601e-01	 2.4205868474e+00	-2.2274727479e-01
 6.2624029946e-01	 2.4263739303e+00	-1.9355086719e-01
 6.0423458899e-01	 2.4319473353e+00	-1.6465940593e-01
 5.8223470684e-01	 2.4373079216e+00	-1.3614005057e-01
 5.6024350481e-01	 2.4424565956e+00	-1.0805758920e-01
 5.3826380348e-01	 2.4473943103e+00	-8.0472076716e-02
 5.1629839132e-01	 2.4521220641e+00	-5.3436895973e-02
 4.9435002393e-01	 2.4566408997e+00	-2.6997235070e-02
 4.7242142323e-01	 2.4609519032e+00	-1.1889715338e-03
 4.5051527679e-01	 2.4650562031e+00	 2.3962047512e-02
 4.2863423709e-01	 2.4689549691e+00	 4.8440342043e-02
 6.5129271840e-01	 2.4319523747e+00	-2.1948789263e-01
 6.2918072328e-01	 2.4377666300e+00	-1.8994038560e-01
 6.0707168808e-01	 2.4433662042e+00	-1.6080925933e-01
 5.8496850855e-01	 2.4487519604e+00	-1.3214744297e-01
 5.6287404990e-01	 2.4539248093e+00	-1.0400149209e-01
 5.4079114596e-01	 2.4588857083e+00	-7.6409245909e-02
 5.1872259828e-01	 2.4636356606e+00	-4.9397923825e-02
 4.9667117539e-01	 2.4681757138e+00	-2.2982653638e-02
 4.7463961201e-01	 2.4725069590e+00	 2.8345778900e-03
 4.5263060832e-01	 2.4766305301e+00	 2.8065563774e-02
 4.3064682925e-01	 2.4805476022e+00	 5.2736118261e-02
 6.5433648080e-01	 2.4433179020e+00	-2.1566319272e-01
 6.3212114710e-01	 2.4491593298e+00	-1.8571385202e-01
 6.0990878716e-01	 2.4547850731e+00	-1.5630846738e-01
 5.8770231026e-01	 2.4601959991e+00	-1.2748113845e-01
 5.6550459500e-01	 2.4653930229e+00	-9.9255103983e-02
 5.4331848843e-01	 2.4703771063e+00	-7.1640432757e-02
 5.2114680523e-01	 2.4751492571e+00	-4.4632170438e-02
 4.9899232685e-01	 2.4797105278e+00	-1.8208934597e-02
 4.7685780079e-01	 2.4840620148e+00	 7.6680522208e-03
 4.5474593986e-01	 2.4882048570e+00	 3.3055503480e-02
 4.3265942142e-01	 2.4921402353e+00	 5.8028197775e-02
 4.1253349977e-01	 2.3762139045e+00	 4.1880340497e-02
 3.9149748467e-01	 2.3797701602e+00	 6.6287865392e-02
 3.7049065097e-01	 2.3831309009e+00	 8.8899991303e-02
 3.4951545315e-01	 2.3862973643e+00	 1.1016261754e-01
 3.2857430949e-01	 2.3892708235e+00	 1.3021599267e-01
 3.0766960148e-01	 2.3920525863e+00	 1.4903008580e-01
 2.8680367337e-01	 2.3946439939e+00	 1.6655810346e-01
 2.6597883175e-01	 2.3970464200e+00	 1.8273628267e-01
 2.4519734510e-01	 2.3992612697e+00	 1.9748322204e-01
 2.2446144344e-01	 2.4012899783e+00	 2.1069881552e-01
 2.0377331793e-01	 2.4031340103e+00	 2.2226285138e-01
 4.1454609193e-01	 2.3878065376e+00	 4.0592621673e-02
 3.9340745022e-01	 2.3913801429e+00	 6.4588445601e-02
 3.7229813225e-01	 2.3947572793e+00	 8.6752496299e-02
 3.5122060452e-01	 2.3979391906e+00	 1.0754761845e-01
 3.3017729708e-01	 2.4009271562e+00	 1.2716433816e-01
 3.0917060305e-01	 2.4037224902e+00	 1.4556452126e-01
 2.8820287811e-01	 2.4063265403e+00	 1.6269552529e-01
 2.6727644010e-01	 2.4087406869e+00	 1.7849059414e-01
 2.4639356858e-01	 2.4109663420e+00	 1.9286789101e-01
 2.2555650443e-01	 2.4130049479e+00	 2.0572912260e-01
 2.0476744952e-01	 2.4148579762e+00	 2.1695781958e-01
 4.1655868409e-01	 2.3993991707e+00	 3.9784896088e-02
 3.9531741576e-01	 2.4029901255e+00	 6.3426418570e-02
 3.7410561354e-01	 2.4063836578e+00	 8.5222845982e-02
 3.5292575589e-01	 2.4095810170e+00	 1.0564071052e-01
 3.3178028467e-01	 2.4125834890e+00	 1.2492355213e-01
 3.1067160461e-01	 2.4153923941e+00	 1.4302402059e-01
 2.8960208284e-01	 2.4180090867e+00	 1.5988019887e-01
 2.6857404845e-01	 2.4204349538e+00	 1.7541910100e-01
 2.4758979205e-01	 2.4226714143e+00	 1.8955539864e-01
 2.2665156542e-01	 2.4247199174e+00	 2.0218972710e-01
 2.0576158111e-01	 2.4265819421e+00	 2.1320663806e-01
 4.1857127626e-01	 2.4109918038e+00	 3.9516271553e-02
 3.9722738131e-01	 2.4146001082e+00	 6.2871519943e-02
 3.7591309483e-01	 2.4180100362e+00	 8.4390052261e-02
 3.5463090726e-01	 2.4212228434e+00	 1.0453005757e-01
 3.3338327226e-01	 2.4242398217e+00	 1.2358797649e-01
 3.1217260618e-01	 2.4270622980e+00	 1.4150751012e-01
 2.9100128758e-01	 2.4296916330e+00	 1.5821418635e-01
 2.6987165680e-01	 2.4321292207e+00	 1.7362570129e-01
 2.4878601553e-01	 2.4343764866e+00	 1.8765033094e-01
 2.2774662641e-01	 2.4364348870e+00	 2.0018490969e-01
 2.0675571270e-01	 2.4383059080e+00	 2.1111244612e-01
 4.2058386842e-01	 2.4225844368e+00	 3.9847486499e-02
 3.9913734685e-01	 2.4262100909e+00	 6.2994898850e-02
 3.7772057612e-01	 2.4296364146e+00	 8.4334321578e-02
 3.5633605864e-01	 2.4328646698e+00	 1.0430485561e-01
 3.3498625986e-01	 2.4358961545e+00	 1.2325287767e-01
 3.1367360775e-01	 2.4387322019e+00	 1.4111470534e-01
 2.9240049232e-01	 2.4413741794e+00	 1.5780017552e-01
 2.7116926515e-01	 2.4438234876e+00	 1.7321472673e-01
 2.4998223900e-01	 2.4460815589e+00	 1.8725748673e-01
 2.2884168740e-01	 2.4481498566e+00	 1.9981891412e-01
 2.0774984429e-01	 2.4500298739e+00	 2.1077806715e-01
 4.2259646059e-01	 2.4341770699e+00	 4.0840869628e-02
 4.0104731239e-01	 2.4378200736e+00	 6.3869086261e-02
 3.7952805740e-01	 2.4412627931e+00	 8.5137031660e-02
 3.5804121001e-01	 2.4445064962e+00	 1.0505529432e-01
 3.3658924745e-01	 2.4475524872e+00	 1.2401441901e-01
 3.1517460931e-01	 2.4504021058e+00	 1.4194609371e-01
 2.9379969705e-01	 2.4530567258e+00	 1.5874147265e-01
 2.7246687350e-01	 2.4555177545e+00	 1.7429094509e-01
 2.5117846248e-01	 2.4577866312e+00	 1.8848188938e-01
 2.2993674839e-01	 2.4598648262e+00	 2.0119596780e-01
 2.0874397588e-01	 2.4617538398e+00	 2.1230603799e-01
 4.2460905276e-01	 2.4457697030e+00	 4.2560300289e-02
 4.0295727794e-01	 2.4494300562e+00	 6.5567963884e-02
 3.8133553869e-01	 2.4528891715e+00	 8.6880708601e-02
 3.5974636138e-01	 2.4561483226e+00	 1.0687251857e-01
 3.3819223504e-01	 2.4592088200e+00	 1.2596963302e-01
 3.1667561088e-01	 2.4620720097e+00	 1.4410291719e-01
 2.9519890179e-01	 2.4647392722e+00	 1.6114199485e-01
 2.7376448185e-01	 2.4672120214e+00	 1.7695956204e-01
 2.5237468595e-01	 2.4694917035e+00	 1.9142879774e-01
 2.3103180938e-01	 2.4715797958e+00	 2.0442030156e-01
 2.0973810747e-01	 2.4734778057e+00	 2.1579863717e-01
 4.2662164492e-01	 2.4573623360e+00	 4.5071169564e-02
 4.0486724348e-01	 2.4610400389e+00	 6.8166733557e-02
 3.8314301998e-01	 2.4645155499e+00	 8.9649004255e-02
 3.6145151275e-01	 2.4677901490e+00	 1.0984859009e-01
 3.3979522263e-01	 2.4708651527e+00	 1.2921639361e-01
 3.1817661245e-01	 2.4737419136e+00	 1.4768715461e-01
 2.9659810652e-01	 2.4764218186e+00	 1.6510626209e-01
 2.7506209020e-01	 2.4789062883e+00	 1.8132622240e-01
 2.5357090942e-01	 2.4811967758e+00	 1.9620371625e-01
 2.3212687037e-01	 2.4832947654e+00	 2.0959616841e-01
 2.1073223906e-01	 2.4852017716e+00	 2.2135791202e-01
 4.2863423709e-01	 2.4689549691e+00	 4.8440342043e-02
 4.0677720903e-01	 2.4726500216e+00	 7.1741887151e-02
 3.8495050127e-01	 2.4761419284e+00	 9.3526673938e-02
 3.6315666412e-01	 2.4794319754e+00	 1.1407644932e-01
 3.4139821022e-01	 2.4825214855e+00	 1.3385338834e-01
 3.1967761402e-01	 2.4854118175e+00	 1.5280150374e-01
 2.9799731126e-01	 2.4881043650e+00	 1.7073938874e-01
 2.7635969854e-01	 2.4906005552e+00	 1.8749701083e-01
 2.5476713290e-01	 2.4929018481e+00	 2.0291240441e-01
 2.3322193136e-01	 2.4950097349e+00	 2.1682786139e-01
 2.1172637065e-01	 2.4969257375e+00	 2.2908570474e-01
 4.3064682925e-01	 2.4805476022e+00	 5.2736118261e-02
 4.0868717457e-01	 2.4842600043e+00	 7.6371176928e-02
 3.8675798256e-01	 2.4877683068e+00	 9.8599554428e-02
 3.6486181549e-01	 2.4910738018e+00	 1.1964987727e-01
 3.4300119781e-01	 2.4941778182e+00	 1.3998009047e-01
 3.2117861558e-01	 2.4970817214e+00	 1.5954936320e-01
 2.9939651599e-01	 2.4997869113e+00	 1.7814707483e-01
 2.7765730689e-01	 2.5022948221e+00	 1.9557845197e-01
 2.5596335637e-01	 2.5046069204e+00	 2.1166088552e-01
 2.3431699235e-01	 2.5067247045e+00	 2.2621973064e-01
 2.1272050224e-01	 2.5086497034e+00	 2.3908367744e-01
 4.3265942142e-01	 2.4921402353e+00	 5.8028197775e-02
 4.1059714012e-01	 2.4958699869e+00	 8.2133586379e-02
 3.8856546385e-01	 2.4993946852e+00	 1.0495454224e-01
 3.6656696686e-01	 2.5027156282e+00	 1.2666345763e-01
 3.4460418540e-01	 2.5058341510e+00	 1.4769673114e-01
 3.2267961715e-01	 2.5087516253e+00	 1.6803481413e-01
 3.0079572073e-01	 2.5114694577e+00	 1.8743559687e-01
 2.7895491524e-01	 2.5139890890e+00	 2.0567751005e-01
 2.5715957984e-01	 2.5163119927e+00	 2.2255545475e-01
 2.3541205334e-01	 2.5184396741e+00	 2.3787619958e-01
 2.1371463383e-01	 2.5203736693e+00	 2.5145333620e-01
 2.0377331793e-01	 2.4031340103e+00	 2.2226285138e-01
 1.8313861630e-01	 2.4047945917e+00	 2.3257323906e-01
 1.6255588932e-01	 2.4062735701e+00	 2.4210920960e-01
 1.4202716195e-01	 2.4075724904e+00	 2.5083222122e-01
 1.2155442052e-01	 2.4086929222e+00	 2.5867677017e-01
 1.0113961253e-01	 2.4096364589e+00	 2.6554798930e-01
 8.0784646514e-02	 2.4104047172e+00	 2.7131925352e-01
 6.0491391840e-02	 2.4109993353e+00	 2.7582983999e-01
 4.0261678613e-02	 2.4114219724e+00	 2.7888268794e-01
 2.0097297568e-02	 2.4116743078e+00	 2.8024229967e-01
 0.0000000000e+00	 2.4117580392e+00	 2.7963282132e-01
 2.0476744952e-01	 2.4148579762e+00	 2.1695781958e-01
 1.8403207912e-01	 2.4165266589e+00	 2.2697880315e-01
 1.6334893694e-01	 2.4180128527e+00	 2.3628978121e-01
 1.4272005781e-01	 2.4193181100e+00	 2.4484455816e-01
 1.2214743775e-01	 2.4204440079e+00	 2.5256953197e-01
 1.0163303378e-01	 2.4213921478e+00	 2.5936100949e-01
 8.1178763712e-02	 2.4221641541e+00	 2.6508253358e-01
 6.0786506059e-02	 2.4227616731e+00	 2.6956227168e-01
 4.0458099847e-02	 2.4231863721e+00	 2.7259051229e-01
 2.0195344548e-02	 2.4234399385e+00	 2.7391731282e-01
 0.0000000000e+00	 2.4235240784e+00	 2.7325033849e-01
 2.0576158111e-01	 2.4265819421e+00	 2.1320663806e-01
 1.8492554194e-01	 2.4282587261e+00	 2.2304597553e-01
 1.6414198456e-01	 2.4297521354e+00	 2.3221485365e-01
 1.4341295367e-01	 2.4310637295e+00	 2.4066119755e-01
 1.2274045499e-01	 2.4321950936e+00	 2.4830535113e-01
 1.0212645502e-01	 2.4331478366e+00	 2.5503709086e-01
 8.1572880911e-02	 2.4339235909e+00	 2.6071265624e-01
 6.1081620278e-02	 2.4345240108e+00	 2.6515184845e-01
 4.0654521081e-02	 2.4349507718e+00	 2.6813524564e-01
 2.0293391528e-02	 2.4352055692e+00	 2.6940157956e-01
 0.0000000000e+00	 2.4352901176e+00	 2.6864531530e-01
 2.0675571270e-01	 2.4383059080e+00	 2.1111244612e-01
 1.8581900476e-01	 2.4399907934e+00	 2.2087782047e-01
 1.6493503218e-01	 2.4414914180e+00	 2.2999034169e-01
 1.4410584953e-01	 2.4428093491e+00	 2.3839392437e-01
 1.2333347222e-01	 2.4439461793e+00	 2.4600499633e-01
 1.0261987626e-01	 2.4449035255e+00	 2.5270919216e-01
 8.1966998109e-02	 2.4456830278e+00	 2.5835806837e-01
 6.1376734497e-02	 2.4462863486e+00	 2.6276589371e-01
 4.0850942315e-02	 2.4467151715e+00	 2.6570656478e-01
 2.0391438508e-02	 2.4469711999e+00	 2.6691069350e-01
 0.0000000000e+00	 2.4470561569e+00	 2.6606290972e-01
 2.0774984429e-01	 2.4500298739e+00	 2.1077806715e-01
 1.8671246759e-01	 2.4517228606e+00	 2.2057674489e-01
 1.6572807980e-01	 2.4532307006e+00	 2.2972106615e-01
 1.4479874539e-01	 2.4545549686e+00	 2.3815289938e-01
 1.2392648946e-01	 2.4556972650e+00	 2.4578698941e-01
 1.0311329750e-01	 2.4566592143e+00	 2.5250731183e-01
 8.2361115307e-02	 2.4574424647e+00	 2.5816345388e-01
 6.1671848716e-02	 2.4580486864e+00	 2.6256707755e-01
 4.1047363549e-02	 2.4584795711e+00	 2.6548851691e-01
 2.0489485488e-02	 2.4587368307e+00	 2.6665355810e-01
 0.0000000000e+00	 2.4588221961e+00	 2.6574044661e-01
 2.0874397588e-01	 2.4617538398e+00	 2.1230603799e-01
 1.8760593041e-01	 2.4634549279e+00	 2.2224453696e-01
 1.6652112742e-01	 2.4649699832e+00	 2.3151080328e-01
 1.4549164125e-01	 2.4663005881e+00	 2.4004672053e-01
 1.2451950669e-01	 2.4674483506e+00	 2.4776768031e-01
 1.0360671875e-01	 2.4684149032e+00	 2.5455857795e-01
 8.2755232505e-02	 2.4692019016e+00	 2.6026983997e-01
 6.1966962935e-02	 2.4698110242e+00	 2.6471354084e-01
 4.1243784784e-02	 2.4702439708e+00	 2.6765966308e-01
 2.0587532468e-02	 2.4705024614e+00	 2.6883255097e-01
 0.0000000000e+00	 2.4705882353e+00	 2.6790760429e-01
 2.0973810747e-01	 2.4734778057e+00	 2.1579863717e-01
 1.8849939323e-01	 2.4751869951e+00	 2.2598240344e-01
 1.6731417504e-01	 2.4767092658e+00	 2.3546233242e-01
 1.4618453711e-01	 2.4780462077e+00	 2.4418248249e-01
 1.2511252392e-01	 2.4791994363e+00	 2.5206131972e-01
 1.0410013999e-01	 2.4801705920e+00	 2.5898733539e-01
 8.3149349703e-02	 2.4809613385e+00	 2.6481470032e-01
 6.2262077154e-02	 2.4815733620e+00	 2.6935901586e-01
 4.1440206018e-02	 2.4820083705e+00	 2.7239321751e-01
 2.0685579447e-02	 2.4822680921e+00	 2.7364368337e-01
 0.0000000000e+00	 2.4823542745e+00	 2.7278659567e-01
 2.1073223906e-01	 2.4852017716e+00	 2.2135791202e-01
 1.8939285605e-01	 2.4869190623e+00	 2.3189100566e-01
 1.6810722266e-01	 2.4884485484e+00	 2.4167748223e-01
 1.4687743297e-01	 2.4897918272e+00	 2.5066583429e-01
 1.2570554116e-01	 2.4909505220e+00	 2.5878012963e-01
 1.0459356123e-01	 2.4919262808e+00	 2.6591523057e-01
 8.3543466901e-02	 2.4927207753e+00	 2.7193205532e-01
 6.2557191373e-02	 2.4933356998e+00	 2.7665294335e-01
 4.1636627252e-02	 2.4937727702e+00	 2.7985718297e-01
 2.0783626427e-02	 2.4940337228e+00	 2.8127675528e-01
 0.0000000000e+00	 2.4941203137e+00	 2.8059234444e-01
 2.1172637065e-01	 2.4969257375e+00	 2.2908570474e-01
 1.9028631888e-01	 2.4986511296e+00	 2.4007049425e-01
 1.6890027028e-01	 2.5001878310e+00	 2.5025717537e-01
 1.4757032883e-01	 2.5015374467e+00	 2.5960103530e-01
 1.2629855839e-01	 2.5027016077e+00	 2.6803437174e-01
 1.0508698248e-01	 2.5036819697e+00	 2.7546129366e-01
 8.3937584099e-02	 2.5044802122e+00	 2.8175256941e-01
 6.2852305592e-02	 2.5050980376e+00	 2.8674058631e-01
 4.1833048486e-02	 2.5055371698e+00	 2.9021448238e-01
 2.0881673407e-02	 2.5057993536e+00	 2.9191550608e-01
 0.0000000000e+00	 2.5058863530e+00	 2.9153265611e-01
 2.1272050224e-01	 2.5086497034e+00	 2.3908367744e-01
 1.9117978170e-01	 2.5103831968e+00	 2.5062054274e-01
 1.6969331790e-01	 2.5119271136e+00	 2.6130147180e-01
 1.4826322469e-01	 2.5132830663e+00	 2.7109100943e-01
 1.2689157562e-01	 2.5144526934e+00	 2.7993241389e-01
 1.0558040372e-01	 2.5154376585e+00	 2.8774201849e-01
 8.4331701297e-02	 2.5162396491e+00	 2.9440364569e-01
 6.3147419810e-02	 2.5168603754e+00	 2.9976314062e-01
 4.2029469720e-02	 2.5173015695e+00	 3.0362308664e-01
 2.0979720387e-02	 2.5175649843e+00	 3.0573776097e-01
 0.0000000000e+00	 2.5176523922e+00	 3.0580838443e-01
 2.1371463383e-01	 2.5203736693e+00	 2.5145333620e-01
 1.9207324452e-01	 2.5221152641e+00	 2.6364037993e-01
 1.7048636552e-01	 2.5236663962e+00	 2.7490961065e-01
 1.4895612055e-01	 2.5250286858e+00	 2.8523739769e-01
 1.2748459286e-01	 2.5262037791e+00	 2.9458079455e-01
 1.0607382496e-01	 2.5271933474e+00	 3.0287144009e-01
 8.4725818494e-02	 2.5279990860e+00	 3.1000951781e-01
 6.3442534029e-02	 2.5286227132e+00	 3.1585784251e-01
 4.2225890954e-02	 2.5290659692e+00	 3.2023613895e-01
 2.1077767367e-02	 2.5293306150e+00	 3.2291557334e-01
 0.0000000000e+00	 2.5294184314e+00	 3.2361359298e-01
 2.5294184314e+00	 0.0000000000e+00	 1.8858255882e+00
 2.5293306150e+00	 2.1077767367e-02	 1.8883761419e+00
 2.5290659692e+00	 4.2225890954e-02	 1.8888303183e+00
 2.5286227132e+00	 6.3442534029e-02	 1.8872493871e+00
 2.5279990860e+00	 8.4725818494e-02	 1.8837196974e+00
 2.5271933474e+00	 1.0607382496e-01	 1.8783473093e+00
 2.5262037791e+00	 1.2748459286e-01	 1.8712524293e+00
 2.5250286858e+00	 1.4895612055e-01	 1.8625636850e+00
 2.5236663962e+00	 1.7048636552e-01	 1.8524122796e+00
 2.5221152641e+00	 1.9207324452e-01	 1.8409260670e+00
 2.5203736693e+00	 2.1371463383e-01	 1.8282235968e+00
 2.5411824706e+00	 0.0000000000e+00	 1.8552785869e+00
 2.5410942458e+00	 2.1175797680e-02	 1.8583522522e+00
 2.5408283692e+00	 4.2422278800e-02	 1.8593313504e+00
 2.5403830516e+00	 6.3737598084e-02	 1.8582812768e+00
 2.5397565240e+00	 8.5119868699e-02	 1.8552926417e+00
 2.5389470380e+00	 1.0656716233e-01	 1.8504756598e+00
 2.5379528673e+00	 1.2807750929e-01	 1.8439543299e+00
 2.5367723088e+00	 1.4964889863e-01	 1.8358604455e+00
 2.5354036834e+00	 1.7127927833e-01	 1.8263274734e+00
 2.5338453371e+00	 1.9296655547e-01	 1.8154843482e+00
 2.5320956424e+00	 2.1470859643e-01	 1.8034492257e+00
 2.5529465098e+00	 0.0000000000e+00	 1.8356894607e+00
 2.5528578766e+00	 2.1273827994e-02	 1.8388718389e+00
 2.5525907691e+00	 4.2618666645e-02	 1.8399266968e+00
 2.5521433900e+00	 6.4032662138e-02	 1.8389276307e+00
 2.5515139620e+00	 8.5513918904e-02	 1.8359737112e+00
 2.5507007286e+00	 1.0706049970e-01	 1.8311836191e+00
 2.5497019556e+00	 1.2867042572e-01	 1.8246895629e+00
 2.5485159318e+00	 1.5034167671e-01	 1.8166310135e+00
 2.5471409705e+00	 1.7207219114e-01	 1.8071482992e+00
 2.5455754101e+00	 1.9385986641e-01	 1.7963761063e+00
 2.5438176154e+00	 2.1570255903e-01	 1.7844369325e+00
 2.5647105490e+00	 0.0000000000e+00	 1.8270980396e+00
 2.5646215074e+00	 2.1371858307e-02	 1.8299580879e+00
 2.5643531691e+00	 4.2815054491e-02	 1.8306236284e+00
 2.5639037284e+00	 6.4327726193e-02	 1.8291805583e+00
 2.5632714000e+00	 8.5907969108e-02	 1.8257406300e+00
 2.5624544192e+00	 1.0755383707e-01	 1.8204353281e+00
 2.5614510438e+00	 1.2926334215e-01	 1.8134095121e+00
 2.5602595548e+00	 1.5103445479e-01	 1.8048148683e+00
 2.5588782576e+00	 1.7286510396e-01	 1.7948032091e+00
 2.5573054831e+00	 1.9475317736e-01	 1.7835196698e+00
 2.5555395885e+00	 2.1669652164e-01	 1.7710958503e+00
 2.5764745882e+00	 0.0000000000e+00	 1.8295446543e+00
 2.5763851382e+00	 2.1469888621e-02	 1.8316348496e+00
 2.5761155690e+00	 4.3011442337e-02	 1.8314302231e+00
 2.5756640669e+00	 6.4622790247e-02	 1.8290330963e+00
 2.5750288380e+00	 8.6302019313e-02	 1.8245721517e+00
 2.5742081098e+00	 1.0804717444e-01	 1.8181960398e+00
 2.5732001320e+00	 1.2985625858e-01	 1.8100667403e+00
 2.5720031778e+00	 1.5172723286e-01	 1.8003527187e+00
 2.5706155448e+00	 1.7365801677e-01	 1.7892219215e+00
 2.5690355561e+00	 1.9564648831e-01	 1.7768346573e+00
 2.5672615615e+00	 2.1769048424e-01	 1.7633364156e+00
 2.5882386274e+00	 0.0000000000e+00	 1.8430701241e+00
 2.5881487689e+00	 2.1567918934e-02	 1.8439266241e+00
 2.5878779690e+00	 4.3207830183e-02	 1.8423553468e+00
 2.5874244053e+00	 6.4917854301e-02	 1.8384791882e+00
 2.5867862760e+00	 8.6696069517e-02	 1.8324480349e+00
 2.5859618004e+00	 1.0854051181e-01	 1.8244320936e+00
 2.5849492202e+00	 1.3044917501e-01	 1.8146149601e+00
 2.5837468008e+00	 1.5242001094e-01	 1.8031864722e+00
 2.5823528319e+00	 1.7445092959e-01	 1.7903353885e+00
 2.5807656291e+00	 1.9653979926e-01	 1.7762419437e+00
 2.5789835346e+00	 2.1868444684e-01	 1.7610703325e+00
 2.6000026667e+00	 0.0000000000e+00	 1.8630264603e+00
 2.5999123997e+00	 2.1665949248e-02	 1.8624718746e+00
 2.5996403689e+00	 4.3404218029e-02	 1.8595192576e+00
 2.5991847437e+00	 6.5212918356e-02	 1.8542674622e+00
 2.5985437140e+00	 8.7090119722e-02	 1.8468319190e+00
 2.5977154910e+00	 1.0903384918e-01	 1.8373412801e+00
 2.5966983085e+00	 1.3104209144e-01	 1.8259339252e+00
 2.5954904238e+00	 1.5311278902e-01	 1.8127543047e+00
 2.5940901191e+00	 1.7524384240e-01	 1.7979490943e+00
 2.5924957021e+00	 1.9743311021e-01	 1.7816636271e+00
 2.5907055076e+00	 2.1967840945e-01	 1.7642105385e+00
 2.6117667059e+00	 0.0000000000e+00	 1.8721128858e+00
 2.6116760305e+00	 2.1763979562e-02	 1.8706313771e+00
 2.6114027689e+00	 4.3600605875e-02	 1.8668906095e+00
 2.6109450821e+00	 6.5507982410e-02	 1.8609719026e+00
 2.6103011520e+00	 8.7484169926e-02	 1.8529726316e+00
 2.6094691816e+00	 1.0952718655e-01	 1.8430029898e+00
 2.6084473967e+00	 1.3163500787e-01	 1.8311826211e+00
 2.6072340468e+00	 1.5380556710e-01	 1.8176370985e+00
 2.6058274062e+00	 1.7603675521e-01	 1.8024942204e+00
 2.6042257751e+00	 1.9832642115e-01	 1.7858800950e+00
 2.6024274807e+00	 2.2067237205e-01	 1.7679149797e+00
 2.6235307451e+00	 0.0000000000e+00	 1.8687237544e+00
 2.6234396613e+00	 2.1862009875e-02	 1.8667946140e+00
 2.6231651688e+00	 4.3796993721e-02	 1.8627293700e+00
 2.6227054205e+00	 6.5803046465e-02	 1.8565930165e+00
 2.6220585900e+00	 8.7878220131e-02	 1.8484661055e+00
 2.6212228722e+00	 1.1002052392e-01	 1.8384416316e+00
 2.6201964849e+00	 1.3222792430e-01	 1.8266217971e+00
 2.6189776698e+00	 1.5449834518e-01	 1.8131146307e+00
 2.6175646934e+00	 1.7682966803e-01	 1.7980304317e+00
 2.6159558481e+00	 1.9921973210e-01	 1.7814780084e+00
 2.6141494537e+00	 2.2166633465e-01	 1.7635606773e+00
 2.6352947843e+00	 0.0000000000e+00	 1.8528721337e+00
 2.6352032921e+00	 2.1960040189e-02	 1.8509678760e+00
 2.6349275688e+00	 4.3993381567e-02	 1.8470362914e+00
 2.6344657590e+00	 6.6098110519e-02	 1.8411271964e+00
 2.6338160280e+00	 8.8272270335e-02	 1.8333054884e+00
 2.6329765628e+00	 1.1051386129e-01	 1.8236481587e+00
 2.6319455732e+00	 1.3282084073e-01	 1.8122411948e+00
 2.6307212928e+00	 1.5519112326e-01	 1.7991763453e+00
 2.6293019805e+00	 1.7762258084e-01	 1.7845477174e+00
 2.6276859211e+00	 2.0011304305e-01	 1.7684481757e+00
 2.6258714268e+00	 2.2266029726e-01	 1.7509655073e+00
 2.6470588235e+00	 0.0000000000e+00	 1.8245715278e+00
 2.6469669229e+00	 2.2058070502e-02	 1.8231579621e+00
 2.6466899687e+00	 4.4189769412e-02	 1.8198127011e+00
 2.6462260974e+00	 6.6393174574e-02	 1.8145714703e+00
 2.6455734660e+00	 8.8666320540e-02	 1.8074846182e+00
 2.6447302534e+00	 1.1100719866e-01	 1.7986142629e+00
 2.6436946614e+00	 1.3341375716e-01	 1.7880313363e+00
 2.6424649158e+00	 1.5588390134e-01	 1.7758125012e+00
 2.6410392677e+00	 1.7841549366e-01	 1.7620369084e+00
 2.6394159941e+00	 2.0100635400e-01	 1.7467827620e+00
 2.6375933998e+00	 2.2365425986e-01	 1.7301236568e+00
 2.5203736693e+00	 2.1371463383e-01	 1.8282235968e+00
 2.5184396741e+00	 2.3541205334e-01	 1.8140658374e+00
 2.5163119927e+00	 2.5715957984e-01	 1.7981358736e+00
 2.5139890890e+00	 2.7895491524e-01	 1.7803988170e+00
 2.5114694577e+00	 3.0079572073e-01	 1.7607897724e+00
 2.5087516253e+00	 3.2267961715e-01	 1.7392087043e+00
 2.5058341510e+00	 3.4460418540e-01	 1.7155156129e+00
 2.5027156282e+00	 3.6656696686e-01	 1.6895260895e+00
 2.4993946852e+00	 3.8856546385e-01	 1.6612706494e+00
 2.4958699869e+00	 4.1059714012e-01	 1.6312058487e+00
 2.4921402353e+00	 4.3265942142e-01	 1.5994578949e+00
 2.5320956424e+00	 2.1470859643e-01	 1.8034492257e+00
 2.5301526524e+00	 2.3650692819e-01	 1.7900046805e+00
 2.5280150753e+00	 2.5835559998e-01	 1.7748504262e+00
 2.5256813681e+00	 2.8025230302e-01	 1.7579409497e+00
 2.5231500183e+00	 3.0219468762e-01	 1.7391980559e+00
 2.5204195455e+00	 3.2418036358e-01	 1.7185054353e+00
 2.5174885024e+00	 3.4620690052e-01	 1.6957035475e+00
 2.5143554757e+00	 3.6827182839e-01	 1.6705848859e+00
 2.5110190874e+00	 3.9037263790e-01	 1.6431833914e+00
 2.5074779961e+00	 4.1250678101e-01	 1.6138660937e+00
 2.5037308978e+00	 4.3467167148e-01	 1.5827118332e+00
 2.5438176154e+00	 2.1570255903e-01	 1.7844369325e+00
 2.5418656306e+00	 2.3760180304e-01	 1.7711402610e+00
 2.5397181580e+00	 2.5955162012e-01	 1.7562095811e+00
 2.5373736472e+00	 2.8154969080e-01	 1.7395960216e+00
 2.5348305789e+00	 3.0359365452e-01	 1.7212153576e+00
 2.5320874658e+00	 3.2568111000e-01	 1.7009422653e+00
 2.5291428538e+00	 3.4780961563e-01	 1.6786048947e+00
 2.5259953231e+00	 3.6997668992e-01	 1.6539798277e+00
 2.5226434896e+00	 3.9217981195e-01	 1.6271076224e+00
 2.5190860053e+00	 4.1441642189e-01	 1.5982696552e+00
 2.5153215603e+00	 4.3668392155e-01	 1.5675070618e+00
 2.5555395885e+00	 2.1669652164e-01	 1.7710958503e+00
 2.5535786089e+00	 2.3869667789e-01	 1.7573731998e+00
 2.5514212406e+00	 2.6074764025e-01	 1.7421058637e+00
 2.5490659262e+00	 2.8284707857e-01	 1.7252488673e+00
 2.5465111394e+00	 3.0499262141e-01	 1.7067192144e+00
 2.5437553860e+00	 3.2718185643e-01	 1.6863898128e+00
 2.5407972052e+00	 3.4941233075e-01	 1.6640837189e+00
 2.5376351706e+00	 3.7168155145e-01	 1.6395695639e+00
 2.5342678917e+00	 3.9398698600e-01	 1.6128942883e+00
 2.5306940145e+00	 4.1632606278e-01	 1.5842617339e+00
 2.5269122229e+00	 4.3869617161e-01	 1.5536831185e+00
 2.5672615615e+00	 2.1769048424e-01	 1.7633364156e+00
 2.5652915871e+00	 2.3979155274e-01	 1.7486054290e+00
 2.5631243232e+00	 2.6194366039e-01	 1.7324331210e+00
 2.5607582053e+00	 2.8414446635e-01	 1.7147856582e+00
 2.5581917000e+00	 3.0639158831e-01	 1.6955885215e+00
 2.5554233062e+00	 3.2868260285e-01	 1.6747200848e+00
 2.5524515566e+00	 3.5101504586e-01	 1.6520055144e+00
 2.5492750181e+00	 3.7338641298e-01	 1.6272148784e+00
 2.5458922939e+00	 3.9579416005e-01	 1.6003959585e+00
 2.5423020237e+00	 4.1823570367e-01	 1.5716892709e+00
 2.5385028854e+00	 4.4070842168e-01	 1.5410814139e+00
 2.5789835346e+00	 2.1868444684e-01	 1.7610703325e+00
 2.5770045654e+00	 2.4088642759e-01	 1.7447401560e+00
 2.5748274059e+00	 2.6313968053e-01	 1.7270864839e+00
 2.5724504844e+00	 2.8544185413e-01	 1.7080938629e+00
 2.5698722606e+00	 3.0779055521e-01	 1.6877034914e+00
 2.5670912265e+00	 3.3018334927e-01	 1.6658064345e+00
 2.5641059079e+00	 3.5261776097e-01	 1.6422371618e+00
 2.5609148656e+00	 3.7509127451e-01	 1.6167757301e+00
 2.5575166961e+00	 3.9760133410e-01	 1.5894667878e+00
 2.5539100329e+00	 4.2014534456e-01	 1.5604009079e+00
 2.5500935479e+00	 4.4272067174e-01	 1.5295451891e+00
 2.5907055076e+00	 2.1967840945e-01	 1.7642105385e+00
 2.5887175436e+00	 2.4198130244e-01	 1.7456818268e+00
 2.5865304885e+00	 2.6433570066e-01	 1.7259623303e+00
 2.5841427635e+00	 2.8673924191e-01	 1.7050622094e+00
 2.5815528211e+00	 3.0918952210e-01	 1.6829456143e+00
 2.5787591467e+00	 3.3168409570e-01	 1.6595235202e+00
 2.5757602593e+00	 3.5422047609e-01	 1.6346468848e+00
 2.5725547131e+00	 3.7679613603e-01	 1.6081134300e+00
 2.5691410982e+00	 3.9940850816e-01	 1.5799624794e+00
 2.5655180421e+00	 4.2205498544e-01	 1.5502469485e+00
 2.5616842105e+00	 4.4473292181e-01	 1.5189194763e+00
 2.6024274807e+00	 2.2067237205e-01	 1.7679149797e+00
 2.6004305219e+00	 2.4307617729e-01	 1.7485347020e+00
 2.5982335712e+00	 2.6553172080e-01	 1.7276193518e+00
 2.5958350426e+00	 2.8803662969e-01	 1.7051747275e+00
 2.5932333817e+00	 3.1058848900e-01	 1.6811831616e+00
 2.5904270669e+00	 3.3318484212e-01	 1.6557472646e+00
 2.5874146107e+00	 3.5582319120e-01	 1.6291042080e+00
 2.5841945606e+00	 3.7850099756e-01	 1.6010907029e+00
 2.5807655004e+00	 4.0121568221e-01	 1.5717402490e+00
 2.5771260513e+00	 4.2396462633e-01	 1.5410793209e+00
 2.5732748730e+00	 4.4674517187e-01	 1.5090510590e+00
 2.6141494537e+00	 2.2166633465e-01	 1.7635606773e+00
 2.6121435001e+00	 2.4417105214e-01	 1.7442202882e+00
 2.6099366538e+00	 2.6672774094e-01	 1.7233517400e+00
 2.6075273217e+00	 2.8933401746e-01	 1.7009580828e+00
 2.6049139422e+00	 3.1198745589e-01	 1.6770198590e+00
 2.6020949872e+00	 3.3468558855e-01	 1.6514894584e+00
 2.5990689621e+00	 3.5742590632e-01	 1.6242849924e+00
 2.5958344081e+00	 3.8020585909e-01	 1.5953053027e+00
 2.5923899025e+00	 4.0302285626e-01	 1.5646587894e+00
 2.5887340604e+00	 4.2587426722e-01	 1.5327515416e+00
 2.5848655355e+00	 4.4875742194e-01	 1.4997884344e+00
 2.6258714268e+00	 2.2266029726e-01	 1.7509655073e+00
 2.6238564784e+00	 2.4526592699e-01	 1.7320479484e+00
 2.6216397365e+00	 2.6792376107e-01	 1.7116069631e+00
 2.6192196007e+00	 2.9063140524e-01	 1.6896466468e+00
 2.6165945028e+00	 3.1338642279e-01	 1.6661496169e+00
 2.6137629074e+00	 3.3618633497e-01	 1.6410715228e+00
 2.6107233135e+00	 3.5902862143e-01	 1.6143350697e+00
 2.6074742556e+00	 3.8191072062e-01	 1.5858472840e+00
 2.6040143047e+00	 4.0483003031e-01	 1.5556919883e+00
 2.6003420696e+00	 4.2778390811e-01	 1.5239664176e+00
 2.5964561981e+00	 4.5076967200e-01	 1.4907375573e+00
 2.6375933998e+00	 2.2365425986e-01	 1.7301236568e+00
 2.6355694566e+00	 2.4636080183e-01	 1.7120142675e+00
 2.6333428191e+00	 2.6911978121e-01	 1.6923840452e+00
 2.6309118798e+00	 2.9192879302e-01	 1.6712418153e+00
 2.6282750634e+00	 3.1478538969e-01	 1.6485760273e+00
 2.6254308276e+00	 3.3768708140e-01	 1.6243494232e+00
 2.6223776649e+00	 3.6063133654e-01	 1.5984932151e+00
 2.6191141031e+00	 3.8361558215e-01	 1.5709244419e+00
 2.6156387069e+00	 4.0663720436e-01	 1.5417053927e+00
 2.6119500788e+00	 4.2969354899e-01	 1.5109180176e+00
 2.6080468606e+00	 4.5278192206e-01	 1.4786216541e+00
 2.4921402353e+00	 4.3265942142e-01	 1.5994578949e+00
 2.4882048570e+00	 4.5474593986e-01	 1.5660518729e+00
 2.4840620148e+00	 4.7685780079e-01	 1.5310321733e+00
 2.4797105278e+00	 4.9899232685e-01	 1.4945163338e+00
 2.4751492571e+00	 5.2114680523e-01	 1.4565917959e+00
 2.4703771063e+00	 5.4331848843e-01	 1.4173153378e+00
 2.4653930229e+00	 5.6550459500e-01	 1.3767127717e+00
 2.4601959991e+00	 5.8770231026e-01	 1.3347789081e+00
 2.4547850731e+00	 6.0990878716e-01	 1.2914777890e+00
 2.4491593298e+00	 6.3212114710e-01	 1.2467431919e+00
 2.4433179020e+00	 6.5433648080e-01	 1.2004794031e+00
 2.5037308978e+00	 4.3467167148e-01	 1.5827118332e+00
 2.4997772166e+00	 4.5686091182e-01	 1.5497330421e+00
 2.4956151064e+00	 4.7907561253e-01	 1.5150223467e+00
 2.4912433812e+00	 5.0131308376e-01	 1.4787443363e+00
 2.4866608965e+00	 5.2357060011e-01	 1.4410310634e+00
 2.4818665510e+00	 5.4584540131e-01	 1.4019814237e+00
 2.4768592872e+00	 5.6813469295e-01	 1.3616608086e+00
 2.4716380926e+00	 5.9043564727e-01	 1.3201010313e+00
 2.4662020010e+00	 6.1274540399e-01	 1.2773005297e+00
 2.4605500930e+00	 6.3506107111e-01	 1.2332248464e+00
 2.4546814974e+00	 6.5737972581e-01	 1.1878073874e+00
 2.5153215603e+00	 4.3668392155e-01	 1.5675070618e+00
 2.5113495761e+00	 4.5897588379e-01	 1.5348147082e+00
 2.5071681981e+00	 4.8129342426e-01	 1.5003171422e+00
 2.5027762346e+00	 5.0363384067e-01	 1.4642142794e+00
 2.4981725360e+00	 5.2599439500e-01	 1.4266710192e+00
 2.4933559957e+00	 5.4837231419e-01	 1.3878165892e+00
 2.4883255515e+00	 5.7076479090e-01	 1.3477441688e+00
 2.4830801861e+00	 5.9316898429e-01	 1.3065107954e+00
 2.4776189289e+00	 6.1558202082e-01	 1.2641375536e+00
 2.4719408562e+00	 6.3800099511e-01	 1.2206100508e+00
 2.4660450928e+00	 6.6042297082e-01	 1.1758791776e+00
 2.5269122229e+00	 4.3869617161e-01	 1.5536831185e+00
 2.5229219356e+00	 4.6109085575e-01	 1.5211321080e+00
 2.5187212897e+00	 4.8351123599e-01	 1.4867502940e+00
 2.5143090879e+00	 5.0595459758e-01	 1.4507613458e+00
 2.5096841754e+00	 5.2841818988e-01	 1.4133513976e+00
 2.5048454404e+00	 5.5089922706e-01	 1.3746683735e+00
 2.4997918158e+00	 5.7339488885e-01	 1.3348216000e+00
 2.4945222797e+00	 5.9590232130e-01	 1.2938817077e+00
 2.4890358568e+00	 6.1841863765e-01	 1.2518808264e+00
 2.4833316194e+00	 6.4094091911e-01	 1.2088130729e+00
 2.4774086882e+00	 6.6346621583e-01	 1.1646353324e+00
 2.5385028854e+00	 4.4070842168e-01	 1.5410814139e+00
 2.5344942952e+00	 4.6320582772e-01	 1.5085224749e+00
 2.5302743814e+00	 4.8572904772e-01	 1.4741576220e+00
 2.5258419413e+00	 5.0827535449e-01	 1.4382228549e+00
 2.5211958148e+00	 5.3084198477e-01	 1.4009140790e+00
 2.5163348851e+00	 5.5342613994e-01	 1.3623864276e+00
 2.5112580800e+00	 5.7602498680e-01	 1.3227538785e+00
 2.5059643732e+00	 5.9863565832e-01	 1.2820891708e+00
 2.5004527847e+00	 6.2125525448e-01	 1.2404240211e+00
 2.4947223826e+00	 6.4388084312e-01	 1.1977496429e+00
 2.4887722835e+00	 6.6650946084e-01	 1.1540175665e+00
 2.5500935479e+00	 4.4272067174e-01	 1.5295451891e+00
 2.5460666547e+00	 4.6532079968e-01	 1.4968249954e+00
 2.5418274730e+00	 4.8794685945e-01	 1.4623769878e+00
 2.5373747947e+00	 5.1059611140e-01	 1.4264382192e+00
 2.5327074542e+00	 5.3326577965e-01	 1.3892030484e+00
 2.5278243298e+00	 5.5595305282e-01	 1.3508224740e+00
 2.5227243443e+00	 5.7865508475e-01	 1.3114037737e+00
 2.5174064667e+00	 6.0136899533e-01	 1.2710104511e+00
 2.5118697126e+00	 6.2409187130e-01	 1.2296624927e+00
 2.5061131458e+00	 6.4682076712e-01	 1.1873369348e+00
 2.5001358789e+00	 6.6955270585e-01	 1.1439687416e+00
 2.5616842105e+00	 4.4473292181e-01	 1.5189194763e+00
 2.5576390143e+00	 4.6743577165e-01	 1.4858807682e+00
 2.5533805647e+00	 4.9016467118e-01	 1.4512482527e+00
 2.5489076481e+00	 5.1291686831e-01	 1.4152489027e+00
 2.5442190936e+00	 5.3568957453e-01	 1.3780643539e+00
 2.5393137744e+00	 5.5847996569e-01	 1.3398302685e+00
 2.5341906086e+00	 5.8128518270e-01	 1.3006360118e+00
 2.5288485602e+00	 6.0410233235e-01	 1.2605246478e+00
 2.5232866405e+00	 6.2692848813e-01	 1.2194932527e+00
 2.5175039090e+00	 6.4976069113e-01	 1.1774935484e+00
 2.5114994743e+00	 6.7259595086e-01	 1.1344328563e+00
 2.5732748730e+00	 4.4674517187e-01	 1.5090510590e+00
 2.5692113738e+00	 4.6955074361e-01	 1.4755327628e+00
 2.5649336563e+00	 4.9238248291e-01	 1.4406132362e+00
 2.5604405014e+00	 5.1523762522e-01	 1.4044983790e+00
 2.5557307331e+00	 5.3811336942e-01	 1.3673460671e+00
 2.5508032191e+00	 5.6100687857e-01	 1.3292655620e+00
 2.5456568729e+00	 5.8391528065e-01	 1.2903172421e+00
 2.5402906537e+00	 6.0683566936e-01	 1.2505126628e+00
 2.5347035684e+00	 6.2976510496e-01	 1.2098149447e+00
 2.5288946722e+00	 6.5270061513e-01	 1.1681394913e+00
 2.5228630697e+00	 6.7563919587e-01	 1.1253550362e+00
 2.5848655355e+00	 4.4875742194e-01	 1.4997884344e+00
 2.5807837333e+00	 4.7166571558e-01	 1.4656257800e+00
 2.5764867480e+00	 4.9460029464e-01	 1.4303156758e+00
 2.5719733548e+00	 5.1755838213e-01	 1.3940320918e+00
 2.5672423725e+00	 5.4053716430e-01	 1.3568982439e+00
 2.5622926638e+00	 5.6353379145e-01	 1.3189860640e+00
 2.5571231371e+00	 5.8654537860e-01	 1.2803160028e+00
 2.5517327472e+00	 6.0956900638e-01	 1.2408571711e+00
 2.5461204963e+00	 6.3260172179e-01	 1.2005278205e+00
 2.5402854354e+00	 6.5564053913e-01	 1.1591961620e+00
 2.5342266651e+00	 6.7868244088e-01	 1.1166815251e+00
 2.5964561981e+00	 4.5076967200e-01	 1.4907375573e+00
 2.5923560929e+00	 4.7378068754e-01	 1.4560064138e+00
 2.5880398396e+00	 4.9681810637e-01	 1.4202011878e+00
 2.5835062082e+00	 5.1987913904e-01	 1.3836974158e+00
 2.5787540119e+00	 5.4296095919e-01	 1.3465728869e+00
 2.5737821085e+00	 5.6606070432e-01	 1.3088514066e+00
 2.5685894014e+00	 5.8917547655e-01	 1.2705026883e+00
 2.5631748407e+00	 6.1230234339e-01	 1.2314425926e+00
 2.5575374242e+00	 6.3543833862e-01	 1.1915337165e+00
 2.5516761986e+00	 6.5858046314e-01	 1.1505863325e+00
 2.5455902605e+00	 6.8172568589e-01	 1.1083596757e+00
 2.6080468606e+00	 4.5278192206e-01	 1.4786216541e+00
 2.6039284524e+00	 4.7589565951e-01	 1.4447948447e+00
 2.5995929312e+00	 4.9903591810e-01	 1.4095857596e+00
 2.5950390615e+00	 5.2219989595e-01	 1.3732935909e+00
 2.5902656513e+00	 5.4538475407e-01	 1.3362239083e+00
 2.5852715532e+00	 5.6858761720e-01	 1.2987231097e+00
 2.5800556657e+00	 5.9180557450e-01	 1.2607495177e+00
 2.5746169342e+00	 6.1503568041e-01	 1.2221550637e+00
 2.5689543521e+00	 6.3827495545e-01	 1.1827360314e+00
 2.5630669618e+00	 6.6152038714e-01	 1.1422341321e+00
 2.5569538559e+00	 6.8476893090e-01	 1.1003379401e+00
 2.4433179020e+00	 6.5433648080e-01	 1.2004794031e+00
 2.4372599721e+00	 6.7655184950e-01	 1.1528962717e+00
 2.4309847742e+00	 6.9876428691e-01	 1.1042148103e+00
 2.4244915939e+00	 7.2097079925e-01	 1.0543187290e+00
 2.4177797683e+00	 7.4316836598e-01	 1.0030705024e+00
 2.4108486875e+00	 7.6535394084e-01	 9.5025905058e-01
 2.4036977946e+00	 7.8752445291e-01	 8.9606405544e-01
 2.3963265875e+00	 8.0967680772e-01	 8.4085128093e-01
 2.3887346191e+00	 8.3180788838e-01	 7.8499987057e-01
 2.3809214982e+00	 8.5391455674e-01	 7.2890359241e-01
 2.3728868906e+00	 8.7599365461e-01	 6.7297179012e-01
 2.4546814974e+00	 6.5737972581e-01	 1.1878073874e+00
 2.4485953927e+00	 6.7969841568e-01	 1.1413004288e+00
 2.4422910096e+00	 7.0201416062e-01	 1.0938956577e+00
 2.4357676302e+00	 7.2432395294e-01	 1.0453948607e+00
 2.4290245888e+00	 7.4662475805e-01	 9.9556886051e-01
 2.4220612722e+00	 7.6891351551e-01	 9.4412555352e-01
 2.4148771214e+00	 7.9118714012e-01	 8.9121404300e-01
 2.4074716316e+00	 8.1344252303e-01	 8.3711475568e-01
 2.3998443538e+00	 8.3567653285e-01	 7.8212239028e-01
 2.3919948950e+00	 8.5788601683e-01	 7.2654741738e-01
 2.3839229193e+00	 8.8006780208e-01	 6.7071727709e-01
 2.4660450928e+00	 6.6042297082e-01	 1.1758791776e+00
 2.4599308134e+00	 6.8284498186e-01	 1.1302419420e+00
 2.4535972450e+00	 7.0526403434e-01	 1.0838807904e+00
 2.4470436666e+00	 7.2767710663e-01	 1.0365305718e+00
 2.4402694092e+00	 7.5008115011e-01	 9.8787877728e-01
 2.4332738569e+00	 7.7247309018e-01	 9.3758254179e-01
 2.4260564481e+00	 7.9484982734e-01	 8.8576328744e-01
 2.4186166757e+00	 8.1720823834e-01	 8.3262991597e-01
 2.4109540885e+00	 8.3954517731e-01	 7.7840631585e-01
 2.4030682917e+00	 8.6185747691e-01	 7.2333310006e-01
 2.3949589480e+00	 8.8414194955e-01	 6.6766903278e-01
 2.4774086882e+00	 6.6346621583e-01	 1.1646353324e+00
 2.4712662340e+00	 6.8599154804e-01	 1.1196882885e+00
 2.4649034804e+00	 7.0851390805e-01	 1.0741616162e+00
 2.4583197029e+00	 7.3103026033e-01	 1.0277379701e+00
 2.4515142296e+00	 7.5353754218e-01	 9.8002953020e-01
 2.4444864417e+00	 7.7603266484e-01	 9.3067208672e-01
 2.4372357749e+00	 7.9851251455e-01	 8.7976249321e-01
 2.4297617198e+00	 8.2097395366e-01	 8.2745168384e-01
 2.4220638232e+00	 8.4341382178e-01	 7.7390611965e-01
 2.4141416885e+00	 8.6582893700e-01	 7.1930974719e-01
 2.4059949768e+00	 8.8821609703e-01	 6.6386563704e-01
 2.4887722835e+00	 6.6650946084e-01	 1.1540175665e+00
 2.4826016546e+00	 6.8913811422e-01	 1.1096077964e+00
 2.4762097158e+00	 7.1176378177e-01	 1.0647301538e+00
 2.4695957393e+00	 7.3438341402e-01	 1.0190296044e+00
 2.4627590500e+00	 7.5699393425e-01	 9.7205062402e-01
 2.4556990264e+00	 7.7959223951e-01	 9.2343644939e-01
 2.4484151016e+00	 8.0217520177e-01	 8.7326259234e-01
 2.4409067639e+00	 8.2473966897e-01	 8.2163532577e-01
 2.4331735579e+00	 8.4728246625e-01	 7.6867681768e-01
 2.4252150853e+00	 8.6980039708e-01	 7.1452729417e-01
 2.4170310055e+00	 8.9229024450e-01	 6.5934687277e-01
 2.5001358789e+00	 6.6955270585e-01	 1.1439687416e+00
 2.4939370753e+00	 6.9228468039e-01	 1.0999696434e+00
 2.4875159512e+00	 7.1501365548e-01	 1.0555790385e+00
 2.4808717756e+00	 7.3773656772e-01	 1.0104184748e+00
 2.4740038704e+00	 7.6045032632e-01	 9.6397181542e-01
 2.4669116112e+00	 7.8315181418e-01	 9.1591810743e-01
 2.4595944283e+00	 8.0583788898e-01	 8.6631477152e-01
 2.4520518080e+00	 8.2850538428e-01	 8.1523647784e-01
 2.4442832926e+00	 8.5115111072e-01	 7.6277399081e-01
 2.4362884820e+00	 8.7377185716e-01	 7.0903652020e-01
 2.4280670342e+00	 8.9636439197e-01	 6.5415373278e-01
 2.5114994743e+00	 6.7259595086e-01	 1.1344328563e+00
 2.5052724959e+00	 6.9543124657e-01	 1.0907438558e+00
 2.4988221866e+00	 7.1826352920e-01	 1.0467015283e+00
 2.4921478120e+00	 7.4108972141e-01	 1.0019179822e+00
 2.4852486908e+00	 7.6390671838e-01	 9.5582313718e-01
 2.4781241959e+00	 7.8671138885e-01	 9.0815978109e-01
 2.4707737551e+00	 8.0950057620e-01	 8.5897049831e-01
 2.4631968521e+00	 8.3227109960e-01	 8.0831117022e-01
 2.4553930273e+00	 8.5501975519e-01	 7.5625380544e-01
 2.4473618788e+00	 8.7774331725e-01	 7.0288906311e-01
 2.4391030629e+00	 9.0043853944e-01	 6.4832842639e-01
 2.5228630697e+00	 6.7563919587e-01	 1.1253550362e+00
 2.5166079165e+00	 6.9857781275e-01	 1.0819013063e+00
 2.5101284220e+00	 7.2151340291e-01	 1.0380915089e+00
 2.5034238483e+00	 7.4444287510e-01	 9.9353627077e-01
 2.4964935112e+00	 7.6736311045e-01	 9.4763492164e-01
 2.4893367806e+00	 7.9027096352e-01	 9.0020445881e-01
 2.4819530818e+00	 8.1316326341e-01	 8.5128154683e-01
 2.4743418962e+00	 8.3603681491e-01	 8.0091585107e-01
 2.4665027620e+00	 8.5888839965e-01	 7.4917303372e-01
 2.4584352756e+00	 8.8171477733e-01	 6.9613743364e-01
 2.4501390916e+00	 9.0451268691e-01	 6.4191438581e-01
 2.5342266651e+00	 6.7868244088e-01	 1.1166815251e+00
 2.5279433372e+00	 7.0172437893e-01	 1.0734137136e+00
 2.5214346574e+00	 7.2476327662e-01	 1.0297434992e+00
 2.5146998847e+00	 7.4779602880e-01	 9.8528400300e-01
 2.5077383316e+00	 7.7081950252e-01	 9.3943782382e-01
 2.5005493654e+00	 7.9383053819e-01	 8.9209542213e-01
 2.4931324086e+00	 8.1682595062e-01	 8.4330002282e-01
 2.4854869403e+00	 8.3980253022e-01	 7.9310740987e-01
 2.4776124967e+00	 8.6275704412e-01	 7.4158907312e-01
 2.4695086723e+00	 8.8568623741e-01	 6.8883502943e-01
 2.4611751203e+00	 9.0858683439e-01	 6.3495627232e-01
 2.5455902605e+00	 6.8172568589e-01	 1.1083596757e+00
 2.5392787578e+00	 7.0487094511e-01	 1.0652536402e+00
 2.5327408928e+00	 7.2801315034e-01	 1.0216526559e+00
 2.5259759211e+00	 7.5114918249e-01	 9.7717608200e-01
 2.5189831521e+00	 7.7427589459e-01	 9.3126284394e-01
 2.5117619501e+00	 7.9739011286e-01	 8.8387626999e-01
 2.5043117353e+00	 8.2048863784e-01	 8.3507838802e-01
 2.4966319844e+00	 8.4356824554e-01	 7.8494320011e-01
 2.4887222314e+00	 8.6662568859e-01	 7.3355996563e-01
 2.4805820691e+00	 8.8965769750e-01	 6.8103614861e-01
 2.4722111490e+00	 9.1266098186e-01	 6.2749998221e-01
 2.5569538559e+00	 6.8476893090e-01	 1.1003379401e+00
 2.5506141785e+00	 7.0801751129e-01	 1.0573944909e+00
 2.5440471282e+00	 7.3126302405e-01	 1.0138147781e+00
 2.5372519574e+00	 7.5450233618e-01	 9.6922786583e-01
 2.5302279725e+00	 7.7773228665e-01	 9.2314134941e-01
 2.5229745349e+00	 8.0094968753e-01	 8.7559094256e-01
 2.5154910621e+00	 8.2415132505e-01	 8.2666948404e-01
 2.5077770285e+00	 8.4733396085e-01	 7.7648106148e-01
 2.4998319662e+00	 8.7049433306e-01	 7.2514441635e-01
 2.4916554659e+00	 8.9362915758e-01	 6.7279600294e-01
 2.4832471778e+00	 9.1673512933e-01	 6.1959265257e-01
 2.3728868906e+00	 8.7599365461e-01	 6.7297179012e-01
 2.3646290967e+00	 8.9804575040e-01	 6.1739511384e-01
 2.3561492436e+00	 9.2006389087e-01	 5.6206090690e-01
 2.3474471701e+00	 9.4204486232e-01	 5.0692424216e-01
 2.3385227746e+00	 9.6398543602e-01	 4.5196302626e-01
 2.3293760156e+00	 9.8588236949e-01	 3.9717781904e-01
 2.3200069128e+00	 1.0077324079e+00	 3.4259118760e-01
 2.3104155470e+00	 1.0295322854e+00	 2.8824657273e-01
 2.3006020611e+00	 1.0512787265e+00	 2.3420664839e-01
 2.2905666603e+00	 1.0729684477e+00	 1.8055115789e-01
 2.2803096128e+00	 1.0945981586e+00	 1.2737421393e-01
 2.3839229193e+00	 8.8006780208e-01	 6.7071727709e-01
 2.3756267193e+00	 9.0222245968e-01	 6.1482529882e-01
 2.3671074274e+00	 9.2434300403e-01	 5.5887617623e-01
 2.3583648816e+00	 9.4642620649e-01	 5.0291657593e-01
 2.3493989797e+00	 9.6846882332e-01	 4.4701644978e-01
 2.3402096802e+00	 9.9046759696e-01	 3.9126878665e-01
 2.3307970027e+00	 1.0124192574e+00	 3.3578888149e-01
 2.3211610285e+00	 1.0343205237e+00	 2.8071309872e-01
 2.3113019012e+00	 1.0561681050e+00	 2.2619711000e-01
 2.3012198269e+00	 1.0779587027e+00	 1.7241358957e-01
 2.2909150750e+00	 1.0996890109e+00	 1.1954935387e-01
 2.3949589480e+00	 8.8414194955e-01	 6.6766903278e-01
 2.3866243420e+00	 9.0639916895e-01	 6.1160185040e-01
 2.3780656112e+00	 9.2862211718e-01	 5.5522426931e-01
 2.3692825930e+00	 9.5080755067e-01	 4.9865617277e-01
 2.3602751848e+00	 9.7295221062e-01	 4.4204132561e-01
 2.3510433447e+00	 9.9505282442e-01	 3.8554708599e-01
 2.3415870926e+00	 1.0171061069e+00	 3.2936361692e-01
 2.3319065101e+00	 1.0391087619e+00	 2.7370257374e-01
 2.3220017413e+00	 1.0610574836e+00	 2.1879524697e-01
 2.3118729935e+00	 1.0829489576e+00	 1.6489014317e-01
 2.3015205373e+00	 1.1047798633e+00	 1.1224998994e-01
 2.4059949768e+00	 8.8821609703e-01	 6.6386563704e-01
 2.3976219646e+00	 9.1057587823e-01	 6.0775148050e-01
 2.3890237950e+00	 9.3290123034e-01	 5.5112281495e-01
 2.3802003045e+00	 9.5518889484e-01	 4.9415457374e-01
 2.3711513899e+00	 9.7743559792e-01	 4.3704631426e-01
 2.3618770093e+00	 9.9963805188e-01	 3.8002191734e-01
 2.3523771825e+00	 1.0217929565e+00	 3.2332876859e-01
 2.3426519917e+00	 1.0438970002e+00	 2.6723639696e-01
 2.3327015815e+00	 1.0659468621e+00	 2.1203454937e-01
 2.3225261602e+00	 1.0879392126e+00	 1.5803068310e-01
 2.3121259996e+00	 1.1098707156e+00	 1.0554686210e-01
 2.4170310055e+00	 8.9229024450e-01	 6.5934687277e-01
 2.4086195873e+00	 9.1475258751e-01	 6.0330249719e-01
 2.3999819789e+00	 9.3718034350e-01	 5.4659137375e-01
 2.3911180159e+00	 9.5957023901e-01	 4.8942552511e-01
 2.3820275950e+00	 9.8191898522e-01	 4.3204248808e-01
 2.3727106738e+00	 1.0042232793e+00	 3.7470502822e-01
 2.3631672725e+00	 1.0264798060e+00	 3.1770031810e-01
 2.3533974732e+00	 1.0486852385e+00	 2.6133855402e-01
 2.3434014216e+00	 1.0708362406e+00	 2.0595098870e-01
 2.3331793268e+00	 1.0929294676e+00	 1.5188736151e-01
 2.3227314618e+00	 1.1149615679e+00	 9.9515171409e-02
 2.4280670342e+00	 8.9636439197e-01	 6.5415373278e-01
 2.4196172099e+00	 9.1892929679e-01	 5.9828480259e-01
 2.4109401627e+00	 9.4145945666e-01	 5.4165142792e-01
 2.4020357274e+00	 9.6395158318e-01	 4.8448496132e-01
 2.3929038000e+00	 9.8640237252e-01	 4.2704330871e-01
 2.3835443384e+00	 1.0088085068e+00	 3.6961068656e-01
 2.3739573624e+00	 1.0311666555e+00	 3.1249682435e-01
 2.3641429548e+00	 1.0534734768e+00	 2.5603558606e-01
 2.3541012618e+00	 1.0757256191e+00	 2.0058298744e-01
 2.3438324934e+00	 1.0979197225e+00	 1.4651458995e-01
 2.3333369241e+00	 1.1200524202e+00	 9.4236785514e-02
 2.4391030629e+00	 9.0043853944e-01	 6.4832842639e-01
 2.4306148326e+00	 9.2310600606e-01	 5.9272989056e-01
 2.4218983465e+00	 9.4573856982e-01	 5.3632637125e-01
 2.4129534388e+00	 9.6833292736e-01	 4.7935098831e-01
 2.4037800051e+00	 9.9088575982e-01	 4.2206460487e-01
 2.3943780029e+00	 1.0133937343e+00	 3.6475565440e-01
 2.3847474523e+00	 1.0358535050e+00	 3.0773939440e-01
 2.3748884363e+00	 1.0582617151e+00	 2.5135655938e-01
 2.3648011019e+00	 1.0806149977e+00	 1.9597138896e-01
 2.3544856600e+00	 1.1029099775e+00	 1.4196901125e-01
 2.3439423863e+00	 1.1251432725e+00	 8.9791227681e-02
 2.4501390916e+00	 9.0451268691e-01	 6.4191438581e-01
 2.4416124552e+00	 9.2728271534e-01	 5.8667084455e-01
 2.4328565303e+00	 9.5001768298e-01	 5.3064149929e-01
 2.4238711503e+00	 9.7271427153e-01	 4.7404386715e-01
 2.4146562102e+00	 9.9536914712e-01	 4.1712455065e-01
 2.4052116675e+00	 1.0179789617e+00	 3.6015916200e-01
 2.3955375422e+00	 1.0405403545e+00	 3.0345165491e-01
 2.3856339179e+00	 1.0630499534e+00	 2.4733303556e-01
 2.3755009420e+00	 1.0855043762e+00	 1.9215942786e-01
 2.3651388267e+00	 1.1079002325e+00	 1.3830947179e-01
 2.3545478486e+00	 1.1302341248e+00	 8.6259871413e-02
 2.4611751203e+00	 9.0858683439e-01	 6.3495627232e-01
 2.4526100779e+00	 9.3145942462e-01	 5.8014233534e-01
 2.4438147141e+00	 9.5429679614e-01	 5.2462399966e-01
 2.4347888617e+00	 9.7709561570e-01	 4.6858599790e-01
 2.4255324153e+00	 9.9985253442e-01	 4.1224364414e-01
 2.4160453321e+00	 1.0225641892e+00	 3.5584288248e-01
 2.4063276321e+00	 1.0452272041e+00	 2.9965972395e-01
 2.3963793994e+00	 1.0678381917e+00	 2.4399904201e-01
 2.3862007822e+00	 1.0903937547e+00	 1.8919270078e-01
 2.3757919933e+00	 1.1128904874e+00	 1.3559739604e-01
 2.3651533108e+00	 1.1353249771e+00	 8.3726076749e-02
 2.4722111490e+00	 9.1266098186e-01	 6.2749998221e-01
 2.4636077005e+00	 9.3563613389e-01	 5.7318061875e-01
 2.4547728979e+00	 9.5857590930e-01	 5.1830294247e-01
 2.4457065732e+00	 9.8147695987e-01	 4.6300190384e-01
 2.4364086204e+00	 1.0043359217e+00	 4.0744468640e-01
 2.4268789966e+00	 1.0271494167e+00	 3.5183090679e-01
 2.4171177220e+00	 1.0499140536e+00	 2.9639218344e-01
 2.4071248810e+00	 1.0726264300e+00	 2.4139104298e-01
 2.3969006223e+00	 1.0952831332e+00	 1.8711913747e-01
 2.3864451599e+00	 1.1178807424e+00	 1.3390141027e-01
 2.3757587731e+00	 1.1404158294e+00	 8.2275097761e-02
 2.4832471778e+00	 9.1673512933e-01	 6.1959265257e-01
 2.4746053232e+00	 9.3981284317e-01	 5.6582353343e-01
 2.4657310817e+00	 9.6285502246e-01	 5.1170927096e-01
 2.4566242846e+00	 9.8585830405e-01	 4.5731821587e-01
 2.4472848255e+00	 1.0088193090e+00	 4.0275276087e-01
 2.4377126612e+00	 1.0317346441e+00	 3.4814971922e-01
 2.4279078119e+00	 1.0546009031e+00	 2.9368005185e-01
 2.4178703625e+00	 1.0774146682e+00	 2.3954791104e-01
 2.4076004625e+00	 1.1001725118e+00	 1.8598897239e-01
 2.3970983265e+00	 1.1228709974e+00	 1.3329075273e-01
 2.3863642354e+00	 1.1455066817e+00	 8.1993990169e-02
 2.2803096128e+00	 1.0945981586e+00	 1.2737421393e-01
 2.2698330496e+00	 1.1161609032e+00	 7.2874853731e-02
 2.2591356397e+00	 1.1376570647e+00	 1.5371366192e-02
 2.2482178401e+00	 1.1590833418e+00	-4.4802405779e-02
 2.2370801722e+00	 1.1804364328e+00	-1.0734776401e-01
 2.2257232220e+00	 1.2017130364e+00	-1.7197828507e-01
 2.2141476398e+00	 1.2229098536e+00	-2.3696647377e-01
 2.2023541410e+00	 1.2440235894e+00	-2.9818055635e-01
 2.1903435059e+00	 1.2650509541e+00	-3.5606612001e-01
 2.1781165798e+00	 1.2859886649e+00	-4.1142462298e-01
 2.1656742728e+00	 1.3068334476e+00	-4.6510607977e-01
 2.2909150750e+00	 1.0996890109e+00	 1.1954935387e-01
 2.2803897866e+00	 1.1213520414e+00	 6.5850275158e-02
 2.2696426242e+00	 1.1429481791e+00	 9.6259665007e-03
 2.2586740471e+00	 1.1644741074e+00	-4.8852909349e-02
 2.2474845792e+00	 1.1859265092e+00	-1.0933448295e-01
 2.2360748091e+00	 1.2073020679e+00	-1.7157698182e-01
 2.2244453902e+00	 1.2285974691e+00	-2.3535665015e-01
 2.2125970412e+00	 1.2498094025e+00	-2.9857326099e-01
 2.2005305460e+00	 1.2709345631e+00	-3.5778200144e-01
 2.1882467538e+00	 1.2919696528e+00	-4.1373745349e-01
 2.1757465790e+00	 1.3129113823e+00	-4.6735654201e-01
 2.3015205373e+00	 1.1047798633e+00	 1.1224998994e-01
 2.2909465235e+00	 1.1265431796e+00	 5.9192066938e-02
 2.2801496087e+00	 1.1482392935e+00	 4.0264484701e-03
 2.2691302542e+00	 1.1698648730e+00	-5.3024908557e-02
 2.2578889862e+00	 1.1914165856e+00	-1.1174602225e-01
 2.2464263962e+00	 1.2128910994e+00	-1.7192882469e-01
 2.2347431406e+00	 1.2342850846e+00	-2.3338122307e-01
 2.2228399414e+00	 1.2555952156e+00	-2.9593582150e-01
 2.2107175861e+00	 1.2768181721e+00	-3.5698350223e-01
 2.1983769278e+00	 1.2979506407e+00	-4.1402471577e-01
 2.1858188853e+00	 1.3189893169e+00	-4.6802553009e-01
 2.3121259996e+00	 1.1098707156e+00	 1.0554686210e-01
 2.3015032605e+00	 1.1317343178e+00	 5.2995663738e-02
 2.2906565932e+00	 1.1535304079e+00	-1.3108194727e-03
 2.2795864612e+00	 1.1752556387e+00	-5.7183249841e-02
 2.2682933933e+00	 1.1969066621e+00	-1.1443073529e-01
 2.2567779833e+00	 1.2184801309e+00	-1.7286810574e-01
 2.2450408910e+00	 1.2399727001e+00	-2.3232413644e-01
 2.2330828415e+00	 1.2613810287e+00	-2.9265045912e-01
 2.2209046261e+00	 1.2827017811e+00	-3.5370068151e-01
 2.2085071018e+00	 1.3039316287e+00	-4.1231146875e-01
 2.1958911915e+00	 1.3250672516e+00	-4.6713584009e-01
 2.3227314618e+00	 1.1149615679e+00	 9.9515171409e-02
 2.3120599974e+00	 1.1369254560e+00	 4.7358431399e-02
 2.3011635777e+00	 1.1588215223e+00	-6.2679421256e-03
 2.2900426683e+00	 1.1806464043e+00	-6.1191631546e-02
 2.2786978003e+00	 1.2023967385e+00	-1.1723617694e-01
 2.2671295704e+00	 1.2240691624e+00	-1.7422863561e-01
 2.2553386414e+00	 1.2456603156e+00	-2.3200798826e-01
 2.2433257417e+00	 1.2671668418e+00	-2.9043426126e-01
 2.2310916662e+00	 1.2885853901e+00	-3.4939832811e-01
 2.2186372758e+00	 1.3099126166e+00	-4.0862243734e-01
 2.2059634978e+00	 1.3311451862e+00	-4.6470964738e-01
 2.3333369241e+00	 1.1200524202e+00	 9.4236785514e-02
 2.3226167344e+00	 1.1421165942e+00	 4.2379575788e-02
 2.3116705622e+00	 1.1641126367e+00	-1.0725587560e-02
 2.3004988753e+00	 1.1860371699e+00	-6.4912693762e-02
 2.2891022073e+00	 1.2078868149e+00	-1.2000919417e-01
 2.2774811576e+00	 1.2296581939e+00	-1.7584383585e-01
 2.2656363918e+00	 1.2513479311e+00	-2.3225527140e-01
 2.2535686419e+00	 1.2729526549e+00	-2.8910141391e-01
 2.2412787063e+00	 1.2944689991e+00	-3.4626949899e-01
 2.2287674498e+00	 1.3158936045e+00	-4.0368680981e-01
 2.2160358040e+00	 1.3372231209e+00	-4.6076839538e-01
 2.3439423863e+00	 1.1251432725e+00	 8.9791227681e-02
 2.3331734713e+00	 1.1473077324e+00	 3.8160051619e-02
 2.3221775467e+00	 1.1694037511e+00	-1.4563077373e-02
 2.3109550824e+00	 1.1914279355e+00	-6.8208108515e-02
 2.2995066143e+00	 1.2133768913e+00	-1.2259601706e-01
 2.2878327447e+00	 1.2352472254e+00	-1.7754683178e-01
 2.2759341422e+00	 1.2570355466e+00	-2.3288846929e-01
 2.2638115420e+00	 1.2787384680e+00	-2.8846634323e-01
 2.2514657463e+00	 1.3003526081e+00	-3.4415370938e-01
 2.2388976238e+00	 1.3218745924e+00	-3.9986270143e-01
 2.2261081103e+00	 1.3433010555e+00	-4.5555600533e-01
 2.3545478486e+00	 1.1302341248e+00	 8.6259871413e-02
 2.3437302083e+00	 1.1524988706e+00	 3.4802471233e-02
 2.3326845312e+00	 1.1746948656e+00	-1.7658477134e-02
 2.3214112894e+00	 1.1968187011e+00	-7.0938670281e-02
 2.3099110213e+00	 1.2188669677e+00	-1.2484235028e-01
 2.2981843318e+00	 1.2408362568e+00	-1.7917054593e-01
 2.2862318926e+00	 1.2627231621e+00	-2.3373015232e-01
 2.2740544422e+00	 1.2845242811e+00	-2.8834381590e-01
 2.2616527864e+00	 1.3062362170e+00	-3.4286058523e-01
 2.2490277978e+00	 1.3278555803e+00	-3.9716728068e-01
 2.2361804165e+00	 1.3493789902e+00	-4.5120052985e-01
 2.3651533108e+00	 1.1353249771e+00	 8.3726076749e-02
 2.3542869452e+00	 1.1576900088e+00	 3.2411013343e-02
 2.3431915157e+00	 1.1799859800e+00	-1.9888687022e-02
 2.3318674965e+00	 1.2022094667e+00	-7.2964386838e-02
 2.3203154283e+00	 1.2243570442e+00	-1.2659346506e-01
 2.3085359189e+00	 1.2464252883e+00	-1.8054779196e-01
 2.2965296430e+00	 1.2684107776e+00	-2.3460307470e-01
 2.2842973424e+00	 1.2903100942e+00	-2.8854904003e-01
 2.2718398264e+00	 1.3121198260e+00	-3.4220041307e-01
 2.2591579719e+00	 1.3338365683e+00	-3.9540864447e-01
 2.2462527228e+00	 1.3554569248e+00	-4.4807433083e-01
 2.3757587731e+00	 1.1404158294e+00	 8.2275097761e-02
 2.3648436822e+00	 1.1628811470e+00	 3.1091331752e-02
 2.3536985002e+00	 1.1852770944e+00	-2.1129532644e-02
 2.3423237035e+00	 1.2076002323e+00	-7.4144570421e-02
 2.3307198353e+00	 1.2298471206e+00	-1.2769429152e-01
 2.3188875060e+00	 1.2520143198e+00	-1.8151136913e-01
 2.3068273934e+00	 1.2740983931e+00	-2.3533027205e-01
 2.2945402425e+00	 1.2960959073e+00	-2.8889776672e-01
 2.2820268665e+00	 1.3180034350e+00	-3.4198424671e-01
 2.2692881459e+00	 1.3398175562e+00	-3.9439584061e-01
 2.2563250290e+00	 1.3615348595e+00	-4.4598724164e-01
 2.3863642354e+00	 1.1455066817e+00	 8.1993990169e-02
 2.3754004191e+00	 1.1680722852e+00	 3.0950464025e-02
 2.3642054847e+00	 1.1905682088e+00	-2.1255856037e-02
 2.3527799106e+00	 1.2129909979e+00	-7.4337929186e-02
 2.3411242424e+00	 1.2353371970e+00	-1.2798951144e-01
 2.3292390932e+00	 1.2576033513e+00	-1.8189415721e-01
 2.3171251438e+00	 1.2797860086e+00	-2.3573515936e-01
 2.3047831427e+00	 1.3018817204e+00	-2.8920639223e-01
 2.2922139066e+00	 1.3238870440e+00	-3.4202401449e-01
 2.2794183199e+00	 1.3457985441e+00	-3.9393898119e-01
 2.2663973352e+00	 1.3676127941e+00	-4.4475030697e-01
 2.1656742728e+00	 1.3068334476e+00	-4.6510607977e-01
 2.1530175608e+00	 1.3275820387e+00	-5.1695034300e-01
 2.1401474865e+00	 1.3482311878e+00	-5.6643509336e-01
 2.1270651582e+00	 1.3687776585e+00	-6.1393263044e-01
 2.1137717485e+00	 1.3892182295e+00	-6.5985438003e-01
 2.1002684945e+00	 1.4095496958e+00	-7.0464588476e-01
 2.0865566977e+00	 1.4297688708e+00	-7.4878170269e-01
 2.0726377232e+00	 1.4498725875e+00	-7.9276024245e-01
 2.0585129995e+00	 1.4698577006e+00	-8.3709856416e-01
 2.0441840186e+00	 1.4897210872e+00	-8.8221229770e-01
 2.0296523348e+00	 1.5094596494e+00	-9.2754132690e-01
 2.1757465790e+00	 1.3129113823e+00	-4.6735654201e-01
 2.1630310021e+00	 1.3337564727e+00	-5.1863924763e-01
 2.1501010706e+00	 1.3545016587e+00	-5.6724739008e-01
 2.1369578978e+00	 1.3751436887e+00	-6.1365728033e-01
 2.1236026619e+00	 1.3956793264e+00	-6.5838524457e-01
 2.1100366059e+00	 1.4161053521e+00	-7.0198232453e-01
 2.0962610371e+00	 1.4364185642e+00	-7.4502888421e-01
 2.0822773269e+00	 1.4566157811e+00	-7.8812915304e-01
 2.0680869108e+00	 1.4766938426e+00	-8.3190573549e-01
 2.0536912874e+00	 1.4966496116e+00	-8.7660143918e-01
 2.0390920184e+00	 1.5164799756e+00	-9.2176142597e-01
 2.1858188853e+00	 1.3189893169e+00	-4.6802553009e-01
 2.1730444434e+00	 1.3399309067e+00	-5.1914552410e-01
 2.1600546546e+00	 1.3607721295e+00	-5.6723533719e-01
 2.1468506374e+00	 1.3815097189e+00	-6.1287409256e-01
 2.1334335754e+00	 1.4021404234e+00	-6.5668178791e-01
 2.1198047173e+00	 1.4226610084e+00	-6.9931370283e-01
 2.1059653764e+00	 1.4430682576e+00	-7.4145471145e-01
 2.0919169307e+00	 1.4633589746e+00	-7.8381353123e-01
 2.0776608221e+00	 1.4835299846e+00	-8.2711034626e-01
 2.0631985562e+00	 1.5035781360e+00	-8.7126573845e-01
 2.0485317020e+00	 1.5235003018e+00	-9.1622267938e-01
 2.1958911915e+00	 1.3250672516e+00	-4.6713584009e-01
 2.1830578847e+00	 1.3461053407e+00	-5.1849081609e-01
 2.1700082387e+00	 1.3670426004e+00	-5.6641883581e-01
 2.1567433770e+00	 1.3878757491e+00	-6.1160070445e-01
 2.1432644889e+00	 1.4086015204e+00	-6.5475893149e-01
 2.1295728286e+00	 1.4292166647e+00	-6.9665184245e-01
 2.1156697158e+00	 1.4497179510e+00	-7.3806759487e-01
 2.1015565345e+00	 1.4701021681e+00	-7.7981813050e-01
 2.0872347334e+00	 1.4903661266e+00	-8.2260807144e-01
 2.0727058250e+00	 1.5105066604e+00	-8.6620259686e-01
 2.0579713856e+00	 1.5305206280e+00	-9.1092206813e-01
 2.2059634978e+00	 1.3311451862e+00	-4.6470964738e-01
 2.1930713260e+00	 1.3522797747e+00	-5.1669583816e-01
 2.1799618227e+00	 1.3733130712e+00	-5.6481655987e-01
 2.1666361167e+00	 1.3942417792e+00	-6.0985323839e-01
 2.1530954024e+00	 1.4150626173e+00	-6.5262980413e-01
 2.1393409400e+00	 1.4357723210e+00	-6.9400650557e-01
 2.1253740551e+00	 1.4563676444e+00	-7.3487362592e-01
 2.1111961382e+00	 1.4768453616e+00	-7.7614513617e-01
 2.0968086446e+00	 1.4972022686e+00	-8.1836018881e-01
 2.0822130938e+00	 1.5174351848e+00	-8.6140891110e-01
 2.0674110692e+00	 1.5375409542e+00	-9.0585607575e-01
 2.2160358040e+00	 1.3372231209e+00	-4.6076839538e-01
 2.2030847673e+00	 1.3584542087e+00	-5.1378026540e-01
 2.1899154068e+00	 1.3795835421e+00	-5.6244584673e-01
 2.1765288563e+00	 1.4006078094e+00	-6.0764619311e-01
 2.1629263158e+00	 1.4215237143e+00	-6.5030563387e-01
 2.1491090514e+00	 1.4423279773e+00	-6.9138528627e-01
 2.1350783944e+00	 1.4630173378e+00	-7.3187647009e-01
 2.1208357420e+00	 1.4835885551e+00	-7.7278758984e-01
 2.1063825559e+00	 1.5040384107e+00	-8.1436354508e-01
 2.0917203626e+00	 1.5243637092e+00	-8.5688109297e-01
 2.0768507528e+00	 1.5445612804e+00	-9.0102071231e-01
 2.2261081103e+00	 1.3433010555e+00	-4.5555600533e-01
 2.2130982086e+00	 1.3646286427e+00	-5.0976262366e-01
 2.1998689908e+00	 1.3858540129e+00	-5.5932258807e-01
 2.1864215959e+00	 1.4069738396e+00	-6.0499233534e-01
 2.1727572293e+00	 1.4279848112e+00	-6.4779564027e-01
 2.1588771627e+00	 1.4488836336e+00	-6.8879350330e-01
 2.1447827338e+00	 1.4696670312e+00	-7.2907726020e-01
 2.1304753458e+00	 1.4903317487e+00	-7.6964746872e-01
 2.1159564672e+00	 1.5108745527e+00	-8.1061451339e-01
 2.1012276314e+00	 1.5312922335e+00	-8.5261508925e-01
 2.0862904363e+00	 1.5515816066e+00	-8.9641153842e-01
 2.2361804165e+00	 1.3493789902e+00	-4.5120052985e-01
 2.2231116499e+00	 1.3708030767e+00	-5.0467113433e-01
 2.2098225749e+00	 1.3921244838e+00	-5.5546112137e-01
 2.1963143355e+00	 1.4133398697e+00	-6.0190259183e-01
 2.1825881428e+00	 1.4344459082e+00	-6.4510692693e-01
 2.1686452741e+00	 1.4554392899e+00	-6.8623409315e-01
 2.1544870731e+00	 1.4763167246e+00	-7.2647448985e-01
 2.1401149495e+00	 1.4970749422e+00	-7.6668954245e-01
 2.1255303785e+00	 1.5177106947e+00	-8.0710900916e-01
 2.1107349002e+00	 1.5382207579e+00	-8.4860640165e-01
 2.0957301199e+00	 1.5586019328e+00	-8.9202368938e-01
 2.2462527228e+00	 1.3554569248e+00	-4.4807433083e-01
 2.2331250912e+00	 1.3769775107e+00	-4.9998701026e-01
 2.2197761589e+00	 1.3983949547e+00	-5.5087412178e-01
 2.2062070751e+00	 1.4197058999e+00	-5.9838594181e-01
 2.1924190562e+00	 1.4409070051e+00	-6.4224437450e-01
 2.1784133854e+00	 1.4619949462e+00	-6.8370750342e-01
 2.1641914125e+00	 1.4829664180e+00	-7.2406098172e-01
 2.1497545533e+00	 1.5038181357e+00	-7.6390971304e-01
 2.1351042897e+00	 1.5245468367e+00	-8.0384250605e-01
 2.1202421691e+00	 1.5451492823e+00	-8.4485010690e-01
 2.1051698035e+00	 1.5656222591e+00	-8.8785189933e-01
 2.2563250290e+00	 1.3615348595e+00	-4.4598724164e-01
 2.2431385326e+00	 1.3831519447e+00	-4.9661339354e-01
 2.2297297430e+00	 1.4046654255e+00	-5.4619504528e-01
 2.2160998147e+00	 1.4260719301e+00	-5.9444930978e-01
 2.2022499697e+00	 1.4473681021e+00	-6.3921053382e-01
 2.1881814968e+00	 1.4685506026e+00	-6.8121158641e-01
 2.1738957518e+00	 1.4896161114e+00	-7.2175121702e-01
 2.1593941571e+00	 1.5105613292e+00	-7.6130344423e-01
 2.1446782010e+00	 1.5313829788e+00	-8.0081005211e-01
 2.1297494379e+00	 1.5520778067e+00	-8.4134087694e-01
 2.1146094871e+00	 1.5726425853e+00	-8.8389052557e-01
 2.2663973352e+00	 1.3676127941e+00	-4.4475030697e-01
 2.2531519739e+00	 1.3893263787e+00	-4.9436351359e-01
 2.2396833270e+00	 1.4109358964e+00	-5.4281677319e-01
 2.2259925544e+00	 1.4324379603e+00	-5.9023442286e-01
 2.2120808832e+00	 1.4538291991e+00	-6.3600551954e-01
 2.1979496082e+00	 1.4751062589e+00	-6.7874149308e-01
 2.1836000912e+00	 1.4962658048e+00	-7.1950458811e-01
 2.1690337608e+00	 1.5173045227e+00	-7.5886577369e-01
 2.1542521123e+00	 1.5382191208e+00	-7.9800628601e-01
 2.1392567067e+00	 1.5590063311e+00	-8.3807299924e-01
 2.1240491707e+00	 1.5796629115e+00	-8.8013357280e-01
 2.0296523348e+00	 1.5094596494e+00	-9.2754132690e-01
 2.0149170444e+00	 1.5290736361e+00	-9.7170352379e-01
 1.9999822868e+00	 1.5485566257e+00	-1.0135096812e+00
 1.9848498104e+00	 1.5679055899e+00	-1.0531226947e+00
 1.9695214244e+00	 1.5871175315e+00	-1.0906565433e+00
 1.9539989976e+00	 1.6061894850e+00	-1.1261828039e+00
 1.9382844579e+00	 1.6251185188e+00	-1.1597375780e+00
 1.9223797916e+00	 1.6439017365e+00	-1.1913287746e+00
 1.9062870426e+00	 1.6625362779e+00	-1.2209436962e+00
 1.8900083112e+00	 1.6810193212e+00	-1.2485568677e+00
 1.8735457538e+00	 1.6993480836e+00	-1.2741380483e+00
 2.0390920184e+00	 1.5164799756e+00	-9.2176142597e-01
 2.0242881958e+00	 1.5361851848e+00	-9.6607785970e-01
 2.0092839783e+00	 1.5557587875e+00	-1.0081519722e+00
 1.9940811225e+00	 1.5751977416e+00	-1.0480730860e+00
 1.9786814459e+00	 1.5944990357e+00	-1.0858812548e+00
 1.9630868261e+00	 1.6136596907e+00	-1.1215741431e+00
 1.9472991998e+00	 1.6326767614e+00	-1.1551143276e+00
 1.9313205627e+00	 1.6515473376e+00	-1.1864369679e+00
 1.9151529681e+00	 1.6702685462e+00	-1.2154577863e+00
 1.8987985263e+00	 1.6888375520e+00	-1.2420812975e+00
 1.8822594034e+00	 1.7072515595e+00	-1.2662092249e+00
 2.0485317020e+00	 1.5235003018e+00	-9.1622267938e-01
 2.0336593473e+00	 1.5432967334e+00	-9.6062311291e-01
 2.0185856699e+00	 1.5629609493e+00	-1.0028812052e+00
 2.0033124347e+00	 1.5824898933e+00	-1.0430233698e+00
 1.9878414675e+00	 1.6018805399e+00	-1.0810263411e+00
 1.9721746545e+00	 1.6211298965e+00	-1.1168244104e+00
 1.9563139417e+00	 1.6402350039e+00	-1.1503170980e+00
 1.9402613339e+00	 1.6591929388e+00	-1.1813772033e+00
 1.9240188937e+00	 1.6780008145e+00	-1.2098591731e+00
 1.9075887413e+00	 1.6966557829e+00	-1.2356077261e+00
 1.8909730529e+00	 1.7151550354e+00	-1.2584666686e+00
 2.0579713856e+00	 1.5305206280e+00	-9.1092206813e-01
 2.0430304987e+00	 1.5504082821e+00	-9.5533583278e-01
 2.0278873614e+00	 1.5701631111e+00	-9.9769333362e-01
 2.0125437468e+00	 1.5897820449e+00	-1.0379685813e+00
 1.9970014890e+00	 1.6092620442e+00	-1.0760854367e+00
 1.9812624830e+00	 1.6286001022e+00	-1.1119251979e+00
 1.9653286837e+00	 1.6477932465e+00	-1.1453346353e+00
 1.9492021050e+00	 1.6668385400e+00	-1.1761344155e+00
 1.9328848193e+00	 1.6857330828e+00	-1.2041278528e+00
 1.9163789563e+00	 1.7044740137e+00	-1.2291099229e+00
 1.8996867024e+00	 1.7230585112e+00	-1.2508764720e+00
 2.0674110692e+00	 1.5375409542e+00	-9.0585607575e-01
 2.0524016501e+00	 1.5575198307e+00	-9.5021208537e-01
 2.0371890530e+00	 1.5773652730e+00	-9.9258385067e-01
 2.0217750589e+00	 1.5970741966e+00	-1.0329033293e+00
 2.0061615105e+00	 1.6166435484e+00	-1.0710517976e+00
 1.9903503115e+00	 1.6360703080e+00	-1.1068677813e+00
 1.9743434256e+00	 1.6553514890e+00	-1.1401554483e+00
 1.9581428761e+00	 1.6744841411e+00	-1.1706934005e+00
 1.9417507448e+00	 1.6934653511e+00	-1.1982438027e+00
 1.9251691713e+00	 1.7122922446e+00	-1.2225617806e+00
 1.9084003520e+00	 1.7309619871e+00	-1.2434050183e+00
 2.0768507528e+00	 1.5445612804e+00	-9.0102071231e-01
 2.0617728015e+00	 1.5646313794e+00	-9.4524748160e-01
 2.0464907445e+00	 1.5845674348e+00	-9.8754782160e-01
 2.0310063710e+00	 1.6043663483e+00	-1.0278218330e+00
 2.0153215320e+00	 1.6240250527e+00	-1.0659183407e+00
 1.9994381399e+00	 1.6435405137e+00	-1.1016431629e+00
 1.9833581675e+00	 1.6629097315e+00	-1.1347678550e+00
 1.9670836472e+00	 1.6821297423e+00	-1.1650388645e+00
 1.9506166704e+00	 1.7011976194e+00	-1.1921870319e+00
 1.9339593864e+00	 1.7201104754e+00	-1.2159373679e+00
 1.9171140015e+00	 1.7388654629e+00	-1.2360190352e+00
 2.0862904363e+00	 1.5515816066e+00	-8.9641153842e-01
 2.0711439529e+00	 1.5717429280e+00	-9.4043720541e-01
 2.0557924361e+00	 1.5917695966e+00	-9.8257991600e-01
 2.0402376831e+00	 1.6116585000e+00	-1.0227179577e+00
 2.0244815535e+00	 1.6314065569e+00	-1.0606776839e+00
 2.0085259684e+00	 1.6510107194e+00	-1.0962421152e+00
 1.9923729094e+00	 1.6704679741e+00	-1.1291600292e+00
 1.9760244183e+00	 1.6897753434e+00	-1.1591554734e+00
 1.9594825959e+00	 1.7089298877e+00	-1.1859376330e+00
 1.9427496014e+00	 1.7279287063e+00	-1.2092109828e+00
 1.9258276510e+00	 1.7467689388e+00	-1.2286856490e+00
 2.0957301199e+00	 1.5586019328e+00	-8.9202368938e-01
 2.0805151043e+00	 1.5788544766e+00	-9.3577604204e-01
 2.0650941276e+00	 1.5989717584e+00	-9.7767444004e-01
 2.0494689952e+00	 1.6189506516e+00	-1.0175852513e+00
 2.0336415751e+00	 1.6387880611e+00	-1.0553221858e+00
 2.0176137969e+00	 1.6584809252e+00	-1.0906552239e+00
 2.0013876513e+00	 1.6780262166e+00	-1.1233200466e+00
 1.9849651894e+00	 1.6974209446e+00	-1.1530279015e+00
 1.9683485215e+00	 1.7166621560e+00	-1.1794758331e+00
 1.9515398164e+00	 1.7357469371e+00	-1.2023572054e+00
 1.9345413005e+00	 1.7546724146e+00	-1.2213724389e+00
 2.1051698035e+00	 1.5656222591e+00	-8.8785189933e-01
 2.0898862558e+00	 1.5859660253e+00	-9.3125840628e-01
 2.0743958192e+00	 1.6061739203e+00	-9.7282536876e-01
 2.0587003073e+00	 1.6262428033e+00	-1.0124169802e+00
 2.0428015966e+00	 1.6461695654e+00	-1.0498439858e+00
 2.0267016253e+00	 1.6659511309e+00	-1.0848729316e+00
 2.0104023933e+00	 1.6855844591e+00	-1.1172359315e+00
 1.9939059606e+00	 1.7050665457e+00	-1.1466408807e+00
 1.9772144471e+00	 1.7243944243e+00	-1.1727820454e+00
 1.9603300314e+00	 1.7435651680e+00	-1.1953509510e+00
 1.9432549501e+00	 1.7625758905e+00	-1.2140474912e+00
 2.1146094871e+00	 1.5726425853e+00	-8.8389052557e-01
 2.0992574072e+00	 1.5930775739e+00	-9.2687837077e-01
 2.0836975107e+00	 1.6133760821e+00	-9.6802637836e-01
 2.0679316194e+00	 1.6335349550e+00	-1.0072061659e+00
 2.0519616181e+00	 1.6535510696e+00	-1.0442350435e+00
 2.0357894538e+00	 1.6734213366e+00	-1.0788855805e+00
 2.0194171352e+00	 1.6931427017e+00	-1.1108957023e+00
 2.0028467317e+00	 1.7127121469e+00	-1.1399792493e+00
 1.9860803726e+00	 1.7321266927e+00	-1.1658369202e+00
 1.9691202464e+00	 1.7513833988e+00	-1.1881675230e+00
 1.9519685996e+00	 1.7704793663e+00	-1.2066794530e+00
 2.1240491707e+00	 1.5796629115e+00	-8.8013357280e-01
 2.1086285586e+00	 1.6001891226e+00	-9.2262969435e-01
 2.0929992023e+00	 1.6205782439e+00	-9.6327087844e-01
 2.0771629315e+00	 1.6408271066e+00	-1.0019456202e+00
 2.0611216396e+00	 1.6609325739e+00	-1.0384871787e+00
 2.0448772823e+00	 1.6808915424e+00	-1.0726834554e+00
 2.0284318771e+00	 1.7007009442e+00	-1.1042874184e+00
 2.0117875028e+00	 1.7203577481e+00	-1.1330280009e+00
 1.9949462982e+00	 1.7398589610e+00	-1.1586213959e+00
 1.9779104614e+00	 1.7592016297e+00	-1.1807826660e+00
 1.9606822491e+00	 1.7783828422e+00	-1.1992375871e+00
 1.8735457538e+00	 1.6993480836e+00	-1.2741380483e+00
 1.8569044210e+00	 1.7175167532e+00	-1.2991362928e+00
 1.8400837691e+00	 1.7355257848e+00	-1.3235808359e+00
 1.8230860850e+00	 1.7533725534e+00	-1.3433519748e+00
 1.8059137074e+00	 1.7710544785e+00	-1.3592238127e+00
 1.7885690256e+00	 1.7885690256e+00	-1.3723114915e+00
 1.7710544785e+00	 1.8059137074e+00	-1.3837553833e+00
 1.7533725534e+00	 1.8230860850e+00	-1.3947197028e+00
 1.7355257848e+00	 1.8400837691e+00	-1.4063908978e+00
 1.7175167532e+00	 1.8569044210e+00	-1.4196922072e+00
 1.6993480836e+00	 1.8735457538e+00	-1.4311199823e+00
 1.8822594034e+00	 1.7072515595e+00	-1.2662092249e+00
 1.8655406736e+00	 1.7255047294e+00	-1.2893360415e+00
 1.8486417907e+00	 1.7435975191e+00	-1.3131897593e+00
 1.8315650523e+00	 1.7615272910e+00	-1.3339458069e+00
 1.8143128079e+00	 1.7792914527e+00	-1.3505173661e+00
 1.7968874579e+00	 1.7968874579e+00	-1.3641502632e+00
 1.7792914527e+00	 1.8143128079e+00	-1.3761162552e+00
 1.7615272910e+00	 1.8315650523e+00	-1.3877115186e+00
 1.7435975191e+00	 1.8486417907e+00	-1.4002549066e+00
 1.7255047294e+00	 1.8655406736e+00	-1.4130307840e+00
 1.7072515595e+00	 1.8822594034e+00	-1.4228083567e+00
 1.8909730529e+00	 1.7151550354e+00	-1.2584666686e+00
 1.8741769262e+00	 1.7334927057e+00	-1.2799679564e+00
 1.8571998123e+00	 1.7516692533e+00	-1.3021017859e+00
 1.8400440196e+00	 1.7696820285e+00	-1.3238588455e+00
 1.8227119084e+00	 1.7875284269e+00	-1.3414864460e+00
 1.8052058903e+00	 1.8052058903e+00	-1.3560203769e+00
 1.7875284269e+00	 1.8227119084e+00	-1.3688529843e+00
 1.7696820285e+00	 1.8400440196e+00	-1.3814017147e+00
 1.7516692533e+00	 1.8571998123e+00	-1.3948198666e+00
 1.7334927057e+00	 1.8741769262e+00	-1.4060723124e+00
 1.7151550354e+00	 1.8909730529e+00	-1.4144070515e+00
 1.8996867024e+00	 1.7230585112e+00	-1.2508764720e+00
 1.8828131787e+00	 1.7414806820e+00	-1.2709896540e+00
 1.8657578339e+00	 1.7597409876e+00	-1.2915560439e+00
 1.8485229869e+00	 1.7778367661e+00	-1.3130875872e+00
 1.8311110089e+00	 1.7957654011e+00	-1.3321171368e+00
 1.8135243227e+00	 1.8135243227e+00	-1.3478978739e+00
 1.7957654011e+00	 1.8311110089e+00	-1.3619321023e+00
 1.7778367661e+00	 1.8485229869e+00	-1.3757480119e+00
 1.7597409876e+00	 1.8657578339e+00	-1.3889850319e+00
 1.7414806820e+00	 1.8828131787e+00	-1.3988662999e+00
 1.7230585112e+00	 1.8996867024e+00	-1.4059631260e+00
 1.9084003520e+00	 1.7309619871e+00	-1.2434050183e+00
 1.8914494313e+00	 1.7494686583e+00	-1.2623592207e+00
 1.8743158556e+00	 1.7678127218e+00	-1.2816265942e+00
 1.8570019542e+00	 1.7859915036e+00	-1.3019160267e+00
 1.8395101095e+00	 1.8040023753e+00	-1.3223987339e+00
 1.8218427551e+00	 1.8218427551e+00	-1.3397620439e+00
 1.8040023753e+00	 1.8395101095e+00	-1.3553234059e+00
 1.7859915036e+00	 1.8570019542e+00	-1.3704725479e+00
 1.7678127218e+00	 1.8743158556e+00	-1.3826977553e+00
 1.7494686583e+00	 1.8914494313e+00	-1.3914657805e+00
 1.7309619871e+00	 1.9084003520e+00	-1.3975271973e+00
 1.9171140015e+00	 1.7388654629e+00	-1.2360190352e+00
 1.9000856839e+00	 1.7574566346e+00	-1.2540352675e+00
 1.8828738772e+00	 1.7758844561e+00	-1.2722639710e+00
 1.8654809215e+00	 1.7941462412e+00	-1.2914752444e+00
 1.8479092100e+00	 1.8122393495e+00	-1.3123238236e+00
 1.8301611874e+00	 1.8301611874e+00	-1.3315955044e+00
 1.8122393495e+00	 1.8479092100e+00	-1.3490000369e+00
 1.7941462412e+00	 1.8654809215e+00	-1.3646130619e+00
 1.7758844561e+00	 1.8828738772e+00	-1.3760181514e+00
 1.7574566346e+00	 1.9000856839e+00	-1.3839270842e+00
 1.7388654629e+00	 1.9171140015e+00	-1.3891532146e+00
 1.9258276510e+00	 1.7467689388e+00	-1.2286856490e+00
 1.9087219364e+00	 1.7654446108e+00	-1.2459769848e+00
 1.8914318988e+00	 1.7839561903e+00	-1.2634194643e+00
 1.8739598888e+00	 1.8023009787e+00	-1.2818331416e+00
 1.8563083105e+00	 1.8204763236e+00	-1.3020848221e+00
 1.8384796198e+00	 1.8384796198e+00	-1.3233842812e+00
 1.8204763236e+00	 1.8563083105e+00	-1.3427798656e+00
 1.8023009787e+00	 1.8739598888e+00	-1.3581318974e+00
 1.7839561903e+00	 1.8914318988e+00	-1.3690093478e+00
 1.7654446108e+00	 1.9087219364e+00	-1.3763096081e+00
 1.7467689388e+00	 1.9258276510e+00	-1.3808982320e+00
 1.9345413005e+00	 1.7546724146e+00	-1.2213724389e+00
 1.9173581890e+00	 1.7734325871e+00	-1.2381441977e+00
 1.8999899204e+00	 1.7920279246e+00	-1.2550451757e+00
 1.8824388562e+00	 1.8104557163e+00	-1.2729342539e+00
 1.8647074110e+00	 1.8287132978e+00	-1.2927181518e+00
 1.8467980522e+00	 1.8467980522e+00	-1.3151178888e+00
 1.8287132978e+00	 1.8647074110e+00	-1.3358228175e+00
 1.8104557163e+00	 1.8824388562e+00	-1.3510998820e+00
 1.7920279246e+00	 1.8999899204e+00	-1.3617372531e+00
 1.7734325871e+00	 1.9173581890e+00	-1.3686755859e+00
 1.7546724146e+00	 1.9345413005e+00	-1.3728221831e+00
 1.9432549501e+00	 1.7625758905e+00	-1.2140474912e+00
 1.9259944416e+00	 1.7814205634e+00	-1.2304974204e+00
 1.9085479420e+00	 1.8000996588e+00	-1.2470940740e+00
 1.8909178235e+00	 1.8186104539e+00	-1.2647241543e+00
 1.8731065116e+00	 1.8369502720e+00	-1.2843233280e+00
 1.8551164845e+00	 1.8551164845e+00	-1.3068110514e+00
 1.8369502720e+00	 1.8731065116e+00	-1.3280763056e+00
 1.8186104539e+00	 1.8909178235e+00	-1.3435903235e+00
 1.8000996588e+00	 1.9085479420e+00	-1.3542703252e+00
 1.7814205634e+00	 1.9259944416e+00	-1.3610898596e+00
 1.7625758905e+00	 1.9432549501e+00	-1.3649876552e+00
 1.9519685996e+00	 1.7704793663e+00	-1.2066794530e+00
 1.9346306941e+00	 1.7894085397e+00	-1.2229979118e+00
 1.9171059637e+00	 1.8081713931e+00	-1.2395200519e+00
 1.8993967908e+00	 1.8267651914e+00	-1.2571495107e+00
 1.8815056121e+00	 1.8451872462e+00	-1.2768400559e+00
 1.8634349169e+00	 1.8634349169e+00	-1.2986803290e+00
 1.8451872462e+00	 1.8815056121e+00	-1.3196217613e+00
 1.8267651914e+00	 1.8993967908e+00	-1.3356787767e+00
 1.8081713931e+00	 1.9171059637e+00	-1.3466793400e+00
 1.7894085397e+00	 1.9346306941e+00	-1.3536196505e+00
 1.7704793663e+00	 1.9519685996e+00	-1.3574596634e+00
 1.9606822491e+00	 1.7783828422e+00	-1.1992375871e+00
 1.9432669467e+00	 1.7973965160e+00	-1.2156077307e+00
 1.9256639853e+00	 1.8162431273e+00	-1.2322779815e+00
 1.9078757581e+00	 1.8349199290e+00	-1.2501581429e+00
 1.8899047126e+00	 1.8534242204e+00	-1.2701945343e+00
 1.8717533493e+00	 1.8717533493e+00	-1.2908020005e+00
 1.8534242204e+00	 1.8899047126e+00	-1.3105624897e+00
 1.8349199290e+00	 1.9078757581e+00	-1.3274428101e+00
 1.8162431273e+00	 1.9256639853e+00	-1.3390371596e+00
 1.7973965160e+00	 1.9432669467e+00	-1.3463343303e+00
 1.7783828422e+00	 1.9606822491e+00	-1.3503054262e+00
 1.6993480836e+00	 1.8735457538e+00	-1.4311199823e+00
 1.6810193212e+00	 1.8900083112e+00	-1.4393510995e+00
 1.6625362779e+00	 1.9062870426e+00	-1.4444453355e+00
 1.6439017365e+00	 1.9223797916e+00	-1.4466428998e+00
 1.6251185188e+00	 1.9382844579e+00	-1.4461979247e+00
 1.6061894850e+00	 1.9539989976e+00	-1.4433834293e+00
 1.5871175315e+00	 1.9695214244e+00	-1.4384962698e+00
 1.5679055899e+00	 1.9848498104e+00	-1.4318620298e+00
 1.5485566257e+00	 1.9999822868e+00	-1.4238397999e+00
 1.5290736361e+00	 2.0149170444e+00	-1.4148268021e+00
 1.5094596494e+00	 2.0296523348e+00	-1.4052628102e+00
 1.7072515595e+00	 1.8822594034e+00	-1.4228083567e+00
 1.6888375520e+00	 1.8987985263e+00	-1.4298126574e+00
 1.6702685462e+00	 1.9151529681e+00	-1.4341608228e+00
 1.6515473376e+00	 1.9313205627e+00	-1.4360199091e+00
 1.6326767614e+00	 1.9472991998e+00	-1.4355697405e+00
 1.6136596907e+00	 1.9630868261e+00	-1.4330082082e+00
 1.5944990357e+00	 1.9786814459e+00	-1.4285565596e+00
 1.5751977416e+00	 1.9940811225e+00	-1.4224646280e+00
 1.5557587875e+00	 2.0092839783e+00	-1.4150159502e+00
 1.5361851848e+00	 2.0242881958e+00	-1.4065327267e+00
 1.5164799756e+00	 2.0390920184e+00	-1.3973805716e+00
 1.7151550354e+00	 1.8909730529e+00	-1.4144070515e+00
 1.6966557829e+00	 1.9075887413e+00	-1.4203243966e+00
 1.6780008145e+00	 1.9240188937e+00	-1.4240040252e+00
 1.6591929388e+00	 1.9402613339e+00	-1.4255504519e+00
 1.6402350039e+00	 1.9563139417e+00	-1.4250797839e+00
 1.6211298965e+00	 1.9721746545e+00	-1.4227253493e+00
 1.6018805399e+00	 1.9878414675e+00	-1.4186433184e+00
 1.5824898933e+00	 2.0033124347e+00	-1.4130182650e+00
 1.5629609493e+00	 2.0185856699e+00	-1.4060686173e+00
 1.5432967334e+00	 2.0336593473e+00	-1.3980519462e+00
 1.5235003018e+00	 2.0485317020e+00	-1.3892700400e+00
 1.7230585112e+00	 1.8996867024e+00	-1.4059631260e+00
 1.7044740137e+00	 1.9163789563e+00	-1.4109319094e+00
 1.6857330828e+00	 1.9328848193e+00	-1.4140193970e+00
 1.6668385400e+00	 1.9492021050e+00	-1.4152780136e+00
 1.6477932465e+00	 1.9653286837e+00	-1.4147705806e+00
 1.6286001022e+00	 1.9812624830e+00	-1.4125762667e+00
 1.6092620442e+00	 1.9970014890e+00	-1.4087965345e+00
 1.5897820449e+00	 2.0125437468e+00	-1.4035610285e+00
 1.5701631111e+00	 2.0278873614e+00	-1.3970333518e+00
 1.5504082821e+00	 2.0430304987e+00	-1.3894166773e+00
 1.5305206280e+00	 2.0579713856e+00	-1.3809591409e+00
 1.7309619871e+00	 1.9084003520e+00	-1.3975271973e+00
 1.7122922446e+00	 1.9251691713e+00	-1.4016843693e+00
 1.6934653511e+00	 1.9417507448e+00	-1.4042549993e+00
 1.6744841411e+00	 1.9581428761e+00	-1.4052497167e+00
 1.6553514890e+00	 1.9743434256e+00	-1.4046883296e+00
 1.6360703080e+00	 1.9903503115e+00	-1.4026060919e+00
 1.6166435484e+00	 2.0061615105e+00	-1.3990599685e+00
 1.5970741966e+00	 2.0217750589e+00	-1.3941348451e+00
 1.5773652730e+00	 2.0371890530e+00	-1.3879496238e+00
 1.5575198307e+00	 2.0524016501e+00	-1.3806631521e+00
 1.5375409542e+00	 2.0674110692e+00	-1.3724799293e+00
 1.7388654629e+00	 1.9171140015e+00	-1.3891532146e+00
 1.7201104754e+00	 1.9339593864e+00	-1.3926343088e+00
 1.7011976194e+00	 1.9506166704e+00	-1.3947622820e+00
 1.6821297423e+00	 1.9670836472e+00	-1.3955161068e+00
 1.6629097315e+00	 1.9833581675e+00	-1.3948826940e+00
 1.6435405137e+00	 1.9994381399e+00	-1.3928634697e+00
 1.6240250527e+00	 2.0153215320e+00	-1.3894809539e+00
 1.6043663483e+00	 2.0310063710e+00	-1.3847852855e+00
 1.5845674348e+00	 2.0464907445e+00	-1.3788606325e+00
 1.5646313794e+00	 2.0617728015e+00	-1.3718314327e+00
 1.5445612804e+00	 2.0768507528e+00	-1.3638684077e+00
 1.7467689388e+00	 1.9258276510e+00	-1.3808982320e+00
 1.7279287063e+00	 1.9427496014e+00	-1.3838373967e+00
 1.7089298877e+00	 1.9594825959e+00	-1.3855958656e+00
 1.6897753434e+00	 1.9760244183e+00	-1.3861309392e+00
 1.6704679741e+00	 1.9923729094e+00	-1.3854065921e+00
 1.6510107194e+00	 2.0085259684e+00	-1.3834003542e+00
 1.6314065569e+00	 2.0244815535e+00	-1.3801101975e+00
 1.6116585000e+00	 2.0402376831e+00	-1.3755613701e+00
 1.5917695966e+00	 2.0557924361e+00	-1.3698131166e+00
 1.5717429280e+00	 2.0711439529e+00	-1.3629652255e+00
 1.5515816066e+00	 2.0862904363e+00	-1.3551643455e+00
 1.7546724146e+00	 1.9345413005e+00	-1.3728221831e+00
 1.7357469371e+00	 1.9515398164e+00	-1.3753522164e+00
 1.7166621560e+00	 1.9683485215e+00	-1.3768133233e+00
 1.6974209446e+00	 1.9849651894e+00	-1.3771509652e+00
 1.6780262166e+00	 2.0013876513e+00	-1.3763159887e+00
 1.6584809252e+00	 2.0176137969e+00	-1.3742718049e+00
 1.6387880611e+00	 2.0336415751e+00	-1.3710015802e+00
 1.6189506516e+00	 2.0494689952e+00	-1.3665153741e+00
 1.5989717584e+00	 2.0650941276e+00	-1.3608571642e+00
 1.5788544766e+00	 2.0805151043e+00	-1.3541116961e+00
 1.5586019328e+00	 2.0957301199e+00	-1.3464110972e+00
 1.7625758905e+00	 1.9432549501e+00	-1.3649876552e+00
 1.7435651680e+00	 1.9603300314e+00	-1.3672400441e+00
 1.7243944243e+00	 1.9772144471e+00	-1.3684749640e+00
 1.7050665457e+00	 1.9939059606e+00	-1.3686357197e+00
 1.6855844591e+00	 2.0104023933e+00	-1.3676696863e+00
 1.6659511309e+00	 2.0267016253e+00	-1.3655357824e+00
 1.6461695654e+00	 2.0428015966e+00	-1.3622119580e+00
 1.6262428033e+00	 2.0587003073e+00	-1.3577026333e+00
 1.6061739203e+00	 2.0743958192e+00	-1.3520460229e+00
 1.5859660253e+00	 2.0898862558e+00	-1.3453212836e+00
 1.5656222591e+00	 2.1051698035e+00	-1.3376554217e+00
 1.7704793663e+00	 1.9519685996e+00	-1.3574596634e+00
 1.7513833988e+00	 1.9691202464e+00	-1.3595646268e+00
 1.7321266927e+00	 1.9860803726e+00	-1.3606436141e+00
 1.7127121469e+00	 2.0028467317e+00	-1.3606473075e+00
 1.6931427017e+00	 2.0194171352e+00	-1.3595291175e+00
 1.6734213366e+00	 2.0357894538e+00	-1.3572529451e+00
 1.6535510696e+00	 2.0519616181e+00	-1.3538009630e+00
 1.6335349550e+00	 2.0679316194e+00	-1.3491813499e+00
 1.6133760821e+00	 2.0836975107e+00	-1.3434359102e+00
 1.5930775739e+00	 2.0992574072e+00	-1.3366475153e+00
 1.5726425853e+00	 2.1146094871e+00	-1.3289473009e+00
 1.7783828422e+00	 1.9606822491e+00	-1.3503054262e+00
 1.7592016297e+00	 1.9779104614e+00	-1.3523919618e+00
 1.7398589610e+00	 1.9949462982e+00	-1.3533844012e+00
 1.7203577481e+00	 2.0117875028e+00	-1.3532501909e+00
 1.7007009442e+00	 2.0284318771e+00	-1.3519581358e+00
 1.6808915424e+00	 2.0448772823e+00	-1.3494864454e+00
 1.6609325739e+00	 2.0611216396e+00	-1.3458308044e+00
 1.6408271066e+00	 2.0771629315e+00	-1.3410123980e+00
 1.6205782439e+00	 2.0929992023e+00	-1.3350858236e+00
 1.6001891226e+00	 2.1086285586e+00	-1.3281468216e+00
 1.5796629115e+00	 2.1240491707e+00	-1.3203397588e+00
 1.5094596494e+00	 2.0296523348e+00	-1.4052628102e+00
 1.4897210872e+00	 2.0441840186e+00	-1.3947875316e+00
 1.4698577006e+00	 2.0585129995e+00	-1.3826161599e+00
 1.4498725875e+00	 2.0726377232e+00	-1.3676416187e+00
 1.4297688708e+00	 2.0865566977e+00	-1.3500634138e+00
 1.4095496958e+00	 2.1002684945e+00	-1.3302596845e+00
 1.3892182295e+00	 2.1137717485e+00	-1.3086143260e+00
 1.3687776585e+00	 2.1270651582e+00	-1.2855141689e+00
 1.3482311878e+00	 2.1401474865e+00	-1.2613458700e+00
 1.3275820387e+00	 2.1530175608e+00	-1.2364925367e+00
 1.3068334476e+00	 2.1656742728e+00	-1.2113301093e+00
 1.5164799756e+00	 2.0390920184e+00	-1.3973805716e+00
 1.4966496116e+00	 2.0536912874e+00	-1.3870015079e+00
 1.4766938426e+00	 2.0680869108e+00	-1.3747973639e+00
 1.4566157811e+00	 2.0822773269e+00	-1.3597952921e+00
 1.4364185642e+00	 2.0962610371e+00	-1.3418574838e+00
 1.4161053521e+00	 2.1100366059e+00	-1.3214603760e+00
 1.3956793264e+00	 2.1236026619e+00	-1.2990874378e+00
 1.3751436887e+00	 2.1369578978e+00	-1.2752261221e+00
 1.3545016587e+00	 2.1501010706e+00	-1.2503645178e+00
 1.3337564727e+00	 2.1630310021e+00	-1.2249877258e+00
 1.3129113823e+00	 2.1757465790e+00	-1.1995739825e+00
 1.5235003018e+00	 2.0485317020e+00	-1.3892700400e+00
 1.5035781360e+00	 2.0631985562e+00	-1.3789804940e+00
 1.4835299846e+00	 2.0776608221e+00	-1.3665575187e+00
 1.4633589746e+00	 2.0919169307e+00	-1.3516535813e+00
 1.4430682576e+00	 2.1059653764e+00	-1.3335271468e+00
 1.4226610084e+00	 2.1198047173e+00	-1.3127394254e+00
 1.4021404234e+00	 2.1334335754e+00	-1.2898714705e+00
 1.3815097189e+00	 2.1468506374e+00	-1.2655095351e+00
 1.3607721295e+00	 2.1600546546e+00	-1.2402414843e+00
 1.3399309067e+00	 2.1730444434e+00	-1.2146529211e+00
 1.3189893169e+00	 2.1858188853e+00	-1.1893230496e+00
 1.5305206280e+00	 2.0579713856e+00	-1.3809591409e+00
 1.5105066604e+00	 2.0727058250e+00	-1.3707479925e+00
 1.4903661266e+00	 2.0872347334e+00	-1.3580746390e+00
 1.4701021681e+00	 2.1015565345e+00	-1.3431990048e+00
 1.4497179510e+00	 2.1156697158e+00	-1.3250487361e+00
 1.4292166647e+00	 2.1295728286e+00	-1.3040678438e+00
 1.4086015204e+00	 2.1432644889e+00	-1.2809330561e+00
 1.3878757491e+00	 2.1567433770e+00	-1.2563276837e+00
 1.3670426004e+00	 2.1700082387e+00	-1.2309377923e+00
 1.3461053407e+00	 2.1830578847e+00	-1.2054480769e+00
 1.3250672516e+00	 2.1958911915e+00	-1.1805374627e+00
 1.5375409542e+00	 2.0674110692e+00	-1.3724799293e+00
 1.5174351848e+00	 2.0822130938e+00	-1.3623317496e+00
 1.4972022686e+00	 2.0968086446e+00	-1.3494330811e+00
 1.4768453616e+00	 2.1111961382e+00	-1.3344222230e+00
 1.4563676444e+00	 2.1253740551e+00	-1.3164064820e+00
 1.4357723210e+00	 2.1393409400e+00	-1.2954242643e+00
 1.4150626173e+00	 2.1530954024e+00	-1.2722461417e+00
 1.3942417792e+00	 2.1666361167e+00	-1.2476508199e+00
 1.3733130712e+00	 2.1799618227e+00	-1.2224210702e+00
 1.3522797747e+00	 2.1930713260e+00	-1.1973393497e+00
 1.3311451862e+00	 2.2059634978e+00	-1.1731831393e+00
 1.5445612804e+00	 2.0768507528e+00	-1.3638684077e+00
 1.5243637092e+00	 2.0917203626e+00	-1.3537635789e+00
 1.5040384107e+00	 2.1063825559e+00	-1.3406612532e+00
 1.4835885551e+00	 2.1208357420e+00	-1.3253353053e+00
 1.4630173378e+00	 2.1350783944e+00	-1.3075926083e+00
 1.4423279773e+00	 2.1491090514e+00	-1.2867950393e+00
 1.4215237143e+00	 2.1629263158e+00	-1.2637920889e+00
 1.4006078094e+00	 2.1765288563e+00	-1.2394562742e+00
 1.3795835421e+00	 2.1899154068e+00	-1.2146656561e+00
 1.3584542087e+00	 2.2030847673e+00	-1.1902992055e+00
 1.3372231209e+00	 2.2160358040e+00	-1.1672318736e+00
 1.5515816066e+00	 2.0862904363e+00	-1.3551643455e+00
 1.5312922335e+00	 2.1012276314e+00	-1.3450791842e+00
 1.5108745527e+00	 2.1159564672e+00	-1.3317915615e+00
 1.4903317487e+00	 2.1304753458e+00	-1.3161450381e+00
 1.4696670312e+00	 2.1447827338e+00	-1.2986074278e+00
 1.4488836336e+00	 2.1588771627e+00	-1.2781743379e+00
 1.4279848112e+00	 2.1727572293e+00	-1.2555597729e+00
 1.4069738396e+00	 2.1864215959e+00	-1.2317285563e+00
 1.3858540129e+00	 2.1998689908e+00	-1.2076527028e+00
 1.3646286427e+00	 2.2130982086e+00	-1.1843065273e+00
 1.3433010555e+00	 2.2261081103e+00	-1.1624778255e+00
 1.5586019328e+00	 2.0957301199e+00	-1.3464110972e+00
 1.5382207579e+00	 2.1107349002e+00	-1.3363179825e+00
 1.5177106947e+00	 2.1255303785e+00	-1.3228602376e+00
 1.4970749422e+00	 2.1401149495e+00	-1.3069477448e+00
 1.4763167246e+00	 2.1544870731e+00	-1.2894594385e+00
 1.4554392899e+00	 2.1686452741e+00	-1.2695642431e+00
 1.4344459082e+00	 2.1825881428e+00	-1.2475456818e+00
 1.4133398697e+00	 2.1963143355e+00	-1.2244594575e+00
 1.3921244838e+00	 2.2098225749e+00	-1.2013702811e+00
 1.3708030767e+00	 2.2231116499e+00	-1.1793380012e+00
 1.3493789902e+00	 2.2361804165e+00	-1.1571936134e+00
 1.5656222591e+00	 2.1051698035e+00	-1.3376554217e+00
 1.5451492823e+00	 2.1202421691e+00	-1.3275229274e+00
 1.5245468367e+00	 2.1351042897e+00	-1.3139071668e+00
 1.5038181357e+00	 2.1497545533e+00	-1.2977810030e+00
 1.4829664180e+00	 2.1641914125e+00	-1.2801723239e+00
 1.4619949462e+00	 2.1784133854e+00	-1.2609748494e+00
 1.4409070051e+00	 2.1924190562e+00	-1.2397540155e+00
 1.4197058999e+00	 2.2062070751e+00	-1.2176481508e+00
 1.3983949547e+00	 2.2197761589e+00	-1.1958134839e+00
 1.3769775107e+00	 2.2331250912e+00	-1.1742328064e+00
 1.3554569248e+00	 2.2462527228e+00	-1.1511422286e+00
 1.5726425853e+00	 2.1146094871e+00	-1.3289473009e+00
 1.5520778067e+00	 2.1297494379e+00	-1.3187403325e+00
 1.5313829788e+00	 2.1446782010e+00	-1.3049757162e+00
 1.5105613292e+00	 2.1593941571e+00	-1.2886859774e+00
 1.4896161114e+00	 2.1738957518e+00	-1.2709618564e+00
 1.4685506026e+00	 2.1881814968e+00	-1.2524243594e+00
 1.4473681021e+00	 2.2022499697e+00	-1.2321967845e+00
 1.4260719301e+00	 2.2160998147e+00	-1.2113012925e+00
 1.4046654255e+00	 2.2297297430e+00	-1.1905146752e+00
 1.3831519447e+00	 2.2431385326e+00	-1.1683406741e+00
 1.3615348595e+00	 2.2563250290e+00	-1.1445559967e+00
 1.5796629115e+00	 2.1240491707e+00	-1.3203397588e+00
 1.5590063311e+00	 2.1392567067e+00	-1.3100196942e+00
 1.5382191208e+00	 2.1542521123e+00	-1.2961125624e+00
 1.5173045227e+00	 2.1690337608e+00	-1.2797072532e+00
 1.4962658048e+00	 2.1836000912e+00	-1.2619542096e+00
 1.4751062589e+00	 2.1979496082e+00	-1.2439391811e+00
 1.4538291991e+00	 2.2120808832e+00	-1.2248939084e+00
 1.4324379603e+00	 2.2259925544e+00	-1.2053350677e+00
 1.4109358964e+00	 2.2396833270e+00	-1.1844745072e+00
 1.3893263787e+00	 2.2531519739e+00	-1.1618909979e+00
 1.3676127941e+00	 2.2663973352e+00	-1.1376684723e+00
 1.3068334476e+00	 2.1656742728e+00	-1.2113301093e+00
 1.2859886649e+00	 2.1781165798e+00	-1.1856311734e+00
 1.2650509541e+00	 2.1903435059e+00	-1.1594565028e+00
 1.2440235894e+00	 2.2023541410e+00	-1.1336013264e+00
 1.2229098536e+00	 2.2141476398e+00	-1.1088496977e+00
 1.2017130364e+00	 2.2257232220e+00	-1.0856926699e+00
 1.1804364328e+00	 2.2370801722e+00	-1.0604157376e+00
 1.1590833418e+00	 2.2482178401e+00	-1.0314226471e+00
 1.1376570647e+00	 2.2591356397e+00	-9.9843497725e-01
 1.1161609032e+00	 2.2698330496e+00	-9.6117207117e-01
 1.0945981586e+00	 2.2803096128e+00	-9.2125421867e-01
 1.3129113823e+00	 2.1757465790e+00	-1.1995739825e+00
 1.2919696528e+00	 2.1882467538e+00	-1.1740980347e+00
 1.2709345631e+00	 2.2005305460e+00	-1.1488118579e+00
 1.2498094025e+00	 2.2125970412e+00	-1.1245975539e+00
 1.2285974691e+00	 2.2244453902e+00	-1.1022249344e+00
 1.2073020679e+00	 2.2360748091e+00	-1.0786686769e+00
 1.1859265092e+00	 2.2474845792e+00	-1.0520273985e+00
 1.1644741074e+00	 2.2586740471e+00	-1.0220870459e+00
 1.1429481791e+00	 2.2696426242e+00	-9.8862796618e-01
 1.1213520414e+00	 2.2803897866e+00	-9.5142984880e-01
 1.0996890109e+00	 2.2909150750e+00	-9.1115864333e-01
 1.3189893169e+00	 2.1858188853e+00	-1.1893230496e+00
 1.2979506407e+00	 2.1983769278e+00	-1.1644364642e+00
 1.2768181721e+00	 2.2107175861e+00	-1.1404412272e+00
 1.2555952156e+00	 2.2228399414e+00	-1.1182930473e+00
 1.2342850846e+00	 2.2347431406e+00	-1.0958744129e+00
 1.2128910994e+00	 2.2464263962e+00	-1.0708756795e+00
 1.1914165856e+00	 2.2578889862e+00	-1.0431413678e+00
 1.1698648730e+00	 2.2691302542e+00	-1.0125062766e+00
 1.1482392935e+00	 2.2801496087e+00	-9.7880090378e-01
 1.1265431796e+00	 2.2909465235e+00	-9.4185650198e-01
 1.1047798633e+00	 2.3015205373e+00	-9.0177253605e-01
 1.3250672516e+00	 2.1958911915e+00	-1.1805374627e+00
 1.3039316287e+00	 2.2085071018e+00	-1.1566052056e+00
 1.2827017811e+00	 2.2209046261e+00	-1.1342975113e+00
 1.2613810287e+00	 2.2330828415e+00	-1.1125641676e+00
 1.2399727001e+00	 2.2450408910e+00	-1.0886738110e+00
 1.2184801309e+00	 2.2567779833e+00	-1.0624986872e+00
 1.1969066621e+00	 2.2682933933e+00	-1.0339228646e+00
 1.1752556387e+00	 2.2795864612e+00	-1.0028216541e+00
 1.1535304079e+00	 2.2906565932e+00	-9.6906718149e-01
 1.1317343178e+00	 2.3015032605e+00	-9.3253357762e-01
 1.1098707156e+00	 2.3121259996e+00	-8.9311144938e-01
 1.3311451862e+00	 2.2059634978e+00	-1.1731831393e+00
 1.3099126166e+00	 2.2186372758e+00	-1.1505683516e+00
 1.2885853901e+00	 2.2310916662e+00	-1.1290987013e+00
 1.2671668418e+00	 2.2433257417e+00	-1.1059278791e+00
 1.2456603156e+00	 2.2553386414e+00	-1.0808273147e+00
 1.2240691624e+00	 2.2671295704e+00	-1.0537266703e+00
 1.2023967385e+00	 2.2786978003e+00	-1.0245415088e+00
 1.1806464043e+00	 2.2900426683e+00	-9.9317939945e-01
 1.1588215223e+00	 2.3011635777e+00	-9.5954566375e-01
 1.1369254560e+00	 2.3120599974e+00	-9.2354872114e-01
 1.1149615679e+00	 2.3227314618e+00	-8.8510499568e-01
 1.3372231209e+00	 2.2160358040e+00	-1.1672318736e+00
 1.3158936045e+00	 2.2287674498e+00	-1.1457000696e+00
 1.2944689991e+00	 2.2412787063e+00	-1.1229793547e+00
 1.2729526549e+00	 2.2535686419e+00	-1.0986024162e+00
 1.2513479311e+00	 2.2656363918e+00	-1.0725424671e+00
 1.2296581939e+00	 2.2774811576e+00	-1.0447523333e+00
 1.2078868149e+00	 2.2891022073e+00	-1.0151710980e+00
 1.1860371699e+00	 2.3004988753e+00	-9.8373041838e-01
 1.1641126367e+00	 2.3116705622e+00	-9.5036046713e-01
 1.1421165942e+00	 2.3226167344e+00	-9.1499545455e-01
 1.1200524202e+00	 2.3333369241e+00	-8.7757869294e-01
 1.3433010555e+00	 2.2261081103e+00	-1.1624778255e+00
 1.3218745924e+00	 2.2388976238e+00	-1.1400354075e+00
 1.3003526081e+00	 2.2514657463e+00	-1.1161402486e+00
 1.2787384680e+00	 2.2638115420e+00	-1.0908088250e+00
 1.2570355466e+00	 2.2759341422e+00	-1.0640299361e+00
 1.2352472254e+00	 2.2878327447e+00	-1.0357718872e+00
 1.2133768913e+00	 2.2995066143e+00	-1.0059893834e+00
 1.1914279355e+00	 2.3109550824e+00	-9.7463007959e-01
 1.1694037511e+00	 2.3221775467e+00	-9.4164073926e-01
 1.1473077324e+00	 2.3331734713e+00	-9.0697295455e-01
 1.1251432725e+00	 2.3439423863e+00	-8.7058838892e-01
 1.3493789902e+00	 2.2361804165e+00	-1.1571936134e+00
 1.3278555803e+00	 2.2490277978e+00	-1.1336270426e+00
 1.3062362170e+00	 2.2616527864e+00	-1.1088109775e+00
 1.2845242811e+00	 2.2740544422e+00	-1.0827707227e+00
 1.2627231621e+00	 2.2862318926e+00	-1.0555032809e+00
 1.2408362568e+00	 2.2981843318e+00	-1.0269848215e+00
 1.2188669677e+00	 2.3099110213e+00	-9.9717784562e-01
 1.1968187011e+00	 2.3214112894e+00	-9.6603799276e-01
 1.1746948656e+00	 2.3326845312e+00	-9.3352043773e-01
 1.1524988706e+00	 2.3437302083e+00	-8.9958583080e-01
 1.1302341248e+00	 2.3545478486e+00	-8.6420573943e-01
 1.3554569248e+00	 2.2462527228e+00	-1.1511422286e+00
 1.3338365683e+00	 2.2591579719e+00	-1.1267082861e+00
 1.3121198260e+00	 2.2718398264e+00	-1.1012232074e+00
 1.2903100942e+00	 2.2842973424e+00	-1.0747140562e+00
 1.2684107776e+00	 2.2965296430e+00	-1.0471787178e+00
 1.2464252883e+00	 2.3085359189e+00	-1.0185936753e+00
 1.2243570442e+00	 2.3203154283e+00	-9.8892147006e-01
 1.2022094667e+00	 2.3318674965e+00	-9.5811778623e-01
 1.1799859800e+00	 2.3431915157e+00	-9.2613810869e-01
 1.1576900088e+00	 2.3542869452e+00	-8.9294390424e-01
 1.1353249771e+00	 2.3651533108e+00	-8.5850828379e-01
 1.3615348595e+00	 2.2563250290e+00	-1.1445559967e+00
 1.3398175562e+00	 2.2692881459e+00	-1.1195140736e+00
 1.3180034350e+00	 2.2820268665e+00	-1.0936104255e+00
 1.2960959073e+00	 2.2945402425e+00	-1.0668668610e+00
 1.2740983931e+00	 2.3068273934e+00	-1.0392748853e+00
 1.2520143198e+00	 2.3188875060e+00	-1.0108038081e+00
 1.2298471206e+00	 2.3307198353e+00	-9.8140852123e-01
 1.2076002323e+00	 2.3423237035e+00	-9.5103688429e-01
 1.1852770944e+00	 2.3536985002e+00	-9.1963666544e-01
 1.1628811470e+00	 2.3648436822e+00	-8.8716198553e-01
 1.1404158294e+00	 2.3757587731e+00	-8.5357922183e-01
 1.3676127941e+00	 2.2663973352e+00	-1.1376684723e+00
 1.3457985441e+00	 2.2794183199e+00	-1.1122807047e+00
 1.3238870440e+00	 2.2922139066e+00	-1.0862076894e+00
 1.3018817204e+00	 2.3047831427e+00	-1.0594590180e+00
 1.2797860086e+00	 2.3171251438e+00	-1.0320126086e+00
 1.2576033513e+00	 2.3292390932e+00	-1.0038231698e+00
 1.2353371970e+00	 2.3411242424e+00	-9.7483031718e-01
 1.2129909979e+00	 2.3527799106e+00	-9.4496628413e-01
 1.1905682088e+00	 2.3642054847e+00	-9.1416316681e-01
 1.1680722852e+00	 2.3754004191e+00	-8.8235965354e-01
 1.1455066817e+00	 2.3863642354e+00	-8.4950719120e-01
 1.0945981586e+00	 2.2803096128e+00	-9.2125421867e-01
 1.0729684477e+00	 2.2905666603e+00	-8.8279153359e-01
 1.0512787265e+00	 2.3006020611e+00	-8.4564066266e-01
 1.0295322854e+00	 2.3104155470e+00	-8.0947802135e-01
 1.0077324079e+00	 2.3200069128e+00	-7.7398715657e-01
 9.8588236949e-01	 2.3293760156e+00	-7.3886505248e-01
 9.6398543602e-01	 2.3385227746e+00	-7.0382755662e-01
 9.4204486232e-01	 2.3474471701e+00	-6.6861394774e-01
 9.2006389087e-01	 2.3561492436e+00	-6.3299067197e-01
 8.9804575040e-01	 2.3646290967e+00	-5.9675427855e-01
 8.7599365461e-01	 2.3728868906e+00	-5.5973359035e-01
 1.0996890109e+00	 2.2909150750e+00	-9.1115864333e-01
 1.0779587027e+00	 2.3012198269e+00	-8.7234981708e-01
 1.0561681050e+00	 2.3113019012e+00	-8.3536013009e-01
 1.0343205237e+00	 2.3211610285e+00	-7.9977437041e-01
 1.0124192574e+00	 2.3307970027e+00	-7.6518432165e-01
 9.9046759696e-01	 2.3402096802e+00	-7.3119523208e-01
 9.6846882332e-01	 2.3493989797e+00	-6.9743137554e-01
 9.4642620649e-01	 2.3583648816e+00	-6.6354072642e-01
 9.2434300403e-01	 2.3671074274e+00	-6.2919877665e-01
 9.0222245968e-01	 2.3756267193e+00	-5.9411152687e-01
 8.8006780208e-01	 2.3839229193e+00	-5.5801768858e-01
 1.1047798633e+00	 2.3015205373e+00	-9.0177253605e-01
 1.0829489576e+00	 2.3118729935e+00	-8.6275725581e-01
 1.0610574836e+00	 2.3220017413e+00	-8.2597435451e-01
 1.0391087619e+00	 2.3319065101e+00	-7.9092862170e-01
 1.0171061069e+00	 2.3415870926e+00	-7.5713237161e-01
 9.9505282442e-01	 2.3510433447e+00	-7.2411205026e-01
 9.7295221062e-01	 2.3602751848e+00	-6.9141390461e-01
 9.5080755067e-01	 2.3692825930e+00	-6.5860873723e-01
 9.2862211718e-01	 2.3780656112e+00	-6.2529577542e-01
 9.0639916895e-01	 2.3866243420e+00	-5.9110568841e-01
 8.8414194955e-01	 2.3949589480e+00	-5.5570279075e-01
 1.1098707156e+00	 2.3121259996e+00	-8.9311144938e-01
 1.0879392126e+00	 2.3225261602e+00	-8.5399875933e-01
 1.0659468621e+00	 2.3327015815e+00	-8.1744546694e-01
 1.0438970002e+00	 2.3426519917e+00	-7.8288785333e-01
 1.0217929565e+00	 2.3523771825e+00	-7.4977091719e-01
 9.9963805188e-01	 2.3618770093e+00	-7.1755509467e-01
 9.7743559792e-01	 2.3711513899e+00	-6.8572201043e-01
 9.5518889484e-01	 2.3802003045e+00	-6.5377928445e-01
 9.3290123034e-01	 2.3890237950e+00	-6.2126442480e-01
 9.1057587823e-01	 2.3976219646e+00	-5.8774784127e-01
 8.8821609703e-01	 2.4059949768e+00	-5.5283501970e-01
 1.1149615679e+00	 2.3227314618e+00	-8.8510499568e-01
 1.0929294676e+00	 2.3331793268e+00	-8.4606514143e-01
 1.0708362406e+00	 2.3434014216e+00	-8.0974168949e-01
 1.0486852385e+00	 2.3533974732e+00	-7.7560526175e-01
 1.0264798060e+00	 2.3631672725e+00	-7.4304555854e-01
 1.0042232793e+00	 2.3727106738e+00	-7.1146966097e-01
 9.8191898522e-01	 2.3820275950e+00	-6.8030783752e-01
 9.5957023901e-01	 2.3911180159e+00	-6.4901837550e-01
 9.3718034350e-01	 2.3999819789e+00	-6.1709146885e-01
 9.1475258751e-01	 2.4086195873e+00	-5.8405219889e-01
 8.9229024450e-01	 2.4170310055e+00	-5.4946264912e-01
 1.1200524202e+00	 2.3333369241e+00	-8.7757869294e-01
 1.0979197225e+00	 2.3438324934e+00	-8.3895313649e-01
 1.0757256191e+00	 2.3541012618e+00	-8.0283734632e-01
 1.0534734768e+00	 2.3641429548e+00	-7.6904017042e-01
 1.0311666555e+00	 2.3739573624e+00	-7.3690789485e-01
 1.0088085068e+00	 2.3835443384e+00	-7.0580676650e-01
 9.8640237252e-01	 2.3929038000e+00	-6.7512882900e-01
 9.6395158318e-01	 2.4020357274e+00	-6.4429675132e-01
 9.4145945666e-01	 2.4109401627e+00	-6.1276768224e-01
 9.1892929679e-01	 2.4196172099e+00	-5.8003616854e-01
 8.9636439197e-01	 2.4280670342e+00	-5.4563618003e-01
 1.1251432725e+00	 2.3439423863e+00	-8.7058838892e-01
 1.1029099775e+00	 2.3544856600e+00	-8.3266541649e-01
 1.0806149977e+00	 2.3648011019e+00	-7.9671287535e-01
 1.0582617151e+00	 2.3748884363e+00	-7.6315803951e-01
 1.0358535050e+00	 2.3847474523e+00	-7.3131553494e-01
 1.0133937343e+00	 2.3943780029e+00	-7.0052316467e-01
 9.9088575982e-01	 2.4037800051e+00	-6.7014774763e-01
 9.6833292736e-01	 2.4129534388e+00	-6.3958991713e-01
 9.4573856982e-01	 2.4218983465e+00	-6.0828791327e-01
 9.2310600606e-01	 2.4306148326e+00	-5.7572040931e-01
 9.0043853944e-01	 2.4391030629e+00	-5.4140841643e-01
 1.1302341248e+00	 2.3545478486e+00	-8.6420573943e-01
 1.1079002325e+00	 2.3651388267e+00	-8.2721060862e-01
 1.0855043762e+00	 2.3755009420e+00	-7.9135484094e-01
 1.0630499534e+00	 2.3856339179e+00	-7.5793047643e-01
 1.0405403545e+00	 2.3955375422e+00	-7.2623210869e-01
 1.0179789617e+00	 2.4052116675e+00	-6.9558136016e-01
 9.9536914712e-01	 2.4146562102e+00	-6.6533269771e-01
 9.7271427153e-01	 2.4238711503e+00	-6.3487817348e-01
 9.5001768298e-01	 2.4328565303e+00	-6.0365112694e-01
 9.2728271534e-01	 2.4416124552e+00	-5.7112888977e-01
 9.0451268691e-01	 2.4501390916e+00	-5.3683454004e-01
 1.1353249771e+00	 2.3651533108e+00	-8.5850828379e-01
 1.1128904874e+00	 2.3757919933e+00	-8.2258659842e-01
 1.0903937547e+00	 2.3862007822e+00	-7.8675594715e-01
 1.0678381917e+00	 2.3963793994e+00	-7.5333524720e-01
 1.0452272041e+00	 2.4063276321e+00	-7.2162727930e-01
 1.0225641892e+00	 2.4160453321e+00	-6.9094962490e-01
 9.9985253442e-01	 2.4255324153e+00	-6.6065714734e-01
 9.7709561570e-01	 2.4347888617e+00	-6.3014664772e-01
 9.5429679614e-01	 2.4438147141e+00	-5.9886044805e-01
 9.3145942462e-01	 2.4526100779e+00	-5.6628894522e-01
 9.0858683439e-01	 2.4611751203e+00	-5.3197218419e-01
 1.1404158294e+00	 2.3757587731e+00	-8.5357922183e-01
 1.1178807424e+00	 2.3864451599e+00	-8.1863338699e-01
 1.0952831332e+00	 2.3969006223e+00	-7.8291505191e-01
 1.0726264300e+00	 2.4071248810e+00	-7.4935628867e-01
 1.0499140536e+00	 2.4171177220e+00	-7.1747675639e-01
 1.0271494167e+00	 2.4268789966e+00	-6.8660201472e-01
 1.0043359217e+00	 2.4364086204e+00	-6.5609995140e-01
 9.8147695987e-01	 2.4457065732e+00	-6.2538532570e-01
 9.5857590930e-01	 2.4547728979e+00	-5.9392320426e-01
 9.3563613389e-01	 2.4636077005e+00	-5.6123133460e-01
 9.1266098186e-01	 2.4722111490e+00	-5.2688150687e-01
 1.1455066817e+00	 2.3863642354e+00	-8.4950719120e-01
 1.1228709974e+00	 2.3970983265e+00	-8.1535423615e-01
 1.1001725118e+00	 2.4076004625e+00	-7.7983718184e-01
 1.0774146682e+00	 2.4178703625e+00	-7.4598372155e-01
 1.0546009031e+00	 2.4279078119e+00	-7.1376230989e-01
 1.0317346441e+00	 2.4377126612e+00	-6.8251838677e-01
 1.0088193090e+00	 2.4472848255e+00	-6.5164537498e-01
 9.8585830405e-01	 2.4566242846e+00	-6.2058908386e-01
 9.6285502246e-01	 2.4657310817e+00	-5.8885096924e-01
 9.3981284317e-01	 2.4746053232e+00	-5.5599029702e-01
 9.1673512933e-01	 2.4832471778e+00	-5.2162526304e-01
 8.7599365461e-01	 2.3728868906e+00	-5.5973359035e-01
 8.5391455674e-01	 2.3809214982e+00	-5.2318305984e-01
 8.3180788838e-01	 2.3887346191e+00	-4.8801088250e-01
 8.0967680772e-01	 2.3963265875e+00	-4.5359566032e-01
 7.8752445291e-01	 2.4036977946e+00	-4.1934940482e-01
 7.6535394084e-01	 2.4108486875e+00	-3.8471731138e-01
 7.4316836598e-01	 2.4177797683e+00	-3.4917703152e-01
 7.2097079925e-01	 2.4244915939e+00	-3.1347390387e-01
 6.9876428691e-01	 2.4309847742e+00	-2.7929536646e-01
 6.7655184950e-01	 2.4372599721e+00	-2.4668123496e-01
 6.5433648080e-01	 2.4433179020e+00	-2.1566319272e-01
 8.8006780208e-01	 2.3839229193e+00	-5.5801768858e-01
 8.5788601683e-01	 2.3919948950e+00	-5.2208383827e-01
 8.3567653285e-01	 2.3998443538e+00	-4.8722554978e-01
 8.1344252303e-01	 2.4074716316e+00	-4.5287717254e-01
 7.9118714012e-01	 2.4148771214e+00	-4.1851028367e-01
 7.6891351551e-01	 2.4220612722e+00	-3.8363315062e-01
 7.4662475805e-01	 2.4290245888e+00	-3.4778967761e-01
 7.2432395294e-01	 2.4357676302e+00	-3.1140249990e-01
 7.0201416062e-01	 2.4422910096e+00	-2.7648985100e-01
 6.7969841568e-01	 2.4485953927e+00	-2.4325052345e-01
 6.5737972581e-01	 2.4546814974e+00	-2.1178825880e-01
 8.8414194955e-01	 2.3949589480e+00	-5.5570279075e-01
 8.6185747691e-01	 2.4030682917e+00	-5.2020785374e-01
 8.3954517731e-01	 2.4109540885e+00	-4.8557068606e-01
 8.1720823834e-01	 2.4186166757e+00	-4.5127424914e-01
 7.9484982734e-01	 2.4260564481e+00	-4.1684190040e-01
 7.7247309018e-01	 2.4332738569e+00	-3.8183655906e-01
 7.5008115011e-01	 2.4402694092e+00	-3.4585934166e-01
 7.2767710663e-01	 2.4470436666e+00	-3.0907716237e-01
 7.0526403434e-01	 2.4535972450e+00	-2.7368160520e-01
 6.8284498186e-01	 2.4599308134e+00	-2.4008797305e-01
 6.6042297082e-01	 2.4660450928e+00	-2.0845969030e-01
 8.8821609703e-01	 2.4059949768e+00	-5.5283501970e-01
 8.6582893700e-01	 2.4141416885e+00	-5.1763418335e-01
 8.4341382178e-01	 2.4220638232e+00	-4.8314766474e-01
 8.2097395366e-01	 2.4297617198e+00	-4.4890011108e-01
 7.9851251455e-01	 2.4372357749e+00	-4.1445909208e-01
 7.7603266484e-01	 2.4444864417e+00	-3.7943398330e-01
 7.5353754218e-01	 2.4515142296e+00	-3.4347430527e-01
 7.3103026033e-01	 2.4583197029e+00	-3.0655684019e-01
 7.0851390805e-01	 2.4649034804e+00	-2.7089326216e-01
 6.8599154804e-01	 2.4712662340e+00	-2.3717112486e-01
 6.6346621583e-01	 2.4774086882e+00	-2.0560138073e-01
 8.9229024450e-01	 2.4170310055e+00	-5.4946264912e-01
 8.6980039708e-01	 2.4252150853e+00	-5.1444310088e-01
 8.4728246625e-01	 2.4331735579e+00	-4.8005829032e-01
 8.2473966897e-01	 2.4409067639e+00	-4.4586783145e-01
 8.0217520177e-01	 2.4484151016e+00	-4.1147615345e-01
 7.7959223951e-01	 2.4556990264e+00	-3.7653111556e-01
 7.5699393425e-01	 2.4627590500e+00	-3.4072206388e-01
 7.3438341402e-01	 2.4695957393e+00	-3.0389971157e-01
 7.1176378177e-01	 2.4762097158e+00	-2.6814696540e-01
 6.8913811422e-01	 2.4826016546e+00	-2.3447749545e-01
 6.6650946084e-01	 2.4887722835e+00	-2.0313784501e-01
 8.9636439197e-01	 2.4280670342e+00	-5.4563618003e-01
 8.7377185716e-01	 2.4362884820e+00	-5.1071617038e-01
 8.5115111072e-01	 2.4442832926e+00	-4.7640490453e-01
 8.2850538428e-01	 2.4520518080e+00	-4.4229044959e-01
 8.0583788898e-01	 2.4595944283e+00	-4.0800695466e-01
 7.8315181418e-01	 2.4669116112e+00	-3.7323301067e-01
 7.6045032632e-01	 2.4740038704e+00	-3.3768943865e-01
 7.3773656772e-01	 2.4808717756e+00	-3.0116328803e-01
 7.1501365548e-01	 2.4875159512e+00	-2.6546445832e-01
 6.9228468039e-01	 2.4939370753e+00	-2.3198464795e-01
 6.6955270585e-01	 2.5001358789e+00	-2.0099426829e-01
 9.0043853944e-01	 2.4391030629e+00	-5.4140841643e-01
 8.7774331725e-01	 2.4473618788e+00	-5.0653633843e-01
 8.5501975519e-01	 2.4553930273e+00	-4.7229049068e-01
 8.3227109960e-01	 2.4631968521e+00	-4.3828108323e-01
 8.0950057620e-01	 2.4707737551e+00	-4.0416505681e-01
 7.8671138885e-01	 2.4781241959e+00	-3.6964420085e-01
 7.6390671838e-01	 2.4852486908e+00	-3.3446268632e-01
 7.4108972141e-01	 2.4921478120e+00	-2.9840407886e-01
 7.1826352920e-01	 2.4988221866e+00	-2.6286717231e-01
 6.9543124657e-01	 2.5052724959e+00	-2.2967026212e-01
 6.7259595086e-01	 2.5114994743e+00	-1.9909655435e-01
 9.0451268691e-01	 2.4501390916e+00	-5.3683454004e-01
 8.8171477733e-01	 2.4584352756e+00	-5.0198802503e-01
 8.5888839965e-01	 2.4665027620e+00	-4.6781877641e-01
 8.3603681491e-01	 2.4743418962e+00	-4.3395303873e-01
 8.1316326341e-01	 2.4819530818e+00	-4.0006382560e-01
 7.9027096352e-01	 2.4893367806e+00	-3.6586880850e-01
 7.6736311045e-01	 2.4964935112e+00	-3.3112760716e-01
 7.4444287510e-01	 2.5034238483e+00	-2.9563854915e-01
 7.2151340291e-01	 2.5101284220e+00	-2.6037631340e-01
 6.9857781275e-01	 2.5166079165e+00	-2.2751220348e-01
 6.7563919587e-01	 2.5228630697e+00	-1.9737137353e-01
 9.0858683439e-01	 2.4611751203e+00	-5.3197218419e-01
 8.8568623741e-01	 2.4695086723e+00	-4.9715721315e-01
 8.6275704412e-01	 2.4776124967e+00	-4.6309433471e-01
 8.3980253022e-01	 2.4854869403e+00	-4.2941991949e-01
 8.1682595062e-01	 2.4931324086e+00	-3.9581654292e-01
 7.9383053819e-01	 2.5005493654e+00	-3.6201065708e-01
 7.7081950252e-01	 2.5077383316e+00	-3.2776965109e-01
 7.4779602880e-01	 2.5146998847e+00	-2.9289836968e-01
 7.2476327662e-01	 2.5214346574e+00	-2.5801294763e-01
 7.0172437893e-01	 2.5279433372e+00	-2.2548859154e-01
 6.7868244088e-01	 2.5342266651e+00	-1.9574621032e-01
 9.1266098186e-01	 2.4722111490e+00	-5.2688150687e-01
 8.8965769750e-01	 2.4805820691e+00	-4.9213153711e-01
 8.6662568859e-01	 2.4887222314e+00	-4.5822268346e-01
 8.4356824554e-01	 2.4966319844e+00	-4.2479573255e-01
 8.2048863784e-01	 2.5043117353e+00	-3.9153651658e-01
 7.9739011286e-01	 2.5117619501e+00	-3.5817338003e-01
 7.7427589459e-01	 2.5189831521e+00	-3.2447402198e-01
 7.5114918249e-01	 2.5259759211e+00	-2.9024178591e-01
 7.2801315034e-01	 2.5327408928e+00	-2.5579808511e-01
 7.0487094511e-01	 2.5392787578e+00	-2.2357786708e-01
 6.8172568589e-01	 2.5455902605e+00	-1.9414941051e-01
 9.1673512933e-01	 2.4832471778e+00	-5.2162526304e-01
 8.9362915758e-01	 2.4916554659e+00	-4.8700036969e-01
 8.7049433306e-01	 2.4998319662e+00	-4.5331038337e-01
 8.4733396085e-01	 2.5077770285e+00	-4.2019499348e-01
 8.2415132505e-01	 2.5154910621e+00	-3.8733718824e-01
 8.0094968753e-01	 2.5229745349e+00	-3.5446052785e-01
 7.7773228665e-01	 2.5302279725e+00	-3.2132578021e-01
 7.5450233618e-01	 2.5372519574e+00	-2.8772699364e-01
 7.3126302405e-01	 2.5440471282e+00	-2.5375276287e-01
 7.0801751129e-01	 2.5506141785e+00	-2.2175885866e-01
 6.8476893090e-01	 2.5569538559e+00	-1.9251022795e-01
 6.5433648080e-01	 2.4433179020e+00	-2.1566319272e-01
 6.3212114710e-01	 2.4491593298e+00	-1.8571385202e-01
 6.0990878716e-01	 2.4547850731e+00	-1.5630846738e-01
 5.8770231026e-01	 2.4601959991e+00	-1.2748113845e-01
 5.6550459500e-01	 2.4653930229e+00	-9.9255103983e-02
 5.4331848843e-01	 2.4703771063e+00	-7.1640432757e-02
 5.2114680523e-01	 2.4751492571e+00	-4.4632170438e-02
 4.9899232685e-01	 2.4797105278e+00	-1.8208934597e-02
 4.7685780079e-01	 2.4840620148e+00	 7.6680522208e-03
 4.5474593986e-01	 2.4882048570e+00	 3.3055503480e-02
 4.3265942142e-01	 2.4921402353e+00	 5.8028197775e-02
 6.5737972581e-01	 2.4546814974e+00	-2.1178825880e-01
 6.3506107111e-01	 2.4605500930e+00	-1.8156616773e-01
 6.1274540399e-01	 2.4662020010e+00	-1.5199364381e-01
 5.9043564727e-01	 2.4716380926e+00	-1.2308837093e-01
 5.6813469295e-01	 2.4768592872e+00	-9.4852597950e-02
 5.4584540131e-01	 2.4818665510e+00	-6.7270860036e-02
 5.2357060011e-01	 2.4866608965e+00	-4.0308173277e-02
 5.0131308376e-01	 2.4912433812e+00	-1.3908694146e-02
 4.7907561253e-01	 2.4956151064e+00	 1.2005166716e-02
 4.5686091182e-01	 2.4997772166e+00	 3.7533189145e-02
 4.3467167148e-01	 2.5037308978e+00	 6.2797361237e-02
 6.6042297082e-01	 2.4660450928e+00	-2.0845969030e-01
 6.3800099511e-01	 2.4719408562e+00	-1.7821388098e-01
 6.1558202082e-01	 2.4776189289e+00	-1.4867217041e-01
 5.9316898429e-01	 2.4830801861e+00	-1.1984507924e-01
 5.7076479090e-01	 2.4883255515e+00	-9.1723424282e-02
 5.4837231419e-01	 2.4933559957e+00	-6.4276049709e-02
 5.2599439500e-01	 2.4981725360e+00	-3.7448048950e-02
 5.0363384067e-01	 2.5027762346e+00	-1.1159468647e-02
 4.8129342426e-01	 2.5071681981e+00	 1.4695516510e-02
 4.5897588379e-01	 2.5113495761e+00	 4.0248971328e-02
 4.3668392155e-01	 2.5153215603e+00	 6.5659125398e-02
 6.6346621583e-01	 2.4774086882e+00	-2.0560138073e-01
 6.4094091911e-01	 2.4833316194e+00	-1.7552710014e-01
 6.1841863765e-01	 2.4890358568e+00	-1.4616842093e-01
 5.9590232130e-01	 2.4945222797e+00	-1.1753782593e-01
 5.7339488885e-01	 2.4997918158e+00	-8.9624124968e-02
 5.5089922706e-01	 2.5048454404e+00	-6.2390175228e-02
 5.2841818988e-01	 2.5096841754e+00	-3.5771110341e-02
 5.0595459758e-01	 2.5143090879e+00	-9.6730689179e-03
 4.8351123599e-01	 2.5187212897e+00	 1.6027589012e-02
 4.6109085575e-01	 2.5229219356e+00	 4.1484591535e-02
 4.3869617161e-01	 2.5269122229e+00	 6.6881606300e-02
 6.6650946084e-01	 2.4887722835e+00	-2.0313784501e-01
 6.4388084312e-01	 2.4947223826e+00	-1.7337722893e-01
 6.2125525448e-01	 2.5004527847e+00	-1.4430861755e-01
 5.9863565832e-01	 2.5059643732e+00	-1.1595545739e-01
 5.7602498680e-01	 2.5112580800e+00	-8.8313846472e-02
 5.5342613994e-01	 2.5163348851e+00	-6.1350223615e-02
 5.3084198477e-01	 2.5211958148e+00	-3.4999584526e-02
 5.0827535449e-01	 2.5258419413e+00	-9.1642152799e-03
 4.8572904772e-01	 2.5302743814e+00	 1.6287068970e-02
 4.6320582772e-01	 2.5344942952e+00	 4.1519194416e-02
 4.4070842168e-01	 2.5385028854e+00	 6.6730624693e-02
 6.6955270585e-01	 2.5001358789e+00	-2.0099426829e-01
 6.4682076712e-01	 2.5061131458e+00	-1.7163699259e-01
 6.2409187130e-01	 2.5118697126e+00	-1.4292083761e-01
 6.0136899533e-01	 2.5174064667e+00	-1.1488909396e-01
 5.7865508475e-01	 2.5227243443e+00	-8.7554316347e-02
 5.5595305282e-01	 2.5278243298e+00	-6.0895961358e-02
 5.3326577965e-01	 2.5327074542e+00	-3.4858570782e-02
 5.1059611140e-01	 2.5373747947e+00	-9.3504904213e-03
 4.8794685945e-01	 2.5418274730e+00	 1.5756888062e-02
 4.6532079968e-01	 2.5460666547e+00	 4.0629377199e-02
 4.4272067174e-01	 2.5500935479e+00	 6.5469752769e-02
 6.7259595086e-01	 2.5114994743e+00	-1.9909655435e-01
 6.4976069113e-01	 2.5175039090e+00	-1.7018046430e-01
 6.2692848813e-01	 2.5232866405e+00	-1.4183502091e-01
 6.0410233235e-01	 2.5288485602e+00	-1.1413212121e-01
 5.8128518270e-01	 2.5341906086e+00	-8.7109821155e-02
 5.5847996569e-01	 2.5393137744e+00	-6.0769901875e-02
 5.3568957453e-01	 2.5442190936e+00	-3.5076000319e-02
 5.1291686831e-01	 2.5489076481e+00	-9.9522940737e-03
 4.9016467118e-01	 2.5533805647e+00	 1.4717272668e-02
 4.6743577165e-01	 2.5576390143e+00	 3.9089237354e-02
 4.4473292181e-01	 2.5616842105e+00	 6.3360359236e-02
 6.7563919587e-01	 2.5228630697e+00	-1.9737137353e-01
 6.5270061513e-01	 2.5288946722e+00	-1.6888309164e-01
 6.2976510496e-01	 2.5347035684e+00	-1.4088297761e-01
 6.0683566936e-01	 2.5402906537e+00	-1.1348018199e-01
 5.8391528065e-01	 2.5456568729e+00	-8.6747185649e-02
 5.6100687857e-01	 2.5508032191e+00	-6.0717274456e-02
 5.3811336942e-01	 2.5557307331e+00	-3.5382597659e-02
 5.1523762522e-01	 2.5604405014e+00	-1.0692799431e-02
 4.9238248291e-01	 2.5649336563e+00	 1.3445789862e-02
 4.6955074361e-01	 2.5692113738e+00	 3.7170418529e-02
 4.4674517187e-01	 2.5732748730e+00	 6.0661652786e-02
 6.7868244088e-01	 2.5342266651e+00	-1.9574621032e-01
 6.5564053913e-01	 2.5402854354e+00	-1.6762172317e-01
 6.3260172179e-01	 2.5461204963e+00	-1.3989839667e-01
 6.0956900638e-01	 2.5517327472e+00	-1.1273116957e-01
 5.8654537860e-01	 2.5571231371e+00	-8.6235753189e-02
 5.6353379145e-01	 2.5622926638e+00	-6.0485994672e-02
 5.4053716430e-01	 2.5672423725e+00	-3.5511843625e-02
 5.1755838213e-01	 2.5719733548e+00	-1.1297911265e-02
 4.9460029464e-01	 2.5764867480e+00	 1.2217391704e-02
 4.7166571558e-01	 2.5807837333e+00	 3.5142154822e-02
 4.4875742194e-01	 2.5848655355e+00	 5.7630723990e-02
 6.8172568589e-01	 2.5455902605e+00	-1.9414941051e-01
 6.5858046314e-01	 2.5516761986e+00	-1.6627463514e-01
 6.3543833862e-01	 2.5575374242e+00	-1.3871685488e-01
 6.1230234339e-01	 2.5631748407e+00	-1.1168522161e-01
 5.8917547655e-01	 2.5685894014e+00	-8.5347367333e-02
 5.6606070432e-01	 2.5737821085e+00	-5.9826636171e-02
 5.4296095919e-01	 2.5787540119e+00	-3.5199939883e-02
 5.1987913904e-01	 2.5835062082e+00	-1.1496225672e-02
 4.9681810637e-01	 2.5880398396e+00	 1.1304457864e-02
 4.7378068754e-01	 2.5923560929e+00	 3.3271313435e-02
 4.5076967200e-01	 2.5964561981e+00	 5.4772515518e-02
 6.8476893090e-01	 2.5569538559e+00	-1.9251022795e-01
 6.6152038714e-01	 2.5630669618e+00	-1.6472155830e-01
 6.3827495545e-01	 2.5689543521e+00	-1.3717582629e-01
 6.1503568041e-01	 2.5746169342e+00	-1.1014471496e-01
 5.9180557450e-01	 2.5800556657e+00	-8.3856354586e-02
 5.6858761720e-01	 2.5852715532e+00	-5.8492403857e-02
 5.4538475407e-01	 2.5902656513e+00	-3.4185774997e-02
 5.2219989595e-01	 2.5950390615e+00	-1.0968982309e-02
 4.9903591810e-01	 2.5995929312e+00	 1.1513937068e-02
 4.7589565951e-01	 2.6039284524e+00	 3.3579655440e-02
 4.5278192206e-01	 2.6080468606e+00	 5.5529853595e-02
 4.3265942142e-01	 2.4921402353e+00	 5.8028197775e-02
 4.1059714012e-01	 2.4958699869e+00	 8.2133586379e-02
 3.8856546385e-01	 2.4993946852e+00	 1.0495454224e-01
 3.6656696686e-01	 2.5027156282e+00	 1.2666345763e-01
 3.4460418540e-01	 2.5058341510e+00	 1.4769673114e-01
 3.2267961715e-01	 2.5087516253e+00	 1.6803481413e-01
 3.0079572073e-01	 2.5114694577e+00	 1.8743559687e-01
 2.7895491524e-01	 2.5139890890e+00	 2.0567751005e-01
 2.5715957984e-01	 2.5163119927e+00	 2.2255545475e-01
 2.3541205334e-01	 2.5184396741e+00	 2.3787619958e-01
 2.1371463383e-01	 2.5203736693e+00	 2.5145333620e-01
 4.3467167148e-01	 2.5037308978e+00	 6.2797361237e-02
 4.1250678101e-01	 2.5074779961e+00	 8.7352261861e-02
 3.9037263790e-01	 2.5110190874e+00	 1.1072103903e-01
 3.6827182839e-01	 2.5143554757e+00	 1.3302289121e-01
 3.4620690052e-01	 2.5174885024e+00	 1.5465899744e-01
 3.2418036358e-01	 2.5204195455e+00	 1.7564227483e-01
 3.0219468762e-01	 2.5231500183e+00	 1.9570207136e-01
 2.8025230302e-01	 2.5256813681e+00	 2.1459316943e-01
 2.5835559998e-01	 2.5280150753e+00	 2.3209131087e-01
 2.3650692819e-01	 2.5301526524e+00	 2.4798817303e-01
 2.1470859643e-01	 2.5320956424e+00	 2.6208589072e-01
 4.3668392155e-01	 2.5153215603e+00	 6.5659125398e-02
 4.1441642189e-01	 2.5190860053e+00	 9.0467755251e-02
 3.9217981195e-01	 2.5226434896e+00	 1.1412966733e-01
 3.6997668992e-01	 2.5259953231e+00	 1.3671981279e-01
 3.4780961563e-01	 2.5291428538e+00	 1.5859440953e-01
 3.2568111000e-01	 2.5320874658e+00	 1.7981469492e-01
 3.0359365452e-01	 2.5348305789e+00	 2.0008953384e-01
 2.8154969080e-01	 2.5373736472e+00	 2.1915830328e-01
 2.5955162012e-01	 2.5397181580e+00	 2.3678598803e-01
 2.3760180304e-01	 2.5418656306e+00	 2.5275771137e-01
 2.1570255903e-01	 2.5438176154e+00	 2.6687279888e-01
 4.3869617161e-01	 2.5269122229e+00	 6.6881606300e-02
 4.1632606278e-01	 2.5306940145e+00	 9.1731323368e-02
 3.9398698600e-01	 2.5342678917e+00	 1.1541507836e-01
 3.7168155145e-01	 2.5376351706e+00	 1.3797199226e-01
 3.4941233075e-01	 2.5407972052e+00	 1.5970623404e-01
 3.2718185643e-01	 2.5437553860e+00	 1.8073900236e-01
 3.0499262141e-01	 2.5465111394e+00	 2.0076787512e-01
 2.8284707857e-01	 2.5490659262e+00	 2.1952506874e-01
 2.6074764025e-01	 2.5514212406e+00	 2.3677322013e-01
 2.3869667789e-01	 2.5535786089e+00	 2.5229944716e-01
 2.1669652164e-01	 2.5555395885e+00	 2.6590892954e-01
 4.4070842168e-01	 2.5385028854e+00	 6.6730624693e-02
 4.1823570367e-01	 2.5423020237e+00	 9.1392258351e-02
 3.9579416005e-01	 2.5458922939e+00	 1.1481025458e-01
 3.7338641298e-01	 2.5492750181e+00	 1.3699375631e-01
 3.5101504586e-01	 2.5524515566e+00	 1.5819653865e-01
 3.2868260285e-01	 2.5554233062e+00	 1.7860125326e-01
 3.0639158831e-01	 2.5581917000e+00	 1.9790638974e-01
 2.8414446635e-01	 2.5607582053e+00	 2.1584525340e-01
 2.6194366039e-01	 2.5631243232e+00	 2.3218655212e-01
 2.3979155274e-01	 2.5652915871e+00	 2.4672796131e-01
 2.1769048424e-01	 2.5672615615e+00	 2.5928919667e-01
 4.4272067174e-01	 2.5500935479e+00	 6.5469752769e-02
 4.2014534456e-01	 2.5539100329e+00	 8.9697930668e-02
 3.9760133410e-01	 2.5575166961e+00	 1.1254654936e-01
 3.7509127451e-01	 2.5609148656e+00	 1.3400043264e-01
 3.5261776097e-01	 2.5641059079e+00	 1.5426620588e-01
 3.3018334927e-01	 2.5670912265e+00	 1.7358664626e-01
 3.0779055521e-01	 2.5698722606e+00	 1.9167379091e-01
 2.8544185413e-01	 2.5724504844e+00	 2.0827029085e-01
 2.6313968053e-01	 2.5748274059e+00	 2.2315935606e-01
 2.4088642759e-01	 2.5770045654e+00	 2.3615779958e-01
 2.1868444684e-01	 2.5789835346e+00	 2.4710857638e-01
 4.4473292181e-01	 2.5616842105e+00	 6.3360359236e-02
 4.2205498544e-01	 2.5655180421e+00	 8.6893830591e-02
 3.9940850816e-01	 2.5691410982e+00	 1.0885372526e-01
 3.7679613603e-01	 2.5725547131e+00	 1.2920613460e-01
 3.5422047609e-01	 2.5757602593e+00	 1.4811494574e-01
 3.3168409570e-01	 2.5787591467e+00	 1.6587953579e-01
 3.0918952210e-01	 2.5815528211e+00	 1.8223822445e-01
 2.8673924191e-01	 2.5841427635e+00	 1.9695127515e-01
 2.6433570066e-01	 2.5865304885e+00	 2.0982484628e-01
 2.4198130244e-01	 2.5887175436e+00	 2.2070348833e-01
 2.1967840945e-01	 2.5907055076e+00	 2.2946212305e-01
 4.4674517187e-01	 2.5732748730e+00	 6.0661652786e-02
 4.2396462633e-01	 2.5771260513e+00	 8.3223608206e-02
 4.0121568221e-01	 2.5807655004e+00	 1.0395999102e-01
 3.7850099756e-01	 2.5841945606e+00	 1.2282367582e-01
 3.5582319120e-01	 2.5874146107e+00	 1.3994130724e-01
 3.3318484212e-01	 2.5904270669e+00	 1.5566344431e-01
 3.1058848900e-01	 2.5932333817e+00	 1.6978201476e-01
 2.8803662969e-01	 2.5958350426e+00	 1.8245137204e-01
 2.6553172080e-01	 2.5982335712e+00	 1.9367172026e-01
 2.4307617729e-01	 2.6004305219e+00	 2.0330521444e-01
 2.2067237205e-01	 2.6024274807e+00	 2.1122243212e-01
 4.4875742194e-01	 2.5848655355e+00	 5.7630723990e-02
 4.2587426722e-01	 2.5887340604e+00	 7.8929111984e-02
 4.0302285626e-01	 2.5923899025e+00	 9.8092037101e-02
 3.8020585909e-01	 2.5958344081e+00	 1.1533759382e-01
 3.5742590632e-01	 2.5990689621e+00	 1.3116545787e-01
 3.3468558855e-01	 2.6020949872e+00	 1.4604739079e-01
 3.1198745589e-01	 2.6049139422e+00	 1.5985196281e-01
 2.8933401746e-01	 2.6075273217e+00	 1.7240380685e-01
 2.6672774094e-01	 2.6099366538e+00	 1.8354963514e-01
 2.4417105214e-01	 2.6121435001e+00	 1.9315163864e-01
 2.2166633465e-01	 2.6141494537e+00	 2.0108128152e-01
 4.5076967200e-01	 2.5964561981e+00	 5.4772515518e-02
 4.2778390811e-01	 2.6003420696e+00	 7.5430795434e-02
 4.0483003031e-01	 2.6040143047e+00	 9.4431757705e-02
 3.8191072062e-01	 2.6074742556e+00	 1.1184573302e-01
 3.5902862143e-01	 2.6107233135e+00	 1.2783506392e-01
 3.3618633497e-01	 2.6137629074e+00	 1.4288061377e-01
 3.1338642279e-01	 2.6165945028e+00	 1.5688000947e-01
 2.9063140524e-01	 2.6192196007e+00	 1.6966074500e-01
 2.6792376107e-01	 2.6216397365e+00	 1.8107295348e-01
 2.4526592699e-01	 2.6238564784e+00	 1.9098292289e-01
 2.2266029726e-01	 2.6258714268e+00	 1.9926701241e-01
 4.5278192206e-01	 2.6080468606e+00	 5.5529853595e-02
 4.2969354899e-01	 2.6119500788e+00	 7.6702357734e-02
 4.0663720436e-01	 2.6156387069e+00	 9.6251728587e-02
 3.8361558215e-01	 2.6191141031e+00	 1.1423380021e-01
 3.6063133654e-01	 2.6223776649e+00	 1.3077397850e-01
 3.3768708140e-01	 2.6254308276e+00	 1.4635297054e-01
 3.1478538969e-01	 2.6282750634e+00	 1.6090426392e-01
 2.9192879302e-01	 2.6309118798e+00	 1.7426227399e-01
 2.6911978121e-01	 2.6333428191e+00	 1.8628455347e-01
 2.4636080183e-01	 2.6355694566e+00	 1.9684542819e-01
 2.2365425986e-01	 2.6375933998e+00	 2.0583003906e-01
 2.1371463383e-01	 2.5203736693e+00	 2.5145333620e-01
 1.9207324452e-01	 2.5221152641e+00	 2.6364037993e-01
 1.7048636552e-01	 2.5236663962e+00	 2.7490961065e-01
 1.4895612055e-01	 2.5250286858e+00	 2.8523739769e-01
 1.2748459286e-01	 2.5262037791e+00	 2.9458079455e-01
 1.0607382496e-01	 2.5271933474e+00	 3.0287144009e-01
 8.4725818494e-02	 2.5279990860e+00	 3.1000951781e-01
 6.3442534029e-02	 2.5286227132e+00	 3.1585784251e-01
 4.2225890954e-02	 2.5290659692e+00	 3.2023613895e-01
 2.1077767367e-02	 2.5293306150e+00	 3.2291557334e-01
 0.0000000000e+00	 2.5294184314e+00	 3.2361359298e-01
 2.1470859643e-01	 2.5320956424e+00	 2.6208589072e-01
 1.9296655547e-01	 2.5338453371e+00	 2.7473156221e-01
 1.7127927833e-01	 2.5354036834e+00	 2.8640618546e-01
 1.4964889863e-01	 2.5367723088e+00	 2.9710140546e-01
 1.2807750929e-01	 2.5379528673e+00	 3.0679159197e-01
 1.0656716233e-01	 2.5389470380e+00	 3.1542726280e-01
 8.5119868699e-02	 2.5397565240e+00	 3.2292857082e-01
 6.3737598084e-02	 2.5403830516e+00	 3.2917892658e-01
 4.2422278800e-02	 2.5408283692e+00	 3.3401882360e-01
 2.1175797680e-02	 2.5410942458e+00	 3.3723992914e-01
 0.0000000000e+00	 2.5411824706e+00	 3.3857949820e-01
 2.1570255903e-01	 2.5438176154e+00	 2.6687279888e-01
 1.9385986641e-01	 2.5455754101e+00	 2.7948306053e-01
 1.7207219114e-01	 2.5471409705e+00	 2.9108630533e-01
 1.5034167671e-01	 2.5485159318e+00	 3.0169378724e-01
 1.2867042572e-01	 2.5497019556e+00	 3.1130140111e-01
 1.0706049970e-01	 2.5507007286e+00	 3.1988261350e-01
 8.5513918904e-02	 2.5515139620e+00	 3.2738146350e-01
 6.4032662138e-02	 2.5521433900e+00	 3.3370570762e-01
 4.2618666645e-02	 2.5525907691e+00	 3.3872017871e-01
 2.1273827994e-02	 2.5528578766e+00	 3.4224042357e-01
 0.0000000000e+00	 2.5529465098e+00	 3.4402667933e-01
 2.1669652164e-01	 2.5555395885e+00	 2.6590892954e-01
 1.9475317736e-01	 2.5573054831e+00	 2.7796771515e-01
 1.7286510396e-01	 2.5588782576e+00	 2.8899695764e-01
 1.5103445479e-01	 2.5602595548e+00	 2.9903194995e-01
 1.2926334215e-01	 2.5614510438e+00	 3.0809442127e-01
 1.0755383707e-01	 2.5624544192e+00	 3.1618496072e-01
 8.5907969108e-02	 2.5632714000e+00	 3.2327551729e-01
 6.4327726193e-02	 2.5639037284e+00	 3.2930205320e-01
 4.2815054491e-02	 2.5643531691e+00	 3.3415742283e-01
 2.1371858307e-02	 2.5646215074e+00	 3.3768454430e-01
 0.0000000000e+00	 2.5647105490e+00	 3.3966992598e-01
 2.1769048424e-01	 2.5672615615e+00	 2.5928919667e-01
 1.9564648831e-01	 2.5690355561e+00	 2.7025850038e-01
 1.7365801677e-01	 2.5706155448e+00	 2.8018537672e-01
 1.5172723286e-01	 2.5720031778e+00	 2.8913368589e-01
 1.2985625858e-01	 2.5732001320e+00	 2.9715540297e-01
 1.0804717444e-01	 2.5742081098e+00	 3.0428251897e-01
 8.6302019313e-02	 2.5750288380e+00	 3.1051902514e-01
 6.4622790247e-02	 2.5756640669e+00	 3.1583306028e-01
 4.3011442337e-02	 2.5761155690e+00	 3.2014929577e-01
 2.1469888621e-02	 2.5763851382e+00	 3.2334162790e-01
 0.0000000000e+00	 2.5764745882e+00	 3.2522624168e-01
 2.1868444684e-01	 2.5789835346e+00	 2.4710857638e-01
 1.9653979926e-01	 2.5807656291e+00	 2.5642854124e-01
 1.7445092959e-01	 2.5823528319e+00	 2.6469905866e-01
 1.5242001094e-01	 2.5837468008e+00	 2.7201718440e-01
 1.3044917501e-01	 2.5849492202e+00	 2.7846965485e-01
 1.0854051181e-01	 2.5859618004e+00	 2.8412424962e-01
 8.6696069517e-02	 2.5867862760e+00	 2.8902124486e-01
 6.4917854301e-02	 2.5874244053e+00	 2.9316503968e-01
 4.3207830183e-02	 2.5878779690e+00	 2.9651603295e-01
 2.1567918934e-02	 2.5881487689e+00	 2.9898282255e-01
 0.0000000000e+00	 2.5882386274e+00	 3.0041479357e-01
 2.1967840945e-01	 2.5907055076e+00	 2.2946212305e-01
 1.9743311021e-01	 2.5924957021e+00	 2.3655112938e-01
 1.7524384240e-01	 2.5940901191e+00	 2.4271163479e-01
 1.5311278902e-01	 2.5954904238e+00	 2.4819991673e-01
 1.3104209144e-01	 2.5966983085e+00	 2.5307894065e-01
 1.0903384918e-01	 2.5977154910e+00	 2.5738673015e-01
 8.7090119722e-02	 2.5985437140e+00	 2.6113183549e-01
 6.5212918356e-02	 2.5991847437e+00	 2.6428846764e-01
 4.3404218029e-02	 2.5996403689e+00	 2.6679176643e-01
 2.1665949248e-02	 2.5999123997e+00	 2.6853317798e-01
 0.0000000000e+00	 2.6000026667e+00	 2.6935591868e-01
 2.2067237205e-01	 2.6024274807e+00	 2.1122243212e-01
 1.9832642115e-01	 2.6042257751e+00	 2.1784195534e-01
 1.7603675521e-01	 2.6058274062e+00	 2.2372599092e-01
 1.5380556710e-01	 2.6072340468e+00	 2.2894898400e-01
 1.3163500787e-01	 2.6084473967e+00	 2.3356691763e-01
 1.0952718655e-01	 2.6094691816e+00	 2.3761223395e-01
 8.7484169926e-02	 2.6103011520e+00	 2.4108894101e-01
 6.5507982410e-02	 2.6109450821e+00	 2.4396787529e-01
 4.3600605875e-02	 2.6114027689e+00	 2.4618209137e-01
 2.1763979562e-02	 2.6116760305e+00	 2.4762235306e-01
 0.0000000000e+00	 2.6117667059e+00	 2.4813270199e-01
 2.2166633465e-01	 2.6141494537e+00	 2.0108128152e-01
 1.9921973210e-01	 2.6159558481e+00	 2.0774397331e-01
 1.7682966803e-01	 2.6175646934e+00	 2.1368255970e-01
 1.5449834518e-01	 2.6189776698e+00	 2.1896413906e-01
 1.3222792430e-01	 2.6201964849e+00	 2.2363794579e-01
 1.1002052392e-01	 2.6212228722e+00	 2.2773042190e-01
 8.7878220131e-02	 2.6220585900e+00	 2.3124047003e-01
 6.5803046465e-02	 2.6227054205e+00	 2.3413485625e-01
 4.3796993721e-02	 2.6231651688e+00	 2.3634373323e-01
 2.1862009875e-02	 2.6234396613e+00	 2.3775625651e-01
 0.0000000000e+00	 2.6235307451e+00	 2.3821626912e-01
 2.2266029726e-01	 2.6258714268e+00	 1.9926701241e-01
 2.0011304305e-01	 2.6276859211e+00	 2.0631289243e-01
 1.7762258084e-01	 2.6293019805e+00	 2.1263693714e-01
 1.5519112326e-01	 2.6307212928e+00	 2.1829874468e-01
 1.3282084073e-01	 2.6319455732e+00	 2.2334047928e-01
 1.1051386129e-01	 2.6329765628e+00	 2.2778210584e-01
 8.8272270335e-02	 2.6338160280e+00	 2.3161680135e-01
 6.6098110519e-02	 2.6344657590e+00	 2.3480651031e-01
 4.3993381567e-02	 2.6349275688e+00	 2.3727761327e-01
 2.1960040189e-02	 2.6352032921e+00	 2.3891668014e-01
 0.0000000000e+00	 2.6352947843e+00	 2.3956628230e-01
 2.2365425986e-01	 2.6375933998e+00	 2.0583003906e-01
 2.0100635400e-01	 2.6394159941e+00	 2.1360219599e-01
 1.7841549366e-01	 2.6410392677e+00	 2.2064317839e-01
 1.5588390134e-01	 2.6424649158e+00	 2.2700486905e-01
 1.3341375716e-01	 2.6436946614e+00	 2.3272197997e-01
 1.1100719866e-01	 2.6447302534e+00	 2.3780746243e-01
 8.8666320540e-02	 2.6455734660e+00	 2.4224808947e-01
 6.6393174574e-02	 2.6462260974e+00	 2.4600017630e-01
 4.4189769412e-02	 2.6466899687e+00	 2.4898540645e-01
 2.2058070502e-02	 2.6469669229e+00	 2.5108673411e-01
 0.0000000000e+00	 2.6470588235e+00	 2.5214433546e-01
 2.6470588235e+00	 0.0000000000e+00	 1.8245715278e+00
 2.6469669229e+00	 2.2058070502e-02	 1.8231579621e+00
 2.6466899687e+00	 4.4189769412e-02	 1.8198127011e+00
 2.6462260974e+00	 6.6393174574e-02	 1.8145714703e+00
 2.6455734660e+00	 8.8666320540e-02	 1.8074846182e+00
 2.6447302534e+00	 1.1100719866e-01	 1.7986142629e+00
 2.6436946614e+00	 1.3341375716e-01	 1.7880313363e+00
 2.6424649158e+00	 1.5588390134e-01	 1.7758125012e+00
 2.6410392677e+00	 1.7841549366e-01	 1.7620369084e+00
 2.6394159941e+00	 2.0100635400e-01	 1.7467827620e+00
 2.6375933998e+00	 2.2365425986e-01	 1.7301236568e+00
 2.6588228627e+00	 0.0000000000e+00	 1.7915620476e+00
 2.6587305537e+00	 2.2156100816e-02	 1.7907959648e+00
 2.6584523687e+00	 4.4386157258e-02	 1.7881838146e+00
 2.6579864358e+00	 6.6688238629e-02	 1.7837486631e+00
 2.6573309040e+00	 8.9060370745e-02	 1.7775277189e+00
 2.6564839440e+00	 1.1150053603e-01	 1.7695696171e+00
 2.6554437496e+00	 1.3400667359e-01	 1.7599316106e+00
 2.6542085388e+00	 1.5657667941e-01	 1.7486766435e+00
 2.6527765548e+00	 1.7920840647e-01	 1.7358702728e+00
 2.6511460671e+00	 2.0189966495e-01	 1.7215774052e+00
 2.6493153729e+00	 2.2464822246e-01	 1.7058588131e+00
 2.6705869020e+00	 0.0000000000e+00	 1.7615534562e+00
 2.6704941845e+00	 2.2254131130e-02	 1.7612952751e+00
 2.6702147686e+00	 4.4582545105e-02	 1.7592688550e+00
 2.6697467742e+00	 6.6983302683e-02	 1.7554863717e+00
 2.6690883420e+00	 8.9454420950e-02	 1.7499736003e+00
 2.6682376346e+00	 1.1199387340e-01	 1.7427673387e+00
 2.6671928379e+00	 1.3459959002e-01	 1.7339127497e+00
 2.6659521619e+00	 1.5726945749e-01	 1.7234605938e+00
 2.6645138420e+00	 1.8000131929e-01	 1.7114643195e+00
 2.6628761401e+00	 2.0279297590e-01	 1.6979769767e+00
 2.6610373459e+00	 2.2564218507e-01	 1.6830479143e+00
 2.6823509412e+00	 0.0000000000e+00	 1.7345149692e+00
 2.6822578153e+00	 2.2352161443e-02	 1.7346372252e+00
 2.6819771686e+00	 4.4778932951e-02	 1.7330611083e+00
 2.6815071126e+00	 6.7278366738e-02	 1.7297896027e+00
 2.6808457800e+00	 8.9848471155e-02	 1.7248386841e+00
 2.6799913252e+00	 1.1248721077e-01	 1.7182348850e+00
 2.6789419261e+00	 1.3519250646e-01	 1.7100127915e+00
 2.6776957849e+00	 1.5796223557e-01	 1.7002124388e+00
 2.6762511291e+00	 1.8079423210e-01	 1.6888765751e+00
 2.6746062131e+00	 2.0368628685e-01	 1.6760477545e+00
 2.6727593190e+00	 2.2663614767e-01	 1.6617652229e+00
 2.6941149804e+00	 0.0000000000e+00	 1.7104169972e+00
 2.6940214461e+00	 2.2450191757e-02	 1.7108040777e+00
 2.6937395685e+00	 4.4975320797e-02	 1.7095545463e+00
 2.6932674511e+00	 6.7573430793e-02	 1.7066638241e+00
 2.6926032180e+00	 9.0242521361e-02	 1.7021396482e+00
 2.6917450158e+00	 1.1298054814e-01	 1.6959997840e+00
 2.6906910143e+00	 1.3578542289e-01	 1.6882696778e+00
 2.6894394079e+00	 1.5865501365e-01	 1.6789800217e+00
 2.6879884163e+00	 1.8158714492e-01	 1.6681641926e+00
 2.6863362862e+00	 2.0457959780e-01	 1.6558555319e+00
 2.6844812920e+00	 2.2763011028e-01	 1.6420844228e+00
 2.7058790196e+00	 0.0000000000e+00	 1.6892311198e+00
 2.7057850769e+00	 2.2548222071e-02	 1.6897790038e+00
 2.7055019685e+00	 4.5171708643e-02	 1.6887438094e+00
 2.7050277895e+00	 6.7868494848e-02	 1.6861149516e+00
 2.7043606560e+00	 9.0636571566e-02	 1.6818934176e+00
 2.7034987064e+00	 1.1347388551e-01	 1.6760896282e+00
 2.7024401026e+00	 1.3637833932e-01	 1.6687212523e+00
 2.7011830309e+00	 1.5934779173e-01	 1.6598109421e+00
 2.6997257034e+00	 1.8238005773e-01	 1.6493839550e+00
 2.6980663592e+00	 2.0547290875e-01	 1.6374656228e+00
 2.6962032651e+00	 2.2862407289e-01	 1.6240786264e+00
 2.7176430588e+00	 0.0000000000e+00	 1.6709300601e+00
 2.7175487077e+00	 2.2646252384e-02	 1.6715460627e+00
 2.7172643684e+00	 4.5368096489e-02	 1.6706241899e+00
 2.7167881279e+00	 6.8163558903e-02	 1.6681493363e+00
 2.7161180940e+00	 9.1030621772e-02	 1.6641171546e+00
 2.7152523970e+00	 1.1396722288e-01	 1.6585320696e+00
 2.7141891908e+00	 1.3697125575e-01	 1.6514052572e+00
 2.7129266539e+00	 1.6004056982e-01	 1.6427525568e+00
 2.7114629906e+00	 1.8317297055e-01	 1.6325922784e+00
 2.7097964322e+00	 2.0636621970e-01	 1.6209428673e+00
 2.7079252381e+00	 2.2961803549e-01	 1.6078203823e+00
 2.7294070980e+00	 0.0000000000e+00	 1.6554876603e+00
 2.7293123385e+00	 2.2744282698e-02	 1.6560901809e+00
 2.7290267684e+00	 4.5564484335e-02	 1.6551916151e+00
 2.7285484663e+00	 6.8458622958e-02	 1.6527737517e+00
 2.7278755320e+00	 9.1424671977e-02	 1.6488282506e+00
 2.7270060876e+00	 1.1446056025e-01	 1.6433548134e+00
 2.7259382790e+00	 1.3756417218e-01	 1.6363593318e+00
 2.7246702769e+00	 1.6073334790e-01	 1.6278519803e+00
 2.7232002777e+00	 1.8396588337e-01	 1.6178452146e+00
 2.7215265052e+00	 2.0725953065e-01	 1.6063516369e+00
 2.7196472112e+00	 2.3061199810e-01	 1.5933816826e+00
 2.7411711373e+00	 0.0000000000e+00	 1.6428788572e+00
 2.7410759692e+00	 2.2842313012e-02	 1.6433971322e+00
 2.7407891684e+00	 4.5760872181e-02	 1.6424426319e+00
 2.7403088047e+00	 6.8753687014e-02	 1.6399953817e+00
 2.7396329700e+00	 9.1818722183e-02	 1.6360443167e+00
 2.7387597782e+00	 1.1495389762e-01	 1.6305856131e+00
 2.7376873672e+00	 1.3815708862e-01	 1.6236210095e+00
 2.7364138999e+00	 1.6142612598e-01	 1.6151560850e+00
 2.7349375649e+00	 1.8475879618e-01	 1.6051984545e+00
 2.7332565782e+00	 2.0815284160e-01	 1.5937558395e+00
 2.7313691842e+00	 2.3160596070e-01	 1.5808339697e+00
 2.7529351765e+00	 0.0000000000e+00	 1.6330796596e+00
 2.7528396000e+00	 2.2940343325e-02	 1.6334535186e+00
 2.7525515683e+00	 4.5957260028e-02	 1.6323743907e+00
 2.7520691432e+00	 6.9048751069e-02	 1.6298218083e+00
 2.7513904080e+00	 9.2212772389e-02	 1.6257831757e+00
 2.7505134688e+00	 1.1544723499e-01	 1.6202522650e+00
 2.7494364555e+00	 1.3875000505e-01	 1.6132277155e+00
 2.7481575229e+00	 1.6211890406e-01	 1.6047115019e+00
 2.7466748520e+00	 1.8555170900e-01	 1.5947073309e+00
 2.7449866512e+00	 2.0904615255e-01	 1.5832189250e+00
 2.7430911573e+00	 2.3259992331e-01	 1.5702481437e+00
 2.7646992157e+00	 0.0000000000e+00	 1.6260671247e+00
 2.7646032308e+00	 2.3038373639e-02	 1.6262467513e+00
 2.7643139683e+00	 4.6153647874e-02	 1.6249846309e+00
 2.7638294816e+00	 6.9343815124e-02	 1.6222610007e+00
 2.7631478460e+00	 9.2606822595e-02	 1.6180628538e+00
 2.7622671594e+00	 1.1594057236e-01	 1.6123826035e+00
 2.7611855437e+00	 1.3934292148e-01	 1.6052167655e+00
 2.7599011459e+00	 1.6281168214e-01	 1.5965646210e+00
 2.7584121392e+00	 1.8634462182e-01	 1.5864268217e+00
 2.7567167242e+00	 2.0993946350e-01	 1.5748038901e+00
 2.7548131303e+00	 2.3359388592e-01	 1.5616945692e+00
 2.6375933998e+00	 2.2365425986e-01	 1.7301236568e+00
 2.6355694566e+00	 2.4636080183e-01	 1.7120142675e+00
 2.6333428191e+00	 2.6911978121e-01	 1.6923840452e+00
 2.6309118798e+00	 2.9192879302e-01	 1.6712418153e+00
 2.6282750634e+00	 3.1478538969e-01	 1.6485760273e+00
 2.6254308276e+00	 3.3768708140e-01	 1.6243494232e+00
 2.6223776649e+00	 3.6063133654e-01	 1.5984932151e+00
 2.6191141031e+00	 3.8361558215e-01	 1.5709244419e+00
 2.6156387069e+00	 4.0663720436e-01	 1.5417053927e+00
 2.6119500788e+00	 4.2969354899e-01	 1.5109180176e+00
 2.6080468606e+00	 4.5278192206e-01	 1.4786216541e+00
 2.6493153729e+00	 2.2464822246e-01	 1.7058588131e+00
 2.6472824349e+00	 2.4745567668e-01	 1.6886751367e+00
 2.6450459018e+00	 2.7031580135e-01	 1.6699734558e+00
 2.6426041589e+00	 2.9322618080e-01	 1.6497689609e+00
 2.6399556239e+00	 3.1618435658e-01	 1.6280576067e+00
 2.6370987479e+00	 3.3918782782e-01	 1.6048109440e+00
 2.6340320163e+00	 3.6223405166e-01	 1.5799704590e+00
 2.6307539506e+00	 3.8532044367e-01	 1.5534623685e+00
 2.6272631090e+00	 4.0844437841e-01	 1.5253287152e+00
 2.6235580880e+00	 4.3160318988e-01	 1.4956410749e+00
 2.6196375231e+00	 4.5479417213e-01	 1.4644533909e+00
 2.6610373459e+00	 2.2564218507e-01	 1.6830479143e+00
 2.6589954131e+00	 2.4855055153e-01	 1.6666431021e+00
 2.6567489844e+00	 2.7151182149e-01	 1.6487254968e+00
 2.6542964380e+00	 2.9452356858e-01	 1.6293162746e+00
 2.6516361845e+00	 3.1758332348e-01	 1.6084185194e+00
 2.6487666681e+00	 3.4068857425e-01	 1.5860122277e+00
 2.6456863677e+00	 3.6383676677e-01	 1.5620488171e+00
 2.6423937981e+00	 3.8702530520e-01	 1.5364602950e+00
 2.6388875112e+00	 4.1025155246e-01	 1.5092688093e+00
 2.6351660972e+00	 4.3351283077e-01	 1.4805376267e+00
 2.6312281857e+00	 4.5680642219e-01	 1.4503153742e+00
 2.6727593190e+00	 2.2663614767e-01	 1.6617652229e+00
 2.6707083914e+00	 2.4964542639e-01	 1.6459998728e+00
 2.6684520671e+00	 2.7270784162e-01	 1.6287290285e+00
 2.6659887171e+00	 2.9582095636e-01	 1.6099794166e+00
 2.6633167451e+00	 3.1898229038e-01	 1.5897608192e+00
 2.6604345883e+00	 3.4218932067e-01	 1.5680612603e+00
 2.6573407191e+00	 3.6543948189e-01	 1.5448416917e+00
 2.6540336456e+00	 3.8873016673e-01	 1.5200361228e+00
 2.6505119134e+00	 4.1205872651e-01	 1.4936482066e+00
 2.6467741064e+00	 4.3542247166e-01	 1.4657343156e+00
 2.6428188482e+00	 4.5881867225e-01	 1.4363378182e+00
 2.6844812920e+00	 2.2763011028e-01	 1.6420844228e+00
 2.6824213696e+00	 2.5074030124e-01	 1.6268264969e+00
 2.6801551497e+00	 2.7390386176e-01	 1.6100721735e+00
 2.6776809962e+00	 2.9711834414e-01	 1.5918532377e+00
 2.6749973056e+00	 3.2038125727e-01	 1.5721856828e+00
 2.6721025086e+00	 3.4369006710e-01	 1.5510650859e+00
 2.6689950705e+00	 3.6704219700e-01	 1.5284614810e+00
 2.6656734931e+00	 3.9043502826e-01	 1.5043067550e+00
 2.6621363155e+00	 4.1386590056e-01	 1.4785883906e+00
 2.6583821156e+00	 4.3733211254e-01	 1.4513566908e+00
 2.6544095108e+00	 4.6083092232e-01	 1.4226498030e+00
 2.6962032651e+00	 2.2862407289e-01	 1.6240786264e+00
 2.6941343479e+00	 2.5183517609e-01	 1.6092033707e+00
 2.6918582324e+00	 2.7509988190e-01	 1.5928423276e+00
 2.6893732753e+00	 2.9841573192e-01	 1.5750317920e+00
 2.6866778662e+00	 3.2178022417e-01	 1.5557934237e+00
 2.6837704288e+00	 3.4519081353e-01	 1.5351298221e+00
 2.6806494218e+00	 3.6864491211e-01	 1.5130195946e+00
 2.6773133406e+00	 3.9213988979e-01	 1.4893881113e+00
 2.6737607177e+00	 4.1567307461e-01	 1.4642098122e+00
 2.6699901248e+00	 4.3924175343e-01	 1.4375292240e+00
 2.6660001733e+00	 4.6284317238e-01	 1.4093792907e+00
 2.7079252381e+00	 2.2961803549e-01	 1.6078203823e+00
 2.7058473262e+00	 2.5293005094e-01	 1.5932102479e+00
 2.7035613150e+00	 2.7629590204e-01	 1.5771261710e+00
 2.7010655544e+00	 2.9971311970e-01	 1.5596083490e+00
 2.6983584268e+00	 3.2317919107e-01	 1.5406835058e+00
 2.6954383490e+00	 3.4669155995e-01	 1.5203606739e+00
 2.6923037732e+00	 3.7024762723e-01	 1.4986264694e+00
 2.6889531880e+00	 3.9384475131e-01	 1.4753951421e+00
 2.6853851198e+00	 4.1748024867e-01	 1.4506319044e+00
 2.6815981340e+00	 4.4115139432e-01	 1.4243753253e+00
 2.6775908358e+00	 4.6485542244e-01	 1.3966531415e+00
 2.7196472112e+00	 2.3061199810e-01	 1.5933816826e+00
 2.7175603044e+00	 2.5402492579e-01	 1.5789262487e+00
 2.7152643977e+00	 2.7749192218e-01	 1.5630096785e+00
 2.7127578334e+00	 3.0101050748e-01	 1.5456754055e+00
 2.7100389873e+00	 3.2457815796e-01	 1.5269545560e+00
 2.7071062693e+00	 3.4819230638e-01	 1.5068619489e+00
 2.7039581246e+00	 3.7185034234e-01	 1.4853912930e+00
 2.7005930355e+00	 3.9554961284e-01	 1.4624418431e+00
 2.6970095220e+00	 4.1928742272e-01	 1.4379730976e+00
 2.6932061431e+00	 4.4306103520e-01	 1.4120173577e+00
 2.6891814984e+00	 4.6686767251e-01	 1.3845971288e+00
 2.7313691842e+00	 2.3160596070e-01	 1.5808339697e+00
 2.7292732827e+00	 2.5511980064e-01	 1.5664298684e+00
 2.7269674803e+00	 2.7868794232e-01	 1.5505781299e+00
 2.7244501125e+00	 3.0230789526e-01	 1.5333246975e+00
 2.7217195479e+00	 3.2597712486e-01	 1.5147043782e+00
 2.7187741895e+00	 3.4969305280e-01	 1.4947370705e+00
 2.7156124760e+00	 3.7345305746e-01	 1.4734219839e+00
 2.7122328830e+00	 3.9725447437e-01	 1.4506412691e+00
 2.7086339242e+00	 4.2109459677e-01	 1.4263508339e+00
 2.7048141523e+00	 4.4497067609e-01	 1.4005766529e+00
 2.7007721609e+00	 4.6887992257e-01	 1.3733359542e+00
 2.7430911573e+00	 2.3259992331e-01	 1.5702481437e+00
 2.7409862609e+00	 2.5621467550e-01	 1.5557989863e+00
 2.7386705630e+00	 2.7988396246e-01	 1.5399161204e+00
 2.7361423916e+00	 3.0360528304e-01	 1.5226472115e+00
 2.7334001085e+00	 3.2737609176e-01	 1.5040299654e+00
 2.7304421097e+00	 3.5119379923e-01	 1.4840885925e+00
 2.7272668274e+00	 3.7505577257e-01	 1.4628258542e+00
 2.7238727305e+00	 3.9895933590e-01	 1.4401055471e+00
 2.7202583263e+00	 4.2290177082e-01	 1.4158815810e+00
 2.7164221615e+00	 4.4688031698e-01	 1.3901735247e+00
 2.7123628234e+00	 4.7089217263e-01	 1.3629932628e+00
 2.7548131303e+00	 2.3359388592e-01	 1.5616945692e+00
 2.7526992392e+00	 2.5730955035e-01	 1.5471108742e+00
 2.7503736456e+00	 2.8107998260e-01	 1.5311075703e+00
 2.7478346707e+00	 3.0490267082e-01	 1.5137331962e+00
 2.7450806690e+00	 3.2877505866e-01	 1.4950275122e+00
 2.7421100300e+00	 3.5269454566e-01	 1.4750182123e+00
 2.7389211788e+00	 3.7665848769e-01	 1.4537093544e+00
 2.7355125780e+00	 4.0066419743e-01	 1.4309458904e+00
 2.7318827285e+00	 4.2470894487e-01	 1.4066808461e+00
 2.7280301707e+00	 4.4878995786e-01	 1.3809272843e+00
 2.7239534860e+00	 4.7290442270e-01	 1.3536916574e+00
 2.6080468606e+00	 4.5278192206e-01	 1.4786216541e+00
 2.6039284524e+00	 4.7589565951e-01	 1.4447948447e+00
 2.5995929312e+00	 4.9903591810e-01	 1.4095857596e+00
 2.5950390615e+00	 5.2219989595e-01	 1.3732935909e+00
 2.5902656513e+00	 5.4538475407e-01	 1.3362239083e+00
 2.5852715532e+00	 5.6858761720e-01	 1.2987231097e+00
 2.5800556657e+00	 5.9180557450e-01	 1.2607495177e+00
 2.5746169342e+00	 6.1503568041e-01	 1.2221550637e+00
 2.5689543521e+00	 6.3827495545e-01	 1.1827360314e+00
 2.5630669618e+00	 6.6152038714e-01	 1.1422341321e+00
 2.5569538559e+00	 6.8476893090e-01	 1.1003379401e+00
 2.6196375231e+00	 4.5479417213e-01	 1.4644533909e+00
 2.6155008119e+00	 4.7801063147e-01	 1.4317275671e+00
 2.6111460229e+00	 5.0125372983e-01	 1.3975613544e+00
 2.6065719149e+00	 5.2452065286e-01	 1.3621989302e+00
 2.6017772907e+00	 5.4780854896e-01	 1.3258596203e+00
 2.5967609979e+00	 5.7111453008e-01	 1.2887340907e+00
 2.5915219300e+00	 5.9443567245e-01	 1.2509818002e+00
 2.5860590277e+00	 6.1776901742e-01	 1.2126930455e+00
 2.5803712800e+00	 6.4111157228e-01	 1.1736577616e+00
 2.5744577250e+00	 6.6446031115e-01	 1.1335475560e+00
 2.5683174512e+00	 6.8781217591e-01	 1.0919787336e+00
 2.6312281857e+00	 4.5680642219e-01	 1.4503153742e+00
 2.6270731715e+00	 4.8012560344e-01	 1.4185518361e+00
 2.6226991145e+00	 5.0347154156e-01	 1.3853043116e+00
 2.6181047683e+00	 5.2684140976e-01	 1.3507702974e+00
 2.6132889301e+00	 5.5023234384e-01	 1.3151236423e+00
 2.6082504425e+00	 5.7364144295e-01	 1.2785108306e+00
 2.6029881942e+00	 5.9706577040e-01	 1.2410469034e+00
 2.5975011212e+00	 6.2050235444e-01	 1.2028110006e+00
 2.5917882079e+00	 6.4394818911e-01	 1.1638397796e+00
 2.5858484882e+00	 6.6740023515e-01	 1.1239298756e+00
 2.5796810466e+00	 6.9085542092e-01	 1.0826133360e+00
 2.6428188482e+00	 4.5881867225e-01	 1.4363378182e+00
 2.6386455310e+00	 4.8224057540e-01	 1.4054002389e+00
 2.6342522062e+00	 5.0568935330e-01	 1.3729476608e+00
 2.6296376217e+00	 5.2916216667e-01	 1.3391391044e+00
 2.6248005696e+00	 5.5265613872e-01	 1.3041111460e+00
 2.6197398872e+00	 5.7616835583e-01	 1.2679742829e+00
 2.6144544585e+00	 5.9969586835e-01	 1.2308089311e+00
 2.6089432147e+00	 6.2323569145e-01	 1.1926610326e+00
 2.6032051358e+00	 6.4678480594e-01	 1.1535372588e+00
 2.5972392514e+00	 6.7034015916e-01	 1.1133997914e+00
 2.5910446420e+00	 6.9389866593e-01	 1.0721457553e+00
 2.6544095108e+00	 4.6083092232e-01	 1.4226498030e+00
 2.6502178905e+00	 4.8435554736e-01	 1.3924042032e+00
 2.6458052978e+00	 5.0790716502e-01	 1.3606232741e+00
 2.6411704750e+00	 5.3148292358e-01	 1.3274356374e+00
 2.6363122090e+00	 5.5507993361e-01	 1.2929486743e+00
 2.6312293319e+00	 5.7869526871e-01	 1.2572449655e+00
 2.6259207228e+00	 6.0232596630e-01	 1.2203783541e+00
 2.6203853082e+00	 6.2596902847e-01	 1.1823696113e+00
 2.6146220637e+00	 6.4962142277e-01	 1.1432016865e+00
 2.6086300146e+00	 6.7328008316e-01	 1.1028145252e+00
 2.6024082374e+00	 6.9694191094e-01	 1.0610994381e+00
 2.6660001733e+00	 4.6284317238e-01	 1.4093792907e+00
 2.6617902501e+00	 4.8647051933e-01	 1.3796940131e+00
 2.6573583895e+00	 5.1012497675e-01	 1.3484618815e+00
 2.6527033284e+00	 5.3380368049e-01	 1.3157890704e+00
 2.6478238484e+00	 5.5750372849e-01	 1.2817617188e+00
 2.6427187766e+00	 5.8122218158e-01	 1.2464424366e+00
 2.6373869871e+00	 6.0495606425e-01	 1.2098664252e+00
 2.6318274017e+00	 6.2870236548e-01	 1.1720371909e+00
 2.6260389916e+00	 6.5245803959e-01	 1.1329218333e+00
 2.6200207778e+00	 6.7622000717e-01	 1.0924458905e+00
 2.6137718328e+00	 6.9998515595e-01	 1.0504877229e+00
 2.6775908358e+00	 4.6485542244e-01	 1.3966531415e+00
 2.6733626096e+00	 4.8858549129e-01	 1.3673988249e+00
 2.6689114811e+00	 5.1234278848e-01	 1.3365930857e+00
 2.6642361818e+00	 5.3612443740e-01	 1.3043274785e+00
 2.6593354878e+00	 5.5992752337e-01	 1.2706747299e+00
 2.6542082213e+00	 5.8374909446e-01	 1.2356853035e+00
 2.6488532513e+00	 6.0758616220e-01	 1.1993835684e+00
 2.6432694952e+00	 6.3143570250e-01	 1.1617635533e+00
 2.6374559195e+00	 6.5529465642e-01	 1.1227842629e+00
 2.6314115410e+00	 6.7915993117e-01	 1.0823645409e+00
 2.6251354282e+00	 7.0302840096e-01	 1.0403774590e+00
 2.6891814984e+00	 4.6686767251e-01	 1.3845971288e+00
 2.6849349691e+00	 4.9070046326e-01	 1.3556466823e+00
 2.6804645728e+00	 5.1456060021e-01	 1.3251453765e+00
 2.6757690351e+00	 5.3844519431e-01	 1.2931778508e+00
 2.6708471272e+00	 5.6235131826e-01	 1.2598111282e+00
 2.6656976660e+00	 5.8627600733e-01	 1.2250912292e+00
 2.6603195156e+00	 6.1021626015e-01	 1.1890393823e+00
 2.6547115887e+00	 6.3416903951e-01	 1.1516478075e+00
 2.6488728474e+00	 6.5813127325e-01	 1.1128750538e+00
 2.6428023042e+00	 6.8209985518e-01	 1.0726408695e+00
 2.6364990235e+00	 7.0607164597e-01	 1.0308205875e+00
 2.7007721609e+00	 4.6887992257e-01	 1.3733359542e+00
 2.6965073287e+00	 4.9281543522e-01	 1.3445645315e+00
 2.6920176644e+00	 5.1677841195e-01	 1.3142461452e+00
 2.6873018885e+00	 5.4076595122e-01	 1.2824661037e+00
 2.6823587666e+00	 5.6477511314e-01	 1.2492933147e+00
 2.6771871106e+00	 5.8880292021e-01	 1.2147769410e+00
 2.6717857799e+00	 6.1284635810e-01	 1.1789426437e+00
 2.6661536822e+00	 6.3690237653e-01	 1.1417883883e+00
 2.6602897753e+00	 6.6096789008e-01	 1.1032797925e+00
 2.6541930674e+00	 6.8503977918e-01	 1.0633449962e+00
 2.6478626189e+00	 7.0911489098e-01	 1.0218690320e+00
 2.7123628234e+00	 4.7089217263e-01	 1.3629932628e+00
 2.7080796882e+00	 4.9493040719e-01	 1.3342782358e+00
 2.7035707560e+00	 5.1899622368e-01	 1.3040216983e+00
 2.6988347419e+00	 5.4308670813e-01	 1.2723170925e+00
 2.6938704061e+00	 5.6719890803e-01	 1.2392426810e+00
 2.6886765553e+00	 5.9132983309e-01	 1.2048582370e+00
 2.6832520442e+00	 6.1547645605e-01	 1.1692013120e+00
 2.6775957757e+00	 6.3963571354e-01	 1.1322830559e+00
 2.6717067032e+00	 6.6380450691e-01	 1.0940835677e+00
 2.6655838306e+00	 6.8797970319e-01	 1.0545467542e+00
 2.6592262143e+00	 7.1215813599e-01	 1.0135746788e+00
 2.7239534860e+00	 4.7290442270e-01	 1.3536916574e+00
 2.7196520478e+00	 4.9704537915e-01	 1.3249125898e+00
 2.7151238477e+00	 5.2121403541e-01	 1.2945972712e+00
 2.7103675953e+00	 5.4540746504e-01	 1.2628546244e+00
 2.7053820455e+00	 5.6962270291e-01	 1.2297796201e+00
 2.7001660000e+00	 5.9385674596e-01	 1.1954499942e+00
 2.6947183084e+00	 6.1810655401e-01	 1.1599225322e+00
 2.6890378692e+00	 6.4236905056e-01	 1.1232288950e+00
 2.6831236311e+00	 6.6664112374e-01	 1.0853709637e+00
 2.6769745938e+00	 6.9091962719e-01	 1.0463156790e+00
 2.6705898097e+00	 7.1520138100e-01	 1.0059893576e+00
 2.5569538559e+00	 6.8476893090e-01	 1.1003379401e+00
 2.5506141785e+00	 7.0801751129e-01	 1.0573944909e+00
 2.5440471282e+00	 7.3126302405e-01	 1.0138147781e+00
 2.5372519574e+00	 7.5450233618e-01	 9.6922786583e-01
 2.5302279725e+00	 7.7773228665e-01	 9.2314134941e-01
 2.5229745349e+00	 8.0094968753e-01	 8.7559094256e-01
 2.5154910621e+00	 8.2415132505e-01	 8.2666948404e-01
 2.5077770285e+00	 8.4733396085e-01	 7.7648106148e-01
 2.4998319662e+00	 8.7049433306e-01	 7.2514441635e-01
 2.4916554659e+00	 8.9362915758e-01	 6.7279600294e-01
 2.4832471778e+00	 9.1673512933e-01	 6.1959265257e-01
 2.5683174512e+00	 6.8781217591e-01	 1.0919787336e+00
 2.5619495991e+00	 7.1116407747e-01	 1.0492253605e+00
 2.5553533636e+00	 7.3451289777e-01	 1.0057043126e+00
 2.5485279938e+00	 7.5785548988e-01	 9.6104204494e-01
 2.5414727929e+00	 7.8118867872e-01	 9.1483119755e-01
 2.5341871196e+00	 8.0450926219e-01	 8.6716431407e-01
 2.5266703888e+00	 8.2781401227e-01	 8.1816185381e-01
 2.5189220726e+00	 8.5109967616e-01	 7.6795487540e-01
 2.5109417009e+00	 8.7436297752e-01	 7.1668857343e-01
 2.5027288626e+00	 8.9760061766e-01	 6.6452545824e-01
 2.4942832065e+00	 9.2080927680e-01	 6.1164812896e-01
 2.5796810466e+00	 6.9085542092e-01	 1.0826133360e+00
 2.5732850197e+00	 7.1431064365e-01	 1.0400782152e+00
 2.5666595990e+00	 7.3776277148e-01	 9.9671753838e-01
 2.5598040301e+00	 7.6120864357e-01	 9.5212731055e-01
 2.5527176133e+00	 7.8464507079e-01	 9.0598595127e-01
 2.5453997043e+00	 8.0806883686e-01	 8.5841246293e-01
 2.5378497156e+00	 8.3147669948e-01	 8.0953681488e-01
 2.5300671167e+00	 8.5486539147e-01	 7.5949921646e-01
 2.5220514356e+00	 8.7823162199e-01	 7.0845381849e-01
 2.5138022594e+00	 9.0157207775e-01	 6.5657204721e-01
 2.5053192352e+00	 9.2488342427e-01	 6.0404551883e-01
 2.5910446420e+00	 6.9389866593e-01	 1.0721457553e+00
 2.5846204404e+00	 7.1745720983e-01	 1.0298431701e+00
 2.5779658344e+00	 7.4101264520e-01	 9.8673548503e-01
 2.5710800665e+00	 7.6456179727e-01	 9.4236062323e-01
 2.5639624337e+00	 7.8810146286e-01	 8.9648321714e-01
 2.5566122891e+00	 8.1162841153e-01	 8.4921887057e-01
 2.5490290423e+00	 8.3513938670e-01	 8.0068913377e-01
 2.5412121607e+00	 8.5863110679e-01	 7.5102572727e-01
 2.5331611703e+00	 8.8210026646e-01	 7.0037444164e-01
 2.5248756562e+00	 9.0554353783e-01	 6.4889865858e-01
 2.5163552639e+00	 9.2895757174e-01	 5.9678243988e-01
 2.6024082374e+00	 6.9694191094e-01	 1.0610994381e+00
 2.5959558610e+00	 7.2060377601e-01	 1.0185018527e+00
 2.5892720698e+00	 7.4426251892e-01	 9.7563527793e-01
 2.5823561028e+00	 7.6791495096e-01	 9.3162191268e-01
 2.5752072541e+00	 7.9155785493e-01	 8.8620375954e-01
 2.5678248738e+00	 8.1518798620e-01	 8.3947027239e-01
 2.5602083690e+00	 8.3880207391e-01	 7.9151683007e-01
 2.5523572048e+00	 8.6239682210e-01	 7.4244920123e-01
 2.5442709050e+00	 8.8596891092e-01	 6.9238767570e-01
 2.5359490529e+00	 9.0951499791e-01	 6.4147080576e-01
 2.5273912926e+00	 9.3303171921e-01	 5.8985870226e-01
 2.6137718328e+00	 6.9998515595e-01	 1.0504877229e+00
 2.6072912816e+00	 7.2375034219e-01	 1.0074232938e+00
 2.6005783052e+00	 7.4751239263e-01	 9.6389797798e-01
 2.5936321392e+00	 7.7126810465e-01	 9.1980548791e-01
 2.5864520745e+00	 7.9501424699e-01	 8.7503146158e-01
 2.5790374585e+00	 8.1874756087e-01	 8.2905661756e-01
 2.5713876958e+00	 8.4246476112e-01	 7.8192113708e-01
 2.5635022489e+00	 8.6616253741e-01	 7.3368754599e-01
 2.5553806397e+00	 8.8983755539e-01	 6.8443366461e-01
 2.5470224497e+00	 9.1348645799e-01	 6.3425660226e-01
 2.5384273213e+00	 9.3710586668e-01	 5.8327629326e-01
 2.6251354282e+00	 7.0302840096e-01	 1.0403774590e+00
 2.6186267023e+00	 7.2689690837e-01	 9.9713077813e-01
 2.6118845406e+00	 7.5076226635e-01	 9.5317476350e-01
 2.6049081755e+00	 7.7462125835e-01	 9.0839345604e-01
 2.5976968949e+00	 7.9847063906e-01	 8.6316093299e-01
 2.5902500433e+00	 8.2230713554e-01	 8.1787103007e-01
 2.5825670225e+00	 8.4612744834e-01	 7.7180646365e-01
 2.5746472930e+00	 8.6992825272e-01	 7.2466174797e-01
 2.5664903744e+00	 8.9370619986e-01	 6.7645543261e-01
 2.5580958465e+00	 9.1745791808e-01	 6.2722673767e-01
 2.5494633500e+00	 9.4118001415e-01	 5.7703936222e-01
 2.6364990235e+00	 7.0607164597e-01	 1.0308205875e+00
 2.6299621229e+00	 7.3004347455e-01	 9.8765819357e-01
 2.6231907760e+00	 7.5401214006e-01	 9.4358727627e-01
 2.6161842119e+00	 7.7797441204e-01	 8.9848830423e-01
 2.6089417153e+00	 8.0192703113e-01	 8.5275490925e-01
 2.6014626280e+00	 8.2586671020e-01	 8.0682266643e-01
 2.5937463493e+00	 8.4979013555e-01	 7.6109855184e-01
 2.5857923371e+00	 8.7369396803e-01	 7.1529583775e-01
 2.5776001091e+00	 8.9757484432e-01	 6.6839885426e-01
 2.5691692432e+00	 9.2142937816e-01	 6.2035445430e-01
 2.5604993787e+00	 9.4525416162e-01	 5.7115420593e-01
 2.6478626189e+00	 7.0911489098e-01	 1.0218690320e+00
 2.6412975435e+00	 7.3319004073e-01	 9.7903964977e-01
 2.6344970114e+00	 7.5726201378e-01	 9.3515585926e-01
 2.6274602482e+00	 7.8132756573e-01	 8.9009999263e-01
 2.6201865357e+00	 8.0538342319e-01	 8.4425680484e-01
 2.6126752128e+00	 8.2942628487e-01	 7.9801887911e-01
 2.6049256760e+00	 8.5345282276e-01	 7.5175127455e-01
 2.5969373812e+00	 8.7745968334e-01	 7.0578971798e-01
 2.5887098438e+00	 9.0144348879e-01	 6.6021262528e-01
 2.5802426400e+00	 9.2540083824e-01	 6.1361552441e-01
 2.5715354074e+00	 9.4932830909e-01	 5.6562925426e-01
 2.6592262143e+00	 7.1215813599e-01	 1.0135746788e+00
 2.6526329642e+00	 7.3633660690e-01	 9.7130945133e-01
 2.6458032468e+00	 7.6051188749e-01	 9.2790123046e-01
 2.6387362846e+00	 7.8468071943e-01	 8.8323896360e-01
 2.6314313562e+00	 8.0883981526e-01	 8.3767094003e-01
 2.6238877975e+00	 8.3298585954e-01	 7.9153213221e-01
 2.6161050028e+00	 8.5711550998e-01	 7.4513129554e-01
 2.6080824253e+00	 8.8122539865e-01	 6.9874919093e-01
 2.5998195785e+00	 9.0531213325e-01	 6.5263679648e-01
 2.5913160367e+00	 9.2937229832e-01	 6.0698822796e-01
 2.5825714362e+00	 9.5340245656e-01	 5.6047505619e-01
 2.6705898097e+00	 7.1520138100e-01	 1.0059893576e+00
 2.6639683848e+00	 7.3948317308e-01	 9.6450207156e-01
 2.6571094822e+00	 7.6376176120e-01	 9.2184445161e-01
 2.6500123209e+00	 7.8803387312e-01	 8.7791610696e-01
 2.6426761766e+00	 8.1229620733e-01	 8.3300211265e-01
 2.6351003822e+00	 8.3654543421e-01	 7.8736542400e-01
 2.6272843295e+00	 8.6077819719e-01	 7.4124431708e-01
 2.6192274694e+00	 8.8499111396e-01	 6.9485066401e-01
 2.6109293132e+00	 9.0918077772e-01	 6.4836819671e-01
 2.6023894335e+00	 9.3334375840e-01	 6.0195077140e-01
 2.5936074649e+00	 9.5747660403e-01	 5.5572064668e-01
 2.4832471778e+00	 9.1673512933e-01	 6.1959265257e-01
 2.4746053232e+00	 9.3981284317e-01	 5.6582353343e-01
 2.4657310817e+00	 9.6285502246e-01	 5.1170927096e-01
 2.4566242846e+00	 9.8585830405e-01	 4.5731821587e-01
 2.4472848255e+00	 1.0088193090e+00	 4.0275276087e-01
 2.4377126612e+00	 1.0317346441e+00	 3.4814971922e-01
 2.4279078119e+00	 1.0546009031e+00	 2.9368005185e-01
 2.4178703625e+00	 1.0774146682e+00	 2.3954791104e-01
 2.4076004625e+00	 1.1001725118e+00	 1.8598897239e-01
 2.3970983265e+00	 1.1228709974e+00	 1.3329075273e-01
 2.3863642354e+00	 1.1455066817e+00	 8.1993990169e-02
 2.4942832065e+00	 9.2080927680e-01	 6.1164812896e-01
 2.4856029458e+00	 9.4398955245e-01	 5.5841909278e-01
 2.4766892655e+00	 9.6713413562e-01	 5.0506857048e-01
 2.4675419961e+00	 9.9023964822e-01	 4.5159636849e-01
 2.4581610306e+00	 1.0133026963e+00	 3.9803816799e-01
 2.4485463257e+00	 1.0363198716e+00	 3.4446608712e-01
 2.4386979019e+00	 1.0592877526e+00	 2.9098857142e-01
 2.4286158441e+00	 1.0822029065e+00	 2.3774957892e-01
 2.4183003026e+00	 1.1050618903e+00	 1.8492703070e-01
 2.4077514932e+00	 1.1278612523e+00	 1.3278192191e-01
 2.3969696976e+00	 1.1505975340e+00	 8.1845367691e-02
 2.5053192352e+00	 9.2488342427e-01	 6.0404551883e-01
 2.4966005685e+00	 9.4816626172e-01	 5.5131088623e-01
 2.4876474493e+00	 9.7141324877e-01	 4.9862822821e-01
 2.4784597075e+00	 9.9462099239e-01	 4.4594147198e-01
 2.4690372357e+00	 1.0177860836e+00	 3.9323214386e-01
 2.4593799903e+00	 1.0409050990e+00	 3.4052009901e-01
 2.4494879918e+00	 1.0639746021e+00	 2.8786355804e-01
 2.4393613257e+00	 1.0869911448e+00	 2.3535841614e-01
 2.4290001428e+00	 1.1099512688e+00	 1.8313679384e-01
 2.4184046598e+00	 1.1328515073e+00	 1.3146032654e-01
 2.4075751599e+00	 1.1556883863e+00	 8.0844812892e-02
 2.5163552639e+00	 9.2895757174e-01	 5.9678243988e-01
 2.5075981911e+00	 9.5234297100e-01	 5.4453260221e-01
 2.4986056331e+00	 9.7569236193e-01	 4.9245427866e-01
 2.4893774190e+00	 9.9900233656e-01	 4.4044796609e-01
 2.4799134408e+00	 1.0222694709e+00	 3.8845338068e-01
 2.4702136548e+00	 1.0454903265e+00	 3.3645033877e-01
 2.4602780817e+00	 1.0686614517e+00	 2.8445892320e-01
 2.4501068072e+00	 1.0917793831e+00	 2.3253889891e-01
 2.4396999829e+00	 1.1148406474e+00	 1.8079005519e-01
 2.4290578264e+00	 1.1378417623e+00	 1.2949914345e-01
 2.4181806221e+00	 1.1607792386e+00	 7.9160247321e-02
 2.5273912926e+00	 9.3303171921e-01	 5.8985870226e-01
 2.5185958138e+00	 9.5651968027e-01	 5.3811965793e-01
 2.5095638169e+00	 9.7997147509e-01	 4.8661407741e-01
 2.5002951304e+00	 1.0033836807e+00	 4.3521126308e-01
 2.4907896459e+00	 1.0267528582e+00	 3.8382125645e-01
 2.4810473194e+00	 1.0500755540e+00	 3.3239585443e-01
 2.4710681716e+00	 1.0733483012e+00	 2.8092888876e-01
 2.4608522888e+00	 1.0965676214e+00	 2.2945573112e-01
 2.4503998230e+00	 1.1197300259e+00	 1.7806254056e-01
 2.4397109930e+00	 1.1428320173e+00	 1.2707163394e-01
 2.4287860844e+00	 1.1658700910e+00	 7.6959698205e-02
 2.5384273213e+00	 9.3710586668e-01	 5.8327629326e-01
 2.5295934364e+00	 9.6069638955e-01	 5.3210919363e-01
 2.5205220008e+00	 9.8425058825e-01	 4.8117630362e-01
 2.5112128419e+00	 1.0077650249e+00	 4.3032775672e-01
 2.5016658510e+00	 1.0312362455e+00	 3.7945584906e-01
 2.4918809839e+00	 1.0546607814e+00	 3.2849617548e-01
 2.4818582615e+00	 1.0780351507e+00	 2.7742800582e-01
 2.4715977703e+00	 1.1013558597e+00	 2.2627386276e-01
 2.4610996632e+00	 1.1246194044e+00	 1.7512759637e-01
 2.4503641597e+00	 1.1478222722e+00	 1.2435108962e-01
 2.4393915467e+00	 1.1709609433e+00	 7.4411235518e-02
 2.5494633500e+00	 9.4118001415e-01	 5.7703936222e-01
 2.5405910591e+00	 9.6487309882e-01	 5.2654006697e-01
 2.5314801846e+00	 9.8852970141e-01	 4.7621096230e-01
 2.5221305533e+00	 1.0121463691e+00	 4.2589483101e-01
 2.5125420561e+00	 1.0357196328e+00	 3.7547794973e-01
 2.5027146485e+00	 1.0592460089e+00	 3.2489132945e-01
 2.4926483514e+00	 1.0827220002e+00	 2.7411117272e-01
 2.4823432519e+00	 1.1061440980e+00	 2.2315850756e-01
 2.4717995033e+00	 1.1295087829e+00	 1.7215847720e-01
 2.4610173263e+00	 1.1528125272e+00	 1.2151077762e-01
 2.4499970089e+00	 1.1760517956e+00	 7.1682908421e-02
 2.5604993787e+00	 9.4525416162e-01	 5.7115420593e-01
 2.5515886817e+00	 9.6904980810e-01	 5.2145284745e-01
 2.5424383684e+00	 9.9280881456e-01	 4.7178938642e-01
 2.5330482647e+00	 1.0165277132e+00	 4.2201086848e-01
 2.5234182612e+00	 1.0402030201e+00	 3.7200907597e-01
 2.5135483130e+00	 1.0638312364e+00	 3.2172185791e-01
 2.5034384413e+00	 1.0874088497e+00	 2.7113365231e-01
 2.4930887334e+00	 1.1109323363e+00	 2.2027515984e-01
 2.4824993435e+00	 1.1343981615e+00	 1.6932843384e-01
 2.4716704929e+00	 1.1578027822e+00	 1.1872388497e-01
 2.4606024712e+00	 1.1811426479e+00	 6.8942681065e-02
 2.5715354074e+00	 9.4932830909e-01	 5.6562925426e-01
 2.5625863043e+00	 9.7322651737e-01	 5.1688981095e-01
 2.5533965522e+00	 9.9708792772e-01	 4.6798423890e-01
 2.5439659762e+00	 1.0209090574e+00	 4.1877525813e-01
 2.5342944663e+00	 1.0446864074e+00	 3.6917148400e-01
 2.5243819776e+00	 1.0684164638e+00	 3.1912883176e-01
 2.5142285312e+00	 1.0920956993e+00	 2.6865108856e-01
 2.5038342150e+00	 1.1157205745e+00	 2.1779226050e-01
 2.4931991836e+00	 1.1392875400e+00	 1.6681066354e-01
 2.4823236595e+00	 1.1627930371e+00	 1.1616346234e-01
 2.4712079334e+00	 1.1862335002e+00	 6.6358367797e-02
 2.5825714362e+00	 9.5340245656e-01	 5.6047505619e-01
 2.5735839270e+00	 9.7740322665e-01	 5.1289493425e-01
 2.5643547360e+00	 1.0013670409e+00	 4.6486951437e-01
 2.5548836876e+00	 1.0252904016e+00	 4.1628840304e-01
 2.5451706714e+00	 1.0491697947e+00	 3.6708818066e-01
 2.5352156421e+00	 1.0730016913e+00	 3.1725386593e-01
 2.5250186212e+00	 1.0967825488e+00	 2.6681952234e-01
 2.5145796965e+00	 1.1205088128e+00	 2.1588042821e-01
 2.5038990237e+00	 1.1441769185e+00	 1.6477825964e-01
 2.4929768262e+00	 1.1677832921e+00	 1.1400236706e-01
 2.4818133957e+00	 1.1913243525e+00	 6.4097567785e-02
 2.5936074649e+00	 9.5747660403e-01	 5.5572064668e-01
 2.5845815496e+00	 9.8157993592e-01	 5.0951388975e-01
 2.5753129198e+00	 1.0056461540e+00	 4.6252054083e-01
 2.5658013991e+00	 1.0296717458e+00	 4.1465172766e-01
 2.5560468764e+00	 1.0536531820e+00	 3.6588293489e-01
 2.5460493067e+00	 1.0775869187e+00	 3.1623913349e-01
 2.5358087111e+00	 1.1014693983e+00	 2.6579540670e-01
 2.5253251781e+00	 1.1252970511e+00	 2.1470812775e-01
 2.5145988639e+00	 1.1490662970e+00	 1.6340416047e-01
 2.5036299928e+00	 1.1727735471e+00	 1.1241320550e-01
 2.4924188579e+00	 1.1964152048e+00	 6.2327599065e-02
 2.3863642354e+00	 1.1455066817e+00	 8.1993990169e-02
 2.3754004191e+00	 1.1680722852e+00	 3.0950464025e-02
 2.3642054847e+00	 1.1905682088e+00	-2.1255856037e-02
 2.3527799106e+00	 1.2129909979e+00	-7.4337929186e-02
 2.3411242424e+00	 1.2353371970e+00	-1.2798951144e-01
 2.3292390932e+00	 1.2576033513e+00	-1.8189415721e-01
 2.3171251438e+00	 1.2797860086e+00	-2.3573515936e-01
 2.3047831427e+00	 1.3018817204e+00	-2.8920639223e-01
 2.2922139066e+00	 1.3238870440e+00	-3.4202401449e-01
 2.2794183199e+00	 1.3457985441e+00	-3.9393898119e-01
 2.2663973352e+00	 1.3676127941e+00	-4.4475030697e-01
 2.3969696976e+00	 1.1505975340e+00	 8.1845367691e-02
 2.3859571561e+00	 1.1732634234e+00	 3.0961842256e-02
 2.3747124692e+00	 1.1958593232e+00	-2.1227416172e-02
 2.3632361176e+00	 1.2183817635e+00	-7.4392279547e-02
 2.3515286494e+00	 1.2408272734e+00	-1.2818067047e-01
 2.3395906803e+00	 1.2631923828e+00	-1.8222784152e-01
 2.3274228942e+00	 1.2854736241e+00	-2.3616662839e-01
 2.3150260429e+00	 1.3076675335e+00	-2.8963864023e-01
 2.3024009466e+00	 1.3297706530e+00	-3.4230634305e-01
 2.2895484939e+00	 1.3517795320e+00	-3.9386598398e-01
 2.2764696415e+00	 1.3736907288e+00	-4.4406129683e-01
 2.4075751599e+00	 1.1556883863e+00	 8.0844812892e-02
 2.3965138930e+00	 1.1784545616e+00	 3.0133585193e-02
 2.3852194537e+00	 1.2011504376e+00	-2.1985817659e-02
 2.3736923247e+00	 1.2237725291e+00	-7.5151875377e-02
 2.3619330564e+00	 1.2463173498e+00	-1.2897821298e-01
 2.3499422674e+00	 1.2687814143e+00	-1.8306314727e-01
 2.3377206445e+00	 1.2911612396e+00	-2.3700024320e-01
 2.3252689430e+00	 1.3134533466e+00	-2.9038984263e-01
 2.3125879867e+00	 1.3356542620e+00	-3.4285152011e-01
 2.2996786679e+00	 1.3577605199e+00	-3.9403741213e-01
 2.2865419477e+00	 1.3797686634e+00	-4.4364635847e-01
 2.4181806221e+00	 1.1607792386e+00	 7.9160247321e-02
 2.4070706299e+00	 1.1836456998e+00	 2.8625901045e-02
 2.3957264382e+00	 1.2064415520e+00	-2.3377812047e-02
 2.3841485317e+00	 1.2291632947e+00	-7.6469512898e-02
 2.3723374634e+00	 1.2518074263e+00	-1.3023989985e-01
 2.3602938545e+00	 1.2743704458e+00	-1.8426155183e-01
 2.3480183949e+00	 1.2968488551e+00	-2.3809977840e-01
 2.3355118432e+00	 1.3192391597e+00	-2.9132447824e-01
 2.3227750267e+00	 1.3415378710e+00	-3.4352295946e-01
 2.3098088419e+00	 1.3637415079e+00	-3.9431366683e-01
 2.2966142540e+00	 1.3858465981e+00	-4.4336075291e-01
 2.4287860844e+00	 1.1658700910e+00	 7.6959698205e-02
 2.4176273669e+00	 1.1888368380e+00	 2.6599150434e-02
 2.4062334227e+00	 1.2117326664e+00	-2.5249981641e-02
 2.3946047388e+00	 1.2345540603e+00	-7.8197834206e-02
 2.3827418704e+00	 1.2572975027e+00	-1.3182338685e-01
 2.3706454417e+00	 1.2799594773e+00	-1.8568451230e-01
 2.3583161453e+00	 1.3025364706e+00	-2.3932911081e-01
 2.3457547434e+00	 1.3250249728e+00	-2.9230728995e-01
 2.3329620668e+00	 1.3474214800e+00	-3.4418454192e-01
 2.3199390159e+00	 1.3697224958e+00	-3.9455586212e-01
 2.3066865602e+00	 1.3919245327e+00	-4.4306074421e-01
 2.4393915467e+00	 1.1709609433e+00	 7.4411235518e-02
 2.4281841038e+00	 1.1940279762e+00	 2.4213773751e-02
 2.4167404072e+00	 1.2170237809e+00	-2.7448821563e-02
 2.4050609458e+00	 1.2399448259e+00	-8.0189418357e-02
 2.3931462774e+00	 1.2627875791e+00	-1.3358632433e-01
 2.3809970288e+00	 1.2855485088e+00	-1.8719357324e-01
 2.3686138957e+00	 1.3082240861e+00	-2.4055233465e-01
 2.3559976435e+00	 1.3308107859e+00	-2.9320340678e-01
 2.3431491069e+00	 1.3533050890e+00	-3.4470074366e-01
 2.3300691899e+00	 1.3757034837e+00	-3.9462595860e-01
 2.3167588665e+00	 1.3980024674e+00	-4.4260373778e-01
 2.4499970089e+00	 1.1760517956e+00	 7.1682908421e-02
 2.4387408408e+00	 1.1992191144e+00	 2.1630217990e-02
 2.4272473917e+00	 1.2223148953e+00	-2.9820822208e-02
 2.4155171529e+00	 1.2453355915e+00	-8.2296872742e-02
 2.4035506844e+00	 1.2682776555e+00	-1.3538645704e-01
 2.3913486159e+00	 1.2911375403e+00	-1.8865047453e-01
 2.3789116461e+00	 1.3139117016e+00	-2.4163387687e-01
 2.3662405437e+00	 1.3365965990e+00	-2.9387846609e-01
 2.3533361469e+00	 1.3591886980e+00	-3.4493676451e-01
 2.3401993639e+00	 1.3816844716e+00	-3.9438689714e-01
 2.3268311727e+00	 1.4040804020e+00	-4.4184841864e-01
 2.4606024712e+00	 1.1811426479e+00	 6.8942681065e-02
 2.4492975777e+00	 1.2044102526e+00	 1.9008863081e-02
 2.4377543762e+00	 1.2276060097e+00	-3.2212552087e-02
 2.4259733599e+00	 1.2507263572e+00	-8.4372924761e-02
 2.4139550915e+00	 1.2737677319e+00	-1.3708172426e-01
 2.4017002030e+00	 1.2967265718e+00	-1.8991725938e-01
 2.3892093965e+00	 1.3195993171e+00	-2.4243861258e-01
 2.3764834439e+00	 1.3423824121e+00	-2.9419873574e-01
 2.3635231870e+00	 1.3650723070e+00	-3.4475865625e-01
 2.3503295379e+00	 1.3876654596e+00	-3.9370273258e-01
 2.3369034790e+00	 1.4101583367e+00	-4.4065488981e-01
 2.4712079334e+00	 1.1862335002e+00	 6.6358367797e-02
 2.4598543147e+00	 1.2096013908e+00	 1.6509947737e-02
 2.4482613607e+00	 1.2328971241e+00	-3.4470741052e-02
 2.4364295670e+00	 1.2561171228e+00	-8.6270513775e-02
 2.4243594985e+00	 1.2792578084e+00	-1.3853036005e-01
 2.4120517901e+00	 1.3023156033e+00	-1.9085638249e-01
 2.3995071469e+00	 1.3252869326e+00	-2.4283198048e-01
 2.3867263440e+00	 1.3481682252e+00	-2.9403123632e-01
 2.3737102270e+00	 1.3709559160e+00	-3.4403345098e-01
 2.3604597119e+00	 1.3936464475e+00	-3.9243876754e-01
 2.3469757852e+00	 1.4162362713e+00	-4.3888481067e-01
 2.4818133957e+00	 1.1913243525e+00	 6.4097567785e-02
 2.4704110516e+00	 1.2147925290e+00	 1.4293494839e-02
 2.4587683452e+00	 1.2381882385e+00	-3.6442363883e-02
 2.4468857740e+00	 1.2615078884e+00	-8.7842883323e-02
 2.4347639055e+00	 1.2847478848e+00	-1.3959099373e-01
 2.4224033773e+00	 1.3079046348e+00	-1.9133081827e-01
 2.4098048973e+00	 1.3309745481e+00	-2.4268009845e-01
 2.3969692442e+00	 1.3539540383e+00	-2.9324386342e-01
 2.3838972671e+00	 1.3768395250e+00	-3.4262928948e-01
 2.3705898860e+00	 1.3996274354e+00	-3.9046168612e-01
 2.3570480915e+00	 1.4223142060e+00	-4.3640153544e-01
 2.4924188579e+00	 1.1964152048e+00	 6.2327599065e-02
 2.4809677886e+00	 1.2199836672e+00	 1.2519236352e-02
 2.4692753297e+00	 1.2434793529e+00	-3.7974724233e-02
 2.4573419811e+00	 1.2668986540e+00	-8.8943673609e-02
 2.4451683125e+00	 1.2902379612e+00	-1.4012275049e-01
 2.4327549644e+00	 1.3134936663e+00	-1.9120416926e-01
 2.4201026477e+00	 1.3366621636e+00	-2.4184987914e-01
 2.4072121444e+00	 1.3597398514e+00	-2.9170550996e-01
 2.3940843072e+00	 1.3827231340e+00	-3.4041554957e-01
 2.3807200600e+00	 1.4056084233e+00	-3.8763968773e-01
 2.3671203977e+00	 1.4283921406e+00	-4.3307025164e-01
 2.2663973352e+00	 1.3676127941e+00	-4.4475030697e-01
 2.2531519739e+00	 1.3893263787e+00	-4.9436351359e-01
 2.2396833270e+00	 1.4109358964e+00	-5.4281677319e-01
 2.2259925544e+00	 1.4324379603e+00	-5.9023442286e-01
 2.2120808832e+00	 1.4538291991e+00	-6.3600551954e-01
 2.1979496082e+00	 1.4751062589e+00	-6.7874149308e-01
 2.1836000912e+00	 1.4962658048e+00	-7.1950458811e-01
 2.1690337608e+00	 1.5173045227e+00	-7.5886577369e-01
 2.1542521123e+00	 1.5382191208e+00	-7.9800628601e-01
 2.1392567067e+00	 1.5590063311e+00	-8.3807299924e-01
 2.1240491707e+00	 1.5796629115e+00	-8.8013357280e-01
 2.2764696415e+00	 1.3736907288e+00	-4.4406129683e-01
 2.2631654152e+00	 1.3955008127e+00	-4.9284019578e-01
 2.2496369111e+00	 1.4172063672e+00	-5.4034530844e-01
 2.2358852940e+00	 1.4388039904e+00	-5.8673871299e-01
 2.2219117966e+00	 1.4602902960e+00	-6.3230413345e-01
 2.2077177195e+00	 1.4816619152e+00	-6.7597695191e-01
 2.1933044305e+00	 1.5029154982e+00	-7.1703081408e-01
 2.1786733646e+00	 1.5240477163e+00	-7.5634648083e-01
 2.1638260236e+00	 1.5450552628e+00	-7.9523047803e-01
 2.1487639755e+00	 1.5659348555e+00	-8.3490091748e-01
 2.1334888543e+00	 1.5866832377e+00	-8.7649264259e-01
 2.2865419477e+00	 1.3797686634e+00	-4.4364635847e-01
 2.2731788565e+00	 1.4016752467e+00	-4.9166893559e-01
 2.2595904951e+00	 1.4234768381e+00	-5.3833852391e-01
 2.2457780336e+00	 1.4451700206e+00	-5.8384416297e-01
 2.2317427101e+00	 1.4667513930e+00	-6.2849754763e-01
 2.2174858309e+00	 1.4882175715e+00	-6.7254552774e-01
 2.2030087699e+00	 1.5095651916e+00	-7.1404038018e-01
 2.1883129684e+00	 1.5307909098e+00	-7.5349450505e-01
 2.1733999348e+00	 1.5518914048e+00	-7.9228040549e-01
 2.1582712443e+00	 1.5728633799e+00	-8.3167794846e-01
 2.1429285379e+00	 1.5937035639e+00	-8.7287966019e-01
 2.2966142540e+00	 1.3858465981e+00	-4.4336075291e-01
 2.2831922978e+00	 1.4078496807e+00	-4.9069895115e-01
 2.2695440791e+00	 1.4297473090e+00	-5.3664009934e-01
 2.2556707732e+00	 1.4515360508e+00	-5.8138950937e-01
 2.2415736236e+00	 1.4732124899e+00	-6.2527549397e-01
 2.2272539423e+00	 1.4947732278e+00	-6.6856583167e-01
 2.2127131092e+00	 1.5162148850e+00	-7.1052924952e-01
 2.1979525721e+00	 1.5375341033e+00	-7.5030303118e-01
 2.1829738461e+00	 1.5587275468e+00	-7.8914792511e-01
 2.1677785131e+00	 1.5797919042e+00	-8.2839618953e-01
 2.1523682214e+00	 1.6007238901e+00	-8.6928864796e-01
 2.3066865602e+00	 1.3919245327e+00	-4.4306074421e-01
 2.2932057391e+00	 1.4140241147e+00	-4.8978077523e-01
 2.2794976632e+00	 1.4360177798e+00	-5.3509533568e-01
 2.2655635128e+00	 1.4579020809e+00	-5.7921540842e-01
 2.2514045371e+00	 1.4796735869e+00	-6.2247527808e-01
 2.2370220536e+00	 1.5013288841e+00	-6.6491785706e-01
 2.2224174485e+00	 1.5228645784e+00	-7.0649324055e-01
 2.2075921759e+00	 1.5442772968e+00	-7.4676487991e-01
 2.1925477574e+00	 1.5655636889e+00	-7.8582457950e-01
 2.1772857819e+00	 1.5867204286e+00	-8.2504745597e-01
 2.1618079050e+00	 1.6077442163e+00	-8.6571335744e-01
 2.3167588665e+00	 1.3980024674e+00	-4.4260373778e-01
 2.3032191804e+00	 1.4201985487e+00	-4.8876639768e-01
 2.2894512472e+00	 1.4422882507e+00	-5.3355130204e-01
 2.2754562524e+00	 1.4642681111e+00	-5.7716458743e-01
 2.2612354505e+00	 1.4861346838e+00	-6.1991384691e-01
 2.2467901650e+00	 1.5078845404e+00	-6.6160194362e-01
 2.2321217879e+00	 1.5295142718e+00	-7.0244012988e-01
 2.2172317797e+00	 1.5510204903e+00	-7.4287252055e-01
 2.2021216687e+00	 1.5723998309e+00	-7.8230161343e-01
 2.1867930507e+00	 1.5936489530e+00	-8.2162330132e-01
 2.1712475886e+00	 1.6147645425e+00	-8.6214729431e-01
 2.3268311727e+00	 1.4040804020e+00	-4.4184841864e-01
 2.3132326217e+00	 1.4263729827e+00	-4.8750940803e-01
 2.2994048313e+00	 1.4485587215e+00	-5.3185698267e-01
 2.2853489920e+00	 1.4706341413e+00	-5.7508199647e-01
 2.2710663640e+00	 1.4925957808e+00	-6.1737823031e-01
 2.2565582763e+00	 1.5144401967e+00	-6.5847205419e-01
 2.2418261272e+00	 1.5361639653e+00	-6.9873891113e-01
 2.2268713834e+00	 1.5577636839e+00	-7.3871081126e-01
 2.2116955799e+00	 1.5792359729e+00	-7.7856999024e-01
 2.1963003195e+00	 1.6005774774e+00	-8.1811503779e-01
 2.1806872722e+00	 1.6217848687e+00	-8.5858374346e-01
 2.3369034790e+00	 1.4101583367e+00	-4.4065488981e-01
 2.3232460630e+00	 1.4325474167e+00	-4.8586513808e-01
 2.3093584153e+00	 1.4548291924e+00	-5.2986342401e-01
 2.2952417317e+00	 1.4770001715e+00	-5.7281496015e-01
 2.2808972775e+00	 1.4990568777e+00	-6.1472136097e-01
 2.2663263877e+00	 1.5209958530e+00	-6.5538687269e-01
 2.2515304666e+00	 1.5428136587e+00	-6.9525137734e-01
 2.2365109872e+00	 1.5645068774e+00	-7.3481546728e-01
 2.2212694912e+00	 1.5860721149e+00	-7.7462040841e-01
 2.2058075883e+00	 1.6075060018e+00	-8.1451375683e-01
 2.1901269558e+00	 1.6288051949e+00	-8.5501579406e-01
 2.3469757852e+00	 1.4162362713e+00	-4.3888481067e-01
 2.3332595043e+00	 1.4387218507e+00	-4.8369080466e-01
 2.3193119994e+00	 1.4610996633e+00	-5.2742388194e-01
 2.3051344713e+00	 1.4833662016e+00	-5.7021022109e-01
 2.2907281909e+00	 1.5055179747e+00	-6.1180426473e-01
 2.2760944991e+00	 1.5275515093e+00	-6.5220970064e-01
 2.2612348059e+00	 1.5494633521e+00	-6.9184394501e-01
 2.2461505910e+00	 1.5712500709e+00	-7.3116644999e-01
 2.2308434025e+00	 1.5929082569e+00	-7.7068026891e-01
 2.2153148571e+00	 1.6144345262e+00	-8.1081034972e-01
 2.1995666394e+00	 1.6358255211e+00	-8.5143636468e-01
 2.3570480915e+00	 1.4223142060e+00	-4.3640153544e-01
 2.3432729456e+00	 1.4448962847e+00	-4.8084565240e-01
 2.3292655834e+00	 1.4673701341e+00	-5.2439396905e-01
 2.3150272109e+00	 1.4897322318e+00	-5.6707325575e-01
 2.3005591044e+00	 1.5119790717e+00	-6.0849246424e-01
 2.2858626104e+00	 1.5341071656e+00	-6.4880835387e-01
 2.2709391453e+00	 1.5561130455e+00	-6.8838754893e-01
 2.2557901948e+00	 1.5779932644e+00	-7.2763875717e-01
 2.2404173138e+00	 1.5997443990e+00	-7.6701442341e-01
 2.2248221259e+00	 1.6213630506e+00	-8.0701234164e-01
 2.2090063230e+00	 1.6428458473e+00	-8.4783822848e-01
 2.3671203977e+00	 1.4283921406e+00	-4.3307025164e-01
 2.3532863869e+00	 1.4510707187e+00	-4.7719109656e-01
 2.3392191675e+00	 1.4736406050e+00	-5.2063180205e-01
 2.3249199505e+00	 1.4960982620e+00	-5.6325368813e-01
 2.3103900179e+00	 1.5184401686e+00	-6.0465587794e-01
 2.2956307218e+00	 1.5406628219e+00	-6.4505505932e-01
 2.2806434846e+00	 1.5627627389e+00	-6.8475753724e-01
 2.2654297985e+00	 1.5847364579e+00	-7.2411178719e-01
 2.2499912250e+00	 1.6065805410e+00	-7.6351021014e-01
 2.2343293947e+00	 1.6282915749e+00	-8.0339084718e-01
 2.2184460065e+00	 1.6498661735e+00	-8.4421403839e-01
 2.1240491707e+00	 1.5796629115e+00	-8.8013357280e-01
 2.1086285586e+00	 1.6001891226e+00	-9.2262969435e-01
 2.0929992023e+00	 1.6205782439e+00	-9.6327087844e-01
 2.0771629315e+00	 1.6408271066e+00	-1.0019456202e+00
 2.0611216396e+00	 1.6609325739e+00	-1.0384871787e+00
 2.0448772823e+00	 1.6808915424e+00	-1.0726834554e+00
 2.0284318771e+00	 1.7007009442e+00	-1.1042874184e+00
 2.0117875028e+00	 1.7203577481e+00	-1.1330280009e+00
 1.9949462982e+00	 1.7398589610e+00	-1.1586213959e+00
 1.9779104614e+00	 1.7592016297e+00	-1.1807826660e+00
 1.9606822491e+00	 1.7783828422e+00	-1.1992375871e+00
 2.1334888543e+00	 1.5866832377e+00	-8.7649264259e-01
 2.1179997100e+00	 1.6073006712e+00	-9.1847962581e-01
 2.1023008938e+00	 1.6277804057e+00	-9.5857817749e-01
 2.0863942437e+00	 1.6481192583e+00	-9.9670160318e-01
 2.0702816611e+00	 1.6683140781e+00	-1.0327069491e+00
 2.0539651107e+00	 1.6883617481e+00	-1.0664051896e+00
 2.0374466190e+00	 1.7082591867e+00	-1.0975719767e+00
 2.0207282739e+00	 1.7280033492e+00	-1.1259588769e+00
 2.0038122237e+00	 1.7475912293e+00	-1.1513050151e+00
 1.9867006765e+00	 1.7670198605e+00	-1.1733490433e+00
 1.9693958986e+00	 1.7862863180e+00	-1.1918413486e+00
 2.1429285379e+00	 1.5937035639e+00	-8.7287966019e-01
 2.1273708614e+00	 1.6144122199e+00	-9.1439757488e-01
 2.1116025853e+00	 1.6349825676e+00	-9.5397124458e-01
 2.0956255558e+00	 1.6554114100e+00	-9.9154522370e-01
 2.0794416827e+00	 1.6756955823e+00	-1.0270066642e+00
 2.0630529392e+00	 1.6958319539e+00	-1.0601958122e+00
 2.0464613609e+00	 1.7158174293e+00	-1.0909170824e+00
 2.0296690450e+00	 1.7356489504e+00	-1.1189506343e+00
 2.0126781493e+00	 1.7553234976e+00	-1.1440643664e+00
 1.9954908915e+00	 1.7748380914e+00	-1.1660262445e+00
 1.9781095482e+00	 1.7941897939e+00	-1.1846168764e+00
 2.1523682214e+00	 1.6007238901e+00	-8.6928864796e-01
 2.1367420128e+00	 1.6215237685e+00	-9.1038010860e-01
 2.1209042769e+00	 1.6421847294e+00	-9.4944860099e-01
 2.1048568679e+00	 1.6627035616e+00	-9.8647626277e-01
 2.0886017042e+00	 1.6830770866e+00	-1.0213865653e+00
 2.0721407677e+00	 1.7033021596e+00	-1.0540551191e+00
 2.0554761029e+00	 1.7233756718e+00	-1.0843210743e+00
 2.0386098161e+00	 1.7432945515e+00	-1.1119990362e+00
 2.0215440749e+00	 1.7630557659e+00	-1.1368914114e+00
 2.0042811065e+00	 1.7826563222e+00	-1.1588010978e+00
 1.9868231977e+00	 1.8020932697e+00	-1.1775444272e+00
 2.1618079050e+00	 1.6077442163e+00	-8.6571335744e-01
 2.1461131642e+00	 1.6286353171e+00	-9.0642353135e-01
 2.1302059684e+00	 1.6493868912e+00	-9.4500853068e-01
 2.1140881800e+00	 1.6699957133e+00	-9.8149430751e-01
 2.0977617257e+00	 1.6904585908e+00	-1.0158467619e+00
 2.0812285961e+00	 1.7107723653e+00	-1.0479828565e+00
 2.0644908448e+00	 1.7309339143e+00	-1.0777823435e+00
 2.0475505872e+00	 1.7509401527e+00	-1.1051000208e+00
 2.0304100004e+00	 1.7707880342e+00	-1.1297784319e+00
 2.0130713215e+00	 1.7904745531e+00	-1.1516609191e+00
 1.9955368472e+00	 1.8099967456e+00	-1.1706049361e+00
 2.1712475886e+00	 1.6147645425e+00	-8.6214729431e-01
 2.1554843157e+00	 1.6357468658e+00	-9.0252391471e-01
 2.1395076600e+00	 1.6565890530e+00	-9.4064911477e-01
 2.1233194921e+00	 1.6772878650e+00	-9.7659878984e-01
 2.1069217472e+00	 1.6978400951e+00	-1.0103872745e+00
 2.0903164246e+00	 1.7182425711e+00	-1.0419787668e+00
 2.0735055867e+00	 1.7384921569e+00	-1.0712993826e+00
 2.0564913584e+00	 1.7585857539e+00	-1.0982497540e+00
 2.0392759260e+00	 1.7785203025e+00	-1.1227180847e+00
 2.0218615365e+00	 1.7982927839e+00	-1.1445935684e+00
 2.0042504967e+00	 1.8179002214e+00	-1.1637800743e+00
 2.1806872722e+00	 1.6217848687e+00	-8.5858374346e-01
 2.1648554671e+00	 1.6428584144e+00	-8.9867712734e-01
 2.1488093515e+00	 1.6637912149e+00	-9.3636826595e-01
 2.1325508042e+00	 1.6845800167e+00	-9.7178902518e-01
 2.1160817687e+00	 1.7052215993e+00	-1.0050080771e+00
 2.0994042531e+00	 1.7257127768e+00	-1.0360426350e+00
 2.0825203286e+00	 1.7460503994e+00	-1.0648708353e+00
 2.0654321295e+00	 1.7662313550e+00	-1.0914446816e+00
 2.0481418515e+00	 1.7862525708e+00	-1.1157034560e+00
 2.0306517516e+00	 1.8061110147e+00	-1.1375875060e+00
 2.0129641463e+00	 1.8258036973e+00	-1.1570523062e+00
 2.1901269558e+00	 1.6288051949e+00	-8.5501579406e-01
 2.1742266185e+00	 1.6499699631e+00	-8.9487886474e-01
 2.1581110431e+00	 1.6709933767e+00	-9.3216376281e-01
 2.1417821163e+00	 1.6918721683e+00	-9.6706425104e-01
 2.1252417902e+00	 1.7126031035e+00	-9.9970914006e-01
 2.1084920815e+00	 1.7331829826e+00	-1.0301743346e+00
 2.0915350705e+00	 1.7536086420e+00	-1.0584955459e+00
 2.0743729006e+00	 1.7738769562e+00	-1.0846815812e+00
 2.0570077771e+00	 1.7939848391e+00	-1.1087281157e+00
 2.0394419666e+00	 1.8139292456e+00	-1.1306318493e+00
 2.0216777958e+00	 1.8337071731e+00	-1.1504049476e+00
 2.1995666394e+00	 1.6358255211e+00	-8.5143636468e-01
 2.1835977699e+00	 1.6570815117e+00	-8.9112467918e-01
 2.1674127346e+00	 1.6781955385e+00	-9.2803328415e-01
 2.1510134284e+00	 1.6991643200e+00	-9.6242366550e-01
 2.1344018118e+00	 1.7199846078e+00	-9.9449047192e-01
 2.1175799100e+00	 1.7406531883e+00	-1.0243738738e+00
 2.1005498124e+00	 1.7611668845e+00	-1.0521726078e+00
 2.0833136717e+00	 1.7815225573e+00	-1.0779576143e+00
 2.0658737026e+00	 1.8017171074e+00	-1.1017861718e+00
 2.0482321816e+00	 1.8217474764e+00	-1.1237164281e+00
 2.0303914453e+00	 1.8416106490e+00	-1.1438222228e+00
 2.2090063230e+00	 1.6428458473e+00	-8.4783822848e-01
 2.1929689213e+00	 1.6641930603e+00	-8.8741000945e-01
 2.1767144262e+00	 1.6853977003e+00	-9.2397444324e-01
 2.1602447405e+00	 1.7064564717e+00	-9.5786646565e-01
 2.1435618333e+00	 1.7273661120e+00	-9.8935216222e-01
 2.1266677385e+00	 1.7481233940e+00	-1.0186414415e+00
 2.1095645544e+00	 1.7687251270e+00	-1.0459014134e+00
 2.0922544428e+00	 1.7891681585e+00	-1.0712703779e+00
 2.0747396282e+00	 1.8094493757e+00	-1.0948723247e+00
 2.0570223966e+00	 1.8295657073e+00	-1.1168318412e+00
 2.0391050948e+00	 1.8495141248e+00	-1.1372893222e+00
 2.2184460065e+00	 1.6498661735e+00	-8.4421403839e-01
 2.2023400728e+00	 1.6713046090e+00	-8.8373021068e-01
 2.1860161177e+00	 1.6925998622e+00	-9.1998482202e-01
 2.1694760526e+00	 1.7137486233e+00	-9.5339188594e-01
 2.1527218548e+00	 1.7347476162e+00	-9.8429442344e-01
 2.1357555669e+00	 1.7555935998e+00	-1.0129774524e+00
 2.1185792963e+00	 1.7762833696e+00	-1.0396817023e+00
 2.1011952139e+00	 1.7968137596e+00	-1.0646179564e+00
 2.0836055537e+00	 1.8171816440e+00	-1.0879819207e+00
 2.0658126116e+00	 1.8373839381e+00	-1.1099695124e+00
 2.0478187444e+00	 1.8574176007e+00	-1.1307008917e+00
 1.9606822491e+00	 1.7783828422e+00	-1.1992375871e+00
 1.9432669467e+00	 1.7973965160e+00	-1.2156077307e+00
 1.9256639853e+00	 1.8162431273e+00	-1.2322779815e+00
 1.9078757581e+00	 1.8349199290e+00	-1.2501581429e+00
 1.8899047126e+00	 1.8534242204e+00	-1.2701945343e+00
 1.8717533493e+00	 1.8717533493e+00	-1.2908020005e+00
 1.8534242204e+00	 1.8899047126e+00	-1.3105624897e+00
 1.8349199290e+00	 1.9078757581e+00	-1.3274428101e+00
 1.8162431273e+00	 1.9256639853e+00	-1.3390371596e+00
 1.7973965160e+00	 1.9432669467e+00	-1.3463343303e+00
 1.7783828422e+00	 1.9606822491e+00	-1.3503054262e+00
 1.9693958986e+00	 1.7862863180e+00	-1.1918413486e+00
 1.9519031993e+00	 1.8053844922e+00	-1.2083967077e+00
 1.9342220069e+00	 1.8243148616e+00	-1.2253750188e+00
 1.9163547254e+00	 1.8430746665e+00	-1.2436850329e+00
 1.8983038131e+00	 1.8616611946e+00	-1.2637099776e+00
 1.8800717816e+00	 1.8800717816e+00	-1.2830403577e+00
 1.8616611946e+00	 1.8983038131e+00	-1.3014796026e+00
 1.8430746665e+00	 1.9163547254e+00	-1.3186591916e+00
 1.8243148616e+00	 1.9342220069e+00	-1.3310541383e+00
 1.8053844922e+00	 1.9519031993e+00	-1.3388900215e+00
 1.7862863180e+00	 1.9693958986e+00	-1.3431425168e+00
 1.9781095482e+00	 1.7941897939e+00	-1.1846168764e+00
 1.9605394518e+00	 1.8133724685e+00	-1.2014411430e+00
 1.9427800285e+00	 1.8323865958e+00	-1.2188246902e+00
 1.9248336927e+00	 1.8512294041e+00	-1.2376714874e+00
 1.9067029136e+00	 1.8698981688e+00	-1.2570432077e+00
 1.8883902140e+00	 1.8883902140e+00	-1.2752638747e+00
 1.8698981688e+00	 1.9067029136e+00	-1.2925491700e+00
 1.8512294041e+00	 1.9248336927e+00	-1.3091098008e+00
 1.8323865958e+00	 1.9427800285e+00	-1.3224449894e+00
 1.8133724685e+00	 1.9605394518e+00	-1.3309461428e+00
 1.7941897939e+00	 1.9781095482e+00	-1.3355903688e+00
 1.9868231977e+00	 1.8020932697e+00	-1.1775444272e+00
 1.9691757044e+00	 1.8213604448e+00	-1.1947140546e+00
 1.9513380501e+00	 1.8404583301e+00	-1.2125929585e+00
 1.9333126600e+00	 1.8593841416e+00	-1.2317826737e+00
 1.9151020142e+00	 1.8781351430e+00	-1.2502284730e+00
 1.8967086464e+00	 1.8967086464e+00	-1.2675025499e+00
 1.8781351430e+00	 1.9151020142e+00	-1.2837974240e+00
 1.8593841416e+00	 1.9333126600e+00	-1.2993015620e+00
 1.8404583301e+00	 1.9513380501e+00	-1.3132914981e+00
 1.8213604448e+00	 1.9691757044e+00	-1.3225795216e+00
 1.8020932697e+00	 1.9868231977e+00	-1.3277216194e+00
 1.9955368472e+00	 1.8099967456e+00	-1.1706049361e+00
 1.9778119570e+00	 1.8293484211e+00	-1.1881893383e+00
 1.9598960717e+00	 1.8485300643e+00	-1.2066468551e+00
 1.9417916273e+00	 1.8675388792e+00	-1.2256273493e+00
 1.9235011147e+00	 1.8863721172e+00	-1.2432993578e+00
 1.9050270787e+00	 1.9050270787e+00	-1.2597858471e+00
 1.8863721172e+00	 1.9235011147e+00	-1.2752501852e+00
 1.8675388792e+00	 1.9417916273e+00	-1.2898516940e+00
 1.8485300643e+00	 1.9598960717e+00	-1.3036765437e+00
 1.8293484211e+00	 1.9778119570e+00	-1.3138681830e+00
 1.8099967456e+00	 1.9955368472e+00	-1.3196102082e+00
 2.0042504967e+00	 1.8179002214e+00	-1.1637800743e+00
 1.9864482095e+00	 1.8373363974e+00	-1.1818418256e+00
 1.9684540933e+00	 1.8566017986e+00	-1.2008551133e+00
 1.9502705946e+00	 1.8756936167e+00	-1.2192405196e+00
 1.9319002152e+00	 1.8946090913e+00	-1.2362887626e+00
 1.9133455111e+00	 1.9133455111e+00	-1.2521426765e+00
 1.8946090913e+00	 1.9319002152e+00	-1.2669328439e+00
 1.8756936167e+00	 1.9502705946e+00	-1.2807858398e+00
 1.8566017986e+00	 1.9684540933e+00	-1.2938325135e+00
 1.8373363974e+00	 1.9864482095e+00	-1.3048911240e+00
 1.8179002214e+00	 2.0042504967e+00	-1.3113311533e+00
 2.0129641463e+00	 1.8258036973e+00	-1.1570523062e+00
 1.9950844621e+00	 1.8453243736e+00	-1.1756473430e+00
 1.9770121150e+00	 1.8646735328e+00	-1.1947840813e+00
 1.9587495619e+00	 1.8838483543e+00	-1.2126586835e+00
 1.9402993157e+00	 1.9028460655e+00	-1.2292288850e+00
 1.9216639435e+00	 1.9216639435e+00	-1.2446013752e+00
 1.9028460655e+00	 1.9402993157e+00	-1.2588703411e+00
 1.8838483543e+00	 1.9587495619e+00	-1.2721260314e+00
 1.8646735328e+00	 1.9770121150e+00	-1.2844633590e+00
 1.8453243736e+00	 1.9950844621e+00	-1.2957280873e+00
 1.8258036973e+00	 2.0129641463e+00	-1.3029603274e+00
 2.0216777958e+00	 1.8337071731e+00	-1.1504049476e+00
 2.0037207147e+00	 1.8533123499e+00	-1.1695750790e+00
 1.9855701366e+00	 1.8727452671e+00	-1.1884215967e+00
 1.9672285292e+00	 1.8920030918e+00	-1.2059174821e+00
 1.9486984162e+00	 1.9110830397e+00	-1.2221511997e+00
 1.9299823758e+00	 1.9299823758e+00	-1.2371896877e+00
 1.9110830397e+00	 1.9486984162e+00	-1.2510871496e+00
 1.8920030918e+00	 1.9672285292e+00	-1.2638939498e+00
 1.8727452671e+00	 1.9855701366e+00	-1.2756655486e+00
 1.8533123499e+00	 2.0037207147e+00	-1.2864714154e+00
 1.8337071731e+00	 2.0216777958e+00	-1.2945742351e+00
 2.0303914453e+00	 1.8416106490e+00	-1.1438222228e+00
 2.0123569672e+00	 1.8613003262e+00	-1.1633063103e+00
 1.9941281582e+00	 1.8808170013e+00	-1.1818068637e+00
 1.9757074965e+00	 1.9001578294e+00	-1.1990516789e+00
 1.9570975168e+00	 1.9193200139e+00	-1.2150864394e+00
 1.9383008082e+00	 1.9383008082e+00	-1.2299347473e+00
 1.9193200139e+00	 1.9570975168e+00	-1.2436072555e+00
 1.9001578294e+00	 1.9757074965e+00	-1.2561109065e+00
 1.8808170013e+00	 1.9941281582e+00	-1.2674582125e+00
 1.8613003262e+00	 2.0123569672e+00	-1.2776765122e+00
 1.8416106490e+00	 2.0303914453e+00	-1.2862497891e+00
 2.0391050948e+00	 1.8495141248e+00	-1.1372893222e+00
 2.0209932198e+00	 1.8692883025e+00	-1.1567139718e+00
 2.0026861798e+00	 1.8888887356e+00	-1.1749780506e+00
 1.9841864639e+00	 1.9083125669e+00	-1.1920951406e+00
 1.9654966173e+00	 1.9275569881e+00	-1.2080645754e+00
 1.9466192406e+00	 1.9466192406e+00	-1.2228630568e+00
 1.9275569881e+00	 1.9654966173e+00	-1.2364541396e+00
 1.9083125669e+00	 1.9841864639e+00	-1.2487978263e+00
 1.8888887356e+00	 2.0026861798e+00	-1.2598602041e+00
 1.8692883025e+00	 2.0209932198e+00	-1.2696230573e+00
 1.8495141248e+00	 2.0391050948e+00	-1.2780640874e+00
 2.0478187444e+00	 1.8574176007e+00	-1.1307008917e+00
 2.0296294724e+00	 1.8772762787e+00	-1.1498397214e+00
 2.0112442014e+00	 1.8969604698e+00	-1.1679722700e+00
 1.9926654312e+00	 1.9164673045e+00	-1.1850808175e+00
 1.9738957178e+00	 1.9357939623e+00	-1.2011147985e+00
 1.9549376729e+00	 1.9549376729e+00	-1.2160004694e+00
 1.9357939623e+00	 1.9738957178e+00	-1.2296507589e+00
 1.9164673045e+00	 1.9926654312e+00	-1.2419752292e+00
 1.8969604698e+00	 2.0112442014e+00	-1.2528900834e+00
 1.8772762787e+00	 2.0296294724e+00	-1.2623281452e+00
 1.8574176007e+00	 2.0478187444e+00	-1.2702487459e+00
 1.7783828422e+00	 1.9606822491e+00	-1.3503054262e+00
 1.7592016297e+00	 1.9779104614e+00	-1.3523919618e+00
 1.7398589610e+00	 1.9949462982e+00	-1.3533844012e+00
 1.7203577481e+00	 2.0117875028e+00	-1.3532501909e+00
 1.7007009442e+00	 2.0284318771e+00	-1.3519581358e+00
 1.6808915424e+00	 2.0448772823e+00	-1.3494864454e+00
 1.6609325739e+00	 2.0611216396e+00	-1.3458308044e+00
 1.6408271066e+00	 2.0771629315e+00	-1.3410123980e+00
 1.6205782439e+00	 2.0929992023e+00	-1.3350858236e+00
 1.6001891226e+00	 2.1086285586e+00	-1.3281468216e+00
 1.5796629115e+00	 2.1240491707e+00	-1.3203397588e+00
 1.7862863180e+00	 1.9693958986e+00	-1.3431425168e+00
 1.7670198605e+00	 1.9867006765e+00	-1.3453188625e+00
 1.7475912293e+00	 2.0038122237e+00	-1.3462893398e+00
 1.7280033492e+00	 2.0207282739e+00	-1.3460451248e+00
 1.7082591867e+00	 2.0374466190e+00	-1.3445773786e+00
 1.6883617481e+00	 2.0539651107e+00	-1.3418855770e+00
 1.6683140781e+00	 2.0702816611e+00	-1.3379858691e+00
 1.6481192583e+00	 2.0863942437e+00	-1.3329193929e+00
 1.6277804057e+00	 2.1023008938e+00	-1.3267604786e+00
 1.6073006712e+00	 2.1179997100e+00	-1.3196246679e+00
 1.5866832377e+00	 2.1334888543e+00	-1.3116764826e+00
 1.7941897939e+00	 1.9781095482e+00	-1.3355903688e+00
 1.7748380914e+00	 1.9954908915e+00	-1.3379425156e+00
 1.7553234976e+00	 2.0126781493e+00	-1.3389496730e+00
 1.7356489504e+00	 2.0296690450e+00	-1.3386313306e+00
 1.7158174293e+00	 2.0464613609e+00	-1.3370056113e+00
 1.6958319539e+00	 2.0630529392e+00	-1.3340978864e+00
 1.6756955823e+00	 2.0794416827e+00	-1.3299494246e+00
 1.6554114100e+00	 2.0956255558e+00	-1.3246260009e+00
 1.6349825676e+00	 2.1116025853e+00	-1.3182263925e+00
 1.6144122199e+00	 2.1273708614e+00	-1.3108906909e+00
 1.5937035639e+00	 2.1429285379e+00	-1.3028083568e+00
 1.8020932697e+00	 1.9868231977e+00	-1.3277216194e+00
 1.7826563222e+00	 2.0042811065e+00	-1.3303322192e+00
 1.7630557659e+00	 2.0215440749e+00	-1.3314322243e+00
 1.7432945515e+00	 2.0386098161e+00	-1.3310739379e+00
 1.7233756718e+00	 2.0554761029e+00	-1.3293069643e+00
 1.7033021596e+00	 2.0721407677e+00	-1.3261871120e+00
 1.6830770866e+00	 2.0886017042e+00	-1.3217853359e+00
 1.6627035616e+00	 2.1048568679e+00	-1.3161966417e+00
 1.6421847294e+00	 2.1209042769e+00	-1.3095488783e+00
 1.6215237685e+00	 2.1367420128e+00	-1.3020113441e+00
 1.6007238901e+00	 2.1523682214e+00	-1.2938031324e+00
 1.8099967456e+00	 1.9955368472e+00	-1.3196102082e+00
 1.7904745531e+00	 2.0130713215e+00	-1.3225586755e+00
 1.7707880342e+00	 2.0304100004e+00	-1.3238053199e+00
 1.7509401527e+00	 2.0475505872e+00	-1.3234396744e+00
 1.7309339143e+00	 2.0644908448e+00	-1.3215472584e+00
 1.7107723653e+00	 2.0812285961e+00	-1.3182187723e+00
 1.6904585908e+00	 2.0977617257e+00	-1.3135593351e+00
 1.6699957133e+00	 2.1140881800e+00	-1.3076976880e+00
 1.6493868912e+00	 2.1302059684e+00	-1.3007952859e+00
 1.6286353171e+00	 2.1461131642e+00	-1.2930552010e+00
 1.6077442163e+00	 2.1618079050e+00	-1.2847307614e+00
 1.8179002214e+00	 2.0042504967e+00	-1.3113311533e+00
 1.7982927839e+00	 2.0218615365e+00	-1.3146937699e+00
 1.7785203025e+00	 2.0392759260e+00	-1.3161385711e+00
 1.7585857539e+00	 2.0564913584e+00	-1.3157966517e+00
 1.7384921569e+00	 2.0735055867e+00	-1.3137937950e+00
 1.7182425711e+00	 2.0903164246e+00	-1.3102599606e+00
 1.6978400951e+00	 2.1069217472e+00	-1.3053388218e+00
 1.6772878650e+00	 2.1233194921e+00	-1.2991972707e+00
 1.6565890530e+00	 2.1395076600e+00	-1.2920348128e+00
 1.6357468658e+00	 2.1554843157e+00	-1.2840927706e+00
 1.6147645425e+00	 2.1712475886e+00	-1.2756632192e+00
 1.8258036973e+00	 2.0129641463e+00	-1.3029603274e+00
 1.8061110147e+00	 2.0306517516e+00	-1.3068103509e+00
 1.7862525708e+00	 2.0481418515e+00	-1.3085026571e+00
 1.7662313550e+00	 2.0654321295e+00	-1.3082141520e+00
 1.7460503994e+00	 2.0825203286e+00	-1.3061151462e+00
 1.7257127768e+00	 2.0994042531e+00	-1.3023791398e+00
 1.7052215993e+00	 2.1160817687e+00	-1.2971926623e+00
 1.6845800167e+00	 2.1325508042e+00	-1.2907650835e+00
 1.6637912149e+00	 2.1488093515e+00	-1.2833383139e+00
 1.6428584144e+00	 2.1648554671e+00	-1.2751963131e+00
 1.6217848687e+00	 2.1806872722e+00	-1.2666743251e+00
 1.8337071731e+00	 2.0216777958e+00	-1.2945742351e+00
 1.8139292456e+00	 2.0394419666e+00	-1.2989820087e+00
 1.7939848391e+00	 2.0570077771e+00	-1.3009691073e+00
 1.7738769562e+00	 2.0743729006e+00	-1.3007624144e+00
 1.7536086420e+00	 2.0915350705e+00	-1.2985809462e+00
 1.7331829826e+00	 2.1084920815e+00	-1.2946459380e+00
 1.7126031035e+00	 2.1252417902e+00	-1.2891909901e+00
 1.6918721683e+00	 2.1417821163e+00	-1.2824721876e+00
 1.6709933767e+00	 2.1581110431e+00	-1.2747781118e+00
 1.6499699631e+00	 2.1742266185e+00	-1.2664396561e+00
 1.6288051949e+00	 2.1901269558e+00	-1.2578395649e+00
 1.8416106490e+00	 2.0303914453e+00	-1.2862497891e+00
 1.8217474764e+00	 2.0482321816e+00	-1.2912828558e+00
 1.8017171074e+00	 2.0658737026e+00	-1.2936100852e+00
 1.7815225573e+00	 2.0833136717e+00	-1.2935124217e+00
 1.7611668845e+00	 2.1005498124e+00	-1.2912616814e+00
 1.7406531883e+00	 2.1175799100e+00	-1.2871309435e+00
 1.7199846078e+00	 2.1344018118e+00	-1.2814050053e+00
 1.6991643200e+00	 2.1510134284e+00	-1.2743908174e+00
 1.6781955385e+00	 2.1674127346e+00	-1.2664278077e+00
 1.6570815117e+00	 2.1835977699e+00	-1.2578980100e+00
 1.6358255211e+00	 2.1995666394e+00	-1.2492359116e+00
 1.8495141248e+00	 2.0391050948e+00	-1.2780640874e+00
 1.8295657073e+00	 2.0570223966e+00	-1.2837873062e+00
 1.8094493757e+00	 2.0747396282e+00	-1.2864981708e+00
 1.7891681585e+00	 2.0922544428e+00	-1.2865356875e+00
 1.7687251270e+00	 2.1095645544e+00	-1.2842284822e+00
 1.7481233940e+00	 2.1266677385e+00	-1.2799054999e+00
 1.7273661120e+00	 2.1435618333e+00	-1.2739067754e+00
 1.7064564717e+00	 2.1602447405e+00	-1.2665941852e+00
 1.6853977003e+00	 2.1767144262e+00	-1.2583620908e+00
 1.6641930603e+00	 2.1929689213e+00	-1.2496477843e+00
 1.6428458473e+00	 2.2090063230e+00	-1.2409416477e+00
 1.8574176007e+00	 2.0478187444e+00	-1.2702487459e+00
 1.8373839381e+00	 2.0658126116e+00	-1.2765698562e+00
 1.8171816440e+00	 2.0836055537e+00	-1.2797061447e+00
 1.7968137596e+00	 2.1011952139e+00	-1.2799040434e+00
 1.7762833696e+00	 2.1185792963e+00	-1.2775529135e+00
 1.7555935998e+00	 2.1357555669e+00	-1.2730415026e+00
 1.7347476162e+00	 2.1527218548e+00	-1.2667690350e+00
 1.7137486233e+00	 2.1694760526e+00	-1.2591562863e+00
 1.6925998622e+00	 2.1860161177e+00	-1.2506565496e+00
 1.6713046090e+00	 2.2023400728e+00	-1.2417664031e+00
 1.6498661735e+00	 2.2184460065e+00	-1.2330361857e+00
 1.5796629115e+00	 2.1240491707e+00	-1.3203397588e+00
 1.5590063311e+00	 2.1392567067e+00	-1.3100196942e+00
 1.5382191208e+00	 2.1542521123e+00	-1.2961125624e+00
 1.5173045227e+00	 2.1690337608e+00	-1.2797072532e+00
 1.4962658048e+00	 2.1836000912e+00	-1.2619542096e+00
 1.4751062589e+00	 2.1979496082e+00	-1.2439391811e+00
 1.4538291991e+00	 2.2120808832e+00	-1.2248939084e+00
 1.4324379603e+00	 2.2259925544e+00	-1.2053350677e+00
 1.4109358964e+00	 2.2396833270e+00	-1.1844745072e+00
 1.3893263787e+00	 2.2531519739e+00	-1.1618909979e+00
 1.3676127941e+00	 2.2663973352e+00	-1.1376684723e+00
 1.5866832377e+00	 2.1334888543e+00	-1.3116764826e+00
 1.5659348555e+00	 2.1487639755e+00	-1.3012389168e+00
 1.5450552628e+00	 2.1638260236e+00	-1.2872249527e+00
 1.5240477163e+00	 2.1786733646e+00	-1.2707752136e+00
 1.5029154982e+00	 2.1933044305e+00	-1.2530952566e+00
 1.4816619152e+00	 2.2077177195e+00	-1.2354601947e+00
 1.4602902960e+00	 2.2219117966e+00	-1.2177745742e+00
 1.4388039904e+00	 2.2358852940e+00	-1.1987408884e+00
 1.4172063672e+00	 2.2496369111e+00	-1.1777195515e+00
 1.3955008127e+00	 2.2631654152e+00	-1.1549131081e+00
 1.3736907288e+00	 2.2764696415e+00	-1.1304434745e+00
 1.5937035639e+00	 2.1429285379e+00	-1.3028083568e+00
 1.5728633799e+00	 2.1582712443e+00	-1.2922855646e+00
 1.5518914048e+00	 2.1733999348e+00	-1.2782304644e+00
 1.5307909098e+00	 2.1883129684e+00	-1.2618294738e+00
 1.5095651916e+00	 2.2030087699e+00	-1.2443372604e+00
 1.4882175715e+00	 2.2174858309e+00	-1.2270815563e+00
 1.4667513930e+00	 2.2317427101e+00	-1.2103031915e+00
 1.4451700206e+00	 2.2457780336e+00	-1.1913474782e+00
 1.4234768381e+00	 2.2595904951e+00	-1.1703017442e+00
 1.4016752467e+00	 2.2731788565e+00	-1.1474004785e+00
 1.3797686634e+00	 2.2865419477e+00	-1.1227964203e+00
 1.6007238901e+00	 2.1523682214e+00	-1.2938031324e+00
 1.5797919042e+00	 2.1677785131e+00	-1.2832277333e+00
 1.5587275468e+00	 2.1829738461e+00	-1.2691955724e+00
 1.5375341033e+00	 2.1979525721e+00	-1.2529329753e+00
 1.5162148850e+00	 2.2127131092e+00	-1.2357377726e+00
 1.4947732278e+00	 2.2272539423e+00	-1.2188847340e+00
 1.4732124899e+00	 2.2415736236e+00	-1.2021082463e+00
 1.4515360508e+00	 2.2556707732e+00	-1.1833569664e+00
 1.4297473090e+00	 2.2695440791e+00	-1.1624113145e+00
 1.4078496807e+00	 2.2831922978e+00	-1.1395302642e+00
 1.3858465981e+00	 2.2966142540e+00	-1.1148902526e+00
 1.6077442163e+00	 2.1618079050e+00	-1.2847307614e+00
 1.5867204286e+00	 2.1772857819e+00	-1.2741358183e+00
 1.5655636889e+00	 2.1925477574e+00	-1.2601891830e+00
 1.5442772968e+00	 2.2075921759e+00	-1.2441512543e+00
 1.5228645784e+00	 2.2224174485e+00	-1.2273569845e+00
 1.5013288841e+00	 2.2370220536e+00	-1.2104289631e+00
 1.4796735869e+00	 2.2514045371e+00	-1.1934017786e+00
 1.4579020809e+00	 2.2655635128e+00	-1.1749715176e+00
 1.4360177798e+00	 2.2794976632e+00	-1.1542389565e+00
 1.4140241147e+00	 2.2932057391e+00	-1.1314805422e+00
 1.3919245327e+00	 2.3066865602e+00	-1.1068893185e+00
 1.6147645425e+00	 2.1712475886e+00	-1.2756632192e+00
 1.5936489530e+00	 2.1867930507e+00	-1.2650823422e+00
 1.5723998309e+00	 2.2021216687e+00	-1.2512824663e+00
 1.5510204903e+00	 2.2172317797e+00	-1.2355522777e+00
 1.5295142718e+00	 2.2321217879e+00	-1.2190070270e+00
 1.5078845404e+00	 2.2467901650e+00	-1.2018330256e+00
 1.4861346838e+00	 2.2612354505e+00	-1.1844640882e+00
 1.4642681111e+00	 2.2754562524e+00	-1.1663930154e+00
 1.4422882507e+00	 2.2894512472e+00	-1.1459755182e+00
 1.4201985487e+00	 2.3032191804e+00	-1.1234300049e+00
 1.3980024674e+00	 2.3167588665e+00	-1.0989590663e+00
 1.6217848687e+00	 2.1806872722e+00	-1.2666743251e+00
 1.6005774774e+00	 2.1963003195e+00	-1.2561417815e+00
 1.5792359729e+00	 2.2116955799e+00	-1.2425486884e+00
 1.5577636839e+00	 2.2268713834e+00	-1.2271709198e+00
 1.5361639653e+00	 2.2418261272e+00	-1.2106182920e+00
 1.5144401967e+00	 2.2565582763e+00	-1.1933018951e+00
 1.4925957808e+00	 2.2710663640e+00	-1.1756875941e+00
 1.4706341413e+00	 2.2853489920e+00	-1.1578227467e+00
 1.4485587215e+00	 2.2994048313e+00	-1.1378116899e+00
 1.4263729827e+00	 2.3132326217e+00	-1.1155576541e+00
 1.4040804020e+00	 2.3268311727e+00	-1.0912657437e+00
 1.6288051949e+00	 2.1901269558e+00	-1.2578395649e+00
 1.6075060018e+00	 2.2058075883e+00	-1.2473903939e+00
 1.5860721149e+00	 2.2212694912e+00	-1.2340630431e+00
 1.5645068774e+00	 2.2365109872e+00	-1.2188991682e+00
 1.5428136587e+00	 2.2515304666e+00	-1.2023894945e+00
 1.5209958530e+00	 2.2663263877e+00	-1.1850346334e+00
 1.4990568777e+00	 2.2808972775e+00	-1.1672809390e+00
 1.4770001715e+00	 2.2952417317e+00	-1.1494610852e+00
 1.4548291924e+00	 2.3093584153e+00	-1.1299376940e+00
 1.4325474167e+00	 2.3232460630e+00	-1.1080424941e+00
 1.4101583367e+00	 2.3369034790e+00	-1.0839760963e+00
 1.6358255211e+00	 2.1995666394e+00	-1.2492359116e+00
 1.6144345262e+00	 2.2153148571e+00	-1.2389060453e+00
 1.5929082569e+00	 2.2308434025e+00	-1.2258571722e+00
 1.5712500709e+00	 2.2461505910e+00	-1.2108829579e+00
 1.5494633521e+00	 2.2612348059e+00	-1.1945134454e+00
 1.5275515093e+00	 2.2760944991e+00	-1.1772244756e+00
 1.5055179747e+00	 2.2907281909e+00	-1.1594365227e+00
 1.4833662016e+00	 2.3051344713e+00	-1.1415178183e+00
 1.4610996633e+00	 2.3193119994e+00	-1.1225429733e+00
 1.4387218507e+00	 2.3332595043e+00	-1.1010632263e+00
 1.4162362713e+00	 2.3469757852e+00	-1.0772570656e+00
 1.6428458473e+00	 2.2090063230e+00	-1.2409416477e+00
 1.6213630506e+00	 2.2248221259e+00	-1.2307685671e+00
 1.5997443990e+00	 2.2404173138e+00	-1.2180057233e+00
 1.5779932644e+00	 2.2557901948e+00	-1.2033074764e+00
 1.5561130455e+00	 2.2709391453e+00	-1.1871771392e+00
 1.5341071656e+00	 2.2858626104e+00	-1.1700589157e+00
 1.5119790717e+00	 2.3005591044e+00	-1.1523411011e+00
 1.4897322318e+00	 2.3150272109e+00	-1.1343593224e+00
 1.4673701341e+00	 2.3292655834e+00	-1.1158158806e+00
 1.4448962847e+00	 2.3432729456e+00	-1.0947979427e+00
 1.4223142060e+00	 2.3570480915e+00	-1.0712754883e+00
 1.6498661735e+00	 2.2184460065e+00	-1.2330361857e+00
 1.6282915749e+00	 2.2343293947e+00	-1.2230917892e+00
 1.6065805410e+00	 2.2499912250e+00	-1.2106842225e+00
 1.5847364579e+00	 2.2654297985e+00	-1.1963521317e+00
 1.5627627389e+00	 2.2806434846e+00	-1.1805618411e+00
 1.5406628219e+00	 2.2956307218e+00	-1.1637197917e+00
 1.5184401686e+00	 2.3103900179e+00	-1.1461758691e+00
 1.4960982620e+00	 2.3249199505e+00	-1.1282267706e+00
 1.4736406050e+00	 2.3392191675e+00	-1.1099433681e+00
 1.4510707187e+00	 2.3532863869e+00	-1.0894238208e+00
 1.4283921406e+00	 2.3671203977e+00	-1.0661977949e+00
 1.3676127941e+00	 2.2663973352e+00	-1.1376684723e+00
 1.3457985441e+00	 2.2794183199e+00	-1.1122807047e+00
 1.3238870440e+00	 2.2922139066e+00	-1.0862076894e+00
 1.3018817204e+00	 2.3047831427e+00	-1.0594590180e+00
 1.2797860086e+00	 2.3171251438e+00	-1.0320126086e+00
 1.2576033513e+00	 2.3292390932e+00	-1.0038231698e+00
 1.2353371970e+00	 2.3411242424e+00	-9.7483031718e-01
 1.2129909979e+00	 2.3527799106e+00	-9.4496628413e-01
 1.1905682088e+00	 2.3642054847e+00	-9.1416316681e-01
 1.1680722852e+00	 2.3754004191e+00	-8.8235965354e-01
 1.1455066817e+00	 2.3863642354e+00	-8.4950719120e-01
 1.3736907288e+00	 2.2764696415e+00	-1.1304434745e+00
 1.3517795320e+00	 2.2895484939e+00	-1.1048859256e+00
 1.3297706530e+00	 2.3024009466e+00	-1.0787887563e+00
 1.3076675335e+00	 2.3150260429e+00	-1.0521482610e+00
 1.2854736241e+00	 2.3274228942e+00	-1.0249277570e+00
 1.2631923828e+00	 2.3395906803e+00	-9.9706641451e-01
 1.2408272734e+00	 2.3515286494e+00	-9.6848772581e-01
 1.2183817635e+00	 2.3632361176e+00	-9.3910755004e-01
 1.1958593232e+00	 2.3747124692e+00	-9.0884167393e-01
 1.1732634234e+00	 2.3859571561e+00	-8.7761283528e-01
 1.1505975340e+00	 2.3969696976e+00	-8.4535716091e-01
 1.3797686634e+00	 2.2865419477e+00	-1.1227964203e+00
 1.3577605199e+00	 2.2996786679e+00	-1.0971485755e+00
 1.3356542620e+00	 2.3125879867e+00	-1.0710635160e+00
 1.3134533466e+00	 2.3252689430e+00	-1.0445289276e+00
 1.2911612396e+00	 2.3377206445e+00	-1.0174985870e+00
 1.2687814143e+00	 2.3499422674e+00	-9.8990156029e-01
 1.2463173498e+00	 2.3619330564e+00	-9.6165102332e-01
 1.2237725291e+00	 2.3736923247e+00	-9.3265264047e-01
 1.2011504376e+00	 2.3852194537e+00	-9.0281243893e-01
 1.1784545616e+00	 2.3965138930e+00	-8.7204412362e-01
 1.1556883863e+00	 2.4075751599e+00	-8.4027578293e-01
 1.3858465981e+00	 2.2966142540e+00	-1.1148902526e+00
 1.3637415079e+00	 2.3098088419e+00	-1.0892190318e+00
 1.3415378710e+00	 2.3227750267e+00	-1.0631741060e+00
 1.3192391597e+00	 2.3355118432e+00	-1.0367391192e+00
 1.2968488551e+00	 2.3480183949e+00	-1.0098632460e+00
 1.2743704458e+00	 2.3602938545e+00	-9.8247075763e-01
 1.2518074263e+00	 2.3723374634e+00	-9.5447019574e-01
 1.2291632947e+00	 2.3841485317e+00	-9.2576308379e-01
 1.2064415520e+00	 2.3957264382e+00	-8.9625211352e-01
 1.1836456998e+00	 2.4070706299e+00	-8.6584874892e-01
 1.1607792386e+00	 2.4181806221e+00	-8.3448019632e-01
 1.3919245327e+00	 2.3066865602e+00	-1.1068893185e+00
 1.3697224958e+00	 2.3199390159e+00	-1.0812495311e+00
 1.3474214800e+00	 2.3329620668e+00	-1.0552649026e+00
 1.3250249728e+00	 2.3457547434e+00	-1.0289194812e+00
 1.3025364706e+00	 2.3583161453e+00	-1.0021626539e+00
 1.2799594773e+00	 2.3706454417e+00	-9.7491908308e-01
 1.2572975027e+00	 2.3827418704e+00	-9.4709823327e-01
 1.2345540603e+00	 2.3946047388e+00	-9.1860341542e-01
 1.2117326664e+00	 2.4062334227e+00	-8.8934028439e-01
 1.1888368380e+00	 2.4176273669e+00	-8.5922472988e-01
 1.1658700910e+00	 2.4287860844e+00	-8.2819010774e-01
 1.3980024674e+00	 2.3167588665e+00	-1.0989590663e+00
 1.3757034837e+00	 2.3300691899e+00	-1.0733938720e+00
 1.3533050890e+00	 2.3431491069e+00	-1.0474822310e+00
 1.3308107859e+00	 2.3559976435e+00	-1.0212129204e+00
 1.3082240861e+00	 2.3686138957e+00	-9.9454023136e-01
 1.2855485088e+00	 2.3809970288e+00	-9.6739427926e-01
 1.2627875791e+00	 2.3931462774e+00	-9.3969088367e-01
 1.2399448259e+00	 2.4050609458e+00	-9.1134094620e-01
 1.2170237809e+00	 2.4167404072e+00	-8.8225925808e-01
 1.1940279762e+00	 2.4281841038e+00	-8.5237267630e-01
 1.1709609433e+00	 2.4393915467e+00	-8.2162761337e-01
 1.4040804020e+00	 2.3268311727e+00	-1.0912657437e+00
 1.3816844716e+00	 2.3401993639e+00	-1.0658071178e+00
 1.3591886980e+00	 2.3533361469e+00	-1.0399740748e+00
 1.3365965990e+00	 2.3662405437e+00	-1.0137643235e+00
 1.3139117016e+00	 2.3789116461e+00	-9.8714162840e-01
 1.2911375403e+00	 2.3913486159e+00	-9.6004649513e-01
 1.2682776555e+00	 2.4035506844e+00	-9.3240640580e-01
 1.2453355915e+00	 2.4155171529e+00	-9.0414553067e-01
 1.2223148953e+00	 2.4272473917e+00	-8.7519384546e-01
 1.1992191144e+00	 2.4387408408e+00	-8.4549559120e-01
 1.1760517956e+00	 2.4499970089e+00	-8.1501702012e-01
 1.4101583367e+00	 2.3369034790e+00	-1.0839760963e+00
 1.3876654596e+00	 2.3503295379e+00	-1.0586453001e+00
 1.3650723070e+00	 2.3635231870e+00	-1.0328897863e+00
 1.3423824121e+00	 2.3764834439e+00	-1.0067202761e+00
 1.3195993171e+00	 2.3892093965e+00	-9.8011445314e-01
 1.2967265718e+00	 2.4017002030e+00	-9.5302802643e-01
 1.2737677319e+00	 2.4139550915e+00	-9.2540532325e-01
 1.2507263572e+00	 2.4259733599e+00	-8.9718933536e-01
 1.2276060097e+00	 2.4377543762e+00	-8.6833114598e-01
 1.2044102526e+00	 2.4492975777e+00	-8.3879867247e-01
 1.1811426479e+00	 2.4606024712e+00	-8.0858466593e-01
 1.4162362713e+00	 2.3469757852e+00	-1.0772570656e+00
 1.3936464475e+00	 2.3604597119e+00	-1.0520651228e+00
 1.3709559160e+00	 2.3737102270e+00	-1.0263797974e+00
 1.3481682252e+00	 2.3867263440e+00	-1.0002287817e+00
 1.3252869326e+00	 2.3995071469e+00	-9.7360800102e-01
 1.3023156033e+00	 2.4120517901e+00	-9.4649305644e-01
 1.2792578084e+00	 2.4243594985e+00	-9.1885017805e-01
 1.2561171228e+00	 2.4364295670e+00	-8.9064660683e-01
 1.2328971241e+00	 2.4482613607e+00	-8.6186033167e-01
 1.2096013908e+00	 2.4598543147e+00	-8.3248911395e-01
 1.1862335002e+00	 2.4712079334e+00	-8.0255873933e-01
 1.4223142060e+00	 2.3570480915e+00	-1.0712754883e+00
 1.3996274354e+00	 2.3705898860e+00	-1.0462236660e+00
 1.3768395250e+00	 2.3838972671e+00	-1.0205953303e+00
 1.3539540383e+00	 2.3969692442e+00	-9.9443898129e-01
 1.3309745481e+00	 2.4098048973e+00	-9.6777298426e-01
 1.3079046348e+00	 2.4224033773e+00	-9.4059739685e-01
 1.2847478848e+00	 2.4347639055e+00	-9.1290528445e-01
 1.2615078884e+00	 2.4468857740e+00	-8.8469343984e-01
 1.2381882385e+00	 2.4587683452e+00	-8.5597243075e-01
 1.2147925290e+00	 2.4704110516e+00	-8.2677590609e-01
 1.1913243525e+00	 2.4818133957e+00	-7.9716909828e-01
 1.4283921406e+00	 2.3671203977e+00	-1.0661977949e+00
 1.4056084233e+00	 2.3807200600e+00	-1.0412780903e+00
 1.3827231340e+00	 2.3940843072e+00	-1.0156881090e+00
 1.3597398514e+00	 2.4072121444e+00	-9.8950087285e-01
 1.3366621636e+00	 2.4201026477e+00	-9.6276126161e-01
 1.3134936663e+00	 2.4327549644e+00	-9.3549822890e-01
 1.2902379612e+00	 2.4451683125e+00	-9.0773648285e-01
 1.2668986540e+00	 2.4573419811e+00	-8.7950754531e-01
 1.2434793529e+00	 2.4692753297e+00	-8.5086011117e-01
 1.2199836672e+00	 2.4809677886e+00	-8.2186963603e-01
 1.1964152048e+00	 2.4924188579e+00	-7.9264708815e-01
 1.1455066817e+00	 2.3863642354e+00	-8.4950719120e-01
 1.1228709974e+00	 2.3970983265e+00	-8.1535423615e-01
 1.1001725118e+00	 2.4076004625e+00	-7.7983718184e-01
 1.0774146682e+00	 2.4178703625e+00	-7.4598372155e-01
 1.0546009031e+00	 2.4279078119e+00	-7.1376230989e-01
 1.0317346441e+00	 2.4377126612e+00	-6.8251838677e-01
 1.0088193090e+00	 2.4472848255e+00	-6.5164537498e-01
 9.8585830405e-01	 2.4566242846e+00	-6.2058908386e-01
 9.6285502246e-01	 2.4657310817e+00	-5.8885096924e-01
 9.3981284317e-01	 2.4746053232e+00	-5.5599029702e-01
 9.1673512933e-01	 2.4832471778e+00	-5.2162526304e-01
 1.1505975340e+00	 2.3969696976e+00	-8.4535716091e-01
 1.1278612523e+00	 2.4077514932e+00	-8.1184888361e-01
 1.1050618903e+00	 2.4183003026e+00	-7.7666851688e-01
 1.0822029065e+00	 2.4286158441e+00	-7.4247832788e-01
 1.0592877526e+00	 2.4386979019e+00	-7.0988604114e-01
 1.0363198716e+00	 2.4485463257e+00	-6.7825948417e-01
 1.0133026963e+00	 2.4581610306e+00	-6.4702017848e-01
 9.9023964822e-01	 2.4675419961e+00	-6.1564759677e-01
 9.6713413562e-01	 2.4766892655e+00	-5.8368223952e-01
 9.4398955245e-01	 2.4856029458e+00	-5.5072758048e-01
 9.2080927680e-01	 2.4942832065e+00	-5.1645093596e-01
 1.1556883863e+00	 2.4075751599e+00	-8.4027578293e-01
 1.1328515073e+00	 2.4184046598e+00	-8.0733048519e-01
 1.1099512688e+00	 2.4290001428e+00	-7.7268957239e-01
 1.0869911448e+00	 2.4393613257e+00	-7.3824495301e-01
 1.0639746021e+00	 2.4494879918e+00	-7.0539326767e-01
 1.0409050990e+00	 2.4593799903e+00	-6.7351802743e-01
 1.0177860836e+00	 2.4690372357e+00	-6.4206165893e-01
 9.9462099239e-01	 2.4784597075e+00	-6.1052962871e-01
 9.7141324877e-01	 2.4876474493e+00	-5.7849334989e-01
 9.4816626172e-01	 2.4966005685e+00	-5.4559192257e-01
 9.2488342427e-01	 2.5053192352e+00	-5.1153276531e-01
 1.1607792386e+00	 2.4181806221e+00	-8.3448019632e-01
 1.1378417623e+00	 2.4290578264e+00	-8.0203488309e-01
 1.1148406474e+00	 2.4396999829e+00	-7.6805656878e-01
 1.0917793831e+00	 2.4501068072e+00	-7.3349641095e-01
 1.0686614517e+00	 2.4602780817e+00	-7.0048701359e-01
 1.0454903265e+00	 2.4702136548e+00	-6.6847810814e-01
 1.0222694709e+00	 2.4799134408e+00	-6.3692600123e-01
 9.9900233656e-01	 2.4893774190e+00	-6.0535466134e-01
 9.7569236193e-01	 2.4986056331e+00	-5.7335846848e-01
 9.5234297100e-01	 2.5075981911e+00	-5.4060376235e-01
 9.2895757174e-01	 2.5163552639e+00	-5.0682924838e-01
 1.1658700910e+00	 2.4287860844e+00	-8.2819010774e-01
 1.1428320173e+00	 2.4397109930e+00	-7.9620030460e-01
 1.1197300259e+00	 2.4503998230e+00	-7.6286861014e-01
 1.0965676214e+00	 2.4608522888e+00	-7.2844819506e-01
 1.0733483012e+00	 2.4710681716e+00	-6.9537288093e-01
 1.0500755540e+00	 2.4810473194e+00	-6.6332643410e-01
 1.0267528582e+00	 2.4907896459e+00	-6.3177218282e-01
 1.0033836807e+00	 2.5002951304e+00	-6.0024528139e-01
 9.7997147509e-01	 2.5095638169e+00	-5.6835531563e-01
 9.5651968027e-01	 2.5185958138e+00	-5.3578767103e-01
 9.3303171921e-01	 2.5273912926e+00	-5.0230372553e-01
 1.1709609433e+00	 2.4393915467e+00	-8.2162761337e-01
 1.1478222722e+00	 2.4503641597e+00	-7.9006720230e-01
 1.1246194044e+00	 2.4610996632e+00	-7.5736944439e-01
 1.1013558597e+00	 2.4715977703e+00	-7.2331857211e-01
 1.0780351507e+00	 2.4818582615e+00	-6.9025914421e-01
 1.0546607814e+00	 2.4918809839e+00	-6.5825242083e-01
 1.0312362455e+00	 2.5016658510e+00	-6.2676205864e-01
 1.0077650249e+00	 2.5112128419e+00	-5.9532725589e-01
 9.8425058825e-01	 2.5205220008e+00	-5.6356522596e-01
 9.6069638955e-01	 2.5295934364e+00	-5.3117239761e-01
 9.3710586668e-01	 2.5384273213e+00	-4.9792440608e-01
 1.1760517956e+00	 2.4499970089e+00	-8.1501702012e-01
 1.1528125272e+00	 2.4610173263e+00	-7.8387809315e-01
 1.1295087829e+00	 2.4717995033e+00	-7.5181062038e-01
 1.1061440980e+00	 2.4823432519e+00	-7.1832867510e-01
 1.0827220002e+00	 2.4926483514e+00	-6.8535684362e-01
 1.0592460089e+00	 2.5027146485e+00	-6.5344828180e-01
 1.0357196328e+00	 2.5125420561e+00	-6.2206044512e-01
 1.0121463691e+00	 2.5221305533e+00	-5.9072960648e-01
 9.8852970141e-01	 2.5314801846e+00	-5.5907320985e-01
 9.6487309882e-01	 2.5405910591e+00	-5.2679091430e-01
 9.4118001415e-01	 2.5494633500e+00	-4.9366439476e-01
 1.1811426479e+00	 2.4606024712e+00	-8.0858466593e-01
 1.1578027822e+00	 2.4716704929e+00	-7.7787739654e-01
 1.1343981615e+00	 2.4824993435e+00	-7.4644559915e-01
 1.1109323363e+00	 2.4930887334e+00	-7.1370259474e-01
 1.0874088497e+00	 2.5034384413e+00	-6.8087987698e-01
 1.0638312364e+00	 2.5135483130e+00	-6.4910911751e-01
 1.0402030201e+00	 2.5234182612e+00	-6.1783520307e-01
 1.0165277132e+00	 2.5330482647e+00	-5.8658468297e-01
 9.9280881456e-01	 2.5424383684e+00	-5.5496801449e-01
 9.6904980810e-01	 2.5515886817e+00	-5.2268046204e-01
 9.4525416162e-01	 2.5604993787e+00	-4.8950171852e-01
 1.1862335002e+00	 2.4712079334e+00	-8.0255873933e-01
 1.1627930371e+00	 2.4823236595e+00	-7.7231127123e-01
 1.1392875400e+00	 2.4931991836e+00	-7.4152960507e-01
 1.1157205745e+00	 2.5038342150e+00	-7.0960373973e-01
 1.0920956993e+00	 2.5142285312e+00	-6.7704509033e-01
 1.0684164638e+00	 2.5243819776e+00	-6.4543300329e-01
 1.0446864074e+00	 2.5342944663e+00	-6.1425731957e-01
 1.0209090574e+00	 2.5439659762e+00	-5.8302823614e-01
 9.9708792772e-01	 2.5533965522e+00	-5.5134218452e-01
 9.7322651737e-01	 2.5625863043e+00	-5.1888259589e-01
 9.4932830909e-01	 2.5715354074e+00	-4.8541935371e-01
 1.1913243525e+00	 2.4818133957e+00	-7.9716909828e-01
 1.1677832921e+00	 2.4929768262e+00	-7.6742745140e-01
 1.1441769185e+00	 2.5038990237e+00	-7.3731947590e-01
 1.1205088128e+00	 2.5145796965e+00	-7.0620607773e-01
 1.0967825488e+00	 2.5250186212e+00	-6.7407236739e-01
 1.0730016913e+00	 2.5352156421e+00	-6.4262107604e-01
 1.0491697947e+00	 2.5451706714e+00	-6.1150098884e-01
 1.0252904016e+00	 2.5548836876e+00	-5.8019948980e-01
 1.0013670409e+00	 2.5643547360e+00	-5.4829212220e-01
 9.7740322665e-01	 2.5735839270e+00	-5.1544323040e-01
 9.5340245656e-01	 2.5825714362e+00	-4.8140525380e-01
 1.1964152048e+00	 2.4924188579e+00	-7.9264708815e-01
 1.1727735471e+00	 2.5036299928e+00	-7.6347508166e-01
 1.1490662970e+00	 2.5145988639e+00	-7.3407351163e-01
 1.1252970511e+00	 2.5253251781e+00	-7.0376839022e-01
 1.1014693983e+00	 2.5358087111e+00	-6.7218471777e-01
 1.0775869187e+00	 2.5460493067e+00	-6.4087761984e-01
 1.0536531820e+00	 2.5560468764e+00	-6.0974369223e-01
 1.0296717458e+00	 2.5658013991e+00	-5.7824121203e-01
 1.0056461540e+00	 2.5753129198e+00	-5.4591814713e-01
 9.8157993592e-01	 2.5845815496e+00	-5.1241268489e-01
 9.5747660403e-01	 2.5936074649e+00	-4.7747087949e-01
 9.1673512933e-01	 2.4832471778e+00	-5.2162526304e-01
 8.9362915758e-01	 2.4916554659e+00	-4.8700036969e-01
 8.7049433306e-01	 2.4998319662e+00	-4.5331038337e-01
 8.4733396085e-01	 2.5077770285e+00	-4.2019499348e-01
 8.2415132505e-01	 2.5154910621e+00	-3.8733718824e-01
 8.0094968753e-01	 2.5229745349e+00	-3.5446052785e-01
 7.7773228665e-01	 2.5302279725e+00	-3.2132578021e-01
 7.5450233618e-01	 2.5372519574e+00	-2.8772699364e-01
 7.3126302405e-01	 2.5440471282e+00	-2.5375276287e-01
 7.0801751129e-01	 2.5506141785e+00	-2.2175885866e-01
 6.8476893090e-01	 2.5569538559e+00	-1.9251022795e-01
 9.2080927680e-01	 2.4942832065e+00	-5.1645093596e-01
 8.9760061766e-01	 2.5027288626e+00	-4.8204589035e-01
 8.7436297752e-01	 2.5109417009e+00	-4.4862398781e-01
 8.5109967616e-01	 2.5189220726e+00	-4.1582788871e-01
 8.2781401227e-01	 2.5266703888e+00	-3.8334191474e-01
 8.0450926219e-01	 2.5341871196e+00	-3.5088911438e-01
 7.8118867872e-01	 2.5414727929e+00	-3.1822767790e-01
 7.5785548988e-01	 2.5485279938e+00	-2.8514677842e-01
 7.3451289777e-01	 2.5553533636e+00	-2.5157458206e-01
 7.1116407747e-01	 2.5619495991e+00	-2.1966744774e-01
 6.8781217591e-01	 2.5683174512e+00	-1.9044752081e-01
 9.2488342427e-01	 2.5053192352e+00	-5.1153276531e-01
 9.0157207775e-01	 2.5138022594e+00	-4.7741898792e-01
 8.7823162199e-01	 2.5220514356e+00	-4.4425416676e-01
 8.5486539147e-01	 2.5300671167e+00	-4.1169737371e-01
 8.3147669948e-01	 2.5378497156e+00	-3.7944850256e-01
 8.0806883686e-01	 2.5453997043e+00	-3.4724508785e-01
 7.8464507079e-01	 2.5527176133e+00	-3.1485845925e-01
 7.6120864357e-01	 2.5598040301e+00	-2.8208931047e-01
 7.3776277148e-01	 2.5666595990e+00	-2.4878784216e-01
 7.1431064365e-01	 2.5732850197e+00	-2.1680949835e-01
 6.9085542092e-01	 2.5796810466e+00	-1.8750500780e-01
 9.2895757174e-01	 2.5163552639e+00	-5.0682924838e-01
 9.0554353783e-01	 2.5248756562e+00	-4.7301759076e-01
 8.8210026646e-01	 2.5331611703e+00	-4.4004900167e-01
 8.5863110679e-01	 2.5412121607e+00	-4.0761228985e-01
 8.3513938670e-01	 2.5490290423e+00	-3.7543704090e-01
 8.1162841153e-01	 2.5566122891e+00	-3.4329015053e-01
 7.8810146286e-01	 2.5639624337e+00	-3.1097167829e-01
 7.6456179727e-01	 2.5710800665e+00	-2.7831010385e-01
 7.4101264520e-01	 2.5779658344e+00	-2.4515706856e-01
 7.1745720983e-01	 2.5846204404e+00	-2.1297216560e-01
 6.9389866593e-01	 2.5910446420e+00	-1.8350223666e-01
 9.3303171921e-01	 2.5273912926e+00	-5.0230372553e-01
 9.0951499791e-01	 2.5359490529e+00	-4.6874514662e-01
 8.8596891092e-01	 2.5442709050e+00	-4.3586257371e-01
 8.6239682210e-01	 2.5523572048e+00	-4.0338776655e-01
 8.3880207391e-01	 2.5602083690e+00	-3.7109400758e-01
 8.1518798620e-01	 2.5678248738e+00	-3.3879231032e-01
 7.9155785493e-01	 2.5752072541e+00	-3.0632693262e-01
 7.6791495096e-01	 2.5823561028e+00	-2.7357027964e-01
 7.4426251892e-01	 2.5892720698e+00	-2.4041728183e-01
 7.2060377601e-01	 2.5959558610e+00	-2.0805057244e-01
 6.9694191094e-01	 2.6024082374e+00	-1.7899542857e-01
 9.3710586668e-01	 2.5384273213e+00	-4.9792440608e-01
 9.1348645799e-01	 2.5470224497e+00	-4.6451062936e-01
 8.8983755539e-01	 2.5553806397e+00	-4.3155495522e-01
 8.6616253741e-01	 2.5635022489e+00	-3.9884520143e-01
 8.4246476112e-01	 2.5713876958e+00	-3.6621224160e-01
 8.1874756087e-01	 2.5790374585e+00	-3.3352584956e-01
 7.9501424699e-01	 2.5864520745e+00	-3.0068983215e-01
 7.7126810465e-01	 2.5936321392e+00	-2.6764966229e-01
 7.4751239263e-01	 2.6005783052e+00	-2.3501437546e-01
 7.2375034219e-01	 2.6072912816e+00	-2.0357116794e-01
 6.9998515595e-01	 2.6137718328e+00	-1.7514788979e-01
 9.4118001415e-01	 2.5494633500e+00	-4.9366439476e-01
 9.1745791808e-01	 2.5580958465e+00	-4.6022854663e-01
 8.9370619986e-01	 2.5664903744e+00	-4.2699220255e-01
 8.6992825272e-01	 2.5746472930e+00	-3.9381224199e-01
 8.4612744834e-01	 2.5825670225e+00	-3.6059091749e-01
 8.2230713554e-01	 2.5902500433e+00	-3.2727129567e-01
 7.9847063906e-01	 2.5976968949e+00	-2.9418376822e-01
 7.7462125835e-01	 2.6049081755e+00	-2.6216043046e-01
 7.5076226635e-01	 2.6118845406e+00	-2.3079319930e-01
 7.2689690837e-01	 2.6186267023e+00	-2.0010524198e-01
 7.0302840096e-01	 2.6251354282e+00	-1.7201728089e-01
 9.4525416162e-01	 2.5604993787e+00	-4.8950171852e-01
 9.2142937816e-01	 2.5691692432e+00	-4.5581894842e-01
 8.9757484432e-01	 2.5776001091e+00	-4.2204635009e-01
 8.7369396803e-01	 2.5857923371e+00	-3.8812276890e-01
 8.4979013555e-01	 2.5937463493e+00	-3.5405617537e-01
 8.2586671020e-01	 2.6014626280e+00	-3.2097140532e-01
 8.0192703113e-01	 2.6089417153e+00	-2.8920204363e-01
 7.7797441204e-01	 2.6161842119e+00	-2.5831370413e-01
 7.5401214006e-01	 2.6231907760e+00	-2.2785345914e-01
 7.3004347455e-01	 2.6299621229e+00	-1.9765906794e-01
 7.0607164597e-01	 2.6364990235e+00	-1.6964505808e-01
 9.4932830909e-01	 2.5715354074e+00	-4.8541935371e-01
 9.2540083824e-01	 2.5802426400e+00	-4.5120743655e-01
 9.0144348879e-01	 2.5887098438e+00	-4.1659540561e-01
 8.7745968334e-01	 2.5969373812e+00	-3.8192636899e-01
 8.5345282276e-01	 2.6049256760e+00	-3.4874850925e-01
 8.2942628487e-01	 2.6126752128e+00	-3.1696410938e-01
 8.0538342319e-01	 2.6201865357e+00	-2.8620278484e-01
 7.8132756573e-01	 2.6274602482e+00	-2.5607666335e-01
 7.5726201378e-01	 2.6344970114e+00	-2.2618025422e-01
 7.3319004073e-01	 2.6412975435e+00	-1.9624082897e-01
 7.0911489098e-01	 2.6478626189e+00	-1.6807401843e-01
 9.5340245656e-01	 2.5825714362e+00	-4.8140525380e-01
 9.2937229832e-01	 2.5913160367e+00	-4.4632517494e-01
 9.0531213325e-01	 2.5998195785e+00	-4.1141720752e-01
 8.8122539865e-01	 2.6080824253e+00	-3.7811846874e-01
 8.5711550998e-01	 2.6161050028e+00	-3.4617485158e-01
 8.3298585954e-01	 2.6238877975e+00	-3.1528863235e-01
 8.0883981526e-01	 2.6314313562e+00	-2.8514647568e-01
 7.8468071943e-01	 2.6387362846e+00	-2.5541908655e-01
 7.6051188749e-01	 2.6458032468e+00	-2.2576105526e-01
 7.3633660690e-01	 2.6526329642e+00	-1.9586056351e-01
 7.1215813599e-01	 2.6592262143e+00	-1.6734826030e-01
 9.5747660403e-01	 2.5936074649e+00	-4.7747087949e-01
 9.3334375840e-01	 2.6023894335e+00	-4.4280549876e-01
 9.0918077772e-01	 2.6109293132e+00	-4.0952931112e-01
 8.8499111396e-01	 2.6192274694e+00	-3.7743552103e-01
 8.6077819719e-01	 2.6272843295e+00	-3.4630536495e-01
 8.3654543421e-01	 2.6351003822e+00	-3.1590725613e-01
 8.1229620733e-01	 2.6426761766e+00	-2.8599617137e-01
 7.8803387312e-01	 2.6500123209e+00	-2.5631325534e-01
 7.6376176120e-01	 2.6571094822e+00	-2.2658561831e-01
 7.3948317308e-01	 2.6639683848e+00	-1.9653011195e-01
 7.1520138100e-01	 2.6705898097e+00	-1.6751314455e-01
 6.8476893090e-01	 2.5569538559e+00	-1.9251022795e-01
 6.6152038714e-01	 2.5630669618e+00	-1.6472155830e-01
 6.3827495545e-01	 2.5689543521e+00	-1.3717582629e-01
 6.1503568041e-01	 2.5746169342e+00	-1.1014471496e-01
 5.9180557450e-01	 2.5800556657e+00	-8.3856354586e-02
 5.6858761720e-01	 2.5852715532e+00	-5.8492403857e-02
 5.4538475407e-01	 2.5902656513e+00	-3.4185774997e-02
 5.2219989595e-01	 2.5950390615e+00	-1.0968982309e-02
 4.9903591810e-01	 2.5995929312e+00	 1.1513937068e-02
 4.7589565951e-01	 2.6039284524e+00	 3.3579655440e-02
 4.5278192206e-01	 2.6080468606e+00	 5.5529853595e-02
 6.8781217591e-01	 2.5683174512e+00	-1.9044752081e-01
 6.6446031115e-01	 2.5744577250e+00	-1.6262460060e-01
 6.4111157228e-01	 2.5803712800e+00	-1.3504274368e-01
 6.1776901742e-01	 2.5860590277e+00	-1.0803777393e-01
 5.9443567245e-01	 2.5915219300e+00	-8.1899800753e-02
 5.7111453008e-01	 2.5967609979e+00	-5.6814431444e-02
 5.4780854896e-01	 2.6017772907e+00	-3.2667809954e-02
 5.2452065286e-01	 2.6065719149e+00	-9.2640216683e-03
 5.0125372983e-01	 2.6111460229e+00	 1.3614497226e-02
 4.7801063147e-01	 2.6155008119e+00	 3.6203840689e-02
 4.5479417213e-01	 2.6196375231e+00	 5.8754773595e-02
 6.9085542092e-01	 2.5796810466e+00	-1.8750500780e-01
 6.6740023515e-01	 2.5858484882e+00	-1.5962717615e-01
 6.4394818911e-01	 2.5917882079e+00	-1.3211460788e-01
 6.2050235444e-01	 2.5975011212e+00	-1.0539765131e-01
 5.9706577040e-01	 2.6029881942e+00	-7.9645092717e-02
 5.7364144295e-01	 2.6082504425e+00	-5.4756796947e-02
 5.5023234384e-01	 2.6132889301e+00	-3.0600356113e-02
 5.2684140976e-01	 2.6181047683e+00	-7.0182065263e-03
 5.0347154156e-01	 2.6226991145e+00	 1.6167890997e-02
 4.8012560344e-01	 2.6270731715e+00	 3.9152746844e-02
 4.5680642219e-01	 2.6312281857e+00	 6.2143995882e-02
 6.9389866593e-01	 2.5910446420e+00	-1.8350223666e-01
 6.7034015916e-01	 2.5972392514e+00	-1.5570486426e-01
 6.4678480594e-01	 2.6032051358e+00	-1.2869805257e-01
 6.2323569145e-01	 2.6089432147e+00	-1.0249579889e-01
 5.9969586835e-01	 2.6144544585e+00	-7.7055556667e-02
 5.7616835583e-01	 2.6197398872e+00	-5.2301479842e-02
 5.5265613872e-01	 2.6248005696e+00	-2.8129645538e-02
 5.2916216667e-01	 2.6296376217e+00	-4.4128558752e-03
 5.0568935330e-01	 2.6342522062e+00	 1.8994964013e-02
 4.8224057540e-01	 2.6386455310e+00	 4.2254753500e-02
 4.5881867225e-01	 2.6428188482e+00	 6.5538670067e-02
 6.9694191094e-01	 2.6024082374e+00	-1.7899542857e-01
 6.7328008316e-01	 2.6086300146e+00	-1.5186659531e-01
 6.4962142277e-01	 2.6146220637e+00	-1.2536907878e-01
 6.2596902847e-01	 2.6203853082e+00	-9.9516140680e-02
 6.0232596630e-01	 2.6259207228e+00	-7.4283835176e-02
 5.7869526871e-01	 2.6312293319e+00	-4.9616632237e-02
 5.5507993361e-01	 2.6363122090e+00	-2.5432592276e-02
 5.3148292358e-01	 2.6411704750e+00	-1.6281084663e-03
 5.0790716502e-01	 2.6458052978e+00	 2.1917765336e-02
 4.8435554736e-01	 2.6502178905e+00	 4.5339381811e-02
 4.6083092232e-01	 2.6544095108e+00	 6.8780942142e-02
 6.9998515595e-01	 2.6137718328e+00	-1.7514788979e-01
 6.7622000717e-01	 2.6200207778e+00	-1.4843113736e-01
 6.5245803959e-01	 2.6260389916e+00	-1.2223764264e-01
 6.2870236548e-01	 2.6318274017e+00	-9.6592011840e-02
 6.0495606425e-01	 2.6373869871e+00	-7.1483088554e-02
 5.8122218158e-01	 2.6427187766e+00	-4.6869553866e-02
 5.5750372849e-01	 2.6478238484e+00	-2.2685065262e-02
 5.3380368049e-01	 2.6527033284e+00	 1.1570484233e-03
 5.1012497675e-01	 2.6573583895e+00	 2.4759517139e-02
 4.8647051933e-01	 2.6617902501e+00	 4.8237264646e-02
 4.6284317238e-01	 2.6660001733e+00	 7.1713927101e-02
 7.0302840096e-01	 2.6251354282e+00	-1.7201728089e-01
 6.7915993117e-01	 2.6314115410e+00	-1.4547546664e-01
 6.5529465642e-01	 2.6374559195e+00	-1.1941170664e-01
 6.3143570250e-01	 2.6432694952e+00	-9.3856547504e-02
 6.0758616220e-01	 2.6488532513e+00	-6.8805916515e-02
 5.8374909446e-01	 2.6542082213e+00	-4.4226710818e-02
 5.5992752337e-01	 2.6593354878e+00	-2.0061912648e-02
 5.3612443740e-01	 2.6642361818e+00	 3.7647511099e-03
 5.1234278848e-01	 2.6689114811e+00	 2.7344585297e-02
 4.8858549129e-01	 2.6733626096e+00	 5.0780117635e-02
 4.6485542244e-01	 2.6775908358e+00	 7.4181682362e-02
 7.0607164597e-01	 2.6364990235e+00	-1.6964505808e-01
 6.8209985518e-01	 2.6428023042e+00	-1.4307732430e-01
 6.5813127325e-01	 2.6488728474e+00	-1.1699947198e-01
 6.3416903951e-01	 2.6547115887e+00	-9.1442683648e-02
 6.1021626015e-01	 2.6603195156e+00	-6.6404368701e-02
 5.8627600733e-01	 2.6656976660e+00	-4.1853753590e-02
 5.6235131826e-01	 2.6708471272e+00	-1.7736985351e-02
 5.3844519431e-01	 2.6757690351e+00	 6.0182324817e-03
 5.1456060021e-01	 2.6804645728e+00	 2.9498450868e-02
 4.9070046326e-01	 2.6849349691e+00	 5.2800711061e-02
 4.6686767251e-01	 2.6891814984e+00	 7.6029181963e-02
 7.0911489098e-01	 2.6478626189e+00	-1.6807401843e-01
 6.8503977918e-01	 2.6541930674e+00	-1.4131519196e-01
 6.6096789008e-01	 2.6602897753e+00	-1.1510936764e-01
 6.3690237653e-01	 2.6661536822e+00	-8.9483157722e-02
 6.1284635810e-01	 2.6717857799e+00	-6.4429954718e-02
 5.8880292021e-01	 2.6771871106e+00	-3.9915534500e-02
 5.6477511314e-01	 2.6823587666e+00	-1.5883159830e-02
 5.4076595122e-01	 2.6873018885e+00	 7.7417958125e-03
 5.1677841195e-01	 2.6920176644e+00	 3.1047682412e-02
 4.9281543522e-01	 2.6965073287e+00	 5.4132842585e-02
 4.6887992257e-01	 2.7007721609e+00	 7.7102291512e-02
 7.1215813599e-01	 2.6592262143e+00	-1.6734826030e-01
 6.8797970319e-01	 2.6655838306e+00	-1.4026826756e-01
 6.6380450691e-01	 2.6717067032e+00	-1.1385003960e-01
 6.3963571354e-01	 2.6775957757e+00	-8.8110509043e-02
 6.1547645605e-01	 2.6832520442e+00	-6.3033653727e-02
 5.9132983309e-01	 2.6886765553e+00	-3.8576124486e-02
 5.6719890803e-01	 2.6938704061e+00	-1.4672360134e-02
 5.4308670813e-01	 2.6988347419e+00	 8.7607893836e-03
 5.1899622368e-01	 2.7035707560e+00	 3.1819909157e-02
 4.9493040719e-01	 2.7080796882e+00	 5.4611310771e-02
 4.7089217263e-01	 2.7123628234e+00	 7.7247743876e-02
 7.1520138100e-01	 2.6705898097e+00	-1.6751314455e-01
 6.9091962719e-01	 2.6769745938e+00	-1.4001644161e-01
 6.6664112374e-01	 2.6831236311e+00	-1.1333034005e-01
 6.4236905056e-01	 2.6890378692e+00	-8.7457078950e-02
 6.1810655401e-01	 2.6947183084e+00	-6.2365923589e-02
 5.9385674596e-01	 2.7001660000e+00	-3.7998829279e-02
 5.6962270291e-01	 2.7053820455e+00	-1.4275579220e-02
 5.4540746504e-01	 2.7103675953e+00	 8.9015818907e-03
 5.2121403541e-01	 2.7151238477e+00	 3.1643794961e-02
 4.9704537915e-01	 2.7196520478e+00	 5.4071889391e-02
 4.7290442270e-01	 2.7239534860e+00	 7.6313115569e-02
 4.5278192206e-01	 2.6080468606e+00	 5.5529853595e-02
 4.2969354899e-01	 2.6119500788e+00	 7.6702357734e-02
 4.0663720436e-01	 2.6156387069e+00	 9.6251728587e-02
 3.8361558215e-01	 2.6191141031e+00	 1.1423380021e-01
 3.6063133654e-01	 2.6223776649e+00	 1.3077397850e-01
 3.3768708140e-01	 2.6254308276e+00	 1.4635297054e-01
 3.1478538969e-01	 2.6282750634e+00	 1.6090426392e-01
 2.9192879302e-01	 2.6309118798e+00	 1.7426227399e-01
 2.6911978121e-01	 2.6333428191e+00	 1.8628455347e-01
 2.4636080183e-01	 2.6355694566e+00	 1.9684542819e-01
 2.2365425986e-01	 2.6375933998e+00	 2.0583003906e-01
 4.5479417213e-01	 2.6196375231e+00	 5.8754773595e-02
 4.3160318988e-01	 2.6235580880e+00	 8.0567012399e-02
 4.0844437841e-01	 2.6272631090e+00	 1.0078395899e-01
 3.8532044367e-01	 2.6307539506e+00	 1.1944984136e-01
 3.6223405166e-01	 2.6340320163e+00	 1.3665920865e-01
 3.3918782782e-01	 2.6370987479e+00	 1.5288137555e-01
 3.1618435658e-01	 2.6399556239e+00	 1.6808975011e-01
 2.9322618080e-01	 2.6426041589e+00	 1.8212788051e-01
 2.7031580135e-01	 2.6450459018e+00	 1.9486282379e-01
 2.4745567668e-01	 2.6472824349e+00	 2.0617890923e-01
 2.2464822246e-01	 2.6493153729e+00	 2.1597191410e-01
 4.5680642219e-01	 2.6312281857e+00	 6.2143995882e-02
 4.3351283077e-01	 2.6351660972e+00	 8.4424695815e-02
 4.1025155246e-01	 2.6388875112e+00	 1.0514430711e-01
 3.8702530520e-01	 2.6423937981e+00	 1.2433684764e-01
 3.6383676677e-01	 2.6456863677e+00	 1.4207088429e-01
 3.4068857425e-01	 2.6487666681e+00	 1.5879250048e-01
 3.1758332348e-01	 2.6516361845e+00	 1.7451623812e-01
 2.9452356858e-01	 2.6542964380e+00	 1.8909517820e-01
 2.7151182149e-01	 2.6567489844e+00	 2.0240609074e-01
 2.4855055153e-01	 2.6589954131e+00	 2.1434333757e-01
 2.2564218507e-01	 2.6610373459e+00	 2.2481319372e-01
 4.5881867225e-01	 2.6428188482e+00	 6.5538670067e-02
 4.3542247166e-01	 2.6467741064e+00	 8.8131143951e-02
 4.1205872651e-01	 2.6505119134e+00	 1.0920155386e-01
 3.8873016673e-01	 2.6540336456e+00	 1.2877506895e-01
 3.6543948189e-01	 2.6573407191e+00	 1.4689925953e-01
 3.4218932067e-01	 2.6604345883e+00	 1.6398650434e-01
 3.1898229038e-01	 2.6633167451e+00	 1.8009241393e-01
 2.9582095636e-01	 2.6659887171e+00	 1.9507994128e-01
 2.7270784162e-01	 2.6684520671e+00	 2.0883571603e-01
 2.4964542639e-01	 2.6707083914e+00	 2.2126409866e-01
 2.2663614767e-01	 2.6727593190e+00	 2.3228165966e-01
 4.6083092232e-01	 2.6544095108e+00	 6.8780942142e-02
 4.3733211254e-01	 2.6583821156e+00	 9.1542919825e-02
 4.1386590056e-01	 2.6621363155e+00	 1.1282517172e-01
 3.9043502826e-01	 2.6656734931e+00	 1.3264534506e-01
 3.6704219700e-01	 2.6689950705e+00	 1.5103490854e-01
 3.4369006710e-01	 2.6721025086e+00	 1.6836374036e-01
 3.2038125727e-01	 2.6749973056e+00	 1.8472708236e-01
 2.9711834414e-01	 2.6776809962e+00	 1.9999803716e-01
 2.7390386176e-01	 2.6801551497e+00	 2.1407317784e-01
 2.5074030124e-01	 2.6824213696e+00	 2.2686676573e-01
 2.2763011028e-01	 2.6844812920e+00	 2.3830539991e-01
 4.6284317238e-01	 2.6660001733e+00	 7.1713927101e-02
 4.3924175343e-01	 2.6699901248e+00	 9.4517389265e-02
 4.1567307461e-01	 2.6737607177e+00	 1.1588530305e-01
 3.9213988979e-01	 2.6773133406e+00	 1.3582908585e-01
 3.6864491211e-01	 2.6806494218e+00	 1.5436872743e-01
 3.4519081353e-01	 2.6837704288e+00	 1.7182475593e-01
 3.2178022417e-01	 2.6866778662e+00	 1.8832916469e-01
 2.9841573192e-01	 2.6893732753e+00	 2.0376542136e-01
 2.7509988190e-01	 2.6918582324e+00	 2.1804006255e-01
 2.5183517609e-01	 2.6941343479e+00	 2.3107708794e-01
 2.2862407289e-01	 2.6962032651e+00	 2.4281279278e-01
 4.6485542244e-01	 2.6775908358e+00	 7.4181682362e-02
 4.4115139432e-01	 2.6815981340e+00	 9.6912697380e-02
 4.1748024867e-01	 2.6853851198e+00	 1.1825273901e-01
 3.9384475131e-01	 2.6889531880e+00	 1.3820825221e-01
 3.7024762723e-01	 2.6923037732e+00	 1.5679193657e-01
 3.4669155995e-01	 2.6954383490e+00	 1.7427029300e-01
 3.2317919107e-01	 2.6983584268e+00	 1.9080769677e-01
 2.9971311970e-01	 2.7010655544e+00	 2.0629813281e-01
 2.7629590204e-01	 2.7035613150e+00	 2.2065805694e-01
 2.5293005094e-01	 2.7058473262e+00	 2.3382097900e-01
 2.2961803549e-01	 2.7079252381e+00	 2.4573249151e-01
 4.6686767251e-01	 2.6891814984e+00	 7.6029181963e-02
 4.4306103520e-01	 2.6932061431e+00	 9.8587745711e-02
 4.1928742272e-01	 2.6970095220e+00	 1.1979889917e-01
 3.9554961284e-01	 2.7005930355e+00	 1.3966533741e-01
 3.7185034234e-01	 2.7039581246e+00	 1.5819513864e-01
 3.4819230638e-01	 2.7071062693e+00	 1.7560128906e-01
 3.2457815796e-01	 2.7100389873e+00	 1.9207182755e-01
 3.0101050748e-01	 2.7127578334e+00	 2.0751228971e-01
 2.7749192218e-01	 2.7152643977e+00	 2.2184894090e-01
 2.5402492579e-01	 2.7175603044e+00	 2.3502450640e-01
 2.3061199810e-01	 2.7196472112e+00	 2.4699340960e-01
 4.6887992257e-01	 2.7007721609e+00	 7.7102291512e-02
 4.4497067609e-01	 2.7048141523e+00	 9.9402170052e-02
 4.2109459677e-01	 2.7086339242e+00	 1.2039581162e-01
 3.9725447437e-01	 2.7122328830e+00	 1.4008334904e-01
 3.7345305746e-01	 2.7156124760e+00	 1.5846927661e-01
 3.4969305280e-01	 2.7187741895e+00	 1.7571887841e-01
 3.2597712486e-01	 2.7217195479e+00	 1.9203081812e-01
 3.0230789526e-01	 2.7244501125e+00	 2.0732408587e-01
 2.7868794232e-01	 2.7269674803e+00	 2.2153458067e-01
 2.5511980064e-01	 2.7292732827e+00	 2.3461388110e-01
 2.3160596070e-01	 2.7313691842e+00	 2.4652470657e-01
 4.7089217263e-01	 2.7123628234e+00	 7.7247743876e-02
 4.4688031698e-01	 2.7164221615e+00	 9.9216318912e-02
 4.2290177082e-01	 2.7202583263e+00	 1.1991609371e-01
 3.9895933590e-01	 2.7238727305e+00	 1.3934579146e-01
 3.7505577257e-01	 2.7272668274e+00	 1.5750731383e-01
 3.5119379923e-01	 2.7304421097e+00	 1.7452439409e-01
 3.2737609176e-01	 2.7334001085e+00	 1.9059404116e-01
 3.0360528304e-01	 2.7361423916e+00	 2.0564978740e-01
 2.7988396246e-01	 2.7386705630e+00	 2.1963692251e-01
 2.5621467550e-01	 2.7409862609e+00	 2.3251544779e-01
 2.3259992331e-01	 2.7430911573e+00	 2.4425577441e-01
 4.7290442270e-01	 2.7239534860e+00	 7.6313115569e-02
 4.4878995786e-01	 2.7280301707e+00	 9.7891232608e-02
 4.2470894487e-01	 2.7318827285e+00	 1.1823293332e-01
 4.0066419743e-01	 2.7355125780e+00	 1.3733664877e-01
 3.7665848769e-01	 2.7389211788e+00	 1.5520264445e-01
 3.5269454566e-01	 2.7421100300e+00	 1.7191937004e-01
 3.2877505866e-01	 2.7450806690e+00	 1.8767098086e-01
 3.0490267082e-01	 2.7478346707e+00	 2.0240572991e-01
 2.8107998260e-01	 2.7503736456e+00	 2.1607798678e-01
 2.5730955035e-01	 2.7526992392e+00	 2.2865567556e-01
 2.3359388592e-01	 2.7548131303e+00	 2.4011622449e-01
 2.2365425986e-01	 2.6375933998e+00	 2.0583003906e-01
 2.0100635400e-01	 2.6394159941e+00	 2.1360219599e-01
 1.7841549366e-01	 2.6410392677e+00	 2.2064317839e-01
 1.5588390134e-01	 2.6424649158e+00	 2.2700486905e-01
 1.3341375716e-01	 2.6436946614e+00	 2.3272197997e-01
 1.1100719866e-01	 2.6447302534e+00	 2.3780746243e-01
 8.8666320540e-02	 2.6455734660e+00	 2.4224808947e-01
 6.6393174574e-02	 2.6462260974e+00	 2.4600017630e-01
 4.4189769412e-02	 2.6466899687e+00	 2.4898540645e-01
 2.2058070502e-02	 2.6469669229e+00	 2.5108673411e-01
 0.0000000000e+00	 2.6470588235e+00	 2.5214433546e-01
 2.2464822246e-01	 2.6493153729e+00	 2.1597191410e-01
 2.0189966495e-01	 2.6511460671e+00	 2.2457332911e-01
 1.7920840647e-01	 2.6527765548e+00	 2.3241993484e-01
 1.5657667941e-01	 2.6542085388e+00	 2.3955622223e-01
 1.3400667359e-01	 2.6554437496e+00	 2.4600980928e-01
 1.1150053603e-01	 2.6564839440e+00	 2.5178703385e-01
 8.9060370745e-02	 2.6573309040e+00	 2.5686871421e-01
 6.6688238629e-02	 2.6579864358e+00	 2.6120604125e-01
 4.4386157258e-02	 2.6584523687e+00	 2.6471656881e-01
 2.2156100816e-02	 2.6587305537e+00	 2.6728027121e-01
 0.0000000000e+00	 2.6588228627e+00	 2.6873563968e-01
 2.2564218507e-01	 2.6610373459e+00	 2.2481319372e-01
 2.0279297590e-01	 2.6628761401e+00	 2.3410695439e-01
 1.8000131929e-01	 2.6645138420e+00	 2.4260959520e-01
 1.5726945749e-01	 2.6659521619e+00	 2.5035905417e-01
 1.3459959002e-01	 2.6671928379e+00	 2.5737692830e-01
 1.1199387340e-01	 2.6682376346e+00	 2.6366425102e-01
 8.9454420950e-02	 2.6690883420e+00	 2.6919743247e-01
 6.6983302683e-02	 2.6697467742e+00	 2.7392432465e-01
 4.4582545105e-02	 2.6702147686e+00	 2.7776037688e-01
 2.2254131130e-02	 2.6704941845e+00	 2.8058484897e-01
 0.0000000000e+00	 2.6705869020e+00	 2.8223705284e-01
 2.2663614767e-01	 2.6727593190e+00	 2.3228165966e-01
 2.0368628685e-01	 2.6746062131e+00	 2.4213442759e-01
 1.8079423210e-01	 2.6762511291e+00	 2.5115105184e-01
 1.5796223557e-01	 2.6776957849e+00	 2.5936365900e-01
 1.3519250646e-01	 2.6789419261e+00	 2.6678879796e-01
 1.1248721077e-01	 2.6799913252e+00	 2.7342340433e-01
 8.9848471155e-02	 2.6808457800e+00	 2.7924092224e-01
 6.7278366738e-02	 2.6815071126e+00	 2.8418754416e-01
 4.4778932951e-02	 2.6819771686e+00	 2.8817853255e-01
 2.2352161443e-02	 2.6822578153e+00	 2.9109458956e-01
 0.0000000000e+00	 2.6823509412e+00	 2.9277824421e-01
 2.2763011028e-01	 2.6844812920e+00	 2.3830539991e-01
 2.0457959780e-01	 2.6863362862e+00	 2.4858752516e-01
 1.8158714492e-01	 2.6879884163e+00	 2.5798367745e-01
 1.5865501365e-01	 2.6894394079e+00	 2.6652081551e-01
 1.3578542289e-01	 2.6906910143e+00	 2.7421131246e-01
 1.1298054814e-01	 2.6917450158e+00	 2.8104910974e-01
 9.0242521361e-02	 2.6926032180e+00	 2.8700602274e-01
 6.7573430793e-02	 2.6932674511e+00	 2.9202815716e-01
 4.4975320797e-02	 2.6937395685e+00	 2.9603239842e-01
 2.2450191757e-02	 2.6940214461e+00	 2.9890293894e-01
 0.0000000000e+00	 2.6941149804e+00	 3.0048781164e-01
 2.2862407289e-01	 2.6962032651e+00	 2.4281279278e-01
 2.0547290875e-01	 2.6980663592e+00	 2.5339842484e-01
 1.8238005773e-01	 2.6997257034e+00	 2.6304730393e-01
 1.5934779173e-01	 2.7011830309e+00	 2.7178176604e-01
 1.3637833932e-01	 2.7024401026e+00	 2.7961077971e-01
 1.1347388551e-01	 2.7034987064e+00	 2.8652629249e-01
 9.0636571566e-02	 2.7043606560e+00	 2.9249972292e-01
 6.7868494848e-02	 2.7050277895e+00	 2.9747855570e-01
 4.5171708643e-02	 2.7055019685e+00	 3.0138300066e-01
 2.2548222071e-02	 2.7057850769e+00	 3.0410267917e-01
 0.0000000000e+00	 2.7058790196e+00	 3.0549330483e-01
 2.2961803549e-01	 2.7079252381e+00	 2.4573249151e-01
 2.0636621970e-01	 2.7097964322e+00	 2.5649968697e-01
 1.8317297055e-01	 2.7114629906e+00	 2.6628220200e-01
 1.6004056982e-01	 2.7129266539e+00	 2.7509819592e-01
 1.3697125575e-01	 2.7141891908e+00	 2.8295390234e-01
 1.1396722288e-01	 2.7152523970e+00	 2.8984017124e-01
 9.1030621772e-02	 2.7161180940e+00	 2.9572915030e-01
 6.8163558903e-02	 2.7167881279e+00	 3.0057106150e-01
 4.5368096489e-02	 2.7172643684e+00	 3.0429103179e-01
 2.2646252384e-02	 2.7175487077e+00	 3.0678594039e-01
 0.0000000000e+00	 2.7176430588e+00	 3.0792124798e-01
 2.3061199810e-01	 2.7196472112e+00	 2.4699340960e-01
 2.0725953065e-01	 2.7215265052e+00	 2.5782423642e-01
 1.8396588337e-01	 2.7232002777e+00	 2.6762906134e-01
 1.6073334790e-01	 2.7246702769e+00	 2.7642221363e-01
 1.3756417218e-01	 2.7259382790e+00	 2.8420775931e-01
 1.1446056025e-01	 2.7270060876e+00	 2.9097624265e-01
 9.1424671977e-02	 2.7278755320e+00	 2.9670156013e-01
 6.8458622958e-02	 2.7285484663e+00	 3.0133792121e-01
 4.5564484335e-02	 2.7290267684e+00	 3.0481685345e-01
 2.2744282698e-02	 2.7293123385e+00	 3.0704421258e-01
 0.0000000000e+00	 2.7294070980e+00	 3.0789716196e-01
 2.3160596070e-01	 2.7313691842e+00	 2.4652470657e-01
 2.0815284160e-01	 2.7332565782e+00	 2.5730534511e-01
 1.8475879618e-01	 2.7349375649e+00	 2.6702897154e-01
 1.6142612598e-01	 2.7364138999e+00	 2.7570633145e-01
 1.3815708862e-01	 2.7376873672e+00	 2.8333978797e-01
 1.1495389762e-01	 2.7387597782e+00	 2.8992026646e-01
 9.1818722183e-02	 2.7396329700e+00	 2.9542432481e-01
 6.8753687014e-02	 2.7403088047e+00	 2.9981130174e-01
 4.5760872181e-02	 2.7407891684e+00	 3.0302049901e-01
 2.2842313012e-02	 2.7410759692e+00	 3.0496835692e-01
 0.0000000000e+00	 2.7411711373e+00	 3.0554558579e-01
 2.3259992331e-01	 2.7430911573e+00	 2.4425577441e-01
 2.0904615255e-01	 2.7449866512e+00	 2.5487661517e-01
 1.8555170900e-01	 2.7466748520e+00	 2.6442340344e-01
 1.6211890406e-01	 2.7481575229e+00	 2.7290344682e-01
 1.3875000505e-01	 2.7494364555e+00	 2.8031776676e-01
 1.1544723499e-01	 2.7505134688e+00	 2.8665825091e-01
 9.2212772389e-02	 2.7513904080e+00	 2.9190492369e-01
 6.9048751069e-02	 2.7520691432e+00	 2.9602328568e-01
 4.5957260028e-02	 2.7525515683e+00	 2.9896167623e-01
 2.2940343325e-02	 2.7528396000e+00	 3.0064861694e-01
 0.0000000000e+00	 2.7529351765e+00	 3.0099009764e-01
 2.3359388592e-01	 2.7548131303e+00	 2.4011622449e-01
 2.0993946350e-01	 2.7567167242e+00	 2.5047196270e-01
 1.8634462182e-01	 2.7584121392e+00	 2.5975419130e-01
 1.6281168214e-01	 2.7599011459e+00	 2.6796682417e-01
 1.3934292148e-01	 2.7611855437e+00	 2.7510979832e-01
 1.1594057236e-01	 2.7622671594e+00	 2.8117643867e-01
 9.2606822595e-02	 2.7631478460e+00	 2.8615093309e-01
 6.9343815124e-02	 2.7638294816e+00	 2.9000586699e-01
 4.6153647874e-02	 2.7643139683e+00	 2.9269976974e-01
 2.3038373639e-02	 2.7646032308e+00	 2.9417462932e-01
 0.0000000000e+00	 2.7646992157e+00	 2.9435333525e-01
 2.7646992157e+00	 0.0000000000e+00	 1.6260671247e+00
 2.7646032308e+00	 2.3038373639e-02	 1.6262467513e+00
 2.7643139683e+00	 4.6153647874e-02	 1.6249846309e+00
 2.7638294816e+00	 6.9343815124e-02	 1.6222610007e+00
 2.7631478460e+00	 9.2606822595e-02	 1.6180628538e+00
 2.7622671594e+00	 1.1594057236e-01	 1.6123826035e+00
 2.7611855437e+00	 1.3934292148e-01	 1.6052167655e+00
 2.7599011459e+00	 1.6281168214e-01	 1.5965646210e+00
 2.7584121392e+00	 1.8634462182e-01	 1.5864268217e+00
 2.7567167242e+00	 2.0993946350e-01	 1.5748038901e+00
 2.7548131303e+00	 2.3359388592e-01	 1.5616945692e+00
 2.7764652544e+00	 0.0000000000e+00	 1.6199910969e+00
 2.7763688610e+00	 2.3136420614e-02	 1.6199670082e+00
 2.7760783674e+00	 4.6350069099e-02	 1.6185061905e+00
 2.7755918188e+00	 6.9638929329e-02	 1.6155903841e+00
 2.7749072823e+00	 9.3000939774e-02	 1.6112069205e+00
 2.7740228477e+00	 1.1643399358e-01	 1.6053475611e+00
 2.7729366289e+00	 1.3993593869e-01	 1.5980073685e+00
 2.7716467649e+00	 1.6350457797e-01	 1.5891835713e+00
 2.7701514212e+00	 1.8713766940e-01	 1.5788743827e+00
 2.7684487909e+00	 2.1083292628e-01	 1.5670777272e+00
 2.7665370956e+00	 2.3458801746e-01	 1.5537898241e+00
 2.7882312897e+00	 0.0000000000e+00	 1.6130297550e+00
 2.7881344878e+00	 2.3234467561e-02	 1.6128256892e+00
 2.7878427632e+00	 4.6546490268e-02	 1.6111867780e+00
 2.7873541527e+00	 6.9934043451e-02	 1.6080966680e+00
 2.7866667153e+00	 9.3395056842e-02	 1.6035434146e+00
 2.7857785326e+00	 1.1692741466e-01	 1.5975185022e+00
 2.7846877107e+00	 1.4052895573e-01	 1.5900159103e+00
 2.7833923805e+00	 1.6419747360e-01	 1.5810311893e+00
 2.7818907000e+00	 1.8793071676e-01	 1.5705605011e+00
 2.7801808543e+00	 2.1172638881e-01	 1.5585995792e+00
 2.7782610577e+00	 2.3558214872e-01	 1.5451425563e+00
 2.7999973184e+00	 0.0000000000e+00	 1.6052008426e+00
 2.7999001080e+00	 2.3332514453e-02	 1.6048398954e+00
 2.7996071523e+00	 4.6742911326e-02	 1.6030439846e+00
 2.7991164800e+00	 7.0229157405e-02	 1.5997990023e+00
 2.7984261416e+00	 9.3789173687e-02	 1.5950940465e+00
 2.7975342109e+00	 1.1742083546e-01	 1.5889206290e+00
 2.7964387858e+00	 1.4112197243e-01	 1.5812719457e+00
 2.7951379895e+00	 1.6489036884e-01	 1.5721421691e+00
 2.7936299720e+00	 1.8872376367e-01	 1.5615257205e+00
 2.7919129110e+00	 2.1261985083e-01	 1.5494164725e+00
 2.7899850131e+00	 2.3657627942e-01	 1.5358068296e+00
 2.8117633370e+00	 0.0000000000e+00	 1.5965224717e+00
 2.8116657182e+00	 2.3430561261e-02	 1.5960270433e+00
 2.8113715314e+00	 4.6939332216e-02	 1.5940956641e+00
 2.8108787972e+00	 7.0524271107e-02	 1.5907167458e+00
 2.8101855580e+00	 9.4183290196e-02	 1.5858806800e+00
 2.8092898792e+00	 1.1791425584e-01	 1.5795792411e+00
 2.8081898510e+00	 1.4171498863e-01	 1.5718050676e+00
 2.8068835886e+00	 1.6558326349e-01	 1.5625511806e+00
 2.8053692341e+00	 1.8951680990e-01	 1.5518104951e+00
 2.8036449577e+00	 2.1351331209e-01	 1.5395752745e+00
 2.8017089585e+00	 2.3757040928e-01	 1.5258364735e+00
 2.8235293423e+00	 0.0000000000e+00	 1.5870131159e+00
 2.8234313150e+00	 2.3528607958e-02	 1.5864048579e+00
 2.8231358972e+00	 4.7135752884e-02	 1.5843599252e+00
 2.8226411011e+00	 7.0819384475e-02	 1.5808694586e+00
 2.8219449610e+00	 9.4577406258e-02	 1.5759253263e+00
 2.8210455342e+00	 1.1840767566e-01	 1.5695197295e+00
 2.8199409028e+00	 1.4230800415e-01	 1.5616449029e+00
 2.8186291743e+00	 1.6627615735e-01	 1.5522928669e+00
 2.8171084829e+00	 1.9030985524e-01	 1.5414551878e+00
 2.8153769912e+00	 2.1440677234e-01	 1.5291226927e+00
 2.8134328906e+00	 2.3856453800e-01	 1.5152850850e+00
 2.8352953310e+00	 0.0000000000e+00	 1.5766916037e+00
 2.8351968952e+00	 2.3626654516e-02	 1.5759913653e+00
 2.8349002463e+00	 4.7332173273e-02	 1.5738551252e+00
 2.8344033884e+00	 7.1114497425e-02	 1.5702768965e+00
 2.8337043473e+00	 9.4971521761e-02	 1.5652501382e+00
 2.8328011726e+00	 1.1890109478e-01	 1.5587675716e+00
 2.8316919380e+00	 1.4290101884e-01	 1.5508211072e+00
 2.8303747433e+00	 1.6696905023e-01	 1.5414018403e+00
 2.8288477151e+00	 1.9110289945e-01	 1.5305000680e+00
 2.8271090080e+00	 2.1530023132e-01	 1.5181052745e+00
 2.8251568061e+00	 2.3955866532e-01	 1.5042060288e+00
 2.8470612996e+00	 0.0000000000e+00	 1.5655771121e+00
 2.8469624553e+00	 2.3724700907e-02	 1.5648048863e+00
 2.8466645755e+00	 4.7528593327e-02	 1.5625998629e+00
 2.8461656556e+00	 7.1409609872e-02	 1.5589590038e+00
 2.8454637137e+00	 9.5365636593e-02	 1.5538774040e+00
 2.8445567909e+00	 1.1939451307e-01	 1.5473483259e+00
 2.8434429532e+00	 1.4349403251e-01	 1.5393633617e+00
 2.8421202924e+00	 1.6766194193e-01	 1.5299126801e+00
 2.8405869273e+00	 1.9189594231e-01	 1.5189853101e+00
 2.8388410048e+00	 2.1619368879e-01	 1.5065694065e+00
 2.8368807017e+00	 2.4055279095e-01	 1.4926524394e+00
 2.8588272450e+00	 0.0000000000e+00	 1.5536891593e+00
 2.8587279922e+00	 2.3822747103e-02	 1.5528640296e+00
 2.8584288812e+00	 4.7725012992e-02	 1.5506129724e+00
 2.8579278995e+00	 7.1704721733e-02	 1.5469359078e+00
 2.8572230567e+00	 9.5759750643e-02	 1.5418295420e+00
 2.8563123859e+00	 1.1988793037e-01	 1.5352876274e+00
 2.8551939451e+00	 1.4408704501e-01	 1.5273013684e+00
 2.8538658182e+00	 1.6835483226e-01	 1.5178599288e+00
 2.8523261162e+00	 1.9268898360e-01	 1.5069509917e+00
 2.8505729784e+00	 2.1708714448e-01	 1.4945613145e+00
 2.8486045740e+00	 2.4154691460e-01	 1.4806772215e+00
 2.8705931636e+00	 0.0000000000e+00	 1.5410475995e+00
 2.8704935023e+00	 2.3920793077e-02	 1.5401876854e+00
 2.8701931604e+00	 4.7921432211e-02	 1.5379135163e+00
 2.8696901168e+00	 7.1999832925e-02	 1.5342279121e+00
 2.8689823731e+00	 9.6153863798e-02	 1.5291290948e+00
 2.8680679543e+00	 1.2038134655e-01	 1.5226111824e+00
 2.8669449104e+00	 1.4468005616e-01	 1.5146648465e+00
 2.8656113174e+00	 1.6904772102e-01	 1.5052780900e+00
 2.8640652785e+00	 1.9348202309e-01	 1.4944370918e+00
 2.8623049255e+00	 2.1798059814e-01	 1.4821270629e+00
 2.8603284198e+00	 2.4254103600e-01	 1.4683330517e+00
 2.8823590522e+00	 0.0000000000e+00	 1.5276726156e+00
 2.8822589824e+00	 2.4018838800e-02	 1.5267950193e+00
 2.8819574095e+00	 4.8117850928e-02	 1.5245207800e+00
 2.8814523041e+00	 7.2294943363e-02	 1.5208554912e+00
 2.8807416595e+00	 9.6547975948e-02	 1.5157987242e+00
 2.8798234927e+00	 1.2087476147e-01	 1.5093447641e+00
 2.8786958457e+00	 1.4527306580e-01	 1.5014835287e+00
 2.8773567866e+00	 1.6974060800e-01	 1.4922016250e+00
 2.8758044108e+00	 1.9427506055e-01	 1.4814834894e+00
 2.8740368425e+00	 2.1887404953e-01	 1.4693125548e+00
 2.8720522356e+00	 2.4353515486e-01	 1.4556723793e+00
 2.7548131303e+00	 2.3359388592e-01	 1.5616945692e+00
 2.7526992392e+00	 2.5730955035e-01	 1.5471108742e+00
 2.7503736456e+00	 2.8107998260e-01	 1.5311075703e+00
 2.7478346707e+00	 3.0490267082e-01	 1.5137331962e+00
 2.7450806690e+00	 3.2877505866e-01	 1.4950275122e+00
 2.7421100300e+00	 3.5269454566e-01	 1.4750182123e+00
 2.7389211788e+00	 3.7665848769e-01	 1.4537093544e+00
 2.7355125780e+00	 4.0066419743e-01	 1.4309458904e+00
 2.7318827285e+00	 4.2470894487e-01	 1.4066808461e+00
 2.7280301707e+00	 4.4878995786e-01	 1.3809272843e+00
 2.7239534860e+00	 4.7290442270e-01	 1.3536916574e+00
 2.7665370956e+00	 2.3458801746e-01	 1.5537898241e+00
 2.7644142082e+00	 2.5840461129e-01	 1.5390319001e+00
 2.7620787174e+00	 2.8227620602e-01	 1.5228693686e+00
 2.7595289370e+00	 3.0620027911e-01	 1.5053512508e+00
 2.7567632149e+00	 3.3017426333e-01	 1.4865189866e+00
 2.7537799333e+00	 3.5419554716e-01	 1.4664034041e+00
 2.7505775110e+00	 3.7826147521e-01	 1.4450078948e+00
 2.7471544039e+00	 4.0236934872e-01	 1.4221592986e+00
 2.7435091064e+00	 4.2651642608e-01	 1.3978110075e+00
 2.7396401528e+00	 4.5069992332e-01	 1.3719700290e+00
 2.7355461185e+00	 4.7491701477e-01	 1.3446378544e+00
 2.7782610577e+00	 2.3558214872e-01	 1.5451425563e+00
 2.7761291739e+00	 2.5949967192e-01	 1.5302208653e+00
 2.7737837858e+00	 2.8347242910e-01	 1.5139112790e+00
 2.7712232001e+00	 3.0749788703e-01	 1.4962633597e+00
 2.7684457574e+00	 3.3157346761e-01	 1.4773203110e+00
 2.7654498333e+00	 3.5569654823e-01	 1.4571162148e+00
 2.7622338399e+00	 3.7986446227e-01	 1.4356521589e+00
 2.7587962264e+00	 4.0407449953e-01	 1.4127387427e+00
 2.7551354810e+00	 4.2832390677e-01	 1.3883311424e+00
 2.7512501317e+00	 4.5260988824e-01	 1.3624313055e+00
 2.7471387477e+00	 4.7692960628e-01	 1.3350367853e+00
 2.7899850131e+00	 2.3657627942e-01	 1.5358068296e+00
 2.7878441330e+00	 2.6059473193e-01	 1.5207390840e+00
 2.7854888476e+00	 2.8466865150e-01	 1.5043017378e+00
 2.7829174565e+00	 3.0879549422e-01	 1.4865448761e+00
 2.7801282933e+00	 3.3297267109e-01	 1.4675134727e+00
 2.7771197268e+00	 3.5719754845e-01	 1.4472449057e+00
 2.7738901622e+00	 3.8146744843e-01	 1.4257361384e+00
 2.7704380423e+00	 4.0577964938e-01	 1.4027838885e+00
 2.7667618490e+00	 4.3013138644e-01	 1.3783461721e+00
 2.7628601039e+00	 4.5451985207e-01	 1.3524208353e+00
 2.7587313704e+00	 4.7894219664e-01	 1.3250024808e+00
 2.8017089585e+00	 2.3757040928e-01	 1.5258364735e+00
 2.7995590821e+00	 2.6168979101e-01	 1.5106475601e+00
 2.7971938994e+00	 2.8586487289e-01	 1.4941087977e+00
 2.7946117029e+00	 3.1009310030e-01	 1.4762706976e+00
 2.7918108192e+00	 3.3437187338e-01	 1.4571799326e+00
 2.7887896103e+00	 3.5869854740e-01	 1.4368771412e+00
 2.7855464746e+00	 3.8307043322e-01	 1.4153531985e+00
 2.7820798484e+00	 4.0748479777e-01	 1.3923937088e+00
 2.7783882071e+00	 4.3193886457e-01	 1.3679602614e+00
 2.7744700663e+00	 4.5642981428e-01	 1.3420475230e+00
 2.7703239832e+00	 4.8095478529e-01	 1.3146480968e+00
 2.8134328906e+00	 2.3856453800e-01	 1.5152850850e+00
 2.8112740179e+00	 2.6278484885e-01	 1.5000069905e+00
 2.8088989380e+00	 2.8706109292e-01	 1.4834001323e+00
 2.8063059361e+00	 3.1139070491e-01	 1.4655152723e+00
 2.8034933320e+00	 3.3577107409e-01	 1.4464006321e+00
 2.8004594806e+00	 3.6019954465e-01	 1.4260999967e+00
 2.7972027737e+00	 3.8467341620e-01	 1.4045960849e+00
 2.7937216412e+00	 4.0918994424e-01	 1.3816664925e+00
 2.7900145520e+00	 4.3374634066e-01	 1.3572768289e+00
 2.7860800155e+00	 4.5833977433e-01	 1.3314194666e+00
 2.7819165829e+00	 4.8296737166e-01	 1.3040859250e+00
 2.8251568061e+00	 2.3955866532e-01	 1.5042060288e+00
 2.8229889372e+00	 2.6387990513e-01	 1.4888777675e+00
 2.8206039600e+00	 2.8825731125e-01	 1.4722430400e+00
 2.8180001528e+00	 3.1268830769e-01	 1.4543526041e+00
 2.8151758281e+00	 3.3717027281e-01	 1.4352560005e+00
 2.8121293343e+00	 3.6170053977e-01	 1.4149999667e+00
 2.8088590564e+00	 3.8627639690e-01	 1.3935569322e+00
 2.8053634176e+00	 4.1089508828e-01	 1.3706998527e+00
 2.8016408805e+00	 4.3555381418e-01	 1.3463985554e+00
 2.7976899483e+00	 4.6024973167e-01	 1.3206439677e+00
 2.7935091661e+00	 4.8497995518e-01	 1.2934274039e+00
 2.8368807017e+00	 2.4055279095e-01	 1.4926524394e+00
 2.8347038365e+00	 2.6497495956e-01	 1.4773199813e+00
 2.8323089620e+00	 2.8945352755e-01	 1.4607044483e+00
 2.8296943495e+00	 3.1398590826e-01	 1.4428562585e+00
 2.8268583044e+00	 3.3856946916e-01	 1.4238259616e+00
 2.8237991682e+00	 3.6320153233e-01	 1.4036629734e+00
 2.8205153192e+00	 3.8787937488e-01	 1.3823272706e+00
 2.8170051741e+00	 4.1260022943e-01	 1.3595907353e+00
 2.8132671892e+00	 4.3736128463e-01	 1.3354273939e+00
 2.8092998613e+00	 4.6215968576e-01	 1.3098275411e+00
 2.8051017297e+00	 4.8699253528e-01	 1.2827831287e+00
 2.8486045740e+00	 2.4154691460e-01	 1.4806772215e+00
 2.8464187125e+00	 2.6607001181e-01	 1.4653934234e+00
 2.8440139409e+00	 2.9064974148e-01	 1.4488509182e+00
 2.8413885231e+00	 3.1528350625e-01	 1.4310993684e+00
 2.8385407576e+00	 3.3996866273e-01	 1.4121899406e+00
 2.8354689790e+00	 3.6470252192e-01	 1.3921743744e+00
 2.8321715589e+00	 3.8948234968e-01	 1.3709980337e+00
 2.8286469076e+00	 4.1430536719e-01	 1.3484354268e+00
 2.8248934748e+00	 4.3916875150e-01	 1.3244645779e+00
 2.8209097513e+00	 4.6406963606e-01	 1.2990759242e+00
 2.8166942702e+00	 4.8900511138e-01	 1.2722628622e+00
 2.8603284198e+00	 2.4254103600e-01	 1.4683330517e+00
 2.8581335621e+00	 2.6716506157e-01	 1.4531575885e+00
 2.8557188933e+00	 2.9184595269e-01	 1.4367486482e+00
 2.8530826701e+00	 3.1658110130e-01	 1.4191546390e+00
 2.8502231842e+00	 3.4136785313e-01	 1.4004268711e+00
 2.8471387633e+00	 3.6620350811e-01	 1.3806189704e+00
 2.8438277722e+00	 3.9108532085e-01	 1.3596595647e+00
 2.8402886147e+00	 4.1601050109e-01	 1.3373295625e+00
 2.8365197341e+00	 4.4097621426e-01	 1.3136106306e+00
 2.8325196150e+00	 4.6597958204e-01	 1.2884940873e+00
 2.8282867845e+00	 4.9101768293e-01	 1.2619755440e+00
 2.8720522356e+00	 2.4353515486e-01	 1.4556723793e+00
 2.8698483817e+00	 2.6826010855e-01	 1.4406716777e+00
 2.8674238157e+00	 2.9304216086e-01	 1.4244634782e+00
 2.8647767873e+00	 3.1787869304e-01	 1.4070943538e+00
 2.8619055811e+00	 3.4276703995e-01	 1.3886152014e+00
 2.8588085178e+00	 3.6770449047e-01	 1.3690810136e+00
 2.8554839558e+00	 3.9268828793e-01	 1.3484016245e+00
 2.8519302921e+00	 4.1771563064e-01	 1.3263681345e+00
 2.8481459637e+00	 4.4278367242e-01	 1.3029653733e+00
 2.8441294491e+00	 4.6788952314e-01	 1.2781862418e+00
 2.8398792692e+00	 4.9303024934e-01	 1.2520293011e+00
 2.7239534860e+00	 4.7290442270e-01	 1.3536916574e+00
 2.7196520478e+00	 4.9704537915e-01	 1.3249125898e+00
 2.7151238477e+00	 5.2121403541e-01	 1.2945972712e+00
 2.7103675953e+00	 5.4540746504e-01	 1.2628546244e+00
 2.7053820455e+00	 5.6962270291e-01	 1.2297796201e+00
 2.7001660000e+00	 5.9385674596e-01	 1.1954499942e+00
 2.6947183084e+00	 6.1810655401e-01	 1.1599225322e+00
 2.6890378692e+00	 6.4236905056e-01	 1.1232288950e+00
 2.6831236311e+00	 6.6664112374e-01	 1.0853709637e+00
 2.6769745938e+00	 6.9091962719e-01	 1.0463156790e+00
 2.6705898097e+00	 7.1520138100e-01	 1.0059893576e+00
 2.7355461185e+00	 4.7491701477e-01	 1.3446378544e+00
 2.7312263742e+00	 4.9916071058e-01	 1.3157529786e+00
 2.7266789029e+00	 5.2343222408e-01	 1.2853361221e+00
 2.7219024088e+00	 5.4772861639e-01	 1.2535135801e+00
 2.7168956414e+00	 5.7204690975e-01	 1.2203989482e+00
 2.7116573975e+00	 5.9638408832e-01	 1.1860898667e+00
 2.7061865215e+00	 6.2073709897e-01	 1.1506643214e+00
 2.7004819075e+00	 6.4510285214e-01	 1.1141764755e+00
 2.6945424994e+00	 6.6947822269e-01	 1.0766520066e+00
 2.6883672930e+00	 6.9386005087e-01	 1.0380829280e+00
 2.6819553365e+00	 7.1824514325e-01	 9.9842186936e-01
 2.7471387477e+00	 4.7692960628e-01	 1.3350367853e+00
 2.7428006973e+00	 5.0127604142e-01	 1.3060843683e+00
 2.7382339549e+00	 5.2565041213e-01	 1.2756037081e+00
 2.7334372191e+00	 5.5004976708e-01	 1.2437349985e+00
 2.7284092341e+00	 5.7447111590e-01	 1.2106070287e+00
 2.7231487917e+00	 5.9891142996e-01	 1.1763339626e+00
 2.7176547314e+00	 6.2336764320e-01	 1.1410116639e+00
 2.7119259425e+00	 6.4783665294e-01	 1.1047135405e+00
 2.7059613646e+00	 6.7231532083e-01	 1.0674858824e+00
 2.6997599890e+00	 6.9680047372e-01	 1.0293426700e+00
 2.6933208600e+00	 7.2128890464e-01	 9.9025982836e-01
 2.7587313704e+00	 4.7894219664e-01	 1.3250024808e+00
 2.7543750139e+00	 5.0339137105e-01	 1.2960249019e+00
 2.7497890003e+00	 5.2786859892e-01	 1.2655224241e+00
 2.7449720228e+00	 5.5237091646e-01	 1.2336456915e+00
 2.7399228203e+00	 5.7689532068e-01	 1.2005352833e+00
 2.7346401794e+00	 6.0143877017e-01	 1.1663185344e+00
 2.7291229348e+00	 6.2599818593e-01	 1.1311058932e+00
 2.7233699710e+00	 6.5057045220e-01	 1.0949867855e+00
 2.7173802232e+00	 6.7515241737e-01	 1.0580249613e+00
 2.7111526785e+00	 6.9974089490e-01	 1.0202532969e+00
 2.7046863771e+00	 7.2433266430e-01	 9.8166802917e-01
 2.7703239832e+00	 4.8095478529e-01	 1.3146480968e+00
 2.7659493206e+00	 5.0550669889e-01	 1.2856917869e+00
 2.7613440359e+00	 5.3008678383e-01	 1.2552136591e+00
 2.7565068167e+00	 5.5469206387e-01	 1.2233713854e+00
 2.7514363967e+00	 5.7931952340e-01	 1.1903139567e+00
 2.7461315573e+00	 6.0396610824e-01	 1.1561785541e+00
 2.7405911284e+00	 6.2862872643e-01	 1.1210869457e+00
 2.7348139898e+00	 6.5330424913e-01	 1.0851413788e+00
 2.7287990721e+00	 6.7798951149e-01	 1.0484199415e+00
 2.7225453584e+00	 7.0268131358e-01	 1.0109713669e+00
 2.7160518846e+00	 7.2737642137e-01	 9.7280925477e-01
 2.7819165829e+00	 4.8296737166e-01	 1.3040859250e+00
 2.7775236142e+00	 5.0762202433e-01	 1.2752013061e+00
 2.7728990584e+00	 5.3230496622e-01	 1.2447978085e+00
 2.7680415975e+00	 5.5701320865e-01	 1.2130367331e+00
 2.7629499601e+00	 5.8174372337e-01	 1.1800721301e+00
 2.7576229222e+00	 6.0649344343e-01	 1.1460477280e+00
 2.7520593090e+00	 6.3125926394e-01	 1.1110933773e+00
 2.7462579956e+00	 6.5603804297e-01	 1.0753209787e+00
 2.7402179081e+00	 6.8082660240e-01	 1.0388198671e+00
 2.7339380253e+00	 7.0562172893e-01	 1.0016516252e+00
 2.7274173791e+00	 7.3042017499e-01	 9.6384429893e-01
 2.7935091661e+00	 4.8497995518e-01	 1.2934274039e+00
 2.7890978914e+00	 5.0973734677e-01	 1.2646688292e+00
 2.7844540646e+00	 5.3452314547e-01	 1.2343942856e+00
 2.7795763620e+00	 5.5933435013e-01	 1.2027653272e+00
 2.7744635071e+00	 5.8416791991e-01	 1.1699377349e+00
 2.7691142708e+00	 6.0902077505e-01	 1.1360585112e+00
 2.7635274734e+00	 6.3388979773e-01	 1.1012623785e+00
 2.7577019852e+00	 6.5877183293e-01	 1.0656677506e+00
 2.7516367280e+00	 6.8366368929e-01	 1.0293721473e+00
 2.7453306761e+00	 7.0856214012e-01	 9.9244702378e-01
 2.7387828576e+00	 7.3346392430e-01	 9.5493198797e-01
 2.8051017297e+00	 4.8699253528e-01	 1.2827831287e+00
 2.8006721490e+00	 5.1185266561e-01	 1.2542088238e+00
 2.7960090510e+00	 5.3674132095e-01	 1.2241215335e+00
 2.7911111069e+00	 5.6165548767e-01	 1.1926797119e+00
 2.7859770346e+00	 5.8659211232e-01	 1.1600375656e+00
 2.7806055999e+00	 6.1154810237e-01	 1.1263421218e+00
 2.7749956183e+00	 6.3652032705e-01	 1.0917297899e+00
 2.7691459553e+00	 6.6150561824e-01	 1.0563223837e+00
 2.7630555284e+00	 6.8650077136e-01	 1.0202225738e+00
 2.7567233075e+00	 7.1150254630e-01	 9.8350874101e-01
 2.7501483168e+00	 7.3650766844e-01	 9.4622920209e-01
 2.8166942702e+00	 4.8900511138e-01	 1.2722628622e+00
 2.8122463835e+00	 5.1396798026e-01	 1.2439348657e+00
 2.8075640146e+00	 5.3895949203e-01	 1.2140970363e+00
 2.8026458290e+00	 5.6397662061e-01	 1.1829013956e+00
 2.7974905392e+00	 5.8901629993e-01	 1.1504972929e+00
 2.7920969062e+00	 6.1407542467e-01	 1.1170285547e+00
 2.7864637404e+00	 6.3915085115e-01	 1.0826301172e+00
 2.7805899027e+00	 6.6423939813e-01	 1.0474241068e+00
 2.7744743061e+00	 6.8933784779e-01	 1.0115153386e+00
 2.7681159164e+00	 7.1444294665e-01	 9.7498620069e-01
 2.7615137534e+00	 7.3955140654e-01	 9.3789089614e-01
 2.8282867845e+00	 4.9101768293e-01	 1.2619755440e+00
 2.8238205919e+00	 5.1608329012e-01	 1.2339596501e+00
 2.8191189520e+00	 5.4117765808e-01	 1.2044373305e+00
 2.8141805248e+00	 5.6629774829e-01	 1.1735508625e+00
 2.8090040177e+00	 5.9144048204e-01	 1.1414414765e+00
 2.8035881865e+00	 6.1660274125e-01	 1.1082465955e+00
 2.7979318365e+00	 6.4178136928e-01	 1.0740965456e+00
 2.7920338242e+00	 6.6697317182e-01	 1.0391107043e+00
 2.7858930580e+00	 6.9217491780e-01	 1.0033930509e+00
 2.7795084994e+00	 7.1738334034e-01	 9.6702709079e-01
 2.7728791642e+00	 7.4259513773e-01	 9.3006834640e-01
 2.8398792692e+00	 4.9303024934e-01	 1.2520293011e+00
 2.8353947707e+00	 5.1819859458e-01	 1.2243950013e+00
 2.8306738599e+00	 5.4339581847e-01	 1.1952580157e+00
 2.8257151913e+00	 5.6861887004e-01	 1.1647475843e+00
 2.8205174669e+00	 5.9386465797e-01	 1.1329935776e+00
 2.8150794374e+00	 6.1913005138e-01	 1.1001238334e+00
 2.8093999034e+00	 6.4441188071e-01	 1.0662609548e+00
 2.8034777166e+00	 6.6970693854e-01	 1.0315185318e+00
 2.7973117808e+00	 6.9501198057e-01	 9.9599675432e-01
 2.7909010533e+00	 7.2032372652e-01	 9.5977738159e-01
 2.7842445460e+00	 7.4563886117e-01	 9.2290627169e-01
 2.6705898097e+00	 7.1520138100e-01	 1.0059893576e+00
 2.6639683848e+00	 7.3948317308e-01	 9.6450207156e-01
 2.6571094822e+00	 7.6376176120e-01	 9.2184445161e-01
 2.6500123209e+00	 7.8803387312e-01	 8.7791610696e-01
 2.6426761766e+00	 8.1229620733e-01	 8.3300211265e-01
 2.6351003822e+00	 8.3654543421e-01	 7.8736542400e-01
 2.6272843295e+00	 8.6077819719e-01	 7.4124431708e-01
 2.6192274694e+00	 8.8499111396e-01	 6.9485066401e-01
 2.6109293132e+00	 9.0918077772e-01	 6.4836819671e-01
 2.6023894335e+00	 9.3334375840e-01	 6.0195077140e-01
 2.5936074649e+00	 9.5747660403e-01	 5.5572064668e-01
 2.6819553365e+00	 7.1824514325e-01	 9.9842186936e-01
 2.6753057321e+00	 7.4263027406e-01	 9.5775854527e-01
 2.6684176393e+00	 7.6701218728e-01	 9.1593238990e-01
 2.6612902738e+00	 7.9138759672e-01	 8.7286368804e-01
 2.6539229082e+00	 8.1575318685e-01	 8.2876321723e-01
 2.6463148727e+00	 8.4010561387e-01	 7.8382028655e-01
 2.6384655563e+00	 8.6444150692e-01	 7.3820109096e-01
 2.6303744077e+00	 8.8875746931e-01	 6.9204704098e-01
 2.6220409362e+00	 9.1305007971e-01	 6.4547308012e-01
 2.6134647123e+00	 9.3731589348e-01	 5.9856600258e-01
 2.6046453693e+00	 9.6155144396e-01	 5.5138278405e-01
 2.6933208600e+00	 7.2128890464e-01	 9.9025982836e-01
 2.6866430761e+00	 7.4577737415e-01	 9.5030739177e-01
 2.6797257931e+00	 7.7026261243e-01	 9.0921517020e-01
 2.6725682235e+00	 7.9474131938e-01	 8.6692225625e-01
 2.6651696366e+00	 8.1921016540e-01	 8.2357537571e-01
 2.6575293600e+00	 8.4366579252e-01	 7.7930113958e-01
 2.6496467800e+00	 8.6810481562e-01	 7.3420443509e-01
 2.6415213429e+00	 8.9252382358e-01	 6.8836679120e-01
 2.6331525559e+00	 9.1691938060e-01	 6.4184473097e-01
 2.6245399880e+00	 9.4128802744e-01	 5.9466812369e-01
 2.6156832706e+00	 9.6562628272e-01	 5.4683854979e-01
 2.7046863771e+00	 7.2433266430e-01	 9.8166802917e-01
 2.6979804137e+00	 7.4892447245e-01	 9.4231811352e-01
 2.6910339405e+00	 7.7351303573e-01	 9.0186448295e-01
 2.6838461667e+00	 7.9809504013e-01	 8.6026137544e-01
 2.6764163587e+00	 8.2266714198e-01	 8.1760243974e-01
 2.6687438409e+00	 8.4722596916e-01	 7.7396240851e-01
 2.6608279973e+00	 8.7176812224e-01	 7.2939550765e-01
 2.6526682718e+00	 8.9629017572e-01	 6.8393383899e-01
 2.6442641695e+00	 9.2078867930e-01	 6.3758574902e-01
 2.6356152574e+00	 9.4526015914e-01	 5.9033419681e-01
 2.6267211656e+00	 9.6970111918e-01	 5.4213513443e-01
 2.7160518846e+00	 7.2737642137e-01	 9.7280925477e-01
 2.7093177416e+00	 7.5207156807e-01	 9.3395889643e-01
 2.7023420783e+00	 7.7676345628e-01	 8.9404974910e-01
 2.6951241004e+00	 8.0144875803e-01	 8.5304830036e-01
 2.6876630712e+00	 8.2612411563e-01	 8.1100596942e-01
 2.6799583123e+00	 8.5078614277e-01	 7.6795630452e-01
 2.6720092051e+00	 8.7543142574e-01	 7.2391339211e-01
 2.6638151911e+00	 9.0005652466e-01	 6.7887023818e-01
 2.6553757735e+00	 9.2465797472e-01	 6.3279713490e-01
 2.6466905174e+00	 9.4923228747e-01	 5.8564002573e-01
 2.6377590513e+00	 9.7377595218e-01	 5.3731888290e-01
 2.7274173791e+00	 7.3042017499e-01	 9.6384429893e-01
 2.7206550568e+00	 7.5521866013e-01	 9.2539577489e-01
 2.7136502033e+00	 7.8001387314e-01	 8.8593814460e-01
 2.7064020213e+00	 8.0480247213e-01	 8.4544800075e-01
 2.6989097709e+00	 8.2958108535e-01	 8.0394525595e-01
 2.6911727710e+00	 8.5434631234e-01	 7.6143284454e-01
 2.6831904002e+00	 8.7909472509e-01	 7.1789511324e-01
 2.6749620979e+00	 9.0382286933e-01	 6.7329618283e-01
 2.6664873650e+00	 9.2852726574e-01	 6.2757829413e-01
 2.6577657649e+00	 9.5320441129e-01	 5.8066015193e-01
 2.6487969244e+00	 9.7785078055e-01	 5.3243528099e-01
 2.7387828576e+00	 7.3346392430e-01	 9.5493198797e-01
 2.7319923558e+00	 7.5836574773e-01	 9.1679265483e-01
 2.7249583123e+00	 7.8326428539e-01	 8.7769462423e-01
 2.7176799262e+00	 8.0815618148e-01	 8.3762318495e-01
 2.7101564547e+00	 8.3303805018e-01	 7.9657734378e-01
 2.7023872138e+00	 8.5790647687e-01	 7.5453987069e-01
 2.6943715795e+00	 8.8275801925e-01	 7.1147565274e-01
 2.6861089888e+00	 9.0758920866e-01	 6.6733001772e-01
 2.6775989407e+00	 9.3239655129e-01	 6.2202704117e-01
 2.6688409966e+00	 9.5717652949e-01	 5.7546785073e-01
 2.6598347820e+00	 9.8192560316e-01	 5.2752894227e-01
 2.7501483168e+00	 7.3650766844e-01	 9.4622920209e-01
 2.7433296356e+00	 7.6151282998e-01	 9.0831133621e-01
 2.7362664021e+00	 7.8651469212e-01	 8.6948194486e-01
 2.7289578120e+00	 8.1150988512e-01	 8.2973432289e-01
 2.7214031194e+00	 8.3649500914e-01	 7.8905705225e-01
 2.7136016375e+00	 8.6146663534e-01	 7.4742306943e-01
 2.7055527398e+00	 8.8642130719e-01	 7.0478796455e-01
 2.6972558609e+00	 9.1135554159e-01	 6.6108824864e-01
 2.6887104975e+00	 9.3626583025e-01	 6.1623960338e-01
 2.6799162096e+00	 9.6114864094e-01	 5.7013512761e-01
 2.6708726207e+00	 9.8600041883e-01	 5.2264359532e-01
 2.7615137534e+00	 7.3955140654e-01	 9.3789089614e-01
 2.7546668929e+00	 7.6465990599e-01	 9.0011153496e-01
 2.7475744694e+00	 7.8976509240e-01	 8.6146068820e-01
 2.7402356754e+00	 8.1486358212e-01	 8.2193966855e-01
 2.7326497618e+00	 8.3995196123e-01	 7.8153699662e-01
 2.7248160390e+00	 8.6502678676e-01	 7.4022599012e-01
 2.7167338779e+00	 8.9008458785e-01	 6.9796298982e-01
 2.7084027108e+00	 9.1512186705e-01	 6.5468555247e-01
 2.6998220323e+00	 9.4013510154e-01	 6.1031062495e-01
 2.6909914005e+00	 9.6512074450e-01	 5.6473271470e-01
 2.6819104376e+00	 9.9007522643e-01	 5.1782207141e-01
 2.7728791642e+00	 7.4259513773e-01	 9.3006834640e-01
 2.7660041245e+00	 7.6780697486e-01	 8.9235090444e-01
 2.7588825111e+00	 7.9301548532e-01	 8.5378928301e-01
 2.7515135132e+00	 8.1821727151e-01	 8.1439528190e-01
 2.7438963787e+00	 8.4340890549e-01	 7.7416760879e-01
 2.7360304151e+00	 8.6858693010e-01	 7.3309006323e-01
 2.7279149906e+00	 8.9374786022e-01	 6.9112967153e-01
 2.7195495354e+00	 9.1888818397e-01	 6.4823478705e-01
 2.7109335419e+00	 9.4400436406e-01	 6.0433317077e-01
 2.7020665664e+00	 9.6909283907e-01	 5.5933006737e-01
 2.6929482294e+00	 9.9415002478e-01	 5.1310629255e-01
 2.7842445460e+00	 7.4563886117e-01	 9.2290627169e-01
 2.7773413271e+00	 7.7095403571e-01	 8.8518505629e-01
 2.7701905239e+00	 7.9626586994e-01	 8.4662402672e-01
 2.7627913223e+00	 8.2157095235e-01	 8.0725505032e-01
 2.7551429669e+00	 8.4686584093e-01	 7.6709715739e-01
 2.7472447625e+00	 8.7214706437e-01	 7.2615461819e-01
 2.7390960749e+00	 8.9741112324e-01	 6.8441496883e-01
 2.7306963316e+00	 9.2265449129e-01	 6.4184700091e-01
 2.7220450232e+00	 9.4787361672e-01	 5.9839873032e-01
 2.7131417040e+00	 9.7306492350e-01	 5.5399536102e-01
 2.7039859931e+00	 9.9822481275e-01	 5.0853725984e-01
 2.5936074649e+00	 9.5747660403e-01	 5.5572064668e-01
 2.5845815496e+00	 9.8157993592e-01	 5.0951388975e-01
 2.5753129198e+00	 1.0056461540e+00	 4.6252054083e-01
 2.5658013991e+00	 1.0296717458e+00	 4.1465172766e-01
 2.5560468764e+00	 1.0536531820e+00	 3.6588293489e-01
 2.5460493067e+00	 1.0775869187e+00	 3.1623913349e-01
 2.5358087111e+00	 1.1014693983e+00	 2.6579540670e-01
 2.5253251781e+00	 1.1252970511e+00	 2.1470812775e-01
 2.5145988639e+00	 1.1490662970e+00	 1.6340416047e-01
 2.5036299928e+00	 1.1727735471e+00	 1.1241320550e-01
 2.4924188579e+00	 1.1964152048e+00	 6.2327599065e-02
 2.6046453693e+00	 9.6155144396e-01	 5.5138278405e-01
 2.5955810415e+00	 9.8575735508e-01	 5.0473180922e-01
 2.5862729661e+00	 1.0099259945e+00	 4.5893193085e-01
 2.5767209661e+00	 1.0340538346e+00	 4.1205748501e-01
 2.5669249301e+00	 1.0581373313e+00	 3.6397470851e-01
 2.5568848125e+00	 1.0821729255e+00	 3.1474484058e-01
 2.5466006349e+00	 1.1061570444e+00	 2.6448050134e-01
 2.5360724860e+00	 1.1300861032e+00	 2.1340673942e-01
 2.5253005226e+00	 1.1539565066e+00	 1.6201943833e-01
 2.5142849701e+00	 1.1777646502e+00	 1.1088629167e-01
 2.5030261227e+00	 1.2015069224e+00	 6.0644819143e-02
 2.6156832706e+00	 9.6562628272e-01	 5.4683854979e-01
 2.6065805302e+00	 9.8993477306e-01	 4.9908453173e-01
 2.5972330093e+00	 1.0142058337e+00	 4.5237619662e-01
 2.5876405301e+00	 1.0384359222e+00	 4.0660159799e-01
 2.5778029807e+00	 1.0626214794e+00	 3.5966887075e-01
 2.5677203153e+00	 1.0867589310e+00	 3.1130704470e-01
 2.5573925557e+00	 1.1108446892e+00	 2.6164879992e-01
 2.5468197908e+00	 1.1348751540e+00	 2.1098297430e-01
 2.5360021783e+00	 1.1588467147e+00	 1.5984126727e-01
 2.5249399443e+00	 1.1827557519e+00	 1.0881640227e-01
 2.5136333845e+00	 1.2065986385e+00	 5.8576215044e-02
 2.6267211656e+00	 9.6970111918e-01	 5.4213513443e-01
 2.6175800127e+00	 9.9411218867e-01	 4.9362329790e-01
 2.6081930462e+00	 1.0184856705e+00	 4.4573988323e-01
 2.5985600879e+00	 1.0428180073e+00	 3.9882334854e-01
 2.5886810250e+00	 1.0671056249e+00	 3.5292178410e-01
 2.5785558120e+00	 1.0913449339e+00	 3.0588467032e-01
 2.5681844703e+00	 1.1155323313e+00	 2.5727022520e-01
 2.5575670896e+00	 1.1396642020e+00	 2.0742014221e-01
 2.5467038279e+00	 1.1637369201e+00	 1.5687300983e-01
 2.5355949125e+00	 1.1877468508e+00	 1.0623346663e-01
 2.5242406403e+00	 1.2116903517e+00	 5.6184999915e-02
 2.6377590513e+00	 9.7377595218e-01	 5.3731888290e-01
 2.6285794858e+00	 9.9828960072e-01	 4.8836542328e-01
 2.6191530739e+00	 1.0227655037e+00	 4.3966532542e-01
 2.6094796364e+00	 1.0472000887e+00	 3.9159258356e-01
 2.5995590602e+00	 1.0715897666e+00	 3.4447733113e-01
 2.5893912995e+00	 1.0959309329e+00	 2.9844036041e-01
 2.5789763758e+00	 1.1202199695e+00	 2.5131980185e-01
 2.5683143792e+00	 1.1444532460e+00	 2.0270447167e-01
 2.5574054684e+00	 1.1686271214e+00	 1.5312050032e-01
 2.5462498717e+00	 1.1927379454e+00	 1.0316930842e-01
 2.5348478871e+00	 1.2167820607e+00	 5.3535570356e-02
 2.6487969244e+00	 9.7785078055e-01	 5.3243528099e-01
 2.6395789465e+00	 1.0024670080e+00	 4.8332776001e-01
 2.6301130891e+00	 1.0270453320e+00	 4.3414601555e-01
 2.6203991725e+00	 1.0515821651e+00	 3.8528360024e-01
 2.6104370830e+00	 1.0760739032e+00	 3.3708991114e-01
 2.6002267746e+00	 1.1005169267e+00	 2.8986787545e-01
 2.5897682690e+00	 1.1249076023e+00	 2.4377346901e-01
 2.5790616566e+00	 1.1492422845e+00	 1.9682499541e-01
 2.5681070968e+00	 1.1735173170e+00	 1.4859193127e-01
 2.5569048188e+00	 1.1977290344e+00	 9.9657535233e-02
 2.5454551218e+00	 1.2218737638e+00	 5.0693401613e-02
 2.6598347820e+00	 9.8192560316e-01	 5.2752894227e-01
 2.6505783915e+00	 1.0066444094e+00	 4.7852667459e-01
 2.6410730888e+00	 1.0313251543e+00	 4.2917525941e-01
 2.6313186931e+00	 1.0559642353e+00	 3.7987205118e-01
 2.6213150904e+00	 1.0805580334e+00	 3.3097027172e-01
 2.6110622344e+00	 1.1051029139e+00	 2.8277662370e-01
 2.6005601470e+00	 1.1295952285e+00	 2.3559830250e-01
 2.5898089188e+00	 1.1540313163e+00	 1.8977343695e-01
 2.5788087100e+00	 1.1784075058e+00	 1.4329774066e-01
 2.5675597508e+00	 1.2027201163e+00	 9.5733428863e-02
 2.5560623415e+00	 1.2269654597e+00	 4.7724943186e-02
 2.6708726207e+00	 9.8600041883e-01	 5.2264359532e-01
 2.6615778179e+00	 1.0108218038e+00	 4.7397802635e-01
 2.6520330699e+00	 1.0356049693e+00	 4.2474614772e-01
 2.6422381952e+00	 1.0603462981e+00	 3.7533357694e-01
 2.6321930793e+00	 1.0850421560e+00	 3.2608213670e-01
 2.6218976758e+00	 1.1096888934e+00	 2.7728742030e-01
 2.6113520066e+00	 1.1342828467e+00	 2.2927657791e-01
 2.6005561628e+00	 1.1588203399e+00	 1.8250273950e-01
 2.5895103051e+00	 1.1832976862e+00	 1.3725050007e-01
 2.5782146646e+00	 1.2077111898e+00	 9.1433836251e-02
 2.5666695432e+00	 1.2320571470e+00	 4.4697514839e-02
 2.6819104376e+00	 9.9007522643e-01	 5.1782207141e-01
 2.6725772225e+00	 1.0149991898e+00	 4.6969714642e-01
 2.6629930293e+00	 1.0398847757e+00	 4.2085152831e-01
 2.6531576756e+00	 1.0647283522e+00	 3.7164377328e-01
 2.6430710467e+00	 1.0895262698e+00	 3.2238929277e-01
 2.6327330957e+00	 1.1142748638e+00	 2.7335880545e-01
 2.6221438448e+00	 1.1389704556e+00	 2.2488968255e-01
 2.6113033854e+00	 1.1636093540e+00	 1.7740733637e-01
 2.6002118789e+00	 1.1881878570e+00	 1.3131098937e-01
 2.5888695574e+00	 1.2127022533e+00	 8.6797061034e-02
 2.5772767238e+00	 1.2371488242e+00	 4.1679203009e-02
 2.6929482294e+00	 9.9415002478e-01	 5.1310629255e-01
 2.6835766021e+00	 1.0191765663e+00	 4.6569881741e-01
 2.6739529637e+00	 1.0441645725e+00	 4.1748397908e-01
 2.6640771313e+00	 1.0691103963e+00	 3.6877815936e-01
 2.6539489894e+00	 1.0940103733e+00	 3.1985555476e-01
 2.6435684911e+00	 1.1188608238e+00	 2.7095136528e-01
 2.6329356586e+00	 1.1436580539e+00	 2.2239412668e-01
 2.6220505836e+00	 1.1683983573e+00	 1.7456550128e-01
 2.6109134284e+00	 1.1930780166e+00	 1.2782697611e-01
 2.5995244259e+00	 1.2176933055e+00	 8.2533353394e-02
 2.5878838804e+00	 1.2422404898e+00	 3.8738757600e-02
 2.7039859931e+00	 9.9822481275e-01	 5.0853725984e-01
 2.6945759537e+00	 1.0233539322e+00	 4.6199725360e-01
 2.6849128703e+00	 1.0484443584e+00	 4.1463578182e-01
 2.6749965591e+00	 1.0734924292e+00	 3.6671214681e-01
 2.6648269043e+00	 1.0984944655e+00	 3.1844473188e-01
 2.6544038588e+00	 1.1234467721e+00	 2.7002311325e-01
 2.6437274448e+00	 1.1483456403e+00	 2.2174598494e-01
 2.6327977545e+00	 1.1731873483e+00	 1.7393743161e-01
 2.6216149507e+00	 1.1979681638e+00	 1.2690795641e-01
 2.6101792673e+00	 1.2226843450e+00	 8.0963365301e-02
 2.5984910099e+00	 1.2473321424e+00	 3.6407108534e-02
 2.4924188579e+00	 1.1964152048e+00	 6.2327599065e-02
 2.4809677886e+00	 1.2199836672e+00	 1.2519236352e-02
 2.4692753297e+00	 1.2434793529e+00	-3.7974724233e-02
 2.4573419811e+00	 1.2668986540e+00	-8.8943673609e-02
 2.4451683125e+00	 1.2902379612e+00	-1.4012275049e-01
 2.4327549644e+00	 1.3134936663e+00	-1.9120416926e-01
 2.4201026477e+00	 1.3366621636e+00	-2.4184987914e-01
 2.4072121444e+00	 1.3597398514e+00	-2.9170550996e-01
 2.3940843072e+00	 1.3827231340e+00	-3.4041554957e-01
 2.3807200600e+00	 1.4056084233e+00	-3.8763968773e-01
 2.3671203977e+00	 1.4283921406e+00	-4.3307025164e-01
 2.5030261227e+00	 1.2015069224e+00	 6.0644819143e-02
 2.4915263198e+00	 1.2251756877e+00	 1.0829340265e-02
 2.4797841000e+00	 1.2487713667e+00	-3.9430895763e-02
 2.4677999653e+00	 1.2722903358e+00	-8.9980507432e-02
 2.4555744879e+00	 1.2957289707e+00	-1.4060552303e-01
 2.4431083109e+00	 1.3190836478e+00	-1.9104490770e-01
 2.4304021484e+00	 1.3423507458e+00	-2.4100346639e-01
 2.4174567855e+00	 1.3655266479e+00	-2.9016607695e-01
 2.4042730787e+00	 1.3886077430e+00	-3.3821319729e-01
 2.3908519557e+00	 1.4115904278e+00	-3.8483757983e-01
 2.3771944159e+00	 1.4344711083e+00	-4.2976211671e-01
 2.5136333845e+00	 1.2065986385e+00	 5.8576215044e-02
 2.5020848480e+00	 1.2303677067e+00	 8.8249811915e-03
 2.4902928673e+00	 1.2540633789e+00	-4.1190200892e-02
 2.4782579465e+00	 1.2776820161e+00	-9.1356318155e-02
 2.4659806603e+00	 1.3012199787e+00	-1.4149755641e-01
 2.4534616545e+00	 1.3246736276e+00	-1.9138705312e-01
 2.4407016461e+00	 1.3480393263e+00	-2.4076007155e-01
 2.4277014236e+00	 1.3713134427e+00	-2.8932854958e-01
 2.4144618473e+00	 1.3944923503e+00	-3.3679696578e-01
 2.4009838486e+00	 1.4175724306e+00	-3.8287945441e-01
 2.3872684312e+00	 1.4405500742e+00	-4.2731809086e-01
 2.5242406403e+00	 1.2116903517e+00	 5.6184999915e-02
 2.5126433702e+00	 1.2355597228e+00	 6.6037572506e-03
 2.5008016287e+00	 1.2593553881e+00	-4.3125392645e-02
 2.4887159219e+00	 1.2830736934e+00	-9.2919088502e-02
 2.4763868269e+00	 1.3067109836e+00	-1.4262707736e-01
 2.4638149922e+00	 1.3302636043e+00	-1.9204421957e-01
 2.4510011380e+00	 1.3537279037e+00	-2.4092396165e-01
 2.4379460560e+00	 1.3771002342e+00	-2.8899322920e-01
 2.4246506101e+00	 1.4003769543e+00	-3.3596868114e-01
 2.4111157358e+00	 1.4235544299e+00	-3.8157425524e-01
 2.3973424408e+00	 1.4466290368e+00	-4.2555992460e-01
 2.5348478871e+00	 1.2167820607e+00	 5.3535570356e-02
 2.5232018835e+00	 1.2407517344e+00	 4.2637004064e-03
 2.5113103811e+00	 1.2646473928e+00	-4.5109480021e-02
 2.4991738883e+00	 1.2884653661e+00	-9.4517683831e-02
 2.4867929845e+00	 1.3122019838e+00	-1.4382375534e-01
 2.4741683211e+00	 1.3358535762e+00	-1.9283195402e-01
 2.4613006211e+00	 1.3594164762e+00	-2.4130175349e-01
 2.4481906797e+00	 1.3828870209e+00	-2.8896310702e-01
 2.4348393642e+00	 1.4062615533e+00	-3.3553311919e-01
 2.4212476143e+00	 1.4295364242e+00	-3.8073405212e-01
 2.4074164418e+00	 1.4527079941e+00	-4.2431258378e-01
 2.5454551218e+00	 1.2218737638e+00	 5.0693401613e-02
 2.5337603847e+00	 1.2459437402e+00	 1.9031776948e-03
 2.5218191217e+00	 1.2699393915e+00	-4.7015822318e-02
 2.5096318429e+00	 1.2938570326e+00	-9.6001943659e-02
 2.4971991304e+00	 1.3176929777e+00	-1.4491879301e-01
 2.4845216383e+00	 1.3414435418e+00	-1.9356782744e-01
 2.4716000925e+00	 1.3651050423e+00	-2.4170250711e-01
 2.4584352918e+00	 1.3886738009e+00	-2.8904396178e-01
 2.4450281069e+00	 1.4121461456e+00	-3.3529810930e-01
 2.4313794814e+00	 1.4355184117e+00	-3.8017415272e-01
 2.4174904315e+00	 1.4587869445e+00	-4.2340437138e-01
 2.5560623415e+00	 1.2269654597e+00	 4.7724943186e-02
 2.5443188711e+00	 1.2511357387e+00	-3.7920740363e-04
 2.5323278473e+00	 1.2752313827e+00	-4.8718223553e-02
 2.5200897827e+00	 1.2992486915e+00	-9.7222773480e-02
 2.5076052616e+00	 1.3231839639e+00	-1.4574501704e-01
 2.4948749408e+00	 1.3470334995e+00	-1.9407152637e-01
 2.4818995494e+00	 1.3707936003e+00	-2.4193781985e-01
 2.4686798893e+00	 1.3944605728e+00	-2.8904445810e-01
 2.4552168350e+00	 1.4180307296e+00	-3.3507463878e-01
 2.4415113341e+00	 1.4415003908e+00	-3.7971321491e-01
 2.4275644068e+00	 1.4648658864e+00	-4.2266704970e-01
 2.5666695432e+00	 1.2320571470e+00	 4.4697514839e-02
 2.5548773394e+00	 1.2563277283e+00	-2.4847134480e-03
 2.5428365551e+00	 1.2805233649e+00	-5.0091026962e-02
 2.5305477046e+00	 1.3046403413e+00	-9.8032236833e-02
 2.5180113750e+00	 1.3286749408e+00	-1.4613696940e-01
 2.5052282257e+00	 1.3526234476e+00	-1.9416494505e-01
 2.4921989888e+00	 1.3764821486e+00	-2.4182192099e-01
 2.4789244694e+00	 1.4002473348e+00	-2.8877624538e-01
 2.4654055459e+00	 1.4239153035e+00	-3.3467695791e-01
 2.4516431696e+00	 1.4474823596e+00	-3.7917335965e-01
 2.4376383650e+00	 1.4709448179e+00	-4.2193596300e-01
 2.5772767238e+00	 1.2371488242e+00	 4.1679203009e-02
 2.5654357869e+00	 1.2615197076e+00	-4.3145593797e-03
 2.5533452420e+00	 1.2858153366e+00	-5.1009209577e-02
 2.5410056059e+00	 1.3100319804e+00	-9.8283647652e-02
 2.5284174679e+00	 1.3341659067e+00	-1.4593099902e-01
 2.5155814901e+00	 1.3582133847e+00	-1.9367227801e-01
 2.5024984077e+00	 1.3821706856e+00	-2.4117176702e-01
 2.4891690292e+00	 1.4060340854e+00	-2.8805405742e-01
 2.4755942365e+00	 1.4297998658e+00	-3.3392268550e-01
 2.4617749850e+00	 1.4534643166e+00	-3.7838028444e-01
 2.4477123033e+00	 1.4770237373e+00	-4.2105016054e-01
 2.5878838804e+00	 1.2422404898e+00	 3.8738757600e-02
 2.5759942104e+00	 1.2667116751e+00	-5.7700227280e-03
 2.5638539051e+00	 1.2911072964e+00	-5.1348476875e-02
 2.5514634834e+00	 1.3154236072e+00	-9.7831662857e-02
 2.5388235371e+00	 1.3396568603e+00	-1.4496535390e-01
 2.5259347310e+00	 1.3638033091e+00	-1.9242011327e-01
 2.5127978033e+00	 1.3878592098e+00	-2.3980713744e-01
 2.4994135658e+00	 1.4118208228e+00	-2.8669581248e-01
 2.4857829041e+00	 1.4356844148e+00	-3.3263291509e-01
 2.4719067774e+00	 1.4594462601e+00	-3.7716337721e-01
 2.4577862187e+00	 1.4831026430e+00	-4.1985147650e-01
 2.5984910099e+00	 1.2473321424e+00	 3.6407108534e-02
 2.5865526069e+00	 1.2719036294e+00	-6.7525376806e-03
 2.5743625414e+00	 1.2963992426e+00	-5.0985357509e-02
 2.5619213343e+00	 1.3208152203e+00	-9.6532375187e-02
 2.5492295798e+00	 1.3451477998e+00	-1.4308027352e-01
 2.5362879455e+00	 1.3693932192e+00	-1.9023752587e-01
 2.5230971726e+00	 1.3935477194e+00	-2.3755073107e-01
 2.5096580763e+00	 1.4176075455e+00	-2.8452271403e-01
 2.4959715457e+00	 1.4415689487e+00	-3.3063232164e-01
 2.4820385439e+00	 1.4654281883e+00	-3.7535583076e-01
 2.4678601084e+00	 1.4891815331e+00	-4.1816961955e-01
 2.3671203977e+00	 1.4283921406e+00	-4.3307025164e-01
 2.3532863869e+00	 1.4510707187e+00	-4.7719109656e-01
 2.3392191675e+00	 1.4736406050e+00	-5.2063180205e-01
 2.3249199505e+00	 1.4960982620e+00	-5.6325368813e-01
 2.3103900179e+00	 1.5184401686e+00	-6.0465587794e-01
 2.2956307218e+00	 1.5406628219e+00	-6.4505505932e-01
 2.2806434846e+00	 1.5627627389e+00	-6.8475753724e-01
 2.2654297985e+00	 1.5847364579e+00	-7.2411178719e-01
 2.2499912250e+00	 1.6065805410e+00	-7.6351021014e-01
 2.2343293947e+00	 1.6282915749e+00	-8.0339084718e-01
 2.2184460065e+00	 1.6498661735e+00	-8.4421403839e-01
 2.3771944159e+00	 1.4344711083e+00	-4.2976211671e-01
 2.3633015302e+00	 1.4572462021e+00	-4.7356065481e-01
 2.3491744433e+00	 1.4799121416e+00	-5.1689522974e-01
 2.3348143715e+00	 1.5024653741e+00	-5.5941847606e-01
 2.3202226023e+00	 1.5249023637e+00	-6.0083894015e-01
 2.3054004934e+00	 1.5472195925e+00	-6.4135938992e-01
 2.2903494734e+00	 1.5694135625e+00	-6.8122476628e-01
 2.2750710407e+00	 1.5914807975e+00	-7.2072222645e-01
 2.2595667635e+00	 1.6134178449e+00	-7.6018300057e-01
 2.2438382794e+00	 1.6352212769e+00	-7.9998420971e-01
 2.2278872945e+00	 1.6568876929e+00	-8.4055064475e-01
 2.3872684312e+00	 1.4405500742e+00	-4.2731809086e-01
 2.3733166706e+00	 1.4634216838e+00	-4.7077015515e-01
 2.3591297163e+00	 1.4861836764e+00	-5.1392045867e-01
 2.3447087898e+00	 1.5088324845e+00	-5.5623922138e-01
 2.3300551838e+00	 1.5313645570e+00	-5.9759896832e-01
 2.3151702622e+00	 1.5537763611e+00	-6.3815043763e-01
 2.3000554593e+00	 1.5760643842e+00	-6.7808452450e-01
 2.2847122801e+00	 1.5982251352e+00	-7.1763426465e-01
 2.2691422993e+00	 1.6202551469e+00	-7.5707678096e-01
 2.2533471614e+00	 1.6421509769e+00	-7.9673519307e-01
 2.2373285798e+00	 1.6639092104e+00	-8.3698048974e-01
 2.3973424408e+00	 1.4466290368e+00	-4.2555992460e-01
 2.3833318053e+00	 1.4695971620e+00	-4.6865647333e-01
 2.3690849836e+00	 1.4924552077e+00	-5.1152778109e-01
 2.3546032024e+00	 1.5151995912e+00	-5.5359532655e-01
 2.3398877598e+00	 1.5378267466e+00	-5.9482924502e-01
 2.3249400255e+00	 1.5603331261e+00	-6.3533372461e-01
 2.3097614398e+00	 1.5827152021e+00	-6.7525283734e-01
 2.2943535140e+00	 1.6049694691e+00	-7.1477259930e-01
 2.2787178297e+00	 1.6270924450e+00	-7.5412299543e-01
 2.2628560380e+00	 1.6490806730e+00	-7.9357996919e-01
 2.2467698598e+00	 1.6709307238e+00	-8.3346737705e-01
 2.4074164418e+00	 1.4527079941e+00	-4.2431258378e-01
 2.3933469315e+00	 1.4757726349e+00	-4.6705975728e-01
 2.3790402425e+00	 1.4987267336e+00	-5.0958353444e-01
 2.3644976066e+00	 1.5215666926e+00	-5.5137019115e-01
 2.3497203275e+00	 1.5442889307e+00	-5.9242686268e-01
 2.3347097805e+00	 1.5668898855e+00	-6.3281842402e-01
 2.3194674120e+00	 1.5893660144e+00	-6.7264925280e-01
 2.3039947398e+00	 1.6117137973e+00	-7.1206535414e-01
 2.2882933519e+00	 1.6339297372e+00	-7.5125645202e-01
 2.2723649065e+00	 1.6560103632e+00	-7.9045804743e-01
 2.2562111317e+00	 1.6779522313e+00	-8.2995344365e-01
 2.4174904315e+00	 1.4587869445e+00	-4.2340437138e-01
 2.4033620463e+00	 1.4819481008e+00	-4.6582343915e-01
 2.3889954900e+00	 1.5049982525e+00	-5.0796001860e-01
 2.3743919996e+00	 1.5279337867e+00	-5.4945111378e-01
 2.3595528840e+00	 1.5507511075e+00	-5.9029262720e-01
 2.3444795244e+00	 1.5734466374e+00	-6.3051726499e-01
 2.3291733733e+00	 1.5960168192e+00	-6.7019674705e-01
 2.3136359546e+00	 1.6184581178e+00	-7.0944398496e-01
 2.2978688632e+00	 1.6407670218e+00	-7.4841522814e-01
 2.2818737643e+00	 1.6629400456e+00	-7.8731217900e-01
 2.2656523930e+00	 1.6849737308e+00	-8.2638407766e-01
 2.4275644068e+00	 1.4648658864e+00	-4.2266704970e-01
 2.4133771470e+00	 1.4881235580e+00	-4.6477258910e-01
 2.3989507235e+00	 1.5112697624e+00	-5.0653354378e-01
 2.3842863785e+00	 1.5343008718e+00	-5.4772919393e-01
 2.3693854266e+00	 1.5572132751e+00	-5.8833096161e-01
 2.3542492544e+00	 1.5800033801e+00	-6.2834643738e-01
 2.3388793208e+00	 1.6026676145e+00	-6.6782162997e-01
 2.3232771558e+00	 1.6252024287e+00	-7.0684318528e-01
 2.3074443610e+00	 1.6476042966e+00	-7.4554057575e-01
 2.2913826086e+00	 1.6698697181e+00	-7.8408826106e-01
 2.2750936408e+00	 1.6919952203e+00	-8.2270782090e-01
 2.4376383650e+00	 1.4709448179e+00	-4.2193596300e-01
 2.4233922306e+00	 1.4942990047e+00	-4.6375109880e-01
 2.4089059401e+00	 1.5175412617e+00	-5.0518433051e-01
 2.3941807407e+00	 1.5406679460e+00	-5.4609923405e-01
 2.3792179524e+00	 1.5636754318e+00	-5.8644980964e-01
 2.3640189679e+00	 1.5865601116e+00	-6.2622549659e-01
 2.3485852517e+00	 1.6093183986e+00	-6.6545345052e-01
 2.3329183406e+00	 1.6319467282e+00	-7.0420079178e-01
 2.3170198425e+00	 1.6544415598e+00	-7.4257682638e-01
 2.3008914367e+00	 1.6767993788e+00	-7.8073524070e-01
 2.2845348727e+00	 1.6990166979e+00	-8.1887627113e-01
 2.4477123033e+00	 1.4770237373e+00	-4.2105016054e-01
 2.4334072944e+00	 1.5004744391e+00	-4.6262729482e-01
 2.4188611369e+00	 1.5238127485e+00	-5.0379640978e-01
 2.4040750832e+00	 1.5470350077e+00	-5.4445964162e-01
 2.3890504588e+00	 1.5701375756e+00	-5.8456053941e-01
 2.3737886619e+00	 1.5931168301e+00	-6.2407726823e-01
 2.3582911634e+00	 1.6159691694e+00	-6.6302490202e-01
 2.3425595062e+00	 1.6386910143e+00	-7.0145768967e-01
 2.3265953051e+00	 1.6612788095e+00	-7.3947129591e-01
 2.3104002459e+00	 1.6837290258e+00	-7.7720501865e-01
 2.2939760857e+00	 1.7060381616e+00	-8.1484398405e-01
 2.4577862187e+00	 1.4831026430e+00	-4.1985147650e-01
 2.4434223355e+00	 1.5066498595e+00	-4.6127344062e-01
 2.4288163111e+00	 1.5300842212e+00	-5.0225752339e-01
 2.4139694033e+00	 1.5534020549e+00	-5.4271233135e-01
 2.3988829429e+00	 1.5765997048e+00	-5.8257784705e-01
 2.3835583339e+00	 1.5996735337e+00	-6.2182775275e-01
 2.3679970532e+00	 1.6226199252e+00	-6.6047172723e-01
 2.3522006500e+00	 1.6454352851e+00	-6.9855771773e-01
 2.3361707459e+00	 1.6681160437e+00	-7.3617418919e-01
 2.3199090336e+00	 1.6906586571e+00	-7.7345235275e-01
 2.3034172774e+00	 1.7130596094e+00	-8.1056837518e-01
 2.4678601084e+00	 1.4891815331e+00	-4.1816961955e-01
 2.4534373510e+00	 1.5128252642e+00	-4.5956563494e-01
 2.4387714600e+00	 1.5363556778e+00	-5.0045902445e-01
 2.4238636981e+00	 1.5597690859e+00	-5.4076262749e-01
 2.4087154019e+00	 1.5830618175e+00	-5.8041966030e-01
 2.3933279809e+00	 1.6062302206e+00	-6.1940602998e-01
 2.3777029181e+00	 1.6292706640e+00	-6.5773262341e-01
 2.3618417693e+00	 1.6521795387e+00	-6.9544757333e-01
 2.3457461623e+00	 1.6749532604e+00	-7.3263850439e-01
 2.3294177971e+00	 1.6975882707e+00	-7.6943476131e-01
 2.3128584450e+00	 1.7200810393e+00	-8.0600962147e-01
 2.2184460065e+00	 1.6498661735e+00	-8.4421403839e-01
 2.2023400728e+00	 1.6713046090e+00	-8.8373021068e-01
 2.1860161177e+00	 1.6925998622e+00	-9.1998482202e-01
 2.1694760526e+00	 1.7137486233e+00	-9.5339188594e-01
 2.1527218548e+00	 1.7347476162e+00	-9.8429442344e-01
 2.1357555669e+00	 1.7555935998e+00	-1.0129774524e+00
 2.1185792963e+00	 1.7762833696e+00	-1.0396817023e+00
 2.1011952139e+00	 1.7968137596e+00	-1.0646179564e+00
 2.0836055537e+00	 1.8171816440e+00	-1.0879819207e+00
 2.0658126116e+00	 1.8373839381e+00	-1.1099695124e+00
 2.0478187444e+00	 1.8574176007e+00	-1.1307008917e+00
 2.2278872945e+00	 1.6568876929e+00	-8.4055064475e-01
 2.2117128169e+00	 1.6784173663e+00	-8.7997734765e-01
 2.1953193902e+00	 1.6998032481e+00	-9.1594410965e-01
 2.1787089337e+00	 1.7210420144e+00	-9.4889055368e-01
 2.1618834332e+00	 1.7421303751e+00	-9.7923578555e-01
 2.1448449400e+00	 1.7630650752e+00	-1.0073389651e+00
 2.1275955704e+00	 1.7838428967e+00	-1.0335133685e+00
 2.1101375046e+00	 1.8044606603e+00	-1.0580410969e+00
 2.0924729862e+00	 1.8249152265e+00	-1.0811883259e+00
 2.0746043207e+00	 1.8452034978e+00	-1.1032209886e+00
 2.0565338749e+00	 1.8653224198e+00	-1.1239080320e+00
 2.2373285798e+00	 1.6639092104e+00	-8.3698048974e-01
 2.2210855584e+00	 1.6855301217e+00	-8.7605962404e-01
 2.2046226601e+00	 1.7070066320e+00	-9.1174422053e-01
 2.1879418122e+00	 1.7283354034e+00	-9.4426179894e-01
 2.1710450090e+00	 1.7495131318e+00	-9.7410042809e-01
 2.1539343105e+00	 1.7705365484e+00	-1.0016861822e+00
 2.1366118419e+00	 1.7914024217e+00	-1.0273975717e+00
 2.1190797928e+00	 1.8121075587e+00	-1.0515806387e+00
 2.1013404161e+00	 1.8326488068e+00	-1.0745646099e+00
 2.0833960272e+00	 1.8530230552e+00	-1.0966748355e+00
 2.0652490029e+00	 1.8732272367e+00	-1.1170391911e+00
 2.2467698598e+00	 1.6709307238e+00	-8.3346737705e-01
 2.2304582946e+00	 1.6926428730e+00	-8.7205969792e-01
 2.2139259247e+00	 1.7142100118e+00	-9.0739890524e-01
 2.1971746855e+00	 1.7356287883e+00	-9.3951568409e-01
 2.1802065796e+00	 1.7568958843e+00	-9.6889471731e-01
 2.1630236758e+00	 1.7780080175e+00	-9.9602182105e-01
 2.1456281083e+00	 1.7989619425e+00	-1.0213334812e+00
 2.1280220759e+00	 1.8197544529e+00	-1.0452323576e+00
 2.1102078410e+00	 1.8403823827e+00	-1.0681033608e+00
 2.0921877288e+00	 1.8608426083e+00	-1.0901454813e+00
 2.0739641260e+00	 1.8811320492e+00	-1.1101342348e+00
 2.2562111317e+00	 1.6779522313e+00	-8.2995344365e-01
 2.2398310229e+00	 1.6997556182e+00	-8.6805313375e-01
 2.2232291813e+00	 1.7214133855e+00	-9.0292231910e-01
 2.2064075509e+00	 1.7429221669e+00	-9.3466228372e-01
 2.1893681424e+00	 1.7642786306e+00	-9.6362521591e-01
 2.1721130334e+00	 1.7854794802e+00	-9.9034898308e-01
 2.1546443671e+00	 1.8065214568e+00	-1.0153208397e+00
 2.1369643514e+00	 1.8274013405e+00	-1.0389927901e+00
 2.1190752584e+00	 1.8481159521e+00	-1.0617981123e+00
 2.1009794228e+00	 1.8686621546e+00	-1.0835582056e+00
 2.0826792418e+00	 1.8890368549e+00	-1.1032316553e+00
 2.2656523930e+00	 1.6849737308e+00	-8.2638407766e-01
 2.2492037405e+00	 1.7068683554e+00	-8.6398804284e-01
 2.2325324275e+00	 1.7286167510e+00	-8.9836963273e-01
 2.2156404058e+00	 1.7502155373e+00	-9.2971172626e-01
 2.1985296948e+00	 1.7716613685e+00	-9.5829872663e-01
 2.1812023807e+00	 1.7929509344e+00	-9.8467119935e-01
 2.1636606157e+00	 1.8140809625e+00	-1.0093600101e+00
 2.1459066168e+00	 1.8350482194e+00	-1.0328592835e+00
 2.1279426657e+00	 1.8558495127e+00	-1.0556146600e+00
 2.1097711070e+00	 1.8764816921e+00	-1.0769520439e+00
 2.0913943476e+00	 1.8969416516e+00	-1.0963685501e+00
 2.2750936408e+00	 1.6919952203e+00	-8.2270782090e-01
 2.2585764448e+00	 1.7139810825e+00	-8.5981438767e-01
 2.2418356604e+00	 1.7358201063e+00	-8.9373647065e-01
 2.2248732476e+00	 1.7575088974e+00	-9.2467475491e-01
 2.2076912343e+00	 1.7790440960e+00	-9.5292233576e-01
 2.1902917152e+00	 1.8004223781e+00	-9.7899247610e-01
 2.1726768514e+00	 1.8216404575e+00	-1.0034520235e+00
 2.1548488695e+00	 1.8426950876e+00	-1.0268300447e+00
 2.1368100604e+00	 1.8635830623e+00	-1.0494009707e+00
 2.1185627786e+00	 1.8843012185e+00	-1.0703645176e+00
 2.1001094411e+00	 1.9048464372e+00	-1.0895806023e+00
 2.2845348727e+00	 1.6990166979e+00	-8.1887627113e-01
 2.2679491332e+00	 1.7210937975e+00	-8.5548521569e-01
 2.2511388776e+00	 1.7430234493e+00	-8.8897700136e-01
 2.2341060738e+00	 1.7648022451e+00	-9.1955554125e-01
 2.2168527582e+00	 1.7864268108e+00	-9.4750345659e-01
 2.1993810342e+00	 1.8078938090e+00	-9.7331734020e-01
 2.1816930719e+00	 1.8291999397e+00	-9.9759862647e-01
 2.1637911070e+00	 1.8503419427e+00	-1.0209041907e+00
 2.1456774401e+00	 1.8713165988e+00	-1.0431675532e+00
 2.1273544353e+00	 1.8921207317e+00	-1.0638316131e+00
 2.1088245197e+00	 1.9127512093e+00	-1.0829020596e+00
 2.2939760857e+00	 1.7060381616e+00	-8.1484398405e-01
 2.2773218030e+00	 1.7282064984e+00	-8.5095655939e-01
 2.2604420762e+00	 1.7502267781e+00	-8.8404841397e-01
 2.2433388816e+00	 1.7720955783e+00	-9.1431988991e-01
 2.2260142639e+00	 1.7938095111e+00	-9.4204573480e-01
 2.2084703351e+00	 1.8153652251e+00	-9.6765088441e-01
 2.1907092744e+00	 1.8367594069e+00	-9.9180232854e-01
 2.1727333268e+00	 1.8579887827e+00	-1.0150328787e+00
 2.1545448022e+00	 1.8790501200e+00	-1.0369509889e+00
 2.1361460746e+00	 1.8999402293e+00	-1.0573877599e+00
 2.1175395811e+00	 1.9206559657e+00	-1.0763657140e+00
 2.3034172774e+00	 1.7130596094e+00	-8.1056837518e-01
 2.2866944516e+00	 1.7353191832e+00	-8.4618733607e-01
 2.2697452538e+00	 1.7574300906e+00	-8.7891081596e-01
 2.2525716686e+00	 1.7793888949e+00	-9.0892886277e-01
 2.2351757488e+00	 1.8011921946e+00	-9.3650702426e-01
 2.2175596155e+00	 1.8228366243e+00	-9.6199881258e-01
 2.1997254566e+00	 1.8443188569e+00	-9.8606644939e-01
 2.1816755263e+00	 1.8656356053e+00	-1.0091347099e+00
 2.1634121442e+00	 1.8867836236e+00	-1.0307861777e+00
 2.1449376940e+00	 1.9077597092e+00	-1.0510658097e+00
 2.1262546228e+00	 1.9285607043e+00	-1.0700028812e+00
 2.3128584450e+00	 1.7200810393e+00	-8.0600962147e-01
 2.2960670762e+00	 1.7424318499e+00	-8.4113924758e-01
 2.2790484077e+00	 1.7646333846e+00	-8.7352713085e-01
 2.2618044319e+00	 1.7866821930e+00	-9.0334637666e-01
 2.2443372104e+00	 1.8085748593e+00	-9.3084664321e-01
 2.2266488726e+00	 1.8303080044e+00	-9.5635657601e-01
 2.2087416157e+00	 1.8518782877e+00	-9.8039516601e-01
 2.1906177030e+00	 1.8732824084e+00	-1.0032419029e+00
 2.1722794636e+00	 1.8945171075e+00	-1.0247063164e+00
 2.1537292909e+00	 1.9155791692e+00	-1.0448970148e+00
 2.1349696422e+00	 1.9364654226e+00	-1.0638433804e+00
 2.0478187444e+00	 1.8574176007e+00	-1.1307008917e+00
 2.0296294724e+00	 1.8772762787e+00	-1.1498397214e+00
 2.0112442014e+00	 1.8969604698e+00	-1.1679722700e+00
 1.9926654312e+00	 1.9164673045e+00	-1.1850808175e+00
 1.9738957178e+00	 1.9357939623e+00	-1.2011147985e+00
 1.9549376729e+00	 1.9549376729e+00	-1.2160004694e+00
 1.9357939623e+00	 1.9738957178e+00	-1.2296507589e+00
 1.9164673045e+00	 1.9926654312e+00	-1.2419752292e+00
 1.8969604698e+00	 2.0112442014e+00	-1.2528900834e+00
 1.8772762787e+00	 2.0296294724e+00	-1.2623281452e+00
 1.8574176007e+00	 2.0478187444e+00	-1.2702487459e+00
 2.0565338749e+00	 1.8653224198e+00	-1.1239080320e+00
 2.0382671928e+00	 1.8852656127e+00	-1.1428045530e+00
 2.0198036776e+00	 1.9050335760e+00	-1.1608640672e+00
 2.0011458396e+00	 1.9246234281e+00	-1.1780210761e+00
 1.9822962459e+00	 1.9440323364e+00	-1.1941763249e+00
 1.9632575191e+00	 1.9632575191e+00	-1.2092068370e+00
 1.9440323364e+00	 1.9822962459e+00	-1.2229761327e+00
 1.9246234281e+00	 2.0011458396e+00	-1.2353445656e+00
 1.9050335760e+00	 2.0198036776e+00	-1.2461797037e+00
 1.8852656127e+00	 2.0382671928e+00	-1.2553666838e+00
 1.8653224198e+00	 2.0565338749e+00	-1.2628184692e+00
 2.0652490029e+00	 1.8732272367e+00	-1.1170391911e+00
 2.0469049108e+00	 1.8932549444e+00	-1.1357308365e+00
 2.0283631513e+00	 1.9131066798e+00	-1.1537315807e+00
 2.0096262456e+00	 1.9327795493e+00	-1.1709340529e+00
 1.9906967715e+00	 1.9522707083e+00	-1.1871962168e+00
 1.9715773630e+00	 1.9715773630e+00	-1.2023517673e+00
 1.9522707083e+00	 1.9906967715e+00	-1.2162207201e+00
 1.9327795493e+00	 2.0096262456e+00	-1.2286201196e+00
 1.9131066798e+00	 2.0283631513e+00	-1.2393747950e+00
 1.8932549444e+00	 2.0469049108e+00	-1.2483280869e+00
 1.8732272367e+00	 2.0652490029e+00	-1.2553524755e+00
 2.0739641260e+00	 1.8811320492e+00	-1.1101342348e+00
 2.0555426238e+00	 1.9012442715e+00	-1.1286568651e+00
 2.0369226202e+00	 1.9211797791e+00	-1.1466120163e+00
 2.0181066468e+00	 1.9409356659e+00	-1.1638562537e+00
 1.9990972925e+00	 1.9605090755e+00	-1.1802105652e+00
 1.9798972021e+00	 1.9798972021e+00	-1.1954711223e+00
 1.9605090755e+00	 1.9990972925e+00	-1.2094202372e+00
 1.9409356659e+00	 2.0181066468e+00	-1.2218374439e+00
 1.9211797791e+00	 2.0369226202e+00	-1.2325106261e+00
 1.9012442715e+00	 2.0555426238e+00	-1.2412471180e+00
 1.8811320492e+00	 2.0739641260e+00	-1.2478847005e+00
 2.0826792418e+00	 1.8890368549e+00	-1.1032316553e+00
 2.0641803295e+00	 1.9092335919e+00	-1.1216196518e+00
 2.0454820818e+00	 1.9292528715e+00	-1.1395413913e+00
 2.0265870408e+00	 1.9490917756e+00	-1.1568230839e+00
 2.0074978062e+00	 1.9687474356e+00	-1.1732544492e+00
 1.9882170341e+00	 1.9882170341e+00	-1.1885998392e+00
 1.9687474356e+00	 2.0074978062e+00	-1.2026095642e+00
 1.9490917756e+00	 2.0265870408e+00	-1.2150313447e+00
 1.9292528715e+00	 2.0454820818e+00	-1.2256218125e+00
 1.9092335919e+00	 2.0641803295e+00	-1.2341579833e+00
 1.8890368549e+00	 2.0826792418e+00	-1.2404486226e+00
 2.0913943476e+00	 1.8969416516e+00	-1.0963685501e+00
 2.0728180255e+00	 1.9172229032e+00	-1.1146549104e+00
 2.0540415337e+00	 1.9373259548e+00	-1.1325545155e+00
 2.0350674252e+00	 1.9572478761e+00	-1.1498688320e+00
 2.0158983105e+00	 1.9769857864e+00	-1.1663619197e+00
 1.9965368567e+00	 1.9965368567e+00	-1.1817719166e+00
 1.9769857864e+00	 2.0158983105e+00	-1.1958227322e+00
 1.9572478761e+00	 2.0350674252e+00	-1.2082358709e+00
 1.9373259548e+00	 2.0540415337e+00	-1.2187423056e+00
 1.9172229032e+00	 2.0728180255e+00	-1.2270943226e+00
 1.8969416516e+00	 2.0913943476e+00	-1.2330772557e+00
 2.1001094411e+00	 1.9048464372e+00	-1.0895806023e+00
 2.0814557092e+00	 1.9252122032e+00	-1.1077970359e+00
 2.0626009735e+00	 1.9453990266e+00	-1.1256849732e+00
 2.0435477976e+00	 1.9654039650e+00	-1.1430266524e+00
 2.0242988029e+00	 1.9852241256e+00	-1.1595659845e+00
 2.0048566676e+00	 2.0048566676e+00	-1.1750204000e+00
 1.9852241256e+00	 2.0242988029e+00	-1.1890929104e+00
 1.9654039650e+00	 2.0435477976e+00	-1.2014843022e+00
 1.9453990266e+00	 2.0626009735e+00	-1.2119053837e+00
 1.9252122032e+00	 2.0814557092e+00	-1.2200892009e+00
 1.9048464372e+00	 2.1001094411e+00	-1.2258031418e+00
 2.1088245197e+00	 1.9127512093e+00	-1.0829020596e+00
 2.0900933782e+00	 1.9332014896e+00	-1.1010790850e+00
 2.0711603988e+00	 1.9534720847e+00	-1.1189651051e+00
 2.0520281556e+00	 1.9735600400e+00	-1.1363285487e+00
 2.0326992809e+00	 1.9934624508e+00	-1.1528985919e+00
 2.0131764643e+00	 2.0131764643e+00	-1.1683773677e+00
 1.9934624508e+00	 2.0326992809e+00	-1.1824523936e+00
 1.9735600400e+00	 2.0520281556e+00	-1.1948091384e+00
 1.9534720847e+00	 2.0711603988e+00	-1.2051436413e+00
 1.9332014896e+00	 2.0900933782e+00	-1.2131750998e+00
 1.9127512093e+00	 2.1088245197e+00	-1.2186583434e+00
 2.1175395811e+00	 1.9206559657e+00	-1.0763657140e+00
 2.0987310301e+00	 1.9411907601e+00	-1.0945327567e+00
 2.0797198070e+00	 1.9615451268e+00	-1.1124259897e+00
 2.0605084967e+00	 1.9817160988e+00	-1.1298053561e+00
 2.0410997423e+00	 2.0017007596e+00	-1.1463906158e+00
 2.0214962445e+00	 2.0214962445e+00	-1.1618739163e+00
 2.0017007596e+00	 2.0410997423e+00	-1.1759325890e+00
 1.9817160988e+00	 2.0605084967e+00	-1.1882420875e+00
 1.9615451268e+00	 2.0797198070e+00	-1.1984889797e+00
 1.9411907601e+00	 2.0987310301e+00	-1.2063839090e+00
 1.9206559657e+00	 2.1175395811e+00	-1.2116744368e+00
 2.1262546228e+00	 1.9285607043e+00	-1.0700028812e+00
 2.1073686624e+00	 1.9491800126e+00	-1.0881883729e+00
 2.0882791959e+00	 1.9696181506e+00	-1.1060974250e+00
 2.0689888186e+00	 1.9898721392e+00	-1.1234867251e+00
 2.0495001847e+00	 2.0099390497e+00	-1.1400718395e+00
 2.0298160058e+00	 2.0298160058e+00	-1.1555401470e+00
 2.0099390497e+00	 2.0495001847e+00	-1.1695640041e+00
 1.9898721392e+00	 2.0689888186e+00	-1.1818140547e+00
 1.9696181506e+00	 2.0882791959e+00	-1.1919725969e+00
 1.9491800126e+00	 2.1073686624e+00	-1.1997469174e+00
 1.9285607043e+00	 2.1262546228e+00	-1.2048825041e+00
 2.1349696422e+00	 1.9364654226e+00	-1.0638433804e+00
 2.1160062727e+00	 1.9571692446e+00	-1.0820748587e+00
 2.0968385629e+00	 1.9776911539e+00	-1.1000079107e+00
 2.0774691189e+00	 1.9980281588e+00	-1.1174011040e+00
 2.0579006057e+00	 2.0181773188e+00	-1.1339709402e+00
 2.0381357459e+00	 2.0381357459e+00	-1.1494051511e+00
 2.0181773188e+00	 2.0579006057e+00	-1.1633762332e+00
 1.9980281588e+00	 2.0774691189e+00	-1.1755551309e+00
 1.9776911539e+00	 2.0968385629e+00	-1.1856249777e+00
 1.9571692446e+00	 2.1160062727e+00	-1.1932948051e+00
 1.9364654226e+00	 2.1349696422e+00	-1.1983131262e+00
 1.8574176007e+00	 2.0478187444e+00	-1.2702487459e+00
 1.8373839381e+00	 2.0658126116e+00	-1.2765698562e+00
 1.8171816440e+00	 2.0836055537e+00	-1.2797061447e+00
 1.7968137596e+00	 2.1011952139e+00	-1.2799040434e+00
 1.7762833696e+00	 2.1185792963e+00	-1.2775529135e+00
 1.7555935998e+00	 2.1357555669e+00	-1.2730415026e+00
 1.7347476162e+00	 2.1527218548e+00	-1.2667690350e+00
 1.7137486233e+00	 2.1694760526e+00	-1.2591562863e+00
 1.6925998622e+00	 2.1860161177e+00	-1.2506565496e+00
 1.6713046090e+00	 2.2023400728e+00	-1.2417664031e+00
 1.6498661735e+00	 2.2184460065e+00	-1.2330361857e+00
 1.8653224198e+00	 2.0565338749e+00	-1.2628184692e+00
 1.8452034978e+00	 2.0746043207e+00	-1.2692052331e+00
 1.8249152265e+00	 2.0924729862e+00	-1.2728053383e+00
 1.8044606603e+00	 2.1101375046e+00	-1.2731986300e+00
 1.7838428967e+00	 2.1275955704e+00	-1.2708345477e+00
 1.7630650752e+00	 2.1448449400e+00	-1.2661609515e+00
 1.7421303751e+00	 2.1618834332e+00	-1.2596355426e+00
 1.7210420144e+00	 2.1787089337e+00	-1.2517372721e+00
 1.6998032481e+00	 2.1953193902e+00	-1.2429776426e+00
 1.6784173663e+00	 2.2117128169e+00	-1.2339118084e+00
 1.6568876929e+00	 2.2278872945e+00	-1.2251750709e+00
 1.8732272367e+00	 2.0652490029e+00	-1.2553524755e+00
 1.8530230552e+00	 2.0833960272e+00	-1.2612872873e+00
 1.8326488068e+00	 2.1013404161e+00	-1.2653787690e+00
 1.8121075587e+00	 2.1190797928e+00	-1.2660097869e+00
 1.7914024217e+00	 2.1366118419e+00	-1.2636790129e+00
 1.7705365484e+00	 2.1539343105e+00	-1.2588881566e+00
 1.7495131318e+00	 2.1710450090e+00	-1.2521480736e+00
 1.7283354034e+00	 2.1879418122e+00	-1.2439905267e+00
 1.7070066320e+00	 2.2046226601e+00	-1.2349798413e+00
 1.6855301217e+00	 2.2210855584e+00	-1.2257243565e+00
 1.6639092104e+00	 2.2373285798e+00	-1.2170990378e+00
 1.8811320492e+00	 2.0739641260e+00	-1.2478847005e+00
 1.8608426083e+00	 2.0921877288e+00	-1.2532276420e+00
 1.8403823827e+00	 2.1102078410e+00	-1.2575128477e+00
 1.8197544529e+00	 2.1280220759e+00	-1.2584195698e+00
 1.7989619425e+00	 2.1456281083e+00	-1.2561636132e+00
 1.7780080175e+00	 2.1630236758e+00	-1.2512953005e+00
 1.7568958843e+00	 2.1802065796e+00	-1.2443733449e+00
 1.7356287883e+00	 2.1971746855e+00	-1.2359769822e+00
 1.7142100118e+00	 2.2139259247e+00	-1.2267179979e+00
 1.6926428730e+00	 2.2304582946e+00	-1.2173455279e+00
 1.6709307238e+00	 2.2467698598e+00	-1.2089261095e+00
 1.8890368549e+00	 2.0826792418e+00	-1.2404486226e+00
 1.8686621546e+00	 2.1009794228e+00	-1.2452606999e+00
 1.8481159521e+00	 2.1190752584e+00	-1.2492930841e+00
 1.8274013405e+00	 2.1369643514e+00	-1.2505093292e+00
 1.8065214568e+00	 2.1546443671e+00	-1.2483651622e+00
 1.7854794802e+00	 2.1721130334e+00	-1.2434543073e+00
 1.7642786306e+00	 2.1893681424e+00	-1.2363780620e+00
 1.7429221669e+00	 2.2064075509e+00	-1.2277578190e+00
 1.7214133855e+00	 2.2232291813e+00	-1.2182493330e+00
 1.6997556182e+00	 2.2398310229e+00	-1.2090015539e+00
 1.6779522313e+00	 2.2562111317e+00	-1.2007603963e+00
 1.8969416516e+00	 2.0913943476e+00	-1.2330772557e+00
 1.8764816921e+00	 2.1097711070e+00	-1.2374182856e+00
 1.8558495127e+00	 2.1279426657e+00	-1.2408602950e+00
 1.8350482194e+00	 2.1459066168e+00	-1.2423595017e+00
 1.8140809625e+00	 2.1636606157e+00	-1.2403597771e+00
 1.7929509344e+00	 2.1812023807e+00	-1.2354366385e+00
 1.7716613685e+00	 2.1985296948e+00	-1.2282287165e+00
 1.7502155373e+00	 2.2156404058e+00	-1.2193942664e+00
 1.7286167510e+00	 2.2325324275e+00	-1.2098159000e+00
 1.7068683554e+00	 2.2492037405e+00	-1.2007955136e+00
 1.6849737308e+00	 2.2656523930e+00	-1.1927013335e+00
 1.9048464372e+00	 2.1001094411e+00	-1.2258031418e+00
 1.8843012185e+00	 2.1185627786e+00	-1.2297318622e+00
 1.8635830623e+00	 2.1368100604e+00	-1.2325994077e+00
 1.8426950876e+00	 2.1548488695e+00	-1.2340494015e+00
 1.8216404575e+00	 2.1726768514e+00	-1.2322226714e+00
 1.8004223781e+00	 2.1902917152e+00	-1.2273130884e+00
 1.7790440960e+00	 2.2076912343e+00	-1.2199913847e+00
 1.7575088974e+00	 2.2248732476e+00	-1.2109621170e+00
 1.7358201063e+00	 2.2418356604e+00	-1.2016269593e+00
 1.7139810825e+00	 2.2585764448e+00	-1.1928242558e+00
 1.6919952203e+00	 2.2750936408e+00	-1.1848437577e+00
 1.9127512093e+00	 2.1088245197e+00	-1.2186583434e+00
 1.8921207317e+00	 2.1273544353e+00	-1.2222325251e+00
 1.8713165988e+00	 2.1456774401e+00	-1.2245929649e+00
 1.8503419427e+00	 2.1637911070e+00	-1.2256570116e+00
 1.8291999397e+00	 2.1816930719e+00	-1.2240279494e+00
 1.8078938090e+00	 2.1993810342e+00	-1.2191535804e+00
 1.7864268108e+00	 2.2168527582e+00	-1.2117315256e+00
 1.7648022451e+00	 2.2341060738e+00	-1.2027769799e+00
 1.7430234493e+00	 2.2511388776e+00	-1.1937765796e+00
 1.7210937975e+00	 2.2679491332e+00	-1.1851800001e+00
 1.6990166979e+00	 2.2845348727e+00	-1.1772779838e+00
 1.9206559657e+00	 2.1175395811e+00	-1.2116744368e+00
 1.8999402293e+00	 2.1361460746e+00	-1.2149509955e+00
 1.8790501200e+00	 2.1545448022e+00	-1.2168701384e+00
 1.8579887827e+00	 2.1727333268e+00	-1.2173659721e+00
 1.8367594069e+00	 2.1907092744e+00	-1.2158483996e+00
 1.8153652251e+00	 2.2084703351e+00	-1.2110269633e+00
 1.7938095111e+00	 2.2260142639e+00	-1.2035469072e+00
 1.7720955783e+00	 2.2433388816e+00	-1.1950145755e+00
 1.7502267781e+00	 2.2604420762e+00	-1.1863541754e+00
 1.7282064984e+00	 2.2773218030e+00	-1.1779504157e+00
 1.7060381616e+00	 2.2939760857e+00	-1.1700898814e+00
 1.9285607043e+00	 2.1262546228e+00	-1.2048825041e+00
 1.9077597092e+00	 2.1449376940e+00	-1.2079176146e+00
 1.8867836236e+00	 2.1634121442e+00	-1.2094598426e+00
 1.8656356053e+00	 2.1816755263e+00	-1.2094479746e+00
 1.8443188569e+00	 2.1997254566e+00	-1.2077552886e+00
 1.8228366243e+00	 2.2175596155e+00	-1.2030008071e+00
 1.8011921946e+00	 2.2351757488e+00	-1.1957910237e+00
 1.7793888949e+00	 2.2525716686e+00	-1.1877612859e+00
 1.7574300906e+00	 2.2697452538e+00	-1.1794445890e+00
 1.7353191832e+00	 2.2866944516e+00	-1.1712187020e+00
 1.7130596094e+00	 2.3034172774e+00	-1.1633609529e+00
 1.9364654226e+00	 2.1349696422e+00	-1.1983131262e+00
 1.9155791692e+00	 2.1537292909e+00	-1.2011623371e+00
 1.8945171075e+00	 2.1722794636e+00	-1.2023907284e+00
 1.8732824084e+00	 2.1906177030e+00	-1.2019368991e+00
 1.8518782877e+00	 2.2087416157e+00	-1.1998181550e+00
 1.8303080044e+00	 2.2266488726e+00	-1.1951886756e+00
 1.8085748593e+00	 2.2443372104e+00	-1.1886100669e+00
 1.7866821930e+00	 2.2618044319e+00	-1.1810989054e+00
 1.7646333846e+00	 2.2790484077e+00	-1.1731281732e+00
 1.7424318499e+00	 2.2960670762e+00	-1.1650636681e+00
 1.7200810393e+00	 2.3128584450e+00	-1.1571684104e+00
 1.6498661735e+00	 2.2184460065e+00	-1.2330361857e+00
 1.6282915749e+00	 2.2343293947e+00	-1.2230917892e+00
 1.6065805410e+00	 2.2499912250e+00	-1.2106842225e+00
 1.5847364579e+00	 2.2654297985e+00	-1.1963521317e+00
 1.5627627389e+00	 2.2806434846e+00	-1.1805618411e+00
 1.5406628219e+00	 2.2956307218e+00	-1.1637197917e+00
 1.5184401686e+00	 2.3103900179e+00	-1.1461758691e+00
 1.4960982620e+00	 2.3249199505e+00	-1.1282267706e+00
 1.4736406050e+00	 2.3392191675e+00	-1.1099433681e+00
 1.4510707187e+00	 2.3532863869e+00	-1.0894238208e+00
 1.4283921406e+00	 2.3671203977e+00	-1.0661977949e+00
 1.6568876929e+00	 2.2278872945e+00	-1.2251750709e+00
 1.6352212769e+00	 2.2438382794e+00	-1.2155342785e+00
 1.6134178449e+00	 2.2595667635e+00	-1.2034889137e+00
 1.5914807975e+00	 2.2750710407e+00	-1.1895316456e+00
 1.5694135625e+00	 2.2903494734e+00	-1.1740911345e+00
 1.5472195925e+00	 2.3054004934e+00	-1.1575354386e+00
 1.5249023637e+00	 2.3202226023e+00	-1.1401754708e+00
 1.5024653741e+00	 2.3348143715e+00	-1.1222684938e+00
 1.4799121416e+00	 2.3491744433e+00	-1.1040147395e+00
 1.4572462021e+00	 2.3633015302e+00	-1.0839712057e+00
 1.4344711083e+00	 2.3771944159e+00	-1.0610210093e+00
 1.6639092104e+00	 2.2373285798e+00	-1.2170990378e+00
 1.6421509769e+00	 2.2533471614e+00	-1.2077242230e+00
 1.6202551469e+00	 2.2691422993e+00	-1.1959796162e+00
 1.5982251352e+00	 2.2847122801e+00	-1.1823254230e+00
 1.5760643842e+00	 2.3000554593e+00	-1.1671572225e+00
 1.5537763611e+00	 2.3151702622e+00	-1.1508094970e+00
 1.5313645570e+00	 2.3300551838e+00	-1.1335592107e+00
 1.5088324845e+00	 2.3447087898e+00	-1.1156294237e+00
 1.4861836764e+00	 2.3591297163e+00	-1.0971929295e+00
 1.4634216838e+00	 2.3733166706e+00	-1.0775014524e+00
 1.4405500742e+00	 2.3872684312e+00	-1.0547924000e+00
 1.6709307238e+00	 2.2467698598e+00	-1.2089261095e+00
 1.6490806730e+00	 2.2628560380e+00	-1.1997696444e+00
 1.6270924450e+00	 2.2787178297e+00	-1.1882665138e+00
 1.6049694691e+00	 2.2943535140e+00	-1.1748487421e+00
 1.5827152021e+00	 2.3097614398e+00	-1.1598833392e+00
 1.5603331261e+00	 2.3249400255e+00	-1.1436759466e+00
 1.5378267466e+00	 2.3398877598e+00	-1.1264745296e+00
 1.5151995912e+00	 2.3546032024e+00	-1.1084731026e+00
 1.4924552077e+00	 2.3690849836e+00	-1.0898154763e+00
 1.4695971620e+00	 2.3833318053e+00	-1.0702329033e+00
 1.4466290368e+00	 2.3973424408e+00	-1.0477489899e+00
 1.6779522313e+00	 2.2562111317e+00	-1.2007603963e+00
 1.6560103632e+00	 2.2723649065e+00	-1.1917739044e+00
 1.6339297372e+00	 2.2882933519e+00	-1.1804551709e+00
 1.6117137973e+00	 2.3039947398e+00	-1.1672122532e+00
 1.5893660144e+00	 2.3194674120e+00	-1.1523880352e+00
 1.5668898855e+00	 2.3347097805e+00	-1.1362639812e+00
 1.5442889307e+00	 2.3497203275e+00	-1.1190639350e+00
 1.5215666926e+00	 2.3644976066e+00	-1.1009579488e+00
 1.4987267336e+00	 2.3790402425e+00	-1.0820661304e+00
 1.4757726349e+00	 2.3933469315e+00	-1.0623810070e+00
 1.4527079941e+00	 2.4074164418e+00	-1.0401249711e+00
 1.6849737308e+00	 2.2656523930e+00	-1.1927013335e+00
 1.6629400456e+00	 2.2818737643e+00	-1.1838357781e+00
 1.6407670218e+00	 2.2978688632e+00	-1.1726466044e+00
 1.6184581178e+00	 2.3136359546e+00	-1.1595220508e+00
 1.5960168192e+00	 2.3291733733e+00	-1.1447852495e+00
 1.5734466374e+00	 2.3444795244e+00	-1.1286980821e+00
 1.5507511075e+00	 2.3595528840e+00	-1.1114650772e+00
 1.5279337867e+00	 2.3743919996e+00	-1.0932373348e+00
 1.5049982525e+00	 2.3889954900e+00	-1.0741164666e+00
 1.4819481008e+00	 2.4033620463e+00	-1.0541585384e+00
 1.4587869445e+00	 2.4174904315e+00	-1.0321514296e+00
 1.6919952203e+00	 2.2750936408e+00	-1.1848437577e+00
 1.6698697181e+00	 2.2913826086e+00	-1.1760495279e+00
 1.6476042966e+00	 2.3074443610e+00	-1.1649373566e+00
 1.6252024287e+00	 2.3232771558e+00	-1.1518797454e+00
 1.6026676145e+00	 2.3388793208e+00	-1.1371843825e+00
 1.5800033801e+00	 2.3542492544e+00	-1.1210980925e+00
 1.5572132751e+00	 2.3693854266e+00	-1.1038108248e+00
 1.5343008718e+00	 2.3842863785e+00	-1.0854596666e+00
 1.5112697624e+00	 2.3989507235e+00	-1.0661328670e+00
 1.4881235580e+00	 2.4133771470e+00	-1.0458738611e+00
 1.4648658864e+00	 2.4275644068e+00	-1.0240560701e+00
 1.6990166979e+00	 2.2845348727e+00	-1.1772779838e+00
 1.6767993788e+00	 2.3008914367e+00	-1.1685049784e+00
 1.6544415598e+00	 2.3170198425e+00	-1.1574195683e+00
 1.6319467282e+00	 2.3329183406e+00	-1.1443825364e+00
 1.6093183986e+00	 2.3485852517e+00	-1.1296903687e+00
 1.5865601116e+00	 2.3640189679e+00	-1.1135792909e+00
 1.5636754318e+00	 2.3792179524e+00	-1.0962293412e+00
 1.5406679460e+00	 2.3941807407e+00	-1.0777684626e+00
 1.5175412617e+00	 2.4089059401e+00	-1.0582766040e+00
 1.4942990047e+00	 2.4233922306e+00	-1.0377898170e+00
 1.4709448179e+00	 2.4376383650e+00	-1.0160629403e+00
 1.7060381616e+00	 2.2939760857e+00	-1.1700898814e+00
 1.6837290258e+00	 2.3104002459e+00	-1.1612875904e+00
 1.6612788095e+00	 2.3265953051e+00	-1.1501810520e+00
 1.6386910143e+00	 2.3425595062e+00	-1.1371232850e+00
 1.6159691694e+00	 2.3582911634e+00	-1.1224037500e+00
 1.5931168301e+00	 2.3737886619e+00	-1.1062524664e+00
 1.5701375756e+00	 2.3890504588e+00	-1.0888441609e+00
 1.5470350077e+00	 2.4040750832e+00	-1.0703024326e+00
 1.5238127485e+00	 2.4188611369e+00	-1.0507039226e+00
 1.5004744391e+00	 2.4334072944e+00	-1.0300824745e+00
 1.4770237373e+00	 2.4477123033e+00	-1.0083921550e+00
 1.7130596094e+00	 2.3034172774e+00	-1.1633609529e+00
 1.6906586571e+00	 2.3199090336e+00	-1.1544785370e+00
 1.6681160437e+00	 2.3361707459e+00	-1.1433053659e+00
 1.6454352851e+00	 2.3522006500e+00	-1.1301905872e+00
 1.6226199252e+00	 2.3679970532e+00	-1.1154207492e+00
 1.5996735337e+00	 2.3835583339e+00	-1.0992239924e+00
 1.5765997048e+00	 2.3988829429e+00	-1.0817742657e+00
 1.5534020549e+00	 2.4139694033e+00	-1.0631955571e+00
 1.5300842212e+00	 2.4288163111e+00	-1.0435661226e+00
 1.5066498595e+00	 2.4434223355e+00	-1.0229227040e+00
 1.4831026430e+00	 2.4577862187e+00	-1.0012647210e+00
 1.7200810393e+00	 2.3128584450e+00	-1.1571684104e+00
 1.6975882707e+00	 2.3294177971e+00	-1.1481547780e+00
 1.6749532604e+00	 2.3457461623e+00	-1.1368718880e+00
 1.6521795387e+00	 2.3618417693e+00	-1.1236688475e+00
 1.6292706640e+00	 2.3777029181e+00	-1.1088333441e+00
 1.6062302206e+00	 2.3933279809e+00	-1.0925959021e+00
 1.5830618175e+00	 2.4087154019e+00	-1.0751341618e+00
 1.5597690859e+00	 2.4238636981e+00	-1.0565771658e+00
 1.5363556778e+00	 2.4387714600e+00	-1.0370096412e+00
 1.5128252642e+00	 2.4534373510e+00	-1.0164762647e+00
 1.4891815331e+00	 2.4678601084e+00	-9.9498589825e-01
 1.4283921406e+00	 2.3671203977e+00	-1.0661977949e+00
 1.4056084233e+00	 2.3807200600e+00	-1.0412780903e+00
 1.3827231340e+00	 2.3940843072e+00	-1.0156881090e+00
 1.3597398514e+00	 2.4072121444e+00	-9.8950087285e-01
 1.3366621636e+00	 2.4201026477e+00	-9.6276126161e-01
 1.3134936663e+00	 2.4327549644e+00	-9.3549822890e-01
 1.2902379612e+00	 2.4451683125e+00	-9.0773648285e-01
 1.2668986540e+00	 2.4573419811e+00	-8.7950754531e-01
 1.2434793529e+00	 2.4692753297e+00	-8.5086011117e-01
 1.2199836672e+00	 2.4809677886e+00	-8.2186963603e-01
 1.1964152048e+00	 2.4924188579e+00	-7.9264708815e-01
 1.4344711083e+00	 2.3771944159e+00	-1.0610210093e+00
 1.4115904278e+00	 2.3908519557e+00	-1.0362231384e+00
 1.3886077430e+00	 2.4042730787e+00	-1.0106785635e+00
 1.3655266479e+00	 2.4174567855e+00	-9.8448174572e-01
 1.3423507458e+00	 2.4304021484e+00	-9.5770091914e-01
 1.3190836478e+00	 2.4431083109e+00	-9.3039071381e-01
 1.2957289707e+00	 2.4555744879e+00	-9.0260421962e-01
 1.2722903358e+00	 2.4677999653e+00	-8.7440440265e-01
 1.2487713667e+00	 2.4797841000e+00	-8.4587479298e-01
 1.2251756877e+00	 2.4915263198e+00	-8.1712936997e-01
 1.2015069224e+00	 2.5030261227e+00	-7.8832157897e-01
 1.4405500742e+00	 2.3872684312e+00	-1.0547924000e+00
 1.4175724306e+00	 2.4009838486e+00	-1.0301204439e+00
 1.3944923503e+00	 2.4144618473e+00	-1.0046633038e+00
 1.3713134427e+00	 2.4277014236e+00	-9.7852711698e-01
 1.3480393263e+00	 2.4407016461e+00	-9.5179319620e-01
 1.3246736276e+00	 2.4534616545e+00	-9.2453109227e-01
 1.3012199787e+00	 2.4659806603e+00	-8.9681107407e-01
 1.2776820161e+00	 2.4782579465e+00	-8.6871593471e-01
 1.2540633789e+00	 2.4902928673e+00	-8.4035204006e-01
 1.2303677067e+00	 2.5020848480e+00	-8.1185954370e-01
 1.2065986385e+00	 2.5136333845e+00	-7.8342169990e-01
 1.4466290368e+00	 2.3973424408e+00	-1.0477489899e+00
 1.4235544299e+00	 2.4111157358e+00	-1.0232232335e+00
 1.4003769543e+00	 2.4246506101e+00	-9.9790455358e-01
 1.3771002342e+00	 2.4379460560e+00	-9.7190106124e-01
 1.3537279037e+00	 2.4510011380e+00	-9.4529693845e-01
 1.3302636043e+00	 2.4638149922e+00	-9.1816597370e-01
 1.3067109836e+00	 2.4763868269e+00	-8.9058449106e-01
 1.2830736934e+00	 2.4887159219e+00	-8.6264357894e-01
 1.2593553881e+00	 2.5008016287e+00	-8.3446053193e-01
 1.2355597228e+00	 2.5126433702e+00	-8.0618942738e-01
 1.2116903517e+00	 2.5242406403e+00	-7.7803076638e-01
 1.4527079941e+00	 2.4074164418e+00	-1.0401249711e+00
 1.4295364242e+00	 2.4212476143e+00	-1.0157820110e+00
 1.4062615533e+00	 2.4348393642e+00	-9.9066204404e-01
 1.3828870209e+00	 2.4481906797e+00	-9.6486550930e-01
 1.3594164762e+00	 2.4613006211e+00	-9.3846931137e-01
 1.3358535762e+00	 2.4741683211e+00	-9.1154086211e-01
 1.3122019838e+00	 2.4867929845e+00	-8.8415149223e-01
 1.2884653661e+00	 2.4991738883e+00	-8.5638913540e-01
 1.2646473928e+00	 2.5113103811e+00	-8.2837019623e-01
 1.2407517344e+00	 2.5232018835e+00	-8.0025052072e-01
 1.2167820607e+00	 2.5348478871e+00	-7.7223539684e-01
 1.4587869445e+00	 2.4174904315e+00	-1.0321514296e+00
 1.4355184117e+00	 2.4313794814e+00	-1.0080442965e+00
 1.4121461456e+00	 2.4450281069e+00	-9.8319276449e-01
 1.3886738009e+00	 2.4584352918e+00	-9.5768000825e-01
 1.3651050423e+00	 2.4716000925e+00	-9.3156556729e-01
 1.3414435418e+00	 2.4845216383e+00	-9.0489992783e-01
 1.3176929777e+00	 2.4971991304e+00	-8.7773845000e-01
 1.2938570326e+00	 2.5096318429e+00	-8.5015454078e-01
 1.2699393915e+00	 2.5218191217e+00	-8.2225198067e-01
 1.2459437402e+00	 2.5337603847e+00	-7.9417632059e-01
 1.2218737638e+00	 2.5454551218e+00	-7.6612527398e-01
 1.4648658864e+00	 2.4275644068e+00	-1.0240560701e+00
 1.4415003908e+00	 2.4415113341e+00	-1.0002543648e+00
 1.4180307296e+00	 2.4552168350e+00	-9.7575071267e-01
 1.3944605728e+00	 2.4686798893e+00	-9.5060148086e-01
 1.3707936003e+00	 2.4818995494e+00	-9.2483881179e-01
 1.3470334995e+00	 2.4948749408e+00	-8.9848577847e-01
 1.3231839639e+00	 2.5076052616e+00	-8.7157086113e-01
 1.2992486915e+00	 2.5200897827e+00	-8.4414164219e-01
 1.2752313827e+00	 2.5323278473e+00	-8.1627762490e-01
 1.2511357387e+00	 2.5443188711e+00	-7.8810208904e-01
 1.2269654597e+00	 2.5560623415e+00	-7.5979290659e-01
 1.4709448179e+00	 2.4376383650e+00	-1.0160629403e+00
 1.4474823596e+00	 2.4516431696e+00	-9.9265298379e-01
 1.4239153035e+00	 2.4654055459e+00	-9.6858664416e-01
 1.4002473348e+00	 2.4789244694e+00	-9.4388398431e-01
 1.3764821486e+00	 2.4921989888e+00	-9.1853976938e-01
 1.3526234476e+00	 2.5052282257e+00	-8.9253922952e-01
 1.3286749408e+00	 2.5180113750e+00	-8.6587311980e-01
 1.3046403413e+00	 2.5305477046e+00	-8.3855197085e-01
 1.2805233649e+00	 2.5428365551e+00	-8.1061943257e-01
 1.2563277283e+00	 2.5548773394e+00	-7.8216462153e-01
 1.2320571470e+00	 2.5666695432e+00	-7.5333339220e-01
 1.4770237373e+00	 2.4477123033e+00	-1.0083921550e+00
 1.4534643166e+00	 2.4617749850e+00	-9.8547715184e-01
 1.4297998658e+00	 2.4755942365e+00	-9.6194782143e-01
 1.4060340854e+00	 2.4891690292e+00	-9.3777846836e-01
 1.3821706856e+00	 2.5024984077e+00	-9.1291654865e-01
 1.3582133847e+00	 2.5155814901e+00	-8.8729907428e-01
 1.3341659067e+00	 2.5284174679e+00	-8.6086829036e-01
 1.3100319804e+00	 2.5410056059e+00	-8.3358651539e-01
 1.2858153366e+00	 2.5533452420e+00	-8.0545004332e-01
 1.2615197076e+00	 2.5654357869e+00	-7.7650201557e-01
 1.2371488242e+00	 2.5772767238e+00	-7.4684418027e-01
 1.4831026430e+00	 2.4577862187e+00	-1.0012647210e+00
 1.4594462601e+00	 2.4719067774e+00	-9.7895983480e-01
 1.4356844148e+00	 2.4857829041e+00	-9.5607776209e-01
 1.4118208228e+00	 2.4994135658e+00	-9.3253253277e-01
 1.3878592098e+00	 2.5127978033e+00	-9.0821440678e-01
 1.3638033091e+00	 2.5259347310e+00	-8.8300185330e-01
 1.3396568603e+00	 2.5388235371e+00	-8.5677787968e-01
 1.3154236072e+00	 2.5514634834e+00	-8.2944549509e-01
 1.2911072964e+00	 2.5638539051e+00	-8.0094220477e-01
 1.2667116751e+00	 2.5759942104e+00	-7.7125343964e-01
 1.2422404898e+00	 2.5878838804e+00	-7.4042483606e-01
 1.4891815331e+00	 2.4678601084e+00	-9.9498589825e-01
 1.4654281883e+00	 2.4820385439e+00	-9.7332970262e-01
 1.4415689487e+00	 2.4959715457e+00	-9.5121598671e-01
 1.4176075455e+00	 2.5096580763e+00	-9.2839018425e-01
 1.3935477194e+00	 2.5230971726e+00	-9.0467551346e-01
 1.3693932192e+00	 2.5362879455e+00	-8.7988162341e-01
 1.3451477998e+00	 2.5492295798e+00	-8.5382160907e-01
 1.3208152203e+00	 2.5619213343e+00	-8.2632813283e-01
 1.2963992426e+00	 2.5743625414e+00	-7.9726854461e-01
 1.2719036294e+00	 2.5865526069e+00	-7.6655890239e-01
 1.2473321424e+00	 2.5984910099e+00	-7.3470371121e-01
 1.1964152048e+00	 2.4924188579e+00	-7.9264708815e-01
 1.1727735471e+00	 2.5036299928e+00	-7.6347508166e-01
 1.1490662970e+00	 2.5145988639e+00	-7.3407351163e-01
 1.1252970511e+00	 2.5253251781e+00	-7.0376839022e-01
 1.1014693983e+00	 2.5358087111e+00	-6.7218471777e-01
 1.0775869187e+00	 2.5460493067e+00	-6.4087761984e-01
 1.0536531820e+00	 2.5560468764e+00	-6.0974369223e-01
 1.0296717458e+00	 2.5658013991e+00	-5.7824121203e-01
 1.0056461540e+00	 2.5753129198e+00	-5.4591814713e-01
 9.8157993592e-01	 2.5845815496e+00	-5.1241268489e-01
 9.5747660403e-01	 2.5936074649e+00	-4.7747087949e-01
 1.2015069224e+00	 2.5030261227e+00	-7.8832157897e-01
 1.1777646502e+00	 2.5142849701e+00	-7.5970481038e-01
 1.1539565066e+00	 2.5253005226e+00	-7.3091812363e-01
 1.1300861032e+00	 2.5360724860e+00	-7.0125584239e-01
 1.1061570444e+00	 2.5466006349e+00	-6.7013220415e-01
 1.0821729255e+00	 2.5568848125e+00	-6.3874434064e-01
 1.0581373313e+00	 2.5669249301e+00	-6.0731313718e-01
 1.0340538346e+00	 2.5767209661e+00	-5.7527321599e-01
 1.0099259945e+00	 2.5862729661e+00	-5.4215063736e-01
 9.8575735508e-01	 2.5955810415e+00	-5.0772627166e-01
 9.6155144396e-01	 2.6046453693e+00	-4.7384737886e-01
 1.2065986385e+00	 2.5136333845e+00	-7.8342169990e-01
 1.1827557519e+00	 2.5249399443e+00	-7.5522541671e-01
 1.1588467147e+00	 2.5360021783e+00	-7.2680783895e-01
 1.1348751540e+00	 2.5468197908e+00	-6.9744364215e-01
 1.1108446892e+00	 2.5573925557e+00	-6.6647032484e-01
 1.0867589310e+00	 2.5677203153e+00	-6.3457347865e-01
 1.0626214794e+00	 2.5778029807e+00	-6.0236410262e-01
 1.0384359222e+00	 2.5876405301e+00	-5.6927016226e-01
 1.0142058337e+00	 2.5972330093e+00	-5.3520961061e-01
 9.8993477306e-01	 2.6065805302e+00	-5.0220066099e-01
 9.6562628272e-01	 2.6156832706e+00	-4.7007764068e-01
 1.2116903517e+00	 2.5242406403e+00	-7.7803076638e-01
 1.1877468508e+00	 2.5355949125e+00	-7.5007585893e-01
 1.1637369201e+00	 2.5467038279e+00	-7.2174680210e-01
 1.1396642020e+00	 2.5575670896e+00	-6.9231045256e-01
 1.1155323313e+00	 2.5681844703e+00	-6.6109824932e-01
 1.0913449339e+00	 2.5785558120e+00	-6.2829317621e-01
 1.0671056249e+00	 2.5886810250e+00	-5.9482258839e-01
 1.0428180073e+00	 2.5985600879e+00	-5.6081966156e-01
 1.0184856705e+00	 2.6081930462e+00	-5.2834880795e-01
 9.9411218867e-01	 2.6175800127e+00	-4.9704202614e-01
 9.6970111918e-01	 2.6267211656e+00	-4.6624819372e-01
 1.2167820607e+00	 2.5348478871e+00	-7.7223539684e-01
 1.1927379454e+00	 2.5462498717e+00	-7.4429942559e-01
 1.1686271214e+00	 2.5574054684e+00	-7.1574433400e-01
 1.1444532460e+00	 2.5683143792e+00	-6.8584078004e-01
 1.1202199695e+00	 2.5789763758e+00	-6.5392682457e-01
 1.0959309329e+00	 2.5893912995e+00	-6.1983986202e-01
 1.0715897666e+00	 2.5995590602e+00	-5.8550887943e-01
 1.0472000887e+00	 2.6094796364e+00	-5.5315609448e-01
 1.0227655037e+00	 2.6191530739e+00	-5.2230553172e-01
 9.9828960072e-01	 2.6285794858e+00	-4.9229221612e-01
 9.7377595218e-01	 2.6377590513e+00	-4.6244507960e-01
 1.2218737638e+00	 2.5454551218e+00	-7.6612527398e-01
 1.1977290344e+00	 2.5569048188e+00	-7.3794349104e-01
 1.1735173170e+00	 2.5681070968e+00	-7.0881468538e-01
 1.1492422845e+00	 2.5790616566e+00	-6.7802472887e-01
 1.1249076023e+00	 2.5897682690e+00	-6.4493062636e-01
 1.1005169267e+00	 2.6002267746e+00	-6.1020758548e-01
 1.0760739032e+00	 2.6104370830e+00	-5.7752864112e-01
 1.0515821651e+00	 2.6203991725e+00	-5.4670887349e-01
 1.0270453320e+00	 2.6301130891e+00	-5.1708634684e-01
 1.0024670080e+00	 2.6395789465e+00	-4.8799312988e-01
 9.7785078055e-01	 2.6487969244e+00	-4.5875378675e-01
 1.2269654597e+00	 2.5560623415e+00	-7.5979290659e-01
 1.2027201163e+00	 2.5675597508e+00	-7.3105927196e-01
 1.1784075058e+00	 2.5788087100e+00	-7.0097679125e-01
 1.1540313163e+00	 2.5898089188e+00	-6.6885775709e-01
 1.1295952285e+00	 2.6005601470e+00	-6.3520931739e-01
 1.1051029139e+00	 2.6110622344e+00	-6.0234204524e-01
 1.0805580334e+00	 2.6213150904e+00	-5.7112333269e-01
 1.0559642353e+00	 2.6313186931e+00	-5.4145844261e-01
 1.0313251543e+00	 2.6410730888e+00	-5.1269823466e-01
 1.0066444094e+00	 2.6505783915e+00	-4.8418663341e-01
 9.8192560316e-01	 2.6598347820e+00	-4.5525918473e-01
 1.2320571470e+00	 2.5666695432e+00	-7.5333339220e-01
 1.2077111898e+00	 2.5782146646e+00	-7.2370158491e-01
 1.1832976862e+00	 2.5895103051e+00	-6.9225402675e-01
 1.1588203399e+00	 2.6005561628e+00	-6.5942756408e-01
 1.1342828467e+00	 2.6113520066e+00	-6.2758484118e-01
 1.1096888934e+00	 2.6218976758e+00	-5.9638184149e-01
 1.0850421560e+00	 2.6321930793e+00	-5.6625621008e-01
 1.0603462981e+00	 2.6422381952e+00	-5.3738586513e-01
 1.0356049693e+00	 2.6520330699e+00	-5.0914849699e-01
 1.0108218038e+00	 2.6615778179e+00	-4.8091447773e-01
 9.8600041883e-01	 2.6708726207e+00	-4.5204545894e-01
 1.2371488242e+00	 2.5772767238e+00	-7.4684418027e-01
 1.2127022533e+00	 2.5888695574e+00	-7.1592860480e-01
 1.1881878570e+00	 2.6002118789e+00	-6.8363522466e-01
 1.1636093540e+00	 2.6113033854e+00	-6.5246022135e-01
 1.1389704556e+00	 2.6221438448e+00	-6.2216399820e-01
 1.1142748638e+00	 2.6327330957e+00	-5.9226830619e-01
 1.0895262698e+00	 2.6430710467e+00	-5.6289119436e-01
 1.0647283522e+00	 2.6531576756e+00	-5.3447271787e-01
 1.0398847757e+00	 2.6629930293e+00	-5.0644466111e-01
 1.0149991898e+00	 2.6725772225e+00	-4.7821821750e-01
 9.9007522643e-01	 2.6819104376e+00	-4.4919604562e-01
 1.2422404898e+00	 2.5878838804e+00	-7.4042483606e-01
 1.2176933055e+00	 2.5995244259e+00	-7.0856506251e-01
 1.1930780166e+00	 2.6109134284e+00	-6.7779974964e-01
 1.1683983573e+00	 2.6220505836e+00	-6.4805676386e-01
 1.1436580539e+00	 2.6329356586e+00	-6.1891110990e-01
 1.1188608238e+00	 2.6435684911e+00	-5.8992299208e-01
 1.0940103733e+00	 2.6539489894e+00	-5.6099275953e-01
 1.0691103963e+00	 2.6640771313e+00	-5.3270098673e-01
 1.0441645725e+00	 2.6739529637e+00	-5.0459438577e-01
 1.0191765663e+00	 2.6835766021e+00	-4.7613913033e-01
 9.9415002478e-01	 2.6929482294e+00	-4.4679356730e-01
 1.2473321424e+00	 2.5984910099e+00	-7.3470371121e-01
 1.2226843450e+00	 2.6101792673e+00	-7.0426845968e-01
 1.1979681638e+00	 2.6216149507e+00	-6.7488378500e-01
 1.1731873483e+00	 2.6327977545e+00	-6.4618322412e-01
 1.1483456403e+00	 2.6437274448e+00	-6.1778885161e-01
 1.1234467721e+00	 2.6544038588e+00	-5.8931091687e-01
 1.0984944655e+00	 2.6648269043e+00	-5.6052582175e-01
 1.0734924292e+00	 2.6749965591e+00	-5.3205296329e-01
 1.0484443584e+00	 2.6849128703e+00	-5.0360536820e-01
 1.0233539322e+00	 2.6945759537e+00	-4.7471813686e-01
 9.9822481275e-01	 2.7039859931e+00	-4.4491976847e-01
 9.5747660403e-01	 2.5936074649e+00	-4.7747087949e-01
 9.3334375840e-01	 2.6023894335e+00	-4.4280549876e-01
 9.0918077772e-01	 2.6109293132e+00	-4.0952931112e-01
 8.8499111396e-01	 2.6192274694e+00	-3.7743552103e-01
 8.6077819719e-01	 2.6272843295e+00	-3.4630536495e-01
 8.3654543421e-01	 2.6351003822e+00	-3.1590725613e-01
 8.1229620733e-01	 2.6426761766e+00	-2.8599617137e-01
 7.8803387312e-01	 2.6500123209e+00	-2.5631325534e-01
 7.6376176120e-01	 2.6571094822e+00	-2.2658561831e-01
 7.3948317308e-01	 2.6639683848e+00	-1.9653011195e-01
 7.1520138100e-01	 2.6705898097e+00	-1.6751314455e-01
 9.6155144396e-01	 2.6046453693e+00	-4.7384737886e-01
 9.3731589348e-01	 2.6134647123e+00	-4.4092808339e-01
 9.1305007971e-01	 2.6220409362e+00	-4.0892406723e-01
 8.8875746931e-01	 2.6303744077e+00	-3.7769147955e-01
 8.6444150692e-01	 2.6384655563e+00	-3.4707680685e-01
 8.4010561387e-01	 2.6463148727e+00	-3.1691596794e-01
 8.1575318685e-01	 2.6539229082e+00	-2.8703365240e-01
 7.9138759672e-01	 2.6612902738e+00	-2.5724287761e-01
 7.6701218728e-01	 2.6684176393e+00	-2.2734473955e-01
 7.4263027406e-01	 2.6753057321e+00	-1.9712833293e-01
 7.1824514325e-01	 2.6819553365e+00	-1.6763921509e-01
 9.6562628272e-01	 2.6156832706e+00	-4.7007764068e-01
 9.4128802744e-01	 2.6245399880e+00	-4.3849225743e-01
 9.1691938060e-01	 2.6331525559e+00	-4.0744226224e-01
 8.9252382358e-01	 2.6415213429e+00	-3.7684018181e-01
 8.6810481562e-01	 2.6496467800e+00	-3.4659058748e-01
 8.4366579252e-01	 2.6575293600e+00	-3.1658916282e-01
 8.1921016540e-01	 2.6651696366e+00	-2.8672201658e-01
 7.9474131938e-01	 2.6725682235e+00	-2.5686521569e-01
 7.7026261243e-01	 2.6797257931e+00	-2.2688451259e-01
 7.4577737415e-01	 2.6866430761e+00	-1.9663524188e-01
 7.2128890464e-01	 2.6933208600e+00	-1.6688509331e-01
 9.6970111918e-01	 2.6267211656e+00	-4.6624819372e-01
 9.4526015914e-01	 2.6356152574e+00	-4.3562946517e-01
 9.2078867930e-01	 2.6442641695e+00	-4.0525215147e-01
 8.9629017572e-01	 2.6526682718e+00	-3.7507866955e-01
 8.7176812224e-01	 2.6608279973e+00	-3.4506459489e-01
 8.4722596916e-01	 2.6687438409e+00	-3.1515772398e-01
 8.2266714198e-01	 2.6764163587e+00	-2.8529738471e-01
 7.9809504013e-01	 2.6838461667e+00	-2.5541396837e-01
 7.7351303573e-01	 2.6910339405e+00	-2.2542865698e-01
 7.4892447245e-01	 2.6979804137e+00	-1.9525332022e-01
 7.2433266430e-01	 2.7046863771e+00	-1.6542872044e-01
 9.7377595218e-01	 2.6377590513e+00	-4.6244507960e-01
 9.4923228747e-01	 2.6466905174e+00	-4.3247004088e-01
 9.2465797472e-01	 2.6553757735e+00	-4.0252039154e-01
 9.0005652466e-01	 2.6638151911e+00	-3.7260202914e-01
 8.7543142574e-01	 2.6720092051e+00	-3.4271453472e-01
 8.5078614277e-01	 2.6799583123e+00	-3.1285025253e-01
 8.2612411563e-01	 2.6876630712e+00	-2.8299362052e-01
 8.0144875803e-01	 2.6951241004e+00	-2.5312072461e-01
 7.7676345628e-01	 2.7023420783e+00	-2.2319904937e-01
 7.5207156807e-01	 2.7093177416e+00	-1.9318739882e-01
 7.2737642137e-01	 2.7160518846e+00	-1.6344700680e-01
 9.7785078055e-01	 2.6487969244e+00	-4.5875378675e-01
 9.5320441129e-01	 2.6577657649e+00	-4.2914316033e-01
 9.2852726574e-01	 2.6664873650e+00	-3.9941200676e-01
 9.0382286933e-01	 2.6749620979e+00	-3.6960337006e-01
 8.7909472509e-01	 2.6831904002e+00	-3.3975391811e-01
 8.5434631234e-01	 2.6911727710e+00	-3.0989306196e-01
 8.2958108535e-01	 2.6989097709e+00	-2.8004232924e-01
 8.0480247213e-01	 2.7064020213e+00	-2.5021496365e-01
 7.8001387314e-01	 2.7136502033e+00	-2.2041572250e-01
 7.5521866013e-01	 2.7206550568e+00	-1.9064084489e-01
 7.3042017499e-01	 2.7274173791e+00	-1.6111584089e-01
 9.8192560316e-01	 2.6598347820e+00	-4.5525918473e-01
 9.5717652949e-01	 2.6688409966e+00	-4.2577679238e-01
 9.3239655129e-01	 2.6775989407e+00	-3.9609035521e-01
 9.0758920866e-01	 2.6861089888e+00	-3.6627380281e-01
 8.8275801925e-01	 2.6943715795e+00	-3.3639404876e-01
 8.5790647687e-01	 2.7023872138e+00	-3.0651017187e-01
 8.3303805018e-01	 2.7101564547e+00	-2.7667285526e-01
 8.0815618148e-01	 2.7176799262e+00	-2.4692405409e-01
 7.8326428539e-01	 2.7249583123e+00	-2.1729686323e-01
 7.5836574773e-01	 2.7319923558e+00	-1.8781555656e-01
 7.3346392430e-01	 2.7387828576e+00	-1.5861009787e-01
 9.8600041883e-01	 2.6708726207e+00	-4.5204545894e-01
 9.6114864094e-01	 2.6799162096e+00	-4.2249765050e-01
 9.3626583025e-01	 2.6887104975e+00	-3.9271709450e-01
 9.1135554159e-01	 2.6972558609e+00	-3.6280241625e-01
 8.8642130719e-01	 2.7055527398e+00	-3.3284400927e-01
 8.6146663534e-01	 2.7136016375e+00	-3.0292330076e-01
 8.3649500914e-01	 2.7214031194e+00	-2.7311227892e-01
 8.1150988512e-01	 2.7289578120e+00	-2.4347325208e-01
 7.8651469212e-01	 2.7362664021e+00	-2.1405880981e-01
 7.6151282998e-01	 2.7433296356e+00	-1.8491195671e-01
 7.3650766844e-01	 2.7501483168e+00	-1.5610364764e-01
 9.9007522643e-01	 2.6819104376e+00	-4.4919604562e-01
 9.6512074450e-01	 2.6909914005e+00	-4.1943114431e-01
 9.4013510154e-01	 2.6998220323e+00	-3.8945214716e-01
 9.1512186705e-01	 2.7084027108e+00	-3.5937625436e-01
 8.9008458785e-01	 2.7167338779e+00	-3.2931064680e-01
 8.6502678676e-01	 2.7248160390e+00	-2.9935185796e-01
 8.3995196123e-01	 2.7326497618e+00	-2.6958541231e-01
 8.1486358212e-01	 2.7402356754e+00	-2.4008569870e-01
 7.8976509240e-01	 2.7475744694e+00	-2.1091604825e-01
 7.6465990599e-01	 2.7546668929e+00	-1.8212898616e-01
 7.3955140654e-01	 2.7615137534e+00	-1.5376936232e-01
 9.9415002478e-01	 2.6929482294e+00	-4.4679356730e-01
 9.6909283907e-01	 2.7020665664e+00	-4.1670133108e-01
 9.4400436406e-01	 2.7109335419e+00	-3.8645366578e-01
 9.1888818397e-01	 2.7195495354e+00	-3.5618029250e-01
 8.9374786022e-01	 2.7279149906e+00	-3.2599855787e-01
 8.6858693010e-01	 2.7360304151e+00	-2.9601293477e-01
 8.4340890549e-01	 2.7438963787e+00	-2.6631479425e-01
 8.1821727151e-01	 2.7515135132e+00	-2.3698241637e-01
 7.9301548532e-01	 2.7588825111e+00	-2.0808120799e-01
 7.6780697486e-01	 2.7660041245e+00	-1.7966409618e-01
 7.4259513773e-01	 2.7728791642e+00	-1.5177206655e-01
 9.9822481275e-01	 2.7039859931e+00	-4.4491976847e-01
 9.7306492350e-01	 2.7131417040e+00	-4.1443086724e-01
 9.4787361672e-01	 2.7220450232e+00	-3.8387799783e-01
 9.2265449129e-01	 2.7306963316e+00	-3.5339741309e-01
 8.9741112324e-01	 2.7390960749e+00	-3.2311007267e-01
 8.7214706437e-01	 2.7472447625e+00	-2.9312129479e-01
 8.4686584093e-01	 2.7551429669e+00	-2.6352068443e-01
 8.2157095235e-01	 2.7627913223e+00	-2.3438230448e-01
 7.9626586994e-01	 2.7701905239e+00	-2.0576505674e-01
 7.7095403571e-01	 2.7773413271e+00	-1.7771324033e-01
 7.4563886117e-01	 2.7842445460e+00	-1.5025725563e-01
 7.1520138100e-01	 2.6705898097e+00	-1.6751314455e-01
 6.9091962719e-01	 2.6769745938e+00	-1.4001644161e-01
 6.6664112374e-01	 2.6831236311e+00	-1.1333034005e-01
 6.4236905056e-01	 2.6890378692e+00	-8.7457078950e-02
 6.1810655401e-01	 2.6947183084e+00	-6.2365923589e-02
 5.9385674596e-01	 2.7001660000e+00	-3.7998829279e-02
 5.6962270291e-01	 2.7053820455e+00	-1.4275579220e-02
 5.4540746504e-01	 2.7103675953e+00	 8.9015818907e-03
 5.2121403541e-01	 2.7151238477e+00	 3.1643794961e-02
 4.9704537915e-01	 2.7196520478e+00	 5.4071889391e-02
 4.7290442270e-01	 2.7239534860e+00	 7.6313115569e-02
 7.1824514325e-01	 2.6819553365e+00	-1.6763921509e-01
 6.9386005087e-01	 2.6883672930e+00	-1.3977993718e-01
 6.6947822269e-01	 2.6945424994e+00	-1.1288268126e-01
 6.4510285214e-01	 2.7004819075e+00	-8.6932599106e-02
 6.2073709897e-01	 2.7061865215e+00	-6.1881898118e-02
 5.9638408832e-01	 2.7116573975e+00	-3.7655542259e-02
 5.7204690975e-01	 2.7168956414e+00	-1.4156413405e-02
 5.4772861639e-01	 2.7219024088e+00	 8.7300442410e-03
 5.2343222408e-01	 2.7266789029e+00	 3.1131672222e-02
 4.9916071058e-01	 2.7312263742e+00	 5.3185912430e-02
 4.7491701477e-01	 2.7355461185e+00	 7.5036561092e-02
 7.2128890464e-01	 2.6933208600e+00	-1.6688509331e-01
 6.9680047372e-01	 2.6997599890e+00	-1.3882655508e-01
 6.7231532083e-01	 2.7059613646e+00	-1.1185264800e-01
 6.4783665294e-01	 2.7119259425e+00	-8.5931598983e-02
 6.2336764320e-01	 2.7176547314e+00	-6.0999097543e-02
 5.9891142996e-01	 2.7231487917e+00	-3.6964024581e-02
 5.7447111590e-01	 2.7284092341e+00	-1.3713627266e-02
 5.5004976708e-01	 2.7334372191e+00	 8.8818362097e-03
 5.2565041213e-01	 2.7382339549e+00	 3.0964956581e-02
 5.0127604142e-01	 2.7428006973e+00	 5.2687511207e-02
 4.7692960628e-01	 2.7471387477e+00	 7.4207251306e-02
 7.2433266430e-01	 2.7046863771e+00	-1.6542872044e-01
 6.9974089490e-01	 2.7111526785e+00	-1.3730773267e-01
 6.7515241737e-01	 2.7173802232e+00	-1.1036883745e-01
 6.5057045220e-01	 2.7233699710e+00	-8.4563489365e-02
 6.2599818593e-01	 2.7291229348e+00	-5.9811389552e-02
 6.0143877017e-01	 2.7346401794e+00	-3.6006232883e-02
 5.7689532068e-01	 2.7399228203e+00	-1.3020886443e-02
 5.5237091646e-01	 2.7449720228e+00	 9.2879758625e-03
 5.2786859892e-01	 2.7497890003e+00	 3.1075756124e-02
 5.0339137105e-01	 2.7543750139e+00	 5.2506304616e-02
 4.7894219664e-01	 2.7587313704e+00	 7.3748752081e-02
 7.2737642137e-01	 2.7160518846e+00	-1.6344700680e-01
 7.0268131358e-01	 2.7225453584e+00	-1.3537435818e-01
 6.7798951149e-01	 2.7287990721e+00	-1.0855970478e-01
 6.5330424913e-01	 2.7348139898e+00	-8.2937871993e-02
 6.2862872643e-01	 2.7405911284e+00	-5.8413092085e-02
 6.0396610824e-01	 2.7461315573e+00	-3.4864760293e-02
 5.7931952340e-01	 2.7514363967e+00	-1.2152606920e-02
 5.5469206387e-01	 2.7565068167e+00	 9.8786887496e-03
 5.3008678383e-01	 2.7613440359e+00	 3.1395415136e-02
 5.0550669889e-01	 2.7659493206e+00	 5.2571246506e-02
 4.8095478529e-01	 2.7703239832e+00	 7.3584132161e-02
 7.3042017499e-01	 2.7274173791e+00	-1.6111584089e-01
 7.0562172893e-01	 2.7339380253e+00	-1.3317677246e-01
 6.8082660240e-01	 2.7402179081e+00	-1.0655355888e-01
 6.5603804297e-01	 2.7462579956e+00	-8.1164530572e-02
 6.3125926394e-01	 2.7520593090e+00	-5.6898960955e-02
 6.0649344343e-01	 2.7576229222e+00	-3.3622821975e-02
 5.8174372337e-01	 2.7629499601e+00	-1.1183939780e-02
 5.5701320865e-01	 2.7680415975e+00	 1.0583422626e-02
 5.3230496622e-01	 2.7728990584e+00	 3.1854527015e-02
 5.0762202433e-01	 2.7775236142e+00	 5.2810635530e-02
 4.8296737166e-01	 2.7819165829e+00	 7.3635968672e-02
 7.3346392430e-01	 2.7387828576e+00	-1.5861009787e-01
 7.0856214012e-01	 2.7453306761e+00	-1.3086477035e-01
 6.8366368929e-01	 2.7516367280e+00	-1.0447855790e-01
 6.5877183293e-01	 2.7577019852e+00	-7.9353421770e-02
 6.3388979773e-01	 2.7635274734e+00	-5.5364177570e-02
 6.0902077505e-01	 2.7691142708e+00	-3.2364240845e-02
 5.8416791991e-01	 2.7744635071e+00	-1.0190756195e-02
 5.5933435013e-01	 2.7795763620e+00	 1.1330861948e-02
 5.3452314547e-01	 2.7844540646e+00	 3.2382947003e-02
 5.0973734677e-01	 2.7890978914e+00	 5.3152124853e-02
 4.8497995518e-01	 2.7935091661e+00	 7.3826352585e-02
 7.3650766844e-01	 2.7501483168e+00	-1.5610364764e-01
 7.1150254630e-01	 2.7567233075e+00	-1.2858760177e-01
 6.8650077136e-01	 2.7630555284e+00	-1.0246270471e-01
 6.6150561824e-01	 2.7691459553e+00	-7.7614666215e-02
 6.3652032705e-01	 2.7749956183e+00	-5.3904336758e-02
 6.1154810237e-01	 2.7806055999e+00	-3.1173433466e-02
 5.8659211232e-01	 2.7859770346e+00	-9.2496326148e-03
 5.6165548767e-01	 2.7911111069e+00	 1.2048942150e-02
 5.3674132095e-01	 2.7960090510e+00	 3.2909804715e-02
 5.1185266561e-01	 2.8006721490e+00	 5.3522731735e-02
 4.8699253528e-01	 2.8051017297e+00	 7.4076894137e-02
 7.3955140654e-01	 2.7615137534e+00	-1.5376936232e-01
 7.1444294665e-01	 2.7681159164e+00	-1.2649397253e-01
 6.8933784779e-01	 2.7744743061e+00	-1.0063384211e-01
 6.6423939813e-01	 2.7805899027e+00	-7.6058539491e-02
 6.3915085115e-01	 2.7864637404e+00	-5.2615434692e-02
 6.1407542467e-01	 2.7920969062e+00	-3.0135396108e-02
 5.8901629993e-01	 2.7974905392e+00	-8.4378361688e-03
 5.6397662061e-01	 2.8026458290e+00	 1.2664863717e-02
 5.3895949203e-01	 2.8075640146e+00	 3.3363516491e-02
 5.1396798026e-01	 2.8122463835e+00	 5.3848846979e-02
 4.8900511138e-01	 2.8166942702e+00	 7.4308728222e-02
 7.4259513773e-01	 2.7728791642e+00	-1.5177206655e-01
 7.1738334034e-01	 2.7795084994e+00	-1.2473204479e-01
 6.9217491780e-01	 2.7858930580e+00	-9.9119648045e-02
 6.6697317182e-01	 2.7920338242e+00	-7.4795463136e-02
 6.4178136928e-01	 2.7979318365e+00	-5.1593856914e-02
 6.1660274125e-01	 2.8035881865e+00	-2.9335690976e-02
 5.9144048204e-01	 2.8090040177e+00	-7.8333102644e-03
 5.6629774829e-01	 2.8141805248e+00	 1.3105106043e-02
 5.4117765808e-01	 2.8191189520e+00	 3.3671797562e-02
 5.1608329012e-01	 2.8238205919e+00	 5.4056244258e-02
 4.9101768293e-01	 2.8282867845e+00	 7.4442519731e-02
 7.4563886117e-01	 2.7842445460e+00	-1.5025725563e-01
 7.2032372652e-01	 2.7909010533e+00	-1.2344943731e-01
 6.9501198057e-01	 2.7973117808e+00	-9.8047630600e-02
 6.6970693854e-01	 2.8034777166e+00	-7.3935995630e-02
 6.4441188071e-01	 2.8093999034e+00	-5.0936366442e-02
 6.1913005138e-01	 2.8150794374e+00	-2.8860432589e-02
 5.9386465797e-01	 2.8205174669e+00	-7.5146603799e-03
 5.6861887004e-01	 2.8257151913e+00	 1.3295441098e-02
 5.4339581847e-01	 2.8306738599e+00	 3.3761674048e-02
 5.1819859458e-01	 2.8353947707e+00	 5.4070089323e-02
 4.9303024934e-01	 2.8398792692e+00	 7.4398468861e-02
 4.7290442270e-01	 2.7239534860e+00	 7.6313115569e-02
 4.4878995786e-01	 2.7280301707e+00	 9.7891232608e-02
 4.2470894487e-01	 2.7318827285e+00	 1.1823293332e-01
 4.0066419743e-01	 2.7355125780e+00	 1.3733664877e-01
 3.7665848769e-01	 2.7389211788e+00	 1.5520264445e-01
 3.5269454566e-01	 2.7421100300e+00	 1.7191937004e-01
 3.2877505866e-01	 2.7450806690e+00	 1.8767098086e-01
 3.0490267082e-01	 2.7478346707e+00	 2.0240572991e-01
 2.8107998260e-01	 2.7503736456e+00	 2.1607798678e-01
 2.5730955035e-01	 2.7526992392e+00	 2.2865567556e-01
 2.3359388592e-01	 2.7548131303e+00	 2.4011622449e-01
 4.7491701477e-01	 2.7355461185e+00	 7.5036561092e-02
 4.5069992332e-01	 2.7396401528e+00	 9.6233549531e-02
 4.2651642608e-01	 2.7435091064e+00	 1.1621973253e-01
 4.0236934872e-01	 2.7471544039e+00	 1.3499374404e-01
 3.7826147521e-01	 2.7505775110e+00	 1.5255467743e-01
 3.5419554716e-01	 2.7537799333e+00	 1.6896157721e-01
 3.3017426333e-01	 2.7567632149e+00	 1.8437566694e-01
 3.0620027911e-01	 2.7595289370e+00	 1.9875904901e-01
 2.8227620602e-01	 2.7620787174e+00	 2.1207483296e-01
 2.5840461129e-01	 2.7644142082e+00	 2.2429845243e-01
 2.3458801746e-01	 2.7665370956e+00	 2.3541387779e-01
 4.7692960628e-01	 2.7471387477e+00	 7.4207251306e-02
 4.5260988824e-01	 2.7512501317e+00	 9.5087547094e-02
 4.2832390677e-01	 2.7551354810e+00	 1.1477640426e-01
 4.0407449953e-01	 2.7587962264e+00	 1.3327253146e-01
 3.7986446227e-01	 2.7622338399e+00	 1.5057381994e-01
 3.5569654823e-01	 2.7654498333e+00	 1.6671525305e-01
 3.3157346761e-01	 2.7684457574e+00	 1.8182637898e-01
 3.0749788703e-01	 2.7712232001e+00	 1.9588117615e-01
 2.8347242910e-01	 2.7737837858e+00	 2.0885111405e-01
 2.5949967192e-01	 2.7761291739e+00	 2.2071879710e-01
 2.3558214872e-01	 2.7782610577e+00	 2.3147444958e-01
 4.7894219664e-01	 2.7587313704e+00	 7.3748752081e-02
 4.5451985207e-01	 2.7628601039e+00	 9.4370009236e-02
 4.3013138644e-01	 2.7667618490e+00	 1.1381502528e-01
 4.0577964938e-01	 2.7704380423e+00	 1.3208241919e-01
 3.8146744843e-01	 2.7738901622e+00	 1.4916881199e-01
 3.5719754845e-01	 2.7771197268e+00	 1.6509012145e-01
 3.3297267109e-01	 2.7801282933e+00	 1.7993718634e-01
 3.0879549422e-01	 2.7829174565e+00	 1.9369284637e-01
 2.8466865150e-01	 2.7854888476e+00	 2.0633646957e-01
 2.6059473193e-01	 2.7878441330e+00	 2.1785740752e-01
 2.3657627942e-01	 2.7899850131e+00	 2.2825176227e-01
 4.8095478529e-01	 2.7703239832e+00	 7.3584132161e-02
 4.5642981428e-01	 2.7744700663e+00	 9.3997411734e-02
 4.3193886457e-01	 2.7783882071e+00	 1.1324752658e-01
 4.0748479777e-01	 2.7820798484e+00	 1.3133280524e-01
 3.8307043322e-01	 2.7855464746e+00	 1.4824849228e-01
 3.5869854740e-01	 2.7887896103e+00	 1.6399596894e-01
 3.3437187338e-01	 2.7918108192e+00	 1.7862217685e-01
 3.1009310030e-01	 2.7946117029e+00	 1.9211476041e-01
 2.8586487289e-01	 2.7971938994e+00	 2.0446044266e-01
 2.6168979101e-01	 2.7995590821e+00	 2.1565481317e-01
 2.3757040928e-01	 2.8017089585e+00	 2.2569938684e-01
 4.8296737166e-01	 2.7819165829e+00	 7.3635968672e-02
 4.5833977433e-01	 2.7860800155e+00	 9.3885923099e-02
 4.3374634066e-01	 2.7900145520e+00	 1.1298569036e-01
 4.0918994424e-01	 2.7937216412e+00	 1.3093307132e-01
 3.8467341620e-01	 2.7972027737e+00	 1.4772178953e-01
 3.6019954465e-01	 2.8004594806e+00	 1.6334265173e-01
 3.3577107409e-01	 2.8034933320e+00	 1.7779546023e-01
 3.1139070491e-01	 2.8063059361e+00	 1.9106758543e-01
 2.8706109292e-01	 2.8088989380e+00	 2.0315247902e-01
 2.6278484885e-01	 2.8112740179e+00	 2.1405137294e-01
 2.3856453800e-01	 2.8134328906e+00	 2.2377064054e-01
 4.8497995518e-01	 2.7935091661e+00	 7.3826352585e-02
 4.6024973167e-01	 2.7976899483e+00	 9.3951405529e-02
 4.3555381418e-01	 2.8016408805e+00	 1.1294114714e-01
 4.1089508828e-01	 2.8053634176e+00	 1.3079257679e-01
 3.8627639690e-01	 2.8088590564e+00	 1.4749771400e-01
 3.6170053977e-01	 2.8121293343e+00	 1.6304010304e-01
 3.3717027281e-01	 2.8151758281e+00	 1.7737117185e-01
 3.1268830769e-01	 2.8180001528e+00	 1.9047195605e-01
 2.8825731125e-01	 2.8206039600e+00	 2.0234192600e-01
 2.6387990513e-01	 2.8229889372e+00	 2.1298727324e-01
 2.3955866532e-01	 2.8251568061e+00	 2.2241858474e-01
 4.8699253528e-01	 2.8051017297e+00	 7.4076894137e-02
 4.6215968576e-01	 2.8092998613e+00	 9.4109415924e-02
 4.3736128463e-01	 2.8132671892e+00	 1.1302537308e-01
 4.1260022943e-01	 2.8170051741e+00	 1.3082065292e-01
 3.8787937488e-01	 2.8205153192e+00	 1.4748534934e-01
 3.6320153233e-01	 2.8237991682e+00	 1.6299834073e-01
 3.3856946916e-01	 2.8268583044e+00	 1.7726347682e-01
 3.1398590826e-01	 2.8296943495e+00	 1.9024847576e-01
 2.8945352755e-01	 2.8323089620e+00	 2.0195803217e-01
 2.6497495956e-01	 2.8347038365e+00	 2.1240252645e-01
 2.4055279095e-01	 2.8368807017e+00	 2.2159602315e-01
 4.8900511138e-01	 2.8166942702e+00	 7.4308728222e-02
 4.6406963606e-01	 2.8209097513e+00	 9.4275206953e-02
 4.3916875150e-01	 2.8248934748e+00	 1.1314968739e-01
 4.1430536719e-01	 2.8286469076e+00	 1.3092659729e-01
 3.8948234968e-01	 2.8321715589e+00	 1.4759384465e-01
 3.6470252192e-01	 2.8354689790e+00	 1.6312747522e-01
 3.3996866273e-01	 2.8385407576e+00	 1.7738657438e-01
 3.1528350625e-01	 2.8413885231e+00	 1.9031771853e-01
 2.9064974148e-01	 2.8440139409e+00	 2.0192994704e-01
 2.6607001181e-01	 2.8464187125e+00	 2.1223696960e-01
 2.4154691460e-01	 2.8486045740e+00	 2.2125550020e-01
 4.9101768293e-01	 2.8282867845e+00	 7.4442519731e-02
 4.6597958204e-01	 2.8325196150e+00	 9.4363728178e-02
 4.4097621426e-01	 2.8365197341e+00	 1.1322524985e-01
 4.1601050109e-01	 2.8402886147e+00	 1.3101966843e-01
 3.9108532085e-01	 2.8438277722e+00	 1.4773240681e-01
 3.6620350811e-01	 2.8471387633e+00	 1.6333771769e-01
 3.4136785313e-01	 2.8502231842e+00	 1.7765470252e-01
 3.1658110130e-01	 2.8530826701e+00	 1.9060023083e-01
 2.9184595269e-01	 2.8557188933e+00	 2.0218672119e-01
 2.6716506157e-01	 2.8581335621e+00	 2.1243026334e-01
 2.4254103600e-01	 2.8603284198e+00	 2.2134929968e-01
 4.9303024934e-01	 2.8398792692e+00	 7.4398468861e-02
 4.6788952314e-01	 2.8441294491e+00	 9.4289627227e-02
 4.4278367242e-01	 2.8481459637e+00	 1.1316305853e-01
 4.1771563064e-01	 2.8519302921e+00	 1.3100908061e-01
 3.9268828793e-01	 2.8554839558e+00	 1.4781029300e-01
 3.6770449047e-01	 2.8588085178e+00	 1.6353938853e-01
 3.4276703995e-01	 2.8619055811e+00	 1.7798214303e-01
 3.1787869304e-01	 2.8647767873e+00	 1.9101653391e-01
 2.9304216086e-01	 2.8674238157e+00	 2.0265730661e-01
 2.6826010855e-01	 2.8698483817e+00	 2.1292189119e-01
 2.4353515486e-01	 2.8720522356e+00	 2.2182944359e-01
 2.3359388592e-01	 2.7548131303e+00	 2.4011622449e-01
 2.0993946350e-01	 2.7567167242e+00	 2.5047196270e-01
 1.8634462182e-01	 2.7584121392e+00	 2.5975419130e-01
 1.6281168214e-01	 2.7599011459e+00	 2.6796682417e-01
 1.3934292148e-01	 2.7611855437e+00	 2.7510979832e-01
 1.1594057236e-01	 2.7622671594e+00	 2.8117643867e-01
 9.2606822595e-02	 2.7631478460e+00	 2.8615093309e-01
 6.9343815124e-02	 2.7638294816e+00	 2.9000586699e-01
 4.6153647874e-02	 2.7643139683e+00	 2.9269976974e-01
 2.3038373639e-02	 2.7646032308e+00	 2.9417462932e-01
 0.0000000000e+00	 2.7646992157e+00	 2.9435333525e-01
 2.3458801746e-01	 2.7665370956e+00	 2.3541387779e-01
 2.1083292628e-01	 2.7684487909e+00	 2.4544220072e-01
 1.8713766940e-01	 2.7701514212e+00	 2.5441646589e-01
 1.6350457797e-01	 2.7716467649e+00	 2.6233775398e-01
 1.3993593869e-01	 2.7729366289e+00	 2.6920541207e-01
 1.1643399358e-01	 2.7740228477e+00	 2.7501464197e-01
 9.3000939774e-02	 2.7749072823e+00	 2.7975419090e-01
 6.9638929329e-02	 2.7755918188e+00	 2.8340409196e-01
 4.6350069099e-02	 2.7760783674e+00	 2.8593340494e-01
 2.3136420614e-02	 2.7763688610e+00	 2.8729791235e-01
 0.0000000000e+00	 2.7764652544e+00	 2.8743772917e-01
 2.3558214872e-01	 2.7782610577e+00	 2.3147444958e-01
 2.1172638881e-01	 2.7801808543e+00	 2.4116127211e-01
 1.8793071676e-01	 2.7818907000e+00	 2.4982845599e-01
 1.6419747360e-01	 2.7833923805e+00	 2.5747533208e-01
 1.4052895573e-01	 2.7846877107e+00	 2.6410139822e-01
 1.1692741466e-01	 2.7857785326e+00	 2.6970414854e-01
 9.3395056842e-02	 2.7866667153e+00	 2.7427699743e-01
 6.9934043451e-02	 2.7873541527e+00	 2.7780724344e-01
 4.6546490268e-02	 2.7878427632e+00	 2.8027402188e-01
 2.3234467561e-02	 2.7881344878e+00	 2.8164619935e-01
 0.0000000000e+00	 2.7882312897e+00	 2.8188016745e-01
 2.3657627942e-01	 2.7899850131e+00	 2.2825176227e-01
 2.1261985083e-01	 2.7919129110e+00	 2.3759503277e-01
 1.8872376367e-01	 2.7936299720e+00	 2.4596380403e-01
 1.6489036884e-01	 2.7951379895e+00	 2.5335664628e-01
 1.4112197243e-01	 2.7964387858e+00	 2.5977385638e-01
 1.1742083546e-01	 2.7975342109e+00	 2.6521554621e-01
 9.3789173687e-02	 2.7984261416e+00	 2.6967981769e-01
 7.0229157405e-02	 2.7991164800e+00	 2.7316096781e-01
 4.6742911326e-02	 2.7996071523e+00	 2.7564767080e-01
 2.3332514453e-02	 2.7999001080e+00	 2.7712108869e-01
 0.0000000000e+00	 2.7999973184e+00	 2.7755286589e-01
 2.3757040928e-01	 2.8017089585e+00	 2.2569938684e-01
 2.1351331209e-01	 2.8036449577e+00	 2.3470904381e-01
 1.8951680990e-01	 2.8053692341e+00	 2.4279590445e-01
 1.6558326349e-01	 2.8068835886e+00	 2.4995867226e-01
 1.4171498863e-01	 2.8081898510e+00	 2.5619899826e-01
 1.1791425584e-01	 2.8092898792e+00	 2.6151984641e-01
 9.4183290196e-02	 2.8101855580e+00	 2.6592393788e-01
 7.0524271107e-02	 2.8108787972e+00	 2.6941221537e-01
 4.6939332216e-02	 2.8113715314e+00	 2.7198227261e-01
 2.3430561261e-02	 2.8116657182e+00	 2.7362669865e-01
 0.0000000000e+00	 2.8117633370e+00	 2.7433129098e-01
 2.3856453800e-01	 2.8134328906e+00	 2.2377064054e-01
 2.1440677234e-01	 2.8153769912e+00	 2.3246856880e-01
 1.9030985524e-01	 2.8171084829e+00	 2.4029789903e-01
 1.6627615735e-01	 2.8186291743e+00	 2.4725826590e-01
 1.4230800415e-01	 2.8199409028e+00	 2.5335313546e-01
 1.1840767566e-01	 2.8210455342e+00	 2.5858846603e-01
 9.4577406258e-02	 2.8219449610e+00	 2.6297144015e-01
 7.0819384475e-02	 2.8226411011e+00	 2.6650920644e-01
 4.7135752884e-02	 2.8231358972e+00	 2.6920757469e-01
 2.3528607958e-02	 2.8234313150e+00	 2.7106961183e-01
 0.0000000000e+00	 2.8235293423e+00	 2.7209409116e-01
 2.3955866532e-01	 2.8251568061e+00	 2.2241858474e-01
 2.1530023132e-01	 2.8271090080e+00	 2.3083857122e-01
 1.9110289945e-01	 2.8288477151e+00	 2.3844267268e-01
 1.6696905023e-01	 2.8303747433e+00	 2.4523215592e-01
 1.4290101884e-01	 2.8316919380e+00	 2.5121266772e-01
 1.1890109478e-01	 2.8328011726e+00	 2.5639320996e-01
 9.4971521761e-02	 2.8337043473e+00	 2.6078517788e-01
 7.1114497425e-02	 2.8344033884e+00	 2.6440139815e-01
 4.7332173273e-02	 2.8349002463e+00	 2.6725510795e-01
 2.3626654516e-02	 2.8351968952e+00	 2.6935882081e-01
 0.0000000000e+00	 2.8352953310e+00	 2.7072302993e-01
 2.4055279095e-01	 2.8368807017e+00	 2.2159602315e-01
 2.1619368879e-01	 2.8388410048e+00	 2.2978371213e-01
 1.9189594231e-01	 2.8405869273e+00	 2.3720284931e-01
 1.6766194193e-01	 2.8421202924e+00	 2.4385693675e-01
 1.4349403251e-01	 2.8434429532e+00	 2.4975407149e-01
 1.1939451307e-01	 2.8445567909e+00	 2.5490625399e-01
 9.5365636593e-02	 2.8454637137e+00	 2.5932875170e-01
 7.1409609872e-02	 2.8461656556e+00	 2.6303945218e-01
 4.7528593327e-02	 2.8466645755e+00	 2.6605814483e-01
 2.3724700907e-02	 2.8469624553e+00	 2.6840567522e-01
 0.0000000000e+00	 2.8470612996e+00	 2.7010292053e-01
 2.4154691460e-01	 2.8486045740e+00	 2.2125550020e-01
 2.1708714448e-01	 2.8505729784e+00	 2.2926834806e-01
 1.9268898360e-01	 2.8523261162e+00	 2.3655078802e-01
 1.6835483226e-01	 2.8538658182e+00	 2.4310906169e-01
 1.4408704501e-01	 2.8551939451e+00	 2.4895388880e-01
 1.1988793037e-01	 2.8563123859e+00	 2.5410012822e-01
 9.5759750643e-02	 2.8572230567e+00	 2.5856648609e-01
 7.1704721733e-02	 2.8579278995e+00	 2.6237520319e-01
 4.7725012992e-02	 2.8584288812e+00	 2.6555165842e-01
 2.3822747103e-02	 2.8587279922e+00	 2.6812383009e-01
 0.0000000000e+00	 2.8588272450e+00	 2.7012156219e-01
 2.4254103600e-01	 2.8603284198e+00	 2.2134929968e-01
 2.1798059814e-01	 2.8623049255e+00	 2.2925652909e-01
 1.9348202309e-01	 2.8640652785e+00	 2.3645857939e-01
 1.6904772102e-01	 2.8656113174e+00	 2.4296483632e-01
 1.4468005616e-01	 2.8669449104e+00	 2.4878871656e-01
 1.2038134655e-01	 2.8680679543e+00	 2.5394770088e-01
 9.6153863798e-02	 2.8689823731e+00	 2.5846340652e-01
 7.1999832925e-02	 2.8696901168e+00	 2.6236162820e-01
 4.7921432211e-02	 2.8701931604e+00	 2.6567228253e-01
 2.3920793077e-02	 2.8704935023e+00	 2.6842919551e-01
 0.0000000000e+00	 2.8705931636e+00	 2.7066967805e-01
 2.4353515486e-01	 2.8720522356e+00	 2.2182944359e-01
 2.1887404953e-01	 2.8740368425e+00	 2.2971199715e-01
 1.9427506055e-01	 2.8758044108e+00	 2.3689804209e-01
 1.6974060800e-01	 2.8773567866e+00	 2.4340041220e-01
 1.4527306580e-01	 2.8786958457e+00	 2.4923519611e-01
 1.2087476147e-01	 2.8798234927e+00	 2.5442216268e-01
 9.6547975948e-02	 2.8807416595e+00	 2.5898521732e-01
 7.2294943363e-02	 2.8814523041e+00	 2.6295281654e-01
 4.8117850928e-02	 2.8819574095e+00	 2.6635827281e-01
 2.4018838800e-02	 2.8822589824e+00	 2.6923988743e-01
 0.0000000000e+00	 2.8823590522e+00	 2.7164085446e-01
 2.8823590522e+00	 0.0000000000e+00	 1.5276726156e+00
 2.8822589824e+00	 2.4018838800e-02	 1.5267950193e+00
 2.8819574095e+00	 4.8117850928e-02	 1.5245207800e+00
 2.8814523041e+00	 7.2294943363e-02	 1.5208554912e+00
 2.8807416595e+00	 9.6547975948e-02	 1.5157987242e+00
 2.8798234927e+00	 1.2087476147e-01	 1.5093447641e+00
 2.8786958457e+00	 1.4527306580e-01	 1.5014835287e+00
 2.8773567866e+00	 1.6974060800e-01	 1.4922016250e+00
 2.8758044108e+00	 1.9427506055e-01	 1.4814834894e+00
 2.8740368425e+00	 2.1887404953e-01	 1.4693125548e+00
 2.8720522356e+00	 2.4353515486e-01	 1.4556723793e+00
 2.8941229120e+00	 0.0000000000e+00	 1.5138425301e+00
 2.8940224338e+00	 2.4116867617e-02	 1.5129432222e+00
 2.8937196300e+00	 4.8314235775e-02	 1.5106780360e+00
 2.8932124631e+00	 7.2590002912e-02	 1.5070536207e+00
 2.8924989181e+00	 9.6942020137e-02	 1.5020691097e+00
 2.8915770040e+00	 1.2136809131e-01	 1.4957171075e+00
 2.8904447547e+00	 1.4586597318e-01	 1.4879848805e+00
 2.8891002304e+00	 1.7043337551e-01	 1.4788557038e+00
 2.8875415189e+00	 1.9506796127e-01	 1.4683103079e+00
 2.8857667366e+00	 2.1976734684e-01	 1.4563283689e+00
 2.8837740299e+00	 2.4452910230e-01	 1.4428899737e+00
 2.9058867618e+00	 0.0000000000e+00	 1.4998111712e+00
 2.9057858752e+00	 2.4214896349e-02	 1.4988679763e+00
 2.9054818405e+00	 4.8510620454e-02	 1.4966098992e+00
 2.9049726121e+00	 7.2885062210e-02	 1.4930413617e+00
 2.9042561668e+00	 9.7336063991e-02	 1.4881576762e+00
 2.9033305053e+00	 1.2186142073e-01	 1.4819462954e+00
 2.9021936537e+00	 1.4645888006e-01	 1.4743882866e+00
 2.9008436643e+00	 1.7112614243e-01	 1.4654599807e+00
 2.8992786171e+00	 1.9586086131e-01	 1.4551347399e+00
 2.8974966207e+00	 2.2066064340e-01	 1.4433847841e+00
 2.8954958142e+00	 2.4552304890e-01	 1.4301830077e+00
 2.9176506249e+00	 0.0000000000e+00	 1.4855695982e+00
 2.9175493298e+00	 2.4312925193e-02	 1.4845636732e+00
 2.9172440644e+00	 4.8707005356e-02	 1.4823150245e+00
 2.9167327745e+00	 7.3180121843e-02	 1.4788225312e+00
 2.9160134288e+00	 9.7730108291e-02	 1.4740742670e+00
 2.9150840200e+00	 1.2235475071e-01	 1.4680490244e+00
 2.9139425661e+00	 1.4705178761e-01	 1.4607180847e+00
 2.9125871115e+00	 1.7181891013e-01	 1.4520471816e+00
 2.9110157285e+00	 1.9665376225e-01	 1.4419986038e+00
 2.9092265182e+00	 2.2155394098e-01	 1.4305333718e+00
 2.9072176117e+00	 2.4651699662e-01	 1.4176134208e+00
 2.9294145246e+00	 0.0000000000e+00	 1.4711093512e+00
 2.9293128212e+00	 2.4410954342e-02	 1.4700250633e+00
 2.9290063249e+00	 4.8903390870e-02	 1.4677923100e+00
 2.9284929735e+00	 7.3475182394e-02	 1.4644010783e+00
 2.9277707274e+00	 9.8124153819e-02	 1.4598287497e+00
 2.9268375712e+00	 1.2284808223e-01	 1.4540419100e+00
 2.9256915150e+00	 1.4764469701e-01	 1.4469984264e+00
 2.9243305954e+00	 1.7251167999e-01	 1.4386497407e+00
 2.9227528766e+00	 1.9744666566e-01	 1.4289433188e+00
 2.9209564521e+00	 2.2244724133e-01	 1.4178251929e+00
 2.9189394459e+00	 2.4751094744e-01	 1.4052425258e+00
 2.9411784844e+00	 0.0000000000e+00	 1.4564224374e+00
 2.9410763726e+00	 2.4508983991e-02	 1.4552472434e+00
 2.9407686455e+00	 4.9099777385e-02	 1.4530408854e+00
 2.9402532325e+00	 7.3770244451e-02	 1.4497810744e+00
 2.9395280860e+00	 9.8518201357e-02	 1.4454310084e+00
 2.9385911825e+00	 1.2334141626e-01	 1.4399414800e+00
 2.9374405239e+00	 1.4823760943e-01	 1.4332532733e+00
 2.9360741391e+00	 1.7320445339e-01	 1.4252997989e+00
 2.9344900845e+00	 1.9823957311e-01	 1.4160099052e+00
 2.9326864459e+00	 2.2334054624e-01	 1.4053108006e+00
 2.9306613398e+00	 2.4850490333e-01	 1.3931310144e+00
 2.9529425275e+00	 0.0000000000e+00	 1.4415013164e+00
 2.9528400072e+00	 2.4607014335e-02	 1.4402256435e+00
 2.9525310493e+00	 4.9296165292e-02	 1.4380601007e+00
 2.9520135748e+00	 7.4065308598e-02	 1.4349667030e+00
 2.9512855279e+00	 9.8912251686e-02	 1.4308909353e+00
 2.9503448770e+00	 1.2383475379e-01	 1.4257641689e+00
 2.9491896161e+00	 1.4883052605e-01	 1.4195063925e+00
 2.9478177660e+00	 1.7389723169e-01	 1.4120292015e+00
 2.9462273755e+00	 1.9903248619e-01	 1.4032389852e+00
 2.9444165228e+00	 2.2423385748e-01	 1.3930402441e+00
 2.9423833167e+00	 2.4949886625e-01	 1.3813389626e+00
 2.9647066773e+00	 0.0000000000e+00	 1.4264876684e+00
 2.9646037486e+00	 2.4705045568e-02	 1.4250853020e+00
 2.9642935598e+00	 4.9492554981e-02	 1.4229321733e+00
 2.9637740238e+00	 7.4360375422e-02	 1.4199913493e+00
 2.9630430764e+00	 9.9306305589e-02	 1.4162185257e+00
 2.9620986781e+00	 1.2432809579e-01	 1.4115263117e+00
 2.9609388147e+00	 1.4942344805e-01	 1.4057813533e+00
 2.9595614993e+00	 1.7459001628e-01	 1.3988694969e+00
 2.9579647730e+00	 1.9982540645e-01	 1.3906707830e+00
 2.9561467061e+00	 2.2512717682e-01	 1.3810630704e+00
 2.9541053999e+00	 2.5049283820e-01	 1.3699258368e+00
 2.9764709571e+00	 0.0000000000e+00	 1.4201541783e+00
 2.9763676199e+00	 2.4803077885e-02	 1.4183723601e+00
 2.9760562003e+00	 4.9688946840e-02	 1.4157786705e+00
 2.9755346027e+00	 7.4655445506e-02	 1.4123279964e+00
 2.9748007548e+00	 9.9700363848e-02	 1.4079683553e+00
 2.9738526090e+00	 1.2482144324e-01	 1.4026421157e+00
 2.9726881432e+00	 1.5001637660e-01	 1.3962872628e+00
 2.9713053625e+00	 1.7528280852e-01	 1.3888387191e+00
 2.9697023001e+00	 2.0061833547e-01	 1.3802297241e+00
 2.9678770190e+00	 2.2602050603e-01	 1.3703932851e+00
 2.9658276127e+00	 2.5148682112e-01	 1.3592637033e+00
 2.9882353902e+00	 0.0000000000e+00	 1.4276017476e+00
 2.9881316446e+00	 2.4901111479e-02	 1.4252121175e+00
 2.9878189941e+00	 4.9885341259e-02	 1.4219473320e+00
 2.9872953349e+00	 7.4950519438e-02	 1.4177526279e+00
 2.9865585865e+00	 1.0009442724e-01	 1.4125668832e+00
 2.9856066932e+00	 1.2531479713e-01	 1.4063238327e+00
 2.9844376249e+00	 1.5060931288e-01	 1.3989533289e+00
 2.9830493787e+00	 1.7597560979e-01	 1.3903826544e+00
 2.9814399803e+00	 2.0141127483e-01	 1.3805378936e+00
 2.9796074848e+00	 2.2691384689e-01	 1.3693453729e+00
 2.9775499782e+00	 2.5248081700e-01	 1.3567331766e+00
 3.0000000000e+00	 0.0000000000e+00	 1.4487863904e+00
 2.9998958460e+00	 2.4999146547e-02	 1.4455644721e+00
 2.9995819646e+00	 5.0081738629e-02	 1.4414020973e+00
 2.9990562437e+00	 7.5245597802e-02	 1.4362334099e+00
 2.9983165948e+00	 1.0048849656e-01	 1.4299867144e+00
 2.9973609538e+00	 1.2580815842e-01	 1.4225856883e+00
 2.9961872829e+00	 1.5120225806e-01	 1.4139506375e+00
 2.9947935713e+00	 1.7666842146e-01	 1.4039998019e+00
 2.9931778367e+00	 2.0220422610e-01	 1.3926507194e+00
 2.9913381267e+00	 2.2780720116e-01	 1.3798216566e+00
 2.9892725198e+00	 2.5347482781e-01	 1.3654331147e+00
 2.8720522356e+00	 2.4353515486e-01	 1.4556723793e+00
 2.8698483817e+00	 2.6826010855e-01	 1.4406716777e+00
 2.8674238157e+00	 2.9304216086e-01	 1.4244634782e+00
 2.8647767873e+00	 3.1787869304e-01	 1.4070943538e+00
 2.8619055811e+00	 3.4276703995e-01	 1.3886152014e+00
 2.8588085178e+00	 3.6770449047e-01	 1.3690810136e+00
 2.8554839558e+00	 3.9268828793e-01	 1.3484016245e+00
 2.8519302921e+00	 4.1771563064e-01	 1.3263681345e+00
 2.8481459637e+00	 4.4278367242e-01	 1.3029653733e+00
 2.8441294491e+00	 4.6788952314e-01	 1.2781862418e+00
 2.8398792692e+00	 4.9303024934e-01	 1.2520293011e+00
 2.8837740299e+00	 2.4452910230e-01	 1.4428899737e+00
 2.8815611813e+00	 2.6935496670e-01	 1.4281067560e+00
 2.8791267199e+00	 2.9423816275e-01	 1.4121350762e+00
 2.8764688881e+00	 3.1917606103e-01	 1.3950200384e+00
 2.8735859635e+00	 3.4416598551e-01	 1.3768125034e+00
 2.8704762601e+00	 3.6920521400e-01	 1.3575692285e+00
 2.8671381294e+00	 3.9429097859e-01	 1.3371802793e+00
 2.8635699620e+00	 4.1942046616e-01	 1.3154516680e+00
 2.8597701886e+00	 4.4459081891e-01	 1.2923717538e+00
 2.8557372813e+00	 4.6979913490e-01	 1.2679366072e+00
 2.8514697549e+00	 4.9504246870e-01	 1.2421493349e+00
 2.8954958142e+00	 2.4552304890e-01	 1.4301830077e+00
 2.8932739710e+00	 2.7044982391e-01	 1.4156388157e+00
 2.8908296141e+00	 2.9543416362e-01	 1.3999100976e+00
 2.8881609789e+00	 3.2047342791e-01	 1.3830417837e+00
 2.8852663360e+00	 3.4556492988e-01	 1.3650859898e+00
 2.8821439924e+00	 3.7070593626e-01	 1.3461025095e+00
 2.8787922932e+00	 3.9589366790e-01	 1.3259618282e+00
 2.8752096221e+00	 4.2112530024e-01	 1.3044903774e+00
 2.8713944036e+00	 4.4639796385e-01	 1.2816812939e+00
 2.8673451035e+00	 4.7170874503e-01	 1.2575362738e+00
 2.8630602308e+00	 4.9705468636e-01	 1.2320654109e+00
 2.9072176117e+00	 2.4651699662e-01	 1.4176134208e+00
 2.9049867739e+00	 2.7154468237e-01	 1.4033400912e+00
 2.9025325215e+00	 2.9663016585e-01	 1.3878702623e+00
 2.8998530829e+00	 3.2177079627e-01	 1.3712498731e+00
 2.8969467217e+00	 3.4696387583e-01	 1.3535334737e+00
 2.8938117380e+00	 3.7220666021e-01	 1.3347842194e+00
 2.8904464701e+00	 3.9749635902e-01	 1.3148558267e+00
 2.8868492954e+00	 4.2283013624e-01	 1.2935979956e+00
 2.8830186317e+00	 4.4820511085e-01	 1.2710106474e+00
 2.8789529390e+00	 4.7361835733e-01	 1.2471034969e+00
 2.8746507198e+00	 4.9906690630e-01	 1.2218960057e+00
 2.9189394459e+00	 2.4751094744e-01	 1.4052425258e+00
 2.9166996133e+00	 2.7263954424e-01	 1.3912820775e+00
 2.9142354655e+00	 2.9782617181e-01	 1.3760964515e+00
 2.9115452235e+00	 3.2306816867e-01	 1.3597336651e+00
 2.9086271438e+00	 3.4836282614e-01	 1.3422517693e+00
 2.9054795200e+00	 3.7370738885e-01	 1.3237171032e+00
 2.9021006834e+00	 3.9909905513e-01	 1.3039707403e+00
 2.8984890049e+00	 4.2453497756e-01	 1.2828871312e+00
 2.8946428961e+00	 4.5001226348e-01	 1.2604753250e+00
 2.8905608106e+00	 4.7552797558e-01	 1.2367553861e+00
 2.8862412450e+00	 5.0107913251e-01	 1.2117584629e+00
 2.9306613398e+00	 2.4850490333e-01	 1.3931310144e+00
 2.9284125125e+00	 2.7373441169e-01	 1.3795355390e+00
 2.9259384691e+00	 2.9902218387e-01	 1.3646687186e+00
 2.9232374236e+00	 3.2436554768e-01	 1.3485816058e+00
 2.9203076255e+00	 3.4976178359e-01	 1.3313367054e+00
 2.9171473614e+00	 3.7520812514e-01	 1.3130032784e+00
 2.9137549561e+00	 4.0070175942e-01	 1.2934139597e+00
 2.9101287738e+00	 4.2623982757e-01	 1.2724692848e+00
 2.9062672198e+00	 4.5181942533e-01	 1.2501897107e+00
 2.9021687414e+00	 4.7743760357e-01	 1.2266079209e+00
 2.8978318293e+00	 5.0309136899e-01	 1.2017690081e+00
 2.9423833167e+00	 2.4949886625e-01	 1.3813389626e+00
 2.9401254946e+00	 2.7482928690e-01	 1.3681705167e+00
 2.9376415556e+00	 3.0021820440e-01	 1.3536662996e+00
 2.9349297066e+00	 3.2566293588e-01	 1.3378812413e+00
 2.9319881900e+00	 3.5116075094e-01	 1.3208831402e+00
 2.9288152855e+00	 3.7670887206e-01	 1.3027438495e+00
 2.9254093113e+00	 4.0230447506e-01	 1.2832918152e+00
 2.9217686252e+00	 4.2794468966e-01	 1.2624548633e+00
 2.9178916258e+00	 4.5362659997e-01	 1.2402670769e+00
 2.9137767544e+00	 4.7934724509e-01	 1.2167759653e+00
 2.9094224957e+00	 5.0510361972e-01	 1.1920427632e+00
 2.9541053999e+00	 2.5049283820e-01	 1.3699258368e+00
 2.9518385830e+00	 2.7592417203e-01	 1.3572563372e+00
 2.9493447483e+00	 3.0141423577e-01	 1.3431676231e+00
 2.9466220956e+00	 3.2696033585e-01	 1.3277192299e+00
 2.9436688603e+00	 3.5255973098e-01	 1.3109849745e+00
 2.9404833154e+00	 3.7820963258e-01	 1.2930389211e+00
 2.9370637723e+00	 4.0390720524e-01	 1.2737095904e+00
 2.9334085821e+00	 4.2964956721e-01	 1.2529531950e+00
 2.9295161373e+00	 4.5543379101e-01	 1.2308195988e+00
 2.9253848727e+00	 4.8125690392e-01	 1.2073732832e+00
 2.9210132672e+00	 5.0711588869e-01	 1.1826937606e+00
 2.9658276127e+00	 2.5148682112e-01	 1.3592637033e+00
 2.9635518007e+00	 2.7701906927e-01	 1.3468732242e+00
 2.9610480703e+00	 3.0261028036e-01	 1.3332503206e+00
 2.9583146137e+00	 3.2825775016e-01	 1.3181813542e+00
 2.9553496598e+00	 3.5395872648e-01	 1.3017351658e+00
 2.9521514743e+00	 3.7971040969e-01	 1.2839876106e+00
 2.9487183620e+00	 4.0550995312e-01	 1.2647715369e+00
 2.9450486676e+00	 4.3135446360e-01	 1.2440725437e+00
 2.9411407771e+00	 4.5724100201e-01	 1.2219583698e+00
 2.9369931193e+00	 4.8316658386e-01	 1.1985125521e+00
 2.9326041667e+00	 5.0912817990e-01	 1.1738349572e+00
 2.9775499782e+00	 2.5248081700e-01	 1.3567331766e+00
 2.9752651712e+00	 2.7811398077e-01	 1.3427043676e+00
 2.9727515448e+00	 3.0380634054e-01	 1.3274213748e+00
 2.9700072843e+00	 3.2955518137e-01	 1.3110503358e+00
 2.9670306114e+00	 3.5535774022e-01	 1.2937633883e+00
 2.9638197852e+00	 3.8121120636e-01	 1.2757094451e+00
 2.9603731036e+00	 4.0711272189e-01	 1.2565808873e+00
 2.9566889048e+00	 4.3305938221e-01	 1.2359201237e+00
 2.9527655685e+00	 4.5904823657e-01	 1.2137934153e+00
 2.9486015172e+00	 4.8507628868e-01	 1.1903053782e+00
 2.9441952174e+00	 5.1114049734e-01	 1.1655782482e+00
 2.9892725198e+00	 2.5347482781e-01	 1.3654331147e+00
 2.9869787175e+00	 2.7920890872e-01	 1.3494512703e+00
 2.9844551950e+00	 3.0500241868e-01	 1.3320308538e+00
 2.9817001305e+00	 3.3085263207e-01	 1.3133734585e+00
 2.9787117385e+00	 3.5675677496e-01	 1.2936864124e+00
 2.9754882713e+00	 3.8271202557e-01	 1.2731449673e+00
 2.9720280202e+00	 4.0871551473e-01	 1.2516834513e+00
 2.9683293169e+00	 4.3476432642e-01	 1.2294120925e+00
 2.9643905345e+00	 4.6085549826e-01	 1.2064862324e+00
 2.9602100894e+00	 4.8698602218e-01	 1.1828623095e+00
 2.9557864420e+00	 5.1315284500e-01	 1.1580344801e+00
 2.8398792692e+00	 4.9303024934e-01	 1.2520293011e+00
 2.8353947707e+00	 5.1819859458e-01	 1.2243950013e+00
 2.8306738599e+00	 5.4339581847e-01	 1.1952580157e+00
 2.8257151913e+00	 5.6861887004e-01	 1.1647475843e+00
 2.8205174669e+00	 5.9386465797e-01	 1.1329935776e+00
 2.8150794374e+00	 6.1913005138e-01	 1.1001238334e+00
 2.8093999034e+00	 6.4441188071e-01	 1.0662609548e+00
 2.8034777166e+00	 6.6970693854e-01	 1.0315185318e+00
 2.7973117808e+00	 6.9501198057e-01	 9.9599675432e-01
 2.7909010533e+00	 7.2032372652e-01	 9.5977738159e-01
 2.7842445460e+00	 7.4563886117e-01	 9.2290627169e-01
 2.8514697549e+00	 4.9504246870e-01	 1.2421493349e+00
 2.8469669537e+00	 5.2031353428e-01	 1.2149082017e+00
 2.8422267753e+00	 5.4561359637e-01	 1.1861715845e+00
 2.8372478687e+00	 5.7093959155e-01	 1.1560542507e+00
 2.8320289307e+00	 5.9628841588e-01	 1.1246733491e+00
 2.8265687068e+00	 6.2165692571e-01	 1.0921458517e+00
 2.8208659928e+00	 6.4704193854e-01	 1.0585854434e+00
 2.8149196355e+00	 6.7244023387e-01	 1.0240988250e+00
 2.8087285345e+00	 6.9784855413e-01	 9.8878139239e-01
 2.8022916428e+00	 7.2326360568e-01	 9.5271225804e-01
 2.7956079681e+00	 7.4868205976e-01	 9.1591868183e-01
 2.8630602308e+00	 4.9705468636e-01	 1.2320654109e+00
 2.8585391269e+00	 5.2242847219e-01	 1.2051685263e+00
 2.8537796809e+00	 5.4783137239e-01	 1.1767900135e+00
 2.8487805364e+00	 5.7326031109e-01	 1.1470305524e+00
 2.8435403848e+00	 5.9871217173e-01	 1.1159950529e+00
 2.8380579665e+00	 6.2418379790e-01	 1.0837902045e+00
 2.8323320724e+00	 6.4967199414e-01	 1.0505214638e+00
 2.8263615448e+00	 6.7517352686e-01	 1.0162894413e+00
 2.8201452786e+00	 7.0068512528e-01	 9.8118565049e-01
 2.8136822225e+00	 7.2620348234e-01	 9.4528758497e-01
 2.8069713805e+00	 7.5172525576e-01	 9.0859764644e-01
 2.8746507198e+00	 4.9906690630e-01	 1.2218960057e+00
 2.8701113132e+00	 5.2454341249e-01	 1.1952940492e+00
 2.8653325996e+00	 5.5004915092e-01	 1.1672311289e+00
 2.8603132171e+00	 5.7558103325e-01	 1.1377941943e+00
 2.8550518519e+00	 6.0113593033e-01	 1.1070763713e+00
 2.8495472392e+00	 6.2671067295e-01	 1.0751746248e+00
 2.8437981651e+00	 6.5230205271e-01	 1.0421868470e+00
 2.8378034670e+00	 6.7790682296e-01	 1.0082083320e+00
 2.8315620356e+00	 7.0352169965e-01	 9.7332759972e-01
 2.8250728152e+00	 7.2914336234e-01	 9.3762153032e-01
 2.8183348058e+00	 7.5476845521e-01	 9.0106209943e-01
 2.8862412450e+00	 5.0107913251e-01	 1.2117584629e+00
 2.8816835356e+00	 5.2665835938e-01	 1.1854017274e+00
 2.8768855544e+00	 5.5226693636e-01	 1.1576116451e+00
 2.8718459338e+00	 5.7790176265e-01	 1.1284617642e+00
 2.8665633548e+00	 6.0355969648e-01	 1.0980338547e+00
 2.8610365477e+00	 6.2923755587e-01	 1.0664156874e+00
 2.8552642934e+00	 6.5493211949e-01	 1.0336982283e+00
 2.8492454249e+00	 6.8064012758e-01	 9.9997220510e-01
 2.8429788282e+00	 7.0635828285e-01	 9.6532400876e-01
 2.8364634434e+00	 7.3208325150e-01	 9.2983088939e-01
 2.8296982665e+00	 7.5781166415e-01	 8.9342949737e-01
 2.8978318293e+00	 5.0309136899e-01	 1.2017690081e+00
 2.8932558170e+00	 5.2877331707e-01	 1.1756074146e+00
 2.8884385680e+00	 5.5448473311e-01	 1.1480471781e+00
 2.8833787093e+00	 5.8022250389e-01	 1.1191487466e+00
 2.8780749165e+00	 6.0598347500e-01	 1.0889829337e+00
 2.8725259148e+00	 6.3176445168e-01	 1.0576288207e+00
 2.8667304803e+00	 6.5756219968e-01	 1.0251710596e+00
 2.8606874412e+00	 6.8337344614e-01	 9.9169653667e-01
 2.8543956790e+00	 7.0919488053e-01	 9.5729035498e-01
 2.8478541297e+00	 7.3502315565e-01	 9.2203109574e-01
 2.8410617851e+00	 7.6085488862e-01	 8.8581582969e-01
 2.9094224957e+00	 5.0510361972e-01	 1.1920427632e+00
 2.9048281804e+00	 5.3088828973e-01	 1.1660258752e+00
 2.8999916635e+00	 5.5670254558e-01	 1.1386522590e+00
 2.8949115665e+00	 5.8254326157e-01	 1.1099695344e+00
 2.8895865598e+00	 6.0840727069e-01	 1.0800379314e+00
 2.8840153633e+00	 6.3429136540e-01	 1.0489283186e+00
 2.8781967484e+00	 6.6019229851e-01	 1.0167196204e+00
 2.8721295385e+00	 6.8610678406e-01	 9.8349558176e-01
 2.8658126107e+00	 7.1203149830e-01	 9.4934083531e-01
 2.8592448967e+00	 7.3796308063e-01	 9.1433623191e-01
 2.8524253843e+00	 7.6389813464e-01	 8.7833562865e-01
 2.9210132672e+00	 5.0711588869e-01	 1.1826937606e+00
 2.9164006487e+00	 5.3300328157e-01	 1.1567707974e+00
 2.9115448637e+00	 5.5892037815e-01	 1.1295403461e+00
 2.9064445283e+00	 5.8486404029e-01	 1.1010374418e+00
 2.9010983074e+00	 6.1083108835e-01	 1.0713120751e+00
 2.8955049160e+00	 6.3681830203e-01	 1.0404273516e+00
 2.8896631204e+00	 6.6282242118e-01	 1.0084570290e+00
 2.8835717395e+00	 6.8884014677e-01	 9.7548238543e-01
 2.8772296459e+00	 7.1486814179e-01	 9.4158837689e-01
 2.8706357670e+00	 7.4090303227e-01	 9.0685902493e-01
 2.8637890865e+00	 7.6694140825e-01	 8.7110197911e-01
 2.9326041667e+00	 5.0912817990e-01	 1.1738349572e+00
 2.9279732449e+00	 5.3511829678e-01	 1.1479548070e+00
 2.9230981916e+00	 5.6113823523e-01	 1.1208238383e+00
 2.9179776175e+00	 5.8718484466e-01	 1.0924647161e+00
 2.9126101822e+00	 6.1325493280e-01	 1.0629175077e+00
 2.9069945956e+00	 6.3934526658e-01	 1.0322379786e+00
 2.9011296192e+00	 6.6545257291e-01	 1.0004952534e+00
 2.8950140670e+00	 6.9157353968e-01	 9.6776879335e-01
 2.8886468072e+00	 7.1770481663e-01	 9.3414464748e-01
 2.8820267631e+00	 7.4384301640e-01	 8.9970722578e-01
 2.8751529142e+00	 7.6998471550e-01	 8.6422652805e-01
 2.9441952174e+00	 5.1114049734e-01	 1.1655782482e+00
 2.9395459919e+00	 5.3723333956e-01	 1.1396894799e+00
 2.9346516701e+00	 5.6335612122e-01	 1.1126140871e+00
 2.9295108570e+00	 5.8950567927e-01	 1.0843625498e+00
 2.9241222071e+00	 6.1567880885e-01	 1.0549652997e+00
 2.9184844250e+00	 6.4187226407e-01	 1.0244711575e+00
 2.9125962674e+00	 6.6808275893e-01	 9.9294512205e-01
 2.9064565436e+00	 6.9430696822e-01	 9.6046546229e-01
 2.9000641174e+00	 7.2054152845e-01	 9.2712006578e-01
 2.8934179077e+00	 7.4678303885e-01	 8.9298856999e-01
 2.8865168901e+00	 7.7302806241e-01	 8.5781949384e-01
 2.9557864420e+00	 5.1315284500e-01	 1.1580344801e+00
 2.9511189127e+00	 5.3934841410e-01	 1.1320853552e+00
 2.9462053221e+00	 5.6557404052e-01	 1.1050214088e+00
 2.9410442698e+00	 5.9182654874e-01	 1.0768410920e+00
 2.9356344048e+00	 6.1810272129e-01	 1.0475654601e+00
 2.9299744269e+00	 6.4439929950e-01	 1.0172367562e+00
 2.9240630878e+00	 6.7071298445e-01	 9.8591633448e-01
 2.9178991921e+00	 6.9704043781e-01	 9.5368187038e-01
 2.9114815990e+00	 7.2337828286e-01	 9.2062381139e-01
 2.9048092234e+00	 7.4972310544e-01	 8.8681248254e-01
 2.8978810366e+00	 7.7607145503e-01	 8.5198967542e-01
 2.7842445460e+00	 7.4563886117e-01	 9.2290627169e-01
 2.7773413271e+00	 7.7095403571e-01	 8.8518505629e-01
 2.7701905239e+00	 7.9626586994e-01	 8.4662402672e-01
 2.7627913223e+00	 8.2157095235e-01	 8.0725505032e-01
 2.7551429669e+00	 8.4686584093e-01	 7.6709715739e-01
 2.7472447625e+00	 8.7214706437e-01	 7.2615461819e-01
 2.7390960749e+00	 8.9741112324e-01	 6.8441496883e-01
 2.7306963316e+00	 9.2265449129e-01	 6.4184700091e-01
 2.7220450232e+00	 9.4787361672e-01	 5.9839873032e-01
 2.7131417040e+00	 9.7306492350e-01	 5.5399536102e-01
 2.7039859931e+00	 9.9822481275e-01	 5.0853725984e-01
 2.7956079681e+00	 7.4868205976e-01	 9.1591868183e-01
 2.7886765749e+00	 7.7410055389e-01	 8.7818491581e-01
 2.7814965869e+00	 7.9951569408e-01	 8.3960287004e-01
 2.7740671866e+00	 8.2492405489e-01	 8.0022769462e-01
 2.7663876158e+00	 8.5032218028e-01	 7.6010189242e-01
 2.7584571762e+00	 8.7570658474e-01	 7.1925328171e-01
 2.7502752311e+00	 9.0107375458e-01	 6.7769290569e-01
 2.7418412057e+00	 9.2642014916e-01	 6.3541290414e-01
 2.7331545884e+00	 9.5174220217e-01	 5.9238436322e-01
 2.7242149318e+00	 9.7703632300e-01	 5.4855515950e-01
 2.7150218534e+00	 1.0022988981e+00	 5.0384781515e-01
 2.8069713805e+00	 7.5172525576e-01	 9.0859764644e-01
 2.8000118130e+00	 7.7724706940e-01	 8.7089633837e-01
 2.7928026402e+00	 8.0276551546e-01	 8.3233824309e-01
 2.7853430414e+00	 8.2827715459e-01	 7.9299808763e-01
 2.7776322551e+00	 8.5377851668e-01	 7.5293813934e-01
 2.7696695804e+00	 8.7926610208e-01	 7.1220605725e-01
 2.7614543778e+00	 9.0473638281e-01	 6.7083268831e-01
 2.7529860703e+00	 9.3018580383e-01	 6.2882982431e-01
 2.7442641442e+00	 9.5561078434e-01	 5.8618793586e-01
 2.7352881503e+00	 9.8100771913e-01	 5.4287390024e-01
 2.7260577044e+00	 1.0063729799e+00	 4.9882874036e-01
 2.8183348058e+00	 7.5476845521e-01	 9.0106209943e-01
 2.8113470639e+00	 7.8039358848e-01	 8.6343812155e-01
 2.8041087064e+00	 8.0601534053e-01	 8.2494885303e-01
 2.7966189089e+00	 8.3163025809e-01	 7.8568495848e-01
 2.7888769072e+00	 8.5723485701e-01	 7.4572482843e-01
 2.7808819973e+00	 8.8282562347e-01	 7.0513232237e-01
 2.7726335372e+00	 9.0839901520e-01	 6.6395445475e-01
 2.7641309476e+00	 9.3395146277e-01	 6.2221904029e-01
 2.7553737126e+00	 9.5947937089e-01	 5.7993231535e-01
 2.7463613813e+00	 9.8497911975e-01	 5.3707655290e-01
 2.7370935679e+00	 1.0104470664e+00	 4.9360768869e-01
 2.8296982665e+00	 7.5781166415e-01	 8.9342949737e-01
 2.8226823502e+00	 7.8354011736e-01	 8.5592751618e-01
 2.8154148078e+00	 8.0926517572e-01	 8.1755178652e-01
 2.8078948116e+00	 8.3498337204e-01	 7.7840533707e-01
 2.8001215943e+00	 8.6069120811e-01	 7.3857910637e-01
 2.7920944491e+00	 8.8638515594e-01	 6.9814958041e-01
 2.7838127315e+00	 9.1206165900e-01	 6.5717637132e-01
 2.7752758595e+00	 9.3771713344e-01	 6.1569975405e-01
 2.7664833156e+00	 9.6334796950e-01	 5.7373817840e-01
 2.7574346468e+00	 9.8895053276e-01	 5.3128577431e-01
 2.7481294659e+00	 1.0145211656e+00	 4.8830986854e-01
 2.8410617851e+00	 7.6085488862e-01	 8.8581582969e-01
 2.8340176943e+00	 7.8668666229e-01	 8.4848023693e-01
 2.8267209668e+00	 8.1251502749e-01	 8.1026252078e-01
 2.8191707719e+00	 8.3833650309e-01	 7.7127456573e-01
 2.8113663388e+00	 8.6414757684e-01	 7.3161634869e-01
 2.8033069582e+00	 8.8994470658e-01	 6.9137347382e-01
 2.7949919827e+00	 9.1572432148e-01	 6.5061464683e-01
 2.7864208284e+00	 9.4148282333e-01	 6.0938910609e-01
 2.7775929753e+00	 9.6721658784e-01	 5.6772402827e-01
 2.7685079688e+00	 9.9292196603e-01	 5.2562192708e-01
 2.7591654200e+00	 1.0185952856e+00	 4.8305806386e-01
 2.8524253843e+00	 7.6389813464e-01	 8.7833562865e-01
 2.8453531187e+00	 7.8983322952e-01	 8.4121047267e-01
 2.8380272060e+00	 8.1576490229e-01	 8.0319493445e-01
 2.8304468120e+00	 8.4168965790e-01	 7.6440631071e-01
 2.8226111629e+00	 8.6760397005e-01	 7.2495017190e-01
 2.8145195466e+00	 8.9350428243e-01	 6.8491779708e-01
 2.8061713132e+00	 9.1938700991e-01	 6.4438354667e-01
 2.7975658762e+00	 9.4524853989e-01	 6.0340219073e-01
 2.7887027137e+00	 9.7108523359e-01	 5.6200621131e-01
 2.7795813692e+00	 9.9689342743e-01	 5.2020309771e-01
 2.7702014524e+00	 1.0226694344e+00	 4.7797265411e-01
 2.8637890865e+00	 7.6694140825e-01	 8.7110197911e-01
 2.8566886459e+00	 7.9297982527e-01	 8.3423089658e-01
 2.8493335476e+00	 8.1901480655e-01	 7.9646131819e-01
 2.8417229543e+00	 8.4504284311e-01	 7.5791257329e-01
 2.8338560890e+00	 8.7106039461e-01	 7.1869244532e-01
 2.8257322367e+00	 8.9706389055e-01	 6.7889450948e-01
 2.8173507450e+00	 9.2304973155e-01	 6.3859540646e-01
 2.8087110250e+00	 9.4901429059e-01	 5.9785207090e-01
 2.7998125528e+00	 9.7495391442e-01	 5.5669893318e-01
 2.7906548701e+00	 1.0008649248e+00	 5.1514511435e-01
 2.7812375849e+00	 1.0267436201e+00	 4.7317163379e-01
 2.8751529142e+00	 7.6998471550e-01	 8.6422652805e-01
 2.8680242983e+00	 7.9612645580e-01	 8.2765267612e-01
 2.8606400142e+00	 8.2226474672e-01	 7.9017238508e-01
 2.8529992212e+00	 8.4839606537e-01	 7.5190370073e-01
 2.8451011394e+00	 8.7451685736e-01	 7.1295330275e-01
 2.8369450508e+00	 9.0062353801e-01	 6.7341374746e-01
 2.8285303003e+00	 9.2671249366e-01	 6.3336064543e-01
 2.8198562970e+00	 9.5278008291e-01	 5.9284979262e-01
 2.8109225147e+00	 9.7882263800e-01	 5.5191427466e-01
 2.8017284933e+00	 1.0048364661e+00	 5.1056156413e-01
 2.7922738392e+00	 1.0308178509e+00	 4.6877063149e-01
 2.8865168901e+00	 7.7302806241e-01	 8.5781949384e-01
 2.8793600985e+00	 7.9927312734e-01	 8.2158548263e-01
 2.8719466282e+00	 8.2551472926e-01	 7.8443728065e-01
 2.8642756351e+00	 8.5174933135e-01	 7.4648839697e-01
 2.8563463363e+00	 8.7797336516e-01	 7.0784115375e-01
 2.8481580109e+00	 9.0418323187e-01	 6.6858383681e-01
 2.8397100014e+00	 9.3037530352e-01	 6.2878777948e-01
 2.8310017143e+00	 9.5654592432e-01	 5.8850439925e-01
 2.8220326214e+00	 9.8269141200e-01	 5.4776220709e-01
 2.8128022608e+00	 1.0088080592e+00	 5.0656381012e-01
 2.8033102375e+00	 1.0348921348e+00	 4.6488292855e-01
 2.8978810366e+00	 7.7607145503e-01	 8.5198967542e-01
 2.8906960689e+00	 8.0241984614e-01	 8.1613750083e-01
 2.8832534120e+00	 8.2876476060e-01	 7.7936359289e-01
 2.8755522184e+00	 8.5510264768e-01	 7.4177373301e-01
 2.8675917021e+00	 8.8142992487e-01	 7.0346269475e-01
 2.8593711395e+00	 9.0774297918e-01	 6.6451130447e-01
 2.8508898703e+00	 9.3403816837e-01	 6.2498343401e-01
 2.8421472989e+00	 9.6031182227e-01	 5.8492294531e-01
 2.8331428950e+00	 9.8656024410e-01	 5.4435060755e-01
 2.8238761946e+00	 1.0127797119e+00	 5.0326100787e-01
 2.8143468014e+00	 1.0389664799e+00	 4.6161947730e-01
 2.7039859931e+00	 9.9822481275e-01	 5.0853725984e-01
 2.6945759537e+00	 1.0233539322e+00	 4.6199725360e-01
 2.6849128703e+00	 1.0484443584e+00	 4.1463578182e-01
 2.6749965591e+00	 1.0734924292e+00	 3.6671214681e-01
 2.6648269043e+00	 1.0984944655e+00	 3.1844473188e-01
 2.6544038588e+00	 1.1234467721e+00	 2.7002311325e-01
 2.6437274448e+00	 1.1483456403e+00	 2.2174598494e-01
 2.6327977545e+00	 1.1731873483e+00	 1.7393743161e-01
 2.6216149507e+00	 1.1979681638e+00	 1.2690795641e-01
 2.6101792673e+00	 1.2226843450e+00	 8.0963365301e-02
 2.5984910099e+00	 1.2473321424e+00	 3.6407108534e-02
 2.7150218534e+00	 1.0022988981e+00	 5.0384781515e-01
 2.7055734086e+00	 1.0275305778e+00	 4.5818841376e-01
 2.6958708869e+00	 1.0527234063e+00	 4.1173515315e-01
 2.6859141040e+00	 1.0778737066e+00	 3.6468720814e-01
 2.6757029435e+00	 1.1029777844e+00	 3.1720417887e-01
 2.6652373581e+00	 1.1280319297e+00	 2.6943107076e-01
 2.6545173701e+00	 1.1530324183e+00	 2.2162603776e-01
 2.6435430721e+00	 1.1779755136e+00	 1.7405363758e-01
 2.6323146276e+00	 1.2028574678e+00	 1.2697065634e-01
 2.6208322715e+00	 1.2276745238e+00	 8.0631258157e-02
 2.6090963104e+00	 1.2524229171e+00	 3.5289467255e-02
 2.7260577044e+00	 1.0063729799e+00	 4.9882874036e-01
 2.7165708541e+00	 1.0317072198e+00	 4.5394547749e-01
 2.7068288943e+00	 1.0570024505e+00	 4.0830200579e-01
 2.6968316396e+00	 1.0822549802e+00	 3.6204596319e-01
 2.6865789734e+00	 1.1074610995e+00	 3.1528660951e-01
 2.6760708482e+00	 1.1326170833e+00	 2.6813603262e-01
 2.6653072863e+00	 1.1577191923e+00	 2.2081201311e-01
 2.6542883807e+00	 1.1827636747e+00	 1.7352889385e-01
 2.6430142955e+00	 1.2077467675e+00	 1.2649732282e-01
 2.6314852665e+00	 1.2326646984e+00	 7.9927168506e-02
 2.6197016019e+00	 1.2575136874e+00	 3.4030131179e-02
 2.7370935679e+00	 1.0104470664e+00	 4.9360768869e-01
 2.7275683122e+00	 1.0358838665e+00	 4.4939792626e-01
 2.7177869141e+00	 1.0612814996e+00	 4.0446525346e-01
 2.7077491877e+00	 1.0866362588e+00	 3.5891427431e-01
 2.6974550157e+00	 1.1119444197e+00	 3.1281229511e-01
 2.6869043506e+00	 1.1372022421e+00	 2.6624907823e-01
 2.6760972147e+00	 1.1624059717e+00	 2.1940285169e-01
 2.6650337014e+00	 1.1875518413e+00	 1.7244720626e-01
 2.6537139754e+00	 1.2126360729e+00	 1.2555413862e-01
 2.6421382737e+00	 1.2376548787e+00	 7.8896476064e-02
 2.6303069054e+00	 1.2626044635e+00	 3.2650605617e-02
 2.7481294659e+00	 1.0145211656e+00	 4.8830986854e-01
 2.7385658044e+00	 1.0400605263e+00	 4.4467267841e-01
 2.7287449680e+00	 1.0655605621e+00	 4.0035116729e-01
 2.7186667697e+00	 1.0910175510e+00	 3.5541532217e-01
 2.7083310919e+00	 1.1164277538e+00	 3.0989988742e-01
 2.6977378867e+00	 1.1417874152e+00	 2.6387837703e-01
 2.6868871767e+00	 1.1670927657e+00	 2.1749474126e-01
 2.6757790555e+00	 1.1923400229e+00	 1.7089003379e-01
 2.6644136888e+00	 1.2175253935e+00	 1.2420499599e-01
 2.6527913140e+00	 1.2426450745e+00	 7.7582577887e-02
 2.6409122420e+00	 1.2676952555e+00	 3.1170773801e-02
 2.7591654200e+00	 1.0185952856e+00	 4.8305806386e-01
 2.7495633528e+00	 1.0442372074e+00	 4.3989411118e-01
 2.7397030778e+00	 1.0698396463e+00	 3.9608339871e-01
 2.7295844074e+00	 1.0953988656e+00	 3.5166962885e-01
 2.7192072236e+00	 1.1209111108e+00	 3.0666451649e-01
 2.7085714781e+00	 1.1463726117e+00	 2.6112924468e-01
 2.6976771937e+00	 1.1717795835e+00	 2.1518117218e-01
 2.6865244645e+00	 1.1971282288e+00	 1.6893634242e-01
 2.6751134566e+00	 1.2224147390e+00	 1.2251154806e-01
 2.6634444087e+00	 1.2476352958e+00	 7.6026936357e-02
 2.6515176326e+00	 1.2727860734e+00	 2.9608940471e-02
 2.7702014524e+00	 1.0226694344e+00	 4.7797265411e-01
 2.7605609791e+00	 1.0484139180e+00	 4.3518408225e-01
 2.7506612652e+00	 1.0741187609e+00	 3.9178300189e-01
 2.7405021225e+00	 1.0997802112e+00	 3.4779508034e-01
 2.7300834322e+00	 1.1253944996e+00	 3.0321780635e-01
 2.7194051462e+00	 1.1509578407e+00	 2.5810419886e-01
 2.7084672872e+00	 1.1764664346e+00	 2.1255299243e-01
 2.6972699497e+00	 1.2019164687e+00	 1.6666265881e-01
 2.6858133003e+00	 1.2273041191e+00	 1.2053326006e-01
 2.6740975789e+00	 1.2526255524e+00	 7.4269127118e-02
 2.6621230984e+00	 1.2778769274e+00	 2.7981875582e-02
 2.7812375849e+00	 1.0267436201e+00	 4.7317163379e-01
 2.7715587051e+00	 1.0525906666e+00	 4.3066195083e-01
 2.7616195520e+00	 1.0783979143e+00	 3.8756845559e-01
 2.7514199365e+00	 1.1041615966e+00	 3.4390694859e-01
 2.7409597396e+00	 1.1298779291e+00	 2.9966852852e-01
 2.7302389126e+00	 1.1555431112e+00	 2.5490301456e-01
 2.7192574785e+00	 1.1811533282e+00	 2.0969846244e-01
 2.7080155322e+00	 1.2067047520e+00	 1.6414312356e-01
 2.6965132410e+00	 1.2321935436e+00	 1.1832746042e-01
 2.6847508456e+00	 1.2576158543e+00	 7.2346886978e-02
 2.6727286603e+00	 1.2829678275e+00	 2.6304858136e-02
 2.7922738392e+00	 1.0308178509e+00	 4.6877063149e-01
 2.7825565527e+00	 1.0567674612e+00	 4.2644459819e-01
 2.7725779599e+00	 1.0826771149e+00	 3.8355568468e-01
 2.7623378712e+00	 1.1085430303e+00	 3.4011791304e-01
 2.7518361671e+00	 1.1343614080e+00	 2.9612265666e-01
 2.7410727987e+00	 1.1601284325e+00	 2.5162277901e-01
 2.7300477891e+00	 1.1858402735e+00	 2.0670330942e-01
 2.7187612335e+00	 1.2114930882e+00	 1.6144954429e-01
 2.7072133000e+00	 1.2370830221e+00	 1.1594939159e-01
 2.6954042301e+00	 1.2626062113e+00	 7.0296161777e-02
 2.6833343394e+00	 1.2880587840e+00	 2.4591720123e-02
 2.8033102375e+00	 1.0348921348e+00	 4.6488292855e-01
 2.7935545435e+00	 1.0609443104e+00	 4.2264644784e-01
 2.7835365106e+00	 1.0869563714e+00	 3.7985808098e-01
 2.7732559482e+00	 1.1129245212e+00	 3.3653802062e-01
 2.7627127363e+00	 1.1388449454e+00	 2.9268342082e-01
 2.7519068260e+00	 1.1647138135e+00	 2.4835794617e-01
 2.7408382403e+00	 1.1905272800e+00	 2.0365078138e-01
 2.7295070748e+00	 1.2162814868e+00	 1.5865144842e-01
 2.7179134984e+00	 1.2419725643e+00	 1.1345226085e-01
 2.7060577534e+00	 1.2675966333e+00	 6.8151154216e-02
 2.6939401568e+00	 1.2931498067e+00	 2.2854890580e-02
 2.8143468014e+00	 1.0389664799e+00	 4.6161947730e-01
 2.8045526996e+00	 1.0651212222e+00	 4.1937948520e-01
 2.7944952259e+00	 1.0912356921e+00	 3.7658652387e-01
 2.7841741892e+00	 1.1173060779e+00	 3.3327404911e-01
 2.7735894689e+00	 1.1433285502e+00	 2.8945136112e-01
 2.7627410160e+00	 1.1692992633e+00	 2.4520039081e-01
 2.7516288535e+00	 1.1952143568e+00	 2.0062170089e-01
 2.7402530775e+00	 1.2210699573e+00	 1.5581613572e-01
 2.7286138574e+00	 1.2468621800e+00	 1.1088729083e-01
 2.7167114367e+00	 1.2725871303e+00	 6.5944371657e-02
 2.7045461334e+00	 1.2982409059e+00	 2.1105439759e-02
 2.5984910099e+00	 1.2473321424e+00	 3.6407108534e-02
 2.5865526069e+00	 1.2719036294e+00	-6.7525376806e-03
 2.5743625414e+00	 1.2963992426e+00	-5.0985357509e-02
 2.5619213343e+00	 1.3208152203e+00	-9.6532375187e-02
 2.5492295798e+00	 1.3451477998e+00	-1.4308027352e-01
 2.5362879455e+00	 1.3693932192e+00	-1.9023752587e-01
 2.5230971726e+00	 1.3935477194e+00	-2.3755073107e-01
 2.5096580763e+00	 1.4176075455e+00	-2.8452271403e-01
 2.4959715457e+00	 1.4415689487e+00	-3.3063232164e-01
 2.4820385439e+00	 1.4654281883e+00	-3.7535583076e-01
 2.4678601084e+00	 1.4891815331e+00	-4.1816961955e-01
 2.6090963104e+00	 1.2524229171e+00	 3.5289467255e-02
 2.5971091829e+00	 1.2770946884e+00	-8.5528801054e-03
 2.5848693656e+00	 1.3016902763e+00	-5.1366906417e-02
 2.5723773819e+00	 1.3262059037e+00	-9.5698024813e-02
 2.5596338281e+00	 1.3506377924e+00	-1.4142847518e-01
 2.5466393747e+00	 1.3749821655e+00	-1.8810359523e-01
 2.5333947659e+00	 1.3992352482e+00	-2.3520414590e-01
 2.5199008202e+00	 1.4233932704e+00	-2.8216496735e-01
 2.5061584303e+00	 1.4474524680e+00	-3.2839538251e-01
 2.4921685634e+00	 1.4714090850e+00	-3.7330126230e-01
 2.4779322610e+00	 1.4952593750e+00	-4.1625463103e-01
 2.6197016019e+00	 1.2575136874e+00	 3.4030131179e-02
 2.6076657498e+00	 1.2822857430e+00	-1.0682727776e-02
 2.5953761809e+00	 1.3069813055e+00	-5.3896994070e-02
 2.5828334205e+00	 1.3315965824e+00	-9.6709978010e-02
 2.5700380676e+00	 1.3561277804e+00	-1.4124782969e-01
 2.5569907951e+00	 1.3805711070e+00	-1.8709303753e-01
 2.5436923505e+00	 1.4049227721e+00	-2.3366936044e-01
 2.5301435554e+00	 1.4291789903e+00	-2.8035197027e-01
 2.5163453063e+00	 1.4533359822e+00	-3.2648845859e-01
 2.5022985743e+00	 1.4773899766e+00	-3.7142155663e-01
 2.4880044051e+00	 1.5013372118e+00	-4.1442349105e-01
 2.6303069054e+00	 1.2626044635e+00	 3.2650605617e-02
 2.6182223287e+00	 1.2874768035e+00	-1.2683500951e-02
 2.6058830081e+00	 1.3122723407e+00	-5.6744088968e-02
 2.5932894710e+00	 1.3369872674e+00	-9.9524845499e-02
 2.5804423188e+00	 1.3616177747e+00	-1.4250930452e-01
 2.5673422273e+00	 1.3861600548e+00	-1.8718210035e-01
 2.5539899467e+00	 1.4106103025e+00	-2.3292396834e-01
 2.5403863022e+00	 1.4349647168e+00	-2.7905856748e-01
 2.5265321939e+00	 1.4592195031e+00	-3.2487938835e-01
 2.5124285967e+00	 1.4833708750e+00	-3.6967222356e-01
 2.4980765605e+00	 1.5074150555e+00	-4.1262842464e-01
 2.6409122420e+00	 1.2676952555e+00	 3.1170773801e-02
 2.6287789405e+00	 1.2926678802e+00	-1.4558475965e-02
 2.6163898681e+00	 1.3175633924e+00	-5.9224192247e-02
 2.6037455542e+00	 1.3423779691e+00	-1.0277715632e-01
 2.5908466025e+00	 1.3671077860e+00	-1.4518427394e-01
 2.5776936917e+00	 1.3917490201e+00	-1.8834769795e-01
 2.5642875750e+00	 1.4162978505e+00	-2.3294656974e-01
 2.5506290810e+00	 1.4407504613e+00	-2.7826103083e-01
 2.5367191132e+00	 1.4651030424e+00	-3.2353793967e-01
 2.5225586506e+00	 1.4893517920e+00	-3.6800243615e-01
 2.5081487474e+00	 1.5134929181e+00	-4.1082405392e-01
 2.6515176326e+00	 1.2727860734e+00	 2.9608940471e-02
 2.6393356062e+00	 1.2978589833e+00	-1.6312153965e-02
 2.6268967817e+00	 1.3228544711e+00	-6.1360808936e-02
 2.6142016906e+00	 1.3477686983e+00	-1.0545474072e-01
 2.6012509393e+00	 1.3725978254e+00	-1.4849800848e-01
 2.5880452089e+00	 1.3973380138e+00	-1.9056754942e-01
 2.5745852559e+00	 1.4219854276e+00	-2.3371691459e-01
 2.5608719120e+00	 1.4465362353e+00	-2.7793720642e-01
 2.5469060845e+00	 1.4709866117e+00	-3.2243595920e-01
 2.5326887562e+00	 1.4953327395e+00	-3.6637963463e-01
 2.5182209856e+00	 1.5195708117e+00	-4.0896732029e-01
 2.6621230984e+00	 1.2778769274e+00	 2.7981875582e-02
 2.6498923466e+00	 1.3030501232e+00	-1.7950221300e-02
 2.6374037696e+00	 1.3281455873e+00	-6.3178337263e-02
 2.6246579011e+00	 1.3531594657e+00	-1.0759684763e-01
 2.6116553497e+00	 1.3780879036e+00	-1.5108716718e-01
 2.5983967995e+00	 1.4029270472e+00	-1.9351322474e-01
 2.5848830097e+00	 1.4276730450e+00	-2.3521604542e-01
 2.5711148156e+00	 1.4523220503e+00	-2.7806666119e-01
 2.5570931279e+00	 1.4768702226e+00	-3.2154752141e-01
 2.5428189336e+00	 1.5013137294e+00	-3.6477841529e-01
 2.5282932952e+00	 1.5256487484e+00	-4.0701740637e-01
 2.6727286603e+00	 1.2829678275e+00	 2.6304858136e-02
 2.6604491828e+00	 1.3082413102e+00	-1.9479509646e-02
 2.6479108529e+00	 1.3334367514e+00	-6.4702031496e-02
 2.6351142064e+00	 1.3585502819e+00	-1.0924335119e-01
 2.6220598545e+00	 1.3835780316e+00	-1.5297160378e-01
 2.6087484839e+00	 1.4085161312e+00	-1.9573780462e-01
 2.5951808569e+00	 1.4333607140e+00	-2.3737095474e-01
 2.5813578120e+00	 1.4581079178e+00	-2.7863082901e-01
 2.5672802637e+00	 1.4827538869e+00	-3.2084885791e-01
 2.5529492028e+00	 1.5072947736e+00	-3.6317528515e-01
 2.5383656961e+00	 1.5317267401e+00	-4.0493565790e-01
 2.6833343394e+00	 1.2880587840e+00	 2.4591720123e-02
 2.6710061356e+00	 1.3134325545e+00	-2.0907955851e-02
 2.6584180522e+00	 1.3387279740e+00	-6.5957964410e-02
 2.6455706273e+00	 1.3639411578e+00	-1.1043471458e-01
 2.6324644743e+00	 1.3890682203e+00	-1.5420231697e-01
 2.6191002827e+00	 1.4141052770e+00	-1.9710786866e-01
 2.6054788179e+00	 1.4390484458e+00	-2.3897644249e-01
 2.5916009216e+00	 1.4638938492e+00	-2.7961315630e-01
 2.5774675121e+00	 1.4886376162e+00	-3.2031486846e-01
 2.5630795840e+00	 1.5132758838e+00	-3.6154859153e-01
 2.5484382083e+00	 1.5378047991e+00	-4.0268550536e-01
 2.6939401568e+00	 1.2931498067e+00	 2.2854890580e-02
 2.6815632260e+00	 1.3186238666e+00	-2.2244561531e-02
 2.6689253885e+00	 1.3440192656e+00	-6.6972989360e-02
 2.6560271845e+00	 1.3693321039e+00	-1.1121195340e-01
 2.6428692297e+00	 1.3945584806e+00	-1.5483068774e-01
 2.6294522164e+00	 1.4196944956e+00	-1.9768126223e-01
 2.6157769131e+00	 1.4447362517e+00	-2.3959343704e-01
 2.6018441648e+00	 1.4696798561e+00	-2.8036923566e-01
 2.5876548933e+00	 1.4945214222e+00	-3.1993202239e-01
 2.5732100972e+00	 1.5192570720e+00	-3.5987845117e-01
 2.5585108518e+00	 1.5438829373e+00	-4.0023238552e-01
 2.7045461334e+00	 1.2982409059e+00	 2.1105439759e-02
 2.6921204750e+00	 1.3238152565e+00	-2.3499352404e-02
 2.6794328826e+00	 1.3493106366e+00	-6.7774701997e-02
 2.6664838986e+00	 1.3747231309e+00	-1.1161659857e-01
 2.6532741413e+00	 1.4000488233e+00	-1.5490844224e-01
 2.6398043056e+00	 1.4252837982e+00	-1.9751606452e-01
 2.6260751629e+00	 1.4504241431e+00	-2.3928242957e-01
 2.6120875617e+00	 1.4754659498e+00	-2.8002204231e-01
 2.5978424274e+00	 1.5004053166e+00	-3.1951037179e-01
 2.5833407625e+00	 1.5252383500e+00	-3.5814667916e-01
 2.5685836466e+00	 1.5499611667e+00	-3.9754366272e-01
 2.4678601084e+00	 1.4891815331e+00	-4.1816961955e-01
 2.4534373510e+00	 1.5128252642e+00	-4.5956563494e-01
 2.4387714600e+00	 1.5363556778e+00	-5.0045902445e-01
 2.4238636981e+00	 1.5597690859e+00	-5.4076262749e-01
 2.4087154019e+00	 1.5830618175e+00	-5.8041966030e-01
 2.3933279809e+00	 1.6062302206e+00	-6.1940602998e-01
 2.3777029181e+00	 1.6292706640e+00	-6.5773262341e-01
 2.3618417693e+00	 1.6521795387e+00	-6.9544757333e-01
 2.3457461623e+00	 1.6749532604e+00	-7.3263850439e-01
 2.3294177971e+00	 1.6975882707e+00	-7.6943476131e-01
 2.3128584450e+00	 1.7200810393e+00	-8.0600962147e-01
 2.4779322610e+00	 1.4952593750e+00	-4.1625463103e-01
 2.4634506395e+00	 1.5189996040e+00	-4.5770395204e-01
 2.4487248922e+00	 1.5426260530e+00	-4.9857331544e-01
 2.4337562869e+00	 1.5661350189e+00	-5.3877998376e-01
 2.4185461654e+00	 1.5895228159e+00	-5.7827068346e-01
 2.4030959433e+00	 1.6127857769e+00	-6.1702390753e-01
 2.3874071095e+00	 1.6359202559e+00	-6.5505219454e-01
 2.3714812260e+00	 1.6589226294e+00	-6.9240438699e-01
 2.3553199275e+00	 1.6817892981e+00	-7.2916787197e-01
 2.3389249209e+00	 1.7045166894e+00	-7.6547080701e-01
 2.3222979846e+00	 1.7271012584e+00	-8.0148433361e-01
 2.4880044051e+00	 1.5013372118e+00	-4.1442349105e-01
 2.4734639196e+00	 1.5251739386e+00	-4.5592382129e-01
 2.4586783160e+00	 1.5488964229e+00	-4.9678845066e-01
 2.4436488672e+00	 1.5725009466e+00	-5.3693267145e-01
 2.4283769205e+00	 1.5959838088e+00	-5.7630057801e-01
 2.4128638973e+00	 1.6193413277e+00	-6.1486736620e-01
 2.3971112925e+00	 1.6425698423e+00	-6.5264161046e-01
 2.3811206745e+00	 1.6656657143e+00	-6.8966752205e-01
 2.3648936846e+00	 1.6886253301e+00	-7.2602719181e-01
 2.3484320366e+00	 1.7114451023e+00	-7.6184282070e-01
 2.3317375162e+00	 1.7341214716e+00	-7.9727894111e-01
 2.4980765605e+00	 1.5074150555e+00	-4.1262842464e-01
 2.4834772110e+00	 1.5313482802e+00	-4.5416024080e-01
 2.4686317510e+00	 1.5551667999e+00	-4.9502516954e-01
 2.4535414587e+00	 1.5788668815e+00	-5.3513021193e-01
 2.4382076868e+00	 1.6024448090e+00	-5.7441075820e-01
 2.4226318625e+00	 1.6258968858e+00	-6.1283289197e-01
 2.4068154866e+00	 1.6492194361e+00	-6.5039567328e-01
 2.3907601340e+00	 1.6724088069e+00	-6.8713340418e-01
 2.3744674526e+00	 1.6954613698e+00	-7.2311788089e-01
 2.3579391631e+00	 1.7183735229e+00	-7.5846063601e-01
 2.3411770585e+00	 1.7411416927e+00	-7.9331517432e-01
 2.5081487474e+00	 1.5134929181e+00	-4.1082405392e-01
 2.4934905336e+00	 1.5375226410e+00	-4.5235089869e-01
 2.4785852171e+00	 1.5614371964e+00	-4.9320714728e-01
 2.4634340811e+00	 1.5852328362e+00	-5.3328526027e-01
 2.4480384838e+00	 1.6089058294e+00	-5.7250592123e-01
 2.4323998580e+00	 1.6324524645e+00	-6.1082035375e-01
 2.4165197109e+00	 1.6558690507e+00	-6.4821261804e-01
 2.4003996235e+00	 1.6791519205e+00	-6.8470189140e-01
 2.3840412504e+00	 1.7022974308e+00	-7.2034473676e-01
 2.3674463192e+00	 1.7253019652e+00	-7.5523736355e-01
 2.3506166302e+00	 1.7481619357e+00	-7.8951788454e-01
 2.5182209856e+00	 1.5195708117e+00	-4.0896732029e-01
 2.5035039073e+00	 1.5436970333e+00	-4.5043608677e-01
 2.4885387339e+00	 1.5677076249e+00	-4.9126090105e-01
 2.4733267539e+00	 1.5915988234e+00	-5.3131350486e-01
 2.4578693309e+00	 1.6153668827e+00	-5.7049394145e-01
 2.4421679035e+00	 1.6390080765e+00	-6.0873289318e-01
 2.4262239848e+00	 1.6625186992e+00	-6.4599399930e-01
 2.4100391622e+00	 1.6858950685e+00	-6.8227615849e-01
 2.3936150970e+00	 1.7091335266e+00	-7.1761582093e-01
 2.3769535238e+00	 1.7322304428e+00	-7.5208927447e-01
 2.3600562500e+00	 1.7551822145e+00	-7.8581492907e-01
 2.5282932952e+00	 1.5256487484e+00	-4.0701740637e-01
 2.5135173520e+00	 1.5498714693e+00	-4.4835861412e-01
 2.4984923213e+00	 1.5739780979e+00	-4.8911569613e-01
 2.4832194968e+00	 1.5979648557e+00	-5.2913356723e-01
 2.4677002476e+00	 1.6218279819e+00	-5.6828576483e-01
 2.4519360181e+00	 1.6455637350e+00	-6.0647681486e-01
 2.4359283273e+00	 1.6691683948e+00	-6.4364457807e-01
 2.4196787692e+00	 1.6926382642e+00	-6.7976258185e-01
 2.4031890115e+00	 1.7159696709e+00	-7.1484234274e-01
 2.3864607958e+00	 1.7391589695e+00	-7.4893568449e-01
 2.3694959367e+00	 1.7622025430e+00	-7.8213705648e-01
 2.5383656961e+00	 1.5317267401e+00	-4.0493565790e-01
 2.5235308874e+00	 1.5560459614e+00	-4.4606372074e-01
 2.5084459989e+00	 1.5802486277e+00	-4.8670345233e-01
 2.4931123294e+00	 1.6043309457e+00	-5.2666690212e-01
 2.4775312535e+00	 1.6282891395e+00	-5.6579530374e-01
 2.4617042212e+00	 1.6521194529e+00	-6.0396147682e-01
 2.4456327579e+00	 1.6758181507e+00	-6.4107220914e-01
 2.4293184635e+00	 1.6993815211e+00	-6.7707062474e-01
 2.4127630127e+00	 1.7228058772e+00	-7.1193854361e-01
 2.3959681539e+00	 1.7460875590e+00	-7.4569883823e-01
 2.3789357091e+00	 1.7692229352e+00	-7.7841779218e-01
 2.5484382083e+00	 1.5378047991e+00	-4.0268550536e-01
 2.5335445335e+00	 1.5622205216e+00	-4.4349899112e-01
 2.5183997865e+00	 1.5865192268e+00	-4.8395865040e-01
 2.5030052713e+00	 1.6106971060e+00	-5.2383769775e-01
 2.4873623680e+00	 1.6347503686e+00	-5.6293933204e-01
 2.4714725323e+00	 1.6586752433e+00	-6.0109918149e-01
 2.4553372957e+00	 1.6824679801e+00	-6.3818772888e-01
 2.4389582644e+00	 1.7061248526e+00	-6.7411272291e-01
 2.4223371198e+00	 1.7296421590e+00	-7.0882158162e-01
 2.4054756171e+00	 1.7530162251e+00	-7.4230379386e-01
 2.3883755857e+00	 1.7762434050e+00	-7.7459332429e-01
 2.5585108518e+00	 1.5438829373e+00	-4.0023238552e-01
 2.5435583101e+00	 1.5683951624e+00	-4.4061426782e-01
 2.5283537038e+00	 1.5927899076e+00	-4.8081823858e-01
 2.5128983422e+00	 1.6170633494e+00	-5.2057277632e-01
 2.4971936106e+00	 1.6412116819e+00	-5.5963738045e-01
 2.4812409708e+00	 1.6652311191e+00	-5.9780506689e-01
 2.4650419600e+00	 1.6891178962e+00	-6.3490484336e-01
 2.4485981910e+00	 1.7128682719e+00	-6.7080417065e-01
 2.4319113516e+00	 1.7364785300e+00	-7.0541141649e-01
 2.4149832043e+00	 1.7599449815e+00	-7.3867830816e-01
 2.3978155853e+00	 1.7832639663e+00	-7.7060238974e-01
 2.5685836466e+00	 1.5499611667e+00	-3.9754366272e-01
 2.5535722370e+00	 1.5745698959e+00	-4.3736156502e-01
 2.5383077706e+00	 1.5990606826e+00	-4.7722153930e-01
 2.5227915616e+00	 1.6234296883e+00	-5.1680149467e-01
 2.5070250009e+00	 1.6476730923e+00	-5.5581163219e-01
 2.4910095559e+00	 1.6717870934e+00	-5.9399699824e-01
 2.4747467700e+00	 1.6957679122e+00	-6.3114001674e-01
 2.4582382623e+00	 1.7196117925e+00	-6.6706300714e-01
 2.4414857272e+00	 1.7433150036e+00	-7.0163069496e-01
 2.4244909342e+00	 1.7668738419e+00	-7.3475272176e-01
 2.4072557267e+00	 1.7902846330e+00	-7.6638616067e-01
 2.3128584450e+00	 1.7200810393e+00	-8.0600962147e-01
 2.2960670762e+00	 1.7424318499e+00	-8.4113924758e-01
 2.2790484077e+00	 1.7646333846e+00	-8.7352713085e-01
 2.2618044319e+00	 1.7866821930e+00	-9.0334637666e-01
 2.2443372104e+00	 1.8085748593e+00	-9.3084664321e-01
 2.2266488726e+00	 1.8303080044e+00	-9.5635657601e-01
 2.2087416157e+00	 1.8518782877e+00	-9.8039516601e-01
 2.1906177030e+00	 1.8732824084e+00	-1.0032419029e+00
 2.1722794636e+00	 1.8945171075e+00	-1.0247063164e+00
 2.1537292909e+00	 1.9155791692e+00	-1.0448970148e+00
 2.1349696422e+00	 1.9364654226e+00	-1.0638433804e+00
 2.3222979846e+00	 1.7271012584e+00	-8.0148433361e-01
 2.3054380847e+00	 1.7495432900e+00	-8.3610671442e-01
 2.2883499574e+00	 1.7718354366e+00	-8.6815215911e-01
 2.2710356032e+00	 1.7939742335e+00	-8.9777425803e-01
 2.2534970922e+00	 1.8159562509e+00	-9.2520413695e-01
 2.2357365625e+00	 1.8377780962e+00	-9.5075294437e-01
 2.2177562201e+00	 1.8594364150e+00	-9.7477646516e-01
 2.1995583378e+00	 1.8809278929e+00	-9.9735506207e-01
 2.1811452539e+00	 1.9022492578e+00	-1.0186489514e+00
 2.1625193719e+00	 1.9233972808e+00	-1.0387663909e+00
 2.1436831588e+00	 1.9443687779e+00	-1.0577339618e+00
 2.3317375162e+00	 1.7341214716e+00	-7.9727894111e-01
 2.3148090852e+00	 1.7566547242e+00	-8.3136163593e-01
 2.2976514991e+00	 1.7790374825e+00	-8.6302539839e-01
 2.2802667667e+00	 1.8012662677e+00	-8.9240573743e-01
 2.2626569662e+00	 1.8233376363e+00	-9.1971658105e-01
 2.2448242446e+00	 1.8452481817e+00	-9.4525281333e-01
 2.2267708169e+00	 1.8669945358e+00	-9.6920701375e-01
 2.2084989649e+00	 1.8885733710e+00	-9.9148161297e-01
 2.1900110367e+00	 1.9099814016e+00	-1.0125614714e+00
 2.1713094453e+00	 1.9312153857e+00	-1.0325709162e+00
 2.1523966680e+00	 1.9522721265e+00	-1.0515344957e+00
 2.3411770585e+00	 1.7411416927e+00	-7.9331517432e-01
 2.3241800964e+00	 1.7637661663e+00	-8.2683889117e-01
 2.3069530514e+00	 1.7862395365e+00	-8.5809384739e-01
 2.2894979406e+00	 1.8085583102e+00	-8.8719888372e-01
 2.2718168506e+00	 1.8307190301e+00	-9.1435204486e-01
 2.2539119370e+00	 1.8527182756e+00	-9.3983272082e-01
 2.2357854238e+00	 1.8745526652e+00	-9.6362770685e-01
 2.2174396022e+00	 1.8962188577e+00	-9.8566741247e-01
 2.1988768295e+00	 1.9177135542e+00	-1.0064920444e+00
 2.1800995288e+00	 1.9390334995e+00	-1.0263601427e+00
 2.1611101871e+00	 1.9601754841e+00	-1.0452949566e+00
 2.3506166302e+00	 1.7481619357e+00	-7.8951788454e-01
 2.3335511367e+00	 1.7708776307e+00	-8.2247630793e-01
 2.3162546327e+00	 1.7934416129e+00	-8.5330730173e-01
 2.2987291433e+00	 1.8158503755e+00	-8.8211443200e-01
 2.2809767635e+00	 1.8381004468e+00	-9.0908115485e-01
 2.2629996578e+00	 1.8601883928e+00	-9.3443406518e-01
 2.2448000589e+00	 1.8821108181e+00	-9.5803529894e-01
 2.2263802673e+00	 1.9038643682e+00	-9.7994109436e-01
 2.2077426500e+00	 1.9254457308e+00	-1.0004867267e+00
 2.1888896396e+00	 1.9468516377e+00	-1.0201815683e+00
 2.1698237333e+00	 1.9680788662e+00	-1.0390633450e+00
 2.3600562500e+00	 1.7551822145e+00	-7.8581492907e-01
 2.3429222249e+00	 1.7779891313e+00	-8.1821454953e-01
 2.3255562615e+00	 1.8006437261e+00	-8.4861824247e-01
 2.3079603931e+00	 1.8231424779e+00	-8.7711567347e-01
 2.2901367232e+00	 1.8454819012e+00	-9.0387698549e-01
 2.2720874249e+00	 1.8676585481e+00	-9.2902879759e-01
 2.2538147400e+00	 1.8896690097e+00	-9.5243934265e-01
 2.2353209781e+00	 1.9115099178e+00	-9.7423217775e-01
 2.2166085157e+00	 1.9331779470e+00	-9.9458944765e-01
 2.1976797953e+00	 1.9546698158e+00	-1.0140806227e+00
 2.1785373240e+00	 1.9759822887e+00	-1.0328856748e+00
 2.3694959367e+00	 1.7622025430e+00	-7.8213705648e-01
 2.3522933794e+00	 1.7851006823e+00	-8.1399700195e-01
 2.3348579561e+00	 1.8078458904e+00	-8.4398172473e-01
 2.3171917083e+00	 1.8304346320e+00	-8.7216834530e-01
 2.2992967478e+00	 1.8528634079e+00	-8.9871458419e-01
 2.2811752564e+00	 1.8751287563e+00	-9.2361972975e-01
 2.2628294849e+00	 1.8972272547e+00	-9.4684902662e-01
 2.2442617521e+00	 1.9191555215e+00	-9.6853703848e-01
 2.2254744442e+00	 1.9409102178e+00	-9.8883207716e-01
 2.2064700132e+00	 1.9624880492e+00	-1.0081006538e+00
 2.1872509764e+00	 1.9838857672e+00	-1.0268059607e+00
 2.3789357091e+00	 1.7692229352e+00	-7.7841779218e-01
 2.3616646189e+00	 1.7922122978e+00	-8.0976966106e-01
 2.3441597351e+00	 1.8150481199e+00	-8.3935526638e-01
 2.3264231071e+00	 1.8377268522e+00	-8.6724052064e-01
 2.3084568554e+00	 1.8602449815e+00	-8.9354937621e-01
 2.2902631702e+00	 1.8825990323e+00	-9.1820940712e-01
 2.2718443115e+00	 1.9047855683e+00	-9.4127319153e-01
 2.2532026073e+00	 1.9268011945e+00	-9.6286974518e-01
 2.2343404531e+00	 1.9486425588e+00	-9.8314194509e-01
 2.2152603108e+00	 1.9703063536e+00	-1.0022829132e+00
 2.1959647078e+00	 1.9917893173e+00	-1.0208662061e+00
 2.3883755857e+00	 1.7762434050e+00	-7.7459332429e-01
 2.3710359619e+00	 1.7993239919e+00	-8.0548102013e-01
 2.3534616168e+00	 1.8222504290e+00	-8.3469873698e-01
 2.3356546080e+00	 1.8450191530e+00	-8.6230249862e-01
 2.3176170642e+00	 1.8676266367e+00	-8.8835857201e-01
 2.2993511845e+00	 1.8900693908e+00	-9.1280012422e-01
 2.2808592378e+00	 1.9123439654e+00	-9.3572034603e-01
 2.2621435612e+00	 1.9344469520e+00	-9.5724396822e-01
 2.2432065599e+00	 1.9563749853e+00	-9.7750962035e-01
 2.2240507056e+00	 1.9781247443e+00	-9.9666333513e-01
 2.2046785355e+00	 1.9996929548e+00	-1.0151063893e+00
 2.3978155853e+00	 1.7832639663e+00	-7.7060238974e-01
 2.3804074271e+00	 1.8064357787e+00	-8.0108195749e-01
 2.3627636198e+00	 1.8294528320e+00	-8.2997424673e-01
 2.3448862292e+00	 1.8523115489e+00	-8.5732665730e-01
 2.3267773924e+00	 1.8750083882e+00	-8.8313706945e-01
 2.3084393173e+00	 1.8975398467e+00	-9.0739393986e-01
 2.2898742815e+00	 1.9199024610e+00	-9.3019868248e-01
 2.2710846317e+00	 1.9420928092e+00	-9.5167299573e-01
 2.2520727823e+00	 1.9641075125e+00	-9.7195244003e-01
 2.2328412149e+00	 1.9859432369e+00	-9.9117976415e-01
 2.2133924768e+00	 2.0075966953e+00	-1.0095644506e+00
 2.4072557267e+00	 1.7902846330e+00	-7.6638616067e-01
 2.3897790330e+00	 1.8135476723e+00	-7.9652562437e-01
 2.3720657625e+00	 1.8366553432e+00	-8.2514603558e-01
 2.3541179890e+00	 1.8596040542e+00	-8.5227737788e-01
 2.3359378582e+00	 1.8823902504e+00	-8.7787963971e-01
 2.3175275865e+00	 1.9050104148e+00	-9.0199269228e-01
 2.2988894607e+00	 1.9274610701e+00	-9.2471609257e-01
 2.2800258364e+00	 1.9497387812e+00	-9.4616974934e-01
 2.2609391379e+00	 1.9718401558e+00	-9.6648732356e-01
 2.2416318563e+00	 1.9937618470e+00	-9.8580937058e-01
 2.2221065490e+00	 2.0155005545e+00	-1.0042762787e+00
 2.1349696422e+00	 1.9364654226e+00	-1.0638433804e+00
 2.1160062727e+00	 1.9571692446e+00	-1.0820748587e+00
 2.0968385629e+00	 1.9776911539e+00	-1.1000079107e+00
 2.0774691189e+00	 1.9980281588e+00	-1.1174011040e+00
 2.0579006057e+00	 2.0181773188e+00	-1.1339709402e+00
 2.0381357459e+00	 2.0381357459e+00	-1.1494051511e+00
 2.0181773188e+00	 2.0579006057e+00	-1.1633762332e+00
 1.9980281588e+00	 2.0774691189e+00	-1.1755551309e+00
 1.9776911539e+00	 2.0968385629e+00	-1.1856249777e+00
 1.9571692446e+00	 2.1160062727e+00	-1.1932948051e+00
 1.9364654226e+00	 2.1349696422e+00	-1.1983131262e+00
 2.1436831588e+00	 1.9443687779e+00	-1.0577339618e+00
 2.1246423935e+00	 1.9651570991e+00	-1.0760175156e+00
 2.1053964540e+00	 1.9857627650e+00	-1.0939760039e+00
 2.0859479569e+00	 2.0061827719e+00	-1.1113716723e+00
 2.0662995781e+00	 2.0264141674e+00	-1.1279236867e+00
 2.0464540514e+00	 2.0464540514e+00	-1.1433217980e+00
 2.0264141674e+00	 2.0662995781e+00	-1.1572402513e+00
 2.0061827719e+00	 2.0859479569e+00	-1.1693518483e+00
 1.9857627650e+00	 2.1053964540e+00	-1.1793420698e+00
 1.9651570991e+00	 2.1246423935e+00	-1.1869231634e+00
 1.9443687779e+00	 2.1436831588e+00	-1.1918481054e+00
 2.1523966680e+00	 1.9522721265e+00	-1.0515344957e+00
 2.1332785070e+00	 1.9731449467e+00	-1.0698549653e+00
 2.1139543378e+00	 1.9938343693e+00	-1.0878329101e+00
 2.0944267877e+00	 2.0143373782e+00	-1.1052327667e+00
 2.0746985433e+00	 2.0346510089e+00	-1.1217747491e+00
 2.0547723498e+00	 2.0547723498e+00	-1.1371488930e+00
 2.0346510089e+00	 2.0746985433e+00	-1.1510293497e+00
 2.0143373782e+00	 2.0944267877e+00	-1.1630888388e+00
 1.9938343693e+00	 2.1139543378e+00	-1.1730131617e+00
 1.9731449467e+00	 2.1332785070e+00	-1.1805156814e+00
 1.9522721265e+00	 2.1523966680e+00	-1.1853516722e+00
 2.1611101871e+00	 1.9601754841e+00	-1.0452949566e+00
 2.1419146303e+00	 1.9811328034e+00	-1.0636367106e+00
 2.1225122313e+00	 2.0019059827e+00	-1.0816268474e+00
 2.1029056280e+00	 2.0224919937e+00	-1.0990304930e+00
 2.0830975181e+00	 2.0428878598e+00	-1.1155672801e+00
 2.0630906577e+00	 2.0630906577e+00	-1.1309257800e+00
 2.0428878598e+00	 2.0830975181e+00	-1.1447781942e+00
 2.0224919937e+00	 2.1029056280e+00	-1.1567952068e+00
 2.0019059827e+00	 2.1225122313e+00	-1.1666609012e+00
 1.9811328034e+00	 2.1419146303e+00	-1.1740876424e+00
 1.9601754841e+00	 2.1611101871e+00	-1.1788308262e+00
 2.1698237333e+00	 1.9680788662e+00	-1.0390633450e+00
 2.1505507805e+00	 1.9891206850e+00	-1.0574103812e+00
 2.1310701515e+00	 2.0099776213e+00	-1.0754042805e+00
 2.1113844949e+00	 2.0306466346e+00	-1.0928093428e+00
 2.0914965191e+00	 2.0511247364e+00	-1.1093429738e+00
 2.0714089914e+00	 2.0714089914e+00	-1.1246905176e+00
 2.0511247364e+00	 2.0914965191e+00	-1.1385203548e+00
 2.0306466346e+00	 2.1113844949e+00	-1.1504991667e+00
 2.0099776213e+00	 2.1310701515e+00	-1.1603072664e+00
 1.9891206850e+00	 2.1505507805e+00	-1.1676538948e+00
 1.9680788662e+00	 2.1698237333e+00	-1.1722923809e+00
 2.1785373240e+00	 1.9759822887e+00	-1.0328856748e+00
 2.1591869748e+00	 1.9971086074e+00	-1.0512217223e+00
 2.1396281153e+00	 2.0180493010e+00	-1.0692099111e+00
 2.1198634049e+00	 2.0388013171e+00	-1.0866121829e+00
 2.0998955629e+00	 2.0593616550e+00	-1.1031420565e+00
 2.0797273676e+00	 2.0797273676e+00	-1.1184798697e+00
 2.0593616550e+00	 2.0998955629e+00	-1.1322882962e+00
 2.0388013171e+00	 2.1198634049e+00	-1.1442280324e+00
 2.0180493010e+00	 2.1396281153e+00	-1.1539735546e+00
 1.9971086074e+00	 2.1591869748e+00	-1.1612288399e+00
 1.9759822887e+00	 2.1785373240e+00	-1.1657429501e+00
 2.1872509764e+00	 1.9838857672e+00	-1.0268059607e+00
 2.1678232302e+00	 2.0050965863e+00	-1.0451145838e+00
 2.1481861398e+00	 2.0261210380e+00	-1.0630866668e+00
 2.1283423750e+00	 2.0469560573e+00	-1.0804802462e+00
 2.1082946662e+00	 2.0675986319e+00	-1.0970032769e+00
 2.0880458028e+00	 2.0880458028e+00	-1.1123292958e+00
 2.0675986319e+00	 2.1082946662e+00	-1.1261133677e+00
 2.0469560573e+00	 2.1283423750e+00	-1.1380082068e+00
 2.0261210380e+00	 2.1481861398e+00	-1.1476803709e+00
 2.0050965863e+00	 2.1678232302e+00	-1.1548264199e+00
 1.9838857672e+00	 2.1872509764e+00	-1.1591889337e+00
 2.1959647078e+00	 1.9917893173e+00	-1.0208662061e+00
 2.1764595639e+00	 2.0130846377e+00	-1.0391309083e+00
 2.1567442418e+00	 2.0341928481e+00	-1.0570756908e+00
 2.1368214220e+00	 2.0551108715e+00	-1.0744531209e+00
 2.1166938457e+00	 2.0758356835e+00	-1.0909638963e+00
 2.0963643133e+00	 2.0963643133e+00	-1.1062729415e+00
 2.0758356835e+00	 2.1166938457e+00	-1.1200257939e+00
 2.0551108715e+00	 2.1368214220e+00	-1.1318651718e+00
 2.0341928481e+00	 2.1567442418e+00	-1.1414476176e+00
 2.0130846377e+00	 2.1764595639e+00	-1.1484601053e+00
 1.9917893173e+00	 2.1959647078e+00	-1.1526365052e+00
 2.2046785355e+00	 1.9996929548e+00	-1.0151063893e+00
 2.1850959931e+00	 2.0210727773e+00	-1.0333107193e+00
 2.1653024384e+00	 2.0422647474e+00	-1.0512163309e+00
 2.1453005627e+00	 2.0632657759e+00	-1.0685687409e+00
 2.1250931180e+00	 2.0840728261e+00	-1.0850596790e+00
 2.1046829158e+00	 2.1046829158e+00	-1.1003436286e+00
 2.0840728261e+00	 2.1250931180e+00	-1.1140546640e+00
 2.0632657759e+00	 2.1453005627e+00	-1.1258234776e+00
 2.0422647474e+00	 2.1653024384e+00	-1.1352944827e+00
 2.0210727773e+00	 2.1850959931e+00	-1.1421428835e+00
 1.9996929548e+00	 2.2046785355e+00	-1.1460915980e+00
 2.2133924768e+00	 2.0075966953e+00	-1.0095644506e+00
 2.1937325348e+00	 2.0290610211e+00	-1.0276921091e+00
 2.1738607466e+00	 2.0503367519e+00	-1.0455461281e+00
 2.1537798139e+00	 2.0714207865e+00	-1.0628633745e+00
 2.1334924997e+00	 2.0923100761e+00	-1.0793248818e+00
 2.1130016267e+00	 2.1130016267e+00	-1.0945728450e+00
 2.0923100761e+00	 2.1334924997e+00	-1.1082279224e+00
 2.0714207865e+00	 2.1537798139e+00	-1.1199067323e+00
 2.0503367519e+00	 2.1738607466e+00	-1.1292394291e+00
 2.0290610211e+00	 2.1937325348e+00	-1.1358872466e+00
 2.0075966953e+00	 2.2133924768e+00	-1.1395598924e+00
 2.2221065490e+00	 2.0155005545e+00	-1.0042762787e+00
 2.2023692062e+00	 2.0370493848e+00	-1.0223112266e+00
 2.1824191833e+00	 2.0584088777e+00	-1.0401008051e+00
 2.1622591925e+00	 2.0795759195e+00	-1.0573716142e+00
 2.1418920076e+00	 2.1005474498e+00	-1.0737922437e+00
 2.1213204625e+00	 2.1213204625e+00	-1.0889907348e+00
 2.1005474498e+00	 2.1418920076e+00	-1.1025723581e+00
 2.0795759195e+00	 2.1622591925e+00	-1.1141375918e+00
 2.0584088777e+00	 2.1824191833e+00	-1.1233001834e+00
 2.0370493848e+00	 2.2023692062e+00	-1.1297051793e+00
 2.0155005545e+00	 2.2221065490e+00	-1.1330468026e+00
 1.9364654226e+00	 2.1349696422e+00	-1.1983131262e+00
 1.9155791692e+00	 2.1537292909e+00	-1.2011623371e+00
 1.8945171075e+00	 2.1722794636e+00	-1.2023907284e+00
 1.8732824084e+00	 2.1906177030e+00	-1.2019368991e+00
 1.8518782877e+00	 2.2087416157e+00	-1.1998181550e+00
 1.8303080044e+00	 2.2266488726e+00	-1.1951886756e+00
 1.8085748593e+00	 2.2443372104e+00	-1.1886100669e+00
 1.7866821930e+00	 2.2618044319e+00	-1.1810989054e+00
 1.7646333846e+00	 2.2790484077e+00	-1.1731281732e+00
 1.7424318499e+00	 2.2960670762e+00	-1.1650636681e+00
 1.7200810393e+00	 2.3128584450e+00	-1.1571684104e+00
 1.9443687779e+00	 2.1436831588e+00	-1.1918481054e+00
 1.9233972808e+00	 2.1625193719e+00	-1.1945373686e+00
 1.9022492578e+00	 2.1811452539e+00	-1.1954717211e+00
 1.8809278929e+00	 2.1995583378e+00	-1.1945878848e+00
 1.8594364150e+00	 2.2177562201e+00	-1.1919028399e+00
 1.8377780962e+00	 2.2357365625e+00	-1.1875640161e+00
 1.8159562509e+00	 2.2534970922e+00	-1.1816294194e+00
 1.7939742335e+00	 2.2710356032e+00	-1.1745945333e+00
 1.7718354366e+00	 2.2883499574e+00	-1.1669217596e+00
 1.7495432900e+00	 2.3054380847e+00	-1.1589639661e+00
 1.7271012584e+00	 2.3222979846e+00	-1.1509690125e+00
 1.9522721265e+00	 2.1523966680e+00	-1.1853516722e+00
 1.9312153857e+00	 2.1713094453e+00	-1.1878726598e+00
 1.9099814016e+00	 2.1900110367e+00	-1.1884871336e+00
 1.8885733710e+00	 2.2084989649e+00	-1.1871313715e+00
 1.8669945358e+00	 2.2267708169e+00	-1.1838746760e+00
 1.8452481817e+00	 2.2448242446e+00	-1.1798423529e+00
 1.8233376363e+00	 2.2626569662e+00	-1.1744585847e+00
 1.8012662677e+00	 2.2802667667e+00	-1.1678082531e+00
 1.7790374825e+00	 2.2976514991e+00	-1.1603459896e+00
 1.7566547242e+00	 2.3148090852e+00	-1.1524147766e+00
 1.7341214716e+00	 2.3317375162e+00	-1.1442505894e+00
 1.9601754841e+00	 2.1611101871e+00	-1.1788308262e+00
 1.9390334995e+00	 2.1800995288e+00	-1.1811679010e+00
 1.9177135542e+00	 2.1988768295e+00	-1.1814321903e+00
 1.8962188577e+00	 2.2174396022e+00	-1.1795609100e+00
 1.8745526652e+00	 2.2357854238e+00	-1.1760262711e+00
 1.8527182756e+00	 2.2539119370e+00	-1.1720722807e+00
 1.8307190301e+00	 2.2718168506e+00	-1.1671537215e+00
 1.8085583102e+00	 2.2894979406e+00	-1.1608079404e+00
 1.7862395365e+00	 2.3069530514e+00	-1.1534833048e+00
 1.7637661663e+00	 2.3241800964e+00	-1.1455159110e+00
 1.7411416927e+00	 2.3411770585e+00	-1.1371330784e+00
 1.9680788662e+00	 2.1698237333e+00	-1.1722923809e+00
 1.9468516377e+00	 2.1888896396e+00	-1.1744228274e+00
 1.9254457308e+00	 2.2077426500e+00	-1.1743023433e+00
 1.9038643682e+00	 2.2263802673e+00	-1.1719123586e+00
 1.8821108181e+00	 2.2448000589e+00	-1.1684055726e+00
 1.8601883928e+00	 2.2629996578e+00	-1.1644111335e+00
 1.8381004468e+00	 2.2809767635e+00	-1.1597668570e+00
 1.8158503755e+00	 2.2987291433e+00	-1.1536572215e+00
 1.7934416129e+00	 2.3162546327e+00	-1.1464117333e+00
 1.7708776307e+00	 2.3335511367e+00	-1.1383625563e+00
 1.7481619357e+00	 2.3506166302e+00	-1.1297315364e+00
 1.9759822887e+00	 2.1785373240e+00	-1.1657429501e+00
 1.9546698158e+00	 2.1976797953e+00	-1.1676372042e+00
 1.9331779470e+00	 2.2166085157e+00	-1.1670932570e+00
 1.9115099178e+00	 2.2353209781e+00	-1.1644661195e+00
 1.8896690097e+00	 2.2538147400e+00	-1.1610114965e+00
 1.8676585481e+00	 2.2720874249e+00	-1.1569483305e+00
 1.8454819012e+00	 2.2901367232e+00	-1.1523459720e+00
 1.8231424779e+00	 2.3079603931e+00	-1.1464155605e+00
 1.8006437261e+00	 2.3255562615e+00	-1.1392049791e+00
 1.7779891313e+00	 2.3429222249e+00	-1.1310453691e+00
 1.7551822145e+00	 2.3600562500e+00	-1.1221562384e+00
 1.9838857672e+00	 2.1872509764e+00	-1.1591889337e+00
 1.9624880492e+00	 2.2064700132e+00	-1.1608108122e+00
 1.9409102178e+00	 2.2254744442e+00	-1.1598254821e+00
 1.9191555215e+00	 2.2442617521e+00	-1.1572702581e+00
 1.8972272547e+00	 2.2628294849e+00	-1.1538413024e+00
 1.8751287563e+00	 2.2811752564e+00	-1.1496868478e+00
 1.8528634079e+00	 2.2992967478e+00	-1.1449363776e+00
 1.8304346320e+00	 2.3171917083e+00	-1.1391383462e+00
 1.8078458904e+00	 2.3348579561e+00	-1.1319325126e+00
 1.7851006823e+00	 2.3522933794e+00	-1.1236505689e+00
 1.7622025430e+00	 2.3694959367e+00	-1.1145127758e+00
 1.9917893173e+00	 2.1959647078e+00	-1.1526365052e+00
 1.9703063536e+00	 2.2152603108e+00	-1.1539434332e+00
 1.9486425588e+00	 2.2343404531e+00	-1.1527572892e+00
 1.9268011945e+00	 2.2532026073e+00	-1.1503174935e+00
 1.9047855683e+00	 2.2718443115e+00	-1.1468906500e+00
 1.8825990323e+00	 2.2902631702e+00	-1.1426279842e+00
 1.8602449815e+00	 2.3084568554e+00	-1.1376624620e+00
 1.8377268522e+00	 2.3264231071e+00	-1.1318769794e+00
 1.8150481199e+00	 2.3441597351e+00	-1.1246596602e+00
 1.7922122978e+00	 2.3616646189e+00	-1.1162600319e+00
 1.7692229352e+00	 2.3789357091e+00	-1.1069021540e+00
 1.9996929548e+00	 2.2046785355e+00	-1.1460915980e+00
 1.9781247443e+00	 2.2240507056e+00	-1.1470422283e+00
 1.9563749853e+00	 2.2432065599e+00	-1.1459511202e+00
 1.9344469520e+00	 2.2621435612e+00	-1.1435990367e+00
 1.9123439654e+00	 2.2808592378e+00	-1.1401536576e+00
 1.8900693908e+00	 2.2993511845e+00	-1.1357714185e+00
 1.8676266367e+00	 2.3176170642e+00	-1.1305912317e+00
 1.8450191530e+00	 2.3356546080e+00	-1.1246789595e+00
 1.8222504290e+00	 2.3534616168e+00	-1.1174476940e+00
 1.7993239919e+00	 2.3710359619e+00	-1.1089513839e+00
 1.7762434050e+00	 2.3883755857e+00	-1.0994208897e+00
 2.0075966953e+00	 2.2133924768e+00	-1.1395598924e+00
 1.9859432369e+00	 2.2328412149e+00	-1.1403245966e+00
 1.9641075125e+00	 2.2520727823e+00	-1.1393964967e+00
 1.9420928092e+00	 2.2710846317e+00	-1.1371046500e+00
 1.9199024610e+00	 2.2898742815e+00	-1.1336229590e+00
 1.8975398467e+00	 2.3084393173e+00	-1.1291152673e+00
 1.8750083882e+00	 2.3267773924e+00	-1.1237288740e+00
 1.8523115489e+00	 2.3448862292e+00	-1.1175881480e+00
 1.8294528320e+00	 2.3627636198e+00	-1.1103539212e+00
 1.8064357787e+00	 2.3804074271e+00	-1.1017980933e+00
 1.7832639663e+00	 2.3978155853e+00	-1.0921611081e+00
 2.0155005545e+00	 2.2221065490e+00	-1.1330468026e+00
 1.9937618470e+00	 2.2416318563e+00	-1.1338842232e+00
 1.9718401558e+00	 2.2609391379e+00	-1.1330815442e+00
 1.9497387812e+00	 2.2800258364e+00	-1.1308227062e+00
 1.9274610701e+00	 2.2988894607e+00	-1.1272897621e+00
 1.9050104148e+00	 2.3175275865e+00	-1.1226561418e+00
 1.8823902504e+00	 2.3359378582e+00	-1.1170799510e+00
 1.8596040542e+00	 2.3541179890e+00	-1.1106973700e+00
 1.8366553432e+00	 2.3720657625e+00	-1.1034317742e+00
 1.8135476723e+00	 2.3897790330e+00	-1.0948695643e+00
 1.7902846330e+00	 2.4072557267e+00	-1.0852106398e+00
 1.7200810393e+00	 2.3128584450e+00	-1.1571684104e+00
 1.6975882707e+00	 2.3294177971e+00	-1.1481547780e+00
 1.6749532604e+00	 2.3457461623e+00	-1.1368718880e+00
 1.6521795387e+00	 2.3618417693e+00	-1.1236688475e+00
 1.6292706640e+00	 2.3777029181e+00	-1.1088333441e+00
 1.6062302206e+00	 2.3933279809e+00	-1.0925959021e+00
 1.5830618175e+00	 2.4087154019e+00	-1.0751341618e+00
 1.5597690859e+00	 2.4238636981e+00	-1.0565771658e+00
 1.5363556778e+00	 2.4387714600e+00	-1.0370096412e+00
 1.5128252642e+00	 2.4534373510e+00	-1.0164762647e+00
 1.4891815331e+00	 2.4678601084e+00	-9.9498589825e-01
 1.7271012584e+00	 2.3222979846e+00	-1.1509690125e+00
 1.7045166894e+00	 2.3389249209e+00	-1.1417707477e+00
 1.6817892981e+00	 2.3553199275e+00	-1.1303497524e+00
 1.6589226294e+00	 2.3714812260e+00	-1.1170542113e+00
 1.6359202559e+00	 2.3874071095e+00	-1.1021719375e+00
 1.6127857769e+00	 2.4030959433e+00	-1.0859346973e+00
 1.5895228159e+00	 2.4185461654e+00	-1.0685225531e+00
 1.5661350189e+00	 2.4337562869e+00	-1.0500682091e+00
 1.5426260530e+00	 2.4487248922e+00	-1.0306613488e+00
 1.5189996040e+00	 2.4634506395e+00	-1.0103529496e+00
 1.4952593750e+00	 2.4779322610e+00	-9.8915956513e-01
 1.7341214716e+00	 2.3317375162e+00	-1.1442505894e+00
 1.7114451023e+00	 2.3484320366e+00	-1.1348246816e+00
 1.6886253301e+00	 2.3648936846e+00	-1.1232592809e+00
 1.6656657143e+00	 2.3811206745e+00	-1.1098961379e+00
 1.6425698423e+00	 2.3971112925e+00	-1.0950172015e+00
 1.6193413277e+00	 2.4128638973e+00	-1.0788490239e+00
 1.5959838088e+00	 2.4283769205e+00	-1.0615671792e+00
 1.5725009466e+00	 2.4436488672e+00	-1.0433006808e+00
 1.5488964229e+00	 2.4586783160e+00	-1.0241363869e+00
 1.5251739386e+00	 2.4734639196e+00	-1.0041233784e+00
 1.5013372118e+00	 2.4880044051e+00	-9.8327730094e-01
 1.7411416927e+00	 2.3411770585e+00	-1.1371330784e+00
 1.7183735229e+00	 2.3579391631e+00	-1.1274553171e+00
 1.6954613698e+00	 2.3744674526e+00	-1.1157526839e+00
 1.6724088069e+00	 2.3907601340e+00	-1.1023550468e+00
 1.6492194361e+00	 2.4068154866e+00	-1.0875325689e+00
 1.6258968858e+00	 2.4226318625e+00	-1.0715002044e+00
 1.6024448090e+00	 2.4382076868e+00	-1.0544222043e+00
 1.5788668815e+00	 2.4535414587e+00	-1.0364166193e+00
 1.5551667999e+00	 2.4686317510e+00	-1.0175597839e+00
 1.5313482802e+00	 2.4834772110e+00	-9.9789077256e-01
 1.5074150555e+00	 2.4980765605e+00	-9.7741581435e-01
 1.7481619357e+00	 2.3506166302e+00	-1.1297315364e+00
 1.7253019652e+00	 2.3674463192e+00	-1.1197962758e+00
 1.7022974308e+00	 2.3840412504e+00	-1.1079769045e+00
 1.6791519205e+00	 2.4003996235e+00	-1.0945860227e+00
 1.6558690507e+00	 2.4165197109e+00	-1.0798761530e+00
 1.6324524645e+00	 2.4323998580e+00	-1.0640443383e+00
 1.6089058294e+00	 2.4480384838e+00	-1.0472367477e+00
 1.5852328362e+00	 2.4634340811e+00	-1.0295532746e+00
 1.5614371964e+00	 2.4785852171e+00	-1.0110521152e+00
 1.5375226410e+00	 2.4934905336e+00	-9.9175431341e-01
 1.5134929181e+00	 2.5081487474e+00	-9.7164826257e-01
 1.7551822145e+00	 2.3600562500e+00	-1.1221562384e+00
 1.7322304428e+00	 2.3769535238e+00	-1.1119761655e+00
 1.7091335266e+00	 2.3936150970e+00	-1.1000737232e+00
 1.6858950685e+00	 2.4100391622e+00	-1.0867389209e+00
 1.6625186992e+00	 2.4262239848e+00	-1.0722008515e+00
 1.6390080765e+00	 2.4421679035e+00	-1.0566324039e+00
 1.6153668827e+00	 2.4578693309e+00	-1.0401549795e+00
 1.5915988234e+00	 2.4733267539e+00	-1.0228431989e+00
 1.5677076249e+00	 2.4885387339e+00	-1.0047295857e+00
 1.5436970333e+00	 2.5035039073e+00	-9.8580921454e-01
 1.5195708117e+00	 2.5182209856e+00	-9.6604431255e-01
 1.7622025430e+00	 2.3694959367e+00	-1.1145127758e+00
 1.7391589695e+00	 2.3864607958e+00	-1.1041186827e+00
 1.7159696709e+00	 2.4031890115e+00	-1.0921798628e+00
 1.6926382642e+00	 2.4196787692e+00	-1.0789584721e+00
 1.6691683948e+00	 2.4359283273e+00	-1.0646544502e+00
 1.6455637350e+00	 2.4519360181e+00	-1.0494103582e+00
 1.6218279819e+00	 2.4677002476e+00	-1.0333162172e+00
 1.5979648557e+00	 2.4832194968e+00	-1.0164143356e+00
 1.5739780979e+00	 2.4984923213e+00	-9.9870411122e-01
 1.5498714693e+00	 2.5135173520e+00	-9.8014679431e-01
 1.5256487484e+00	 2.5282932952e+00	-9.6067020251e-01
 1.7692229352e+00	 2.3789357091e+00	-1.1069021540e+00
 1.7460875590e+00	 2.3959681539e+00	-1.0963427141e+00
 1.7228058772e+00	 2.4127630127e+00	-1.0844270915e+00
 1.6993815211e+00	 2.4293184635e+00	-1.0713843863e+00
 1.6758181507e+00	 2.4456327579e+00	-1.0573797259e+00
 1.6521194529e+00	 2.4617042212e+00	-1.0425192373e+00
 1.6282891395e+00	 2.4775312535e+00	-1.0268550208e+00
 1.6043309457e+00	 2.4931123294e+00	-1.0103901094e+00
 1.5802486277e+00	 2.5084459989e+00	-9.9308340055e-01
 1.5560459614e+00	 2.5235308874e+00	-9.7485454824e-01
 1.5317267401e+00	 2.5383656961e+00	-9.5558880363e-01
 1.7762434050e+00	 2.3883755857e+00	-1.0994208897e+00
 1.7530162251e+00	 2.4054756171e+00	-1.0887624377e+00
 1.7296421590e+00	 2.4223371198e+00	-1.0769423262e+00
 1.7061248526e+00	 2.4389582644e+00	-1.0641514570e+00
 1.6824679801e+00	 2.4553372957e+00	-1.0505145484e+00
 1.6586752433e+00	 2.4714725323e+00	-1.0360952554e+00
 1.6347503686e+00	 2.4873623680e+00	-1.0209012880e+00
 1.6106971060e+00	 2.5030052713e+00	-1.0048895145e+00
 1.5865192268e+00	 2.5183997865e+00	-9.8797103664e-01
 1.5622205216e+00	 2.5335445335e+00	-9.7001622153e-01
 1.5378047991e+00	 2.5484382083e+00	-9.5085968204e-01
 1.7832639663e+00	 2.3978155853e+00	-1.0921611081e+00
 1.7599449815e+00	 2.4149832043e+00	-1.0814874235e+00
 1.7364785300e+00	 2.4319113516e+00	-1.0698477356e+00
 1.7128682719e+00	 2.4485981910e+00	-1.0573896633e+00
 1.6891178962e+00	 2.4650419600e+00	-1.0441919828e+00
 1.6652311191e+00	 2.4812409708e+00	-1.0302699045e+00
 1.6412116819e+00	 2.4971936106e+00	-1.0155803486e+00
 1.6170633494e+00	 2.5128983422e+00	-1.0000272041e+00
 1.5927899076e+00	 2.5283537038e+00	-9.8346655810e-01
 1.5683951624e+00	 2.5435583101e+00	-9.6571188148e-01
 1.5438829373e+00	 2.5585108518e+00	-9.4653916099e-01
 1.7902846330e+00	 2.4072557267e+00	-1.0852106398e+00
 1.7668738419e+00	 2.4244909342e+00	-1.0746227339e+00
 1.7433150036e+00	 2.4414857272e+00	-1.0632608418e+00
 1.7196117925e+00	 2.4582382623e+00	-1.0512242734e+00
 1.6957679122e+00	 2.4747467700e+00	-1.0385403904e+00
 1.6717870934e+00	 2.4910095559e+00	-1.0251700521e+00
 1.6476730923e+00	 2.5070250009e+00	-1.0110130589e+00
 1.6234296883e+00	 2.5227915616e+00	-9.9591357819e-01
 1.5990606826e+00	 2.5383077706e+00	-9.7966554028e-01
 1.5745698959e+00	 2.5535722370e+00	-9.6201799003e-01
 1.5499611667e+00	 2.5685836466e+00	-9.4268038330e-01
 1.4891815331e+00	 2.4678601084e+00	-9.9498589825e-01
 1.4654281883e+00	 2.4820385439e+00	-9.7332970262e-01
 1.4415689487e+00	 2.4959715457e+00	-9.5121598671e-01
 1.4176075455e+00	 2.5096580763e+00	-9.2839018425e-01
 1.3935477194e+00	 2.5230971726e+00	-9.0467551346e-01
 1.3693932192e+00	 2.5362879455e+00	-8.7988162341e-01
 1.3451477998e+00	 2.5492295798e+00	-8.5382160907e-01
 1.3208152203e+00	 2.5619213343e+00	-8.2632813283e-01
 1.2963992426e+00	 2.5743625414e+00	-7.9726854461e-01
 1.2719036294e+00	 2.5865526069e+00	-7.6655890239e-01
 1.2473321424e+00	 2.5984910099e+00	-7.3470371121e-01
 1.4952593750e+00	 2.4779322610e+00	-9.8915956513e-01
 1.4714090850e+00	 2.4921685634e+00	-9.6808830591e-01
 1.4474524680e+00	 2.5061584303e+00	-9.4674291987e-01
 1.4233932704e+00	 2.5199008202e+00	-9.2458303731e-01
 1.3992352482e+00	 2.5333947659e+00	-9.0136303328e-01
 1.3749821655e+00	 2.5466393747e+00	-8.7682207711e-01
 1.3506377924e+00	 2.5596338281e+00	-8.5070185084e-01
 1.3262059037e+00	 2.5723773819e+00	-8.2276334477e-01
 1.3016902763e+00	 2.5848693656e+00	-7.9280261866e-01
 1.2770946884e+00	 2.5971091829e+00	-7.6095795975e-01
 1.2524229171e+00	 2.6090963104e+00	-7.3035388475e-01
 1.5013372118e+00	 2.4880044051e+00	-9.8327730094e-01
 1.4773899766e+00	 2.5022985743e+00	-9.6263722942e-01
 1.4533359822e+00	 2.5163453063e+00	-9.4191947413e-01
 1.4291789903e+00	 2.5301435554e+00	-9.2021283287e-01
 1.4049227721e+00	 2.5436923505e+00	-8.9720890796e-01
 1.3805711070e+00	 2.5569907951e+00	-8.7258316836e-01
 1.3561277804e+00	 2.5700380676e+00	-8.4601337159e-01
 1.3315965824e+00	 2.5828334205e+00	-8.1719703188e-01
 1.3069813055e+00	 2.5953761809e+00	-7.8597232122e-01
 1.2822857430e+00	 2.6076657498e+00	-7.5503884530e-01
 1.2575136874e+00	 2.6197016019e+00	-7.2583253986e-01
 1.5074150555e+00	 2.4980765605e+00	-9.7741581435e-01
 1.4833708750e+00	 2.5124285967e+00	-9.5705752605e-01
 1.4592195031e+00	 2.5265321939e+00	-9.3680335465e-01
 1.4349647168e+00	 2.5403863022e+00	-9.1532666019e-01
 1.4106103025e+00	 2.5539899467e+00	-8.9225685963e-01
 1.3861600548e+00	 2.5673422273e+00	-8.6721231506e-01
 1.3616177747e+00	 2.5804423188e+00	-8.3981415956e-01
 1.3369872674e+00	 2.5932894710e+00	-8.0971055513e-01
 1.3122723407e+00	 2.6058830081e+00	-7.7891980022e-01
 1.2874768035e+00	 2.6182223287e+00	-7.4936854795e-01
 1.2626044635e+00	 2.6303069054e+00	-7.2121994373e-01
 1.5134929181e+00	 2.5081487474e+00	-9.7164826257e-01
 1.4893517920e+00	 2.5225586506e+00	-9.5149142102e-01
 1.4651030424e+00	 2.5367191132e+00	-9.3144991525e-01
 1.4407504613e+00	 2.5506290810e+00	-9.0996995872e-01
 1.4162978505e+00	 2.5642875750e+00	-8.8654954284e-01
 1.3917490201e+00	 2.5776936917e+00	-8.6075633061e-01
 1.3671077860e+00	 2.5908466025e+00	-8.3216194252e-01
 1.3423779691e+00	 2.6037455542e+00	-8.0190855564e-01
 1.3175633924e+00	 2.6163898681e+00	-7.7246014248e-01
 1.2926678802e+00	 2.6287789405e+00	-7.4398301302e-01
 1.2676952555e+00	 2.6409122420e+00	-7.1659257136e-01
 1.5195708117e+00	 2.5182209856e+00	-9.6604431255e-01
 1.4953327395e+00	 2.5326887562e+00	-9.4601149693e-01
 1.4709866117e+00	 2.5469060845e+00	-9.2591185307e-01
 1.4465362353e+00	 2.5608719120e+00	-9.0418621655e-01
 1.4219854276e+00	 2.5745852559e+00	-8.8012824934e-01
 1.3973380138e+00	 2.5880452089e+00	-8.5326113730e-01
 1.3725978254e+00	 2.6012509393e+00	-8.2397789060e-01
 1.3477686983e+00	 2.6142016906e+00	-7.9497835811e-01
 1.3228544711e+00	 2.6268967817e+00	-7.6659284399e-01
 1.2978589833e+00	 2.6393356062e+00	-7.3891508065e-01
 1.2727860734e+00	 2.6515176326e+00	-7.1202318399e-01
 1.5256487484e+00	 2.5282932952e+00	-9.6067020251e-01
 1.5013137294e+00	 2.5428189336e+00	-9.4066040981e-01
 1.4768702226e+00	 2.5570931279e+00	-9.2023890384e-01
 1.4523220503e+00	 2.5711148156e+00	-8.9801666965e-01
 1.4276730450e+00	 2.5848830097e+00	-8.7303261357e-01
 1.4029270472e+00	 2.5983967995e+00	-8.4512858981e-01
 1.3780879036e+00	 2.6116553497e+00	-8.1685537001e-01
 1.3531594657e+00	 2.6246579011e+00	-7.8889067281e-01
 1.3281455873e+00	 2.6374037696e+00	-7.6131486384e-01
 1.3030501232e+00	 2.6498923466e+00	-7.3419455567e-01
 1.2778769274e+00	 2.6621230984e+00	-7.0758090756e-01
 1.5317267401e+00	 2.5383656961e+00	-9.5558880363e-01
 1.5072947736e+00	 2.5529492028e+00	-9.3547788118e-01
 1.4827538869e+00	 2.5672802637e+00	-9.1447922733e-01
 1.4581079178e+00	 2.5813578120e+00	-8.9150000179e-01
 1.4333607140e+00	 2.5951808569e+00	-8.6536518685e-01
 1.4085161312e+00	 2.6087484839e+00	-8.3805421237e-01
 1.3835780316e+00	 2.6220598545e+00	-8.1077938604e-01
 1.3585502819e+00	 2.6351142064e+00	-7.8361412738e-01
 1.3334367514e+00	 2.6479108529e+00	-7.5662068813e-01
 1.3082413102e+00	 2.6604491828e+00	-7.2984827772e-01
 1.2829678275e+00	 2.6727286603e+00	-7.0333131104e-01
 1.5378047991e+00	 2.5484382083e+00	-9.5085968204e-01
 1.5132758838e+00	 2.5630795840e+00	-9.3050074991e-01
 1.4886376162e+00	 2.5774675121e+00	-9.0871934401e-01
 1.4638938492e+00	 2.5916009216e+00	-8.8467204520e-01
 1.4390484458e+00	 2.6054788179e+00	-8.5854725801e-01
 1.4141052770e+00	 2.6191002827e+00	-8.3219592175e-01
 1.3890682203e+00	 2.6324644743e+00	-8.0569757968e-01
 1.3639411578e+00	 2.6455706273e+00	-7.7911532734e-01
 1.3387279740e+00	 2.6584180522e+00	-7.5250239440e-01
 1.3134325545e+00	 2.6710061356e+00	-7.2590019158e-01
 1.2880587840e+00	 2.6833343394e+00	-6.9933648464e-01
 1.5438829373e+00	 2.5585108518e+00	-9.4653916099e-01
 1.5192570720e+00	 2.5732100972e+00	-9.2576302455e-01
 1.4945214222e+00	 2.5876548933e+00	-9.0300261121e-01
 1.4696798561e+00	 2.6018441648e+00	-8.7830372541e-01
 1.4447362517e+00	 2.6157769131e+00	-8.5309248241e-01
 1.4196944956e+00	 2.6294522164e+00	-8.2748751162e-01
 1.3945584806e+00	 2.6428692297e+00	-8.0155591356e-01
 1.3693321039e+00	 2.6560271845e+00	-7.7535891710e-01
 1.3440192656e+00	 2.6689253885e+00	-7.4894971637e-01
 1.3186238666e+00	 2.6815632260e+00	-7.2237141766e-01
 1.2931498067e+00	 2.6939401568e+00	-6.9565511809e-01
 1.5499611667e+00	 2.5685836466e+00	-9.4268038330e-01
 1.5252383500e+00	 2.5833407625e+00	-9.2129593607e-01
 1.5004053166e+00	 2.5978424274e+00	-8.9755941271e-01
 1.4754659498e+00	 2.6120875617e+00	-8.7342682376e-01
 1.4504241431e+00	 2.6260751629e+00	-8.4892773958e-01
 1.4252837982e+00	 2.6398043056e+00	-8.2386133825e-01
 1.4000488233e+00	 2.6532741413e+00	-7.9829873194e-01
 1.3747231309e+00	 2.6664838986e+00	-7.7230764160e-01
 1.3493106366e+00	 2.6794328826e+00	-7.4595010911e-01
 1.3238152565e+00	 2.6921204750e+00	-7.1928032270e-01
 1.2982409059e+00	 2.7045461334e+00	-6.9234257867e-01
 1.2473321424e+00	 2.5984910099e+00	-7.3470371121e-01
 1.2226843450e+00	 2.6101792673e+00	-7.0426845968e-01
 1.1979681638e+00	 2.6216149507e+00	-6.7488378500e-01
 1.1731873483e+00	 2.6327977545e+00	-6.4618322412e-01
 1.1483456403e+00	 2.6437274448e+00	-6.1778885161e-01
 1.1234467721e+00	 2.6544038588e+00	-5.8931091687e-01
 1.0984944655e+00	 2.6648269043e+00	-5.6052582175e-01
 1.0734924292e+00	 2.6749965591e+00	-5.3205296329e-01
 1.0484443584e+00	 2.6849128703e+00	-5.0360536820e-01
 1.0233539322e+00	 2.6945759537e+00	-4.7471813686e-01
 9.9822481275e-01	 2.7039859931e+00	-4.4491976847e-01
 1.2524229171e+00	 2.6090963104e+00	-7.3035388475e-01
 1.2276745238e+00	 2.6208322715e+00	-7.0131628225e-01
 1.2028574678e+00	 2.6323146276e+00	-6.7297209684e-01
 1.1779755136e+00	 2.6435430721e+00	-6.4500252001e-01
 1.1530324183e+00	 2.6545173701e+00	-6.1708039583e-01
 1.1280319297e+00	 2.6652373581e+00	-5.8886972858e-01
 1.1029777844e+00	 2.6757029435e+00	-5.6009362011e-01
 1.0778737066e+00	 2.6859141040e+00	-5.3132424573e-01
 1.0527234063e+00	 2.6958708869e+00	-5.0247237730e-01
 1.0275305778e+00	 2.7055734086e+00	-4.7314566620e-01
 1.0022988981e+00	 2.7150218534e+00	-4.4294635521e-01
 1.2575136874e+00	 2.6197016019e+00	-7.2583253986e-01
 1.2326646984e+00	 2.6314852665e+00	-6.9784825026e-01
 1.2077467675e+00	 2.6430142955e+00	-6.7027005247e-01
 1.1827636747e+00	 2.6542883807e+00	-6.4282407253e-01
 1.1577191923e+00	 2.6653072863e+00	-6.1523055697e-01
 1.1326170833e+00	 2.6760708482e+00	-5.8720326177e-01
 1.1074610995e+00	 2.6865789734e+00	-5.5846165615e-01
 1.0822549802e+00	 2.6968316396e+00	-5.2945661612e-01
 1.0570024505e+00	 2.7068288943e+00	-5.0031021409e-01
 1.0317072198e+00	 2.7165708541e+00	-4.7069615467e-01
 1.0063729799e+00	 2.7260577044e+00	-4.4028334898e-01
 1.2626044635e+00	 2.6303069054e+00	-7.2121994373e-01
 1.2376548787e+00	 2.6421382737e+00	-6.9398545177e-01
 1.2126360729e+00	 2.6537139754e+00	-6.6693222773e-01
 1.1875518413e+00	 2.6650337014e+00	-6.3982866402e-01
 1.1624059717e+00	 2.6760972147e+00	-6.1243909847e-01
 1.1372022421e+00	 2.6869043506e+00	-5.8452309534e-01
 1.1119444197e+00	 2.6974550157e+00	-5.5583486843e-01
 1.0866362588e+00	 2.7077491877e+00	-5.2664916198e-01
 1.0612814996e+00	 2.7177869141e+00	-4.9730447437e-01
 1.0358838665e+00	 2.7275683122e+00	-4.6753473616e-01
 1.0104470664e+00	 2.7370935679e+00	-4.3706850493e-01
 1.2676952555e+00	 2.6409122420e+00	-7.1659257136e-01
 1.2426450745e+00	 2.6527913140e+00	-6.8984457402e-01
 1.2175253935e+00	 2.6644136888e+00	-6.6310831056e-01
 1.1923400229e+00	 2.6757790555e+00	-6.3619182305e-01
 1.1670927657e+00	 2.6868871767e+00	-6.0890028479e-01
 1.1417874152e+00	 2.6977378867e+00	-5.8103518395e-01
 1.1164277538e+00	 2.7083310919e+00	-5.5239365677e-01
 1.0910175510e+00	 2.7186667697e+00	-5.2309735764e-01
 1.0655605621e+00	 2.7287449680e+00	-4.9363752252e-01
 1.0400605263e+00	 2.7385658044e+00	-4.6382380836e-01
 1.0145211656e+00	 2.7481294659e+00	-4.3343744881e-01
 1.2727860734e+00	 2.6515176326e+00	-7.1202318399e-01
 1.2476352958e+00	 2.6634444087e+00	-6.8553799056e-01
 1.2224147390e+00	 2.6751134566e+00	-6.5894319450e-01
 1.1971282288e+00	 2.6865244645e+00	-6.3208392188e-01
 1.1717795835e+00	 2.6976771937e+00	-6.0480298046e-01
 1.1463726117e+00	 2.7085714781e+00	-5.7693995647e-01
 1.1209111108e+00	 2.7192072236e+00	-5.4833046926e-01
 1.0953988656e+00	 2.7295844074e+00	-5.1899303824e-01
 1.0698396463e+00	 2.7397030778e+00	-4.8948846264e-01
 1.0442372074e+00	 2.7495633528e+00	-4.5972299872e-01
 1.0185952856e+00	 2.7591654200e+00	-4.2952363559e-01
 1.2778769274e+00	 2.6621230984e+00	-7.0758090756e-01
 1.2526255524e+00	 2.6740975789e+00	-6.8117384802e-01
 1.2273041191e+00	 2.6858133003e+00	-6.5457707152e-01
 1.2019164687e+00	 2.6972699497e+00	-6.2767027309e-01
 1.1764664346e+00	 2.7084672872e+00	-6.0033074826e-01
 1.1509578407e+00	 2.7194051462e+00	-5.7243241337e-01
 1.1253944996e+00	 2.7300834322e+00	-5.4384499291e-01
 1.0997802112e+00	 2.7405021225e+00	-5.1452437302e-01
 1.0741187609e+00	 2.7506612652e+00	-4.8503310897e-01
 1.0484139180e+00	 2.7605609791e+00	-4.5538912997e-01
 1.0226694344e+00	 2.7702014524e+00	-4.2545830798e-01
 1.2829678275e+00	 2.6727286603e+00	-7.0333131104e-01
 1.2576158543e+00	 2.6847508456e+00	-6.7685615258e-01
 1.2321935436e+00	 2.6965132410e+00	-6.5014552436e-01
 1.2067047520e+00	 2.7080155322e+00	-6.2311122551e-01
 1.1811533282e+00	 2.7192574785e+00	-5.9566194654e-01
 1.1555431112e+00	 2.7302389126e+00	-5.6770222330e-01
 1.1298779291e+00	 2.7409597396e+00	-5.3913156819e-01
 1.1041615966e+00	 2.7514199365e+00	-5.0987583775e-01
 1.0783979143e+00	 2.7616195520e+00	-4.8044395576e-01
 1.0525906666e+00	 2.7715587051e+00	-4.5097618521e-01
 1.0267436201e+00	 2.7812375849e+00	-4.2137045459e-01
 1.2880587840e+00	 2.6833343394e+00	-6.9933648464e-01
 1.2626062113e+00	 2.6954042301e+00	-6.7268485604e-01
 1.2370830221e+00	 2.7072133000e+00	-6.4577961821e-01
 1.2114930882e+00	 2.7187612335e+00	-6.1856225942e-01
 1.1858402735e+00	 2.7300477891e+00	-5.9096982575e-01
 1.1601284325e+00	 2.7410727987e+00	-5.6293381880e-01
 1.1343614080e+00	 2.7518361671e+00	-5.3437928171e-01
 1.1085430303e+00	 2.7623378712e+00	-5.0522818645e-01
 1.0826771149e+00	 2.7725779599e+00	-4.7589014643e-01
 1.0567674612e+00	 2.7825565527e+00	-4.4663527245e-01
 1.0308178509e+00	 2.7922738392e+00	-4.1738676787e-01
 1.2931498067e+00	 2.6939401568e+00	-6.9565511809e-01
 1.2675966333e+00	 2.7060577534e+00	-6.6875594166e-01
 1.2419725643e+00	 2.7179134984e+00	-6.4160599200e-01
 1.2162814868e+00	 2.7295070748e+00	-6.1417408109e-01
 1.1905272800e+00	 2.7408382403e+00	-5.8642262418e-01
 1.1647138135e+00	 2.7519068260e+00	-5.5830649114e-01
 1.1388449454e+00	 2.7627127363e+00	-5.2977205823e-01
 1.1129245212e+00	 2.7732559482e+00	-5.0075646564e-01
 1.0869563714e+00	 2.7835365106e+00	-4.7153744209e-01
 1.0609443104e+00	 2.7935545435e+00	-4.4251458875e-01
 1.0348921348e+00	 2.8033102375e+00	-4.1363160183e-01
 1.2982409059e+00	 2.7045461334e+00	-6.9234257867e-01
 1.2725871303e+00	 2.7167114367e+00	-6.6516150953e-01
 1.2468621800e+00	 2.7286138574e+00	-6.3774694905e-01
 1.2210699573e+00	 2.7402530775e+00	-6.1009271665e-01
 1.1952143568e+00	 2.7516288535e+00	-5.8218366292e-01
 1.1692992633e+00	 2.7627410160e+00	-5.5399448441e-01
 1.1433285502e+00	 2.7735894689e+00	-5.2548875174e-01
 1.1173060779e+00	 2.7841741892e+00	-4.9661815671e-01
 1.0912356921e+00	 2.7944952259e+00	-4.6754818951e-01
 1.0651212222e+00	 2.8045526996e+00	-4.3875938390e-01
 1.0389664799e+00	 2.8143468014e+00	-4.1022692949e-01
 9.9822481275e-01	 2.7039859931e+00	-4.4491976847e-01
 9.7306492350e-01	 2.7131417040e+00	-4.1443086724e-01
 9.4787361672e-01	 2.7220450232e+00	-3.8387799783e-01
 9.2265449129e-01	 2.7306963316e+00	-3.5339741309e-01
 8.9741112324e-01	 2.7390960749e+00	-3.2311007267e-01
 8.7214706437e-01	 2.7472447625e+00	-2.9312129479e-01
 8.4686584093e-01	 2.7551429669e+00	-2.6352068443e-01
 8.2157095235e-01	 2.7627913223e+00	-2.3438230448e-01
 7.9626586994e-01	 2.7701905239e+00	-2.0576505674e-01
 7.7095403571e-01	 2.7773413271e+00	-1.7771324033e-01
 7.4563886117e-01	 2.7842445460e+00	-1.5025725563e-01
 1.0022988981e+00	 2.7150218534e+00	-4.4294635521e-01
 9.7703632300e-01	 2.7242149318e+00	-4.1214412562e-01
 9.5174220217e-01	 2.7331545884e+00	-3.8136786225e-01
 9.2642014916e-01	 2.7418412057e+00	-3.5075617617e-01
 9.0107375458e-01	 2.7502752311e+00	-3.2042942746e-01
 8.7570658474e-01	 2.7584571762e+00	-2.9048953840e-01
 8.5032218028e-01	 2.7663876158e+00	-2.6102008826e-01
 8.2492405489e-01	 2.7740671866e+00	-2.3208665500e-01
 7.9951569408e-01	 2.7814965869e+00	-2.0373736957e-01
 7.7410055389e-01	 2.7886765749e+00	-1.7600364907e-01
 7.4868205976e-01	 2.7956079681e+00	-1.4890107612e-01
 1.0063729799e+00	 2.7260577044e+00	-4.4028334898e-01
 9.8100771913e-01	 2.7352881503e+00	-4.0935765160e-01
 9.5561078434e-01	 2.7442641442e+00	-3.7852057827e-01
 9.3018580383e-01	 2.7529860703e+00	-3.4791068045e-01
 9.0473638281e-01	 2.7614543778e+00	-3.1764577973e-01
 8.7926610208e-01	 2.7696695804e+00	-2.8782294122e-01
 8.5377851668e-01	 2.7776322551e+00	-2.5851873312e-01
 8.2827715459e-01	 2.7853430414e+00	-2.2978973661e-01
 8.0276551546e-01	 2.7928026402e+00	-2.0167327041e-01
 7.7724706940e-01	 2.8000118130e+00	-1.7418829536e-01
 7.5172525576e-01	 2.8069713805e+00	-1.4733646492e-01
 1.0104470664e+00	 2.7370935679e+00	-4.3706850493e-01
 9.8497911975e-01	 2.7463613813e+00	-4.0618119521e-01
 9.5947937089e-01	 2.7553737126e+00	-3.7542348974e-01
 9.3395146277e-01	 2.7641309476e+00	-3.4493143373e-01
 9.0839901520e-01	 2.7726335372e+00	-3.1481833851e-01
 8.8282562347e-01	 2.7808819973e+00	-2.8517491410e-01
 8.5723485701e-01	 2.7888769072e+00	-2.5606969187e-01
 8.3163025809e-01	 2.7966189089e+00	-2.2754970045e-01
 8.0601534053e-01	 2.8041087064e+00	-1.9964135784e-01
 7.8039358848e-01	 2.8113470639e+00	-1.7235154395e-01
 7.5476845521e-01	 2.8183348058e+00	-1.4566881844e-01
 1.0145211656e+00	 2.7481294659e+00	-4.3343744881e-01
 9.8895053276e-01	 2.7574346468e+00	-4.0272299341e-01
 9.6334796950e-01	 2.7664833156e+00	-3.7216295253e-01
 9.3771713344e-01	 2.7752758595e+00	-3.4188838903e-01
 9.1206165900e-01	 2.7838127315e+00	-3.1200609890e-01
 8.8638515594e-01	 2.7920944491e+00	-2.8259890197e-01
 8.6069120811e-01	 2.8001215943e+00	-2.5372622636e-01
 8.3498337204e-01	 2.8078948116e+00	-2.2542494822e-01
 8.0926517572e-01	 2.8154148078e+00	-1.9771044885e-01
 7.8354011736e-01	 2.8226823502e+00	-1.7057785209e-01
 7.5781166415e-01	 2.8296982665e+00	-1.4400340573e-01
 1.0185952856e+00	 2.7591654200e+00	-4.2952363559e-01
 9.9292196603e-01	 2.7685079688e+00	-3.9908972138e-01
 9.6721658784e-01	 2.7775929753e+00	-3.6882428010e-01
 9.4148282333e-01	 2.7864208284e+00	-3.3885088632e-01
 9.1572432148e-01	 2.7949919827e+00	-3.0926778177e-01
 8.8994470658e-01	 2.8033069582e+00	-2.8014832352e-01
 8.6414757684e-01	 2.8113663388e+00	-2.5154172882e-01
 8.3833650309e-01	 2.8191707719e+00	-2.2347407696e-01
 8.1251502749e-01	 2.8267209668e+00	-1.9594952893e-01
 7.8668666229e-01	 2.8340176943e+00	-1.6895172667e-01
 7.6085488862e-01	 2.8410617851e+00	-1.4244533441e-01
 1.0226694344e+00	 2.7702014524e+00	-4.2545830798e-01
 9.9689342743e-01	 2.7795813692e+00	-3.9538644366e-01
 9.7108523359e-01	 2.7887027137e+00	-3.6549168927e-01
 9.4524853989e-01	 2.7975658762e+00	-3.3588759467e-01
 9.1938700991e-01	 2.8061713132e+00	-3.0666177411e-01
 8.9350428243e-01	 2.8145195466e+00	-2.7787651131e-01
 8.6760397005e-01	 2.8226111629e+00	-2.4956966363e-01
 8.4168965790e-01	 2.8304468120e+00	-2.2175582433e-01
 8.1576490229e-01	 2.8380272060e+00	-1.9442770253e-01
 7.8983322952e-01	 2.8453531187e+00	-1.6755768151e-01
 7.6389813464e-01	 2.8524253843e+00	-1.4109951668e-01
 1.0267436201e+00	 2.7812375849e+00	-4.2137045459e-01
 1.0008649248e+00	 2.7906548701e+00	-3.9171656539e-01
 9.7495391442e-01	 2.7998125528e+00	-3.6224824617e-01
 9.4901429059e-01	 2.8087110250e+00	-3.3306645465e-01
 9.2304973155e-01	 2.8173507450e+00	-3.0424606959e-01
 8.9706389055e-01	 2.8257322367e+00	-2.7583665240e-01
 8.7106039461e-01	 2.8338560890e+00	-2.4786350966e-01
 8.4504284311e-01	 2.8417229543e+00	-2.2032901428e-01
 8.1901480655e-01	 2.8493335476e+00	-1.9321414382e-01
 7.9297982527e-01	 2.8566886459e+00	-1.6648019505e-01
 7.6694140825e-01	 2.8637890865e+00	-1.4007063538e-01
 1.0308178509e+00	 2.7922738392e+00	-4.1738676787e-01
 1.0048364661e+00	 2.8017284933e+00	-3.8818178345e-01
 9.7882263800e-01	 2.8109225147e+00	-3.5917581231e-01
 9.5278008291e-01	 2.8198562970e+00	-3.3045462106e-01
 9.2671249366e-01	 2.8285303003e+00	-3.0207820967e-01
 9.0062353801e-01	 2.8369450508e+00	-2.7408172941e-01
 8.7451685736e-01	 2.8451011394e+00	-2.4647670297e-01
 8.4839606537e-01	 2.8529992212e+00	-2.1925250323e-01
 8.2226474672e-01	 2.8606400142e+00	-1.9237804792e-01
 7.9612645580e-01	 2.8680242983e+00	-1.6580366816e-01
 7.6998471550e-01	 2.8751529142e+00	-1.3946311025e-01
 1.0348921348e+00	 2.8033102375e+00	-4.1363160183e-01
 1.0088080592e+00	 2.8128022608e+00	-3.8488203760e-01
 9.8269141200e-01	 2.8220326214e+00	-3.5635499080e-01
 9.5654592432e-01	 2.8310017143e+00	-3.2811840587e-01
 9.3037530352e-01	 2.8397100014e+00	-3.0021522494e-01
 9.0418323187e-01	 2.8481580109e+00	-2.7266446199e-01
 8.7797336516e-01	 2.8563463363e+00	-2.4546258007e-01
 8.5174933135e-01	 2.8642756351e+00	-2.1858512653e-01
 8.2551472926e-01	 2.8719466282e+00	-1.9198858233e-01
 7.9927312734e-01	 2.8793600985e+00	-1.6561238225e-01
 7.7302806241e-01	 2.8865168901e+00	-1.3938106417e-01
 1.0389664799e+00	 2.8143468014e+00	-4.1022692949e-01
 1.0127797119e+00	 2.8238761946e+00	-3.8191546154e-01
 9.8656024410e-01	 2.8331428950e+00	-3.5386507271e-01
 9.6031182227e-01	 2.8421472989e+00	-3.2612322155e-01
 9.3403816837e-01	 2.8508898703e+00	-2.9871357693e-01
 9.0774297918e-01	 2.8593711395e+00	-2.7163724870e-01
 8.8142992487e-01	 2.8675917021e+00	-2.4487432148e-01
 8.5510264768e-01	 2.8755522184e+00	-2.1838564547e-01
 8.2876476060e-01	 2.8832534120e+00	-1.9211483886e-01
 8.0241984614e-01	 2.8906960689e+00	-1.6599045760e-01
 7.7607145503e-01	 2.8978810366e+00	-1.3992828952e-01
 7.4563886117e-01	 2.7842445460e+00	-1.5025725563e-01
 7.2032372652e-01	 2.7909010533e+00	-1.2344943731e-01
 6.9501198057e-01	 2.7973117808e+00	-9.8047630600e-02
 6.6970693854e-01	 2.8034777166e+00	-7.3935995630e-02
 6.4441188071e-01	 2.8093999034e+00	-5.0936366442e-02
 6.1913005138e-01	 2.8150794374e+00	-2.8860432589e-02
 5.9386465797e-01	 2.8205174669e+00	-7.5146603799e-03
 5.6861887004e-01	 2.8257151913e+00	 1.3295441098e-02
 5.4339581847e-01	 2.8306738599e+00	 3.3761674048e-02
 5.1819859458e-01	 2.8353947707e+00	 5.4070089323e-02
 4.9303024934e-01	 2.8398792692e+00	 7.4398468861e-02
 7.4868205976e-01	 2.7956079681e+00	-1.4890107612e-01
 7.2326360568e-01	 2.8022916428e+00	-1.2227524472e-01
 6.9784855413e-01	 2.8087285345e+00	-9.7008527070e-02
 6.7244023387e-01	 2.8149196355e+00	-7.3041656411e-02
 6.4704193854e-01	 2.8208659928e+00	-5.0185430220e-02
 6.2165692571e-01	 2.8265687068e+00	-2.8243947865e-02
 5.9628841588e-01	 2.8320289307e+00	-7.0194587811e-03
 5.7093959155e-01	 2.8372478687e+00	 1.3683462401e-02
 5.4561359637e-01	 2.8422267753e+00	 3.4054377252e-02
 5.2031353428e-01	 2.8469669537e+00	 5.4274043205e-02
 4.9504246870e-01	 2.8514697549e+00	 7.4512031846e-02
 7.5172525576e-01	 2.8069713805e+00	-1.4733646492e-01
 7.2620348234e-01	 2.8136822225e+00	-1.2082259765e-01
 7.0068512528e-01	 2.8201452786e+00	-9.5602511302e-02
 6.7517352686e-01	 2.8263615448e+00	-7.1704325971e-02
 6.4967199414e-01	 2.8323320724e+00	-4.8930322640e-02
 6.2418379790e-01	 2.8380579665e+00	-2.7079341594e-02
 5.9871217173e-01	 2.8435403848e+00	-5.9515562666e-03
 5.7326031109e-01	 2.8487805364e+00	 1.4647443842e-02
 5.4783137239e-01	 2.8537796809e+00	 3.4903223207e-02
 5.2242847219e-01	 2.8585391269e+00	 5.4989683575e-02
 4.9705468636e-01	 2.8630602308e+00	 7.5066819397e-02
 7.5476845521e-01	 2.8183348058e+00	-1.4566881844e-01
 7.2914336234e-01	 2.8250728152e+00	-1.1921505688e-01
 7.0352169965e-01	 2.8315620356e+00	-9.3971128232e-02
 6.7790682296e-01	 2.8378034670e+00	-7.0079962237e-02
 6.5230205271e-01	 2.8437981651e+00	-4.7337840483e-02
 6.2671067295e-01	 2.8495472392e+00	-2.5540676490e-02
 6.0113593033e-01	 2.8550518519e+00	-4.4887138343e-03
 5.7558103325e-01	 2.8603132171e+00	 1.6009484576e-02
 5.5004915092e-01	 2.8653325996e+00	 3.6133716659e-02
 5.2454341249e-01	 2.8701113132e+00	 5.6049449551e-02
 4.9906690630e-01	 2.8746507198e+00	 7.5905713635e-02
 7.5781166415e-01	 2.8296982665e+00	-1.4400340573e-01
 7.3208325150e-01	 2.8364634434e+00	-1.1757589708e-01
 7.0635828285e-01	 2.8429788282e+00	-9.2255391136e-02
 6.8064012758e-01	 2.8492454249e+00	-6.8323788340e-02
 6.5493211949e-01	 2.8552642934e+00	-4.5573885434e-02
 6.2923755587e-01	 2.8610365477e+00	-2.3801003112e-02
 6.0355969648e-01	 2.8665633548e+00	-2.8076069207e-03
 5.7790176265e-01	 2.8718459338e+00	 1.7592798684e-02
 5.5226693636e-01	 2.8768855544e+00	 3.7572462206e-02
 5.2665835938e-01	 2.8816835356e+00	 5.7286820221e-02
 5.0107913251e-01	 2.8862412450e+00	 7.6872531591e-02
 7.6085488862e-01	 2.8410617851e+00	-1.4244533441e-01
 7.3502315565e-01	 2.8478541297e+00	-1.1602810102e-01
 7.0919488053e-01	 2.8543956790e+00	-9.0595783208e-02
 6.8337344614e-01	 2.8606874412e+00	-6.6590300492e-02
 6.5756219968e-01	 2.8667304803e+00	-4.3803477153e-02
 6.3176445168e-01	 2.8725259148e+00	-2.2032377033e-02
 6.0598347500e-01	 2.8780749165e+00	-1.0838455582e-03
 5.8022250389e-01	 2.8833787093e+00	 1.9221693122e-02
 5.5448473311e-01	 2.8884385680e+00	 3.9047141466e-02
 5.2877331707e-01	 2.8932558170e+00	 5.8536292125e-02
 5.0309136899e-01	 2.8978318293e+00	 7.7812004096e-02
 7.6389813464e-01	 2.8524253843e+00	-1.4109951668e-01
 7.3796308063e-01	 2.8592448967e+00	-1.1469435366e-01
 7.1203149830e-01	 2.8658126107e+00	-8.9132258918e-02
 6.8610678406e-01	 2.8721295385e+00	-6.5033275507e-02
 6.6019229851e-01	 2.8781967484e+00	-4.2190765893e-02
 6.3429136540e-01	 2.8840153633e+00	-2.0405875473e-02
 6.0840727069e-01	 2.8895865598e+00	 5.0800604882e-04
 5.8254326157e-01	 2.8949115665e+00	 2.0721546286e-02
 5.5670254558e-01	 2.8999916635e+00	 4.0386490851e-02
 5.3088828973e-01	 2.9048281804e+00	 5.9633357315e-02
 5.0510361972e-01	 2.9094224957e+00	 7.8569755208e-02
 7.6694140825e-01	 2.8637890865e+00	-1.4007063538e-01
 7.4090303227e-01	 2.8706357670e+00	-1.1369698041e-01
 7.1486814179e-01	 2.8772296459e+00	-8.8004245155e-02
 6.8884014677e-01	 2.8835717395e+00	-6.3805777991e-02
 6.6282242118e-01	 2.8896631204e+00	-4.0899044678e-02
 6.3681830203e-01	 2.8955049160e+00	-1.9091613422e-02
 6.1083108835e-01	 2.9010983074e+00	 1.7944105112e-03
 5.8486404029e-01	 2.9064445283e+00	 2.1918787162e-02
 5.5892037815e-01	 2.9115448637e+00	 4.1420279934e-02
 5.3300328157e-01	 2.9164006487e+00	 6.0414481996e-02
 5.0711588869e-01	 2.9210132672e+00	 7.8992282168e-02
 7.6998471550e-01	 2.8751529142e+00	-1.3946311025e-01
 7.4384301640e-01	 2.8820267631e+00	-1.1314445472e-01
 7.1770481663e-01	 2.8886468072e+00	-8.7350642163e-02
 6.9157353968e-01	 2.8950140670e+00	-6.3060167201e-02
 6.6545257291e-01	 2.9011296192e+00	-4.0090761065e-02
 6.3934526658e-01	 2.9069945956e+00	-1.8258759269e-02
 6.1325493280e-01	 2.9126101822e+00	 2.6028387893e-03
 5.8718484466e-01	 2.9179776175e+00	 2.2640875049e-02
 5.6113823523e-01	 2.9230981916e+00	 4.1979290400e-02
 5.3511829678e-01	 2.9279732449e+00	 6.0717085717e-02
 5.0912817990e-01	 2.9326041667e+00	 7.8926935866e-02
 7.7302806241e-01	 2.8865168901e+00	-1.3938106417e-01
 7.4678303885e-01	 2.8934179077e+00	-1.1315004194e-01
 7.2054152845e-01	 2.9000641174e+00	-8.7309824267e-02
 6.9430696822e-01	 2.9064565436e+00	-6.2948103580e-02
 6.6808275893e-01	 2.9125962674e+00	-3.9927528483e-02
 6.4187226407e-01	 2.9184844250e+00	-1.8075549941e-02
 6.1567880885e-01	 2.9241222071e+00	 2.7617522608e-03
 5.8950567927e-01	 2.9295108570e+00	 2.2716279847e-02
 5.6335612122e-01	 2.9346516701e+00	 4.1895295542e-02
 5.3723333956e-01	 2.9395459919e+00	 6.0379521107e-02
 5.1114049734e-01	 2.9441952174e+00	 7.8221901808e-02
 7.7607145503e-01	 2.8978810366e+00	-1.3992828952e-01
 7.4972310544e-01	 2.9048092234e+00	-1.1383791172e-01
 7.2337828286e-01	 2.9114815990e+00	-8.8019640409e-02
 6.9704043781e-01	 2.9178991921e+00	-6.3620554991e-02
 6.7071298445e-01	 2.9240630878e+00	-4.0570137177e-02
 6.4439929950e-01	 2.9299744269e+00	-1.8709305573e-02
 6.1810272129e-01	 2.9356344048e+00	 2.1005853048e-03
 5.9182654874e-01	 2.9410442698e+00	 2.1974462876e-02
 5.6557404052e-01	 2.9462053221e+00	 4.1001040323e-02
 5.3934841410e-01	 2.9511189127e+00	 5.9241054132e-02
 5.1315284500e-01	 2.9557864420e+00	 7.6726181563e-02
 4.9303024934e-01	 2.8398792692e+00	 7.4398468861e-02
 4.6788952314e-01	 2.8441294491e+00	 9.4289627227e-02
 4.4278367242e-01	 2.8481459637e+00	 1.1316305853e-01
 4.1771563064e-01	 2.8519302921e+00	 1.3100908061e-01
 3.9268828793e-01	 2.8554839558e+00	 1.4781029300e-01
 3.6770449047e-01	 2.8588085178e+00	 1.6353938853e-01
 3.4276703995e-01	 2.8619055811e+00	 1.7798214303e-01
 3.1787869304e-01	 2.8647767873e+00	 1.9101653391e-01
 2.9304216086e-01	 2.8674238157e+00	 2.0265730661e-01
 2.6826010855e-01	 2.8698483817e+00	 2.1292189119e-01
 2.4353515486e-01	 2.8720522356e+00	 2.2182944359e-01
 4.9504246870e-01	 2.8514697549e+00	 7.4512031846e-02
 4.6979913490e-01	 2.8557372813e+00	 9.4332296314e-02
 4.4459081891e-01	 2.8597701886e+00	 1.1318238765e-01
 4.1942046616e-01	 2.8635699620e+00	 1.3105212891e-01
 3.9429097859e-01	 2.8671381294e+00	 1.4792303704e-01
 3.6920521400e-01	 2.8704762601e+00	 1.6376768222e-01
 3.4416598551e-01	 2.8735859635e+00	 1.7834882151e-01
 3.1917606103e-01	 2.8764688881e+00	 1.9149766611e-01
 2.9423816275e-01	 2.8791267199e+00	 2.0323181783e-01
 2.6935496670e-01	 2.8815611813e+00	 2.1357047420e-01
 2.4452910230e-01	 2.8837740299e+00	 2.2253384275e-01
 4.9705468636e-01	 2.8630602308e+00	 7.5066819397e-02
 4.7170874503e-01	 2.8673451035e+00	 9.4730985274e-02
 4.4639796385e-01	 2.8713944036e+00	 1.1347258920e-01
 4.2112530024e-01	 2.8752096221e+00	 1.3128489447e-01
 3.9589366790e-01	 2.8787922932e+00	 1.4815212751e-01
 3.7070593626e-01	 2.8821439924e+00	 1.6404940742e-01
 3.4556492988e-01	 2.8852663360e+00	 1.7873012861e-01
 3.2047342791e-01	 2.8881609789e+00	 1.9197239736e-01
 2.9543416362e-01	 2.8908296141e+00	 2.0379872758e-01
 2.7044982391e-01	 2.8932739710e+00	 2.1423195728e-01
 2.4552304890e-01	 2.8954958142e+00	 2.2329501636e-01
 4.9906690630e-01	 2.8746507198e+00	 7.5905713635e-02
 4.7361835733e-01	 2.8789529390e+00	 9.5340618973e-02
 4.4820511085e-01	 2.8830186317e+00	 1.1390028004e-01
 4.2283013624e-01	 2.8868492954e+00	 1.3158525648e-01
 3.9749635902e-01	 2.8904464701e+00	 1.4838619725e-01
 3.7220666021e-01	 2.8938117380e+00	 1.6428390050e-01
 3.4696387583e-01	 2.8969467217e+00	 1.7903369798e-01
 3.2177079627e-01	 2.8998530829e+00	 1.9235778798e-01
 2.9663016585e-01	 2.9025325215e+00	 2.0428429534e-01
 2.7154468237e-01	 2.9049867739e+00	 2.1484144795e-01
 2.4651699662e-01	 2.9072176117e+00	 2.2405644365e-01
 5.0107913251e-01	 2.8862412450e+00	 7.6872531591e-02
 4.7552797558e-01	 2.8905608106e+00	 9.6016936876e-02
 4.5001226348e-01	 2.8946428961e+00	 1.1433278657e-01
 4.2453497756e-01	 2.8984890049e+00	 1.3183171421e-01
 3.9909905513e-01	 2.9021006834e+00	 1.4851442579e-01
 3.7370738885e-01	 2.9054795200e+00	 1.6437089239e-01
 3.4836282614e-01	 2.9086271438e+00	 1.7916754654e-01
 3.2306816867e-01	 2.9115452235e+00	 1.9257115545e-01
 2.9782617181e-01	 2.9142354655e+00	 2.0461494876e-01
 2.7263954424e-01	 2.9166996133e+00	 2.1533416962e-01
 2.4751094744e-01	 2.9189394459e+00	 2.2476170361e-01
 5.0309136899e-01	 2.8978318293e+00	 7.7812004096e-02
 4.7743760357e-01	 2.9021687414e+00	 9.6616473837e-02
 4.5181942533e-01	 2.9062672198e+00	 1.1463812728e-01
 4.2623982757e-01	 2.9101287738e+00	 1.3190337125e-01
 4.0070175942e-01	 2.9137549561e+00	 1.4842652498e-01
 3.7520812514e-01	 2.9171473614e+00	 1.6421014832e-01
 3.4976178359e-01	 2.9203076255e+00	 1.7904007756e-01
 3.2436554768e-01	 2.9232374236e+00	 1.9253007590e-01
 2.9902218387e-01	 2.9259384691e+00	 2.0471728367e-01
 2.7373441169e-01	 2.9284125125e+00	 2.1564546004e-01
 2.4850490333e-01	 2.9306613398e+00	 2.2535447184e-01
 5.0510361972e-01	 2.9094224957e+00	 7.8569755208e-02
 4.7934724509e-01	 2.9137767544e+00	 9.6996541369e-02
 4.5362659997e-01	 2.9178916258e+00	 1.1468499574e-01
 4.2794468966e-01	 2.9217686252e+00	 1.3167991998e-01
 4.0230447506e-01	 2.9254093113e+00	 1.4801272498e-01
 3.7670887206e-01	 2.9288152855e+00	 1.6370189722e-01
 3.5116075094e-01	 2.9319881900e+00	 1.7856008379e-01
 3.2566293588e-01	 2.9349297066e+00	 1.9215238591e-01
 3.0021820440e-01	 2.9376415556e+00	 2.0451806441e-01
 2.7482928690e-01	 2.9401254946e+00	 2.1571077016e-01
 2.4949886625e-01	 2.9423833167e+00	 2.2577851771e-01
 5.0711588869e-01	 2.9210132672e+00	 7.8992282168e-02
 4.8125690392e-01	 2.9253848727e+00	 9.7015209386e-02
 4.5543379101e-01	 2.9295161373e+00	 1.1434274399e-01
 4.2964956721e-01	 2.9334085821e+00	 1.3104162660e-01
 4.0390720524e-01	 2.9370637723e+00	 1.4716376048e-01
 3.7820963258e-01	 2.9404833154e+00	 1.6274681921e-01
 3.5255973098e-01	 2.9436688603e+00	 1.7763675103e-01
 3.2696033585e-01	 2.9466220956e+00	 1.9135618454e-01
 3.0141423577e-01	 2.9493447483e+00	 2.0394422434e-01
 2.7592417203e-01	 2.9518385830e+00	 2.1546566302e-01
 2.5049283820e-01	 2.9541053999e+00	 2.2597770176e-01
 5.0912817990e-01	 2.9326041667e+00	 7.8926935866e-02
 4.8316658386e-01	 2.9369931193e+00	 9.6531288408e-02
 4.5724100201e-01	 2.9411407771e+00	 1.1348136640e-01
 4.3135446360e-01	 2.9450486676e+00	 1.2986931634e-01
 4.0550995312e-01	 2.9487183620e+00	 1.4577085742e-01
 3.7971040969e-01	 2.9521514743e+00	 1.6124603338e-01
 3.5395872648e-01	 2.9553496598e+00	 1.7617966191e-01
 3.2825775016e-01	 2.9583146137e+00	 1.9005983557e-01
 3.0261028036e-01	 2.9610480703e+00	 2.0292286659e-01
 2.7701906927e-01	 2.9635518007e+00	 2.1483430865e-01
 2.5148682112e-01	 2.9658276127e+00	 2.2558623054e-01
 5.1114049734e-01	 2.9441952174e+00	 7.8221901808e-02
 4.8507628868e-01	 2.9486015172e+00	 9.5404312203e-02
 4.5904823657e-01	 2.9527655685e+00	 1.1197148381e-01
 4.3305938221e-01	 2.9566889048e+00	 1.2804435916e-01
 4.0711272189e-01	 2.9603731036e+00	 1.4372571980e-01
 3.8121120636e-01	 2.9638197852e+00	 1.5907969932e-01
 3.5535774022e-01	 2.9670306114e+00	 1.7356211717e-01
 3.2955518137e-01	 2.9700072843e+00	 1.8649058014e-01
 3.0380634054e-01	 2.9727515448e+00	 1.9797116031e-01
 2.7811398077e-01	 2.9752651712e+00	 2.0818221189e-01
 2.5248081700e-01	 2.9775499782e+00	 2.1730078345e-01
 5.1315284500e-01	 2.9557864420e+00	 7.6726181563e-02
 4.8698602218e-01	 2.9602100894e+00	 9.3494520864e-02
 4.6085549826e-01	 2.9643905345e+00	 1.0963149930e-01
 4.3476432642e-01	 2.9683293169e+00	 1.2463544929e-01
 4.0871551473e-01	 2.9720280202e+00	 1.3847163327e-01
 3.8271202557e-01	 2.9754882713e+00	 1.5130480644e-01
 3.5675677496e-01	 2.9787117385e+00	 1.6317848375e-01
 3.3085263207e-01	 2.9817001305e+00	 1.7362630317e-01
 3.0500241868e-01	 2.9844551950e+00	 1.8277180020e-01
 2.7920890872e-01	 2.9869787175e+00	 1.9083588070e-01
 2.5347482781e-01	 2.9892725198e+00	 1.9803734896e-01
 2.4353515486e-01	 2.8720522356e+00	 2.2182944359e-01
 2.1887404953e-01	 2.8740368425e+00	 2.2971199715e-01
 1.9427506055e-01	 2.8758044108e+00	 2.3689804209e-01
 1.6974060800e-01	 2.8773567866e+00	 2.4340041220e-01
 1.4527306580e-01	 2.8786958457e+00	 2.4923519611e-01
 1.2087476147e-01	 2.8798234927e+00	 2.5442216268e-01
 9.6547975948e-02	 2.8807416595e+00	 2.5898521732e-01
 7.2294943363e-02	 2.8814523041e+00	 2.6295281654e-01
 4.8117850928e-02	 2.8819574095e+00	 2.6635827281e-01
 2.4018838800e-02	 2.8822589824e+00	 2.6923988743e-01
 0.0000000000e+00	 2.8823590522e+00	 2.7164085446e-01
 2.4452910230e-01	 2.8837740299e+00	 2.2253384275e-01
 2.1976734684e-01	 2.8857667366e+00	 2.3046124353e-01
 1.9506796127e-01	 2.8875415189e+00	 2.3768928679e-01
 1.7043337551e-01	 2.8891002304e+00	 2.4423185991e-01
 1.4586597318e-01	 2.8904447547e+00	 2.5010521873e-01
 1.2136809131e-01	 2.8915770040e+00	 2.5532882299e-01
 9.6942020137e-02	 2.8924989181e+00	 2.5992619452e-01
 7.2590002912e-02	 2.8932124631e+00	 2.6392572252e-01
 4.8314235775e-02	 2.8937196300e+00	 2.6736134596e-01
 2.4116867617e-02	 2.8940224338e+00	 2.7027304837e-01
 0.0000000000e+00	 2.8941229120e+00	 2.7270710596e-01
 2.4552304890e-01	 2.8954958142e+00	 2.2329501636e-01
 2.2066064340e-01	 2.8974966207e+00	 2.3132353531e-01
 1.9586086131e-01	 2.8992786171e+00	 2.3864684835e-01
 1.7112614243e-01	 2.9008436643e+00	 2.4527483495e-01
 1.4645888006e-01	 2.9021936537e+00	 2.5121896195e-01
 1.2186142073e-01	 2.9033305053e+00	 2.5649354539e-01
 9.7336063991e-02	 2.9042561668e+00	 2.6111702615e-01
 7.2885062210e-02	 2.9049726121e+00	 2.6511318130e-01
 4.8510620454e-02	 2.9054818405e+00	 2.6851219842e-01
 2.4214896349e-02	 2.9057858752e+00	 2.7135154626e-01
 0.0000000000e+00	 2.9058867618e+00	 2.7367658035e-01
 2.4651699662e-01	 2.9072176117e+00	 2.2405644365e-01
 2.2155394098e-01	 2.9092265182e+00	 2.3225127906e-01
 1.9665376225e-01	 2.9110157285e+00	 2.3973369791e-01
 1.7181891013e-01	 2.9125871115e+00	 2.4650445260e-01
 1.4705178761e-01	 2.9139425661e+00	 2.5256520486e-01
 1.2235475071e-01	 2.9150840200e+00	 2.5792023061e-01
 9.7730108291e-02	 2.9160134288e+00	 2.6257812908e-01
 7.3180121843e-02	 2.9167327745e+00	 2.6655345568e-01
 4.8707005356e-02	 2.9172440644e+00	 2.6986820334e-01
 2.4312925193e-02	 2.9175493298e+00	 2.7255306310e-01
 0.0000000000e+00	 2.9176506249e+00	 2.7464840074e-01
 2.4751094744e-01	 2.9189394459e+00	 2.2476170361e-01
 2.2244724133e-01	 2.9209564521e+00	 2.3319698182e-01
 1.9744666566e-01	 2.9227528766e+00	 2.4091290475e-01
 1.7251167999e-01	 2.9243305954e+00	 2.4789591913e-01
 1.4764469701e-01	 2.9256915150e+00	 2.5413280382e-01
 1.2284808223e-01	 2.9268375712e+00	 2.5961283452e-01
 9.8124153819e-02	 2.9277707274e+00	 2.6432994292e-01
 7.3475182394e-02	 2.9284929735e+00	 2.6828478700e-01
 4.8903390870e-02	 2.9290063249e+00	 2.7148665448e-01
 2.4410954342e-02	 2.9293128212e+00	 2.7395512804e-01
 0.0000000000e+00	 2.9294145246e+00	 2.7572144682e-01
 2.4850490333e-01	 2.9306613398e+00	 2.2535447184e-01
 2.2334054624e-01	 2.9326864459e+00	 2.3411324671e-01
 1.9823957311e-01	 2.9344900845e+00	 2.4214763120e-01
 1.7320445339e-01	 2.9360741391e+00	 2.4942452664e-01
 1.4823760943e-01	 2.9374405239e+00	 2.5591068774e-01
 1.2334141626e-01	 2.9385911825e+00	 2.6157536452e-01
 9.8518201357e-02	 2.9395280860e+00	 2.6639292834e-01
 7.3770244451e-02	 2.9402532325e+00	 2.7034539573e-01
 4.9099777385e-02	 2.9407686455e+00	 2.7342476974e-01
 2.4508983991e-02	 2.9410763726e+00	 2.7563512462e-01
 0.0000000000e+00	 2.9411784844e+00	 2.7699436629e-01
 2.4949886625e-01	 2.9423833167e+00	 2.2577851771e-01
 2.2423385748e-01	 2.9444165228e+00	 2.3495276870e-01
 1.9903248619e-01	 2.9462273755e+00	 2.4340112771e-01
 1.7389723169e-01	 2.9478177660e+00	 2.5106564798e-01
 1.4883052605e-01	 2.9491896161e+00	 2.5788785357e-01
 1.2383475379e-01	 2.9503448770e+00	 2.6381187620e-01
 9.8912251686e-02	 2.9512855279e+00	 2.6878756530e-01
 7.4065308598e-02	 2.9520135748e+00	 2.7277348215e-01
 4.9296165292e-02	 2.9525310493e+00	 2.7573969485e-01
 2.4607014335e-02	 2.9528400072e+00	 2.7767029788e-01
 0.0000000000e+00	 2.9529425275e+00	 2.7856558609e-01
 2.5049283820e-01	 2.9541053999e+00	 2.2597770176e-01
 2.2512717682e-01	 2.9561467061e+00	 2.3566833064e-01
 1.9982540645e-01	 2.9579647730e+00	 2.4463672809e-01
 1.7459001628e-01	 2.9595614993e+00	 2.5279473189e-01
 1.4942344805e-01	 2.9609388147e+00	 2.6005336190e-01
 1.2432809579e-01	 2.9620986781e+00	 2.6632646996e-01
 9.9306305589e-02	 2.9630430764e+00	 2.7153425198e-01
 7.4360375422e-02	 2.9637740238e+00	 2.7557921286e-01
 4.9492554981e-02	 2.9642935598e+00	 2.7840934954e-01
 2.4705045568e-02	 2.9646037486e+00	 2.8001467041e-01
 0.0000000000e+00	 2.9647066773e+00	 2.8039258301e-01
 2.5148682112e-01	 2.9658276127e+00	 2.2558623054e-01
 2.2602050603e-01	 2.9678770190e+00	 2.3526106149e-01
 2.0061833547e-01	 2.9697023001e+00	 2.4396445738e-01
 1.7528280852e-01	 2.9713053625e+00	 2.5165926847e-01
 1.5001637660e-01	 2.9726881432e+00	 2.5830712777e-01
 1.2482144324e-01	 2.9738526090e+00	 2.6386980822e-01
 9.9700363848e-02	 2.9748007548e+00	 2.6831055676e-01
 7.4655445506e-02	 2.9755346027e+00	 2.7159540999e-01
 4.9688946840e-02	 2.9760562003e+00	 2.7369449615e-01
 2.4803077885e-02	 2.9763676199e+00	 2.7458332780e-01
 0.0000000000e+00	 2.9764709571e+00	 2.7424408944e-01
 2.5248081700e-01	 2.9775499782e+00	 2.1730078345e-01
 2.2691384689e-01	 2.9796074848e+00	 2.2552148767e-01
 2.0141127483e-01	 2.9814399803e+00	 2.3289256962e-01
 1.7597560979e-01	 2.9830493787e+00	 2.3936458072e-01
 1.5060931288e-01	 2.9844376249e+00	 2.4488620919e-01
 1.2531479713e-01	 2.9856066932e+00	 2.4940564298e-01
 1.0009442724e-01	 2.9865585865e+00	 2.5287190865e-01
 7.4950519438e-02	 2.9872953349e+00	 2.5523619145e-01
 4.9885341259e-02	 2.9878189941e+00	 2.5645314161e-01
 2.4901111479e-02	 2.9881316446e+00	 2.5648217133e-01
 0.0000000000e+00	 2.9882353902e+00	 2.5528874717e-01
 2.5347482781e-01	 2.9892725198e+00	 1.9803734896e-01
 2.2780720116e-01	 2.9913381267e+00	 2.0454677725e-01
 2.0220422610e-01	 2.9931778367e+00	 2.1035089575e-01
 1.7666842146e-01	 2.9947935713e+00	 2.1538568548e-01
 1.5120225806e-01	 2.9961872829e+00	 2.1958473845e-01
 1.2580815842e-01	 2.9973609538e+00	 2.2288062470e-01
 1.0048849656e-01	 2.9983165948e+00	 2.2520623443e-01
 7.5245597802e-02	 2.9990562437e+00	 2.2649610070e-01
 5.0081738629e-02	 2.9995819646e+00	 2.2668770799e-01
 2.4999146547e-02	 2.9998958460e+00	 2.2572279153e-01
 0.0000000000e+00	 3.0000000000e+00	 2.2354863216e-01
