x	y	stress_yy
 1.000000000000000e+00	 0.000000000000000e+00	 3.109752099862372e+01
 9.997942136041430e-01	 2.028591802679378e-02	 3.106396169185972e+01
 9.991701517322812e-01	 4.073043895732996e-02	 3.096963590529830e+01
 9.981179738659461e-01	 6.132242709398375e-02	 3.081386949326406e+01
 9.966281528999331e-01	 8.205016480108969e-02	 3.059622492619378e+01
 9.946915115410935e-01	 1.029013581149163e-01	 3.031650839541787e+01
 9.922992591451227e-01	 1.238631447915628e-01	 2.997477653758806e+01
 9.894430288203904e-01	 1.449221048859623e-01	 2.957134302286522e+01
 9.861149146151664e-01	 1.660642739430359e-01	 2.910678530548625e+01
 9.823075085927058e-01	 1.872751588682954e-01	 2.858195188533278e+01
 9.780139375877577e-01	 2.085397565298897e-01	 2.799797047170783e+01
 1.028571524673962e+00	 0.000000000000000e+00	 2.899134403015121e+01
 1.028359858646923e+00	 2.086551763399812e-02	 2.896062036753490e+01
 1.027717966375624e+00	 4.189416969848920e-02	 2.887860970797183e+01
 1.026635726183013e+00	 6.307450233200076e-02	 2.874477520103703e+01
 1.025103338759998e+00	 8.439446310816293e-02	 2.855872433987948e+01
 1.023111364604206e+00	 1.058414068059686e-01	 2.832020918443299e+01
 1.020650761909257e+00	 1.274021036876108e-01	 2.802912639569841e+01
 1.017712924728706e+00	 1.490627503797446e-01	 2.768551744510200e+01
 1.014289721225768e+00	 1.708089834415316e-01	 2.728956943224526e+01
 1.010373531807687e+00	 1.926258956886906e-01	 2.684161700813033e+01
 1.005957286932442e+00	 2.144980553270330e-01	 2.634214595563249e+01
 1.057143226019696e+00	 0.000000000000000e+00	 2.719150863606515e+01
 1.056925680325119e+00	 2.144512082513255e-02	 2.716257502564453e+01
 1.056265957544136e+00	 4.305790763559049e-02	 2.709070799339333e+01
 1.055153654839367e+00	 6.482658840407383e-02	 2.697545914166774e+01
 1.053578700696151e+00	 8.673877591142540e-02	 2.681643946464900e+01
 1.051531393401269e+00	 1.087814736771771e-01	 2.661331301314112e+01
 1.049002439984713e+00	 1.309410844673300e-01	 2.636579049150547e+01
 1.045982995443745e+00	 1.532034214778755e-01	 2.607362326992664e+01
 1.042464702055124e+00	 1.755537222797343e-01	 2.573659838158639e+01
 1.038439728568777e+00	 1.979766655962570e-01	 2.535453515425653e+01
 1.033900809064698e+00	 2.204563909682513e-01	 2.492728419507462e+01
 1.085715080702975e+00	 0.000000000000000e+00	 2.565350372329070e+01
 1.085491655309309e+00	 2.202472712684339e-02	 2.562515018669638e+01
 1.084814101922956e+00	 4.422165181821740e-02	 2.556124669965025e+01
 1.083671736544706e+00	 6.657868387927643e-02	 2.546138934982685e+01
 1.082054215452861e+00	 8.908310129626797e-02	 2.532515584490576e+01
 1.079951574721949e+00	 1.117215563273666e-01	 2.515209287210764e+01
 1.077354270216985e+00	 1.344800842403968e-01	 2.494170343070988e+01
 1.074253217877654e+00	 1.573441147986167e-01	 2.469343473973604e+01
 1.070639834093048e+00	 1.802984865825520e-01	 2.440666742904509e+01
 1.066506075954637e+00	 2.033274642209498e-01	 2.408070682088498e+01
 1.061844481163376e+00	 2.264147585873002e-01	 2.371477719560301e+01
 1.114287065389571e+00	 0.000000000000000e+00	 2.433707750050622e+01
 1.114057760270067e+00	 2.260433606577688e-02	 2.430802477750159e+01
 1.113362376197227e+00	 4.538540129595352e-02	 2.424999318354548e+01
 1.112189948008726e+00	 6.833078732668195e-02	 2.416256172740821e+01
 1.110529859774593e+00	 9.142743734808156e-02	 2.404521476204446e+01
 1.108371885355909e+00	 1.146616523553616e-01	 2.389737432595445e+01
 1.105706229451566e+00	 1.380191001164878e-01	 2.371832924831120e+01
 1.102523568942582e+00	 1.614848269602298e-01	 2.350721253462719e+01
 1.098815094329352e+00	 1.850432724748923e-01	 2.326299567999316e+01
 1.094572551043929e+00	 2.086782871927238e-01	 2.298447443416638e+01
 1.089788280407326e+00	 2.323731533179351e-01	 2.267025810983941e+01
 1.142859156745255e+00	 0.000000000000000e+00	 2.319600650955644e+01
 1.142623971877968e+00	 2.318394716857931e-02	 2.316548678079980e+01
 1.141910757052089e+00	 4.654915511838248e-02	 2.311213797462067e+01
 1.140708265941126e+00	 7.008289731536385e-02	 2.303545672292954e+01
 1.139005610405818e+00	 9.377178215225720e-02	 2.293476754967941e+01
 1.136792302092816e+00	 1.176017593599867e-01	 2.280920573818820e+01
 1.134058294533950e+00	 1.415581292052795e-01	 2.265770134596842e+01
 1.130794025550678e+00	 1.656255545809765e-01	 2.247896493701985e+01
 1.126990459753852e+00	 1.897880760816632e-01	 2.227147577447907e+01
 1.122639130915312e+00	 2.140291301415341e-01	 2.203347340589768e+01
 1.117732183975401e+00	 2.383315702939115e-01	 2.176295377328049e+01
 1.171431331435801e+00	 0.000000000000000e+00	 2.219336518563804e+01
 1.171190266803589e+00	 2.376355996189695e-02	 2.216087891559142e+01
 1.170459221172681e+00	 4.771291233508784e-02	 2.211118766267530e+01
 1.169226667051604e+00	 7.183501241439554e-02	 2.204365577016074e+01
 1.167481444091003e+00	 9.611613379418564e-02	 2.195740985896377e+01
 1.165212801722333e+00	 1.205418749400667e-01	 2.185131831514334e+01
 1.162410442309630e+00	 1.450971686164485e-01	 2.172397147010835e+01
 1.159064564614090e+00	 1.697662942791186e-01	 2.157366303254241e+01
 1.155165907356360e+00	 1.945328935277723e-01	 2.139837353869970e+01
 1.150705792647447e+00	 2.193799886973357e-01	 2.119575681791742e+01
 1.145676169046448e+00	 2.442900046489848e-01	 2.096313071619657e+01
 1.200003566126979e+00	 0.000000000000000e+00	 2.130265150229104e+01
 1.199756621717502e+00	 2.434317397237607e-02	 2.126789863424967e+01
 1.199007745244147e+00	 4.887667199565322e-02	 2.122110229605039e+01
 1.197745128049856e+00	 7.358713119285049e-02	 2.116144502716787e+01
 1.195957337574614e+00	 9.846049035925789e-02	 2.108781593165406e+01
 1.193633361034127e+00	 1.234819966944262e-01	 2.099878753942480e+01
 1.190762649624099e+00	 1.486362154596714e-01	 2.089259269342402e+01
 1.187335163044966e+00	 1.739070426729176e-01	 2.076710198279731e+01
 1.183341414126688e+00	 1.992777209381274e-01	 2.061980248937455e+01
 1.178772513318995e+00	 2.247308584900838e-01	 2.044777889187052e+01
 1.173620212799320e+00	 2.502484515169107e-01	 2.024769827169779e+01
 1.228575837484564e+00	 0.000000000000000e+00	 2.049997750789521e+01
 1.228323013290286e+00	 2.492278872666295e-02	 2.046291589282902e+01
 1.227556305951626e+00	 5.004043314966221e-02	 2.041855246478351e+01
 1.226263625645581e+00	 7.533925221980210e-02	 2.036583838063667e+01
 1.224433267601120e+00	 1.008048499328648e-01	 2.030338667977114e+01
 1.222053956817860e+00	 1.264221222218896e-01	 2.022944733412374e+01
 1.219114893322853e+00	 1.521752668446247e-01	 2.014188141694680e+01
 1.215605797755454e+00	 1.780477963806352e-01	 2.003813484004770e+01
 1.211516957054651e+00	 2.040225544376364e-01	 1.991521240127265e+01
 1.206839270008617e+00	 2.300817351497332e-01	 1.976965321477241e+01
 1.201564292412866e+00	 2.562069060314446e-01	 1.959750895766369e+01
 1.257148122174325e+00	 0.000000000000000e+00	 1.976377230653529e+01
 1.256889418192514e+00	 2.550240375140386e-02	 1.972467258217532e+01
 1.256104879980258e+00	 5.120419484669838e-02	 1.968261565564589e+01
 1.254782136548476e+00	 7.709137406432384e-02	 1.963627121670934e+01
 1.252909210914990e+00	 1.031492106003973e-01	 1.958393849625364e+01
 1.250474565863199e+00	 1.293622491212818e-01	 1.952352039254782e+01
 1.247467150251382e+00	 1.557143198809849e-01	 1.945249553812719e+01
 1.243876445657702e+00	 1.821885520205334e-01	 1.936788865132875e+01
 1.239692513130062e+00	 2.087673901512071e-01	 1.926623985916358e+01
 1.234906039794974e+00	 2.354326143062390e-01	 1.914357407007082e+01
 1.229508385065936e+00	 2.621653633263420e-01	 1.899537190670738e+01
 1.285720396862037e+00	 0.000000000000000e+00	 1.907452462847667e+01
 1.285455813094762e+00	 2.608201857324508e-02	 1.903402197683038e+01
 1.284653444015185e+00	 5.236795613634536e-02	 1.899451290332611e+01
 1.283300637468238e+00	 7.884349529548910e-02	 1.895433461290957e+01
 1.281385144260689e+00	 1.054935704472463e-01	 1.891143534450064e+01
 1.278895164959809e+00	 1.323023749914272e-01	 1.886334854464394e+01
 1.275819397255182e+00	 1.592533716784286e-01	 1.880716349985359e+01
 1.272147083663861e+00	 1.863293062108735e-01	 1.873949262631725e+01
 1.267868059342734e+00	 2.135122242037470e-01	 1.865643601534605e+01
 1.262972799756726e+00	 2.407834915895561e-01	 1.855354429404452e+01
 1.257452467937382e+00	 2.681238185353585e-01	 1.842578137263855e+01
 9.780139375877577e-01	 2.085397565298897e-01	 2.799797047170782e+01
 9.732282518626567e-01	 2.298410867697774e-01	 2.735873098411811e+01
 9.679444735972303e-01	 2.511647027528097e-01	 2.666754234624024e+01
 9.621575490304195e-01	 2.724942383587359e-01	 2.592525091941098e+01
 9.558630981313170e-01	 2.938129209596946e-01	 2.513305273419283e+01
 9.490574463164518e-01	 3.151036037782406e-01	 2.429252259158675e+01
 9.417376544619561e-01	 3.363488008802307e-01	 2.340564669481564e+01
 9.339015469729997e-01	 3.575307247119079e-01	 2.247485895055546e+01
 9.255477376767898e-01	 3.786313260672552e-01	 2.150460740545957e+01
 9.166756533117869e-01	 3.996323363483558e-01	 2.051320857426401e+01
 9.072855543946887e-01	 4.205153119584039e-01	 1.950856088964201e+01
 1.005957286932442e+00	 2.144980553270330e-01	 2.634214595563249e+01
 1.001034866869323e+00	 2.364079970495257e-01	 2.579471373755178e+01
 9.956001230027207e-01	 2.583408612529186e-01	 2.520231915887640e+01
 9.896478571779088e-01	 2.802798142119563e-01	 2.456500545584370e+01
 9.831735642198082e-01	 3.022076040792304e-01	 2.388306208202662e+01
 9.761734645564871e-01	 3.241065941677249e-01	 2.315705541496829e+01
 9.686445350888163e-01	 3.459587989435013e-01	 2.238786451899240e+01
 9.605845380618937e-01	 3.677459226352754e-01	 2.157672223352726e+01
 9.519920476978457e-01	 3.894494003436981e-01	 2.073335205758767e+01
 9.428664743561648e-01	 4.110504415091603e-01	 1.987294183493989e+01
 9.332080859968964e-01	 4.325300755731782e-01	 1.899867778775012e+01
 1.033900809064698e+00	 2.204563909682513e-01	 2.492728419507462e+01
 1.028841653818079e+00	 2.429749479366804e-01	 2.445828716938678e+01
 1.023255943416817e+00	 2.655170641276424e-01	 2.395047734529517e+01
 1.017138335311623e+00	 2.880654382079921e-01	 2.340315789661057e+01
 1.010484199182470e+00	 3.106023391078166e-01	 2.281578184066786e+01
 1.003289650468314e+00	 3.331096402275058e-01	 2.218798389989118e+01
 9.955515820942422e-01	 3.555688564302433e-01	 2.151961895692780e+01
 9.872676941448952e-01	 3.779611837240812e-01	 2.081202713578460e+01
 9.784365212370704e-01	 4.002675415131576e-01	 2.008141267576856e+01
 9.690574573511884e-01	 4.224686172729492e-01	 1.933416551106171e+01
 9.591307778906869e-01	 4.445449134800435e-01	 1.857230858336113e+01
 1.061844481163376e+00	 2.264147585873002e-01	 2.371477719560301e+01
 1.056648589999446e+00	 2.495419340679484e-01	 2.331240975978842e+01
 1.050911912253332e+00	 2.726933055161279e-01	 2.287670311742613e+01
 1.044628960980404e+00	 2.958511039882981e-01	 2.240628029809701e+01
 1.037794980715018e+00	 3.189971191894753e-01	 2.189982378768431e+01
 1.030405981906447e+00	 3.421127346048312e-01	 2.135610800089237e+01
 1.022458773503548e+00	 3.651789654919957e-01	 2.077403990607149e+01
 1.013950993430165e+00	 3.881764996356359e-01	 2.015916259818951e+01
 1.004881136697554e+00	 4.110857407406144e-01	 1.952614358293032e+01
 9.952485809069749e-01	 4.338868543146990e-01	 1.887651857226786e+01
 9.850536089052931e-01	 4.565598158667258e-01	 1.821146416932468e+01
 1.089788280407326e+00	 2.323731533179351e-01	 2.267025810983940e+01
 1.084455652703946e+00	 2.561089500800370e-01	 2.232416325873574e+01
 1.078568006926077e+00	 2.798695795575211e-01	 2.194967300372719e+01
 1.072119711733095e+00	 3.036368051943285e-01	 2.154478790050470e+01
 1.065105886513163e+00	 3.273919374682280e-01	 2.110748252532079e+01
 1.057522436725401e+00	 3.511158699469488e-01	 2.063573791139256e+01
 1.049366087342045e+00	 3.747891182802978e-01	 2.012794164076911e+01
 1.040634414125863e+00	 3.983918620272496e-01	 1.959620723872487e+01
 1.031325872482387e+00	 4.219039891910489e-01	 1.904740544145023e+01
 1.021439823633639e+00	 4.453051433093856e-01	 1.848187980888946e+01
 1.010976557869949e+00	 4.685747729209517e-01	 1.790011989291895e+01
 1.117732183975401e+00	 2.383315702939115e-01	 2.176295377328049e+01
 1.112262819222097e+00	 2.626759906096530e-01	 2.146424836940177e+01
 1.106224204848864e+00	 2.870458803909685e-01	 2.114156875411340e+01
 1.099610565118535e+00	 3.114225354675377e-01	 2.079247238031026e+01
 1.092416894272622e+00	 3.357867870880968e-01	 2.041428889695255e+01
 1.084638992779690e+00	 3.601190389011061e-01	 2.000426940937666e+01
 1.076273501635047e+00	 3.843993069466884e-01	 1.956295911086445e+01
 1.067317934440150e+00	 4.086072625562317e-01	 1.910345936165793e+01
 1.057770706994659e+00	 4.327222780294419e-01	 1.862720220318386e+01
 1.047631164141299e+00	 4.567234749319856e-01	 1.813403102269784e+01
 1.036899603613889e+00	 4.805897748304470e-01	 1.762390623245529e+01
 1.145676169046448e+00	 2.442900046489848e-01	 2.096313071619657e+01
 1.140070066844422e+00	 2.692430502935035e-01	 2.070538663081489e+01
 1.133880483435503e+00	 2.942222021556163e-01	 2.042741041036499e+01
 1.127101498685569e+00	 3.192082884493805e-01	 2.012621829526702e+01
 1.119727981689108e+00	 3.441816611931036e-01	 1.979873161810424e+01
 1.111755627923829e+00	 3.691222341145509e-01	 1.944182002598709e+01
 1.103180994407867e+00	 3.940095236427069e-01	 1.906054025262653e+01
 1.094001532581186e+00	 4.188226928798923e-01	 1.866325608714195e+01
 1.084215618637461e+00	 4.435405984207741e-01	 1.824936630772076e+01
 1.073822581040071e+00	 4.681418398574753e-01	 1.781836420842569e+01
 1.062822724966346e+00	 4.926048117829381e-01	 1.736983903491357e+01
 1.173620212799320e+00	 2.502484515169107e-01	 2.024769827169779e+01
 1.167877372861441e+00	 2.758101237682956e-01	 2.002519924355300e+01
 1.161536820099807e+00	 3.013985389906112e-01	 1.978607752664027e+01
 1.154592489983037e+00	 3.269940577813111e-01	 1.952681641592960e+01
 1.147039126458333e+00	 3.525765529272700e-01	 1.924372603721238e+01
 1.138872320012333e+00	 3.781254482345309e-01	 1.893369308753310e+01
 1.130088543685817e+00	 4.036197605198918e-01	 1.860481715187478e+01
 1.120685186757132e+00	 4.290381446555419e-01	 1.826009630921541e+01
 1.110660585813882e+00	 4.543589415300263e-01	 1.789928408987097e+01
 1.100014052940070e+00	 4.795602287608307e-01	 1.752162539657341e+01
 1.088745900756555e+00	 5.046198739661513e-01	 1.712608272334017e+01
 1.201564292412866e+00	 2.562069060314446e-01	 1.959750895766368e+01
 1.195684714563675e+00	 2.823772056707362e-01	 1.940535413153394e+01
 1.189193192255588e+00	 3.085748850350990e-01	 1.920010565909926e+01
 1.182083516559782e+00	 3.347798371047843e-01	 1.897779805126797e+01
 1.174350306276014e+00	 3.609714554346182e-01	 1.873422000932791e+01
 1.165989046899716e+00	 3.871286739082939e-01	 1.846756943403003e+01
 1.156996127494211e+00	 4.132300097297828e-01	 1.818428677382647e+01
 1.147368875176148e+00	 4.392536095404900e-01	 1.788436485929196e+01
 1.137105586927013e+00	 4.651772985221790e-01	 1.756736325400455e+01
 1.126205558451413e+00	 4.909786323170283e-01	 1.723314338192912e+01
 1.114669109813747e+00	 5.166349515678125e-01	 1.688183341056534e+01
 1.229508385065936e+00	 2.621653633263420e-01	 1.899537190670738e+01
 1.223492069241644e+00	 2.889442906375325e-01	 1.882933563362068e+01
 1.216849577316657e+00	 3.157512344282265e-01	 1.865371795807596e+01
 1.209574555964643e+00	 3.425656200612539e-01	 1.846419895466506e+01
 1.201661498837862e+00	 3.693663618591697e-01	 1.825614624170473e+01
 1.193105786440491e+00	 3.961319037830875e-01	 1.802902322862005e+01
 1.183903723858361e+00	 4.228402634239186e-01	 1.778536656791386e+01
 1.174052576046394e+00	 4.494690791920469e-01	 1.752428884903147e+01
 1.163550600379945e+00	 4.759956605622128e-01	 1.724525973761406e+01
 1.152397076184217e+00	 5.023970412010444e-01	 1.694808770131393e+01
 1.140592330967159e+00	 5.286500347756483e-01	 1.663288249100659e+01
 1.257452467937382e+00	 2.681238185353585e-01	 1.842578137263855e+01
 1.251299414185870e+00	 2.955113733053915e-01	 1.828217418095902e+01
 1.244505952696826e+00	 3.229275813091398e-01	 1.813253111364216e+01
 1.237065585746464e+00	 3.503514002921749e-01	 1.797228403639441e+01
 1.228972681839593e+00	 3.777612653449466e-01	 1.779664676926729e+01
 1.220222516489175e+00	 4.051351305061596e-01	 1.760436745156716e+01
 1.210811310803579e+00	 4.324505137538382e-01	 1.739491390947195e+01
 1.200736267576031e+00	 4.596845452675225e-01	 1.716735468096645e+01
 1.189995604575767e+00	 4.868140188151084e-01	 1.692116928582259e+01
 1.178588584748600e+00	 5.138154460878553e-01	 1.665622300158012e+01
 1.166515543046022e+00	 5.406651137773846e-01	 1.637272699812938e+01
 9.072855543946887e-01	 4.205153119584039e-01	 1.950856088964201e+01
 8.973778426309759e-01	 4.412631267957646e-01	 1.849418448946138e+01
 8.869551416254857e-01	 4.618556531118257e-01	 1.747283887201405e+01
 8.760203156838144e-01	 4.822741974000463e-01	 1.644773200748569e+01
 8.645771165329884e-01	 5.025000860247010e-01	 1.542220278015103e+01
 8.526301882742356e-01	 5.225147171506273e-01	 1.439972296475453e+01
 8.401850687269298e-01	 5.422996134099225e-01	 1.338390162731129e+01
 8.272481870752481e-01	 5.618364750149920e-01	 1.237849214874376e+01
 8.138268577557128e-01	 5.811072330167580e-01	 1.138740195112883e+01
 7.999292705517563e-01	 6.000941023989975e-01	 1.041470487118952e+01
 7.855644768903997e-01	 6.187796346948449e-01	 9.464655978530812e+00
 9.332080859968964e-01	 4.325300755731782e-01	 1.899867778775011e+01
 9.230172958028483e-01	 4.538706871152773e-01	 1.811222573101811e+01
 9.122968023392436e-01	 4.750515733063471e-01	 1.721519418102826e+01
 9.010495517492522e-01	 4.960535065378229e-01	 1.631068864175954e+01
 8.892794029524570e-01	 5.168572796396937e-01	 1.540199509600122e+01
 8.769911327391363e-01	 5.374437592939640e-01	 1.449258025432250e+01
 8.641904371526012e-01	 5.577939402061163e-01	 1.358609439412807e+01
 8.508839290686183e-01	 5.778889997356799e-01	 1.268637708246921e+01
 8.370791319083113e-01	 5.977103526761108e-01	 1.179746594166838e+01
 8.227844694497054e-01	 6.172397058661132e-01	 1.092360846143280e+01
 8.080092517328882e-01	 6.364591123094784e-01	 1.006927669012526e+01
 9.591307778906869e-01	 4.445449134800435e-01	 1.857230858336113e+01
 9.486569075157691e-01	 4.664783253921077e-01	 1.779635889682092e+01
 9.376386197525096e-01	 4.882475750959822e-01	 1.700733264126949e+01
 9.260789425821591e-01	 5.098329008777818e-01	 1.620816981464371e+01
 9.139818421175246e-01	 5.312145620299172e-01	 1.540202381087931e+01
 9.013522278387542e-01	 5.523728937482784e-01	 1.459225977892113e+01
 8.881959540140804e-01	 5.732883628084737e-01	 1.378245595777338e+01
 8.745198172119975e-01	 5.939416237139308e-01	 1.297640839562133e+01
 8.603315498395214e-01	 6.143135749974521e-01	 1.217813930616276e+01
 8.456398096707236e-01	 6.343854153495323e-01	 1.139190913459258e+01
 8.304541653603594e-01	 6.541386992415416e-01	 1.062223220509267e+01
 9.850536089052931e-01	 4.565598158667258e-01	 1.821146416932468e+01
 9.742966568301713e-01	 4.790860313298844e-01	 1.753091448169820e+01
 9.629805731689358e-01	 5.014436477038849e-01	 1.683572295521387e+01
 9.511084677413623e-01	 5.236123691666600e-01	 1.612861267048460e+01
 9.386844138540557e-01	 5.455719214701843e-01	 1.541253670425424e+01
 9.257134536777512e-01	 5.673021083213856e-01	 1.469067430740562e+01
 9.122015997064505e-01	 5.887828685631714e-01	 1.396643067138695e+01
 8.981558322023641e-01	 6.099943338400655e-01	 1.324344082754427e+01
 8.835840925595265e-01	 6.309168864214516e-01	 1.252557804413577e+01
 8.684952725493106e-01	 6.515312168468947e-01	 1.181696687440808e+01
 8.528991994425288e-01	 6.718183810526724e-01	 1.112200077283149e+01
 1.010976557869949e+00	 4.685747729209517e-01	 1.790011989291896e+01
 9.999365228064881e-01	 4.916937946322368e-01	 1.730191865644699e+01
 9.883226418921769e-01	 5.146397803532091e-01	 1.668828163003247e+01
 9.761381067856885e-01	 5.373919001511942e-01	 1.606167501612148e+01
 9.633870979879176e-01	 5.599293462353078e-01	 1.542479550577037e+01
 9.500747903607883e-01	 5.822313908211019e-01	 1.478056384796997e+01
 9.362073546247942e-01	 6.042774448163852e-01	 1.413212285364410e+01
 9.217919547367011e-01	 6.260471170044052e-01	 1.348284054057270e+01
 9.068367410785103e-01	 6.475202733887814e-01	 1.283631891617464e+01
 8.913508394199655e-01	 6.686770963558415e-01	 1.219640864725440e+01
 8.753443356491133e-01	 6.894981433045083e-01	 1.156722958729175e+01
 1.036899603613889e+00	 4.805897748304470e-01	 1.762390623245530e+01
 1.025576484505152e+00	 5.043016050027935e-01	 1.709681085572596e+01
 1.013664805225885e+00	 5.278359622671089e-01	 1.655411521996681e+01
 1.001167839273965e+00	 5.511714825781215e-01	 1.599800008539681e+01
 9.880898743449751e-01	 5.742868246001001e-01	 1.543086118254560e+01
 9.744362179925259e-01	 5.971607290552423e-01	 1.485529959971922e+01
 9.602131991641952e-01	 6.197720789142912e-01	 1.427411769399716e+01
 9.454281655119877e-01	 6.420999600972692e-01	 1.369032142253584e+01
 9.300894764066567e-01	 6.641237223401113e-01	 1.310712974697021e+01
 9.142064916171869e-01	 6.858230398740129e-01	 1.252799147332891e+01
 8.977895556498290e-01	 7.071779715586872e-01	 1.195660956208781e+01
 1.062822724966346e+00	 4.926048117829381e-01	 1.736983903491357e+01
 1.051216520986597e+00	 5.169094521451840e-01	 1.690419659573602e+01
 1.039007042473715e+00	 5.410321826687384e-01	 1.642329381638381e+01
 1.026197644765019e+00	 5.649511051941787e-01	 1.592900890447598e+01
 1.012792722751094e+00	 5.886443448393746e-01	 1.542340350026872e+01
 9.987977166776254e-01	 6.120901108316226e-01	 1.490870915406388e+01
 9.842191137197361e-01	 6.352667582030658e-01	 1.438732066857804e+01
 9.690644452252052e-01	 6.581528500089799e-01	 1.386179742602769e+01
 9.533422795541483e-01	 6.807272197161121e-01	 1.333487353567887e+01
 9.370622104754750e-01	 7.029690333990507e-01	 1.280947729816803e+01
 9.202348411143920e-01	 7.248578513768460e-01	 1.228876009831272e+01
 1.088745900756555e+00	 5.046198739661513e-01	 1.712608272334018e+01
 1.076856611311257e+00	 5.295173257630371e-01	 1.671362965223476e+01
 1.064349332939321e+00	 5.542284307812514e-01	 1.628665057969719e+01
 1.051227502817678e+00	 5.787307567461020e-01	 1.584671565994879e+01
 1.037495623032141e+00	 6.030018952279438e-01	 1.539553081455508e+01
 1.023159266520749e+00	 6.270195239580590e-01	 1.493491940638970e+01
 1.008225078686499e+00	 6.507614700288847e-01	 1.446681238374814e+01
 9.927007745733348e-01	 6.742057736298567e-01	 1.399324827375500e+01
 9.765951315311691e-01	 6.973307519574549e-01	 1.351638407450405e+01
 9.599179773293283e-01	 7.201150629285950e-01	 1.303851769990432e+01
 9.426801737125188e-01	 7.425377683206226e-01	 1.256216812246521e+01
 1.114669109813747e+00	 5.166349515678125e-01	 1.688183341056534e+01
 1.102496734539564e+00	 5.421252155599821e-01	 1.651541882132480e+01
 1.089691655926353e+00	 5.674246958278018e-01	 1.613560307581201e+01
 1.076257392990768e+00	 5.925104259806290e-01	 1.574356232711644e+01
 1.062198555013982e+00	 6.173594640406204e-01	 1.534063680132988e+01
 1.047520847626556e+00	 6.419489562423668e-01	 1.492821429703291e+01
 1.032231074459569e+00	 6.662562017379239e-01	 1.450771633795231e+01
 1.016337134253357e+00	 6.902587178502210e-01	 1.408059635626354e+01
 9.998480133479023e-01	 7.139343055048102e-01	 1.364835120427866e+01
 9.827737735132461e-01	 7.372611144602862e-01	 1.321254683334233e+01
 9.651255351139258e-01	 7.602177079516546e-01	 1.277883940408958e+01
 1.140592330967159e+00	 5.286500347756483e-01	 1.663288249100659e+01
 1.128136869731951e+00	 5.547331112396476e-01	 1.630277177939351e+01
 1.115033990738468e+00	 5.806209670315439e-01	 1.596212882056476e+01
 1.101287294843115e+00	 6.062901016444959e-01	 1.561226949636766e+01
 1.086901498522482e+00	 6.317170395522175e-01	 1.525226143347154e+01
 1.071882440099709e+00	 6.568783954923613e-01	 1.488290502449107e+01
 1.056237081434027e+00	 6.817509406763600e-01	 1.450507754889304e+01
 1.039973504962253e+00	 7.063116695603934e-01	 1.411959304370040e+01
 1.023100906014532e+00	 7.305378667988487e-01	 1.372721417621240e+01
 1.005629580361728e+00	 7.544071739917663e-01	 1.332957922640278e+01
 9.875709069883291e-01	 7.778976558315790e-01	 1.293478117057288e+01
 1.166515543046022e+00	 5.406651137773846e-01	 1.637272699812938e+01
 1.153776995948852e+00	 5.673410025056632e-01	 1.607423718881851e+01
 1.140376316679318e+00	 5.938172336156315e-01	 1.576529332267623e+01
 1.126317187933549e+00	 6.200697724844398e-01	 1.544786145772502e+01
 1.111604433383508e+00	 6.460746100375476e-01	 1.512396648756799e+01
 1.096244024044868e+00	 6.718078295158587e-01	 1.479321079294267e+01
 1.080243080004956e+00	 6.972456741903688e-01	 1.445375035814655e+01
 1.063609867397003e+00	 7.223646156506948e-01	 1.410571294957194e+01
 1.046353790541240e+00	 7.471414222802413e-01	 1.374903642531495e+01
 1.028485379209273e+00	 7.715532275206749e-01	 1.338520531150421e+01
 1.010016271005445e+00	 7.955775975220339e-01	 1.302149232254377e+01
 7.855644768903997e-01	 6.187796346948449e-01	 9.464655978530812e+00
 7.707423701765810e-01	 6.371467715387087e-01	 8.542488472545118e+00
 7.554736580333883e-01	 6.551789005581102e-01	 7.651575081450444e+00
 7.397698440641727e-01	 6.728598994536507e-01	 6.793418398949598e+00
 7.236432017326105e-01	 6.901741818186914e-01	 5.971736705094774e+00
 7.071067426773200e-01	 7.071067426773202e-01	 5.189176886346067e+00
 6.901741818186911e-01	 7.236432017326108e-01	 4.446097805550891e+00
 6.728598994536503e-01	 7.397698440641729e-01	 3.742666576212678e+00
 6.551789005581099e-01	 7.554736580333886e-01	 3.089695186549324e+00
 6.371467715387082e-01	 7.707423701765813e-01	 2.500637041561668e+00
 6.187796346948450e-01	 7.855644768903999e-01	 1.975032020867192e+00
 8.080092517328882e-01	 6.364591123094784e-01	 1.006927669012526e+01
 7.927636548324526e-01	 6.553510262570685e-01	 9.237082612133989e+00
 7.770586923045764e-01	 6.738983606956130e-01	 8.427129479859884e+00
 7.609061964280683e-01	 6.920845326870669e-01	 7.640189891051627e+00
 7.443187913381445e-01	 7.098935104974183e-01	 6.876925737531757e+00
 7.273098604357455e-01	 7.273098604357457e-01	 6.139263379183708e+00
 7.098935104974181e-01	 7.443187913381450e-01	 5.430713237129239e+00
 6.920845326870666e-01	 7.609061964280688e-01	 4.768000383324452e+00
 6.738983606956129e-01	 7.770586923045766e-01	 4.158966395906711e+00
 6.553510262570683e-01	 7.927636548324528e-01	 3.603140954598254e+00
 6.364591123094785e-01	 8.080092517328882e-01	 3.099445656020300e+00
 8.304541653603594e-01	 6.541386992415416e-01	 1.062223220509267e+01
 8.147850756544253e-01	 6.735553935377888e-01	 9.868706986155113e+00
 7.986438600440896e-01	 6.926179365812711e-01	 9.127970790634514e+00
 7.820426794856533e-01	 7.113092847924433e-01	 8.400189874906534e+00
 7.649945087880469e-01	 7.296129611071622e-01	 7.685437922694264e+00
 7.475131031168395e-01	 7.475131031168395e-01	 6.985632157378270e+00
 7.296129611071620e-01	 7.649945087880472e-01	 6.321041175053089e+00
 7.113092847924429e-01	 7.820426794856536e-01	 5.700703840893197e+00
 6.926179365812707e-01	 7.986438600440897e-01	 5.124817857677469e+00
 6.735553935377886e-01	 8.147850756544255e-01	 4.592538128161359e+00
 6.541386992415414e-01	 8.304541653603593e-01	 4.102375675289323e+00
 8.528991994425288e-01	 6.718183810526724e-01	 1.112200077283149e+01
 8.368066146581035e-01	 6.917598585139281e-01	 1.043699638746562e+01
 8.202291436238366e-01	 7.113376129273762e-01	 9.755036297797883e+00
 8.031792759752938e-01	 7.305341400694941e-01	 9.075782128522254e+00
 7.856703371970063e-01	 7.493325175436125e-01	 8.401484808287192e+00
 7.677164542211711e-01	 7.677164542211715e-01	 7.751459247860063e+00
 7.493325175436122e-01	 7.856703371970066e-01	 7.131468914676072e+00
 7.305341400694939e-01	 8.031792759752939e-01	 6.543835152137807e+00
 7.113376129273761e-01	 8.202291436238369e-01	 5.992039803994306e+00
 6.917598585139278e-01	 8.368066146581038e-01	 5.475483850984360e+00
 6.718183810526726e-01	 8.528991994425289e-01	 4.992413709319887e+00
 8.753443356491133e-01	 6.894981433045083e-01	 1.156722958729175e+01
 8.588282538590901e-01	 7.099644063185453e-01	 1.094165940132834e+01
 8.418145254157282e-01	 7.300573744462209e-01	 1.030923345448658e+01
 8.243159686353577e-01	 7.497590828179351e-01	 9.671704453276352e+00
 8.063462596797111e-01	 7.690521637024613e-01	 9.047278735935098e+00
 7.879198972493110e-01	 7.879198972493112e-01	 8.442095472984738e+00
 7.690521637024609e-01	 8.063462596797115e-01	 7.858584541108613e+00
 7.497590828179349e-01	 8.243159686353581e-01	 7.298608007003118e+00
 7.300573744462203e-01	 8.418145254157282e-01	 6.763913548786183e+00
 7.099644063185451e-01	 8.588282538590902e-01	 6.256983558151757e+00
 6.894981433045083e-01	 8.753443356491133e-01	 5.776360600509975e+00
 8.977895556498290e-01	 7.071779715586872e-01	 1.195660956208781e+01
 8.808499752729879e-01	 7.281690220846991e-01	 1.138236543729151e+01
 8.633999877916736e-01	 7.487772058500974e-01	 1.079297899611227e+01
 8.454527402042118e-01	 7.689840973374810e-01	 1.020456278467317e+01
 8.270222593508504e-01	 7.887718834793984e-01	 9.624351775277665e+00
 8.081234157018283e-01	 8.081234157018284e-01	 9.055575448627186e+00
 7.887718834793981e-01	 8.270222593508506e-01	 8.500947657121280e+00
 7.689840973374806e-01	 8.454527402042122e-01	 7.962597043270903e+00
 7.487772058500971e-01	 8.633999877916738e-01	 7.442005649557347e+00
 7.281690220846985e-01	 8.808499752729879e-01	 6.940481744030224e+00
 7.071779715586873e-01	 8.977895556498291e-01	 6.459338123079336e+00
 9.202348411143920e-01	 7.248578513768460e-01	 1.228876009831272e+01
 9.028717609154008e-01	 7.463736909454481e-01	 1.175926526499489e+01
 8.849855131235829e-01	 7.674970918512983e-01	 1.121773482837068e+01
 8.665895734202234e-01	 7.882091679278471e-01	 1.067286312223191e+01
 8.476983193251116e-01	 8.084916607701144e-01	 1.012874161377242e+01
 8.283269930792926e-01	 8.283269930792929e-01	 9.589034521678089e+00
 8.084916607701140e-01	 8.476983193251121e-01	 9.056889317156605e+00
 7.882091679278467e-01	 8.665895734202237e-01	 8.534852450049469e+00
 7.674970918512980e-01	 8.849855131235832e-01	 8.024793434505096e+00
 7.463736909454478e-01	 9.028717609154008e-01	 7.527840375839729e+00
 7.248578513768460e-01	 9.202348411143921e-01	 7.044883997490982e+00
 9.426801737125188e-01	 7.425377683206226e-01	 1.256216812246521e+01
 9.248935928019314e-01	 7.645783980338511e-01	 1.207903056412571e+01
 9.065710837833660e-01	 7.862170171621161e-01	 1.158033923227226e+01
 8.877264510217600e-01	 8.074342788887477e-01	 1.107103954925912e+01
 8.683744227171846e-01	 8.282114794703002e-01	 1.055577779409139e+01
 8.485306128822743e-01	 8.485306128822749e-01	 1.003879335488653e+01
 8.282114794702999e-01	 8.683744227171846e-01	 9.523812136106313e+00
 8.074342788887474e-01	 8.877264510217601e-01	 9.013944705577888e+00
 7.862170171621163e-01	 9.065710837833664e-01	 8.511592866469677e+00
 7.645783980338509e-01	 9.248935928019317e-01	 8.018368305117765e+00
 7.425377683206227e-01	 9.426801737125189e-01	 7.535026792622646e+00
 9.651255351139258e-01	 7.602177079516546e-01	 1.277883940408958e+01
 9.469154529481835e-01	 7.827831284829673e-01	 1.233777952925816e+01
 9.281566821429328e-01	 8.049369664948434e-01	 1.187396573615377e+01
 9.088633557471882e-01	 8.266594145198987e-01	 1.139298106185076e+01
 8.890505526417565e-01	 8.479313234756463e-01	 1.090015589129694e+01
 8.687342586113437e-01	 8.687342586113439e-01	 1.040044151177748e+01
 8.479313234756460e-01	 8.890505526417571e-01	 9.898283557575475e+00
 8.266594145198983e-01	 9.088633557471885e-01	 9.397499513415006e+00
 8.049369664948431e-01	 9.281566821429332e-01	 8.901164590160780e+00
 7.827831284829668e-01	 9.469154529481838e-01	 8.411510275689420e+00
 7.602177079516547e-01	 9.651255351139258e-01	 7.929839692161125e+00
 9.875709069883291e-01	 7.778976558315790e-01	 1.293478117057288e+01
 9.689373233697599e-01	 8.009878674258550e-01	 1.252772175803650e+01
 9.497422905741931e-01	 8.236569245617722e-01	 1.209138225126113e+01
 9.300002703348756e-01	 8.458845591210141e-01	 1.163209889364045e+01
 9.097266922135174e-01	 8.676511766818438e-01	 1.115601242706512e+01
 8.889379137670695e-01	 8.889379137670700e-01	 1.066892020124522e+01
 8.676511766818432e-01	 9.097266922135178e-01	 1.017612661369976e+01
 8.458845591210142e-01	 9.300002703348764e-01	 9.682296708143419e+00
 8.236569245617719e-01	 9.497422905741937e-01	 9.191317956966108e+00
 8.009878674258545e-01	 9.689373233697604e-01	 8.706175272412814e+00
 7.778976558315791e-01	 9.875709069883292e-01	 8.228844123622453e+00
 1.010016271005445e+00	 7.955775975220339e-01	 1.302149232254377e+01
 9.909591860822649e-01	 8.191925999955730e-01	 1.264078037983122e+01
 9.713278914490570e-01	 8.423768760751950e-01	 1.222501411681439e+01
 9.511371775231903e-01	 8.651096969918102e-01	 1.178139570706557e+01
 9.304028245471552e-01	 8.873710229845827e-01	 1.131700040666145e+01
 9.091415618500224e-01	 9.091415618500228e-01	 1.083860431286996e+01
 8.873710229845823e-01	 9.304028245471554e-01	 1.035250856702146e+01
 8.651096969918097e-01	 9.511371775231905e-01	 9.864365569845175e+00
 8.423768760751945e-01	 9.713278914490573e-01	 9.379013037825789e+00
 8.191925999955728e-01	 9.909591860822652e-01	 8.900321783963069e+00
 7.955775975220341e-01	 1.010016271005445e+00	 8.431062946507442e+00
 6.187796346948450e-01	 7.855644768903999e-01	 1.975032020867192e+00
 6.000941023989972e-01	 7.999292705517564e-01	 1.508613884237239e+00
 5.811072330167577e-01	 8.138268577557130e-01	 1.096276680383484e+00
 5.618364750149918e-01	 8.272481870752482e-01	 7.353617726017825e-01
 5.422996134099223e-01	 8.401850687269302e-01	 4.226154406806071e-01
 5.225147171506268e-01	 8.526301882742356e-01	 1.542714322945052e-01
 5.025000860247008e-01	 8.645771165329886e-01	-7.386448932618649e-02
 4.822741974000460e-01	 8.760203156838146e-01	-2.663297395961534e-01
 4.618556531118254e-01	 8.869551416254861e-01	-4.279214850200231e-01
 4.412631267957642e-01	 8.973778426309756e-01	-5.636160921482737e-01
 4.205153119584038e-01	 9.072855543946884e-01	-6.784927831086790e-01
 6.364591123094785e-01	 8.080092517328882e-01	 3.099445656020300e+00
 6.172397058661131e-01	 8.227844694497056e-01	 2.641875437996623e+00
 5.977103526761105e-01	 8.370791319083116e-01	 2.224902020118108e+00
 5.778889997356798e-01	 8.508839290686186e-01	 1.847329312008926e+00
 5.577939402061159e-01	 8.641904371526015e-01	 1.507469500106049e+00
 5.374437592939638e-01	 8.769911327391362e-01	 1.203219521917247e+00
 5.168572796396933e-01	 8.892794029524572e-01	 9.321387969077706e-01
 4.960535065378226e-01	 9.010495517492524e-01	 6.915264132417116e-01
 4.750515733063467e-01	 9.122968023392442e-01	 4.784960931814950e-01
 4.538706871152770e-01	 9.230172958028487e-01	 2.900474222556186e-01
 4.325300755731782e-01	 9.332080859968964e-01	 1.231320211748501e-01
 6.541386992415414e-01	 8.304541653603593e-01	 4.102375675289323e+00
 6.343854153495321e-01	 8.456398096707239e-01	 3.647424124956218e+00
 6.143135749974517e-01	 8.603315498395214e-01	 3.222265950705617e+00
 5.939416237139304e-01	 8.745198172119976e-01	 2.826856571792641e+00
 5.732883628084736e-01	 8.881959540140808e-01	 2.460743424315704e+00
 5.523728937482780e-01	 9.013522278387542e-01	 2.123139864966811e+00
 5.312145620299170e-01	 9.139818421175249e-01	 1.812999622426625e+00
 5.098329008777814e-01	 9.260789425821592e-01	 1.529089883490408e+00
 4.882475750959819e-01	 9.376386197525096e-01	 1.270061249371230e+00
 4.664783253921073e-01	 9.486569075157696e-01	 1.034512987928624e+00
 4.445449134800435e-01	 9.591307778906868e-01	 8.210522315654865e-01
 6.718183810526726e-01	 8.528991994425289e-01	 4.992413709319887e+00
 6.515312168468942e-01	 8.684952725493106e-01	 4.535681714171910e+00
 6.309168864214512e-01	 8.835840925595269e-01	 4.100359900144402e+00
 6.099943338400652e-01	 8.981558322023646e-01	 3.687259482720206e+00
 5.887828685631709e-01	 9.122015997064505e-01	 3.296848683354174e+00
 5.673021083213853e-01	 9.257134536777515e-01	 2.929327583850367e+00
 5.455719214701842e-01	 9.386844138540561e-01	 2.584702839898142e+00
 5.236123691666594e-01	 9.511084677413623e-01	 2.262860177901277e+00
 5.014436477038846e-01	 9.629805731689360e-01	 1.963632775685491e+00
 4.790860313298839e-01	 9.742966568301714e-01	 1.686863850110717e+00
 4.565598158667258e-01	 9.850536089052930e-01	 1.432462033539483e+00
 6.894981433045083e-01	 8.753443356491133e-01	 5.776360600509975e+00
 6.686770963558412e-01	 8.913508394199657e-01	 5.315155352843079e+00
 6.475202733887807e-01	 9.068367410785110e-01	 4.869168613491530e+00
 6.260471170044049e-01	 9.217919547367011e-01	 4.439784255700749e+00
 6.042774448163849e-01	 9.362073546247945e-01	 4.028090173473815e+00
 5.822313908211014e-01	 9.500747903607886e-01	 3.634957641550714e+00
 5.599293462353074e-01	 9.633870979879180e-01	 3.261119856153743e+00
 5.373919001511939e-01	 9.761381067856886e-01	 2.907247365354635e+00
 5.146397803532088e-01	 9.883226418921770e-01	 2.574018306123163e+00
 4.916937946322363e-01	 9.999365228064883e-01	 2.262181624193135e+00
 4.685747729209517e-01	 1.010976557869950e+00	 1.972611751941592e+00
 7.071779715586873e-01	 8.977895556498291e-01	 6.459338123079336e+00
 6.858230398740128e-01	 9.142064916171876e-01	 5.992570244803625e+00
 6.641237223401107e-01	 9.300894764066570e-01	 5.536820038625015e+00
 6.420999600972689e-01	 9.454281655119876e-01	 5.093770999171755e+00
 6.197720789142910e-01	 9.602131991641956e-01	 4.664840379479654e+00
 5.971607290552420e-01	 9.744362179925262e-01	 4.251266663343888e+00
 5.742868246000997e-01	 9.880898743449749e-01	 3.854195539425377e+00
 5.511714825781210e-01	 1.001167839273965e+00	 3.474761816650878e+00
 5.278359622671086e-01	 1.013664805225886e+00	 3.114164964412657e+00
 5.043016050027932e-01	 1.025576484505152e+00	 2.773736261692713e+00
 4.805897748304470e-01	 1.036899603613889e+00	 2.454995884029577e+00
 7.248578513768460e-01	 9.202348411143921e-01	 7.044883997490982e+00
 7.029690333990503e-01	 9.370622104754753e-01	 6.572982676883797e+00
 6.807272197161115e-01	 9.533422795541486e-01	 6.109713157083219e+00
 6.581528500089794e-01	 9.690644452252051e-01	 5.656793380730327e+00
 6.352667582030656e-01	 9.842191137197364e-01	 5.215688138890698e+00
 6.120901108316223e-01	 9.987977166776257e-01	 4.787708331145922e+00
 5.886443448393742e-01	 1.012792722751094e+00	 4.374108036733281e+00
 5.649511051941782e-01	 1.026197644765020e+00	 3.976176510999691e+00
 5.410321826687380e-01	 1.039007042473716e+00	 3.595322505568334e+00
 5.169094521451836e-01	 1.051216520986598e+00	 3.233148658095566e+00
 4.926048117829381e-01	 1.062822724966346e+00	 2.891514094063083e+00
 7.425377683206227e-01	 9.426801737125189e-01	 7.535026792622646e+00
 7.201150629285947e-01	 9.599179773293286e-01	 7.059876668822674e+00
 6.973307519574544e-01	 9.765951315311694e-01	 6.592627435917800e+00
 6.742057736298561e-01	 9.927007745733349e-01	 6.134778325567074e+00
 6.507614700288840e-01	 1.008225078686499e+00	 5.687566240721408e+00
 6.270195239580587e-01	 1.023159266520749e+00	 5.252086754693646e+00
 6.030018952279435e-01	 1.037495623032141e+00	 4.829406015932050e+00
 5.787307567461019e-01	 1.051227502817678e+00	 4.420666480871271e+00
 5.542284307812508e-01	 1.064349332939321e+00	 4.027183534898954e+00
 5.295173257630367e-01	 1.076856611311257e+00	 3.650530461581271e+00
 5.046198739661513e-01	 1.088745900756555e+00	 3.292609675134384e+00
 7.602177079516547e-01	 9.651255351139258e-01	 7.929839692161125e+00
 7.372611144602862e-01	 9.827737735132466e-01	 7.455246913115110e+00
 7.139343055048097e-01	 9.998480133479026e-01	 6.988816892747373e+00
 6.902587178502206e-01	 1.016337134253357e+00	 6.532109001617350e+00
 6.662562017379237e-01	 1.032231074459569e+00	 6.085861304358963e+00
 6.419489562423665e-01	 1.047520847626557e+00	 5.650671404549893e+00
 6.173594640406199e-01	 1.062198555013982e+00	 5.227127007192447e+00
 5.925104259806288e-01	 1.076257392990768e+00	 4.815929116507522e+00
 5.674246958278015e-01	 1.089691655926354e+00	 4.418004535614792e+00
 5.421252155599816e-01	 1.102496734539564e+00	 4.034604793632429e+00
 5.166349515678127e-01	 1.114669109813748e+00	 3.667021012197580e+00
 7.778976558315791e-01	 9.875709069883292e-01	 8.228844123622453e+00
 7.544071739917655e-01	 1.005629580361728e+00	 7.759623424069580e+00
 7.305378667988485e-01	 1.023100906014532e+00	 7.300091222277471e+00
 7.063116695603932e-01	 1.039973504962253e+00	 6.851713750571566e+00
 6.817509406763597e-01	 1.056237081434027e+00	 6.414508757685862e+00
 6.568783954923610e-01	 1.071882440099709e+00	 5.988296540238039e+00
 6.317170395522168e-01	 1.086901498522482e+00	 5.572899850686797e+00
 6.062901016444956e-01	 1.101287294843116e+00	 5.168288374927206e+00
 5.806209670315434e-01	 1.115033990738469e+00	 4.774091914608961e+00
 5.547331112396472e-01	 1.128136869731951e+00	 4.382451250573214e+00
 5.286500347756483e-01	 1.140592330967159e+00	 3.996713023309304e+00
 7.955775975220341e-01	 1.010016271005445e+00	 8.431062946507442e+00
 7.715532275206743e-01	 1.028485379209273e+00	 7.972634605359282e+00
 7.471414222802408e-01	 1.046353790541241e+00	 7.526920454045090e+00
 7.223646156506944e-01	 1.063609867397003e+00	 7.095143151240905e+00
 6.972456741903684e-01	 1.080243080004956e+00	 6.676075232512838e+00
 6.718078295158584e-01	 1.096244024044868e+00	 6.268447545432880e+00
 6.460746100375473e-01	 1.111604433383508e+00	 5.871021364118368e+00
 6.200697724844397e-01	 1.126317187933550e+00	 5.472131320822182e+00
 5.938172336156310e-01	 1.140376316679318e+00	 5.066962279548708e+00
 5.673410025056627e-01	 1.153776995948852e+00	 4.662724948319259e+00
 5.406651137773846e-01	 1.166515543046022e+00	 4.266764222306503e+00
 4.205153119584038e-01	 9.072855543946884e-01	-6.784927831086810e-01
 3.996323363483559e-01	 9.166756533117867e-01	-7.743204926946706e-01
 3.786313260672554e-01	 9.255477376767897e-01	-8.502429136608927e-01
 3.575307247119081e-01	 9.339015469729992e-01	-9.067098391631205e-01
 3.363488008802308e-01	 9.417376544619560e-01	-9.427274392152210e-01
 3.151036037782408e-01	 9.490574463164519e-01	-9.606172025565258e-01
 2.938129209596947e-01	 9.558630981313170e-01	-9.631330101319411e-01
 2.724942383587361e-01	 9.621575490304196e-01	-9.530920230923154e-01
 2.511647027528098e-01	 9.679444735972303e-01	-9.333320061270656e-01
 2.298410867697775e-01	 9.732282518626566e-01	-9.066781496999172e-01
 2.085397565298897e-01	 9.780139375877577e-01	-8.759186742416589e-01
 4.325300755731782e-01	 9.332080859968964e-01	 1.231320211748497e-01
 4.110504415091605e-01	 9.428664743561647e-01	-2.223679510694154e-02
 3.894494003436983e-01	 9.519920476978455e-01	-1.449330063629455e-01
 3.677459226352754e-01	 9.605845380618936e-01	-2.462379144891957e-01
 3.459587989435014e-01	 9.686445350888160e-01	-3.251843102949992e-01
 3.241065941677250e-01	 9.761734645564871e-01	-3.829085601040925e-01
 3.022076040792306e-01	 9.831735642198083e-01	-4.224903579041563e-01
 2.802798142119565e-01	 9.896478571779088e-01	-4.470430408678987e-01
 2.583408612529187e-01	 9.956001230027205e-01	-4.596674763453432e-01
 2.364079970495259e-01	 1.001034866869323e+00	-4.634175825852065e-01
 2.144980553270330e-01	 1.005957286932442e+00	-4.612765394886011e-01
 4.445449134800435e-01	 9.591307778906868e-01	 8.210522315654856e-01
 4.224686172729494e-01	 9.690574573511885e-01	 6.308520954790828e-01
 4.002675415131577e-01	 9.784365212370704e-01	 4.649701915984816e-01
 3.779611837240814e-01	 9.872676941448952e-01	 3.219772684221507e-01
 3.555688564302435e-01	 9.955515820942422e-01	 2.014544295956742e-01
 3.331096402275061e-01	 1.003289650468314e+00	 1.042180293374453e-01
 3.106023391078169e-01	 1.010484199182470e+00	 2.721359886826846e-02
 2.880654382079924e-01	 1.017138335311623e+00	-3.288240429001466e-02
 2.655170641276426e-01	 1.023255943416817e+00	-7.933634906576659e-02
 2.429749479366805e-01	 1.028841653818079e+00	-1.153229861702787e-01
 2.204563909682513e-01	 1.033900809064697e+00	-1.439038698072390e-01
 4.565598158667258e-01	 9.850536089052930e-01	 1.432462033539483e+00
 4.338868543146991e-01	 9.952485809069745e-01	 1.202223740295887e+00
 4.110857407406146e-01	 1.004881136697554e+00	 9.968646155736904e-01
 3.881764996356362e-01	 1.013950993430165e+00	 8.148895260231335e-01
 3.651789654919959e-01	 1.022458773503548e+00	 6.550636326436714e-01
 3.421127346048313e-01	 1.030405981906447e+00	 5.187484990548055e-01
 3.189971191894755e-01	 1.037794980715018e+00	 4.040627981935900e-01
 2.958511039882982e-01	 1.044628960980404e+00	 3.075519927547674e-01
 2.726933055161281e-01	 1.050911912253332e+00	 2.258769682081723e-01
 2.495419340679486e-01	 1.056648589999446e+00	 1.558470064071242e-01
 2.264147585873002e-01	 1.061844481163375e+00	 9.443741160912467e-02
 4.685747729209517e-01	 1.010976557869950e+00	 1.972611751941590e+00
 4.453051433093857e-01	 1.021439823633639e+00	 1.707268314526614e+00
 4.219039891910492e-01	 1.031325872482387e+00	 1.466308773732519e+00
 3.983918620272496e-01	 1.040634414125863e+00	 1.248213151174796e+00
 3.747891182802979e-01	 1.049366087342045e+00	 1.051656969160322e+00
 3.511158699469489e-01	 1.057522436725401e+00	 8.769541563159007e-01
 3.273919374682281e-01	 1.065105886513163e+00	 7.244717393904199e-01
 3.036368051943286e-01	 1.072119711733095e+00	 5.907869164309769e-01
 2.798695795575213e-01	 1.078568006926077e+00	 4.725765451735779e-01
 2.561089500800371e-01	 1.084455652703945e+00	 3.667367392796792e-01
 2.323731533179350e-01	 1.089788280407326e+00	 2.703946471554306e-01
 4.805897748304470e-01	 1.036899603613889e+00	 2.454995884029577e+00
 4.567234749319857e-01	 1.047631164141299e+00	 2.159674617527196e+00
 4.327222780294420e-01	 1.057770706994659e+00	 1.887206524059909e+00
 4.086072625562316e-01	 1.067317934440150e+00	 1.636078987619760e+00
 3.843993069466886e-01	 1.076273501635047e+00	 1.405042543663304e+00
 3.601190389011063e-01	 1.084638992779690e+00	 1.193550271863650e+00
 3.357867870880970e-01	 1.092416894272622e+00	 1.003349384326570e+00
 3.114225354675380e-01	 1.099610565118535e+00	 8.318829981682638e-01
 2.870458803909687e-01	 1.106224204848864e+00	 6.759293480394506e-01
 2.626759906096531e-01	 1.112262819222097e+00	 5.326002891515778e-01
 2.383315702939115e-01	 1.117732183975401e+00	 4.002996537261843e-01
 4.926048117829381e-01	 1.062822724966346e+00	 2.891514094063083e+00
 4.681418398574754e-01	 1.073822581040070e+00	 2.571589365993708e+00
 4.435405984207744e-01	 1.084215618637461e+00	 2.271965329057014e+00
 4.188226928798925e-01	 1.094001532581186e+00	 1.991160472162498e+00
 3.940095236427069e-01	 1.103180994407867e+00	 1.728036563631694e+00
 3.691222341145510e-01	 1.111755627923829e+00	 1.481828027447241e+00
 3.441816611931036e-01	 1.119727981689107e+00	 1.254588175414856e+00
 3.192082884493807e-01	 1.127101498685569e+00	 1.047020360908518e+00
 2.942222021556166e-01	 1.133880483435503e+00	 8.572252150606405e-01
 2.692430502935037e-01	 1.140070066844422e+00	 6.832167819574542e-01
 2.442900046489848e-01	 1.145676169046449e+00	 5.229875528778885e-01
 5.046198739661513e-01	 1.088745900756555e+00	 3.292609675134383e+00
 4.795602287608308e-01	 1.100014052940069e+00	 2.953754222173198e+00
 4.543589415300264e-01	 1.110660585813882e+00	 2.631632407758096e+00
 4.290381446555421e-01	 1.120685186757132e+00	 2.323700903283585e+00
 4.036197605198921e-01	 1.130088543685817e+00	 2.029755348077108e+00
 3.781254482345310e-01	 1.138872320012333e+00	 1.751998526906800e+00
 3.525765529272702e-01	 1.147039126458333e+00	 1.493302541015061e+00
 3.269940577813114e-01	 1.154592489983037e+00	 1.256395406333051e+00
 3.013985389906114e-01	 1.161536820099807e+00	 1.039428519364288e+00
 2.758101237682957e-01	 1.167877372861441e+00	 8.403261087595180e-01
 2.502484515169107e-01	 1.173620212799320e+00	 6.570827569440310e-01
 5.166349515678127e-01	 1.114669109813748e+00	 3.667021012197580e+00
 4.909786323170284e-01	 1.126205558451413e+00	 3.310118808215079e+00
 4.651772985221792e-01	 1.137105586927013e+00	 2.963062525338513e+00
 4.392536095404903e-01	 1.147368875176148e+00	 2.628671139483163e+00
 4.132300097297830e-01	 1.156996127494211e+00	 2.309458973152125e+00
 3.871286739082941e-01	 1.165989046899715e+00	 2.007608455013348e+00
 3.609714554346183e-01	 1.174350306276014e+00	 1.725224815900402e+00
 3.347798371047843e-01	 1.182083516559781e+00	 1.465639361599733e+00
 3.085748850350992e-01	 1.189193192255588e+00	 1.227686604740909e+00
 2.823772056707364e-01	 1.195684714563675e+00	 1.009249994974907e+00
 2.562069060314446e-01	 1.201564292412866e+00	 8.083946719194093e-01
 5.286500347756483e-01	 1.140592330967159e+00	 3.996713023309308e+00
 5.023970412010446e-01	 1.152397076184217e+00	 3.620788746217821e+00
 4.759956605622129e-01	 1.163550600379945e+00	 3.255523141597602e+00
 4.494690791920472e-01	 1.174052576046394e+00	 2.903784456915500e+00
 4.228402634239187e-01	 1.183903723858361e+00	 2.568082890430354e+00
 3.961319037830877e-01	 1.193105786440491e+00	 2.250544399918102e+00
 3.693663618591699e-01	 1.201661498837862e+00	 1.952913016901358e+00
 3.425656200612541e-01	 1.209574555964643e+00	 1.678030220178728e+00
 3.157512344282267e-01	 1.216849577316657e+00	 1.425921802514191e+00
 2.889442906375327e-01	 1.223492069241644e+00	 1.194480269537858e+00
 2.621653633263420e-01	 1.229508385065936e+00	 9.819128693674639e-01
 5.406651137773846e-01	 1.166515543046022e+00	 4.266764222306504e+00
 5.138154460878555e-01	 1.178588584748599e+00	 3.881964358461198e+00
 4.868140188151086e-01	 1.189995604575767e+00	 3.508395425164082e+00
 4.596845452675228e-01	 1.200736267576031e+00	 3.148958603684484e+00
 4.324505137538385e-01	 1.210811310803579e+00	 2.806130165032097e+00
 4.051351305061597e-01	 1.220222516489174e+00	 2.481936776326608e+00
 3.777612653449469e-01	 1.228972681839593e+00	 2.177960996275536e+00
 3.503514002921752e-01	 1.237065585746464e+00	 1.896054137707065e+00
 3.229275813091401e-01	 1.244505952696826e+00	 1.637294231053449e+00
 2.955113733053916e-01	 1.251299414185870e+00	 1.399766876076089e+00
 2.681238185353586e-01	 1.257452467937382e+00	 1.181897062222253e+00
 2.085397565298897e-01	 9.780139375877577e-01	-8.759186742416589e-01
 1.872751588682954e-01	 9.823075085927059e-01	-8.442258888645240e-01
 1.660642739430359e-01	 9.861149146151665e-01	-8.134701089619192e-01
 1.449221048859622e-01	 9.894430288203904e-01	-7.844031487490479e-01
 1.238631447915627e-01	 9.922992591451227e-01	-7.577357165910668e-01
 1.029013581149162e-01	 9.946915115410935e-01	-7.341516537348571e-01
 8.205016480108950e-02	 9.966281528999332e-01	-7.143231598036008e-01
 6.132242709398352e-02	 9.981179738659459e-01	-6.989258626709187e-01
 4.073043895732970e-02	 9.991701517322813e-01	-6.886527231739992e-01
 2.028591802679350e-02	 9.997942136041430e-01	-6.842259204968455e-01
 0.000000000000000e+00	 1.000000000000000e+00	-6.864060340355573e-01
 2.144980553270330e-01	 1.005957286932442e+00	-4.612765394886011e-01
 1.926258956886906e-01	 1.010373531807687e+00	-4.561613715245860e-01
 1.708089834415315e-01	 1.014289721225768e+00	-4.494327401338793e-01
 1.490627503797445e-01	 1.017712924728706e+00	-4.416207905748641e-01
 1.274021036876107e-01	 1.020650761909257e+00	-4.331989973365040e-01
 1.058414068059684e-01	 1.023111364604206e+00	-4.246070988886892e-01
 8.439446310816270e-02	 1.025103338759998e+00	-4.162749691513117e-01
 6.307450233200051e-02	 1.026635726183013e+00	-4.086460096392335e-01
 4.189416969848892e-02	 1.027717966375624e+00	-4.021988118265494e-01
 2.086551763399783e-02	 1.028359858646923e+00	-3.974660316301399e-01
 0.000000000000000e+00	 1.028571524673962e+00	-3.950496275715452e-01
 2.204563909682513e-01	 1.033900809064697e+00	-1.439038698072386e-01
 1.979766655962571e-01	 1.038439728568777e+00	-1.675635645674172e-01
 1.755537222797343e-01	 1.042464702055124e+00	-1.870893079705853e-01
 1.532034214778754e-01	 1.045982995443745e+00	-2.028346066940183e-01
 1.309410844673299e-01	 1.049002439984713e+00	-2.150768531447915e-01
 1.087814736771769e-01	 1.051531393401269e+00	-2.240500127761416e-01
 8.673877591142518e-02	 1.053578700696151e+00	-2.299782240711949e-01
 6.482658840407358e-02	 1.055153654839367e+00	-2.331085793713026e-01
 4.305790763559021e-02	 1.056265957544136e+00	-2.337415576689774e-01
 2.144512082513226e-02	 1.056925680325120e+00	-2.322578151156263e-01
 0.000000000000000e+00	 1.057143226019696e+00	-2.291402940086620e-01
 2.264147585873002e-01	 1.061844481163375e+00	 9.443741160912511e-02
 2.033274642209498e-01	 1.066506075954637e+00	 3.974827720410534e-02
 1.802984865825519e-01	 1.070639834093048e+00	-8.384554830274560e-03
 1.573441147986166e-01	 1.074253217877654e+00	-5.016620799254223e-02
 1.344800842403967e-01	 1.077354270216985e+00	-8.570168745012152e-02
 1.117215563273664e-01	 1.079951574721949e+00	-1.150396521759682e-01
 8.908310129626774e-02	 1.082054215452861e+00	-1.382170974931056e-01
 6.657868387927618e-02	 1.083671736544706e+00	-1.553028528821243e-01
 4.422165181821711e-02	 1.084814101922956e+00	-1.664380454786722e-01
 2.202472712684309e-02	 1.085491655309309e+00	-1.718719625485514e-01
 0.000000000000000e+00	 1.085715080702975e+00	-1.719920530231143e-01
 2.323731533179350e-01	 1.089788280407326e+00	 2.703946471554306e-01
 2.086782871927238e-01	 1.094572551043929e+00	 1.823660458981067e-01
 1.850432724748922e-01	 1.098815094329352e+00	 1.031483257781280e-01
 1.614848269602297e-01	 1.102523568942582e+00	 3.267322066468825e-02
 1.380191001164876e-01	 1.105706229451566e+00	-2.899809066768277e-02
 1.146616523553614e-01	 1.108371885355909e+00	-8.173146634941819e-02
 9.142743734808138e-02	 1.110529859774593e+00	-1.253772090018792e-01
 6.833078732668170e-02	 1.112189948008727e+00	-1.597625031670735e-01
 4.538540129595322e-02	 1.113362376197227e+00	-1.847679667381601e-01
 2.260433606577657e-02	 1.114057760270067e+00	-2.006723102603618e-01
 0.000000000000000e+00	 1.114287065389571e+00	-2.079021575049369e-01
 2.383315702939115e-01	 1.117732183975401e+00	 4.002996537261843e-01
 2.140291301415340e-01	 1.122639130915312e+00	 2.793683677992571e-01
 1.897880760816631e-01	 1.126990459753852e+00	 1.710330699714602e-01
 1.656255545809764e-01	 1.130794025550679e+00	 7.518354137778882e-02
 1.415581292052794e-01	 1.134058294533950e+00	-8.291021796672737e-03
 1.176017593599866e-01	 1.136792302092816e+00	-7.952053763455202e-02
 9.377178215225696e-02	 1.139005610405818e+00	-1.386778131671260e-01
 7.008289731536359e-02	 1.140708265941127e+00	-1.860050183086392e-01
 4.654915511838219e-02	 1.141910757052088e+00	-2.218405546502971e-01
 2.318394716857899e-02	 1.142623971877968e+00	-2.466443062790886e-01
 0.000000000000000e+00	 1.142859156745255e+00	-2.610195854209616e-01
 2.442900046489848e-01	 1.145676169046449e+00	 5.229875528778885e-01
 2.193799886973357e-01	 1.150705792647447e+00	 3.769670259334910e-01
 1.945328935277722e-01	 1.155165907356359e+00	 2.466269252508879e-01
 1.697662942791185e-01	 1.159064564614090e+00	 1.315522805140374e-01
 1.450971686164484e-01	 1.162410442309630e+00	 3.137707840167536e-02
 1.205418749400665e-01	 1.165212801722333e+00	-5.424502675701337e-02
 9.611613379418543e-02	 1.167481444091002e+00	-1.256757630553009e-01
 7.183501241439530e-02	 1.169226667051604e+00	-1.833300289335305e-01
 4.771291233508754e-02	 1.170459221172681e+00	-2.277136896484033e-01
 2.376355996189662e-02	 1.171190266803589e+00	-2.594590035015507e-01
 0.000000000000000e+00	 1.171431331435801e+00	-2.793556881391370e-01
 2.502484515169107e-01	 1.173620212799320e+00	 6.570827569440305e-01
 2.247308584900838e-01	 1.178772513318995e+00	 4.906260980211541e-01
 1.992777209381274e-01	 1.183341414126688e+00	 3.426376224877714e-01
 1.739070426729175e-01	 1.187335163044965e+00	 2.123825414604332e-01
 1.486362154596712e-01	 1.190762649624100e+00	 9.923347397269744e-02
 1.234819966944259e-01	 1.193633361034127e+00	 2.628323630913254e-03
 9.846049035925765e-02	 1.195957337574614e+00	-7.797813794422748e-02
 7.358713119285022e-02	 1.197745128049856e+00	-1.431654184314721e-01
 4.887667199565290e-02	 1.199007745244147e+00	-1.935979733373676e-01
 2.434317397237573e-02	 1.199756621717502e+00	-2.300726039507410e-01
 0.000000000000000e+00	 1.200003566126979e+00	-2.535602541927606e-01
 2.562069060314446e-01	 1.201564292412866e+00	 8.083946719194097e-01
 2.300817351497332e-01	 1.206839270008617e+00	 6.265680070994410e-01
 2.040225544376364e-01	 1.211516957054652e+00	 4.656221794772637e-01
 1.780477963806352e-01	 1.215605797755454e+00	 3.245029395643282e-01
 1.521752668446245e-01	 1.219114893322853e+00	 2.023317191305047e-01
 1.264221222218894e-01	 1.222053956817860e+00	 9.834826963713361e-02
 1.008048499328646e-01	 1.224433267601120e+00	 1.184646580050153e-02
 7.533925221980184e-02	 1.226263625645581e+00	-5.789255470492050e-02
 5.004043314966189e-02	 1.227556305951626e+00	-1.116661649925585e-01
 2.492278872666261e-02	 1.228323013290286e+00	-1.504116798681132e-01
 0.000000000000000e+00	 1.228575837484564e+00	-1.752607306232115e-01
 2.621653633263420e-01	 1.229508385065936e+00	 9.819128693674628e-01
 2.354326143062390e-01	 1.234906039794974e+00	 7.901997753508130e-01
 2.087673901512070e-01	 1.239692513130062e+00	 6.213230809109203e-01
 1.821885520205332e-01	 1.243876445657703e+00	 4.739253728314323e-01
 1.557143198809847e-01	 1.247467150251382e+00	 3.469039867871018e-01
 1.293622491212815e-01	 1.250474565863199e+00	 2.393356537094475e-01
 1.031492106003970e-01	 1.252909210914990e+00	 1.503937689569812e-01
 7.709137406432358e-02	 1.254782136548476e+00	 7.926313930352191e-02
 5.120419484669806e-02	 1.256104879980258e+00	 2.505656528769329e-02
 2.550240375140351e-02	 1.256889418192514e+00	-1.326296409387817e-02
 0.000000000000000e+00	 1.257148122174325e+00	-3.695132271165202e-02
 2.681238185353586e-01	 1.257452467937382e+00	 1.181897062222254e+00
 2.407834915895561e-01	 1.262972799756725e+00	 9.862046207757402e-01
 2.135122242037470e-01	 1.267868059342734e+00	 8.147610512180550e-01
 1.863293062108733e-01	 1.272147083663860e+00	 6.659386084606711e-01
 1.592533716784285e-01	 1.275819397255182e+00	 5.384551898629910e-01
 1.323023749914270e-01	 1.278895164959809e+00	 4.312778658662260e-01
 1.054935704472460e-01	 1.281385144260689e+00	 3.435184995128699e-01
 7.884349529548884e-02	 1.283300637468239e+00	 2.743270761681456e-01
 5.236795613634504e-02	 1.284653444015185e+00	 2.227877803049163e-01
 2.608201857324472e-02	 1.285455813094762e+00	 1.878221781593203e-01
 0.000000000000000e+00	 1.285720396862037e+00	 1.681031258307839e-01
 1.285720396862037e+00	 0.000000000000000e+00	 1.907452462847667e+01
 1.285455813094762e+00	 2.608201857324508e-02	 1.903402197683038e+01
 1.284653444015185e+00	 5.236795613634536e-02	 1.899451290332611e+01
 1.283300637468238e+00	 7.884349529548910e-02	 1.895433461290957e+01
 1.281385144260689e+00	 1.054935704472463e-01	 1.891143534450064e+01
 1.278895164959809e+00	 1.323023749914272e-01	 1.886334854464394e+01
 1.275819397255182e+00	 1.592533716784286e-01	 1.880716349985359e+01
 1.272147083663861e+00	 1.863293062108735e-01	 1.873949262631725e+01
 1.267868059342734e+00	 2.135122242037470e-01	 1.865643601534605e+01
 1.262972799756726e+00	 2.407834915895561e-01	 1.855354429404453e+01
 1.257452467937382e+00	 2.681238185353585e-01	 1.842578137263855e+01
 1.314290642642036e+00	 0.000000000000000e+00	 1.843960356495244e+01
 1.314020179506831e+00	 2.666159223683366e-02	 1.839823086964374e+01
 1.313199980826132e+00	 5.353163478768602e-02	 1.836132912605202e+01
 1.311817113298846e+00	 8.059549210908877e-02	 1.832685661336874e+01
 1.309859055540008e+00	 1.078377638218408e-01	 1.829238603160471e+01
 1.307313745919378e+00	 1.352422920841458e-01	 1.825508007132177e+01
 1.304169630975679e+00	 1.627921721688875e-01	 1.821166158882757e+01
 1.300415714181819e+00	 1.904697663675160e-01	 1.815837839150060e+01
 1.296041604819711e+00	 2.182567213270570e-01	 1.809096310171121e+01
 1.291037566707714e+00	 2.461339889086986e-01	 1.800458910713050e+01
 1.285394566509361e+00	 2.740818506362862e-01	 1.789382420846394e+01
 1.342860858423585e+00	 0.000000000000000e+00	 1.787183176016091e+01
 1.342584515926635e+00	 2.724116529187806e-02	 1.782972405786322e+01
 1.341746487663567e+00	 5.469531221716788e-02	 1.779509516128243e+01
 1.340333559187554e+00	 8.234748708308125e-02	 1.776548194465283e+01
 1.338332936922183e+00	 1.101819547350004e-01	 1.773806888127738e+01
 1.335732297039969e+00	 1.381822060898935e-01	 1.770966673273798e+01
 1.332519834929034e+00	 1.663309689435210e-01	 1.767668355013644e+01
 1.328684315018389e+00	 1.946102221765649e-01	 1.763508774015906e+01
 1.324215120715206e+00	 2.230012134685138e-01	 1.758036348432327e+01
 1.319102304191489e+00	 2.514844806096749e-01	 1.750745942725819e+01
 1.313336635742967e+00	 2.800398764811343e-01	 1.741073225648318e+01
 1.371431047539845e+00	 0.000000000000000e+00	 1.736213813502498e+01
 1.371148825686649e+00	 2.782073780599288e-02	 1.731945403075017e+01
 1.370292967857882e+00	 5.585898856054766e-02	 1.728687605548397e+01
 1.368849978461242e+00	 8.409948042185617e-02	 1.726147482144272e+01
 1.366806791729120e+00	 1.125261434601995e-01	 1.724003308389756e+01
 1.364150821637026e+00	 1.411221173516416e-01	 1.721902937162867e+01
 1.360870012422712e+00	 1.698697624151653e-01	 1.719461115712570e+01
 1.356952889471511e+00	 1.987506741210464e-01	 1.716255700452787e+01
 1.352388610316057e+00	 2.277457011816117e-01	 1.711822774896494e+01
 1.347167015482201e+00	 2.568349673166781e-01	 1.705650748738703e+01
 1.341278678898035e+00	 2.859978967649761e-01	 1.697173598407141e+01
 1.400001213323978e+00	 0.000000000000000e+00	 1.690232267746569e+01
 1.399713112119345e+00	 2.840030984679266e-02	 1.685932601159083e+01
 1.398839424739465e+00	 5.702266395358206e-02	 1.682874013057483e+01
 1.397366374446788e+00	 8.585147232980318e-02	 1.680712177303856e+01
 1.395280623282724e+00	 1.148703302709128e-01	 1.679083754733989e+01
 1.392569323025992e+00	 1.440620262123609e-01	 1.677605443725803e+01
 1.389220166764175e+00	 1.734085529966568e-01	 1.675871655485240e+01
 1.385221440839121e+00	 2.028911226839866e-01	 1.673450719531855e+01
 1.380562076909104e+00	 2.324901850198454e-01	 1.669879595344568e+01
 1.375231703853993e+00	 2.621854496539016e-01	 1.664657149829258e+01
 1.369220699234404e+00	 2.919559121828844e-01	 1.657236155649186e+01
 1.428571359109143e+00	 0.000000000000000e+00	 1.648496934050326e+01
 1.428277378557198e+00	 2.897988148189201e-02	 1.644210517343355e+01
 1.427385861638708e+00	 5.818633853202786e-02	 1.641366153955860e+01
 1.425882750471070e+00	 8.760346301131197e-02	 1.639563056256824e+01
 1.423754434904901e+00	 1.172145154406149e-01	 1.638394720593525e+01
 1.420987804522313e+00	 1.470019330150226e-01	 1.637448871399484e+01
 1.417570301260889e+00	 1.769473411008318e-01	 1.636305644306354e+01
 1.413489972419156e+00	 2.070315683484119e-01	 1.634533868002487e+01
 1.408735523781190e+00	 2.372346655367094e-01	 1.631685384943063e+01
 1.403296372581017e+00	 2.675359282455387e-01	 1.627287447034390e+01
 1.397162700011909e+00	 2.979139234299318e-01	 1.620833332398715e+01
 1.457141488228504e+00	 0.000000000000000e+00	 1.610336918602070e+01
 1.456841628332681e+00	 2.955945277890550e-02	 1.606133472998172e+01
 1.455932281886000e+00	 5.935001243164173e-02	 1.603543413009305e+01
 1.454399109860965e+00	 8.935545267077216e-02	 1.602104064901021e+01
 1.452228229917558e+00	 1.195586992427805e-01	 1.601364090867451e+01
 1.449406269441430e+00	 1.499418381025976e-01	 1.600884546722868e+01
 1.445920419220316e+00	 1.804861271405268e-01	 1.600237731709403e+01
 1.441758487509556e+00	 2.111720115973485e-01	 1.599003636375529e+01
 1.436908954219154e+00	 2.419791432856982e-01	 1.596763885772512e+01
 1.431361024937416e+00	 2.728864037157824e-01	 1.593093184906156e+01
 1.425104684490388e+00	 3.038719312011915e-01	 1.587548399624369e+01
 1.485711604015220e+00	 0.000000000000000e+00	 1.575145392823290e+01
 1.485405864778269e+00	 3.013902380544770e-02	 1.571127971452588e+01
 1.484478688811733e+00	 6.051368578818042e-02	 1.568861444877202e+01
 1.482915455943352e+00	 9.110744151257338e-02	 1.567815054585743e+01
 1.480702011642600e+00	 1.219028819508842e-01	 1.567492932795458e+01
 1.477824721098791e+00	 1.528817418180572e-01	 1.567432046983781e+01
 1.474270523949921e+00	 1.840249115285782e-01	 1.567203027843096e+01
 1.470026989408256e+00	 2.153124529138226e-01	 1.566408395927895e+01
 1.465082371509836e+00	 2.467236188203064e-01	 1.564675448473189e+01
 1.459425664197340e+00	 2.782368766888264e-01	 1.561646677886762e+01
 1.453046655929677e+00	 3.098299361917363e-01	 1.556967147046545e+01
 1.514281709802452e+00	 0.000000000000000e+00	 1.542451345255822e+01
 1.513970091226436e+00	 3.071859462913320e-02	 1.538818099041871e+01
 1.513025085746295e+00	 6.167735873740063e-02	 1.537044982744832e+01
 1.511431792045108e+00	 9.285942974110530e-02	 1.536515117856045e+01
 1.509175783401934e+00	 1.242470638384005e-01	 1.536667202351896e+01
 1.506243162809838e+00	 1.558216445043721e-01	 1.537002669771818e+01
 1.502620618757167e+00	 1.875636946778222e-01	 1.537090439371932e+01
 1.498295481413198e+00	 2.194528927808605e-01	 1.536568484888091e+01
 1.493255778940076e+00	 2.514680926940284e-01	 1.535141327262177e+01
 1.487490293634937e+00	 2.835873477888636e-01	 1.532572439309802e+01
 1.480988617589613e+00	 3.157879390966389e-01	 1.528670143540739e+01
 1.542851808923362e+00	 0.000000000000000e+00	 1.512040690686894e+01
 1.542534311009655e+00	 3.129816531757656e-02	 1.508924757810233e+01
 1.541571476020078e+00	 6.284103141505910e-02	 1.507784470600985e+01
 1.539948121493113e+00	 9.461141756075754e-02	 1.507914055082184e+01
 1.537649548517465e+00	 1.265912451788042e-01	 1.508684276649835e+01
 1.534661597890016e+00	 1.587615465045136e-01	 1.509552271860504e+01
 1.530970706949519e+00	 1.911024770010951e-01	 1.510069177382347e+01
 1.526563966822316e+00	 2.235933316814885e-01	 1.509884729109447e+01
 1.521429179796715e+00	 2.562125654603588e-01	 1.508747859333105e+01
 1.515554916524352e+00	 2.889378176400874e-01	 1.506502178171893e+01
 1.508930572730032e+00	 3.217459406109724e-01	 1.503075094725311e+01
 1.571421904711111e+00	 0.000000000000000e+00	 1.483780158534041e+01
 1.571098527460400e+00	 3.187773593839238e-02	 1.481161137106568e+01
 1.570117862963473e+00	 6.400470395691259e-02	 1.480659515613365e+01
 1.568464447614244e+00	 9.636340517591983e-02	 1.481477956667769e+01
 1.566123310311101e+00	 1.289354262455699e-01	 1.482916825474104e+01
 1.563080029654769e+00	 1.617014481614526e-01	 1.484386908615111e+01
 1.559320791834440e+00	 1.946412589112336e-01	 1.485420208339021e+01
 1.554832448933549e+00	 2.277337700987327e-01	 1.485677931276846e+01
 1.549602577366594e+00	 2.609570376727921e-01	 1.484954619761243e+01
 1.543619536139733e+00	 2.942882868666913e-01	 1.483177204874990e+01
 1.536872524610773e+00	 3.277039414298099e-01	 1.480397601428844e+01
 1.257452467937382e+00	 2.681238185353585e-01	 1.842578137263855e+01
 1.251299414185870e+00	 2.955113733053915e-01	 1.828217418095902e+01
 1.244505952696826e+00	 3.229275813091398e-01	 1.813253111364216e+01
 1.237065585746464e+00	 3.503514002921749e-01	 1.797228403639441e+01
 1.228972681839593e+00	 3.777612653449466e-01	 1.779664676926729e+01
 1.220222516489175e+00	 4.051351305061596e-01	 1.760436745156716e+01
 1.210811310803579e+00	 4.324505137538382e-01	 1.739491390947194e+01
 1.200736267576031e+00	 4.596845452675225e-01	 1.716735468096646e+01
 1.189995604575767e+00	 4.868140188151084e-01	 1.692116928582259e+01
 1.178588584748600e+00	 5.138154460878553e-01	 1.665622300158012e+01
 1.166515543046022e+00	 5.406651137773846e-01	 1.637272699812938e+01
 1.285394566509361e+00	 2.740818506362862e-01	 1.789382420846394e+01
 1.279104784540358e+00	 3.020779896467305e-01	 1.776925109186324e+01
 1.272160364207551e+00	 3.301034185998963e-01	 1.764245467573602e+01
 1.264554663399955e+00	 3.581366276572991e-01	 1.750874287959417e+01
 1.256281925483817e+00	 3.861555727113118e-01	 1.736296936412445e+01
 1.247337320988344e+00	 4.141377179130172e-01	 1.720114967368184e+01
 1.237716987050414e+00	 4.420600816630286e-01	 1.702176911564363e+01
 1.227418064305967e+00	 4.698992859461283e-01	 1.682391395794220e+01
 1.216438730920943e+00	 4.976316088599863e-01	 1.660713002483742e+01
 1.204778233462927e+00	 5.252330401575561e-01	 1.637139701104403e+01
 1.192436914326437e+00	 5.526793395923923e-01	 1.611708650793144e+01
 1.313336635742967e+00	 2.800398764811343e-01	 1.741073225648318e+01
 1.306910125700054e+00	 3.086445990929890e-01	 1.730248461983496e+01
 1.299814746681988e+00	 3.372792483559147e-01	 1.719620100418825e+01
 1.292043712190741e+00	 3.659218468478599e-01	 1.708720953059430e+01
 1.283591140454132e+00	 3.945498712636216e-01	 1.696858720367942e+01
 1.274452097017727e+00	 4.231402958671724e-01	 1.683387553903380e+01
 1.264622635046999e+00	 4.516696394822363e-01	 1.668161641766200e+01
 1.254099833020681e+00	 4.801140158993691e-01	 1.651093671065720e+01
 1.242881829501451e+00	 5.084491875465540e-01	 1.632146377580424e+01
 1.230967854678694e+00	 5.366506222389833e-01	 1.611329977995587e+01
 1.218358258389946e+00	 5.646935527926953e-01	 1.588697805213527e+01
 1.341278678898035e+00	 2.859978967649761e-01	 1.697173598407141e+01
 1.334715440908847e+00	 3.152112024102438e-01	 1.687796552139742e+01
 1.327469103346423e+00	 3.444550714143522e-01	 1.679057260872265e+01
 1.319532735325828e+00	 3.737070587721167e-01	 1.670499602942900e+01
 1.310900329936573e+00	 4.029441619812022e-01	 1.661020719271573e+01
 1.301566847740684e+00	 4.321428654189259e-01	 1.649956677276822e+01
 1.291528257932312e+00	 4.612791883325856e-01	 1.637171984839348e+01
 1.280781576833037e+00	 4.903287363189830e-01	 1.622585325889127e+01
 1.269324903402324e+00	 5.192667561368914e-01	 1.606168809312296e+01
 1.257157451451369e+00	 5.480681936642268e-01	 1.587945467110172e+01
 1.244279578260724e+00	 5.767077547799999e-01	 1.567984783505538e+01
 1.369220699234404e+00	 2.919559121828844e-01	 1.657236155649186e+01
 1.362520733410627e+00	 3.217778003645723e-01	 1.649187680411756e+01
 1.355123437427139e+00	 3.516308886123664e-01	 1.642226125719207e+01
 1.347021736012219e+00	 3.814922643383283e-01	 1.635826932350740e+01
 1.338209497117175e+00	 4.113384458433794e-01	 1.628420348996806e+01
 1.328681576320576e+00	 4.411454276185783e-01	 1.619484255958283e+01
 1.318433858845326e+00	 4.708887293352017e-01	 1.608888251910917e+01
 1.307463298855903e+00	 5.005434483967078e-01	 1.596558529766081e+01
 1.295767955708594e+00	 5.300843158930787e-01	 1.582477410803940e+01
 1.283347026836419e+00	 5.594857557653767e-01	 1.566680993460945e+01
 1.270200876962945e+00	 5.887219469560119e-01	 1.549254656475320e+01
 1.397162700011909e+00	 2.979139234299318e-01	 1.620833332398715e+01
 1.390326006449282e+00	 3.283443937220512e-01	 1.614039977012507e+01
 1.382777752150420e+00	 3.588067007871150e-01	 1.608775631544621e+01
 1.374510717456918e+00	 3.892774644547544e-01	 1.604276466859138e+01
 1.365518645181970e+00	 4.197327238294797e-01	 1.598661701715497e+01
 1.355796285920766e+00	 4.501479835164308e-01	 1.591592916270425e+01
 1.345339440925017e+00	 4.804982636112089e-01	 1.582946547315485e+01
 1.334145002202147e+00	 5.107581533242813e-01	 1.572657306570867e+01
 1.322210989505292e+00	 5.409018680771961e-01	 1.560718105074458e+01
 1.309536583889313e+00	 5.709033098745235e-01	 1.547177958512028e+01
 1.296122157520783e+00	 6.007361307224373e-01	 1.532137565414590e+01
 1.425104684490388e+00	 3.038719312011915e-01	 1.587548399624369e+01
 1.418131263268701e+00	 3.349109832487575e-01	 1.581962657785013e+01
 1.410432050742550e+00	 3.659825087757547e-01	 1.578325853550883e+01
 1.401999682866931e+00	 3.970626600296538e-01	 1.575402306709041e+01
 1.392827777316995e+00	 4.281269969188294e-01	 1.571315858076674e+01
 1.382910979704614e+00	 4.591505341627841e-01	 1.565867239141489e+01
 1.372245007310359e+00	 4.901077922817318e-01	 1.558940872753777e+01
 1.360826689984636e+00	 5.209728522934411e-01	 1.550480414495194e+01
 1.348654007877451e+00	 5.517194139513233e-01	 1.540489194984403e+01
 1.335726125665518e+00	 5.823208573237566e-01	 1.529028510539188e+01
 1.322043422958413e+00	 6.127503074809822e-01	 1.516213399910907e+01
 1.453046655929677e+00	 3.098299361917363e-01	 1.556967147046545e+01
 1.445936507112774e+00	 3.414775697107685e-01	 1.552547844577571e+01
 1.438086336429814e+00	 3.731583134154436e-01	 1.550448331419400e+01
 1.429488635449262e+00	 4.048478519712860e-01	 1.548731321645504e+01
 1.420136896708283e+00	 4.365212660907544e-01	 1.545921512074720e+01
 1.410025660835482e+00	 4.681530806079390e-01	 1.541855253408830e+01
 1.399150561140328e+00	 4.997173164678950e-01	 1.536425420826525e+01
 1.387508365316236e+00	 5.311875464959256e-01	 1.529584367164455e+01
 1.375097013910104e+00	 5.625369547775412e-01	 1.521345035096376e+01
 1.361915655220503e+00	 5.937383994451669e-01	 1.511779786529609e+01
 1.347964676300009e+00	 6.247644786333532e-01	 1.501016525607651e+01
 1.480988617589613e+00	 3.157879390966389e-01	 1.528670143540739e+01
 1.473741741225390e+00	 3.480441538741609e-01	 1.525362875434084e+01
 1.465740612438496e+00	 3.803341155433387e-01	 1.524556208989349e+01
 1.456977578410914e+00	 4.126330411879101e-01	 1.523763180351851e+01
 1.447446006541868e+00	 4.449155323245809e-01	 1.521985867347151e+01
 1.437140332476732e+00	 4.771556239021963e-01	 1.519070143142732e+01
 1.426056105553898e+00	 5.093268372908233e-01	 1.514917032958250e+01
 1.414190031309815e+00	 5.414022371234724e-01	 1.509486577300789e+01
 1.401540010688282e+00	 5.733544918179292e-01	 1.502799792004043e+01
 1.388105175609736e+00	 6.051559375708441e-01	 1.494938216182598e+01
 1.373885920569747e+00	 6.367786455812560e-01	 1.486040555322346e+01
 1.508930572730032e+00	 3.217459406109724e-01	 1.503075094725311e+01
 1.501546968850437e+00	 3.546107365050120e-01	 1.500442598572523e+01
 1.493394881994880e+00	 3.875099159965980e-01	 1.500280124907229e+01
 1.484466514958892e+00	 4.204182285877853e-01	 1.499982951555206e+01
 1.474755110003787e+00	 4.533097965996353e-01	 1.498985769747540e+01
 1.464254997791725e+00	 4.861581650958569e-01	 1.496992141271217e+01
 1.452961643690044e+00	 5.189363558716410e-01	 1.493897800418522e+01
 1.440871691078240e+00	 5.516169253678196e-01	 1.489668607058008e+01
 1.427983001297019e+00	 5.841720263345679e-01	 1.484331281666111e+01
 1.414294689888683e+00	 6.165734730328783e-01	 1.477973879960259e+01
 1.399807158791798e+00	 6.487928097263963e-01	 1.470743157897269e+01
 1.536872524610773e+00	 3.277039414298099e-01	 1.480397601428844e+01
 1.529352193231805e+00	 3.611773183693990e-01	 1.478476508046606e+01
 1.521049148325250e+00	 3.946857156123783e-01	 1.478499633883300e+01
 1.511955448300201e+00	 4.282034150791708e-01	 1.478047957502104e+01
 1.502064210280071e+00	 4.617040598952434e-01	 1.476952509042098e+01
 1.491369659943822e+00	 4.951607052392218e-01	 1.475205488654893e+01
 1.479867178687743e+00	 5.285458733314732e-01	 1.472817790236665e+01
 1.467553347734377e+00	 5.618316124207049e-01	 1.469579511453277e+01
 1.454425988821346e+00	 5.949895595895375e-01	 1.465384873939214e+01
 1.440484201112815e+00	 6.279910071633604e-01	 1.460324914297639e+01
 1.425728393990340e+00	 6.608069724704809e-01	 1.454550899963486e+01
 1.166515543046022e+00	 5.406651137773846e-01	 1.637272699812938e+01
 1.153776995948852e+00	 5.673410025056632e-01	 1.607423718881851e+01
 1.140376316679318e+00	 5.938172336156315e-01	 1.576529332267623e+01
 1.126317187933549e+00	 6.200697724844398e-01	 1.544786145772502e+01
 1.111604433383508e+00	 6.460746100375476e-01	 1.512396648756799e+01
 1.096244024044868e+00	 6.718078295158587e-01	 1.479321079294267e+01
 1.080243080004956e+00	 6.972456741903688e-01	 1.445375035814655e+01
 1.063609867397003e+00	 7.223646156506948e-01	 1.410571294957194e+01
 1.046353790541240e+00	 7.471414222802413e-01	 1.374903642531494e+01
 1.028485379209273e+00	 7.715532275206749e-01	 1.338520531150421e+01
 1.010016271005445e+00	 7.955775975220339e-01	 1.302149232254377e+01
 1.192436914326437e+00	 5.526793395923923e-01	 1.611708650793144e+01
 1.179415301469111e+00	 5.799479984895509e-01	 1.584798020676632e+01
 1.165716843070209e+00	 6.070125631372499e-01	 1.556856614789361e+01
 1.151345303659770e+00	 6.338484648345605e-01	 1.528057384057726e+01
 1.136305614097516e+00	 6.604311609965769e-01	 1.498575893482206e+01
 1.120603878082231e+00	 6.867362034051971e-01	 1.468576548689312e+01
 1.104247373918096e+00	 7.127393074284716e-01	 1.438146111033758e+01
 1.087244551421710e+00	 7.384164218265842e-01	 1.406891689434971e+01
 1.069605023888549e+00	 7.637437987486200e-01	 1.374446974207292e+01
 1.051339555074341e+00	 7.886980635139569e-01	 1.340957227015654e+01
 1.032460041184918e+00	 8.132562837656436e-01	 1.307206352241883e+01
 1.218358258389946e+00	 5.646935527926953e-01	 1.588697805213527e+01
 1.205053580069656e+00	 5.925549812363474e-01	 1.564630429341060e+01
 1.191057342854037e+00	 6.202078788040395e-01	 1.539555635973684e+01
 1.176373393106952e+00	 6.476271427173267e-01	 1.513629414951961e+01
 1.161006768875763e+00	 6.747876968814993e-01	 1.487007834560535e+01
 1.144963706542226e+00	 7.016645616200101e-01	 1.459832146713905e+01
 1.128251642627209e+00	 7.282329243985199e-01	 1.432212093376762e+01
 1.110879210630485e+00	 7.544682111483310e-01	 1.404051105743103e+01
 1.092856232822551e+00	 7.803461577847525e-01	 1.374439975336636e+01
 1.074193706943010e+00	 8.058428815054101e-01	 1.343597241989161e+01
 1.054903787798911e+00	 8.309349514468867e-01	 1.312282938924369e+01
 1.244279578260724e+00	 5.767077547799999e-01	 1.567984783505538e+01
 1.230691834741641e+00	 6.051619522169231e-01	 1.546656205743424e+01
 1.216397818987215e+00	 6.334031821555168e-01	 1.524357156406383e+01
 1.201401459195053e+00	 6.614058077403190e-01	 1.501233100150362e+01
 1.185707900600062e+00	 6.891442193673171e-01	 1.477427854590042e+01
 1.169323512266841e+00	 7.165929059020157e-01	 1.453067518521160e+01
 1.152255888932794e+00	 7.437265269081805e-01	 1.428231101101611e+01
 1.134513847780697e+00	 7.705199854887219e-01	 1.402032329328360e+01
 1.116107420055876e+00	 7.969485013256576e-01	 1.374425125782729e+01
 1.097047837481584e+00	 8.229876834953355e-01	 1.345990618851154e+01
 1.077347513465847e+00	 8.486136026283411e-01	 1.316964401701490e+01
 1.270200876962945e+00	 5.887219469560119e-01	 1.549254656475320e+01
 1.256330068476218e+00	 6.177689129021486e-01	 1.530549226226352e+01
 1.241738274426153e+00	 6.465984747311978e-01	 1.510928317908174e+01
 1.226429504844033e+00	 6.751844615111188e-01	 1.490533012116066e+01
 1.210409012152226e+00	 7.035007301290326e-01	 1.469501913478961e+01
 1.193683298098059e+00	 7.315212379929317e-01	 1.447953855234371e+01
 1.176260115635350e+00	 7.592201167651195e-01	 1.425473059148733e+01
 1.158148465629721e+00	 7.865717467205429e-01	 1.400828309086682e+01
 1.139358588301156e+00	 8.135508313083520e-01	 1.374646170881770e+01
 1.119901949356369e+00	 8.401324714840332e-01	 1.347733860253114e+01
 1.099791220804150e+00	 8.662922393725845e-01	 1.320797779974751e+01
 1.296122157520783e+00	 6.007361307224373e-01	 1.532137565414590e+01
 1.281968284264539e+00	 6.303758647628948e-01	 1.515927084067781e+01
 1.267078712127260e+00	 6.597937580705990e-01	 1.498878225739594e+01
 1.251457532973855e+00	 6.889631056373068e-01	 1.481133491347119e+01
 1.235110106414067e+00	 7.178572308416478e-01	 1.462833070246126e+01
 1.218043066877867e+00	 7.464495596344753e-01	 1.444038557353051e+01
 1.200264325535372e+00	 7.747136957770023e-01	 1.423107249945137e+01
 1.181783066934926e+00	 8.026234967165805e-01	 1.399783763815338e+01
 1.162609740271021e+00	 8.301531496698529e-01	 1.374840984439094e+01
 1.142756045233671e+00	 8.572772474718051e-01	 1.349102629587645e+01
 1.122234912432244e+00	 8.839708637421949e-01	 1.323428957871275e+01
 1.322043422958413e+00	 6.127503074809822e-01	 1.516213399910907e+01
 1.307606485097755e+00	 6.429828092700316e-01	 1.502356227246342e+01
 1.292419135046948e+00	 6.729890337132365e-01	 1.487763542877736e+01
 1.276485546504476e+00	 7.027417417264640e-01	 1.472584688827869e+01
 1.259811186267398e+00	 7.322137231801646e-01	 1.456967960661713e+01
 1.242402821448253e+00	 7.613778725683650e-01	 1.440224923097957e+01
 1.224268521433361e+00	 7.902072657514962e-01	 1.420454931376442e+01
 1.205417654453685e+00	 8.186752373496210e-01	 1.398239032542961e+01
 1.185860878678103e+00	 8.467554583471790e-01	 1.374369284078778e+01
 1.165610127779792e+00	 8.744220134589514e-01	 1.349692361098142e+01
 1.144678590968555e+00	 9.016494777997498e-01	 1.325094527385724e+01
 1.347964676300009e+00	 6.247644786333532e-01	 1.501016525607650e+01
 1.333244673967019e+00	 6.555897478944299e-01	 1.489357127638546e+01
 1.317759546141629e+00	 6.861843031986274e-01	 1.477094094752177e+01
 1.301513548355855e+00	 7.165203713861716e-01	 1.464388595670500e+01
 1.284512254594032e+00	 7.465702088195856e-01	 1.451330322863539e+01
 1.266762564651199e+00	 7.763061785363180e-01	 1.435685651988866e+01
 1.248272706129814e+00	 8.057008284962666e-01	 1.416839579579086e+01
 1.229052230943368e+00	 8.347269704924498e-01	 1.395535979601794e+01
 1.209112006235032e+00	 8.633577592773468e-01	 1.372591105194241e+01
 1.188464199661041e+00	 8.915667714457729e-01	 1.348880712064598e+01
 1.167122259031505e+00	 9.193280836078274e-01	 1.325324260365004e+01
 1.373885920569747e+00	 6.367786455812560e-01	 1.486040555322346e+01
 1.358882853863484e+00	 6.681966821069600e-01	 1.476409477498764e+01
 1.343099948367711e+00	 6.993795680662869e-01	 1.466338483058635e+01
 1.326541541447955e+00	 7.302989962240104e-01	 1.456005061637013e+01
 1.309213314275782e+00	 7.609266894349129e-01	 1.444681317044279e+01
 1.291122299328694e+00	 7.912344792800531e-01	 1.429733518691315e+01
 1.272276882425230e+00	 8.211943858189803e-01	 1.411592287357999e+01
 1.252686799161348e+00	 8.507786980178537e-01	 1.391023734633841e+01
 1.232363125654442e+00	 8.799600543973746e-01	 1.368872866517865e+01
 1.211318263543720e+00	 9.087115234325704e-01	 1.346050298256005e+01
 1.189565919239519e+00	 9.370066832290059e-01	 1.323515661713367e+01
 1.399807158791798e+00	 6.487928097263963e-01	 1.470743157897269e+01
 1.384521027778301e+00	 6.808036133784929e-01	 1.462957409675965e+01
 1.368440344681606e+00	 7.125748298557321e-01	 1.454929707461476e+01
 1.351569528700732e+00	 7.440776178475610e-01	 1.446831089442809e+01
 1.333914368194461e+00	 7.752831667011488e-01	 1.436183230482022e+01
 1.315482028322723e+00	 8.061627765412871e-01	 1.421693751542350e+01
 1.296281053120105e+00	 8.366879395273029e-01	 1.404057090851584e+01
 1.276321361864995e+00	 8.668304217986189e-01	 1.384064337741091e+01
 1.255614239648961e+00	 8.965623456442794e-01	 1.362593316736640e+01
 1.234172322094136e+00	 9.258562714196453e-01	 1.340594922373576e+01
 1.212009574211021e+00	 9.546852787258621e-01	 1.319075713564548e+01
 1.425728393990340e+00	 6.608069724704809e-01	 1.454550899963486e+01
 1.410159198702623e+00	 6.934105431798991e-01	 1.448414738525523e+01
 1.393780738039724e+00	 7.257700901064790e-01	 1.442270794157223e+01
 1.376597513034149e+00	 7.578562378644056e-01	 1.435632140868142e+01
 1.358615419231882e+00	 7.896396422932951e-01	 1.425158394295828e+01
 1.339841754475272e+00	 8.210910720617383e-01	 1.410908983100642e+01
 1.320285221014940e+00	 8.521814914289009e-01	 1.393596233569390e+01
 1.299955921811683e+00	 8.828821437075316e-01	 1.374038301853652e+01
 1.278865350931224e+00	 9.131646349550795e-01	 1.353149377304087e+01
 1.257026377978594e+00	 9.430010174072981e-01	 1.331925676950171e+01
 1.234453226564436e+00	 9.723638721609746e-01	 1.311427215728838e+01
 1.010016271005445e+00	 7.955775975220339e-01	 1.302149232254377e+01
 9.909591860822649e-01	 8.191925999955730e-01	 1.264078037983121e+01
 9.713278914490570e-01	 8.423768760751950e-01	 1.222501411681439e+01
 9.511371775231903e-01	 8.651096969918102e-01	 1.178139570706557e+01
 9.304028245471552e-01	 8.873710229845827e-01	 1.131700040666144e+01
 9.091415618500224e-01	 9.091415618500228e-01	 1.083860431286996e+01
 8.873710229845823e-01	 9.304028245471554e-01	 1.035250856702146e+01
 8.651096969918097e-01	 9.511371775231905e-01	 9.864365569845175e+00
 8.423768760751945e-01	 9.713278914490573e-01	 9.379013037825791e+00
 8.191925999955728e-01	 9.909591860822652e-01	 8.900321783963063e+00
 7.955775975220341e-01	 1.010016271005445e+00	 8.431062946507444e+00
 1.032460041184918e+00	 8.132562837656436e-01	 1.307206352241883e+01
 1.012979485029798e+00	 8.373960398532323e-01	 1.271350415933501e+01
 9.929119595377341e-01	 8.610954982910529e-01	 1.231524429043510e+01
 9.722725837868789e-01	 8.843334696919525e-01	 1.188535232180561e+01
 9.510774886756040e-01	 9.070894689876181e-01	 1.143184066773636e+01
 9.293437752787017e-01	 9.293437752787024e-01	 1.096246698939758e+01
 9.070894689876176e-01	 9.510774886756043e-01	 1.048452970954009e+01
 8.843334696919520e-01	 9.722725837868792e-01	 1.000466419036285e+01
 8.610954982910524e-01	 9.929119595377344e-01	 9.528646293600401e+00
 8.373960398532317e-01	 1.012979485029798e+00	 9.061210139091994e+00
 8.132562837656439e-01	 1.032460041184918e+00	 8.605886729246471e+00
 1.054903787798911e+00	 8.309349514468867e-01	 1.312282938924369e+01
 1.034999760856481e+00	 8.555994605975452e-01	 1.278563230554750e+01
 1.014496004963584e+00	 8.798141008526423e-01	 1.240545376924069e+01
 9.934079678588098e-01	 9.035572222074415e-01	 1.199112582312300e+01
 9.717521310960475e-01	 9.268078942866202e-01	 1.155148940996567e+01
 9.495459674954205e-01	 9.495459674954210e-01	 1.109516759905140e+01
 9.268078942866196e-01	 9.717521310960476e-01	 1.063033067750168e+01
 9.035572222074411e-01	 9.934079678588099e-01	 1.016446038846019e+01
 8.798141008526421e-01	 1.014496004963584e+00	 9.704121011280986e+00
 8.555994605975449e-01	 1.034999760856482e+00	 9.254745125035967e+00
 8.309349514468868e-01	 1.054903787798911e+00	 8.820441762077321e+00
 1.077347513465847e+00	 8.486136026283411e-01	 1.316964401701490e+01
 1.057020016131336e+00	 8.738028643523047e-01	 1.285330483149692e+01
 1.036080030244738e+00	 8.985326859438507e-01	 1.249193559273666e+01
 1.014543332204780e+00	 9.227809567810893e-01	 1.209504087505045e+01
 9.924267542205367e-01	 9.465263011821018e-01	 1.167219503179163e+01
 9.697481408571208e-01	 9.697481408571215e-01	 1.123278565858578e+01
 9.465263011821016e-01	 9.924267542205373e-01	 1.078574622120590e+01
 9.227809567810888e-01	 1.014543332204780e+00	 1.033928610862795e+01
 8.985326859438502e-01	 1.036080030244739e+00	 9.900626876742374e+00
 8.738028643523048e-01	 1.057020016131336e+00	 9.475753650784121e+00
 8.486136026283411e-01	 1.077347513465847e+00	 9.069190538150719e+00
 1.099791220804150e+00	 8.662922393725845e-01	 1.320797779974751e+01
 1.079040253423383e+00	 8.920062532413016e-01	 1.291225069036498e+01
 1.057664037899332e+00	 9.172512557485653e-01	 1.257054868392310e+01
 1.035678679290585e+00	 9.420046756557073e-01	 1.219296893660424e+01
 1.013101360461125e+00	 9.662446919745765e-01	 1.178973737631035e+01
 9.899502977207456e-01	 9.899502977207459e-01	 1.137092038227778e+01
 9.662446919745762e-01	 1.013101360461125e+00	 1.094612259159639e+01
 9.420046756557069e-01	 1.035678679290585e+00	 1.052418016303569e+01
 9.172512557485647e-01	 1.057664037899332e+00	 1.011285943727725e+01
 8.920062532413010e-01	 1.079040253423383e+00	 9.718571200070583e+00
 8.662922393725845e-01	 1.099791220804150e+00	 9.346110661191418e+00
 1.122234912432244e+00	 8.839708637421949e-01	 1.323428957871275e+01
 1.101060475301646e+00	 9.102096293883281e-01	 1.295789598933877e+01
 1.079248030445496e+00	 9.359698124506731e-01	 1.263682698230361e+01
 1.056814011582023e+00	 9.612283810741071e-01	 1.228043684677853e+01
 1.033775952229863e+00	 9.859630689645579e-01	 1.189953439145350e+01
 1.010152440443236e+00	 1.010152440443236e+00	 1.150479414085622e+01
 9.859630689645578e-01	 1.033775952229864e+00	 1.110641663100884e+01
 9.612283810741066e-01	 1.056814011582023e+00	 1.071378190489060e+01
 9.359698124506728e-01	 1.079248030445497e+00	 1.033510743323663e+01
 9.102096293883276e-01	 1.101060475301646e+00	 9.977122027872028e+00
 8.839708637421947e-01	 1.122234912432244e+00	 9.637332792215568e+00
 1.144678590968555e+00	 9.016494777997498e-01	 1.325094527385724e+01
 1.123080684335145e+00	 9.284129949171760e-01	 1.298685443792735e+01
 1.100832010401366e+00	 9.546883582340624e-01	 1.268608544584850e+01
 1.077949331544888e+00	 9.804520752791011e-01	 1.235273219062802e+01
 1.054450531938804e+00	 1.005681434452558e+00	 1.199674559268763e+01
 1.030354571381536e+00	 1.030354571381537e+00	 1.162935284492152e+01
 1.005681434452558e+00	 1.054450531938804e+00	 1.126129200172770e+01
 9.804520752791006e-01	 1.077949331544889e+00	 1.090242233466192e+01
 9.546883582340622e-01	 1.100832010401366e+00	 1.056133792936483e+01
 9.284129949171754e-01	 1.123080684335145e+00	 1.023669188271124e+01
 9.016494777997498e-01	 1.144678590968555e+00	 9.891658982607874e+00
 1.167122259031505e+00	 9.193280836078274e-01	 1.325324260365004e+01
 1.145100883092902e+00	 9.466163519516361e-01	 1.300084158280974e+01
 1.122415980285073e+00	 9.734068952826199e-01	 1.271466676664501e+01
 1.099084641644979e+00	 9.996757605135003e-01	 1.240500588166431e+01
 1.075125101999999e+00	 1.025399790739092e+00	 1.207637276052417e+01
 1.050556692892587e+00	 1.050556692892587e+00	 1.173936366866169e+01
 1.025399790739091e+00	 1.075125101999999e+00	 1.140521293935403e+01
 9.996757605134998e-01	 1.099084641644980e+00	 1.108421298634868e+01
 9.734068952826193e-01	 1.122415980285074e+00	 1.077825599635878e+01
 9.466163519516356e-01	 1.145100883092902e+00	 1.045000180777373e+01
 9.193280836078275e-01	 1.167122259031505e+00	 1.009720245653389e+01
 1.189565919239519e+00	 9.370066832290059e-01	 1.323515661713367e+01
 1.167121074143939e+00	 9.648197026155007e-01	 1.299493222230980e+01
 1.143999942614752e+00	 9.921254257802332e-01	 1.272355401592840e+01
 1.120219944348091e+00	 1.018899439020117e+00	 1.243304302687383e+01
 1.095799664825500e+00	 1.045118140124671e+00	 1.213335824010783e+01
 1.070758807333332e+00	 1.070758807333333e+00	 1.182951046713068e+01
 1.045118140124671e+00	 1.095799664825500e+00	 1.153253585978901e+01
 1.018899439020116e+00	 1.120219944348092e+00	 1.124888507713766e+01
 9.921254257802327e-01	 1.143999942614752e+00	 1.094277806236352e+01
 9.648197026155003e-01	 1.167121074143939e+00	 1.060816687340736e+01
 9.370066832290057e-01	 1.189565919239519e+00	 1.025046044348743e+01
 1.212009574211021e+00	 9.546852787258621e-01	 1.319075713564548e+01
 1.189141260057277e+00	 9.830230490325619e-01	 1.296326474851743e+01
 1.165583899908536e+00	 1.010843951910790e+00	 1.270783842453162e+01
 1.141355242120021e+00	 1.038123113041762e+00	 1.243697940137815e+01
 1.116474222827359e+00	 1.064836484909810e+00	 1.216288533884273e+01
 1.090960917060714e+00	 1.090960917060714e+00	 1.189448718823485e+01
 1.064836484909809e+00	 1.116474222827359e+00	 1.163625069533721e+01
 1.038123113041762e+00	 1.141355242120022e+00	 1.135800144487826e+01
 1.010843951910789e+00	 1.165583899908536e+00	 1.104708176661390e+01
 9.830230490325611e-01	 1.189141260057278e+00	 1.070880303601758e+01
 9.546852787258621e-01	 1.212009574211021e+00	 1.034849780415474e+01
 1.234453226564436e+00	 9.723638721609746e-01	 1.311427215728838e+01
 1.211161443401940e+00	 1.001226393326611e+00	 1.290011834433388e+01
 1.187167854684556e+00	 1.029562475858177e+00	 1.266174880354621e+01
 1.162490537426566e+00	 1.057346784821248e+00	 1.241213162147482e+01
 1.137148778417628e+00	 1.084554827395022e+00	 1.216391602867148e+01
 1.111163024431674e+00	 1.111163024431675e+00	 1.192908941795243e+01
 1.084554827395021e+00	 1.137148778417628e+00	 1.168446578914511e+01
 1.057346784821247e+00	 1.162490537426566e+00	 1.140297790993861e+01
 1.029562475858177e+00	 1.187167854684557e+00	 1.108977627865209e+01
 1.001226393326610e+00	 1.211161443401940e+00	 1.075002624803814e+01
 9.723638721609748e-01	 1.234453226564436e+00	 1.038889874686657e+01
 7.955775975220341e-01	 1.010016271005445e+00	 8.431062946507444e+00
 7.715532275206743e-01	 1.028485379209273e+00	 7.972634605359282e+00
 7.471414222802408e-01	 1.046353790541241e+00	 7.526920454045087e+00
 7.223646156506944e-01	 1.063609867397003e+00	 7.095143151240902e+00
 6.972456741903684e-01	 1.080243080004956e+00	 6.676075232512838e+00
 6.718078295158584e-01	 1.096244024044868e+00	 6.268447545432878e+00
 6.460746100375473e-01	 1.111604433383508e+00	 5.871021364118368e+00
 6.200697724844397e-01	 1.126317187933550e+00	 5.472131320822179e+00
 5.938172336156310e-01	 1.140376316679318e+00	 5.066962279548711e+00
 5.673410025056627e-01	 1.153776995948852e+00	 4.662724948319259e+00
 5.406651137773846e-01	 1.166515543046022e+00	 4.266764222306504e+00
 8.132562837656439e-01	 1.032460041184918e+00	 8.605886729246471e+00
 7.886980635139564e-01	 1.051339555074342e+00	 8.164880362209420e+00
 7.637437987486196e-01	 1.069605023888549e+00	 7.740020402295741e+00
 7.384164218265834e-01	 1.087244551421710e+00	 7.332156023464520e+00
 7.127393074284709e-01	 1.104247373918096e+00	 6.939158375769727e+00
 6.867362034051968e-01	 1.120603878082231e+00	 6.552890555719166e+00
 6.604311609965765e-01	 1.136305614097516e+00	 6.153004369526304e+00
 6.338484648345600e-01	 1.151345303659770e+00	 5.742827200394117e+00
 6.070125631372495e-01	 1.165716843070209e+00	 5.328954437239133e+00
 5.799479984895503e-01	 1.179415301469111e+00	 4.918306450794427e+00
 5.526793395923922e-01	 1.192436914326437e+00	 4.517886478180897e+00
 8.309349514468868e-01	 1.054903787798911e+00	 8.820441762077321e+00
 8.058428815054098e-01	 1.074193706943010e+00	 8.403844159897092e+00
 7.803461577847522e-01	 1.092856232822552e+00	 8.006453834983766e+00
 7.544682111483306e-01	 1.110879210630485e+00	 7.628298570040084e+00
 7.282329243985197e-01	 1.128251642627210e+00	 7.250271323121466e+00
 7.016645616200098e-01	 1.144963706542226e+00	 6.853875261349454e+00
 6.747876968814989e-01	 1.161006768875763e+00	 6.443533806896408e+00
 6.476271427173262e-01	 1.176373393106952e+00	 6.025035266662850e+00
 6.202078788040392e-01	 1.191057342854038e+00	 5.604760062455934e+00
 5.925549812363471e-01	 1.205053580069656e+00	 5.189377181257782e+00
 5.646935527926953e-01	 1.218358258389946e+00	 4.785575378820445e+00
 8.486136026283411e-01	 1.077347513465847e+00	 9.069190538150719e+00
 8.229876834953349e-01	 1.097047837481584e+00	 8.683686882767276e+00
 7.969485013256573e-01	 1.116107420055876e+00	 8.318673784051997e+00
 7.705199854887216e-01	 1.134513847780698e+00	 7.944939558752829e+00
 7.437265269081801e-01	 1.152255888932794e+00	 7.554455882873951e+00
 7.165929059020151e-01	 1.169323512266841e+00	 7.149570726080207e+00
 6.891442193673166e-01	 1.185707900600062e+00	 6.732403532781470e+00
 6.614058077403187e-01	 1.201401459195052e+00	 6.308568997945661e+00
 6.334031821555164e-01	 1.216397818987216e+00	 5.884290680136916e+00
 6.051619522169227e-01	 1.230691834741642e+00	 5.466033471012072e+00
 5.767077547799999e-01	 1.244279578260724e+00	 5.060204460526949e+00
 8.662922393725845e-01	 1.099791220804150e+00	 9.346110661191418e+00
 8.401324714840329e-01	 1.119901949356370e+00	 8.993365568519387e+00
 8.135508313083513e-01	 1.139358588301156e+00	 8.626047442746579e+00
 7.865717467205423e-01	 1.158148465629721e+00	 8.240502750877539e+00
 7.592201167651190e-01	 1.176260115635350e+00	 7.840744389342547e+00
 7.315212379929311e-01	 1.193683298098059e+00	 7.430376467798178e+00
 7.035007301290320e-01	 1.210409012152226e+00	 7.009906615863688e+00
 6.751844615111184e-01	 1.226429504844034e+00	 6.583681170552078e+00
 6.465984747311974e-01	 1.241738274426153e+00	 6.157837155961561e+00
 6.177689129021483e-01	 1.256330068476218e+00	 5.738692319037224e+00
 5.887219469560119e-01	 1.270200876962944e+00	 5.332411672564485e+00
 8.839708637421947e-01	 1.122234912432244e+00	 9.637332792215568e+00
 8.572772474718047e-01	 1.142756045233671e+00	 9.279537751954251e+00
 8.301531496698529e-01	 1.162609740271021e+00	 8.901624872404142e+00
 8.026234967165800e-01	 1.181783066934927e+00	 8.507675212456228e+00
 7.747136957770021e-01	 1.200264325535373e+00	 8.101664721975425e+00
 7.464495596344747e-01	 1.218043066877868e+00	 7.687438100759460e+00
 7.178572308416473e-01	 1.235110106414067e+00	 7.266887321776442e+00
 6.889631056373063e-01	 1.251457532973855e+00	 6.841107994065686e+00
 6.597937580705985e-01	 1.267078712127260e+00	 6.416106614658851e+00
 6.303758647628942e-01	 1.281968284264538e+00	 5.998121768072187e+00
 6.007361307224373e-01	 1.296122157520783e+00	 5.593123919433978e+00
 9.016494777997498e-01	 1.144678590968555e+00	 9.891658982607874e+00
 8.744220134589508e-01	 1.165610127779793e+00	 9.524691172023925e+00
 8.467554583471784e-01	 1.185860878678103e+00	 9.139416562301934e+00
 8.186752373496206e-01	 1.205417654453685e+00	 8.739910232765585e+00
 7.902072657514959e-01	 1.224268521433362e+00	 8.330146149912677e+00
 7.613778725683643e-01	 1.242402821448252e+00	 7.913971605895803e+00
 7.322137231801643e-01	 1.259811186267398e+00	 7.494793888644033e+00
 7.027417417264636e-01	 1.276485546504476e+00	 7.072114212267048e+00
 6.729890337132362e-01	 1.292419135046949e+00	 6.650260451808977e+00
 6.429828092700310e-01	 1.307606485097755e+00	 6.235472456284310e+00
 6.127503074809825e-01	 1.322043422958413e+00	 5.833582816536967e+00
 9.193280836078275e-01	 1.167122259031505e+00	 1.009720245653389e+01
 8.915667714457722e-01	 1.188464199661041e+00	 9.724108700977341e+00
 8.633577592773464e-01	 1.209112006235033e+00	 9.334134323272908e+00
 8.347269704924490e-01	 1.229052230943368e+00	 8.931377401850391e+00
 8.057008284962661e-01	 1.248272706129815e+00	 8.519845588577059e+00
 7.763061785363177e-01	 1.266762564651200e+00	 8.103431607893917e+00
 7.465702088195852e-01	 1.284512254594033e+00	 7.685884426973561e+00
 7.165203713861713e-01	 1.301513548355856e+00	 7.268539037480656e+00
 6.861843031986270e-01	 1.317759546141629e+00	 6.851953289972990e+00
 6.555897478944293e-01	 1.333244673967019e+00	 6.442310184583995e+00
 6.247644786333530e-01	 1.347964676300009e+00	 6.045371494467597e+00
 9.370066832290057e-01	 1.189565919239519e+00	 1.025046044348743e+01
 9.087115234325701e-01	 1.211318263543721e+00	 9.873709031904545e+00
 8.799600543973739e-01	 1.232363125654442e+00	 9.481143992192008e+00
 8.507786980178532e-01	 1.252686799161348e+00	 9.076915712616078e+00
 8.211943858189797e-01	 1.272276882425230e+00	 8.665101526556050e+00
 7.912344792800524e-01	 1.291122299328694e+00	 8.249682884756190e+00
 7.609266894349127e-01	 1.309213314275783e+00	 7.834517082443980e+00
 7.302989962240097e-01	 1.326541541447954e+00	 7.422842805852060e+00
 6.993795680662863e-01	 1.343099948367712e+00	 7.013372752292085e+00
 6.681966821069598e-01	 1.358882853863484e+00	 6.610649363590083e+00
 6.367786455812560e-01	 1.373885920569747e+00	 6.220442311865879e+00
 9.546852787258621e-01	 1.212009574211021e+00	 1.034849780415474e+01
 9.258562714196445e-01	 1.234172322094136e+00	 9.969998900818121e+00
 8.965623456442788e-01	 1.255614239648962e+00	 9.576417868844430e+00
 8.668304217986182e-01	 1.276321361864996e+00	 9.171986639077893e+00
 8.366879395273022e-01	 1.296281053120106e+00	 8.760888139136592e+00
 8.061627765412867e-01	 1.315482028322724e+00	 8.347235894922852e+00
 7.752831667011482e-01	 1.333914368194461e+00	 7.935046919754004e+00
 7.440776178475608e-01	 1.351569528700732e+00	 7.528206598742396e+00
 7.125748298557313e-01	 1.368440344681606e+00	 7.127279945278896e+00
 6.808036133784924e-01	 1.384521027778301e+00	 6.732987224210088e+00
 6.487928097263965e-01	 1.399807158791798e+00	 6.351145357351206e+00
 9.723638721609748e-01	 1.234453226564436e+00	 1.038889874686657e+01
 9.430010174072977e-01	 1.257026377978594e+00	 1.001002483230354e+01
 9.131646349550788e-01	 1.278865350931224e+00	 9.616486918464105e+00
 8.828821437075309e-01	 1.299955921811683e+00	 9.212627193044707e+00
 8.521814914289004e-01	 1.320285221014940e+00	 8.802769563983931e+00
 8.210910720617377e-01	 1.339841754475272e+00	 8.391202602925310e+00
 7.896396422932949e-01	 1.358615419231882e+00	 7.982154350179599e+00
 7.578562378644051e-01	 1.376597513034150e+00	 7.579757352351864e+00
 7.257700901064783e-01	 1.393780738039724e+00	 7.187050558066664e+00
 6.934105431798986e-01	 1.410159198702624e+00	 6.802338692490999e+00
 6.608069724704809e-01	 1.425728393990340e+00	 6.430257638263889e+00
 5.406651137773846e-01	 1.166515543046022e+00	 4.266764222306504e+00
 5.138154460878555e-01	 1.178588584748599e+00	 3.881964358461198e+00
 4.868140188151086e-01	 1.189995604575767e+00	 3.508395425164082e+00
 4.596845452675228e-01	 1.200736267576031e+00	 3.148958603684483e+00
 4.324505137538385e-01	 1.210811310803579e+00	 2.806130165032098e+00
 4.051351305061597e-01	 1.220222516489174e+00	 2.481936776326609e+00
 3.777612653449469e-01	 1.228972681839593e+00	 2.177960996275536e+00
 3.503514002921752e-01	 1.237065585746464e+00	 1.896054137707065e+00
 3.229275813091401e-01	 1.244505952696826e+00	 1.637294231053451e+00
 2.955113733053916e-01	 1.251299414185870e+00	 1.399766876076089e+00
 2.681238185353586e-01	 1.257452467937382e+00	 1.181897062222254e+00
 5.526793395923922e-01	 1.192436914326437e+00	 4.517886478180898e+00
 5.252330401575563e-01	 1.204778233462927e+00	 4.129587159551416e+00
 4.976316088599864e-01	 1.216438730920943e+00	 3.752820557105595e+00
 4.698992859461286e-01	 1.227418064305968e+00	 3.390538727392642e+00
 4.420600816630289e-01	 1.237716987050414e+00	 3.045187782585563e+00
 4.141377179130175e-01	 1.247337320988344e+00	 2.718684911132608e+00
 3.861555727113121e-01	 1.256281925483817e+00	 2.412430867316451e+00
 3.581366276572994e-01	 1.264554663399955e+00	 2.127566473704498e+00
 3.301034185998966e-01	 1.272160364207551e+00	 1.865401029728511e+00
 3.020779896467308e-01	 1.279104784540358e+00	 1.624557489996262e+00
 2.740818506362861e-01	 1.285394566509361e+00	 1.403804173031138e+00
 5.646935527926953e-01	 1.218358258389946e+00	 4.785575378820445e+00
 5.366506222389836e-01	 1.230967854678694e+00	 4.394410037504214e+00
 5.084491875465542e-01	 1.242881829501451e+00	 4.014819164973897e+00
 4.801140158993694e-01	 1.254099833020681e+00	 3.649855643123248e+00
 4.516696394822364e-01	 1.264622635046999e+00	 3.301970174373636e+00
 4.231402958671726e-01	 1.274452097017727e+00	 2.972990021317393e+00
 3.945498712636218e-01	 1.283591140454133e+00	 2.664139235157274e+00
 3.659218468478601e-01	 1.292043712190741e+00	 2.376116725143388e+00
 3.372792483559148e-01	 1.299814746681988e+00	 2.109822655461964e+00
 3.086445990929892e-01	 1.306910125700054e+00	 1.864577808656155e+00
 2.800398764811343e-01	 1.313336635742966e+00	 1.639667239261125e+00
 5.767077547799999e-01	 1.244279578260724e+00	 5.060204460526949e+00
 5.480681936642270e-01	 1.257157451451368e+00	 4.667197310114908e+00
 5.192667561368918e-01	 1.269324903402324e+00	 4.285675152592380e+00
 4.903287363189834e-01	 1.280781576833037e+00	 3.918833752020952e+00
 4.612791883325859e-01	 1.291528257932312e+00	 3.569152149949044e+00
 4.321428654189260e-01	 1.301566847740684e+00	 3.238373272820301e+00
 4.029441619812022e-01	 1.310900329936573e+00	 2.927532861682638e+00
 3.737070587721169e-01	 1.319532735325827e+00	 2.637031197240535e+00
 3.444550714143524e-01	 1.327469103346423e+00	 2.367026984394543e+00
 3.152112024102442e-01	 1.334715440908848e+00	 2.117338900661716e+00
 2.859978967649761e-01	 1.341278678898035e+00	 1.887951265351789e+00
 5.887219469560119e-01	 1.270200876962944e+00	 5.332411672564486e+00
 5.594857557653771e-01	 1.283347026836419e+00	 4.938923291308097e+00
 5.300843158930788e-01	 1.295767955708593e+00	 4.556829273180510e+00
 5.005434483967079e-01	 1.307463298855903e+00	 4.189503272509086e+00
 4.708887293352019e-01	 1.318433858845326e+00	 3.839466042309763e+00
 4.411454276185785e-01	 1.328681576320576e+00	 3.508368205439208e+00
 4.113384458433796e-01	 1.338209497117174e+00	 3.197029073386432e+00
 3.814922643383286e-01	 1.347021736012219e+00	 2.905525095779764e+00
 3.516308886123667e-01	 1.355123437427139e+00	 2.633358264195703e+00
 3.217778003645725e-01	 1.362520733410627e+00	 2.380224765615716e+00
 2.919559121828843e-01	 1.369220699234404e+00	 2.146980243080228e+00
 6.007361307224373e-01	 1.296122157520783e+00	 5.593123919433978e+00
 5.709033098745235e-01	 1.309536583889313e+00	 5.200791883990027e+00
 5.409018680771962e-01	 1.322210989505291e+00	 4.819894799149822e+00
 5.107581533242814e-01	 1.334145002202148e+00	 4.454012983216938e+00
 4.804982636112090e-01	 1.345339440925017e+00	 4.105712480360507e+00
 4.501479835164311e-01	 1.355796285920766e+00	 3.776530442245935e+00
 4.197327238294798e-01	 1.365518645181970e+00	 3.467025257533388e+00
 3.892774644547546e-01	 1.374510717456918e+00	 3.176884017402041e+00
 3.588067007871152e-01	 1.382777752150420e+00	 2.905040712610955e+00
 3.283443937220514e-01	 1.390326006449282e+00	 2.650500653390369e+00
 2.979139234299318e-01	 1.397162700011909e+00	 2.414950106237174e+00
 6.127503074809825e-01	 1.322043422958413e+00	 5.833582816536967e+00
 5.823208573237570e-01	 1.335726125665518e+00	 5.444257363649861e+00
 5.517194139513237e-01	 1.348654007877451e+00	 5.066674286381751e+00
 5.209728522934415e-01	 1.360826689984637e+00	 4.704643896649733e+00
 4.901077922817321e-01	 1.372245007310359e+00	 4.360771867221962e+00
 4.591505341627844e-01	 1.382910979704614e+00	 4.036447825253139e+00
 4.281269969188296e-01	 1.392827777316995e+00	 3.731908456834908e+00
 3.970626600296541e-01	 1.401999682866931e+00	 3.446366601075591e+00
 3.659825087757549e-01	 1.410432050742550e+00	 3.178181441822718e+00
 3.349109832487578e-01	 1.418131263268701e+00	 2.925320276048285e+00
 3.038719312011915e-01	 1.425104684490387e+00	 2.689940123583077e+00
 6.247644786333530e-01	 1.347964676300009e+00	 6.045371494467597e+00
 5.937383994451672e-01	 1.361915655220503e+00	 5.661046191257798e+00
 5.625369547775415e-01	 1.375097013910104e+00	 5.289177284743392e+00
 5.311875464959258e-01	 1.387508365316236e+00	 4.933823737628630e+00
 4.997173164678953e-01	 1.399150561140327e+00	 4.597616468895520e+00
 4.681530806079391e-01	 1.410025660835482e+00	 4.281750919659639e+00
 4.365212660907546e-01	 1.420136896708282e+00	 3.986065049231156e+00
 4.048478519712861e-01	 1.429488635449261e+00	 3.709193005283108e+00
 3.731583134154438e-01	 1.438086336429814e+00	 3.448782680994998e+00
 3.414775697107688e-01	 1.445936507112774e+00	 3.201732061899117e+00
 3.098299361917363e-01	 1.453046655929677e+00	 2.969922940592132e+00
 6.367786455812560e-01	 1.373885920569747e+00	 6.220442311865879e+00
 6.051559375708445e-01	 1.388105175609736e+00	 5.843179718225914e+00
 5.733544918179296e-01	 1.401540010688282e+00	 5.479638868841476e+00
 5.414022371234727e-01	 1.414190031309816e+00	 5.134142119428451e+00
 5.093268372908236e-01	 1.426056105553898e+00	 4.809323032110348e+00
 4.771556239021965e-01	 1.437140332476732e+00	 4.506123837623888e+00
 4.449155323245812e-01	 1.447446006541868e+00	 4.223890501335507e+00
 4.126330411879101e-01	 1.456977578410914e+00	 3.960554266621313e+00
 3.803341155433391e-01	 1.465740612438496e+00	 3.712886259118072e+00
 3.480441538741612e-01	 1.473741741225390e+00	 3.476684578635730e+00
 3.157879390966389e-01	 1.480988617589612e+00	 3.252773448729931e+00
 6.487928097263965e-01	 1.399807158791798e+00	 6.351145357351207e+00
 6.165734730328787e-01	 1.414294689888683e+00	 5.982997666379656e+00
 5.841720263345683e-01	 1.427983001297018e+00	 5.630538881549852e+00
 5.516169253678198e-01	 1.440871691078240e+00	 5.298366326292054e+00
 5.189363558716414e-01	 1.452961643690045e+00	 4.989085862107554e+00
 4.861581650958571e-01	 1.464254997791725e+00	 4.703315339705858e+00
 4.533097965996355e-01	 1.474755110003787e+00	 4.439799185723120e+00
 4.204182285877855e-01	 1.484466514958892e+00	 4.194859026764252e+00
 3.875099159965982e-01	 1.493394881994879e+00	 3.954580188840036e+00
 3.546107365050123e-01	 1.501546968850437e+00	 3.714570218074311e+00
 3.217459406109725e-01	 1.508930572730033e+00	 3.479239471678754e+00
 6.608069724704809e-01	 1.425728393990340e+00	 6.430257638263888e+00
 6.279910071633606e-01	 1.440484201112815e+00	 6.073182282766121e+00
 5.949895595895377e-01	 1.454425988821346e+00	 5.734621798350235e+00
 5.618316124207050e-01	 1.467553347734377e+00	 5.419457624174836e+00
 5.285458733314734e-01	 1.479867178687744e+00	 5.130230301099527e+00
 4.951607052392220e-01	 1.491369659943822e+00	 4.858848976848469e+00
 4.617040598952436e-01	 1.502064210280071e+00	 4.591753971212795e+00
 4.282034150791710e-01	 1.511955448300201e+00	 4.329664237471060e+00
 3.946857156123787e-01	 1.521049148325250e+00	 4.073306224360078e+00
 3.611773183693992e-01	 1.529352193231805e+00	 3.823189539309509e+00
 3.277039414298097e-01	 1.536872524610773e+00	 3.583360104164175e+00
 2.681238185353586e-01	 1.257452467937382e+00	 1.181897062222253e+00
 2.407834915895561e-01	 1.262972799756725e+00	 9.862046207757422e-01
 2.135122242037470e-01	 1.267868059342734e+00	 8.147610512180563e-01
 1.863293062108733e-01	 1.272147083663860e+00	 6.659386084606724e-01
 1.592533716784285e-01	 1.275819397255182e+00	 5.384551898629910e-01
 1.323023749914270e-01	 1.278895164959809e+00	 4.312778658662246e-01
 1.054935704472460e-01	 1.281385144260689e+00	 3.435184995128699e-01
 7.884349529548884e-02	 1.283300637468239e+00	 2.743270761681444e-01
 5.236795613634504e-02	 1.284653444015185e+00	 2.227877803049179e-01
 2.608201857324472e-02	 1.285455813094762e+00	 1.878221781593195e-01
 0.000000000000000e+00	 1.285720396862037e+00	 1.681031258307848e-01
 2.740818506362861e-01	 1.285394566509361e+00	 1.403804173031137e+00
 2.461339889086986e-01	 1.291037566707714e+00	 1.206230829766029e+00
 2.182567213270570e-01	 1.296041604819711e+00	 1.033945028699687e+00
 1.904697663675159e-01	 1.300415714181818e+00	 8.850772658387616e-01
 1.627921721688873e-01	 1.304169630975679e+00	 7.582057031411624e-01
 1.352422920841456e-01	 1.307313745919378e+00	 6.522353540183503e-01
 1.078377638218406e-01	 1.309859055540008e+00	 5.662688356592200e-01
 8.059549210908845e-02	 1.311817113298846e+00	 4.994751632979189e-01
 5.353163478768568e-02	 1.313199980826132e+00	 4.509623792462796e-01
 2.666159223683329e-02	 1.314020179506831e+00	 4.196590221106580e-01
 0.000000000000000e+00	 1.314290642642036e+00	 4.042085860868605e-01
 2.800398764811343e-01	 1.313336635742966e+00	 1.639667239261122e+00
 2.514844806096748e-01	 1.319102304191490e+00	 1.438780441904781e+00
 2.230012134685137e-01	 1.324215120715206e+00	 1.263974469355422e+00
 1.946102221765648e-01	 1.328684315018389e+00	 1.113165675489994e+00
 1.663309689435208e-01	 1.332519834929034e+00	 9.848306692613051e-01
 1.381822060898933e-01	 1.335732297039969e+00	 8.778577819102105e-01
 1.101819547350001e-01	 1.338332936922184e+00	 7.913895951986532e-01
 8.234748708308091e-02	 1.340333559187554e+00	 7.246639528510823e-01
 5.469531221716752e-02	 1.341746487663568e+00	 6.768600855675762e-01
 2.724116529187770e-02	 1.342584515926635e+00	 6.469555704811045e-01
 0.000000000000000e+00	 1.342860858423585e+00	 6.335988608049266e-01
 2.859978967649761e-01	 1.341278678898035e+00	 1.887951265351788e+00
 2.568349673166780e-01	 1.347167015482201e+00	 1.683146622279144e+00
 2.277457011816117e-01	 1.352388610316057e+00	 1.504819357251414e+00
 1.987506741210463e-01	 1.356952889471511e+00	 1.350721706325542e+00
 1.698697624151651e-01	 1.360870012422712e+00	 1.219290612600641e+00
 1.411221173516413e-01	 1.364150821637026e+00	 1.109467648501592e+00
 1.125261434601992e-01	 1.366806791729120e+00	 1.020509521094339e+00
 8.409948042185587e-02	 1.368849978461242e+00	 9.517976310158436e-01
 5.585898856054729e-02	 1.370292967857881e+00	 9.026542414816223e-01
 2.782073780599250e-02	 1.371148825686649e+00	 8.721717683568617e-01
 0.000000000000000e+00	 1.371431047539845e+00	 8.590605730401366e-01
 2.919559121828843e-01	 1.369220699234404e+00	 2.146980243080228e+00
 2.621854496539016e-01	 1.375231703853993e+00	 1.938461955865708e+00
 2.324901850198454e-01	 1.380562076909104e+00	 1.756268165306531e+00
 2.028911226839865e-01	 1.385221440839120e+00	 1.598059994716099e+00
 1.734085529966566e-01	 1.389220166764175e+00	 1.462320945356462e+00
 1.440620262123607e-01	 1.392569323025993e+00	 1.348140971885556e+00
 1.148703302709125e-01	 1.395280623282723e+00	 1.254990702876155e+00
 8.585147232980289e-02	 1.397366374446789e+00	 1.182495435166194e+00
 5.702266395358171e-02	 1.398839424739465e+00	 1.130217480460759e+00
 2.840030984679228e-02	 1.399713112119345e+00	 1.097454246041290e+00
 0.000000000000000e+00	 1.400001213323978e+00	 1.083058142326214e+00
 2.979139234299318e-01	 1.397162700011909e+00	 2.414950106237174e+00
 2.675359282455386e-01	 1.403296372581016e+00	 2.203715585049882e+00
 2.372346655367094e-01	 1.408735523781190e+00	 2.017948431518309e+00
 2.070315683484118e-01	 1.413489972419156e+00	 1.855315303696657e+00
 1.769473411008316e-01	 1.417570301260888e+00	 1.714457544439976e+00
 1.470019330150223e-01	 1.420987804522312e+00	 1.594734610180364e+00
 1.172145154406146e-01	 1.423754434904901e+00	 1.495957259755853e+00
 8.760346301131168e-02	 1.425882750471070e+00	 1.418121408852099e+00
 5.818633853202748e-02	 1.427385861638707e+00	 1.361152353951564e+00
 2.897988148189162e-02	 1.428277378557198e+00	 1.324667705626873e+00
 0.000000000000000e+00	 1.428571359109143e+00	 1.307765904981420e+00
 3.038719312011915e-01	 1.425104684490387e+00	 2.689940123583079e+00
 2.728864037157825e-01	 1.431361024937416e+00	 2.477768356457998e+00
 2.419791432856981e-01	 1.436908954219153e+00	 2.289344978956104e+00
 2.111720115973484e-01	 1.441758487509556e+00	 2.122463217368085e+00
 1.804861271405266e-01	 1.445920419220316e+00	 1.976059405467445e+00
 1.499418381025974e-01	 1.449406269441431e+00	 1.849910445341652e+00
 1.195586992427802e-01	 1.452228229917558e+00	 1.744320709841873e+00
 8.935545267077181e-02	 1.454399109860964e+00	 1.659810696889011e+00
 5.935001243164134e-02	 1.455932281886000e+00	 1.596818376510411e+00
 2.955945277890510e-02	 1.456841628332681e+00	 1.555422622201955e+00
 0.000000000000000e+00	 1.457141488228504e+00	 1.535096456821463e+00
 3.098299361917363e-01	 1.453046655929677e+00	 2.969922940592129e+00
 2.782368766888263e-01	 1.459425664197340e+00	 2.759366245244885e+00
 2.467236188203063e-01	 1.465082371509836e+00	 2.569816096785429e+00
 2.153124529138224e-01	 1.470026989408257e+00	 2.399338529243050e+00
 1.840249115285780e-01	 1.474270523949921e+00	 2.247328767306587e+00
 1.528817418180569e-01	 1.477824721098791e+00	 2.114156852165734e+00
 1.219028819508838e-01	 1.480702011642600e+00	 2.000802471530638e+00
 9.110744151257308e-02	 1.482915455943352e+00	 1.908441914071612e+00
 6.051368578818003e-02	 1.484478688811733e+00	 1.838182621184959e+00
 3.013902380544730e-02	 1.485405864778270e+00	 1.790871311265831e+00
 0.000000000000000e+00	 1.485711604015220e+00	 1.766516935089884e+00
 3.157879390966389e-01	 1.480988617589612e+00	 3.252773448729931e+00
 2.835873477888636e-01	 1.487490293634936e+00	 3.044675439314008e+00
 2.514680926940284e-01	 1.493255778940076e+00	 2.850056755794112e+00
 2.194528927808603e-01	 1.498295481413197e+00	 2.670325426700782e+00
 1.875636946778220e-01	 1.502620618757167e+00	 2.507539451401166e+00
 1.558216445043718e-01	 1.506243162809838e+00	 2.363947461645432e+00
 1.242470638384002e-01	 1.509175783401934e+00	 2.241663548579658e+00
 9.285942974110499e-02	 1.511431792045108e+00	 2.142431990894380e+00
 6.167735873740024e-02	 1.513025085746295e+00	 2.067457625511953e+00
 3.071859462913278e-02	 1.513970091226436e+00	 2.017279751911849e+00
 0.000000000000000e+00	 1.514281709802452e+00	 1.991670172782523e+00
 3.217459406109725e-01	 1.508930572730033e+00	 3.479239471678754e+00
 2.889378176400874e-01	 1.515554916524352e+00	 3.258915117867621e+00
 2.562125654603586e-01	 1.521429179796715e+00	 3.055068350303721e+00
 2.235933316814883e-01	 1.526563966822316e+00	 2.869320269081086e+00
 1.911024770010950e-01	 1.530970706949519e+00	 2.703602823313709e+00
 1.587615465045134e-01	 1.534661597890016e+00	 2.559784687549691e+00
 1.265912451788039e-01	 1.537649548517465e+00	 2.439420614299777e+00
 9.461141756075722e-02	 1.539948121493113e+00	 2.343594272860940e+00
 6.284103141505870e-02	 1.541571476020078e+00	 2.272826377011725e+00
 3.129816531757612e-02	 1.542534311009654e+00	 2.227022531898866e+00
 0.000000000000000e+00	 1.542851808923362e+00	 2.205438478247240e+00
 3.277039414298097e-01	 1.536872524610773e+00	 3.583360104164175e+00
 2.942882868666912e-01	 1.543619536139733e+00	 3.363519597362933e+00
 2.609570376727920e-01	 1.549602577366594e+00	 3.163662566473000e+00
 2.277337700987326e-01	 1.554832448933549e+00	 2.985371457577088e+00
 1.946412589112334e-01	 1.559320791834440e+00	 2.830158683747590e+00
 1.617014481614524e-01	 1.563080029654769e+00	 2.699175193527807e+00
 1.289354262455696e-01	 1.566123310311101e+00	 2.593050703363979e+00
 9.636340517591950e-02	 1.568464447614244e+00	 2.511830775614991e+00
 6.400470395691217e-02	 1.570117862963473e+00	 2.454978163168283e+00
 3.187773593839194e-02	 1.571098527460400e+00	 2.421409007672115e+00
 0.000000000000000e+00	 1.571421904711111e+00	 2.409538327329543e+00
 1.571421904711111e+00	 0.000000000000000e+00	 1.483780158534042e+01
 1.571098527460400e+00	 3.187773593839238e-02	 1.481161137106568e+01
 1.570117862963473e+00	 6.400470395691259e-02	 1.480659515613365e+01
 1.568464447614244e+00	 9.636340517591983e-02	 1.481477956667769e+01
 1.566123310311101e+00	 1.289354262455699e-01	 1.482916825474103e+01
 1.563080029654769e+00	 1.617014481614526e-01	 1.484386908615111e+01
 1.559320791834440e+00	 1.946412589112336e-01	 1.485420208339021e+01
 1.554832448933549e+00	 2.277337700987327e-01	 1.485677931276846e+01
 1.549602577366594e+00	 2.609570376727921e-01	 1.484954619761243e+01
 1.543619536139733e+00	 2.942882868666913e-01	 1.483177204874990e+01
 1.536872524610773e+00	 3.277039414298099e-01	 1.480397601428844e+01
 1.599993998838902e+00	 0.000000000000000e+00	 1.458009301359452e+01
 1.599664741839956e+00	 3.245734709736202e-02	 1.455599372013818e+01
 1.598666246588589e+00	 6.516845789199360e-02	 1.455468849936116e+01
 1.596982768314490e+00	 9.811551533405580e-02	 1.456742452912155e+01
 1.594599063706687e+00	 1.312797712763178e-01	 1.458661717947423e+01
 1.591500449151411e+00	 1.646415554500830e-01	 1.460600619537387e+01
 1.587672859670728e+00	 1.981802883417762e-01	 1.462079626682881e+01
 1.583102908288448e+00	 2.318744981192861e-01	 1.462777266502740e+01
 1.577777945529458e+00	 2.657018417377328e-01	 1.462538063029859e+01
 1.571686118739640e+00	 2.996391303323378e-01	 1.461375520166823e+01
 1.564816430896063e+00	 3.336623589815881e-01	 1.459468627150654e+01
 1.628566086300104e+00	 0.000000000000000e+00	 1.434818612255972e+01
 1.628230949554291e+00	 3.303695812110653e-02	 1.432294049724733e+01
 1.627214623552641e+00	 6.633221155554173e-02	 1.432194553378453e+01
 1.625501082360675e+00	 9.986762508334796e-02	 1.433595797946569e+01
 1.623074810458135e+00	 1.336241157599914e-01	 1.435705152015514e+01
 1.619920862016818e+00	 1.675816620525769e-01	 1.437880013394901e+01
 1.616024920891725e+00	 2.017193169463800e-01	 1.439645044491733e+01
 1.611373361047094e+00	 2.360152251734539e-01	 1.440707329971193e+01
 1.605953307118261e+00	 2.704466446952953e-01	 1.440968248218973e+01
 1.599752694790881e+00	 3.049899725491720e-01	 1.440530614536888e+01
 1.592760330661334e+00	 3.396207751427842e-01	 1.439699427928233e+01
 1.657138160428128e+00	 0.000000000000000e+00	 1.413778073884152e+01
 1.656797143938189e+00	 3.361656887441378e-02	 1.410977640555362e+01
 1.655762987194560e+00	 6.749596467607229e-02	 1.410710363116441e+01
 1.654019383098737e+00	 1.016197340150528e-01	 1.412030412352790e+01
 1.651550543921298e+00	 1.359684591496800e-01	 1.414133945918176e+01
 1.648341261619735e+00	 1.705217672830294e-01	 1.416379986634198e+01
 1.644376968882100e+00	 2.052583438994044e-01	 1.418310770566771e+01
 1.639643800613179e+00	 2.401559502952076e-01	 1.419670547654843e+01
 1.634128655558860e+00	 2.751914454385047e-01	 1.420421552172143e+01
 1.627819257744673e+00	 3.103408122688084e-01	 1.420755589059776e+01
 1.620704217386405e+00	 3.455791885232393e-01	 1.421099416581600e+01
 1.685710214556385e+00	 0.000000000000000e+00	 1.394519044285493e+01
 1.685363318326427e+00	 3.419617922207165e-02	 1.391412061956679e+01
 1.684311330853280e+00	 6.865971698210069e-02	 1.390892462105058e+01
 1.682537663874611e+00	 1.033718417204269e-01	 1.392019167504917e+01
 1.680026257452029e+00	 1.383128008984727e-01	 1.393998416778233e+01
 1.676761641328907e+00	 1.734618704555354e-01	 1.396207018393578e+01
 1.672728997026529e+00	 2.087973683752089e-01	 1.398215763833574e+01
 1.667914220390396e+00	 2.442966725185190e-01	 1.399811949891250e+01
 1.662303984277112e+00	 2.799362428603854e-01	 1.401019656342881e+01
 1.655885801052237e+00	 3.156916482428617e-01	 1.402116112363458e+01
 1.648648084551100e+00	 3.515375977327944e-01	 1.403642175565697e+01
 1.714282242018287e+00	 0.000000000000000e+00	 1.376729142091993e+01
 1.713929466053786e+00	 3.477578902886795e-02	 1.373385378627805e+01
 1.712859647867734e+00	 6.982346820214230e-02	 1.372617900134619e+01
 1.711055918034232e+00	 1.051239477907267e-01	 1.373515424743596e+01
 1.708501944406180e+00	 1.406571404594588e-01	 1.375313925517069e+01
 1.705181994513080e+00	 1.764019708841900e-01	 1.377422098573326e+01
 1.701080998709684e+00	 2.123363895481531e-01	 1.379447811154920e+01
 1.696184613782439e+00	 2.484373908773598e-01	 1.381224454145346e+01
 1.690479286698879e+00	 2.846810358539621e-01	 1.382835777855690e+01
 1.683952318164791e+00	 3.210424792229463e-01	 1.384637431098555e+01
 1.676591925635240e+00	 3.574960013812908e-01	 1.387273065451058e+01
 1.742854236147245e+00	 0.000000000000000e+00	 1.360147634930107e+01
 1.742495580455047e+00	 3.535539815959057e-02	 1.356708832734931e+01
 1.741407931576855e+00	 7.098721806471255e-02	 1.355763192038371e+01
 1.739574138923536e+00	 1.068760518172089e-01	 1.356453119639128e+01
 1.736977598139605e+00	 1.430014772857273e-01	 1.358062356396947e+01
 1.733602314540997e+00	 1.793420678830881e-01	 1.360043502323790e+01
 1.729432967316239e+00	 2.158754065925961e-01	 1.362047486197835e+01
 1.724454974193001e+00	 2.525781044057018e-01	 1.363953886834309e+01
 1.718654556250017e+00	 2.894258233122595e-01	 1.365900621465068e+01
 1.712018802533554e+00	 3.263933039606769e-01	 1.368311107347663e+01
 1.704535734118647e+00	 3.634543980785698e-01	 1.371916590891407e+01
 1.771426190276669e+00	 0.000000000000000e+00	 1.344561274211394e+01
 1.771061654864991e+00	 3.593500647902735e-02	 1.341214166964692e+01
 1.769956175319576e+00	 7.215096629832679e-02	 1.340203073044168e+01
 1.768092319888461e+00	 1.086281533911300e-01	 1.340746886242299e+01
 1.765453212008154e+00	 1.453458108303675e-01	 1.342193538556947e+01
 1.762022594781407e+00	 1.822821607663247e-01	 1.344049428274384e+01
 1.757784896230867e+00	 2.194144186828977e-01	 1.346011914056067e+01
 1.752725295025775e+00	 2.567188121375167e-01	 1.348003773657097e+01
 1.746829786356384e+00	 2.941706041283023e-01	 1.350208083907519e+01
 1.740085247609745e+00	 3.317441212076679e-01	 1.353101513792460e+01
 1.732479503481143e+00	 3.694127864344722e-01	 1.357483551455367e+01
 1.799998097739971e+00	 0.000000000000000e+00	 1.329800526715220e+01
 1.799627682618398e+00	 3.651461385196615e-02	 1.326751207873331e+01
 1.798504372434831e+00	 7.331471263150040e-02	 1.325809393803540e+01
 1.796610454274940e+00	 1.103802521037465e-01	 1.326292216869725e+01
 1.793928779367681e+00	 1.476901405464686e-01	 1.327626615974259e+01
 1.790442828603054e+00	 1.852222488479950e-01	 1.329380515627653e+01
 1.786136778838243e+00	 2.229534249934171e-01	 1.331298363193747e+01
 1.780995569684453e+00	 2.608595131067762e-01	 1.333339924133632e+01
 1.775004970443840e+00	 2.989153771951150e-01	 1.335720738144416e+01
 1.768151646844585e+00	 3.370949297155341e-01	 1.338952113545704e+01
 1.760423227202551e+00	 3.753711650588398e-01	 1.343872010594913e+01
 1.828569951870562e+00	 0.000000000000000e+00	 1.315736159567733e+01
 1.828193657050047e+00	 3.709422014319485e-02	 1.313185681059911e+01
 1.827052516261553e+00	 7.447845679274874e-02	 1.312450139814817e+01
 1.825128535428912e+00	 1.121323475463150e-01	 1.312965653527287e+01
 1.822404293574040e+00	 1.500344658871198e-01	 1.314251371479017e+01
 1.818863009374681e+00	 1.881623314421938e-01	 1.315942253352635e+01
 1.814488608523038e+00	 2.264924246985139e-01	 1.317827683581270e+01
 1.809265791572732e+00	 2.650002063474521e-01	 1.319894832847195e+01
 1.803180101938243e+00	 3.036601414057224e-01	 1.322375121558318e+01
 1.796217993689290e+00	 3.424457282358898e-01	 1.325791548194532e+01
 1.788366898762691e+00	 3.813295325615133e-01	 1.330995660678972e+01
 1.857141746001852e+00	 0.000000000000000e+00	 1.302427512076791e+01
 1.856759571494719e+00	 3.767382521750127e-02	 1.300519484940456e+01
 1.855600600138674e+00	 7.564219851058723e-02	 1.300054193260176e+01
 1.853646556696309e+00	 1.138844393100919e-01	 1.300638390822921e+01
 1.850879747983083e+00	 1.523787863054102e-01	 1.301929509758602e+01
 1.847283130465035e+00	 1.911024078630160e-01	 1.303607293083773e+01
 1.842840378669926e+00	 2.300314169725474e-01	 1.305487607572958e+01
 1.837535954094301e+00	 2.691408908935160e-01	 1.307571917116455e+01
 1.831355174265449e+00	 3.084048956531490e-01	 1.310086849205845e+01
 1.824284281595082e+00	 3.477965155203497e-01	 1.313539554706076e+01
 1.816310511641387e+00	 3.872878875523342e-01	 1.318795809769108e+01
 1.536872524610773e+00	 3.277039414298099e-01	 1.480397601428844e+01
 1.529352193231805e+00	 3.611773183693990e-01	 1.478476508046606e+01
 1.521049148325250e+00	 3.946857156123783e-01	 1.478499633883300e+01
 1.511955448300201e+00	 4.282034150791708e-01	 1.478047957502104e+01
 1.502064210280071e+00	 4.617040598952434e-01	 1.476952509042098e+01
 1.491369659943822e+00	 4.951607052392218e-01	 1.475205488654893e+01
 1.479867178687743e+00	 5.285458733314732e-01	 1.472817790236665e+01
 1.467553347734377e+00	 5.618316124207049e-01	 1.469579511453277e+01
 1.454425988821346e+00	 5.949895595895375e-01	 1.465384873939214e+01
 1.440484201112815e+00	 6.279910071633604e-01	 1.460324914297639e+01
 1.425728393990340e+00	 6.608069724704809e-01	 1.454550899963486e+01
 1.564816430896063e+00	 3.336623589815881e-01	 1.459468627150654e+01
 1.557159362454346e+00	 3.677443595340610e-01	 1.458469307713787e+01
 1.548705348938061e+00	 4.018620171403311e-01	 1.458654235651235e+01
 1.539446304359770e+00	 4.359891461064793e-01	 1.458126517085550e+01
 1.529375220696224e+00	 4.700989103288564e-01	 1.456907694405357e+01
 1.518486218635843e+00	 5.041638750667337e-01	 1.455054883639405e+01
 1.506774595597990e+00	 5.381560629307074e-01	 1.452645707244716e+01
 1.494236870643905e+00	 5.720470139418091e-01	 1.449773903249024e+01
 1.480870825905353e+00	 6.058078494790308e-01	 1.446544528221601e+01
 1.466675544167214e+00	 6.394093398956462e-01	 1.442817741002002e+01
 1.451651442254549e+00	 6.728219755477626e-01	 1.438529613569214e+01
 1.592760330661334e+00	 3.396207751427842e-01	 1.439699427928233e+01
 1.584966525188804e+00	 3.743113991661535e-01	 1.439817040652859e+01
 1.576361543098060e+00	 4.090383169936037e-01	 1.440272291351753e+01
 1.566937154005154e+00	 4.437748753169784e-01	 1.439884782537633e+01
 1.556686224740210e+00	 4.784937588036198e-01	 1.438747161827716e+01
 1.545602771001122e+00	 5.131670427935554e-01	 1.436976648863162e+01
 1.533682006230345e+00	 5.477662502877216e-01	 1.434709862313875e+01
 1.520920387327832e+00	 5.822624130795889e-01	 1.432097655709817e+01
 1.507315656819490e+00	 6.166261368446359e-01	 1.429300129180321e+01
 1.492866881110919e+00	 6.508276699641374e-01	 1.426481959180732e+01
 1.477574484470682e+00	 6.848369758221196e-01	 1.423791535754399e+01
 1.620704217386405e+00	 3.455791885232393e-01	 1.421099416581600e+01
 1.612773674946886e+00	 3.808784357334936e-01	 1.422332171661651e+01
 1.604017724352159e+00	 4.162146134978365e-01	 1.423201999451841e+01
 1.594427990821833e+00	 4.515606008940888e-01	 1.423108757150682e+01
 1.583997216039457e+00	 4.868886033608041e-01	 1.422200679165464e+01
 1.572719310712450e+00	 5.221702063189912e-01	 1.420650874137790e+01
 1.560589404306392e+00	 5.573764331601569e-01	 1.418651311955428e+01
 1.547603891559975e+00	 5.924778074504438e-01	 1.416406916466457e+01
 1.533760475393265e+00	 6.274444191620532e-01	 1.414129957998548e+01
 1.519058205832586e+00	 6.622459947045025e-01	 1.412034910204886e+01
 1.503497514589997e+00	 6.968519704899772e-01	 1.410333896292839e+01
 1.648648084551100e+00	 3.515375977327944e-01	 1.403642175565697e+01
 1.640580805240302e+00	 3.874454677038996e-01	 1.405912717392313e+01
 1.631673886247275e+00	 4.233909049786708e-01	 1.407290784205918e+01
 1.621918808395286e+00	 4.593463210212315e-01	 1.407589390476058e+01
 1.611308188221398e+00	 4.952834420416801e-01	 1.407008225602433e+01
 1.599835831442617e+00	 5.311733635423463e-01	 1.405772643041656e+01
 1.587496783547712e+00	 5.669866093056549e-01	 1.404126816629183e+01
 1.574287377114149e+00	 6.026931946707728e-01	 1.402327113810821e+01
 1.560205275456185e+00	 6.382626939069838e-01	 1.400635908933790e+01
 1.545249512220871e+00	 6.736643114524092e-01	 1.399316025039638e+01
 1.529420526563753e+00	 7.088669567477605e-01	 1.398625946669222e+01
 1.676591925635240e+00	 3.574960013812908e-01	 1.387273065451058e+01
 1.668387909580757e+00	 3.940124935451887e-01	 1.390462827711024e+01
 1.659330022330324e+00	 4.305671897617472e-01	 1.392387295532617e+01
 1.649409600310997e+00	 4.671320338818275e-01	 1.393124323561928e+01
 1.638619134913462e+00	 5.036782728875177e-01	 1.392921537614387e+01
 1.626952326864416e+00	 5.401765123629249e-01	 1.392053437445105e+01
 1.614404137675888e+00	 5.765967764818560e-01	 1.390813723334042e+01
 1.600970837764176e+00	 6.129085723569756e-01	 1.389507966841786e+01
 1.586650050837757e+00	 6.490809585551284e-01	 1.388446880212691e+01
 1.571440794164428e+00	 6.850826175435258e-01	 1.387940398479465e+01
 1.555343514343210e+00	 7.208819317918950e-01	 1.388292735212097e+01
 1.704535734118647e+00	 3.634543980785698e-01	 1.371916590891407e+01
 1.696194981479960e+00	 4.005795117251789e-01	 1.375884139812853e+01
 1.686986126148221e+00	 4.377434661727070e-01	 1.378343244686740e+01
 1.676900360154443e+00	 4.749177376592975e-01	 1.379519502918871e+01
 1.665930049743080e+00	 5.120730939395872e-01	 1.379705552178825e+01
 1.654068790650637e+00	 5.491796506800319e-01	 1.379222463141980e+01
 1.641311460412501e+00	 5.862069324464019e-01	 1.378411228755888e+01
 1.627654267283872e+00	 6.231239381254515e-01	 1.377624742810658e+01
 1.613094795367491e+00	 6.598992105821880e-01	 1.377220556161682e+01
 1.597632045551912e+00	 6.965009103135200e-01	 1.377554652181959e+01
 1.581266471879627e+00	 7.328968928188055e-01	 1.378976421965142e+01
 1.732479503481143e+00	 3.694127864344722e-01	 1.357483551455367e+01
 1.724002014449617e+00	 4.071465207116875e-01	 1.362077705464591e+01
 1.714642191247882e+00	 4.449197325371906e-01	 1.365015094263988e+01
 1.704391081511105e+00	 4.827034305370628e-01	 1.366590678032686e+01
 1.693240926337682e+00	 5.204679032391599e-01	 1.367139758829619e+01
 1.681185216474074e+00	 5.581827763929719e-01	 1.367027905492665e+01
 1.668218745479135e+00	 5.958170749569333e-01	 1.366641589261505e+01
 1.654337659447055e+00	 6.333392895925999e-01	 1.366379473628430e+01
 1.639539502874891e+00	 6.707174474638629e-01	 1.366644683457972e+01
 1.623823260271979e+00	 7.079191870980607e-01	 1.367838324617150e+01
 1.607189393124262e+00	 7.449118370249175e-01	 1.370315934689182e+01
 1.760423227202551e+00	 3.753711650588398e-01	 1.343872010594913e+01
 1.751809002001437e+00	 4.137135189725324e-01	 1.348945759515387e+01
 1.742298211176223e+00	 4.520959871808396e-01	 1.352265618722546e+01
 1.731881757966462e+00	 4.904891106985440e-01	 1.354164795362408e+01
 1.720551758324699e+00	 5.288626988275057e-01	 1.355019470683579e+01
 1.708301598007515e+00	 5.671858874010496e-01	 1.355238122853653e+01
 1.695125986597372e+00	 6.054272017710919e-01	 1.355251283642725e+01
 1.681021008027543e+00	 6.435546243748204e-01	 1.355502136069962e+01
 1.665984167189467e+00	 6.815356666758545e-01	 1.356438317855391e+01
 1.650014432213285e+00	 7.193374452328150e-01	 1.358505233963624e+01
 1.633112272028377e+00	 7.569267616066563e-01	 1.361590861514137e+01
 1.788366898762691e+00	 3.813295325615133e-01	 1.330995660678972e+01
 1.779615937647127e+00	 4.202805049755313e-01	 1.336393347035833e+01
 1.769954179480157e+00	 4.592722284292941e-01	 1.339965349583137e+01
 1.759372383105996e+00	 4.982747763271622e-01	 1.342081300144871e+01
 1.747862539331562e+00	 5.372574787458950e-01	 1.343157023300751e+01
 1.735417928923754e+00	 5.761889816035700e-01	 1.343642784597419e+01
 1.722033177488792e+00	 6.150373106465185e-01	 1.344012133777574e+01
 1.707704306799154e+00	 6.537699400885120e-01	 1.344751799644183e+01
 1.692428782140726e+00	 6.923538656938635e-01	 1.346353044611971e+01
 1.676205555264483e+00	 7.307556820534512e-01	 1.349304816907046e+01
 1.659035102543229e+00	 7.689416637604469e-01	 1.352497317488665e+01
 1.816310511641387e+00	 3.872878875523342e-01	 1.318795809769108e+01
 1.807422814898392e+00	 4.268474771885015e-01	 1.324329824309837e+01
 1.797610089706602e+00	 4.664484546081957e-01	 1.327993917726602e+01
 1.786862950515187e+00	 5.060604256063382e-01	 1.330193355934191e+01
 1.775173262985702e+00	 5.456522410355984e-01	 1.331382909149986e+01
 1.762534202895581e+00	 5.851920568998371e-01	 1.332053959689536e+01
 1.748940311874980e+00	 6.246473993408540e-01	 1.332722387739972e+01
 1.734387549535705e+00	 6.639852343500745e-01	 1.333917745611464e+01
 1.718873341558175e+00	 7.031720419935901e-01	 1.336174175449857e+01
 1.702396623314230e+00	 7.421738948956377e-01	 1.340019504461110e+01
 1.684957878620078e+00	 7.809565406827145e-01	 1.342919378958240e+01
 1.425728393990340e+00	 6.608069724704809e-01	 1.454550899963486e+01
 1.410159198702623e+00	 6.934105431798991e-01	 1.448414738525523e+01
 1.393780738039724e+00	 7.257700901064790e-01	 1.442270794157223e+01
 1.376597513034149e+00	 7.578562378644056e-01	 1.435632140868142e+01
 1.358615419231882e+00	 7.896396422932951e-01	 1.425158394295828e+01
 1.339841754475272e+00	 8.210910720617383e-01	 1.410908983100642e+01
 1.320285221014940e+00	 8.521814914289009e-01	 1.393596233569390e+01
 1.299955921811683e+00	 8.828821437075316e-01	 1.374038301853652e+01
 1.278865350931224e+00	 9.131646349550795e-01	 1.353149377304087e+01
 1.257026377978594e+00	 9.430010174072981e-01	 1.331925676950171e+01
 1.234453226564436e+00	 9.723638721609746e-01	 1.311427215728838e+01
 1.451651442254549e+00	 6.728219755477626e-01	 1.438529613569214e+01
 1.435799162893631e+00	 7.060183547757806e-01	 1.434083009248865e+01
 1.419122903836405e+00	 7.389662733026416e-01	 1.429893970816071e+01
 1.401627247954595e+00	 7.716358216299125e-01	 1.423867080744808e+01
 1.383318197988887e+00	 8.039971220523436e-01	 1.413553340906809e+01
 1.364203184473336e+00	 8.360204117451508e-01	 1.399550436087920e+01
 1.344291067885663e+00	 8.676761270304166e-01	 1.382584772846679e+01
 1.323592134881926e+00	 8.989349883576466e-01	 1.363499005932714e+01
 1.302118088516626e+00	 9.297680855165882e-01	 1.343242486857835e+01
 1.279882032394063e+00	 9.601469625878492e-01	 1.322856995867338e+01
 1.256898448743110e+00	 9.900437021289901e-01	 1.303457713377408e+01
 1.477574484470682e+00	 6.848369758221196e-01	 1.423791535754399e+01
 1.461439121102612e+00	 7.186261634304927e-01	 1.421309919557406e+01
 1.444465063720531e+00	 7.521624534204103e-01	 1.419050472018143e+01
 1.426656977035360e+00	 7.854154021809472e-01	 1.413317490925094e+01
 1.408020970982467e+00	 8.183545984621109e-01	 1.403382582187109e+01
 1.388564608787581e+00	 8.509497479458688e-01	 1.389846131796734e+01
 1.368296909155496e+00	 8.831707590173424e-01	 1.373440440013970e+01
 1.347228342437492e+00	 9.149878292629197e-01	 1.355025603597218e+01
 1.325370820676796e+00	 9.463715322047658e-01	 1.335580374983294e+01
 1.302737681476930e+00	 9.772929037684625e-01	 1.316187747673572e+01
 1.279343665684940e+00	 1.007723527972461e+00	 1.298015190438790e+01
 1.503497514589997e+00	 6.968519704899772e-01	 1.410333896292840e+01
 1.487079067346885e+00	 7.312339662021232e-01	 1.409572407853378e+01
 1.469807211778911e+00	 7.653586273805743e-01	 1.408648466638805e+01
 1.451686694436161e+00	 7.991949763021621e-01	 1.403427300009435e+01
 1.432723732448637e+00	 8.327120681724023e-01	 1.394102526150401e+01
 1.412926021733686e+00	 8.658790771802610e-01	 1.381259904595144e+01
 1.392302739223098e+00	 8.986653837741481e-01	 1.365628805627329e+01
 1.370864538963290e+00	 9.310406626775752e-01	 1.348079238249249e+01
 1.348623541986129e+00	 9.629749711453685e-01	 1.329613301723318e+01
 1.325593319894246e+00	 9.944388369483218e-01	 1.311350752574073e+01
 1.301788872152743e+00	 1.025403345566011e+00	 1.294508570861187e+01
 1.529420526563753e+00	 7.088669567477605e-01	 1.398625946669222e+01
 1.512718995643765e+00	 7.438417601487594e-01	 1.399212829219434e+01
 1.495149342098356e+00	 7.785547921039219e-01	 1.398307332899553e+01
 1.476716394316719e+00	 8.129745407782109e-01	 1.393666915764259e+01
 1.457426476623418e+00	 8.470695278330236e-01	 1.385200037464604e+01
 1.437287417627326e+00	 8.808083959646985e-01	 1.373289774290952e+01
 1.416308552487120e+00	 9.141599976853019e-01	 1.358653028210984e+01
 1.394500718944233e+00	 9.470934848558372e-01	 1.342161648331447e+01
 1.371876247019020e+00	 9.795783984641533e-01	 1.324834674063149e+01
 1.348448942313062e+00	 1.011584758126611e+00	 1.307824025158495e+01
 1.324234062909339e+00	 1.043083150784260e+00	 1.292393477824151e+01
 1.555343514343210e+00	 7.208819317918950e-01	 1.388292735212096e+01
 1.538358900010570e+00	 7.564495423284883e-01	 1.389713376603704e+01
 1.520491448765676e+00	 7.917509445112412e-01	 1.388494019490148e+01
 1.501746070836753e+00	 8.267540923937462e-01	 1.383902992625928e+01
 1.482129197742829e+00	 8.614269740937808e-01	 1.376197626965924e+01
 1.461648790784177e+00	 8.957377008155507e-01	 1.365472975253399e+01
 1.440314343346220e+00	 9.296545971352725e-01	 1.352059006803795e+01
 1.418136876865230e+00	 9.631462920519298e-01	 1.336820407136226e+01
 1.395128930349863e+00	 9.961818102868762e-01	 1.320786336437867e+01
 1.371304543400429e+00	 1.028730663302513e+00	 1.305136079014289e+01
 1.346679232717547e+00	 1.060762939501830e+00	 1.291177516228084e+01
 1.581266471879627e+00	 7.328968928188055e-01	 1.378976421965142e+01
 1.563998774464616e+00	 7.690573097993973e-01	 1.380548187873114e+01
 1.545833525867679e+00	 8.049470815233204e-01	 1.379050403320295e+01
 1.526775718155982e+00	 8.405336279334213e-01	 1.374517059845662e+01
 1.506831890042886e+00	 8.757844036044792e-01	 1.367190324238869e+01
 1.486010135519916e+00	 9.106669882491875e-01	 1.357405555616291e+01
 1.464320106199052e+00	 9.451491785085295e-01	 1.345440493947895e+01
 1.441773007211195e+00	 9.791990805200780e-01	 1.331654127660899e+01
 1.418381586553052e+00	 1.012785202739293e+00	 1.317063832043304e+01
 1.394160117823397e+00	 1.045876548475211e+00	 1.302871208933151e+01
 1.369124376340185e+00	 1.078442707593344e+00	 1.290425540470815e+01
 1.607189393124262e+00	 7.449118370249175e-01	 1.370315934689182e+01
 1.589638613023220e+00	 7.816650596195741e-01	 1.371470147238799e+01
 1.571175567491180e+00	 8.181432000609489e-01	 1.369754647834843e+01
 1.551805330434125e+00	 8.543131441818893e-01	 1.365327512207353e+01
 1.531534547759610e+00	 8.901418130149245e-01	 1.358411405604939e+01
 1.510371446150219e+00	 9.255962547819792e-01	 1.349317795631146e+01
 1.488325835444270e+00	 9.606437381895413e-01	 1.338474831318601e+01
 1.465409104467036e+00	 9.952518465145054e-01	 1.326317636320153e+01
 1.441634210202983e+00	 1.029388571947160e+00	 1.313321638120399e+01
 1.417015660249019e+00	 1.063022409643890e+00	 1.300674753124561e+01
 1.391569488540071e+00	 1.096122450933424e+00	 1.289764909068597e+01
 1.633112272028377e+00	 7.569267616066563e-01	 1.361590861514137e+01
 1.615278409703701e+00	 7.942727888471052e-01	 1.362288425267255e+01
 1.596517567722985e+00	 8.313392970449144e-01	 1.360440709627437e+01
 1.576834901830902e+00	 8.680926379238038e-01	 1.356189278245586e+01
 1.556237165129019e+00	 9.044991989749225e-01	 1.349733264350017e+01
 1.534732716990764e+00	 9.405254969302952e-01	 1.341355061438058e+01
 1.512331525480531e+00	 9.761382725627764e-01	 1.331450225603203e+01
 1.489045163117665e+00	 1.011304586289436e+00	 1.320561249583064e+01
 1.464886795874051e+00	 1.045991914036235e+00	 1.309278377969191e+01
 1.439871165344345e+00	 1.080168242807733e+00	 1.298258337532854e+01
 1.414014564080026e+00	 1.113802165396690e+00	 1.288882222674842e+01
 1.659035102543229e+00	 7.689416637604469e-01	 1.352497317488665e+01
 1.640918158523373e+00	 8.068804945400779e-01	 1.352864917478684e+01
 1.621859520649905e+00	 8.445353693960052e-01	 1.350994583617401e+01
 1.601864426506032e+00	 8.818721059438172e-01	 1.347008914231220e+01
 1.580939736387131e+00	 9.188565581342789e-01	 1.341079828367939e+01
 1.559093942357225e+00	 9.554547112105061e-01	 1.333455711584161e+01
 1.536337170706489e+00	 9.916327780127044e-01	 1.324493372842149e+01
 1.512681177647994e+00	 1.027357296099095e+00	 1.314694485087186e+01
 1.488139338140650e+00	 1.062595225132273e+00	 1.304745948814577e+01
 1.462726627776426e+00	 1.097314043965922e+00	 1.295405104081803e+01
 1.436459597722866e+00	 1.131481846857766e+00	 1.287156059916740e+01
 1.684957878620078e+00	 7.809565406827145e-01	 1.342919378958240e+01
 1.666557853499554e+00	 8.194881737565801e-01	 1.343110657590129e+01
 1.647201420358750e+00	 8.577314140350094e-01	 1.341350521176374e+01
 1.626893898619235e+00	 8.956515450265826e-01	 1.337740634923708e+01
 1.605642255769965e+00	 9.332138871427991e-01	 1.332422414183502e+01
 1.583455116565279e+00	 9.703838941389810e-01	 1.325605587324600e+01
 1.560342765520799e+00	 1.007127250923794e+00	 1.317602226773851e+01
 1.536317142542932e+00	 1.043409972197705e+00	 1.308865938361124e+01
 1.511391831577175e+00	 1.079198501361031e+00	 1.300035641339942e+01
 1.485582042212313e+00	 1.114459809117642e+00	 1.291975516969249e+01
 1.458904584231411e+00	 1.149161491191272e+00	 1.284430959255885e+01
 1.234453226564436e+00	 9.723638721609746e-01	 1.311427215728838e+01
 1.211161443401940e+00	 1.001226393326611e+00	 1.290011834433388e+01
 1.187167854684556e+00	 1.029562475858177e+00	 1.266174880354621e+01
 1.162490537426566e+00	 1.057346784821248e+00	 1.241213162147483e+01
 1.137148778417628e+00	 1.084554827395022e+00	 1.216391602867148e+01
 1.111163024431674e+00	 1.111163024431675e+00	 1.192908941795244e+01
 1.084554827395021e+00	 1.137148778417628e+00	 1.168446578914511e+01
 1.057346784821247e+00	 1.162490537426566e+00	 1.140297790993860e+01
 1.029562475858177e+00	 1.187167854684557e+00	 1.108977627865209e+01
 1.001226393326610e+00	 1.211161443401940e+00	 1.075002624803814e+01
 9.723638721609748e-01	 1.234453226564436e+00	 1.038889874686657e+01
 1.256898448743110e+00	 9.900437021289901e-01	 1.303457713377408e+01
 1.233183166952260e+00	 1.019431010857295e+00	 1.283464593139108e+01
 1.208753319154181e+00	 1.048282309076467e+00	 1.261428713521442e+01
 1.183627311045192e+00	 1.076571801204223e+00	 1.238700184728465e+01
 1.157824780093512e+00	 1.104274549083482e+00	 1.216596701686265e+01
 1.131366544842838e+00	 1.131366544842838e+00	 1.194729848403100e+01
 1.104274549083482e+00	 1.157824780093512e+00	 1.169814104262462e+01
 1.076571801204222e+00	 1.183627311045192e+00	 1.141529998363053e+01
 1.048282309076466e+00	 1.208753319154182e+00	 1.110160280634297e+01
 1.019431010857295e+00	 1.233183166952261e+00	 1.076210205572110e+01
 9.900437021289900e-01	 1.256898448743110e+00	 1.040183746256649e+01
 1.279343665684940e+00	 1.007723527972461e+00	 1.298015190438790e+01
 1.255204885364558e+00	 1.037635624140944e+00	 1.279539636649047e+01
 1.230338778587595e+00	 1.067002137927457e+00	 1.259372213531264e+01
 1.204764079732331e+00	 1.095796813101972e+00	 1.238930356913371e+01
 1.178500776945462e+00	 1.123994266171235e+00	 1.219022012812663e+01
 1.151570060540358e+00	 1.151570060540358e+00	 1.196528274696240e+01
 1.123994266171235e+00	 1.178500776945462e+00	 1.170999975591203e+01
 1.095796813101971e+00	 1.204764079732332e+00	 1.142629760932074e+01
 1.067002137927457e+00	 1.230338778587596e+00	 1.111341150607720e+01
 1.037635624140944e+00	 1.255204885364558e+00	 1.077571243819360e+01
 1.007723527972462e+00	 1.279343665684940e+00	 1.041824721702356e+01
 1.301788872152743e+00	 1.025403345566011e+00	 1.294508570861187e+01
 1.277226593500463e+00	 1.055840228929743e+00	 1.277619371209900e+01
 1.251924227948217e+00	 1.085721958043131e+00	 1.259362281652760e+01
 1.225900838556086e+00	 1.115021816028617e+00	 1.241190542701672e+01
 1.199176764149080e+00	 1.143713974056987e+00	 1.221248072403978e+01
 1.171773566810069e+00	 1.171773566810069e+00	 1.198128514070129e+01
 1.143713974056986e+00	 1.199176764149081e+00	 1.172134842569709e+01
 1.115021816028617e+00	 1.225900838556087e+00	 1.143544722211964e+01
 1.085721958043130e+00	 1.251924227948217e+00	 1.112457664912040e+01
 1.055840228929742e+00	 1.277226593500463e+00	 1.079020035344210e+01
 1.025403345566011e+00	 1.301788872152743e+00	 1.043745774284358e+01
 1.324234062909339e+00	 1.043083150784260e+00	 1.292393477824151e+01
 1.299248286221607e+00	 1.074044820975874e+00	 1.277133598625010e+01
 1.273509662199462e+00	 1.104441765055470e+00	 1.260802875743344e+01
 1.247037582584560e+00	 1.134246805498281e+00	 1.243523598397118e+01
 1.219852736879972e+00	 1.163433668139442e+00	 1.222973576609093e+01
 1.191977058937807e+00	 1.191977058937807e+00	 1.199391624669964e+01
 1.163433668139443e+00	 1.219852736879972e+00	 1.173093778407636e+01
 1.134246805498280e+00	 1.247037582584561e+00	 1.144369256615827e+01
 1.104441765055469e+00	 1.273509662199462e+00	 1.113478258775670e+01
 1.074044820975874e+00	 1.299248286221607e+00	 1.080520707786686e+01
 1.043083150784260e+00	 1.324234062909339e+00	 1.045908660713545e+01
 1.346679232717547e+00	 1.060762939501830e+00	 1.291177516228084e+01
 1.321269958389622e+00	 1.092249396031525e+00	 1.277564761107929e+01
 1.295095076304750e+00	 1.123161554596456e+00	 1.262822703223809e+01
 1.268174306885854e+00	 1.153471777025084e+00	 1.245101290471472e+01
 1.240528690313739e+00	 1.183153343817310e+00	 1.224106871904108e+01
 1.212180532209407e+00	 1.212180532209407e+00	 1.200214216088396e+01
 1.183153343817310e+00	 1.240528690313740e+00	 1.173763493204509e+01
 1.153471777025084e+00	 1.268174306885854e+00	 1.145067025481931e+01
 1.123161554596456e+00	 1.295095076304751e+00	 1.114416409983246e+01
 1.092249396031525e+00	 1.321269958389622e+00	 1.082062072905425e+01
 1.060762939501830e+00	 1.346679232717546e+00	 1.048299107033279e+01
 1.369124376340185e+00	 1.078442707593344e+00	 1.290425540470815e+01
 1.343291604866139e+00	 1.110453949848880e+00	 1.278453177924956e+01
 1.316680465227499e+00	 1.141881322298074e+00	 1.263986913430719e+01
 1.289311006528071e+00	 1.172696726123150e+00	 1.245881906313090e+01
 1.261204619625986e+00	 1.202872996489294e+00	 1.224591601601423e+01
 1.232383981910703e+00	 1.232383981910703e+00	 1.200527224111492e+01
 1.202872996489294e+00	 1.261204619625987e+00	 1.174063827244570e+01
 1.172696726123149e+00	 1.289311006528072e+00	 1.145548040463945e+01
 1.141881322298074e+00	 1.316680465227500e+00	 1.115306219133826e+01
 1.110453949848879e+00	 1.343291604866139e+00	 1.083652429578324e+01
 1.078442707593345e+00	 1.369124376340185e+00	 1.050921932447966e+01
 1.391569488540071e+00	 1.096122450933424e+00	 1.289764909068597e+01
 1.365313220512789e+00	 1.128658478180122e+00	 1.278914938033759e+01
 1.338265823931128e+00	 1.160601063792305e+00	 1.264195819713725e+01
 1.310447676579314e+00	 1.191921648306599e+00	 1.245858308466039e+01
 1.281880519992316e+00	 1.222592621554103e+00	 1.224405341828178e+01
 1.252587403327531e+00	 1.252587403327531e+00	 1.200294674806655e+01
 1.222592621554102e+00	 1.281880519992317e+00	 1.173946667863266e+01
 1.191921648306598e+00	 1.310447676579314e+00	 1.145753115151732e+01
 1.160601063792305e+00	 1.338265823931128e+00	 1.116086506684304e+01
 1.128658478180122e+00	 1.365313220512790e+00	 1.085309099685512e+01
 1.096122450933424e+00	 1.391569488540071e+00	 1.053796118138367e+01
 1.414014564080026e+00	 1.113802165396690e+00	 1.288882222674842e+01
 1.387334800191205e+00	 1.146862976777438e+00	 1.278306822168314e+01
 1.359851147379053e+00	 1.179320774711131e+00	 1.263493074751604e+01
 1.331584312107683e+00	 1.211146539089554e+00	 1.245056466259842e+01
 1.302556386588333e+00	 1.242312214410441e+00	 1.223558231584417e+01
 1.272790791745725e+00	 1.272790791745726e+00	 1.199512439088701e+01
 1.242312214410440e+00	 1.302556386588333e+00	 1.173394851480883e+01
 1.211146539089553e+00	 1.331584312107684e+00	 1.145652934257239e+01
 1.179320774711131e+00	 1.359851147379053e+00	 1.116716331910487e+01
 1.146862976777438e+00	 1.387334800191205e+00	 1.087007111250245e+01
 1.113802165396690e+00	 1.414014564080026e+00	 1.056949081494802e+01
 1.436459597722866e+00	 1.131481846857766e+00	 1.287156059916740e+01
 1.409356338763016e+00	 1.165067441393012e+00	 1.276723596669037e+01
 1.381436430534692e+00	 1.198040450686535e+00	 1.261954267911557e+01
 1.352720908181285e+00	 1.230371393986137e+00	 1.243533983640897e+01
 1.323232214589639e+00	 1.262031770457014e+00	 1.222091597488587e+01
 1.292994142451122e+00	 1.292994142451123e+00	 1.198206978764469e+01
 1.262031770457013e+00	 1.323232214589640e+00	 1.172421052382978e+01
 1.230371393986136e+00	 1.352720908181285e+00	 1.145247103471473e+01
 1.198040450686535e+00	 1.381436430534693e+00	 1.117182586600746e+01
 1.165067441393011e+00	 1.409356338763016e+00	 1.088720656048236e+01
 1.131481846857766e+00	 1.436459597722866e+00	 1.060360644526199e+01
 1.458904584231411e+00	 1.149161491191272e+00	 1.284430959255885e+01
 1.431377831089855e+00	 1.183271867779027e+00	 1.274291293427664e+01
 1.403021668361464e+00	 1.216760087350500e+00	 1.259685379592780e+01
 1.373857459868217e+00	 1.249596208510468e+00	 1.241378623582972e+01
 1.343907999171839e+00	 1.281751285092530e+00	 1.220076573749908e+01
 1.313197450729555e+00	 1.313197450729556e+00	 1.196434084939626e+01
 1.281751285092530e+00	 1.343907999171839e+00	 1.171066659639256e+01
 1.249596208510468e+00	 1.373857459868218e+00	 1.144563182036381e+01
 1.216760087350499e+00	 1.403021668361465e+00	 1.117499197376352e+01
 1.183271867779027e+00	 1.431377831089855e+00	 1.090449862508730e+01
 1.149161491191272e+00	 1.458904584231411e+00	 1.064001705248808e+01
 9.723638721609748e-01	 1.234453226564436e+00	 1.038889874686657e+01
 9.430010174072977e-01	 1.257026377978594e+00	 1.001002483230354e+01
 9.131646349550788e-01	 1.278865350931224e+00	 9.616486918464105e+00
 8.828821437075309e-01	 1.299955921811683e+00	 9.212627193044707e+00
 8.521814914289004e-01	 1.320285221014940e+00	 8.802769563983931e+00
 8.210910720617377e-01	 1.339841754475272e+00	 8.391202602925308e+00
 7.896396422932949e-01	 1.358615419231882e+00	 7.982154350179603e+00
 7.578562378644051e-01	 1.376597513034150e+00	 7.579757352351872e+00
 7.257700901064783e-01	 1.393780738039724e+00	 7.187050558066663e+00
 6.934105431798986e-01	 1.410159198702624e+00	 6.802338692490996e+00
 6.608069724704809e-01	 1.425728393990340e+00	 6.430257638263885e+00
 9.900437021289900e-01	 1.256898448743110e+00	 1.040183746256649e+01
 9.601469625878484e-01	 1.279882032394063e+00	 1.002436962081366e+01
 9.297680855165880e-01	 1.302118088516627e+00	 9.632879473755498e+00
 8.989349883576462e-01	 1.323592134881926e+00	 9.231844534056240e+00
 8.676761270304159e-01	 1.344291067885663e+00	 8.825757816348341e+00
 8.360204117451503e-01	 1.364203184473336e+00	 8.419115341021023e+00
 8.039971220523432e-01	 1.383318197988888e+00	 8.016393928788510e+00
 7.716358216299124e-01	 1.401627247954596e+00	 7.622017266843240e+00
 7.389662733026410e-01	 1.419122903836405e+00	 7.240295326639826e+00
 7.060183547757798e-01	 1.435799162893631e+00	 6.870638908578306e+00
 6.728219755477625e-01	 1.451651442254549e+00	 6.514571003548566e+00
 1.007723527972462e+00	 1.279343665684940e+00	 1.041824721702356e+01
 9.772929037684622e-01	 1.302737681476930e+00	 1.004471440493175e+01
 9.463715322047653e-01	 1.325370820676797e+00	 9.658525007769274e+00
 9.149878292629193e-01	 1.347228342437492e+00	 9.264313545610877e+00
 8.831707590173420e-01	 1.368296909155497e+00	 8.866763379124350e+00
 8.509497479458683e-01	 1.388564608787582e+00	 8.470600305459454e+00
 8.183545984621103e-01	 1.408020970982467e+00	 8.080574743091923e+00
 7.854154021809467e-01	 1.426656977035360e+00	 7.701430034771073e+00
 7.521624534204098e-01	 1.444465063720531e+00	 7.337855138049067e+00
 7.186261634304922e-01	 1.461439121102613e+00	 6.992405735657089e+00
 6.848369758221196e-01	 1.477574484470682e+00	 6.663391314484121e+00
 1.025403345566011e+00	 1.301788872152743e+00	 1.043745774284358e+01
 9.944388369483216e-01	 1.325593319894246e+00	 1.007036744576011e+01
 9.629749711453679e-01	 1.348623541986129e+00	 9.692679352686039e+00
 9.310406626775749e-01	 1.370864538963291e+00	 9.309205760024673e+00
 8.986653837741475e-01	 1.392302739223098e+00	 8.924840848436741e+00
 8.658790771802607e-01	 1.412926021733687e+00	 8.544562092791686e+00
 8.327120681724017e-01	 1.432723732448638e+00	 8.173418418390796e+00
 7.991949763021615e-01	 1.451686694436161e+00	 7.816502113901138e+00
 7.653586273805737e-01	 1.469807211778912e+00	 7.478902350126578e+00
 7.312339662021228e-01	 1.487079067346885e+00	 7.163450965950551e+00
 6.968519704899772e-01	 1.503497514589997e+00	 6.843434246404742e+00
 1.043083150784260e+00	 1.324234062909339e+00	 1.045908660713545e+01
 1.011584758126610e+00	 1.348448942313062e+00	 1.010091682904985e+01
 9.795783984641530e-01	 1.371876247019020e+00	 9.734873511260902e+00
 9.470934848558367e-01	 1.394500718944234e+00	 9.365965945628211e+00
 9.141599976853013e-01	 1.416308552487120e+00	 8.999318183436930e+00
 8.808083959646980e-01	 1.437287417627326e+00	 8.640180186974019e+00
 8.470695278330231e-01	 1.457426476623419e+00	 8.293923733797495e+00
 8.129745407782102e-01	 1.476716394316720e+00	 7.966019492250883e+00
 7.785547921039214e-01	 1.495149342098357e+00	 7.652240492960244e+00
 7.438417601487589e-01	 1.512718995643765e+00	 7.332103118628936e+00
 7.088669567477605e-01	 1.529420526563753e+00	 7.002419349095295e+00
 1.060762939501830e+00	 1.346679232717546e+00	 1.048299107033279e+01
 1.028730663302512e+00	 1.371304543400429e+00	 1.013618584569321e+01
 9.961818102868757e-01	 1.395128930349863e+00	 9.784872598669319e+00
 9.631462920519298e-01	 1.418136876865232e+00	 9.434274626081415e+00
 9.296545971352722e-01	 1.440314343346220e+00	 9.089762795036506e+00
 8.957377008155500e-01	 1.461648790784178e+00	 8.756878585162539e+00
 8.614269740937803e-01	 1.482129197742829e+00	 8.441321885295567e+00
 8.267540923937455e-01	 1.501746070836753e+00	 8.129749345668630e+00
 7.917509445112406e-01	 1.520491448765676e+00	 7.808391615080307e+00
 7.564495423284879e-01	 1.538358900010570e+00	 7.479224466339131e+00
 7.208819317918950e-01	 1.555343514343210e+00	 7.142759559788015e+00
 1.078442707593345e+00	 1.369124376340185e+00	 1.050921932447966e+01
 1.045876548475211e+00	 1.394160117823397e+00	 1.017618762663594e+01
 1.012785202739292e+00	 1.418381586553052e+00	 9.842633928106752e+00
 9.791990805200774e-01	 1.441773007211196e+00	 9.514009646621702e+00
 9.451491785085291e-01	 1.464320106199052e+00	 9.195946598027428e+00
 9.106669882491871e-01	 1.486010135519916e+00	 8.893500912374213e+00
 8.757844036044786e-01	 1.506831890042887e+00	 8.588067304641188e+00
 8.405336279334206e-01	 1.526775718155982e+00	 8.270878254479614e+00
 8.049470815233201e-01	 1.545833525867680e+00	 7.943816483335420e+00
 7.690573097993972e-01	 1.563998774464616e+00	 7.608886529708497e+00
 7.328968928188055e-01	 1.581266471879626e+00	 7.267966537221833e+00
 1.096122450933424e+00	 1.391569488540071e+00	 1.053796118138367e+01
 1.063022409643890e+00	 1.417015660249019e+00	 1.022107911673869e+01
 1.029388571947160e+00	 1.441634210202984e+00	 9.908264337155630e+00
 9.952518465145044e-01	 1.465409104467036e+00	 9.605206895163862e+00
 9.606437381895409e-01	 1.488325835444271e+00	 9.316189029614314e+00
 9.255962547819787e-01	 1.510371446150220e+00	 9.020767474248121e+00
 8.901418130149241e-01	 1.531534547759610e+00	 8.712156094786465e+00
 8.543131441818891e-01	 1.551805330434126e+00	 8.391996459024522e+00
 8.181432000609484e-01	 1.571175567491180e+00	 8.062139592389975e+00
 7.816650596195733e-01	 1.589638613023221e+00	 7.724630518166340e+00
 7.449118370249175e-01	 1.607189393124262e+00	 7.381669195208424e+00
 1.113802165396690e+00	 1.414014564080026e+00	 1.056949081494802e+01
 1.080168242807732e+00	 1.439871165344345e+00	 1.027111446154781e+01
 1.045991914036235e+00	 1.464886795874051e+00	 9.981976839778298e+00
 1.011304586289435e+00	 1.489045163117666e+00	 9.706257924744357e+00
 9.761382725627761e-01	 1.512331525480532e+00	 9.423399437501306e+00
 9.405254969302946e-01	 1.534732716990764e+00	 9.126632295819800e+00
 9.044991989749218e-01	 1.556237165129019e+00	 8.817213162231072e+00
 8.680926379238031e-01	 1.576834901830902e+00	 8.496680185848117e+00
 8.313392970449135e-01	 1.596517567722984e+00	 8.166862881269648e+00
 7.942727888471045e-01	 1.615278409703701e+00	 7.829863007703945e+00
 7.569267616066564e-01	 1.633112272028377e+00	 7.488008946192497e+00
 1.131481846857766e+00	 1.436459597722866e+00	 1.060360644526199e+01
 1.097314043965922e+00	 1.462726627776426e+00	 1.032659787185205e+01
 1.062595225132273e+00	 1.488139338140651e+00	 1.006283943170338e+01
 1.027357296099094e+00	 1.512681177647994e+00	 9.793606229098355e+00
 9.916327780127042e-01	 1.536337170706490e+00	 9.510637159402304e+00
 9.554547112105054e-01	 1.559093942357225e+00	 9.214674037823157e+00
 9.188565581342782e-01	 1.580939736387131e+00	 8.906786924540686e+00
 8.818721059438164e-01	 1.601864426506033e+00	 8.588417435285706e+00
 8.445353693960043e-01	 1.621859520649905e+00	 8.261387811155384e+00
 8.068804945400773e-01	 1.640918158523374e+00	 7.927877507606368e+00
 7.689416637604468e-01	 1.659035102543229e+00	 7.590370145068778e+00
 1.149161491191272e+00	 1.458904584231411e+00	 1.064001705248808e+01
 1.114459809117642e+00	 1.485582042212313e+00	 1.038741444450229e+01
 1.079198501361031e+00	 1.511391831577175e+00	 1.013123999504919e+01
 1.043409972197705e+00	 1.536317142542933e+00	 9.862535596927506e+00
 1.007127250923793e+00	 1.560342765520800e+00	 9.581444555041543e+00
 9.703838941389803e-01	 1.583455116565279e+00	 9.288428040198227e+00
 9.332138871427986e-01	 1.605642255769965e+00	 8.984371281876044e+00
 8.956515450265821e-01	 1.626893898619235e+00	 8.670629684969013e+00
 8.577314140350092e-01	 1.647201420358751e+00	 8.349036664603901e+00
 8.194881737565793e-01	 1.666557853499554e+00	 8.021875231716606e+00
 7.809565406827144e-01	 1.684957878620077e+00	 7.691816551324354e+00
 6.608069724704809e-01	 1.425728393990340e+00	 6.430257638263885e+00
 6.279910071633606e-01	 1.440484201112815e+00	 6.073182282766117e+00
 5.949895595895377e-01	 1.454425988821346e+00	 5.734621798350235e+00
 5.618316124207050e-01	 1.467553347734377e+00	 5.419457624174839e+00
 5.285458733314734e-01	 1.479867178687744e+00	 5.130230301099536e+00
 4.951607052392220e-01	 1.491369659943822e+00	 4.858848976848465e+00
 4.617040598952436e-01	 1.502064210280071e+00	 4.591753971212795e+00
 4.282034150791710e-01	 1.511955448300201e+00	 4.329664237471064e+00
 3.946857156123787e-01	 1.521049148325250e+00	 4.073306224360078e+00
 3.611773183693992e-01	 1.529352193231805e+00	 3.823189539309509e+00
 3.277039414298097e-01	 1.536872524610773e+00	 3.583360104164178e+00
 6.728219755477625e-01	 1.451651442254549e+00	 6.514571003548569e+00
 6.394093398956465e-01	 1.466675544167214e+00	 6.175851316073338e+00
 6.058078494790310e-01	 1.480870825905353e+00	 5.859568834917007e+00
 5.720470139418096e-01	 1.494236870643906e+00	 5.557823590575200e+00
 5.381560629307075e-01	 1.506774595597990e+00	 5.258680480646222e+00
 5.041638750667339e-01	 1.518486218635843e+00	 4.964849842660086e+00
 4.700989103288566e-01	 1.529375220696224e+00	 4.678608772342201e+00
 4.359891461064794e-01	 1.539446304359769e+00	 4.401912586411468e+00
 4.018620171403314e-01	 1.548705348938062e+00	 4.136476147473744e+00
 3.677443595340612e-01	 1.557159362454346e+00	 3.883798153673594e+00
 3.336623589815881e-01	 1.564816430896064e+00	 3.647472970012732e+00
 6.848369758221196e-01	 1.477574484470682e+00	 6.663391314484121e+00
 6.508276699641378e-01	 1.492866881110919e+00	 6.346553934356722e+00
 6.166261368446359e-01	 1.507315656819490e+00	 6.026074715226048e+00
 5.822624130795893e-01	 1.520920387327832e+00	 5.705869511053545e+00
 5.477662502877221e-01	 1.533682006230345e+00	 5.389946263126014e+00
 5.131670427935555e-01	 1.545602771001122e+00	 5.081702895178167e+00
 4.784937588036202e-01	 1.556686224740210e+00	 4.784122206456582e+00
 4.437748753169786e-01	 1.566937154005154e+00	 4.499888394179755e+00
 4.090383169936040e-01	 1.576361543098060e+00	 4.231435969017297e+00
 3.743113991661537e-01	 1.584966525188804e+00	 3.980944156027926e+00
 3.396207751427842e-01	 1.592760330661334e+00	 3.751648157834445e+00
 6.968519704899772e-01	 1.503497514589997e+00	 6.843434246404739e+00
 6.622459947045026e-01	 1.519058205832586e+00	 6.513308951477791e+00
 6.274444191620534e-01	 1.533760475393265e+00	 6.179878715036460e+00
 5.924778074504441e-01	 1.547603891559975e+00	 5.848231461840255e+00
 5.573764331601574e-01	 1.560589404306392e+00	 5.522648142442697e+00
 5.221702063189915e-01	 1.572719310712449e+00	 5.206885793030994e+00
 4.868886033608045e-01	 1.583997216039457e+00	 4.904360592650444e+00
 4.515606008940891e-01	 1.594427990821833e+00	 4.618240167252275e+00
 4.162146134978368e-01	 1.604017724352159e+00	 4.351457850398630e+00
 3.808784357334940e-01	 1.612773674946886e+00	 4.106664225367247e+00
 3.455791885232393e-01	 1.620704217386405e+00	 3.886821869078309e+00
 7.088669567477605e-01	 1.529420526563753e+00	 7.002419349095295e+00
 6.736643114524095e-01	 1.545249512220870e+00	 6.663178368693547e+00
 6.382626939069839e-01	 1.560205275456184e+00	 6.322516489695882e+00
 6.026931946707729e-01	 1.574287377114149e+00	 5.985384043266384e+00
 5.669866093056553e-01	 1.587496783547712e+00	 5.656038310317973e+00
 5.311733635423465e-01	 1.599835831442617e+00	 5.338330757898608e+00
 4.952834420416801e-01	 1.611308188221397e+00	 5.035878522330937e+00
 4.593463210212317e-01	 1.621918808395286e+00	 4.752131106022258e+00
 4.233909049786710e-01	 1.631673886247275e+00	 4.490347140321673e+00
 3.874454677038998e-01	 1.640580805240301e+00	 4.253498999841733e+00
 3.515375977327944e-01	 1.648648084551100e+00	 4.044398606227535e+00
 7.208819317918950e-01	 1.555343514343210e+00	 7.142759559788015e+00
 6.850826175435260e-01	 1.571440794164428e+00	 6.798878401551802e+00
 6.490809585551286e-01	 1.586650050837757e+00	 6.455834820337151e+00
 6.129085723569758e-01	 1.600970837764177e+00	 6.118138222667854e+00
 5.765967764818563e-01	 1.614404137675887e+00	 5.789754257937085e+00
 5.401765123629251e-01	 1.626952326864416e+00	 5.474398067949233e+00
 5.036782728875178e-01	 1.638619134913462e+00	 5.175694083328834e+00
 4.671320338818276e-01	 1.649409600310997e+00	 4.897215220634354e+00
 4.305671897617475e-01	 1.659330022330324e+00	 4.642418688698886e+00
 3.940124935451890e-01	 1.668387909580757e+00	 4.414498898073379e+00
 3.574960013812908e-01	 1.676591925635240e+00	 4.216249651611927e+00
 7.328968928188055e-01	 1.581266471879626e+00	 7.267966537221842e+00
 6.965009103135202e-01	 1.597632045551912e+00	 6.923305891157721e+00
 6.598992105821884e-01	 1.613094795367491e+00	 6.581924069033107e+00
 6.231239381254519e-01	 1.627654267283872e+00	 6.247607401525348e+00
 5.862069324464020e-01	 1.641311460412501e+00	 5.923788919508401e+00
 5.491796506800322e-01	 1.654068790650638e+00	 5.613849225859616e+00
 5.120730939395876e-01	 1.665930049743079e+00	 5.321264113309651e+00
 4.749177376592978e-01	 1.676900360154443e+00	 5.049613853561008e+00
 4.377434661727073e-01	 1.686986126148221e+00	 4.802473953937966e+00
 4.005795117251792e-01	 1.696194981479960e+00	 4.583210851945225e+00
 3.634543980785698e-01	 1.704535734118647e+00	 4.394713085395460e+00
 7.449118370249175e-01	 1.607189393124262e+00	 7.381669195208424e+00
 7.079191870980611e-01	 1.623823260271979e+00	 7.039491563245462e+00
 6.707174474638633e-01	 1.639539502874890e+00	 6.703078025478854e+00
 6.333392895926000e-01	 1.654337659447055e+00	 6.375172673943910e+00
 5.958170749569336e-01	 1.668218745479135e+00	 6.058460245128646e+00
 5.581827763929721e-01	 1.681185216474073e+00	 5.755819838544237e+00
 5.204679032391601e-01	 1.693240926337682e+00	 5.470459479565251e+00
 4.827034305370630e-01	 1.704391081511104e+00	 5.205892563383530e+00
 4.449197325371911e-01	 1.714642191247882e+00	 4.965778814402155e+00
 4.071465207116879e-01	 1.724002014449617e+00	 4.753656497134878e+00
 3.694127864344723e-01	 1.732479503481143e+00	 4.572595169397161e+00
 7.569267616066564e-01	 1.633112272028377e+00	 7.488008946192497e+00
 7.193374452328151e-01	 1.650014432213284e+00	 7.150552307449738e+00
 6.815356666758550e-01	 1.665984167189467e+00	 6.821752873985902e+00
 6.435546243748205e-01	 1.681021008027543e+00	 6.502447366656022e+00
 6.054272017710922e-01	 1.695125986597372e+00	 6.194380266706337e+00
 5.671858874010501e-01	 1.708301598007515e+00	 5.899792240975047e+00
 5.288626988275059e-01	 1.720551758324699e+00	 5.621540382608665e+00
 4.904891106985443e-01	 1.731881757966463e+00	 5.363038329996223e+00
 4.520959871808399e-01	 1.742298211176222e+00	 5.128042006151370e+00
 4.137135189725328e-01	 1.751809002001437e+00	 4.920311291484971e+00
 3.753711650588398e-01	 1.760423227202551e+00	 4.743180968433773e+00
 7.689416637604468e-01	 1.659035102543229e+00	 7.590370145068787e+00
 7.307556820534515e-01	 1.676205555264484e+00	 7.259642584219057e+00
 6.923538656938637e-01	 1.692428782140726e+00	 6.940525377283246e+00
 6.537699400885121e-01	 1.707704306799154e+00	 6.631240939419303e+00
 6.150373106465187e-01	 1.722033177488792e+00	 6.332423712688984e+00
 5.761889816035703e-01	 1.735417928923754e+00	 6.045567892395241e+00
 5.372574787458954e-01	 1.747862539331563e+00	 5.773131681289682e+00
 4.982747763271624e-01	 1.759372383105996e+00	 5.518437046407377e+00
 4.592722284292945e-01	 1.769954179480157e+00	 5.285394118790676e+00
 4.202805049755315e-01	 1.779615937647126e+00	 5.078084460044641e+00
 3.813295325615133e-01	 1.788366898762692e+00	 4.900240788219014e+00
 7.809565406827144e-01	 1.684957878620077e+00	 7.691816551324354e+00
 7.421738948956381e-01	 1.702396623314230e+00	 7.369909778720914e+00
 7.031720419935903e-01	 1.718873341558175e+00	 7.062050361699312e+00
 6.639852343500747e-01	 1.734387549535705e+00	 6.763522314933714e+00
 6.246473993408544e-01	 1.748940311874980e+00	 6.473696220446256e+00
 5.851920568998376e-01	 1.762534202895580e+00	 6.193239569714617e+00
 5.456522410355987e-01	 1.775173262985702e+00	 5.924198237406775e+00
 5.060604256063386e-01	 1.786862950515187e+00	 5.669851266570706e+00
 4.664484546081961e-01	 1.797610089706602e+00	 5.434367089622830e+00
 4.268474771885019e-01	 1.807422814898392e+00	 5.222299678052869e+00
 3.872878875523342e-01	 1.816310511641387e+00	 5.037966857851959e+00
 3.277039414298097e-01	 1.536872524610773e+00	 3.583360104164178e+00
 2.942882868666912e-01	 1.543619536139733e+00	 3.363519597362937e+00
 2.609570376727920e-01	 1.549602577366594e+00	 3.163662566473004e+00
 2.277337700987326e-01	 1.554832448933549e+00	 2.985371457577092e+00
 1.946412589112334e-01	 1.559320791834440e+00	 2.830158683747594e+00
 1.617014481614524e-01	 1.563080029654769e+00	 2.699175193527812e+00
 1.289354262455696e-01	 1.566123310311101e+00	 2.593050703363979e+00
 9.636340517591950e-02	 1.568464447614244e+00	 2.511830775614993e+00
 6.400470395691217e-02	 1.570117862963473e+00	 2.454978163168283e+00
 3.187773593839194e-02	 1.571098527460400e+00	 2.421409007672117e+00
 0.000000000000000e+00	 1.571421904711111e+00	 2.409538327329540e+00
 3.336623589815881e-01	 1.564816430896064e+00	 3.647472970012728e+00
 2.996391303323379e-01	 1.571686118739641e+00	 3.435138527049107e+00
 2.657018417377326e-01	 1.577777945529459e+00	 3.245096664876654e+00
 2.318744981192860e-01	 1.583102908288448e+00	 3.079096805045257e+00
 1.981802883417759e-01	 1.587672859670729e+00	 2.938374783485161e+00
 1.646415554500828e-01	 1.591500449151411e+00	 2.823458178571435e+00
 1.312797712763175e-01	 1.594599063706687e+00	 2.734111959830571e+00
 9.811551533405542e-02	 1.596982768314489e+00	 2.669384292909516e+00
 6.516845789199319e-02	 1.598666246588589e+00	 2.627715076762920e+00
 3.245734709736157e-02	 1.599664741839956e+00	 2.607073555022783e+00
 0.000000000000000e+00	 1.599993998838902e+00	 2.605095860515210e+00
 3.396207751427842e-01	 1.592760330661334e+00	 3.751648157834445e+00
 3.049899725491720e-01	 1.599752694790881e+00	 3.547553194342593e+00
 2.704466446952952e-01	 1.605953307118260e+00	 3.365439781759128e+00
 2.360152251734538e-01	 1.611373361047094e+00	 3.207830645843742e+00
 2.017193169463797e-01	 1.616024920891725e+00	 3.076226191175001e+00
 1.675816620525767e-01	 1.619920862016819e+00	 2.971018862897035e+00
 1.336241157599911e-01	 1.623074810458135e+00	 2.891557143479762e+00
 9.986762508334759e-02	 1.625501082360675e+00	 2.836313133143102e+00
 6.633221155554131e-02	 1.627214623552641e+00	 2.803110959093114e+00
 3.303695812110609e-02	 1.628230949554292e+00	 2.789377688424425e+00
 0.000000000000000e+00	 1.628566086300104e+00	 2.792383673840122e+00
 3.455791885232393e-01	 1.620704217386405e+00	 3.886821869078309e+00
 3.103408122688085e-01	 1.627819257744674e+00	 3.691283086554255e+00
 2.751914454385045e-01	 1.634128655558860e+00	 3.515378902319145e+00
 2.401559502952074e-01	 1.639643800613179e+00	 3.362912447267230e+00
 2.052583438994042e-01	 1.644376968882100e+00	 3.236084188596362e+00
 1.705217672830291e-01	 1.648341261619734e+00	 3.135529654010718e+00
 1.359684591496797e-01	 1.651550543921298e+00	 3.060516741667492e+00
 1.016197340150524e-01	 1.654019383098738e+00	 3.009250093739778e+00
 6.749596467607184e-02	 1.655762987194560e+00	 2.979233924372529e+00
 3.361656887441332e-02	 1.656797143938189e+00	 2.967649855385927e+00
 0.000000000000000e+00	 1.657138160428128e+00	 2.971712379698261e+00
 3.515375977327944e-01	 1.648648084551100e+00	 4.044398606227539e+00
 3.156916482428617e-01	 1.655885801052237e+00	 3.857246668909223e+00
 2.799362428603853e-01	 1.662303984277112e+00	 3.685938281118053e+00
 2.442966725185188e-01	 1.667914220390396e+00	 3.535963868718337e+00
 2.087973683752088e-01	 1.672728997026529e+00	 3.410552442830052e+00
 1.734618704555351e-01	 1.676761641328907e+00	 3.310849162476583e+00
 1.383128008984724e-01	 1.680026257452029e+00	 3.236263047902332e+00
 1.033718417204265e-01	 1.682537663874611e+00	 3.184925223103417e+00
 6.865971698210022e-02	 1.684311330853280e+00	 3.154202660889750e+00
 3.419617922207117e-02	 1.685363318326427e+00	 3.141218374174640e+00
 0.000000000000000e+00	 1.685710214556385e+00	 3.143335957209827e+00
 3.574960013812908e-01	 1.676591925635240e+00	 4.216249651611927e+00
 3.210424792229463e-01	 1.683952318164791e+00	 4.036752637566101e+00
 2.846810358539620e-01	 1.690479286698879e+00	 3.868466246848088e+00
 2.484373908773596e-01	 1.696184613782438e+00	 3.718873516157668e+00
 2.123363895481528e-01	 1.701080998709684e+00	 3.592451720135031e+00
 1.764019708841897e-01	 1.705181994513079e+00	 3.491008491822577e+00
 1.406571404594584e-01	 1.708501944406180e+00	 3.414199249822722e+00
 1.051239477907264e-01	 1.711055918034232e+00	 3.360158536094271e+00
 6.982346820214187e-02	 1.712859647867734e+00	 3.326183215923170e+00
 3.477578902886748e-02	 1.713929466053786e+00	 3.309412350693687e+00
 0.000000000000000e+00	 1.714282242018287e+00	 3.307456494930546e+00
 3.634543980785698e-01	 1.704535734118647e+00	 4.394713085395455e+00
 3.263933039606769e-01	 1.712018802533554e+00	 4.221492971091539e+00
 2.894258233122595e-01	 1.718654556250017e+00	 4.054623896531969e+00
 2.525781044057017e-01	 1.724454974193001e+00	 3.903783533796441e+00
 2.158754065925959e-01	 1.729432967316239e+00	 3.774806266757150e+00
 1.793420678830878e-01	 1.733602314540998e+00	 3.670198931822826e+00
 1.430014772857270e-01	 1.736977598139604e+00	 3.589849588342769e+00
 1.068760518172086e-01	 1.739574138923537e+00	 3.531853424051491e+00
 7.098721806471210e-02	 1.741407931576855e+00	 3.493386077952779e+00
 3.535539815959007e-02	 1.742495580455047e+00	 3.471562498045306e+00
 0.000000000000000e+00	 1.742854236147245e+00	 3.464228466950337e+00
 3.694127864344723e-01	 1.732479503481143e+00	 4.572595169397164e+00
 3.317441212076679e-01	 1.740085247609745e+00	 4.403537577626793e+00
 2.941706041283021e-01	 1.746829786356384e+00	 4.236375466014533e+00
 2.567188121375165e-01	 1.752725295025775e+00	 4.083077825701268e+00
 2.194144186828974e-01	 1.757784896230868e+00	 3.950831668520326e+00
 1.822821607663244e-01	 1.762022594781407e+00	 3.842760896732129e+00
 1.453458108303672e-01	 1.765453212008154e+00	 3.758850467038906e+00
 1.086281533911296e-01	 1.768092319888461e+00	 3.696990680950303e+00
 7.215096629832633e-02	 1.769956175319576e+00	 3.654063522605016e+00
 3.593500647902684e-02	 1.771061654864991e+00	 3.627001869767533e+00
 0.000000000000000e+00	 1.771426190276669e+00	 3.613762595057973e+00
 3.753711650588398e-01	 1.760423227202551e+00	 4.743180968433773e+00
 3.370949297155342e-01	 1.768151646844585e+00	 4.575330360751070e+00
 2.989153771951150e-01	 1.775004970443840e+00	 4.405980190678646e+00
 2.608595131067761e-01	 1.780995569684454e+00	 4.249371726324409e+00
 2.229534249934168e-01	 1.786136778838242e+00	 4.113924024947107e+00
 1.852222488479947e-01	 1.790442828603053e+00	 4.003173970169949e+00
 1.476901405464683e-01	 1.793928779367682e+00	 3.916942406200208e+00
 1.103802521037461e-01	 1.796610454274940e+00	 3.852623077235268e+00
 7.331471263149993e-02	 1.798504372434831e+00	 3.806507193030735e+00
 3.651461385196566e-02	 1.799627682618398e+00	 3.775066516338686e+00
 0.000000000000000e+00	 1.799998097739971e+00	 3.756129342963059e+00
 3.813295325615133e-01	 1.788366898762692e+00	 4.900240788219014e+00
 3.424457282358898e-01	 1.796217993689290e+00	 4.729686549181228e+00
 3.036601414057223e-01	 1.803180101938242e+00	 4.555985493589549e+00
 2.650002063474519e-01	 1.809265791572732e+00	 4.395502961591513e+00
 2.264924246985136e-01	 1.814488608523038e+00	 4.257650294192445e+00
 1.881623314421935e-01	 1.818863009374681e+00	 4.146047935638897e+00
 1.500344658871194e-01	 1.822404293574040e+00	 4.059962749167416e+00
 1.121323475463146e-01	 1.825128535428912e+00	 3.995870421431136e+00
 7.447845679274828e-02	 1.827052516261553e+00	 3.949045889074248e+00
 3.709422014319434e-02	 1.828193657050048e+00	 3.915096073343118e+00
 0.000000000000000e+00	 1.828569951870562e+00	 3.891362082814610e+00
 3.872878875523342e-01	 1.816310511641387e+00	 5.037966857851959e+00
 3.477965155203497e-01	 1.824284281595081e+00	 4.859791154533306e+00
 3.084048956531489e-01	 1.831355174265449e+00	 4.679221358319846e+00
 2.691408908935159e-01	 1.837535954094301e+00	 4.514523761688194e+00
 2.300314169725472e-01	 1.842840378669926e+00	 4.375739682763097e+00
 1.911024078630157e-01	 1.847283130465035e+00	 4.266114686560913e+00
 1.523787863054098e-01	 1.850879747983083e+00	 4.183839039954569e+00
 1.138844393100915e-01	 1.853646556696309e+00	 4.123230506430908e+00
 7.564219851058672e-02	 1.855600600138674e+00	 4.076681658470445e+00
 3.767382521750076e-02	 1.856759571494720e+00	 4.040165601611796e+00
 0.000000000000000e+00	 1.857141746001852e+00	 4.011698630710185e+00
 1.857141746001852e+00	 0.000000000000000e+00	 1.302427512076791e+01
 1.856759571494719e+00	 3.767382521750127e-02	 1.300519484940456e+01
 1.855600600138674e+00	 7.564219851058723e-02	 1.300054193260176e+01
 1.853646556696309e+00	 1.138844393100919e-01	 1.300638390822921e+01
 1.850879747983083e+00	 1.523787863054102e-01	 1.301929509758602e+01
 1.847283130465035e+00	 1.911024078630160e-01	 1.303607293083773e+01
 1.842840378669926e+00	 2.300314169725474e-01	 1.305487607572958e+01
 1.837535954094301e+00	 2.691408908935160e-01	 1.307571917116455e+01
 1.831355174265449e+00	 3.084048956531490e-01	 1.310086849205845e+01
 1.824284281595082e+00	 3.477965155203497e-01	 1.313539554706076e+01
 1.816310511641387e+00	 3.872878875523342e-01	 1.318795809769108e+01
 1.885713476800548e+00	 0.000000000000000e+00	 1.290846595422570e+01
 1.885325422619806e+00	 3.825342900728004e-02	 1.289615050178279e+01
 1.884148620735662e+00	 7.680593764927594e-02	 1.289262522936746e+01
 1.882164514750101e+00	 1.156365271907106e-01	 1.289592428235321e+01
 1.879355139272735e+00	 1.547231015278927e-01	 1.290437342834043e+01
 1.875703188558489e+00	 1.940424777675210e-01	 1.291677448554793e+01
 1.871192085971243e+00	 2.335704014027125e-01	 1.293265939565952e+01
 1.865806053951007e+00	 2.732815662619720e-01	 1.295263077102893e+01
 1.859530184138386e+00	 3.131496393839276e-01	 1.297880781987055e+01
 1.852350507287563e+00	 3.531472909447426e-01	 1.301539833792596e+01
 1.844254062578541e+00	 3.932462293362442e-01	 1.306994705799616e+01
 1.914285154266534e+00	 0.000000000000000e+00	 1.279281662654734e+01
 1.913891220423136e+00	 3.883303171535256e-02	 1.278936946394092e+01
 1.912696588044117e+00	 7.796967461605393e-02	 1.278942000327289e+01
 1.910682419571384e+00	 1.173886118013114e-01	 1.279275310042291e+01
 1.907830477409213e+00	 1.570674123749742e-01	 1.279920514187586e+01
 1.904123193601920e+00	 1.969825421846239e-01	 1.280880465015131e+01
 1.899543740349969e+00	 2.371093792275444e-01	 1.282198025162375e+01
 1.894076101037295e+00	 2.774222339019514e-01	 1.283985425540533e+01
 1.887705141418246e+00	 3.178943742586214e-01	 1.286464254167401e+01
 1.880416680589877e+00	 3.584980563817532e-01	 1.290018361865936e+01
 1.872197561354381e+00	 3.992045599985871e-01	 1.295509028907833e+01
 1.942856791732986e+00	 0.000000000000000e+00	 1.267843592909077e+01
 1.942456978235147e+00	 3.941263361214704e-02	 1.268492955737483e+01
 1.941244515386172e+00	 7.913340995390489e-02	 1.269006798891856e+01
 1.939200284468283e+00	 1.191406939594114e-01	 1.269518805968411e+01
 1.936305775680813e+00	 1.594117199405254e-01	 1.270145438477511e+01
 1.932543158857830e+00	 1.999226024862042e-01	 1.270995463123106e+01
 1.927895355036750e+00	 2.406483520984138e-01	 1.272185902940280e+01
 1.922346108545763e+00	 2.815628957456183e-01	 1.273866382424643e+01
 1.915880059253288e+00	 3.226391024913023e-01	 1.276254122944369e+01
 1.908482814599550e+00	 3.638488143282802e-01	 1.279682102216631e+01
 1.900141021009215e+00	 4.051628823198081e-01	 1.285089572330951e+01
 1.971428402533082e+00	 0.000000000000000e+00	 1.256600149184329e+01
 1.971022709386280e+00	 3.999223496809167e-02	 1.258264906871346e+01
 1.969792416083958e+00	 8.029714420581249e-02	 1.259359960205604e+01
 1.967718122748928e+00	 1.208927744825274e-01	 1.260156021575889e+01
 1.964781047375824e+00	 1.617560253184171e-01	 1.260886116865377e+01
 1.960963097588724e+00	 2.028626600441414e-01	 1.261750404560771e+01
 1.956246943262227e+00	 2.441873216666910e-01	 1.262927012969213e+01
 1.950616089669009e+00	 2.857035537251363e-01	 1.264591014284721e+01
 1.944054950791771e+00	 3.273838262960415e-01	 1.266943985425249e+01
 1.936548922414112e+00	 3.691995672812230e-01	 1.270256908544123e+01
 1.928084454583353e+00	 4.111211990803512e-01	 1.275553494178312e+01
 2.000000000000000e+00	 0.000000000000000e+00	 1.245579059037824e+01
 1.999588427206974e+00	 4.057183605361461e-02	 1.248211043474850e+01
 1.998340303459612e+00	 8.146087791476057e-02	 1.249895053723287e+01
 1.996235947721442e+00	 1.226448541881766e-01	 1.251022359210131e+01
 1.993256305782539e+00	 1.641003296025199e-01	 1.251928291612421e+01
 1.989383023057104e+00	 2.058027162303148e-01	 1.252892156791947e+01
 1.984598518257045e+00	 2.477262895837470e-01	 1.254142656056500e+01
 1.978886057599632e+00	 2.898442097726694e-01	 1.255871087371976e+01
 1.972229829181956e+00	 3.321285478869107e-01	 1.258254977446730e+01
 1.964615017131089e+00	 3.745503177374802e-01	 1.261500533262076e+01
 1.956027875117104e+00	 4.170795130606617e-01	 1.266679157012374e+01
 2.028571597466919e+00	 0.000000000000000e+00	 1.234770834591385e+01
 2.028154145027667e+00	 4.115143713914402e-02	 1.238268189715552e+01
 2.026888190835264e+00	 8.262461162373276e-02	 1.240497685661915e+01
 2.024753772693956e+00	 1.243969338938760e-01	 1.241956374316929e+01
 2.021731564189249e+00	 1.664446338867043e-01	 1.243069660533360e+01
 2.017802948525475e+00	 2.087427724166041e-01	 1.244186083606264e+01
 2.012950093251845e+00	 2.512652575009519e-01	 1.245576986123915e+01
 2.007156025530228e+00	 2.939848658203814e-01	 1.247443495889573e+01
 2.000404707572101e+00	 3.368732694779810e-01	 1.249933680388889e+01
 1.992681111848008e+00	 3.799010681939509e-01	 1.253197251989941e+01
 1.983971295650776e+00	 4.230378270411838e-01	 1.258260798079703e+01
 2.057143208267015e+00	 0.000000000000000e+00	 1.224131357201779e+01
 2.056719876178799e+00	 4.173103849510811e-02	 1.228353732443660e+01
 2.055436091533050e+00	 8.378834587571288e-02	 1.231046871686928e+01
 2.053271610974594e+00	 1.261490144171426e-01	 1.232800537320270e+01
 2.050206835884245e+00	 1.687889392648411e-01	 1.234120033104208e+01
 2.046222887256340e+00	 2.116828299748884e-01	 1.235415607417618e+01
 2.041301681477273e+00	 2.548042270696766e-01	 1.236995998129276e+01
 2.035426006653395e+00	 2.981255238004356e-01	 1.239068702945734e+01
 2.028579599110465e+00	 3.416179932833240e-01	 1.241750050990835e+01
 2.020747219662399e+00	 3.852518211475339e-01	 1.245133479764536e+01
 2.011914729224678e+00	 4.289961438023623e-01	 1.250108175890435e+01
 2.085714845733467e+00	 0.000000000000000e+00	 1.213584249370477e+01
 2.085285633990811e+00	 4.231064039193506e-02	 1.218367437695798e+01
 2.083984018875102e+00	 8.495208121368455e-02	 1.221416286476954e+01
 2.081789475871482e+00	 1.279010965754935e-01	 1.223401910132247e+01
 2.078682134155821e+00	 1.711332468308010e-01	 1.224901433833086e+01
 2.074642852512203e+00	 2.146228902770473e-01	 1.226381746036390e+01
 2.069653296163970e+00	 2.583431999412916e-01	 1.228186511965821e+01
 2.063696014161732e+00	 3.022661856449961e-01	 1.230529193008016e+01
 2.056754516945308e+00	 3.463627215170116e-01	 1.233495371951245e+01
 2.048813353671787e+00	 3.906025790951284e-01	 1.237109354411480e+01
 2.039858188879119e+00	 4.349544661246417e-01	 1.242046236476715e+01
 2.114286523199453e+00	 0.000000000000000e+00	 1.203023054026098e+01
 2.113851431794140e+00	 4.289024310005302e-02	 1.208193117193574e+01
 2.112531986183551e+00	 8.611581818063156e-02	 1.211475401828145e+01
 2.110307380692751e+00	 1.296531811864456e-01	 1.213612745385039e+01
 2.107157472292267e+00	 1.734775576784545e-01	 1.215248157895659e+01
 2.103062857555567e+00	 2.175629546949602e-01	 1.216902626339349e+01
 2.098004950542581e+00	 2.618821777671674e-01	 1.218955152723309e+01
 2.091966061247835e+00	 3.064068532862270e-01	 1.221627934766438e+01
 2.084929474224890e+00	 3.511074563931146e-01	 1.224980221333061e+01
 2.076879526973702e+00	 3.959533445336330e-01	 1.228938900629815e+01
 2.067801687654408e+00	 4.409127967884670e-01	 1.233914797476741e+01
 2.142858253998148e+00	 0.000000000000000e+00	 1.192313239164521e+01
 2.142417282919225e+00	 4.346984688989016e-02	 1.197700158848589e+01
 2.141080006780534e+00	 8.727955731953760e-02	 1.201090523714365e+01
 2.138825338746526e+00	 1.314052690675160e-01	 1.203291015611086e+01
 2.135632863581876e+00	 1.758218729016723e-01	 1.205006783502104e+01
 2.131482915648935e+00	 2.205030246005066e-01	 1.206812977001118e+01
 2.126356657843749e+00	 2.654211621986746e-01	 1.209127327651984e+01
 2.120236161104301e+00	 3.105475286562915e-01	 1.212186853427037e+01
 2.113104484097469e+00	 3.558522001257047e-01	 1.216032458999488e+01
 2.104945752665670e+00	 4.013041199599467e-01	 1.220449727857195e+01
 2.095745238590854e+00	 4.468711385742824e-01	 1.225568248388454e+01
 1.816310511641387e+00	 3.872878875523342e-01	 1.318795809769108e+01
 1.807422814898392e+00	 4.268474771885015e-01	 1.324329824309837e+01
 1.797610089706602e+00	 4.664484546081957e-01	 1.327993917726602e+01
 1.786862950515187e+00	 5.060604256063382e-01	 1.330193355934191e+01
 1.775173262985702e+00	 5.456522410355984e-01	 1.331382909149986e+01
 1.762534202895581e+00	 5.851920568998371e-01	 1.332053959689536e+01
 1.748940311874980e+00	 6.246473993408540e-01	 1.332722387739972e+01
 1.734387549535705e+00	 6.639852343500745e-01	 1.333917745611464e+01
 1.718873341558175e+00	 7.031720419935901e-01	 1.336174175449857e+01
 1.702396623314230e+00	 7.421738948956377e-01	 1.340019504461110e+01
 1.684957878620078e+00	 7.809565406827145e-01	 1.342919378958240e+01
 1.844254062578541e+00	 3.932462293362442e-01	 1.306994705799616e+01
 1.835229630511079e+00	 4.334144348453717e-01	 1.312738471730415e+01
 1.825265938629002e+00	 4.736246648803805e-01	 1.316534344668615e+01
 1.814353456986758e+00	 5.138460576277942e-01	 1.318830270793525e+01
 1.802483926100813e+00	 5.540469847172571e-01	 1.320126690512158e+01
 1.789650416759368e+00	 5.941951122395042e-01	 1.320962359364243e+01
 1.775847386616701e+00	 6.342574667329134e-01	 1.321901153997058e+01
 1.761070733124077e+00	 6.742005059676948e-01	 1.323520432994091e+01
 1.745317842356538e+00	 7.139901943128659e-01	 1.326401459212802e+01
 1.728587633306821e+00	 7.535920824271836e-01	 1.330836109299725e+01
 1.710880597234519e+00	 7.929713909716419e-01	 1.333362428756760e+01
 1.872197561354381e+00	 3.992045599985871e-01	 1.295509028907833e+01
 1.863036394217573e+00	 4.399813802445118e-01	 1.301524129812794e+01
 1.852921735926916e+00	 4.808008617574676e-01	 1.305656859016581e+01
 1.841843912142404e+00	 5.216316751164568e-01	 1.308245131559055e+01
 1.829794538235650e+00	 5.624417127289971e-01	 1.309772504215360e+01
 1.816766580005814e+00	 6.031981507736139e-01	 1.310837518871597e+01
 1.802754411131447e+00	 6.438675161862026e-01	 1.312063675900637e+01
 1.787753866903399e+00	 6.844157585167091e-01	 1.314086452646496e+01
 1.771762293791397e+00	 7.248083264380440e-01	 1.317543103451612e+01
 1.754778594409110e+00	 7.650102486444621e-01	 1.322112554729339e+01
 1.736803267459500e+00	 8.049862188324427e-01	 1.324321354398984e+01
 1.900141021009215e+00	 4.051628823198081e-01	 1.285089572330951e+01
 1.890843118994394e+00	 4.465483164504029e-01	 1.291121781406304e+01
 1.880577494506431e+00	 4.879770485882723e-01	 1.295386996840499e+01
 1.869334328811065e+00	 5.294172817055537e-01	 1.298243940874152e+01
 1.857105112135230e+00	 5.708364289883130e-01	 1.300115728669942e+01
 1.843882705289193e+00	 6.122011767035577e-01	 1.301499404385978e+01
 1.829661397975898e+00	 6.534775521854009e-01	 1.303047264211205e+01
 1.814436963325859e+00	 6.946309967642412e-01	 1.305464563832886e+01
 1.798206708203550e+00	 7.356264434176079e-01	 1.309453007229678e+01
 1.780969518843590e+00	 7.764283988759874e-01	 1.313787857858206e+01
 1.762725901392302e+00	 8.170010298720873e-01	 1.315733167356109e+01
 1.928084454583353e+00	 4.111211990803512e-01	 1.275553494178312e+01
 1.918649817818067e+00	 4.531152465275261e-01	 1.281495342048539e+01
 1.908233227273636e+00	 4.951532287216086e-01	 1.285782265345109e+01
 1.896824719821681e+00	 5.372028810283127e-01	 1.288784437925651e+01
 1.884415660544573e+00	 5.792311374127020e-01	 1.290935090064698e+01
 1.870998805263785e+00	 6.212041942307266e-01	 1.292728574229122e+01
 1.856568359706731e+00	 6.630875792151879e-01	 1.294715868707260e+01
 1.841120034843649e+00	 7.048462254774153e-01	 1.297540163668575e+01
 1.824651097933797e+00	 7.464445503000406e-01	 1.301982203229795e+01
 1.807160418832757e+00	 7.878465384502737e-01	 1.305842529604832e+01
 1.788648511130207e+00	 8.290158296975462e-01	 1.307575878550490e+01
 1.956027875117104e+00	 4.170795130606617e-01	 1.266679157012374e+01
 1.946456503665112e+00	 4.596821735403619e-01	 1.272457627370216e+01
 1.935888947134617e+00	 5.023294055062915e-01	 1.276689290420583e+01
 1.924315098003190e+00	 5.449884767179609e-01	 1.279756149986360e+01
 1.911726196208697e+00	 5.876258419196601e-01	 1.282101731915204e+01
 1.898114892583867e+00	 6.302072075565122e-01	 1.284230817141642e+01
 1.883475308880623e+00	 6.726976017602436e-01	 1.286706416096150e+01
 1.867803093908958e+00	 7.150614494233548e-01	 1.290143235925922e+01
 1.851095475322934e+00	 7.572626521338254e-01	 1.294864469221876e+01
 1.833351306599104e+00	 7.992646726958358e-01	 1.298295117826760e+01
 1.814571108770497e+00	 8.410306239157899e-01	 1.299864709582234e+01
 1.983971295650776e+00	 4.230378270411838e-01	 1.258260798079703e+01
 1.974263189512053e+00	 4.662491005533916e-01	 1.263837710188828e+01
 1.963544666995464e+00	 5.095055822911356e-01	 1.267971423693196e+01
 1.951805476184532e+00	 5.527740724077266e-01	 1.271055044566585e+01
 1.939036731872620e+00	 5.960205464266828e-01	 1.273541525478906e+01
 1.925230979903715e+00	 6.392102208823045e-01	 1.275945244489003e+01
 1.910382258054252e+00	 6.823076243052468e-01	 1.278840609254708e+01
 1.894486152973978e+00	 7.252766733691832e-01	 1.282856842348418e+01
 1.877539852711759e+00	 7.680807539674455e-01	 1.287834683249019e+01
 1.859542194365125e+00	 8.106828069411878e-01	 1.291171593206351e+01
 1.840493706410456e+00	 8.530454181337890e-01	 1.292648319698441e+01
 2.011914729224678e+00	 4.289961438023623e-01	 1.250108175890435e+01
 2.002069888335410e+00	 4.728160306310959e-01	 1.255480607322584e+01
 1.991200399762263e+00	 5.166817624249557e-01	 1.259508447841851e+01
 1.979295867194646e+00	 5.605596717308375e-01	 1.262594053441635e+01
 1.966347280281362e+00	 6.044152548512669e-01	 1.265197871218607e+01
 1.952347079877608e+00	 6.482132384094956e-01	 1.267842061510127e+01
 1.937289219784295e+00	 6.919176513348770e-01	 1.271110908823288e+01
 1.921169224490899e+00	 7.354919020820255e-01	 1.275647073257795e+01
 1.903984242441071e+00	 7.788988608493848e-01	 1.280660980184730e+01
 1.885733094353314e+00	 8.221009465148437e-01	 1.284103664536109e+01
 1.866416316147365e+00	 8.650602179585146e-01	 1.285900997453614e+01
 2.039858188879119e+00	 4.349544661246417e-01	 1.242046236476715e+01
 2.029876613111707e+00	 4.793829668379558e-01	 1.247246979337260e+01
 2.018856158341103e+00	 5.238579492565666e-01	 1.251196289181808e+01
 2.006786283862470e+00	 5.683452783205212e-01	 1.254302775786023e+01
 1.993657854179940e+00	 6.128099711109080e-01	 1.257031368732567e+01
 1.979463205159823e+00	 6.572162643394763e-01	 1.259909200928450e+01
 1.964196206627429e+00	 7.015276873338142e-01	 1.263528021638250e+01
 1.947852320911910e+00	 7.457071403290042e-01	 1.268520746499533e+01
 1.930428656851669e+00	 7.897169778281263e-01	 1.273439425311091e+01
 1.911924018786166e+00	 8.335190967453181e-01	 1.277027658650428e+01
 1.892338950078508e+00	 8.770750289969373e-01	 1.279224384235737e+01
 2.067801687654408e+00	 4.409127967884670e-01	 1.233914797476741e+01
 2.057683376817465e+00	 4.859499122384522e-01	 1.239012842011422e+01
 2.046511955638071e+00	 5.310341461347829e-01	 1.242946736837658e+01
 2.034276739016944e+00	 5.761308958100052e-01	 1.246127183839234e+01
 2.020968466313373e+00	 6.212046991231025e-01	 1.249019486320994e+01
 2.006579368404637e+00	 6.662193028736376e-01	 1.252151932632928e+01
 1.991103231140334e+00	 7.111377367867371e-01	 1.256120425747405e+01
 1.974535454689202e+00	 7.559223928772436e-01	 1.261410435192038e+01
 1.956873108284349e+00	 8.005351099521534e-01	 1.266278029592946e+01
 1.938114979886175e+00	 8.449372629611253e-01	 1.270051143802072e+01
 1.918261620301166e+00	 8.890898568560276e-01	 1.272656879640234e+01
 2.095745238590854e+00	 4.468711385742824e-01	 1.225568248388454e+01
 2.085490192429206e+00	 4.925168698970659e-01	 1.230669288434868e+01
 2.074167804559254e+00	 5.382103564084193e-01	 1.234687167899443e+01
 2.061767245487008e+00	 5.839165278325172e-01	 1.238029330875874e+01
 2.048279129426679e+00	 6.295994428053462e-01	 1.241156230231561e+01
 2.033695582266328e+00	 6.752223582133707e-01	 1.244592471545661e+01
 2.018010305879684e+00	 7.207478041783255e-01	 1.248933893328627e+01
 2.001218638274965e+00	 7.661376644938676e-01	 1.254404612697521e+01
 1.983317609079911e+00	 8.113532622699491e-01	 1.259296070739010e+01
 1.964305989875834e+00	 8.563554504907797e-01	 1.263293610069855e+01
 1.944184338912621e+00	 9.011047071427563e-01	 1.266313080541349e+01
 1.684957878620078e+00	 7.809565406827145e-01	 1.342919378958240e+01
 1.666557853499554e+00	 8.194881737565801e-01	 1.343110657590129e+01
 1.647201420358750e+00	 8.577314140350094e-01	 1.341350521176374e+01
 1.626893898619235e+00	 8.956515450265826e-01	 1.337740634923708e+01
 1.605642255769965e+00	 9.332138871427991e-01	 1.332422414183502e+01
 1.583455116565279e+00	 9.703838941389810e-01	 1.325605587324600e+01
 1.560342765520799e+00	 1.007127250923794e+00	 1.317602226773851e+01
 1.536317142542932e+00	 1.043409972197705e+00	 1.308865938361124e+01
 1.511391831577175e+00	 1.079198501361031e+00	 1.300035641339942e+01
 1.485582042212313e+00	 1.114459809117642e+00	 1.291975516969249e+01
 1.458904584231411e+00	 1.149161491191272e+00	 1.284430959255885e+01
 1.710880597234519e+00	 7.929713909716419e-01	 1.333362428756760e+01
 1.692197491640870e+00	 8.320958250256214e-01	 1.333479777092577e+01
 1.672543263892895e+00	 8.709274294222861e-01	 1.331896873838261e+01
 1.651923315250340e+00	 9.094309535643897e-01	 1.328695425288341e+01
 1.630344720395502e+00	 9.475711843253477e-01	 1.323986484877802e+01
 1.607816236772740e+00	 9.853130439738669e-01	 1.317940367068723e+01
 1.584348307122767e+00	 1.022621689488241e+00	 1.310822742615302e+01
 1.559953055044917e+00	 1.059462612712344e+00	 1.303036628570953e+01
 1.534644273470807e+00	 1.095801740785352e+00	 1.295169702241882e+01
 1.508437405985517e+00	 1.131605536262452e+00	 1.287815233527741e+01
 1.481349520987057e+00	 1.166841096334489e+00	 1.280601301491351e+01
 1.736803267459500e+00	 8.049862188324427e-01	 1.324321354398984e+01
 1.717837081921181e+00	 8.447034527599028e-01	 1.324395750795093e+01
 1.697885060121966e+00	 8.841234201764701e-01	 1.322976621745945e+01
 1.676952685159619e+00	 9.232103363800669e-01	 1.320129530756020e+01
 1.655047138909579e+00	 9.619284547070215e-01	 1.315938611414661e+01
 1.632177311505969e+00	 1.000242165940413e+00	 1.310537737272494e+01
 1.608353803914299e+00	 1.038116099129151e+00	 1.304148641348150e+01
 1.583588923426484e+00	 1.075515223261489e+00	 1.297125728128880e+01
 1.557896671959866e+00	 1.112404949216425e+00	 1.290006456226929e+01
 1.531292727095384e+00	 1.148751231401410e+00	 1.282947415333349e+01
 1.503794415845505e+00	 1.184520668475332e+00	 1.275789416951674e+01
 1.762725901392302e+00	 8.170010298720873e-01	 1.315733167356109e+01
 1.743476636305657e+00	 8.573110628430486e-01	 1.315791254662196e+01
 1.723226820872152e+00	 8.973193924557673e-01	 1.314522558469077e+01
 1.701982020027454e+00	 9.369896999040808e-01	 1.311980747819623e+01
 1.679749522839990e+00	 9.762857049879758e-01	 1.308226761601271e+01
 1.656538352133463e+00	 1.015171267005648e+00	 1.303361120892660e+01
 1.632359267097950e+00	 1.053610487077358e+00	 1.297564018466515e+01
 1.607224758717692e+00	 1.091567811336469e+00	 1.291142964708710e+01
 1.581149037895460e+00	 1.129008134402526e+00	 1.284508861871346e+01
 1.554148016207720e+00	 1.165896902535952e+00	 1.277597269060293e+01
 1.526239279281034e+00	 1.202200215864372e+00	 1.270451477604005e+01
 1.788648511130207e+00	 8.290158296975462e-01	 1.307575878550490e+01
 1.769116166759466e+00	 8.699186611586822e-01	 1.307639576282721e+01
 1.748568557969642e+00	 9.105153524183829e-01	 1.306507528379600e+01
 1.727011331534228e+00	 9.507690505668976e-01	 1.304226266600111e+01
 1.704451883714535e+00	 9.906429418683662e-01	 1.300837613911677e+01
 1.680899370023719e+00	 1.030100354136599e+00	 1.296412005926644e+01
 1.656364707876279e+00	 1.069104860563694e+00	 1.291090480691587e+01
 1.630860571948602e+00	 1.107620384428615e+00	 1.285135160038007e+01
 1.604401382128696e+00	 1.145611304091932e+00	 1.278778952686512e+01
 1.577003283988331e+00	 1.183042557667512e+00	 1.271982620921775e+01
 1.548684121767921e+00	 1.219879746752182e+00	 1.264825172121217e+01
 1.814571108770497e+00	 8.410306239157899e-01	 1.299864709582234e+01
 1.794755685247777e+00	 8.825262535904279e-01	 1.299950505631320e+01
 1.773910283240627e+00	 9.237113062225214e-01	 1.298940036418869e+01
 1.752040631360323e+00	 9.645483947989817e-01	 1.296878041048867e+01
 1.729154233061010e+00	 1.005000172048349e+00	 1.293791731193869e+01
 1.705260376545236e+00	 1.045029434300290e+00	 1.289724966978195e+01
 1.680370137451841e+00	 1.084599226818992e+00	 1.284782060645063e+01
 1.654496374149275e+00	 1.123672950029256e+00	 1.279171987108652e+01
 1.627653715510682e+00	 1.162214466032919e+00	 1.273012131827030e+01
 1.599858541103024e+00	 1.200188204797525e+00	 1.266315349708823e+01
 1.571128953780444e+00	 1.237559269389335e+00	 1.259141455511059e+01
 1.840493706410456e+00	 8.530454181337890e-01	 1.292648319698441e+01
 1.820395203735760e+00	 8.951338460219088e-01	 1.292766249437569e+01
 1.799252008511294e+00	 9.369072600263892e-01	 1.291859887290227e+01
 1.777069931186121e+00	 9.783277390307988e-01	 1.289978192401298e+01
 1.753856582407214e+00	 1.019357402228078e+00	 1.287138769526396e+01
 1.729621383066509e+00	 1.059958514463750e+00	 1.283362722016290e+01
 1.704375567027192e+00	 1.100093593074085e+00	 1.278720164986797e+01
 1.678132176349771e+00	 1.139725515629723e+00	 1.273372091320492e+01
 1.650906048892523e+00	 1.178817627973761e+00	 1.267399631278282e+01
 1.622713798217603e+00	 1.217333851927424e+00	 1.260802837840840e+01
 1.593573785792883e+00	 1.255238792026402e+00	 1.253626111635140e+01
 1.866416316147365e+00	 8.650602179585146e-01	 1.285900997453614e+01
 1.846034734188584e+00	 9.077414443367493e-01	 1.286157366817233e+01
 1.824593745607836e+00	 9.501032199881912e-01	 1.285333851155474e+01
 1.802099242692003e+00	 9.921070896928154e-01	 1.283594442578681e+01
 1.778558943280943e+00	 1.033714639107710e+00	 1.280952718728200e+01
 1.753982400956037e+00	 1.074887601594005e+00	 1.277411220819048e+01
 1.728381007804889e+00	 1.115587966559807e+00	 1.273009530533657e+01
 1.701767989580150e+00	 1.155778088721344e+00	 1.267909058271193e+01
 1.674158393125326e+00	 1.195420797662737e+00	 1.262129887962108e+01
 1.645569065997876e+00	 1.234479507058645e+00	 1.255649438684080e+01
 1.616018628279513e+00	 1.272918322913956e+00	 1.248501316563132e+01
 1.892338950078508e+00	 8.770750289969373e-01	 1.279224384235737e+01
 1.871674288571418e+00	 9.203490544185731e-01	 1.280018657776244e+01
 1.849935506356439e+00	 9.632991922661320e-01	 1.279451353221229e+01
 1.827128577558354e+00	 1.005886453215496e+00	 1.277815574583690e+01
 1.803261327209995e+00	 1.048071889387401e+00	 1.275327171394357e+01
 1.778343441582318e+00	 1.089816702658083e+00	 1.271974761964265e+01
 1.752386470987488e+00	 1.131082354506989e+00	 1.267796506210330e+01
 1.725403824870472e+00	 1.171830676795451e+00	 1.262956171486436e+01
 1.697410759060200e+00	 1.212023982848121e+00	 1.257389939852657e+01
 1.668424355109646e+00	 1.251625178192622e+00	 1.251057958587295e+01
 1.638463491714616e+00	 1.290597870302570e+00	 1.243987210228472e+01
 1.918261620301166e+00	 8.890898568560276e-01	 1.272656879640234e+01
 1.897313878849430e+00	 9.329566821510041e-01	 1.273999773402365e+01
 1.875277302583296e+00	 9.764951830184179e-01	 1.274036924037142e+01
 1.852157947465554e+00	 1.019665836029307e+00	 1.272746879162210e+01
 1.827963745722167e+00	 1.062429159767305e+00	 1.270370617654718e+01
 1.802704516313848e+00	 1.104745824623009e+00	 1.267171135553065e+01
 1.776391967777545e+00	 1.146576764146466e+00	 1.263244930439043e+01
 1.749039693250798e+00	 1.187883287343372e+00	 1.258686456889868e+01
 1.720663157548250e+00	 1.228627191278190e+00	 1.253366840222511e+01
 1.691279676218723e+00	 1.268770873330791e+00	 1.247231152253482e+01
 1.660908386572466e+00	 1.308277442442816e+00	 1.240303475609047e+01
 1.944184338912621e+00	 9.011047071427563e-01	 1.266313080541349e+01
 1.922953516987790e+00	 9.455643334176658e-01	 1.268192022498161e+01
 1.900619146114594e+00	 9.896911984032537e-01	 1.268823051366895e+01
 1.877187364093985e+00	 1.033445244564713e+00	 1.268176817104759e+01
 1.852666210345257e+00	 1.076786456947578e+00	 1.266201456243863e+01
 1.827065636519126e+00	 1.119674974455812e+00	 1.263136120983777e+01
 1.800397509377619e+00	 1.162071202709070e+00	 1.259516405180203e+01
 1.772675605751188e+00	 1.203935927856437e+00	 1.255274039647140e+01
 1.743915599440585e+00	 1.245230430701220e+00	 1.250249088341976e+01
 1.714135039990909e+00	 1.285916600474584e+00	 1.244373230215946e+01
 1.683353323327345e+00	 1.325957047585265e+00	 1.237670924740989e+01
 1.458904584231411e+00	 1.149161491191272e+00	 1.284430959255885e+01
 1.431377831089855e+00	 1.183271867779027e+00	 1.274291293427664e+01
 1.403021668361464e+00	 1.216760087350500e+00	 1.259685379592780e+01
 1.373857459868217e+00	 1.249596208510468e+00	 1.241378623582972e+01
 1.343907999171839e+00	 1.281751285092530e+00	 1.220076573749908e+01
 1.313197450729555e+00	 1.313197450729556e+00	 1.196434084939626e+01
 1.281751285092530e+00	 1.343907999171839e+00	 1.171066659639256e+01
 1.249596208510468e+00	 1.373857459868218e+00	 1.144563182036381e+01
 1.216760087350499e+00	 1.403021668361465e+00	 1.117499197376352e+01
 1.183271867779027e+00	 1.431377831089855e+00	 1.090449862508730e+01
 1.149161491191272e+00	 1.458904584231411e+00	 1.064001705248808e+01
 1.481349520987057e+00	 1.166841096334489e+00	 1.280601301491351e+01
 1.453399274602523e+00	 1.201476253811551e+00	 1.270867445553592e+01
 1.424606858341064e+00	 1.235479682518991e+00	 1.256533230037933e+01
 1.394993964702520e+00	 1.268820980419588e+00	 1.238448006663810e+01
 1.364583737922718e+00	 1.301470756016321e+00	 1.217397892647302e+01
 1.333400714223925e+00	 1.333400714223926e+00	 1.194116187733553e+01
 1.301470756016321e+00	 1.364583737922719e+00	 1.169296201443432e+01
 1.268820980419588e+00	 1.394993964702520e+00	 1.143605617522290e+01
 1.235479682518990e+00	 1.424606858341064e+00	 1.117701452084212e+01
 1.201476253811550e+00	 1.453399274602524e+00	 1.092244632141062e+01
 1.166841096334489e+00	 1.481349520987058e+00	 1.067913233621471e+01
 1.503794415845505e+00	 1.184520668475332e+00	 1.275789416951674e+01
 1.475420677008507e+00	 1.219680605862163e+00	 1.266326801659567e+01
 1.446192008028296e+00	 1.254199242743907e+00	 1.252377096994581e+01
 1.416130430081964e+00	 1.288045716442199e+00	 1.234643157254594e+01
 1.385259438078790e+00	 1.321190190130227e+00	 1.213990652437014e+01
 1.353603940005389e+00	 1.353603940005389e+00	 1.191229387290266e+01
 1.321190190130227e+00	 1.385259438078791e+00	 1.167127861523592e+01
 1.288045716442198e+00	 1.416130430081964e+00	 1.142429532473169e+01
 1.254199242743907e+00	 1.446192008028297e+00	 1.117869731441754e+01
 1.219680605862163e+00	 1.475420677008507e+00	 1.094192151406819e+01
 1.184520668475332e+00	 1.503794415845506e+00	 1.071190354523343e+01
 1.526239279281034e+00	 1.202200215864372e+00	 1.270451477604005e+01
 1.497442048584460e+00	 1.237884932426327e+00	 1.260968493027042e+01
 1.467777127496240e+00	 1.272918776761132e+00	 1.247412214154163e+01
 1.437266865870256e+00	 1.307270425549920e+00	 1.230156642790828e+01
 1.405935109288751e+00	 1.340909596636712e+00	 1.210040515299467e+01
 1.373807137502167e+00	 1.373807137502167e+00	 1.187948346784944e+01
 1.340909596636711e+00	 1.405935109288752e+00	 1.164721329945547e+01
 1.307270425549920e+00	 1.437266865870257e+00	 1.141175781390483e+01
 1.272918776761131e+00	 1.467777127496241e+00	 1.118122313993726e+01
 1.237884932426326e+00	 1.497442048584461e+00	 1.095968002639035e+01
 1.202200215864373e+00	 1.526239279281035e+00	 1.073108075364274e+01
 1.548684121767921e+00	 1.219879746752182e+00	 1.264825172121217e+01
 1.519463399607041e+00	 1.256089241999505e+00	 1.255305245183739e+01
 1.489362226817979e+00	 1.291638293306547e+00	 1.241880665614061e+01
 1.458403281931104e+00	 1.326495116714370e+00	 1.225203880618764e+01
 1.426610761201296e+00	 1.360628984738242e+00	 1.205755418823889e+01
 1.394010316142480e+00	 1.394010316142481e+00	 1.184469679679191e+01
 1.360628984738242e+00	 1.426610761201297e+00	 1.162258122580391e+01
 1.326495116714370e+00	 1.458403281931105e+00	 1.140007069171824e+01
 1.291638293306546e+00	 1.489362226817979e+00	 1.118517141258289e+01
 1.256089241999504e+00	 1.519463399607041e+00	 1.096730426276673e+01
 1.219879746752182e+00	 1.548684121767921e+00	 1.074072451107162e+01
 1.571128953780444e+00	 1.237559269389335e+00	 1.259141455511059e+01
 1.541484740352902e+00	 1.274293543077157e+00	 1.249600812925936e+01
 1.510947316066591e+00	 1.310357801116036e+00	 1.236279578350293e+01
 1.479539688128214e+00	 1.345719798907169e+00	 1.220021747551552e+01
 1.447286403465122e+00	 1.380348363637284e+00	 1.201364318385497e+01
 1.414213485354551e+00	 1.414213485354552e+00	 1.181010821058312e+01
 1.380348363637283e+00	 1.447286403465122e+00	 1.159940577405546e+01
 1.345719798907169e+00	 1.479539688128214e+00	 1.139107068209772e+01
 1.310357801116035e+00	 1.510947316066592e+00	 1.118404847084790e+01
 1.274293543077157e+00	 1.541484740352903e+00	 1.096864188254832e+01
 1.237559269389335e+00	 1.571128953780445e+00	 1.074515484699520e+01
 1.593573785792883e+00	 1.255238792026402e+00	 1.253626111635140e+01
 1.563506081098702e+00	 1.292497844154748e+00	 1.244098198362717e+01
 1.532532405315159e+00	 1.329077308925479e+00	 1.230933746147138e+01
 1.500676094325292e+00	 1.364944481099937e+00	 1.214988890207218e+01
 1.467962045728922e+00	 1.400067742536300e+00	 1.197115915566473e+01
 1.434416654566601e+00	 1.434416654566602e+00	 1.177808881724456e+01
 1.400067742536299e+00	 1.467962045728923e+00	 1.157990831177005e+01
 1.364944481099937e+00	 1.500676094325291e+00	 1.138341326477643e+01
 1.329077308925479e+00	 1.532532405315160e+00	 1.118001027010605e+01
 1.292497844154748e+00	 1.563506081098702e+00	 1.096840856175259e+01
 1.255238792026402e+00	 1.593573785792883e+00	 1.074892443504372e+01
 1.616018628279513e+00	 1.272918322913956e+00	 1.248501316563132e+01
 1.585527432121095e+00	 1.310702153727739e+00	 1.239036049718756e+01
 1.554117504636764e+00	 1.347796825470761e+00	 1.226094053733365e+01
 1.521812510386044e+00	 1.384169172264292e+00	 1.210539105946005e+01
 1.488637697641396e+00	 1.419787130637759e+00	 1.193292085853611e+01
 1.454619833206850e+00	 1.454619833206851e+00	 1.175119486726825e+01
 1.419787130637757e+00	 1.488637697641396e+00	 1.156617730651804e+01
 1.384169172264292e+00	 1.521812510386045e+00	 1.137631429572805e+01
 1.347796825470761e+00	 1.554117504636765e+00	 1.117810546222099e+01
 1.310702153727739e+00	 1.585527432121096e+00	 1.097151927319003e+01
 1.272918322913956e+00	 1.616018628279513e+00	 1.075679195125668e+01
 1.638463491714616e+00	 1.290597870302570e+00	 1.243987210228472e+01
 1.607548803696737e+00	 1.328906480291591e+00	 1.234650313508986e+01
 1.575702624104487e+00	 1.366516359487763e+00	 1.222007994672278e+01
 1.542948946174178e+00	 1.403393881371855e+00	 1.206928649216840e+01
 1.509313368851237e+00	 1.439506537144124e+00	 1.190344568020806e+01
 1.474823030703521e+00	 1.474823030703521e+00	 1.173215599827946e+01
 1.439506537144123e+00	 1.509313368851237e+00	 1.155775599860503e+01
 1.403393881371855e+00	 1.542948946174179e+00	 1.137505863630143e+01
 1.366516359487763e+00	 1.575702624104488e+00	 1.118354938779663e+01
 1.328906480291591e+00	 1.607548803696738e+00	 1.098306061210471e+01
 1.290597870302570e+00	 1.638463491714616e+00	 1.077369525539452e+01
 1.660908386572466e+00	 1.308277442442816e+00	 1.240303475609047e+01
 1.629570206102284e+00	 1.347110832341768e+00	 1.231175888434926e+01
 1.597287773791408e+00	 1.385235919712369e+00	 1.218921380323543e+01
 1.564085411553401e+00	 1.422618617394244e+00	 1.204410135720658e+01
 1.529989069007141e+00	 1.459225971257861e+00	 1.188583553626422e+01
 1.495026256484834e+00	 1.495026256484834e+00	 1.172384617100543e+01
 1.459225971257860e+00	 1.529989069007141e+00	 1.155884386477406e+01
 1.422618617394244e+00	 1.564085411553402e+00	 1.138510562755456e+01
 1.385235919712368e+00	 1.597287773791408e+00	 1.120169547657452e+01
 1.347110832341767e+00	 1.629570206102285e+00	 1.100826296018479e+01
 1.308277442442816e+00	 1.660908386572467e+00	 1.080472441190833e+01
 1.683353323327345e+00	 1.325957047585265e+00	 1.237670924740989e+01
 1.651591649614392e+00	 1.365315218373729e+00	 1.228848280849696e+01
 1.618872963770608e+00	 1.403955514880460e+00	 1.217080045956871e+01
 1.585221916387419e+00	 1.441843389303079e+00	 1.203235551627857e+01
 1.550664807757804e+00	 1.478945442181437e+00	 1.188263281988495e+01
 1.515229519979011e+00	 1.515229519979012e+00	 1.173022185457743e+01
 1.478945442181437e+00	 1.550664807757805e+00	 1.157509479820459e+01
 1.441843389303079e+00	 1.585221916387419e+00	 1.141202070282551e+01
 1.403955514880459e+00	 1.618872963770609e+00	 1.123800650323133e+01
 1.365315218373729e+00	 1.651591649614392e+00	 1.105247250286765e+01
 1.325957047585266e+00	 1.683353323327345e+00	 1.085509456534758e+01
 1.149161491191272e+00	 1.458904584231411e+00	 1.064001705248808e+01
 1.114459809117642e+00	 1.485582042212313e+00	 1.038741444450229e+01
 1.079198501361031e+00	 1.511391831577175e+00	 1.013123999504919e+01
 1.043409972197705e+00	 1.536317142542933e+00	 9.862535596927506e+00
 1.007127250923793e+00	 1.560342765520800e+00	 9.581444555041543e+00
 9.703838941389803e-01	 1.583455116565279e+00	 9.288428040198227e+00
 9.332138871427986e-01	 1.605642255769965e+00	 8.984371281876044e+00
 8.956515450265821e-01	 1.626893898619235e+00	 8.670629684969013e+00
 8.577314140350092e-01	 1.647201420358751e+00	 8.349036664603901e+00
 8.194881737565793e-01	 1.666557853499554e+00	 8.021875231716606e+00
 7.809565406827144e-01	 1.684957878620077e+00	 7.691816551324354e+00
 1.166841096334489e+00	 1.481349520987058e+00	 1.067913233621471e+01
 1.131605536262451e+00	 1.508437405985517e+00	 1.043774436932482e+01
 1.095801740785352e+00	 1.534644273470807e+00	 1.018244060741822e+01
 1.059462612712343e+00	 1.559953055044917e+00	 9.915402403591241e+00
 1.022621689488240e+00	 1.584348307122768e+00	 9.637209921288644e+00
 9.853130439738663e-01	 1.607816236772741e+00	 9.348058905316549e+00
 9.475711843253468e-01	 1.630344720395503e+00	 9.048675084784620e+00
 9.094309535643892e-01	 1.651923315250341e+00	 8.740362751901710e+00
 8.709274294222854e-01	 1.672543263892896e+00	 8.425010684506535e+00
 8.320958250256207e-01	 1.692197491640871e+00	 8.105057749119926e+00
 7.929713909716419e-01	 1.710880597234519e+00	 7.783421825132788e+00
 1.184520668475332e+00	 1.503794415845506e+00	 1.071190354523343e+01
 1.148751231401410e+00	 1.531292727095384e+00	 1.047188404132804e+01
 1.112404949216425e+00	 1.557896671959867e+00	 1.021937958152003e+01
 1.075515223261488e+00	 1.583588923426483e+00	 9.954378295419421e+00
 1.038116099129150e+00	 1.608353803914299e+00	 9.679062055667531e+00
 1.000242165940413e+00	 1.632177311505970e+00	 9.393400959735441e+00
 9.619284547070207e-01	 1.655047138909579e+00	 9.098008930557244e+00
 9.232103363800662e-01	 1.676952685159620e+00	 8.794197870522623e+00
 8.841234201764697e-01	 1.697885060121966e+00	 8.483980745351115e+00
 8.447034527599022e-01	 1.717837081921181e+00	 8.170029961058880e+00
 8.049862188324428e-01	 1.736803267459500e+00	 7.855595136813843e+00
 1.202200215864373e+00	 1.526239279281035e+00	 1.073108075364274e+01
 1.165896902535952e+00	 1.554148016207721e+00	 1.049340563516630e+01
 1.129008134402526e+00	 1.581149037895461e+00	 1.024473626296628e+01
 1.091567811336468e+00	 1.607224758717692e+00	 9.982738659320971e+00
 1.053610487077357e+00	 1.632359267097951e+00	 9.710185020871442e+00
 1.015171267005648e+00	 1.656538352133463e+00	 9.427513575922646e+00
 9.762857049879752e-01	 1.679749522839991e+00	 9.135275177060993e+00
 9.369896999040801e-01	 1.701982020027454e+00	 8.834850068775944e+00
 8.973193924557665e-01	 1.723226820872152e+00	 8.528447137766250e+00
 8.573110628430480e-01	 1.743476636305657e+00	 8.219053731219356e+00
 8.170010298720872e-01	 1.762725901392302e+00	 7.910340654450602e+00
 1.219879746752182e+00	 1.548684121767921e+00	 1.074072451107162e+01
 1.183042557667511e+00	 1.577003283988331e+00	 1.050617235899620e+01
 1.145611304091932e+00	 1.604401382128697e+00	 1.026163408292579e+01
 1.107620384428614e+00	 1.630860571948602e+00	 1.000383401610108e+01
 1.069104860563693e+00	 1.656364707876279e+00	 9.733834604372115e+00
 1.030100354136598e+00	 1.680899370023719e+00	 9.453522380423168e+00
 9.906429418683659e-01	 1.704451883714535e+00	 9.163435127659948e+00
 9.507690505668969e-01	 1.727011331534229e+00	 8.865084441354600e+00
 9.105153524183822e-01	 1.748568557969642e+00	 8.560950077668195e+00
 8.699186611586814e-01	 1.769116166759466e+00	 8.254419786567983e+00
 8.290158296975461e-01	 1.788648511130207e+00	 7.949679798026589e+00
 1.237559269389335e+00	 1.571128953780445e+00	 1.074515484699520e+01
 1.200188204797524e+00	 1.599858541103024e+00	 1.051431317547307e+01
 1.162214466032918e+00	 1.627653715510682e+00	 1.027399109759425e+01
 1.123672950029255e+00	 1.654496374149276e+00	 1.002081964574631e+01
 1.084599226818991e+00	 1.680370137451841e+00	 9.753356452430729e+00
 1.045029434300289e+00	 1.705260376545236e+00	 9.474636904406189e+00
 1.005000172048349e+00	 1.729154233061010e+00	 9.185526091348770e+00
 9.645483947989809e-01	 1.752040631360324e+00	 8.887732513515772e+00
 9.237113062225210e-01	 1.773910283240627e+00	 8.584085270098686e+00
 8.825262535904271e-01	 1.794755685247778e+00	 8.278462380886083e+00
 8.410306239157896e-01	 1.814571108770497e+00	 7.975664906656004e+00
 1.255238792026402e+00	 1.593573785792883e+00	 1.074892443504372e+01
 1.217333851927423e+00	 1.622713798217603e+00	 1.052219730991356e+01
 1.178817627973761e+00	 1.650906048892523e+00	 1.028597444019883e+01
 1.139725515629722e+00	 1.678132176349771e+00	 1.003684894403600e+01
 1.100093593074084e+00	 1.704375567027192e+00	 9.772204004038652e+00
 1.059958514463749e+00	 1.729621383066509e+00	 9.494168041089754e+00
 1.019357402228078e+00	 1.753856582407214e+00	 9.204678258606801e+00
 9.783277390307985e-01	 1.777069931186121e+00	 8.905708431781202e+00
 9.369072600263886e-01	 1.799252008511295e+00	 8.600519313835733e+00
 8.951338460219084e-01	 1.820395203735761e+00	 8.293573816087722e+00
 8.530454181337890e-01	 1.840493706410456e+00	 7.990392784101067e+00
 1.272918322913956e+00	 1.616018628279513e+00	 1.075679195125668e+01
 1.234479507058645e+00	 1.645569065997876e+00	 1.053440856625879e+01
 1.195420797662736e+00	 1.674158393125327e+00	 1.030197570401587e+01
 1.155778088721344e+00	 1.701767989580150e+00	 1.005607467722333e+01
 1.115587966559806e+00	 1.728381007804889e+00	 9.793928383916219e+00
 1.074887601594005e+00	 1.753982400956038e+00	 9.515545329502572e+00
 1.033714639107710e+00	 1.778558943280943e+00	 9.224131411536948e+00
 9.921070896928146e-01	 1.802099242692004e+00	 8.922024998957379e+00
 9.501032199881907e-01	 1.824593745607836e+00	 8.613004962817712e+00
 9.077414443367485e-01	 1.846034734188585e+00	 8.302218835655903e+00
 8.650602179585146e-01	 1.866416316147365e+00	 8.001594944063692e+00
 1.290597870302570e+00	 1.638463491714616e+00	 1.077369525539452e+01
 1.251625178192622e+00	 1.668424355109647e+00	 1.055571946916139e+01
 1.212023982848121e+00	 1.697410759060200e+00	 1.032658615473748e+01
 1.171830676795451e+00	 1.725403824870473e+00	 1.008288648285195e+01
 1.131082354506989e+00	 1.752386470987489e+00	 9.821913426109447e+00
 1.089816702658082e+00	 1.778343441582318e+00	 9.542334081957874e+00
 1.048071889387400e+00	 1.803261327209995e+00	 9.247251484864602e+00
 1.005886453215495e+00	 1.827128577558354e+00	 8.939809569044467e+00
 9.632991922661315e-01	 1.849935506356440e+00	 8.624396258703399e+00
 9.203490544185723e-01	 1.871674288571418e+00	 8.317954801924222e+00
 8.770750289969372e-01	 1.892338950078508e+00	 8.038781915683078e+00
 1.308277442442816e+00	 1.660908386572467e+00	 1.080472441190833e+01
 1.268770873330790e+00	 1.691279676218724e+00	 1.059106524849209e+01
 1.228627191278190e+00	 1.720663157548251e+00	 1.036457178817049e+01
 1.187883287343372e+00	 1.749039693250799e+00	 1.012186194779409e+01
 1.146576764146465e+00	 1.776391967777547e+00	 9.860318042937120e+00
 1.104745824623009e+00	 1.802704516313849e+00	 9.578252370785188e+00
 1.062429159767305e+00	 1.827963745722167e+00	 9.277546992625172e+00
 1.019665836029306e+00	 1.852157947465555e+00	 8.962322045015032e+00
 9.764951830184176e-01	 1.875277302583297e+00	 8.653727422117896e+00
 9.329566821510034e-01	 1.897313878849430e+00	 8.369240101255416e+00
 8.890898568560278e-01	 1.918261620301166e+00	 8.109492018247037e+00
 1.325957047585266e+00	 1.683353323327345e+00	 1.085509456534758e+01
 1.285916600474583e+00	 1.714135039990911e+00	 1.064551768077378e+01
 1.245230430701219e+00	 1.743915599440585e+00	 1.042084824749890e+01
 1.203935927856437e+00	 1.772675605751188e+00	 1.017774269452899e+01
 1.162071202709069e+00	 1.800397509377619e+00	 9.913686660842723e+00
 1.119674974455811e+00	 1.827065636519127e+00	 9.627143909114931e+00
 1.076786456947577e+00	 1.852666210345257e+00	 9.318703944875715e+00
 1.033445244564712e+00	 1.877187364093986e+00	 9.012286962553361e+00
 9.896911984032533e-01	 1.900619146114595e+00	 8.726350067307296e+00
 9.455643334176652e-01	 1.922953516987790e+00	 8.461240898157396e+00
 9.011047071427561e-01	 1.944184338912621e+00	 8.217828188606155e+00
 7.809565406827144e-01	 1.684957878620077e+00	 7.691816551324354e+00
 7.421738948956381e-01	 1.702396623314230e+00	 7.369909778720914e+00
 7.031720419935903e-01	 1.718873341558175e+00	 7.062050361699312e+00
 6.639852343500747e-01	 1.734387549535705e+00	 6.763522314933714e+00
 6.246473993408544e-01	 1.748940311874980e+00	 6.473696220446256e+00
 5.851920568998376e-01	 1.762534202895580e+00	 6.193239569714617e+00
 5.456522410355987e-01	 1.775173262985702e+00	 5.924198237406775e+00
 5.060604256063386e-01	 1.786862950515187e+00	 5.669851266570706e+00
 4.664484546081961e-01	 1.797610089706602e+00	 5.434367089622830e+00
 4.268474771885019e-01	 1.807422814898392e+00	 5.222299678052869e+00
 3.872878875523342e-01	 1.816310511641387e+00	 5.037966857851959e+00
 7.929713909716419e-01	 1.710880597234519e+00	 7.783421825132788e+00
 7.535920824271839e-01	 1.728587633306821e+00	 7.470829141924956e+00
 7.139901943128664e-01	 1.745317842356539e+00	 7.173462834670984e+00
 6.742005059676951e-01	 1.761070733124077e+00	 6.884867104757628e+00
 6.342574667329135e-01	 1.775847386616700e+00	 6.603112167716299e+00
 5.941951122395043e-01	 1.789650416759368e+00	 6.328371045464965e+00
 5.540469847172577e-01	 1.802483926100813e+00	 6.062682208511508e+00
 5.138460576277945e-01	 1.814353456986757e+00	 5.809751196872791e+00
 4.736246648803809e-01	 1.825265938629001e+00	 5.574528232265095e+00
 4.334144348453718e-01	 1.835229630511079e+00	 5.362604985616493e+00
 3.932462293362442e-01	 1.844254062578541e+00	 5.179477815331232e+00
 8.049862188324428e-01	 1.736803267459500e+00	 7.855595136813847e+00
 7.650102486444625e-01	 1.754778594409110e+00	 7.550883054678437e+00
 7.248083264380444e-01	 1.771762293791398e+00	 7.261485292267944e+00
 6.844157585167093e-01	 1.787753866903398e+00	 6.980820270902983e+00
 6.438675161862029e-01	 1.802754411131447e+00	 6.706022487862746e+00
 6.031981507736143e-01	 1.816766580005813e+00	 6.437491036337463e+00
 5.624417127289971e-01	 1.829794538235649e+00	 6.178056562747175e+00
 5.216316751164571e-01	 1.841843912142404e+00	 5.932718030645825e+00
 4.808008617574681e-01	 1.852921735926916e+00	 5.708110526949532e+00
 4.399813802445121e-01	 1.863036394217573e+00	 5.508241706507953e+00
 3.992045599985871e-01	 1.872197561354380e+00	 5.332894167064980e+00
 8.170010298720872e-01	 1.762725901392302e+00	 7.910340654450602e+00
 7.764283988759878e-01	 1.780969518843590e+00	 7.611876090034081e+00
 7.356264434176083e-01	 1.798206708203551e+00	 7.328166246797913e+00
 6.946309967642414e-01	 1.814436963325858e+00	 7.053438333089539e+00
 6.534775521854010e-01	 1.829661397975897e+00	 6.784418282857493e+00
 6.122011767035579e-01	 1.843882705289193e+00	 6.522443419548209e+00
 5.708364289883134e-01	 1.857105112135230e+00	 6.272045780278296e+00
 5.294172817055541e-01	 1.869334328811066e+00	 6.038877707716216e+00
 4.879770485882726e-01	 1.880577494506431e+00	 5.824494184417522e+00
 4.465483164504034e-01	 1.890843118994394e+00	 5.629665725519331e+00
 4.051628823198078e-01	 1.900141021009215e+00	 5.454529810298570e+00
 8.290158296975461e-01	 1.788648511130207e+00	 7.949679798026589e+00
 7.878465384502744e-01	 1.807160418832757e+00	 7.655614112814032e+00
 7.464445503000406e-01	 1.824651097933796e+00	 7.375522119218658e+00
 7.048462254774155e-01	 1.841120034843649e+00	 7.104794765991253e+00
 6.630875792151882e-01	 1.856568359706731e+00	 6.840705404808837e+00
 6.212041942307270e-01	 1.870998805263785e+00	 6.589252257094074e+00
 5.792311374127023e-01	 1.884415660544573e+00	 6.351743490802228e+00
 5.372028810283129e-01	 1.896824719821681e+00	 6.128595969101944e+00
 4.951532287216088e-01	 1.908233227273635e+00	 5.920683275947919e+00
 4.531152465275264e-01	 1.918649817818067e+00	 5.728722513065989e+00
 4.111211990803512e-01	 1.928084454583353e+00	 5.552826389155616e+00
 8.410306239157896e-01	 1.814571108770497e+00	 7.975664906656004e+00
 7.992646726958363e-01	 1.833351306599104e+00	 7.683917159399888e+00
 7.572626521338256e-01	 1.851095475322933e+00	 7.405556441960080e+00
 7.150614494233550e-01	 1.867803093908958e+00	 7.141818213373851e+00
 6.726976017602440e-01	 1.883475308880623e+00	 6.892163894847101e+00
 6.302072075565125e-01	 1.898114892583866e+00	 6.653724783059625e+00
 5.876258419196604e-01	 1.911726196208697e+00	 6.426027618020948e+00
 5.449884767179612e-01	 1.924315098003190e+00	 6.209754796099962e+00
 5.023294055062918e-01	 1.935888947134617e+00	 6.005954152589881e+00
 4.596821735403623e-01	 1.946456503665112e+00	 5.815459352629428e+00
 4.170795130606617e-01	 1.956027875117104e+00	 5.638492460340688e+00
 8.530454181337890e-01	 1.840493706410456e+00	 7.990392784101067e+00
 8.106828069411881e-01	 1.859542194365125e+00	 7.700054836780335e+00
 7.680807539674459e-01	 1.877539852711758e+00	 7.434664141528825e+00
 7.252766733691836e-01	 1.894486152973978e+00	 7.188007390878893e+00
 6.823076243052468e-01	 1.910382258054251e+00	 6.951544050027772e+00
 6.392102208823047e-01	 1.925230979903715e+00	 6.722820972670144e+00
 5.960205464266832e-01	 1.939036731872620e+00	 6.502015911012716e+00
 5.527740724077270e-01	 1.951805476184531e+00	 6.290302656918179e+00
 5.095055822911359e-01	 1.963544666995464e+00	 6.089076913617825e+00
 4.662491005533921e-01	 1.974263189512054e+00	 5.899415771838541e+00
 4.230378270411838e-01	 1.983971295650776e+00	 5.721738043675058e+00
 8.650602179585146e-01	 1.866416316147365e+00	 8.001594944063692e+00
 8.221009465148440e-01	 1.885733094353314e+00	 7.730085116074302e+00
 7.788988608493849e-01	 1.903984242441070e+00	 7.482684728275556e+00
 7.354919020820259e-01	 1.921169224490899e+00	 7.250153125031060e+00
 6.919176513348774e-01	 1.937289219784295e+00	 7.024072560101346e+00
 6.482132384094960e-01	 1.952347079877608e+00	 6.802455678780026e+00
 6.044152548512673e-01	 1.966347280281361e+00	 6.586385749726031e+00
 5.605596717308379e-01	 1.979295867194645e+00	 6.377720769210731e+00
 5.166817624249562e-01	 1.991200399762264e+00	 6.178339356009696e+00
 4.728160306310963e-01	 2.002069888335411e+00	 5.989645549631722e+00
 4.289961438023622e-01	 2.011914729224678e+00	 5.812295051024052e+00
 8.770750289969372e-01	 1.892338950078508e+00	 8.038781915683078e+00
 8.335190967453185e-01	 1.911924018786167e+00	 7.786327318785891e+00
 7.897169778281266e-01	 1.930428656851669e+00	 7.553828125558098e+00
 7.457071403290046e-01	 1.947852320911911e+00	 7.332652982859946e+00
 7.015276873338142e-01	 1.964196206627429e+00	 7.114660983270303e+00
 6.572162643394766e-01	 1.979463205159823e+00	 6.898174416921393e+00
 6.128099711109082e-01	 1.993657854179939e+00	 6.685402913771026e+00
 5.683452783205215e-01	 2.006786283862470e+00	 6.479048820331261e+00
 5.238579492565669e-01	 2.018856158341102e+00	 6.281570181167583e+00
 4.793829668379561e-01	 2.029876613111707e+00	 6.094737868109712e+00
 4.349544661246416e-01	 2.039858188879119e+00	 5.919436759032651e+00
 8.890898568560278e-01	 1.918261620301166e+00	 8.109492018247037e+00
 8.449372629611257e-01	 1.938114979886175e+00	 7.872884897070117e+00
 8.005351099521535e-01	 1.956873108284349e+00	 7.652208254906202e+00
 7.559223928772439e-01	 1.974535454689202e+00	 7.439757695911860e+00
 7.111377367867373e-01	 1.991103231140333e+00	 7.227942224231146e+00
 6.662193028736381e-01	 2.006579368404637e+00	 7.015185432958584e+00
 6.212046991231029e-01	 2.020968466313372e+00	 6.804949894264734e+00
 5.761308958100055e-01	 2.034276739016944e+00	 6.600910122587863e+00
 5.310341461347833e-01	 2.046511955638071e+00	 6.406161529102389e+00
 4.859499122384525e-01	 2.057683376817465e+00	 6.222837689907257e+00
 4.409127967884668e-01	 2.067801687654408e+00	 6.051996416017893e+00
 9.011047071427561e-01	 1.944184338912621e+00	 8.217828188606159e+00
 8.563554504907798e-01	 1.964305989875833e+00	 7.993786543862170e+00
 8.113532622699493e-01	 1.983317609079910e+00	 7.781859769032124e+00
 7.661376644938679e-01	 2.001218638274965e+00	 7.575580768921503e+00
 7.207478041783260e-01	 2.018010305879684e+00	 7.368306776774846e+00
 6.752223582133712e-01	 2.033695582266328e+00	 7.158391450405146e+00
 6.295994428053465e-01	 2.048279129426679e+00	 6.950553791497467e+00
 5.839165278325178e-01	 2.061767245487008e+00	 6.749536256277290e+00
 5.382103564084196e-01	 2.074167804559254e+00	 6.559090902833514e+00
 4.925168698970661e-01	 2.085490192429206e+00	 6.381665433308489e+00
 4.468711385742824e-01	 2.095745238590854e+00	 6.218385063742994e+00
 3.872878875523342e-01	 1.816310511641387e+00	 5.037966857851959e+00
 3.477965155203497e-01	 1.824284281595081e+00	 4.859791154533306e+00
 3.084048956531489e-01	 1.831355174265449e+00	 4.679221358319846e+00
 2.691408908935159e-01	 1.837535954094301e+00	 4.514523761688194e+00
 2.300314169725472e-01	 1.842840378669926e+00	 4.375739682763097e+00
 1.911024078630157e-01	 1.847283130465035e+00	 4.266114686560913e+00
 1.523787863054098e-01	 1.850879747983083e+00	 4.183839039954569e+00
 1.138844393100915e-01	 1.853646556696309e+00	 4.123230506430908e+00
 7.564219851058672e-02	 1.855600600138674e+00	 4.076681658470445e+00
 3.767382521750076e-02	 1.856759571494720e+00	 4.040165601611796e+00
 0.000000000000000e+00	 1.857141746001852e+00	 4.011698630710185e+00
 3.932462293362442e-01	 1.844254062578541e+00	 5.179477815331232e+00
 3.531472909447425e-01	 1.852350507287563e+00	 5.005760148492373e+00
 3.131496393839275e-01	 1.859530184138386e+00	 4.830988452861568e+00
 2.732815662619718e-01	 1.865806053951007e+00	 4.667818618961435e+00
 2.335704014027122e-01	 1.871192085971243e+00	 4.524105469057345e+00
 1.940424777675207e-01	 1.875703188558489e+00	 4.402446406442246e+00
 1.547231015278923e-01	 1.879355139272735e+00	 4.302102152206750e+00
 1.156365271907102e-01	 1.882164514750101e+00	 4.220605858533537e+00
 7.680593764927543e-02	 1.884148620735662e+00	 4.155113943045901e+00
 3.825342900727951e-02	 1.885325422619806e+00	 4.103549186548831e+00
 0.000000000000000e+00	 1.885713476800548e+00	 4.065582212321174e+00
 3.992045599985871e-01	 1.872197561354380e+00	 5.332894167064981e+00
 3.584980563817531e-01	 1.880416680589877e+00	 5.158994443774272e+00
 3.178943742586213e-01	 1.887705141418246e+00	 4.979307121691208e+00
 2.774222339019513e-01	 1.894076101037295e+00	 4.809258320482653e+00
 2.371093792275442e-01	 1.899543740349969e+00	 4.656723423191895e+00
 1.969825421846236e-01	 1.904123193601920e+00	 4.524746233436330e+00
 1.570674123749739e-01	 1.907830477409214e+00	 4.413371184784096e+00
 1.173886118013110e-01	 1.910682419571384e+00	 4.321149507326760e+00
 7.796967461605343e-02	 1.912696588044117e+00	 4.246380407877900e+00
 3.883303171535203e-02	 1.913891220423135e+00	 4.188144721881838e+00
 0.000000000000000e+00	 1.914285154266534e+00	 4.147183139693538e+00
 4.051628823198078e-01	 1.900141021009215e+00	 5.454529810298570e+00
 3.638488143282803e-01	 1.908482814599550e+00	 5.277990022597479e+00
 3.226391024913021e-01	 1.915880059253288e+00	 5.096542423461217e+00
 2.815628957456182e-01	 1.922346108545764e+00	 4.925244991740312e+00
 2.406483520984135e-01	 1.927895355036750e+00	 4.771232388779742e+00
 1.999226024862039e-01	 1.932543158857830e+00	 4.637320197466575e+00
 1.594117199405251e-01	 1.936305775680814e+00	 4.523732248788703e+00
 1.191406939594110e-01	 1.939200284468284e+00	 4.429486876770750e+00
 7.913340995390436e-02	 1.941244515386171e+00	 4.353511565501130e+00
 3.941263361214651e-02	 1.942456978235147e+00	 4.295550975333348e+00
 0.000000000000000e+00	 1.942856791732986e+00	 4.256926957431174e+00
 4.111211990803512e-01	 1.928084454583353e+00	 5.552826389155616e+00
 3.691995672812229e-01	 1.936548922414112e+00	 5.374300348269613e+00
 3.273838262960414e-01	 1.944054950791771e+00	 5.193861192893841e+00
 2.857035537251361e-01	 1.950616089669009e+00	 5.026116667526415e+00
 2.441873216666908e-01	 1.956246943262227e+00	 4.876792486819572e+00
 2.028626600441411e-01	 1.960963097588724e+00	 4.747900472314502e+00
 1.617560253184168e-01	 1.964781047375825e+00	 4.639342427305011e+00
 1.208927744825270e-01	 1.967718122748928e+00	 4.550157349881715e+00
 8.029714420581197e-02	 1.969792416083958e+00	 4.479490596074154e+00
 3.999223496809114e-02	 1.971022709386280e+00	 4.427358161775302e+00
 0.000000000000000e+00	 1.971428402533082e+00	 4.395271753879746e+00
 4.170795130606617e-01	 1.956027875117104e+00	 5.638492460340688e+00
 3.745503177374802e-01	 1.964615017131088e+00	 5.459026822461659e+00
 3.321285478869105e-01	 1.972229829181956e+00	 5.282078080590381e+00
 2.898442097726693e-01	 1.978886057599632e+00	 5.121933796677614e+00
 2.477262895837467e-01	 1.984598518257044e+00	 4.982348267813071e+00
 2.058027162303145e-01	 1.989383023057104e+00	 4.864055365037837e+00
 1.641003296025195e-01	 1.993256305782539e+00	 4.766238823929059e+00
 1.226448541881762e-01	 1.996235947721443e+00	 4.687619027550095e+00
 8.146087791476002e-02	 1.998340303459612e+00	 4.627255574903246e+00
 4.057183605361405e-02	 1.999588427206974e+00	 4.585147678619449e+00
 0.000000000000000e+00	 2.000000000000000e+00	 4.562705712333699e+00
 4.230378270411838e-01	 1.983971295650776e+00	 5.721738043675058e+00
 3.799010681939509e-01	 1.992681111848008e+00	 5.542801027022343e+00
 3.368732694779809e-01	 2.000404707572101e+00	 5.371662482898670e+00
 2.939848658203811e-01	 2.007156025530228e+00	 5.222487764877293e+00
 2.512652575009517e-01	 2.012950093251845e+00	 5.096637501521465e+00
 2.087427724166037e-01	 2.017802948525476e+00	 4.993197318593939e+00
 1.664446338867039e-01	 2.021731564189249e+00	 4.910344997938253e+00
 1.243969338938756e-01	 2.024753772693956e+00	 4.846253088923127e+00
 8.262461162373223e-02	 2.026888190835265e+00	 4.799701520393294e+00
 4.115143713914347e-02	 2.028154145027667e+00	 4.770491867754091e+00
 0.000000000000000e+00	 2.028571597466919e+00	 4.759744869667047e+00
 4.289961438023622e-01	 2.011914729224678e+00	 5.812295051024052e+00
 3.852518211475339e-01	 2.020747219662398e+00	 5.635815797157015e+00
 3.416179932833240e-01	 2.028579599110465e+00	 5.472744367126879e+00
 2.981255238004353e-01	 2.035426006653395e+00	 5.337308388587864e+00
 2.548042270696764e-01	 2.041301681477272e+00	 5.228199062692718e+00
 2.116828299748880e-01	 2.046222887256340e+00	 5.142590171781656e+00
 1.687889392648407e-01	 2.050206835884246e+00	 5.077476842272548e+00
 1.261490144171422e-01	 2.053271610974593e+00	 5.030367792084487e+00
 8.378834587571232e-02	 2.055436091533050e+00	 4.999682279880473e+00
 4.173103849510755e-02	 2.056719876178800e+00	 4.984953801436645e+00
 0.000000000000000e+00	 2.057143208267015e+00	 4.986931062212451e+00
 4.349544661246416e-01	 2.039858188879119e+00	 5.919436759032651e+00
 3.906025790951284e-01	 2.048813353671787e+00	 5.747826899324113e+00
 3.463627215170114e-01	 2.056754516945308e+00	 5.595119097803556e+00
 3.022661856449962e-01	 2.063696014161732e+00	 5.475670478649281e+00
 2.583431999412913e-01	 2.069653296163970e+00	 5.385379999384549e+00
 2.146228902770470e-01	 2.074642852512202e+00	 5.319355747695396e+00
 1.711332468308006e-01	 2.078682134155821e+00	 5.273347957752661e+00
 1.279010965754930e-01	 2.081789475871483e+00	 5.244202149523151e+00
 8.495208121368397e-02	 2.083984018875101e+00	 5.230012268883783e+00
 4.231064039193448e-02	 2.085285633990811e+00	 5.230087089834731e+00
 0.000000000000000e+00	 2.085714845733467e+00	 5.244830040929557e+00
 4.409127967884668e-01	 2.067801687654408e+00	 6.051996416017889e+00
 3.959533445336330e-01	 2.076879526973701e+00	 5.888169173811167e+00
 3.511074563931144e-01	 2.084929474224890e+00	 5.748251358242143e+00
 3.064068532862269e-01	 2.091966061247835e+00	 5.646599561414829e+00
 2.618821777671672e-01	 2.098004950542582e+00	 5.576341861142224e+00
 2.175629546949599e-01	 2.103062857555566e+00	 5.530479834185046e+00
 1.734775576784540e-01	 2.107157472292267e+00	 5.503574571176834e+00
 1.296531811864451e-01	 2.110307380692751e+00	 5.491929309146998e+00
 8.611581818063098e-02	 2.112531986183551e+00	 5.493468077634806e+00
 4.289024310005243e-02	 2.113851431794140e+00	 5.507435708159444e+00
 0.000000000000000e+00	 2.114286523199453e+00	 5.534029739841480e+00
 4.468711385742824e-01	 2.095745238590854e+00	 6.218385063742994e+00
 4.013041199599467e-01	 2.104945752665670e+00	 6.065772552554639e+00
 3.558522001257046e-01	 2.113104484097469e+00	 5.941278251596821e+00
 3.105475286562914e-01	 2.120236161104302e+00	 5.858876835913916e+00
 2.654211621986743e-01	 2.126356657843749e+00	 5.809066356042322e+00
 2.205030246005063e-01	 2.131482915648935e+00	 5.782817613036830e+00
 1.758218729016718e-01	 2.135632863581875e+00	 5.773680039861381e+00
 1.314052690675156e-01	 2.138825338746525e+00	 5.777659668321256e+00
 8.727955731953703e-02	 2.141080006780534e+00	 5.792789957266997e+00
 4.346984688988957e-02	 2.142417282919225e+00	 5.818533841553080e+00
 0.000000000000000e+00	 2.142858253998148e+00	 5.855138683431552e+00
 2.142858253998148e+00	 0.000000000000000e+00	 1.192313239164521e+01
 2.142417282919225e+00	 4.346984688989016e-02	 1.197700158848589e+01
 2.141080006780534e+00	 8.727955731953760e-02	 1.201090523714365e+01
 2.138825338746526e+00	 1.314052690675160e-01	 1.203291015611086e+01
 2.135632863581876e+00	 1.758218729016723e-01	 1.205006783502104e+01
 2.131482915648935e+00	 2.205030246005066e-01	 1.206812977001118e+01
 2.126356657843749e+00	 2.654211621986746e-01	 1.209127327651984e+01
 2.120236161104301e+00	 3.105475286562915e-01	 1.212186853427037e+01
 2.113104484097469e+00	 3.558522001257047e-01	 1.216032458999488e+01
 2.104945752665670e+00	 4.013041199599467e-01	 1.220449727857195e+01
 2.095745238590854e+00	 4.468711385742824e-01	 1.225568248388454e+01
 2.171430048129439e+00	 0.000000000000000e+00	 1.183795185771714e+01
 2.170983197363897e+00	 4.404945196426734e-02	 1.189171504134170e+01
 2.169628090657648e+00	 8.844329903763927e-02	 1.192444613403891e+01
 2.167343360013901e+00	 1.331573608318399e-01	 1.194484873069702e+01
 2.164108317990864e+00	 1.781661933208532e-01	 1.196063974433133e+01
 2.159903036739186e+00	 2.234431010225900e-01	 1.197819807398261e+01
 2.154708427990457e+00	 2.689601544743331e-01	 1.200221015225333e+01
 2.148506323625582e+00	 3.146882132043030e-01	 1.203534482047178e+01
 2.141279556424241e+00	 3.605969543753244e-01	 1.207799774765288e+01
 2.133012040570838e+00	 4.066549072467314e-01	 1.212608671206936e+01
 2.123688851468689e+00	 4.528294935674085e-01	 1.217833208516072e+01
 2.200001902260030e+00	 0.000000000000000e+00	 1.179770021703940e+01
 2.199549171795546e+00	 4.462905825557583e-02	 1.184872103651371e+01
 2.198176234484364e+00	 8.960704319918453e-02	 1.187719314697324e+01
 2.195861441167846e+00	 1.349094562750252e-01	 1.189252934023029e+01
 2.192583832197163e+00	 1.805105186625083e-01	 1.190323475332459e+01
 2.188323217510695e+00	 2.263831836182099e-01	 1.191648418836560e+01
 2.183060257675045e+00	 2.724991541812603e-01	 1.193768082040252e+01
 2.176776545513528e+00	 3.188289064471714e-01	 1.197003046267802e+01
 2.169454687918146e+00	 3.653417185883987e-01	 1.201417418698552e+01
 2.161078387414830e+00	 4.120057057696991e-01	 1.206351931456804e+01
 2.151632523027844e+00	 4.587878610726682e-01	 1.211483999829878e+01
 2.228573809723331e+00	 0.000000000000000e+00	 1.179854186133636e+01
 2.228115199548950e+00	 4.520866562859959e-02	 1.184502582731972e+01
 2.226724431599610e+00	 9.077078953267413e-02	 1.186709866465161e+01
 2.224379575554298e+00	 1.366615549882979e-01	 1.187464408362023e+01
 2.221059399556625e+00	 1.828548483796768e-01	 1.187675434150480e+01
 2.216743451332210e+00	 2.293232717013901e-01	 1.188184076737282e+01
 2.211412140282193e+00	 2.760381604937229e-01	 1.189639999024294e+01
 2.205046820171844e+00	 3.229696074187557e-01	 1.192444594273846e+01
 2.197629872005055e+00	 3.700864916578231e-01	 1.196716023436969e+01
 2.189144786648886e+00	 4.173565142803253e-01	 1.201483235818126e+01
 2.179576246748170e+00	 4.647462396997594e-01	 1.206321417212200e+01
 2.257145763852756e+00	 0.000000000000000e+00	 1.179755496351578e+01
 2.256681273958894e+00	 4.578827394812260e-02	 1.184118531954320e+01
 2.255272675342323e+00	 9.193453776660880e-02	 1.185971158327593e+01
 2.252897756519192e+00	 1.384136565628840e-01	 1.186325092066764e+01
 2.249535013425104e+00	 1.851991819253977e-01	 1.186116800167645e+01
 2.245163731572482e+00	 2.322633645861541e-01	 1.186170657910215e+01
 2.239764069196581e+00	 2.795771725859875e-01	 1.187156216833263e+01
 2.233317141004234e+00	 3.271103151529153e-01	 1.189538665438147e+01
 2.225805102110844e+00	 3.748312724764942e-01	 1.193511419343137e+01
 2.217211231724250e+00	 4.227073315300851e-01	 1.197822022088693e+01
 2.207520016109523e+00	 4.707046280583811e-01	 1.202164593808911e+01
 2.285717757981713e+00	 0.000000000000000e+00	 1.177752053509976e+01
 2.285247388360155e+00	 4.636788307892877e-02	 1.182007824769495e+01
 2.283820959051436e+00	 9.309828762948937e-02	 1.183696951163277e+01
 2.281415977408467e+00	 1.401657605900095e-01	 1.183845499538167e+01
 2.278010667158456e+00	 1.875435187527105e-01	 1.183412186076754e+01
 2.273584051600257e+00	 2.352034615865257e-01	 1.183252992202884e+01
 2.268116037802889e+00	 2.831161896323206e-01	 1.184079811932451e+01
 2.261587501414402e+00	 3.312510286835094e-01	 1.186412118662314e+01
 2.253980371661390e+00	 3.795760599373076e-01	 1.190472321080550e+01
 2.245277716092162e+00	 4.280581562704531e-01	 1.194685019283298e+01
 2.235463824591756e+00	 4.766630247582314e-01	 1.198709068431091e+01
 2.314289785443615e+00	 0.000000000000000e+00	 1.174009490036599e+01
 2.313813536087513e+00	 4.694749288580207e-02	 1.178295912657034e+01
 2.312369276065879e+00	 9.426203884981654e-02	 1.179977325968238e+01
 2.309934231568059e+00	 1.419178666609004e-01	 1.180084634250527e+01
 2.306486354112534e+00	 1.898878583146542e-01	 1.179589969399230e+01
 2.302004404784288e+00	 2.381435620165285e-01	 1.179373054185229e+01
 2.296468039485797e+00	 2.866552108069891e-01	 1.180181534753718e+01
 2.289857894806050e+00	 3.353917470443971e-01	 1.182584169332137e+01
 2.282155674082562e+00	 3.843208529331593e-01	 1.186796070980543e+01
 2.273344233203865e+00	 4.334089872529048e-01	 1.190984751460107e+01
 2.263407665674720e+00	 4.826214284090087e-01	 1.194902701981863e+01
 2.342861839571873e+00	 0.000000000000000e+00	 1.168676535383517e+01
 2.342379710475750e+00	 4.752710323352646e-02	 1.173095769360182e+01
 2.340917619724592e+00	 9.542579115609118e-02	 1.174894162012025e+01
 2.338452512343903e+00	 1.436699743667829e-01	 1.175097385695839e+01
 2.334962067643196e+00	 1.922322000642681e-01	 1.174681553671785e+01
 2.330424784493323e+00	 2.410836651901863e-01	 1.174541633898430e+01
 2.324820067629985e+00	 2.901942352842597e-01	 1.175453788066174e+01
 2.318128314582882e+00	 3.395324692694375e-01	 1.178030415215007e+01
 2.310331002800236e+00	 3.890656503569450e-01	 1.182440810085111e+01
 2.301410776510600e+00	 4.387598232289152e-01	 1.186655416046678e+01
 2.291351532838271e+00	 4.885798376204115e-01	 1.190529805172956e+01
 2.371433913699896e+00	 0.000000000000000e+00	 1.161886034521416e+01
 2.370945904859645e+00	 4.810671398688587e-02	 1.166508705840326e+01
 2.369465983366502e+00	 9.658954427681400e-02	 1.168521767456409e+01
 2.366970813081937e+00	 1.454220832988829e-01	 1.168934994634065e+01
 2.363437801106293e+00	 1.945765434545914e-01	 1.168718405495733e+01
 2.358845184096109e+00	 2.440237704215225e-01	 1.168773042928764e+01
 2.353172115620134e+00	 2.937332622383988e-01	 1.169895657782194e+01
 2.346398754148603e+00	 3.436731943924899e-01	 1.172735958239864e+01
 2.338506351240289e+00	 3.938104511015609e-01	 1.177379598248472e+01
 2.329477339463609e+00	 4.441106629499594e-01	 1.181671588931835e+01
 2.319295419562262e+00	 4.945382510021382e-01	 1.185567644715020e+01
 2.400006001161099e+00	 0.000000000000000e+00	 1.153755893733638e+01
 2.399512112573981e+00	 4.868632501066424e-02	 1.158625127228058e+01
 2.398014360330547e+00	 9.775329794048576e-02	 1.160927465611591e+01
 2.395489127128098e+00	 1.471741930484264e-01	 1.161645486538815e+01
 2.391913547857681e+00	 1.969208879386632e-01	 1.161732352689842e+01
 2.387265596961397e+00	 2.469638770245609e-01	 1.162085294319439e+01
 2.381524176840922e+00	 2.972722908436733e-01	 1.163512991120635e+01
 2.374669206906917e+00	 3.478139214474136e-01	 1.166695396757905e+01
 2.366681712828594e+00	 3.985552540599028e-01	 1.171599822201739e+01
 2.357543915514136e+00	 4.494615051675127e-01	 1.176022901671758e+01
 2.347239319326545e+00	 5.004966671638873e-01	 1.180008746710925e+01
 2.428578095288889e+00	 0.000000000000000e+00	 1.144389959695352e+01
 2.428078326953535e+00	 4.926593616964552e-02	 1.149525236545848e+01
 2.426562743955656e+00	 9.891705187560726e-02	 1.152172140481374e+01
 2.424007447828321e+00	 1.489263032066394e-01	 1.153274075855624e+01
 2.420389301253213e+00	 1.992652329695225e-01	 1.153755863763671e+01
 2.415686016457935e+00	 2.499039843133253e-01	 1.154500273276075e+01
 2.409876244677030e+00	 3.008113202743498e-01	 1.156318473986180e+01
 2.402939666261527e+00	 3.519546494680676e-01	 1.159912824378561e+01
 2.394857080991023e+00	 4.033000581248665e-01	 1.165102616447188e+01
 2.385610498113419e+00	 4.548123486330496e-01	 1.169713295364901e+01
 2.375183225610976e+00	 5.064550847153568e-01	 1.173859991047338e+01
 2.095745238590854e+00	 4.468711385742824e-01	 1.225568248388454e+01
 2.085490192429206e+00	 4.925168698970659e-01	 1.230669288434868e+01
 2.074167804559254e+00	 5.382103564084193e-01	 1.234687167899443e+01
 2.061767245487008e+00	 5.839165278325172e-01	 1.238029330875874e+01
 2.048279129426679e+00	 6.295994428053462e-01	 1.241156230231561e+01
 2.033695582266328e+00	 6.752223582133707e-01	 1.244592471545661e+01
 2.018010305879684e+00	 7.207478041783255e-01	 1.248933893328627e+01
 2.001218638274965e+00	 7.661376644938676e-01	 1.254404612697521e+01
 1.983317609079911e+00	 8.113532622699491e-01	 1.259296070739010e+01
 1.964305989875834e+00	 8.563554504907797e-01	 1.263293610069855e+01
 1.944184338912621e+00	 9.011047071427563e-01	 1.266313080541349e+01
 2.123688851468689e+00	 4.528294935674085e-01	 1.217833208516072e+01
 2.113297069679323e+00	 4.990838421121444e-01	 1.222927015880393e+01
 2.101823714784222e+00	 5.453865825890742e-01	 1.227025874880702e+01
 2.089257812894369e+00	 5.917021771129672e-01	 1.230524461036883e+01
 2.075589853078625e+00	 6.379942050957513e-01	 1.233869500778323e+01
 2.060811856235608e+00	 6.842254335097109e-01	 1.237573995743842e+01
 2.044917440262993e+00	 7.303578928720826e-01	 1.242227043579978e+01
 2.027901881008348e+00	 7.763529587542138e-01	 1.247719418881103e+01
 2.009762168493958e+00	 8.221714385678729e-01	 1.252614189084121e+01
 1.990497057922020e+00	 8.677736633306645e-01	 1.256779063360604e+01
 1.970107114985842e+00	 9.131195840623494e-01	 1.260119813267574e+01
 2.151632523027844e+00	 4.587878610726682e-01	 1.211483999829878e+01
 2.141104005323695e+00	 5.056508281175016e-01	 1.216421972086060e+01
 2.129479683086463e+00	 5.525628238394812e-01	 1.220478255425932e+01
 2.116748438031804e+00	 5.994878427429894e-01	 1.224021208669733e+01
 2.102900634082976e+00	 6.463889850148935e-01	 1.227471416944166e+01
 2.087928187148927e+00	 6.932285277122674e-01	 1.231319375838826e+01
 2.071824631151114e+00	 7.399680017468045e-01	 1.236138398127273e+01
 2.054585179776326e+00	 7.865682744664770e-01	 1.241449599579806e+01
 2.036206783441316e+00	 8.329896375837861e-01	 1.246241919504223e+01
 2.016688180969135e+00	 8.791919001486401e-01	 1.250435857474719e+01
 1.996029945496535e+00	 9.251344862130573e-01	 1.253928907959834e+01
 2.179576246748170e+00	 4.647462396997594e-01	 1.206321417212200e+01
 2.168910992874073e+00	 5.122178263808183e-01	 1.210960103245077e+01
 2.157135703012948e+00	 5.597390784851574e-01	 1.214861152884360e+01
 2.144239114484863e+00	 6.072735229059019e-01	 1.218352010517296e+01
 2.130211466067240e+00	 6.547837806039635e-01	 1.221813720137995e+01
 2.115044568679169e+00	 7.022316387202939e-01	 1.225702470894545e+01
 2.098731872265736e+00	 7.495781285601114e-01	 1.230532934796134e+01
 2.081268528352833e+00	 7.967836092470635e-01	 1.235549942523190e+01
 2.062651447751618e+00	 8.438078567934264e-01	 1.240154558372949e+01
 2.042879352905968e+00	 8.906101582804349e-01	 1.244262561236948e+01
 2.021952824396092e+00	 9.371494107913849e-01	 1.247764846029045e+01
 2.207520016109523e+00	 4.707046280583811e-01	 1.202164593808911e+01
 2.196718025842202e+00	 5.187848353697738e-01	 1.206367922236379e+01
 2.184791768110645e+00	 5.669153448516195e-01	 1.210013826022455e+01
 2.171729835839092e+00	 6.150592157850215e-01	 1.213373149059436e+01
 2.157522342658928e+00	 6.631785899041532e-01	 1.216772976632445e+01
 2.142160994499219e+00	 7.112347644330450e-01	 1.220622466770252e+01
 2.125639157328543e+00	 7.591882710696226e-01	 1.225309032536537e+01
 2.107951920511804e+00	 8.069989607123823e-01	 1.229994227505031e+01
 2.089096155254496e+00	 8.546260936725302e-01	 1.234345899492369e+01
 2.069070567621301e+00	 9.020284350617782e-01	 1.238275491626102e+01
 2.047875745635905e+00	 9.491643549938379e-01	 1.241668867004113e+01
 2.235463824591756e+00	 4.766630247582314e-01	 1.198709068431091e+01
 2.224525097739836e+00	 5.253518535520497e-01	 1.202488135181677e+01
 2.212447871926523e+00	 5.740916212643852e-01	 1.205797204480205e+01
 2.199220595680037e+00	 6.228449195636648e-01	 1.208963911951281e+01
 2.184833257485551e+00	 6.715734109566540e-01	 1.212249644529604e+01
 2.169277458281962e+00	 7.202379027497732e-01	 1.216002853888813e+01
 2.152546480061226e+00	 7.687984270329583e-01	 1.220441118778251e+01
 2.134635350027170e+00	 8.172143264788407e-01	 1.224774275053559e+01
 2.115540899779582e+00	 8.654443456968357e-01	 1.228827268076423e+01
 2.095261819003921e+00	 9.134467278283991e-01	 1.232507744119686e+01
 2.073798703167367e+00	 9.611793160169219e-01	 1.235698006319321e+01
 2.263407665674720e+00	 4.826214284090087e-01	 1.194902701981863e+01
 2.252332202078722e+00	 5.319188793953256e-01	 1.198592744737434e+01
 2.240104008007555e+00	 5.812679060489712e-01	 1.201903578595206e+01
 2.226711387593248e+00	 6.306306324251496e-01	 1.205014573263676e+01
 2.212144204174621e+00	 6.799682418026566e-01	 1.208167184845480e+01
 2.196393953700281e+00	 7.292410515697327e-01	 1.211790449892144e+01
 2.179453834185470e+00	 7.784085942077388e-01	 1.215921298070117e+01
 2.161318810672869e+00	 8.274297041628470e-01	 1.219899038763209e+01
 2.141985675156508e+00	 8.762626103420794e-01	 1.223626596379692e+01
 2.121453100942615e+00	 9.248650339160266e-01	 1.227008261775696e+01
 2.099721690941868e+00	 9.731942910571415e-01	 1.229924168064242e+01
 2.291351532838271e+00	 4.885798376204115e-01	 1.190529805172956e+01
 2.280139332370610e+00	 5.384859113672821e-01	 1.194191895831850e+01
 2.267760169900707e+00	 5.884441975308945e-01	 1.197606923248692e+01
 2.254202205164268e+00	 6.384163525527919e-01	 1.200930755917721e+01
 2.239455176353647e+00	 6.883630804833529e-01	 1.204315615065571e+01
 2.223510474427064e+00	 7.382442087921774e-01	 1.207953557374991e+01
 2.206361213422964e+00	 7.880187703515834e-01	 1.211758248848879e+01
 2.188002296222832e+00	 8.376450913808088e-01	 1.215393737560289e+01
 2.168430475214904e+00	 8.870808850839981e-01	 1.218787537416060e+01
 2.147644407326165e+00	 9.362833506603900e-01	 1.221840939744422e+01
 2.125644702910802e+00	 9.852092773110037e-01	 1.224433229711180e+01
 2.319295419562262e+00	 4.945382510021382e-01	 1.185567644715020e+01
 2.307946482127250e+00	 5.450529479355997e-01	 1.189266505371839e+01
 2.295416351152952e+00	 5.956204940356723e-01	 1.192835150896273e+01
 2.281693041978647e+00	 6.462020781299098e-01	 1.196408373455509e+01
 2.266766167650140e+00	 6.967579250399342e-01	 1.200104757624213e+01
 2.250627014135192e+00	 7.472473723163607e-01	 1.204061852502404e+01
 2.233268611495395e+00	 7.976289532221122e-01	 1.207912833679383e+01
 2.214685800450992e+00	 8.478604857491343e-01	 1.211299024534427e+01
 2.194875293784406e+00	 8.978991673983309e-01	 1.214368613554704e+01
 2.173835732043358e+00	 9.477016753972176e-01	 1.217083762221993e+01
 2.151567733025559e+00	 9.972242719750127e-01	 1.219324176122925e+01
 2.347239319326545e+00	 5.004966671638873e-01	 1.180008746710925e+01
 2.335753644860390e+00	 5.516199875679585e-01	 1.183812528669872e+01
 2.323072545311256e+00	 6.027967938888225e-01	 1.187588127262048e+01
 2.309183891621934e+00	 6.539878073398199e-01	 1.191452564707006e+01
 2.294077171691613e+00	 7.051527735135914e-01	 1.195493838526644e+01
 2.277743566497550e+00	 7.562505400415361e-01	 1.199778176093544e+01
 2.260176022124451e+00	 8.072391405769451e-01	 1.203866747081627e+01
 2.241369317131287e+00	 8.580758848842309e-01	 1.207477899935224e+01
 2.221320124694642e+00	 9.087174547608132e-01	 1.210442397086911e+01
 2.200027068982981e+00	 9.591200054622390e-01	 1.212827969142185e+01
 2.177490775237533e+00	 1.009239272245675e+00	 1.214708260400814e+01
 2.375183225610976e+00	 5.064550847153568e-01	 1.173859991047338e+01
 2.363560814081782e+00	 5.581870287320392e-01	 1.177839900674320e+01
 2.350728745922590e+00	 6.099730954158608e-01	 1.181879007381293e+01
 2.336674747679672e+00	 6.617735383658389e-01	 1.186080813262722e+01
 2.321388182105573e+00	 7.135476239455165e-01	 1.190506710302181e+01
 2.304860125187024e+00	 7.652537098669574e-01	 1.195143722044515e+01
 2.287083439031819e+00	 8.168493301737020e-01	 1.199536120104680e+01
 2.268052840037646e+00	 8.682912864025062e-01	 1.203466985253432e+01
 2.247764961775247e+00	 9.195357446471825e-01	 1.206748207451531e+01
 2.226218412033818e+00	 9.705383381911828e-01	 1.209168727687959e+01
 2.203413823498114e+00	 1.021254275319494e+00	 1.210708189362769e+01
 1.944184338912621e+00	 9.011047071427563e-01	 1.266313080541349e+01
 1.922953516987790e+00	 9.455643334176658e-01	 1.268192022498161e+01
 1.900619146114594e+00	 9.896911984032537e-01	 1.268823051366895e+01
 1.877187364093985e+00	 1.033445244564713e+00	 1.268176817104759e+01
 1.852666210345257e+00	 1.076786456947578e+00	 1.266201456243863e+01
 1.827065636519126e+00	 1.119674974455812e+00	 1.263136120983777e+01
 1.800397509377619e+00	 1.162071202709070e+00	 1.259516405180203e+01
 1.772675605751188e+00	 1.203935927856437e+00	 1.255274039647140e+01
 1.743915599440585e+00	 1.245230430701220e+00	 1.250249088341976e+01
 1.714135039990909e+00	 1.285916600474584e+00	 1.244373230215946e+01
 1.683353323327345e+00	 1.325957047585265e+00	 1.237670924740989e+01
 1.970107114985842e+00	 9.131195840623494e-01	 1.260119813267574e+01
 1.948593211960381e+00	 9.581720126312757e-01	 1.262428238964521e+01
 1.925961045819982e+00	 1.002887243039292e+00	 1.263552447366094e+01
 1.902216836203941e+00	 1.047224683644562e+00	 1.263454888034446e+01
 1.877368729725117e+00	 1.091143785953334e+00	 1.262078769331727e+01
 1.851426810724528e+00	 1.134604157381755e+00	 1.259427389342527e+01
 1.824403104189627e+00	 1.177565675617919e+00	 1.256063809536475e+01
 1.796311570644189e+00	 1.219988603953137e+00	 1.252092678756537e+01
 1.767168092875534e+00	 1.261833706928410e+00	 1.247323946610063e+01
 1.736990454425562e+00	 1.303062365625070e+00	 1.241673549985898e+01
 1.705798309834959e+00	 1.343636691917840e+00	 1.235165254913039e+01
 1.996029945496535e+00	 9.251344862130573e-01	 1.253928907959834e+01
 1.974232960775937e+00	 9.707797183209202e-01	 1.256487528372558e+01
 1.951302998742938e+00	 1.016083315386974e+00	 1.257933370389466e+01
 1.927246360875348e+00	 1.061004151661226e+00	 1.258219550984842e+01
 1.902071300979821e+00	 1.105501145109518e+00	 1.257283124763327e+01
 1.875788036087948e+00	 1.149533371659062e+00	 1.255283601107101e+01
 1.848408749412948e+00	 1.193060181065279e+00	 1.252326440468980e+01
 1.819947585172297e+00	 1.236041313760605e+00	 1.248503183277394e+01
 1.790420635140326e+00	 1.278437018022650e+00	 1.243863014717856e+01
 1.759845916856227e+00	 1.320208166781845e+00	 1.238299912460383e+01
 1.728243343476730e+00	 1.361316373377846e+00	 1.231831714936606e+01
 2.021952824396092e+00	 9.371494107913849e-01	 1.247764846029045e+01
 1.999872757451907e+00	 9.833874475447802e-01	 1.250420031485677e+01
 1.976644998970398e+00	 1.029279412367186e+00	 1.252038583788412e+01
 1.952275932268046e+00	 1.074783645399459e+00	 1.252563227879458e+01
 1.926773918345494e+00	 1.119858531066032e+00	 1.251939933376950e+01
 1.900149306925160e+00	 1.164462613804192e+00	 1.250553119567155e+01
 1.872414439446317e+00	 1.208554715435698e+00	 1.248255264881294e+01
 1.843583643820493e+00	 1.252094053533134e+00	 1.244667048006505e+01
 1.813673220809414e+00	 1.295040360109755e+00	 1.240039004033626e+01
 1.782701421950001e+00	 1.337353999944137e+00	 1.234432474073836e+01
 1.750688419015513e+00	 1.378996087839941e+00	 1.227853949365281e+01
 2.047875745635905e+00	 9.491643549938379e-01	 1.241668867004113e+01
 2.025512596005740e+00	 9.959951973610355e-01	 1.244291572923824e+01
 2.001987040589300e+00	 1.042475530900817e+00	 1.245955529318003e+01
 1.977305544541873e+00	 1.088563161644014e+00	 1.246592092565550e+01
 1.951476576058265e+00	 1.134215940472780e+00	 1.246247837766707e+01
 1.924510617551938e+00	 1.179391880333605e+00	 1.245403374120072e+01
 1.896420168688476e+00	 1.224049275113726e+00	 1.243688871556778e+01
 1.867219741073760e+00	 1.268146819525019e+00	 1.240649370026901e+01
 1.836925844457251e+00	 1.311643729315537e+00	 1.236033408594789e+01
 1.805556964373981e+00	 1.354499861111174e+00	 1.230260897935636e+01
 1.773133531214161e+00	 1.396675831178782e+00	 1.223425690824311e+01
 2.073798703167367e+00	 9.611793160169219e-01	 1.235698006319321e+01
 2.051152470454882e+00	 1.008602964827866e+00	 1.238182708686261e+01
 2.027329117686581e+00	 1.055671667908755e+00	 1.239785378205958e+01
 2.002335191856666e+00	 1.102342697179644e+00	 1.240425119744888e+01
 1.976179268354262e+00	 1.148573369979664e+00	 1.240375976002736e+01
 1.948871962284053e+00	 1.194321167763762e+00	 1.240014923130686e+01
 1.920425931538164e+00	 1.239543856483913e+00	 1.238818676287204e+01
 1.890855871417077e+00	 1.284199607990552e+00	 1.236283735539302e+01
 1.860178500658287e+00	 1.328247121765811e+00	 1.232009040995867e+01
 1.828412538795262e+00	 1.371645746282187e+00	 1.225985786468159e+01
 1.795578674835525e+00	 1.414355599269022e+00	 1.218752211332909e+01
 2.099721690941868e+00	 9.731942910571415e-01	 1.229924168064242e+01
 2.076792374816782e+00	 1.021210747003453e+00	 1.232187804676102e+01
 2.052671224349178e+00	 1.068867820311888e+00	 1.233642109735952e+01
 2.027364868372264e+00	 1.116122248791106e+00	 1.234201037514503e+01
 2.000881989469610e+00	 1.162930816236588e+00	 1.234499275475866e+01
 1.973233335437281e+00	 1.209250472611123e+00	 1.234579041841278e+01
 1.944431722394119e+00	 1.255038455930808e+00	 1.233851842201168e+01
 1.914492029335429e+00	 1.300252415184028e+00	 1.231761570939524e+01
 1.883431183986978e+00	 1.344850533586389e+00	 1.227848022474214e+01
 1.851268139880942e+00	 1.388791651456402e+00	 1.221820129699632e+01
 1.818023844642459e+00	 1.432035387985319e+00	 1.214051789196660e+01
 2.125644702910802e+00	 9.852092773110037e-01	 1.224433229711180e+01
 2.102432303108890e+00	 1.033818540945976e+00	 1.226414143579519e+01
 2.078013354664025e+00	 1.082063985031103e+00	 1.227651614995664e+01
 2.052394568248506e+00	 1.129901813263150e+00	 1.228156829780740e+01
 2.025584733640439e+00	 1.177288275893454e+00	 1.228802157318203e+01
 1.997594731327395e+00	 1.224179791392149e+00	 1.229295431177072e+01
 1.968437535655083e+00	 1.270533069838961e+00	 1.229003231310050e+01
 1.938128209313798e+00	 1.316305237359740e+00	 1.227312920980529e+01
 1.906683889017773e+00	 1.361453960903086e+00	 1.223699292437479e+01
 1.874123762298116e+00	 1.405937572633051e+00	 1.217801818885734e+01
 1.840469035397816e+00	 1.449715193202329e+00	 1.209557190106878e+01
 2.151567733025559e+00	 9.972242719750127e-01	 1.219324176122925e+01
 2.128072249348652e+00	 1.046426343713616e+00	 1.220981057707910e+01
 2.103355502718061e+00	 1.095260158987289e+00	 1.221950823666699e+01
 2.077424285645228e+00	 1.143681387380532e+00	 1.222492164255106e+01
 2.050287495102875e+00	 1.191645745600166e+00	 1.223476305302171e+01
 2.021956144270168e+00	 1.239109120623300e+00	 1.224369943066685e+01
 1.992443365719793e+00	 1.286027694592921e+00	 1.224493092667436e+01
 1.961764405837163e+00	 1.332358070771982e+00	 1.223172817874000e+01
 1.929936610325127e+00	 1.378057399841715e+00	 1.219813065654303e+01
 1.896979400713880e+00	 1.423083505811359e+00	 1.213976218250419e+01
 1.862914241864448e+00	 1.467395010794707e+00	 1.205474924047628e+01
 2.177490775237533e+00	 1.009239272245675e+00	 1.214708260400814e+01
 2.153712207553518e+00	 1.059034152364551e+00	 1.216019085639242e+01
 2.128697662598222e+00	 1.108456339101333e+00	 1.216686851935875e+01
 2.102454014722270e+00	 1.157460967928004e+00	 1.217391024950969e+01
 2.074990268093046e+00	 1.206003222006626e+00	 1.218718451497879e+01
 2.046317568581372e+00	 1.254038456821036e+00	 1.220012320928343e+01
 2.016449206986989e+00	 1.301522326577240e+00	 1.220544764440461e+01
 1.985400613390508e+00	 1.348410911675047e+00	 1.219578952494017e+01
 1.953189342483491e+00	 1.394660846528090e+00	 1.216442166874365e+01
 1.919835049795330e+00	 1.440229446990556e+00	 1.210611789423351e+01
 1.885359458805209e+00	 1.485074836637110e+00	 1.201827861492884e+01
 2.203413823498114e+00	 1.021254275319494e+00	 1.210708189362769e+01
 2.179352171740935e+00	 1.071641963956964e+00	 1.211669150698730e+01
 2.154039828391445e+00	 1.121652522294122e+00	 1.212062844929971e+01
 2.127483749639469e+00	 1.171240551690321e+00	 1.213041784550533e+01
 2.099693046847078e+00	 1.220360701762737e+00	 1.214728177334421e+01
 2.070678998576783e+00	 1.268967796501816e+00	 1.216433954103280e+01
 2.040455053855409e+00	 1.317016962176464e+00	 1.217382388782359e+01
 2.009036826458815e+00	 1.364463756323230e+00	 1.216769357536403e+01
 1.976442080067317e+00	 1.411264297088024e+00	 1.213839690762535e+01
 1.942690704209564e+00	 1.457375392169872e+00	 1.207977733425010e+01
 1.907804680982951e+00	 1.502754666604192e+00	 1.199352307116701e+01
 1.683353323327345e+00	 1.325957047585265e+00	 1.237670924740989e+01
 1.651591649614392e+00	 1.365315218373729e+00	 1.228848280849696e+01
 1.618872963770608e+00	 1.403955514880460e+00	 1.217080045956871e+01
 1.585221916387419e+00	 1.441843389303079e+00	 1.203235551627857e+01
 1.550664807757804e+00	 1.478945442181437e+00	 1.188263281988495e+01
 1.515229519979011e+00	 1.515229519979012e+00	 1.173022185457743e+01
 1.478945442181437e+00	 1.550664807757805e+00	 1.157509479820459e+01
 1.441843389303079e+00	 1.585221916387419e+00	 1.141202070282551e+01
 1.403955514880459e+00	 1.618872963770609e+00	 1.123800650323133e+01
 1.365315218373729e+00	 1.651591649614392e+00	 1.105247250286765e+01
 1.325957047585266e+00	 1.683353323327345e+00	 1.085509456534758e+01
 1.705798309834959e+00	 1.343636691917840e+00	 1.235165254913039e+01
 1.673613141940549e+00	 1.383519644759064e+00	 1.226608714896338e+01
 1.640458201596894e+00	 1.422675151543938e+00	 1.215269954498551e+01
 1.606358468074006e+00	 1.461068203827065e+00	 1.202018197179103e+01
 1.571340592339743e+00	 1.498664956816691e+00	 1.187856143275084e+01
 1.535432828257211e+00	 1.535432828257212e+00	 1.173617432077901e+01
 1.498664956816691e+00	 1.571340592339744e+00	 1.159048126294060e+01
 1.461068203827065e+00	 1.606358468074006e+00	 1.143735227946325e+01
 1.422675151543938e+00	 1.640458201596895e+00	 1.127207434260626e+01
 1.383519644759063e+00	 1.673613141940550e+00	 1.109343046516985e+01
 1.343636691917840e+00	 1.705798309834959e+00	 1.090084868968796e+01
 1.728243343476730e+00	 1.361316373377846e+00	 1.231831714936606e+01
 1.695634680511580e+00	 1.401724109373857e+00	 1.223358879913706e+01
 1.662043484751976e+00	 1.441394827518785e+00	 1.212230808123775e+01
 1.627495064147210e+00	 1.480293058723251e+00	 1.199320565751429e+01
 1.592016420340749e+00	 1.518384512862965e+00	 1.185950482932026e+01
 1.555636178962339e+00	 1.555636178962340e+00	 1.172600697701474e+01
 1.518384512862964e+00	 1.592016420340750e+00	 1.158832043722075e+01
 1.480293058723251e+00	 1.627495064147210e+00	 1.144219145022587e+01
 1.441394827518785e+00	 1.662043484751977e+00	 1.128308336956024e+01
 1.401724109373856e+00	 1.695634680511580e+00	 1.110853434159511e+01
 1.361316373377846e+00	 1.728243343476730e+00	 1.091776108295887e+01
 1.750688419015513e+00	 1.378996087839941e+00	 1.227853949365281e+01
 1.717656260189139e+00	 1.419928607970316e+00	 1.219283389588101e+01
 1.683628808199291e+00	 1.460114538437001e+00	 1.208147077220609e+01
 1.648631699675146e+00	 1.499517949505772e+00	 1.195491703918030e+01
 1.612692286936437e+00	 1.538104105718973e+00	 1.182960342441422e+01
 1.575839567380241e+00	 1.575839567380241e+00	 1.170390285936837e+01
 1.538104105718973e+00	 1.612692286936437e+00	 1.157286665965464e+01
 1.499517949505771e+00	 1.648631699675146e+00	 1.143166565209521e+01
 1.460114538437001e+00	 1.683628808199292e+00	 1.127598896627908e+01
 1.419928607970316e+00	 1.717656260189140e+00	 1.110272734287359e+01
 1.378996087839941e+00	 1.750688419015513e+00	 1.091076931542247e+01
 1.773133531214161e+00	 1.396675831178782e+00	 1.223425690824311e+01
 1.739677875834883e+00	 1.438133136300653e+00	 1.214577294999513e+01
 1.705214166902273e+00	 1.478834279930586e+00	 1.203213709050973e+01
 1.669768369725928e+00	 1.518742871688761e+00	 1.191064817399263e+01
 1.633368187302418e+00	 1.557823730783433e+00	 1.179293415287409e+01
 1.596042988796757e+00	 1.596042988796758e+00	 1.167398822193026e+01
 1.557823730783433e+00	 1.633368187302419e+00	 1.154831147219359e+01
 1.518742871688761e+00	 1.669768369725929e+00	 1.141049497296922e+01
 1.478834279930586e+00	 1.705214166902274e+00	 1.125577353288676e+01
 1.438133136300653e+00	 1.739677875834884e+00	 1.108098513650599e+01
 1.396675831178781e+00	 1.773133531214161e+00	 1.088485148079944e+01
 1.795578674835525e+00	 1.414355599269022e+00	 1.218752211332909e+01
 1.761699522310470e+00	 1.456337690117077e+00	 1.209447545668145e+01
 1.726799555824359e+00	 1.497554047631540e+00	 1.197848154588620e+01
 1.690905069367672e+00	 1.537967820786355e+00	 1.186437682966083e+01
 1.654044116614308e+00	 1.577543383455060e+00	 1.175350017352625e+01
 1.616246438497734e+00	 1.616246438497735e+00	 1.164031981693009e+01
 1.577543383455059e+00	 1.654044116614308e+00	 1.151878236495054e+01
 1.537967820786354e+00	 1.690905069367673e+00	 1.138289009469641e+01
 1.497554047631540e+00	 1.726799555824360e+00	 1.122730400621370e+01
 1.456337690117076e+00	 1.761699522310470e+00	 1.104828542233100e+01
 1.414355599269022e+00	 1.795578674835525e+00	 1.084499692618815e+01
 1.818023844642459e+00	 1.432035387985319e+00	 1.214051789196660e+01
 1.783721194477554e+00	 1.474542265171797e+00	 1.204114466085989e+01
 1.748384969928984e+00	 1.516273837171863e+00	 1.192717885884139e+01
 1.712041793668494e+00	 1.557192792312686e+00	 1.181998446194079e+01
 1.674720070047717e+00	 1.597263059132570e+00	 1.171521765770175e+01
 1.636449911769015e+00	 1.636449911769015e+00	 1.160687229729530e+01
 1.597263059132569e+00	 1.674720070047718e+00	 1.148833087731668e+01
 1.557192792312684e+00	 1.712041793668494e+00	 1.135299181967841e+01
 1.516273837171863e+00	 1.748384969928984e+00	 1.119492584575964e+01
 1.474542265171797e+00	 1.783721194477555e+00	 1.100957756062474e+01
 1.432035387985319e+00	 1.818023844642459e+00	 1.079617701320750e+01
 1.840469035397816e+00	 1.449715193202329e+00	 1.209557190106878e+01
 1.805742887197792e+00	 1.492746857217023e+00	 1.198945828748769e+01
 1.769970404179584e+00	 1.534993644183557e+00	 1.188204943839068e+01
 1.733178537696507e+00	 1.576417781781889e+00	 1.178124850560376e+01
 1.695396042778260e+00	 1.616982753214677e+00	 1.168190270133780e+01
 1.656653403896441e+00	 1.656653403896442e+00	 1.157752573112185e+01
 1.616982753214677e+00	 1.695396042778261e+00	 1.146092079722577e+01
 1.576417781781889e+00	 1.733178537696508e+00	 1.132486114304434e+01
 1.534993644183556e+00	 1.769970404179583e+00	 1.116280332745564e+01
 1.492746857217022e+00	 1.805742887197793e+00	 1.096960679368063e+01
 1.449715193202329e+00	 1.840469035397816e+00	 1.074331590800956e+01
 1.862914241864448e+00	 1.467395010794707e+00	 1.205474924047628e+01
 1.827764595332841e+00	 1.510951462004965e+00	 1.194748054921511e+01
 1.791555853539594e+00	 1.553713464298620e+00	 1.184674191008074e+01
 1.754315296519828e+00	 1.595642784708100e+00	 1.175182889832758e+01
 1.716072029981550e+00	 1.636702461100100e+00	 1.165725835017538e+01
 1.676856910165859e+00	 1.676856910165859e+00	 1.155605321855203e+01
 1.636702461100099e+00	 1.716072029981551e+00	 1.144041645021952e+01
 1.595642784708099e+00	 1.754315296519828e+00	 1.130246828375241e+01
 1.553713464298619e+00	 1.791555853539595e+00	 1.113502021738996e+01
 1.510951462004965e+00	 1.827764595332843e+00	 1.093235712007575e+01
 1.467395010794707e+00	 1.862914241864448e+00	 1.069443234623896e+01
 1.885359458805209e+00	 1.485074836637110e+00	 1.201827861492884e+01
 1.849786313744357e+00	 1.529156075287833e+00	 1.191922520390322e+01
 1.813141312972451e+00	 1.572433293149053e+00	 1.182477100449858e+01
 1.775452065206571e+00	 1.614867796605452e+00	 1.173525471599420e+01
 1.736748026833199e+00	 1.656422178187553e+00	 1.164486172855730e+01
 1.697060425863111e+00	 1.697060425863111e+00	 1.154610860245020e+01
 1.656422178187552e+00	 1.736748026833200e+00	 1.143057107075172e+01
 1.614867796605452e+00	 1.775452065206572e+00	 1.128968178486303e+01
 1.572433293149053e+00	 1.813141312972452e+00	 1.111556899284065e+01
 1.529156075287832e+00	 1.849786313744358e+00	 1.090190540317627e+01
 1.485074836637110e+00	 1.885359458805209e+00	 1.067339959065132e+01
 1.907804680982951e+00	 1.502754666604192e+00	 1.199352307116701e+01
 1.871808037293996e+00	 1.547360692817836e+00	 1.190688753052958e+01
 1.834726777441590e+00	 1.591153126366857e+00	 1.181950390344004e+01
 1.796588838824851e+00	 1.634092812988081e+00	 1.173491091014753e+01
 1.757424028508822e+00	 1.676141899875752e+00	 1.164815126321809e+01
 1.717263946274040e+00	 1.717263946274040e+00	 1.155121426507128e+01
 1.676141899875751e+00	 1.757424028508822e+00	 1.143501524887458e+01
 1.634092812988080e+00	 1.796588838824852e+00	 1.129025767720099e+01
 1.591153126366856e+00	 1.834726777441591e+00	 1.110834077905863e+01
 1.547360692817835e+00	 1.871808037293997e+00	 1.089168554663745e+01
 1.502754666604192e+00	 1.907804680982951e+00	 1.068603171789857e+01
 1.325957047585266e+00	 1.683353323327345e+00	 1.085509456534758e+01
 1.285916600474583e+00	 1.714135039990911e+00	 1.064551768077378e+01
 1.245230430701219e+00	 1.743915599440585e+00	 1.042084824749890e+01
 1.203935927856437e+00	 1.772675605751188e+00	 1.017774269452899e+01
 1.162071202709069e+00	 1.800397509377619e+00	 9.913686660842723e+00
 1.119674974455811e+00	 1.827065636519127e+00	 9.627143909114931e+00
 1.076786456947577e+00	 1.852666210345257e+00	 9.318703944875715e+00
 1.033445244564712e+00	 1.877187364093986e+00	 9.012286962553361e+00
 9.896911984032533e-01	 1.900619146114595e+00	 8.726350067307296e+00
 9.455643334176652e-01	 1.922953516987790e+00	 8.461240898157396e+00
 9.011047071427561e-01	 1.944184338912621e+00	 8.217828188606155e+00
 1.343636691917840e+00	 1.705798309834959e+00	 1.090084868968796e+01
 1.303062365625069e+00	 1.736990454425562e+00	 1.069361317960492e+01
 1.261833706928409e+00	 1.767168092875535e+00	 1.046863646705605e+01
 1.219988603953136e+00	 1.796311570644190e+00	 1.022261157052153e+01
 1.177565675617919e+00	 1.824403104189628e+00	 9.953127433557311e+00
 1.134604157381754e+00	 1.851426810724529e+00	 9.658840675022169e+00
 1.091143785953334e+00	 1.877368729725118e+00	 9.359744444296588e+00
 1.047224683644562e+00	 1.902216836203942e+00	 9.077330881302260e+00
 1.002887243039291e+00	 1.925961045819982e+00	 8.811556586317078e+00
 9.581720126312747e-01	 1.948593211960381e+00	 8.563038557976299e+00
 9.131195840623495e-01	 1.970107114985842e+00	 8.332904023697759e+00
 1.361316373377846e+00	 1.728243343476730e+00	 1.091776108295887e+01
 1.320208166781844e+00	 1.759845916856227e+00	 1.070969960845218e+01
 1.278437018022649e+00	 1.790420635140327e+00	 1.048104981019659e+01
 1.236041313760604e+00	 1.819947585172299e+00	 1.022852591798331e+01
 1.193060181065278e+00	 1.848408749412948e+00	 9.949806359104882e+00
 1.149533371659061e+00	 1.875788036087948e+00	 9.661285114933836e+00
 1.105501145109517e+00	 1.902071300979821e+00	 9.387854596200119e+00
 1.061004151661226e+00	 1.927246360875348e+00	 9.126946826677177e+00
 1.016083315386973e+00	 1.951302998742938e+00	 8.878667174092126e+00
 9.707797183209194e-01	 1.974232960775937e+00	 8.643924846758381e+00
 9.251344862130573e-01	 1.996029945496535e+00	 8.424120825995658e+00
 1.378996087839941e+00	 1.750688419015513e+00	 1.091076931542247e+01
 1.337353999944136e+00	 1.782701421950002e+00	 1.069870763906542e+01
 1.295040360109754e+00	 1.813673220809415e+00	 1.046300340433703e+01
 1.252094053533134e+00	 1.843583643820493e+00	 1.020037129833056e+01
 1.208554715435697e+00	 1.872414439446317e+00	 9.921412824486074e+00
 1.164462613804191e+00	 1.900149306925160e+00	 9.658103891018687e+00
 1.119858531066031e+00	 1.926773918345495e+00	 9.407480624463233e+00
 1.074783645399458e+00	 1.952275932268047e+00	 9.165577429079363e+00
 1.029279412367186e+00	 1.976644998970399e+00	 8.932112902890729e+00
 9.833874475447796e-01	 1.999872757451908e+00	 8.708321271555118e+00
 9.371494107913850e-01	 2.021952824396092e+00	 8.495893757974617e+00
 1.396675831178781e+00	 1.773133531214161e+00	 1.088485148079944e+01
 1.354499861111174e+00	 1.805556964373982e+00	 1.066561897256091e+01
 1.311643729315537e+00	 1.836925844457252e+00	 1.041947606046188e+01
 1.268146819525018e+00	 1.867219741073760e+00	 1.015015647372774e+01
 1.224049275113726e+00	 1.896420168688476e+00	 9.894568609109896e+00
 1.179391880333604e+00	 1.924510617551938e+00	 9.653948741555689e+00
 1.134215940472779e+00	 1.951476576058266e+00	 9.423108241899595e+00
 1.088563161644013e+00	 1.977305544541874e+00	 9.197609907380162e+00
 1.042475530900817e+00	 2.001987040589301e+00	 8.976258542325771e+00
 9.959951973610345e-01	 2.025512596005739e+00	 8.760573356282887e+00
 9.491643549938378e-01	 2.047875745635905e+00	 8.552553630470346e+00
 1.414355599269022e+00	 1.795578674835525e+00	 1.084499692618815e+01
 1.371645746282186e+00	 1.828412538795263e+00	 1.061543834893980e+01
 1.328247121765810e+00	 1.860178500658288e+00	 1.035748650447596e+01
 1.284199607990552e+00	 1.890855871417078e+00	 1.010693722926514e+01
 1.239543856483913e+00	 1.920425931538165e+00	 9.874102198617518e+00
 1.194321167763761e+00	 1.948871962284054e+00	 9.653349610814530e+00
 1.148573369979663e+00	 1.976179268354262e+00	 9.439308449961896e+00
 1.102342697179644e+00	 2.002335191856667e+00	 9.227382029469315e+00
 1.055671667908755e+00	 2.027329117686581e+00	 9.015408190925141e+00
 1.008602964827866e+00	 2.051152470454882e+00	 8.804955974294412e+00
 9.611793160169217e-01	 2.073798703167367e+00	 8.598351970846398e+00
 1.432035387985319e+00	 1.818023844642459e+00	 1.079617701320750e+01
 1.388791651456402e+00	 1.851268139880942e+00	 1.055316556639205e+01
 1.344850533586389e+00	 1.883431183986979e+00	 1.030472641173530e+01
 1.300252415184027e+00	 1.914492029335430e+00	 1.007702096287806e+01
 1.255038455930807e+00	 1.944431722394120e+00	 9.864342355889688e+00
 1.209250472611122e+00	 1.973233335437281e+00	 9.660718662263534e+00
 1.162930816236587e+00	 2.000881989469611e+00	 9.460556264848700e+00
 1.116122248791105e+00	 2.027364868372265e+00	 9.259189132559232e+00
 1.068867820311888e+00	 2.052671224349178e+00	 9.053810779565708e+00
 1.021210747003453e+00	 2.076792374816782e+00	 8.845678534033897e+00
 9.731942910571415e-01	 2.099721690941868e+00	 8.637465925610002e+00
 1.449715193202329e+00	 1.840469035397816e+00	 1.074331590800956e+01
 1.405937572633050e+00	 1.874123762298116e+00	 1.049741079766843e+01
 1.361453960903086e+00	 1.906683889017774e+00	 1.027173502356781e+01
 1.316305237359739e+00	 1.938128209313798e+00	 1.006449021978995e+01
 1.270533069838961e+00	 1.968437535655084e+00	 9.869484455843349e+00
 1.224179791392148e+00	 1.997594731327395e+00	 9.680347775474289e+00
 1.177288275893453e+00	 2.025584733640440e+00	 9.491218634206026e+00
 1.129901813263149e+00	 2.052394568248506e+00	 9.297338944485404e+00
 1.082063985031103e+00	 2.078013354664025e+00	 9.095665457714677e+00
 1.033818540945975e+00	 2.102432303108889e+00	 8.886890030314404e+00
 9.852092773110036e-01	 2.125644702910801e+00	 8.674003011608278e+00
 1.467395010794707e+00	 1.862914241864448e+00	 1.069443234623896e+01
 1.423083505811358e+00	 1.896979400713880e+00	 1.046741504620579e+01
 1.378057399841715e+00	 1.929936610325127e+00	 1.026230551907754e+01
 1.332358070771981e+00	 1.961764405837163e+00	 1.007327625325905e+01
 1.286027694592921e+00	 1.992443365719793e+00	 9.893587118969034e+00
 1.239109120623299e+00	 2.021956144270168e+00	 9.716405984551054e+00
 1.191645745600165e+00	 2.050287495102876e+00	 9.535552648531898e+00
 1.143681387380531e+00	 2.077424285645229e+00	 9.346142868198967e+00
 1.095260158987288e+00	 2.103355502718061e+00	 9.145126872356551e+00
 1.046426343713615e+00	 2.128072249348652e+00	 8.932683972548222e+00
 9.972242719750127e-01	 2.151567733025559e+00	 8.712005728574329e+00
 1.485074836637110e+00	 1.885359458805209e+00	 1.067339959065132e+01
 1.440229446990556e+00	 1.919835049795331e+00	 1.046665343627821e+01
 1.394660846528090e+00	 1.953189342483491e+00	 1.028005989000462e+01
 1.348410911675046e+00	 1.985400613390509e+00	 1.010715480453075e+01
 1.301522326577239e+00	 2.016449206986989e+00	 9.940568806643645e+00
 1.254038456821034e+00	 2.046317568581372e+00	 9.772936863056469e+00
 1.206003222006625e+00	 2.074990268093046e+00	 9.597703684028028e+00
 1.157460967928004e+00	 2.102454014722270e+00	 9.409820116652270e+00
 1.108456339101332e+00	 2.128697662598223e+00	 9.206310348539780e+00
 1.059034152364551e+00	 2.153712207553518e+00	 8.987103200176817e+00
 1.009239272245674e+00	 2.177490775237533e+00	 8.755456044573318e+00
 1.502754666604192e+00	 1.907804680982951e+00	 1.068603171789857e+01
 1.457375392169871e+00	 1.942690704209564e+00	 1.049839772047122e+01
 1.411264297088024e+00	 1.976442080067318e+00	 1.032844388000762e+01
 1.364463756323229e+00	 2.009036826458815e+00	 1.016974186211590e+01
 1.317016962176464e+00	 2.040455053855409e+00	 1.001420438148842e+01
 1.268967796501815e+00	 2.070678998576784e+00	 9.853855859937369e+00
 1.220360701762737e+00	 2.099693046847078e+00	 9.681703482623174e+00
 1.171240551690321e+00	 2.127483749639469e+00	 9.492489511397547e+00
 1.121652522294121e+00	 2.154039828391445e+00	 9.283303322603818e+00
 1.071641963956963e+00	 2.179352171740935e+00	 9.054144594583018e+00
 1.021254275319494e+00	 2.203413823498115e+00	 8.808279764811504e+00
 9.011047071427561e-01	 1.944184338912621e+00	 8.217828188606159e+00
 8.563554504907798e-01	 1.964305989875833e+00	 7.993786543862170e+00
 8.113532622699493e-01	 1.983317609079910e+00	 7.781859769032124e+00
 7.661376644938679e-01	 2.001218638274965e+00	 7.575580768921503e+00
 7.207478041783260e-01	 2.018010305879684e+00	 7.368306776774846e+00
 6.752223582133712e-01	 2.033695582266328e+00	 7.158391450405146e+00
 6.295994428053465e-01	 2.048279129426679e+00	 6.950553791497467e+00
 5.839165278325178e-01	 2.061767245487008e+00	 6.749536256277290e+00
 5.382103564084196e-01	 2.074167804559254e+00	 6.559090902833514e+00
 4.925168698970661e-01	 2.085490192429206e+00	 6.381665433308489e+00
 4.468711385742824e-01	 2.095745238590854e+00	 6.218385063742994e+00
 9.131195840623495e-01	 1.970107114985842e+00	 8.332904023697759e+00
 8.677736633306650e-01	 1.990497057922019e+00	 8.118318157920857e+00
 8.221714385678736e-01	 2.009762168493958e+00	 7.912287050440937e+00
 7.763529587542143e-01	 2.027901881008348e+00	 7.709728771167324e+00
 7.303578928720832e-01	 2.044917440262993e+00	 7.505229471251491e+00
 6.842254335097112e-01	 2.060811856235608e+00	 7.296935358012609e+00
 6.379942050957519e-01	 2.075589853078626e+00	 7.090514786721339e+00
 5.917021771129675e-01	 2.089257812894368e+00	 6.891689784377855e+00
 5.453865825890746e-01	 2.101823714784221e+00	 6.704699248122855e+00
 4.990838421121448e-01	 2.113297069679323e+00	 6.532064360605790e+00
 4.528294935674085e-01	 2.123688851468689e+00	 6.374679197288454e+00
 9.251344862130573e-01	 1.996029945496535e+00	 8.424120825995651e+00
 8.791919001486402e-01	 2.016688180969135e+00	 8.216101300485555e+00
 8.329896375837865e-01	 2.036206783441316e+00	 8.013319672175594e+00
 7.865682744664770e-01	 2.054585179776326e+00	 7.812073162567698e+00
 7.399680017468047e-01	 2.071824631151114e+00	 7.608266145046507e+00
 6.932285277122676e-01	 2.087928187148926e+00	 7.399843764196411e+00
 6.463889850148938e-01	 2.102900634082976e+00	 7.192810400046792e+00
 5.994878427429898e-01	 2.116748438031804e+00	 6.993603395638811e+00
 5.525628238394817e-01	 2.129479683086464e+00	 6.806597400596189e+00
 5.056508281175021e-01	 2.141104005323695e+00	 6.633961719912024e+00
 4.587878610726681e-01	 2.151632523027843e+00	 6.475874629892211e+00
 9.371494107913850e-01	 2.021952824396092e+00	 8.495893757974617e+00
 8.906101582804354e-01	 2.042879352905968e+00	 8.291542761643749e+00
 8.438078567934267e-01	 2.062651447751618e+00	 8.089347807983716e+00
 7.967836092470637e-01	 2.081268528352833e+00	 7.886977871505922e+00
 7.495781285601114e-01	 2.098731872265736e+00	 7.681666127837743e+00
 7.022316387202944e-01	 2.115044568679169e+00	 7.471473662999007e+00
 6.547837806039640e-01	 2.130211466067240e+00	 7.262034239569401e+00
 6.072735229059022e-01	 2.144239114484863e+00	 7.060209126810418e+00
 5.597390784851577e-01	 2.157135703012948e+00	 6.870129942238843e+00
 5.122178263808185e-01	 2.168910992874072e+00	 6.693154046155810e+00
 4.647462396997594e-01	 2.179576246748170e+00	 6.528218554523900e+00
 9.491643549938378e-01	 2.047875745635905e+00	 8.552553630470349e+00
 9.020284350617788e-01	 2.069070567621301e+00	 8.348958273445925e+00
 8.546260936725306e-01	 2.089096155254496e+00	 8.144665846300629e+00
 8.069989607123828e-01	 2.107951920511804e+00	 7.938708285604934e+00
 7.591882710696228e-01	 2.125639157328543e+00	 7.729627479694939e+00
 7.112347644330455e-01	 2.142160994499219e+00	 7.515992317445338e+00
 6.631785899041536e-01	 2.157522342658927e+00	 7.302535026619758e+00
 6.150592157850218e-01	 2.171729835839091e+00	 7.096155988222907e+00
 5.669153448516200e-01	 2.184791768110645e+00	 6.900336434613490e+00
 5.187848353697744e-01	 2.196718025842201e+00	 6.715125763388471e+00
 4.707046280583811e-01	 2.207520016109523e+00	 6.537652291739149e+00
 9.611793160169217e-01	 2.073798703167367e+00	 8.598351970846398e+00
 9.134467278283995e-01	 2.095261819003922e+00	 8.392577334071127e+00
 8.654443456968361e-01	 2.115540899779582e+00	 8.183476975264737e+00
 8.172143264788410e-01	 2.134635350027170e+00	 7.971435603876541e+00
 7.687984270329589e-01	 2.152546480061226e+00	 7.756281474630086e+00
 7.202379027497734e-01	 2.169277458281962e+00	 7.537408343019072e+00
 6.715734109566542e-01	 2.184833257485551e+00	 7.318442793811288e+00
 6.228449195636652e-01	 2.199220595680037e+00	 7.105831783559664e+00
 5.740916212643855e-01	 2.212447871926523e+00	 6.901969362995979e+00
 5.253518535520501e-01	 2.224525097739836e+00	 6.705281407228481e+00
 4.766630247582314e-01	 2.235463824591756e+00	 6.517772092115638e+00
 9.731942910571415e-01	 2.099721690941868e+00	 8.637465925610000e+00
 9.248650339160273e-01	 2.121453100942614e+00	 8.426547849263875e+00
 8.762626103420796e-01	 2.141985675156507e+00	 8.209897570620768e+00
 8.274297041628477e-01	 2.161318810672869e+00	 7.989240980185994e+00
 7.784085942077392e-01	 2.179453834185470e+00	 7.765668100901538e+00
 7.292410515697333e-01	 2.196393953700282e+00	 7.539602568810798e+00
 6.799682418026569e-01	 2.212144204174621e+00	 7.313694857839071e+00
 6.306306324251501e-01	 2.226711387593247e+00	 7.094098246551224e+00
 5.812679060489715e-01	 2.240104008007556e+00	 6.891183139649354e+00
 5.319188793953259e-01	 2.252332202078722e+00	 6.703652722216716e+00
 4.826214284090086e-01	 2.263407665674720e+00	 6.525524937013660e+00
 9.852092773110036e-01	 2.125644702910801e+00	 8.674003011608274e+00
 9.362833506603903e-01	 2.147644407326164e+00	 8.454940606643238e+00
 8.870808850839987e-01	 2.168430475214904e+00	 8.227961403341858e+00
 8.376450913808093e-01	 2.188002296222832e+00	 7.996119475855728e+00
 7.880187703515840e-01	 2.206361213422964e+00	 7.761739719139999e+00
 7.382442087921779e-01	 2.223510474427063e+00	 7.526419339202718e+00
 6.883630804833533e-01	 2.239455176353646e+00	 7.302343346591000e+00
 6.384163525527926e-01	 2.254202205164268e+00	 7.098390717432621e+00
 5.884441975308947e-01	 2.267760169900707e+00	 6.912150796962626e+00
 5.384859113672825e-01	 2.280139332370609e+00	 6.738856891883986e+00
 4.885798376204115e-01	 2.291351532838271e+00	 6.572688803213328e+00
 9.972242719750127e-01	 2.151567733025559e+00	 8.712005728574333e+00
 9.477016753972178e-01	 2.173835732043358e+00	 8.481753596979848e+00
 8.978991673983311e-01	 2.194875293784405e+00	 8.241623682176781e+00
 8.478604857491346e-01	 2.214685800450993e+00	 7.995983837505419e+00
 7.976289532221126e-01	 2.233268611495395e+00	 7.752675040274558e+00
 7.472473723163612e-01	 2.250627014135192e+00	 7.529530906274796e+00
 6.967579250399345e-01	 2.266766167650141e+00	 7.325754743439829e+00
 6.462020781299100e-01	 2.281693041978648e+00	 7.140502664870318e+00
 5.956204940356730e-01	 2.295416351152951e+00	 6.971249771392670e+00
 5.450529479355999e-01	 2.307946482127250e+00	 6.813330273795393e+00
 4.945382510021382e-01	 2.319295419562262e+00	 6.661216520112046e+00
 1.009239272245674e+00	 2.177490775237533e+00	 8.755456044573316e+00
 9.591200054622393e-01	 2.200027068982981e+00	 8.510916195191832e+00
 9.087174547608134e-01	 2.221320124694642e+00	 8.254764944880963e+00
 8.580758848842309e-01	 2.241369317131286e+00	 8.005698535566605e+00
 8.072391405769455e-01	 2.260176022124451e+00	 7.780080526506246e+00
 7.562505400415364e-01	 2.277743566497550e+00	 7.575987276511282e+00
 7.051527735135920e-01	 2.294077171691613e+00	 7.391086245415889e+00
 6.539878073398204e-01	 2.309183891621933e+00	 7.223767003872630e+00
 6.027967938888227e-01	 2.323072545311256e+00	 7.071406312650277e+00
 5.516199875679589e-01	 2.335753644860390e+00	 6.929546378485604e+00
 5.004966671638872e-01	 2.347239319326546e+00	 6.793101277343011e+00
 1.021254275319494e+00	 2.203413823498115e+00	 8.808279764811502e+00
 9.705383381911835e-01	 2.226218412033819e+00	 8.546867747911648e+00
 9.195357446471829e-01	 2.247764961775247e+00	 8.294434820111952e+00
 8.682912864025066e-01	 2.268052840037646e+00	 8.064503562990183e+00
 8.168493301737020e-01	 2.287083439031819e+00	 7.856679020192102e+00
 7.652537098669578e-01	 2.304860125187024e+00	 7.669712401368853e+00
 7.135476239455169e-01	 2.321388182105574e+00	 7.501997641088161e+00
 6.617735383658393e-01	 2.336674747679672e+00	 7.351523183653661e+00
 6.099730954158611e-01	 2.350728745922590e+00	 7.215570940954890e+00
 5.581870287320395e-01	 2.363560814081782e+00	 7.090013600688183e+00
 5.064550847153568e-01	 2.375183225610976e+00	 6.970375485598156e+00
 4.468711385742824e-01	 2.095745238590854e+00	 6.218385063742994e+00
 4.013041199599467e-01	 2.104945752665670e+00	 6.065772552554639e+00
 3.558522001257046e-01	 2.113104484097469e+00	 5.941278251596821e+00
 3.105475286562914e-01	 2.120236161104302e+00	 5.858876835913916e+00
 2.654211621986743e-01	 2.126356657843749e+00	 5.809066356042322e+00
 2.205030246005063e-01	 2.131482915648935e+00	 5.782817613036830e+00
 1.758218729016718e-01	 2.135632863581875e+00	 5.773680039861381e+00
 1.314052690675156e-01	 2.138825338746525e+00	 5.777659668321256e+00
 8.727955731953703e-02	 2.141080006780534e+00	 5.792789957266997e+00
 4.346984688988957e-02	 2.142417282919225e+00	 5.818533841553080e+00
 0.000000000000000e+00	 2.142858253998148e+00	 5.855138683431552e+00
 4.528294935674085e-01	 2.123688851468689e+00	 6.374679197288460e+00
 4.066549072467315e-01	 2.133012040570839e+00	 6.230504820238918e+00
 3.605969543753242e-01	 2.141279556424241e+00	 6.116556084341687e+00
 3.146882132043028e-01	 2.148506323625581e+00	 6.046075118848450e+00
 2.689601544743329e-01	 2.154708427990457e+00	 6.007457206276521e+00
 2.234431010225897e-01	 2.159903036739187e+00	 5.990141073142996e+00
 1.781661933208527e-01	 2.164108317990864e+00	 5.987263571811474e+00
 1.331573608318394e-01	 2.167343360013901e+00	 5.995194185673019e+00
 8.844329903763873e-02	 2.169628090657649e+00	 6.012760367508433e+00
 4.404945196426673e-02	 2.170983197363897e+00	 6.040316055025988e+00
 0.000000000000000e+00	 2.171430048129439e+00	 6.078787015478719e+00
 4.587878610726681e-01	 2.151632523027843e+00	 6.475874629892207e+00
 4.120057057696991e-01	 2.161078387414830e+00	 6.331048189060015e+00
 3.653417185883985e-01	 2.169454687918146e+00	 6.215253986639370e+00
 3.188289064471713e-01	 2.176776545513529e+00	 6.140663544796308e+00
 2.724991541812601e-01	 2.183060257675044e+00	 6.094410833697387e+00
 2.263831836182095e-01	 2.188323217510695e+00	 6.065312743940901e+00
 1.805105186625078e-01	 2.192583832197163e+00	 6.047103334628228e+00
 1.349094562750247e-01	 2.195861441167846e+00	 6.037581380893992e+00
 8.960704319918396e-02	 2.198176234484363e+00	 6.037448140977574e+00
 4.462905825557521e-02	 2.199549171795546e+00	 6.049002701296283e+00
 0.000000000000000e+00	 2.200001902260030e+00	 6.074841387514946e+00
 4.647462396997594e-01	 2.179576246748170e+00	 6.528218554523900e+00
 4.173565142803254e-01	 2.189144786648887e+00	 6.374038647232556e+00
 3.700864916578231e-01	 2.197629872005055e+00	 6.244293166781331e+00
 3.229696074187555e-01	 2.205046820171845e+00	 6.149463698901370e+00
 2.760381604937227e-01	 2.211412140282193e+00	 6.076191553667059e+00
 2.293232717013898e-01	 2.216743451332210e+00	 6.013688232498020e+00
 1.828548483796763e-01	 2.221059399556625e+00	 5.957407346367390e+00
 1.366615549882974e-01	 2.224379575554299e+00	 5.908484045048247e+00
 9.077078953267355e-02	 2.226724431599611e+00	 5.871993863643278e+00
 4.520866562859899e-02	 2.228115199548951e+00	 5.851611124964037e+00
 0.000000000000000e+00	 2.228573809723331e+00	 5.851010404298785e+00
 4.707046280583811e-01	 2.207520016109523e+00	 6.537652291739149e+00
 4.227073315300849e-01	 2.217211231724250e+00	 6.365824777356217e+00
 3.748312724764941e-01	 2.225805102110845e+00	 6.211201551572741e+00
 3.271103151529152e-01	 2.233317141004235e+00	 6.088826659887963e+00
 2.795771725859872e-01	 2.239764069196581e+00	 5.988194048270024e+00
 2.322633645861538e-01	 2.245163731572482e+00	 5.900030328254164e+00
 1.851991819253973e-01	 2.249535013425104e+00	 5.820722030812946e+00
 1.384136565628835e-01	 2.252897756519193e+00	 5.750580094584031e+00
 9.193453776660820e-02	 2.255272675342323e+00	 5.692350211371577e+00
 4.578827394812197e-02	 2.256681273958894e+00	 5.649924742474807e+00
 0.000000000000000e+00	 2.257145763852756e+00	 5.627233190279948e+00
 4.766630247582314e-01	 2.235463824591756e+00	 6.517772092115645e+00
 4.280581562704530e-01	 2.245277716092162e+00	 6.340617721110331e+00
 3.795760599373075e-01	 2.253980371661389e+00	 6.183897328767815e+00
 3.312510286835092e-01	 2.261587501414402e+00	 6.055791672363486e+00
 2.831161896323204e-01	 2.268116037802888e+00	 5.945889530040483e+00
 2.352034615865254e-01	 2.273584051600257e+00	 5.845951107421734e+00
 1.875435187527101e-01	 2.278010667158456e+00	 5.753261497976177e+00
 1.401657605900090e-01	 2.281415977408467e+00	 5.668832437714164e+00
 9.309828762948874e-02	 2.283820959051435e+00	 5.595923959717320e+00
 4.636788307892815e-02	 2.285247388360155e+00	 5.538774772880226e+00
 0.000000000000000e+00	 2.285717757981713e+00	 5.501515561073349e+00
 4.826214284090086e-01	 2.263407665674720e+00	 6.525524937013657e+00
 4.334089872529048e-01	 2.273344233203864e+00	 6.355542716164019e+00
 3.843208529331591e-01	 2.282155674082561e+00	 6.202847582240183e+00
 3.353917470443969e-01	 2.289857894806049e+00	 6.074283728548654e+00
 2.866552108069889e-01	 2.296468039485798e+00	 5.960692235646182e+00
 2.381435620165281e-01	 2.302004404784288e+00	 5.854892354353617e+00
 1.898878583146538e-01	 2.306486354112535e+00	 5.755092920763374e+00
 1.419178666609000e-01	 2.309934231568060e+00	 5.662997631616621e+00
 9.426203884981596e-02	 2.312369276065880e+00	 5.582345076640433e+00
 4.694749288580142e-02	 2.313813536087512e+00	 5.517664636565523e+00
 0.000000000000000e+00	 2.314289785443615e+00	 5.473219441108540e+00
 4.885798376204115e-01	 2.291351532838271e+00	 6.572688803213328e+00
 4.387598232289152e-01	 2.301410776510600e+00	 6.413348511069669e+00
 3.890656503569449e-01	 2.310331002800236e+00	 6.268976733361997e+00
 3.395324692694373e-01	 2.318128314582881e+00	 6.144865800753431e+00
 2.901942352842594e-01	 2.324820067629985e+00	 6.032885143917641e+00
 2.410836651901858e-01	 2.330424784493322e+00	 5.926920316685724e+00
 1.922322000642677e-01	 2.334962067643195e+00	 5.826115739506327e+00
 1.436699743667824e-01	 2.338452512343903e+00	 5.732843393922588e+00
 9.542579115609053e-02	 2.340917619724591e+00	 5.651268858440401e+00
 4.752710323352581e-02	 2.342379710475750e+00	 5.586140316898228e+00
 0.000000000000000e+00	 2.342861839571873e+00	 5.541768507423725e+00
 4.945382510021382e-01	 2.319295419562262e+00	 6.661216520112046e+00
 4.441106629499594e-01	 2.329477339463609e+00	 6.515491762874650e+00
 3.938104511015607e-01	 2.338506351240289e+00	 6.383243927659688e+00
 3.436731943924898e-01	 2.346398754148604e+00	 6.268111040715429e+00
 2.937332622383985e-01	 2.353172115620133e+00	 6.162751258566220e+00
 2.440237704215221e-01	 2.358845184096109e+00	 6.062098628737818e+00
 1.945765434545909e-01	 2.363437801106293e+00	 5.966230582840025e+00
 1.454220832988823e-01	 2.366970813081937e+00	 5.878147746572528e+00
 9.658954427681339e-02	 2.369465983366502e+00	 5.802374185727514e+00
 4.810671398688521e-02	 2.370945904859646e+00	 5.743787672860030e+00
 0.000000000000000e+00	 2.371433913699896e+00	 5.706644481296983e+00
 5.004966671638872e-01	 2.347239319326546e+00	 6.793101277343011e+00
 4.494615051675126e-01	 2.357543915514136e+00	 6.663468239619752e+00
 3.985552540599027e-01	 2.366681712828594e+00	 6.546643383977287e+00
 3.478139214474135e-01	 2.374669206906916e+00	 6.444605280279821e+00
 2.972722908436731e-01	 2.381524176840923e+00	 6.350575240770223e+00
 2.469638770245606e-01	 2.387265596961397e+00	 6.260489121902191e+00
 1.969208879386627e-01	 2.391913547857680e+00	 6.175339278036232e+00
 1.471741930484259e-01	 2.395489127128098e+00	 6.098698224237624e+00
 9.775329794048515e-02	 2.398014360330546e+00	 6.035361904252305e+00
 4.868632501066357e-02	 2.399512112573981e+00	 5.990229943316001e+00
 0.000000000000000e+00	 2.400006001161099e+00	 5.967383684587416e+00
 5.064550847153568e-01	 2.375183225610976e+00	 6.970375485598153e+00
 4.548123486330496e-01	 2.385610498113419e+00	 6.858812516382408e+00
 4.033000581248664e-01	 2.394857080991023e+00	 6.760204620676890e+00
 3.519546494680674e-01	 2.402939666261527e+00	 6.674949432601807e+00
 3.008113202743494e-01	 2.409876244677030e+00	 6.596644972310152e+00
 2.499039843133249e-01	 2.415686016457935e+00	 6.522152602127687e+00
 1.992652329695220e-01	 2.420389301253213e+00	 6.453344871374750e+00
 1.489263032066389e-01	 2.424007447828322e+00	 6.394291141994232e+00
 9.891705187560663e-02	 2.426562743955656e+00	 6.349953320317981e+00
 4.926593616964485e-02	 2.428078326953535e+00	 6.325125427149993e+00
 0.000000000000000e+00	 2.428578095288889e+00	 6.323573838994032e+00
 2.428578095288889e+00	 0.000000000000000e+00	 1.144389959695352e+01
 2.428078326953535e+00	 4.926593616964552e-02	 1.149525236545848e+01
 2.426562743955656e+00	 9.891705187560726e-02	 1.152172140481374e+01
 2.424007447828321e+00	 1.489263032066394e-01	 1.153274075855623e+01
 2.420389301253213e+00	 1.992652329695225e-01	 1.153755863763671e+01
 2.415686016457935e+00	 2.499039843133253e-01	 1.154500273276075e+01
 2.409876244677030e+00	 3.008113202743498e-01	 1.156318473986180e+01
 2.402939666261527e+00	 3.519546494680676e-01	 1.159912824378561e+01
 2.394857080991023e+00	 4.033000581248665e-01	 1.165102616447188e+01
 2.385610498113419e+00	 4.548123486330496e-01	 1.169713295364901e+01
 2.375183225610976e+00	 5.064550847153568e-01	 1.173859991047338e+01
 2.457148191076638e+00	 0.000000000000000e+00	 1.135833091265084e+01
 2.456642543404279e+00	 4.984550679044820e-02	 1.141110230538718e+01
 2.455109130899046e+00	 1.000807244174084e-01	 1.144003804831550e+01
 2.452523773949434e+00	 1.506782908216843e-01	 1.145409806682750e+01
 2.448863063046804e+00	 2.016094140360803e-01	 1.146216672124914e+01
 2.444104448222601e+00	 2.528438859699410e-01	 1.147285183236599e+01
 2.438226329561802e+00	 3.043501021840249e-01	 1.149422339713839e+01
 2.431208148372522e+00	 3.560950878846842e-01	 1.153347477909592e+01
 2.423030478560541e+00	 4.080445303364846e-01	 1.158711456005479e+01
 2.413675117728286e+00	 4.601628178586274e-01	 1.163443848582460e+01
 2.403125177491006e+00	 5.124130855329354e-01	 1.167712456486760e+01
 2.485718290197548e+00	 0.000000000000000e+00	 1.129909601089633e+01
 2.485206763187497e+00	 5.042507747885627e-02	 1.135102171778277e+01
 2.483655521172824e+00	 1.012443970949316e-01	 1.138029212173142e+01
 2.481040103397424e+00	 1.524302786410459e-01	 1.139534583045524e+01
 2.477336828162299e+00	 2.039535953759922e-01	 1.140465522854677e+01
 2.472522883302711e+00	 2.557837879693534e-01	 1.141656220902574e+01
 2.466576417754033e+00	 3.078888845063059e-01	 1.143905434747879e+01
 2.459476633781447e+00	 3.602355267840427e-01	 1.147946287129752e+01
 2.451203879416894e+00	 4.127890031012637e-01	 1.153250779941348e+01
 2.441739740617289e+00	 4.655132877080258e-01	 1.157922501312938e+01
 2.431067132630856e+00	 5.183710870451880e-01	 1.162164886064964e+01
 2.514288395984781e+00	 0.000000000000000e+00	 1.126386406133061e+01
 2.513770989635663e+00	 5.100464830248827e-02	 1.131309785141004e+01
 2.512201918107383e+00	 1.024080700439487e-01	 1.134097976815502e+01
 2.509556439499169e+00	 1.541822668691454e-01	 1.135536944716463e+01
 2.505810599921607e+00	 2.062977772627850e-01	 1.136426825117731e+01
 2.500941325013704e+00	 2.587236906546096e-01	 1.137569488771361e+01
 2.494926512561187e+00	 3.114276676541306e-01	 1.139750251963521e+01
 2.487745125786239e+00	 3.643759666492947e-01	 1.143711721502869e+01
 2.479377286846910e+00	 4.175334769728470e-01	 1.148744099626912e+01
 2.469804370054565e+00	 4.708637588056057e-01	 1.153184450669105e+01
 2.459009094290348e+00	 5.243290899473696e-01	 1.157256132901773e+01
 2.542858511771497e+00	 0.000000000000000e+00	 1.125032776152051e+01
 2.542335226081252e+00	 5.158421932896269e-02	 1.129544954869358e+01
 2.540748325033114e+00	 1.035717434002311e-01	 1.132063871820308e+01
 2.538072785581547e+00	 1.559342557104042e-01	 1.133310752432432e+01
 2.534284381646630e+00	 2.086419599699860e-01	 1.134031600998248e+01
 2.529359776671024e+00	 2.616635943687567e-01	 1.134989088290065e+01
 2.523276617290722e+00	 3.149664520404362e-01	 1.136948725632727e+01
 2.516013627684829e+00	 3.685164079635922e-01	 1.140657151776824e+01
 2.507550704137425e+00	 4.222779525048776e-01	 1.145227162023421e+01
 2.497869009314247e+00	 4.762142317757283e-01	 1.149276700612571e+01
 2.486951065729305e+00	 5.302870949347357e-01	 1.153036230425611e+01
 2.571428640890857e+00	 0.000000000000000e+00	 1.125620202600374e+01
 2.570899475856735e+00	 5.216379062589809e-02	 1.129622608011432e+01
 2.569294745280404e+00	 1.047354172995505e-01	 1.131784727740908e+01
 2.566589144971435e+00	 1.576862453692432e-01	 1.132755101688334e+01
 2.562758176659271e+00	 2.109861437711217e-01	 1.133217413030791e+01
 2.557778241590113e+00	 2.646034994548417e-01	 1.133887058682040e+01
 2.551626735250099e+00	 3.185052380781602e-01	 1.135502177937004e+01
 2.544282142775149e+00	 3.726568512100876e-01	 1.138804065702258e+01
 2.535724134575267e+00	 4.270224302509985e-01	 1.142747382580687e+01
 2.525933661670475e+00	 4.815647072427551e-01	 1.146257368733243e+01
 2.514893050207545e+00	 5.362451027025408e-01	 1.149565559717306e+01
 2.599998786676022e+00	 0.000000000000000e+00	 1.127787954271169e+01
 2.599463742294588e+00	 5.274336226091296e-02	 1.131246478780093e+01
 2.597841182179645e+00	 1.058990918776787e-01	 1.133056541997026e+01
 2.595105520995713e+00	 1.594382360500835e-01	 1.133759359802099e+01
 2.591231988281439e+00	 2.133303289397198e-01	 1.133928298734147e+01
 2.586196723086415e+00	 2.675434062559121e-01	 1.134243323101420e+01
 2.579976869746779e+00	 3.220440261802399e-01	 1.135421273476472e+01
 2.572550674355130e+00	 3.767972968719324e-01	 1.138175321010423e+01
 2.563897581447272e+00	 4.317669107648530e-01	 1.141363288575319e+01
 2.553998330397381e+00	 4.869151858310471e-01	 1.144195005295956e+01
 2.542835050984890e+00	 5.422031139460401e-01	 1.146914031382804e+01
 2.628568952460155e+00	 0.000000000000000e+00	 1.128676069777098e+01
 2.628028028727284e+00	 5.332293430162584e-02	 1.131653987419122e+01
 2.626387639061227e+00	 1.070627672703870e-01	 1.133298629953098e+01
 2.623621916981256e+00	 1.611902279573465e-01	 1.134066310634379e+01
 2.619705819835037e+00	 2.156745157493069e-01	 1.134446261179935e+01
 2.614615224475370e+00	 2.704833151150147e-01	 1.134965072041888e+01
 2.608327024088222e+00	 3.255828167596128e-01	 1.136189791352825e+01
 2.600819225722707e+00	 3.809377454322790e-01	 1.138678215668917e+01
 2.592071048040271e+00	 4.365113946000840e-01	 1.141143972092995e+01
 2.582063018769103e+00	 4.922656681649655e-01	 1.143167923619819e+01
 2.570777071321162e+00	 5.481611293604884e-01	 1.145160280847613e+01
 2.657139141576415e+00	 0.000000000000000e+00	 1.127415494677509e+01
 2.656592338487297e+00	 5.390250681565528e-02	 1.129916212290089e+01
 2.654934119255542e+00	 1.082264436134473e-01	 1.131401870985396e+01
 2.652138336254943e+00	 1.629422212954534e-01	 1.132247169972369e+01
 2.648179674641969e+00	 2.180187044734102e-01	 1.132864201851376e+01
 2.643033749072421e+00	 2.734232263751967e-01	 1.133708023048339e+01
 2.636677201581889e+00	 3.291216102292162e-01	 1.135281101945808e+01
 2.629087800175811e+00	 3.850781973742794e-01	 1.138045850532534e+01
 2.620244537641097e+00	 4.412558823103350e-01	 1.140674948001986e+01
 2.610127730059779e+00	 4.976161548688717e-01	 1.142705692042489e+01
 2.598719114476180e+00	 5.541191496411408e-01	 1.144328864124477e+01
 2.685709357357963e+00	 0.000000000000000e+00	 1.124281144589274e+01
 2.685156674907101e+00	 5.448207987061972e-02	 1.126282689255167e+01
 2.683480626092976e+00	 1.093901210426312e-01	 1.127591748302061e+01
 2.680654782143652e+00	 1.646942162688252e-01	 1.128504691872672e+01
 2.676653556024144e+00	 2.203628953855565e-01	 1.129359099567506e+01
 2.671452300193009e+00	 2.763631403795051e-01	 1.130540447375420e+01
 2.665027405535240e+00	 3.326604070019876e-01	 1.132487919985372e+01
 2.657356401012377e+00	 3.892186531810851e-01	 1.135564266293530e+01
 2.648418053536582e+00	 4.460003744492488e-01	 1.138447398205757e+01
 2.638192467543541e+00	 5.029666465671266e-01	 1.140798485355136e+01
 2.626661183709767e+00	 5.600771754832522e-01	 1.142772889780152e+01
 2.714279603137963e+00	 0.000000000000000e+00	 1.119549619899984e+01
 2.713721041319172e+00	 5.506165353413778e-02	 1.121002529384469e+01
 2.712027162903924e+00	 1.105537996937102e-01	 1.122091544275966e+01
 2.709171257974258e+00	 1.664462130818831e-01	 1.123037994145768e+01
 2.705127467303463e+00	 2.227070887592731e-01	 1.124107494753176e+01
 2.699870881152579e+00	 2.793030574709873e-01	 1.125617736587889e+01
 2.693377639255736e+00	 3.361992074908643e-01	 1.127945677114384e+01
 2.685625031530335e+00	 3.933591133358488e-01	 1.131353429801799e+01
 2.676591599013558e+00	 4.507448715704688e-01	 1.134561351647499e+01
 2.666257234494528e+00	 5.083171438840918e-01	 1.137325683948199e+01
 2.654603282281744e+00	 5.660352075820778e-01	 1.139768254217874e+01
 2.375183225610976e+00	 5.064550847153568e-01	 1.173859991047338e+01
 2.363560814081782e+00	 5.581870287320392e-01	 1.177839900674320e+01
 2.350728745922590e+00	 6.099730954158608e-01	 1.181879007381293e+01
 2.336674747679672e+00	 6.617735383658389e-01	 1.186080813262722e+01
 2.321388182105573e+00	 7.135476239455165e-01	 1.190506710302181e+01
 2.304860125187024e+00	 7.652537098669574e-01	 1.195143722044515e+01
 2.287083439031819e+00	 8.168493301737020e-01	 1.199536120104680e+01
 2.268052840037646e+00	 8.682912864025062e-01	 1.203466985253432e+01
 2.247764961775247e+00	 9.195357446471825e-01	 1.206748207451531e+01
 2.226218412033818e+00	 9.705383381911828e-01	 1.209168727687959e+01
 2.203413823498114e+00	 1.021254275319494e+00	 1.210708189362769e+01
 2.403125177491006e+00	 5.124130855329354e-01	 1.167712456486760e+01
 2.391366038462201e+00	 5.647536105949142e-01	 1.171843520170246e+01
 2.378383012251739e+00	 6.171488950298640e-01	 1.176119325780620e+01
 2.364163681019469e+00	 6.695587248551793e-01	 1.180632778891061e+01
 2.348697282380046e+00	 7.219418872388188e-01	 1.185421152854372e+01
 2.331974787337016e+00	 7.742562500077729e-01	 1.190387887128865e+01
 2.313988974027140e+00	 8.264588476307683e-01	 1.195094425387088e+01
 2.294734496691165e+00	 8.785059734524475e-01	 1.199357749071748e+01
 2.274207949296761e+00	 9.303532778990772e-01	 1.202970217394684e+01
 2.252407923255008e+00	 9.819558723185190e-01	 1.205692516239376e+01
 2.229335058693659e+00	 1.033268438060432e+00	 1.207287714824169e+01
 2.431067132630856e+00	 5.183710870451880e-01	 1.162164886064964e+01
 2.419171266086489e+00	 5.713201932234585e-01	 1.166323565482572e+01
 2.406037281807146e+00	 6.243246954806220e-01	 1.170722362237417e+01
 2.391652617566236e+00	 6.773439122523932e-01	 1.175445351216737e+01
 2.376006385840516e+00	 7.303361515110857e-01	 1.180506852843607e+01
 2.359089452650325e+00	 7.832587911985565e-01	 1.185722729127503e+01
 2.340894512161383e+00	 8.360683662086561e-01	 1.190692077710121e+01
 2.321416156457493e+00	 8.887206616938498e-01	 1.195241743193582e+01
 2.300650939903248e+00	 9.411708124127963e-01	 1.199140923473323e+01
 2.278597437531599e+00	 9.933734077776991e-01	 1.202117848447308e+01
 2.255256296913310e+00	 1.045282602202825e+00	 1.203894019283585e+01
 2.459009094290348e+00	 5.243290899473696e-01	 1.157256132901773e+01
 2.446976500198511e+00	 5.778867773839382e-01	 1.161317406915209e+01
 2.433691557815066e+00	 6.315004976054838e-01	 1.165722009955769e+01
 2.419141560526945e+00	 6.851291014659266e-01	 1.170548242996507e+01
 2.403315495672971e+00	 7.387304177418225e-01	 1.175789931650657e+01
 2.386204124290263e+00	 7.922613344897759e-01	 1.181171972683457e+01
 2.367800056573470e+00	 8.456778870286425e-01	 1.186346761778675e+01
 2.348097822449439e+00	 8.989353523185880e-01	 1.191133347526880e+01
 2.327093936679673e+00	 9.519883494505386e-01	 1.195274627678365e+01
 2.304786957918997e+00	 1.004790945900915e+00	 1.198462616152963e+01
 2.281177541181177e+00	 1.057296769148464e+00	 1.200372780201667e+01
 2.486951065729305e+00	 5.302870949347357e-01	 1.153036230425611e+01
 2.474781744042139e+00	 5.844533638426209e-01	 1.156872749231108e+01
 2.461345843501758e+00	 6.386763022417976e-01	 1.161161405338766e+01
 2.446630513108567e+00	 6.929142934042268e-01	 1.165979135212007e+01
 2.430624615063410e+00	 7.471246869105351e-01	 1.171299859508782e+01
 2.413318805420145e+00	 8.012638809319000e-01	 1.176762652695249e+01
 2.394705610402325e+00	 8.552874112120055e-01	 1.182078850890834e+01
 2.374779497779813e+00	 9.091500465185367e-01	 1.187048957480866e+01
 2.353536942711009e+00	 9.628058902745034e-01	 1.191386941399054e+01
 2.330976487472603e+00	 1.016208488020358e+00	 1.194745298979419e+01
 2.307098794521370e+00	 1.069310940299143e+00	 1.196749392186731e+01
 2.514893050207545e+00	 5.362451027025408e-01	 1.149565559717306e+01
 2.502587000861241e+00	 5.910199533657733e-01	 1.153046652365081e+01
 2.489000142093479e+00	 6.458521102269126e-01	 1.157091801536628e+01
 2.474119478518071e+00	 7.006994889757403e-01	 1.161782404945009e+01
 2.457933747197826e+00	 7.555189599967284e-01	 1.167067225641387e+01
 2.440433499203286e+00	 8.102664315753974e-01	 1.172524300325097e+01
 2.421611176786868e+00	 8.648969398800225e-01	 1.177910530324400e+01
 2.401461185561423e+00	 9.193647454855693e-01	 1.183006050726226e+01
 2.379979961082225e+00	 9.736234361468893e-01	 1.187493802487191e+01
 2.357166029247821e+00	 1.027626035468222e+00	 1.190983939535217e+01
 2.333020059957994e+00	 1.081325117056653e+00	 1.193048058672141e+01
 2.542835050984890e+00	 5.422031139460401e-01	 1.146914031382804e+01
 2.530392273899682e+00	 5.975865467196622e-01	 1.149904569055165e+01
 2.516654456816485e+00	 6.530279223981774e-01	 1.153571461094539e+01
 2.501608459962430e+00	 7.084846890889146e-01	 1.158007874299676e+01
 2.485242895262215e+00	 7.639132379799086e-01	 1.163133050466787e+01
 2.467548208803002e+00	 8.192689874707358e-01	 1.168488153138169e+01
 2.448516758866024e+00	 8.745064741539708e-01	 1.173864945945309e+01
 2.428142888907077e+00	 9.295794504115609e-01	 1.179022279935026e+01
 2.406422994878290e+00	 9.844409883298969e-01	 1.183610518703687e+01
 2.383355586300053e+00	 1.039043589576698e+00	 1.187195145026337e+01
 2.358941340515157e+00	 1.093339300822785e+00	 1.189290759996292e+01
 2.570777071321162e+00	 5.481611293604884e-01	 1.145160280847613e+01
 2.558197566401331e+00	 6.041531446705537e-01	 1.147519398102792e+01
 2.544308790897034e+00	 6.602037395929412e-01	 1.150664566243867e+01
 2.529097460648616e+00	 7.162698946521954e-01	 1.154709578766758e+01
 2.512552062442568e+00	 7.723075218395806e-01	 1.159540361041269e+01
 2.494662937382607e+00	 8.282715496683839e-01	 1.164686387532628e+01
 2.475422359778713e+00	 8.841160151551283e-01	 1.169965376113713e+01
 2.454824610929586e+00	 9.397941624883859e-01	 1.175114589517461e+01
 2.432866047184175e+00	 9.952585480857250e-01	 1.179750835532778e+01
 2.409545161684700e+00	 1.050461151677977e+00	 1.183393113258706e+01
 2.384862639216969e+00	 1.105353492999332e+00	 1.185496245529556e+01
 2.598719114476180e+00	 5.541191496411408e-01	 1.144328864124477e+01
 2.586002881610057e+00	 6.107197479847156e-01	 1.145970552082769e+01
 2.571963147561384e+00	 6.673795626485521e-01	 1.148440145505490e+01
 2.556586483783597e+00	 7.240551065740306e-01	 1.151944553562507e+01
 2.539861251924882e+00	 7.807018125552502e-01	 1.156333190305597e+01
 2.521777688105416e+00	 8.372741192188098e-01	 1.161151371778302e+01
 2.502327982663858e+00	 8.937255640047717e-01	 1.166234425128794e+01
 2.481506354741759e+00	 9.500088829079183e-01	 1.171298354542795e+01
 2.459309121084851e+00	 1.006076116676572e+00	 1.175926026522137e+01
 2.435734758457170e+00	 1.061878723104253e+00	 1.179588681186452e+01
 2.410783959087536e+00	 1.117367694988084e+00	 1.181694458952115e+01
 2.626661183709767e+00	 5.600771754832522e-01	 1.142772889780152e+01
 2.613808222769730e+00	 6.172863574284145e-01	 1.144675120625498e+01
 2.599617530035789e+00	 6.745553924023591e-01	 1.146907042817978e+01
 2.584075532574343e+00	 7.318403257628661e-01	 1.149771636599668e+01
 2.567170466895151e+00	 7.890961111064230e-01	 1.153555911862069e+01
 2.548892464134745e+00	 8.462766971724820e-01	 1.157914938124702e+01
 2.529233630660384e+00	 9.033351218241793e-01	 1.162693236602801e+01
 2.508188123456403e+00	 9.602236128620324e-01	 1.167586540185806e+01
 2.485752219665286e+00	 1.016893695364639e+00	 1.172144004463565e+01
 2.461924379672861e+00	 1.073296305187716e+00	 1.175788394317885e+01
 2.436705303150968e+00	 1.129381908190833e+00	 1.177973971930853e+01
 2.654603282281744e+00	 5.660352075820778e-01	 1.139768254217874e+01
 2.641613593124215e+00	 6.238529737679167e-01	 1.142131925247608e+01
 2.627271941546510e+00	 6.817312296917112e-01	 1.144757563320552e+01
 2.611564610227829e+00	 7.396255531271493e-01	 1.147847708189611e+01
 2.594479710539368e+00	 7.974904184726043e-01	 1.151249280259174e+01
 2.576007268633907e+00	 8.552792845798692e-01	 1.155007672568600e+01
 2.556139306907209e+00	 9.129446897346282e-01	 1.159360725290098e+01
 2.534869920186331e+00	 9.704383535426029e-01	 1.163988880179444e+01
 2.512195346010452e+00	 1.027711285412123e+00	 1.168408451870546e+01
 2.488114028387177e+00	 1.084713899260560e+00	 1.171993595432856e+01
 2.462626674431372e+00	 1.141396134009372e+00	 1.174334877704296e+01
 2.203413823498114e+00	 1.021254275319494e+00	 1.210708189362769e+01
 2.179352171740935e+00	 1.071641963956964e+00	 1.211669150698730e+01
 2.154039828391445e+00	 1.121652522294122e+00	 1.212062844929971e+01
 2.127483749639469e+00	 1.171240551690321e+00	 1.213041784550533e+01
 2.099693046847078e+00	 1.220360701762737e+00	 1.214728177334421e+01
 2.070678998576783e+00	 1.268967796501816e+00	 1.216433954103280e+01
 2.040455053855409e+00	 1.317016962176464e+00	 1.217382388782359e+01
 2.009036826458815e+00	 1.364463756323230e+00	 1.216769357536403e+01
 1.976442080067317e+00	 1.411264297088024e+00	 1.213839690762535e+01
 1.942690704209564e+00	 1.457375392169872e+00	 1.207977733425010e+01
 1.907804680982951e+00	 1.502754666604192e+00	 1.199352307116701e+01
 2.229335058693659e+00	 1.033268438060432e+00	 1.207287714824169e+01
 2.204990342662290e+00	 1.084248893755298e+00	 1.207849665661339e+01
 2.179380221746705e+00	 1.134847782541942e+00	 1.208016032692186e+01
 2.152511733970202e+00	 1.185019171704440e+00	 1.209193175004048e+01
 2.124394097882041e+00	 1.234717177352404e+00	 1.211146264820873e+01
 2.095038724727140e+00	 1.283896092020067e+00	 1.213162620121415e+01
 2.064459221748341e+00	 1.332510514076160e+00	 1.214418168394040e+01
 2.032671386403901e+00	 1.380515478230546e+00	 1.214040626475684e+01
 1.999693191348277e+00	 1.427866586397528e+00	 1.211189153935808e+01
 1.965544760093001e+00	 1.474520138156510e+00	 1.205149601802565e+01
 1.930248333335595e+00	 1.520433260038539e+00	 1.197281125661806e+01
 2.255256296913310e+00	 1.045282602202825e+00	 1.203894019283585e+01
 2.230628516574733e+00	 1.096855825024232e+00	 1.204400119562568e+01
 2.204720618058312e+00	 1.148043044328970e+00	 1.204346400238270e+01
 2.177539721220831e+00	 1.198797793325786e+00	 1.205538636750563e+01
 2.149095151798753e+00	 1.249073654616667e+00	 1.207556736603968e+01
 2.119398453719415e+00	 1.298824389279572e+00	 1.209669581931684e+01
 2.088463392441695e+00	 1.348004067783004e+00	 1.211009683060068e+01
 2.056305949106268e+00	 1.396567202010079e+00	 1.210638186010686e+01
 2.022944305341754e+00	 1.444468877643437e+00	 1.207627828124346e+01
 1.988398818642600e+00	 1.491664886142807e+00	 1.201286871734678e+01
 1.952691988306481e+00	 1.538111855534809e+00	 1.194558722135169e+01
 2.281177541181177e+00	 1.057296769148464e+00	 1.200372780201667e+01
 2.256266696469347e+00	 1.109462759234705e+00	 1.200911274847337e+01
 2.230061020282613e+00	 1.161238309194783e+00	 1.201129794583511e+01
 2.202567714311258e+00	 1.212576418161988e+00	 1.202187458977209e+01
 2.173796211478971e+00	 1.263430135230565e+00	 1.204075328866175e+01
 2.143758188395543e+00	 1.313752690022081e+00	 1.206080634452520e+01
 2.112467568735924e+00	 1.363497625104685e+00	 1.207296701149720e+01
 2.079940517323249e+00	 1.412618929534634e+00	 1.206719810795458e+01
 2.046195424760352e+00	 1.461071172762784e+00	 1.203335453243776e+01
 2.011252882524643e+00	 1.508809638129075e+00	 1.197107539594275e+01
 1.975135648514014e+00	 1.555790455155588e+00	 1.191395104750920e+01
 2.307098794521370e+00	 1.069310940299143e+00	 1.196749392186731e+01
 2.281904885337222e+00	 1.122069697857661e+00	 1.197326597136156e+01
 2.255401431375953e+00	 1.174433578678955e+00	 1.198008501990700e+01
 2.227595716161380e+00	 1.226355047820675e+00	 1.199235371078644e+01
 2.198497279804454e+00	 1.277786620869141e+00	 1.200815528253064e+01
 2.168117931597463e+00	 1.328680995989341e+00	 1.202517824275176e+01
 2.136471753431486e+00	 1.378991187848895e+00	 1.203414053510342e+01
 2.103575093812183e+00	 1.428670662677016e+00	 1.202437485683944e+01
 2.069446552316671e+00	 1.477673473692601e+00	 1.198485483394891e+01
 2.034106954405412e+00	 1.525954396115625e+00	 1.192836817168966e+01
 1.997579316576603e+00	 1.573469060963462e+00	 1.187970857319811e+01
 2.333020059957994e+00	 1.081325117056653e+00	 1.193048058672141e+01
 2.307543086169442e+00	 1.134676642364042e+00	 1.193766072421642e+01
 2.280741854294682e+00	 1.187628854321061e+00	 1.194875592012215e+01
 2.252623729691100e+00	 1.240133683909476e+00	 1.196396623576078e+01
 2.223198359656961e+00	 1.292143113207434e+00	 1.197885831992930e+01
 2.192477686167112e+00	 1.343609308923103e+00	 1.199097068210627e+01
 2.160475949328837e+00	 1.394484757823324e+00	 1.199489218043759e+01
 2.127209681330403e+00	 1.444722403310030e+00	 1.197934969632817e+01
 2.092697690723316e+00	 1.494275782369921e+00	 1.193419661314651e+01
 2.056961036951193e+00	 1.543099162102773e+00	 1.188612875847123e+01
 2.020022995112654e+00	 1.591147675021018e+00	 1.184437343393053e+01
 2.358941340515157e+00	 1.093339300822785e+00	 1.189290759996292e+01
 2.333181301957095e+00	 1.147283594224788e+00	 1.190254445045867e+01
 2.306082291995148e+00	 1.200824137660676e+00	 1.191757983429935e+01
 2.277651757820316e+00	 1.253912328036020e+00	 1.193538107778292e+01
 2.247899453918249e+00	 1.306499613920486e+00	 1.195115103642740e+01
 2.216837454946426e+00	 1.358537630565113e+00	 1.195925793131911e+01
 2.184480159228432e+00	 1.409978336835664e+00	 1.195639924240385e+01
 2.150844282635248e+00	 1.460774153306482e+00	 1.193345378128318e+01
 2.115948842692888e+00	 1.510878100731776e+00	 1.188664549008192e+01
 2.079815132828263e+00	 1.560243938090828e+00	 1.184545341266957e+01
 2.042466686740576e+00	 1.608826299390843e+00	 1.180916923728712e+01
 2.384862639216969e+00	 1.105353492999332e+00	 1.185496245529556e+01
 2.358819535691266e+00	 1.159890554910842e+00	 1.186806072786659e+01
 2.331422747433695e+00	 1.214019430237375e+00	 1.188672685507249e+01
 2.302679803468932e+00	 1.267690981807936e+00	 1.190681763843429e+01
 2.272600565470077e+00	 1.320856124683338e+00	 1.192318820039161e+01
 2.241197240777346e+00	 1.373465962657122e+00	 1.192971806701625e+01
 2.208484385930727e+00	 1.425471926693604e+00	 1.191971776174437e+01
 2.174478900484054e+00	 1.476825914539178e+00	 1.188788782754622e+01
 2.139200010937990e+00	 1.527480430715198e+00	 1.184308580436940e+01
 2.102669244702909e+00	 1.577388726080102e+00	 1.180715508267420e+01
 2.064910394078774e+00	 1.626504936135523e+00	 1.177503186052804e+01
 2.410783959087536e+00	 1.117367694988084e+00	 1.181694458952115e+01
 2.384457790363043e+00	 1.172497525893146e+00	 1.183425788824830e+01
 2.356763223566673e+00	 1.227214733590733e+00	 1.185626433143135e+01
 2.327707869556846e+00	 1.281469646832853e+00	 1.187838482981219e+01
 2.297301697194204e+00	 1.335212647171031e+00	 1.189514310036998e+01
 2.265557046501807e+00	 1.388394306940879e+00	 1.190004501385517e+01
 2.232488632236179e+00	 1.440965529204835e+00	 1.188544684265423e+01
 2.198113537634154e+00	 1.492877688880922e+00	 1.184484043175452e+01
 2.162451198171223e+00	 1.544082774257219e+00	 1.180396350967613e+01
 2.125523375241412e+00	 1.594533528070909e+00	 1.177176568619932e+01
 2.087354119745656e+00	 1.644183587317644e+00	 1.174261186176140e+01
 2.436705303150968e+00	 1.129381908190833e+00	 1.177973971930853e+01
 2.410096068963512e+00	 1.185104508642641e+00	 1.180108562716899e+01
 2.382103723350427e+00	 1.240410049260326e+00	 1.182615341544198e+01
 2.352735959003957e+00	 1.295248324718398e+00	 1.185007756109460e+01
 2.322002851972387e+00	 1.349569183058604e+00	 1.186706706796112e+01
 2.289916874961746e+00	 1.403322665158131e+00	 1.187027225524417e+01
 2.256492900945243e+00	 1.456459146177048e+00	 1.185163835452392e+01
 2.221748196842888e+00	 1.508929478204520e+00	 1.180800520768318e+01
 2.185702407105191e+00	 1.560685133294874e+00	 1.176945037225745e+01
 2.148377527110054e+00	 1.611678346063562e+00	 1.173953850576652e+01
 2.109797866359628e+00	 1.661862254999792e+00	 1.171227699608301e+01
 2.462626674431372e+00	 1.141396134009372e+00	 1.174334877704296e+01
 2.435734374483759e+00	 1.197711504630270e+00	 1.176839180047937e+01
 2.407444249741307e+00	 1.253605378785728e+00	 1.179624578979669e+01
 2.377764074730168e+00	 1.309027017072203e+00	 1.182177339880949e+01
 2.346704032686388e+00	 1.363925734021101e+00	 1.183888607228624e+01
 2.314276728999100e+00	 1.418251039050627e+00	 1.184039728828275e+01
 2.280497194858377e+00	 1.471952779417934e+00	 1.181786031084504e+01
 2.245382880867588e+00	 1.524981284382777e+00	 1.177611838562042e+01
 2.208953640452497e+00	 1.577287509765193e+00	 1.173944634374508e+01
 2.171231702975119e+00	 1.628823182058370e+00	 1.171045069352525e+01
 2.132241636539099e+00	 1.679540941244555e+00	 1.168411482882885e+01
 1.907804680982951e+00	 1.502754666604192e+00	 1.199352307116701e+01
 1.871808037293996e+00	 1.547360692817836e+00	 1.190688753052958e+01
 1.834726777441590e+00	 1.591153126366857e+00	 1.181950390344004e+01
 1.796588838824851e+00	 1.634092812988081e+00	 1.173491091014753e+01
 1.757424028508822e+00	 1.676141899875752e+00	 1.164815126321809e+01
 1.717263946274040e+00	 1.717263946274040e+00	 1.155121426507128e+01
 1.676141899875751e+00	 1.757424028508822e+00	 1.143501524887458e+01
 1.634092812988080e+00	 1.796588838824852e+00	 1.129025767720099e+01
 1.591153126366856e+00	 1.834726777441591e+00	 1.110834077905863e+01
 1.547360692817835e+00	 1.871808037293997e+00	 1.089168554663745e+01
 1.502754666604192e+00	 1.907804680982951e+00	 1.068603171789857e+01
 1.930248333335595e+00	 1.520433260038539e+00	 1.197281125661806e+01
 1.893828220638096e+00	 1.565564037111324e+00	 1.189775951337630e+01
 1.856310732217209e+00	 1.609871650313845e+00	 1.181888424917872e+01
 1.817724134131109e+00	 1.653316484767282e+00	 1.173784886709880e+01
 1.778098584098875e+00	 1.695860242360747e+00	 1.165331470330159e+01
 1.737466053644808e+00	 1.737466053644808e+00	 1.155674502624948e+01
 1.695860242360746e+00	 1.778098584098875e+00	 1.143833245772945e+01
 1.653316484767281e+00	 1.817724134131110e+00	 1.128797806163985e+01
 1.609871650313845e+00	 1.856310732217210e+00	 1.109669500814877e+01
 1.565564037111324e+00	 1.893828220638097e+00	 1.089617039730455e+01
 1.520433260038540e+00	 1.930248333335595e+00	 1.071144872230314e+01
 1.952691988306481e+00	 1.538111855534809e+00	 1.194558722135169e+01
 1.915848406550984e+00	 1.583767383527957e+00	 1.188031324102594e+01
 1.877894689510672e+00	 1.628590176444095e+00	 1.180900617561566e+01
 1.838859431902811e+00	 1.672540158788709e+00	 1.173081208228612e+01
 1.798773142100562e+00	 1.715578587145719e+00	 1.164626005160426e+01
 1.757668163372039e+00	 1.757668163372040e+00	 1.154781340727956e+01
 1.715578587145718e+00	 1.798773142100563e+00	 1.142485137999862e+01
 1.672540158788708e+00	 1.838859431902812e+00	 1.126636858099194e+01
 1.628590176444095e+00	 1.877894689510673e+00	 1.107618992687586e+01
 1.583767383527956e+00	 1.915848406550984e+00	 1.089547626174645e+01
 1.538111855534809e+00	 1.952691988306481e+00	 1.072866019922451e+01
 1.975135648514014e+00	 1.555790455155588e+00	 1.191395104750920e+01
 1.937868597601670e+00	 1.601970734191530e+00	 1.185681258605043e+01
 1.899478651840100e+00	 1.647308706941500e+00	 1.179159014011192e+01
 1.859994734605747e+00	 1.691763837295175e+00	 1.171634783944068e+01
 1.819447704925934e+00	 1.735296936531182e+00	 1.162976364572894e+01
 1.777870277812673e+00	 1.777870277812674e+00	 1.152731762509089e+01
 1.735296936531180e+00	 1.819447704925934e+00	 1.139760515649146e+01
 1.691763837295175e+00	 1.859994734605748e+00	 1.122982380467109e+01
 1.647308706941499e+00	 1.899478651840101e+00	 1.105486296330761e+01
 1.601970734191529e+00	 1.937868597601670e+00	 1.089126932155697e+01
 1.555790455155588e+00	 1.975135648514014e+00	 1.073950676825325e+01
 1.997579316576603e+00	 1.573469060963462e+00	 1.187970857319811e+01
 1.959888796359163e+00	 1.620174091225841e+00	 1.182922307468165e+01
 1.921062621723621e+00	 1.666027243989950e+00	 1.176877705283959e+01
 1.881130044705708e+00	 1.710987522529494e+00	 1.169561730759017e+01
 1.840122274987037e+00	 1.755015292817647e+00	 1.160642050664410e+01
 1.798072399323654e+00	 1.798072399323654e+00	 1.149798344901913e+01
 1.755015292817647e+00	 1.840122274987038e+00	 1.135946595932344e+01
 1.710987522529494e+00	 1.881130044705709e+00	 1.119296896889472e+01
 1.666027243989950e+00	 1.921062621723622e+00	 1.103402861669197e+01
 1.620174091225840e+00	 1.959888796359164e+00	 1.088503630427445e+01
 1.573469060963462e+00	 1.997579316576603e+00	 1.074565980385746e+01
 2.020022995112654e+00	 1.591147675021018e+00	 1.184437343393053e+01
 1.981909005392473e+00	 1.638377456754689e+00	 1.179921406652246e+01
 1.942646601679358e+00	 1.684745789773338e+00	 1.174240882346820e+01
 1.902265364668485e+00	 1.730211216734482e+00	 1.167033817467773e+01
 1.860796854695922e+00	 1.774733658305631e+00	 1.157852197628248e+01
 1.818274530261921e+00	 1.818274530261922e+00	 1.146235195677996e+01
 1.774733658305631e+00	 1.860796854695923e+00	 1.131434873394427e+01
 1.730211216734481e+00	 1.902265364668486e+00	 1.116002398509644e+01
 1.684745789773337e+00	 1.942646601679359e+00	 1.101480518786289e+01
 1.638377456754689e+00	 1.981909005392473e+00	 1.087807613454373e+01
 1.591147675021018e+00	 2.020022995112655e+00	 1.074861316820302e+01
 2.042466686740576e+00	 1.608826299390843e+00	 1.180916923728712e+01
 2.003929227270609e+00	 1.656580832901872e+00	 1.176816105176907e+01
 1.964230594225435e+00	 1.703464346475554e+00	 1.171403072417140e+01
 1.923400696959869e+00	 1.749434922152951e+00	 1.164224364446783e+01
 1.881471446464636e+00	 1.794452035295648e+00	 1.154728123744578e+01
 1.838476672984417e+00	 1.838476672984418e+00	 1.142276736646209e+01
 1.794452035295647e+00	 1.881471446464636e+00	 1.127385784376158e+01
 1.749434922152950e+00	 1.923400696959869e+00	 1.113173254239643e+01
 1.703464346475554e+00	 1.964230594225436e+00	 1.099810643471620e+01
 1.656580832901872e+00	 2.003929227270610e+00	 1.087149164825671e+01
 1.608826299390843e+00	 2.042466686740576e+00	 1.074967500658034e+01
 2.064910394078774e+00	 1.626504936135523e+00	 1.177503186052804e+01
 2.025949464562581e+00	 1.674784221791188e+00	 1.173714805685757e+01
 1.985814601879978e+00	 1.722182916280492e+00	 1.168489384854719e+01
 1.944536044045650e+00	 1.768658641027716e+00	 1.161277107821592e+01
 1.902146052705230e+00	 1.814170426088211e+00	 1.151416439260907e+01
 1.858678829848083e+00	 1.858678829848083e+00	 1.138187406855359e+01
 1.814170426088210e+00	 1.902146052705230e+00	 1.124058559716095e+01
 1.768658641027715e+00	 1.944536044045651e+00	 1.110861904655116e+01
 1.722182916280491e+00	 1.985814601879978e+00	 1.098463328712109e+01
 1.674784221791187e+00	 2.025949464562581e+00	 1.086618136475270e+01
 1.626504936135523e+00	 2.064910394078773e+00	 1.074995960055690e+01
 2.087354119745656e+00	 1.644183587317644e+00	 1.174261186176140e+01
 2.047969719837397e+00	 1.692987625546434e+00	 1.170697015023378e+01
 2.007398627161110e+00	 1.740901501372042e+00	 1.165595765908876e+01
 1.965671408391619e+00	 1.787882375601591e+00	 1.158306453407129e+01
 1.922820675829750e+00	 1.833888832983834e+00	 1.148052048502799e+01
 1.878881003209860e+00	 1.878881003209861e+00	 1.134741765124345e+01
 1.833888832983833e+00	 1.922820675829751e+00	 1.121467121952811e+01
 1.787882375601591e+00	 1.965671408391620e+00	 1.109098035664910e+01
 1.740901501372041e+00	 2.007398627161111e+00	 1.097486561664829e+01
 1.692987625546433e+00	 2.047969719837397e+00	 1.086283131257271e+01
 1.644183587317644e+00	 2.087354119745656e+00	 1.075037927438768e+01
 2.109797866359628e+00	 1.661862254999792e+00	 1.171227699608301e+01
 2.069989995664066e+00	 1.711191046291408e+00	 1.167813604065648e+01
 2.028982672586956e+00	 1.759620103934096e+00	 1.162789261647293e+01
 1.986806792463568e+00	 1.807106128117391e+00	 1.155397737922345e+01
 1.943495318250247e+00	 1.853607258283031e+00	 1.144743284080580e+01
 1.899083195426690e+00	 1.899083195426690e+00	 1.132092363241427e+01
 1.853607258283029e+00	 1.943495318250247e+00	 1.119601207156434e+01
 1.807106128117390e+00	 1.986806792463569e+00	 1.107887757456725e+01
 1.759620103934095e+00	 2.028982672586957e+00	 1.096905405688309e+01
 1.711191046291407e+00	 2.069989995664066e+00	 1.086190690464107e+01
 1.661862254999793e+00	 2.109797866359628e+00	 1.075163635058912e+01
 2.132241636539099e+00	 1.679540941244555e+00	 1.168411482882885e+01
 2.092010294611598e+00	 1.729394486149908e+00	 1.165087076108806e+01
 2.050566740675642e+00	 1.778338726150545e+00	 1.160108288450572e+01
 2.007942198727287e+00	 1.826329900817930e+00	 1.152607496929596e+01
 1.964169982378769e+00	 1.873325704286316e+00	 1.141922055797557e+01
 1.919285408855514e+00	 1.919285408855514e+00	 1.130149865607232e+01
 1.873325704286315e+00	 1.964169982378770e+00	 1.118391106644997e+01
 1.826329900817930e+00	 2.007942198727288e+00	 1.107212788313513e+01
 1.778338726150545e+00	 2.050566740675643e+00	 1.096721187043886e+01
 1.729394486149908e+00	 2.092010294611599e+00	 1.086364485908607e+01
 1.679540941244554e+00	 2.132241636539099e+00	 1.075421515092045e+01
 1.502754666604192e+00	 1.907804680982951e+00	 1.068603171789857e+01
 1.457375392169871e+00	 1.942690704209564e+00	 1.049839772047123e+01
 1.411264297088024e+00	 1.976442080067318e+00	 1.032844388000762e+01
 1.364463756323229e+00	 2.009036826458815e+00	 1.016974186211591e+01
 1.317016962176464e+00	 2.040455053855409e+00	 1.001420438148842e+01
 1.268967796501815e+00	 2.070678998576784e+00	 9.853855859937372e+00
 1.220360701762737e+00	 2.099693046847078e+00	 9.681703482623174e+00
 1.171240551690321e+00	 2.127483749639469e+00	 9.492489511397547e+00
 1.121652522294121e+00	 2.154039828391445e+00	 9.283303322603814e+00
 1.071641963956963e+00	 2.179352171740935e+00	 9.054144594583017e+00
 1.021254275319494e+00	 2.203413823498115e+00	 8.808279764811502e+00
 1.520433260038540e+00	 1.930248333335595e+00	 1.071144872230314e+01
 1.474520138156509e+00	 1.965544760093002e+00	 1.054130575031936e+01
 1.427866586397527e+00	 1.999693191348277e+00	 1.038490000579116e+01
 1.380515478230545e+00	 2.032671386403901e+00	 1.023720244365872e+01
 1.332510514076160e+00	 2.064459221748342e+00	 1.008935121629781e+01
 1.283896092020066e+00	 2.095038724727141e+00	 9.932716972718055e+00
 1.234717177352403e+00	 2.124394097882042e+00	 9.759843592378783e+00
 1.185019171704439e+00	 2.152511733970203e+00	 9.565259783815133e+00
 1.134847782541941e+00	 2.179380221746706e+00	 9.346138459919969e+00
 1.084248893755297e+00	 2.204990342662291e+00	 9.102795996670164e+00
 1.033268438060432e+00	 2.229335058693659e+00	 8.840474293298383e+00
 1.538111855534809e+00	 1.952691988306481e+00	 1.072866019922451e+01
 1.491664886142806e+00	 1.988398818642601e+00	 1.057341295777316e+01
 1.444468877643436e+00	 2.022944305341754e+00	 1.042644278420351e+01
 1.396567202010078e+00	 2.056305949106268e+00	 1.028529790445497e+01
 1.348004067783003e+00	 2.088463392441695e+00	 1.014050063263988e+01
 1.298824389279571e+00	 2.119398453719415e+00	 9.982756746742211e+00
 1.249073654616666e+00	 2.149095151798754e+00	 9.804155433032744e+00
 1.198797793325785e+00	 2.177539721220832e+00	 9.599043368309296e+00
 1.148043044328969e+00	 2.204720618058313e+00	 9.364733851508790e+00
 1.096855825024231e+00	 2.230628516574733e+00	 9.104426781377015e+00
 1.045282602202825e+00	 2.255256296913310e+00	 8.852837636424235e+00
 1.555790455155588e+00	 1.975135648514014e+00	 1.073950676825325e+01
 1.508809638129074e+00	 2.011252882524643e+00	 1.059614281779276e+01
 1.461071172762784e+00	 2.046195424760352e+00	 1.045559560431332e+01
 1.412618929534632e+00	 2.079940517323249e+00	 1.031678248981281e+01
 1.363497625104685e+00	 2.112467568735925e+00	 1.017064565984097e+01
 1.313752690022080e+00	 2.143758188395543e+00	 1.000720428104003e+01
 1.263430135230564e+00	 2.173796211478972e+00	 9.818091779906585e+00
 1.212576418161987e+00	 2.202567714311258e+00	 9.597495812212868e+00
 1.161238309194783e+00	 2.230061020282613e+00	 9.344890924596735e+00
 1.109462759234705e+00	 2.256266696469348e+00	 9.094487632044519e+00
 1.057296769148464e+00	 2.281177541181178e+00	 8.860845338332947e+00
 1.573469060963462e+00	 1.997579316576603e+00	 1.074565980385746e+01
 1.525954396115625e+00	 2.034106954405413e+00	 1.061129631833245e+01
 1.477673473692600e+00	 2.069446552316671e+00	 1.047470167322818e+01
 1.428670662677015e+00	 2.103575093812183e+00	 1.033424961636946e+01
 1.378991187848895e+00	 2.136471753431487e+00	 1.018263651805774e+01
 1.328680995989341e+00	 2.168117931597464e+00	 1.000916230609421e+01
 1.277786620869140e+00	 2.198497279804455e+00	 9.804993695990134e+00
 1.226355047820674e+00	 2.227595716161380e+00	 9.565029870096897e+00
 1.174433578678954e+00	 2.255401431375954e+00	 9.319030213889464e+00
 1.122069697857660e+00	 2.281904885337222e+00	 9.085629331350585e+00
 1.069310940299144e+00	 2.307098794521370e+00	 8.867447849556997e+00
 1.591147675021018e+00	 2.020022995112655e+00	 1.074861316820302e+01
 1.543099162102772e+00	 2.056961036951193e+00	 1.062058770980006e+01
 1.494275782369920e+00	 2.092697690723316e+00	 1.048564736872461e+01
 1.444722403310029e+00	 2.127209681330404e+00	 1.034012667543584e+01
 1.394484757823324e+00	 2.160475949328838e+00	 1.017917623405774e+01
 1.343609308923102e+00	 2.192477686167112e+00	 9.991603631791804e+00
 1.292143113207433e+00	 2.223198359656961e+00	 9.768114536745749e+00
 1.240133683909476e+00	 2.252623729691100e+00	 9.529116277378584e+00
 1.187628854321060e+00	 2.280741854294683e+00	 9.298834938657317e+00
 1.134676642364041e+00	 2.307543086169443e+00	 9.080209753427889e+00
 1.081325117056653e+00	 2.333020059957993e+00	 8.875388549607553e+00
 1.608826299390843e+00	 2.042466686740576e+00	 1.074967500658034e+01
 1.560243938090827e+00	 2.079815132828264e+00	 1.062555703559237e+01
 1.510878100731775e+00	 2.115948842692888e+00	 1.048970269941145e+01
 1.460774153306481e+00	 2.150844282635249e+00	 1.033666988166142e+01
 1.409978336835663e+00	 2.184480159228432e+00	 1.016281628921999e+01
 1.358537630565113e+00	 2.216837454946428e+00	 9.957367611724219e+00
 1.306499613920485e+00	 2.247899453918249e+00	 9.727343790056882e+00
 1.253912328036020e+00	 2.277651757820318e+00	 9.502328996325591e+00
 1.200824137660675e+00	 2.306082291995147e+00	 9.285878705317671e+00
 1.147283594224788e+00	 2.333181301957095e+00	 9.080310377742865e+00
 1.093339300822785e+00	 2.358941340515157e+00	 8.887199610218307e+00
 1.626504936135523e+00	 2.064910394078773e+00	 1.074995960055690e+01
 1.577388726080102e+00	 2.102669244702911e+00	 1.062756212571109e+01
 1.527480430715197e+00	 2.139200010937990e+00	 1.048848128413097e+01
 1.476825914539177e+00	 2.174478900484054e+00	 1.032595916357622e+01
 1.425471926693603e+00	 2.208484385930727e+00	 1.013595229729959e+01
 1.373465962657122e+00	 2.241197240777347e+00	 9.917075947873705e+00
 1.320856124683337e+00	 2.272600565470078e+00	 9.698129217449525e+00
 1.267690981807935e+00	 2.302679803468933e+00	 9.485481878709127e+00
 1.214019430237374e+00	 2.331422747433695e+00	 9.281468082223585e+00
 1.159890554910842e+00	 2.358819535691267e+00	 9.087746357869577e+00
 1.105353492999332e+00	 2.384862639216969e+00	 8.905197775378575e+00
 1.644183587317644e+00	 2.087354119745656e+00	 1.075037927438768e+01
 1.594533528070909e+00	 2.125523375241412e+00	 1.062777064194055e+01
 1.544082774257219e+00	 2.162451198171223e+00	 1.048344160150225e+01
 1.492877688880921e+00	 2.198113537634155e+00	 1.030972038133097e+01
 1.440965529204834e+00	 2.232488632236179e+00	 1.010273841769129e+01
 1.388394306940878e+00	 2.265557046501807e+00	 9.889193051540200e+00
 1.335212647171030e+00	 2.297301697194204e+00	 9.680556511566749e+00
 1.281469646832852e+00	 2.327707869556846e+00	 9.479130062794900e+00
 1.227214733590733e+00	 2.356763223566672e+00	 9.286649837241423e+00
 1.172497525893145e+00	 2.384457790363044e+00	 9.104073299642524e+00
 1.117367694988084e+00	 2.410783959087536e+00	 8.931483035650523e+00
 1.661862254999793e+00	 2.109797866359628e+00	 1.075163635058912e+01
 1.611678346063561e+00	 2.148377527110056e+00	 1.062715217063164e+01
 1.560685133294873e+00	 2.185702407105192e+00	 1.047585666262379e+01
 1.508929478204519e+00	 2.221748196842888e+00	 1.028913154926946e+01
 1.456459146177047e+00	 2.256492900945243e+00	 1.007971133593036e+01
 1.403322665158130e+00	 2.289916874961746e+00	 9.873767821843904e+00
 1.349569183058604e+00	 2.322002851972388e+00	 9.674463231958038e+00
 1.295248324718398e+00	 2.352735959003958e+00	 9.483577747733188e+00
 1.240410049260325e+00	 2.382103723350427e+00	 9.302218141055597e+00
 1.185104508642640e+00	 2.410096068963512e+00	 9.130593937978574e+00
 1.129381908190833e+00	 2.436705303150968e+00	 8.967921774238011e+00
 1.679540941244554e+00	 2.132241636539099e+00	 1.075421515092045e+01
 1.628823182058369e+00	 2.171231702975121e+00	 1.062647035946290e+01
 1.577287509765192e+00	 2.208953640452497e+00	 1.046680636405044e+01
 1.524981284382777e+00	 2.245382880867589e+00	 1.027270868369500e+01
 1.471952779417933e+00	 2.280497194858376e+00	 1.006919276647245e+01
 1.418251039050626e+00	 2.314276728999100e+00	 9.869962695379535e+00
 1.363925734021100e+00	 2.346704032686388e+00	 9.679447191812756e+00
 1.309027017072202e+00	 2.377764074730169e+00	 9.498885952021778e+00
 1.253605378785727e+00	 2.407444249741308e+00	 9.328721738738320e+00
 1.197711504630269e+00	 2.435734374483761e+00	 9.168364765399753e+00
 1.141396134009372e+00	 2.462626674431371e+00	 9.016096926478333e+00
 1.021254275319494e+00	 2.203413823498115e+00	 8.808279764811504e+00
 9.705383381911835e-01	 2.226218412033819e+00	 8.546867747911648e+00
 9.195357446471829e-01	 2.247764961775247e+00	 8.294434820111951e+00
 8.682912864025066e-01	 2.268052840037646e+00	 8.064503562990183e+00
 8.168493301737020e-01	 2.287083439031819e+00	 7.856679020192098e+00
 7.652537098669578e-01	 2.304860125187024e+00	 7.669712401368852e+00
 7.135476239455169e-01	 2.321388182105574e+00	 7.501997641088164e+00
 6.617735383658393e-01	 2.336674747679672e+00	 7.351523183653657e+00
 6.099730954158611e-01	 2.350728745922590e+00	 7.215570940954887e+00
 5.581870287320395e-01	 2.363560814081782e+00	 7.090013600688186e+00
 5.064550847153568e-01	 2.375183225610976e+00	 6.970375485598156e+00
 1.033268438060432e+00	 2.229335058693659e+00	 8.840474293298383e+00
 9.819558723185194e-01	 2.252407923255008e+00	 8.587853555978912e+00
 9.303532778990775e-01	 2.274207949296761e+00	 8.354417700788522e+00
 8.785059734524474e-01	 2.294734496691164e+00	 8.141643900420615e+00
 8.264588476307687e-01	 2.313988974027140e+00	 7.949531870576369e+00
 7.742562500077732e-01	 2.331974787337017e+00	 7.777377547407428e+00
 7.219418872388194e-01	 2.348697282380047e+00	 7.624309123895742e+00
 6.695587248551796e-01	 2.364163681019468e+00	 7.488266631400903e+00
 6.171488950298645e-01	 2.378383012251740e+00	 7.366347862775219e+00
 5.647536105949147e-01	 2.391366038462201e+00	 7.254784509424583e+00
 5.124130855329354e-01	 2.403125177491006e+00	 7.149792174032775e+00
 1.045282602202825e+00	 2.255256296913310e+00	 8.852837636424233e+00
 9.933734077776996e-01	 2.278597437531599e+00	 8.618733098064705e+00
 9.411708124127968e-01	 2.300650939903248e+00	 8.402080727314781e+00
 8.887206616938501e-01	 2.321416156457493e+00	 8.204339569083551e+00
 8.360683662086564e-01	 2.340894512161383e+00	 8.025621992555381e+00
 7.832587911985566e-01	 2.359089452650325e+00	 7.865502826444466e+00
 7.303361515110859e-01	 2.376006385840515e+00	 7.723640491696242e+00
 6.773439122523935e-01	 2.391652617566236e+00	 7.598197634688584e+00
 6.243246954806225e-01	 2.406037281807146e+00	 7.485932864255430e+00
 5.713201932234588e-01	 2.419171266086488e+00	 7.383377264034089e+00
 5.183710870451879e-01	 2.431067132630856e+00	 7.287437260625432e+00
 1.057296769148464e+00	 2.281177541181178e+00	 8.860845338332947e+00
 1.004790945900915e+00	 2.304786957918997e+00	 8.642919594967637e+00
 9.519883494505391e-01	 2.327093936679673e+00	 8.441003110740738e+00
 8.989353523185885e-01	 2.348097822449440e+00	 8.256243255789796e+00
 8.456778870286429e-01	 2.367800056573470e+00	 8.088585854488009e+00
 7.922613344897761e-01	 2.386204124290262e+00	 7.937623198768123e+00
 7.387304177418229e-01	 2.403315495672971e+00	 7.803280519342819e+00
 6.851291014659270e-01	 2.419141560526944e+00	 7.684189887347143e+00
 6.315004976054843e-01	 2.433691557815067e+00	 7.576676123851977e+00
 5.778867773839388e-01	 2.446976500198511e+00	 7.477534913638568e+00
 5.243290899473697e-01	 2.459009094290348e+00	 7.384392294982567e+00
 1.069310940299144e+00	 2.307098794521370e+00	 8.867447849556994e+00
 1.016208488020359e+00	 2.330976487472603e+00	 8.663644245113014e+00
 9.628058902745037e-01	 2.353536942711009e+00	 8.474604295154450e+00
 9.091500465185371e-01	 2.374779497779813e+00	 8.300870840234351e+00
 8.552874112120059e-01	 2.394705610402325e+00	 8.141946285100282e+00
 8.012638809319006e-01	 2.413318805420145e+00	 7.997182917643855e+00
 7.471246869105356e-01	 2.430624615063410e+00	 7.866499519067347e+00
 6.929142934042271e-01	 2.446630513108567e+00	 7.749120859123923e+00
 6.386763022417982e-01	 2.461345843501758e+00	 7.640965047412545e+00
 5.844533638426214e-01	 2.474781744042139e+00	 7.539063224641893e+00
 5.302870949347357e-01	 2.486951065729305e+00	 7.441819652997366e+00
 1.081325117056653e+00	 2.333020059957993e+00	 8.875388549607553e+00
 1.027626035468223e+00	 2.357166029247820e+00	 8.683953164442961e+00
 9.736234361468897e-01	 2.379979961082224e+00	 8.506141669255857e+00
 9.193647454855698e-01	 2.401461185561423e+00	 8.341599677656820e+00
 8.648969398800229e-01	 2.421611176786868e+00	 8.189111142413125e+00
 8.102664315753978e-01	 2.440433499203286e+00	 8.047534416744456e+00
 7.555189599967289e-01	 2.457933747197826e+00	 7.916549765604969e+00
 7.006994889757407e-01	 2.474119478518071e+00	 7.795864672574026e+00
 6.458521102269132e-01	 2.489000142093480e+00	 7.681218362328014e+00
 5.910199533657737e-01	 2.502587000861240e+00	 7.569825685006783e+00
 5.362451027025408e-01	 2.514893050207545e+00	 7.460958177757138e+00
 1.093339300822785e+00	 2.358941340515157e+00	 8.887199610218307e+00
 1.039043589576698e+00	 2.383355586300052e+00	 8.706704219071669e+00
 9.844409883298973e-01	 2.406422994878290e+00	 8.538708164346744e+00
 9.295794504115616e-01	 2.428142888907077e+00	 8.381666771303404e+00
 8.745064741539714e-01	 2.448516758866023e+00	 8.233371884377153e+00
 8.192689874707362e-01	 2.467548208803001e+00	 8.091937118488858e+00
 7.639132379799090e-01	 2.485242895262215e+00	 7.956578728938598e+00
 7.084846890889149e-01	 2.501608459962430e+00	 7.827284956295680e+00
 6.530279223981782e-01	 2.516654456816485e+00	 7.699880221745010e+00
 5.975865467196625e-01	 2.530392273899682e+00	 7.571738554651158e+00
 5.422031139460399e-01	 2.542835050984890e+00	 7.443118903765647e+00
 1.105353492999332e+00	 2.384862639216969e+00	 8.905197775378575e+00
 1.050461151677977e+00	 2.409545161684701e+00	 8.734563758793287e+00
 9.952585480857252e-01	 2.432866047184175e+00	 8.575229747324210e+00
 9.397941624883865e-01	 2.454824610929586e+00	 8.424166843028123e+00
 8.841160151551285e-01	 2.475422359778713e+00	 8.277902048656493e+00
 8.282715496683845e-01	 2.494662937382607e+00	 8.133556169281293e+00
 7.723075218395810e-01	 2.512552062442569e+00	 7.989660467215264e+00
 7.162698946521957e-01	 2.529097460648615e+00	 7.846227676282526e+00
 6.602037395929415e-01	 2.544308790897034e+00	 7.699414318047514e+00
 6.041531446705541e-01	 2.558197566401330e+00	 7.546765958445612e+00
 5.481611293604884e-01	 2.570777071321162e+00	 7.389680858138878e+00
 1.117367694988084e+00	 2.410783959087536e+00	 8.931483035650523e+00
 1.061878723104253e+00	 2.435734758457169e+00	 8.770003258833338e+00
 1.006076116676573e+00	 2.459309121084851e+00	 8.618462816519987e+00
 9.500088829079189e-01	 2.481506354741760e+00	 8.472050309655183e+00
 8.937255640047720e-01	 2.502327982663859e+00	 8.325755648363494e+00
 8.372741192188105e-01	 2.521777688105417e+00	 8.175461107123429e+00
 7.807018125552506e-01	 2.539861251924882e+00	 8.018796160340445e+00
 7.240551065740310e-01	 2.556586483783596e+00	 7.855513947002578e+00
 6.673795626485525e-01	 2.571963147561384e+00	 7.682298004891965e+00
 6.107197479847163e-01	 2.586002881610058e+00	 7.496915018589426e+00
 5.541191496411407e-01	 2.598719114476180e+00	 7.305402672315370e+00
 1.129381908190833e+00	 2.436705303150968e+00	 8.967921774238015e+00
 1.073296305187717e+00	 2.461924379672860e+00	 8.815295876601333e+00
 1.016893695364639e+00	 2.485752219665286e+00	 8.670991507561318e+00
 9.602236128620327e-01	 2.508188123456404e+00	 8.528121172070083e+00
 9.033351218241796e-01	 2.529233630660383e+00	 8.379865489965479e+00
 8.462766971724828e-01	 2.548892464134745e+00	 8.220624466606063e+00
 7.890961111064235e-01	 2.567170466895150e+00	 8.046912874142603e+00
 7.318403257628665e-01	 2.584075532574344e+00	 7.857932823681567e+00
 6.745553924023595e-01	 2.599617530035790e+00	 7.654393431146629e+00
 6.172863574284150e-01	 2.613808222769730e+00	 7.459367071547620e+00
 5.600771754832523e-01	 2.626661183709768e+00	 7.283318000595329e+00
 1.141396134009372e+00	 2.462626674431371e+00	 9.016096926478333e+00
 1.084713899260560e+00	 2.488114028387177e+00	 8.872512929633135e+00
 1.027711285412124e+00	 2.512195346010452e+00	 8.735224915821533e+00
 9.704383535426037e-01	 2.534869920186332e+00	 8.595034823422370e+00
 9.129446897346285e-01	 2.556139306907208e+00	 8.443041419058805e+00
 8.552792845798695e-01	 2.576007268633906e+00	 8.271920325865025e+00
 7.974904184726048e-01	 2.594479710539368e+00	 8.077034361803170e+00
 7.396255531271496e-01	 2.611564610227829e+00	 7.876974759612667e+00
 6.817312296917117e-01	 2.627271941546511e+00	 7.688976517603095e+00
 6.238529737679170e-01	 2.641613593124215e+00	 7.515880632619105e+00
 5.660352075820777e-01	 2.654603282281744e+00	 7.363194935788627e+00
 5.064550847153568e-01	 2.375183225610976e+00	 6.970375485598156e+00
 4.548123486330496e-01	 2.385610498113419e+00	 6.858812516382401e+00
 4.033000581248664e-01	 2.394857080991023e+00	 6.760204620676887e+00
 3.519546494680674e-01	 2.402939666261527e+00	 6.674949432601810e+00
 3.008113202743494e-01	 2.409876244677030e+00	 6.596644972310152e+00
 2.499039843133249e-01	 2.415686016457935e+00	 6.522152602127687e+00
 1.992652329695220e-01	 2.420389301253213e+00	 6.453344871374745e+00
 1.489263032066389e-01	 2.424007447828322e+00	 6.394291141994222e+00
 9.891705187560663e-02	 2.426562743955656e+00	 6.349953320317981e+00
 4.926593616964485e-02	 2.428078326953535e+00	 6.325125427149990e+00
 0.000000000000000e+00	 2.428578095288889e+00	 6.323573838994032e+00
 5.124130855329354e-01	 2.403125177491006e+00	 7.149792174032775e+00
 4.601628178586275e-01	 2.413675117728287e+00	 7.054176490220849e+00
 4.080445303364844e-01	 2.423030478560541e+00	 6.971747889276054e+00
 3.560950878846841e-01	 2.431208148372523e+00	 6.901555272690534e+00
 3.043501021840244e-01	 2.438226329561802e+00	 6.837533757844964e+00
 2.528438859699405e-01	 2.444104448222601e+00	 6.777458739191597e+00
 2.016094140360799e-01	 2.448863063046804e+00	 6.724126564047307e+00
 1.506782908216837e-01	 2.452523773949433e+00	 6.682108215519967e+00
 1.000807244174078e-01	 2.455109130899045e+00	 6.656506783106050e+00
 4.984550679044753e-02	 2.456642543404279e+00	 6.651965516787099e+00
 0.000000000000000e+00	 2.457148191076638e+00	 6.671879066196524e+00
 5.183710870451879e-01	 2.431067132630856e+00	 7.287437260625432e+00
 4.655132877080257e-01	 2.441739740617289e+00	 7.201443709237452e+00
 4.127890031012636e-01	 2.451203879416894e+00	 7.128287635638140e+00
 3.602355267840424e-01	 2.459476633781447e+00	 7.066041378193960e+00
 3.078888845063056e-01	 2.466576417754033e+00	 7.009096251318653e+00
 2.557837879693529e-01	 2.472522883302711e+00	 6.956196531811282e+00
 2.039535953759917e-01	 2.477336828162300e+00	 6.911179141587269e+00
 1.524302786410454e-01	 2.481040103397424e+00	 6.879195943665630e+00
 1.012443970949310e-01	 2.483655521172823e+00	 6.865542113017673e+00
 5.042507747885558e-02	 2.485206763187498e+00	 6.874741728992467e+00
 0.000000000000000e+00	 2.485718290197548e+00	 6.909838686106109e+00
 5.243290899473697e-01	 2.459009094290348e+00	 7.384392294982567e+00
 4.708637588056057e-01	 2.469804370054565e+00	 7.301049359827756e+00
 4.175334769728469e-01	 2.479377286846911e+00	 7.229692050776379e+00
 3.643759666492946e-01	 2.487745125786240e+00	 7.167837348769122e+00
 3.114276676541303e-01	 2.494926512561187e+00	 7.110532559654345e+00
 2.587236906546092e-01	 2.500941325013704e+00	 7.057526417503219e+00
 2.062977772627845e-01	 2.505810599921608e+00	 7.013787092117952e+00
 1.541822668691449e-01	 2.509556439499169e+00	 6.985098584363704e+00
 1.024080700439480e-01	 2.512201918107383e+00	 6.976969893694863e+00
 5.100464830248758e-02	 2.513770989635664e+00	 6.993807906268337e+00
 0.000000000000000e+00	 2.514288395984781e+00	 7.038297309314869e+00
 5.302870949347357e-01	 2.486951065729305e+00	 7.441819652997363e+00
 4.762142317757283e-01	 2.497869009314247e+00	 7.353519294254649e+00
 4.222779525048774e-01	 2.507550704137424e+00	 7.275921189516602e+00
 3.685164079635920e-01	 2.516013627684829e+00	 7.206451635033522e+00
 3.149664520404358e-01	 2.523276617290721e+00	 7.141101105509639e+00
 2.616635943687563e-01	 2.529359776671025e+00	 7.080650868582072e+00
 2.086419599699854e-01	 2.534284381646630e+00	 7.031263959082670e+00
 1.559342557104036e-01	 2.538072785581547e+00	 6.999378773890548e+00
 1.035717434002304e-01	 2.540748325033113e+00	 6.990709692676769e+00
 5.158421932896199e-02	 2.542335226081252e+00	 7.009517745783389e+00
 0.000000000000000e+00	 2.542858511771497e+00	 7.058089544345163e+00
 5.362451027025408e-01	 2.514893050207545e+00	 7.460958177757136e+00
 4.815647072427550e-01	 2.525933661670474e+00	 7.359466163100489e+00
 4.270224302509982e-01	 2.535724134575267e+00	 7.267023559919540e+00
 3.726568512100873e-01	 2.544282142775148e+00	 7.181476400661950e+00
 3.185052380781599e-01	 2.551626735250100e+00	 7.100117163242865e+00
 2.646034994548415e-01	 2.557778241590114e+00	 7.024812796385793e+00
 2.109861437711213e-01	 2.562758176659273e+00	 6.962950854320614e+00
 1.576862453692426e-01	 2.566589144971436e+00	 6.921616349540451e+00
 1.047354172995499e-01	 2.569294745280405e+00	 6.906689354472373e+00
 5.216379062589737e-02	 2.570899475856734e+00	 6.922224684064281e+00
 0.000000000000000e+00	 2.571428640890857e+00	 6.970040556363262e+00
 5.422031139460399e-01	 2.542835050984890e+00	 7.443118903765647e+00
 4.869151858310470e-01	 2.553998330397381e+00	 7.319585662132845e+00
 4.317669107648527e-01	 2.563897581447272e+00	 7.203132846248597e+00
 3.767972968719322e-01	 2.572550674355129e+00	 7.092601856407493e+00
 3.220440261802395e-01	 2.579976869746778e+00	 6.986951534278525e+00
 2.675434062559118e-01	 2.586196723086415e+00	 6.889294083425016e+00
 2.133303289397193e-01	 2.591231988281440e+00	 6.808215079229843e+00
 1.594382360500830e-01	 2.595105520995713e+00	 6.752198826248504e+00
 1.058990918776779e-01	 2.597841182179645e+00	 6.728317743004041e+00
 5.274336226091225e-02	 2.599463742294587e+00	 6.738235128247138e+00
 0.000000000000000e+00	 2.599998786676022e+00	 6.781851206750038e+00
 5.481611293604884e-01	 2.570777071321162e+00	 7.389680858138879e+00
 4.922656681649655e-01	 2.582063018769104e+00	 7.234652884875064e+00
 4.365113946000840e-01	 2.592071048040271e+00	 7.084464755322367e+00
 3.809377454322788e-01	 2.600819225722707e+00	 6.947139068872735e+00
 3.255828167596123e-01	 2.608327024088222e+00	 6.830010512318667e+00
 2.704833151150143e-01	 2.614615224475370e+00	 6.732043535160151e+00
 2.156745157493064e-01	 2.619705819835037e+00	 6.657261719890339e+00
 1.611902279573460e-01	 2.623621916981256e+00	 6.608859294195852e+00
 1.070627672703864e-01	 2.626387639061227e+00	 6.588884788378581e+00
 5.332293430162512e-02	 2.628028028727284e+00	 6.598084908827283e+00
 0.000000000000000e+00	 2.628568952460155e+00	 6.635773755721081e+00
 5.541191496411407e-01	 2.598719114476180e+00	 7.305402672315370e+00
 4.976161548688717e-01	 2.610127730059779e+00	 7.135343816210212e+00
 4.412558823103349e-01	 2.620244537641096e+00	 6.991441026743809e+00
 3.850781973742792e-01	 2.629087800175812e+00	 6.870604415708520e+00
 3.291216102292158e-01	 2.636677201581889e+00	 6.768652409371505e+00
 2.734232263751963e-01	 2.643033749072420e+00	 6.683419675457985e+00
 2.180187044734096e-01	 2.648179674641970e+00	 6.618099094908352e+00
 1.629422212954528e-01	 2.652138336254944e+00	 6.575139994168239e+00
 1.082264436134467e-01	 2.654934119255541e+00	 6.555882005214087e+00
 5.390250681565453e-02	 2.656592338487296e+00	 6.560440582640352e+00
 0.000000000000000e+00	 2.657139141576415e+00	 6.587612820700826e+00
 5.600771754832523e-01	 2.626661183709768e+00	 7.283318000595329e+00
 5.029666465671266e-01	 2.638192467543541e+00	 7.133211195249332e+00
 4.460003744492487e-01	 2.648418053536581e+00	 7.008714976822226e+00
 3.892186531810850e-01	 2.657356401012376e+00	 6.905753956182535e+00
 3.326604070019871e-01	 2.665027405535240e+00	 6.819401593321128e+00
 2.763631403795047e-01	 2.671452300193008e+00	 6.746474287406424e+00
 2.203628953855560e-01	 2.676653556024145e+00	 6.689334904690293e+00
 1.646942162688246e-01	 2.680654782143652e+00	 6.649711816611771e+00
 1.093901210426304e-01	 2.683480626092976e+00	 6.628266790591566e+00
 5.448207987061898e-02	 2.685156674907101e+00	 6.624525744883079e+00
 0.000000000000000e+00	 2.685709357357963e+00	 6.636824274328073e+00
 5.660352075820777e-01	 2.654603282281744e+00	 7.363194935788627e+00
 5.083171438840919e-01	 2.666257234494528e+00	 7.236458473051174e+00
 4.507448715704687e-01	 2.676591599013558e+00	 7.133803117770370e+00
 3.933591133358485e-01	 2.685625031530334e+00	 7.050244460832161e+00
 3.361992074908640e-01	 2.693377639255737e+00	 6.980134793713707e+00
 2.793030574709868e-01	 2.699870881152578e+00	 6.919339066516004e+00
 2.227070887592726e-01	 2.705127467303463e+00	 6.869379362283114e+00
 1.664462130818825e-01	 2.709171257974259e+00	 6.831271113615919e+00
 1.105537996937094e-01	 2.712027162903924e+00	 6.805013720214719e+00
 5.506165353413702e-02	 2.713721041319171e+00	 6.789570426881971e+00
 0.000000000000000e+00	 2.714279603137963e+00	 6.782856926849939e+00
 2.714279603137963e+00	 0.000000000000000e+00	 1.119549619899984e+01
 2.713721041319172e+00	 5.506165353413778e-02	 1.121002529384469e+01
 2.712027162903924e+00	 1.105537996937102e-01	 1.122091544275966e+01
 2.709171257974258e+00	 1.664462130818831e-01	 1.123037994145768e+01
 2.705127467303463e+00	 2.227070887592731e-01	 1.124107494753176e+01
 2.699870881152579e+00	 2.793030574709873e-01	 1.125617736587889e+01
 2.693377639255736e+00	 3.361992074908643e-01	 1.127945677114384e+01
 2.685625031530335e+00	 3.933591133358488e-01	 1.131353429801799e+01
 2.676591599013558e+00	 4.507448715704688e-01	 1.134561351647499e+01
 2.666257234494528e+00	 5.083171438840918e-01	 1.137325683948199e+01
 2.654603282281744e+00	 5.660352075820778e-01	 1.139768254217874e+01
 2.742851877825675e+00	 0.000000000000000e+00	 1.114632167552517e+01
 2.742287436221420e+00	 5.564126835592091e-02	 1.115518526434548e+01
 2.740575726938856e+00	 1.117175609831433e-01	 1.116340443723054e+01
 2.737689758894032e+00	 1.681983343126097e-01	 1.117252759900606e+01
 2.733603400649181e+00	 2.250514486054194e-01	 1.118456679955899e+01
 2.728291480249215e+00	 2.822431833401569e-01	 1.120208604844279e+01
 2.721729886259573e+00	 3.397382592870820e-01	 1.122828676922804e+01
 2.713895669536539e+00	 3.974998675247676e-01	 1.126484673794362e+01
 2.704767145226286e+00	 4.554897056214811e-01	 1.129972238104622e+01
 2.694323994456344e+00	 5.136680211658977e-01	 1.133120670676756e+01
 2.682547365153264e+00	 5.719936627897573e-01	 1.136023086491189e+01
 2.771424162515437e+00	 0.000000000000000e+00	 1.110630756029038e+01
 2.770853841123658e+00	 5.622088338061570e-02	 1.111013175405845e+01
 2.769124300967523e+00	 1.128813226800115e-01	 1.111563626358497e+01
 2.766208269797004e+00	 1.699504561567912e-01	 1.112384119851447e+01
 2.762079343963179e+00	 2.273958092724149e-01	 1.113623853708972e+01
 2.756712089294741e+00	 2.851833102388183e-01	 1.115488985185511e+01
 2.750082143188358e+00	 3.432773123225488e-01	 1.118252461093942e+01
 2.742166317439112e+00	 4.016406231636693e-01	 1.122000759070542e+01
 2.732942701302091e+00	 4.602345413340415e-01	 1.125633375313706e+01
 2.722390764243160e+00	 5.190189003214988e-01	 1.129037353819103e+01
 2.710491457806852e+00	 5.779521200840059e-01	 1.132284745900430e+01
 2.799996433873020e+00	 0.000000000000000e+00	 1.107373537920836e+01
 2.799420232696467e+00	 5.680049813486707e-02	 1.107355015003131e+01
 2.797672861675099e+00	 1.140450838338928e-01	 1.107668373223876e+01
 2.794726767392933e+00	 1.717025771834883e-01	 1.108376226944868e+01
 2.790555273990032e+00	 2.297401688456291e-01	 1.109587859238228e+01
 2.785132685078988e+00	 2.881234357657633e-01	 1.111469833568818e+01
 2.778434386887803e+00	 3.468163637068937e-01	 1.114257042141435e+01
 2.770436952150479e+00	 4.057813768707506e-01	 1.117969572447768e+01
 2.761118244231120e+00	 4.649793748329736e-01	 1.121631431552281e+01
 2.750457520934027e+00	 5.243697769807446e-01	 1.125175154500728e+01
 2.738435537421798e+00	 5.839105745984499e-01	 1.128659015752160e+01
 2.828568668564200e+00	 0.000000000000000e+00	 1.104708370795200e+01
 2.827986587610429e+00	 5.738011214531988e-02	 1.104427228062361e+01
 2.826221385746751e+00	 1.152088434943652e-01	 1.104572081295088e+01
 2.823245228391587e+00	 1.734546959617626e-01	 1.105179370473096e+01
 2.819031167474320e+00	 2.320845254104313e-01	 1.106330256138543e+01
 2.813553244391778e+00	 2.910635575197821e-01	 1.108161967813493e+01
 2.806786594203621e+00	 3.503554105497452e-01	 1.110880005998526e+01
 2.798707550583070e+00	 4.099221252642087e-01	 1.114454290656807e+01
 2.789293751003527e+00	 4.697242022431014e-01	 1.118046603030216e+01
 2.778524241607999e+00	 5.297206467734847e-01	 1.121625706807232e+01
 2.766379581177402e+00	 5.898690214667162e-01	 1.125243021322544e+01
 2.857140843254746e+00	 0.000000000000000e+00	 1.102501831232173e+01
 2.856552882536130e+00	 5.795972493861903e-02	 1.102126816136794e+01
 2.854769849867655e+00	 1.163726007110071e-01	 1.102201596137072e+01
 2.851763629502726e+00	 1.752068110606750e-01	 1.102749463523002e+01
 2.847507001160619e+00	 2.344288770521907e-01	 1.103834958483829e+01
 2.841973744022938e+00	 2.940036730996659e-01	 1.105575851316234e+01
 2.835138741981524e+00	 3.538944499607315e-01	 1.108156435299802e+01
 2.826978089649308e+00	 4.140628649622402e-01	 1.111513356884359e+01
 2.817469198609460e+00	 4.744690196892485e-01	 1.114952692140274e+01
 2.806590903344127e+00	 5.350715053295687e-01	 1.118473026296866e+01
 2.794323566252953e+00	 5.958274558224311e-01	 1.122125476315621e+01
 2.885712934610430e+00	 0.000000000000000e+00	 1.100638287211904e+01
 2.885119094144152e+00	 5.853933604140941e-02	 1.100363823203375e+01
 2.883318230722977e+00	 1.175363545333963e-01	 1.100492585076385e+01
 2.880281947436114e+00	 1.769589210492869e-01	 1.101047563010522e+01
 2.875982751793506e+00	 2.367732218562765e-01	 1.102087898301025e+01
 2.870394160762297e+00	 2.969437801042061e-01	 1.103721395659544e+01
 2.863490807067224e+00	 3.574334790494816e-01	 1.106118845874036e+01
 2.855248546261620e+00	 4.182035925830417e-01	 1.109200465687068e+01
 2.845644564039071e+00	 4.792138232962388e-01	 1.112417190093123e+01
 2.834657483221469e+00	 5.404223482788464e-01	 1.115793679802466e+01
 2.822267469827745e+00	 6.017858727992217e-01	 1.119386928436831e+01
 2.914284919297025e+00	 0.000000000000000e+00	 1.099019024852844e+01
 2.913685199105079e+00	 5.911894498033595e-02	 1.099060605124341e+01
 2.911866504997891e+00	 1.187001040111111e-01	 1.099388948117777e+01
 2.908800158901512e+00	 1.787110244966592e-01	 1.100039420071208e+01
 2.904458396117560e+00	 2.391175579080580e-01	 1.101076712673807e+01
 2.898814471399680e+00	 2.998838761321934e-01	 1.102607780822146e+01
 2.891842766306433e+00	 3.609724949256239e-01	 1.104797135545652e+01
 2.883518897332431e+00	 4.223443047448103e-01	 1.107564555707982e+01
 2.873819824282509e+00	 4.839586091888963e-01	 1.110501363640489e+01
 2.862723958319076e+00	 5.457731712511673e-01	 1.113656956437831e+01
 2.850211269081071e+00	 6.077442675307140e-01	 1.117100004144635e+01
 2.942856773980304e+00	 0.000000000000000e+00	 1.097561425811334e+01
 2.942251174089493e+00	 5.969855128204353e-02	 1.098151141760126e+01
 2.940414649377568e+00	 1.198638481937295e-01	 1.098842264045941e+01
 2.937318240608683e+00	 1.804631199718533e-01	 1.099695058750297e+01
 2.932933910877357e+00	 2.414618832929044e-01	 1.100790452876259e+01
 2.927234652724914e+00	 3.028239587824190e-01	 1.102243291800333e+01
 2.920194596544863e+00	 3.645114946987866e-01	 1.104218544412023e+01
 2.911789119774170e+00	 4.264849980657429e-01	 1.106649809670409e+01
 2.901994956329924e+00	 4.887033734920443e-01	 1.109260345612915e+01
 2.890790305716005e+00	 5.511239698763812e-01	 1.112125039729765e+01
 2.878154941192225e+00	 6.137026351505349e-01	 1.115329652637868e+01
 2.971428475326038e+00	 0.000000000000000e+00	 1.096337678263176e+01
 2.970816995767978e+00	 6.027815447317704e-02	 1.097696729389210e+01
 2.968962640547179e+00	 1.210275861308298e-01	 1.098876466764207e+01
 2.965836169267390e+00	 1.822152060439302e-01	 1.100002504503366e+01
 2.961409272817476e+00	 2.438061960961850e-01	 1.101219314059439e+01
 2.955654681527824e+00	 3.057640256536739e-01	 1.102635170540403e+01
 2.948546274628227e+00	 3.680504754785986e-01	 1.104407625827528e+01
 2.940059190499261e+00	 4.306256691640361e-01	 1.106495661164169e+01
 2.930169937171467e+00	 4.934481123305068e-01	 1.108743229019190e+01
 2.918856502491305e+00	 5.564747397843377e-01	 1.111253180802626e+01
 2.906098463340500e+00	 6.196609707923111e-01	 1.114133389131376e+01
 3.000000000000000e+00	 0.000000000000000e+00	 1.097473573703287e+01
 2.999382640811117e+00	 6.085775408038134e-02	 1.099751053656167e+01
 2.997510455191895e+00	 1.221913168719899e-01	 1.101391291682279e+01
 2.994353921587397e+00	 1.839672812819512e-01	 1.102584429001835e+01
 2.989884458682492e+00	 2.461504944032691e-01	 1.103536519183583e+01
 2.984074534598237e+00	 3.087040743447489e-01	 1.104476642753408e+01
 2.976897777402236e+00	 3.715894343746882e-01	 1.105667066568541e+01
 2.968329086420133e+00	 4.347663146578870e-01	 1.107175451371048e+01
 2.958344743797289e+00	 4.981928218291077e-01	 1.108993164473454e+01
 2.946922525724032e+00	 5.618254766048862e-01	 1.111089872547380e+01
 2.934041812705189e+00	 6.256192695896690e-01	 1.113561537468073e+01
 2.654603282281744e+00	 5.660352075820778e-01	 1.139768254217874e+01
 2.641613593124215e+00	 6.238529737679167e-01	 1.142131925247608e+01
 2.627271941546510e+00	 6.817312296917112e-01	 1.144757563320552e+01
 2.611564610227829e+00	 7.396255531271493e-01	 1.147847708189611e+01
 2.594479710539368e+00	 7.974904184726043e-01	 1.151249280259174e+01
 2.576007268633907e+00	 8.552792845798692e-01	 1.155007672568600e+01
 2.556139306907209e+00	 9.129446897346282e-01	 1.159360725290098e+01
 2.534869920186331e+00	 9.704383535426029e-01	 1.163988880179444e+01
 2.512195346010452e+00	 1.027711285412123e+00	 1.168408451870546e+01
 2.488114028387177e+00	 1.084713899260560e+00	 1.171993595432856e+01
 2.462626674431372e+00	 1.141396134009372e+00	 1.174334877704296e+01
 2.682547365153264e+00	 5.719936627897573e-01	 1.136023086491189e+01
 2.669420938068522e+00	 6.304200564347944e-01	 1.138860803227936e+01
 2.654928316926766e+00	 6.889075765721560e-01	 1.141909858309695e+01
 2.639055640009740e+00	 7.474113333582350e-01	 1.145346744793541e+01
 2.621790893541192e+00	 8.058853219592611e-01	 1.148931373115038e+01
 2.603123998682685e+00	 8.642825113045790e-01	 1.152565624851309e+01
 2.583046893852523e+00	 9.225549400669463e-01	 1.156377531571713e+01
 2.561553611716062e+00	 9.806538196211996e-01	 1.160580238476712e+01
 2.538640350206366e+00	 1.038529643668781e+00	 1.164743789220177e+01
 2.514305536951647e+00	 1.096132304151652e+00	 1.168194353693635e+01
 2.488549886510319e+00	 1.153411213015744e+00	 1.170729928360777e+01
 2.710491457806852e+00	 5.779521200840059e-01	 1.132284745900430e+01
 2.697228292747057e+00	 6.369871414013679e-01	 1.135500361536780e+01
 2.682584701988438e+00	 6.960839259656322e-01	 1.138896432813883e+01
 2.666546679415236e+00	 7.551971163157337e-01	 1.142613408196194e+01
 2.649102086103694e+00	 8.142802283855918e-01	 1.146349543637216e+01
 2.630240738224124e+00	 8.732857411819323e-01	 1.150058402679393e+01
 2.609954490217336e+00	 9.321651937644131e-01	 1.153799103678926e+01
 2.588237312586964e+00	 9.908692892768077e-01	 1.157530752222601e+01
 2.565085363659939e+00	 1.049348005713495e+00	 1.161265913743895e+01
 2.540497054685070e+00	 1.107550713040843e+00	 1.164465706552084e+01
 2.514473107664317e+00	 1.165426296229068e+00	 1.167185550360315e+01
 2.738435537421798e+00	 5.839105745984499e-01	 1.128659015752160e+01
 2.725035634450825e+00	 6.435542233041899e-01	 1.132158644970225e+01
 2.710241074145860e+00	 7.032602720111059e-01	 1.135825890067586e+01
 2.694037705993698e+00	 7.629828956408922e-01	 1.139755942657750e+01
 2.676413265923144e+00	 8.226751308953841e-01	 1.143610551989727e+01
 2.657357465113304e+00	 8.822889668589189e-01	 1.147382860360168e+01
 2.636862074027531e+00	 9.417754429782883e-01	 1.151116884324358e+01
 2.614921001007762e+00	 1.001084754166442e+00	 1.154753951506478e+01
 2.591530364774811e+00	 1.060166362710937e+00	 1.158101632570021e+01
 2.566688560198091e+00	 1.118969116602790e+00	 1.160936820620798e+01
 2.540396316723103e+00	 1.177441373836758e+00	 1.163779227250377e+01
 2.766379581177402e+00	 5.898690214667162e-01	 1.125243021322544e+01
 2.752842940470832e+00	 6.501212967798133e-01	 1.128934499465990e+01
 2.737897410813357e+00	 7.104366088475412e-01	 1.132797302336379e+01
 2.721528697294512e+00	 7.707686649749571e-01	 1.136873480024104e+01
 2.703724410695819e+00	 8.310700226324271e-01	 1.140811519831836e+01
 2.684474157205309e+00	 8.912921809825295e-01	 1.144631657206697e+01
 2.663769623308991e+00	 9.513856798598325e-01	 1.148362899337485e+01
 2.641604655187179e+00	 1.011300205947116e+00	 1.151937167338492e+01
 2.617975331954621e+00	 1.070984705825776e+00	 1.155157316542172e+01
 2.592880032101356e+00	 1.130387505512155e+00	 1.157745627010018e+01
 2.566319492516415e+00	 1.189456436026221e+00	 1.160573007188322e+01
 2.794323566252953e+00	 5.958274558224311e-01	 1.122125476315621e+01
 2.780650188098085e+00	 6.566883564647906e-01	 1.125917888699351e+01
 2.765553689405261e+00	 7.176129306139045e-01	 1.129900594593782e+01
 2.749019630867062e+00	 7.785544179591756e-01	 1.134056190379546e+01
 2.731035498117990e+00	 8.394648967405084e-01	 1.138040221473899e+01
 2.711590792355224e+00	 9.002953761997534e-01	 1.141887838176958e+01
 2.690677116087596e+00	 9.609958965603048e-01	 1.145613084336088e+01
 2.668288253333938e+00	 1.021515636275842e+00	 1.149138434451732e+01
 2.644420243603010e+00	 1.081803026222685e+00	 1.152262283579760e+01
 2.619071449005510e+00	 1.141805870443596e+00	 1.154815732853529e+01
 2.592242613873987e+00	 1.201471472984867e+00	 1.157613510920210e+01
 2.822267469827745e+00	 6.017858727992217e-01	 1.119386928436831e+01
 2.808457354623588e+00	 6.632553969956749e-01	 1.123190208247583e+01
 2.793209887335901e+00	 7.247892314491612e-01	 1.127216924537563e+01
 2.776510484260732e+00	 7.863401482347941e-01	 1.131385535503271e+01
 2.758346505885930e+00	 8.478597463634167e-01	 1.135375369870003e+01
 2.738707348418127e+00	 9.092985451575804e-01	 1.139225147448763e+01
 2.717584530389229e+00	 9.706060852309656e-01	 1.142933937797697e+01
 2.694971773656761e+00	 1.031731036809634e+00	 1.146414695353552e+01
 2.670865078123617e+00	 1.092621315066335e+00	 1.149461255012134e+01
 2.645262789521202e+00	 1.153224202071776e+00	 1.152033350813345e+01
 2.618165659625559e+00	 1.213486474900108e+00	 1.154857046543972e+01
 2.850211269081071e+00	 6.077442675307140e-01	 1.117100004144635e+01
 2.836264417338346e+00	 6.698224130090182e-01	 1.120824597490526e+01
 2.820865982019607e+00	 7.319655054922766e-01	 1.124819059195748e+01
 2.804001235024908e+00	 7.941258494430601e-01	 1.128934518062307e+01
 2.785657411695913e+00	 8.562545646449402e-01	 1.132886897803773e+01
 2.765823803249103e+00	 9.183016805030012e-01	 1.136708336941641e+01
 2.744491844239771e+00	 9.802162380230749e-01	 1.140382851999541e+01
 2.721655194364371e+00	 1.041946399205505e+00	 1.143813759515139e+01
 2.697309813920081e+00	 1.103439563521397e+00	 1.146790218766719e+01
 2.671454032259074e+00	 1.164642491071353e+00	 1.149401979036095e+01
 2.644088608600867e+00	 1.225501431959353e+00	 1.152221892110041e+01
 2.878154941192225e+00	 6.137026351505349e-01	 1.115329652637868e+01
 2.864071353533365e+00	 6.763893991413740e-01	 1.118886249401253e+01
 2.848521950870707e+00	 7.391417468822162e-01	 1.122771748352460e+01
 2.831491860708973e+00	 8.019115152252198e-01	 1.126767926832749e+01
 2.812968193244212e+00	 8.646493447288669e-01	 1.130636234595628e+01
 2.792940134703233e+00	 9.273047748830046e-01	 1.134393470130289e+01
 2.771399035665106e+00	 9.898263470878927e-01	 1.138008439294985e+01
 2.748338493665494e+00	 1.052161715120468e+00	 1.141374647221026e+01
 2.723754429396043e+00	 1.114257762752542e+00	 1.144277500244505e+01
 2.697645155829776e+00	 1.176060728116987e+00	 1.146917527094618e+01
 2.670011439629645e+00	 1.237516334350012e+00	 1.149686959454943e+01
 2.906098463340500e+00	 6.196609707923111e-01	 1.114133389131376e+01
 2.891878140499650e+00	 6.829563500292942e-01	 1.117432718368357e+01
 2.876177771303532e+00	 7.463179497579450e-01	 1.121130131623430e+01
 2.858982338862312e+00	 8.096971392225202e-01	 1.124942578218326e+01
 2.840278828227100e+00	 8.730440797589853e-01	 1.128676578634151e+01
 2.820056320635602e+00	 9.363078209445818e-01	 1.132328221467191e+01
 2.798306082691114e+00	 9.994364045766783e-01	 1.135850854040564e+01
 2.775021649768851e+00	 1.062376976211536e+00	 1.139127929364038e+01
 2.750198902955143e+00	 1.125075903924441e+00	 1.141955436480616e+01
 2.723836138843952e+00	 1.187478903883339e+00	 1.144569143839916e+01
 2.695934131541633e+00	 1.249531172259495e+00	 1.147225443996536e+01
 2.934041812705189e+00	 6.256192695896690e-01	 1.113561537468073e+01
 2.919684755528207e+00	 6.895232603093321e-01	 1.116514226180039e+01
 2.903833420732411e+00	 7.534941082584290e-01	 1.119940435282393e+01
 2.886472647034307e+00	 8.174827150762080e-01	 1.123507554314570e+01
 2.867589294340849e+00	 8.814387628790836e-01	 1.127053166010731e+01
 2.847172338901289e+00	 9.453108113347218e-01	 1.130552171707386e+01
 2.825212963343676e+00	 1.009046402640692e+00	 1.133942110463385e+01
 2.801704640883166e+00	 1.072592174135724e+00	 1.137096063455329e+01
 2.776643213001019e+00	 1.135893978201766e+00	 1.139827654518228e+01
 2.750026959912248e+00	 1.198897009045067e+00	 1.142340042693493e+01
 2.721856663166569e+00	 1.261545935875212e+00	 1.144805680129581e+01
 2.462626674431372e+00	 1.141396134009372e+00	 1.174334877704296e+01
 2.435734374483759e+00	 1.197711504630270e+00	 1.176839180047937e+01
 2.407444249741307e+00	 1.253605378785728e+00	 1.179624578979669e+01
 2.377764074730168e+00	 1.309027017072203e+00	 1.182177339880949e+01
 2.346704032686388e+00	 1.363925734021101e+00	 1.183888607228624e+01
 2.314276728999100e+00	 1.418251039050627e+00	 1.184039728828275e+01
 2.280497194858377e+00	 1.471952779417934e+00	 1.181786031084504e+01
 2.245382880867588e+00	 1.524981284382777e+00	 1.177611838562042e+01
 2.208953640452497e+00	 1.577287509765193e+00	 1.173944634374508e+01
 2.171231702975119e+00	 1.628823182058370e+00	 1.171045069352525e+01
 2.132241636539099e+00	 1.679540941244555e+00	 1.168411482882885e+01
 2.488549886510319e+00	 1.153411213015744e+00	 1.170729928360777e+01
 2.461374500700741e+00	 1.210319395901076e+00	 1.173560499007129e+01
 2.432786575682229e+00	 1.266801645374579e+00	 1.176599221031581e+01
 2.402793967820667e+00	 1.322806687916729e+00	 1.179304509644492e+01
 2.371406967547471e+00	 1.378283304510704e+00	 1.181037346946297e+01
 2.338638312944310e+00	 1.433180473077991e+00	 1.181045164049257e+01
 2.304503193429349e+00	 1.487447512935333e+00	 1.178466596803555e+01
 2.269019243302375e+00	 1.541034230475954e+00	 1.174769041031269e+01
 2.232206524979234e+00	 1.593891065248936e+00	 1.171414214024635e+01
 2.194087501822687e+00	 1.645969235589125e+00	 1.168507740631653e+01
 2.154687000556232e+00	 1.697220882936404e+00	 1.165886057972113e+01
 2.514473107664317e+00	 1.165426296229068e+00	 1.167185550360315e+01
 2.487014635893677e+00	 1.222927291586337e+00	 1.170278705699837e+01
 2.458128910494850e+00	 1.279997916583831e+00	 1.173537415490034e+01
 2.427823869673475e+00	 1.336586363585857e+00	 1.176389529353099e+01
 2.396109911056378e+00	 1.392640880027180e+00	 1.178163421922824e+01
 2.362999905417818e+00	 1.448109912332382e+00	 1.178070356332223e+01
 2.328509200404110e+00	 1.502942251877612e+00	 1.175453294161250e+01
 2.292655614011522e+00	 1.557087182189377e+00	 1.172254839716956e+01
 2.255459417646065e+00	 1.610494626545629e+00	 1.169218172156077e+01
 2.216943308671327e+00	 1.663115295122688e+00	 1.166379699896404e+01
 2.177132372430755e+00	 1.714900830817902e+00	 1.163698778775223e+01
 2.540396316723103e+00	 1.177441373836758e+00	 1.163779227250377e+01
 2.512654759123475e+00	 1.235535181389375e+00	 1.167053361474471e+01
 2.483471233483257e+00	 1.293194181636343e+00	 1.170483043039986e+01
 2.452853759847808e+00	 1.350366032826049e+00	 1.173462994003525e+01
 2.420812843039327e+00	 1.406998448845093e+00	 1.175286712797222e+01
 2.387361486524589e+00	 1.463039344621394e+00	 1.175127238011324e+01
 2.352515196178001e+00	 1.518436983590756e+00	 1.172737018979834e+01
 2.316291973692227e+00	 1.573140126413210e+00	 1.169987493699002e+01
 2.278712299463350e+00	 1.627098180095813e+00	 1.167234462883778e+01
 2.239799104855674e+00	 1.680261346656600e+00	 1.164542761792510e+01
 2.199577733832486e+00	 1.732580770450609e+00	 1.161777323309268e+01
 2.566319492516415e+00	 1.189456436026221e+00	 1.160573007188322e+01
 2.538294849451038e+00	 1.248143055013508e+00	 1.163928389561931e+01
 2.508813523951538e+00	 1.306390429754976e+00	 1.167464104102991e+01
 2.477883617902889e+00	 1.364145684383770e+00	 1.170539340758488e+01
 2.445515743322527e+00	 1.421355999239007e+00	 1.172410635009677e+01
 2.411723036369591e+00	 1.477968757752624e+00	 1.172210946224285e+01
 2.376521161146365e+00	 1.533931695420751e+00	 1.170229690332581e+01
 2.339928303041685e+00	 1.589193050037611e+00	 1.167870036778485e+01
 2.301965151441442e+00	 1.643701712340028e+00	 1.165357723709917e+01
 2.262654871710365e+00	 1.697407376188397e+00	 1.162790078945621e+01
 2.222023066431244e+00	 1.750260687396087e+00	 1.160022402821135e+01
 2.592242613873987e+00	 1.201471472984867e+00	 1.157613510920210e+01
 2.563934885937270e+00	 1.260750902162059e+00	 1.160932046065896e+01
 2.534155761203776e+00	 1.319586650162588e+00	 1.164492652865205e+01
 2.502913423397936e+00	 1.377925307005482e+00	 1.167616746235977e+01
 2.470218591732199e+00	 1.435713519483486e+00	 1.169521999798947e+01
 2.436084535057787e+00	 1.492898139533666e+00	 1.169344370617296e+01
 2.400527075704543e+00	 1.549426374713581e+00	 1.167829059359893e+01
 2.363564582757095e+00	 1.605245939952743e+00	 1.165792152575777e+01
 2.325217954590701e+00	 1.660305209718816e+00	 1.163469749471106e+01
 2.285510590570032e+00	 1.714553369715621e+00	 1.160991833067209e+01
 2.244468351896848e+00	 1.767940567215896e+00	 1.158258062269306e+01
 2.618165659625559e+00	 1.213486474900108e+00	 1.154857046543972e+01
 2.589574847643078e+00	 1.273358712538348e+00	 1.158076890409814e+01
 2.559497924544063e+00	 1.332782832082043e+00	 1.161564732040873e+01
 2.527943155892171e+00	 1.391704889437650e+00	 1.164677025707678e+01
 2.494921368094554e+00	 1.450070997853094e+00	 1.166590878171921e+01
 2.460445962694142e+00	 1.507827477772114e+00	 1.166558129932154e+01
 2.424532920247879e+00	 1.564921008815234e+00	 1.165420558173950e+01
 2.387200793535648e+00	 1.621298783048765e+00	 1.163632054684453e+01
 2.348470689921484e+00	 1.676908658672717e+00	 1.161441394860112e+01
 2.308366242769312e+00	 1.731699313235809e+00	 1.159011312028487e+01
 2.266913571899115e+00	 1.785620395471597e+00	 1.156288453646603e+01
 2.644088608600867e+00	 1.225501431959353e+00	 1.152221892110041e+01
 2.615214713629361e+00	 1.285966475845695e+00	 1.155338610959847e+01
 2.584839993276486e+00	 1.345978964736199e+00	 1.158660308346340e+01
 2.552972794944812e+00	 1.405484420426736e+00	 1.161685534103175e+01
 2.519624052235810e+00	 1.464428422622396e+00	 1.163570467671296e+01
 2.484807299383624e+00	 1.522756760275565e+00	 1.163738212710972e+01
 2.448538675171715e+00	 1.580415585071693e+00	 1.162879152808343e+01
 2.410836916074547e+00	 1.637351566215838e+00	 1.161258371495591e+01
 2.371723338444147e+00	 1.693512045642273e+00	 1.159134482128927e+01
 2.331221809642839e+00	 1.748845192746502e+00	 1.156702983381596e+01
 2.289358708107865e+00	 1.803300157724750e+00	 1.153960241770717e+01
 2.670011439629645e+00	 1.237516334350012e+00	 1.149686959454943e+01
 2.640854462957027e+00	 1.298574181787421e+00	 1.152655422294660e+01
 2.610181946705129e+00	 1.359175037347917e+00	 1.155747336717478e+01
 2.578002320115080e+00	 1.419263888719204e+00	 1.158591068724705e+01
 2.544326623982183e+00	 1.478785782065955e+00	 1.160396961780967e+01
 2.509168525231197e+00	 1.537685974851613e+00	 1.160755877444212e+01
 2.472544320871394e+00	 1.595910090828944e+00	 1.160071199896721e+01
 2.434472931070984e+00	 1.653404276344124e+00	 1.158532035333548e+01
 2.394975881169049e+00	 1.710115357068024e+00	 1.156403713579772e+01
 2.354077272525247e+00	 1.765990994245237e+00	 1.153914420796167e+01
 2.311803742192918e+00	 1.820979839536917e+00	 1.151113071758295e+01
 2.695934131541633e+00	 1.249531172259495e+00	 1.147225443996536e+01
 2.666494074686979e+00	 1.311181820066847e+00	 1.149983056318629e+01
 2.635523764134081e+00	 1.372371039140056e+00	 1.152783867689305e+01
 2.603031710962195e+00	 1.433043283061517e+00	 1.155331299163256e+01
 2.569029063159884e+00	 1.493143064458336e+00	 1.157004161200469e+01
 2.533529620341829e+00	 1.552615109307854e+00	 1.157474361820974e+01
 2.496549837742257e+00	 1.611404513432974e+00	 1.156856306785392e+01
 2.458108819222157e+00	 1.669456900323784e+00	 1.155308175568495e+01
 2.418228299106545e+00	 1.726718579390510e+00	 1.153098588477401e+01
 2.376932612751173e+00	 1.783136703729554e+00	 1.150488235260724e+01
 2.334248655824089e+00	 1.838659426469659e+00	 1.147581502031280e+01
 2.721856663166569e+00	 1.261545935875212e+00	 1.144805680129581e+01
 2.692133527880121e+00	 1.323789380387294e+00	 1.147273744186843e+01
 2.660865424867430e+00	 1.385566959335477e+00	 1.149706674572579e+01
 2.628060947045375e+00	 1.446822592200139e+00	 1.151872756345259e+01
 2.593731349595132e+00	 1.507500258074103e+00	 1.153301516835796e+01
 2.557890564820481e+00	 1.567544151451882e+00	 1.153750703651521e+01
 2.520555206179647e+00	 1.626898840229767e+00	 1.153089194803964e+01
 2.481744561225260e+00	 1.685509425044976e+00	 1.151438015393074e+01
 2.441480573266995e+00	 1.743321699050274e+00	 1.149065324040663e+01
 2.399787811655251e+00	 1.800282307196992e+00	 1.146264010684946e+01
 2.356693430671200e+00	 1.856338904084535e+00	 1.143194912709417e+01
 2.132241636539099e+00	 1.679540941244555e+00	 1.168411482882885e+01
 2.092010294611598e+00	 1.729394486149908e+00	 1.165087076108806e+01
 2.050566740675642e+00	 1.778338726150545e+00	 1.160108288450572e+01
 2.007942198727287e+00	 1.826329900817930e+00	 1.152607496929596e+01
 1.964169982378769e+00	 1.873325704286316e+00	 1.141922055797557e+01
 1.919285408855514e+00	 1.919285408855514e+00	 1.130149865607232e+01
 1.873325704286315e+00	 1.964169982378770e+00	 1.118391106644997e+01
 1.826329900817930e+00	 2.007942198727288e+00	 1.107212788313513e+01
 1.778338726150545e+00	 2.050566740675643e+00	 1.096721187043886e+01
 1.729394486149908e+00	 2.092010294611599e+00	 1.086364485908607e+01
 1.679540941244554e+00	 2.132241636539099e+00	 1.075421515092045e+01
 2.154687000556232e+00	 1.697220882936404e+00	 1.165886057972113e+01
 2.114032157324117e+00	 1.747599218720644e+00	 1.162601581265725e+01
 2.072152341550526e+00	 1.797058677664684e+00	 1.157642336261751e+01
 2.029079105915645e+00	 1.845555038689207e+00	 1.150026484231667e+01
 1.984846114712501e+00	 1.893045550589358e+00	 1.139806642543288e+01
 1.939489056938643e+00	 1.939489056938644e+00	 1.128816425033281e+01
 1.893045550589357e+00	 1.984846114712501e+00	 1.117712587822685e+01
 1.845555038689206e+00	 2.029079105915646e+00	 1.106992339272060e+01
 1.797058677664683e+00	 2.072152341550527e+00	 1.096848933952327e+01
 1.747599218720643e+00	 2.114032157324117e+00	 1.086722627754632e+01
 1.697220882936404e+00	 2.154687000556232e+00	 1.075741923456456e+01
 2.177132372430755e+00	 1.714900830817902e+00	 1.163698778775223e+01
 2.136054027745782e+00	 1.765803957664680e+00	 1.160409622761347e+01
 2.093737949981860e+00	 1.815778635732420e+00	 1.155445048559048e+01
 2.050216020503416e+00	 1.864780183290866e+00	 1.147787641716716e+01
 2.005522254284388e+00	 1.912765403795904e+00	 1.138276203310650e+01
 1.959692712094582e+00	 1.959692712094583e+00	 1.127958867050518e+01
 1.912765403795903e+00	 2.005522254284389e+00	 1.117419036173597e+01
 1.864780183290866e+00	 2.050216020503417e+00	 1.107098734248605e+01
 1.815778635732420e+00	 2.093737949981861e+00	 1.097168147061723e+01
 1.765803957664680e+00	 2.136054027745783e+00	 1.087151111319476e+01
 1.714900830817901e+00	 2.177132372430755e+00	 1.076027372700227e+01
 2.199577733832486e+00	 1.732580770450609e+00	 1.161777323309268e+01
 2.158075887892273e+00	 1.784008688115020e+00	 1.158444147956221e+01
 2.115323548341607e+00	 1.834498585066010e+00	 1.153458781701456e+01
 2.071352925229002e+00	 1.884005318922602e+00	 1.146036704765957e+01
 2.026198384209138e+00	 1.932485247801634e+00	 1.137143730885344e+01
 1.979896357823901e+00	 1.979896357823902e+00	 1.127401864155865e+01
 1.932485247801634e+00	 2.026198384209139e+00	 1.117347584423153e+01
 1.884005318922602e+00	 2.071352925229002e+00	 1.107374503823489e+01
 1.834498585066010e+00	 2.115323548341608e+00	 1.097589281338428e+01
 1.784008688115019e+00	 2.158075887892273e+00	 1.087589117394400e+01
 1.732580770450609e+00	 2.199577733832486e+00	 1.076249697553069e+01
 2.222023066431244e+00	 1.750260687396087e+00	 1.160022402821135e+01
 2.180097719779265e+00	 1.802213395204665e+00	 1.156611107314989e+01
 2.136909119001727e+00	 1.853218510377706e+00	 1.151599273626290e+01
 2.092489802830801e+00	 1.903230429884105e+00	 1.144582397056299e+01
 2.046874487601458e+00	 1.952205066502230e+00	 1.136206500010212e+01
 2.000099977627176e+00	 2.000099977627177e+00	 1.126953536287063e+01
 1.952205066502228e+00	 2.046874487601458e+00	 1.117317667049993e+01
 1.903230429884105e+00	 2.092489802830802e+00	 1.107650006083081e+01
 1.853218510377705e+00	 2.136909119001728e+00	 1.097996340642490e+01
 1.802213395204664e+00	 2.180097719779266e+00	 1.087950175774822e+01
 1.750260687396087e+00	 2.222023066431245e+00	 1.076355994605430e+01
 2.244468351896848e+00	 1.767940567215896e+00	 1.158258062269306e+01
 2.202119505422439e+00	 1.820418064066620e+00	 1.154789745755549e+01
 2.158494644334184e+00	 1.871938396379762e+00	 1.149824901535475e+01
 2.113626636047216e+00	 1.922455500475067e+00	 1.143198369648232e+01
 2.067550547576051e+00	 1.971924843793370e+00	 1.135248514286251e+01
 2.020303555004978e+00	 2.020303555004979e+00	 1.126407849898155e+01
 1.971924843793369e+00	 2.067550547576051e+00	 1.117133360351572e+01
 1.922455500475066e+00	 2.113626636047217e+00	 1.107740245985315e+01
 1.871938396379762e+00	 2.158494644334184e+00	 1.098227695504354e+01
 1.820418064066618e+00	 2.202119505422440e+00	 1.088121353841386e+01
 1.767940567215896e+00	 2.244468351896848e+00	 1.076322786018786e+01
 2.266913571899115e+00	 1.785620395471597e+00	 1.156288453646603e+01
 2.224141226837471e+00	 1.838622679833886e+00	 1.152832646510441e+01
 2.180080106710937e+00	 1.890658227784433e+00	 1.147975688759447e+01
 2.134763407616645e+00	 1.941680514995179e+00	 1.141648016050972e+01
 2.088226547247623e+00	 1.991644563570736e+00	 1.134042959522323e+01
 2.040507073457881e+00	 2.040507073457882e+00	 1.125547023264919e+01
 1.991644563570735e+00	 2.088226547247624e+00	 1.116585728442956e+01
 1.941680514995178e+00	 2.134763407616646e+00	 1.107445662520783e+01
 1.890658227784431e+00	 2.180080106710939e+00	 1.098087518043105e+01
 1.838622679833885e+00	 2.224141226837473e+00	 1.087961983203015e+01
 1.785620395471597e+00	 2.266913571899115e+00	 1.075962328494072e+01
 2.289358708107865e+00	 1.803300157724750e+00	 1.153960241770717e+01
 2.246162866040040e+00	 1.856827227639467e+00	 1.150533929845001e+01
 2.201665488503951e+00	 1.909377989303971e+00	 1.145796500446168e+01
 2.155900100277489e+00	 1.960905457744132e+00	 1.139686967783264e+01
 2.108902469730882e+00	 2.011364209730009e+00	 1.132354663032289e+01
 2.060710516486458e+00	 2.060710516486459e+00	 1.124143937536475e+01
 2.011364209730009e+00	 2.108902469730882e+00	 1.115455174728572e+01
 1.960905457744131e+00	 2.155900100277490e+00	 1.106554410063545e+01
 1.909377989303969e+00	 2.201665488503952e+00	 1.097372815933759e+01
 1.856827227639466e+00	 2.246162866040041e+00	 1.087204112782036e+01
 1.803300157724751e+00	 2.289358708107865e+00	 1.074951768349761e+01
 2.311803742192918e+00	 1.820979839536917e+00	 1.151113071758295e+01
 2.268184405045823e+00	 1.875031692616365e+00	 1.147681325799880e+01
 2.223250772085186e+00	 1.928097665650631e+00	 1.143027109756710e+01
 2.177036696768149e+00	 1.980130313021617e+00	 1.137065595527325e+01
 2.129578298140533e+00	 2.031083766166870e+00	 1.129942558411575e+01
 2.080913867591281e+00	 2.080913867591282e+00	 1.121964553081176e+01
 2.031083766166869e+00	 2.129578298140534e+00	 1.113513798416825e+01
 1.980130313021617e+00	 2.177036696768150e+00	 1.104844644452295e+01
 1.928097665650630e+00	 2.223250772085187e+00	 1.095868293150231e+01
 1.875031692616365e+00	 2.268184405045824e+00	 1.085469328554880e+01
 1.820979839536918e+00	 2.311803742192917e+00	 1.072969563134294e+01
 2.334248655824089e+00	 1.838659426469659e+00	 1.147581502031280e+01
 2.290205825870498e+00	 1.893236059897584e+00	 1.144052680091768e+01
 2.244835939826603e+00	 1.946817241536666e+00	 1.139393872756528e+01
 2.198173179827025e+00	 1.999355065127327e+00	 1.133531515428807e+01
 2.150254015591281e+00	 2.050803216776998e+00	 1.126562155355430e+01
 2.101117110272924e+00	 2.101117110272925e+00	 1.118770330704254e+01
 2.050803216776997e+00	 2.150254015591281e+00	 1.110527755675316e+01
 1.999355065127326e+00	 2.198173179827026e+00	 1.102086813424617e+01
 1.946817241536665e+00	 2.244835939826604e+00	 1.093176080092734e+01
 1.893236059897583e+00	 2.290205825870499e+00	 1.082424752986633e+01
 1.838659426469659e+00	 2.334248655824089e+00	 1.069697835255380e+01
 2.356693430671200e+00	 1.856338904084535e+00	 1.143194912709417e+01
 2.312227110529743e+00	 1.911440314616127e+00	 1.139432530681881e+01
 2.266420974100166e+00	 1.965536701674331e+00	 1.134657494553146e+01
 2.219309532192518e+00	 2.018579698360952e+00	 1.128832100124045e+01
 2.170929605197832e+00	 2.070522545456074e+00	 1.121968014109046e+01
 2.121320228031960e+00	 2.121320228031961e+00	 1.114320657341277e+01
 2.070522545456073e+00	 2.170929605197832e+00	 1.106259625049639e+01
 2.018579698360951e+00	 2.219309532192519e+00	 1.098045951050671e+01
 1.965536701674330e+00	 2.266420974100166e+00	 1.088876066172342e+01
 1.911440314616125e+00	 2.312227110529744e+00	 1.077761809228690e+01
 1.856338904084535e+00	 2.356693430671200e+00	 1.064824446057075e+01
 1.679540941244554e+00	 2.132241636539099e+00	 1.075421515092045e+01
 1.628823182058369e+00	 2.171231702975121e+00	 1.062647035946290e+01
 1.577287509765192e+00	 2.208953640452497e+00	 1.046680636405044e+01
 1.524981284382777e+00	 2.245382880867589e+00	 1.027270868369500e+01
 1.471952779417933e+00	 2.280497194858376e+00	 1.006919276647245e+01
 1.418251039050626e+00	 2.314276728999100e+00	 9.869962695379535e+00
 1.363925734021100e+00	 2.346704032686388e+00	 9.679447191812756e+00
 1.309027017072202e+00	 2.377764074730169e+00	 9.498885952021778e+00
 1.253605378785727e+00	 2.407444249741308e+00	 9.328721738738322e+00
 1.197711504630269e+00	 2.435734374483761e+00	 9.168364765399755e+00
 1.141396134009372e+00	 2.462626674431371e+00	 9.016096926478333e+00
 1.697220882936404e+00	 2.154687000556232e+00	 1.075741923456456e+01
 1.645969235589124e+00	 2.194087501822688e+00	 1.062525524612469e+01
 1.593891065248935e+00	 2.232206524979235e+00	 1.045705178299211e+01
 1.541034230475953e+00	 2.269019243302375e+00	 1.026615731537106e+01
 1.487447512935332e+00	 2.304503193429349e+00	 1.006837965865644e+01
 1.433180473077990e+00	 2.338638312944310e+00	 9.875077533860539e+00
 1.378283304510703e+00	 2.371406967547471e+00	 9.692673468975540e+00
 1.322806687916728e+00	 2.402793967820668e+00	 9.521809189518979e+00
 1.266801645374578e+00	 2.432786575682230e+00	 9.362151696788041e+00
 1.210319395901075e+00	 2.461374500700741e+00	 9.212180885538658e+00
 1.153411213015743e+00	 2.488549886510319e+00	 9.069093526887709e+00
 1.714900830817901e+00	 2.177132372430755e+00	 1.076027372700227e+01
 1.663115295122688e+00	 2.216943308671328e+00	 1.062278909945026e+01
 1.610494626545628e+00	 2.255459417646066e+00	 1.045270355212274e+01
 1.557087182189377e+00	 2.292655614011522e+00	 1.026617227529280e+01
 1.502942251877611e+00	 2.328509200404111e+00	 1.007375257068252e+01
 1.448109912332381e+00	 2.362999905417819e+00	 9.885942113024468e+00
 1.392640880027179e+00	 2.396109911056379e+00	 9.710712393449429e+00
 1.336586363585856e+00	 2.427823869673474e+00	 9.548364306208933e+00
 1.279997916583830e+00	 2.458128910494850e+00	 9.397603502083973e+00
 1.222927291586336e+00	 2.487014635893678e+00	 9.255772205906872e+00
 1.165426296229068e+00	 2.514473107664317e+00	 9.118753381647387e+00
 1.732580770450609e+00	 2.199577733832486e+00	 1.076249697553069e+01
 1.680261346656599e+00	 2.239799104855675e+00	 1.062066169208946e+01
 1.627098180095812e+00	 2.278712299463350e+00	 1.045299388406411e+01
 1.573140126413209e+00	 2.316291973692227e+00	 1.027037928323524e+01
 1.518436983590755e+00	 2.352515196178001e+00	 1.008304750037033e+01
 1.463039344621393e+00	 2.387361486524590e+00	 9.900699467111258e+00
 1.406998448845092e+00	 2.420812843039327e+00	 9.731954028118926e+00
 1.350366032826049e+00	 2.452853759847808e+00	 9.577191531362748e+00
 1.293194181636342e+00	 2.483471233483258e+00	 9.433972442700336e+00
 1.235535181389374e+00	 2.512654759123476e+00	 9.298294455473988e+00
 1.177441373836758e+00	 2.540396316723104e+00	 9.164497187699173e+00
 1.750260687396087e+00	 2.222023066431245e+00	 1.076355994605430e+01
 1.697407376188397e+00	 2.262654871710365e+00	 1.062079161861777e+01
 1.643701712340027e+00	 2.301965151441443e+00	 1.045522797084341e+01
 1.589193050037610e+00	 2.339928303041686e+00	 1.027626886628865e+01
 1.533931695420750e+00	 2.376521161146365e+00	 1.009393425498985e+01
 1.477968757752622e+00	 2.411723036369591e+00	 9.917307954029019e+00
 1.421355999239006e+00	 2.445515743322528e+00	 9.754603544154552e+00
 1.364145684383770e+00	 2.477883617902889e+00	 9.606748148584584e+00
 1.306390429754974e+00	 2.508813523951537e+00	 9.469975099846447e+00
 1.248143055013507e+00	 2.538294849451039e+00	 9.338731267943507e+00
 1.189456436026221e+00	 2.566319492516415e+00	 9.205582556219014e+00
 1.767940567215896e+00	 2.244468351896848e+00	 1.076322786018786e+01
 1.714553369715621e+00	 2.285510590570033e+00	 1.062036495462165e+01
 1.660305209718815e+00	 2.325217954590701e+00	 1.045661466097738e+01
 1.605245939952741e+00	 2.363564582757094e+00	 1.028121584617173e+01
 1.549426374713580e+00	 2.400527075704543e+00	 1.010394849897106e+01
 1.492898139533665e+00	 2.436084535057786e+00	 9.933446661813917e+00
 1.435713519483485e+00	 2.470218591732198e+00	 9.776688532175253e+00
 1.377925307005482e+00	 2.502913423397936e+00	 9.635314713975498e+00
 1.319586650162587e+00	 2.534155761203776e+00	 9.504154462377150e+00
 1.260750902162058e+00	 2.563934885937272e+00	 9.375898194372212e+00
 1.201471472984867e+00	 2.592242613873987e+00	 9.241106936748322e+00
 1.785620395471597e+00	 2.266913571899115e+00	 1.075962328494072e+01
 1.731699313235809e+00	 2.308366242769312e+00	 1.061635358926558e+01
 1.676908658672716e+00	 2.348470689921484e+00	 1.045428738584274e+01
 1.621298783048764e+00	 2.387200793535650e+00	 1.028249886358049e+01
 1.564921008815232e+00	 2.424532920247879e+00	 1.011050978907055e+01
 1.507827477772113e+00	 2.460445962694143e+00	 9.946472886450596e+00
 1.450070997853093e+00	 2.494921368094555e+00	 9.796066380685161e+00
 1.391704889437649e+00	 2.527943155892171e+00	 9.661001356104224e+00
 1.332782832082043e+00	 2.559497924544064e+00	 9.534885139715911e+00
 1.273358712538347e+00	 2.589574847643077e+00	 9.408446832582335e+00
 1.213486474900108e+00	 2.618165659625560e+00	 9.269747571542474e+00
 1.803300157724751e+00	 2.289358708107865e+00	 1.074951768349761e+01
 1.748845192746501e+00	 2.331221809642839e+00	 1.060569726478797e+01
 1.693512045642272e+00	 2.371723338444148e+00	 1.044532511688505e+01
 1.637351566215838e+00	 2.410836916074548e+00	 1.027731993659674e+01
 1.580415585071692e+00	 2.448538675171716e+00	 1.011093964984854e+01
 1.522756760275564e+00	 2.484807299383625e+00	 9.953826706994334e+00
 1.464428422622395e+00	 2.519624052235811e+00	 9.810431717130022e+00
 1.405484420426735e+00	 2.552972794944813e+00	 9.681754152174006e+00
 1.345978964736198e+00	 2.584839993276485e+00	 9.560378666475902e+00
 1.285966475845694e+00	 2.615214713629362e+00	 9.432381199480329e+00
 1.225501431959353e+00	 2.644088608600866e+00	 9.287898662755076e+00
 1.820979839536918e+00	 2.311803742192917e+00	 1.072969563134294e+01
 1.765990994245236e+00	 2.354077272525248e+00	 1.058532585724617e+01
 1.710115357068023e+00	 2.394975881169049e+00	 1.042677335105014e+01
 1.653404276344124e+00	 2.434472931070984e+00	 1.026282405037096e+01
 1.595910090828944e+00	 2.472544320871394e+00	 1.010247968630051e+01
 1.537685974851612e+00	 2.509168525231198e+00	 9.952855970780774e+00
 1.478785782065954e+00	 2.544326623982182e+00	 9.817323907257778e+00
 1.419263888719203e+00	 2.578002320115081e+00	 9.695361575190416e+00
 1.359175037347916e+00	 2.610181946705129e+00	 9.576168567937497e+00
 1.298574181787420e+00	 2.640854462957027e+00	 9.440716707534614e+00
 1.237516334350012e+00	 2.670011439629645e+00	 9.291178434479322e+00
 1.838659426469659e+00	 2.334248655824089e+00	 1.069697835255380e+01
 1.783136703729553e+00	 2.376932612751174e+00	 1.055218168298252e+01
 1.726718579390510e+00	 2.418228299106547e+00	 1.039566512198207e+01
 1.669456900323783e+00	 2.458108819222157e+00	 1.023611877547090e+01
 1.611404513432974e+00	 2.496549837742258e+00	 1.008230973069447e+01
 1.552615109307853e+00	 2.533529620341830e+00	 9.940823605700244e+00
 1.493143064458335e+00	 2.569029063159885e+00	 9.814062873291945e+00
 1.433043283061517e+00	 2.603031710962195e+00	 9.698341667089107e+00
 1.372371039140055e+00	 2.635523764134081e+00	 9.571888398949312e+00
 1.311181820066846e+00	 2.666494074686979e+00	 9.429320014996872e+00
 1.249531172259495e+00	 2.695934131541634e+00	 9.275323264286914e+00
 1.856338904084535e+00	 2.356693430671200e+00	 1.064824446057075e+01
 1.800282307196991e+00	 2.399787811655252e+00	 1.050324182845695e+01
 1.743321699050273e+00	 2.441480573266996e+00	 1.034904203467929e+01
 1.685509425044975e+00	 2.481744561225262e+00	 1.019429391244766e+01
 1.626898840229767e+00	 2.520555206179648e+00	 1.004756602085352e+01
 1.567544151451881e+00	 2.557890564820482e+00	 9.914924274745324e+00
 1.507500258074102e+00	 2.593731349595132e+00	 9.797767556971895e+00
 1.446822592200138e+00	 2.628060947045376e+00	 9.678317843112030e+00
 1.385566959335476e+00	 2.660865424867431e+00	 9.543304545630999e+00
 1.323789380387293e+00	 2.692133527880121e+00	 9.394229963162505e+00
 1.261545935875211e+00	 2.721856663166568e+00	 9.236190639766747e+00
 1.141396134009372e+00	 2.462626674431371e+00	 9.016096926478333e+00
 1.084713899260560e+00	 2.488114028387177e+00	 8.872512929633135e+00
 1.027711285412124e+00	 2.512195346010452e+00	 8.735224915821533e+00
 9.704383535426037e-01	 2.534869920186332e+00	 8.595034823422370e+00
 9.129446897346285e-01	 2.556139306907208e+00	 8.443041419058805e+00
 8.552792845798695e-01	 2.576007268633906e+00	 8.271920325865025e+00
 7.974904184726048e-01	 2.594479710539368e+00	 8.077034361803170e+00
 7.396255531271496e-01	 2.611564610227829e+00	 7.876974759612665e+00
 6.817312296917117e-01	 2.627271941546511e+00	 7.688976517603095e+00
 6.238529737679170e-01	 2.641613593124215e+00	 7.515880632619105e+00
 5.660352075820777e-01	 2.654603282281744e+00	 7.363194935788625e+00
 1.153411213015743e+00	 2.488549886510319e+00	 9.069093526887709e+00
 1.096132304151653e+00	 2.514305536951647e+00	 8.932457128243511e+00
 1.038529643668782e+00	 2.538640350206366e+00	 8.798987055677230e+00
 9.806538196211997e-01	 2.561553611716062e+00	 8.657071630361084e+00
 9.225549400669467e-01	 2.583046893852523e+00	 8.495522858846472e+00
 8.642825113045792e-01	 2.603123998682685e+00	 8.309365246347701e+00
 8.058853219592614e-01	 2.621790893541192e+00	 8.119749088220207e+00
 7.474113333582352e-01	 2.639055640009739e+00	 7.938167618574863e+00
 6.889075765721564e-01	 2.654928316926766e+00	 7.771083187106552e+00
 6.304200564347948e-01	 2.669420938068521e+00	 7.620321629785664e+00
 5.719936627897573e-01	 2.682547365153263e+00	 7.490572833857045e+00
 1.165426296229068e+00	 2.514473107664317e+00	 9.118753381647389e+00
 1.107550713040843e+00	 2.540497054685070e+00	 8.984556916526252e+00
 1.049348005713496e+00	 2.565085363659938e+00	 8.848651972189765e+00
 9.908692892768083e-01	 2.588237312586964e+00	 8.697034525116361e+00
 9.321651937644133e-01	 2.609954490217335e+00	 8.524745057416794e+00
 8.732857411819326e-01	 2.630240738224123e+00	 8.347023618114578e+00
 8.142802283855920e-01	 2.649102086103693e+00	 8.171214391531084e+00
 7.551971163157343e-01	 2.666546679415236e+00	 8.005147916041786e+00
 6.960839259656327e-01	 2.682584701988438e+00	 7.855170967409665e+00
 6.369871414013685e-01	 2.697228292747056e+00	 7.722325179530600e+00
 5.779521200840056e-01	 2.710491457806851e+00	 7.610393610870551e+00
 1.177441373836758e+00	 2.540396316723104e+00	 9.164497187699173e+00
 1.118969116602790e+00	 2.566688560198090e+00	 9.028585761016544e+00
 1.060166362710937e+00	 2.591530364774810e+00	 8.884254845535704e+00
 1.001084754166443e+00	 2.614921001007763e+00	 8.725145884471223e+00
 9.417754429782889e-01	 2.636862074027531e+00	 8.559108487854644e+00
 8.822889668589196e-01	 2.657357465113304e+00	 8.390969321119551e+00
 8.226751308953847e-01	 2.676413265923144e+00	 8.226799205322227e+00
 7.629828956408925e-01	 2.694037705993697e+00	 8.073493459286425e+00
 7.032602720111061e-01	 2.710241074145860e+00	 7.937089155689330e+00
 6.435542233041903e-01	 2.725035634450824e+00	 7.818041609394326e+00
 5.839105745984499e-01	 2.738435537421798e+00	 7.719150128262559e+00
 1.189456436026221e+00	 2.566319492516415e+00	 9.205582556219014e+00
 1.130387505512155e+00	 2.592880032101355e+00	 9.064163684513403e+00
 1.070984705825776e+00	 2.617975331954621e+00	 8.913481069806164e+00
 1.011300205947117e+00	 2.641604655187179e+00	 8.756856569098980e+00
 9.513856798598330e-01	 2.663769623308992e+00	 8.596529790311555e+00
 8.912921809825299e-01	 2.684474157205309e+00	 8.436495182642449e+00
 8.310700226324278e-01	 2.703724410695819e+00	 8.281950423682105e+00
 7.707686649749577e-01	 2.721528697294512e+00	 8.138853429725462e+00
 7.104366088475417e-01	 2.737897410813356e+00	 8.012756035064841e+00
 6.501212967798137e-01	 2.752842940470832e+00	 7.903685298090242e+00
 5.898690214667162e-01	 2.766379581177402e+00	 7.813393617949560e+00
 1.201471472984867e+00	 2.592242613873987e+00	 9.241106936748322e+00
 1.141805870443597e+00	 2.619071449005510e+00	 9.094369108994329e+00
 1.081803026222685e+00	 2.644420243603010e+00	 8.942303522171791e+00
 1.021515636275843e+00	 2.668288253333937e+00	 8.787783330887642e+00
 9.609958965603054e-01	 2.690677116087596e+00	 8.632280508453741e+00
 9.002953761997537e-01	 2.711590792355224e+00	 8.478974500091596e+00
 8.394648967405088e-01	 2.731035498117989e+00	 8.332190321314611e+00
 7.785544179591759e-01	 2.749019630867061e+00	 8.196946704168367e+00
 7.176129306139051e-01	 2.765553689405261e+00	 8.078155373886892e+00
 6.566883564647911e-01	 2.780650188098084e+00	 7.975531399754733e+00
 5.958274558224310e-01	 2.794323566252952e+00	 7.889730718196295e+00
 1.213486474900108e+00	 2.618165659625560e+00	 9.269747571542474e+00
 1.153224202071776e+00	 2.645262789521201e+00	 9.119336216381543e+00
 1.092621315066336e+00	 2.670865078123616e+00	 8.966032672581159e+00
 1.031731036809634e+00	 2.694971773656760e+00	 8.813229219316488e+00
 9.706060852309664e-01	 2.717584530389229e+00	 8.661715087324708e+00
 9.092985451575809e-01	 2.738707348418127e+00	 8.513858774876034e+00
 8.478597463634172e-01	 2.758346505885931e+00	 8.373114160996574e+00
 7.863401482347945e-01	 2.776510484260732e+00	 8.243559416137279e+00
 7.247892314491617e-01	 2.793209887335901e+00	 8.129333099167523e+00
 6.632553969956754e-01	 2.808457354623588e+00	 8.029912729716539e+00
 6.017858727992216e-01	 2.822267469827745e+00	 7.944820654411647e+00
 1.225501431959353e+00	 2.644088608600866e+00	 9.287898662755076e+00
 1.164642491071353e+00	 2.671454032259074e+00	 9.134451212208532e+00
 1.103439563521397e+00	 2.697309813920080e+00	 8.980053549413181e+00
 1.041946399205505e+00	 2.721655194364372e+00	 8.828582738685467e+00
 9.802162380230754e-01	 2.744491844239772e+00	 8.680268985625101e+00
 9.183016805030014e-01	 2.765823803249103e+00	 8.536675621291435e+00
 8.562545646449404e-01	 2.785657411695913e+00	 8.400387975505563e+00
 7.941258494430604e-01	 2.804001235024908e+00	 8.274542687387724e+00
 7.319655054922770e-01	 2.820865982019606e+00	 8.162394132218274e+00
 6.698224130090188e-01	 2.836264417338346e+00	 8.063216800719657e+00
 6.077442675307141e-01	 2.850211269081071e+00	 7.975372554947180e+00
 1.237516334350012e+00	 2.670011439629645e+00	 9.291178434479322e+00
 1.176060728116987e+00	 2.697645155829775e+00	 9.135204887235389e+00
 1.114257762752542e+00	 2.723754429396043e+00	 8.979841770436320e+00
 1.052161715120468e+00	 2.748338493665494e+00	 8.829316393346058e+00
 9.898263470878931e-01	 2.771399035665106e+00	 8.683456948125844e+00
 9.273047748830050e-01	 2.792940134703233e+00	 8.543026838496790e+00
 8.646493447288673e-01	 2.812968193244213e+00	 8.409746512137728e+00
 8.019115152252200e-01	 2.831491860708972e+00	 8.285810518048661e+00
 7.391417468822166e-01	 2.848521950870707e+00	 8.173499375492264e+00
 6.763893991413744e-01	 2.864071353533365e+00	 8.071882999392509e+00
 6.137026351505350e-01	 2.878154941192225e+00	 7.978142892737667e+00
 1.249531172259495e+00	 2.695934131541634e+00	 9.275323264286914e+00
 1.187478903883339e+00	 2.723836138843952e+00	 9.117194682100912e+00
 1.125075903924442e+00	 2.750198902955142e+00	 8.960983637715451e+00
 1.062376976211537e+00	 2.775021649768851e+00	 8.810985376280007e+00
 9.994364045766789e-01	 2.798306082691113e+00	 8.666871427394158e+00
 9.363078209445824e-01	 2.820056320635602e+00	 8.528586634571148e+00
 8.730440797589859e-01	 2.840278828227099e+00	 8.396991328850003e+00
 8.096971392225207e-01	 2.858982338862311e+00	 8.273337824690261e+00
 7.463179497579456e-01	 2.876177771303533e+00	 8.158879938399702e+00
 6.829563500292947e-01	 2.891878140499650e+00	 8.052399893543701e+00
 6.196609707923111e-01	 2.906098463340500e+00	 7.949933044330669e+00
 1.261545935875211e+00	 2.721856663166568e+00	 9.236190639766747e+00
 1.198897009045068e+00	 2.750026959912248e+00	 9.076126865227634e+00
 1.135893978201766e+00	 2.776643213001019e+00	 8.919103447117985e+00
 1.072592174135724e+00	 2.801704640883166e+00	 8.769226391411934e+00
 1.009046402640692e+00	 2.825212963343676e+00	 8.626181144832366e+00
 9.453108113347223e-01	 2.847172338901289e+00	 8.489099992477488e+00
 8.814387628790844e-01	 2.867589294340849e+00	 8.357989031892481e+00
 8.174827150762084e-01	 2.886472647034307e+00	 8.233158616440305e+00
 7.534941082584296e-01	 2.903833420732411e+00	 8.114829047877926e+00
 6.895232603093325e-01	 2.919684755528207e+00	 8.001302661580612e+00
 6.256192695896691e-01	 2.934041812705189e+00	 7.887586958495822e+00
 5.660352075820777e-01	 2.654603282281744e+00	 7.363194935788627e+00
 5.083171438840919e-01	 2.666257234494528e+00	 7.236458473051174e+00
 4.507448715704687e-01	 2.676591599013558e+00	 7.133803117770370e+00
 3.933591133358485e-01	 2.685625031530334e+00	 7.050244460832161e+00
 3.361992074908640e-01	 2.693377639255737e+00	 6.980134793713707e+00
 2.793030574709868e-01	 2.699870881152578e+00	 6.919339066516002e+00
 2.227070887592726e-01	 2.705127467303463e+00	 6.869379362283116e+00
 1.664462130818825e-01	 2.709171257974259e+00	 6.831271113615919e+00
 1.105537996937094e-01	 2.712027162903924e+00	 6.805013720214717e+00
 5.506165353413702e-02	 2.713721041319171e+00	 6.789570426881969e+00
 0.000000000000000e+00	 2.714279603137963e+00	 6.782856926849939e+00
 5.719936627897573e-01	 2.682547365153263e+00	 7.490572833857045e+00
 5.136680211658977e-01	 2.694323994456344e+00	 7.385970907241262e+00
 4.554897056214809e-01	 2.704767145226286e+00	 7.303371334629064e+00
 3.974998675247675e-01	 2.713895669536539e+00	 7.237139246865381e+00
 3.397382592870816e-01	 2.721729886259573e+00	 7.181115570475225e+00
 2.822431833401565e-01	 2.728291480249215e+00	 7.130442694345975e+00
 2.250514486054188e-01	 2.733603400649181e+00	 7.085945309249468e+00
 1.681983343126092e-01	 2.737689758894032e+00	 7.048074248601663e+00
 1.117175609831426e-01	 2.740575726938856e+00	 7.016312571770353e+00
 5.564126835592013e-02	 2.742287436221420e+00	 6.989208189776889e+00
 0.000000000000000e+00	 2.742851877825675e+00	 6.964408727769326e+00
 5.779521200840056e-01	 2.710491457806851e+00	 7.610393610870551e+00
 5.190189003214988e-01	 2.722390764243159e+00	 7.522247510360645e+00
 4.602345413340413e-01	 2.732942701302091e+00	 7.453907011323155e+00
 4.016406231636690e-01	 2.742166317439112e+00	 7.399520055802377e+00
 3.432773123225485e-01	 2.750082143188358e+00	 7.352803115976527e+00
 2.851833102388180e-01	 2.756712089294742e+00	 7.308562849171452e+00
 2.273958092724144e-01	 2.762079343963179e+00	 7.267217120994335e+00
 1.699504561567906e-01	 2.766208269797002e+00	 7.228933969270313e+00
 1.128813226800108e-01	 2.769124300967523e+00	 7.192950085021398e+00
 5.622088338061494e-02	 2.770853841123657e+00	 7.157659564543292e+00
 0.000000000000000e+00	 2.771424162515437e+00	 7.120698038003620e+00
 5.839105745984499e-01	 2.738435537421798e+00	 7.719150128262559e+00
 5.243697769807446e-01	 2.750457520934027e+00	 7.642171825683416e+00
 4.649793748329735e-01	 2.761118244231120e+00	 7.582729391196469e+00
 4.057813768707506e-01	 2.770436952150481e+00	 7.535168390725381e+00
 3.468163637068934e-01	 2.778434386887803e+00	 7.493457097655170e+00
 2.881234357657628e-01	 2.785132685078988e+00	 7.452435366159178e+00
 2.297401688456286e-01	 2.790555273990032e+00	 7.412382569065507e+00
 1.717025771834877e-01	 2.794726767392933e+00	 7.373439082980885e+00
 1.140450838338920e-01	 2.797672861675099e+00	 7.334839357204056e+00
 5.680049813486627e-02	 2.799420232696466e+00	 7.295060508108977e+00
 0.000000000000000e+00	 2.799996433873020e+00	 7.251959020221872e+00
 5.898690214667162e-01	 2.766379581177402e+00	 7.813393617949558e+00
 5.297206467734846e-01	 2.778524241607998e+00	 7.742678738208673e+00
 4.697242022431012e-01	 2.789293751003527e+00	 7.687200451177947e+00
 4.099221252642085e-01	 2.798707550583069e+00	 7.641898675033173e+00
 3.503554105497448e-01	 2.806786594203621e+00	 7.601358058778739e+00
 2.910635575197816e-01	 2.813553244391778e+00	 7.560805082901691e+00
 2.320845254104308e-01	 2.819031167474320e+00	 7.520627331208450e+00
 1.734546959617620e-01	 2.823245228391588e+00	 7.481165932551749e+00
 1.152088434943645e-01	 2.826221385746753e+00	 7.441871322825303e+00
 5.738011214531907e-02	 2.827986587610429e+00	 7.401515743353492e+00
 0.000000000000000e+00	 2.828568668564200e+00	 7.358386127796114e+00
 5.958274558224310e-01	 2.794323566252952e+00	 7.889730718196295e+00
 5.350715053295687e-01	 2.806590903344128e+00	 7.820751925704444e+00
 4.744690196892485e-01	 2.817469198609460e+00	 7.764722869291691e+00
 4.140628649622399e-01	 2.826978089649308e+00	 7.717556804738544e+00
 3.538944499607313e-01	 2.835138741981524e+00	 7.674806747660255e+00
 2.940036730996656e-01	 2.841973744022940e+00	 7.632425717263466e+00
 2.344288770521901e-01	 2.847507001160618e+00	 7.591135419108452e+00
 1.752068110606744e-01	 2.851763629502726e+00	 7.551679338094299e+00
 1.163726007110063e-01	 2.854769849867654e+00	 7.513916137685503e+00
 5.795972493861824e-02	 2.856552882536130e+00	 7.477100478496865e+00
 0.000000000000000e+00	 2.857140843254746e+00	 7.440136019181073e+00
 6.017858727992216e-01	 2.822267469827745e+00	 7.944820654411647e+00
 5.404223482788464e-01	 2.834657483221469e+00	 7.873421432895372e+00
 4.792138232962388e-01	 2.845644564039071e+00	 7.812738088213528e+00
 4.182035925830415e-01	 2.855248546261619e+00	 7.760018766123840e+00
 3.574334790494814e-01	 2.863490807067225e+00	 7.712123479653896e+00
 2.969437801042057e-01	 2.870394160762298e+00	 7.666059745159053e+00
 2.367732218562759e-01	 2.875982751793507e+00	 7.623089574556990e+00
 1.769589210492862e-01	 2.880281947436113e+00	 7.584533478687732e+00
 1.175363545333956e-01	 2.883318230722978e+00	 7.550824478620537e+00
 5.853933604140862e-02	 2.885119094144152e+00	 7.521862024032835e+00
 0.000000000000000e+00	 2.885712934610430e+00	 7.497329359039066e+00
 6.077442675307141e-01	 2.850211269081071e+00	 7.975372554947180e+00
 5.457731712511672e-01	 2.862723958319077e+00	 7.897761360354538e+00
 4.839586091888960e-01	 2.873819824282508e+00	 7.828724468293097e+00
 4.223443047448102e-01	 2.883518897332431e+00	 7.767189314269497e+00
 3.609724949256235e-01	 2.891842766306433e+00	 7.711647529676533e+00
 2.998838761321929e-01	 2.898814471399680e+00	 7.660478278259610e+00
 2.391175579080574e-01	 2.904458396117561e+00	 7.615671636199079e+00
 1.787110244966586e-01	 2.908800158901511e+00	 7.579272718011899e+00
 1.187001040111104e-01	 2.911866504997892e+00	 7.552428764733124e+00
 5.911894498033515e-02	 2.913685199105079e+00	 7.535821314223043e+00
 0.000000000000000e+00	 2.914284919297025e+00	 7.530052513872562e+00
 6.137026351505350e-01	 2.878154941192225e+00	 7.978142892737667e+00
 5.511239698763812e-01	 2.890790305716005e+00	 7.890887660316448e+00
 4.887033734920441e-01	 2.901994956329924e+00	 7.810195523966462e+00
 4.264849980657427e-01	 2.911789119774170e+00	 7.737000708321899e+00
 3.645114946987863e-01	 2.920194596544864e+00	 7.671736553173450e+00
 3.028239587824185e-01	 2.927234652724913e+00	 7.614460941625004e+00
 2.414618832929038e-01	 2.932933910877357e+00	 7.568062878850274e+00
 1.804631199718526e-01	 2.937318240608683e+00	 7.535432377732457e+00
 1.198638481937288e-01	 2.940414649377569e+00	 7.518544305434483e+00
 5.969855128204272e-02	 2.942251174089492e+00	 7.518974339625657e+00
 0.000000000000000e+00	 2.942856773980304e+00	 7.538359149324787e+00
 6.196609707923111e-01	 2.906098463340500e+00	 7.949933044330669e+00
 5.564747397843377e-01	 2.918856502491305e+00	 7.849956032227347e+00
 4.934481123305067e-01	 2.930169937171466e+00	 7.754698237956144e+00
 4.306256691640359e-01	 2.940059190499261e+00	 7.667411499683616e+00
 3.680504754785983e-01	 2.948546274628228e+00	 7.590766033608238e+00
 3.057640256536733e-01	 2.955654681527824e+00	 7.526795751259114e+00
 2.438061960961845e-01	 2.961409272817476e+00	 7.479444327219996e+00
 1.822152060439296e-01	 2.965836169267391e+00	 7.451787571751440e+00
 1.210275861308290e-01	 2.968962640547180e+00	 7.445510280193518e+00
 6.027815447317621e-02	 2.970816995767978e+00	 7.465141800534741e+00
 0.000000000000000e+00	 2.971428475326038e+00	 7.514932206269281e+00
 6.256192695896691e-01	 2.934041812705189e+00	 7.887586958495822e+00
 5.618254766048861e-01	 2.946922525724032e+00	 7.772159911396305e+00
 4.981928218291077e-01	 2.958344743797289e+00	 7.659811448079404e+00
 4.347663146578867e-01	 2.968329086420132e+00	 7.554298699580189e+00
 3.715894343746878e-01	 2.976897777402236e+00	 7.451869532863492e+00
 3.087040743447485e-01	 2.984074534598237e+00	 7.359024701045541e+00
 2.461504944032685e-01	 2.989884458682492e+00	 7.284939924684696e+00
 1.839672812819505e-01	 2.994353921587396e+00	 7.238615796441485e+00
 1.221913168719891e-01	 2.997510455191895e+00	 7.227892907274462e+00
 6.085775408038051e-02	 2.999382640811116e+00	 7.259770844843009e+00
 0.000000000000000e+00	 3.000000000000000e+00	 7.340665043489241e+00
