x	y	stress_xx
 1.0000000000e+00	 0.0000000000e+00	 5.3238810732e-01
 9.9979421360e-01	 2.0285918027e-02	 5.4957294354e-01
 9.9917015173e-01	 4.0730438957e-02	 5.8818402229e-01
 9.9811797387e-01	 6.1322427094e-02	 6.4826595977e-01
 9.9662815290e-01	 8.2050164801e-02	 7.2984149147e-01
 9.9469151154e-01	 1.0290135811e-01	 8.3289331476e-01
 9.9229925915e-01	 1.2386314479e-01	 9.5734393193e-01
 9.8944302882e-01	 1.4492210489e-01	 1.1030341562e+00
 9.8611491462e-01	 1.6606427394e-01	 1.2697010872e+00
 9.8230750859e-01	 1.8727515887e-01	 1.4569564940e+00
 9.7801393759e-01	 2.0853975653e-01	 1.6642666610e+00
 1.0285715247e+00	 0.0000000000e+00	 8.9987795221e-01
 1.0283598586e+00	 2.0865517634e-02	 9.1364012685e-01
 1.0277179664e+00	 4.1894169698e-02	 9.4436644414e-01
 1.0266357262e+00	 6.3074502332e-02	 9.9213062850e-01
 1.0251033388e+00	 8.4394463108e-02	 1.0569901571e+00
 1.0231113646e+00	 1.0584140681e-01	 1.1389629897e+00
 1.0206507619e+00	 1.2740210369e-01	 1.2380016977e+00
 1.0177129247e+00	 1.4906275038e-01	 1.3539657859e+00
 1.0142897212e+00	 1.7080898344e-01	 1.4865931788e+00
 1.0103735318e+00	 1.9262589569e-01	 1.6354720009e+00
 1.0059572869e+00	 2.1449805533e-01	 1.8000139247e+00
 1.0571432260e+00	 0.0000000000e+00	 1.3172781513e+00
 1.0569256803e+00	 2.1445120825e-02	 1.3270634672e+00
 1.0562659575e+00	 4.3057907636e-02	 1.3496095302e+00
 1.0551536548e+00	 6.4826588404e-02	 1.3849978137e+00
 1.0535787007e+00	 8.6738775911e-02	 1.4333018895e+00
 1.0515313934e+00	 1.0878147368e-01	 1.4945584631e+00
 1.0490024400e+00	 1.3094108447e-01	 1.5687351007e+00
 1.0459829954e+00	 1.5320342148e-01	 1.6556955967e+00
 1.0424647021e+00	 1.7555372228e-01	 1.7551641326e+00
 1.0384397286e+00	 1.9797666560e-01	 1.8666895792e+00
 1.0339008091e+00	 2.2045639097e-01	 1.9896114632e+00
 1.0857150807e+00	 0.0000000000e+00	 1.7655165251e+00
 1.0854916553e+00	 2.2024727127e-02	 1.7705897028e+00
 1.0848141019e+00	 4.4221651818e-02	 1.7844562664e+00
 1.0836717365e+00	 6.6578683879e-02	 1.8071947983e+00
 1.0820542155e+00	 8.9083101296e-02	 1.8388876026e+00
 1.0799515747e+00	 1.1172155633e-01	 1.8795853168e+00
 1.0773542702e+00	 1.3448008424e-01	 1.9292673923e+00
 1.0742532179e+00	 1.5734411480e-01	 1.9877995559e+00
 1.0706398341e+00	 1.8029848658e-01	 2.0548896161e+00
 1.0665060760e+00	 2.0332746422e-01	 2.1300432110e+00
 1.0618444812e+00	 2.2641475859e-01	 2.2125213025e+00
 1.1142870654e+00	 0.0000000000e+00	 2.2271349037e+00
 1.1140577603e+00	 2.2604336066e-02	 2.2266598357e+00
 1.1133623762e+00	 4.5385401296e-02	 2.2312712934e+00
 1.1121899480e+00	 6.8330787327e-02	 2.2409927543e+00
 1.1105298598e+00	 9.1427437348e-02	 2.2558541048e+00
 1.1083718854e+00	 1.1466165236e-01	 2.2759684572e+00
 1.1057062295e+00	 1.3801910012e-01	 2.3013619801e+00
 1.1025235689e+00	 1.6148482696e-01	 2.3319122542e+00
 1.0988150943e+00	 1.8504327247e-01	 2.3673202546e+00
 1.0945725510e+00	 2.0867828719e-01	 2.4070562578e+00
 1.0897882804e+00	 2.3237315332e-01	 2.4503075527e+00
 1.1428591567e+00	 0.0000000000e+00	 2.6619386623e+00
 1.1426239719e+00	 2.3183947169e-02	 2.6562212116e+00
 1.1419107571e+00	 4.6549155118e-02	 2.6528303204e+00
 1.1407082659e+00	 7.0082897315e-02	 2.6516656251e+00
 1.1390056104e+00	 9.3771782152e-02	 2.6526110029e+00
 1.1367923021e+00	 1.1760175936e-01	 2.6555037643e+00
 1.1340582945e+00	 1.4155812921e-01	 2.6601022214e+00
 1.1307940256e+00	 1.6562555458e-01	 2.6660521514e+00
 1.1269904598e+00	 1.8978807608e-01	 2.6728528016e+00
 1.1226391309e+00	 2.1402913014e-01	 2.6798232139e+00
 1.1177321840e+00	 2.3833157029e-01	 2.6860697778e+00
 1.1714313314e+00	 0.0000000000e+00	 3.0406643702e+00
 1.1711902668e+00	 2.3763559962e-02	 3.0304142778e+00
 1.1704592212e+00	 4.7712912335e-02	 3.0202787109e+00
 1.1692266671e+00	 7.1835012414e-02	 3.0100084151e+00
 1.1674814441e+00	 9.6116133794e-02	 2.9993229896e+00
 1.1652128017e+00	 1.2054187494e-01	 2.9878776266e+00
 1.1624104423e+00	 1.4509716862e-01	 2.9752279280e+00
 1.1590645646e+00	 1.6976629428e-01	 2.9607933318e+00
 1.1551659074e+00	 1.9453289353e-01	 2.9438198243e+00
 1.1507057926e+00	 2.1937998870e-01	 2.9233427613e+00
 1.1456761690e+00	 2.4429000465e-01	 2.8981507807e+00
 1.2000035661e+00	 0.0000000000e+00	 3.3519559606e+00
 1.1997566217e+00	 2.4343173972e-02	 3.3379823244e+00
 1.1990077452e+00	 4.8876671996e-02	 3.3224581207e+00
 1.1977451280e+00	 7.3587131193e-02	 3.3049633210e+00
 1.1959573376e+00	 9.8460490359e-02	 3.2850318777e+00
 1.1936333610e+00	 1.2348199669e-01	 3.2621161628e+00
 1.1907626496e+00	 1.4863621546e-01	 3.2355491196e+00
 1.1873351630e+00	 1.7390704267e-01	 3.2045046640e+00
 1.1833414141e+00	 1.9927772094e-01	 3.1679570299e+00
 1.1787725133e+00	 2.2473085849e-01	 3.1246399272e+00
 1.1736202128e+00	 2.5024845152e-01	 3.0730065597e+00
 1.2285758375e+00	 0.0000000000e+00	 3.5855778634e+00
 1.2283230133e+00	 2.4922788727e-02	 3.5688168877e+00
 1.2275563060e+00	 5.0040433150e-02	 3.5493819401e+00
 1.2262636256e+00	 7.5339252220e-02	 3.5266630960e+00
 1.2244332676e+00	 1.0080484993e-01	 3.4999905754e+00
 1.2220539568e+00	 1.2642212222e-01	 3.4685970528e+00
 1.2191148933e+00	 1.5217526684e-01	 3.4315772391e+00
 1.2156057978e+00	 1.7804779638e-01	 3.3878452625e+00
 1.2115169571e+00	 2.0402255444e-01	 3.3360905554e+00
 1.2068392700e+00	 2.3008173515e-01	 3.2747331504e+00
 1.2015642924e+00	 2.5620690603e-01	 3.2018794968e+00
 1.2571481222e+00	 0.0000000000e+00	 3.7322877118e+00
 1.2568894182e+00	 2.5502403751e-02	 3.7138286736e+00
 1.2561048800e+00	 5.1204194847e-02	 3.6921042149e+00
 1.2547821365e+00	 7.7091374064e-02	 3.6662977739e+00
 1.2529092109e+00	 1.0314921060e-01	 3.6355207132e+00
 1.2504745659e+00	 1.2936224912e-01	 3.5987726990e+00
 1.2474671503e+00	 1.5571431988e-01	 3.5548988211e+00
 1.2438764457e+00	 1.8218855202e-01	 3.5025439580e+00
 1.2396925131e+00	 2.0876739015e-01	 3.4401050943e+00
 1.2349060398e+00	 2.3543261431e-01	 3.3656825232e+00
 1.2295083851e+00	 2.6216536333e-01	 3.2770311012e+00
 1.2857203969e+00	 0.0000000000e+00	 3.7837260149e+00
 1.2854558131e+00	 2.6082018573e-02	 3.7648356646e+00
 1.2846534440e+00	 5.2367956136e-02	 3.7426059619e+00
 1.2833006375e+00	 7.8843495295e-02	 3.7159989853e+00
 1.2813851443e+00	 1.0549357045e-01	 3.6838947751e+00
 1.2788951650e+00	 1.3230237499e-01	 3.6450500127e+00
 1.2758193973e+00	 1.5925337168e-01	 3.5980528037e+00
 1.2721470837e+00	 1.8632930621e-01	 3.5412740340e+00
 1.2678680593e+00	 2.1351222420e-01	 3.4728159952e+00
 1.2629727998e+00	 2.4078349159e-01	 3.3904592267e+00
 1.2574524679e+00	 2.6812381854e-01	 3.2916087967e+00
 9.7801393759e-01	 2.0853975653e-01	 1.6642666610e+00
 9.7322825186e-01	 2.2984108677e-01	 1.8914050132e+00
 9.6794447360e-01	 2.5116470275e-01	 2.1360911231e+00
 9.6215754903e-01	 2.7249423836e-01	 2.3944119576e+00
 9.5586309813e-01	 2.9381292096e-01	 2.6622942660e+00
 9.4905744632e-01	 3.1510360378e-01	 2.9355329199e+00
 9.4173765446e-01	 3.3634880088e-01	 3.2098283981e+00
 9.3390154697e-01	 3.5753072471e-01	 3.4808340844e+00
 9.2554773768e-01	 3.7863132607e-01	 3.7448767630e+00
 9.1667565331e-01	 3.9963233635e-01	 4.0044350071e+00
 9.0728555439e-01	 4.2051531196e-01	 4.2578884546e+00
 1.0059572869e+00	 2.1449805533e-01	 1.8000139247e+00
 1.0010348669e+00	 2.3640799705e-01	 1.9804426751e+00
 9.9560012300e-01	 2.5834086125e-01	 2.1750959691e+00
 9.8964785718e-01	 2.8027981421e-01	 2.3802150758e+00
 9.8317356422e-01	 3.0220760408e-01	 2.5918436971e+00
 9.7617346456e-01	 3.2410659417e-01	 2.8058529167e+00
 9.6864453509e-01	 3.4595879894e-01	 3.0179767887e+00
 9.6058453806e-01	 3.6774592264e-01	 3.2238594651e+00
 9.5199204770e-01	 3.8944940034e-01	 3.4226886086e+00
 9.4286647436e-01	 4.1105044151e-01	 3.6164599316e+00
 9.3320808600e-01	 4.3253007557e-01	 3.8021447163e+00
 1.0339008091e+00	 2.2045639097e-01	 1.9896114632e+00
 1.0288416538e+00	 2.4297494794e-01	 2.1246528065e+00
 1.0232559434e+00	 2.6551706413e-01	 2.2708659649e+00
 1.0171383353e+00	 2.8806543821e-01	 2.4246943645e+00
 1.0104841992e+00	 3.1060233911e-01	 2.5823406763e+00
 1.0032896505e+00	 3.3310964023e-01	 2.7397872650e+00
 9.9555158209e-01	 3.5556885643e-01	 2.8928289641e+00
 9.8726769414e-01	 3.7796118372e-01	 3.0376483634e+00
 9.7843652124e-01	 4.0026754151e-01	 3.1769530516e+00
 9.6905745735e-01	 4.2246861727e-01	 3.3096633122e+00
 9.5913077789e-01	 4.4454491348e-01	 3.4327847266e+00
 1.0618444812e+00	 2.2641475859e-01	 2.2125213025e+00
 1.0566485900e+00	 2.4954193407e-01	 2.3035913120e+00
 1.0509119123e+00	 2.7269330552e-01	 2.4031078118e+00
 1.0446289610e+00	 2.9585110399e-01	 2.5077664213e+00
 1.0377949807e+00	 3.1899711919e-01	 2.6139716866e+00
 1.0304059819e+00	 3.4211273460e-01	 2.7178517809e+00
 1.0224587735e+00	 3.6517896549e-01	 2.8152874300e+00
 1.0139509934e+00	 3.8817649964e-01	 2.9047994392e+00
 1.0048811367e+00	 4.1108574074e-01	 2.9892131368e+00
 9.9524858091e-01	 4.3388685431e-01	 3.0658922195e+00
 9.8505360891e-01	 4.5655981587e-01	 3.1319649799e+00
 1.0897882804e+00	 2.3237315332e-01	 2.4503075527e+00
 1.0844556527e+00	 2.5610895008e-01	 2.4989287928e+00
 1.0785680069e+00	 2.7986957956e-01	 2.5536574222e+00
 1.0721197117e+00	 3.0363680519e-01	 2.6114941514e+00
 1.0651058865e+00	 3.2739193747e-01	 2.6690898032e+00
 1.0575224367e+00	 3.5111586995e-01	 2.7227528625e+00
 1.0493660873e+00	 3.7478911828e-01	 2.7686277831e+00
 1.0406344141e+00	 3.9839186203e-01	 2.8086894530e+00
 1.0313258725e+00	 4.2190398919e-01	 2.8430585218e+00
 1.0214398236e+00	 4.4530514331e-01	 2.8690234785e+00
 1.0109765579e+00	 4.6857477292e-01	 2.8838546523e+00
 1.1177321840e+00	 2.3833157029e-01	 2.6860697778e+00
 1.1122628192e+00	 2.6267599061e-01	 2.6941938089e+00
 1.1062242048e+00	 2.8704588039e-01	 2.7062313653e+00
 1.0996105651e+00	 3.1142253547e-01	 2.7198404759e+00
 1.0924168943e+00	 3.3578678709e-01	 2.7319711462e+00
 1.0846389928e+00	 3.6011903890e-01	 2.7391471512e+00
 1.0762735016e+00	 3.8439930695e-01	 2.7389437563e+00
 1.0673179344e+00	 4.0860726256e-01	 2.7344338779e+00
 1.0577707070e+00	 4.3272227803e-01	 2.7238677303e+00
 1.0476311641e+00	 4.5672347493e-01	 2.7047062026e+00
 1.0368996036e+00	 4.8058977483e-01	 2.6743784166e+00
 1.1456761690e+00	 2.4429000465e-01	 2.8981507807e+00
 1.1400700668e+00	 2.6924305029e-01	 2.8712489591e+00
 1.1338804834e+00	 2.9422220216e-01	 2.8454085037e+00
 1.1271014987e+00	 3.1920828845e-01	 2.8186788605e+00
 1.1197279817e+00	 3.4418166119e-01	 2.7888484904e+00
 1.1117556279e+00	 3.6912223411e-01	 2.7534395101e+00
 1.1031809944e+00	 3.9400952364e-01	 2.7129253788e+00
 1.0940015326e+00	 4.1882269288e-01	 2.6687303703e+00
 1.0842156186e+00	 4.4354059842e-01	 2.6185855470e+00
 1.0738225810e+00	 4.6814183986e-01	 2.5601391751e+00
 1.0628227250e+00	 4.9260481178e-01	 2.4909938118e+00
 1.1736202128e+00	 2.5024845152e-01	 3.0730065597e+00
 1.1678773729e+00	 2.7581012377e-01	 3.0164585996e+00
 1.1615368201e+00	 3.0139853899e-01	 2.9585864674e+00
 1.1545924900e+00	 3.2699405778e-01	 2.8976902738e+00
 1.1470391265e+00	 3.5257655293e-01	 2.8317676429e+00
 1.1388723200e+00	 3.7812544823e-01	 2.7588081870e+00
 1.1300885437e+00	 4.0361976052e-01	 2.6815278163e+00
 1.1206851868e+00	 4.2903814466e-01	 2.6006482894e+00
 1.1106605858e+00	 4.5435894153e-01	 2.5155297005e+00
 1.1000140529e+00	 4.7956022876e-01	 2.4238772725e+00
 1.0887459008e+00	 5.0461987397e-01	 2.3224974063e+00
 1.2015642924e+00	 2.5620690603e-01	 3.2018794968e+00
 1.1956847146e+00	 2.8237720567e-01	 3.1213188630e+00
 1.1891931923e+00	 3.0857488504e-01	 3.0374840911e+00
 1.1820835166e+00	 3.3477983710e-01	 2.9489610512e+00
 1.1743503063e+00	 3.6097145543e-01	 2.8539891999e+00
 1.1659890469e+00	 3.8712867391e-01	 2.7515771391e+00
 1.1569961275e+00	 4.1323000973e-01	 2.6441811240e+00
 1.1473688752e+00	 4.3925360954e-01	 2.5315530422e+00
 1.1371055869e+00	 4.6517729852e-01	 2.4132878956e+00
 1.1262055585e+00	 4.9097863232e-01	 2.2891509166e+00
 1.1146691098e+00	 5.1663495157e-01	 2.1590718566e+00
 1.2295083851e+00	 2.6216536333e-01	 3.2770311012e+00
 1.2234920692e+00	 2.8894429064e-01	 3.1783178364e+00
 1.2168495773e+00	 3.1575123443e-01	 3.0748384933e+00
 1.2095745560e+00	 3.4256562006e-01	 2.9655039618e+00
 1.2016614988e+00	 3.6936636186e-01	 2.8488324888e+00
 1.1931057864e+00	 3.9613190378e-01	 2.7248020051e+00
 1.1839037239e+00	 4.2284026342e-01	 2.5945081176e+00
 1.1740525760e+00	 4.4946907919e-01	 2.4575823653e+00
 1.1635506004e+00	 4.7599566056e-01	 2.3138584207e+00
 1.1523970762e+00	 5.0239704120e-01	 2.1633776501e+00
 1.1405923310e+00	 5.2865003478e-01	 2.0063810358e+00
 1.2574524679e+00	 2.6812381854e-01	 3.2916087967e+00
 1.2512994142e+00	 2.9551137331e-01	 3.1807996746e+00
 1.2445059527e+00	 3.2292758131e-01	 3.0642095480e+00
 1.2370655857e+00	 3.5035140029e-01	 2.9411184472e+00
 1.2289726818e+00	 3.7776126534e-01	 2.8104304134e+00
 1.2202225165e+00	 4.0513513051e-01	 2.6721455445e+00
 1.2108113108e+00	 4.3245051375e-01	 2.5262392207e+00
 1.2007362676e+00	 4.5968454527e-01	 2.3725382100e+00
 1.1899956046e+00	 4.8681401882e-01	 2.2111180125e+00
 1.1785885847e+00	 5.1381544609e-01	 2.0423053886e+00
 1.1665155430e+00	 5.4066511378e-01	 1.8666680409e+00
 9.0728555439e-01	 4.2051531196e-01	 4.2578884546e+00
 8.9737784263e-01	 4.4126312680e-01	 4.5036948049e+00
 8.8695514163e-01	 4.6185565311e-01	 4.7389753079e+00
 8.7602031568e-01	 4.8227419740e-01	 4.9587499281e+00
 8.6457711653e-01	 5.0250008602e-01	 5.1582132587e+00
 8.5263018827e-01	 5.2251471715e-01	 5.3327933063e+00
 8.4018506873e-01	 5.4229961341e-01	 5.4782110448e+00
 8.2724818708e-01	 5.6183647501e-01	 5.5905400827e+00
 8.1382685776e-01	 5.8110723302e-01	 5.6662657427e+00
 7.9992927055e-01	 6.0009410240e-01	 5.7023428164e+00
 7.8556447689e-01	 6.1877963469e-01	 5.6962512236e+00
 9.3320808600e-01	 4.3253007557e-01	 3.8021447163e+00
 9.2301729580e-01	 4.5387068712e-01	 3.9785327135e+00
 9.1229680234e-01	 4.7505157331e-01	 4.1440202134e+00
 9.0104955175e-01	 4.9605350654e-01	 4.2950948655e+00
 8.8927940295e-01	 5.1685727964e-01	 4.4284147983e+00
 8.7699113274e-01	 5.3744375929e-01	 4.5408580227e+00
 8.6419043715e-01	 5.5779394021e-01	 4.6295725995e+00
 8.5088392907e-01	 5.7788899974e-01	 4.6920270112e+00
 8.3707913191e-01	 5.9771035268e-01	 4.7260601324e+00
 8.2278446945e-01	 6.1723970587e-01	 4.7299301517e+00
 8.0800925173e-01	 6.3645911231e-01	 4.7023617597e+00
 9.5913077789e-01	 4.4454491348e-01	 3.4327847266e+00
 9.4865690752e-01	 4.6647832539e-01	 3.5454344983e+00
 9.3763861975e-01	 4.8824757510e-01	 3.6470952423e+00
 9.2607894258e-01	 5.0983290088e-01	 3.7354692269e+00
 9.1398184212e-01	 5.3121456203e-01	 3.8084212545e+00
 9.0135222784e-01	 5.5237289375e-01	 3.8640202443e+00
 8.8819595401e-01	 5.7328836281e-01	 3.9005816486e+00
 8.7451981721e-01	 5.9394162371e-01	 3.9167102294e+00
 8.6033154984e-01	 6.1431357500e-01	 3.9113426757e+00
 8.4563980967e-01	 6.3438541535e-01	 3.8837894928e+00
 8.3045416536e-01	 6.5413869924e-01	 3.8337755517e+00
 9.8505360891e-01	 4.5655981587e-01	 3.1319649799e+00
 9.7429665683e-01	 4.7908603133e-01	 3.1868589799e+00
 9.6298057317e-01	 5.0144364770e-01	 3.2309561073e+00
 9.5110846774e-01	 5.2361236917e-01	 3.2629379623e+00
 9.3868441385e-01	 5.4557192147e-01	 3.2816369941e+00
 9.2571345368e-01	 5.6730210832e-01	 3.2860717170e+00
 9.1220159971e-01	 5.8878286856e-01	 3.2754829011e+00
 8.9815583220e-01	 6.0999433384e-01	 3.2493703489e+00
 8.8358409256e-01	 6.3091688642e-01	 3.2075298110e+00
 8.6849527255e-01	 6.5153121685e-01	 3.1500895440e+00
 8.5289919944e-01	 6.7181838105e-01	 3.0775459610e+00
 1.0109765579e+00	 4.6857477292e-01	 2.8838546523e+00
 9.9993652281e-01	 4.9169379463e-01	 2.8872617970e+00
 9.8832264189e-01	 5.1463978035e-01	 2.8803406553e+00
 9.7613810679e-01	 5.3739190015e-01	 2.8625329647e+00
 9.6338709799e-01	 5.5992934624e-01	 2.8334159219e+00
 9.5007479036e-01	 5.8223139082e-01	 2.7927323818e+00
 9.3620735462e-01	 6.0427744482e-01	 2.7404222484e+00
 9.2179195474e-01	 6.2604711700e-01	 2.6766547406e+00
 9.0683674108e-01	 6.4752027339e-01	 2.6018611605e+00
 8.9135083942e-01	 6.6867709636e-01	 2.5167677274e+00
 8.7534433565e-01	 6.8949814330e-01	 2.4224279794e+00
 1.0368996036e+00	 4.8058977483e-01	 2.6743784166e+00
 1.0255764845e+00	 5.0430160500e-01	 2.6328383667e+00
 1.0136648052e+00	 5.2783596227e-01	 2.5817118815e+00
 1.0011678393e+00	 5.5117148258e-01	 2.5209962977e+00
 9.8808987434e-01	 5.7428682460e-01	 2.4508053340e+00
 9.7443621799e-01	 5.9716072906e-01	 2.3713955247e+00
 9.6021319916e-01	 6.1977207891e-01	 2.2831941311e+00
 9.4542816551e-01	 6.4209996010e-01	 2.1868282915e+00
 9.3008947641e-01	 6.6412372234e-01	 2.0831550982e+00
 9.1420649162e-01	 6.8582303987e-01	 1.9732922240e+00
 8.9778955565e-01	 7.0717797156e-01	 1.8586486439e+00
 1.0628227250e+00	 4.9260481178e-01	 2.4909938118e+00
 1.0512165210e+00	 5.1690945215e-01	 2.4113011257e+00
 1.0390070425e+00	 5.4103218267e-01	 2.3230349687e+00
 1.0261976448e+00	 5.6495110519e-01	 2.2265571762e+00
 1.0127927228e+00	 5.8864434484e-01	 2.1223232051e+00
 9.9879771668e-01	 6.1209011083e-01	 2.0109059503e+00
 9.8421911372e-01	 6.3526675820e-01	 1.8930214028e+00
 9.6906444523e-01	 6.5815285001e-01	 1.7695559769e+00
 9.5334227955e-01	 6.8072721972e-01	 1.6415952611e+00
 9.3706221048e-01	 7.0296903340e-01	 1.5104538660e+00
 9.2023484111e-01	 7.2485785138e-01	 1.3777059528e+00
 1.0887459008e+00	 5.0461987397e-01	 2.3224974063e+00
 1.0768566113e+00	 5.2951732576e-01	 2.2116853388e+00
 1.0643493329e+00	 5.5422843078e-01	 2.0935826813e+00
 1.0512275028e+00	 5.7873075675e-01	 1.9687370775e+00
 1.0374956230e+00	 6.0300189523e-01	 1.8377633351e+00
 1.0231592665e+00	 6.2701952396e-01	 1.7013656784e+00
 1.0082250787e+00	 6.5076147003e-01	 1.5603622760e+00
 9.9270077457e-01	 6.7420577363e-01	 1.4157119452e+00
 9.7659513153e-01	 6.9733075196e-01	 1.2685428484e+00
 9.5991797733e-01	 7.2011506293e-01	 1.1201829049e+00
 9.4268017371e-01	 7.4253776832e-01	 9.7221120699e-01
 1.1146691098e+00	 5.1663495157e-01	 2.1590718566e+00
 1.1024967345e+00	 5.4212521556e-01	 2.0241788268e+00
 1.0896916559e+00	 5.6742469583e-01	 1.8837645012e+00
 1.0762573930e+00	 5.9251042598e-01	 1.7381784031e+00
 1.0621985550e+00	 6.1735946404e-01	 1.5880238248e+00
 1.0475208476e+00	 6.4194895624e-01	 1.4339626830e+00
 1.0322310745e+00	 6.6625620174e-01	 1.2767399433e+00
 1.0163371343e+00	 6.9025871785e-01	 1.1172108026e+00
 9.9984801335e-01	 7.1393430550e-01	 9.5637051195e-01
 9.8277377351e-01	 7.3726111446e-01	 7.9538660888e-01
 9.6512553511e-01	 7.6021770795e-01	 6.3731548162e-01
 1.1405923310e+00	 5.2865003478e-01	 2.0063810358e+00
 1.1281368697e+00	 5.5473311124e-01	 1.8455496211e+00
 1.1150339907e+00	 5.8062096703e-01	 1.6852949748e+00
 1.1012872948e+00	 6.0629010164e-01	 1.5264929477e+00
 1.0869014985e+00	 6.3171703955e-01	 1.3649551672e+00
 1.0718824401e+00	 6.5687839549e-01	 1.2008190096e+00
 1.0562370814e+00	 6.8175094068e-01	 1.0345912668e+00
 1.0399735050e+00	 7.0631166956e-01	 8.6685756600e-01
 1.0231009060e+00	 7.3053786680e-01	 6.9831440470e-01
 1.0056295804e+00	 7.5440717399e-01	 5.3017915143e-01
 9.8757090699e-01	 7.7789765583e-01	 3.6646480529e-01
 1.1665155430e+00	 5.4066511378e-01	 1.8666680409e+00
 1.1537769959e+00	 5.6734100251e-01	 1.6869939377e+00
 1.1403763167e+00	 5.9381723362e-01	 1.5075477208e+00
 1.1263171879e+00	 6.2006977248e-01	 1.3313001736e+00
 1.1116044334e+00	 6.4607461004e-01	 1.1612307401e+00
 1.0962440240e+00	 6.7180782952e-01	 9.9485525777e-01
 1.0802430800e+00	 6.9724567419e-01	 8.2713157211e-01
 1.0636098674e+00	 7.2236461565e-01	 6.5821338159e-01
 1.0463537905e+00	 7.4714142228e-01	 4.8832941532e-01
 1.0284853792e+00	 7.7155322752e-01	 3.1842736863e-01
 1.0100162710e+00	 7.9557759752e-01	 1.5197628651e-01
 7.8556447689e-01	 6.1877963469e-01	 5.6962512236e+00
 7.7074237018e-01	 6.3714677154e-01	 5.6431627847e+00
 7.5547365803e-01	 6.5517890056e-01	 5.5384075354e+00
 7.3976984406e-01	 6.7285989945e-01	 5.3804764376e+00
 7.2364320173e-01	 6.9017418182e-01	 5.1739439315e+00
 7.0710674268e-01	 7.0710674268e-01	 4.9221992075e+00
 6.9017418182e-01	 7.2364320173e-01	 4.6242415178e+00
 6.7285989945e-01	 7.3976984406e-01	 4.2793894292e+00
 6.5517890056e-01	 7.5547365803e-01	 3.8919507037e+00
 6.3714677154e-01	 7.7074237018e-01	 3.4678202606e+00
 6.1877963469e-01	 7.8556447689e-01	 3.0074123191e+00
 8.0800925173e-01	 6.3645911231e-01	 4.7023617597e+00
 7.9276365483e-01	 6.5535102626e-01	 4.6380084489e+00
 7.7705869230e-01	 6.7389836070e-01	 4.5308100717e+00
 7.6090619643e-01	 6.9208453269e-01	 4.3790971626e+00
 7.4431879134e-01	 7.0989351050e-01	 4.1816348725e+00
 7.2730986044e-01	 7.2730986044e-01	 3.9408269980e+00
 7.0989351050e-01	 7.4431879134e-01	 3.6628876760e+00
 6.9208453269e-01	 7.6090619643e-01	 3.3543101395e+00
 6.7389836070e-01	 7.7705869230e-01	 3.0179487448e+00
 6.5535102626e-01	 7.9276365483e-01	 2.6535020713e+00
 6.3645911231e-01	 8.0800925173e-01	 2.2608384614e+00
 8.3045416536e-01	 6.5413869924e-01	 3.8337755517e+00
 8.1478507565e-01	 6.7355539354e-01	 3.7554644273e+00
 7.9864386004e-01	 6.9261793658e-01	 3.6416320986e+00
 7.8204267949e-01	 7.1130928479e-01	 3.4905319126e+00
 7.6499450879e-01	 7.2961296111e-01	 3.3008234977e+00
 7.4751310312e-01	 7.4751310312e-01	 3.0724190880e+00
 7.2961296111e-01	 7.6499450879e-01	 2.8151293585e+00
 7.1130928479e-01	 7.8204267949e-01	 2.5384458043e+00
 6.9261793658e-01	 7.9864386004e-01	 2.2424291089e+00
 6.7355539354e-01	 8.1478507565e-01	 1.9264193795e+00
 6.5413869924e-01	 8.3045416536e-01	 1.5898615784e+00
 8.5289919944e-01	 6.7181838105e-01	 3.0775459610e+00
 8.3680661466e-01	 6.9175985851e-01	 2.9835946316e+00
 8.2022914362e-01	 7.1133761293e-01	 2.8600519137e+00
 8.0317927598e-01	 7.3053414007e-01	 2.7051508945e+00
 7.8567033720e-01	 7.4933251754e-01	 2.5186490167e+00
 7.6771645422e-01	 7.6771645422e-01	 2.3080341349e+00
 7.4933251754e-01	 7.8567033720e-01	 2.0754267259e+00
 7.3053414007e-01	 8.0317927598e-01	 1.8230582766e+00
 7.1133761293e-01	 8.2022914362e-01	 1.5582210539e+00
 6.9175985851e-01	 8.3680661466e-01	 1.2810605014e+00
 6.7181838105e-01	 8.5289919944e-01	 9.9069081142e-01
 8.7534433565e-01	 6.8949814330e-01	 2.4224279794e+00
 8.5882825386e-01	 7.0996440632e-01	 2.3120854161e+00
 8.4181452542e-01	 7.3005737445e-01	 2.1767810328e+00
 8.2431596864e-01	 7.4975908282e-01	 2.0158504123e+00
 8.0634625968e-01	 7.6905216370e-01	 1.8360482430e+00
 7.8791989725e-01	 7.8791989725e-01	 1.6393574460e+00
 7.6905216370e-01	 8.0634625968e-01	 1.4266120939e+00
 7.4975908282e-01	 8.2431596864e-01	 1.1988404693e+00
 7.3005737445e-01	 8.4181452542e-01	 9.5845078101e-01
 7.0996440632e-01	 8.5882825386e-01	 7.1206743346e-01
 6.8949814330e-01	 8.7534433565e-01	 4.5953949549e-01
 8.9778955565e-01	 7.0717797156e-01	 1.8586486439e+00
 8.8084997527e-01	 7.2816902208e-01	 1.7320262143e+00
 8.6339998779e-01	 7.4877720585e-01	 1.5845576549e+00
 8.4545274020e-01	 7.6898409734e-01	 1.4219179008e+00
 8.2702225935e-01	 7.8877188348e-01	 1.2463316511e+00
 8.0812341570e-01	 8.0812341570e-01	 1.0587277981e+00
 7.8877188348e-01	 8.2702225935e-01	 8.6023587518e-01
 7.6898409734e-01	 8.4545274020e-01	 6.5214770168e-01
 7.4877720585e-01	 8.6339998779e-01	 4.3587764144e-01
 7.2816902208e-01	 8.8084997527e-01	 2.1420962567e-01
 7.0717797156e-01	 8.9778955565e-01	-7.3802626034e-03
 9.2023484111e-01	 7.2485785138e-01	 1.3777059528e+00
 9.0287176092e-01	 7.4637369095e-01	 1.2359846781e+00
 8.8498551312e-01	 7.6749709185e-01	 1.0811990308e+00
 8.6658957342e-01	 7.8820916793e-01	 9.1602411508e-01
 8.4769831933e-01	 8.0849166077e-01	 7.4156565856e-01
 8.2832699308e-01	 8.2832699308e-01	 5.5915855439e-01
 8.0849166077e-01	 8.4769831933e-01	 3.7032144870e-01
 7.8820916793e-01	 8.6658957342e-01	 1.7670810419e-01
 7.6749709185e-01	 8.8498551312e-01	-1.9942492540e-02
 7.4637369095e-01	 9.0287176092e-01	-2.1785528028e-01
 7.2485785138e-01	 9.2023484111e-01	-4.1385829376e-01
 9.4268017371e-01	 7.4253776832e-01	 9.7221120699e-01
 9.2489359280e-01	 7.6457839803e-01	 8.2043388962e-01
 9.0657108378e-01	 7.8621701716e-01	 6.5930109842e-01
 8.8772645102e-01	 8.0743427889e-01	 4.9012559850e-01
 8.6837442272e-01	 8.2821147947e-01	 3.1450230023e-01
 8.4853061288e-01	 8.4853061288e-01	 1.3425671278e-01
 8.2821147947e-01	 8.6837442272e-01	-4.8612325426e-02
 8.0743427889e-01	 8.8772645102e-01	-2.3199342707e-01
 7.8621701716e-01	 9.0657108378e-01	-4.1372461294e-01
 7.6457839803e-01	 9.2489359280e-01	-5.9165407626e-01
 7.4253776832e-01	 9.4268017371e-01	-7.6369743869e-01
 9.6512553511e-01	 7.6021770795e-01	 6.3731548162e-01
 9.4691545295e-01	 7.8278312848e-01	 4.7827743468e-01
 9.2815668214e-01	 8.0493696649e-01	 3.1084262813e-01
 9.0886335575e-01	 8.2665941452e-01	 1.3686480324e-01
 8.8905055264e-01	 8.4793132348e-01	-4.1497431297e-02
 8.6873425861e-01	 8.6873425861e-01	-2.2184509140e-01
 8.4793132348e-01	 8.8905055264e-01	-4.0160982269e-01
 8.2665941452e-01	 9.0886335575e-01	-5.7812880720e-01
 8.0493696649e-01	 9.2815668214e-01	-7.4872082015e-01
 7.8278312848e-01	 9.4691545295e-01	-9.1076064532e-01
 7.6021770795e-01	 9.6512553511e-01	-1.0617491214e+00
 9.8757090699e-01	 7.7789765583e-01	 3.6646480529e-01
 9.6893732337e-01	 8.0098786743e-01	 2.0162203844e-01
 9.4974229057e-01	 8.2365692456e-01	 2.8480867962e-02
 9.3000027033e-01	 8.4588455912e-01	-1.5050101362e-01
 9.0972669221e-01	 8.6765117668e-01	-3.3252796752e-01
 8.8893791377e-01	 8.8893791377e-01	-5.1454568892e-01
 8.6765117668e-01	 9.0972669221e-01	-6.9332795251e-01
 8.4588455912e-01	 9.3000027033e-01	-8.6556776091e-01
 8.2365692456e-01	 9.4974229057e-01	-1.0279696715e+00
 8.0098786743e-01	 9.6893732337e-01	-1.1773400322e+00
 7.7789765583e-01	 9.8757090699e-01	-1.3106719296e+00
 1.0100162710e+00	 7.9557759752e-01	 1.5197628651e-01
 9.9095918608e-01	 8.1919260000e-01	-1.6760095038e-02
 9.7132789145e-01	 8.4237687608e-01	-1.9451325470e-01
 9.5113717752e-01	 8.6510969699e-01	-3.7815944357e-01
 9.3040282455e-01	 8.8737102298e-01	-5.6419317859e-01
 9.0914156185e-01	 9.0914156185e-01	-7.4882328046e-01
 8.8737102298e-01	 9.3040282455e-01	-9.2807750314e-01
 8.6510969699e-01	 9.5113717752e-01	-1.0979121847e+00
 8.4237687608e-01	 9.7132789145e-01	-1.2543231631e+00
 8.1919260000e-01	 9.9095918608e-01	-1.3934541480e+00
 7.9557759752e-01	 1.0100162710e+00	-1.5116988230e+00
 6.1877963469e-01	 7.8556447689e-01	 3.0074123191e+00
 6.0009410240e-01	 7.9992927055e-01	 2.5134478627e+00
 5.8110723302e-01	 8.1382685776e-01	 1.9902187711e+00
 5.6183647501e-01	 8.2724818708e-01	 1.4406219611e+00
 5.4229961341e-01	 8.4018506873e-01	 8.6749734407e-01
 5.2251471715e-01	 8.5263018827e-01	 2.7364589766e-01
 5.0250008602e-01	 8.6457711653e-01	-3.3815422568e-01
 4.8227419740e-01	 8.7602031568e-01	-9.6513405076e-01
 4.6185565311e-01	 8.8695514163e-01	-1.6045229678e+00
 4.4126312680e-01	 8.9737784263e-01	-2.2535410074e+00
 4.2051531196e-01	 9.0728555439e-01	-2.9093943279e+00
 6.3645911231e-01	 8.0800925173e-01	 2.2608384614e+00
 6.1723970587e-01	 8.2278446945e-01	 1.8399299544e+00
 5.9771035268e-01	 8.3707913191e-01	 1.3928512040e+00
 5.7788899974e-01	 8.5088392907e-01	 9.2272014648e-01
 5.5779394021e-01	 8.6419043715e-01	 4.3259277406e-01
 5.3744375929e-01	 8.7699113274e-01	-7.4518414828e-02
 5.1685727964e-01	 8.8927940295e-01	-5.9562835340e-01
 4.9605350654e-01	 9.0104955175e-01	-1.1277662611e+00
 4.7505157331e-01	 9.1229680234e-01	-1.6679658011e+00
 4.5387068712e-01	 9.2301729580e-01	-2.2132587813e+00
 4.3253007557e-01	 9.3320808600e-01	-2.7606724955e+00
 6.5413869924e-01	 8.3045416536e-01	 1.5898615784e+00
 6.3438541535e-01	 8.4563980967e-01	 1.2303206183e+00
 6.1431357500e-01	 8.6033154984e-01	 8.4784169118e-01
 5.9394162371e-01	 8.7451981721e-01	 4.4563800716e-01
 5.7328836281e-01	 8.8819595401e-01	 2.6856502550e-02
 5.5237289375e-01	 9.0135222784e-01	-4.0540197435e-01
 5.3121456203e-01	 9.1398184212e-01	-8.4806540784e-01
 5.0983290088e-01	 9.2607894258e-01	-1.2980768627e+00
 4.8824757510e-01	 9.3763861975e-01	-1.7523846412e+00
 4.6647832539e-01	 9.4865690752e-01	-2.2079365837e+00
 4.4454491348e-01	 9.5913077789e-01	-2.6616785841e+00
 6.7181838105e-01	 8.5289919944e-01	 9.9069081142e-01
 6.5153121685e-01	 8.6849527255e-01	 6.8256474201e-01
 6.3091688642e-01	 8.8358409256e-01	 3.5485137267e-01
 6.0999433384e-01	 8.9815583220e-01	 1.0740550150e-02
 5.8878286856e-01	 9.1220159971e-01	-3.4664746662e-01
 5.6730210832e-01	 9.2571345368e-01	-7.1423873340e-01
 5.4557192147e-01	 9.3868441385e-01	-1.0889859503e+00
 5.2361236917e-01	 9.5110846774e-01	-1.4678530244e+00
 5.0144364770e-01	 9.6298057317e-01	-1.8478042977e+00
 4.7908603133e-01	 9.7429665683e-01	-2.2257986760e+00
 4.5655981587e-01	 9.8505360891e-01	-2.5987886987e+00
 6.8949814330e-01	 8.7534433565e-01	 4.5953949549e-01
 6.6867709636e-01	 8.9135083942e-01	 1.9445996675e-01
 6.4752027339e-01	 9.0683674108e-01	-8.6756190752e-02
 6.2604711700e-01	 9.2179195474e-01	-3.8105514059e-01
 6.0427744482e-01	 9.3620735462e-01	-6.8545448180e-01
 5.8223139082e-01	 9.5007479036e-01	-9.9701553603e-01
 5.5992934624e-01	 9.6338709799e-01	-1.3128200540e+00
 5.3739190015e-01	 9.7613810679e-01	-1.6299520409e+00
 5.1463978035e-01	 9.8832264189e-01	-1.9454851682e+00
 4.9169379463e-01	 9.9993652281e-01	-2.2564760090e+00
 4.6857477292e-01	 1.0109765579e+00	-2.5599631088e+00
 7.0717797156e-01	 8.9778955565e-01	-7.3802626034e-03
 6.8582303987e-01	 9.1420649162e-01	-2.3632799459e-01
 6.6412372234e-01	 9.3008947641e-01	-4.7787942966e-01
 6.4209996010e-01	 9.4542816551e-01	-7.2922439380e-01
 6.1977207891e-01	 9.6021319916e-01	-9.8762403230e-01
 5.9716072906e-01	 9.7443621799e-01	-1.2503772990e+00
 5.7428682460e-01	 9.8808987434e-01	-1.5147928410e+00
 5.5117148258e-01	 1.0011678393e+00	-1.7781670595e+00
 5.2783596227e-01	 1.0136648052e+00	-2.0377688562e+00
 5.0430160500e-01	 1.0255764845e+00	-2.2908313067e+00
 4.8058977483e-01	 1.0368996036e+00	-2.5345502398e+00
 7.2485785138e-01	 9.2023484111e-01	-4.1385829376e-01
 7.0296903340e-01	 9.3706221048e-01	-6.1224833753e-01
 6.8072721972e-01	 9.5334227955e-01	-8.1964444337e-01
 6.5815285001e-01	 9.6906444523e-01	-1.0335836470e+00
 6.3526675820e-01	 9.8421911372e-01	-1.2516716766e+00
 6.1209011083e-01	 9.9879771668e-01	-1.4715422757e+00
 5.8864434484e-01	 1.0127927228e+00	-1.6908230741e+00
 5.6495110519e-01	 1.0261976448e+00	-1.9071088787e+00
 5.4103218267e-01	 1.0390070425e+00	-2.1179429436e+00
 5.1690945215e-01	 1.0512165210e+00	-2.3208064644e+00
 4.9260481178e-01	 1.0628227250e+00	-2.5131162405e+00
 7.4253776832e-01	 9.4268017371e-01	-7.6369743869e-01
 7.2011506293e-01	 9.5991797733e-01	-9.3584672811e-01
 6.9733075196e-01	 9.7659513153e-01	-1.1133717320e+00
 6.7420577363e-01	 9.9270077457e-01	-1.2942426482e+00
 6.5076147003e-01	 1.0082250787e+00	-1.4765069206e+00
 6.2701952396e-01	 1.0231592665e+00	-1.6582257233e+00
 6.0300189523e-01	 1.0374956230e+00	-1.8374326279e+00
 5.7873075675e-01	 1.0512275028e+00	-2.0121011410e+00
 5.5422843078e-01	 1.0643493329e+00	-2.1801217243e+00
 5.2951732576e-01	 1.0768566113e+00	-2.3392885453e+00
 5.0461987397e-01	 1.0887459008e+00	-2.4872958631e+00
 7.6021770795e-01	 9.6512553511e-01	-1.0617491214e+00
 7.3726111446e-01	 9.8277377351e-01	-1.2097456781e+00
 7.1393430550e-01	 9.9984801335e-01	-1.3605438117e+00
 6.9025871785e-01	 1.0163371343e+00	-1.5115595928e+00
 6.6625620174e-01	 1.0322310745e+00	-1.6613760778e+00
 6.4194895624e-01	 1.0475208476e+00	-1.8085706045e+00
 6.1735946404e-01	 1.0621985550e+00	-1.9516650681e+00
 5.9251042598e-01	 1.0762573930e+00	-2.0890867403e+00
 5.6742469583e-01	 1.0896916559e+00	-2.2191403029e+00
 5.4212521556e-01	 1.1024967345e+00	-2.3399913465e+00
 5.1663495157e-01	 1.1146691098e+00	-2.4498186090e+00
 7.7789765583e-01	 9.8757090699e-01	-1.3106719296e+00
 7.5440717399e-01	 1.0056295804e+00	-1.4366975389e+00
 7.3053786680e-01	 1.0231009060e+00	-1.5627735737e+00
 7.0631166956e-01	 1.0399735050e+00	-1.6860987293e+00
 6.8175094068e-01	 1.0562370814e+00	-1.8058093187e+00
 6.5687839549e-01	 1.0718824401e+00	-1.9210842072e+00
 6.3171703955e-01	 1.0869014985e+00	-2.0310118924e+00
 6.0629010164e-01	 1.1012872948e+00	-2.1345436596e+00
 5.8062096703e-01	 1.1150339907e+00	-2.2307245029e+00
 5.5473311124e-01	 1.1281368697e+00	-2.3217422205e+00
 5.2865003478e-01	 1.1405923310e+00	-2.4049666371e+00
 7.9557759752e-01	 1.0100162710e+00	-1.5116988230e+00
 7.7155322752e-01	 1.0284853792e+00	-1.6183198248e+00
 7.4714142228e-01	 1.0463537905e+00	-1.7216917905e+00
 7.2236461565e-01	 1.0636098674e+00	-1.8185900509e+00
 6.9724567419e-01	 1.0802430800e+00	-1.9095712600e+00
 6.7180782952e-01	 1.0962440240e+00	-1.9945797605e+00
 6.4607461004e-01	 1.1116044334e+00	-2.0733505345e+00
 6.2006977248e-01	 1.1263171879e+00	-2.1499332780e+00
 5.9381723362e-01	 1.1403763167e+00	-2.2252437603e+00
 5.6734100251e-01	 1.1537769959e+00	-2.2950664969e+00
 5.4066511378e-01	 1.1665155430e+00	-2.3552428584e+00
 4.2051531196e-01	 9.0728555439e-01	-2.9093943279e+00
 3.9963233635e-01	 9.1667565331e-01	-3.5696624765e+00
 3.7863132607e-01	 9.2554773768e-01	-4.2302105582e+00
 3.5753072471e-01	 9.3390154697e-01	-4.8840309880e+00
 3.3634880088e-01	 9.4173765446e-01	-5.5194988444e+00
 3.1510360378e-01	 9.4905744632e-01	-6.1317250844e+00
 2.9381292096e-01	 9.5586309813e-01	-6.7170258958e+00
 2.7249423836e-01	 9.6215754903e-01	-7.2721968909e+00
 2.5116470275e-01	 9.6794447360e-01	-7.7944983654e+00
 2.2984108677e-01	 9.7322825186e-01	-8.2816409951e+00
 2.0853975653e-01	 9.7801393759e-01	-8.7317719556e+00
 4.3253007557e-01	 9.3320808600e-01	-2.7606724955e+00
 4.1105044151e-01	 9.4286647436e-01	-3.3093185281e+00
 3.8944940034e-01	 9.5199204770e-01	-3.8574417890e+00
 3.6774592264e-01	 9.6058453806e-01	-4.4007569089e+00
 3.4595879894e-01	 9.6864453509e-01	-4.9293039157e+00
 3.2410659417e-01	 9.7617346456e-01	-5.4360668715e+00
 3.0220760408e-01	 9.8317356422e-01	-5.9184144656e+00
 2.8027981421e-01	 9.8964785718e-01	-6.3741332057e+00
 2.5834086125e-01	 9.9560012300e-01	-6.8014075399e+00
 2.3640799705e-01	 1.0010348669e+00	-7.1988017924e+00
 2.1449805533e-01	 1.0059572869e+00	-7.5652438216e+00
 4.4454491348e-01	 9.5913077789e-01	-2.6616785841e+00
 4.2246861727e-01	 9.6905745735e-01	-3.1140572893e+00
 4.0026754151e-01	 9.7843652124e-01	-3.5653492270e+00
 3.7796118372e-01	 9.8726769414e-01	-4.0122919284e+00
 3.5556885643e-01	 9.9555158209e-01	-4.4494911753e+00
 3.3310964023e-01	 1.0032896505e+00	-4.8667907733e+00
 3.1060233911e-01	 1.0104841992e+00	-5.2618864148e+00
 2.8806543821e-01	 1.0171383353e+00	-5.6334539227e+00
 2.6551706413e-01	 1.0232559434e+00	-5.9805020315e+00
 2.4297494794e-01	 1.0288416538e+00	-6.3023510448e+00
 2.2045639097e-01	 1.0339008091e+00	-6.5986145944e+00
 4.5655981587e-01	 9.8505360891e-01	-2.5987886987e+00
 4.3388685431e-01	 9.9524858091e-01	-2.9683852610e+00
 4.1108574074e-01	 1.0048811367e+00	-3.3365856492e+00
 3.8817649964e-01	 1.0139509934e+00	-3.7009451241e+00
 3.6517896549e-01	 1.0224587735e+00	-4.0588755443e+00
 3.4211273460e-01	 1.0304059819e+00	-4.4008811346e+00
 3.1899711919e-01	 1.0377949807e+00	-4.7226578004e+00
 2.9585110399e-01	 1.0446289610e+00	-5.0236780060e+00
 2.7269330552e-01	 1.0509119123e+00	-5.3036826367e+00
 2.4954193407e-01	 1.0566485900e+00	-5.5626568799e+00
 2.2641475859e-01	 1.0618444812e+00	-5.8008106807e+00
 4.6857477292e-01	 1.0109765579e+00	-2.5599631088e+00
 4.4530514331e-01	 1.0214398236e+00	-2.8585739678e+00
 4.2190398919e-01	 1.0313258725e+00	-3.1557489018e+00
 3.9839186203e-01	 1.0406344141e+00	-3.4497369520e+00
 3.7478911828e-01	 1.0493660873e+00	-3.7388824155e+00
 3.5111586995e-01	 1.0575224367e+00	-4.0178619918e+00
 3.2739193747e-01	 1.0651058865e+00	-4.2786154859e+00
 3.0363680519e-01	 1.0721197117e+00	-4.5211237919e+00
 2.7986957956e-01	 1.0785680069e+00	-4.7457748646e+00
 2.5610895008e-01	 1.0844556527e+00	-4.9531335443e+00
 2.3237315332e-01	 1.0897882804e+00	-5.1439213480e+00
 4.8058977483e-01	 1.0368996036e+00	-2.5345502398e+00
 4.5672347493e-01	 1.0476311641e+00	-2.7724426326e+00
 4.3272227803e-01	 1.0577707070e+00	-3.0091435100e+00
 4.0860726256e-01	 1.0673179344e+00	-3.2434767354e+00
 3.8439930695e-01	 1.0762735016e+00	-3.4743097583e+00
 3.6011903890e-01	 1.0846389928e+00	-3.6995238104e+00
 3.3578678709e-01	 1.0924168943e+00	-3.9100212888e+00
 3.1142253547e-01	 1.0996105651e+00	-4.1045914349e+00
 2.8704588039e-01	 1.1062242048e+00	-4.2841906576e+00
 2.6267599061e-01	 1.1122628192e+00	-4.4498717856e+00
 2.3833157029e-01	 1.1177321840e+00	-4.6023591963e+00
 4.9260481178e-01	 1.0628227250e+00	-2.5131162405e+00
 4.6814183986e-01	 1.0738225810e+00	-2.6991697328e+00
 4.4354059842e-01	 1.0842156186e+00	-2.8845744500e+00
 4.1882269288e-01	 1.0940015326e+00	-3.0686141208e+00
 3.9400952364e-01	 1.1031809944e+00	-3.2505641605e+00
 3.6912223411e-01	 1.1117556279e+00	-3.4296919477e+00
 3.4418166119e-01	 1.1197279817e+00	-3.5991141794e+00
 3.1920828845e-01	 1.1271014987e+00	-3.7540818387e+00
 2.9422220216e-01	 1.1338804834e+00	-3.8955936744e+00
 2.6924305029e-01	 1.1400700668e+00	-4.0248957611e+00
 2.4429000465e-01	 1.1456761690e+00	-4.1434235592e+00
 5.0461987397e-01	 1.0887459008e+00	-2.4872958631e+00
 4.7956022876e-01	 1.1000140529e+00	-2.6291286263e+00
 4.5435894153e-01	 1.1106605858e+00	-2.7711677250e+00
 4.2903814466e-01	 1.1206851868e+00	-2.9135184985e+00
 4.0361976052e-01	 1.1300885437e+00	-3.0554199524e+00
 3.7812544823e-01	 1.1388723200e+00	-3.1952749580e+00
 3.5257655293e-01	 1.1470391265e+00	-3.3292269617e+00
 3.2699405778e-01	 1.1545924900e+00	-3.4498611749e+00
 3.0139853899e-01	 1.1615368201e+00	-3.5582957026e+00
 2.7581012377e-01	 1.1678773729e+00	-3.6563353322e+00
 2.5024845152e-01	 1.1736202128e+00	-3.7458908850e+00
 5.1663495157e-01	 1.1146691098e+00	-2.4498186090e+00
 4.9097863232e-01	 1.1262055585e+00	-2.5560813169e+00
 4.6517729852e-01	 1.1371055869e+00	-2.6646846920e+00
 4.3925360954e-01	 1.1473688752e+00	-2.7737521389e+00
 4.1323000973e-01	 1.1569961275e+00	-2.8817177769e+00
 3.8712867391e-01	 1.1659890469e+00	-2.9873553429e+00
 3.6097145543e-01	 1.1743503063e+00	-3.0891369886e+00
 3.3477983710e-01	 1.1820835166e+00	-3.1799360390e+00
 3.0857488504e-01	 1.1891931923e+00	-3.2597288836e+00
 2.8237720567e-01	 1.1956847146e+00	-3.3308046833e+00
 2.5620690603e-01	 1.2015642924e+00	-3.3954702483e+00
 5.2865003478e-01	 1.1405923310e+00	-2.4049666371e+00
 5.0239704120e-01	 1.1523970762e+00	-2.4840217369e+00
 4.7599566056e-01	 1.1635506004e+00	-2.5642345801e+00
 4.4946907919e-01	 1.1740525760e+00	-2.6440011345e+00
 4.2284026342e-01	 1.1839037239e+00	-2.7220500150e+00
 3.9613190378e-01	 1.1931057864e+00	-2.7974704945e+00
 3.6936636186e-01	 1.2016614988e+00	-2.8697172326e+00
 3.4256562006e-01	 1.2095745560e+00	-2.9341377422e+00
 3.1575123443e-01	 1.2168495773e+00	-2.9887630670e+00
 2.8894429064e-01	 1.2234920692e+00	-3.0362895821e+00
 2.6216536333e-01	 1.2295083851e+00	-3.0793368593e+00
 5.4066511378e-01	 1.1665155430e+00	-2.3552428584e+00
 5.1381544609e-01	 1.1785885847e+00	-2.4098750724e+00
 4.8681401882e-01	 1.1899956046e+00	-2.4646675622e+00
 4.5968454527e-01	 1.2007362676e+00	-2.5182204723e+00
 4.3245051375e-01	 1.2108113108e+00	-2.5694983019e+00
 4.0513513051e-01	 1.2202225165e+00	-2.6178568038e+00
 3.7776126534e-01	 1.2289726818e+00	-2.6630512183e+00
 3.5035140029e-01	 1.2370655857e+00	-2.7033064773e+00
 3.2292758131e-01	 1.2445059527e+00	-2.7353674308e+00
 2.9551137331e-01	 1.2512994142e+00	-2.7619648730e+00
 2.6812381854e-01	 1.2574524679e+00	-2.7859429745e+00
 2.0853975653e-01	 9.7801393759e-01	-8.7317719556e+00
 1.8727515887e-01	 9.8230750859e-01	-9.1439878048e+00
 1.6606427394e-01	 9.8611491462e-01	-9.5172255981e+00
 1.4492210489e-01	 9.8944302882e-01	-9.8500867551e+00
 1.2386314479e-01	 9.9229925915e-01	-1.0141544801e+01
 1.0290135811e-01	 9.9469151154e-01	-1.0390936958e+01
 8.2050164801e-02	 9.9662815290e-01	-1.0597954753e+01
 6.1322427094e-02	 9.9811797387e-01	-1.0762633403e+01
 4.0730438957e-02	 9.9917015173e-01	-1.0885339798e+01
 2.0285918027e-02	 9.9979421360e-01	-1.0966758932e+01
 0.0000000000e+00	 1.0000000000e+00	-1.1007878697e+01
 2.1449805533e-01	 1.0059572869e+00	-7.5652438216e+00
 1.9262589569e-01	 1.0103735318e+00	-7.9001571357e+00
 1.7080898344e-01	 1.0142897212e+00	-8.2026597929e+00
 1.4906275038e-01	 1.0177129247e+00	-8.4717790608e+00
 1.2740210369e-01	 1.0206507619e+00	-8.7068325431e+00
 1.0584140681e-01	 1.0231113646e+00	-8.9074238205e+00
 8.4394463108e-02	 1.0251033388e+00	-9.0734376105e+00
 6.3074502332e-02	 1.0266357262e+00	-9.2050340681e+00
 4.1894169698e-02	 1.0277179664e+00	-9.3026418984e+00
 2.0865517634e-02	 1.0283598586e+00	-9.3669500114e+00
 0.0000000000e+00	 1.0285715247e+00	-9.3988975197e+00
 2.2045639097e-01	 1.0339008091e+00	-6.5986145944e+00
 1.9797666560e-01	 1.0384397286e+00	-6.8688520740e+00
 1.7555372228e-01	 1.0424647021e+00	-7.1122236991e+00
 1.5320342148e-01	 1.0459829954e+00	-7.3281747905e+00
 1.3094108447e-01	 1.0490024400e+00	-7.5163641568e+00
 1.0878147368e-01	 1.0515313934e+00	-7.6766639471e+00
 8.6738775911e-02	 1.0535787007e+00	-7.8091595258e+00
 6.4826588404e-02	 1.0551536548e+00	-7.9141488282e+00
 4.3057907636e-02	 1.0562659575e+00	-7.9921407155e+00
 2.1445120825e-02	 1.0569256803e+00	-8.0438519262e+00
 0.0000000000e+00	 1.0571432260e+00	-8.0702022975e+00
 2.2641475859e-01	 1.0618444812e+00	-5.8008106807e+00
 2.0332746422e-01	 1.0665060760e+00	-6.0176717057e+00
 1.8029848658e-01	 1.0706398341e+00	-6.2123220829e+00
 1.5734411480e-01	 1.0742532179e+00	-6.3846137902e+00
 1.3448008424e-01	 1.0773542702e+00	-6.5345395532e+00
 1.1172155633e-01	 1.0799515747e+00	-6.6622371927e+00
 8.9083101296e-02	 1.0820542155e+00	-6.7679944935e+00
 6.6578683879e-02	 1.0836717365e+00	-6.8522538760e+00
 4.4221651818e-02	 1.0848141019e+00	-6.9156162236e+00
 2.2024727127e-02	 1.0854916553e+00	-6.9588433100e+00
 0.0000000000e+00	 1.0857150807e+00	-6.9828583738e+00
 2.3237315332e-01	 1.0897882804e+00	-5.1439213480e+00
 2.0867828719e-01	 1.0945725510e+00	-5.3174873461e+00
 1.8504327247e-01	 1.0988150943e+00	-5.4727316213e+00
 1.6148482696e-01	 1.1025235689e+00	-5.6098976712e+00
 1.3801910012e-01	 1.1057062295e+00	-5.7293003043e+00
 1.1466165236e-01	 1.1083718854e+00	-5.8313348853e+00
 9.1427437348e-02	 1.1105298598e+00	-5.9164876039e+00
 6.8330787327e-02	 1.1121899480e+00	-5.9853187143e+00
 4.5385401296e-02	 1.1133623762e+00	-6.0384828315e+00
 2.2604336066e-02	 1.1140577603e+00	-6.0768645172e+00
 0.0000000000e+00	 1.1142870654e+00	-6.1014605607e+00
 2.3833157029e-01	 1.1177321840e+00	-4.6023591963e+00
 2.1402913014e-01	 1.1226391309e+00	-4.7404093359e+00
 1.8978807608e-01	 1.1269904598e+00	-4.8626438237e+00
 1.6562555458e-01	 1.1307940256e+00	-4.9697606060e+00
 1.4155812921e-01	 1.1340582945e+00	-5.0625265351e+00
 1.1760175936e-01	 1.1367923021e+00	-5.1417706727e+00
 9.3771782152e-02	 1.1390056104e+00	-5.2083816013e+00
 7.0082897315e-02	 1.1407082659e+00	-5.2633073862e+00
 4.6549155118e-02	 1.1419107571e+00	-5.3075569865e+00
 2.3183947169e-02	 1.1426239719e+00	-5.3422020845e+00
 0.0000000000e+00	 1.1428591567e+00	-5.3683784828e+00
 2.4429000465e-01	 1.1456761690e+00	-4.1434235592e+00
 2.1937998870e-01	 1.1507057926e+00	-4.2498665595e+00
 1.9453289353e-01	 1.1551659074e+00	-4.3426795932e+00
 1.6976629428e-01	 1.1590645646e+00	-4.4230844940e+00
 1.4509716862e-01	 1.1624104423e+00	-4.4922995171e+00
 1.2054187494e-01	 1.1652128017e+00	-4.5515389143e+00
 9.6116133794e-02	 1.1674814441e+00	-4.6020168471e+00
 7.1835012414e-02	 1.1692266671e+00	-4.6449540255e+00
 4.7712912335e-02	 1.1704592212e+00	-4.6815856439e+00
 2.3763559962e-02	 1.1711902668e+00	-4.7131694002e+00
 0.0000000000e+00	 1.1714313314e+00	-4.7409926000e+00
 2.5024845152e-01	 1.1736202128e+00	-3.7458908850e+00
 2.2473085849e-01	 1.1787725133e+00	-3.8253213747e+00
 1.9927772094e-01	 1.1833414141e+00	-3.8928463182e+00
 1.7390704267e-01	 1.1873351630e+00	-3.9501828970e+00
 1.4863621546e-01	 1.1907626496e+00	-3.9989744098e+00
 1.2348199669e-01	 1.1936333610e+00	-4.0407972271e+00
 9.8460490359e-02	 1.1959573376e+00	-4.0771723200e+00
 7.3587131193e-02	 1.1977451280e+00	-4.1095794641e+00
 4.8876671996e-02	 1.1990077452e+00	-4.1394724505e+00
 2.4343173972e-02	 1.1997566217e+00	-4.1682938873e+00
 0.0000000000e+00	 1.2000035661e+00	-4.1974884436e+00
 2.5620690603e-01	 1.2015642924e+00	-3.3954702483e+00
 2.3008173515e-01	 1.2068392700e+00	-3.4516612885e+00
 2.0402255444e-01	 1.2115169571e+00	-3.4972983433e+00
 1.7804779638e-01	 1.2156057978e+00	-3.5345570824e+00
 1.5217526684e-01	 1.2191148933e+00	-3.5654709135e+00
 1.2642212222e-01	 1.2220539568e+00	-3.5919466135e+00
 1.0080484993e-01	 1.2244332676e+00	-3.6157846552e+00
 7.5339252220e-02	 1.2262636256e+00	-3.6387020215e+00
 5.0040433150e-02	 1.2275563060e+00	-3.6623555739e+00
 2.4922788727e-02	 1.2283230133e+00	-3.6883643474e+00
 0.0000000000e+00	 1.2285758375e+00	-3.7183294595e+00
 2.6216536333e-01	 1.2295083851e+00	-3.0793368593e+00
 2.3543261431e-01	 1.2349060398e+00	-3.1153301660e+00
 2.0876739015e-01	 1.2396925131e+00	-3.1418303833e+00
 1.8218855202e-01	 1.2438764457e+00	-3.1614258027e+00
 1.5571431988e-01	 1.2474671503e+00	-3.1764957969e+00
 1.2936224912e-01	 1.2504745659e+00	-3.1892366175e+00
 1.0314921060e-01	 1.2529092109e+00	-3.2016918840e+00
 7.7091374064e-02	 1.2547821365e+00	-3.2157852128e+00
 5.1204194847e-02	 1.2561048800e+00	-3.2333527685e+00
 2.5502403751e-02	 1.2568894182e+00	-3.2561738805e+00
 0.0000000000e+00	 1.2571481222e+00	-3.2859982412e+00
 2.6812381854e-01	 1.2574524679e+00	-2.7859429745e+00
 2.4078349159e-01	 1.2629727998e+00	-2.8041331176e+00
 2.1351222420e-01	 1.2678680593e+00	-2.8136770381e+00
 1.8632930621e-01	 1.2721470837e+00	-2.8175200578e+00
 1.5925337168e-01	 1.2758193973e+00	-2.8183334866e+00
 1.3230237499e-01	 1.2788951650e+00	-2.8185522869e+00
 1.0549357045e-01	 1.2813851443e+00	-2.8204172753e+00
 7.8843495295e-02	 1.2833006375e+00	-2.8260189419e+00
 5.2367956136e-02	 1.2846534440e+00	-2.8373403547e+00
 2.6082018573e-02	 1.2854558131e+00	-2.8562970515e+00
 0.0000000000e+00	 1.2857203969e+00	-2.8847722500e+00
 1.2857203969e+00	 0.0000000000e+00	 3.7837260149e+00
 1.2854558131e+00	 2.6082018573e-02	 3.7648356646e+00
 1.2846534440e+00	 5.2367956136e-02	 3.7426059619e+00
 1.2833006375e+00	 7.8843495295e-02	 3.7159989853e+00
 1.2813851443e+00	 1.0549357045e-01	 3.6838947751e+00
 1.2788951650e+00	 1.3230237499e-01	 3.6450500127e+00
 1.2758193973e+00	 1.5925337168e-01	 3.5980528037e+00
 1.2721470837e+00	 1.8632930621e-01	 3.5412740340e+00
 1.2678680593e+00	 2.1351222420e-01	 3.4728159952e+00
 1.2629727998e+00	 2.4078349159e-01	 3.3904592267e+00
 1.2574524679e+00	 2.6812381854e-01	 3.2916087967e+00
 1.3142906426e+00	 0.0000000000e+00	 3.7887162649e+00
 1.3140201795e+00	 2.6661592237e-02	 3.7697309487e+00
 1.3131999808e+00	 5.3531634788e-02	 3.7474412024e+00
 1.3118171133e+00	 8.0595492109e-02	 3.7206022060e+00
 1.3098590555e+00	 1.0783776382e-01	 3.6878848880e+00
 1.3073137459e+00	 1.3524229208e-01	 3.6478331948e+00
 1.3041696310e+00	 1.6279217217e-01	 3.5988166790e+00
 1.3004157142e+00	 1.9046976637e-01	 3.5389788172e+00
 1.2960416048e+00	 2.1825672133e-01	 3.4661817241e+00
 1.2910375667e+00	 2.4613398891e-01	 3.3779482175e+00
 1.2853945665e+00	 2.7408185064e-01	 3.2714024981e+00
 1.3428608584e+00	 0.0000000000e+00	 3.7984588824e+00
 1.3425845159e+00	 2.7241165292e-02	 3.7786898064e+00
 1.3417464877e+00	 5.4695312217e-02	 3.7554084011e+00
 1.3403335592e+00	 8.2347487083e-02	 3.7272039205e+00
 1.3383329369e+00	 1.1018195474e-01	 3.6925922040e+00
 1.3357322970e+00	 1.3818220609e-01	 3.6499718966e+00
 1.3325198349e+00	 1.6633096894e-01	 3.5975750019e+00
 1.3286843150e+00	 1.9461022218e-01	 3.5334120994e+00
 1.3242151207e+00	 2.2300121347e-01	 3.4552128430e+00
 1.3191023042e+00	 2.5148448061e-01	 3.3603626830e+00
 1.3133366357e+00	 2.8003987648e-01	 3.2458371093e+00
 1.3714310475e+00	 0.0000000000e+00	 3.8090679932e+00
 1.3711488257e+00	 2.7820737806e-02	 3.7879054305e+00
 1.3702929679e+00	 5.5858988561e-02	 3.7628372154e+00
 1.3688499785e+00	 8.4099480422e-02	 3.7323254206e+00
 1.3668067917e+00	 1.1252614346e-01	 3.6947830781e+00
 1.3641508216e+00	 1.4112211735e-01	 3.6485297584e+00
 1.3608700124e+00	 1.6986976242e-01	 3.5917402824e+00
 1.3569528895e+00	 1.9875067412e-01	 3.5223867950e+00
 1.3523886103e+00	 2.2774570118e-01	 3.4381747413e+00
 1.3471670155e+00	 2.5683496732e-01	 3.3364736611e+00
 1.3412786789e+00	 2.8599789676e-01	 3.2142441149e+00
 1.4000012133e+00	 0.0000000000e+00	 3.8170314305e+00
 1.3997131121e+00	 2.8400309847e-02	 3.7939778335e+00
 1.3988394247e+00	 5.7022663954e-02	 3.7664844215e+00
 1.3973663744e+00	 8.5851472330e-02	 3.7329225534e+00
 1.3952806233e+00	 1.1487033027e-01	 3.6916530477e+00
 1.3925693230e+00	 1.4406202621e-01	 3.6409815818e+00
 1.3892201668e+00	 1.7340855300e-01	 3.5791058001e+00
 1.3852214408e+00	 2.0289112268e-01	 3.5040542202e+00
 1.3805620769e+00	 2.3249018502e-01	 3.4136173849e+00
 1.3752317039e+00	 2.6218544965e-01	 3.3052721227e+00
 1.3692206992e+00	 2.9195591218e-01	 3.1761002347e+00
 1.4285713591e+00	 0.0000000000e+00	 3.8191734058e+00
 1.4282773786e+00	 2.8979881482e-02	 3.7938743109e+00
 1.4273858616e+00	 5.8186338532e-02	 3.7634926284e+00
 1.4258827505e+00	 8.7603463011e-02	 3.7263431249e+00
 1.4237544349e+00	 1.1721451544e-01	 3.6807833424e+00
 1.4209878045e+00	 1.4700193302e-01	 3.6251693446e+00
 1.4175703013e+00	 1.7694734110e-01	 3.5578015000e+00
 1.4134899724e+00	 2.0703156835e-01	 3.4768602272e+00
 1.4087355238e+00	 2.3723466554e-01	 3.3803320251e+00
 1.4032963726e+00	 2.6753592825e-01	 3.2659265745e+00
 1.3971627000e+00	 2.9791392343e-01	 3.1309862204e+00
 1.4571414882e+00	 0.0000000000e+00	 3.8126215702e+00
 1.4568416283e+00	 2.9559452779e-02	 3.7848945374e+00
 1.4559322819e+00	 5.9350012432e-02	 3.7513537813e+00
 1.4543991099e+00	 8.9355452671e-02	 3.7102891616e+00
 1.4522282299e+00	 1.1955869924e-01	 3.6601022396e+00
 1.4494062694e+00	 1.4994183810e-01	 3.5992629634e+00
 1.4459204192e+00	 1.8048612714e-01	 3.5262544601e+00
 1.4417584875e+00	 2.1117201160e-01	 3.4395056573e+00
 1.4369089542e+00	 2.4197914329e-01	 3.3373119009e+00
 1.4313610249e+00	 2.7288640372e-01	 3.2177442588e+00
 1.4251046845e+00	 3.0387193120e-01	 3.0785487873e+00
 1.4857116040e+00	 0.0000000000e+00	 3.7947782121e+00
 1.4854058648e+00	 3.0139023805e-02	 3.7646766337e+00
 1.4844786888e+00	 6.0513685788e-02	 3.7279221323e+00
 1.4829154559e+00	 9.1107441513e-02	 3.6827995718e+00
 1.4807020116e+00	 1.2190288195e-01	 3.6278506117e+00
 1.4778247211e+00	 1.5288174182e-01	 3.5617251658e+00
 1.4742705239e+00	 1.8402491153e-01	 3.4831533171e+00
 1.4700269894e+00	 2.1531245291e-01	 3.3909105326e+00
 1.4650823715e+00	 2.4672361882e-01	 3.2837163982e+00
 1.4594256642e+00	 2.7823687669e-01	 3.1601354678e+00
 1.4530466559e+00	 3.0982993619e-01	 3.0184652596e+00
 1.5142817098e+00	 0.0000000000e+00	 3.7636091840e+00
 1.5139700912e+00	 3.0718594629e-02	 3.7336862644e+00
 1.5130250857e+00	 6.1677358737e-02	 3.6962564786e+00
 1.5114317920e+00	 9.2859429741e-02	 3.6492512912e+00
 1.5091757834e+00	 1.2424706384e-01	 3.5909196090e+00
 1.5062431628e+00	 1.5582164450e-01	 3.5198644656e+00
 1.5026206188e+00	 1.8756369468e-01	 3.4350672474e+00
 1.4982954814e+00	 2.1945289278e-01	 3.3358898140e+00
 1.4932557789e+00	 2.5146809269e-01	 3.2220434266e+00
 1.4874902936e+00	 2.8358734779e-01	 3.0935121677e+00
 1.4809886176e+00	 3.1578793910e-01	 2.9504105716e+00
 1.5428518089e+00	 0.0000000000e+00	 3.7181867686e+00
 1.5425343110e+00	 3.1298165318e-02	 3.6921458244e+00
 1.5415714760e+00	 6.2841031415e-02	 3.6582451087e+00
 1.5399481215e+00	 9.4611417561e-02	 3.6139807771e+00
 1.5376495485e+00	 1.2659124518e-01	 3.5572154385e+00
 1.5346615979e+00	 1.5876154650e-01	 3.4862496595e+00
 1.5309707069e+00	 1.9110247700e-01	 3.3998840683e+00
 1.5265639668e+00	 2.2359333168e-01	 3.2974612176e+00
 1.5214291798e+00	 2.5621256546e-01	 3.1788746639e+00
 1.5155549165e+00	 2.8893781764e-01	 3.0445312395e+00
 1.5089305727e+00	 3.2174594061e-01	 2.8952513174e+00
 1.5714219047e+00	 0.0000000000e+00	 3.6579395833e+00
 1.5710985275e+00	 3.1877735938e-02	 3.6390821644e+00
 1.5701178630e+00	 6.4004703957e-02	 3.6126563552e+00
 1.5684644476e+00	 9.6363405176e-02	 3.5756234655e+00
 1.5661233103e+00	 1.2893542625e-01	 3.5253529780e+00
 1.5630800297e+00	 1.6170144816e-01	 3.4597339121e+00
 1.5593207918e+00	 1.9464125891e-01	 3.3772805377e+00
 1.5548324489e+00	 2.2773377010e-01	 3.2772203042e+00
 1.5496025774e+00	 2.6095703767e-01	 3.1595498511e+00
 1.5436195361e+00	 2.9428828687e-01	 3.0250432045e+00
 1.5368725246e+00	 3.2770394143e-01	 2.8751948363e+00
 1.2574524679e+00	 2.6812381854e-01	 3.2916087967e+00
 1.2512994142e+00	 2.9551137331e-01	 3.1807996746e+00
 1.2445059527e+00	 3.2292758131e-01	 3.0642095480e+00
 1.2370655857e+00	 3.5035140029e-01	 2.9411184472e+00
 1.2289726818e+00	 3.7776126534e-01	 2.8104304134e+00
 1.2202225165e+00	 4.0513513051e-01	 2.6721455445e+00
 1.2108113108e+00	 4.3245051375e-01	 2.5262392207e+00
 1.2007362676e+00	 4.5968454527e-01	 2.3725382100e+00
 1.1899956046e+00	 4.8681401882e-01	 2.2111180125e+00
 1.1785885847e+00	 5.1381544609e-01	 2.0423053886e+00
 1.1665155430e+00	 5.4066511378e-01	 1.8666680409e+00
 1.2853945665e+00	 2.7408185064e-01	 3.2714024981e+00
 1.2791047845e+00	 3.0207798965e-01	 3.1514840597e+00
 1.2721603642e+00	 3.3010341860e-01	 3.0252809679e+00
 1.2645546634e+00	 3.5813662766e-01	 2.8925007468e+00
 1.2562819255e+00	 3.8615557271e-01	 2.7523257114e+00
 1.2473373210e+00	 4.1413771791e-01	 2.6037594313e+00
 1.2377169871e+00	 4.4206008166e-01	 2.4464925332e+00
 1.2274180643e+00	 4.6989928595e-01	 2.2805395140e+00
 1.2164387309e+00	 4.9763160886e-01	 2.1062105292e+00
 1.2047782335e+00	 5.2523304016e-01	 1.9241139018e+00
 1.1924369143e+00	 5.5267933959e-01	 1.7351437469e+00
 1.3133366357e+00	 2.8003987648e-01	 3.2458371093e+00
 1.3069101257e+00	 3.0864459909e-01	 3.1170218108e+00
 1.2998147467e+00	 3.3727924836e-01	 2.9819149355e+00
 1.2920437122e+00	 3.6592184685e-01	 2.8407247548e+00
 1.2835911405e+00	 3.9454987126e-01	 2.6922383390e+00
 1.2744520970e+00	 4.2314029587e-01	 2.5344210028e+00
 1.2646226350e+00	 4.5166963948e-01	 2.3671016234e+00
 1.2540998330e+00	 4.8011401590e-01	 2.1904652263e+00
 1.2428818295e+00	 5.0844918755e-01	 2.0050398240e+00
 1.2309678547e+00	 5.3665062224e-01	 1.8116993353e+00
 1.2183582584e+00	 5.6469355279e-01	 1.6116494038e+00
 1.3412786789e+00	 2.8599789676e-01	 3.2142441149e+00
 1.3347154409e+00	 3.1521120241e-01	 3.0773030752e+00
 1.3274691033e+00	 3.4445507141e-01	 2.9345048577e+00
 1.3195327353e+00	 3.7370705877e-01	 2.7866077329e+00
 1.3109003299e+00	 4.0294416198e-01	 2.6308462848e+00
 1.3015668477e+00	 4.3214286542e-01	 2.4650360386e+00
 1.2915282579e+00	 4.6127918833e-01	 2.2891416496e+00
 1.2807815768e+00	 4.9032873632e-01	 2.1034981715e+00
 1.2693249034e+00	 5.1926675614e-01	 1.9088322683e+00
 1.2571574515e+00	 5.4806819366e-01	 1.7062660813e+00
 1.2442795783e+00	 5.7670775478e-01	 1.4973015768e+00
 1.3692206992e+00	 2.9195591218e-01	 3.1761002347e+00
 1.3625207334e+00	 3.2177780036e-01	 3.0322841590e+00
 1.3551234374e+00	 3.5163088861e-01	 2.8834324190e+00
 1.3470217360e+00	 3.8149226434e-01	 2.7305037603e+00
 1.3382094971e+00	 4.1133844584e-01	 2.5687007808e+00
 1.3286815763e+00	 4.4114542762e-01	 2.3963527099e+00
 1.3184338588e+00	 4.7088872934e-01	 2.2135031691e+00
 1.3074632989e+00	 5.0054344840e-01	 2.0206131283e+00
 1.2957679557e+00	 5.3008431589e-01	 1.8185860086e+00
 1.2833470268e+00	 5.5948575577e-01	 1.6087731485e+00
 1.2702008770e+00	 5.8872194696e-01	 1.3929571094e+00
 1.3971627000e+00	 2.9791392343e-01	 3.1309862204e+00
 1.3903260064e+00	 3.2834439372e-01	 2.9819473208e+00
 1.3827777522e+00	 3.5880670079e-01	 2.8290277015e+00
 1.3745107175e+00	 3.8927746445e-01	 2.6725861644e+00
 1.3655186452e+00	 4.1973272383e-01	 2.5062219057e+00
 1.3557962859e+00	 4.5014798352e-01	 2.3289600397e+00
 1.3453394409e+00	 4.8049826361e-01	 2.1408928940e+00
 1.3341450022e+00	 5.1075815332e-01	 1.9425793002e+00
 1.3222109895e+00	 5.4090186808e-01	 1.7350745565e+00
 1.3095365839e+00	 5.7090330987e-01	 1.5199382649e+00
 1.2961221575e+00	 6.0073613072e-01	 1.2992171247e+00
 1.4251046845e+00	 3.0387193120e-01	 3.0785487873e+00
 1.4181312633e+00	 3.3491098325e-01	 2.9262632330e+00
 1.4104320507e+00	 3.6598250878e-01	 2.7715315566e+00
 1.4019996829e+00	 3.9706266003e-01	 2.6129541769e+00
 1.3928277773e+00	 4.2812699692e-01	 2.4436957732e+00
 1.3829109797e+00	 4.5915053416e-01	 2.2632876967e+00
 1.3722450073e+00	 4.9010779228e-01	 2.0718355842e+00
 1.3608266900e+00	 5.2097285229e-01	 1.8699637830e+00
 1.3486540079e+00	 5.5171941395e-01	 1.6588512903e+00
 1.3357261257e+00	 5.8232085732e-01	 1.4402428631e+00
 1.3220434230e+00	 6.1275030748e-01	 1.2164319363e+00
 1.4530466559e+00	 3.0982993619e-01	 3.0184652596e+00
 1.4459365071e+00	 3.4147756971e-01	 2.8651557517e+00
 1.4380863364e+00	 3.7315831342e-01	 2.7110100279e+00
 1.4294886354e+00	 4.0484785197e-01	 2.5515973545e+00
 1.4201368967e+00	 4.3652126609e-01	 2.3812730918e+00
 1.4100256608e+00	 4.6815308061e-01	 2.1996069437e+00
 1.3991505611e+00	 4.9971731647e-01	 2.0066769249e+00
 1.3875083653e+00	 5.3118754650e-01	 1.8031358948e+00
 1.3750970139e+00	 5.6253695478e-01	 1.5902547471e+00
 1.3619156552e+00	 5.9373839945e-01	 1.3699378306e+00
 1.3479646763e+00	 6.2476447863e-01	 1.1447067446e+00
 1.4809886176e+00	 3.1578793910e-01	 2.9504105716e+00
 1.4737417412e+00	 3.4804415387e-01	 2.7984686913e+00
 1.4657406124e+00	 3.8033411554e-01	 2.6468585434e+00
 1.4569775784e+00	 4.1263304119e-01	 2.4883927330e+00
 1.4474460065e+00	 4.4491553232e-01	 2.3189689151e+00
 1.4371403325e+00	 4.7715562390e-01	 2.1380325865e+00
 1.4260561056e+00	 5.0932683729e-01	 1.9455872579e+00
 1.4141900313e+00	 5.4140223712e-01	 1.7422722556e+00
 1.4015400107e+00	 5.7335449182e-01	 1.5294145995e+00
 1.3881051756e+00	 6.0515593757e-01	 1.3090499225e+00
 1.3738859206e+00	 6.3677864558e-01	 1.0839080171e+00
 1.5089305727e+00	 3.2174594061e-01	 2.8952513174e+00
 1.5015469689e+00	 3.5461073651e-01	 2.7380615515e+00
 1.4933948820e+00	 3.8750991600e-01	 2.5830543758e+00
 1.4844665150e+00	 4.2041822859e-01	 2.4233905999e+00
 1.4747551100e+00	 4.5330979660e-01	 2.2566634300e+00
 1.4642549978e+00	 4.8615816510e-01	 2.0785257967e+00
 1.4529616437e+00	 5.1893635587e-01	 1.8885660580e+00
 1.4408716911e+00	 5.5161692537e-01	 1.6873625182e+00
 1.4279830013e+00	 5.8417202633e-01	 1.4762582299e+00
 1.4142946899e+00	 6.1657347303e-01	 1.2573887538e+00
 1.3998071588e+00	 6.4879280973e-01	 1.0336704634e+00
 1.5368725246e+00	 3.2770394143e-01	 2.8751948363e+00
 1.5293521932e+00	 3.6117731837e-01	 2.7160915028e+00
 1.5210491483e+00	 3.9468571561e-01	 2.5549857507e+00
 1.5119554483e+00	 4.2820341508e-01	 2.3853466092e+00
 1.5020642103e+00	 4.6170405990e-01	 2.2078794528e+00
 1.4913696599e+00	 4.9516070524e-01	 2.0240527583e+00
 1.4798671787e+00	 5.2854587333e-01	 1.8354470584e+00
 1.4675533477e+00	 5.6183161242e-01	 1.6382156706e+00
 1.4544259888e+00	 5.9498955959e-01	 1.4305178265e+00
 1.4404842011e+00	 6.2799100716e-01	 1.2145542954e+00
 1.4257283940e+00	 6.6080697247e-01	 9.9340453004e-01
 1.1665155430e+00	 5.4066511378e-01	 1.8666680409e+00
 1.1537769959e+00	 5.6734100251e-01	 1.6869939377e+00
 1.1403763167e+00	 5.9381723362e-01	 1.5075477208e+00
 1.1263171879e+00	 6.2006977248e-01	 1.3313001736e+00
 1.1116044334e+00	 6.4607461004e-01	 1.1612307401e+00
 1.0962440240e+00	 6.7180782952e-01	 9.9485525777e-01
 1.0802430800e+00	 6.9724567419e-01	 8.2713157211e-01
 1.0636098674e+00	 7.2236461565e-01	 6.5821338159e-01
 1.0463537905e+00	 7.4714142228e-01	 4.8832941532e-01
 1.0284853792e+00	 7.7155322752e-01	 3.1842736863e-01
 1.0100162710e+00	 7.9557759752e-01	 1.5197628651e-01
 1.1924369143e+00	 5.5267933959e-01	 1.7351437469e+00
 1.1794153015e+00	 5.7994799849e-01	 1.5421331003e+00
 1.1657168431e+00	 6.0701256314e-01	 1.3491013803e+00
 1.1513453037e+00	 6.3384846483e-01	 1.1589467293e+00
 1.1363056141e+00	 6.6043116100e-01	 9.7457958390e-01
 1.1206038781e+00	 6.8673620341e-01	 7.9881567080e-01
 1.1042473739e+00	 7.1273930743e-01	 6.3307256089e-01
 1.0872445514e+00	 7.3841642183e-01	 4.6858989266e-01
 1.0696050239e+00	 7.6374379875e-01	 3.0197991357e-01
 1.0513395551e+00	 7.8869806351e-01	 1.3378925215e-01
 1.0324600412e+00	 8.1325628377e-01	-3.2417101838e-02
 1.2183582584e+00	 5.6469355279e-01	 1.6116494038e+00
 1.2050535801e+00	 5.9255498124e-01	 1.4077290908e+00
 1.1910573429e+00	 6.2020787880e-01	 1.2036918258e+00
 1.1763733931e+00	 6.4762714272e-01	 1.0023820480e+00
 1.1610067689e+00	 6.7478769688e-01	 8.0666628913e-01
 1.1449637065e+00	 7.0166456162e-01	 6.1931485135e-01
 1.1282516426e+00	 7.2823292440e-01	 4.4286775065e-01
 1.1108792106e+00	 7.5446821115e-01	 2.7879993751e-01
 1.0928562328e+00	 7.8034615778e-01	 1.1763602629e-01
 1.0741937069e+00	 8.0584288151e-01	-4.6160505246e-02
 1.0549037878e+00	 8.3093495145e-01	-2.0927454287e-01
 1.2442795783e+00	 5.7670775478e-01	 1.4973015768e+00
 1.2306918347e+00	 6.0516195222e-01	 1.2847756857e+00
 1.2163978190e+00	 6.3340318216e-01	 1.0721862838e+00
 1.2014014592e+00	 6.6140580774e-01	 8.6234472132e-01
 1.1857079006e+00	 6.8914421937e-01	 6.5810131019e-01
 1.1693235123e+00	 7.1659290590e-01	 4.6221465361e-01
 1.1522558889e+00	 7.4372652691e-01	 2.7715430538e-01
 1.1345138478e+00	 7.7051998549e-01	 1.0091469829e-01
 1.1161074201e+00	 7.9694850133e-01	-6.5564337714e-02
 1.0970478375e+00	 8.2298768350e-01	-2.2289626331e-01
 1.0773475135e+00	 8.4861360263e-01	-3.8006752001e-01
 1.2702008770e+00	 5.8872194696e-01	 1.3929571094e+00
 1.2563300685e+00	 6.1776891290e-01	 1.1739928148e+00
 1.2417382744e+00	 6.4659847473e-01	 9.5516174637e-01
 1.2264295048e+00	 6.7518446151e-01	 7.3926454165e-01
 1.2104090122e+00	 7.0350073013e-01	 5.2916572668e-01
 1.1936832981e+00	 7.3152123799e-01	 3.2764961728e-01
 1.1762601156e+00	 7.5922011677e-01	 1.3508755844e-01
 1.1581484656e+00	 7.8657174672e-01	-5.2296145889e-02
 1.1393585883e+00	 8.1355083131e-01	-2.3074151544e-01
 1.1199019494e+00	 8.4013247148e-01	-3.9580170290e-01
 1.0997912208e+00	 8.6629223937e-01	-5.4610863870e-01
 1.2961221575e+00	 6.0073613072e-01	 1.2992171247e+00
 1.2819682843e+00	 6.3037586476e-01	 1.0758300916e+00
 1.2670787121e+00	 6.5979375807e-01	 8.5290789800e-01
 1.2514575330e+00	 6.8896310564e-01	 6.3326468726e-01
 1.2351101064e+00	 7.1785723084e-01	 4.1981254531e-01
 1.2180430669e+00	 7.4644955963e-01	 2.1515404457e-01
 1.2002643255e+00	 7.7471369578e-01	 1.4242320168e-02
 1.1817830669e+00	 8.0262349672e-01	-1.8275152631e-01
 1.1626097403e+00	 8.3015314967e-01	-3.7141727827e-01
 1.1427560452e+00	 8.5727724747e-01	-5.4722008693e-01
 1.1222349124e+00	 8.8397086374e-01	-7.0557213909e-01
 1.3220434230e+00	 6.1275030748e-01	 1.2164319363e+00
 1.3076064851e+00	 6.4298280927e-01	 9.9047130193e-01
 1.2924191350e+00	 6.7298903371e-01	 7.6543104832e-01
 1.2764855465e+00	 7.0274174173e-01	 5.4416495826e-01
 1.2598111863e+00	 7.3221372318e-01	 3.2966909475e-01
 1.2424028214e+00	 7.6137787257e-01	 1.2134582938e-01
 1.2242685214e+00	 7.9020726575e-01	-8.7280203828e-02
 1.2054176545e+00	 8.1867523735e-01	-2.9249610663e-01
 1.1858608787e+00	 8.4675545835e-01	-4.8978087014e-01
 1.1656101278e+00	 8.7442201346e-01	-6.7448654088e-01
 1.1446785910e+00	 9.0164947780e-01	-8.4191433590e-01
 1.3479646763e+00	 6.2476447863e-01	 1.1447067446e+00
 1.3332446740e+00	 6.5558974789e-01	 9.1783972467e-01
 1.3177595461e+00	 6.8618430320e-01	 6.9245893751e-01
 1.3015135484e+00	 7.1652037139e-01	 4.7148592340e-01
 1.2845122546e+00	 7.4657020882e-01	 2.5772645026e-01
 1.2667625647e+00	 7.7630617854e-01	 4.3799020654e-02
 1.2482727061e+00	 8.0570082850e-01	-1.7148660891e-01
 1.2290522309e+00	 8.3472697049e-01	-3.8367951113e-01
 1.2091120062e+00	 8.6335775928e-01	-5.8812493219e-01
 1.1884641997e+00	 8.9156677145e-01	-7.8003671023e-01
 1.1671222590e+00	 9.1932808361e-01	-9.5457795854e-01
 1.3738859206e+00	 6.3677864558e-01	 1.0839080171e+00
 1.3588828539e+00	 6.6819668211e-01	 8.5760417298e-01
 1.3430999484e+00	 6.9937956807e-01	 6.3344629913e-01
 1.3265415414e+00	 7.3029899622e-01	 4.1445385783e-01
 1.3092133143e+00	 7.6092668943e-01	 1.9995442090e-01
 1.2911222993e+00	 7.9123447928e-01	-1.9442788199e-02
 1.2722768824e+00	 8.2119438582e-01	-2.4047175823e-01
 1.2526867992e+00	 8.5077869802e-01	-4.5853595607e-01
 1.2323631257e+00	 8.7996005440e-01	-6.6882441014e-01
 1.2113182635e+00	 9.0871152343e-01	-8.6638777254e-01
 1.1895659192e+00	 9.3700668323e-01	-1.0462236543e+00
 1.3998071588e+00	 6.4879280973e-01	 1.0336704634e+00
 1.3845210278e+00	 6.8080361338e-01	 8.0918566492e-01
 1.3684403447e+00	 7.1257482986e-01	 5.8758108275e-01
 1.3515695287e+00	 7.4407761785e-01	 3.7189165165e-01
 1.3339143682e+00	 7.7528316670e-01	 1.5384170685e-01
 1.3154820283e+00	 8.0616277654e-01	-7.0409833958e-02
 1.2962810531e+00	 8.3668793953e-01	-2.9639848491e-01
 1.2763213619e+00	 8.6683042180e-01	-5.1936309335e-01
 1.2556142396e+00	 8.9656234564e-01	-7.3431465115e-01
 1.2341723221e+00	 9.2585627142e-01	-9.3611591299e-01
 1.2120095742e+00	 9.5468527873e-01	-1.1195714262e+00
 1.4257283940e+00	 6.6080697247e-01	 9.9340453004e-01
 1.4101591987e+00	 6.9341054318e-01	 7.7176464293e-01
 1.3937807380e+00	 7.2577009011e-01	 5.5379125335e-01
 1.3765975130e+00	 7.5785623786e-01	 3.3973651438e-01
 1.3586154192e+00	 7.8963964229e-01	 1.1742755046e-01
 1.3398417545e+00	 8.2109107206e-01	-1.1118619536e-01
 1.3202852210e+00	 8.5218149143e-01	-3.4147662659e-01
 1.2999559218e+00	 8.8288214371e-01	-5.6850016610e-01
 1.2788653509e+00	 9.1316463496e-01	-7.8706879309e-01
 1.2570263780e+00	 9.4300101741e-01	-9.9183307288e-01
 1.2344532266e+00	 9.7236387216e-01	-1.1773768782e+00
 1.0100162710e+00	 7.9557759752e-01	 1.5197628651e-01
 9.9095918608e-01	 8.1919260000e-01	-1.6760095038e-02
 9.7132789145e-01	 8.4237687608e-01	-1.9451325470e-01
 9.5113717752e-01	 8.6510969699e-01	-3.7815944357e-01
 9.3040282455e-01	 8.8737102298e-01	-5.6419317859e-01
 9.0914156185e-01	 9.0914156185e-01	-7.4882328046e-01
 8.8737102298e-01	 9.3040282455e-01	-9.2807750314e-01
 8.6510969699e-01	 9.5113717752e-01	-1.0979121847e+00
 8.4237687608e-01	 9.7132789145e-01	-1.2543231631e+00
 8.1919260000e-01	 9.9095918608e-01	-1.3934541480e+00
 7.9557759752e-01	 1.0100162710e+00	-1.5116988230e+00
 1.0324600412e+00	 8.1325628377e-01	-3.2417101838e-02
 1.0129794850e+00	 8.3739603985e-01	-2.0239876622e-01
 9.9291195954e-01	 8.6109549829e-01	-3.8237885144e-01
 9.7227258379e-01	 8.8433346969e-01	-5.6859079631e-01
 9.5107748868e-01	 9.0708946899e-01	-7.5683541794e-01
 9.2934377528e-01	 9.2934377528e-01	-9.4259514308e-01
 9.0708946899e-01	 9.5107748868e-01	-1.1211581145e+00
 8.8433346969e-01	 9.7227258379e-01	-1.2877480411e+00
 8.6109549829e-01	 9.9291195954e-01	-1.4376554445e+00
 8.3739603985e-01	 1.0129794850e+00	-1.5663658964e+00
 8.1325628377e-01	 1.0324600412e+00	-1.6696809328e+00
 1.0549037878e+00	 8.3093495145e-01	-2.0927454287e-01
 1.0349997609e+00	 8.5559946060e-01	-3.7742012660e-01
 1.0144960050e+00	 8.7981410085e-01	-5.5631143152e-01
 9.9340796786e-01	 9.0355722221e-01	-7.4164061745e-01
 9.7175213110e-01	 9.2680789429e-01	-9.2861258612e-01
 9.4954596750e-01	 9.4954596750e-01	-1.1120783516e+00
 9.2680789429e-01	 9.7175213110e-01	-1.2866797126e+00
 9.0355722221e-01	 9.9340796786e-01	-1.4470004816e+00
 8.7981410085e-01	 1.0144960050e+00	-1.5877192775e+00
 8.5559946060e-01	 1.0349997609e+00	-1.7037588209e+00
 8.3093495145e-01	 1.0549037878e+00	-1.7904267732e+00
 1.0773475135e+00	 8.4861360263e-01	-3.8006752001e-01
 1.0570200161e+00	 8.7380286435e-01	-5.4332914052e-01
 1.0360800302e+00	 8.9853268594e-01	-7.1789456498e-01
 1.0145433322e+00	 9.2278095678e-01	-8.9900637054e-01
 9.9242675422e-01	 9.4652630118e-01	-1.0813606799e+00
 9.6974814086e-01	 9.6974814086e-01	-1.2592608201e+00
 9.4652630118e-01	 9.9242675422e-01	-1.4267838702e+00
 9.2278095678e-01	 1.0145433322e+00	-1.5779546788e+00
 8.9853268594e-01	 1.0360800302e+00	-1.7069216540e+00
 8.7380286435e-01	 1.0570200161e+00	-1.8081285414e+00
 8.4861360263e-01	 1.0773475135e+00	-1.8764765303e+00
 1.0997912208e+00	 8.6629223937e-01	-5.4610863870e-01
 1.0790402534e+00	 8.9200625324e-01	-7.0147527528e-01
 1.0576640379e+00	 9.1725125575e-01	-8.6855999672e-01
 1.0356786793e+00	 9.4200467566e-01	-1.0422378309e+00
 1.0131013605e+00	 9.6624469197e-01	-1.2167727394e+00
 9.8995029772e-01	 9.8995029772e-01	-1.3859929265e+00
 9.6624469197e-01	 1.0131013605e+00	-1.5434808002e+00
 9.4200467566e-01	 1.0356786793e+00	-1.6827714297e+00
 9.1725125575e-01	 1.0576640379e+00	-1.7975530271e+00
 8.9200625324e-01	 1.0790402534e+00	-1.8818628807e+00
 8.6629223937e-01	 1.0997912208e+00	-1.9302723047e+00
 1.1222349124e+00	 8.8397086374e-01	-7.0557213909e-01
 1.1010604753e+00	 9.1020962939e-01	-8.5304670899e-01
 1.0792480304e+00	 9.3596981245e-01	-1.0095836714e+00
 1.0568140116e+00	 9.6122838107e-01	-1.1727352133e+00
 1.0337759522e+00	 9.8596306896e-01	-1.3363992907e+00
 1.0101524404e+00	 1.0101524404e+00	-1.4939904062e+00
 9.8596306896e-01	 1.0337759522e+00	-1.6386547602e+00
 9.6122838107e-01	 1.0568140116e+00	-1.7634950517e+00
 9.3596981245e-01	 1.0792480304e+00	-1.8617976034e+00
 9.1020962939e-01	 1.1010604753e+00	-1.9272543773e+00
 8.8397086374e-01	 1.1222349124e+00	-1.9573457822e+00
 1.1446785910e+00	 9.0164947780e-01	-8.4191433590e-01
 1.1230806843e+00	 9.2841299492e-01	-9.9581528512e-01
 1.1008320104e+00	 9.5468835823e-01	-1.1420803324e+00
 1.0779493315e+00	 9.8045207528e-01	-1.2917457796e+00
 1.0544505319e+00	 1.0056814345e+00	-1.4416471616e+00
 1.0303545714e+00	 1.0303545714e+00	-1.5848355053e+00
 1.0056814345e+00	 1.0544505319e+00	-1.7140676027e+00
 9.8045207528e-01	 1.0779493315e+00	-1.8220593180e+00
 9.5468835823e-01	 1.1008320104e+00	-1.9017415789e+00
 9.2841299492e-01	 1.1230806843e+00	-1.9500556850e+00
 9.0164947780e-01	 1.1446785910e+00	-1.9787180344e+00
 1.1671222590e+00	 9.1932808361e-01	-9.5457795854e-01
 1.1451008831e+00	 9.4661635195e-01	-1.1149953179e+00
 1.1224159803e+00	 9.7340689528e-01	-1.2643191989e+00
 1.0990846416e+00	 9.9967576051e-01	-1.4003591309e+00
 1.0751251020e+00	 1.0253997907e+00	-1.5337768879e+00
 1.0505566929e+00	 1.0505566929e+00	-1.6599766267e+00
 1.0253997907e+00	 1.0751251020e+00	-1.7713607191e+00
 9.9967576051e-01	 1.0990846416e+00	-1.8602916941e+00
 9.7340689528e-01	 1.1224159803e+00	-1.9223788880e+00
 9.4661635195e-01	 1.1451008831e+00	-1.9695306003e+00
 9.1932808361e-01	 1.1671222590e+00	-1.9981529397e+00
 1.1895659192e+00	 9.3700668323e-01	-1.0462236543e+00
 1.1671210741e+00	 9.6481970262e-01	-1.2110509795e+00
 1.1439999426e+00	 9.9212542578e-01	-1.3633608199e+00
 1.1202199443e+00	 1.0188994390e+00	-1.4979326152e+00
 1.0957996648e+00	 1.0451181401e+00	-1.6138988975e+00
 1.0707588073e+00	 1.0707588073e+00	-1.7207266676e+00
 1.0451181401e+00	 1.0957996648e+00	-1.8120555916e+00
 1.0188994390e+00	 1.1202199443e+00	-1.8817317654e+00
 9.9212542578e-01	 1.1439999426e+00	-1.9411093672e+00
 9.6481970262e-01	 1.1671210741e+00	-1.9881768052e+00
 9.3700668323e-01	 1.1895659192e+00	-2.0157756780e+00
 1.2120095742e+00	 9.5468527873e-01	-1.1195714262e+00
 1.1891412601e+00	 9.8302304903e-01	-1.2868578420e+00
 1.1655838999e+00	 1.0108439519e+00	-1.4399606551e+00
 1.1413552421e+00	 1.0381231130e+00	-1.5735351120e+00
 1.1164742228e+00	 1.0648364849e+00	-1.6824915633e+00
 1.0909609171e+00	 1.0909609171e+00	-1.7682602182e+00
 1.0648364849e+00	 1.1164742228e+00	-1.8381302112e+00
 1.0381231130e+00	 1.1413552421e+00	-1.9017250356e+00
 1.0108439519e+00	 1.1655838999e+00	-1.9599774050e+00
 9.8302304903e-01	 1.1891412601e+00	-2.0056983229e+00
 9.5468527873e-01	 1.2120095742e+00	-2.0314793427e+00
 1.2344532266e+00	 9.7236387216e-01	-1.1773768782e+00
 1.2111614434e+00	 1.0012263933e+00	-1.3453281888e+00
 1.1871678547e+00	 1.0295624759e+00	-1.4972055995e+00
 1.1624905374e+00	 1.0573467848e+00	-1.6275774989e+00
 1.1371487784e+00	 1.0845548274e+00	-1.7312931074e+00
 1.1111630244e+00	 1.1111630244e+00	-1.8036097790e+00
 1.0845548274e+00	 1.1371487784e+00	-1.8620540139e+00
 1.0573467848e+00	 1.1624905374e+00	-1.9226269086e+00
 1.0295624759e+00	 1.1871678547e+00	-1.9782957767e+00
 1.0012263933e+00	 1.2111614434e+00	-2.0216280887e+00
 9.7236387216e-01	 1.2344532266e+00	-2.0449866205e+00
 7.9557759752e-01	 1.0100162710e+00	-1.5116988230e+00
 7.7155322752e-01	 1.0284853792e+00	-1.6183198248e+00
 7.4714142228e-01	 1.0463537905e+00	-1.7216917905e+00
 7.2236461565e-01	 1.0636098674e+00	-1.8185900509e+00
 6.9724567419e-01	 1.0802430800e+00	-1.9095712600e+00
 6.7180782952e-01	 1.0962440240e+00	-1.9945797605e+00
 6.4607461004e-01	 1.1116044334e+00	-2.0733505345e+00
 6.2006977248e-01	 1.1263171879e+00	-2.1499332780e+00
 5.9381723362e-01	 1.1403763167e+00	-2.2252437603e+00
 5.6734100251e-01	 1.1537769959e+00	-2.2950664969e+00
 5.4066511378e-01	 1.1665155430e+00	-2.3552428584e+00
 8.1325628377e-01	 1.0324600412e+00	-1.6696809328e+00
 7.8869806351e-01	 1.0513395551e+00	-1.7573637297e+00
 7.6374379875e-01	 1.0696050239e+00	-1.8388577358e+00
 7.3841642183e-01	 1.0872445514e+00	-1.9103785529e+00
 7.1273930743e-01	 1.1042473739e+00	-1.9726147055e+00
 6.8673620341e-01	 1.1206038781e+00	-2.0299606072e+00
 6.6043116100e-01	 1.1363056141e+00	-2.0903210790e+00
 6.3384846483e-01	 1.1513453037e+00	-2.1512390922e+00
 6.0701256314e-01	 1.1657168431e+00	-2.2088548443e+00
 5.7994799849e-01	 1.1794153015e+00	-2.2592319936e+00
 5.5267933959e-01	 1.1924369143e+00	-2.2985147695e+00
 8.3093495145e-01	 1.0549037878e+00	-1.7904267732e+00
 8.0584288151e-01	 1.0741937069e+00	-1.8580286796e+00
 7.8034615778e-01	 1.0928562328e+00	-1.9170520439e+00
 7.5446821115e-01	 1.1108792106e+00	-1.9640883690e+00
 7.2823292440e-01	 1.1282516426e+00	-2.0047813972e+00
 7.0166456162e-01	 1.1449637065e+00	-2.0496301163e+00
 6.7478769688e-01	 1.1610067689e+00	-2.0967084047e+00
 6.4762714272e-01	 1.1763733931e+00	-2.1426315986e+00
 6.2020787880e-01	 1.1910573429e+00	-2.1837587329e+00
 5.9255498124e-01	 1.2050535801e+00	-2.2163873788e+00
 5.6469355279e-01	 1.2183582584e+00	-2.2369249674e+00
 8.4861360263e-01	 1.0773475135e+00	-1.8764765303e+00
 8.2298768350e-01	 1.0970478375e+00	-1.9228428017e+00
 7.9694850133e-01	 1.1161074201e+00	-1.9593791461e+00
 7.7051998549e-01	 1.1345138478e+00	-1.9950892789e+00
 7.4372652691e-01	 1.1522558889e+00	-2.0298174656e+00
 7.1659290590e-01	 1.1693235123e+00	-2.0627040617e+00
 6.8914421937e-01	 1.1857079006e+00	-2.0964299426e+00
 6.6140580774e-01	 1.2014014592e+00	-2.1278379771e+00
 6.3340318216e-01	 1.2163978190e+00	-2.1534533461e+00
 6.0516195222e-01	 1.2306918347e+00	-2.1697604236e+00
 5.7670775478e-01	 1.2442795783e+00	-2.1733898466e+00
 8.6629223937e-01	 1.0997912208e+00	-1.9302723047e+00
 8.4013247148e-01	 1.1199019494e+00	-1.9562653635e+00
 8.1355083131e-01	 1.1393585883e+00	-1.9868918941e+00
 7.8657174672e-01	 1.1581484656e+00	-2.0198901144e+00
 7.5922011677e-01	 1.1762601156e+00	-2.0499078280e+00
 7.3152123799e-01	 1.1936832981e+00	-2.0726109065e+00
 7.0350073013e-01	 1.2104090122e+00	-2.0928050400e+00
 6.7518446151e-01	 1.2264295048e+00	-2.1100332633e+00
 6.4659847473e-01	 1.2417382744e+00	-2.1209304467e+00
 6.1776891290e-01	 1.2563300685e+00	-2.1221184836e+00
 5.8872194696e-01	 1.2702008770e+00	-2.1104107027e+00
 8.8397086374e-01	 1.1222349124e+00	-1.9573457822e+00
 8.5727724747e-01	 1.1427560452e+00	-1.9803472935e+00
 8.3015314967e-01	 1.1626097403e+00	-2.0097889025e+00
 8.0262349672e-01	 1.1817830669e+00	-2.0400355665e+00
 7.7471369578e-01	 1.2002643255e+00	-2.0657277974e+00
 7.4644955963e-01	 1.2180430669e+00	-2.0818691154e+00
 7.1785723084e-01	 1.2351101064e+00	-2.0885799104e+00
 6.8896310564e-01	 1.2514575330e+00	-2.0918647305e+00
 6.5979375807e-01	 1.2670787121e+00	-2.0886989082e+00
 6.3037586476e-01	 1.2819682843e+00	-2.0757901129e+00
 6.0073613072e-01	 1.2961221575e+00	-2.0500931669e+00
 9.0164947780e-01	 1.1446785910e+00	-1.9787180344e+00
 8.7442201346e-01	 1.1656101278e+00	-2.0012404376e+00
 8.4675545835e-01	 1.1858608787e+00	-2.0291175227e+00
 8.1867523735e-01	 1.2054176545e+00	-2.0566529090e+00
 7.9020726575e-01	 1.2242685214e+00	-2.0784490455e+00
 7.6137787257e-01	 1.2424028214e+00	-2.0894984496e+00
 7.3221372318e-01	 1.2598111863e+00	-2.0859509057e+00
 7.0274174173e-01	 1.2764855465e+00	-2.0754748051e+00
 6.7298903371e-01	 1.2924191350e+00	-2.0588067620e+00
 6.4298280927e-01	 1.3076064851e+00	-2.0326857380e+00
 6.1275030748e-01	 1.3220434230e+00	-1.9941660109e+00
 9.1932808361e-01	 1.1671222590e+00	-1.9981529397e+00
 8.9156677145e-01	 1.1884641997e+00	-2.0195186538e+00
 8.6335775928e-01	 1.2091120062e+00	-2.0455690409e+00
 8.3472697049e-01	 1.2290522309e+00	-2.0705145940e+00
 8.0570082850e-01	 1.2482727061e+00	-2.0888897230e+00
 7.7630617854e-01	 1.2667625647e+00	-2.0956477102e+00
 7.4657020882e-01	 1.2845122546e+00	-2.0862395880e+00
 7.1652037139e-01	 1.3015135484e+00	-2.0625227150e+00
 6.8618430320e-01	 1.3177595461e+00	-2.0328621906e+00
 6.5558974789e-01	 1.3332446740e+00	-1.9943175181e+00
 6.2476447863e-01	 1.3479646763e+00	-1.9439994068e+00
 9.3700668323e-01	 1.1895659192e+00	-2.0157756780e+00
 9.0871152343e-01	 1.2113182635e+00	-2.0354615501e+00
 8.7996005440e-01	 1.2323631257e+00	-2.0595403862e+00
 8.5077869802e-01	 1.2526867992e+00	-2.0820979676e+00
 8.2119438582e-01	 1.2722768824e+00	-2.0975717580e+00
 7.9123447928e-01	 1.2911222993e+00	-2.1008494253e+00
 7.6092668943e-01	 1.3092133143e+00	-2.0873493673e+00
 7.3029899622e-01	 1.3265415414e+00	-2.0542050379e+00
 6.9937956807e-01	 1.3430999484e+00	-2.0120536047e+00
 6.6819668211e-01	 1.3588828539e+00	-1.9618184995e+00
 6.3677864558e-01	 1.3738859206e+00	-1.9006227165e+00
 9.5468527873e-01	 1.2120095742e+00	-2.0314793427e+00
 9.2585627142e-01	 1.2341723221e+00	-2.0491163123e+00
 8.9656234564e-01	 1.2556142396e+00	-2.0711944289e+00
 8.6683042180e-01	 1.2763213619e+00	-2.0916436175e+00
 8.3668793953e-01	 1.2962810531e+00	-2.1047768521e+00
 8.0616277654e-01	 1.3154820283e+00	-2.1053920068e+00
 7.7528316670e-01	 1.3339143682e+00	-2.0888535804e+00
 7.4407761785e-01	 1.3515695287e+00	-2.0511547399e+00
 7.1257482986e-01	 1.3684403447e+00	-1.9971689251e+00
 6.8080361338e-01	 1.3845210278e+00	-1.9359611572e+00
 6.4879280973e-01	 1.3998071588e+00	-1.8647418700e+00
 9.7236387216e-01	 1.2344532266e+00	-2.0449866205e+00
 9.4300101741e-01	 1.2570263780e+00	-2.0603582865e+00
 9.1316463496e-01	 1.2788653509e+00	-2.0805190489e+00
 8.8288214371e-01	 1.2999559218e+00	-2.0992125264e+00
 8.5218149143e-01	 1.3202852210e+00	-2.1106013413e+00
 8.2109107206e-01	 1.3398417545e+00	-2.1093719638e+00
 7.8963964229e-01	 1.3586154192e+00	-2.0908170705e+00
 7.5785623786e-01	 1.3765975130e+00	-2.0508961271e+00
 7.2577009011e-01	 1.3937807380e+00	-1.9886141711e+00
 6.9341054318e-01	 1.4101591987e+00	-1.9171754014e+00
 6.6080697247e-01	 1.4257283940e+00	-1.8367563871e+00
 5.4066511378e-01	 1.1665155430e+00	-2.3552428584e+00
 5.1381544609e-01	 1.1785885847e+00	-2.4098750724e+00
 4.8681401882e-01	 1.1899956046e+00	-2.4646675622e+00
 4.5968454527e-01	 1.2007362676e+00	-2.5182204723e+00
 4.3245051375e-01	 1.2108113108e+00	-2.5694983019e+00
 4.0513513051e-01	 1.2202225165e+00	-2.6178568038e+00
 3.7776126534e-01	 1.2289726818e+00	-2.6630512183e+00
 3.5035140029e-01	 1.2370655857e+00	-2.7033064773e+00
 3.2292758131e-01	 1.2445059527e+00	-2.7353674308e+00
 2.9551137331e-01	 1.2512994142e+00	-2.7619648730e+00
 2.6812381854e-01	 1.2574524679e+00	-2.7859429745e+00
 5.5267933959e-01	 1.1924369143e+00	-2.2985147695e+00
 5.2523304016e-01	 1.2047782335e+00	-2.3312203650e+00
 4.9763160886e-01	 1.2164387309e+00	-2.3633274633e+00
 4.6989928595e-01	 1.2274180643e+00	-2.3935847306e+00
 4.4206008166e-01	 1.2377169871e+00	-2.4211439002e+00
 4.1413771791e-01	 1.2473373210e+00	-2.4455853227e+00
 3.8615557271e-01	 1.2562819255e+00	-2.4669222833e+00
 3.5813662766e-01	 1.2645546634e+00	-2.4850327406e+00
 3.3010341860e-01	 1.2721603642e+00	-2.4972372466e+00
 3.0207798965e-01	 1.2791047845e+00	-2.5057293748e+00
 2.7408185064e-01	 1.2853945665e+00	-2.5134675481e+00
 5.6469355279e-01	 1.2183582584e+00	-2.2369249674e+00
 5.3665062224e-01	 1.2309678547e+00	-2.2502024949e+00
 5.0844918755e-01	 1.2428818295e+00	-2.2623643115e+00
 4.8011401590e-01	 1.2540998330e+00	-2.2722645381e+00
 4.5166963948e-01	 1.2646226350e+00	-2.2792036178e+00
 4.2314029587e-01	 1.2744520970e+00	-2.2829522496e+00
 3.9454987126e-01	 1.2835911405e+00	-2.2837512186e+00
 3.6592184685e-01	 1.2920437122e+00	-2.2822390162e+00
 3.3727924836e-01	 1.2998147467e+00	-2.2773605573e+00
 3.0864459909e-01	 1.3069101257e+00	-2.2706917920e+00
 2.8003987648e-01	 1.3133366357e+00	-2.2651729672e+00
 5.7670775478e-01	 1.2442795783e+00	-2.1733898466e+00
 5.4806819366e-01	 1.2571574515e+00	-2.1693705325e+00
 5.1926675614e-01	 1.2693249034e+00	-2.1638916711e+00
 4.9032873632e-01	 1.2807815768e+00	-2.1558755520e+00
 4.6127918833e-01	 1.2915282579e+00	-2.1447400226e+00
 4.3214286542e-01	 1.3015668477e+00	-2.1304203846e+00
 4.0294416198e-01	 1.3109003299e+00	-2.1133639799e+00
 3.7370705877e-01	 1.3195327353e+00	-2.0945008106e+00
 3.4445507141e-01	 1.3274691033e+00	-2.0745025022e+00
 3.1521120241e-01	 1.3347154409e+00	-2.0548368451e+00
 2.8599789676e-01	 1.3412786789e+00	-2.0382719092e+00
 5.8872194696e-01	 1.2702008770e+00	-2.1104107027e+00
 5.5948575577e-01	 1.2833470268e+00	-2.0909045771e+00
 5.3008431589e-01	 1.2957679557e+00	-2.0697023409e+00
 5.0054344840e-01	 1.3074632989e+00	-2.0457629659e+00
 4.7088872934e-01	 1.3184338588e+00	-2.0185977254e+00
 4.4114542762e-01	 1.3286815763e+00	-1.9882894633e+00
 4.1133844584e-01	 1.3382094971e+00	-1.9554809889e+00
 3.8149226434e-01	 1.3470217360e+00	-1.9213365051e+00
 3.5163088861e-01	 1.3551234374e+00	-1.8874896222e+00
 3.2177780036e-01	 1.3625207334e+00	-1.8563002538e+00
 2.9195591218e-01	 1.3692206992e+00	-1.8302220340e+00
 6.0073613072e-01	 1.2961221575e+00	-2.0500931669e+00
 5.7090330987e-01	 1.3095365839e+00	-2.0166323704e+00
 5.4090186808e-01	 1.3222109895e+00	-1.9812814085e+00
 5.1075815332e-01	 1.3341450022e+00	-1.9430103073e+00
 4.8049826361e-01	 1.3453394409e+00	-1.9014072636e+00
 4.5014798352e-01	 1.3557962859e+00	-1.8566945251e+00
 4.1973272383e-01	 1.3655186452e+00	-1.8097094355e+00
 3.8927746445e-01	 1.3745107175e+00	-1.7618551945e+00
 3.5880670079e-01	 1.3827777522e+00	-1.7151655254e+00
 3.2834439372e-01	 1.3903260064e+00	-1.6733197626e+00
 2.9791392343e-01	 1.3971627000e+00	-1.6386720991e+00
 6.1275030748e-01	 1.3220434230e+00	-1.9941660109e+00
 5.8232085732e-01	 1.3357261257e+00	-1.9480456393e+00
 5.5171941395e-01	 1.3486540079e+00	-1.8998194500e+00
 5.2097285229e-01	 1.3608266900e+00	-1.8484488502e+00
 4.9010779228e-01	 1.3722450073e+00	-1.7935901281e+00
 4.5915053416e-01	 1.3829109797e+00	-1.7356059967e+00
 4.2812699692e-01	 1.3928277773e+00	-1.6755379146e+00
 3.9706266003e-01	 1.4019996829e+00	-1.6150444522e+00
 3.6598250878e-01	 1.4104320507e+00	-1.5563502502e+00
 3.3491098325e-01	 1.4181312633e+00	-1.5041905984e+00
 3.0387193120e-01	 1.4251046845e+00	-1.4614132747e+00
 6.2476447863e-01	 1.3479646763e+00	-1.9439994068e+00
 5.9373839945e-01	 1.3619156552e+00	-1.8863162025e+00
 5.6253695478e-01	 1.3750970139e+00	-1.8262258546e+00
 5.3118754650e-01	 1.3875083653e+00	-1.7626675627e+00
 4.9971731647e-01	 1.3991505611e+00	-1.6953647770e+00
 4.6815308061e-01	 1.4100256608e+00	-1.6248312617e+00
 4.3652126609e-01	 1.4201368967e+00	-1.5523330843e+00
 4.0484785197e-01	 1.4294886354e+00	-1.4798126058e+00
 3.7315831342e-01	 1.4380863364e+00	-1.4097813351e+00
 3.4147756971e-01	 1.4459365071e+00	-1.3472247660e+00
 3.0982993619e-01	 1.4530466559e+00	-1.2963349571e+00
 6.3677864558e-01	 1.3738859206e+00	-1.9006227165e+00
 6.0515593757e-01	 1.3881051756e+00	-1.8323118746e+00
 5.7335449182e-01	 1.4015400107e+00	-1.7611422583e+00
 5.4140223712e-01	 1.4141900313e+00	-1.6860235176e+00
 5.0932683729e-01	 1.4260561056e+00	-1.6067535075e+00
 4.7715562390e-01	 1.4371403325e+00	-1.5240175177e+00
 4.4491553232e-01	 1.4474460065e+00	-1.4393380791e+00
 4.1263304119e-01	 1.4569775784e+00	-1.3549823214e+00
 3.8033411554e-01	 1.4657406124e+00	-1.2738347209e+00
 3.4804415387e-01	 1.4737417412e+00	-1.2007136721e+00
 3.1578793910e-01	 1.4809886176e+00	-1.1413844897e+00
 6.4879280973e-01	 1.3998071588e+00	-1.8647418700e+00
 6.1657347303e-01	 1.4142946899e+00	-1.7866121931e+00
 5.8417202633e-01	 1.4279830013e+00	-1.7049560725e+00
 5.5161692537e-01	 1.4408716911e+00	-1.6186527071e+00
 5.1893635587e-01	 1.4529616437e+00	-1.5275900747e+00
 4.8615816510e-01	 1.4642549978e+00	-1.4326557564e+00
 4.5330979660e-01	 1.4747551100e+00	-1.3356724502e+00
 4.2041822859e-01	 1.4844665150e+00	-1.2396128329e+00
 3.8750991600e-01	 1.4933948820e+00	-1.1519145544e+00
 3.5461073651e-01	 1.5015469689e+00	-1.0767260857e+00
 3.2174594061e-01	 1.5089305727e+00	-1.0187112801e+00
 6.6080697247e-01	 1.4257283940e+00	-1.8367563871e+00
 6.2799100716e-01	 1.4404842011e+00	-1.7495239918e+00
 5.9498955959e-01	 1.4544259888e+00	-1.6578140973e+00
 5.6183161242e-01	 1.4675533477e+00	-1.5604812103e+00
 5.2854587333e-01	 1.4798671787e+00	-1.4575279623e+00
 4.9516070524e-01	 1.4913696599e+00	-1.3536467966e+00
 4.6170405990e-01	 1.5020642103e+00	-1.2559739394e+00
 4.2820341508e-01	 1.5119554483e+00	-1.1655354469e+00
 3.9468571561e-01	 1.5210491483e+00	-1.0833449256e+00
 3.6117731837e-01	 1.5293521932e+00	-1.0107689576e+00
 3.2770394143e-01	 1.5368725246e+00	-9.5226134028e-01
 2.6812381854e-01	 1.2574524679e+00	-2.7859429745e+00
 2.4078349159e-01	 1.2629727998e+00	-2.8041331176e+00
 2.1351222420e-01	 1.2678680593e+00	-2.8136770381e+00
 1.8632930621e-01	 1.2721470837e+00	-2.8175200578e+00
 1.5925337168e-01	 1.2758193973e+00	-2.8183334866e+00
 1.3230237499e-01	 1.2788951650e+00	-2.8185522869e+00
 1.0549357045e-01	 1.2813851443e+00	-2.8204172753e+00
 7.8843495295e-02	 1.2833006375e+00	-2.8260189419e+00
 5.2367956136e-02	 1.2846534440e+00	-2.8373403547e+00
 2.6082018573e-02	 1.2854558131e+00	-2.8562970515e+00
 0.0000000000e+00	 1.2857203969e+00	-2.8847722500e+00
 2.7408185064e-01	 1.2853945665e+00	-2.5134675481e+00
 2.4613398891e-01	 1.2910375667e+00	-2.5166020520e+00
 2.1825672133e-01	 1.2960416048e+00	-2.5118014665e+00
 1.9046976637e-01	 1.3004157142e+00	-2.5023031564e+00
 1.6279217217e-01	 1.3041696310e+00	-2.4910089034e+00
 1.3524229208e-01	 1.3073137459e+00	-2.4805361978e+00
 1.0783776382e-01	 1.3098590555e+00	-2.4732737496e+00
 8.0595492109e-02	 1.3118171133e+00	-2.4714378851e+00
 5.3531634788e-02	 1.3131999808e+00	-2.4771269698e+00
 2.6661592237e-02	 1.3140201795e+00	-2.4923714918e+00
 0.0000000000e+00	 1.3142906426e+00	-2.5191779503e+00
 2.8003987648e-01	 1.3133366357e+00	-2.2651729672e+00
 2.5148448061e-01	 1.3191023042e+00	-2.2562190885e+00
 2.2300121347e-01	 1.3242151207e+00	-2.2400127421e+00
 1.9461022218e-01	 1.3286843150e+00	-2.2200074136e+00
 1.6633096894e-01	 1.3325198349e+00	-2.1992648457e+00
 1.3818220609e-01	 1.3357322970e+00	-2.1805218099e+00
 1.1018195474e-01	 1.3383329369e+00	-2.1662605778e+00
 8.2347487083e-02	 1.3403335592e+00	-2.1587793226e+00
 5.4695312217e-02	 1.3417464877e+00	-2.1602592277e+00
 2.7241165292e-02	 1.3425845159e+00	-2.1728256608e+00
 0.0000000000e+00	 1.3428608584e+00	-2.1986013598e+00
 2.8599789676e-01	 1.3412786789e+00	-2.0382719092e+00
 2.5683496732e-01	 1.3471670155e+00	-2.0194859071e+00
 2.2774570118e-01	 1.3523886103e+00	-1.9942114425e+00
 1.9875067412e-01	 1.3569528895e+00	-1.9660289850e+00
 1.6986976242e-01	 1.3608700124e+00	-1.9380763568e+00
 1.4112211735e-01	 1.3641508216e+00	-1.9131330841e+00
 1.1252614346e-01	 1.3668067917e+00	-1.8937077139e+00
 8.4099480422e-02	 1.3688499785e+00	-1.8821238469e+00
 5.5858988561e-02	 1.3702929679e+00	-1.8806012810e+00
 2.7820737806e-02	 1.3711488257e+00	-1.8913293230e+00
 0.0000000000e+00	 1.3714310475e+00	-1.9165300124e+00
 2.9195591218e-01	 1.3692206992e+00	-1.8302220340e+00
 2.6218544965e-01	 1.3752317039e+00	-1.8032414143e+00
 2.3249018502e-01	 1.3805620769e+00	-1.7707200357e+00
 2.0289112268e-01	 1.3852214408e+00	-1.7362622375e+00
 1.7340855300e-01	 1.3892201668e+00	-1.7029839646e+00
 1.4406202621e-01	 1.3925693230e+00	-1.6736170605e+00
 1.1487033027e-01	 1.3952806233e+00	-1.6506155509e+00
 8.5851472330e-02	 1.3973663744e+00	-1.6362591510e+00
 5.7022663954e-02	 1.3988394247e+00	-1.6327499730e+00
 2.8400309847e-02	 1.3997131121e+00	-1.6422991791e+00
 0.0000000000e+00	 1.4000012133e+00	-1.6672011053e+00
 2.9791392343e-01	 1.3971627000e+00	-1.6386720991e+00
 2.6753592825e-01	 1.4032963726e+00	-1.6046031707e+00
 2.3723466554e-01	 1.4087355238e+00	-1.5662203028e+00
 2.0703156835e-01	 1.4134899724e+00	-1.5270338112e+00
 1.7694734110e-01	 1.4175703013e+00	-1.4900249858e+00
 1.4700193302e-01	 1.4209878045e+00	-1.4577729627e+00
 1.1721451544e-01	 1.4237544349e+00	-1.4325823449e+00
 8.7603463011e-02	 1.4258827505e+00	-1.4166062466e+00
 5.8186338532e-02	 1.4273858616e+00	-1.4119602854e+00
 2.8979881482e-02	 1.4282773786e+00	-1.4208239374e+00
 0.0000000000e+00	 1.4285713591e+00	-1.4455265516e+00
 3.0387193120e-01	 1.4251046845e+00	-1.4614132747e+00
 2.7288640372e-01	 1.4313610249e+00	-1.4209147519e+00
 2.4197914329e-01	 1.4369089542e+00	-1.3776973437e+00
 2.1117201160e-01	 1.4417584875e+00	-1.3350438249e+00
 1.8048612714e-01	 1.4459204192e+00	-1.2956724473e+00
 1.4994183810e-01	 1.4494062694e+00	-1.2618893125e+00
 1.1955869924e-01	 1.4522282299e+00	-1.2357399595e+00
 8.9355452671e-02	 1.4543991099e+00	-1.2191542363e+00
 5.9350012432e-02	 1.4559322819e+00	-1.2140794973e+00
 2.9559452779e-02	 1.4568416283e+00	-1.2225981832e+00
 0.0000000000e+00	 1.4571414882e+00	-1.2470268479e+00
 3.0982993619e-01	 1.4530466559e+00	-1.2963349571e+00
 2.7823687669e-01	 1.4594256642e+00	-1.2496982472e+00
 2.4672361882e-01	 1.4650823715e+00	-1.2023892777e+00
 2.1531245291e-01	 1.4700269894e+00	-1.1573132616e+00
 1.8402491153e-01	 1.4742705239e+00	-1.1167806002e+00
 1.5288174182e-01	 1.4778247211e+00	-1.0826879765e+00
 1.2190288195e-01	 1.4807020116e+00	-1.0566968110e+00
 9.1107441513e-02	 1.4829154559e+00	-1.0404242710e+00
 6.0513685788e-02	 1.4844786888e+00	-1.0355628096e+00
 3.0139023805e-02	 1.4854058648e+00	-1.0439610883e+00
 0.0000000000e+00	 1.4857116040e+00	-1.0678614232e+00
 3.1578793910e-01	 1.4809886176e+00	-1.1413844897e+00
 2.8358734779e-01	 1.4874902936e+00	-1.0896694010e+00
 2.5146809269e-01	 1.4932557789e+00	-1.0413791744e+00
 2.1945289278e-01	 1.4982954814e+00	-9.9762048122e-01
 1.8756369468e-01	 1.5026206188e+00	-9.5927452855e-01
 1.5582164450e-01	 1.5062431628e+00	-9.2722809508e-01
 1.2424706384e-01	 1.5091757834e+00	-9.0253387942e-01
 9.2859429741e-02	 1.5114317920e+00	-8.8652115134e-01
 6.1677358737e-02	 1.5130250857e+00	-8.8086885878e-01
 3.0718594629e-02	 1.5139700912e+00	-8.8765216552e-01
 0.0000000000e+00	 1.5142817098e+00	-9.0937199226e-01
 3.2174594061e-01	 1.5089305727e+00	-1.0187112801e+00
 2.8893781764e-01	 1.5155549165e+00	-9.6942550722e-01
 2.5621256546e-01	 1.5214291798e+00	-9.2307509009e-01
 2.2359333168e-01	 1.5265639668e+00	-8.8028005632e-01
 1.9110247700e-01	 1.5309707069e+00	-8.4167106092e-01
 1.5876154650e-01	 1.5346615979e+00	-8.0807910577e-01
 1.2659124518e-01	 1.5376495485e+00	-7.8065920748e-01
 9.4611417561e-02	 1.5399481215e+00	-7.6096304399e-01
 6.2841031415e-02	 1.5415714760e+00	-7.5097452019e-01
 3.1298165318e-02	 1.5425343110e+00	-7.5312075650e-01
 0.0000000000e+00	 1.5428518089e+00	-7.7026932741e-01
 3.2770394143e-01	 1.5368725246e+00	-9.5226134028e-01
 2.9428828687e-01	 1.5436195361e+00	-9.0089935606e-01
 2.6095703767e-01	 1.5496025774e+00	-8.5179363609e-01
 2.2773377010e-01	 1.5548324489e+00	-8.0515235358e-01
 1.9464125891e-01	 1.5593207918e+00	-7.6145276743e-01
 1.6170144816e-01	 1.5630800297e+00	-7.2158977270e-01
 1.2893542625e-01	 1.5661233103e+00	-6.8695514865e-01
 9.6363405176e-02	 1.5684644476e+00	-6.5946476445e-01
 6.4004703957e-02	 1.5701178630e+00	-6.4154965292e-01
 3.1877735938e-02	 1.5710985275e+00	-6.3612513621e-01
 0.0000000000e+00	 1.5714219047e+00	-6.4655020187e-01
 1.5714219047e+00	 0.0000000000e+00	 3.6579395833e+00
 1.5710985275e+00	 3.1877735938e-02	 3.6390821644e+00
 1.5701178630e+00	 6.4004703957e-02	 3.6126563552e+00
 1.5684644476e+00	 9.6363405176e-02	 3.5756234655e+00
 1.5661233103e+00	 1.2893542625e-01	 3.5253529780e+00
 1.5630800297e+00	 1.6170144816e-01	 3.4597339121e+00
 1.5593207918e+00	 1.9464125891e-01	 3.3772805377e+00
 1.5548324489e+00	 2.2773377010e-01	 3.2772203042e+00
 1.5496025774e+00	 2.6095703767e-01	 3.1595498511e+00
 1.5436195361e+00	 2.9428828687e-01	 3.0250432045e+00
 1.5368725246e+00	 3.2770394143e-01	 2.8751948363e+00
 1.5999939988e+00	 0.0000000000e+00	 3.5939799828e+00
 1.5996647418e+00	 3.2457347097e-02	 3.5816010108e+00
 1.5986662466e+00	 6.5168457892e-02	 3.5622328226e+00
 1.5969827683e+00	 9.8115515334e-02	 3.5323676384e+00
 1.5945990637e+00	 1.3127977128e-01	 3.4889342522e+00
 1.5915004492e+00	 1.6464155545e-01	 3.4294532330e+00
 1.5876728597e+00	 1.9818028834e-01	 3.3521909459e+00
 1.5831029083e+00	 2.3187449812e-01	 3.2562988625e+00
 1.5777779455e+00	 2.6570184174e-01	 3.1419223073e+00
 1.5716861187e+00	 2.9963913033e-01	 3.0102607074e+00
 1.5648164309e+00	 3.3366235898e-01	 2.8635597054e+00
 1.6285660863e+00	 0.0000000000e+00	 3.5363465839e+00
 1.6282309496e+00	 3.3036958121e-02	 3.5268023611e+00
 1.6272146236e+00	 6.6332211556e-02	 3.5106641689e+00
 1.6255010824e+00	 9.9867625083e-02	 3.4841726661e+00
 1.6230748105e+00	 1.3362411576e-01	 3.4440140952e+00
 1.6199208620e+00	 1.6758166205e-01	 3.3875223143e+00
 1.6160249209e+00	 2.0171931695e-01	 3.3128848659e+00
 1.6113733610e+00	 2.3601522517e-01	 3.2193380613e+00
 1.6059533071e+00	 2.7044664470e-01	 3.1073333794e+00
 1.5997526948e+00	 3.0498997255e-01	 2.9786550489e+00
 1.5927603307e+00	 3.3962077514e-01	 2.8364666624e+00
 1.6571381604e+00	 0.0000000000e+00	 3.4831967059e+00
 1.6567971439e+00	 3.3616568874e-02	 3.4739054596e+00
 1.6557629872e+00	 6.7495964676e-02	 3.4582229454e+00
 1.6540193831e+00	 1.0161973402e-01	 3.4323166627e+00
 1.6515505439e+00	 1.3596845915e-01	 3.3927865740e+00
 1.6483412616e+00	 1.7052176728e-01	 3.3369175061e+00
 1.6443769689e+00	 2.0525834390e-01	 3.2629416428e+00
 1.6396438006e+00	 2.4015595030e-01	 3.1702944983e+00
 1.6341286556e+00	 2.7519144544e-01	 3.0598446811e+00
 1.6278192577e+00	 3.1034081227e-01	 2.9340749477e+00
 1.6207042174e+00	 3.4557918852e-01	 2.7971896721e+00
 1.6857102146e+00	 0.0000000000e+00	 3.4329505795e+00
 1.6853633183e+00	 3.4196179222e-02	 3.4222484440e+00
 1.6843113309e+00	 6.8659716982e-02	 3.4051773954e+00
 1.6825376639e+00	 1.0337184172e-01	 3.3779707673e+00
 1.6800262575e+00	 1.3831280090e-01	 3.3372561616e+00
 1.6767616413e+00	 1.7346187046e-01	 3.2803623215e+00
 1.6727289970e+00	 2.0879736838e-01	 3.2056430845e+00
 1.6679142204e+00	 2.4429667252e-01	 3.1128001077e+00
 1.6623039843e+00	 2.7993624286e-01	 3.0031825366e+00
 1.6558858011e+00	 3.1569164824e-01	 2.8800385638e+00
 1.6486480846e+00	 3.5153759773e-01	 2.7486910540e+00
 1.7142822420e+00	 0.0000000000e+00	 3.3842694265e+00
 1.7139294661e+00	 3.4775789029e-02	 3.3712748863e+00
 1.7128596479e+00	 6.9823468202e-02	 3.3517861403e+00
 1.7110559180e+00	 1.0512394779e-01	 3.3222015081e+00
 1.7085019444e+00	 1.4065714046e-01	 3.2792471562e+00
 1.7051819945e+00	 1.7640197088e-01	 3.2203431281e+00
 1.7010809987e+00	 2.1233638955e-01	 3.1439944782e+00
 1.6961846138e+00	 2.4843739088e-01	 3.0501873859e+00
 1.6904792867e+00	 2.8468103585e-01	 2.9407661326e+00
 1.6839523182e+00	 3.2104247922e-01	 2.8197631267e+00
 1.6765919256e+00	 3.5749600138e-01	 2.6936509700e+00
 1.7428542361e+00	 0.0000000000e+00	 3.3360356958e+00
 1.7424955805e+00	 3.5355398160e-02	 3.3205216808e+00
 1.7414079316e+00	 7.0987218065e-02	 3.2982934772e+00
 1.7395741389e+00	 1.0687605182e-01	 3.2659731266e+00
 1.7369775981e+00	 1.4300147729e-01	 3.2204125029e+00
 1.7336023145e+00	 1.7934206788e-01	 3.1591237880e+00
 1.7294329673e+00	 2.1587540659e-01	 3.0807442130e+00
 1.7244549742e+00	 2.5257810441e-01	 2.9855130073e+00
 1.7186545563e+00	 2.8942582331e-01	 2.8757339768e+00
 1.7120188025e+00	 3.2639330396e-01	 2.7561929272e+00
 1.7045357341e+00	 3.6345439808e-01	 2.6344954839e+00
 1.7714261903e+00	 0.0000000000e+00	 3.2873352123e+00
 1.7710616549e+00	 3.5935006479e-02	 3.2696081279e+00
 1.7699561753e+00	 7.2150966298e-02	 3.2449252188e+00
 1.7680923199e+00	 1.0862815339e-01	 3.2101498649e+00
 1.7654532120e+00	 1.4534581083e-01	 3.1622420836e+00
 1.7620225948e+00	 1.8228216077e-01	 3.0987593623e+00
 1.7577848962e+00	 2.1941441868e-01	 3.0184021678e+00
 1.7527252950e+00	 2.5671881214e-01	 2.9215800118e+00
 1.7468297864e+00	 2.9417060413e-01	 2.8109688529e+00
 1.7400852476e+00	 3.3174412121e-01	 2.6920258585e+00
 1.7324795035e+00	 3.6941278643e-01	 2.5734233567e+00
 1.7999980977e+00	 0.0000000000e+00	 3.2374410266e+00
 1.7996276826e+00	 3.6514613852e-02	 3.2182260794e+00
 1.7985043724e+00	 7.3314712632e-02	 3.1918850148e+00
 1.7966104543e+00	 1.1038025210e-01	 3.1554982215e+00
 1.7939287794e+00	 1.4769014055e-01	 3.1060705354e+00
 1.7904428286e+00	 1.8522224885e-01	 3.0411089868e+00
 1.7861367788e+00	 2.2295342499e-01	 2.9592569997e+00
 1.7809955697e+00	 2.6085951311e-01	 2.8609587220e+00
 1.7750049704e+00	 2.9891537720e-01	 2.7491214406e+00
 1.7681516468e+00	 3.3709492972e-01	 2.6297386672e+00
 1.7604232272e+00	 3.7537116506e-01	 2.5124035243e+00
 1.8285699519e+00	 0.0000000000e+00	 3.1857987794e+00
 1.8281936571e+00	 3.7094220143e-02	 3.1661310292e+00
 1.8270525163e+00	 7.4478456793e-02	 3.1393511035e+00
 1.8251285354e+00	 1.1213234755e-01	 3.1026891786e+00
 1.8224042936e+00	 1.5003446589e-01	 3.0530846479e+00
 1.8188630094e+00	 1.8816233144e-01	 2.9878480075e+00
 1.8144886085e+00	 2.2649242470e-01	 2.9053924544e+00
 1.8092657916e+00	 2.6500020635e-01	 2.8060065309e+00
 1.8031801019e+00	 3.0366014141e-01	 2.6926327449e+00
 1.7962179937e+00	 3.4244572824e-01	 2.5716110550e+00
 1.7883668988e+00	 3.8132953256e-01	 2.4532848564e+00
 1.8571417460e+00	 0.0000000000e+00	 3.1355673442e+00
 1.8567595715e+00	 3.7673825218e-02	 3.1159991149e+00
 1.8556006001e+00	 7.5642198511e-02	 3.0890084399e+00
 1.8536465567e+00	 1.1388443931e-01	 3.0526128810e+00
 1.8508797480e+00	 1.5237878631e-01	 3.0043303858e+00
 1.8472831305e+00	 1.9110240786e-01	 2.9404794567e+00
 1.8428403787e+00	 2.3003141697e-01	 2.8587028026e+00
 1.8375359541e+00	 2.6914089089e-01	 2.7588866786e+00
 1.8313551743e+00	 3.0840489565e-01	 2.6437554636e+00
 1.8242842816e+00	 3.4779651552e-01	 2.5197487551e+00
 1.8163105116e+00	 3.8728788755e-01	 2.3978727628e+00
 1.5368725246e+00	 3.2770394143e-01	 2.8751948363e+00
 1.5293521932e+00	 3.6117731837e-01	 2.7160915028e+00
 1.5210491483e+00	 3.9468571561e-01	 2.5549857507e+00
 1.5119554483e+00	 4.2820341508e-01	 2.3853466092e+00
 1.5020642103e+00	 4.6170405990e-01	 2.2078794528e+00
 1.4913696599e+00	 4.9516070524e-01	 2.0240527583e+00
 1.4798671787e+00	 5.2854587333e-01	 1.8354470584e+00
 1.4675533477e+00	 5.6183161242e-01	 1.6382156706e+00
 1.4544259888e+00	 5.9498955959e-01	 1.4305178265e+00
 1.4404842011e+00	 6.2799100716e-01	 1.2145542954e+00
 1.4257283940e+00	 6.6080697247e-01	 9.9340453004e-01
 1.5648164309e+00	 3.3366235898e-01	 2.8635597054e+00
 1.5571593625e+00	 3.6774435953e-01	 2.7065731159e+00
 1.5487053489e+00	 4.0186201714e-01	 2.5423781761e+00
 1.5394463044e+00	 4.3598914611e-01	 2.3661054800e+00
 1.5293752207e+00	 4.7009891033e-01	 2.1795362461e+00
 1.5184862186e+00	 5.0416387507e-01	 1.9847317059e+00
 1.5067745956e+00	 5.3815606293e-01	 1.7839570960e+00
 1.4942368706e+00	 5.7204701394e-01	 1.5796639866e+00
 1.4808708259e+00	 6.0580784948e-01	 1.3744790846e+00
 1.4666755442e+00	 6.3940933990e-01	 1.1652437092e+00
 1.4516514423e+00	 6.7282197555e-01	 9.5013649368e-01
 1.5927603307e+00	 3.3962077514e-01	 2.8364666624e+00
 1.5849665252e+00	 3.7431139917e-01	 2.6838690328e+00
 1.5763615431e+00	 4.0903831699e-01	 2.5189428588e+00
 1.5669371540e+00	 4.4377487532e-01	 2.3393490638e+00
 1.5566862247e+00	 4.7849375880e-01	 2.1473689401e+00
 1.5456027710e+00	 5.1316704279e-01	 1.9455403138e+00
 1.5336820062e+00	 5.4776625029e-01	 1.7366089110e+00
 1.5209203873e+00	 5.8226241308e-01	 1.5234950747e+00
 1.5073156568e+00	 6.1662613684e-01	 1.3092812317e+00
 1.4928668811e+00	 6.5082766996e-01	 1.0972247219e+00
 1.4775744845e+00	 6.8483697582e-01	 8.9040937399e-01
 1.6207042174e+00	 3.4557918852e-01	 2.7971896721e+00
 1.6127736749e+00	 3.8087843573e-01	 2.6500677318e+00
 1.6040177244e+00	 4.1621461350e-01	 2.4864608383e+00
 1.5944279908e+00	 4.5156060089e-01	 2.3061154109e+00
 1.5839972160e+00	 4.8688860336e-01	 2.1116759113e+00
 1.5727193107e+00	 5.2217020632e-01	 1.9060601512e+00
 1.5605894043e+00	 5.5737643316e-01	 1.6923915078e+00
 1.5476038916e+00	 5.9247780745e-01	 1.4739493549e+00
 1.5337604754e+00	 6.2744441916e-01	 1.2541439810e+00
 1.5190582058e+00	 6.6224599470e-01	 1.0365213708e+00
 1.5034975146e+00	 6.9685197049e-01	 8.2480201703e-01
 1.6486480846e+00	 3.5153759773e-01	 2.7486910540e+00
 1.6405808052e+00	 3.8744546770e-01	 2.6074085287e+00
 1.6316738862e+00	 4.2339090498e-01	 2.4465174441e+00
 1.6219188084e+00	 4.5934632102e-01	 2.2672745829e+00
 1.6113081882e+00	 4.9528344204e-01	 2.0726163820e+00
 1.5998358314e+00	 5.3117336354e-01	 1.8657632214e+00
 1.5874967835e+00	 5.6698660931e-01	 1.6501311282e+00
 1.5742873771e+00	 6.0269319467e-01	 1.4292650154e+00
 1.5602052755e+00	 6.3826269391e-01	 1.2068006818e+00
 1.5452495122e+00	 6.7366431145e-01	 9.8646178683e-01
 1.5294205266e+00	 7.0886695675e-01	 7.7209664352e-01
 1.6765919256e+00	 3.5749600138e-01	 2.6936509700e+00
 1.6683879096e+00	 3.9401249355e-01	 2.5579708081e+00
 1.6593300223e+00	 4.3056718976e-01	 2.4005176038e+00
 1.6494096003e+00	 4.6713203388e-01	 2.2235429228e+00
 1.6386191349e+00	 5.0367827289e-01	 2.0302240745e+00
 1.6269523269e+00	 5.4017651236e-01	 1.8240254833e+00
 1.6144041377e+00	 5.7659677648e-01	 1.6085882465e+00
 1.6009708378e+00	 6.1290857236e-01	 1.3876450375e+00
 1.5866500508e+00	 6.4908095856e-01	 1.1649686235e+00
 1.5714407942e+00	 6.8508261754e-01	 9.4436112851e-01
 1.5553435143e+00	 7.2088193179e-01	 7.2968962673e-01
 1.7045357341e+00	 3.6345439808e-01	 2.6344954839e+00
 1.6961949815e+00	 4.0057951173e-01	 2.5036441526e+00
 1.6869861261e+00	 4.3774346617e-01	 2.3497002907e+00
 1.6769003602e+00	 4.7491773766e-01	 2.1754967355e+00
 1.6659300497e+00	 5.1207309394e-01	 1.9844205263e+00
 1.6540687907e+00	 5.4917965068e-01	 1.7801402590e+00
 1.6413114604e+00	 5.8620693245e-01	 1.5664715816e+00
 1.6276542673e+00	 6.2312393813e-01	 1.3472723712e+00
 1.6130947954e+00	 6.5989921058e-01	 1.1263770080e+00
 1.5976320456e+00	 6.9650091031e-01	 9.0757787885e-01
 1.5812664719e+00	 7.3289689282e-01	 6.9466050011e-01
 1.7324795035e+00	 3.6941278643e-01	 2.5734233567e+00
 1.7240020144e+00	 4.0714652071e-01	 2.4461428914e+00
 1.7146421912e+00	 4.4491973254e-01	 2.2951522111e+00
 1.7043910815e+00	 4.8270343054e-01	 2.1235854439e+00
 1.6932409263e+00	 5.2046790324e-01	 1.9350281022e+00
 1.6811852165e+00	 5.5818277639e-01	 1.7333315410e+00
 1.6682187455e+00	 5.9581707496e-01	 1.5224521824e+00
 1.6543376594e+00	 6.3333928959e-01	 1.3063253253e+00
 1.6395395029e+00	 6.7071744746e-01	 1.0887842115e+00
 1.6238232603e+00	 7.0791918710e-01	 8.7353357441e-01
 1.6071893931e+00	 7.4491183702e-01	 6.6402005322e-01
 1.7604232272e+00	 3.7537116506e-01	 2.5124035243e+00
 1.7518090020e+00	 4.1371351897e-01	 2.3870197514e+00
 1.7422982112e+00	 4.5209598718e-01	 2.2378208127e+00
 1.7318817580e+00	 4.9048911070e-01	 2.0681442793e+00
 1.7205517583e+00	 5.2886269883e-01	 1.8817827388e+00
 1.7083015980e+00	 5.6718588740e-01	 1.6827672091e+00
 1.6951259866e+00	 6.0542720177e-01	 1.4751775790e+00
 1.6810210080e+00	 6.4355462437e-01	 1.2629931518e+00
 1.6659841672e+00	 6.8153566668e-01	 1.0499953327e+00
 1.6500144322e+00	 7.1933744523e-01	 8.3973287895e-01
 1.6331122720e+00	 7.5692676161e-01	 6.3321276378e-01
 1.7883668988e+00	 3.8132953256e-01	 2.4532848564e+00
 1.7796159376e+00	 4.2028050498e-01	 2.3276787076e+00
 1.7699541795e+00	 4.5927222843e-01	 2.1785266910e+00
 1.7593723831e+00	 4.9827477633e-01	 2.0094065564e+00
 1.7478625393e+00	 5.3725747875e-01	 1.8243464496e+00
 1.7354179289e+00	 5.7618898160e-01	 1.6275721673e+00
 1.7220331775e+00	 6.1503731065e-01	 1.4232859915e+00
 1.7077043068e+00	 6.5376994009e-01	 1.2154918012e+00
 1.6924287821e+00	 6.9235386569e-01	 1.0078799979e+00
 1.6762055553e+00	 7.3075568205e-01	 8.0378396442e-01
 1.6590351025e+00	 7.6894166376e-01	 5.9946737834e-01
 1.8163105116e+00	 3.8728788755e-01	 2.3978727628e+00
 1.8074228149e+00	 4.2684747719e-01	 2.2693871193e+00
 1.7976100897e+00	 4.6644845461e-01	 2.1179754554e+00
 1.7868629505e+00	 5.0606042561e-01	 1.9475155784e+00
 1.7751732630e+00	 5.4565224104e-01	 1.7623196161e+00
 1.7625342029e+00	 5.8519205690e-01	 1.5668414090e+00
 1.7489403119e+00	 6.2464739934e-01	 1.3654205911e+00
 1.7343875495e+00	 6.6398523435e-01	 1.1620798306e+00
 1.7188733416e+00	 7.0317204199e-01	 9.6039039306e-01
 1.7023966233e+00	 7.4217389490e-01	 7.6340228320e-01
 1.6849578786e+00	 7.8095654068e-01	 5.6080906348e-01
 1.4257283940e+00	 6.6080697247e-01	 9.9340453004e-01
 1.4101591987e+00	 6.9341054318e-01	 7.7176464293e-01
 1.3937807380e+00	 7.2577009011e-01	 5.5379125335e-01
 1.3765975130e+00	 7.5785623786e-01	 3.3973651438e-01
 1.3586154192e+00	 7.8963964229e-01	 1.1742755046e-01
 1.3398417545e+00	 8.2109107206e-01	-1.1118619536e-01
 1.3202852210e+00	 8.5218149143e-01	-3.4147662659e-01
 1.2999559218e+00	 8.8288214371e-01	-5.6850016610e-01
 1.2788653509e+00	 9.1316463496e-01	-7.8706879309e-01
 1.2570263780e+00	 9.4300101741e-01	-9.9183307288e-01
 1.2344532266e+00	 9.7236387216e-01	-1.1773768782e+00
 1.4516514423e+00	 6.7282197555e-01	 9.5013649368e-01
 1.4357991629e+00	 7.0601835478e-01	 7.3453648738e-01
 1.4191229038e+00	 7.3896627330e-01	 5.2325443186e-01
 1.4016272480e+00	 7.7163582163e-01	 3.0962335324e-01
 1.3833181980e+00	 8.0399712205e-01	 8.5157096912e-02
 1.3642031845e+00	 8.3602041175e-01	-1.4578874695e-01
 1.3442910679e+00	 8.6767612703e-01	-3.7842940078e-01
 1.3235921349e+00	 8.9893498836e-01	-6.0764245415e-01
 1.3021180885e+00	 9.2976808552e-01	-8.2804062682e-01
 1.2798820324e+00	 9.6014696259e-01	-1.0340578401e+00
 1.2568984487e+00	 9.9004370213e-01	-1.2200484122e+00
 1.4775744845e+00	 6.8483697582e-01	 8.9040937399e-01
 1.4614391211e+00	 7.1862616343e-01	 6.8622096913e-01
 1.4444650637e+00	 7.5216245342e-01	 4.8528393574e-01
 1.4266569770e+00	 7.8541540218e-01	 2.7399359531e-01
 1.4080209710e+00	 8.1835459846e-01	 5.1263696262e-02
 1.3885646088e+00	 8.5094974795e-01	-1.7841509073e-01
 1.3682969092e+00	 8.8317075902e-01	-4.1012907543e-01
 1.3472283424e+00	 9.1498782926e-01	-6.3860097120e-01
 1.3253708207e+00	 9.4637153220e-01	-8.5826365158e-01
 1.3027376815e+00	 9.7729290377e-01	-1.0633486681e+00
 1.2793436657e+00	 1.0077235280e+00	-1.2479894885e+00
 1.5034975146e+00	 6.9685197049e-01	 8.2480201703e-01
 1.4870790673e+00	 7.3123396620e-01	 6.2569336448e-01
 1.4698072118e+00	 7.6535862738e-01	 4.3548659902e-01
 1.4516866944e+00	 7.9919497630e-01	 2.3060433984e-01
 1.4327237324e+00	 8.3271206817e-01	 1.3443844734e-02
 1.4129260217e+00	 8.6587907718e-01	-2.1143254696e-01
 1.3923027392e+00	 8.9866538377e-01	-4.3901049854e-01
 1.3708645390e+00	 9.3104066268e-01	-6.6388190196e-01
 1.3486235420e+00	 9.6297497115e-01	-8.8031881913e-01
 1.3255933199e+00	 9.9443883695e-01	-1.0823637859e+00
 1.3017888722e+00	 1.0254033456e+00	-1.2639366110e+00
 1.5294205266e+00	 7.0886695675e-01	 7.7209664352e-01
 1.5127189956e+00	 7.4384176015e-01	 5.7117265758e-01
 1.4951493421e+00	 7.7855479210e-01	 3.7565817395e-01
 1.4767163943e+00	 8.1297454078e-01	 1.7723815739e-01
 1.4574264766e+00	 8.4706952783e-01	-3.0568672576e-02
 1.4372874176e+00	 8.8080839596e-01	-2.4716063860e-01
 1.4163085525e+00	 9.1415999769e-01	-4.6745195160e-01
 1.3945007189e+00	 9.4709348486e-01	-6.8592823847e-01
 1.3718762470e+00	 9.7957839846e-01	-8.9671977591e-01
 1.3484489423e+00	 1.0115847581e+00	-1.0936928488e+00
 1.3242340629e+00	 1.0430831508e+00	-1.2705595706e+00
 1.5553435143e+00	 7.2088193179e-01	 7.2968962673e-01
 1.5383589000e+00	 7.5644954233e-01	 5.2674784590e-01
 1.5204914488e+00	 7.9175094451e-01	 3.2390115536e-01
 1.5017460708e+00	 8.2675409239e-01	 1.1975557262e-01
 1.4821291977e+00	 8.6142697409e-01	-8.2975817577e-02
 1.4616487908e+00	 8.9573770082e-01	-2.8785025894e-01
 1.4403143433e+00	 9.2965459714e-01	-4.9775308711e-01
 1.4181368769e+00	 9.6314629205e-01	-7.0709656202e-01
 1.3951289303e+00	 9.9618181029e-01	-9.0988856659e-01
 1.3713045434e+00	 1.0287306633e+00	-1.0998316423e+00
 1.3466792327e+00	 1.0607629395e+00	-1.2704352287e+00
 1.5812664719e+00	 7.3289689282e-01	 6.9466050011e-01
 1.5639987745e+00	 7.6905730980e-01	 4.8859645875e-01
 1.5458335259e+00	 8.0494708152e-01	 2.8028913664e-01
 1.5267757182e+00	 8.4053362793e-01	 7.1704343568e-02
 1.5068318900e+00	 8.7578440360e-01	-1.3446634568e-01
 1.4860101355e+00	 9.1066698825e-01	-3.3532706195e-01
 1.4643201062e+00	 9.4514917851e-01	-5.3211243627e-01
 1.4417730072e+00	 9.7919908052e-01	-7.2963340594e-01
 1.4183815866e+00	 1.0127852027e+00	-9.2213093321e-01
 1.3941601178e+00	 1.0458765485e+00	-1.1031564013e+00
 1.3691243763e+00	 1.0784427076e+00	-1.2660209413e+00
 1.6071893931e+00	 7.4491183702e-01	 6.6402005322e-01
 1.5896386130e+00	 7.8166505962e-01	 4.5408494157e-01
 1.5711755675e+00	 8.1814320006e-01	 2.4218763926e-01
 1.5518053304e+00	 8.5431314418e-01	 3.0897348046e-02
 1.5315345478e+00	 8.9014181301e-01	-1.7713300773e-01
 1.5103714462e+00	 9.2559625478e-01	-3.7909183820e-01
 1.4883258354e+00	 9.6064373819e-01	-5.7190817418e-01
 1.4654091045e+00	 9.9525184651e-01	-7.5565124705e-01
 1.4416342102e+00	 1.0293885719e+00	-9.3561125571e-01
 1.4170156602e+00	 1.0630224096e+00	-1.1058977872e+00
 1.3915694885e+00	 1.0961224509e+00	-1.2596276622e+00
 1.6331122720e+00	 7.5692676161e-01	 6.3321276378e-01
 1.6152784097e+00	 7.9427278885e-01	 4.2081435035e-01
 1.5965175677e+00	 8.3133929704e-01	 2.0719556412e-01
 1.5768349018e+00	 8.6809263792e-01	-5.0696707198e-03
 1.5562371651e+00	 9.0449919897e-01	-2.1338180134e-01
 1.5347327170e+00	 9.4052549693e-01	-4.1503547588e-01
 1.5123315255e+00	 9.7613827256e-01	-6.0711002100e-01
 1.4890451631e+00	 1.0113045863e+00	-7.8633178569e-01
 1.4648867959e+00	 1.0459919140e+00	-9.5232717434e-01
 1.4398711653e+00	 1.0801682428e+00	-1.1101145628e+00
 1.4140145641e+00	 1.1138021654e+00	-1.2534292281e+00
 1.6590351025e+00	 7.6894166376e-01	 5.9946737834e-01
 1.6409181585e+00	 8.0688049454e-01	 3.8660378539e-01
 1.6218595206e+00	 8.4453536940e-01	 1.7312810809e-01
 1.6018644265e+00	 8.8187210594e-01	-3.8385243899e-02
 1.5809397364e+00	 9.1885655813e-01	-2.4540231177e-01
 1.5590939424e+00	 9.5545471121e-01	-4.4534416620e-01
 1.5363371707e+00	 9.9163277801e-01	-6.3546820827e-01
 1.5126811776e+00	 1.0273572961e+00	-8.1271738126e-01
 1.4881393381e+00	 1.0625952251e+00	-9.7353995485e-01
 1.4627266278e+00	 1.0973140440e+00	-1.1176669975e+00
 1.4364595977e+00	 1.1314818469e+00	-1.2510378969e+00
 1.6849578786e+00	 7.8095654068e-01	 5.6080906348e-01
 1.6665578535e+00	 8.1948817376e-01	 3.4947411136e-01
 1.6472014204e+00	 8.5773141404e-01	 1.3799996399e-01
 1.6268938986e+00	 8.9565154503e-01	-7.1039412866e-02
 1.6056422558e+00	 9.3321388714e-01	-2.7518528684e-01
 1.5834551166e+00	 9.7038389414e-01	-4.7200351816e-01
 1.5603427655e+00	 1.0071272509e+00	-6.5895634805e-01
 1.5363171425e+00	 1.0434099722e+00	-8.3323775955e-01
 1.5113918316e+00	 1.0791985014e+00	-9.9157518211e-01
 1.4855820422e+00	 1.1144598091e+00	-1.1300345178e+00
 1.4589045842e+00	 1.1491614912e+00	-1.2541938168e+00
 1.2344532266e+00	 9.7236387216e-01	-1.1773768782e+00
 1.2111614434e+00	 1.0012263933e+00	-1.3453281888e+00
 1.1871678547e+00	 1.0295624759e+00	-1.4972055995e+00
 1.1624905374e+00	 1.0573467848e+00	-1.6275774989e+00
 1.1371487784e+00	 1.0845548274e+00	-1.7312931074e+00
 1.1111630244e+00	 1.1111630244e+00	-1.8036097790e+00
 1.0845548274e+00	 1.1371487784e+00	-1.8620540139e+00
 1.0573467848e+00	 1.1624905374e+00	-1.9226269086e+00
 1.0295624759e+00	 1.1871678547e+00	-1.9782957767e+00
 1.0012263933e+00	 1.2111614434e+00	-2.0216280887e+00
 9.7236387216e-01	 1.2344532266e+00	-2.0449866205e+00
 1.2568984487e+00	 9.9004370213e-01	-1.2200484122e+00
 1.2331831670e+00	 1.0194310109e+00	-1.3870954164e+00
 1.2087533192e+00	 1.0482823091e+00	-1.5362416633e+00
 1.1836273110e+00	 1.0765718012e+00	-1.6619350392e+00
 1.1578247801e+00	 1.1042745491e+00	-1.7589272619e+00
 1.1313665448e+00	 1.1313665448e+00	-1.8293955792e+00
 1.1042745491e+00	 1.1578247801e+00	-1.8881664243e+00
 1.0765718012e+00	 1.1836273110e+00	-1.9447987221e+00
 1.0482823091e+00	 1.2087533192e+00	-1.9972040019e+00
 1.0194310109e+00	 1.2331831670e+00	-2.0376473633e+00
 9.9004370213e-01	 1.2568984487e+00	-2.0582112165e+00
 1.2793436657e+00	 1.0077235280e+00	-1.2479894885e+00
 1.2552048854e+00	 1.0376356241e+00	-1.4127296073e+00
 1.2303387786e+00	 1.0670021379e+00	-1.5580748728e+00
 1.2047640797e+00	 1.0957968131e+00	-1.6782526982e+00
 1.1785007769e+00	 1.1239942662e+00	-1.7702863442e+00
 1.1515700605e+00	 1.1515700605e+00	-1.8480160371e+00
 1.1239942662e+00	 1.1785007769e+00	-1.9136102531e+00
 1.0957968131e+00	 1.2047640797e+00	-1.9678813865e+00
 1.0670021379e+00	 1.2303387786e+00	-2.0170235775e+00
 1.0376356241e+00	 1.2552048854e+00	-2.0545296359e+00
 1.0077235280e+00	 1.2793436657e+00	-2.0720819364e+00
 1.3017888722e+00	 1.0254033456e+00	-1.2639366110e+00
 1.2772265935e+00	 1.0558402289e+00	-1.4250415925e+00
 1.2519242279e+00	 1.0857219580e+00	-1.5655839756e+00
 1.2259008386e+00	 1.1150218160e+00	-1.6796674274e+00
 1.1991767641e+00	 1.1437139741e+00	-1.7757287626e+00
 1.1717735668e+00	 1.1717735668e+00	-1.8601725880e+00
 1.1437139741e+00	 1.1991767641e+00	-1.9319073385e+00
 1.1150218160e+00	 1.2259008386e+00	-1.9897205705e+00
 1.0857219580e+00	 1.2519242279e+00	-2.0358244095e+00
 1.0558402289e+00	 1.2772265935e+00	-2.0704408245e+00
 1.0254033456e+00	 1.3017888722e+00	-2.0848429942e+00
 1.3242340629e+00	 1.0430831508e+00	-1.2705595706e+00
 1.2992482862e+00	 1.0740448210e+00	-1.4267809054e+00
 1.2735096622e+00	 1.1044417651e+00	-1.5615955506e+00
 1.2470375826e+00	 1.1342468055e+00	-1.6747919218e+00
 1.2198527369e+00	 1.1634336681e+00	-1.7767170858e+00
 1.1919770589e+00	 1.1919770589e+00	-1.8666546021e+00
 1.1634336681e+00	 1.2198527369e+00	-1.9433899949e+00
 1.1342468055e+00	 1.2470375826e+00	-2.0055737008e+00
 1.1044417651e+00	 1.2735096622e+00	-2.0518172711e+00
 1.0740448210e+00	 1.2992482862e+00	-2.0836984293e+00
 1.0430831508e+00	 1.3242340629e+00	-2.0948953074e+00
 1.3466792327e+00	 1.0607629395e+00	-1.2704352287e+00
 1.3212699584e+00	 1.0922493960e+00	-1.4206087070e+00
 1.2950950763e+00	 1.1231615546e+00	-1.5502592697e+00
 1.2681743069e+00	 1.1534717770e+00	-1.6675491545e+00
 1.2405286903e+00	 1.1831533438e+00	-1.7740325694e+00
 1.2121805322e+00	 1.2121805322e+00	-1.8683212811e+00
 1.1831533438e+00	 1.2405286903e+00	-1.9489958093e+00
 1.1534717770e+00	 1.2681743069e+00	-2.0144834228e+00
 1.1231615546e+00	 1.2950950763e+00	-2.0629474461e+00
 1.0922493960e+00	 1.3212699584e+00	-2.0928228887e+00
 1.0607629395e+00	 1.3466792327e+00	-2.1008464539e+00
 1.3691243763e+00	 1.0784427076e+00	-1.2660209413e+00
 1.3432916049e+00	 1.1104539498e+00	-1.4090703830e+00
 1.3166804652e+00	 1.1418813223e+00	-1.5382793894e+00
 1.2893110065e+00	 1.1726967261e+00	-1.6586780085e+00
 1.2612046196e+00	 1.2028729965e+00	-1.7685008107e+00
 1.2323839819e+00	 1.2323839819e+00	-1.8660834327e+00
 1.2028729965e+00	 1.2612046196e+00	-1.9497229204e+00
 1.1726967261e+00	 1.2893110065e+00	-2.0175404796e+00
 1.1418813223e+00	 1.3166804652e+00	-2.0673571083e+00
 1.1104539498e+00	 1.3432916049e+00	-2.0965890491e+00
 1.0784427076e+00	 1.3691243763e+00	-2.1015607899e+00
 1.3915694885e+00	 1.0961224509e+00	-1.2596276622e+00
 1.3653132205e+00	 1.1286584782e+00	-1.3966587865e+00
 1.3382658239e+00	 1.1606010638e+00	-1.5267944425e+00
 1.3104476766e+00	 1.1919216483e+00	-1.6489407893e+00
 1.2818805200e+00	 1.2225926216e+00	-1.7609749377e+00
 1.2525874033e+00	 1.2525874033e+00	-1.8608851367e+00
 1.2225926216e+00	 1.2818805200e+00	-1.9466102455e+00
 1.1919216483e+00	 1.3104476766e+00	-2.0158857613e+00
 1.1606010638e+00	 1.3382658239e+00	-2.0661044874e+00
 1.1286584782e+00	 1.3653132205e+00	-2.0941992914e+00
 1.0961224509e+00	 1.3915694885e+00	-2.0962097098e+00
 1.4140145641e+00	 1.1138021654e+00	-1.2534292281e+00
 1.3873348002e+00	 1.1468629768e+00	-1.3869739592e+00
 1.3598511474e+00	 1.1793207747e+00	-1.5164788829e+00
 1.3315843121e+00	 1.2111465391e+00	-1.6391078055e+00
 1.3025563866e+00	 1.2423122144e+00	-1.7523186574e+00
 1.2727907917e+00	 1.2727907917e+00	-1.8536853157e+00
 1.2423122144e+00	 1.3025563866e+00	-1.9407176589e+00
 1.2111465391e+00	 1.3315843121e+00	-2.0106892037e+00
 1.1793207747e+00	 1.3598511474e+00	-2.0604813452e+00
 1.1468629768e+00	 1.3873348002e+00	-2.0864525094e+00
 1.1138021654e+00	 1.4140145641e+00	-2.0843394753e+00
 1.4364595977e+00	 1.1314818469e+00	-1.2510378969e+00
 1.4093563388e+00	 1.1650674414e+00	-1.3805854710e+00
 1.3814364305e+00	 1.1980404507e+00	-1.5080000356e+00
 1.3527209082e+00	 1.2303713940e+00	-1.6299417873e+00
 1.3232322146e+00	 1.2620317705e+00	-1.7433891781e+00
 1.2929941425e+00	 1.2929941425e+00	-1.8454392218e+00
 1.2620317705e+00	 1.3232322146e+00	-1.9331061287e+00
 1.2303713940e+00	 1.3527209082e+00	-2.0031286869e+00
 1.1980404507e+00	 1.3814364305e+00	-2.0517964274e+00
 1.1650674414e+00	 1.4093563388e+00	-2.0748038234e+00
 1.1314818469e+00	 1.4364595977e+00	-2.0671405976e+00
 1.4589045842e+00	 1.1491614912e+00	-1.2541938168e+00
 1.4313778311e+00	 1.1832718678e+00	-1.3780415308e+00
 1.4030216684e+00	 1.2167600874e+00	-1.5020038648e+00
 1.3738574599e+00	 1.2495962085e+00	-1.6221821586e+00
 1.3439079992e+00	 1.2817512851e+00	-1.7350200210e+00
 1.3131974507e+00	 1.3131974507e+00	-1.8370798474e+00
 1.2817512851e+00	 1.3439079992e+00	-1.9248178155e+00
 1.2495962085e+00	 1.3738574599e+00	-1.9943689340e+00
 1.2167600874e+00	 1.4030216684e+00	-2.0413532972e+00
 1.1832718678e+00	 1.4313778311e+00	-2.0607138142e+00
 1.1491614912e+00	 1.4589045842e+00	-2.0465943793e+00
 9.7236387216e-01	 1.2344532266e+00	-2.0449866205e+00
 9.4300101741e-01	 1.2570263780e+00	-2.0603582865e+00
 9.1316463496e-01	 1.2788653509e+00	-2.0805190489e+00
 8.8288214371e-01	 1.2999559218e+00	-2.0992125264e+00
 8.5218149143e-01	 1.3202852210e+00	-2.1106013413e+00
 8.2109107206e-01	 1.3398417545e+00	-2.1093719638e+00
 7.8963964229e-01	 1.3586154192e+00	-2.0908170705e+00
 7.5785623786e-01	 1.3765975130e+00	-2.0508961271e+00
 7.2577009011e-01	 1.3937807380e+00	-1.9886141711e+00
 6.9341054318e-01	 1.4101591987e+00	-1.9171754014e+00
 6.6080697247e-01	 1.4257283940e+00	-1.8367563871e+00
 9.9004370213e-01	 1.2568984487e+00	-2.0582112165e+00
 9.6014696259e-01	 1.2798820324e+00	-2.0709646578e+00
 9.2976808552e-01	 1.3021180885e+00	-2.0887793573e+00
 8.9893498836e-01	 1.3235921349e+00	-2.1051932944e+00
 8.6767612703e-01	 1.3442910679e+00	-2.1142065499e+00
 8.3602041175e-01	 1.3642031845e+00	-2.1103885909e+00
 8.0399712205e-01	 1.3833181980e+00	-2.0889604489e+00
 7.7163582163e-01	 1.4016272480e+00	-2.0458528117e+00
 7.3896627330e-01	 1.4191229038e+00	-1.9777735395e+00
 7.0601835478e-01	 1.4357991629e+00	-1.8943146362e+00
 6.7282197555e-01	 1.4516514423e+00	-1.8027143232e+00
 1.0077235280e+00	 1.2793436657e+00	-2.0720819364e+00
 9.7729290377e-01	 1.3027376815e+00	-2.0816649285e+00
 9.4637153220e-01	 1.3253708207e+00	-2.0961425818e+00
 9.1498782926e-01	 1.3472283424e+00	-2.1088385967e+00
 8.8317075902e-01	 1.3682969092e+00	-2.1135915903e+00
 8.5094974795e-01	 1.3885646088e+00	-2.1048640460e+00
 8.1835459846e-01	 1.4080209710e+00	-2.0778232443e+00
 7.8541540218e-01	 1.4266569770e+00	-2.0283955563e+00
 7.5216245342e-01	 1.4444650637e+00	-1.9532962687e+00
 7.1862616343e-01	 1.4614391211e+00	-1.8549363594e+00
 6.8483697582e-01	 1.4775744845e+00	-1.7474507395e+00
 1.0254033456e+00	 1.3017888722e+00	-2.0848429942e+00
 9.9443883695e-01	 1.3255933199e+00	-2.0907604434e+00
 9.6297497115e-01	 1.3486235420e+00	-2.1009411417e+00
 9.3104066268e-01	 1.3708645390e+00	-2.1084863797e+00
 8.9866538377e-01	 1.3923027392e+00	-2.1070760262e+00
 8.6587907718e-01	 1.4129260217e+00	-2.0910782482e+00
 8.3271206817e-01	 1.4327237324e+00	-2.0556279852e+00
 7.9919497630e-01	 1.4516866944e+00	-1.9966759796e+00
 7.6535862738e-01	 1.4698072118e+00	-1.9110110200e+00
 7.3123396620e-01	 1.4870790673e+00	-1.7979187433e+00
 6.9685197049e-01	 1.5034975146e+00	-1.6824073943e+00
 1.0430831508e+00	 1.3242340629e+00	-2.0948953074e+00
 1.0115847581e+00	 1.3484489423e+00	-2.0967090983e+00
 9.7957839846e-01	 1.3718762470e+00	-2.1016591748e+00
 9.4709348486e-01	 1.3945007189e+00	-2.1026171950e+00
 9.1415999769e-01	 1.4163085525e+00	-2.0931091073e+00
 8.8080839596e-01	 1.4372874176e+00	-2.0674246195e+00
 8.4706952783e-01	 1.4574264766e+00	-2.0206918587e+00
 8.1297454078e-01	 1.4767163943e+00	-1.9489194971e+00
 7.7855479210e-01	 1.4951493421e+00	-1.8532356935e+00
 7.4384176015e-01	 1.5127189956e+00	-1.7429553598e+00
 7.0886695675e-01	 1.5294205266e+00	-1.6282841483e+00
 1.0607629395e+00	 1.3466792327e+00	-2.1008464539e+00
 1.0287306633e+00	 1.3713045434e+00	-2.0981736926e+00
 9.9618181029e-01	 1.3951289303e+00	-2.0969790673e+00
 9.6314629205e-01	 1.4181368769e+00	-2.0898986978e+00
 9.2965459714e-01	 1.4403143433e+00	-2.0703120415e+00
 8.9573770082e-01	 1.4616487908e+00	-2.0324499551e+00
 8.6142697409e-01	 1.4821291977e+00	-1.9714716683e+00
 8.2675409239e-01	 1.5017460708e+00	-1.8918776625e+00
 7.9175094451e-01	 1.5204914488e+00	-1.7998283894e+00
 7.5644954233e-01	 1.5383589000e+00	-1.6955047208e+00
 7.2088193179e-01	 1.5553435143e+00	-1.5829436191e+00
 1.0784427076e+00	 1.3691243763e+00	-2.1015607899e+00
 1.0458765485e+00	 1.3941601178e+00	-2.0940704860e+00
 1.0127852027e+00	 1.4183815866e+00	-2.0858282287e+00
 9.7919908052e-01	 1.4417730072e+00	-2.0692304310e+00
 9.4514917851e-01	 1.4643201062e+00	-2.0375205940e+00
 9.1066698825e-01	 1.4860101355e+00	-1.9852363803e+00
 8.7578440360e-01	 1.5068318900e+00	-1.9184709120e+00
 8.4053362793e-01	 1.5267757182e+00	-1.8407813813e+00
 8.0494708152e-01	 1.5458335259e+00	-1.7520442778e+00
 7.6905730980e-01	 1.5639987745e+00	-1.6526808114e+00
 7.3289689282e-01	 1.5812664719e+00	-1.5439906261e+00
 1.0961224509e+00	 1.3915694885e+00	-2.0962097098e+00
 1.0630224096e+00	 1.4170156602e+00	-2.0836179361e+00
 1.0293885719e+00	 1.4416342102e+00	-2.0674260840e+00
 9.9525184651e-01	 1.4654091045e+00	-2.0397888620e+00
 9.6064373819e-01	 1.4883258354e+00	-1.9945281580e+00
 9.2559625478e-01	 1.5103714462e+00	-1.9376567613e+00
 8.9014181301e-01	 1.5315345478e+00	-1.8712205320e+00
 8.5431314418e-01	 1.5518053304e+00	-1.7947281204e+00
 8.1814320006e-01	 1.5711755675e+00	-1.7083729232e+00
 7.8166505962e-01	 1.5896386130e+00	-1.6128286547e+00
 7.4491183702e-01	 1.6071893931e+00	-1.5090813721e+00
 1.1138021654e+00	 1.4140145641e+00	-2.0843394753e+00
 1.0801682428e+00	 1.4398711653e+00	-2.0663855944e+00
 1.0459919140e+00	 1.4648867959e+00	-2.0413312571e+00
 1.0113045863e+00	 1.4890451631e+00	-2.0018343365e+00
 9.7613827256e-01	 1.5123315255e+00	-1.9528343167e+00
 9.4052549693e-01	 1.5347327170e+00	-1.8954678885e+00
 9.0449919897e-01	 1.5562371651e+00	-1.8287655899e+00
 8.6809263792e-01	 1.5768349018e+00	-1.7526350038e+00
 8.3133929704e-01	 1.5965175677e+00	-1.6676047805e+00
 7.9427278885e-01	 1.6152784097e+00	-1.5746092455e+00
 7.5692676161e-01	 1.6331122720e+00	-1.4748144008e+00
 1.1314818469e+00	 1.4364595977e+00	-2.0671405976e+00
 1.0973140440e+00	 1.4627266278e+00	-2.0423431432e+00
 1.0625952251e+00	 1.4881393381e+00	-2.0080098193e+00
 1.0273572961e+00	 1.5126811776e+00	-1.9658334745e+00
 9.9163277801e-01	 1.5363371707e+00	-1.9163946930e+00
 9.5545471121e-01	 1.5590939424e+00	-1.8580745432e+00
 9.1885655813e-01	 1.5809397364e+00	-1.7903880907e+00
 8.8187210594e-01	 1.6018644265e+00	-1.7136683820e+00
 8.4453536940e-01	 1.6218595206e+00	-1.6287941943e+00
 8.0688049454e-01	 1.6409181585e+00	-1.5369640696e+00
 7.6894166376e-01	 1.6590351025e+00	-1.4395171328e+00
 1.1491614912e+00	 1.4589045842e+00	-2.0465943793e+00
 1.1144598091e+00	 1.4855820422e+00	-2.0121312280e+00
 1.0791985014e+00	 1.5113918316e+00	-1.9766496982e+00
 1.0434099722e+00	 1.5363171425e+00	-1.9351034911e+00
 1.0071272509e+00	 1.5603427655e+00	-1.8849258731e+00
 9.7038389414e-01	 1.5834551166e+00	-1.8250684596e+00
 9.3321388714e-01	 1.6056422558e+00	-1.7555676095e+00
 8.9565154503e-01	 1.6268938986e+00	-1.6772057230e+00
 8.5773141404e-01	 1.6472014204e+00	-1.5912227067e+00
 8.1948817376e-01	 1.6665578535e+00	-1.4990799601e+00
 7.8095654068e-01	 1.6849578786e+00	-1.4022770123e+00
 6.6080697247e-01	 1.4257283940e+00	-1.8367563871e+00
 6.2799100716e-01	 1.4404842011e+00	-1.7495239918e+00
 5.9498955959e-01	 1.4544259888e+00	-1.6578140973e+00
 5.6183161242e-01	 1.4675533477e+00	-1.5604812103e+00
 5.2854587333e-01	 1.4798671787e+00	-1.4575279623e+00
 4.9516070524e-01	 1.4913696599e+00	-1.3536467966e+00
 4.6170405990e-01	 1.5020642103e+00	-1.2559739394e+00
 4.2820341508e-01	 1.5119554483e+00	-1.1655354469e+00
 3.9468571561e-01	 1.5210491483e+00	-1.0833449256e+00
 3.6117731837e-01	 1.5293521932e+00	-1.0107689576e+00
 3.2770394143e-01	 1.5368725246e+00	-9.5226134028e-01
 6.7282197555e-01	 1.4516514423e+00	-1.8027143232e+00
 6.3940933990e-01	 1.4666755442e+00	-1.7040533465e+00
 6.0580784948e-01	 1.4808708259e+00	-1.5995446505e+00
 5.7204701394e-01	 1.4942368706e+00	-1.4936480134e+00
 5.3815606293e-01	 1.5067745956e+00	-1.3927233941e+00
 5.0416387507e-01	 1.5184862186e+00	-1.2968542199e+00
 4.7009891033e-01	 1.5293752207e+00	-1.2062733758e+00
 4.3598914611e-01	 1.5394463044e+00	-1.1213207663e+00
 4.0186201714e-01	 1.5487053489e+00	-1.0424129878e+00
 3.6774435953e-01	 1.5571593625e+00	-9.7005822407e-01
 3.3366235898e-01	 1.5648164309e+00	-9.0777606454e-01
 6.8483697582e-01	 1.4775744845e+00	-1.7474507395e+00
 6.5082766996e-01	 1.4928668811e+00	-1.6359739398e+00
 6.1662613684e-01	 1.5073156568e+00	-1.5303519733e+00
 5.8226241308e-01	 1.5209203873e+00	-1.4301332598e+00
 5.4776625029e-01	 1.5336820062e+00	-1.3347654430e+00
 5.1316704279e-01	 1.5456027710e+00	-1.2439028596e+00
 4.7849375880e-01	 1.5566862247e+00	-1.1573291801e+00
 4.4377487532e-01	 1.5669371540e+00	-1.0749125948e+00
 4.0903831699e-01	 1.5763615431e+00	-9.9658921169e-01
 3.7431139917e-01	 1.5849665252e+00	-9.2236932790e-01
 3.3962077514e-01	 1.5927603307e+00	-8.5435243311e-01
 6.9685197049e-01	 1.5034975146e+00	-1.6824073943e+00
 6.6224599470e-01	 1.5190582058e+00	-1.5737880685e+00
 6.2744441916e-01	 1.5337604754e+00	-1.4716158446e+00
 5.9247780745e-01	 1.5476038916e+00	-1.3748061086e+00
 5.5737643316e-01	 1.5605894043e+00	-1.2825511664e+00
 5.2217020632e-01	 1.5727193107e+00	-1.1942060168e+00
 4.8688860336e-01	 1.5839972160e+00	-1.1092156152e+00
 4.5156060089e-01	 1.5944279908e+00	-1.0270799745e+00
 4.1621461350e-01	 1.6040177244e+00	-9.4735196622e-01
 3.8087843573e-01	 1.6127736749e+00	-8.6966156004e-01
 3.4557918852e-01	 1.6207042174e+00	-7.9491874481e-01
 7.0886695675e-01	 1.5294205266e+00	-1.6282841483e+00
 6.7366431145e-01	 1.5452495122e+00	-1.5216013475e+00
 6.3826269391e-01	 1.5602052755e+00	-1.4212223705e+00
 6.0269319467e-01	 1.5742873771e+00	-1.3259703222e+00
 5.6698660931e-01	 1.5874967835e+00	-1.2348948597e+00
 5.3117336354e-01	 1.5998358314e+00	-1.1471555888e+00
 4.9528344204e-01	 1.6113081882e+00	-1.0619536110e+00
 4.5934632102e-01	 1.6219188084e+00	-9.7850686987e-01
 4.2339090498e-01	 1.6316738862e+00	-8.9606328038e-01
 3.8744546770e-01	 1.6405808052e+00	-8.1394436162e-01
 3.5153759773e-01	 1.6486480846e+00	-7.3218150811e-01
 7.2088193179e-01	 1.5553435143e+00	-1.5829436191e+00
 6.8508261754e-01	 1.5714407942e+00	-1.4770645579e+00
 6.4908095856e-01	 1.5866500508e+00	-1.3771299984e+00
 6.1290857236e-01	 1.6009708378e+00	-1.2819827477e+00
 5.7659677648e-01	 1.6144041377e+00	-1.1906317585e+00
 5.4017651236e-01	 1.6269523269e+00	-1.1021321664e+00
 5.0367827289e-01	 1.6386191349e+00	-1.0155209303e+00
 4.6713203388e-01	 1.6494096003e+00	-9.2980296241e-01
 4.3056718976e-01	 1.6593300223e+00	-8.4398076623e-01
 3.9401249355e-01	 1.6683879096e+00	-7.5711918157e-01
 3.5749600138e-01	 1.6765919256e+00	-6.6864846285e-01
 7.3289689282e-01	 1.5812664719e+00	-1.5439906261e+00
 6.9650091031e-01	 1.5976320456e+00	-1.4379600350e+00
 6.5989921058e-01	 1.6130947954e+00	-1.3373960485e+00
 6.2312393813e-01	 1.6276542673e+00	-1.2412656472e+00
 5.8620693245e-01	 1.6413114604e+00	-1.1486290043e+00
 5.4917965068e-01	 1.6540687907e+00	-1.0585152660e+00
 5.1207309394e-01	 1.6659300497e+00	-9.6986225131e-01
 4.7491773766e-01	 1.6769003602e+00	-8.8151411597e-01
 4.3774346617e-01	 1.6869861261e+00	-7.9226894058e-01
 4.0057951173e-01	 1.6961949815e+00	-7.0096661402e-01
 3.6345439808e-01	 1.7045357341e+00	-6.0665040780e-01
 7.4491183702e-01	 1.6071893931e+00	-1.5090813721e+00
 7.0791918710e-01	 1.6238232603e+00	-1.4022193140e+00
 6.7071744746e-01	 1.6395395029e+00	-1.3001915713e+00
 6.3333928959e-01	 1.6543376594e+00	-1.2023194334e+00
 5.9581707496e-01	 1.6682187455e+00	-1.1077968893e+00
 5.5818277639e-01	 1.6811852165e+00	-1.0156936801e+00
 5.2046790324e-01	 1.6932409263e+00	-9.2489917707e-01
 4.8270343054e-01	 1.7043910815e+00	-8.3413254882e-01
 4.4491973254e-01	 1.7146421912e+00	-7.4201001293e-01
 4.0714652071e-01	 1.7240020144e+00	-6.4715819847e-01
 3.6941278643e-01	 1.7324795035e+00	-5.4836196876e-01
 7.5692676161e-01	 1.6331122720e+00	-1.4748144008e+00
 7.1933744523e-01	 1.6500144322e+00	-1.3679412413e+00
 6.8153566668e-01	 1.6659841672e+00	-1.2638166389e+00
 6.4355462437e-01	 1.6810210080e+00	-1.1637357638e+00
 6.0542720177e-01	 1.6951259866e+00	-1.0671003512e+00
 5.6718588740e-01	 1.7083015980e+00	-9.7307593395e-01
 5.2886269883e-01	 1.7205517583e+00	-8.8054017846e-01
 4.9048911070e-01	 1.7318817580e+00	-7.8810674526e-01
 4.5209598718e-01	 1.7422982112e+00	-6.9421419868e-01
 4.1371351897e-01	 1.7518090020e+00	-5.9726751685e-01
 3.7537116506e-01	 1.7604232272e+00	-4.9581842884e-01
 7.6894166376e-01	 1.6590351025e+00	-1.4395171328e+00
 7.3075568205e-01	 1.6762055553e+00	-1.3334105005e+00
 6.9235386569e-01	 1.6924287821e+00	-1.2267160221e+00
 6.5376994009e-01	 1.7077043068e+00	-1.1242109556e+00
 6.1503731065e-01	 1.7220331775e+00	-1.0255706880e+00
 5.7618898160e-01	 1.7354179289e+00	-9.3010083610e-01
 5.3725747875e-01	 1.7478625393e+00	-8.3669047922e-01
 4.9827477633e-01	 1.7593723831e+00	-7.4385113495e-01
 4.5927222843e-01	 1.7699541795e+00	-6.4982960979e-01
 4.2028050498e-01	 1.7796159376e+00	-5.5278066413e-01
 3.8132953256e-01	 1.7883668988e+00	-4.5098395791e-01
 7.8095654068e-01	 1.6849578786e+00	-1.4022770123e+00
 7.4217389490e-01	 1.7023966233e+00	-1.2971054173e+00
 7.0317204199e-01	 1.7188733416e+00	-1.1874952115e+00
 6.6398523435e-01	 1.7343875495e+00	-1.0825596859e+00
 6.2464739934e-01	 1.7489403119e+00	-9.8231747206e-01
 5.8519205690e-01	 1.7625342029e+00	-8.8624811274e-01
 5.4565224104e-01	 1.7751732630e+00	-7.9326188842e-01
 5.0606042561e-01	 1.7868629505e+00	-7.0175556511e-01
 4.6644845461e-01	 1.7976100897e+00	-6.0975176792e-01
 4.2684747719e-01	 1.8074228149e+00	-5.1510615998e-01
 3.8728788755e-01	 1.8163105116e+00	-4.1576497111e-01
 3.2770394143e-01	 1.5368725246e+00	-9.5226134028e-01
 2.9428828687e-01	 1.5436195361e+00	-9.0089935606e-01
 2.6095703767e-01	 1.5496025774e+00	-8.5179363609e-01
 2.2773377010e-01	 1.5548324489e+00	-8.0515235358e-01
 1.9464125891e-01	 1.5593207918e+00	-7.6145276743e-01
 1.6170144816e-01	 1.5630800297e+00	-7.2158977270e-01
 1.2893542625e-01	 1.5661233103e+00	-6.8695514865e-01
 9.6363405176e-02	 1.5684644476e+00	-6.5946476445e-01
 6.4004703957e-02	 1.5701178630e+00	-6.4154965292e-01
 3.1877735938e-02	 1.5710985275e+00	-6.3612513621e-01
 0.0000000000e+00	 1.5714219047e+00	-6.4655020187e-01
 3.3366235898e-01	 1.5648164309e+00	-9.0777606454e-01
 2.9963913033e-01	 1.5716861187e+00	-8.5130067804e-01
 2.6570184174e-01	 1.5777779455e+00	-7.9702650197e-01
 2.3187449812e-01	 1.5831029083e+00	-7.4466418257e-01
 1.9818028834e-01	 1.5876728597e+00	-6.9447350947e-01
 1.6464155545e-01	 1.5915004492e+00	-6.4736405312e-01
 1.3127977128e-01	 1.5945990637e+00	-6.0492333024e-01
 9.8115515334e-02	 1.5969827683e+00	-5.6939220300e-01
 6.5168457892e-02	 1.5986662466e+00	-5.4360557659e-01
 3.2457347097e-02	 1.5996647418e+00	-5.3091440982e-01
 0.0000000000e+00	 1.5999939988e+00	-5.3510272468e-01
 3.3962077514e-01	 1.5927603307e+00	-8.5435243311e-01
 3.0498997255e-01	 1.5997526948e+00	-7.9179020430e-01
 2.7044664470e-01	 1.6059533071e+00	-7.3259800606e-01
 2.3601522517e-01	 1.6113733610e+00	-6.7576675970e-01
 2.0171931695e-01	 1.6160249209e+00	-6.2112980398e-01
 1.6758166205e-01	 1.6199208620e+00	-5.6940984863e-01
 1.3362411576e-01	 1.6230748105e+00	-5.2219036442e-01
 9.9867625083e-02	 1.6255010824e+00	-4.8183377987e-01
 6.6332211556e-02	 1.6272146236e+00	-4.5136689033e-01
 3.3036958121e-02	 1.6282309496e+00	-4.3435147532e-01
 0.0000000000e+00	 1.6285660863e+00	-4.3475541364e-01
 3.4557918852e-01	 1.6207042174e+00	-7.9491874481e-01
 3.1034081227e-01	 1.6278192577e+00	-7.2581651998e-01
 2.7519144544e-01	 1.6341286556e+00	-6.6214884088e-01
 2.4015595030e-01	 1.6396438006e+00	-6.0201257116e-01
 2.0525834390e-01	 1.6443769689e+00	-5.4465540065e-01
 1.7052176728e-01	 1.6483412616e+00	-4.9046236779e-01
 1.3596845915e-01	 1.6515505439e+00	-4.4086384924e-01
 1.0161973402e-01	 1.6540193831e+00	-3.9819028750e-01
 6.7495964676e-02	 1.6557629872e+00	-3.6549660321e-01
 3.3616568874e-02	 1.6567971439e+00	-3.4637643214e-01
 0.0000000000e+00	 1.6571381604e+00	-3.4478320306e-01
 3.5153759773e-01	 1.6486480846e+00	-7.3218150811e-01
 3.1569164824e-01	 1.6558858011e+00	-6.5658516676e-01
 2.7993624286e-01	 1.6623039843e+00	-5.8906518642e-01
 2.4429667252e-01	 1.6679142204e+00	-5.2669901436e-01
 2.0879736838e-01	 1.6727289970e+00	-4.6804040346e-01
 1.7346187046e-01	 1.6767616413e+00	-4.1303773747e-01
 1.3831280090e-01	 1.6800262575e+00	-3.6287102347e-01
 1.0337184172e-01	 1.6825376639e+00	-3.1973597645e-01
 6.8659716982e-02	 1.6843113309e+00	-2.8660089897e-01
 3.4196179222e-02	 1.6853633183e+00	-2.6695881350e-01
 0.0000000000e+00	 1.6857102146e+00	-2.6459372245e-01
 3.5749600138e-01	 1.6765919256e+00	-6.6864846285e-01
 3.2104247922e-01	 1.6839523182e+00	-5.8708295125e-01
 2.8468103585e-01	 1.6904792867e+00	-5.1650277529e-01
 2.4843739088e-01	 1.6961846138e+00	-4.5289087224e-01
 2.1233638955e-01	 1.7010809987e+00	-3.9405099061e-01
 1.7640197088e-01	 1.7051819945e+00	-3.3944898961e-01
 1.4065714046e-01	 1.7085019444e+00	-2.8997022458e-01
 1.0512394779e-01	 1.7110559180e+00	-2.4762487001e-01
 6.9823468202e-02	 1.7128596479e+00	-2.1522986907e-01
 3.4775789029e-02	 1.7139294661e+00	-1.9609247087e-01
 0.0000000000e+00	 1.7142822420e+00	-1.9371623016e-01
 3.6345439808e-01	 1.7045357341e+00	-6.0665040780e-01
 3.2639330396e-01	 1.7120188025e+00	-5.2010082135e-01
 2.8942582331e-01	 1.7186545563e+00	-4.4740941997e-01
 2.5257810441e-01	 1.7244549742e+00	-3.8344126503e-01
 2.1587540659e-01	 1.7294329673e+00	-3.2524773835e-01
 1.7934206788e-01	 1.7336023145e+00	-2.7182087846e-01
 1.4300147729e-01	 1.7369775981e+00	-2.2376149356e-01
 1.0687605182e-01	 1.7395741389e+00	-1.8289662032e-01
 7.0987218065e-02	 1.7414079316e+00	-1.5187824953e-01
 3.5355398160e-02	 1.7424955805e+00	-1.3379098158e-01
 0.0000000000e+00	 1.7428542361e+00	-1.3179163584e-01
 3.6941278643e-01	 1.7324795035e+00	-5.4836196876e-01
 3.3174412121e-01	 1.7400852476e+00	-4.5825547224e-01
 2.9417060413e-01	 1.7468297864e+00	-3.8454617553e-01
 2.5671881214e-01	 1.7527252950e+00	-3.2101125138e-01
 2.1941441868e-01	 1.7577848962e+00	-2.6400270633e-01
 1.8228216077e-01	 1.7620225948e+00	-2.1210366057e-01
 1.4534581083e-01	 1.7654532120e+00	-1.6569642274e-01
 1.0862815339e-01	 1.7680923199e+00	-1.2648195758e-01
 7.2150966298e-02	 1.7699561753e+00	-9.6986161249e-02
 3.5935006479e-02	 1.7710616549e+00	-8.0083520659e-02
 0.0000000000e+00	 1.7714261903e+00	-7.8563488665e-02
 3.7537116506e-01	 1.7604232272e+00	-4.9581842884e-01
 3.3709492972e-01	 1.7681516468e+00	-4.0400982286e-01
 2.9891537720e-01	 1.7750049704e+00	-3.3050728942e-01
 2.6085951311e-01	 1.7809955697e+00	-2.6808822879e-01
 2.2295342499e-01	 1.7861367788e+00	-2.1251542206e-01
 1.8522224885e-01	 1.7904428286e+00	-1.6208595247e-01
 1.4769014055e-01	 1.7939287794e+00	-1.1708733069e-01
 1.1038025210e-01	 1.7966104543e+00	-7.9207777605e-02
 7.3314712631e-02	 1.7985043724e+00	-5.0939853288e-02
 3.6514613852e-02	 1.7996276826e+00	-3.5011145076e-02
 0.0000000000e+00	 1.7999980977e+00	-3.3869824208e-02
 3.8132953256e-01	 1.7883668988e+00	-4.5098395791e-01
 3.4244572824e-01	 1.7962179937e+00	-3.5969248646e-01
 3.0366014141e-01	 1.8031801019e+00	-2.8773907093e-01
 2.6500020635e-01	 1.8092657916e+00	-2.2700326461e-01
 2.2649242470e-01	 1.8144886085e+00	-1.7282788467e-01
 1.8816233144e-01	 1.8188630094e+00	-1.2340676711e-01
 1.5003446589e-01	 1.8224042936e+00	-7.9115837770e-02
 1.1213234755e-01	 1.8251285354e+00	-4.1801907344e-02
 7.4478456793e-02	 1.8270525163e+00	-1.4072448767e-02
 3.7094220143e-02	 1.8281936571e+00	 1.3765544713e-03
 0.0000000000e+00	 1.8285699519e+00	 2.3642241216e-03
 3.8728788755e-01	 1.8163105116e+00	-4.1576497111e-01
 3.4779651552e-01	 1.8242842816e+00	-3.2751634342e-01
 3.0840489565e-01	 1.8313551743e+00	-2.5855779645e-01
 2.6914089089e-01	 1.8375359541e+00	-1.9994747269e-01
 2.3003141697e-01	 1.8428403787e+00	-1.4683869376e-01
 1.9110240786e-01	 1.8472831305e+00	-9.7566817216e-02
 1.5237878631e-01	 1.8508797480e+00	-5.2840906939e-02
 1.1388443931e-01	 1.8536465567e+00	-1.5190947206e-02
 7.5642198511e-02	 1.8556006001e+00	 1.1894904169e-02
 3.7673825218e-02	 1.8567595715e+00	 2.6339515807e-02
 0.0000000000e+00	 1.8571417460e+00	 2.6809885814e-02
 1.8571417460e+00	 0.0000000000e+00	 3.1355673442e+00
 1.8567595715e+00	 3.7673825218e-02	 3.1159991149e+00
 1.8556006001e+00	 7.5642198511e-02	 3.0890084399e+00
 1.8536465567e+00	 1.1388443931e-01	 3.0526128810e+00
 1.8508797480e+00	 1.5237878631e-01	 3.0043303858e+00
 1.8472831305e+00	 1.9110240786e-01	 2.9404794567e+00
 1.8428403787e+00	 2.3003141697e-01	 2.8587028026e+00
 1.8375359541e+00	 2.6914089089e-01	 2.7588866786e+00
 1.8313551743e+00	 3.0840489565e-01	 2.6437554636e+00
 1.8242842816e+00	 3.4779651552e-01	 2.5197487551e+00
 1.8163105116e+00	 3.8728788755e-01	 2.3978727628e+00
 1.8857134768e+00	 0.0000000000e+00	 3.1121380543e+00
 1.8853254226e+00	 3.8253429007e-02	 3.0909464371e+00
 1.8841486207e+00	 7.6805937649e-02	 3.0584143911e+00
 1.8821645148e+00	 1.1563652719e-01	 3.0138114471e+00
 1.8793551393e+00	 1.5472310153e-01	 2.9559563050e+00
 1.8757031886e+00	 1.9404247777e-01	 2.8836571176e+00
 1.8711920860e+00	 2.3357040140e-01	 2.7962360230e+00
 1.8658060540e+00	 2.7328156626e-01	 2.6941627206e+00
 1.8595301841e+00	 3.1314963938e-01	 2.5798245597e+00
 1.8523505073e+00	 3.5314729094e-01	 2.4584625248e+00
 1.8442540626e+00	 3.9324622934e-01	 2.3384290939e+00
 1.9142851543e+00	 0.0000000000e+00	 3.0749500536e+00
 1.9138912204e+00	 3.8833031715e-02	 3.0554580272e+00
 1.9126965880e+00	 7.7969674616e-02	 3.0216219355e+00
 1.9106824196e+00	 1.1738861180e-01	 2.9736469143e+00
 1.9078304774e+00	 1.5706741237e-01	 2.9112479229e+00
 1.9041231936e+00	 1.9698254218e-01	 2.8340313050e+00
 1.8995437403e+00	 2.3710937923e-01	 2.7419568857e+00
 1.8940761010e+00	 2.7742223390e-01	 2.6359083456e+00
 1.8877051414e+00	 3.1789437426e-01	 2.5184028049e+00
 1.8804166806e+00	 3.5849805638e-01	 2.3944729353e+00
 1.8721975614e+00	 3.9920456000e-01	 2.2739258500e+00
 1.9428567917e+00	 0.0000000000e+00	 3.0244755547e+00
 1.9424569782e+00	 3.9412633612e-02	 3.0091419704e+00
 1.9412445154e+00	 7.9133409954e-02	 2.9773001869e+00
 1.9392002845e+00	 1.1914069396e-01	 2.9298203124e+00
 1.9363057757e+00	 1.5941171994e-01	 2.8670478082e+00
 1.9325431589e+00	 1.9992260249e-01	 2.7891196621e+00
 1.9278953550e+00	 2.4064835210e-01	 2.6963565703e+00
 1.9223461085e+00	 2.8156289575e-01	 2.5897620373e+00
 1.9158800593e+00	 3.2263910249e-01	 2.4716630681e+00
 1.9084828146e+00	 3.6384881433e-01	 2.3465300251e+00
 1.9001410210e+00	 4.0516288232e-01	 2.2243063851e+00
 1.9714284025e+00	 0.0000000000e+00	 2.9610026424e+00
 1.9710227094e+00	 3.9992234968e-02	 2.9515020834e+00
 1.9697924161e+00	 8.0297144206e-02	 2.9240844388e+00
 1.9677181227e+00	 1.2089277448e-01	 2.8800607525e+00
 1.9647810474e+00	 1.6175602532e-01	 2.8201905418e+00
 1.9609630976e+00	 2.0286266004e-01	 2.7449251067e+00
 1.9562469433e+00	 2.4418732167e-01	 2.6547214015e+00
 1.9506160897e+00	 2.8570355373e-01	 2.5504607861e+00
 1.9440549508e+00	 3.2738382630e-01	 2.4340113651e+00
 1.9365489224e+00	 3.6919956728e-01	 2.3089760829e+00
 1.9280844546e+00	 4.1112119908e-01	 2.1854637739e+00
 2.0000000000e+00	 0.0000000000e+00	 2.8846484765e+00
 1.9995884272e+00	 4.0571836054e-02	 2.8819475208e+00
 1.9983403035e+00	 8.1460877915e-02	 2.8605820753e+00
 1.9962359477e+00	 1.2264485419e-01	 2.8221276747e+00
 1.9932563058e+00	 1.6410032960e-01	 2.7675918940e+00
 1.9893830231e+00	 2.0580271623e-01	 2.6975764705e+00
 1.9845985183e+00	 2.4772628958e-01	 2.6125035195e+00
 1.9788860576e+00	 2.8984420977e-01	 2.5129438210e+00
 1.9722298292e+00	 3.3212854789e-01	 2.4000902258e+00
 1.9646150171e+00	 3.7455031774e-01	 2.2764479979e+00
 1.9560278751e+00	 4.1707951306e-01	 2.1522486979e+00
 2.0285715975e+00	 0.0000000000e+00	 2.7953713779e+00
 2.0281541450e+00	 4.1151437139e-02	 2.7998015583e+00
 2.0268881908e+00	 8.2624611624e-02	 2.7853779409e+00
 2.0247537727e+00	 1.2439693389e-01	 2.7538128225e+00
 2.0217315642e+00	 1.6644463389e-01	 2.7062475528e+00
 2.0178029485e+00	 2.0874277242e-01	 2.6433242683e+00
 2.0129500933e+00	 2.5126525750e-01	 2.5653141180e+00
 2.0071560255e+00	 2.9398486582e-01	 2.4723438847e+00
 2.0004047076e+00	 3.3687326948e-01	 2.3647687185e+00
 1.9926811118e+00	 3.7990106819e-01	 2.2438691535e+00
 1.9839712957e+00	 4.2303782704e-01	 2.1197662125e+00
 2.0571432083e+00	 0.0000000000e+00	 2.6929819054e+00
 2.0567198762e+00	 4.1731038495e-02	 2.7043096327e+00
 2.0554360915e+00	 8.3788345876e-02	 2.6970392236e+00
 2.0532716110e+00	 1.2614901442e-01	 2.6729419711e+00
 2.0502068359e+00	 1.6878893926e-01	 2.6332318269e+00
 2.0462228873e+00	 2.1168282997e-01	 2.5785366347e+00
 2.0413016815e+00	 2.5480422707e-01	 2.5089170072e+00
 2.0354260067e+00	 2.9812552380e-01	 2.4239789540e+00
 2.0285795991e+00	 3.4161799328e-01	 2.3231329946e+00
 2.0207472197e+00	 3.8525182115e-01	 2.2063445690e+00
 2.0119147292e+00	 4.2899614380e-01	 2.0833668263e+00
 2.0857148457e+00	 0.0000000000e+00	 2.5771530213e+00
 2.0852856340e+00	 4.2310640392e-02	 2.5946467091e+00
 2.0839840189e+00	 8.4952081214e-02	 2.5941198968e+00
 2.0817894759e+00	 1.2790109658e-01	 2.5773764324e+00
 2.0786821342e+00	 1.7113324683e-01	 2.5456963229e+00
 2.0746428525e+00	 2.1462289028e-01	 2.4996954100e+00
 2.0696532962e+00	 2.5834319994e-01	 2.4392224723e+00
 2.0636960142e+00	 3.0226618564e-01	 2.3633443637e+00
 2.0567545169e+00	 3.4636272152e-01	 2.2704773023e+00
 2.0488133537e+00	 3.9060257910e-01	 2.1592006606e+00
 2.0398581889e+00	 4.3495446612e-01	 2.0386380365e+00
 2.1142865232e+00	 0.0000000000e+00	 2.4474294311e+00
 2.1138514318e+00	 4.2890243100e-02	 2.4699240401e+00
 2.1125319862e+00	 8.6115818181e-02	 2.4751647628e+00
 2.1103073807e+00	 1.2965318119e-01	 2.4650143591e+00
 2.1071574723e+00	 1.7347755768e-01	 2.4408686033e+00
 2.1030628576e+00	 2.1756295469e-01	 2.4033923635e+00
 2.0980049505e+00	 2.6188217777e-01	 2.3522813985e+00
 2.0919660612e+00	 3.0640685329e-01	 2.2861052956e+00
 2.0849294742e+00	 3.5110745639e-01	 2.2022954271e+00
 2.0768795270e+00	 3.9595334453e-01	 2.0979798222e+00
 2.0678016877e+00	 4.4091279679e-01	 1.9813962787e+00
 2.1428582540e+00	 0.0000000000e+00	 2.3032361747e+00
 2.1424172829e+00	 4.3469846890e-02	 2.3291953730e+00
 2.1410800068e+00	 8.7279557320e-02	 2.3387131341e+00
 2.1388253387e+00	 1.3140526907e-01	 2.3337918653e+00
 2.1356328636e+00	 1.7582187290e-01	 2.3160508229e+00
 2.1314829156e+00	 2.2050302460e-01	 2.2863255393e+00
 2.1263566578e+00	 2.6542116220e-01	 2.2442796381e+00
 2.1202361611e+00	 3.1054752866e-01	 2.1880895981e+00
 2.1131044841e+00	 3.5585220013e-01	 2.1142725178e+00
 2.1049457527e+00	 4.0130411996e-01	 2.0184333578e+00
 2.0957452386e+00	 4.4687113857e-01	 1.9076792518e+00
 1.8163105116e+00	 3.8728788755e-01	 2.3978727628e+00
 1.8074228149e+00	 4.2684747719e-01	 2.2693871193e+00
 1.7976100897e+00	 4.6644845461e-01	 2.1179754554e+00
 1.7868629505e+00	 5.0606042561e-01	 1.9475155784e+00
 1.7751732630e+00	 5.4565224104e-01	 1.7623196161e+00
 1.7625342029e+00	 5.8519205690e-01	 1.5668414090e+00
 1.7489403119e+00	 6.2464739934e-01	 1.3654205911e+00
 1.7343875495e+00	 6.6398523435e-01	 1.1620798306e+00
 1.7188733416e+00	 7.0317204199e-01	 9.6039039306e-01
 1.7023966233e+00	 7.4217389490e-01	 7.6340228320e-01
 1.6849578786e+00	 7.8095654068e-01	 5.6080906348e-01
 1.8442540626e+00	 3.9324622934e-01	 2.3384290939e+00
 1.8352296305e+00	 4.3341443485e-01	 2.2105740828e+00
 1.8252659386e+00	 4.7362466488e-01	 2.0592347122e+00
 1.8143534570e+00	 5.1384605763e-01	 1.8888298888e+00
 1.8024839261e+00	 5.5404698472e-01	 1.7041873458e+00
 1.7896504168e+00	 5.9419511224e-01	 1.5102058975e+00
 1.7758473866e+00	 6.3425746673e-01	 1.3115600244e+00
 1.7610707331e+00	 6.7420050597e-01	 1.1124651940e+00
 1.7453178424e+00	 7.1399019431e-01	 9.1652086685e-01
 1.7285876333e+00	 7.5359208243e-01	 7.2542493045e-01
 1.7108805972e+00	 7.9297139097e-01	 5.2456682293e-01
 1.8721975614e+00	 3.9920456000e-01	 2.2739258500e+00
 1.8630363942e+00	 4.3998138024e-01	 2.1495958168e+00
 1.8529217359e+00	 4.8080086176e-01	 2.0039223783e+00
 1.8418439121e+00	 5.2163167512e-01	 1.8386005973e+00
 1.8297945382e+00	 5.6244171273e-01	 1.6576596578e+00
 1.8167665800e+00	 6.0319815077e-01	 1.4668254195e+00
 1.8027544111e+00	 6.4386751619e-01	 1.2714769803e+00
 1.7877538669e+00	 6.8441575852e-01	 1.0763660288e+00
 1.7717622938e+00	 7.2480832644e-01	 8.8543253768e-01
 1.7547785944e+00	 7.6501024864e-01	 6.9767111869e-01
 1.7368032675e+00	 8.0498621883e-01	 4.9828845720e-01
 1.9001410210e+00	 4.0516288232e-01	 2.2243063851e+00
 1.8908431190e+00	 4.4654831645e-01	 2.0997860690e+00
 1.8805774945e+00	 4.8797704859e-01	 1.9563653906e+00
 1.8693343288e+00	 5.2941728171e-01	 1.7959647703e+00
 1.8571051121e+00	 5.7083642899e-01	 1.6211236214e+00
 1.8438827053e+00	 6.1220117670e-01	 1.4351133717e+00
 1.8296613980e+00	 6.5347755219e-01	 1.2435722328e+00
 1.8144369633e+00	 6.9463099676e-01	 1.0521730071e+00
 1.7982067082e+00	 7.3562644342e-01	 8.6550379838e-01
 1.7809695188e+00	 7.7642839888e-01	 6.7885787265e-01
 1.7627259014e+00	 8.1700102987e-01	 4.8058658786e-01
 1.9280844546e+00	 4.1112119908e-01	 2.1854637739e+00
 1.9186498178e+00	 4.5311524653e-01	 2.0602098289e+00
 1.9082332273e+00	 4.9515322872e-01	 1.9179929371e+00
 1.8968247198e+00	 5.3720288103e-01	 1.7607487768e+00
 1.8844156605e+00	 5.7923113741e-01	 1.5910102101e+00
 1.8709988053e+00	 6.2120419423e-01	 1.4117530652e+00
 1.8565683597e+00	 6.6308757922e-01	 1.2261752983e+00
 1.8411200348e+00	 7.0484622548e-01	 1.0383899362e+00
 1.8246510979e+00	 7.4644455030e-01	 8.5507947553e-01
 1.8071604188e+00	 7.8784653845e-01	 6.6784535736e-01
 1.7886485111e+00	 8.2901582970e-01	 4.7021513617e-01
 1.9560278751e+00	 4.1707951306e-01	 2.1522486979e+00
 1.9464565037e+00	 4.5968217354e-01	 2.0260841186e+00
 1.9358889471e+00	 5.0232940551e-01	 1.8844320475e+00
 1.9243150980e+00	 5.4498847672e-01	 1.7292997963e+00
 1.9117261962e+00	 5.8762584192e-01	 1.5632813897e+00
 1.8981148926e+00	 6.3020720756e-01	 1.3894290275e+00
 1.8834753089e+00	 6.7269760176e-01	 1.2110515550e+00
 1.8678030939e+00	 7.1506144942e-01	 1.0314266508e+00
 1.8510954753e+00	 7.5726265213e-01	 8.5198913907e-01
 1.8333513066e+00	 7.9926467270e-01	 6.6362353785e-01
 1.8145711088e+00	 8.4103062392e-01	 4.6605494708e-01
 1.9839712957e+00	 4.2303782704e-01	 2.1197662125e+00
 1.9742631895e+00	 4.6624910055e-01	 1.9928872728e+00
 1.9635446670e+00	 5.0950558229e-01	 1.8515746132e+00
 1.9518054762e+00	 5.5277407241e-01	 1.6979418436e+00
 1.9390367319e+00	 5.9602054643e-01	 1.5346915569e+00
 1.9252309799e+00	 6.3921022088e-01	 1.3650157760e+00
 1.9103822581e+00	 6.8230762431e-01	 1.1924163529e+00
 1.8944861530e+00	 7.2527667337e-01	 1.0204301076e+00
 1.8775398527e+00	 7.6808075397e-01	 8.4861780440e-01
 1.8595421944e+00	 8.1068280694e-01	 6.6466319051e-01
 1.8404937064e+00	 8.5304541813e-01	 4.6709954455e-01
 2.0119147292e+00	 4.2899614380e-01	 2.0833668263e+00
 2.0020698883e+00	 4.7281603063e-01	 1.9563496605e+00
 1.9912003998e+00	 5.1668176242e-01	 1.8155675519e+00
 1.9792958672e+00	 5.6055967173e-01	 1.6632531153e+00
 1.9663472803e+00	 6.0441525485e-01	 1.5022444780e+00
 1.9523470799e+00	 6.4821323841e-01	 1.3359184036e+00
 1.9372892198e+00	 6.9191765133e-01	 1.1680355825e+00
 1.9211692245e+00	 7.3549190208e-01	 1.0024807848e+00
 1.9039842424e+00	 7.7889886085e-01	 8.3632011344e-01
 1.8857330944e+00	 8.2210094651e-01	 6.5949039134e-01
 1.8664163161e+00	 8.6506021796e-01	 4.7001159563e-01
 2.0398581889e+00	 4.3495446612e-01	 2.0386380365e+00
 2.0298766131e+00	 4.7938296684e-01	 1.9124448012e+00
 2.0188561583e+00	 5.2385794926e-01	 1.7728033046e+00
 2.0067862839e+00	 5.6834527832e-01	 1.6220556282e+00
 1.9936578542e+00	 6.1280997111e-01	 1.4631817947e+00
 1.9794632052e+00	 6.5721626434e-01	 1.2997696585e+00
 1.9641962066e+00	 7.0152768733e-01	 1.1358884053e+00
 1.9478523209e+00	 7.4570714033e-01	 9.7575400184e-01
 1.9304286569e+00	 7.8971697783e-01	 8.1373966156e-01
 1.9119240188e+00	 8.3351909675e-01	 6.4314583735e-01
 1.8923389501e+00	 8.7707502900e-01	 4.6225293353e-01
 2.0678016877e+00	 4.4091279679e-01	 1.9813962787e+00
 2.0576833768e+00	 4.8594991224e-01	 1.8573808396e+00
 2.0465119556e+00	 5.3103414613e-01	 1.7199106319e+00
 2.0342767390e+00	 5.7613089581e-01	 1.5714051017e+00
 2.0209684663e+00	 6.2120469912e-01	 1.4149717229e+00
 2.0065793684e+00	 6.6621930287e-01	 1.2544171605e+00
 1.9911032311e+00	 7.1113773679e-01	 1.0941526625e+00
 1.9745354547e+00	 7.5592239288e-01	 9.3818922198e-01
 1.9568731083e+00	 8.0053510995e-01	 7.7964774827e-01
 1.9381149799e+00	 8.4493726296e-01	 6.1446574249e-01
 1.9182616203e+00	 8.8908985686e-01	 4.4119359123e-01
 2.0957452386e+00	 4.4687113857e-01	 1.9076792518e+00
 2.0854901924e+00	 4.9251686990e-01	 1.7875923427e+00
 2.0741678046e+00	 5.3821035641e-01	 1.6537456836e+00
 2.0617672455e+00	 5.8391652783e-01	 1.5085810628e+00
 2.0482791294e+00	 6.2959944281e-01	 1.3552979271e+00
 2.0336955823e+00	 6.7522235821e-01	 1.1979107518e+00
 2.0180103059e+00	 7.2074780418e-01	 1.0411903853e+00
 2.0012186383e+00	 7.6613766449e-01	 8.8845493583e-01
 1.9833176091e+00	 8.1135326227e-01	 7.3293212943e-01
 1.9643059899e+00	 8.5635545049e-01	 5.7240325017e-01
 1.9441843389e+00	 9.0110470714e-01	 4.0580098060e-01
 1.6849578786e+00	 7.8095654068e-01	 5.6080906348e-01
 1.6665578535e+00	 8.1948817376e-01	 3.4947411136e-01
 1.6472014204e+00	 8.5773141404e-01	 1.3799996399e-01
 1.6268938986e+00	 8.9565154503e-01	-7.1039412866e-02
 1.6056422558e+00	 9.3321388714e-01	-2.7518528684e-01
 1.5834551166e+00	 9.7038389414e-01	-4.7200351816e-01
 1.5603427655e+00	 1.0071272509e+00	-6.5895634805e-01
 1.5363171425e+00	 1.0434099722e+00	-8.3323775955e-01
 1.5113918316e+00	 1.0791985014e+00	-9.9157518211e-01
 1.4855820422e+00	 1.1144598091e+00	-1.1300345178e+00
 1.4589045842e+00	 1.1491614912e+00	-1.2541938168e+00
 1.7108805972e+00	 7.9297139097e-01	 5.2456682293e-01
 1.6921974916e+00	 8.3209582503e-01	 3.1567001743e-01
 1.6725432639e+00	 8.7092742942e-01	 1.0696638219e-01
 1.6519233153e+00	 9.0943095356e-01	-9.8946483687e-02
 1.6303447204e+00	 9.4757118433e-01	-2.9966855523e-01
 1.6078162368e+00	 9.8531304397e-01	-4.9290176399e-01
 1.5843483071e+00	 1.0226216895e+00	-6.7631214374e-01
 1.5599530550e+00	 1.0594626127e+00	-8.4735081891e-01
 1.5346442735e+00	 1.0958017408e+00	-1.0030367107e+00
 1.5084374060e+00	 1.1316055363e+00	-1.1407016713e+00
 1.4813495210e+00	 1.1668410963e+00	-1.2622149096e+00
 1.7368032675e+00	 8.0498621883e-01	 4.9828845720e-01
 1.7178370819e+00	 8.4470345276e-01	 2.9157165462e-01
 1.6978850601e+00	 8.8412342018e-01	 8.5252120077e-02
 1.6769526852e+00	 9.2321033638e-01	-1.1800099966e-01
 1.6550471389e+00	 9.6192845471e-01	-3.1580501355e-01
 1.6321773115e+00	 1.0002421659e+00	-5.0596354400e-01
 1.6083538039e+00	 1.0381160991e+00	-6.8631910284e-01
 1.5835889234e+00	 1.0755152233e+00	-8.5455937922e-01
 1.5578966720e+00	 1.1124049492e+00	-1.0079825772e+00
 1.5312927271e+00	 1.1487512314e+00	-1.1459204490e+00
 1.5037944158e+00	 1.1845206685e+00	-1.2695148070e+00
 1.7627259014e+00	 8.1700102987e-01	 4.8058658786e-01
 1.7434766363e+00	 8.5731106284e-01	 2.7566065363e-01
 1.7232268209e+00	 8.9731939246e-01	 7.1232857668e-02
 1.7019820200e+00	 9.3698969990e-01	-1.2990630805e-01
 1.6797495228e+00	 9.7628570499e-01	-3.2534920304e-01
 1.6565383521e+00	 1.0151712670e+00	-5.1296688341e-01
 1.6323592671e+00	 1.0536104871e+00	-6.9075221339e-01
 1.6072247587e+00	 1.0915678113e+00	-8.5661112789e-01
 1.5811490379e+00	 1.1290081344e+00	-1.0084462992e+00
 1.5541480162e+00	 1.1658969025e+00	-1.1467003436e+00
 1.5262392793e+00	 1.2022002159e+00	-1.2717946520e+00
 1.7886485111e+00	 8.2901582970e-01	 4.7021513617e-01
 1.7691161668e+00	 8.6991866116e-01	 2.6656068023e-01
 1.7485685580e+00	 9.1051535242e-01	 6.3427123260e-02
 1.7270113315e+00	 9.5076905057e-01	-1.3622172040e-01
 1.7044518837e+00	 9.9064294187e-01	-3.2990981408e-01
 1.6808993700e+00	 1.0301003541e+00	-5.1554130724e-01
 1.6563647079e+00	 1.0691048606e+00	-6.9123432404e-01
 1.6308605719e+00	 1.1076203844e+00	-8.5509688117e-01
 1.6044013821e+00	 1.1456113041e+00	-1.0058758318e+00
 1.5770032840e+00	 1.1830425577e+00	-1.1440743823e+00
 1.5486841218e+00	 1.2198797468e+00	-1.2700814955e+00
 1.8145711088e+00	 8.4103062392e-01	 4.6605494708e-01
 1.7947556852e+00	 8.8252625359e-01	 2.6302198616e-01
 1.7739102832e+00	 9.2371130622e-01	 6.0479941223e-02
 1.7520406314e+00	 9.6454839480e-01	-1.3837959440e-01
 1.7291542331e+00	 1.0050001720e+00	-3.3096732216e-01
 1.7052603765e+00	 1.0450294343e+00	-5.1518585499e-01
 1.6803701375e+00	 1.0845992268e+00	-6.8925436362e-01
 1.6544963741e+00	 1.1236729500e+00	-8.5150962139e-01
 1.6276537155e+00	 1.1622144660e+00	-1.0013172331e+00
 1.5998585411e+00	 1.2001882048e+00	-1.1390922577e+00
 1.5711289538e+00	 1.2375592694e+00	-1.2654179307e+00
 1.8404937064e+00	 8.5304541813e-01	 4.6709954455e-01
 1.8203952037e+00	 8.9513384602e-01	 2.6390612867e-01
 1.7992520085e+00	 9.3690726003e-01	 6.1146678212e-02
 1.7770699312e+00	 9.7832773903e-01	-1.3770219466e-01
 1.7538565824e+00	 1.0193574022e+00	-3.2989138716e-01
 1.7296213831e+00	 1.0599585145e+00	-5.1328684907e-01
 1.7043755670e+00	 1.1000935931e+00	-6.8618531085e-01
 1.6781321763e+00	 1.1397255156e+00	-8.4714239227e-01
 1.6509060489e+00	 1.1788176280e+00	-9.9582904074e-01
 1.6227137982e+00	 1.2173338519e+00	-1.1328132285e+00
 1.5935737858e+00	 1.2552387920e+00	-1.2588544200e+00
 1.8664163161e+00	 8.6506021796e-01	 4.7001159563e-01
 1.8460347342e+00	 9.0774144434e-01	 2.6817084223e-01
 1.8245937456e+00	 9.5010321999e-01	 6.4277068292e-02
 1.8020992427e+00	 9.9210708969e-01	-1.3541835435e-01
 1.7785589433e+00	 1.0337146391e+00	-3.2795803909e-01
 1.7539824010e+00	 1.0748876016e+00	-5.1113544135e-01
 1.7283810078e+00	 1.1155879666e+00	-6.8329785150e-01
 1.7017679896e+00	 1.1557780887e+00	-8.4305627149e-01
 1.6741583931e+00	 1.1954207977e+00	-9.9047534312e-01
 1.6455690660e+00	 1.2344795071e+00	-1.1262988151e+00
 1.6160186283e+00	 1.2729183229e+00	-1.2514416226e+00
 1.8923389501e+00	 8.7707502900e-01	 4.6225293353e-01
 1.8716742886e+00	 9.2034905442e-01	 2.7020182867e-01
 1.8499355064e+00	 9.6329919227e-01	 6.8799399539e-02
 1.8271285776e+00	 1.0058864532e+00	-1.3267995693e-01
 1.8032613272e+00	 1.0480718894e+00	-3.2636667132e-01
 1.7783434416e+00	 1.0898167027e+00	-5.0994495931e-01
 1.7523864710e+00	 1.1310823545e+00	-6.8168762993e-01
 1.7254038249e+00	 1.1718306768e+00	-8.4031011820e-01
 1.6974107591e+00	 1.2120239828e+00	-9.8631865483e-01
 1.6684243551e+00	 1.2516251782e+00	-1.1206053083e+00
 1.6384634917e+00	 1.2905978703e+00	-1.2442225490e+00
 1.9182616203e+00	 8.8908985686e-01	 4.4119359123e-01
 1.8973138788e+00	 9.3295668215e-01	 2.5841421122e-01
 1.8752773026e+00	 9.7649518302e-01	 6.7134686827e-02
 1.8521579475e+00	 1.0196658360e+00	-1.3057914387e-01
 1.8279637457e+00	 1.0624291598e+00	-3.2625685954e-01
 1.8027045163e+00	 1.1047458246e+00	-5.1086807124e-01
 1.7763919678e+00	 1.1465767641e+00	-6.8238690106e-01
 1.7490396933e+00	 1.1878832873e+00	-8.3995913996e-01
 1.7206631575e+00	 1.2286271913e+00	-9.8441261540e-01
 1.6912796762e+00	 1.2687708733e+00	-1.1167761097e+00
 1.6609083866e+00	 1.3082774424e+00	-1.2382245560e+00
 1.9441843389e+00	 9.0110470714e-01	 4.0580098060e-01
 1.9229535170e+00	 9.4556433342e-01	 2.3136256645e-01
 1.9006191461e+00	 9.8969119840e-01	 4.9480468509e-02
 1.8771873641e+00	 1.0334452446e+00	-1.3779188792e-01
 1.8526662103e+00	 1.0767864569e+00	-3.2873218349e-01
 1.8270656365e+00	 1.1196749745e+00	-5.1497483635e-01
 1.8003975094e+00	 1.1620712027e+00	-6.8643669784e-01
 1.7726756058e+00	 1.2039359279e+00	-8.4304779141e-01
 1.7439155994e+00	 1.2452304307e+00	-9.8579452755e-01
 1.7141350400e+00	 1.2859166005e+00	-1.1158339183e+00
 1.6833533233e+00	 1.3259570476e+00	-1.2344511990e+00
 1.4589045842e+00	 1.1491614912e+00	-1.2541938168e+00
 1.4313778311e+00	 1.1832718678e+00	-1.3780415308e+00
 1.4030216684e+00	 1.2167600874e+00	-1.5020038648e+00
 1.3738574599e+00	 1.2495962085e+00	-1.6221821586e+00
 1.3439079992e+00	 1.2817512851e+00	-1.7350200210e+00
 1.3131974507e+00	 1.3131974507e+00	-1.8370798474e+00
 1.2817512851e+00	 1.3439079992e+00	-1.9248178155e+00
 1.2495962085e+00	 1.3738574599e+00	-1.9943689340e+00
 1.2167600874e+00	 1.4030216684e+00	-2.0413532972e+00
 1.1832718678e+00	 1.4313778311e+00	-2.0607138142e+00
 1.1491614912e+00	 1.4589045842e+00	-2.0465943793e+00
 1.4813495210e+00	 1.1668410963e+00	-1.2622149096e+00
 1.4533992746e+00	 1.2014762538e+00	-1.3787342053e+00
 1.4246068583e+00	 1.2354796825e+00	-1.4977565094e+00
 1.3949939647e+00	 1.2688209804e+00	-1.6148237985e+00
 1.3645837379e+00	 1.3014707560e+00	-1.7258447222e+00
 1.3334007142e+00	 1.3334007142e+00	-1.8268444060e+00
 1.3014707560e+00	 1.3645837379e+00	-1.9137129326e+00
 1.2688209804e+00	 1.3949939647e+00	-1.9819653458e+00
 1.2354796825e+00	 1.4246068583e+00	-2.0265255407e+00
 1.2014762538e+00	 1.4533992746e+00	-2.0415454276e+00
 1.1668410963e+00	 1.4813495210e+00	-2.0202693067e+00
 1.5037944158e+00	 1.1845206685e+00	-1.2695148070e+00
 1.4754206770e+00	 1.2196806059e+00	-1.3821951334e+00
 1.4461920080e+00	 1.2541992427e+00	-1.4946527953e+00
 1.4161304301e+00	 1.2880457164e+00	-1.6069829022e+00
 1.3852594381e+00	 1.3211901901e+00	-1.7146116120e+00
 1.3536039400e+00	 1.3536039400e+00	-1.8130765459e+00
 1.3211901901e+00	 1.3852594381e+00	-1.8977452327e+00
 1.2880457164e+00	 1.4161304301e+00	-1.9635467163e+00
 1.2541992427e+00	 1.4461920080e+00	-2.0047300206e+00
 1.2196806059e+00	 1.4754206770e+00	-2.0146620746e+00
 1.1845206685e+00	 1.5037944158e+00	-1.9898840736e+00
 1.5262392793e+00	 1.2022002159e+00	-1.2717946520e+00
 1.4974420486e+00	 1.2378849324e+00	-1.3867226950e+00
 1.4677771275e+00	 1.2729187768e+00	-1.4934443354e+00
 1.4372668659e+00	 1.3072704255e+00	-1.5994864052e+00
 1.4059351093e+00	 1.3409095966e+00	-1.7022273743e+00
 1.3738071375e+00	 1.3738071375e+00	-1.7967684752e+00
 1.3409095966e+00	 1.4059351093e+00	-1.8779990856e+00
 1.3072704255e+00	 1.4372668659e+00	-1.9402963705e+00
 1.2729187768e+00	 1.4677771275e+00	-1.9772550569e+00
 1.2378849324e+00	 1.4974420486e+00	-1.9832474445e+00
 1.2022002159e+00	 1.5262392793e+00	-1.9604089025e+00
 1.5486841218e+00	 1.2198797468e+00	-1.2700814955e+00
 1.5194633996e+00	 1.2560892420e+00	-1.3867954402e+00
 1.4893622268e+00	 1.2916382933e+00	-1.4942552623e+00
 1.4584032819e+00	 1.3264951167e+00	-1.5930592279e+00
 1.4266107612e+00	 1.3606289847e+00	-1.6894910221e+00
 1.3940103161e+00	 1.3940103161e+00	-1.7788014588e+00
 1.3606289847e+00	 1.4266107612e+00	-1.8554475864e+00
 1.3264951167e+00	 1.4584032819e+00	-1.9132894758e+00
 1.2916382933e+00	 1.4893622268e+00	-1.9456395630e+00
 1.2560892420e+00	 1.5194633996e+00	-1.9526698930e+00
 1.2198797468e+00	 1.5486841218e+00	-1.9317842018e+00
 1.5711289538e+00	 1.2375592694e+00	-1.2654179307e+00
 1.5414847404e+00	 1.2742935431e+00	-1.3830953109e+00
 1.5109473161e+00	 1.3103578011e+00	-1.4919438587e+00
 1.4795396881e+00	 1.3457197989e+00	-1.5883090760e+00
 1.4472864035e+00	 1.3803483636e+00	-1.6770773432e+00
 1.4142134854e+00	 1.4142134854e+00	-1.7599279571e+00
 1.3803483636e+00	 1.4472864035e+00	-1.8309334369e+00
 1.3457197989e+00	 1.4795396881e+00	-1.8834727208e+00
 1.3103578011e+00	 1.5109473161e+00	-1.9143562737e+00
 1.2742935431e+00	 1.5414847404e+00	-1.9228588473e+00
 1.2375592694e+00	 1.5711289538e+00	-1.9036158801e+00
 1.5935737858e+00	 1.2552387920e+00	-1.2588544200e+00
 1.5635060811e+00	 1.2924978442e+00	-1.3766607673e+00
 1.5325324053e+00	 1.3290773089e+00	-1.4858896824e+00
 1.5006760943e+00	 1.3649444811e+00	-1.5829165814e+00
 1.4679620457e+00	 1.4000677425e+00	-1.6655202038e+00
 1.4344166546e+00	 1.4344166546e+00	-1.7407536440e+00
 1.4000677425e+00	 1.4679620457e+00	-1.8051497332e+00
 1.3649444811e+00	 1.5006760943e+00	-1.8530638144e+00
 1.3290773089e+00	 1.5325324053e+00	-1.8839481323e+00
 1.2924978442e+00	 1.5635060811e+00	-1.8931654748e+00
 1.2552387920e+00	 1.5935737858e+00	-1.8752101701e+00
 1.6160186283e+00	 1.2729183229e+00	-1.2514416226e+00
 1.5855274321e+00	 1.3107021537e+00	-1.3685294241e+00
 1.5541175046e+00	 1.3477968255e+00	-1.4771186499e+00
 1.5218125104e+00	 1.3841691723e+00	-1.5736951062e+00
 1.4886376976e+00	 1.4197871306e+00	-1.6548532272e+00
 1.4546198332e+00	 1.4546198332e+00	-1.7217193168e+00
 1.4197871306e+00	 1.4886376976e+00	-1.7787562154e+00
 1.3841691723e+00	 1.5218125104e+00	-1.8237747666e+00
 1.3477968255e+00	 1.5541175046e+00	-1.8535254345e+00
 1.3107021537e+00	 1.5855274321e+00	-1.8626728491e+00
 1.2729183229e+00	 1.6160186283e+00	-1.8456083429e+00
 1.6384634917e+00	 1.2905978703e+00	-1.2442225490e+00
 1.6075488037e+00	 1.3289064803e+00	-1.3597298830e+00
 1.5757026241e+00	 1.3665163595e+00	-1.4666472820e+00
 1.5429489462e+00	 1.4033938814e+00	-1.5616204136e+00
 1.5093133689e+00	 1.4395065371e+00	-1.6413881987e+00
 1.4748230307e+00	 1.4748230307e+00	-1.7030827092e+00
 1.4395065371e+00	 1.5093133689e+00	-1.7532899175e+00
 1.4033938814e+00	 1.5429489462e+00	-1.7945041189e+00
 1.3665163595e+00	 1.5757026241e+00	-1.8219616334e+00
 1.3289064803e+00	 1.6075488037e+00	-1.8302315848e+00
 1.2905978703e+00	 1.6384634917e+00	-1.8136214737e+00
 1.6609083866e+00	 1.3082774424e+00	-1.2382245560e+00
 1.6295702061e+00	 1.3471108323e+00	-1.3512734186e+00
 1.5972877738e+00	 1.3852359197e+00	-1.4554741266e+00
 1.5640854116e+00	 1.4226186174e+00	-1.5476805382e+00
 1.5299890690e+00	 1.4592259713e+00	-1.6248206659e+00
 1.4950262565e+00	 1.4950262565e+00	-1.6841150361e+00
 1.4592259713e+00	 1.5299890690e+00	-1.7280036853e+00
 1.4226186174e+00	 1.5640854116e+00	-1.7639267832e+00
 1.3852359197e+00	 1.5972877738e+00	-1.7879295680e+00
 1.3471108323e+00	 1.6295702061e+00	-1.7944954802e+00
 1.3082774424e+00	 1.6609083866e+00	-1.7778652550e+00
 1.6833533233e+00	 1.3259570476e+00	-1.2344511990e+00
 1.6515916496e+00	 1.3653152184e+00	-1.3441455320e+00
 1.6188729638e+00	 1.4039555149e+00	-1.4445710612e+00
 1.5852219164e+00	 1.4418433893e+00	-1.5328371705e+00
 1.5506648078e+00	 1.4789454422e+00	-1.6061041891e+00
 1.5152295200e+00	 1.5152295200e+00	-1.6620490385e+00
 1.4789454422e+00	 1.5506648078e+00	-1.7013818225e+00
 1.4418433893e+00	 1.5852219164e+00	-1.7305473005e+00
 1.4039555149e+00	 1.6188729638e+00	-1.7499376701e+00
 1.3653152184e+00	 1.6515916496e+00	-1.7539571694e+00
 1.3259570476e+00	 1.6833533233e+00	-1.7367948522e+00
 1.1491614912e+00	 1.4589045842e+00	-2.0465943793e+00
 1.1144598091e+00	 1.4855820422e+00	-2.0121312280e+00
 1.0791985014e+00	 1.5113918316e+00	-1.9766496982e+00
 1.0434099722e+00	 1.5363171425e+00	-1.9351034911e+00
 1.0071272509e+00	 1.5603427655e+00	-1.8849258731e+00
 9.7038389414e-01	 1.5834551166e+00	-1.8250684596e+00
 9.3321388714e-01	 1.6056422558e+00	-1.7555676095e+00
 8.9565154503e-01	 1.6268938986e+00	-1.6772057230e+00
 8.5773141404e-01	 1.6472014204e+00	-1.5912227067e+00
 8.1948817376e-01	 1.6665578535e+00	-1.4990799601e+00
 7.8095654068e-01	 1.6849578786e+00	-1.4022770123e+00
 1.1668410963e+00	 1.4813495210e+00	-2.0202693067e+00
 1.1316055363e+00	 1.5084374060e+00	-1.9814241659e+00
 1.0958017408e+00	 1.5346442735e+00	-1.9473068799e+00
 1.0594626127e+00	 1.5599530550e+00	-1.9069000318e+00
 1.0226216895e+00	 1.5843483071e+00	-1.8563197605e+00
 9.8531304397e-01	 1.6078162368e+00	-1.7951065927e+00
 9.4757118433e-01	 1.6303447204e+00	-1.7238250763e+00
 9.0943095356e-01	 1.6519233153e+00	-1.6437020520e+00
 8.7092742942e-01	 1.6725432639e+00	-1.5563220861e+00
 8.3209582503e-01	 1.6921974916e+00	-1.4633822063e+00
 7.9297139097e-01	 1.7108805972e+00	-1.3665056362e+00
 1.1845206685e+00	 1.5037944158e+00	-1.9898840736e+00
 1.1487512314e+00	 1.5312927271e+00	-1.9515500251e+00
 1.1124049492e+00	 1.5578966720e+00	-1.9166977104e+00
 1.0755152233e+00	 1.5835889234e+00	-1.8783639566e+00
 1.0381160991e+00	 1.6083538039e+00	-1.8283308843e+00
 1.0002421659e+00	 1.6321773115e+00	-1.7667084574e+00
 9.6192845471e-01	 1.6550471389e+00	-1.6945677206e+00
 9.2321033638e-01	 1.6769526852e+00	-1.6135473255e+00
 8.8412342018e-01	 1.6978850601e+00	-1.5255334501e+00
 8.4470345276e-01	 1.7178370819e+00	-1.4324063608e+00
 8.0498621883e-01	 1.7368032675e+00	-1.3358528085e+00
 1.2022002159e+00	 1.5262392793e+00	-1.9604089025e+00
 1.1658969025e+00	 1.5541480162e+00	-1.9227687056e+00
 1.1290081344e+00	 1.5811490379e+00	-1.8864644389e+00
 1.0915678113e+00	 1.6072247587e+00	-1.8493306157e+00
 1.0536104871e+00	 1.6323592671e+00	-1.8006317081e+00
 1.0151712670e+00	 1.6565383521e+00	-1.7394360461e+00
 9.7628570499e-01	 1.6797495228e+00	-1.6672995846e+00
 9.3698969990e-01	 1.7019820200e+00	-1.5862385147e+00
 8.9731939246e-01	 1.7232268209e+00	-1.4983943066e+00
 8.5731106284e-01	 1.7434766363e+00	-1.4057733314e+00
 8.1700102987e-01	 1.7627259014e+00	-1.3100596773e+00
 1.2198797468e+00	 1.5486841218e+00	-1.9317842018e+00
 1.1830425577e+00	 1.5770032840e+00	-1.8949750805e+00
 1.1456113041e+00	 1.6044013821e+00	-1.8576695655e+00
 1.1076203844e+00	 1.6308605719e+00	-1.8196617279e+00
 1.0691048606e+00	 1.6563647079e+00	-1.7729302265e+00
 1.0301003541e+00	 1.6808993700e+00	-1.7128988197e+00
 9.9064294187e-01	 1.7044518837e+00	-1.6415864650e+00
 9.5076905057e-01	 1.7270113315e+00	-1.5613504669e+00
 9.1051535242e-01	 1.7485685580e+00	-1.4745374073e+00
 8.6991866116e-01	 1.7691161668e+00	-1.3832172302e+00
 8.2901582970e-01	 1.7886485111e+00	-1.2889984396e+00
 1.2375592694e+00	 1.5711289538e+00	-1.9036158801e+00
 1.2001882048e+00	 1.5998585411e+00	-1.8677323968e+00
 1.1622144660e+00	 1.6276537155e+00	-1.8298609779e+00
 1.1236729500e+00	 1.6544963741e+00	-1.7899063420e+00
 1.0845992268e+00	 1.6803701375e+00	-1.7449279647e+00
 1.0450294343e+00	 1.7052603765e+00	-1.6867126382e+00
 1.0050001720e+00	 1.7291542331e+00	-1.6170160890e+00
 9.6454839480e-01	 1.7520406314e+00	-1.5384976320e+00
 9.2371130622e-01	 1.7739102832e+00	-1.4536543174e+00
 8.8252625359e-01	 1.7947556852e+00	-1.3645510632e+00
 8.4103062392e-01	 1.8145711088e+00	-1.2726404130e+00
 1.2552387920e+00	 1.5935737858e+00	-1.8752101701e+00
 1.2173338519e+00	 1.6227137982e+00	-1.8403057898e+00
 1.1788176280e+00	 1.6509060489e+00	-1.8022865978e+00
 1.1397255156e+00	 1.6781321763e+00	-1.7610695676e+00
 1.1000935931e+00	 1.7043755670e+00	-1.7162782023e+00
 1.0599585145e+00	 1.7296213831e+00	-1.6604589341e+00
 1.0193574022e+00	 1.7538565824e+00	-1.5931585407e+00
 9.7832773903e-01	 1.7770699312e+00	-1.5172960355e+00
 9.3690726003e-01	 1.7992520085e+00	-1.4354592180e+00
 8.9513384602e-01	 1.8203952037e+00	-1.3496326295e+00
 8.5304541813e-01	 1.8404937064e+00	-1.2610242789e+00
 1.2729183229e+00	 1.6160186283e+00	-1.8456083429e+00
 1.2344795071e+00	 1.6455690660e+00	-1.8116959021e+00
 1.1954207977e+00	 1.6741583931e+00	-1.7739268011e+00
 1.1557780887e+00	 1.7017679896e+00	-1.7321943319e+00
 1.1155879666e+00	 1.7283810078e+00	-1.6866109407e+00
 1.0748876016e+00	 1.7539824010e+00	-1.6336441018e+00
 1.0337146391e+00	 1.7785589433e+00	-1.5695269115e+00
 9.9210708969e-01	 1.8020992427e+00	-1.4973254758e+00
 9.5010321999e-01	 1.8245937456e+00	-1.4196529205e+00
 9.0774144434e-01	 1.8460347342e+00	-1.3383306073e+00
 8.6506021796e-01	 1.8664163161e+00	-1.2518167794e+00
 1.2905978703e+00	 1.6384634917e+00	-1.8136214737e+00
 1.2516251782e+00	 1.6684243551e+00	-1.7806725955e+00
 1.2120239828e+00	 1.6974107591e+00	-1.7435269678e+00
 1.1718306768e+00	 1.7254038249e+00	-1.7020227991e+00
 1.1310823545e+00	 1.7523864710e+00	-1.6562829833e+00
 1.0898167027e+00	 1.7783434416e+00	-1.6056590831e+00
 1.0480718894e+00	 1.8032613272e+00	-1.5455381534e+00
 1.0058864532e+00	 1.8271285776e+00	-1.4780919200e+00
 9.6329919227e-01	 1.8499355064e+00	-1.4058870683e+00
 9.2034905442e-01	 1.8716742886e+00	-1.3257273183e+00
 8.7707502900e-01	 1.8923389501e+00	-1.2330683246e+00
 1.3082774424e+00	 1.6609083866e+00	-1.7778652550e+00
 1.2687708733e+00	 1.6912796762e+00	-1.7458087484e+00
 1.2286271913e+00	 1.7206631575e+00	-1.7096301492e+00
 1.1878832873e+00	 1.7490396933e+00	-1.6690858903e+00
 1.1465767641e+00	 1.7763919678e+00	-1.6242956657e+00
 1.1047458246e+00	 1.8027045163e+00	-1.5757391279e+00
 1.0624291598e+00	 1.8279637457e+00	-1.5204741127e+00
 1.0196658360e+00	 1.8521579475e+00	-1.4589891254e+00
 9.7649518302e-01	 1.8752773026e+00	-1.3867710222e+00
 9.3295668215e-01	 1.8973138788e+00	-1.3001295658e+00
 8.8908985686e-01	 1.9182616203e+00	-1.2019635174e+00
 1.3259570476e+00	 1.6833533233e+00	-1.7367948522e+00
 1.2859166005e+00	 1.7141350400e+00	-1.7055141296e+00
 1.2452304307e+00	 1.7439155994e+00	-1.6706098423e+00
 1.2039359279e+00	 1.7726756058e+00	-1.6317348526e+00
 1.1620712027e+00	 1.8003975094e+00	-1.5889979881e+00
 1.1196749745e+00	 1.8270656365e+00	-1.5430379585e+00
 1.0767864569e+00	 1.8526662103e+00	-1.4934347503e+00
 1.0334452446e+00	 1.8771873641e+00	-1.4309058796e+00
 9.8969119840e-01	 1.9006191461e+00	-1.3517936456e+00
 9.4556433342e-01	 1.9229535170e+00	-1.2596203399e+00
 9.0110470714e-01	 1.9441843389e+00	-1.1571216977e+00
 7.8095654068e-01	 1.6849578786e+00	-1.4022770123e+00
 7.4217389490e-01	 1.7023966233e+00	-1.2971054173e+00
 7.0317204199e-01	 1.7188733416e+00	-1.1874952115e+00
 6.6398523435e-01	 1.7343875495e+00	-1.0825596859e+00
 6.2464739934e-01	 1.7489403119e+00	-9.8231747206e-01
 5.8519205690e-01	 1.7625342029e+00	-8.8624811274e-01
 5.4565224104e-01	 1.7751732630e+00	-7.9326188842e-01
 5.0606042561e-01	 1.7868629505e+00	-7.0175556511e-01
 4.6644845461e-01	 1.7976100897e+00	-6.0975176792e-01
 4.2684747719e-01	 1.8074228149e+00	-5.1510615998e-01
 3.8728788755e-01	 1.8163105116e+00	-4.1576497111e-01
 7.9297139097e-01	 1.7108805972e+00	-1.3665056362e+00
 7.5359208243e-01	 1.7285876333e+00	-1.2621340502e+00
 7.1399019431e-01	 1.7453178424e+00	-1.1508579253e+00
 6.7420050597e-01	 1.7610707331e+00	-1.0441343880e+00
 6.3425746673e-01	 1.7758473866e+00	-9.4294446045e-01
 5.9419511224e-01	 1.7896504168e+00	-8.4681146820e-01
 5.5404698472e-01	 1.8024839261e+00	-7.5450754426e-01
 5.1384605763e-01	 1.8143534570e+00	-6.6412936384e-01
 4.7362466488e-01	 1.8252659386e+00	-5.7326820192e-01
 4.3341443485e-01	 1.8352296305e+00	-4.7925656608e-01
 3.9324622934e-01	 1.8442540626e+00	-3.7947184516e-01
 8.0498621883e-01	 1.7368032675e+00	-1.3358528085e+00
 7.6501024864e-01	 1.7547785944e+00	-1.2326151509e+00
 7.2480832644e-01	 1.7717622938e+00	-1.1218040469e+00
 6.8441575852e-01	 1.7877538669e+00	-1.0144524831e+00
 6.4386751619e-01	 1.8027544111e+00	-9.1302767936e-01
 6.0319815077e-01	 1.8167665800e+00	-8.1681244173e-01
 5.6244171273e-01	 1.8297945382e+00	-7.2412201701e-01
 5.2163167512e-01	 1.8418439121e+00	-6.3240454839e-01
 4.8080086176e-01	 1.8529217359e+00	-5.3845492303e-01
 4.3998138024e-01	 1.8630363942e+00	-4.4023647875e-01
 3.9920456000e-01	 1.8721975614e+00	-3.3757157911e-01
 8.1700102987e-01	 1.7627259014e+00	-1.3100596773e+00
 7.7642839888e-01	 1.7809695188e+00	-1.2083867034e+00
 7.3562644342e-01	 1.7982067082e+00	-1.0996674856e+00
 6.9463099676e-01	 1.8144369633e+00	-9.9279510198e-01
 6.5347755219e-01	 1.8296613980e+00	-8.9179803937e-01
 6.1220117670e-01	 1.8438827053e+00	-7.9543857373e-01
 5.7083642899e-01	 1.8571051121e+00	-7.0121060317e-01
 5.2941728171e-01	 1.8693343288e+00	-6.0623289738e-01
 4.8797704859e-01	 1.8805774945e+00	-5.0949155245e-01
 4.4654831645e-01	 1.8908431190e+00	-4.1037290064e-01
 4.0516288232e-01	 1.9001410210e+00	-3.0855547929e-01
 8.2901582970e-01	 1.7886485111e+00	-1.2889984396e+00
 7.8784653845e-01	 1.8071604188e+00	-1.1894378024e+00
 7.4644455030e-01	 1.8246510979e+00	-1.0839247970e+00
 7.0484622548e-01	 1.8411200348e+00	-9.7861761861e-01
 6.6308757922e-01	 1.8565683597e+00	-8.7848044108e-01
 6.2120419423e-01	 1.8709988053e+00	-7.8025568870e-01
 5.7923113741e-01	 1.8844156605e+00	-6.8281420106e-01
 5.3720288103e-01	 1.8968247198e+00	-5.8557122879e-01
 4.9515322872e-01	 1.9082332273e+00	-4.8784825555e-01
 4.5311524653e-01	 1.9186498178e+00	-3.8908251563e-01
 4.1112119908e-01	 1.9280844546e+00	-2.8897493358e-01
 8.4103062392e-01	 1.8145711088e+00	-1.2726404130e+00
 7.9926467270e-01	 1.8333513066e+00	-1.1758791292e+00
 7.5726265213e-01	 1.8510954753e+00	-1.0740876406e+00
 7.1506144942e-01	 1.8678030939e+00	-9.6946556142e-01
 6.7269760176e-01	 1.8834753089e+00	-8.6607403030e-01
 6.3020720756e-01	 1.8981148926e+00	-7.6484295887e-01
 5.8762584192e-01	 1.9117261962e+00	-6.6549219036e-01
 5.4498847672e-01	 1.9243150980e+00	-5.6739748531e-01
 5.0232940551e-01	 1.9358889471e+00	-4.6986365464e-01
 4.5968217354e-01	 1.9464565037e+00	-3.7231752761e-01
 4.1707951306e-01	 1.9560278751e+00	-2.7443277377e-01
 8.5304541813e-01	 1.8404937064e+00	-1.2610242789e+00
 8.1068280694e-01	 1.8595421944e+00	-1.1673016609e+00
 7.6808075397e-01	 1.8775398527e+00	-1.0640317150e+00
 7.2527667337e-01	 1.8944861530e+00	-9.5580426508e-01
 6.8230762431e-01	 1.9103822581e+00	-8.4957225156e-01
 6.3921022088e-01	 1.9252309799e+00	-7.4665519881e-01
 5.9602054643e-01	 1.9390367319e+00	-6.4660465272e-01
 5.5277407241e-01	 1.9518054762e+00	-5.4867914724e-01
 5.0950558229e-01	 1.9635446670e+00	-4.5210760053e-01
 4.6624910055e-01	 1.9742631895e+00	-3.5626345820e-01
 4.2303782704e-01	 1.9839712957e+00	-2.6076339078e-01
 8.6506021796e-01	 1.8664163161e+00	-1.2518167794e+00
 8.2210094651e-01	 1.8857330944e+00	-1.1534196807e+00
 7.7889886085e-01	 1.9039842424e+00	-1.0459905305e+00
 7.3549190208e-01	 1.9211692245e+00	-9.3521068169e-01
 6.9191765133e-01	 1.9372892198e+00	-8.2720708043e-01
 6.4821323841e-01	 1.9523470799e+00	-7.2360870517e-01
 6.0441525485e-01	 1.9663472803e+00	-6.2371253669e-01
 5.6055967173e-01	 1.9792958672e+00	-5.2659612731e-01
 5.1668176242e-01	 1.9912003998e+00	-4.3136962144e-01
 4.7281603063e-01	 2.0020698883e+00	-3.3732849226e-01
 4.2899614380e-01	 2.0119147292e+00	-2.4402275275e-01
 8.7707502900e-01	 1.8923389501e+00	-1.2330683246e+00
 8.3351909675e-01	 1.9119240188e+00	-1.1295207980e+00
 7.8971697783e-01	 1.9304286569e+00	-1.0187861161e+00
 7.4570714033e-01	 1.9478523209e+00	-9.0628904516e-01
 7.0152768733e-01	 1.9641962066e+00	-7.9735781596e-01
 6.5721626434e-01	 1.9794632052e+00	-6.9378907977e-01
 6.1280997111e-01	 1.9936578542e+00	-5.9456372050e-01
 5.6834527832e-01	 2.0067862839e+00	-4.9852833355e-01
 5.2385794926e-01	 2.0188561583e+00	-4.0464769781e-01
 4.7938296684e-01	 2.0298766131e+00	-3.1213320700e-01
 4.3495446612e-01	 2.0398581889e+00	-2.2047886407e-01
 8.8908985686e-01	 1.9182616203e+00	-1.2019635174e+00
 8.4493726296e-01	 1.9381149799e+00	-1.0943462513e+00
 8.0053510995e-01	 1.9568731083e+00	-9.8123920232e-01
 7.5592239288e-01	 1.9745354547e+00	-8.6770754541e-01
 7.1113773679e-01	 1.9911032311e+00	-7.5853330252e-01
 6.6621930287e-01	 2.0065793684e+00	-6.5543563593e-01
 6.2120469912e-01	 2.0209684663e+00	-5.5707927347e-01
 5.7613089581e-01	 2.0342767390e+00	-4.6204347708e-01
 5.3103414613e-01	 2.0465119556e+00	-3.6913733239e-01
 4.8594991224e-01	 2.0576833768e+00	-2.7750064833e-01
 4.4091279679e-01	 2.0678016877e+00	-1.8660262364e-01
 9.0110470714e-01	 1.9441843389e+00	-1.1571216977e+00
 8.5635545049e-01	 1.9643059899e+00	-1.0466348512e+00
 8.1135326227e-01	 1.9833176091e+00	-9.3216529050e-01
 7.6613766449e-01	 2.0012186383e+00	-8.1830141633e-01
 7.2074780418e-01	 2.0180103059e+00	-7.0935426620e-01
 6.7522235821e-01	 2.0336955823e+00	-6.0692594829e-01
 6.2959944281e-01	 2.0482791294e+00	-5.0933989732e-01
 5.8391652783e-01	 2.0617672455e+00	-4.1488510180e-01
 5.3821035641e-01	 2.0741678046e+00	-3.2222088784e-01
 4.9251686990e-01	 2.0854901924e+00	-2.3044672225e-01
 4.4687113857e-01	 2.0957452386e+00	-1.3905904510e-01
 3.8728788755e-01	 1.8163105116e+00	-4.1576497111e-01
 3.4779651552e-01	 1.8242842816e+00	-3.2751634342e-01
 3.0840489565e-01	 1.8313551743e+00	-2.5855779645e-01
 2.6914089089e-01	 1.8375359541e+00	-1.9994747269e-01
 2.3003141697e-01	 1.8428403787e+00	-1.4683869376e-01
 1.9110240786e-01	 1.8472831305e+00	-9.7566817216e-02
 1.5237878631e-01	 1.8508797480e+00	-5.2840906939e-02
 1.1388443931e-01	 1.8536465567e+00	-1.5190947206e-02
 7.5642198511e-02	 1.8556006001e+00	 1.1894904169e-02
 3.7673825218e-02	 1.8567595715e+00	 2.6339515807e-02
 0.0000000000e+00	 1.8571417460e+00	 2.6809885814e-02
 3.9324622934e-01	 1.8442540626e+00	-3.7947184516e-01
 3.5314729094e-01	 1.8523505073e+00	-2.8945232999e-01
 3.1314963938e-01	 1.8595301841e+00	-2.1842679135e-01
 2.7328156626e-01	 1.8658060540e+00	-1.5981635112e-01
 2.3357040140e-01	 1.8711920860e+00	-1.0986101518e-01
 1.9404247777e-01	 1.8757031886e+00	-6.7181368040e-02
 1.5472310153e-01	 1.8793551393e+00	-3.1894608359e-02
 1.1563652719e-01	 1.8821645148e+00	-4.8888001373e-03
 7.6805937649e-02	 1.8841486207e+00	 1.2771342325e-02
 3.8253429007e-02	 1.8853254226e+00	 2.0332135423e-02
 0.0000000000e+00	 1.8857134768e+00	 1.7754716226e-02
 3.9920456000e-01	 1.8721975614e+00	-3.3757157911e-01
 3.5849805638e-01	 1.8804166806e+00	-2.4811630524e-01
 3.1789437426e-01	 1.8877051414e+00	-1.8010475826e-01
 2.7742223390e-01	 1.8940761010e+00	-1.2562076758e-01
 2.3710937923e-01	 1.8995437403e+00	-8.1017542043e-02
 1.9698254218e-01	 1.9041231936e+00	-4.4708939290e-02
 1.5706741237e-01	 1.9078304774e+00	-1.6332716555e-02
 1.1738861180e-01	 1.9106824196e+00	 3.9219160892e-03
 7.7969674616e-02	 1.9126965880e+00	 1.5852635619e-02
 3.8833031715e-02	 1.9138912204e+00	 1.9676327462e-02
 0.0000000000e+00	 1.9142851543e+00	 1.6380648715e-02
 4.0516288232e-01	 1.9001410210e+00	-3.0855547929e-01
 3.6384881433e-01	 1.9084828146e+00	-2.2110641256e-01
 3.2263910249e-01	 1.9158800593e+00	-1.5518395746e-01
 2.8156289575e-01	 1.9223461085e+00	-1.0284225992e-01
 2.4064835210e-01	 1.9278953550e+00	-6.0865827276e-02
 1.9992260249e-01	 1.9325431589e+00	-2.7746530655e-02
 1.5941171994e-01	 1.9363057757e+00	-2.9017458537e-03
 1.1914069396e-01	 1.9392002845e+00	 1.3937143746e-02
 7.9133409954e-02	 1.9412445154e+00	 2.3199877623e-02
 3.9412633612e-02	 1.9424569782e+00	 2.5847501561e-02
 0.0000000000e+00	 1.9428567917e+00	 2.3665678237e-02
 4.1112119908e-01	 1.9280844546e+00	-2.8897493358e-01
 3.6919956728e-01	 1.9365489224e+00	-2.0356025637e-01
 3.2738382630e-01	 1.9440549508e+00	-1.3879853774e-01
 2.8570355373e-01	 1.9506160897e+00	-8.6822099086e-02
 2.4418732167e-01	 1.9562469433e+00	-4.5121349418e-02
 2.0286266004e-01	 1.9609630976e+00	-1.2505737392e-02
 1.6175602532e-01	 1.9647810474e+00	 1.1614544311e-02
 1.2089277448e-01	 1.9677181227e+00	 2.7770511226e-02
 8.0297144206e-02	 1.9697924161e+00	 3.6838094838e-02
 3.9992234968e-02	 1.9710227094e+00	 4.0338613599e-02
 0.0000000000e+00	 1.9714284025e+00	 4.0667102968e-02
 4.1707951306e-01	 1.9560278751e+00	-2.7443277377e-01
 3.7455031774e-01	 1.9646150171e+00	-1.9088294201e-01
 3.3212854789e-01	 1.9722298292e+00	-1.2630873833e-01
 2.8984420977e-01	 1.9788860576e+00	-7.3104252333e-02
 2.4772628958e-01	 1.9845985183e+00	-2.9677309409e-02
 2.0580271623e-01	 1.9893830231e+00	 4.6519369826e-03
 1.6410032960e-01	 1.9932563058e+00	 3.0314397994e-02
 1.2264485419e-01	 1.9962359477e+00	 4.7954875222e-02
 8.1460877915e-02	 1.9983403035e+00	 5.8755217981e-02
 4.0571836054e-02	 1.9995884272e+00	 6.4656679777e-02
 0.0000000000e+00	 2.0000000000e+00	 6.8515810501e-02
 4.2303782704e-01	 1.9839712957e+00	-2.6076339078e-01
 3.7990106819e-01	 1.9926811118e+00	-1.7872202029e-01
 3.3687326948e-01	 2.0004047076e+00	-1.1328974838e-01
 2.9398486582e-01	 2.0071560255e+00	-5.7425438409e-02
 2.5126525750e-01	 2.0129500933e+00	-1.0596374222e-02
 2.0874277242e-01	 2.0178029485e+00	 2.7221283706e-02
 1.6644463389e-01	 2.0217315642e+00	 5.6181973803e-02
 1.2439693389e-01	 2.0247537727e+00	 7.6943824883e-02
 8.2624611624e-02	 2.0268881908e+00	 9.0901184300e-02
 4.1151437139e-02	 2.0281541450e+00	 1.0031959759e-01
 0.0000000000e+00	 2.0285715975e+00	 1.0841104801e-01
 4.2899614380e-01	 2.0119147292e+00	-2.4402275275e-01
 3.8525182115e-01	 2.0207472197e+00	-1.6288802875e-01
 3.4161799328e-01	 2.0285795991e+00	-9.5521088190e-02
 2.9812552380e-01	 2.0354260067e+00	-3.5705661662e-02
 2.5480422707e-01	 2.0413016815e+00	 1.5897176189e-02
 2.1168282997e-01	 2.0462228873e+00	 5.8559291363e-02
 1.6878893926e-01	 2.0502068359e+00	 9.2091080282e-02
 1.2614901442e-01	 2.0532716110e+00	 1.1711315160e-01
 8.3788345876e-02	 2.0554360915e+00	 1.3518715813e-01
 4.1731038495e-02	 2.0567198762e+00	 1.4885324382e-01
 0.0000000000e+00	 2.0571432083e+00	 1.6161562931e-01
 4.3495446612e-01	 2.0398581889e+00	-2.2047886407e-01
 3.9060257910e-01	 2.0488133537e+00	-1.3939446699e-01
 3.4636272152e-01	 2.0567545169e+00	-6.8976462279e-02
 3.0226618564e-01	 2.0636960142e+00	-4.0391791557e-03
 2.5834319994e-01	 2.0696532962e+00	 5.3424937306e-02
 2.1462289028e-01	 2.0746428525e+00	 1.0189077682e-01
 1.7113324683e-01	 2.0786821342e+00	 1.4080875242e-01
 1.2790109658e-01	 2.0817894759e+00	 1.7076228766e-01
 8.4952081214e-02	 2.0839840189e+00	 1.9348485830e-01
 4.2310640392e-02	 2.0852856340e+00	 2.1178882292e-01
 0.0000000000e+00	 2.0857148457e+00	 2.2945153696e-01
 4.4091279679e-01	 2.0678016877e+00	-1.8660262364e-01
 3.9595334453e-01	 2.0768795270e+00	-1.0445121709e-01
 3.5110745639e-01	 2.0849294742e+00	-2.9814039708e-02
 3.0640685329e-01	 2.0919660612e+00	 4.1314140149e-02
 2.6188217777e-01	 2.0980049505e+00	 1.0546153826e-01
 2.1756295469e-01	 2.1030628576e+00	 1.6031377016e-01
 1.7347755768e-01	 2.1071574723e+00	 2.0499868426e-01
 1.2965318119e-01	 2.1103073807e+00	 2.4011571668e-01
 8.6115818181e-02	 2.1125319862e+00	 2.6762598226e-01
 4.2890243100e-02	 2.1138514318e+00	 2.9066044209e-01
 0.0000000000e+00	 2.1142865232e+00	 3.1329588186e-01
 4.4687113857e-01	 2.0957452386e+00	-1.3905904510e-01
 4.0130411996e-01	 2.1049457527e+00	-5.4456586026e-02
 3.5585220013e-01	 2.1131044841e+00	 2.5632878278e-02
 3.1054752866e-01	 2.1202361611e+00	 1.0393710073e-01
 2.6542116220e-01	 2.1263566578e+00	 1.7534150067e-01
 2.2050302460e-01	 2.1314829156e+00	 2.3680467656e-01
 1.7582187290e-01	 2.1356328636e+00	 2.8722453101e-01
 1.3140526907e-01	 2.1388253387e+00	 3.2732435836e-01
 8.7279557320e-02	 2.1410800068e+00	 3.5940171780e-01
 4.3469846890e-02	 2.1424172829e+00	 3.8700289190e-01
 0.0000000000e+00	 2.1428582540e+00	 4.1457718726e-01
 2.1428582540e+00	 0.0000000000e+00	 2.3032361747e+00
 2.1424172829e+00	 4.3469846890e-02	 2.3291953730e+00
 2.1410800068e+00	 8.7279557320e-02	 2.3387131341e+00
 2.1388253387e+00	 1.3140526907e-01	 2.3337918653e+00
 2.1356328636e+00	 1.7582187290e-01	 2.3160508229e+00
 2.1314829156e+00	 2.2050302460e-01	 2.2863255393e+00
 2.1263566578e+00	 2.6542116220e-01	 2.2442796381e+00
 2.1202361611e+00	 3.1054752866e-01	 2.1880895981e+00
 2.1131044841e+00	 3.5585220013e-01	 2.1142725178e+00
 2.1049457527e+00	 4.0130411996e-01	 2.0184333578e+00
 2.0957452386e+00	 4.4687113857e-01	 1.9076792518e+00
 2.1714300481e+00	 0.0000000000e+00	 2.2023181177e+00
 2.1709831974e+00	 4.4049451964e-02	 2.2281256201e+00
 2.1696280907e+00	 8.8443299038e-02	 2.2374440902e+00
 2.1673433600e+00	 1.3315736083e-01	 2.2326880188e+00
 2.1641083180e+00	 1.7816619332e-01	 2.2160084067e+00
 2.1599030367e+00	 2.2344310102e-01	 2.1887406491e+00
 2.1547084280e+00	 2.6896015447e-01	 2.1508496404e+00
 2.1485063236e+00	 3.1468821320e-01	 2.1004381457e+00
 2.1412795564e+00	 3.6059695438e-01	 2.0333950897e+00
 2.1330120406e+00	 4.0665490725e-01	 1.9438662615e+00
 2.1236888515e+00	 4.5282949357e-01	 1.8377486736e+00
 2.2000019023e+00	 0.0000000000e+00	 2.2022510417e+00
 2.1995491718e+00	 4.4629058256e-02	 2.2223348060e+00
 2.1981762345e+00	 8.9607043199e-02	 2.2241145672e+00
 2.1958614412e+00	 1.3490945628e-01	 2.2108755467e+00
 2.1925838322e+00	 1.8051051866e-01	 2.1858037984e+00
 2.1883232175e+00	 2.2638318362e-01	 2.1512658076e+00
 2.1830602577e+00	 2.7249915418e-01	 2.1080680879e+00
 2.1767765455e+00	 3.1882890645e-01	 2.0547686700e+00
 2.1694546879e+00	 3.6534171859e-01	 1.9871241892e+00
 2.1610783874e+00	 4.1200570577e-01	 1.8980036967e+00
 2.1516325230e+00	 4.5878786107e-01	 1.7921703031e+00
 2.2285738097e+00	 0.0000000000e+00	 2.2984416521e+00
 2.2281151995e+00	 4.5208665629e-02	 2.3078260907e+00
 2.2267244316e+00	 9.0770789533e-02	 2.2958119829e+00
 2.2243795756e+00	 1.3666155499e-01	 2.2663030734e+00
 2.2210593996e+00	 1.8285484838e-01	 2.2232787268e+00
 2.2167434513e+00	 2.2932327170e-01	 2.1713047601e+00
 2.2114121403e+00	 2.7603816049e-01	 2.1129548789e+00
 2.2050468202e+00	 3.2296960742e-01	 2.0478289427e+00
 2.1976298720e+00	 3.7008649166e-01	 1.9721034623e+00
 2.1891447866e+00	 4.1735651428e-01	 1.8775079707e+00
 2.1795762467e+00	 4.6474623970e-01	 1.7677426127e+00
 2.2571457639e+00	 0.0000000000e+00	 2.3929166350e+00
 2.2566812740e+00	 4.5788273948e-02	 2.3939916291e+00
 2.2552726753e+00	 9.1934537767e-02	 2.3730335214e+00
 2.2528977565e+00	 1.3841365656e-01	 2.3342223222e+00
 2.2495350134e+00	 1.8519918193e-01	 2.2817901040e+00
 2.2451637316e+00	 2.3226336459e-01	 2.2193996563e+00
 2.2397640692e+00	 2.7957717259e-01	 2.1494282144e+00
 2.2333171410e+00	 3.2711031515e-01	 2.0721417447e+00
 2.2258051021e+00	 3.7483127248e-01	 1.9847034136e+00
 2.2172112317e+00	 4.2270733153e-01	 1.8792085148e+00
 2.2075200161e+00	 4.7070462806e-01	 1.7614502437e+00
 2.2857177580e+00	 0.0000000000e+00	 2.4426734990e+00
 2.2852473884e+00	 4.6367883079e-02	 2.4387319616e+00
 2.2838209591e+00	 9.3098287629e-02	 2.4121302730e+00
 2.2814159774e+00	 1.4016576059e-01	 2.3672839383e+00
 2.2780106672e+00	 1.8754351875e-01	 2.3087178811e+00
 2.2735840516e+00	 2.3520346159e-01	 2.2404624494e+00
 2.2681160378e+00	 2.8311618963e-01	 2.1653533408e+00
 2.2615875014e+00	 3.3125102868e-01	 2.0842192465e+00
 2.2539803717e+00	 3.7957605994e-01	 1.9947481107e+00
 2.2452777161e+00	 4.2805815627e-01	 1.8880278205e+00
 2.2354638246e+00	 4.7666302476e-01	 1.7671564700e+00
 2.3142897854e+00	 0.0000000000e+00	 2.4484217750e+00
 2.3138135361e+00	 4.6947492886e-02	 2.4425754235e+00
 2.3123692761e+00	 9.4262038850e-02	 2.4134847313e+00
 2.3099342316e+00	 1.4191786666e-01	 2.3657494801e+00
 2.3064863541e+00	 1.8988785831e-01	 2.3041402103e+00
 2.3020044048e+00	 2.3814356202e-01	 2.2330159001e+00
 2.2964680395e+00	 2.8665521081e-01	 2.1556446552e+00
 2.2898578948e+00	 3.3539174704e-01	 2.0734093968e+00
 2.2821556741e+00	 3.8432085293e-01	 1.9844089906e+00
 2.2733442332e+00	 4.3340898725e-01	 1.8793430488e+00
 2.2634076657e+00	 4.8262142841e-01	 1.7609648849e+00
 2.3428618396e+00	 0.0000000000e+00	 2.4107984682e+00
 2.3423797105e+00	 4.7527103234e-02	 2.4059983824e+00
 2.3409176197e+00	 9.5425791156e-02	 2.3774472745e+00
 2.3384525123e+00	 1.4366997437e-01	 2.3298668489e+00
 2.3349620676e+00	 1.9223220006e-01	 2.2682144996e+00
 2.3304247845e+00	 2.4108366519e-01	 2.1971272975e+00
 2.3248200676e+00	 2.9019423528e-01	 2.1202683468e+00
 2.3181283146e+00	 3.3953246927e-01	 2.0395555567e+00
 2.3103310028e+00	 3.8906565036e-01	 1.9533652573e+00
 2.3014107765e+00	 4.3875982323e-01	 1.8520978771e+00
 2.2913515328e+00	 4.8857983762e-01	 1.7381074137e+00
 2.3714339137e+00	 0.0000000000e+00	 2.3303724239e+00
 2.3709459049e+00	 4.8106713987e-02	 2.3294286464e+00
 2.3694659834e+00	 9.6589544277e-02	 2.3043386979e+00
 2.3669708131e+00	 1.4542208330e-01	 2.2598720093e+00
 2.3634378011e+00	 1.9457654345e-01	 2.2011018120e+00
 2.3588451841e+00	 2.4402377042e-01	 2.1328803890e+00
 2.3531721156e+00	 2.9373326224e-01	 2.0592163510e+00
 2.3463987541e+00	 3.4367319439e-01	 1.9825319018e+00
 2.3385063512e+00	 3.9381045110e-01	 1.9013348391e+00
 2.3294773395e+00	 4.4411066295e-01	 1.8058495177e+00
 2.3192954196e+00	 4.9453825100e-01	 1.6979791139e+00
 2.4000060012e+00	 0.0000000000e+00	 2.2076483802e+00
 2.3995121126e+00	 4.8686325011e-02	 2.2132486301e+00
 2.3980143603e+00	 9.7753297940e-02	 2.1944525668e+00
 2.3954891271e+00	 1.4717419305e-01	 2.1559905893e+00
 2.3919135479e+00	 1.9692088794e-01	 2.1029677564e+00
 2.3872655970e+00	 2.4696387702e-01	 2.0403755911e+00
 2.3815241768e+00	 2.9727229084e-01	 1.9725058931e+00
 2.3746692069e+00	 3.4781392145e-01	 1.9022422928e+00
 2.3666817128e+00	 3.9855525406e-01	 1.8280722424e+00
 2.3575439155e+00	 4.4946150517e-01	 1.7401928978e+00
 2.3472393193e+00	 5.0049666716e-01	 1.6400133398e+00
 2.4285780953e+00	 0.0000000000e+00	 2.0430707359e+00
 2.4280783270e+00	 4.9265936170e-02	 2.0577982975e+00
 2.4265627440e+00	 9.8917051876e-02	 2.0480574045e+00
 2.4240074478e+00	 1.4892630321e-01	 2.0184393698e+00
 2.4203893013e+00	 1.9926523297e-01	 1.9739833179e+00
 2.4156860165e+00	 2.4990398431e-01	 1.9197301830e+00
 2.4098762447e+00	 3.0081132027e-01	 1.8601790516e+00
 2.4029396663e+00	 3.5195464947e-01	 1.7986192009e+00
 2.3948570810e+00	 4.0330005812e-01	 1.7333664889e+00
 2.3856104981e+00	 4.5481234863e-01	 1.6547581891e+00
 2.3751832256e+00	 5.0645508472e-01	 1.5636789784e+00
 2.0957452386e+00	 4.4687113857e-01	 1.9076792518e+00
 2.0854901924e+00	 4.9251686990e-01	 1.7875923427e+00
 2.0741678046e+00	 5.3821035641e-01	 1.6537456836e+00
 2.0617672455e+00	 5.8391652783e-01	 1.5085810628e+00
 2.0482791294e+00	 6.2959944281e-01	 1.3552979271e+00
 2.0336955823e+00	 6.7522235821e-01	 1.1979107518e+00
 2.0180103059e+00	 7.2074780418e-01	 1.0411903853e+00
 2.0012186383e+00	 7.6613766449e-01	 8.8845493583e-01
 1.9833176091e+00	 8.1135326227e-01	 7.3293212943e-01
 1.9643059899e+00	 8.5635545049e-01	 5.7240325017e-01
 1.9441843389e+00	 9.0110470714e-01	 4.0580098060e-01
 2.1236888515e+00	 4.5282949357e-01	 1.8377486736e+00
 2.1132970697e+00	 4.9908384211e-01	 1.7209494421e+00
 2.1018237148e+00	 5.4538658259e-01	 1.5903337091e+00
 2.0892578129e+00	 5.9170217711e-01	 1.4482201002e+00
 2.0755898531e+00	 6.3799420510e-01	 1.2977760364e+00
 2.0608118562e+00	 6.8422543351e-01	 1.1431272354e+00
 2.0449174403e+00	 7.3035789287e-01	 9.8934003149e-01
 2.0279018810e+00	 7.7635295875e-01	 8.3861332583e-01
 2.0097621685e+00	 8.2217143857e-01	 6.8526228378e-01
 1.9904970579e+00	 8.6777366333e-01	 5.2826666684e-01
 1.9701071150e+00	 9.1311958406e-01	 3.6699192238e-01
 2.1516325230e+00	 4.5878786107e-01	 1.7921703031e+00
 2.1411040053e+00	 5.0565082812e-01	 1.6754791315e+00
 2.1294796831e+00	 5.5256282384e-01	 1.5457179062e+00
 2.1167484380e+00	 5.9948784274e-01	 1.4048493013e+00
 2.1029006341e+00	 6.4638898501e-01	 1.2557995134e+00
 2.0879281871e+00	 6.9322852771e-01	 1.1026268133e+00
 2.0718246312e+00	 7.3996800175e-01	 9.5055081541e-01
 2.0545851798e+00	 7.8656827447e-01	 8.0026983176e-01
 2.0362067834e+00	 8.3298963758e-01	 6.4786324500e-01
 2.0166881810e+00	 8.7919190015e-01	 4.9297049567e-01
 1.9960299455e+00	 9.2513448621e-01	 3.3538197745e-01
 2.1795762467e+00	 4.6474623970e-01	 1.7677426127e+00
 2.1689109929e+00	 5.1221782638e-01	 1.6481706604e+00
 2.1571357030e+00	 5.5973907849e-01	 1.5171077653e+00
 2.1442391145e+00	 6.0727352291e-01	 1.3759089099e+00
 2.1302114661e+00	 6.5478378060e-01	 1.2270331839e+00
 2.1150445687e+00	 7.0223163872e-01	 1.0742787540e+00
 2.0987318723e+00	 7.4957812856e-01	 9.2271936358e-01
 2.0812685284e+00	 7.9678360925e-01	 7.7171197194e-01
 2.0626514478e+00	 8.4380785679e-01	 6.1914746939e-01
 2.0428793529e+00	 8.9061015828e-01	 4.6506446367e-01
 2.0219528244e+00	 9.3714941079e-01	 3.0966944238e-01
 2.2075200161e+00	 4.7070462806e-01	 1.7614502437e+00
 2.1967180258e+00	 5.1878483537e-01	 1.6362131630e+00
 2.1847917681e+00	 5.6691534485e-01	 1.5019204229e+00
 2.1717298358e+00	 6.1505921579e-01	 1.3590478899e+00
 2.1575223427e+00	 6.6317858990e-01	 1.2093443820e+00
 2.1421609945e+00	 7.1123476443e-01	 1.0561408964e+00
 2.1256391573e+00	 7.5918827107e-01	 9.0392259044e-01
 2.1079519205e+00	 8.0699896071e-01	 7.5136754055e-01
 2.0890961553e+00	 8.5462609367e-01	 5.9766410794e-01
 2.0690705676e+00	 9.0202843506e-01	 4.4322928515e-01
 2.0478757456e+00	 9.4916435499e-01	 2.8867585482e-01
 2.2354638246e+00	 4.7666302476e-01	 1.7671564700e+00
 2.2245250977e+00	 5.2535185355e-01	 1.6369014142e+00
 2.2124478719e+00	 5.7409162126e-01	 1.4977719018e+00
 2.1992205957e+00	 6.2284491956e-01	 1.3521134510e+00
 2.1848332575e+00	 6.7157341096e-01	 1.2007906024e+00
 2.1692774583e+00	 7.2023790275e-01	 1.0464452643e+00
 2.1525464801e+00	 7.6879842703e-01	 8.9261266051e-01
 2.1346353500e+00	 8.1721432648e-01	 7.3779766146e-01
 2.1155408998e+00	 8.6544434570e-01	 5.8209165770e-01
 2.0952618190e+00	 9.1344672783e-01	 4.2626894094e-01
 2.0737987032e+00	 9.6117931602e-01	 2.7133793356e-01
 2.2634076657e+00	 4.8262142841e-01	 1.7609648849e+00
 2.2523322021e+00	 5.3191887940e-01	 1.6338647359e+00
 2.2401040080e+00	 5.8126790605e-01	 1.4980211053e+00
 2.2267113876e+00	 6.3063063243e-01	 1.3528785930e+00
 2.2121442042e+00	 6.7996824180e-01	 1.1996073910e+00
 2.1963939537e+00	 7.2924105157e-01	 1.0435839217e+00
 2.1794538342e+00	 7.7840859421e-01	 8.8737175067e-01
 2.1613188107e+00	 8.2742970416e-01	 7.2969007576e-01
 2.1419856752e+00	 8.7626261034e-01	 5.7123083579e-01
 2.1214531009e+00	 9.2486503392e-01	 4.1310316440e-01
 2.0997216909e+00	 9.7319429106e-01	 2.5669970513e-01
 2.2913515328e+00	 4.8857983762e-01	 1.7381074137e+00
 2.2801393324e+00	 5.3848591137e-01	 1.6157353241e+00
 2.2677601699e+00	 5.8844419753e-01	 1.4856760409e+00
 2.2542022052e+00	 6.3841635255e-01	 1.3473461963e+00
 2.2394551764e+00	 6.8836308048e-01	 1.2005468394e+00
 2.2235104744e+00	 7.3824420879e-01	 1.0460739047e+00
 2.2063612134e+00	 7.8801877035e-01	 8.8690486840e-01
 2.1880022962e+00	 8.3764509138e-01	 7.2585264290e-01
 2.1684304752e+00	 8.8708088508e-01	 5.6399765682e-01
 2.1476444073e+00	 9.3628335066e-01	 4.0276011650e-01
 2.1256447029e+00	 9.8520927731e-01	 2.4390480093e-01
 2.3192954196e+00	 4.9453825100e-01	 1.6979791139e+00
 2.3079464821e+00	 5.4505294794e-01	 1.5817515635e+00
 2.2954163512e+00	 5.9562049404e-01	 1.4584935236e+00
 2.2816930420e+00	 6.4620207813e-01	 1.3276433227e+00
 2.2667661677e+00	 6.9675792504e-01	 1.1889107733e+00
 2.2506270141e+00	 7.4724737232e-01	 1.0428461972e+00
 2.2332686115e+00	 7.9762895322e-01	 8.8855006481e-01
 2.2146858005e+00	 8.4786048575e-01	 7.2520703764e-01
 2.1948752938e+00	 8.9789916740e-01	 5.5941669666e-01
 2.1738357320e+00	 9.4770167540e-01	 3.9436923403e-01
 2.1515677330e+00	 9.9722427198e-01	 2.3218891039e-01
 2.3472393193e+00	 5.0049666716e-01	 1.6400133398e+00
 2.3357536449e+00	 5.5161998757e-01	 1.5311909181e+00
 2.3230725453e+00	 6.0279679389e-01	 1.4156081440e+00
 2.3091838916e+00	 6.5398780734e-01	 1.2927842777e+00
 2.2940771717e+00	 7.0515277351e-01	 1.1623815146e+00
 2.2777435665e+00	 7.5625054004e-01	 1.0246418461e+00
 2.2601760221e+00	 8.0723914058e-01	 8.7823819406e-01
 2.2413693171e+00	 8.5807588488e-01	 7.2231189674e-01
 2.2213201247e+00	 9.0871745476e-01	 5.5661452704e-01
 2.2000270690e+00	 9.5912000546e-01	 3.8715423646e-01
 2.1774907752e+00	 1.0092392722e+00	 2.2087237744e-01
 2.3751832256e+00	 5.0645508472e-01	 1.5636789784e+00
 2.3635608141e+00	 5.5818702873e-01	 1.4633669910e+00
 2.3507287459e+00	 6.0997309542e-01	 1.3561922632e+00
 2.3366747477e+00	 6.6177353837e-01	 1.2418243045e+00
 2.3213881821e+00	 7.1354762395e-01	 1.1199299723e+00
 2.3048601252e+00	 7.6525370987e-01	 9.9042631118e-01
 2.2870834390e+00	 8.1684933017e-01	 8.5192304041e-01
 2.2680528400e+00	 8.6829128640e-01	 7.0408527971e-01
 2.2477649618e+00	 9.1953574465e-01	 5.4681124734e-01
 2.2262184120e+00	 9.7053833819e-01	 3.8022790460e-01
 2.2034138235e+00	 1.0212542753e+00	 2.0935292820e-01
 1.9441843389e+00	 9.0110470714e-01	 4.0580098060e-01
 1.9229535170e+00	 9.4556433342e-01	 2.3136256645e-01
 1.9006191461e+00	 9.8969119840e-01	 4.9480468509e-02
 1.8771873641e+00	 1.0334452446e+00	-1.3779188792e-01
 1.8526662103e+00	 1.0767864569e+00	-3.2873218349e-01
 1.8270656365e+00	 1.1196749745e+00	-5.1497483635e-01
 1.8003975094e+00	 1.1620712027e+00	-6.8643669784e-01
 1.7726756058e+00	 1.2039359279e+00	-8.4304779141e-01
 1.7439155994e+00	 1.2452304307e+00	-9.8579452755e-01
 1.7141350400e+00	 1.2859166005e+00	-1.1158339183e+00
 1.6833533233e+00	 1.3259570476e+00	-1.2344511990e+00
 1.9701071150e+00	 9.1311958406e-01	 3.6699192238e-01
 1.9485932120e+00	 9.5817201263e-01	 1.9951757901e-01
 1.9259610458e+00	 1.0028872430e+00	 2.5773451927e-02
 1.9022168362e+00	 1.0472246836e+00	-1.5219581210e-01
 1.8773687297e+00	 1.0911437860e+00	-3.3266128990e-01
 1.8514268107e+00	 1.1346041574e+00	-5.1405958681e-01
 1.8244031042e+00	 1.1775656756e+00	-6.8652792214e-01
 1.7963115706e+00	 1.2199886040e+00	-8.4310051546e-01
 1.7671680929e+00	 1.2618337069e+00	-9.8491260422e-01
 1.7369904544e+00	 1.3030623656e+00	-1.1132573618e+00
 1.7057983098e+00	 1.3436366919e+00	-1.2295355509e+00
 1.9960299455e+00	 9.2513448621e-01	 3.3538197745e-01
 1.9742329608e+00	 9.7077971832e-01	 1.7315582928e-01
 1.9513029987e+00	 1.0160833154e+00	 5.8942757366e-03
 1.9272463609e+00	 1.0610041517e+00	-1.6436697695e-01
 1.9020713010e+00	 1.1055011451e+00	-3.3588883660e-01
 1.8757880361e+00	 1.1495333717e+00	-5.0649705715e-01
 1.8484087494e+00	 1.1930601811e+00	-6.7528893586e-01
 1.8199475852e+00	 1.2360413138e+00	-8.3353659305e-01
 1.7904206351e+00	 1.2784370180e+00	-9.7607823568e-01
 1.7598459169e+00	 1.3202081668e+00	-1.1043668764e+00
 1.7282433435e+00	 1.3613163734e+00	-1.2199406775e+00
 2.0219528244e+00	 9.3714941079e-01	 3.0966944238e-01
 1.9998727575e+00	 9.8338744754e-01	 1.5112237041e-01
 1.9766449990e+00	 1.0292794124e+00	-1.1179380149e-02
 1.9522759323e+00	 1.0747836454e+00	-1.7520822591e-01
 1.9267739183e+00	 1.1198585311e+00	-3.3914185696e-01
 1.9001493069e+00	 1.1644626138e+00	-4.9999486617e-01
 1.8724144394e+00	 1.2085547154e+00	-6.5823808883e-01
 1.8435836438e+00	 1.2520940535e+00	-8.1520918117e-01
 1.8136732208e+00	 1.2950403601e+00	-9.6008195016e-01
 1.7827014220e+00	 1.3373539999e+00	-1.0898996930e+00
 1.7506884190e+00	 1.3789960878e+00	-1.2063617887e+00
 2.0478757456e+00	 9.4916435499e-01	 2.8867585482e-01
 2.0255125960e+00	 9.9599519736e-01	 1.3237646974e-01
 2.0019870406e+00	 1.0424755309e+00	-2.6365154021e-02
 1.9773055445e+00	 1.0885631616e+00	-1.8552760370e-01
 1.9514765761e+00	 1.1342159405e+00	-3.4282468778e-01
 1.9245106176e+00	 1.1793918803e+00	-4.9508519082e-01
 1.8964201687e+00	 1.2240492751e+00	-6.4383040058e-01
 1.8672197411e+00	 1.2681468195e+00	-7.9138325462e-01
 1.8369258445e+00	 1.3116437293e+00	-9.3767448838e-01
 1.8055569644e+00	 1.3544998611e+00	-1.0705487189e+00
 1.7731335312e+00	 1.3966758312e+00	-1.1894459863e+00
 2.0737987032e+00	 9.6117931602e-01	 2.7133793356e-01
 2.0511524705e+00	 1.0086029648e+00	 1.1598320621e-01
 2.0273291177e+00	 1.0556716679e+00	-4.0484786419e-02
 2.0023351919e+00	 1.1023426972e+00	-1.9604755486e-01
 1.9761792684e+00	 1.1485733700e+00	-3.4745768130e-01
 1.9488719623e+00	 1.1943211678e+00	-4.9221289309e-01
 1.9204259315e+00	 1.2395438565e+00	-6.3253887362e-01
 1.8908558714e+00	 1.2841996080e+00	-7.7104173959e-01
 1.8601785007e+00	 1.3282471218e+00	-9.1023310798e-01
 1.8284125388e+00	 1.3716457463e+00	-1.0469535837e+00
 1.7955786748e+00	 1.4143555993e+00	-1.1697829765e+00
 2.0997216909e+00	 9.7319429106e-01	 2.5669970513e-01
 2.0767923748e+00	 1.0212107470e+00	 1.0110523247e-01
 2.0526712243e+00	 1.0688678203e+00	-5.4272759690e-02
 2.0273648684e+00	 1.1161222488e+00	-2.0738046458e-01
 2.0008819895e+00	 1.1629308162e+00	-3.5350965526e-01
 1.9732333354e+00	 1.2092504726e+00	-4.9174501396e-01
 1.9444317224e+00	 1.2550384559e+00	-6.2462340635e-01
 1.9144920293e+00	 1.3002524152e+00	-7.5506164246e-01
 1.8834311840e+00	 1.3448505336e+00	-8.8595240091e-01
 1.8512681399e+00	 1.3887916515e+00	-1.0196916399e+00
 1.8180238446e+00	 1.4320353880e+00	-1.1478957441e+00
 2.1256447029e+00	 9.8520927731e-01	 2.4390480093e-01
 2.1024323031e+00	 1.0338185409e+00	 8.6994687591e-02
 2.0780133547e+00	 1.0820639850e+00	-6.8384805407e-02
 2.0523945682e+00	 1.1299018133e+00	-2.1970734687e-01
 2.0255847336e+00	 1.1772882759e+00	-3.6137916700e-01
 1.9975947313e+00	 1.2241797914e+00	-4.9397778198e-01
 1.9684375357e+00	 1.2705330698e+00	-6.2027101221e-01
 1.9381282093e+00	 1.3163052374e+00	-7.4351538691e-01
 1.9066838890e+00	 1.3614539609e+00	-8.6702511155e-01
 1.8741237623e+00	 1.4059375726e+00	-9.9366953288e-01
 1.8404690354e+00	 1.4497151932e+00	-1.1242311931e+00
 2.1515677330e+00	 9.9722427198e-01	 2.3218891039e-01
 2.1280722493e+00	 1.0464263437e+00	 7.2985247791e-02
 2.1033555027e+00	 1.0952601590e+00	-8.3406290783e-02
 2.0774242856e+00	 1.1436813874e+00	-2.3336085544e-01
 2.0502874951e+00	 1.1916457456e+00	-3.7140157641e-01
 2.0219561443e+00	 1.2391091206e+00	-4.9914354425e-01
 1.9924433657e+00	 1.2860276946e+00	-6.1960258701e-01
 1.9617644058e+00	 1.3323580708e+00	-7.3640552907e-01
 1.9299366103e+00	 1.3780573998e+00	-8.5333091666e-01
 1.8969794007e+00	 1.4230835058e+00	-9.7377129271e-01
 1.8629142419e+00	 1.4673950108e+00	-1.1001299278e+00
 2.1774907752e+00	 1.0092392722e+00	 2.2087237744e-01
 2.1537122076e+00	 1.0590341524e+00	 5.8484303518e-02
 2.1286976626e+00	 1.1084563391e+00	-9.9860494165e-02
 2.1024540147e+00	 1.1574609679e+00	-2.4871321387e-01
 2.0749902681e+00	 1.2060032220e+00	-3.8385602565e-01
 2.0463175686e+00	 1.2540384568e+00	-5.0741762596e-01
 2.0164492070e+00	 1.3015223266e+00	-6.2267961581e-01
 1.9854006134e+00	 1.3484109117e+00	-7.3367127848e-01
 1.9531893425e+00	 1.3946608465e+00	-8.4468073982e-01
 1.9198350498e+00	 1.4402294470e+00	-9.5968021365e-01
 1.8853594588e+00	 1.4850748366e+00	-1.0816139177e+00
 2.2034138235e+00	 1.0212542753e+00	 2.0935292820e-01
 2.1793521717e+00	 1.0716419640e+00	 4.2965252615e-02
 2.1540398284e+00	 1.1216525223e+00	-1.1801732136e-01
 2.1274837496e+00	 1.1712405517e+00	-2.6608662754e-01
 2.0996930468e+00	 1.2203607018e+00	-3.9897234240e-01
 2.0706789986e+00	 1.2689677965e+00	-5.1892512467e-01
 2.0404550539e+00	 1.3170169622e+00	-6.2951082406e-01
 2.0090368265e+00	 1.3644637563e+00	-7.3519497219e-01
 1.9764420801e+00	 1.4112642971e+00	-8.4082301462e-01
 1.9426907042e+00	 1.4573753922e+00	-9.5100662225e-01
 1.9078046810e+00	 1.5027546666e+00	-1.0670665803e+00
 1.6833533233e+00	 1.3259570476e+00	-1.2344511990e+00
 1.6515916496e+00	 1.3653152184e+00	-1.3441455320e+00
 1.6188729638e+00	 1.4039555149e+00	-1.4445710612e+00
 1.5852219164e+00	 1.4418433893e+00	-1.5328371705e+00
 1.5506648078e+00	 1.4789454422e+00	-1.6061041891e+00
 1.5152295200e+00	 1.5152295200e+00	-1.6620490385e+00
 1.4789454422e+00	 1.5506648078e+00	-1.7013818225e+00
 1.4418433893e+00	 1.5852219164e+00	-1.7305473005e+00
 1.4039555149e+00	 1.6188729638e+00	-1.7499376701e+00
 1.3653152184e+00	 1.6515916496e+00	-1.7539571694e+00
 1.3259570476e+00	 1.6833533233e+00	-1.7367948522e+00
 1.7057983098e+00	 1.3436366919e+00	-1.2295355509e+00
 1.6736131419e+00	 1.3835196448e+00	-1.3362690295e+00
 1.6404582016e+00	 1.4226751515e+00	-1.4332618445e+00
 1.6063584681e+00	 1.4610682038e+00	-1.5178907097e+00
 1.5713405923e+00	 1.4986649568e+00	-1.5873386354e+00
 1.5354328283e+00	 1.5354328283e+00	-1.6391964462e+00
 1.4986649568e+00	 1.5713405923e+00	-1.6752021167e+00
 1.4610682038e+00	 1.6063584681e+00	-1.6985755284e+00
 1.4226751515e+00	 1.6404582016e+00	-1.7135328527e+00
 1.3835196448e+00	 1.6736131419e+00	-1.7153484690e+00
 1.3436366919e+00	 1.7057983098e+00	-1.6981433879e+00
 1.7282433435e+00	 1.3613163734e+00	-1.2199406775e+00
 1.6956346805e+00	 1.4017241094e+00	-1.3253886706e+00
 1.6620434848e+00	 1.4413948275e+00	-1.4206839306e+00
 1.6274950641e+00	 1.4802930587e+00	-1.5034486430e+00
 1.5920164203e+00	 1.5183845129e+00	-1.5695739811e+00
 1.5556361790e+00	 1.5556361790e+00	-1.6179171426e+00
 1.5183845129e+00	 1.5920164203e+00	-1.6511787948e+00
 1.4802930587e+00	 1.6274950641e+00	-1.6719871396e+00
 1.4413948275e+00	 1.6620434848e+00	-1.6840541012e+00
 1.4017241094e+00	 1.6956346805e+00	-1.6852267984e+00
 1.3613163734e+00	 1.7282433435e+00	-1.6695120653e+00
 1.7506884190e+00	 1.3789960878e+00	-1.2063617887e+00
 1.7176562602e+00	 1.4199286080e+00	-1.3121660520e+00
 1.6836288082e+00	 1.4601145384e+00	-1.4074712387e+00
 1.6486316997e+00	 1.4995179495e+00	-1.4893895944e+00
 1.6126922869e+00	 1.5381041057e+00	-1.5522259838e+00
 1.5758395674e+00	 1.5758395674e+00	-1.5975952425e+00
 1.5381041057e+00	 1.6126922869e+00	-1.6286422757e+00
 1.4995179495e+00	 1.6486316997e+00	-1.6484037177e+00
 1.4601145384e+00	 1.6836288082e+00	-1.6595664772e+00
 1.4199286080e+00	 1.7176562602e+00	-1.6616932343e+00
 1.3789960878e+00	 1.7506884190e+00	-1.6490244235e+00
 1.7731335312e+00	 1.3966758312e+00	-1.1894459863e+00
 1.7396778758e+00	 1.4381331363e+00	-1.2972119684e+00
 1.7052141669e+00	 1.4788342799e+00	-1.3942055573e+00
 1.6697683697e+00	 1.5187428717e+00	-1.4746790946e+00
 1.6333681873e+00	 1.5578237308e+00	-1.5347367960e+00
 1.5960429888e+00	 1.5960429888e+00	-1.5776361775e+00
 1.5578237308e+00	 1.6333681873e+00	-1.6069658098e+00
 1.5187428717e+00	 1.6697683697e+00	-1.6261730388e+00
 1.4788342799e+00	 1.7052141669e+00	-1.6381236632e+00
 1.4381331363e+00	 1.7396778758e+00	-1.6428364364e+00
 1.3966758312e+00	 1.7731335312e+00	-1.6347861392e+00
 1.7955786748e+00	 1.4143555993e+00	-1.1697829765e+00
 1.7616995223e+00	 1.4563376901e+00	-1.2810768421e+00
 1.7267995558e+00	 1.4975540476e+00	-1.3804874426e+00
 1.6909050694e+00	 1.5379678208e+00	-1.4588198217e+00
 1.6540441166e+00	 1.5775433835e+00	-1.5165700490e+00
 1.6162464385e+00	 1.6162464385e+00	-1.5574624646e+00
 1.5775433835e+00	 1.6540441166e+00	-1.5855357099e+00
 1.5379678208e+00	 1.6909050694e+00	-1.6046517898e+00
 1.4975540476e+00	 1.7267995558e+00	-1.6180180306e+00
 1.4563376901e+00	 1.7616995223e+00	-1.6267679634e+00
 1.4143555993e+00	 1.7955786748e+00	-1.6249198743e+00
 1.8180238446e+00	 1.4320353880e+00	-1.1478957441e+00
 1.7837211945e+00	 1.4745422652e+00	-1.2642411238e+00
 1.7483849699e+00	 1.5162738372e+00	-1.3647276448e+00
 1.7120417937e+00	 1.5571927923e+00	-1.4413399056e+00
 1.6747200700e+00	 1.5972630591e+00	-1.4972071662e+00
 1.6364499118e+00	 1.6364499118e+00	-1.5365094811e+00
 1.5972630591e+00	 1.6747200700e+00	-1.5637466128e+00
 1.5571927923e+00	 1.7120417937e+00	-1.5832036075e+00
 1.5162738372e+00	 1.7483849699e+00	-1.5984306195e+00
 1.4745422652e+00	 1.7837211945e+00	-1.6116576226e+00
 1.4320353880e+00	 1.8180238446e+00	-1.6176001628e+00
 1.8404690354e+00	 1.4497151932e+00	-1.1242311931e+00
 1.8057428872e+00	 1.4927468572e+00	-1.2465315280e+00
 1.7699704042e+00	 1.5349936442e+00	-1.3465004242e+00
 1.7331785377e+00	 1.5764177818e+00	-1.4217872682e+00
 1.6953960428e+00	 1.6169827532e+00	-1.4761436733e+00
 1.6566534039e+00	 1.6566534039e+00	-1.5142212439e+00
 1.6169827532e+00	 1.6953960428e+00	-1.5409967530e+00
 1.5764177818e+00	 1.7331785377e+00	-1.5611912878e+00
 1.5349936442e+00	 1.7699704042e+00	-1.5787051034e+00
 1.4927468572e+00	 1.8057428872e+00	-1.5960893039e+00
 1.4497151932e+00	 1.8404690354e+00	-1.6110883324e+00
 1.8629142419e+00	 1.4673950108e+00	-1.1001299278e+00
 1.8277645953e+00	 1.5109514620e+00	-1.2257918713e+00
 1.7915558535e+00	 1.5537134643e+00	-1.3254250067e+00
 1.7543152965e+00	 1.5956427847e+00	-1.3997264702e+00
 1.7160720300e+00	 1.6367024611e+00	-1.4528855046e+00
 1.6768569102e+00	 1.6768569102e+00	-1.4900461933e+00
 1.6367024611e+00	 1.7160720300e+00	-1.5166832481e+00
 1.5956427847e+00	 1.7543152965e+00	-1.5379716065e+00
 1.5537134643e+00	 1.7915558535e+00	-1.5581733027e+00
 1.5109514620e+00	 1.8277645953e+00	-1.5800644023e+00
 1.4673950108e+00	 1.8629142419e+00	-1.6024088710e+00
 1.8853594588e+00	 1.4850748366e+00	-1.0816139177e+00
 1.8497863137e+00	 1.5291560753e+00	-1.2015115104e+00
 1.8131413130e+00	 1.5724332931e+00	-1.3011409006e+00
 1.7754520652e+00	 1.6148677966e+00	-1.3747355476e+00
 1.7367480268e+00	 1.6564221782e+00	-1.4269453079e+00
 1.6970604259e+00	 1.6970604259e+00	-1.4634329810e+00
 1.6564221782e+00	 1.7367480268e+00	-1.4901973955e+00
 1.6148677966e+00	 1.7754520652e+00	-1.5128901563e+00
 1.5724332931e+00	 1.8131413130e+00	-1.5361513441e+00
 1.5291560753e+00	 1.8497863137e+00	-1.5629887341e+00
 1.4850748366e+00	 1.8853594588e+00	-1.5819347156e+00
 1.9078046810e+00	 1.5027546666e+00	-1.0670665803e+00
 1.8718080373e+00	 1.5473606928e+00	-1.1761079547e+00
 1.8347267774e+00	 1.5911531264e+00	-1.2733052588e+00
 1.7965888388e+00	 1.6340928130e+00	-1.3464028394e+00
 1.7574240285e+00	 1.6761418999e+00	-1.3978387460e+00
 1.7172639463e+00	 1.7172639463e+00	-1.4338262614e+00
 1.6761418999e+00	 1.7574240285e+00	-1.4609199780e+00
 1.6340928130e+00	 1.7965888388e+00	-1.4852761995e+00
 1.5911531264e+00	 1.8347267774e+00	-1.5119340994e+00
 1.5473606928e+00	 1.8718080373e+00	-1.5401020148e+00
 1.5027546666e+00	 1.9078046810e+00	-1.5490663477e+00
 1.3259570476e+00	 1.6833533233e+00	-1.7367948522e+00
 1.2859166005e+00	 1.7141350400e+00	-1.7055141296e+00
 1.2452304307e+00	 1.7439155994e+00	-1.6706098423e+00
 1.2039359279e+00	 1.7726756058e+00	-1.6317348526e+00
 1.1620712027e+00	 1.8003975094e+00	-1.5889979881e+00
 1.1196749745e+00	 1.8270656365e+00	-1.5430379585e+00
 1.0767864569e+00	 1.8526662103e+00	-1.4934347503e+00
 1.0334452446e+00	 1.8771873641e+00	-1.4309058796e+00
 9.8969119840e-01	 1.9006191461e+00	-1.3517936456e+00
 9.4556433342e-01	 1.9229535170e+00	-1.2596203399e+00
 9.0110470714e-01	 1.9441843389e+00	-1.1571216977e+00
 1.3436366919e+00	 1.7057983098e+00	-1.6981433879e+00
 1.3030623656e+00	 1.7369904544e+00	-1.6683307301e+00
 1.2618337069e+00	 1.7671680929e+00	-1.6356560884e+00
 1.2199886040e+00	 1.7963115706e+00	-1.5996781167e+00
 1.1775656756e+00	 1.8244031042e+00	-1.5605173718e+00
 1.1346041574e+00	 1.8514268107e+00	-1.5189243485e+00
 1.0911437860e+00	 1.8773687297e+00	-1.4673118338e+00
 1.0472246836e+00	 1.9022168362e+00	-1.3971829954e+00
 1.0028872430e+00	 1.9259610458e+00	-1.3122233838e+00
 9.5817201263e-01	 1.9485932120e+00	-1.2157564798e+00
 9.1311958406e-01	 1.9701071150e+00	-1.1103385332e+00
 1.3613163734e+00	 1.7282433435e+00	-1.6695120653e+00
 1.3202081668e+00	 1.7598459169e+00	-1.6427075178e+00
 1.2784370180e+00	 1.7904206351e+00	-1.6138867850e+00
 1.2360413138e+00	 1.8199475852e+00	-1.5825537902e+00
 1.1930601811e+00	 1.8484087494e+00	-1.5488927940e+00
 1.1495333717e+00	 1.8757880361e+00	-1.5062898602e+00
 1.1055011451e+00	 1.9020713010e+00	-1.4454984936e+00
 1.0610041517e+00	 1.9272463609e+00	-1.3688249720e+00
 1.0160833154e+00	 1.9513029987e+00	-1.2792403564e+00
 9.7077971832e-01	 1.9742329608e+00	-1.1798585342e+00
 9.2513448621e-01	 1.9960299455e+00	-1.0730492318e+00
 1.3789960878e+00	 1.7506884190e+00	-1.6490244235e+00
 1.3373539999e+00	 1.7827014220e+00	-1.6267718131e+00
 1.2950403601e+00	 1.8136732208e+00	-1.6034097605e+00
 1.2520940535e+00	 1.8435836438e+00	-1.5784306677e+00
 1.2085547154e+00	 1.8724144394e+00	-1.5466343322e+00
 1.1644626138e+00	 1.9001493069e+00	-1.4949700225e+00
 1.1198585311e+00	 1.9267739183e+00	-1.4262642319e+00
 1.0747836454e+00	 1.9522759323e+00	-1.3440598103e+00
 1.0292794124e+00	 1.9766449990e+00	-1.2510474735e+00
 9.8338744754e-01	 1.9998727575e+00	-1.1500896470e+00
 9.3714941079e-01	 2.0219528244e+00	-1.0433626112e+00
 1.3966758312e+00	 1.7731335312e+00	-1.6347861392e+00
 1.3544998611e+00	 1.8055569644e+00	-1.6186236716e+00
 1.3116437293e+00	 1.8369258445e+00	-1.6022928125e+00
 1.2681468195e+00	 1.8672197411e+00	-1.5823071248e+00
 1.2240492751e+00	 1.8964201687e+00	-1.5424362288e+00
 1.1793918803e+00	 1.9245106176e+00	-1.4829921055e+00
 1.1342159405e+00	 1.9514765761e+00	-1.4078672421e+00
 1.0885631616e+00	 1.9773055445e+00	-1.3211370965e+00
 1.0424755309e+00	 2.0019870406e+00	-1.2258746113e+00
 9.9599519736e-01	 2.0255125960e+00	-1.1246449719e+00
 9.4916435499e-01	 2.0478757456e+00	-1.0194242638e+00
 1.4143555993e+00	 1.7955786748e+00	-1.6249198743e+00
 1.3716457463e+00	 1.8284125388e+00	-1.6163700800e+00
 1.3282471218e+00	 1.8601785007e+00	-1.6077396615e+00
 1.2841996080e+00	 1.8908558714e+00	-1.5819433541e+00
 1.2395438565e+00	 1.9204259315e+00	-1.5344030936e+00
 1.1943211678e+00	 1.9488719623e+00	-1.4685165958e+00
 1.1485733700e+00	 1.9761792684e+00	-1.3883873822e+00
 1.1023426972e+00	 2.0023351919e+00	-1.2983295579e+00
 1.0556716679e+00	 2.0273291177e+00	-1.2019798931e+00
 1.0086029648e+00	 2.0511524705e+00	-1.1017526106e+00
 9.6117931602e-01	 2.0737987032e+00	-9.9941708301e-01
 1.4320353880e+00	 1.8180238446e+00	-1.6176001628e+00
 1.3887916515e+00	 1.8512681399e+00	-1.6181591966e+00
 1.3448505336e+00	 1.8834311840e+00	-1.6081747883e+00
 1.3002524152e+00	 1.9144920293e+00	-1.5749395024e+00
 1.2550384559e+00	 1.9444317224e+00	-1.5209199803e+00
 1.2092504726e+00	 1.9732333354e+00	-1.4498240290e+00
 1.1629308162e+00	 2.0008819895e+00	-1.3660035453e+00
 1.1161222488e+00	 2.0273648684e+00	-1.2739338514e+00
 1.0688678203e+00	 2.0526712243e+00	-1.1776511110e+00
 1.0212107470e+00	 2.0767923748e+00	-1.0796747130e+00
 9.7319429106e-01	 2.0997216909e+00	-9.8156197820e-01
 1.4497151932e+00	 1.8404690354e+00	-1.6110883324e+00
 1.4059375726e+00	 1.8741237623e+00	-1.6163818601e+00
 1.3614539609e+00	 1.9066838890e+00	-1.5994913509e+00
 1.3163052374e+00	 1.9381282093e+00	-1.5599025740e+00
 1.2705330698e+00	 1.9684375357e+00	-1.5004837115e+00
 1.2241797914e+00	 1.9975947313e+00	-1.4253046633e+00
 1.1772882759e+00	 2.0255847336e+00	-1.3390042647e+00
 1.1299018133e+00	 2.0523945682e+00	-1.2462369547e+00
 1.0820639850e+00	 2.0780133547e+00	-1.1512072732e+00
 1.0338185409e+00	 2.1024323031e+00	-1.0567087274e+00
 9.8520927731e-01	 2.1256447029e+00	-9.6411876169e-01
 1.4673950108e+00	 1.8629142419e+00	-1.6024088710e+00
 1.4230835058e+00	 1.8969794007e+00	-1.6032842910e+00
 1.3780573998e+00	 1.9299366103e+00	-1.5805196693e+00
 1.3323580708e+00	 1.9617644058e+00	-1.5355452407e+00
 1.2860276946e+00	 1.9924433657e+00	-1.4716926874e+00
 1.2391091206e+00	 2.0219561443e+00	-1.3934482223e+00
 1.1916457456e+00	 2.0502874951e+00	-1.3057774308e+00
 1.1436813874e+00	 2.0774242856e+00	-1.2135377705e+00
 1.0952601590e+00	 2.1033555027e+00	-1.1210002694e+00
 1.0464263437e+00	 2.1280722493e+00	-1.0311887851e+00
 9.9722427198e-01	 2.1515677330e+00	-9.4538719421e-01
 1.4850748366e+00	 1.8853594588e+00	-1.5819347156e+00
 1.4402294470e+00	 1.9198350498e+00	-1.5779198768e+00
 1.3946608465e+00	 1.9531893425e+00	-1.5501918322e+00
 1.3484109117e+00	 1.9854006134e+00	-1.5006758045e+00
 1.3015223266e+00	 2.0164492070e+00	-1.4332367478e+00
 1.2540384568e+00	 2.0463175686e+00	-1.3528337006e+00
 1.2060032220e+00	 2.0749902681e+00	-1.2648000840e+00
 1.1574609679e+00	 2.1024540147e+00	-1.1742204976e+00
 1.1084563391e+00	 2.1286976626e+00	-1.0854166418e+00
 1.0590341524e+00	 2.1537122076e+00	-1.0014872115e+00
 1.0092392722e+00	 2.1774907752e+00	-9.2370817494e-01
 1.5027546666e+00	 1.9078046810e+00	-1.5490663477e+00
 1.4573753922e+00	 1.9426907042e+00	-1.5394466369e+00
 1.4112642971e+00	 1.9764420801e+00	-1.5075318427e+00
 1.3644637563e+00	 2.0090368265e+00	-1.4541882025e+00
 1.3170169622e+00	 2.0404550539e+00	-1.3838870833e+00
 1.2689677965e+00	 2.0706789986e+00	-1.3021192283e+00
 1.2203607018e+00	 2.0996930468e+00	-1.2146282765e+00
 1.1712405517e+00	 2.1274837496e+00	-1.1267502877e+00
 1.1216525223e+00	 2.1540398284e+00	-1.0428720203e+00
 1.0716419640e+00	 2.1793521717e+00	-9.6601615041e-01
 1.0212542753e+00	 2.2034138235e+00	-8.9746506456e-01
 9.0110470714e-01	 1.9441843389e+00	-1.1571216977e+00
 8.5635545049e-01	 1.9643059899e+00	-1.0466348512e+00
 8.1135326227e-01	 1.9833176091e+00	-9.3216529050e-01
 7.6613766449e-01	 2.0012186383e+00	-8.1830141633e-01
 7.2074780418e-01	 2.0180103059e+00	-7.0935426620e-01
 6.7522235821e-01	 2.0336955823e+00	-6.0692594829e-01
 6.2959944281e-01	 2.0482791294e+00	-5.0933989732e-01
 5.8391652783e-01	 2.0617672455e+00	-4.1488510180e-01
 5.3821035641e-01	 2.0741678046e+00	-3.2222088784e-01
 4.9251686990e-01	 2.0854901924e+00	-2.3044672225e-01
 4.4687113857e-01	 2.0957452386e+00	-1.3905904510e-01
 9.1311958406e-01	 1.9701071150e+00	-1.1103385332e+00
 8.6777366333e-01	 1.9904970579e+00	-9.9840717475e-01
 8.2217143857e-01	 2.0097621685e+00	-8.8381379401e-01
 7.7635295875e-01	 2.0279018810e+00	-7.7060820471e-01
 7.3035789287e-01	 2.0449174403e+00	-6.6261579086e-01
 6.8422543351e-01	 2.0608118562e+00	-5.6143436886e-01
 6.3799420510e-01	 2.0755898531e+00	-4.6509605857e-01
 5.9170217711e-01	 2.0892578129e+00	-3.7164759563e-01
 5.4538658259e-01	 2.1018237148e+00	-2.7967935901e-01
 4.9908384211e-01	 2.1132970697e+00	-1.8835965715e-01
 4.5282949357e-01	 2.1236888515e+00	-9.7344323872e-02
 9.2513448621e-01	 1.9960299455e+00	-1.0730492318e+00
 8.7919190015e-01	 2.0166881810e+00	-9.6120704013e-01
 8.3298963758e-01	 2.0362067834e+00	-8.4787860452e-01
 7.8656827447e-01	 2.0545851798e+00	-7.3656566135e-01
 7.3996800175e-01	 2.0718246312e+00	-6.3058029030e-01
 6.9322852771e-01	 2.0879281871e+00	-5.3164795573e-01
 6.4638898501e-01	 2.1029006341e+00	-4.3767460521e-01
 5.9948784274e-01	 2.1167484380e+00	-3.4658038509e-01
 5.5256282384e-01	 2.1294796831e+00	-2.5703923282e-01
 5.0565082812e-01	 2.1411040053e+00	-1.6847237351e-01
 4.5878786107e-01	 2.1516325230e+00	-8.0904380149e-02
 9.3714941079e-01	 2.0219528244e+00	-1.0433626112e+00
 8.9061015828e-01	 2.0428793529e+00	-9.3308806101e-01
 8.4380785679e-01	 2.0626514478e+00	-8.2237186629e-01
 7.9678360925e-01	 2.0812685284e+00	-7.1416041530e-01
 7.4957812856e-01	 2.0987318723e+00	-6.1123069432e-01
 7.0223163872e-01	 2.1150445687e+00	-5.1540916984e-01
 6.5478378060e-01	 2.1302114661e+00	-4.2475231019e-01
 6.0727352291e-01	 2.1442391145e+00	-3.3716690359e-01
 5.5973907849e-01	 2.1571357030e+00	-2.5157467507e-01
 5.1221782638e-01	 2.1689109929e+00	-1.6784848998e-01
 4.6474623970e-01	 2.1795762467e+00	-8.6608163210e-02
 9.4916435499e-01	 2.0478757456e+00	-1.0194242638e+00
 9.0202843506e-01	 2.0690705676e+00	-9.1214453394e-01
 8.5462609367e-01	 2.0890961553e+00	-8.0534887915e-01
 8.0699896071e-01	 2.1079519205e+00	-7.0142338039e-01
 7.5918827107e-01	 2.1256391573e+00	-6.0261261175e-01
 7.1123476443e-01	 2.1421609945e+00	-5.1068129255e-01
 6.6317858990e-01	 2.1575223427e+00	-4.2415318206e-01
 6.1505921579e-01	 2.1717298358e+00	-3.4105637922e-01
 5.6691534485e-01	 2.1847917681e+00	-2.6073665550e-01
 5.1878483537e-01	 2.1967180258e+00	-1.8373235932e-01
 4.7070462806e-01	 2.2075200161e+00	-1.1150282703e-01
 9.6117931602e-01	 2.0737987032e+00	-9.9941708301e-01
 9.1344672783e-01	 2.0952618190e+00	-8.9651152651e-01
 8.6544434570e-01	 2.1155408998e+00	-7.9490776702e-01
 8.1721432648e-01	 2.1346353500e+00	-6.9642902663e-01
 7.6879842703e-01	 2.1525464801e+00	-6.0279301642e-01
 7.2023790275e-01	 2.1692774583e+00	-5.1553081208e-01
 6.7157341096e-01	 2.1848332575e+00	-4.3383305754e-01
 6.2284491956e-01	 2.1992205957e+00	-3.5605044667e-01
 5.7409162126e-01	 2.2124478719e+00	-2.8214139251e-01
 5.2535185355e-01	 2.2245250977e+00	-2.1344584464e-01
 4.7666302476e-01	 2.2354638246e+00	-1.4939034290e-01
 9.7319429106e-01	 2.0997216909e+00	-9.8156197820e-01
 9.2486503392e-01	 2.1214531009e+00	-8.8436517984e-01
 8.7626261034e-01	 2.1419856752e+00	-7.8918938308e-01
 8.2742970416e-01	 2.1613188107e+00	-6.9729490711e-01
 7.7840859421e-01	 2.1794538342e+00	-6.0988103443e-01
 7.2924105157e-01	 2.1963939537e+00	-5.2811009152e-01
 6.7996824180e-01	 2.2121442042e+00	-4.5186448341e-01
 6.3063063243e-01	 2.2267113876e+00	-3.7978413194e-01
 5.8126790605e-01	 2.2401040080e+00	-3.0854638869e-01
 5.3191887940e-01	 2.2523322021e+00	-2.3944000486e-01
 4.8262142841e-01	 2.2634076657e+00	-1.7532959099e-01
 9.8520927731e-01	 2.1256447029e+00	-9.6411876169e-01
 9.3628335066e-01	 2.1476444073e+00	-8.7392320724e-01
 8.8708088508e-01	 2.1684304752e+00	-7.8637743151e-01
 8.3764509138e-01	 2.1880022962e+00	-7.0218141867e-01
 7.8801877035e-01	 2.2063612134e+00	-6.2202746830e-01
 7.3824420879e-01	 2.2235104744e+00	-5.4661430343e-01
 6.8836308048e-01	 2.2394551764e+00	-4.7201189659e-01
 6.3841635255e-01	 2.2542022052e+00	-3.9592732737e-01
 5.8844419753e-01	 2.2677601699e+00	-3.2061157410e-01
 5.3848591137e-01	 2.2801393324e+00	-2.4889467927e-01
 4.8857983762e-01	 2.2913515328e+00	-1.8358836351e-01
 9.9722427198e-01	 2.1515677330e+00	-9.4538719421e-01
 9.4770167540e-01	 2.1738357320e+00	-8.6344557232e-01
 8.9789916740e-01	 2.1948752938e+00	-7.8469878754e-01
 8.4786048575e-01	 2.2146858005e+00	-7.0929177659e-01
 7.9762895322e-01	 2.2332686115e+00	-6.3557714929e-01
 7.4724737232e-01	 2.2506270141e+00	-5.5732522681e-01
 6.9675792504e-01	 2.2667661677e+00	-4.7632044896e-01
 6.4620207813e-01	 2.2816930420e+00	-3.9480689336e-01
 5.9562049404e-01	 2.2954163512e+00	-3.1517374038e-01
 5.4505294794e-01	 2.3079464821e+00	-2.4024831786e-01
 4.9453825100e-01	 2.3192954196e+00	-1.7272130254e-01
 1.0092392722e+00	 2.1774907752e+00	-9.2370817494e-01
 9.5912000546e-01	 2.2000270690e+00	-8.5123533188e-01
 9.0871745476e-01	 2.2213201247e+00	-7.8242399921e-01
 8.5807588488e-01	 2.2413693171e+00	-7.1128923289e-01
 8.0723914058e-01	 2.2601760221e+00	-6.3255896431e-01
 7.5625054004e-01	 2.2777435665e+00	-5.4848086435e-01
 7.0515277351e-01	 2.2940771717e+00	-4.6151390259e-01
 6.5398780734e-01	 2.3091838916e+00	-3.7471129346e-01
 6.0279679389e-01	 2.3230725453e+00	-2.9062028931e-01
 5.5161998757e-01	 2.3357536449e+00	-2.1200233855e-01
 5.0049666716e-01	 2.3472393193e+00	-1.4134844985e-01
 1.0212542753e+00	 2.2034138235e+00	-8.9746506456e-01
 9.7053833819e-01	 2.2262184120e+00	-8.3539341095e-01
 9.1953574465e-01	 2.2477649618e+00	-7.6791213081e-01
 8.6829128640e-01	 2.2680528400e+00	-6.9127485696e-01
 8.1684933017e-01	 2.2870834390e+00	-6.0740217590e-01
 7.6525370987e-01	 2.3048601252e+00	-5.1824536629e-01
 7.1354762395e-01	 2.3213881821e+00	-4.2586496719e-01
 6.6177353837e-01	 2.3366747477e+00	-3.3398602596e-01
 6.0997309542e-01	 2.3507287459e+00	-2.4539575370e-01
 5.5818702873e-01	 2.3635608141e+00	-1.6271689532e-01
 5.0645508472e-01	 2.3751832256e+00	-8.8151127925e-02
 4.4687113857e-01	 2.0957452386e+00	-1.3905904510e-01
 4.0130411996e-01	 2.1049457527e+00	-5.4456586026e-02
 3.5585220013e-01	 2.1131044841e+00	 2.5632878278e-02
 3.1054752866e-01	 2.1202361611e+00	 1.0393710073e-01
 2.6542116220e-01	 2.1263566578e+00	 1.7534150067e-01
 2.2050302460e-01	 2.1314829156e+00	 2.3680467656e-01
 1.7582187290e-01	 2.1356328636e+00	 2.8722453101e-01
 1.3140526907e-01	 2.1388253387e+00	 3.2732435836e-01
 8.7279557320e-02	 2.1410800068e+00	 3.5940171780e-01
 4.3469846890e-02	 2.1424172829e+00	 3.8700289190e-01
 0.0000000000e+00	 2.1428582540e+00	 4.1457718726e-01
 4.5282949357e-01	 2.1236888515e+00	-9.7344323872e-02
 4.0665490725e-01	 2.1330120406e+00	-1.1607040734e-02
 3.6059695438e-01	 2.1412795564e+00	 7.1865320783e-02
 3.1468821320e-01	 2.1485063236e+00	 1.5460336311e-01
 2.6896015447e-01	 2.1547084280e+00	 2.2979531995e-01
 2.2344310102e-01	 2.1599030367e+00	 2.9391378716e-01
 1.7816619332e-01	 2.1641083180e+00	 3.4589273191e-01
 1.3315736083e-01	 2.1673433600e+00	 3.8685338653e-01
 8.8443299038e-02	 2.1696280907e+00	 4.1969601882e-01
 4.4049451964e-02	 2.1709831974e+00	 4.4862620896e-01
 0.0000000000e+00	 2.1714300481e+00	 4.7867470593e-01
 4.5878786107e-01	 2.1516325230e+00	-8.0904380149e-02
 4.1200570577e-01	 2.1610783874e+00	 1.8484977366e-03
 3.6534171859e-01	 2.1694546879e+00	 8.3236101922e-02
 3.1882890645e-01	 2.1767765455e+00	 1.6383050038e-01
 2.7249915418e-01	 2.1830602577e+00	 2.3516985814e-01
 2.2638318362e-01	 2.1883232175e+00	 2.9365628390e-01
 1.8051051866e-01	 2.1925838322e+00	 3.3869518152e-01
 1.3490945628e-01	 2.1958614412e+00	 3.7224220054e-01
 8.9607043199e-02	 2.1981762345e+00	 3.9822037108e-01
 4.4629058256e-02	 2.1995491718e+00	 4.2188227209e-01
 0.0000000000e+00	 2.2000019023e+00	 4.4918142865e-01
 4.6474623970e-01	 2.1795762467e+00	-8.6608163210e-02
 4.1735651428e-01	 2.1891447866e+00	-1.0834179912e-02
 3.7008649166e-01	 2.1976298720e+00	 6.2952953957e-02
 3.2296960742e-01	 2.2050468202e+00	 1.3461144573e-01
 2.7603816049e-01	 2.2114121403e+00	 1.9404851240e-01
 2.2932327170e-01	 2.2167434513e+00	 2.3806290691e-01
 1.8285484838e-01	 2.2210593996e+00	 2.6701941005e-01
 1.3666155499e-01	 2.2243795756e+00	 2.8450767371e-01
 9.0770789533e-02	 2.2267244316e+00	 2.9650315869e-01
 4.5208665629e-02	 2.2281151995e+00	 3.0899563369e-01
 0.0000000000e+00	 2.2285738097e+00	 3.2852118200e-01
 4.7070462806e-01	 2.2075200161e+00	-1.1150282703e-01
 4.2270733153e-01	 2.2172112317e+00	-4.6567482913e-02
 3.7483127248e-01	 2.2258051021e+00	 1.4503159550e-02
 3.2711031515e-01	 2.2333171410e+00	 7.3984933522e-02
 2.7957717259e-01	 2.2397640692e+00	 1.2148155603e-01
 2.3226336459e-01	 2.2451637316e+00	 1.5464994278e-01
 1.8519918193e-01	 2.2495350134e+00	 1.7446749785e-01
 1.3841365656e-01	 2.2528977565e+00	 1.8433451871e-01
 9.1934537767e-02	 2.2552726753e+00	 1.8934710578e-01
 4.5788273948e-02	 2.2566812740e+00	 1.9566971727e-01
 0.0000000000e+00	 2.2571457639e+00	 2.0999571245e-01
 4.7666302476e-01	 2.2354638246e+00	-1.4939034290e-01
 4.2805815627e-01	 2.2452777161e+00	-9.0310372263e-02
 3.7957605994e-01	 2.2539803717e+00	-3.2560802151e-02
 3.3125102868e-01	 2.2615875014e+00	 2.3880089629e-02
 2.8311618963e-01	 2.2681160378e+00	 6.7279234701e-02
 2.3520346159e-01	 2.2735840516e+00	 9.5785786506e-02
 1.8754351875e-01	 2.2780106672e+00	 1.1093678798e-01
 1.4016576059e-01	 2.2814159774e+00	 1.1655416293e-01
 9.3098287629e-02	 2.2838209591e+00	 1.1802649816e-01
 4.6367883079e-02	 2.2852473884e+00	 1.2169391853e-01
 0.0000000000e+00	 2.2857177580e+00	 1.3432306183e-01
 4.8262142841e-01	 2.2634076657e+00	-1.7532959099e-01
 4.3340898725e-01	 2.2733442332e+00	-1.1688142972e-01
 3.8432085293e-01	 2.2821556741e+00	-6.0082418987e-02
 3.3539174704e-01	 2.2898578948e+00	-4.6942209040e-03
 2.8665521081e-01	 2.2964680395e+00	 3.6972153778e-02
 2.3814356202e-01	 2.3020044048e+00	 6.3403191745e-02
 1.8988785831e-01	 2.3064863541e+00	 7.6677961637e-02
 1.4191786666e-01	 2.3099342316e+00	 8.0998345621e-02
 9.4262038850e-02	 2.3123692761e+00	 8.1983662423e-02
 4.6947492886e-02	 2.3138135361e+00	 8.6071811348e-02
 0.0000000000e+00	 2.3142897854e+00	 1.0001250743e-01
 4.8857983762e-01	 2.2913515328e+00	-1.8358836351e-01
 4.3875982323e-01	 2.3014107765e+00	-1.2433065735e-01
 3.8906565036e-01	 2.3103310028e+00	-6.6855773036e-02
 3.3953246927e-01	 2.3181283146e+00	-1.0765911052e-02
 2.9019423528e-01	 2.3248200676e+00	 3.1289463154e-02
 2.4108366519e-01	 2.3304247845e+00	 5.7970294765e-02
 1.9223220006e-01	 2.3349620676e+00	 7.1873491942e-02
 1.4366997437e-01	 2.3384525123e+00	 7.7532256078e-02
 9.5425791156e-02	 2.3409176197e+00	 8.0727758428e-02
 4.7527103234e-02	 2.3423797105e+00	 8.7910731760e-02
 0.0000000000e+00	 2.3428618396e+00	 1.0571700607e-01
 4.9453825100e-01	 2.3192954196e+00	-1.7272130254e-01
 4.4411066295e-01	 2.3294773395e+00	-1.1134887782e-01
 3.9381045110e-01	 2.3385063512e+00	-5.1743584841e-02
 3.4367319439e-01	 2.3463987541e+00	 6.5853499606e-03
 2.9373326224e-01	 2.3531721156e+00	 5.0921246364e-02
 2.4402377042e-01	 2.3588451841e+00	 7.9934455298e-02
 1.9457654345e-01	 2.3634378011e+00	 9.6708416625e-02
 1.4542208330e-01	 2.3669708131e+00	 1.0605147307e-01
 9.6589544277e-02	 2.3694659834e+00	 1.1383006820e-01
 4.8106713987e-02	 2.3709459049e+00	 1.2641520462e-01
 0.0000000000e+00	 2.3714339137e+00	 1.5022454126e-01
 5.0049666716e-01	 2.3472393193e+00	-1.4134844985e-01
 4.4946150517e-01	 2.3575439155e+00	-7.6693687799e-02
 3.9855525406e-01	 2.3666817128e+00	-1.3673744848e-02
 3.4781392145e-01	 2.3746692069e+00	 4.8229582759e-02
 2.9727229084e-01	 2.3815241768e+00	 9.6519148728e-02
 2.4696387702e-01	 2.3872655970e+00	 1.2972190235e-01
 1.9692088794e-01	 2.3919135479e+00	 1.5136882768e-01
 1.4717419305e-01	 2.3954891271e+00	 1.6647911569e-01
 9.7753297940e-02	 2.3980143603e+00	 1.8091961754e-01
 4.8686325011e-02	 2.3995121126e+00	 2.0088083848e-01
 0.0000000000e+00	 2.4000060012e+00	 2.3245008802e-01
 5.0645508472e-01	 2.3751832256e+00	-8.8151127925e-02
 4.5481234863e-01	 2.3856104981e+00	-1.9185625029e-02
 4.0330005812e-01	 2.3948570810e+00	 4.8363998196e-02
 3.5195464947e-01	 2.4029396663e+00	 1.1498782910e-01
 3.0081132027e-01	 2.4098762447e+00	 1.6869694706e-01
 2.4990398431e-01	 2.4156860165e+00	 2.0773739196e-01
 1.9926523297e-01	 2.4203893013e+00	 2.3604045717e-01
 1.4892630321e-01	 2.4240074478e+00	 2.5876318832e-01
 9.8917051876e-02	 2.4265627440e+00	 2.8167910291e-01
 4.9265936170e-02	 2.4280783270e+00	 3.1068865006e-01
 0.0000000000e+00	 2.4285780953e+00	 3.5142814442e-01
 2.4285780953e+00	 0.0000000000e+00	 2.0430707359e+00
 2.4280783270e+00	 4.9265936170e-02	 2.0577982975e+00
 2.4265627440e+00	 9.8917051876e-02	 2.0480574045e+00
 2.4240074478e+00	 1.4892630321e-01	 2.0184393698e+00
 2.4203893013e+00	 1.9926523297e-01	 1.9739833179e+00
 2.4156860165e+00	 2.4990398431e-01	 1.9197301830e+00
 2.4098762447e+00	 3.0081132027e-01	 1.8601790516e+00
 2.4029396663e+00	 3.5195464947e-01	 1.7986192009e+00
 2.3948570810e+00	 4.0330005812e-01	 1.7333664889e+00
 2.3856104981e+00	 4.5481234863e-01	 1.6547581891e+00
 2.3751832256e+00	 5.0645508472e-01	 1.5636789784e+00
 2.4571481911e+00	 0.0000000000e+00	 1.8836315878e+00
 2.4566425434e+00	 4.9845506790e-02	 1.9070180359e+00
 2.4551091309e+00	 1.0008072442e-01	 1.9059332826e+00
 2.4525237739e+00	 1.5067829082e-01	 1.8847750017e+00
 2.4488630630e+00	 2.0160941404e-01	 1.8484639400e+00
 2.4441044482e+00	 2.5284388597e-01	 1.8020457069e+00
 2.4382263296e+00	 3.0435010218e-01	 1.7501956065e+00
 2.4312081484e+00	 3.5609508788e-01	 1.6965973243e+00
 2.4230304786e+00	 4.0804453034e-01	 1.6393073025e+00
 2.4136751177e+00	 4.6016281786e-01	 1.5690371493e+00
 2.4031251775e+00	 5.1241308553e-01	 1.4861865696e+00
 2.4857182902e+00	 0.0000000000e+00	 1.7753585915e+00
 2.4852067632e+00	 5.0425077479e-02	 1.8041011215e+00
 2.4836555212e+00	 1.0124439709e-01	 1.8083164023e+00
 2.4810401034e+00	 1.5243027864e-01	 1.7921961378e+00
 2.4773368282e+00	 2.0395359538e-01	 1.7605322664e+00
 2.4725228833e+00	 2.5578378797e-01	 1.7183721288e+00
 2.4665764178e+00	 3.0788888451e-01	 1.6705777464e+00
 2.4594766338e+00	 3.6023552678e-01	 1.6212573186e+00
 2.4512038794e+00	 4.1278900310e-01	 1.5681866916e+00
 2.4417397406e+00	 4.6551328771e-01	 1.5027450873e+00
 2.4310671326e+00	 5.1837108705e-01	 1.4249577751e+00
 2.5142883960e+00	 0.0000000000e+00	 1.7172531946e+00
 2.5137709896e+00	 5.1004648302e-02	 1.7482828396e+00
 2.5122019181e+00	 1.0240807004e-01	 1.7546879091e+00
 2.5095564395e+00	 1.5418226687e-01	 1.7404226123e+00
 2.5058105999e+00	 2.0629777726e-01	 1.7101199124e+00
 2.5009413250e+00	 2.5872369065e-01	 1.6688060627e+00
 2.4949265126e+00	 3.1142766765e-01	 1.6215207237e+00
 2.4877451258e+00	 3.6437596665e-01	 1.5728078995e+00
 2.4793772868e+00	 4.1753347697e-01	 1.5201557711e+00
 2.4698043701e+00	 4.7086375881e-01	 1.4559030232e+00
 2.4590090943e+00	 5.2432908995e-01	 1.3798319732e+00
 2.5428585118e+00	 0.0000000000e+00	 1.7083269164e+00
 2.5423352261e+00	 5.1584219329e-02	 1.7388106794e+00
 2.5407483250e+00	 1.0357174340e-01	 1.7445439371e+00
 2.5380727856e+00	 1.5593425571e-01	 1.7291920539e+00
 2.5342843816e+00	 2.0864195997e-01	 1.6971784590e+00
 2.5293597767e+00	 2.6166359437e-01	 1.6534649573e+00
 2.5232766173e+00	 3.1496645204e-01	 1.6032395315e+00
 2.5160136277e+00	 3.6851640796e-01	 1.5514738237e+00
 2.5075507041e+00	 4.2227795250e-01	 1.4953805687e+00
 2.4978690093e+00	 4.7621423178e-01	 1.4285448947e+00
 2.4869510657e+00	 5.3028709493e-01	 1.3506616145e+00
 2.5714286409e+00	 0.0000000000e+00	 1.7476007864e+00
 2.5708994759e+00	 5.2163790626e-02	 1.7749439177e+00
 2.5692947453e+00	 1.0473541730e-01	 1.7773953400e+00
 2.5665891450e+00	 1.5768624537e-01	 1.7582597409e+00
 2.5627581767e+00	 2.1098614377e-01	 1.7216793843e+00
 2.5577782416e+00	 2.6460349945e-01	 1.6724870328e+00
 2.5516267353e+00	 3.1850523808e-01	 1.6159687471e+00
 2.5442821428e+00	 3.7265685121e-01	 1.5574837767e+00
 2.5357241346e+00	 4.2702243025e-01	 1.4940409609e+00
 2.5259336617e+00	 4.8156470724e-01	 1.4207162517e+00
 2.5148930502e+00	 5.3624510270e-01	 1.3373106504e+00
 2.5999987867e+00	 0.0000000000e+00	 1.8309432292e+00
 2.5994637423e+00	 5.2743362261e-02	 1.8532714200e+00
 2.5978411822e+00	 1.0589909188e-01	 1.8512251239e+00
 2.5951055210e+00	 1.5943823605e-01	 1.8270505515e+00
 2.5912319883e+00	 2.1333032894e-01	 1.7836140019e+00
 2.5861967231e+00	 2.6754340626e-01	 1.7260312185e+00
 2.5799768697e+00	 3.2204402618e-01	 1.6599623736e+00
 2.5725506744e+00	 3.7679729687e-01	 1.5910407600e+00
 2.5638975814e+00	 4.3176691076e-01	 1.5163296152e+00
 2.5539983304e+00	 4.8691518583e-01	 1.4324729686e+00
 2.5428350510e+00	 5.4220311395e-01	 1.3396529937e+00
 2.6285689525e+00	 0.0000000000e+00	 1.8928370644e+00
 2.6280280287e+00	 5.3322934302e-02	 1.9102742364e+00
 2.6263876391e+00	 1.0706276727e-01	 1.9066348739e+00
 2.6236219170e+00	 1.6119022796e-01	 1.8836262447e+00
 2.6197058198e+00	 2.1567451575e-01	 1.8434586135e+00
 2.6146152245e+00	 2.7048331512e-01	 1.7888355867e+00
 2.6083270241e+00	 3.2558281676e-01	 1.7229336241e+00
 2.6008192257e+00	 3.8093774543e-01	 1.6491411277e+00
 2.5920710480e+00	 4.3651139460e-01	 1.5624509377e+00
 2.5820630188e+00	 4.9226566816e-01	 1.4638799706e+00
 2.5707770713e+00	 5.4816112936e-01	 1.3575710083e+00
 2.6571391416e+00	 0.0000000000e+00	 1.9084415395e+00
 2.6565923385e+00	 5.3902506816e-02	 1.9201977358e+00
 2.6549341193e+00	 1.0822644361e-01	 1.9142185979e+00
 2.6521383363e+00	 1.6294222130e-01	 1.8917261602e+00
 2.6481796746e+00	 2.1801870447e-01	 1.8544246419e+00
 2.6430337491e+00	 2.7342322638e-01	 1.8045074458e+00
 2.6366772016e+00	 3.2912161023e-01	 1.7446556925e+00
 2.6290878002e+00	 3.8507819737e-01	 1.6776247354e+00
 2.6202445376e+00	 4.4125588231e-01	 1.5978633944e+00
 2.6101277301e+00	 4.9761615487e-01	 1.5020530548e+00
 2.5987191145e+00	 5.5411914964e-01	 1.3895108602e+00
 2.6857093574e+00	 0.0000000000e+00	 1.8789349522e+00
 2.6851566749e+00	 5.4482079871e-02	 1.8841959558e+00
 2.6834806261e+00	 1.0939012104e-01	 1.8751297058e+00
 2.6806547821e+00	 1.6469421627e-01	 1.8525213507e+00
 2.6766535560e+00	 2.2036289539e-01	 1.8176130888e+00
 2.6714523002e+00	 2.7636314038e-01	 1.7721287383e+00
 2.6650274055e+00	 3.3266040700e-01	 1.7182924387e+00
 2.6573564010e+00	 3.8921865318e-01	 1.6582391118e+00
 2.6484180535e+00	 4.4600037445e-01	 1.5861151343e+00
 2.6381924675e+00	 5.0296664657e-01	 1.4988605685e+00
 2.6266611837e+00	 5.6007717548e-01	 1.3954113785e+00
 2.7142796031e+00	 0.0000000000e+00	 1.8055027732e+00
 2.7137210413e+00	 5.5061653534e-02	 1.8034201525e+00
 2.7120271629e+00	 1.1055379969e-01	 1.7905104360e+00
 2.7091712580e+00	 1.6644621308e-01	 1.7671648370e+00
 2.7051274673e+00	 2.2270708876e-01	 1.7342015542e+00
 2.6998708812e+00	 2.7930305747e-01	 1.6929089126e+00
 2.6933776393e+00	 3.3619920749e-01	 1.6450854748e+00
 2.6856250315e+00	 3.9335911334e-01	 1.5922659535e+00
 2.6765915990e+00	 4.5074487157e-01	 1.5284879621e+00
 2.6662572345e+00	 5.0831714388e-01	 1.4508908272e+00
 2.6546032823e+00	 5.6603520758e-01	 1.3580957335e+00
 2.3751832256e+00	 5.0645508472e-01	 1.5636789784e+00
 2.3635608141e+00	 5.5818702873e-01	 1.4633669910e+00
 2.3507287459e+00	 6.0997309542e-01	 1.3561922632e+00
 2.3366747477e+00	 6.6177353837e-01	 1.2418243045e+00
 2.3213881821e+00	 7.1354762395e-01	 1.1199299723e+00
 2.3048601252e+00	 7.6525370987e-01	 9.9042631118e-01
 2.2870834390e+00	 8.1684933017e-01	 8.5192304041e-01
 2.2680528400e+00	 8.6829128640e-01	 7.0408527971e-01
 2.2477649618e+00	 9.1953574465e-01	 5.4681124734e-01
 2.2262184120e+00	 9.7053833819e-01	 3.8022790460e-01
 2.2034138235e+00	 1.0212542753e+00	 2.0935292820e-01
 2.4031251775e+00	 5.1241308553e-01	 1.4861865696e+00
 2.3913660385e+00	 5.6475361059e-01	 1.3935729906e+00
 2.3783830123e+00	 6.1714889503e-01	 1.2939678970e+00
 2.3641636810e+00	 6.6955872486e-01	 1.1872236162e+00
 2.3486972824e+00	 7.2194188724e-01	 1.0730239388e+00
 2.3319747873e+00	 7.7425625001e-01	 9.5093930717e-01
 2.3139889740e+00	 8.2645884763e-01	 8.1976073365e-01
 2.2947344967e+00	 8.7850597345e-01	 6.7952598803e-01
 2.2742079493e+00	 9.3035327790e-01	 5.3022478647e-01
 2.2524079233e+00	 9.8195587232e-01	 3.7198534898e-01
 2.2293350587e+00	 1.0332684381e+00	 2.0548666886e-01
 2.4310671326e+00	 5.1837108705e-01	 1.4249577751e+00
 2.4191712661e+00	 5.7132019322e-01	 1.3372801263e+00
 2.4060372818e+00	 6.2432469548e-01	 1.2427973330e+00
 2.3916526176e+00	 6.7734391225e-01	 1.1415431663e+00
 2.3760063858e+00	 7.3033615151e-01	 1.0331933924e+00
 2.3590894527e+00	 7.8325879120e-01	 9.1694121544e-01
 2.3408945122e+00	 8.3606836621e-01	 7.9189079997e-01
 2.3214161565e+00	 8.8872066169e-01	 6.5826789983e-01
 2.3006509399e+00	 9.4117081241e-01	 5.1603917386e-01
 2.2785974375e+00	 9.9337340778e-01	 3.6521061632e-01
 2.2552562969e+00	 1.0452826022e+00	 2.0625345025e-01
 2.4590090943e+00	 5.2432908995e-01	 1.3798319732e+00
 2.4469765002e+00	 5.7788677738e-01	 1.2941231372e+00
 2.4336915578e+00	 6.3150049761e-01	 1.2021200386e+00
 2.4191415605e+00	 6.8512910147e-01	 1.1040514550e+00
 2.4033154957e+00	 7.3873041774e-01	 9.9957358122e-01
 2.3862041243e+00	 7.9226133449e-01	 8.8750746229e-01
 2.3678000566e+00	 8.4567788703e-01	 7.6734823611e-01
 2.3480978224e+00	 8.9893535232e-01	 6.3934404095e-01
 2.3270939367e+00	 9.5198834945e-01	 5.0332762448e-01
 2.3047869579e+00	 1.0047909459e+00	 3.5906219829e-01
 2.2811775412e+00	 1.0572967691e+00	 2.0668187181e-01
 2.4869510657e+00	 5.3028709493e-01	 1.3506616145e+00
 2.4747817440e+00	 5.8445336384e-01	 1.2637521136e+00
 2.4613458435e+00	 6.3867630224e-01	 1.1713949648e+00
 2.4466305131e+00	 6.9291429340e-01	 1.0740428612e+00
 2.4306246151e+00	 7.4712468691e-01	 9.7132133615e-01
 2.4133188054e+00	 8.0126388093e-01	 8.6175211106e-01
 2.3947056104e+00	 8.5528741121e-01	 7.4521185744e-01
 2.3747794978e+00	 9.0915004652e-01	 6.2183649427e-01
 2.3535369427e+00	 9.6280589027e-01	 4.9121761054e-01
 2.3309764875e+00	 1.0162084880e+00	 3.5275788624e-01
 2.3070987945e+00	 1.0693109403e+00	 2.0612693809e-01
 2.5148930502e+00	 5.3624510270e-01	 1.3373106504e+00
 2.5025870009e+00	 5.9101995337e-01	 1.2458306838e+00
 2.4890001421e+00	 6.4585211023e-01	 1.1500985762e+00
 2.4741194785e+00	 7.0069948898e-01	 1.0508356203e+00
 2.4579337472e+00	 7.5551896000e-01	 9.4761450255e-01
 2.4404334992e+00	 8.1026643158e-01	 8.3882537948e-01
 2.4216111768e+00	 8.6489693988e-01	 7.2460169483e-01
 2.4014611856e+00	 9.1936474549e-01	 6.0487375316e-01
 2.3799799611e+00	 9.7362343615e-01	 4.7888825866e-01
 2.3571660292e+00	 1.0276260355e+00	 3.4557230876e-01
 2.3330200600e+00	 1.0813251171e+00	 2.0400547623e-01
 2.5428350510e+00	 5.4220311395e-01	 1.3396529937e+00
 2.5303922739e+00	 5.9758654672e-01	 1.2400342505e+00
 2.5166544568e+00	 6.5302792240e-01	 1.1377229479e+00
 2.5016084600e+00	 7.0848468909e-01	 1.0337698853e+00
 2.4852428953e+00	 7.6391323798e-01	 9.2769556960e-01
 2.4675482088e+00	 8.1926898747e-01	 8.1791126520e-01
 2.4485167589e+00	 8.7450647415e-01	 7.0467650874e-01
 2.4281428889e+00	 9.2957945041e-01	 5.8762819758e-01
 2.4064229949e+00	 9.8444098833e-01	 4.6556787118e-01
 2.3833555863e+00	 1.0390435896e+00	 3.3683459037e-01
 2.3589413405e+00	 1.0933393008e+00	 1.9979403283e-01
 2.5707770713e+00	 5.4816112936e-01	 1.3575710083e+00
 2.5581975664e+00	 6.0415314467e-01	 1.2460482721e+00
 2.5443087909e+00	 6.6020373959e-01	 1.1337739227e+00
 2.5290974606e+00	 7.1626989465e-01	 1.0222058629e+00
 2.5125520624e+00	 7.7230752184e-01	 9.1083537777e-01
 2.4946629374e+00	 8.2827154967e-01	 7.9822527113e-01
 2.4754223598e+00	 8.8411601516e-01	 6.8463141133e-01
 2.4548246109e+00	 9.3979416249e-01	 5.6931368345e-01
 2.4328660472e+00	 9.9525854809e-01	 4.5053156229e-01
 2.4095451617e+00	 1.0504611517e+00	 3.2592612240e-01
 2.3848626392e+00	 1.1053534930e+00	 1.9302687527e-01
 2.5987191145e+00	 5.5411914964e-01	 1.3895108602e+00
 2.5860028816e+00	 6.1071974798e-01	 1.2635665865e+00
 2.5719631476e+00	 6.6737956265e-01	 1.1377693262e+00
 2.5565864838e+00	 7.2405510657e-01	 1.0155220196e+00
 2.5398612519e+00	 7.8070181256e-01	 8.9632971745e-01
 2.5217776881e+00	 8.3727411922e-01	 7.7901222313e-01
 2.5023279827e+00	 8.9372556400e-01	 6.6369558864e-01
 2.4815063547e+00	 9.5000888291e-01	 5.4918323686e-01
 2.4593091211e+00	 1.0060761167e+00	 4.3309900022e-01
 2.4357347585e+00	 1.0618787231e+00	 3.1227843741e-01
 2.4107839591e+00	 1.1173676950e+00	 1.8336089566e-01
 2.6266611837e+00	 5.6007717548e-01	 1.3954113785e+00
 2.6138082228e+00	 6.1728635743e-01	 1.2769057186e+00
 2.5996175300e+00	 6.7455539240e-01	 1.1477528076e+00
 2.5840755326e+00	 7.3184032576e-01	 1.0131133538e+00
 2.5671704669e+00	 7.8909611111e-01	 8.8349737681e-01
 2.5488924641e+00	 8.4627669717e-01	 7.5954417316e-01
 2.5292336307e+00	 9.0333512182e-01	 6.4113011536e-01
 2.5081881235e+00	 9.6022361286e-01	 5.2652684513e-01
 2.4857522197e+00	 1.0168936954e+00	 4.1263224773e-01
 2.4619243797e+00	 1.0732963052e+00	 2.9537117946e-01
 2.4367053032e+00	 1.1293819082e+00	 1.7079681802e-01
 2.6546032823e+00	 5.6603520758e-01	 1.3580957335e+00
 2.6416135931e+00	 6.2385297377e-01	 1.2505704660e+00
 2.6272719415e+00	 6.8173122969e-01	 1.1319661027e+00
 2.6115646102e+00	 7.3962555313e-01	 1.0051706791e+00
 2.5944797105e+00	 7.9749041847e-01	 8.7160117544e-01
 2.5760072686e+00	 8.5527928458e-01	 7.3911838158e-01
 2.5561393069e+00	 9.1294468973e-01	 6.1622585522e-01
 2.5348699202e+00	 9.7043835354e-01	 5.0066933774e-01
 2.5121953460e+00	 1.0277112854e+00	 3.8853369342e-01
 2.4881140284e+00	 1.0847138993e+00	 2.7473016324e-01
 2.4626266744e+00	 1.1413961340e+00	 1.5505077633e-01
 2.2034138235e+00	 1.0212542753e+00	 2.0935292820e-01
 2.1793521717e+00	 1.0716419640e+00	 4.2965252615e-02
 2.1540398284e+00	 1.1216525223e+00	-1.1801732136e-01
 2.1274837496e+00	 1.1712405517e+00	-2.6608662754e-01
 2.0996930468e+00	 1.2203607018e+00	-3.9897234240e-01
 2.0706789986e+00	 1.2689677965e+00	-5.1892512467e-01
 2.0404550539e+00	 1.3170169622e+00	-6.2951082406e-01
 2.0090368265e+00	 1.3644637563e+00	-7.3519497219e-01
 1.9764420801e+00	 1.4112642971e+00	-8.4082301462e-01
 1.9426907042e+00	 1.4573753922e+00	-9.5100662225e-01
 1.9078046810e+00	 1.5027546666e+00	-1.0670665803e+00
 2.2293350587e+00	 1.0332684381e+00	 2.0548666886e-01
 2.2049903427e+00	 1.0842488938e+00	 3.4254405393e-02
 2.1793802217e+00	 1.1348477825e+00	-1.3038300493e-01
 2.1525117340e+00	 1.1850191717e+00	-2.7921013901e-01
 2.1243940979e+00	 1.2347171774e+00	-4.1137944048e-01
 2.0950387247e+00	 1.2838960920e+00	-5.2923201457e-01
 2.0644592217e+00	 1.3325105141e+00	-6.3661502072e-01
 2.0326713864e+00	 1.3805154782e+00	-7.3844308347e-01
 1.9996931913e+00	 1.4278665864e+00	-8.4014636554e-01
 1.9655447601e+00	 1.4745201382e+00	-9.4701615166e-01
 1.9302483333e+00	 1.5204332600e+00	-1.0553289645e+00
 2.2552562969e+00	 1.0452826022e+00	 2.0625345025e-01
 2.2306285166e+00	 1.0968558250e+00	 3.9255128656e-02
 2.2047206181e+00	 1.1480430443e+00	-1.2991620137e-01
 2.1775397212e+00	 1.1987977933e+00	-2.8188145869e-01
 2.1490951518e+00	 1.2490736546e+00	-4.1575580628e-01
 2.1193984537e+00	 1.2988243893e+00	-5.3393056700e-01
 2.0884633924e+00	 1.3480040678e+00	-6.4051082120e-01
 2.0563059491e+00	 1.3965672020e+00	-7.4085322817e-01
 2.0229443053e+00	 1.4444688776e+00	-8.4098083254e-01
 1.9883988186e+00	 1.4916648861e+00	-9.4635070866e-01
 1.9526919883e+00	 1.5381118555e+00	-1.0462143211e+00
 2.2811775412e+00	 1.0572967691e+00	 2.0668187181e-01
 2.2562666965e+00	 1.1094627592e+00	 4.6226205022e-02
 2.2300610203e+00	 1.1612383092e+00	-1.1777005279e-01
 2.2025677143e+00	 1.2125764182e+00	-2.7446216373e-01
 2.1737962115e+00	 1.2634301352e+00	-4.1234428963e-01
 2.1437581884e+00	 1.3137526900e+00	-5.3312416231e-01
 2.1124675687e+00	 1.3634976251e+00	-6.4114343776e-01
 2.0799405173e+00	 1.4126189295e+00	-7.4219685264e-01
 2.0461954248e+00	 1.4610711728e+00	-8.4291260960e-01
 2.0112528825e+00	 1.5088096381e+00	-9.4613562955e-01
 1.9751356485e+00	 1.5557904552e+00	-1.0388987238e+00
 2.3070987945e+00	 1.0693109403e+00	 2.0612693809e-01
 2.2819048853e+00	 1.1220696979e+00	 5.1434484127e-02
 2.2554014314e+00	 1.1744335787e+00	-1.0459089126e-01
 2.2275957162e+00	 1.2263550478e+00	-2.5758645676e-01
 2.1984972798e+00	 1.2777866209e+00	-4.0135998891e-01
 2.1681179316e+00	 1.3286809960e+00	-5.2688859005e-01
 2.1364717534e+00	 1.3789911878e+00	-6.3842897905e-01
 2.1035750938e+00	 1.4286706627e+00	-7.4221308850e-01
 2.0694465523e+00	 1.4776734737e+00	-8.4549068284e-01
 2.0341069544e+00	 1.5259543961e+00	-9.4549283662e-01
 1.9975793166e+00	 1.5734690610e+00	-1.0326260095e+00
 2.3330200600e+00	 1.0813251171e+00	 2.0400547623e-01
 2.3075430862e+00	 1.1346766424e+00	 5.4861980673e-02
 2.2807418543e+00	 1.1876288543e+00	-9.3996309773e-02
 2.2526237297e+00	 1.2401336839e+00	-2.4014372309e-01
 2.2231983597e+00	 1.2921431132e+00	-3.8300658666e-01
 2.1924776862e+00	 1.3436093089e+00	-5.1527880438e-01
 2.1604759493e+00	 1.3944847578e+00	-6.3226101708e-01
 2.1272096813e+00	 1.4447224033e+00	-7.4061509144e-01
 2.0926976907e+00	 1.4942757824e+00	-8.4746651685e-01
 2.0569610370e+00	 1.5430991621e+00	-9.4385912167e-01
 2.0200229951e+00	 1.5911476750e+00	-1.0267100907e+00
 2.3589413405e+00	 1.0933393008e+00	 1.9979403283e-01
 2.3331813020e+00	 1.1472835942e+00	 5.6178589798e-02
 2.3060822920e+00	 1.2008241377e+00	-8.6119631588e-02
 2.2776517578e+00	 1.2539123280e+00	-2.2607836669e-01
 2.2478994539e+00	 1.3064996139e+00	-3.6347183636e-01
 2.2168374549e+00	 1.3585376306e+00	-4.9833562436e-01
 2.1844801592e+00	 1.4099783368e+00	-6.2251711067e-01
 2.1508442826e+00	 1.4607741533e+00	-7.3709634727e-01
 2.1159488427e+00	 1.5108781007e+00	-8.4666880262e-01
 2.0798151328e+00	 1.5602439381e+00	-9.4073996589e-01
 2.0424666867e+00	 1.6088262994e+00	-1.0205372637e+00
 2.3848626392e+00	 1.1053534930e+00	 1.9302687527e-01
 2.3588195357e+00	 1.1598905549e+00	 5.5099144341e-02
 2.3314227474e+00	 1.2140194302e+00	-8.1050997115e-02
 2.3026798035e+00	 1.2676909818e+00	-2.1528541739e-01
 2.2726005655e+00	 1.3208561247e+00	-3.4772286849e-01
 2.2411972408e+00	 1.3734659627e+00	-4.7894829732e-01
 2.2084843859e+00	 1.4254719267e+00	-6.0906528840e-01
 2.1744789005e+00	 1.4768259145e+00	-7.3133694773e-01
 2.1392000109e+00	 1.5274804307e+00	-8.4271765681e-01
 2.1026692447e+00	 1.5773887261e+00	-9.3571170470e-01
 2.0649103941e+00	 1.6265049361e+00	-1.0135685132e+00
 2.4107839591e+00	 1.1173676950e+00	 1.8336089566e-01
 2.3844577904e+00	 1.1724975259e+00	 5.1383079391e-02
 2.3567632236e+00	 1.2272147336e+00	-7.8843345799e-02
 2.3277078696e+00	 1.2814696468e+00	-2.0763093251e-01
 2.2973016972e+00	 1.3352126472e+00	-3.3543973755e-01
 2.2655570465e+00	 1.3883943069e+00	-4.6316160178e-01
 2.2324886322e+00	 1.4409655292e+00	-5.9247593145e-01
 2.1981135376e+00	 1.4928776889e+00	-7.2251655052e-01
 2.1624511982e+00	 1.5440827743e+00	-8.3537097638e-01
 2.1255233752e+00	 1.5945335281e+00	-9.2842368217e-01
 2.0873541197e+00	 1.6441835873e+00	-1.0053418131e+00
 2.4367053032e+00	 1.1293819082e+00	 1.7079681802e-01
 2.4100960690e+00	 1.1851045086e+00	 4.4828950349e-02
 2.3821037234e+00	 1.2404100493e+00	-7.9518326228e-02
 2.3527359590e+00	 1.2952483247e+00	-2.0295835385e-01
 2.3220028520e+00	 1.3495691831e+00	-3.2628919227e-01
 2.2899168750e+00	 1.4033226652e+00	-4.5069702835e-01
 2.2564929009e+00	 1.4564591462e+00	-5.7813831054e-01
 2.2217481968e+00	 1.5089294782e+00	-7.0906158256e-01
 2.1857024071e+00	 1.5606851333e+00	-8.2445725514e-01
 2.1483775271e+00	 1.6116783461e+00	-9.1860039606e-01
 2.1097978664e+00	 1.6618622550e+00	-9.9547442497e-01
 2.4626266744e+00	 1.1413961340e+00	 1.5505077633e-01
 2.4357343745e+00	 1.1977115046e+00	 3.5269025918e-02
 2.4074442497e+00	 1.2536053788e+00	-8.3072139740e-02
 2.3777640747e+00	 1.3090270171e+00	-2.0109480683e-01
 2.3467040327e+00	 1.3639257340e+00	-3.1993144623e-01
 2.3142767290e+00	 1.4182510391e+00	-4.4104904363e-01
 2.2804971949e+00	 1.4719527794e+00	-5.6665971618e-01
 2.2453828809e+00	 1.5249812844e+00	-6.9373927763e-01
 2.2089536405e+00	 1.5772875098e+00	-8.0987757540e-01
 2.1712317030e+00	 1.6288231821e+00	-9.0604363404e-01
 2.1322416365e+00	 1.6795409412e+00	-9.8366519327e-01
 1.9078046810e+00	 1.5027546666e+00	-1.0670665803e+00
 1.8718080373e+00	 1.5473606928e+00	-1.1761079547e+00
 1.8347267774e+00	 1.5911531264e+00	-1.2733052588e+00
 1.7965888388e+00	 1.6340928130e+00	-1.3464028394e+00
 1.7574240285e+00	 1.6761418999e+00	-1.3978387460e+00
 1.7172639463e+00	 1.7172639463e+00	-1.4338262614e+00
 1.6761418999e+00	 1.7574240285e+00	-1.4609199780e+00
 1.6340928130e+00	 1.7965888388e+00	-1.4852761995e+00
 1.5911531264e+00	 1.8347267774e+00	-1.5119340994e+00
 1.5473606928e+00	 1.8718080373e+00	-1.5401020148e+00
 1.5027546666e+00	 1.9078046810e+00	-1.5490663477e+00
 1.9302483333e+00	 1.5204332600e+00	-1.0553289645e+00
 1.8938282206e+00	 1.5655640371e+00	-1.1543175334e+00
 1.8563107322e+00	 1.6098716503e+00	-1.2440732140e+00
 1.8177241341e+00	 1.6533164848e+00	-1.3174494708e+00
 1.7780985841e+00	 1.6958602424e+00	-1.3689200671e+00
 1.7374660536e+00	 1.7374660536e+00	-1.4051905009e+00
 1.6958602424e+00	 1.7780985841e+00	-1.4334244265e+00
 1.6533164848e+00	 1.8177241341e+00	-1.4603324010e+00
 1.6098716503e+00	 1.8563107322e+00	-1.4912135868e+00
 1.5655640371e+00	 1.8938282206e+00	-1.5125783029e+00
 1.5204332600e+00	 1.9302483333e+00	-1.5123913536e+00
 1.9526919883e+00	 1.5381118555e+00	-1.0462143211e+00
 1.9158484066e+00	 1.5837673835e+00	-1.1367380235e+00
 1.8778946895e+00	 1.6285901764e+00	-1.2187684131e+00
 1.8388594319e+00	 1.6725401588e+00	-1.2905119571e+00
 1.7987731421e+00	 1.7155785871e+00	-1.3434443994e+00
 1.7576681634e+00	 1.7576681634e+00	-1.3813784603e+00
 1.7155785871e+00	 1.7987731421e+00	-1.4121613471e+00
 1.6725401588e+00	 1.8388594319e+00	-1.4431284639e+00
 1.6285901764e+00	 1.8778946895e+00	-1.4741541891e+00
 1.5837673835e+00	 1.9158484066e+00	-1.4873909431e+00
 1.5381118555e+00	 1.9526919883e+00	-1.4796332344e+00
 1.9751356485e+00	 1.5557904552e+00	-1.0388987238e+00
 1.9378685976e+00	 1.6019707342e+00	-1.1224137419e+00
 1.8994786518e+00	 1.6473087069e+00	-1.1980511540e+00
 1.8599947346e+00	 1.6917638373e+00	-1.2653515419e+00
 1.8194477049e+00	 1.7352969365e+00	-1.3207832526e+00
 1.7778702778e+00	 1.7778702778e+00	-1.3616600723e+00
 1.7352969365e+00	 1.8194477049e+00	-1.3963090239e+00
 1.6917638373e+00	 1.8599947346e+00	-1.4322414656e+00
 1.6473087069e+00	 1.8994786518e+00	-1.4576223137e+00
 1.6019707342e+00	 1.9378685976e+00	-1.4640932099e+00
 1.5557904552e+00	 1.9751356485e+00	-1.4502375672e+00
 1.9975793166e+00	 1.5734690610e+00	-1.0326260095e+00
 1.9598887964e+00	 1.6201740912e+00	-1.1104596439e+00
 1.9210626217e+00	 1.6660272440e+00	-1.1809025104e+00
 1.8811300447e+00	 1.7109875225e+00	-1.2440926729e+00
 1.8401222750e+00	 1.7550152928e+00	-1.3003022368e+00
 1.7980723993e+00	 1.7980723993e+00	-1.3452906688e+00
 1.7550152928e+00	 1.8401222750e+00	-1.3850229760e+00
 1.7109875225e+00	 1.8811300447e+00	-1.4217039451e+00
 1.6660272440e+00	 1.9210626217e+00	-1.4412350136e+00
 1.6201740912e+00	 1.9598887964e+00	-1.4421968026e+00
 1.5734690610e+00	 1.9975793166e+00	-1.4236047414e+00
 2.0200229951e+00	 1.5911476750e+00	-1.0267100907e+00
 1.9819090054e+00	 1.6383774568e+00	-1.1000637733e+00
 1.9426466017e+00	 1.6847457898e+00	-1.1663790951e+00
 1.9022653647e+00	 1.7302112167e+00	-1.2264251076e+00
 1.8607968547e+00	 1.7747336583e+00	-1.2815979152e+00
 1.8182745303e+00	 1.8182745303e+00	-1.3315064420e+00
 1.7747336583e+00	 1.8607968547e+00	-1.3769080833e+00
 1.7302112167e+00	 1.9022653647e+00	-1.4098133200e+00
 1.6847457898e+00	 1.9426466017e+00	-1.4245836250e+00
 1.6383774568e+00	 1.9819090054e+00	-1.4211858624e+00
 1.5911476750e+00	 2.0200229951e+00	-1.3991038693e+00
 2.0424666867e+00	 1.6088262994e+00	-1.0205372637e+00
 2.0039292273e+00	 1.6565808329e+00	-1.0904897157e+00
 1.9642305942e+00	 1.7034643465e+00	-1.1536156634e+00
 1.9234006970e+00	 1.7494349222e+00	-1.2113475946e+00
 1.8814714465e+00	 1.7944520353e+00	-1.2657963221e+00
 1.8384766730e+00	 1.8384766730e+00	-1.3195199301e+00
 1.7944520353e+00	 1.8814714465e+00	-1.3671005541e+00
 1.7494349222e+00	 1.9234006970e+00	-1.3962485060e+00
 1.7034643465e+00	 1.9642305942e+00	-1.4072478498e+00
 1.6565808329e+00	 2.0039292273e+00	-1.4005310321e+00
 1.6088262994e+00	 2.0424666867e+00	-1.3760867409e+00
 2.0649103941e+00	 1.6265049361e+00	-1.0135685132e+00
 2.0259494646e+00	 1.6747842218e+00	-1.0810790547e+00
 1.9858146019e+00	 1.7221829163e+00	-1.1418277247e+00
 1.9445360440e+00	 1.7686586410e+00	-1.1979417478e+00
 1.9021460527e+00	 1.8141704261e+00	-1.2522821787e+00
 1.8586788298e+00	 1.8586788298e+00	-1.3083713835e+00
 1.8141704261e+00	 1.9021460527e+00	-1.3544224463e+00
 1.7686586410e+00	 1.9445360440e+00	-1.3806907465e+00
 1.7221829163e+00	 1.9858146019e+00	-1.3888098718e+00
 1.6747842218e+00	 2.0259494646e+00	-1.3797035518e+00
 1.6265049361e+00	 2.0649103941e+00	-1.3539018208e+00
 2.0873541197e+00	 1.6441835873e+00	-1.0053418131e+00
 2.0479697198e+00	 1.6929876255e+00	-1.0712538309e+00
 2.0073986272e+00	 1.7409015014e+00	-1.1303141630e+00
 1.9656714084e+00	 1.7878823756e+00	-1.1853748276e+00
 1.9228206758e+00	 1.8338888330e+00	-1.2400815595e+00
 1.8788810032e+00	 1.8788810032e+00	-1.2955265311e+00
 1.8338888330e+00	 1.9228206758e+00	-1.3386572150e+00
 1.7878823756e+00	 1.9656714084e+00	-1.3628376980e+00
 1.7409015014e+00	 2.0073986272e+00	-1.3688685045e+00
 1.6929876255e+00	 2.0479697198e+00	-1.3581893909e+00
 1.6441835873e+00	 2.0873541197e+00	-1.3319082830e+00
 2.1097978664e+00	 1.6618622550e+00	-9.9547442497e-01
 2.0699899957e+00	 1.7111910463e+00	-1.0605190032e+00
 2.0289826726e+00	 1.7596201039e+00	-1.1184598649e+00
 1.9868067925e+00	 1.8071061281e+00	-1.1729025340e+00
 1.9434953183e+00	 1.8536072583e+00	-1.2282996678e+00
 1.8990831954e+00	 1.8990831954e+00	-1.2801085168e+00
 1.8536072583e+00	 1.9434953183e+00	-1.3196204446e+00
 1.8071061281e+00	 1.9868067925e+00	-1.3424175433e+00
 1.7596201039e+00	 2.0289826726e+00	-1.3470533686e+00
 1.7111910463e+00	 2.0699899957e+00	-1.3355034121e+00
 1.6618622550e+00	 2.1097978664e+00	-1.3094900810e+00
 2.1322416365e+00	 1.6795409412e+00	-9.8366519327e-01
 2.0920102946e+00	 1.7293944861e+00	-1.0484649130e+00
 2.0505667407e+00	 1.7783387262e+00	-1.1057383547e+00
 2.0079421987e+00	 1.8263299008e+00	-1.1598718113e+00
 1.9641699824e+00	 1.8733257043e+00	-1.2146156389e+00
 1.9192854089e+00	 1.9192854089e+00	-1.2619635965e+00
 1.8733257043e+00	 1.9641699824e+00	-1.2977724996e+00
 1.8263299008e+00	 2.0079421987e+00	-1.3192031277e+00
 1.7783387262e+00	 2.0505667407e+00	-1.3230390968e+00
 1.7293944861e+00	 2.0920102946e+00	-1.3112035655e+00
 1.6795409412e+00	 2.1322416365e+00	-1.2860700521e+00
 1.5027546666e+00	 1.9078046810e+00	-1.5490663477e+00
 1.4573753922e+00	 1.9426907042e+00	-1.5394466369e+00
 1.4112642971e+00	 1.9764420801e+00	-1.5075318427e+00
 1.3644637563e+00	 2.0090368265e+00	-1.4541882025e+00
 1.3170169622e+00	 2.0404550539e+00	-1.3838870833e+00
 1.2689677965e+00	 2.0706789986e+00	-1.3021192283e+00
 1.2203607018e+00	 2.0996930468e+00	-1.2146282765e+00
 1.1712405517e+00	 2.1274837496e+00	-1.1267502877e+00
 1.1216525223e+00	 2.1540398284e+00	-1.0428720203e+00
 1.0716419640e+00	 2.1793521717e+00	-9.6601615041e-01
 1.0212542753e+00	 2.2034138235e+00	-8.9746506456e-01
 1.5204332600e+00	 1.9302483333e+00	-1.5123913536e+00
 1.4745201382e+00	 1.9655447601e+00	-1.4961439915e+00
 1.4278665864e+00	 1.9996931913e+00	-1.4615920116e+00
 1.3805154782e+00	 2.0326713864e+00	-1.4059356948e+00
 1.3325105141e+00	 2.0644592217e+00	-1.3343052240e+00
 1.2838960920e+00	 2.0950387247e+00	-1.2527602261e+00
 1.2347171774e+00	 2.1243940979e+00	-1.1674744029e+00
 1.1850191717e+00	 2.1525117340e+00	-1.0840363694e+00
 1.1348477825e+00	 2.1793802217e+00	-1.0068800109e+00
 1.0842488938e+00	 2.2049903427e+00	-9.3886351661e-01
 1.0332684381e+00	 2.2293350587e+00	-8.8038997665e-01
 1.5381118555e+00	 1.9526919883e+00	-1.4796332344e+00
 1.4916648861e+00	 1.9883988186e+00	-1.4566483040e+00
 1.4444688776e+00	 2.0229443053e+00	-1.4213428944e+00
 1.3965672020e+00	 2.0563059491e+00	-1.3656660226e+00
 1.3480040678e+00	 2.0884633924e+00	-1.2950246062e+00
 1.2988243893e+00	 2.1193984537e+00	-1.2160638168e+00
 1.2490736546e+00	 2.1490951518e+00	-1.1353858305e+00
 1.1987977933e+00	 2.1775397212e+00	-1.0588107070e+00
 1.1480430443e+00	 2.2047206181e+00	-9.9077828674e-01
 1.0968558250e+00	 2.2306285166e+00	-9.3287700871e-01
 1.0452826022e+00	 2.2552562969e+00	-8.7281228334e-01
 1.5557904552e+00	 1.9751356485e+00	-1.4502375672e+00
 1.5088096381e+00	 2.0112528825e+00	-1.4219399081e+00
 1.4610711728e+00	 2.0461954248e+00	-1.3858121760e+00
 1.4126189295e+00	 2.0799405173e+00	-1.3322329453e+00
 1.3634976251e+00	 2.1124675687e+00	-1.2647371574e+00
 1.3137526900e+00	 2.1437581884e+00	-1.1905762674e+00
 1.2634301352e+00	 2.1737962115e+00	-1.1167821754e+00
 1.2125764182e+00	 2.2025677143e+00	-1.0493868359e+00
 1.1612383092e+00	 2.2300610203e+00	-9.9194989507e-01
 1.1094627592e+00	 2.2562666965e+00	-9.3269203560e-01
 1.0572967691e+00	 2.2811775412e+00	-8.6788978394e-01
 1.5734690610e+00	 1.9975793166e+00	-1.4236047414e+00
 1.5259543961e+00	 2.0341069544e+00	-1.3914892390e+00
 1.4776734737e+00	 2.0694465523e+00	-1.3540899151e+00
 1.4286706627e+00	 2.1035750938e+00	-1.3045468983e+00
 1.3789911878e+00	 2.1364717534e+00	-1.2421880512e+00
 1.3286809960e+00	 2.1681179316e+00	-1.1748959302e+00
 1.2777866209e+00	 2.1984972798e+00	-1.1101361958e+00
 1.2263550478e+00	 2.2275957162e+00	-1.0537674802e+00
 1.1744335787e+00	 2.2554014314e+00	-9.9635801879e-01
 1.1220696979e+00	 2.2819048853e+00	-9.3270288536e-01
 1.0693109403e+00	 2.3070987945e+00	-8.6416069922e-01
 1.5911476750e+00	 2.0200229951e+00	-1.3991038693e+00
 1.5430991621e+00	 2.0569610370e+00	-1.3645390955e+00
 1.4942757824e+00	 2.0926976907e+00	-1.3259130518e+00
 1.4447224033e+00	 2.1272096813e+00	-1.2815645673e+00
 1.3944847578e+00	 2.1604759493e+00	-1.2261651541e+00
 1.3436093089e+00	 2.1924776862e+00	-1.1676626146e+00
 1.2921431132e+00	 2.2231983597e+00	-1.1139516926e+00
 1.2401336839e+00	 2.2526237297e+00	-1.0600449165e+00
 1.1876288543e+00	 2.2807418543e+00	-9.9879887326e-01
 1.1346766424e+00	 2.3075430862e+00	-9.3170164026e-01
 1.0813251171e+00	 2.3330200600e+00	-8.6026131709e-01
 1.6088262994e+00	 2.0424666867e+00	-1.3760867409e+00
 1.5602439381e+00	 2.0798151328e+00	-1.3403094146e+00
 1.5108781007e+00	 2.1159488427e+00	-1.3017536439e+00
 1.4607741533e+00	 2.1508442826e+00	-1.2622785285e+00
 1.4099783368e+00	 2.1844801592e+00	-1.2154885455e+00
 1.3585376306e+00	 2.2168374549e+00	-1.1675470424e+00
 1.3064996139e+00	 2.2478994539e+00	-1.1195687332e+00
 1.2539123280e+00	 2.2776517578e+00	-1.0626235937e+00
 1.2008241377e+00	 2.3060822920e+00	-9.9838732468e-01
 1.1472835942e+00	 2.3331813020e+00	-9.2859260058e-01
 1.0933393008e+00	 2.3589413405e+00	-8.5492448430e-01
 1.6265049361e+00	 2.0649103941e+00	-1.3539018208e+00
 1.5773887261e+00	 2.1026692447e+00	-1.3180110769e+00
 1.5274804307e+00	 2.1392000109e+00	-1.2807229420e+00
 1.4768259145e+00	 2.1744789005e+00	-1.2457069481e+00
 1.4254719267e+00	 2.2084843859e+00	-1.2090001071e+00
 1.3734659627e+00	 2.2411972408e+00	-1.1698435670e+00
 1.3208561247e+00	 2.2726005655e+00	-1.1201562317e+00
 1.2676909818e+00	 2.3026798035e+00	-1.0609320455e+00
 1.2140194302e+00	 2.3314227474e+00	-9.9434451984e-01
 1.1598905549e+00	 2.3588195357e+00	-9.2238529751e-01
 1.1053534930e+00	 2.3848626392e+00	-8.4697822914e-01
 1.6441835873e+00	 2.0873541197e+00	-1.3319082830e+00
 1.5945335281e+00	 2.1255233752e+00	-1.2968597538e+00
 1.5440827743e+00	 2.1624511982e+00	-1.2618755943e+00
 1.4928776889e+00	 2.1981135376e+00	-1.2312618737e+00
 1.4409655292e+00	 2.2324886322e+00	-1.2047313386e+00
 1.3883943069e+00	 2.2655570465e+00	-1.1664258813e+00
 1.3352126472e+00	 2.2973016972e+00	-1.1154472674e+00
 1.2814696468e+00	 2.3277078696e+00	-1.0545035365e+00
 1.2272147336e+00	 2.3567632236e+00	-9.8599603392e-01
 1.1724975259e+00	 2.3844577904e+00	-9.1219259567e-01
 1.1173676950e+00	 2.4107839591e+00	-8.3533430828e-01
 1.6618622550e+00	 2.1097978664e+00	-1.3094900810e+00
 1.6116783461e+00	 2.1483775271e+00	-1.2760897941e+00
 1.5606851333e+00	 2.1857024071e+00	-1.2442770590e+00
 1.5089294782e+00	 2.2217481968e+00	-1.2189686643e+00
 1.4564591462e+00	 2.2564929009e+00	-1.1953625774e+00
 1.4033226652e+00	 2.2899168750e+00	-1.1570388945e+00
 1.3495691831e+00	 2.3220028520e+00	-1.1052772433e+00
 1.2952483247e+00	 2.3527359590e+00	-1.0429742125e+00
 1.2404100493e+00	 2.3821037234e+00	-9.7277011146e-01
 1.1851045086e+00	 2.4100960690e+00	-8.9722899814e-01
 1.1293819082e+00	 2.4367053032e+00	-8.1894613619e-01
 1.6795409412e+00	 2.1322416365e+00	-1.2860700521e+00
 1.6288231821e+00	 2.1712317030e+00	-1.2549681473e+00
 1.5772875098e+00	 2.2089536405e+00	-1.2270172509e+00
 1.5249812844e+00	 2.2453828809e+00	-1.2047610280e+00
 1.4719527794e+00	 2.2804971949e+00	-1.1796625336e+00
 1.4182510391e+00	 2.3142767290e+00	-1.1418054785e+00
 1.3639257340e+00	 2.3467040327e+00	-1.0895819893e+00
 1.3090270171e+00	 2.3777640747e+00	-1.0260813292e+00
 1.2536053788e+00	 2.4074442497e+00	-9.5419599367e-01
 1.1977115046e+00	 2.4357343745e+00	-8.7680904661e-01
 1.1413961340e+00	 2.4626266744e+00	-7.9690230367e-01
 1.0212542753e+00	 2.2034138235e+00	-8.9746506456e-01
 9.7053833819e-01	 2.2262184120e+00	-8.3539341095e-01
 9.1953574465e-01	 2.2477649618e+00	-7.6791213081e-01
 8.6829128640e-01	 2.2680528400e+00	-6.9127485696e-01
 8.1684933017e-01	 2.2870834390e+00	-6.0740217590e-01
 7.6525370987e-01	 2.3048601252e+00	-5.1824536629e-01
 7.1354762395e-01	 2.3213881821e+00	-4.2586496719e-01
 6.6177353837e-01	 2.3366747477e+00	-3.3398602596e-01
 6.0997309542e-01	 2.3507287459e+00	-2.4539575370e-01
 5.5818702873e-01	 2.3635608141e+00	-1.6271689532e-01
 5.0645508472e-01	 2.3751832256e+00	-8.8151127925e-02
 1.0332684381e+00	 2.2293350587e+00	-8.8038997665e-01
 9.8195587232e-01	 2.2524079233e+00	-8.1758724054e-01
 9.3035327790e-01	 2.2742079493e+00	-7.4476737867e-01
 8.7850597345e-01	 2.2947344967e+00	-6.6335721915e-01
 8.2645884763e-01	 2.3139889740e+00	-5.7510401052e-01
 7.7425625001e-01	 2.3319747873e+00	-4.8170751397e-01
 7.2194188724e-01	 2.3486972824e+00	-3.8476465675e-01
 6.6955872486e-01	 2.3641636810e+00	-2.8843239172e-01
 6.1714889503e-01	 2.3783830123e+00	-1.9592775361e-01
 5.6475361059e-01	 2.3913660385e+00	-1.0970534031e-01
 5.1241308553e-01	 2.4031251775e+00	-3.1629746294e-02
 1.0452826022e+00	 2.2552562969e+00	-8.7281228334e-01
 9.9337340778e-01	 2.2785974375e+00	-8.0505561427e-01
 9.4117081241e-01	 2.3006509399e+00	-7.2778562441e-01
 8.8872066169e-01	 2.3214161565e+00	-6.4243298473e-01
 8.3606836621e-01	 2.3408945122e+00	-5.5068000882e-01
 7.8325879120e-01	 2.3590894527e+00	-4.5407921650e-01
 7.3033615151e-01	 2.3760063858e+00	-3.5384098074e-01
 6.7734391225e-01	 2.3916526176e+00	-2.5422863396e-01
 6.2432469548e-01	 2.4060372818e+00	-1.5917685378e-01
 5.7132019322e-01	 2.4191712661e+00	-7.0983170115e-02
 5.1837108705e-01	 2.4310671326e+00	 8.8336860772e-03
 1.0572967691e+00	 2.2811775412e+00	-8.6788978394e-01
 1.0047909459e+00	 2.3047869579e+00	-7.9611918061e-01
 9.5198834945e-01	 2.3270939367e+00	-7.1523120753e-01
 8.9893535232e-01	 2.3480978224e+00	-6.2677076206e-01
 8.4567788703e-01	 2.3678000566e+00	-5.3246183917e-01
 7.9226133449e-01	 2.3862041243e+00	-4.3381141391e-01
 7.3873041774e-01	 2.4033154957e+00	-3.3180001000e-01
 6.8512910147e-01	 2.4191415605e+00	-2.3035362208e-01
 6.3150049761e-01	 2.4336915578e+00	-1.3444767546e-01
 5.7788677738e-01	 2.4469765002e+00	-4.6219117155e-02
 5.2432908995e-01	 2.4590090943e+00	 3.3184121233e-02
 1.0693109403e+00	 2.3070987945e+00	-8.6416069922e-01
 1.0162084880e+00	 2.3309764875e+00	-7.8919172917e-01
 9.6280589027e-01	 2.3535369427e+00	-7.0545376713e-01
 9.0915004652e-01	 2.3747794978e+00	-6.1471550990e-01
 8.5528741121e-01	 2.3947056104e+00	-5.1884760197e-01
 8.0126388093e-01	 2.4133188054e+00	-4.1941070961e-01
 7.4712468691e-01	 2.4306246151e+00	-3.1733272513e-01
 6.9291429340e-01	 2.4466305131e+00	-2.1580681211e-01
 6.3867630224e-01	 2.4613458435e+00	-1.2105483988e-01
 5.8445336384e-01	 2.4747817440e+00	-3.5082561470e-02
 5.3028709493e-01	 2.4869510657e+00	 4.1374450217e-02
 1.0813251171e+00	 2.3330200600e+00	-8.6026131709e-01
 1.0276260355e+00	 2.3571660292e+00	-7.8277823857e-01
 9.7362343615e-01	 2.3799799611e+00	-6.9688613213e-01
 9.1936474549e-01	 2.4014611856e+00	-6.0468640809e-01
 8.6489693988e-01	 2.4216111768e+00	-5.0829981121e-01
 8.1026643158e-01	 2.4404334992e+00	-4.0943758512e-01
 7.5551896000e-01	 2.4579337472e+00	-3.0906858199e-01
 7.0069948898e-01	 2.4741194785e+00	-2.0960615105e-01
 6.4585211023e-01	 2.4890001421e+00	-1.1832131955e-01
 5.9101995337e-01	 2.5025870009e+00	-3.7242482475e-02
 5.3624510270e-01	 2.5148930502e+00	 3.3365817816e-02
 1.0933393008e+00	 2.3589413405e+00	-8.5492448430e-01
 1.0390435896e+00	 2.3833555863e+00	-7.7547307364e-01
 9.8444098833e-01	 2.4064229949e+00	-6.8804236083e-01
 9.2957945041e-01	 2.4281428889e+00	-5.9517486990e-01
 8.7450647415e-01	 2.4485167589e+00	-4.9934350317e-01
 8.1926898747e-01	 2.4675482088e+00	-4.0250472086e-01
 7.6391323798e-01	 2.4852428953e+00	-3.0575488905e-01
 7.0848468909e-01	 2.5016084600e+00	-2.1078602779e-01
 6.5302792240e-01	 2.5166544568e+00	-1.2557679863e-01
 5.9758654672e-01	 2.5303922739e+00	-5.2366378142e-02
 5.4220311395e-01	 2.5428350510e+00	 9.1280154433e-03
 1.1053534930e+00	 2.3848626392e+00	-8.4697822914e-01
 1.0504611517e+00	 2.4095451617e+00	-7.6595832072e-01
 9.9525854809e-01	 2.4328660472e+00	-6.7751591825e-01
 9.3979416249e-01	 2.4548246109e+00	-5.8474268516e-01
 8.8411601516e-01	 2.4754223598e+00	-4.9056446244e-01
 8.2827154967e-01	 2.4946629374e+00	-3.9727541493e-01
 7.7230752184e-01	 2.5125520624e+00	-3.0618299550e-01
 7.1626989465e-01	 2.5290974606e+00	-2.1839526696e-01
 6.6020373959e-01	 2.5443087909e+00	-1.4215604182e-01
 6.0415314467e-01	 2.5581975664e+00	-8.0119154072e-02
 5.4816112936e-01	 2.5707770713e+00	-3.1360053784e-02
 1.1173676950e+00	 2.4107839591e+00	-8.3533430828e-01
 1.0618787231e+00	 2.4357347585e+00	-7.5300225063e-01
 1.0060761167e+00	 2.4593091211e+00	-6.6397798105e-01
 9.5000888291e-01	 2.4815063547e+00	-5.7202028445e-01
 8.9372556400e-01	 2.5023279827e+00	-4.8060755657e-01
 8.3727411922e-01	 2.5217776881e+00	-3.9246209243e-01
 7.8070181256e-01	 2.5398612519e+00	-3.0918309099e-01
 7.2405510657e-01	 2.5565864838e+00	-2.3149516255e-01
 6.6737956265e-01	 2.5719631476e+00	-1.6739727097e-01
 6.1071974798e-01	 2.5860028816e+00	-1.2016198471e-01
 5.5411914964e-01	 2.5987191145e+00	-8.6688198639e-02
 1.1293819082e+00	 2.4367053032e+00	-8.1894613619e-01
 1.0732963052e+00	 2.4619243797e+00	-7.3545789977e-01
 1.0168936954e+00	 2.4857522197e+00	-6.4617586044e-01
 9.6022361286e-01	 2.5081881235e+00	-5.5570511529e-01
 9.0333512182e-01	 2.5292336307e+00	-4.6817517114e-01
 8.4627669717e-01	 2.5488924641e+00	-3.8682489865e-01
 7.8909611111e-01	 2.5671704669e+00	-3.1362304894e-01
 7.3184032576e-01	 2.5840755326e+00	-2.4915754826e-01
 6.7455539240e-01	 2.5996175300e+00	-1.9919184045e-01
 6.1728635743e-01	 2.6138082228e+00	-1.5705837099e-01
 5.6007717548e-01	 2.6266611837e+00	-1.1752221258e-01
 1.1413961340e+00	 2.4626266744e+00	-7.9690230367e-01
 1.0847138993e+00	 2.4881140284e+00	-7.1226176077e-01
 1.0277112854e+00	 2.5121953460e+00	-6.2293153447e-01
 9.7043835354e-01	 2.5348699202e+00	-5.3456012210e-01
 9.1294468973e-01	 2.5561393069e+00	-4.5202573795e-01
 8.5527928458e-01	 2.5760072686e+00	-3.7917036992e-01
 7.9749041847e-01	 2.5944797105e+00	-3.1833355286e-01
 7.3962555313e-01	 2.6115646102e+00	-2.6154512542e-01
 6.8173122969e-01	 2.6272719415e+00	-2.0637372639e-01
 6.2385297377e-01	 2.6416135931e+00	-1.5597948185e-01
 5.6603520758e-01	 2.6546032823e+00	-1.0711799505e-01
 5.0645508472e-01	 2.3751832256e+00	-8.8151127925e-02
 4.5481234863e-01	 2.3856104981e+00	-1.9185625029e-02
 4.0330005812e-01	 2.3948570810e+00	 4.8363998196e-02
 3.5195464947e-01	 2.4029396663e+00	 1.1498782910e-01
 3.0081132027e-01	 2.4098762447e+00	 1.6869694706e-01
 2.4990398431e-01	 2.4156860165e+00	 2.0773739196e-01
 1.9926523297e-01	 2.4203893013e+00	 2.3604045717e-01
 1.4892630321e-01	 2.4240074478e+00	 2.5876318832e-01
 9.8917051876e-02	 2.4265627440e+00	 2.8167910291e-01
 4.9265936170e-02	 2.4280783270e+00	 3.1068865006e-01
 0.0000000000e+00	 2.4285780953e+00	 3.5142814442e-01
 5.1241308553e-01	 2.4031251775e+00	-3.1629746294e-02
 4.6016281786e-01	 2.4136751177e+00	 4.1144727934e-02
 4.0804453034e-01	 2.4230304786e+00	 1.1246597478e-01
 3.5609508788e-01	 2.4312081484e+00	 1.8277522330e-01
 3.0435010218e-01	 2.4382263296e+00	 2.4089913052e-01
 2.5284388597e-01	 2.4441044482e+00	 2.8472499014e-01
 2.0160941404e-01	 2.4488630630e+00	 3.1857521881e-01
 1.5067829082e-01	 2.4525237739e+00	 3.4771779195e-01
 1.0008072442e-01	 2.4551091309e+00	 3.7779273788e-01
 4.9845506790e-02	 2.4566425434e+00	 4.1436146274e-01
 0.0000000000e+00	 2.4571481911e+00	 4.6255564362e-01
 5.1837108705e-01	 2.4310671326e+00	 8.8336860772e-03
 4.6551328771e-01	 2.4417397406e+00	 8.3249544681e-02
 4.1278900310e-01	 2.4512038794e+00	 1.5567124455e-01
 3.6023552678e-01	 2.4594766338e+00	 2.2651054730e-01
 3.0788888451e-01	 2.4665764178e+00	 2.8572601454e-01
 2.5578378797e-01	 2.4725228833e+00	 3.3083043708e-01
 2.0395359538e-01	 2.4773368282e+00	 3.6656356411e-01
 1.5243027864e-01	 2.4810401034e+00	 3.9832049052e-01
 1.0124439709e-01	 2.4836555212e+00	 4.3161796659e-01
 5.0425077479e-02	 2.4852067632e+00	 4.7168649291e-01
 0.0000000000e+00	 2.4857182902e+00	 5.2316282790e-01
 5.2432908995e-01	 2.4590090943e+00	 3.3184121233e-02
 4.7086375881e-01	 2.4698043701e+00	 1.0673366255e-01
 4.1753347697e-01	 2.4793772868e+00	 1.7735661556e-01
 3.6437596665e-01	 2.4877451258e+00	 2.4548263741e-01
 3.1142766765e-01	 2.4949265126e+00	 3.0249356640e-01
 2.5872369065e-01	 2.5009413250e+00	 3.4553848634e-01
 2.0629777726e-01	 2.5058105999e+00	 3.7978760955e-01
 1.5418226687e-01	 2.5095564395e+00	 4.1076540272e-01
 1.0240807004e-01	 2.5122019181e+00	 4.4386109353e-01
 5.1004648302e-02	 2.5137709896e+00	 4.8396776234e-01
 0.0000000000e+00	 2.5142883960e+00	 5.3522241715e-01
 5.3028709493e-01	 2.4869510657e+00	 4.1374450217e-02
 4.7621423178e-01	 2.4978690093e+00	 1.1121589665e-01
 4.2227795250e-01	 2.5075507041e+00	 1.7691476229e-01
 3.6851640796e-01	 2.5160136277e+00	 2.3899817388e-01
 3.1496645204e-01	 2.5232766173e+00	 2.9053491309e-01
 2.6166359437e-01	 2.5293597767e+00	 3.2834940170e-01
 2.0864195997e-01	 2.5342843816e+00	 3.5804189786e-01
 1.5593425571e-01	 2.5380727856e+00	 3.8525408619e-01
 1.0357174340e-01	 2.5407483250e+00	 4.1522851389e-01
 5.1584219329e-02	 2.5423352261e+00	 4.5249923705e-01
 0.0000000000e+00	 2.5428585118e+00	 5.0068372295e-01
 5.3624510270e-01	 2.5148930502e+00	 3.3365817816e-02
 4.8156470724e-01	 2.5259336617e+00	 9.6328637404e-02
 4.2702243025e-01	 2.5357241346e+00	 1.5375326400e-01
 3.7265685121e-01	 2.5442821428e+00	 2.0639278033e-01
 3.1850523808e-01	 2.5516267353e+00	 2.4919772220e-01
 2.6460349945e-01	 2.5577782416e+00	 2.7877653526e-01
 2.1098614377e-01	 2.5627581767e+00	 3.0113138039e-01
 1.5768624537e-01	 2.5665891450e+00	 3.2199411316e-01
 1.0473541730e-01	 2.5692947453e+00	 3.4642605275e-01
 5.2163790626e-02	 2.5708994759e+00	 3.7856508201e-01
 0.0000000000e+00	 2.5714286409e+00	 4.2147395232e-01
 5.4220311395e-01	 2.5428350510e+00	 9.1280154433e-03
 4.8691518583e-01	 2.5539983304e+00	 6.1717566590e-02
 4.3176691076e-01	 2.5638975814e+00	 1.0729378843e-01
 3.7679729687e-01	 2.5725506744e+00	 1.4706164090e-01
 3.2204402618e-01	 2.5799768697e+00	 1.7784174232e-01
 2.6754340626e-01	 2.5861967231e+00	 1.9634405293e-01
 2.1333032894e-01	 2.5912319883e+00	 2.0886952289e-01
 1.5943823605e-01	 2.5951055210e+00	 2.2153680470e-01
 1.0589909188e-01	 2.5978411822e+00	 2.3964501636e-01
 5.2743362261e-02	 2.5994637423e+00	 2.6598622135e-01
 0.0000000000e+00	 2.5999987867e+00	 3.0244258219e-01
 5.4816112936e-01	 2.5707770713e+00	-3.1360053784e-02
 4.9226566816e-01	 2.5820630188e+00	 7.0414829086e-03
 4.3651139460e-01	 2.5920710480e+00	 3.6971409770e-02
 3.8093774543e-01	 2.6008192257e+00	 6.3584055684e-02
 3.2558281676e-01	 2.6083270241e+00	 8.8240671664e-02
 2.7048331512e-01	 2.6146152245e+00	 1.0564362012e-01
 2.1567451575e-01	 2.6197058198e+00	 1.1982464031e-01
 1.6119022796e-01	 2.6236219170e+00	 1.3439578045e-01
 1.0706276727e-01	 2.6263876391e+00	 1.5222993997e-01
 5.3322934302e-02	 2.6280280287e+00	 1.7542236109e-01
 0.0000000000e+00	 2.6285689525e+00	 2.0526993809e-01
 5.5411914964e-01	 2.5987191145e+00	-8.6688198639e-02
 4.9761615487e-01	 2.6101277301e+00	-5.5237700928e-02
 4.4125588231e-01	 2.6202445376e+00	-2.3427210194e-02
 3.8507819737e-01	 2.6290878002e+00	 9.0788921354e-03
 3.2912161023e-01	 2.6366772016e+00	 3.9422004569e-02
 2.7342322638e-01	 2.6430337491e+00	 6.1760667310e-02
 2.1801870447e-01	 2.6481796746e+00	 7.9413904982e-02
 1.6294222130e-01	 2.6521383363e+00	 9.5441683497e-02
 1.0822644361e-01	 2.6549341193e+00	 1.1215359808e-01
 5.3902506816e-02	 2.6565923385e+00	 1.3109091948e-01
 0.0000000000e+00	 2.6571391416e+00	 1.5302328269e-01
 5.6007717548e-01	 2.6266611837e+00	-1.1752221258e-01
 5.0296664657e-01	 2.6381924675e+00	-7.7894963357e-02
 4.4600037445e-01	 2.6484180535e+00	-3.8303365427e-02
 3.8921865318e-01	 2.6573564010e+00	 1.0587286365e-03
 3.3266040700e-01	 2.6650274055e+00	 3.7556119231e-02
 2.7636314038e-01	 2.6714523002e+00	 6.5003375706e-02
 2.2036289539e-01	 2.6766535560e+00	 8.5982452066e-02
 1.6469421627e-01	 2.6806547821e+00	 1.0301438667e-01
 1.0939012104e-01	 2.6834806261e+00	 1.1787108917e-01
 5.4482079871e-02	 2.6851566749e+00	 1.3157892923e-01
 0.0000000000e+00	 2.6857093574e+00	 1.4443342142e-01
 5.6603520758e-01	 2.6546032823e+00	-1.0711799505e-01
 5.0831714388e-01	 2.6662572345e+00	-5.7884112630e-02
 4.5074487157e-01	 2.6765915990e+00	-9.3554490933e-03
 3.9335911334e-01	 2.6856250315e+00	 3.7747547739e-02
 3.3619920749e-01	 2.6933776393e+00	 8.0869031311e-02
 2.7930305747e-01	 2.6998708812e+00	 1.1362269791e-01
 2.2270708876e-01	 2.7051274673e+00	 1.3783730555e-01
 1.6644621308e-01	 2.7091712580e+00	 1.5550124433e-01
 1.1055379969e-01	 2.7120271629e+00	 1.6786803577e-01
 5.5061653534e-02	 2.7137210413e+00	 1.7548255831e-01
 0.0000000000e+00	 2.7142796031e+00	 1.7821442846e-01
 2.7142796031e+00	 0.0000000000e+00	 1.8055027732e+00
 2.7137210413e+00	 5.5061653534e-02	 1.8034201525e+00
 2.7120271629e+00	 1.1055379969e-01	 1.7905104360e+00
 2.7091712580e+00	 1.6644621308e-01	 1.7671648370e+00
 2.7051274673e+00	 2.2270708876e-01	 1.7342015542e+00
 2.6998708812e+00	 2.7930305747e-01	 1.6929089126e+00
 2.6933776393e+00	 3.3619920749e-01	 1.6450854748e+00
 2.6856250315e+00	 3.9335911334e-01	 1.5922659535e+00
 2.6765915990e+00	 4.5074487157e-01	 1.5284879621e+00
 2.6662572345e+00	 5.0831714388e-01	 1.4508908272e+00
 2.6546032823e+00	 5.6603520758e-01	 1.3580957335e+00
 2.7428518778e+00	 0.0000000000e+00	 1.7172909981e+00
 2.7422874362e+00	 5.5641268356e-02	 1.7083127367e+00
 2.7405757269e+00	 1.1171756098e-01	 1.6915526038e+00
 2.7376897589e+00	 1.6819833431e-01	 1.6670932341e+00
 2.7336034006e+00	 2.2505144861e-01	 1.6354101481e+00
 2.7282914802e+00	 2.8224318334e-01	 1.5974342643e+00
 2.7217298863e+00	 3.3973825929e-01	 1.5546144615e+00
 2.7138956695e+00	 3.9749986752e-01	 1.5079640639e+00
 2.7047671452e+00	 4.5548970562e-01	 1.4516234904e+00
 2.6943239945e+00	 5.1366802117e-01	 1.3829346651e+00
 2.6825473652e+00	 5.7199366279e-01	 1.3003180968e+00
 2.7714241625e+00	 0.0000000000e+00	 1.6421288360e+00
 2.7708538411e+00	 5.6220883381e-02	 1.6281972947e+00
 2.7691243010e+00	 1.1288132268e-01	 1.6085262311e+00
 2.7662082698e+00	 1.6995045616e-01	 1.5830155150e+00
 2.7620793440e+00	 2.2739580927e-01	 1.5519206116e+00
 2.7567120893e+00	 2.8518331024e-01	 1.5159350774e+00
 2.7500821432e+00	 3.4327731232e-01	 1.4762764141e+00
 2.7421663174e+00	 4.0164062316e-01	 1.4335706528e+00
 2.7329427013e+00	 4.6023454133e-01	 1.3822897829e+00
 2.7223907642e+00	 5.1901890032e-01	 1.3200422483e+00
 2.7104914578e+00	 5.7795212008e-01	 1.2452077357e+00
 2.7999964339e+00	 0.0000000000e+00	 1.5792782042e+00
 2.7994202327e+00	 5.6800498135e-02	 1.5625727211e+00
 2.7976728617e+00	 1.1404508383e-01	 1.5411942624e+00
 2.7947267674e+00	 1.7170257718e-01	 1.5149773565e+00
 2.7905552740e+00	 2.2974016885e-01	 1.4840709305e+00
 2.7851326851e+00	 2.8812343577e-01	 1.4490414975e+00
 2.7784343869e+00	 3.4681636371e-01	 1.4109832621e+00
 2.7704369522e+00	 4.0578137687e-01	 1.3702695685e+00
 2.7611182442e+00	 4.6497937483e-01	 1.3218983343e+00
 2.7504575209e+00	 5.2436977698e-01	 1.2638155256e+00
 2.7384355374e+00	 5.8391057460e-01	 1.1945129070e+00
 2.8285686686e+00	 0.0000000000e+00	 1.5280860285e+00
 2.8279865876e+00	 5.7380112145e-02	 1.5110012163e+00
 2.8262213857e+00	 1.1520884349e-01	 1.4893630413e+00
 2.8232452284e+00	 1.7345469596e-01	 1.4630497701e+00
 2.8190311675e+00	 2.3208452541e-01	 1.4322082260e+00
 2.8135532444e+00	 2.9106355752e-01	 1.3973784761e+00
 2.8067865942e+00	 3.5035541055e-01	 1.3596292671e+00
 2.7987075506e+00	 4.0992212526e-01	 1.3192146231e+00
 2.7892937510e+00	 4.6972420224e-01	 1.2718206202e+00
 2.7785242416e+00	 5.2972064677e-01	 1.2158084440e+00
 2.7663795812e+00	 5.8986902147e-01	 1.1499279921e+00
 2.8571408433e+00	 0.0000000000e+00	 1.4879800175e+00
 2.8565528825e+00	 5.7959724939e-02	 1.4731047578e+00
 2.8547698499e+00	 1.1637260071e-01	 1.4528795018e+00
 2.8517636295e+00	 1.7520681106e-01	 1.4273270225e+00
 2.8475070012e+00	 2.3442887705e-01	 1.3966874007e+00
 2.8419737440e+00	 2.9400367310e-01	 1.3615651224e+00
 2.8351387420e+00	 3.5389444996e-01	 1.3230910474e+00
 2.8269780896e+00	 4.1406286496e-01	 1.2815300042e+00
 2.8174691986e+00	 4.7446901969e-01	 1.2333890217e+00
 2.8065909033e+00	 5.3507150533e-01	 1.1775283084e+00
 2.7943235663e+00	 5.9582745582e-01	 1.1130952032e+00
 2.8857129346e+00	 0.0000000000e+00	 1.4584646875e+00
 2.8851190941e+00	 5.8539336041e-02	 1.4485617807e+00
 2.8833182307e+00	 1.1753635453e-01	 1.4316285299e+00
 2.8802819474e+00	 1.7695892105e-01	 1.4079246888e+00
 2.8759827518e+00	 2.3677322186e-01	 1.3778698800e+00
 2.8703941608e+00	 2.9694378010e-01	 1.3422141171e+00
 2.8634908071e+00	 3.5743347905e-01	 1.3022276311e+00
 2.8552485463e+00	 4.1820359258e-01	 1.2583106895e+00
 2.8456445640e+00	 4.7921382330e-01	 1.2078977278e+00
 2.8346574832e+00	 5.4042234828e-01	 1.1504371006e+00
 2.8222674698e+00	 6.0178587280e-01	 1.0856062350e+00
 2.9142849193e+00	 0.0000000000e+00	 1.4391176195e+00
 2.9136851991e+00	 5.9118944980e-02	 1.4371040551e+00
 2.9118665050e+00	 1.1870010401e-01	 1.4255304835e+00
 2.9088001589e+00	 1.7871102450e-01	 1.4049778276e+00
 2.9044583961e+00	 2.3911755791e-01	 1.3761224421e+00
 2.8988144714e+00	 2.9988387613e-01	 1.3399311813e+00
 2.8918427663e+00	 3.6097249493e-01	 1.2978805368e+00
 2.8835188973e+00	 4.2234430474e-01	 1.2506228617e+00
 2.8738198243e+00	 4.8395860919e-01	 1.1966036160e+00
 2.8627239583e+00	 5.4577317125e-01	 1.1359527598e+00
 2.8502112691e+00	 6.0774426753e-01	 1.0690038648e+00
 2.9428567740e+00	 0.0000000000e+00	 1.4295859339e+00
 2.9422511741e+00	 5.9698551282e-02	 1.4385137446e+00
 2.9404146494e+00	 1.1986384819e-01	 1.4345388610e+00
 2.9373182406e+00	 1.8046311997e-01	 1.4186392711e+00
 2.9329339109e+00	 2.4146188329e-01	 1.3918161295e+00
 2.9272346527e+00	 3.0282395878e-01	 1.3553145985e+00
 2.9201945965e+00	 3.6451149470e-01	 1.3108738789e+00
 2.9117891198e+00	 4.2648499807e-01	 1.2595043241e+00
 2.9019949563e+00	 4.8870337349e-01	 1.2007271143e+00
 2.8907903057e+00	 5.5112396988e-01	 1.1354504270e+00
 2.8781549412e+00	 6.1370263515e-01	 1.0647835072e+00
 2.9714284753e+00	 0.0000000000e+00	 1.4328637056e+00
 2.9708169958e+00	 6.0278154473e-02	 1.4553521729e+00
 2.9689626405e+00	 1.2102758613e-01	 1.4601653593e+00
 2.9658361693e+00	 1.8221520604e-01	 1.4494080671e+00
 2.9614092728e+00	 2.4380619610e-01	 1.4253252389e+00
 2.9556546815e+00	 3.0576402565e-01	 1.3889547853e+00
 2.9485462746e+00	 3.6805047548e-01	 1.3420144969e+00
 2.9400591905e+00	 4.3062566916e-01	 1.2859649182e+00
 2.9301699372e+00	 4.9344811233e-01	 1.2214530447e+00
 2.9188565025e+00	 5.5647473978e-01	 1.1502636568e+00
 2.9060984633e+00	 6.1966097079e-01	 1.0743947233e+00
 3.0000000000e+00	 0.0000000000e+00	 1.5016829627e+00
 2.9993826408e+00	 6.0857754080e-02	 1.5381062376e+00
 2.9975104552e+00	 1.2219131687e-01	 1.5486920379e+00
 2.9943539216e+00	 1.8396728128e-01	 1.5365228983e+00
 2.9898844587e+00	 2.4615049440e-01	 1.5049236169e+00
 2.9840745346e+00	 3.0870407434e-01	 1.4575764352e+00
 2.9768977774e+00	 3.7158943437e-01	 1.3986679996e+00
 2.9683290864e+00	 4.3476631466e-01	 1.3318893932e+00
 2.9583447438e+00	 4.9819282183e-01	 1.2599314497e+00
 2.9469225257e+00	 5.6182547660e-01	 1.1816855975e+00
 2.9340418127e+00	 6.2561926959e-01	 1.0992426895e+00
 2.6546032823e+00	 5.6603520758e-01	 1.3580957335e+00
 2.6416135931e+00	 6.2385297377e-01	 1.2505704660e+00
 2.6272719415e+00	 6.8173122969e-01	 1.1319661027e+00
 2.6115646102e+00	 7.3962555313e-01	 1.0051706791e+00
 2.5944797105e+00	 7.9749041847e-01	 8.7160117544e-01
 2.5760072686e+00	 8.5527928458e-01	 7.3911838158e-01
 2.5561393069e+00	 9.1294468973e-01	 6.1622585522e-01
 2.5348699202e+00	 9.7043835354e-01	 5.0066933774e-01
 2.5121953460e+00	 1.0277112854e+00	 3.8853369342e-01
 2.4881140284e+00	 1.0847138993e+00	 2.7473016324e-01
 2.4626266744e+00	 1.1413961340e+00	 1.5505077633e-01
 2.6825473652e+00	 5.7199366279e-01	 1.3003180968e+00
 2.6694209381e+00	 6.3042005643e-01	 1.2036543333e+00
 2.6549283169e+00	 6.8890757657e-01	 1.0958186840e+00
 2.6390556400e+00	 7.4741133336e-01	 9.7925851978e-01
 2.6217908935e+00	 8.0588532196e-01	 8.5489664626e-01
 2.6031239987e+00	 8.6428251130e-01	 7.2577043609e-01
 2.5830468939e+00	 9.2255494007e-01	 5.9692489597e-01
 2.5615536117e+00	 9.8065381962e-01	 4.7770175341e-01
 2.5386403502e+00	 1.0385296437e+00	 3.6526554867e-01
 2.5143055370e+00	 1.0961323042e+00	 2.5344645737e-01
 2.4885498865e+00	 1.1534112130e+00	 1.3807955404e-01
 2.7104914578e+00	 5.7795212008e-01	 1.2452077357e+00
 2.6972282927e+00	 6.3698714140e-01	 1.1572251732e+00
 2.6825847020e+00	 6.9608392597e-01	 1.0582379655e+00
 2.6665466794e+00	 7.5519711632e-01	 9.5022034594e-01
 2.6491020861e+00	 8.1428022839e-01	 8.3373634995e-01
 2.6302407382e+00	 8.7328574118e-01	 7.1182524273e-01
 2.6099544902e+00	 9.3216519376e-01	 5.8787554232e-01
 2.5882373126e+00	 9.9086928928e-01	 4.6452984961e-01
 2.5650853637e+00	 1.0493480057e+00	 3.4808798194e-01
 2.5404970547e+00	 1.1075507130e+00	 2.3536892557e-01
 2.5144731077e+00	 1.1654262962e+00	 1.2251487813e-01
 2.7384355374e+00	 5.8391057460e-01	 1.1945129070e+00
 2.7250356345e+00	 6.4355422330e-01	 1.1131451334e+00
 2.7102410741e+00	 7.0326027201e-01	 1.0211826798e+00
 2.6940377060e+00	 7.6298289564e-01	 9.2010145095e-01
 2.6764132659e+00	 8.2267513090e-01	 8.1022215968e-01
 2.6573574651e+00	 8.8228896686e-01	 6.9449664595e-01
 2.6368620740e+00	 9.4177544298e-01	 5.7594120979e-01
 2.6149210010e+00	 1.0010847542e+00	 4.5668513892e-01
 2.5915303648e+00	 1.0601663627e+00	 3.3761486217e-01
 2.5666885602e+00	 1.1189691166e+00	 2.2125568391e-01
 2.5403963167e+00	 1.1774413738e+00	 1.0904175323e-01
 2.7663795812e+00	 5.8986902147e-01	 1.1499279921e+00
 2.7528429405e+00	 6.5012129678e-01	 1.0732180765e+00
 2.7378974108e+00	 7.1043660885e-01	 9.8654954392e-01
 2.7215286973e+00	 7.7076866497e-01	 8.9088269782e-01
 2.7037244107e+00	 8.3107002263e-01	 7.8638633154e-01
 2.6844741572e+00	 8.9129218098e-01	 6.7584407142e-01
 2.6637696233e+00	 9.5138567986e-01	 5.6190930222e-01
 2.6416046552e+00	 1.0113002059e+00	 4.4640866611e-01
 2.6179753320e+00	 1.0709847058e+00	 3.2997018146e-01
 2.5928800321e+00	 1.1303875055e+00	 2.1197225219e-01
 2.5663194925e+00	 1.1894564360e+00	 9.8329303266e-02
 2.7943235663e+00	 5.9582745582e-01	 1.1130952032e+00
 2.7806501881e+00	 6.5668835646e-01	 1.0391915654e+00
 2.7655536894e+00	 7.1761293061e-01	 9.5617549174e-01
 2.7490196309e+00	 7.7855441796e-01	 8.6448174132e-01
 2.7310354981e+00	 8.3946489674e-01	 7.6419325942e-01
 2.7115907924e+00	 9.0029537620e-01	 6.5785468767e-01
 2.6906771161e+00	 9.6099589656e-01	 5.4776557824e-01
 2.6682882533e+00	 1.0215156363e+00	 4.3546307414e-01
 2.6444202436e+00	 1.0818030262e+00	 3.2134214839e-01
 2.6190714490e+00	 1.1418058704e+00	 2.0510550112e-01
 2.5922426139e+00	 1.2014714730e+00	 9.1027994841e-02
 2.8222674698e+00	 6.0178587280e-01	 1.0856062350e+00
 2.8084573546e+00	 6.6325539700e-01	 1.0127587871e+00
 2.7932098873e+00	 7.2478923145e-01	 9.3183983704e-01
 2.7765104843e+00	 7.8634014823e-01	 8.4275463725e-01
 2.7583465059e+00	 8.4785974636e-01	 7.4554115031e-01
 2.7387073484e+00	 9.0929854516e-01	 6.4244510514e-01
 2.7175845304e+00	 9.7060608523e-01	 5.3542105214e-01
 2.6949717737e+00	 1.0317310368e+00	 4.2572998108e-01
 2.6708650781e+00	 1.0926213151e+00	 3.1355165999e-01
 2.6452627895e+00	 1.1532242021e+00	 1.9905532951e-01
 2.6181656596e+00	 1.2134864749e+00	 8.6278246408e-02
 2.8502112691e+00	 6.0774426753e-01	 1.0690038648e+00
 2.8362644173e+00	 6.6982241301e-01	 9.9556041611e-01
 2.8208659820e+00	 7.3196550549e-01	 9.1526636955e-01
 2.8040012350e+00	 7.9412584944e-01	 8.2749738079e-01
 2.7856574117e+00	 8.5625456464e-01	 7.3226362555e-01
 2.7658238032e+00	 9.1830168050e-01	 6.3146300007e-01
 2.7444918442e+00	 9.8021623802e-01	 5.2671359855e-01
 2.7216551944e+00	 1.0419463992e+00	 4.1901378022e-01
 2.6973098139e+00	 1.1034395635e+00	 3.0834661497e-01
 2.6714540323e+00	 1.1646424911e+00	 1.9541020276e-01
 2.6440886086e+00	 1.2255014320e+00	 8.3663157827e-02
 2.8781549412e+00	 6.1370263515e-01	 1.0647835072e+00
 2.8640713535e+00	 6.7638939914e-01	 9.8918642326e-01
 2.8485219509e+00	 7.3914174688e-01	 9.0812538996e-01
 2.8314918607e+00	 8.0191151523e-01	 8.2044737874e-01
 2.8129681932e+00	 8.6464934473e-01	 7.2613125299e-01
 2.7929401347e+00	 9.2730477488e-01	 6.2668866804e-01
 2.7713990357e+00	 9.8982634709e-01	 5.2340948752e-01
 2.7483384937e+00	 1.0521617151e+00	 4.1704311553e-01
 2.7237544294e+00	 1.1142577628e+00	 3.0739968778e-01
 2.6976451558e+00	 1.1760607281e+00	 1.9567301723e-01
 2.6700114396e+00	 1.2375163344e+00	 8.4554028882e-02
 2.9060984633e+00	 6.1966097079e-01	 1.0743947233e+00
 2.8918781405e+00	 6.8295635003e-01	 9.9517783286e-01
 2.8761777713e+00	 7.4631794976e-01	 9.1202746627e-01
 2.8589823389e+00	 8.0969713922e-01	 8.2328485998e-01
 2.8402788282e+00	 8.7304407976e-01	 7.2885301487e-01
 2.8200563206e+00	 9.3630782094e-01	 6.2983651220e-01
 2.7983060827e+00	 9.9943640458e-01	 5.2720485469e-01
 2.7750216498e+00	 1.0623769762e+00	 4.2147229453e-01
 2.7501989030e+00	 1.1250759039e+00	 3.1236075523e-01
 2.7238361388e+00	 1.1874789039e+00	 2.0126570552e-01
 2.6959341315e+00	 1.2495311723e+00	 9.0244340854e-02
 2.9340418127e+00	 6.2561926959e-01	 1.0992426895e+00
 2.9196847555e+00	 6.8952326031e-01	 1.0150284320e+00
 2.9038334207e+00	 7.5349410826e-01	 9.2852780069e-01
 2.8864726470e+00	 8.1748271508e-01	 8.3763422857e-01
 2.8675892943e+00	 8.8143876288e-01	 7.4207771558e-01
 2.8471723389e+00	 9.4531081133e-01	 6.4255647042e-01
 2.8252129633e+00	 1.0090464026e+00	 5.3972711106e-01
 2.8017046409e+00	 1.0725921741e+00	 4.3388264252e-01
 2.7766432130e+00	 1.1358939782e+00	 3.2471556582e-01
 2.7500269599e+00	 1.1988970090e+00	 2.1353379190e-01
 2.7218566632e+00	 1.2615459359e+00	 1.0195420577e-01
 2.4626266744e+00	 1.1413961340e+00	 1.5505077633e-01
 2.4357343745e+00	 1.1977115046e+00	 3.5269025918e-02
 2.4074442497e+00	 1.2536053788e+00	-8.3072139740e-02
 2.3777640747e+00	 1.3090270171e+00	-2.0109480683e-01
 2.3467040327e+00	 1.3639257340e+00	-3.1993144623e-01
 2.3142767290e+00	 1.4182510391e+00	-4.4104904363e-01
 2.2804971949e+00	 1.4719527794e+00	-5.6665971618e-01
 2.2453828809e+00	 1.5249812844e+00	-6.9373927763e-01
 2.2089536405e+00	 1.5772875098e+00	-8.0987757540e-01
 2.1712317030e+00	 1.6288231821e+00	-9.0604363404e-01
 2.1322416365e+00	 1.6795409412e+00	-9.8366519327e-01
 2.4885498865e+00	 1.1534112130e+00	 1.3807955404e-01
 2.4613745007e+00	 1.2103193959e+00	 2.3829000062e-02
 2.4327865757e+00	 1.2668016454e+00	-8.8970996538e-02
 2.4027939678e+00	 1.3228066879e+00	-2.0189295883e-01
 2.3714069675e+00	 1.3782833045e+00	-3.1643328746e-01
 2.3386383129e+00	 1.4331804731e+00	-4.3435852636e-01
 2.3045031934e+00	 1.4874475129e+00	-5.5804901707e-01
 2.2690192433e+00	 1.5410342305e+00	-6.8015822765e-01
 2.2322065250e+00	 1.5938910652e+00	-7.9283600121e-01
 2.1940875018e+00	 1.6459692356e+00	-8.9142373202e-01
 2.1546870006e+00	 1.6972208829e+00	-9.7048927482e-01
 2.5144731077e+00	 1.1654262962e+00	 1.2251487813e-01
 2.4870146359e+00	 1.2229272916e+00	 1.2217195601e-02
 2.4581289105e+00	 1.2799979166e+00	-9.6190342779e-02
 2.4278238697e+00	 1.3365863636e+00	-2.0480461158e-01
 2.3961099111e+00	 1.3926408800e+00	-3.1554703193e-01
 2.3629999054e+00	 1.4481099123e+00	-4.3053321829e-01
 2.3285092004e+00	 1.5029422519e+00	-5.5138662612e-01
 2.2926556140e+00	 1.5570871822e+00	-6.6861637252e-01
 2.2554594176e+00	 1.6104946265e+00	-7.7736726829e-01
 2.2169433087e+00	 1.6631152951e+00	-8.7544323941e-01
 2.1771323724e+00	 1.7149008308e+00	-9.5658336585e-01
 2.5403963167e+00	 1.1774413738e+00	 1.0904175323e-01
 2.5126547591e+00	 1.2355351814e+00	 1.1466635477e-03
 2.4834712335e+00	 1.2931941816e+00	-1.0399210857e-01
 2.4528537598e+00	 1.3503660328e+00	-2.0906779414e-01
 2.4208128430e+00	 1.4069984488e+00	-3.1648512459e-01
 2.3873614865e+00	 1.4630393446e+00	-4.2875470450e-01
 2.3525151962e+00	 1.5184369836e+00	-5.4587511107e-01
 2.3162919737e+00	 1.5731401264e+00	-6.5861283155e-01
 2.2787122995e+00	 1.6270981801e+00	-7.6376366960e-01
 2.2397991049e+00	 1.6802613467e+00	-8.5906069529e-01
 2.1995777338e+00	 1.7325807705e+00	-9.4186639914e-01
 2.5663194925e+00	 1.1894564360e+00	 9.8329303266e-02
 2.5382948495e+00	 1.2481430550e+00	-8.6894910184e-03
 2.5088135240e+00	 1.3063904298e+00	-1.1166345875e-01
 2.4778836179e+00	 1.3641456844e+00	-2.1395216575e-01
 2.4455157433e+00	 1.4213559992e+00	-3.1849898961e-01
 2.4117230364e+00	 1.4779687578e+00	-4.2825166595e-01
 2.3765211611e+00	 1.5339316954e+00	-5.4105479564e-01
 2.3399283030e+00	 1.5891930500e+00	-6.4971439436e-01
 2.3019651514e+00	 1.6437017123e+00	-7.5161447906e-01
 2.2626548717e+00	 1.6974073762e+00	-8.4434470753e-01
 2.2220230664e+00	 1.7502606874e+00	-9.2634962706e-01
 2.5922426139e+00	 1.2014714730e+00	 9.1027994841e-02
 2.5639348859e+00	 1.2607509022e+00	-1.6621579214e-02
 2.5341557612e+00	 1.3195866502e+00	-1.1852097502e-01
 2.5029134234e+00	 1.3779253070e+00	-2.1876392141e-01
 2.4702185917e+00	 1.4357135195e+00	-3.2088466352e-01
 2.4360845351e+00	 1.4928981395e+00	-4.2811456402e-01
 2.4005270757e+00	 1.5494263747e+00	-5.3652848319e-01
 2.3635645828e+00	 1.6052459400e+00	-6.4154886872e-01
 2.3252179546e+00	 1.6603052097e+00	-7.4057008490e-01
 2.2855105906e+00	 1.7145533697e+00	-8.3105577239e-01
 2.2444683519e+00	 1.7679405672e+00	-9.1124662994e-01
 2.6181656596e+00	 1.2134864749e+00	 8.6278246408e-02
 2.5895748476e+00	 1.2733587125e+00	-2.2006847474e-02
 2.5594979245e+00	 1.3327828321e+00	-1.2391487791e-01
 2.5279431559e+00	 1.3917048894e+00	-2.2285072875e-01
 2.4949213681e+00	 1.4500709979e+00	-3.2298845203e-01
 2.4604459627e+00	 1.5078274778e+00	-4.2738964437e-01
 2.4245329202e+00	 1.5649210088e+00	-5.3195478554e-01
 2.3872007935e+00	 1.6212987830e+00	-6.3379843604e-01
 2.3484706899e+00	 1.6769086587e+00	-7.3033539676e-01
 2.3083662428e+00	 1.7316993132e+00	-8.1891914835e-01
 2.2669135719e+00	 1.7856203955e+00	-8.9758846230e-01
 2.6440886086e+00	 1.2255014320e+00	 8.3663157827e-02
 2.6152147136e+00	 1.2859664758e+00	-2.4592107045e-02
 2.5848399933e+00	 1.3459789647e+00	-1.2723328555e-01
 2.5529727949e+00	 1.4054844204e+00	-2.2560669383e-01
 2.5196240522e+00	 1.4644284226e+00	-3.2421260848e-01
 2.4848072994e+00	 1.5227567603e+00	-4.2574296658e-01
 2.4485386752e+00	 1.5804155851e+00	-5.2704146326e-01
 2.4108369161e+00	 1.6373515662e+00	-6.2619301438e-01
 2.3717233384e+00	 1.6935120456e+00	-7.2066325696e-01
 2.3312218096e+00	 1.7488451927e+00	-8.0770984054e-01
 2.2893587081e+00	 1.8033001577e+00	-8.8516923024e-01
 2.6700114396e+00	 1.2375163344e+00	 8.4554028882e-02
 2.6408544630e+00	 1.2985741818e+00	-2.3979009829e-02
 2.6101819467e+00	 1.3591750373e+00	-1.2777078520e-01
 2.5780023201e+00	 1.4192638887e+00	-2.2647735376e-01
 2.5443266240e+00	 1.4787857821e+00	-3.2402103222e-01
 2.5091685252e+00	 1.5376859749e+00	-4.2290702675e-01
 2.4725443209e+00	 1.5959100908e+00	-5.2153877693e-01
 2.4344729311e+00	 1.6534042763e+00	-6.1850362836e-01
 2.3949758812e+00	 1.7101153571e+00	-7.1134785600e-01
 2.3540772725e+00	 1.7659909942e+00	-7.9724608707e-01
 2.3118037422e+00	 1.8209798395e+00	-8.7382970652e-01
 2.6959341315e+00	 1.2495311723e+00	 9.0244340854e-02
 2.6664940747e+00	 1.3111818201e+00	-1.9020638864e-02
 2.6355237641e+00	 1.3723710391e+00	-1.2437215425e-01
 2.6030317110e+00	 1.4330432831e+00	-2.2483304384e-01
 2.5690290632e+00	 1.4931430645e+00	-3.2188259444e-01
 2.5335296203e+00	 1.5526151093e+00	-4.1865317904e-01
 2.4965498377e+00	 1.6114045134e+00	-5.1523284870e-01
 2.4581088192e+00	 1.6694569003e+00	-6.1053578578e-01
 2.4182282991e+00	 1.7267185794e+00	-7.0221815199e-01
 2.3769326128e+00	 1.7831367037e+00	-7.8738284769e-01
 2.3342486558e+00	 1.8386594265e+00	-8.6345097826e-01
 2.7218566632e+00	 1.2615459359e+00	 1.0195420577e-01
 2.6921335279e+00	 1.3237893804e+00	-8.6324512104e-03
 2.6608654249e+00	 1.3855669593e+00	-1.1607222945e-01
 2.6280609470e+00	 1.4468225922e+00	-2.1898817681e-01
 2.5937313496e+00	 1.5075002581e+00	-3.1737372192e-01
 2.5578905648e+00	 1.5675441515e+00	-4.1278502478e-01
 2.5205552062e+00	 1.6268988402e+00	-5.0793903366e-01
 2.4817445612e+00	 1.6855094250e+00	-6.0212286063e-01
 2.4414805733e+00	 1.7433216991e+00	-6.9313129401e-01
 2.3997878117e+00	 1.8002823072e+00	-7.7800529472e-01
 2.3566934307e+00	 1.8563389041e+00	-8.5395683326e-01
 2.1322416365e+00	 1.6795409412e+00	-9.8366519327e-01
 2.0920102946e+00	 1.7293944861e+00	-1.0484649130e+00
 2.0505667407e+00	 1.7783387262e+00	-1.1057383547e+00
 2.0079421987e+00	 1.8263299008e+00	-1.1598718113e+00
 1.9641699824e+00	 1.8733257043e+00	-1.2146156389e+00
 1.9192854089e+00	 1.9192854089e+00	-1.2619635965e+00
 1.8733257043e+00	 1.9641699824e+00	-1.2977724996e+00
 1.8263299008e+00	 2.0079421987e+00	-1.3192031277e+00
 1.7783387262e+00	 2.0505667407e+00	-1.3230390968e+00
 1.7293944861e+00	 2.0920102946e+00	-1.3112035655e+00
 1.6795409412e+00	 2.1322416365e+00	-1.2860700521e+00
 2.1546870006e+00	 1.6972208829e+00	-9.7048927482e-01
 2.1140321573e+00	 1.7475992187e+00	-1.0356041748e+00
 2.0721523416e+00	 1.7970586777e+00	-1.0926287499e+00
 2.0290791059e+00	 1.8455550387e+00	-1.1467475850e+00
 1.9848461147e+00	 1.8930455506e+00	-1.1989147838e+00
 1.9394890569e+00	 1.9394890569e+00	-1.2423516051e+00
 1.8930455506e+00	 1.9848461147e+00	-1.2748969221e+00
 1.8455550387e+00	 2.0290791059e+00	-1.2945989568e+00
 1.7970586777e+00	 2.0721523416e+00	-1.2982471409e+00
 1.7475992187e+00	 2.1140321573e+00	-1.2866769856e+00
 1.6972208829e+00	 2.1546870006e+00	-1.2629388015e+00
 2.1771323724e+00	 1.7149008308e+00	-9.5658336585e-01
 2.1360540277e+00	 1.7658039577e+00	-1.0225317861e+00
 2.0937379500e+00	 1.8157786357e+00	-1.0797088888e+00
 2.0502160205e+00	 1.8647801833e+00	-1.1337580491e+00
 2.0055222543e+00	 1.9127654038e+00	-1.1825060869e+00
 1.9596927121e+00	 1.9596927121e+00	-1.2226622482e+00
 1.9127654038e+00	 2.0055222543e+00	-1.2524648555e+00
 1.8647801833e+00	 2.0502160205e+00	-1.2702739121e+00
 1.8157786357e+00	 2.0937379500e+00	-1.2741919175e+00
 1.7658039577e+00	 2.1360540277e+00	-1.2633973570e+00
 1.7149008308e+00	 2.1771323724e+00	-1.2414637312e+00
 2.1995777338e+00	 1.7325807705e+00	-9.4186639914e-01
 2.1580758879e+00	 1.7840086881e+00	-1.0090949206e+00
 2.1153235483e+00	 1.8344985851e+00	-1.0667383804e+00
 2.0713529252e+00	 1.8840053189e+00	-1.1197454880e+00
 2.0261983842e+00	 1.9324852478e+00	-1.1656413855e+00
 1.9798963578e+00	 1.9798963578e+00	-1.2030914683e+00
 1.9324852478e+00	 2.0261983842e+00	-1.2306157537e+00
 1.8840053189e+00	 2.0713529252e+00	-1.2468176090e+00
 1.8344985851e+00	 2.1153235483e+00	-1.2507918308e+00
 1.7840086881e+00	 2.1580758879e+00	-1.2411540793e+00
 1.7325807705e+00	 2.1995777338e+00	-1.2212784173e+00
 2.2220230664e+00	 1.7502606874e+00	-9.2634962706e-01
 2.1800977198e+00	 1.8022133952e+00	-9.9523662085e-01
 2.1369091190e+00	 1.8532185104e+00	-1.0535741898e+00
 2.0924898028e+00	 1.9032304299e+00	-1.1049993089e+00
 2.0468744876e+00	 1.9522050665e+00	-1.1486510370e+00
 2.0000999776e+00	 2.0000999776e+00	-1.1839179634e+00
 1.9522050665e+00	 2.0468744876e+00	-1.2095774510e+00
 1.9032304299e+00	 2.0924898028e+00	-1.2244445293e+00
 1.8532185104e+00	 2.1369091190e+00	-1.2280680016e+00
 1.8022133952e+00	 2.1800977198e+00	-1.2198361296e+00
 1.7502606874e+00	 2.2220230664e+00	-1.2021117858e+00
 2.2444683519e+00	 1.7679405672e+00	-9.1124662994e-01
 2.2021195054e+00	 1.8204180641e+00	-9.8099824356e-01
 2.1584946443e+00	 1.8719383964e+00	-1.0398816845e+00
 2.1136266360e+00	 1.9224555005e+00	-1.0899687709e+00
 2.0675505476e+00	 1.9719248438e+00	-1.1319324705e+00
 2.0203035550e+00	 2.0203035550e+00	-1.1654919195e+00
 1.9719248438e+00	 2.0675505476e+00	-1.1896551272e+00
 1.9224555005e+00	 2.1136266360e+00	-1.2034140830e+00
 1.8719383964e+00	 2.1584946443e+00	-1.2064922006e+00
 1.8204180641e+00	 2.2021195054e+00	-1.1994464174e+00
 1.7679405672e+00	 2.2444683519e+00	-1.1836044501e+00
 2.2669135719e+00	 1.7856203955e+00	-8.9758846230e-01
 2.2241412268e+00	 1.8386226798e+00	-9.6652783764e-01
 2.1800801067e+00	 1.8906582278e+00	-1.0258428160e+00
 2.1347634076e+00	 1.9416805150e+00	-1.0751558133e+00
 2.0882265472e+00	 1.9916445636e+00	-1.1159387443e+00
 2.0405070735e+00	 2.0405070735e+00	-1.1482237505e+00
 1.9916445636e+00	 2.0882265472e+00	-1.1712202812e+00
 1.9416805150e+00	 2.1347634076e+00	-1.1840593940e+00
 1.8906582278e+00	 2.1800801067e+00	-1.1865959221e+00
 1.8386226798e+00	 2.2241412268e+00	-1.1801181776e+00
 1.7856203955e+00	 2.2669135719e+00	-1.1662627121e+00
 2.2893587081e+00	 1.8033001577e+00	-8.8516923024e-01
 2.2461628660e+00	 1.8568272276e+00	-9.5285379263e-01
 2.2016654885e+00	 1.9093779893e+00	-1.0120561939e+00
 2.1559001003e+00	 1.9609054577e+00	-1.0611034882e+00
 2.1089024697e+00	 2.0113642097e+00	-1.1011671088e+00
 2.0607105165e+00	 2.0607105165e+00	-1.1325728448e+00
 2.0113642097e+00	 2.1089024697e+00	-1.1546997135e+00
 1.9609054577e+00	 2.1559001003e+00	-1.1667765675e+00
 1.9093779893e+00	 2.2016654885e+00	-1.1687425255e+00
 1.8568272276e+00	 2.2461628660e+00	-1.1626068212e+00
 1.8033001577e+00	 2.2893587081e+00	-1.1512180558e+00
 2.3118037422e+00	 1.8209798395e+00	-8.7382970652e-01
 2.2681844050e+00	 1.8750316926e+00	-9.4059879302e-01
 2.2232507721e+00	 1.9280976657e+00	-9.9914960558e-01
 2.1770366968e+00	 1.9801303130e+00	-1.0483843988e+00
 2.1295782981e+00	 2.0310837662e+00	-1.0881475745e+00
 2.0809138676e+00	 2.0809138676e+00	-1.1190363186e+00
 2.0310837662e+00	 2.1295782981e+00	-1.1405645172e+00
 1.9801303130e+00	 2.1770366968e+00	-1.1520139671e+00
 1.9280976657e+00	 2.2232507721e+00	-1.1533582819e+00
 1.8750316926e+00	 2.2681844050e+00	-1.1484960633e+00
 1.8209798395e+00	 2.3118037422e+00	-1.1395999123e+00
 2.3342486558e+00	 1.8386594265e+00	-8.6345097826e-01
 2.2902058259e+00	 1.8932360599e+00	-9.2990799678e-01
 2.2448359398e+00	 1.9468172415e+00	-9.8811141660e-01
 2.1981731798e+00	 1.9993550651e+00	-1.0375891401e+00
 2.1502540156e+00	 2.0508032168e+00	-1.0774314856e+00
 2.1011171103e+00	 2.1011171103e+00	-1.1081377759e+00
 2.0508032168e+00	 2.1502540156e+00	-1.1293190768e+00
 1.9993550651e+00	 2.1981731798e+00	-1.1402615021e+00
 1.9468172415e+00	 2.2448359398e+00	-1.1416897938e+00
 1.8932360599e+00	 2.2902058259e+00	-1.1389875938e+00
 1.8386594265e+00	 2.3342486558e+00	-1.1325224542e+00
 2.3566934307e+00	 1.8563389041e+00	-8.5395683326e-01
 2.3122271105e+00	 1.9114403146e+00	-9.2093025054e-01
 2.2664209741e+00	 1.9655367017e+00	-9.7953732237e-01
 2.2193095322e+00	 2.0185796984e+00	-1.0293147453e+00
 2.1709296052e+00	 2.0705225455e+00	-1.0695800976e+00
 2.1213202280e+00	 2.1213202280e+00	-1.1004160750e+00
 2.0705225455e+00	 2.1709296052e+00	-1.1214900757e+00
 2.0185796984e+00	 2.2193095322e+00	-1.1320399248e+00
 1.9655367017e+00	 2.2664209741e+00	-1.1351778890e+00
 1.9114403146e+00	 2.3122271105e+00	-1.1350627796e+00
 1.8563389041e+00	 2.3566934307e+00	-1.1310781233e+00
 1.6795409412e+00	 2.1322416365e+00	-1.2860700521e+00
 1.6288231821e+00	 2.1712317030e+00	-1.2549681473e+00
 1.5772875098e+00	 2.2089536405e+00	-1.2270172509e+00
 1.5249812844e+00	 2.2453828809e+00	-1.2047610280e+00
 1.4719527794e+00	 2.2804971949e+00	-1.1796625336e+00
 1.4182510391e+00	 2.3142767290e+00	-1.1418054785e+00
 1.3639257340e+00	 2.3467040327e+00	-1.0895819893e+00
 1.3090270171e+00	 2.3777640747e+00	-1.0260813292e+00
 1.2536053788e+00	 2.4074442497e+00	-9.5419599367e-01
 1.1977115046e+00	 2.4357343745e+00	-8.7680904661e-01
 1.1413961340e+00	 2.4626266744e+00	-7.9690230367e-01
 1.6972208829e+00	 2.1546870006e+00	-1.2629388015e+00
 1.6459692356e+00	 2.1940875018e+00	-1.2346205041e+00
 1.5938910652e+00	 2.2322065250e+00	-1.2106005182e+00
 1.5410342305e+00	 2.2690192433e+00	-1.1870306727e+00
 1.4874475129e+00	 2.3045031934e+00	-1.1597885623e+00
 1.4331804731e+00	 2.3386383129e+00	-1.1226180950e+00
 1.3782833045e+00	 2.3714069675e+00	-1.0701141566e+00
 1.3228066879e+00	 2.4027939678e+00	-1.0055130990e+00
 1.2668016454e+00	 2.4327865757e+00	-9.3200710580e-01
 1.2103193959e+00	 2.4613745007e+00	-8.5285813421e-01
 1.1534112130e+00	 2.4885498865e+00	-7.7150655451e-01
 1.7149008308e+00	 2.1771323724e+00	-1.2414637312e+00
 1.6631152951e+00	 2.2169433087e+00	-1.2162484032e+00
 1.6104946265e+00	 2.2554594176e+00	-1.1933201563e+00
 1.5570871822e+00	 2.2926556140e+00	-1.1681317816e+00
 1.5029422519e+00	 2.3285092004e+00	-1.1388504589e+00
 1.4481099123e+00	 2.3629999054e+00	-1.1017216566e+00
 1.3926408800e+00	 2.3961099111e+00	-1.0490916048e+00
 1.3365863636e+00	 2.4278238697e+00	-9.8355326429e-01
 1.2799979166e+00	 2.4581289105e+00	-9.0867907814e-01
 1.2229272916e+00	 2.4870146359e+00	-8.2820563374e-01
 1.1654262962e+00	 2.5144731077e+00	-7.4614219165e-01
 1.7325807705e+00	 2.1995777338e+00	-1.2212784173e+00
 1.6802613467e+00	 2.2397991049e+00	-1.1986809048e+00
 1.6270981801e+00	 2.2787122995e+00	-1.1752097032e+00
 1.5731401264e+00	 2.3162919737e+00	-1.1488211831e+00
 1.5184369836e+00	 2.3525151962e+00	-1.1177805041e+00
 1.4630393446e+00	 2.3873614865e+00	-1.0798950314e+00
 1.4069984488e+00	 2.4208128430e+00	-1.0272727297e+00
 1.3503660328e+00	 2.4528537598e+00	-9.6095239241e-01
 1.2931941816e+00	 2.4834712335e+00	-8.8496756360e-01
 1.2355351814e+00	 2.5126547591e+00	-8.0362611997e-01
 1.1774413738e+00	 2.5403963167e+00	-7.2161812797e-01
 1.7502606874e+00	 2.2220230664e+00	-1.2021117858e+00
 1.6974073762e+00	 2.2626548717e+00	-1.1807427406e+00
 1.6437017123e+00	 2.3019651514e+00	-1.1571499587e+00
 1.5891930500e+00	 2.3399283030e+00	-1.1299287528e+00
 1.5339316954e+00	 2.3765211611e+00	-1.0973771440e+00
 1.4779687578e+00	 2.4117230364e+00	-1.0579936457e+00
 1.4213559992e+00	 2.4455157433e+00	-1.0054880529e+00
 1.3641456844e+00	 2.4778836179e+00	-9.3852684911e-01
 1.3063904298e+00	 2.5088135240e+00	-8.6168577865e-01
 1.2481430550e+00	 2.5382948495e+00	-7.7994160925e-01
 1.1894564360e+00	 2.5663194925e+00	-6.9877876092e-01
 1.7679405672e+00	 2.2444683519e+00	-1.1836044501e+00
 1.7145533697e+00	 2.2855105906e+00	-1.1633662646e+00
 1.6603052097e+00	 2.3252179546e+00	-1.1400755373e+00
 1.6052459400e+00	 2.3635645828e+00	-1.1123460171e+00
 1.5494263747e+00	 2.4005270757e+00	-1.0785077540e+00
 1.4928981395e+00	 2.4360845351e+00	-1.0371739778e+00
 1.4357135195e+00	 2.4702185917e+00	-9.8463966968e-01
 1.3779253070e+00	 2.5029134234e+00	-9.1715878681e-01
 1.3195866502e+00	 2.5341557612e+00	-8.3970505696e-01
 1.2607509022e+00	 2.5639348859e+00	-7.5802269973e-01
 1.2014714730e+00	 2.5922426139e+00	-6.7850571759e-01
 1.7856203955e+00	 2.2669135719e+00	-1.1662627121e+00
 1.7316993132e+00	 2.3083662428e+00	-1.1475857599e+00
 1.6769086587e+00	 2.3484706899e+00	-1.1249627780e+00
 1.6212987830e+00	 2.3872007935e+00	-1.0970147715e+00
 1.5649210088e+00	 2.4245329202e+00	-1.0620980434e+00
 1.5078274778e+00	 2.4604459627e+00	-1.0189214197e+00
 1.4500709979e+00	 2.4949213681e+00	-9.6570067672e-01
 1.3917048894e+00	 2.5279431559e+00	-8.9779609516e-01
 1.3327828321e+00	 2.5594979245e+00	-8.1995534511e-01
 1.2733587125e+00	 2.5895748476e+00	-7.3878963103e-01
 1.2134864749e+00	 2.6181656596e+00	-6.6179883470e-01
 1.8033001577e+00	 2.2893587081e+00	-1.1512180558e+00
 1.7488451927e+00	 2.3312218096e+00	-1.1344558075e+00
 1.6935120456e+00	 2.3717233384e+00	-1.1128176725e+00
 1.6373515662e+00	 2.4108369161e+00	-1.0849157115e+00
 1.5804155851e+00	 2.4485386752e+00	-1.0491214655e+00
 1.5227567603e+00	 2.4848072994e+00	-1.0042371855e+00
 1.4644284226e+00	 2.5196240522e+00	-9.4971457974e-01
 1.4054844204e+00	 2.5529727949e+00	-8.8145231604e-01
 1.3459789647e+00	 2.5848399933e+00	-8.0342564426e-01
 1.2859664758e+00	 2.6152147136e+00	-7.2425902612e-01
 1.2255014320e+00	 2.6440886086e+00	-6.5047834598e-01
 1.8209798395e+00	 2.3118037422e+00	-1.1395999123e+00
 1.7659909942e+00	 2.3540772725e+00	-1.1250386142e+00
 1.7101153571e+00	 2.3949758812e+00	-1.1046638112e+00
 1.6534042763e+00	 2.4344729311e+00	-1.0770570777e+00
 1.5959100908e+00	 2.4725443209e+00	-1.0405886332e+00
 1.5376859749e+00	 2.5091685252e+00	-9.9414645171e-01
 1.4787857821e+00	 2.5443266240e+00	-9.3779468344e-01
 1.4192638887e+00	 2.5780023201e+00	-8.6920652556e-01
 1.3591750373e+00	 2.6101819467e+00	-7.9223530542e-01
 1.2985741818e+00	 2.6408544630e+00	-7.1759907871e-01
 1.2375163344e+00	 2.6700114396e+00	-6.4665485170e-01
 1.8386594265e+00	 2.3342486558e+00	-1.1325224542e+00
 1.7831367037e+00	 2.3769326128e+00	-1.1203913594e+00
 1.7267185794e+00	 2.4182282991e+00	-1.1015303458e+00
 1.6694569003e+00	 2.4581088192e+00	-1.0744633119e+00
 1.6114045134e+00	 2.4965498377e+00	-1.0375367401e+00
 1.5526151093e+00	 2.5335296203e+00	-9.8971078332e-01
 1.4931430645e+00	 2.5690290632e+00	-9.3128438402e-01
 1.4330432831e+00	 2.6030317110e+00	-8.6268086669e-01
 1.3723710391e+00	 2.6355237641e+00	-7.9092910477e-01
 1.3111818201e+00	 2.6664940747e+00	-7.2070887616e-01
 1.2495311723e+00	 2.6959341315e+00	-6.5238264622e-01
 1.8563389041e+00	 2.3566934307e+00	-1.1310781233e+00
 1.8002823072e+00	 2.3997878117e+00	-1.1215535584e+00
 1.7433216991e+00	 2.4414805733e+00	-1.1044399674e+00
 1.6855094250e+00	 2.4817445612e+00	-1.0781637257e+00
 1.6268988402e+00	 2.5205552062e+00	-1.0410189872e+00
 1.5675441515e+00	 2.5578905648e+00	-9.9201837834e-01
 1.5075002581e+00	 2.5937313496e+00	-9.3168581178e-01
 1.4468225922e+00	 2.6280609470e+00	-8.6723945489e-01
 1.3855669593e+00	 2.6608654249e+00	-8.0135926643e-01
 1.3237893804e+00	 2.6921335279e+00	-7.3540726766e-01
 1.2615459359e+00	 2.7218566632e+00	-6.6965668419e-01
 1.1413961340e+00	 2.4626266744e+00	-7.9690230367e-01
 1.0847138993e+00	 2.4881140284e+00	-7.1226176077e-01
 1.0277112854e+00	 2.5121953460e+00	-6.2293153447e-01
 9.7043835354e-01	 2.5348699202e+00	-5.3456012210e-01
 9.1294468973e-01	 2.5561393069e+00	-4.5202573795e-01
 8.5527928458e-01	 2.5760072686e+00	-3.7917036992e-01
 7.9749041847e-01	 2.5944797105e+00	-3.1833355286e-01
 7.3962555313e-01	 2.6115646102e+00	-2.6154512542e-01
 6.8173122969e-01	 2.6272719415e+00	-2.0637372639e-01
 6.2385297377e-01	 2.6416135931e+00	-1.5597948185e-01
 5.6603520758e-01	 2.6546032823e+00	-1.0711799505e-01
 1.1534112130e+00	 2.4885498865e+00	-7.7150655451e-01
 1.0961323042e+00	 2.5143055370e+00	-6.8635660285e-01
 1.0385296437e+00	 2.5386403502e+00	-5.9809930098e-01
 9.8065381962e-01	 2.5615536117e+00	-5.1363019492e-01
 9.2255494007e-01	 2.5830468939e+00	-4.3866731028e-01
 8.6428251130e-01	 2.6031239987e+00	-3.7590535295e-01
 8.0588532196e-01	 2.6217908935e+00	-3.1641794483e-01
 7.4741133336e-01	 2.6390556400e+00	-2.5506351486e-01
 6.8890757657e-01	 2.6549283169e+00	-1.9274754440e-01
 6.3042005643e-01	 2.6694209381e+00	-1.3428789431e-01
 5.7199366279e-01	 2.6825473652e+00	-7.6737974347e-02
 1.1654262962e+00	 2.5144731077e+00	-7.4614219165e-01
 1.1075507130e+00	 2.5404970547e+00	-6.6190830367e-01
 1.0493480057e+00	 2.5650853637e+00	-5.7685249201e-01
 9.9086928928e-01	 2.5882373126e+00	-4.9932233742e-01
 9.3216519376e-01	 2.6099544902e+00	-4.3223211496e-01
 8.7328574118e-01	 2.6302407382e+00	-3.6934709625e-01
 8.1428022839e-01	 2.6491020861e+00	-3.0745861420e-01
 7.5519711632e-01	 2.6665466794e+00	-2.4291903427e-01
 6.9608392597e-01	 2.6825847020e+00	-1.7554723871e-01
 6.3698714140e-01	 2.6972282927e+00	-1.1133669824e-01
 5.7795212008e-01	 2.7104914578e+00	-4.7863676166e-02
 1.1774413738e+00	 2.5403963167e+00	-7.2161812797e-01
 1.1189691166e+00	 2.5666885602e+00	-6.3971891277e-01
 1.0601663627e+00	 2.5915303648e+00	-5.6003728661e-01
 1.0010847542e+00	 2.6149210010e+00	-4.8817663200e-01
 9.4177544298e-01	 2.6368620740e+00	-4.2131344580e-01
 8.8228896686e-01	 2.6573574651e+00	-3.5750103795e-01
 8.2267513090e-01	 2.6764132659e+00	-2.9399031456e-01
 7.6298289564e-01	 2.6940377060e+00	-2.2747678056e-01
 7.0326027201e-01	 2.7102410741e+00	-1.5694341864e-01
 6.4355422330e-01	 2.7250356345e+00	-8.9068473717e-02
 5.8391057460e-01	 2.7384355374e+00	-2.2163165341e-02
 1.1894564360e+00	 2.5663194925e+00	-6.9877876092e-01
 1.1303875055e+00	 2.5928800321e+00	-6.2053969472e-01
 1.0709847058e+00	 2.6179753320e+00	-5.4512245734e-01
 1.0113002059e+00	 2.6416046552e+00	-4.7420658184e-01
 9.5138567986e-01	 2.6637696233e+00	-4.0737383977e-01
 8.9129218098e-01	 2.6844741572e+00	-3.4294783930e-01
 8.3107002263e-01	 2.7037244107e+00	-2.7848835965e-01
 7.7076866497e-01	 2.7215286973e+00	-2.1104959498e-01
 7.1043660885e-01	 2.7378974108e+00	-1.3904100672e-01
 6.5012129678e-01	 2.7528429405e+00	-6.9362243498e-02
 5.8986902147e-01	 2.7663795812e+00	-1.2458318076e-03
 1.2014714730e+00	 2.5922426139e+00	-6.7850571759e-01
 1.1418058704e+00	 2.6190714490e+00	-6.0362355130e-01
 1.0818030262e+00	 2.6444202436e+00	-5.3005670080e-01
 1.0215156363e+00	 2.6682882533e+00	-4.5980146393e-01
 9.6099589656e-01	 2.6906771161e+00	-3.9298119971e-01
 9.0029537620e-01	 2.7115907924e+00	-3.2820833847e-01
 8.3946489674e-01	 2.7310354981e+00	-2.6337144659e-01
 7.7855441796e-01	 2.7490196309e+00	-1.9589852959e-01
 7.1761293061e-01	 2.7655536894e+00	-1.2388469714e-01
 6.5668835646e-01	 2.7806501881e+00	-5.4038100964e-02
 5.9582745582e-01	 2.7943235663e+00	 1.3333897133e-02
 1.2134864749e+00	 2.6181656596e+00	-6.6179883470e-01
 1.1532242021e+00	 2.6452627895e+00	-5.8929384401e-01
 1.0926213151e+00	 2.6708650781e+00	-5.1727662358e-01
 1.0317310368e+00	 2.6949717737e+00	-4.4746306696e-01
 9.7060608523e-01	 2.7175845304e+00	-3.8064466510e-01
 9.0929854516e-01	 2.7387073484e+00	-3.1574627018e-01
 8.4785974636e-01	 2.7583465059e+00	-2.5100431645e-01
 7.8634014823e-01	 2.7765104843e+00	-1.8423534704e-01
 7.2478923145e-01	 2.7932098873e+00	-1.1346427921e-01
 6.6325539700e-01	 2.8084573546e+00	-4.4861726341e-02
 6.0178587280e-01	 2.8222674698e+00	 2.0072927098e-02
 1.2255014320e+00	 2.6440886086e+00	-6.5047834598e-01
 1.1646424911e+00	 2.6714540323e+00	-5.7986067781e-01
 1.1034395635e+00	 2.6973098139e+00	-5.0916960245e-01
 1.0419463992e+00	 2.7216551944e+00	-4.3963659883e-01
 9.8021623802e-01	 2.7444918442e+00	-3.7281713449e-01
 9.1830168050e-01	 2.7658238032e+00	-3.0797082924e-01
 8.5625456464e-01	 2.7856574117e+00	-2.4370026319e-01
 7.9412584944e-01	 2.8040012350e+00	-1.7822487872e-01
 7.3196550549e-01	 2.8208659820e+00	-1.0971983538e-01
 6.6982241301e-01	 2.8362644173e+00	-4.3548798813e-02
 6.0774426753e-01	 2.8502112691e+00	 1.7515943839e-02
 1.2375163344e+00	 2.6700114396e+00	-6.4665485170e-01
 1.1760607281e+00	 2.6976451558e+00	-5.7758401702e-01
 1.1142577628e+00	 2.7237544294e+00	-5.0806376018e-01
 1.0521617151e+00	 2.7483384937e+00	-4.3871293475e-01
 9.8982634709e-01	 2.7713990357e+00	-3.7189764342e-01
 9.2730477488e-01	 2.7929401347e+00	-3.0723908863e-01
 8.6464934473e-01	 2.8129681932e+00	-2.4372350135e-01
 8.0191151523e-01	 2.8314918607e+00	-1.7998725111e-01
 7.3914174688e-01	 2.8485219509e+00	-1.1454682189e-01
 6.7638939914e-01	 2.8640713535e+00	-5.1769311552e-02
 6.1370263515e-01	 2.8781549412e+00	 4.2519322033e-03
 1.2495311723e+00	 2.6959341315e+00	-6.5238264622e-01
 1.1874789039e+00	 2.7238361388e+00	-5.8467144129e-01
 1.1250759039e+00	 2.7501989030e+00	-5.1615519872e-01
 1.0623769762e+00	 2.7750216498e+00	-4.4703073630e-01
 9.9943640458e-01	 2.7983060827e+00	-3.8023360773e-01
 9.3630782094e-01	 2.8200563206e+00	-3.1585828198e-01
 8.7304407976e-01	 2.8402788282e+00	-2.5329140195e-01
 8.0969713922e-01	 2.8589823389e+00	-1.9159998912e-01
 7.4631794976e-01	 2.8761777713e+00	-1.2976038557e-01
 6.8295635003e-01	 2.8918781405e+00	-7.1151796099e-02
 6.1966097079e-01	 2.9060984633e+00	-2.1089237928e-02
 1.2615459359e+00	 2.7218566632e+00	-6.6965668419e-01
 1.1988970090e+00	 2.7500269599e+00	-6.0327580509e-01
 1.1358939782e+00	 2.7766432130e+00	-5.3567082839e-01
 1.0725921741e+00	 2.8017046409e+00	-4.6687845012e-01
 1.0090464026e+00	 2.8252129633e+00	-4.0012294102e-01
 9.4531081133e-01	 2.8471723389e+00	-3.3608795936e-01
 8.8143876288e-01	 2.8675892943e+00	-2.7457660539e-01
 8.1748271508e-01	 2.8864726470e+00	-2.1510000456e-01
 7.5349410826e-01	 2.9038334207e+00	-1.5710862946e-01
 6.8952326031e-01	 2.9196847555e+00	-1.0328746208e-01
 6.2561926959e-01	 2.9340418127e+00	-5.9840163144e-02
 5.6603520758e-01	 2.6546032823e+00	-1.0711799505e-01
 5.0831714388e-01	 2.6662572345e+00	-5.7884112630e-02
 4.5074487157e-01	 2.6765915990e+00	-9.3554490933e-03
 3.9335911334e-01	 2.6856250315e+00	 3.7747547739e-02
 3.3619920749e-01	 2.6933776393e+00	 8.0869031311e-02
 2.7930305747e-01	 2.6998708812e+00	 1.1362269791e-01
 2.2270708876e-01	 2.7051274673e+00	 1.3783730555e-01
 1.6644621308e-01	 2.7091712580e+00	 1.5550124433e-01
 1.1055379969e-01	 2.7120271629e+00	 1.6786803577e-01
 5.5061653534e-02	 2.7137210413e+00	 1.7548255831e-01
 0.0000000000e+00	 2.7142796031e+00	 1.7821442846e-01
 5.7199366279e-01	 2.6825473652e+00	-7.6737974347e-02
 5.1366802117e-01	 2.6943239945e+00	-1.8862864812e-02
 4.5548970562e-01	 2.7047671452e+00	 3.7524934508e-02
 3.9749986752e-01	 2.7138956695e+00	 9.1284896523e-02
 3.3973825929e-01	 2.7217298863e+00	 1.3991546204e-01
 2.8224318334e-01	 2.7282914802e+00	 1.7702549530e-01
 2.2505144861e-01	 2.7336034006e+00	 2.0376675659e-01
 1.6819833431e-01	 2.7376897589e+00	 2.2167289189e-01
 1.1171756098e-01	 2.7405757269e+00	 2.3156269512e-01
 5.5641268356e-02	 2.7422874362e+00	 2.3359008085e-01
 0.0000000000e+00	 2.7428518778e+00	 2.2729691384e-01
 5.7795212008e-01	 2.7104914578e+00	-4.7863676166e-02
 5.1901890032e-01	 2.7223907642e+00	 1.5602029913e-02
 4.6023454133e-01	 2.7329427013e+00	 7.6820343322e-02
 4.0164062316e-01	 2.7421663174e+00	 1.3443703865e-01
 3.4327731232e-01	 2.7500821432e+00	 1.8609366119e-01
 2.8518331024e-01	 2.7567120893e+00	 2.2564359650e-01
 2.2739580927e-01	 2.7620793440e+00	 2.5372473300e-01
 1.6995045616e-01	 2.7662082698e+00	 2.7156244950e-01
 1.1288132268e-01	 2.7691243010e+00	 2.7968602364e-01
 5.6220883381e-02	 2.7708538411e+00	 2.7800347951e-01
 0.0000000000e+00	 2.7714241625e+00	 2.6587466934e-01
 5.8391057460e-01	 2.7384355374e+00	-2.2163165341e-02
 5.2436977698e-01	 2.7504575209e+00	 4.4146018119e-02
 4.6497937483e-01	 2.7611182442e+00	 1.0747715109e-01
 4.0578137687e-01	 2.7704369522e+00	 1.6645879029e-01
 3.4681636371e-01	 2.7784343869e+00	 2.1897395691e-01
 2.8812343577e-01	 2.7851326851e+00	 2.5933165735e-01
 2.2974016885e-01	 2.7905552740e+00	 2.8781560967e-01
 1.7170257718e-01	 2.7947267674e+00	 3.0547769247e-01
 1.1404508383e-01	 2.7976728617e+00	 3.1269213577e-01
 5.6800498135e-02	 2.7994202327e+00	 3.0925648760e-01
 0.0000000000e+00	 2.7999964339e+00	 2.9448584072e-01
 5.8986902147e-01	 2.7663795812e+00	-1.2458318076e-03
 5.2972064677e-01	 2.7785242416e+00	 6.5455898609e-02
 4.6972420224e-01	 2.7892937510e+00	 1.2848382374e-01
 4.0992212526e-01	 2.7987075506e+00	 1.8663592682e-01
 3.5035541055e-01	 2.8067865942e+00	 2.3814308741e-01
 2.9106355752e-01	 2.8135532444e+00	 2.7794699975e-01
 2.3208452541e-01	 2.8190311675e+00	 3.0613111848e-01
 1.7345469596e-01	 2.8232452284e+00	 3.2369684629e-01
 1.1520884349e-01	 2.8262213857e+00	 3.3098708690e-01
 5.7380112145e-02	 2.8279865876e+00	 3.2781469314e-01
 0.0000000000e+00	 2.8285686686e+00	 3.1357882226e-01
 5.9582745582e-01	 2.7943235663e+00	 1.3333897133e-02
 5.3507150533e-01	 2.8065909033e+00	 7.8267078044e-02
 4.7446901969e-01	 2.8174691986e+00	 1.3886915385e-01
 4.1406286496e-01	 2.8269780896e+00	 1.9428438898e-01
 3.5389444996e-01	 2.8351387420e+00	 2.4320427373e-01
 2.9400367310e-01	 2.8419737440e+00	 2.8135060349e-01
 2.3442887705e-01	 2.8475070012e+00	 3.0875220703e-01
 1.7520681106e-01	 2.8517636295e+00	 3.2647124264e-01
 1.1637260071e-01	 2.8547698499e+00	 3.3493224008e-01
 5.7959724939e-02	 2.8565528825e+00	 3.3407951398e-01
 0.0000000000e+00	 2.8571408433e+00	 3.2351672359e-01
 6.0178587280e-01	 2.8222674698e+00	 2.0072927098e-02
 5.4042234828e-01	 2.8346574832e+00	 8.1360875565e-02
 4.7921382330e-01	 2.8456445640e+00	 1.3770050815e-01
 4.1820359258e-01	 2.8552485463e+00	 1.8874946480e-01
 3.5743347905e-01	 2.8634908071e+00	 2.3377723030e-01
 2.9694378010e-01	 2.8703941608e+00	 2.6940799771e-01
 2.3677322186e-01	 2.8759827518e+00	 2.9575075993e-01
 1.7695892105e-01	 2.8802819474e+00	 3.1402780216e-01
 1.1753635453e-01	 2.8833182307e+00	 3.2484742606e-01
 5.8539336041e-02	 2.8851190941e+00	 3.2839193578e-01
 0.0000000000e+00	 2.8857129346e+00	 3.2458157233e-01
 6.0774426753e-01	 2.8502112691e+00	 1.7515943839e-02
 5.4577317125e-01	 2.8627239583e+00	 7.3561873045e-02
 4.8395860919e-01	 2.8738198243e+00	 1.2408208737e-01
 4.2234430474e-01	 2.8835188973e+00	 1.6940494904e-01
 3.6097249493e-01	 2.8918427663e+00	 2.0949811761e-01
 2.9988387613e-01	 2.8988144714e+00	 2.4199005918e-01
 2.3911755791e-01	 2.9044583961e+00	 2.6719119217e-01
 1.7871102450e-01	 2.9088001589e+00	 2.8657135613e-01
 1.1870010401e-01	 2.9118665050e+00	 3.0101391090e-01
 5.9118944980e-02	 2.9136851991e+00	 3.1103602902e-01
 0.0000000000e+00	 2.9142849193e+00	 3.1697827055e-01
 6.1370263515e-01	 2.8781549412e+00	 4.2519322033e-03
 5.5112396988e-01	 2.8907903057e+00	 5.3735307915e-02
 4.8870337349e-01	 2.9019949563e+00	 9.7153197425e-02
 4.2648499807e-01	 2.9117891198e+00	 1.3565228157e-01
 3.6451149470e-01	 2.9201945965e+00	 1.7001944088e-01
 3.0282395878e-01	 2.9272346527e+00	 1.9897372354e-01
 2.4146188329e-01	 2.9329339109e+00	 2.2313192311e-01
 1.8046311997e-01	 2.9373182406e+00	 2.4428681767e-01
 1.1986384819e-01	 2.9404146494e+00	 2.6367718425e-01
 5.9698551282e-02	 2.9422511741e+00	 2.8224226008e-01
 0.0000000000e+00	 2.9428567740e+00	 3.0083832185e-01
 6.1966097079e-01	 2.9060984633e+00	-2.1089237928e-02
 5.5647473978e-01	 2.9188565025e+00	 2.0784505727e-02
 4.9344811233e-01	 2.9301699372e+00	 5.6086531345e-02
 4.3062566916e-01	 2.9400591905e+00	 8.6919666254e-02
 3.6805047548e-01	 2.9485462746e+00	 1.1500989836e-01
 3.0576402565e-01	 2.9556546815e+00	 1.4024261533e-01
 2.4380619610e-01	 2.9614092728e+00	 1.6362673920e-01
 1.8221520604e-01	 2.9658361693e+00	 1.8701906403e-01
 1.2102758613e-01	 2.9689626405e+00	 2.1156795161e-01
 6.0278154473e-02	 2.9708169958e+00	 2.3955816722e-01
 0.0000000000e+00	 2.9714284753e+00	 2.7308444636e-01
 6.2561926959e-01	 2.9340418127e+00	-5.9840163144e-02
 5.6182547660e-01	 2.9469225257e+00	-2.6351650169e-02
 4.9819282183e-01	 2.9583447438e+00	 8.6461102635e-05
 4.3476631466e-01	 2.9683290864e+00	 2.1758135150e-02
 3.7158943437e-01	 2.9768977774e+00	 3.7613978871e-02
 3.0870407434e-01	 2.9840745346e+00	 4.9728096159e-02
 2.4615049440e-01	 2.9898844587e+00	 6.1314266033e-02
 1.8396728128e-01	 2.9943539216e+00	 7.6791707954e-02
 1.2219131687e-01	 2.9975104552e+00	 1.0001498352e-01
 6.0857754080e-02	 2.9993826408e+00	 1.3443300712e-01
 0.0000000000e+00	 3.0000000000e+00	 1.8320828259e-01
