patch_n	x	y	stress_yy
0	 0.000000000000000e+00	 0.000000000000000e+00	 6.781472574487021e-03
0	 3.703751761278757e-02	 0.000000000000000e+00	 1.546638002138907e-03
0	 7.407591860629409e-02	 0.000000000000000e+00	-1.216127781436240e-03
0	 1.111150863032353e-01	 0.000000000000000e+00	-1.962267443118209e-03
0	 1.481549040263268e-01	 0.000000000000000e+00	-1.147227884147388e-03
0	 1.851952550982844e-01	 0.000000000000000e+00	 7.735397608861766e-04
0	 2.222360228418238e-01	 0.000000000000000e+00	 3.344580124853621e-03
0	 2.592770905796607e-01	 0.000000000000000e+00	 6.110433608698007e-03
0	 2.963183416345107e-01	 0.000000000000000e+00	 8.615636381845147e-03
0	 3.333596593290896e-01	 0.000000000000000e+00	 1.040472038241438e-02
0	 3.704009269861132e-01	 0.000000000000000e+00	 1.102221331722948e-02
0	 3.704009269861132e-01	 0.000000000000000e+00	 1.102221331722948e-02
0	 4.074320498716263e-01	 0.000000000000000e+00	 1.036772931635187e-02
0	 4.444630227948896e-01	 0.000000000000000e+00	 8.788832970229348e-03
0	 4.814938624184864e-01	 0.000000000000000e+00	 6.502071269042081e-03
0	 5.185245854050001e-01	 0.000000000000000e+00	 3.723990497139714e-03
0	 5.555552084170138e-01	 0.000000000000000e+00	 6.711362330155176e-04
0	 5.925857481171107e-01	 0.000000000000000e+00	-2.439946650714885e-03
0	 6.296162211678745e-01	 0.000000000000000e+00	-5.392713987329858e-03
0	 6.666466442318879e-01	 0.000000000000000e+00	-7.970622316013413e-03
0	 7.036770339717346e-01	 0.000000000000000e+00	-9.957128881862143e-03
0	 7.407074070499978e-01	 0.000000000000000e+00	-1.113569163588726e-02
0	 7.407074070499978e-01	 0.000000000000000e+00	-1.113569163588726e-02
0	 7.777477718965361e-01	 0.000000000000000e+00	-1.183408016161587e-02
0	 8.147881034103083e-01	 0.000000000000000e+00	-1.242469358912257e-02
0	 8.518283682575469e-01	 0.000000000000000e+00	-1.275850703790852e-02
0	 8.888685331044861e-01	 0.000000000000000e+00	-1.268649997250268e-02
0	 9.259085646173584e-01	 0.000000000000000e+00	-1.205965620256918e-02
0	 9.629484294623976e-01	 0.000000000000000e+00	-1.072896388307347e-02
0	 9.999880943058367e-01	 0.000000000000000e+00	-8.545415514507103e-03
0	 1.037027525813909e+00	 0.000000000000000e+00	-5.360007943171120e-03
0	 1.074066690652848e+00	 0.000000000000000e+00	-1.023742361518224e-03
0	 1.111105555488888e+00	 0.000000000000000e+00	 4.612375691446440e-03
0	 1.111105555488888e+00	 0.000000000000000e+00	 4.612375691446440e-03
0	 1.148144103655110e+00	 0.000000000000000e+00	-1.947088282154916e-02
0	 1.185182385152000e+00	 0.000000000000000e+00	-1.044992071196754e-01
0	 1.222220466646889e+00	 0.000000000000000e+00	-2.506327856873053e-01
0	 1.259258414807111e+00	 0.000000000000000e+00	-4.580311262012539e-01
0	 1.296296296300000e+00	 0.000000000000000e+00	-7.268530555160823e-01
0	 1.333334177792889e+00	 0.000000000000000e+00	-1.057256719667789e+00
0	 1.370372125953112e+00	 0.000000000000000e+00	-1.449399583895882e+00
0	 1.407410207448001e+00	 0.000000000000000e+00	-1.903438432683828e+00
0	 1.444448488944890e+00	 0.000000000000000e+00	-2.419529369817884e+00
0	 1.481487037111112e+00	 0.000000000000000e+00	-2.997827818464292e+00
0	 1.481487037111112e+00	 0.000000000000000e+00	-2.997827818464292e+00
0	 1.518525901947152e+00	 0.000000000000000e+00	-3.588404527130157e+00
0	 1.555565066786090e+00	 0.000000000000000e+00	-4.134857861374373e+00
0	 1.592604498294163e+00	 0.000000000000000e+00	-4.627634022150493e+00
0	 1.629644163137602e+00	 0.000000000000000e+00	-5.057179027259737e+00
0	 1.666684027982641e+00	 0.000000000000000e+00	-5.413938711376759e+00
0	 1.703724059495513e+00	 0.000000000000000e+00	-5.688358726072929e+00
0	 1.740764224342452e+00	 0.000000000000000e+00	-5.870884539837191e+00
0	 1.777804489189690e+00	 0.000000000000000e+00	-5.951961438094389e+00
0	 1.814844820703462e+00	 0.000000000000000e+00	-5.922034523221179e+00
0	 1.851885185550002e+00	 0.000000000000000e+00	-5.771548714559398e+00
0	 1.851885185550002e+00	 0.000000000000000e+00	-5.771548714559398e+00
0	 1.888915555851201e+00	 0.000000000000000e+00	-5.488356710794609e+00
0	 1.925945926151601e+00	 0.000000000000000e+00	-5.077985705360487e+00
0	 1.962976296451401e+00	 0.000000000000000e+00	-4.557565508355863e+00
0	 2.000006666750801e+00	 0.000000000000000e+00	-3.944225929881167e+00
0	 2.037037037050001e+00	 0.000000000000000e+00	-3.255096780038350e+00
0	 2.074067407349200e+00	 0.000000000000000e+00	-2.507307868930972e+00
0	 2.111097777648601e+00	 0.000000000000000e+00	-1.717989006664111e+00
0	 2.148128147948400e+00	 0.000000000000000e+00	-9.042700033444158e-01
0	 2.185158518248799e+00	 0.000000000000000e+00	-8.328066908009291e-02
0	 2.222188888549998e+00	 0.000000000000000e+00	 7.278491860190641e-01
0	 2.222188888549998e+00	 0.000000000000000e+00	 7.278491860190623e-01
0	 2.259229258952148e+00	 0.000000000000000e+00	 1.512050113160036e+00
0	 2.296269629355197e+00	 0.000000000000000e+00	 2.266504432542558e+00
0	 2.333309999759047e+00	 0.000000000000000e+00	 2.996108507809107e+00
0	 2.370350370163597e+00	 0.000000000000000e+00	 3.705758702602801e+00
0	 2.407390740568747e+00	 0.000000000000000e+00	 4.400351380567416e+00
0	 2.444431110974397e+00	 0.000000000000000e+00	 5.084782905347407e+00
0	 2.481471481380447e+00	 0.000000000000000e+00	 5.763949640587853e+00
0	 2.518511851786798e+00	 0.000000000000000e+00	 6.442747949934513e+00
0	 2.555552222193348e+00	 0.000000000000000e+00	 7.126074197033802e+00
0	 2.592592592600000e+00	 0.000000000000000e+00	 7.818824745532785e+00
0	 2.592592592600000e+00	 0.000000000000000e+00	 7.818824745532784e+00
0	 2.629632963006650e+00	 0.000000000000000e+00	 8.475334609255867e+00
0	 2.666673333413201e+00	 0.000000000000000e+00	 9.048501535710141e+00
0	 2.703713703819551e+00	 0.000000000000000e+00	 9.541065989066391e+00
0	 2.740754074225602e+00	 0.000000000000000e+00	 9.955768433494416e+00
0	 2.777794444631251e+00	 0.000000000000000e+00	 1.029534933316305e+01
0	 2.814834815036402e+00	 0.000000000000000e+00	 1.056254915224017e+01
0	 2.851875185440952e+00	 0.000000000000000e+00	 1.076010835489267e+01
0	 2.888915555844801e+00	 0.000000000000000e+00	 1.089076740528649e+01
0	 2.925955926247851e+00	 0.000000000000000e+00	 1.095726676758656e+01
0	 2.962996296650002e+00	 0.000000000000000e+00	 1.096234690595689e+01
0	 2.962996296650002e+00	 0.000000000000000e+00	 1.096234690595689e+01
0	 3.000026666951201e+00	 0.000000000000000e+00	 1.093819270222964e+01
0	 3.037057037251600e+00	 0.000000000000000e+00	 1.091509396382127e+01
0	 3.074087407551401e+00	 0.000000000000000e+00	 1.089296856161831e+01
0	 3.111117777850801e+00	 0.000000000000000e+00	 1.087173436650729e+01
0	 3.148148148150001e+00	 0.000000000000000e+00	 1.085130924937472e+01
0	 3.185178518449201e+00	 0.000000000000000e+00	 1.083161108110714e+01
0	 3.222208888748601e+00	 0.000000000000000e+00	 1.081255773259108e+01
0	 3.259239259048400e+00	 0.000000000000000e+00	 1.079406707471306e+01
0	 3.296269629348799e+00	 0.000000000000000e+00	 1.077605697835964e+01
0	 3.333299999649998e+00	 0.000000000000000e+00	 1.075844531441735e+01
0	 3.333299999649998e+00	 0.000000000000000e+00	 1.075844531441735e+01
0	 3.370340370052147e+00	 0.000000000000000e+00	 1.074133604167556e+01
0	 3.407380740455197e+00	 0.000000000000000e+00	 1.072488095481687e+01
0	 3.444421110859047e+00	 0.000000000000000e+00	 1.070905554962555e+01
0	 3.481461481263596e+00	 0.000000000000000e+00	 1.069383532188591e+01
0	 3.518501851668747e+00	 0.000000000000000e+00	 1.067919576738223e+01
0	 3.555542222074398e+00	 0.000000000000000e+00	 1.066511238189881e+01
0	 3.592582592480448e+00	 0.000000000000000e+00	 1.065156066121996e+01
0	 3.629622962886798e+00	 0.000000000000000e+00	 1.063851610112998e+01
0	 3.666663333293348e+00	 0.000000000000000e+00	 1.062595419741321e+01
0	 3.703703703700000e+00	 0.000000000000000e+00	 1.061385044585394e+01
0	 3.703703703700000e+00	 0.000000000000000e+00	 1.061385044585394e+01
0	 3.740744074106651e+00	 0.000000000000000e+00	 1.060209749072520e+01
0	 3.777784444513201e+00	 0.000000000000000e+00	 1.059060399485873e+01
0	 3.814824814919551e+00	 0.000000000000000e+00	 1.057936948187700e+01
0	 3.851865185325602e+00	 0.000000000000000e+00	 1.056839347540247e+01
0	 3.888905555731252e+00	 0.000000000000000e+00	 1.055767549905758e+01
0	 3.925945926136402e+00	 0.000000000000000e+00	 1.054721507646481e+01
0	 3.962986296540952e+00	 0.000000000000000e+00	 1.053701173124663e+01
0	 4.000026666944802e+00	 0.000000000000000e+00	 1.052706498702549e+01
0	 4.037067037347851e+00	 0.000000000000000e+00	 1.051737436742387e+01
0	 4.074107407750003e+00	 0.000000000000000e+00	 1.050793939606423e+01
0	 4.074107407750003e+00	 0.000000000000000e+00	 1.050793939606423e+01
0	 4.111137778051202e+00	 0.000000000000000e+00	 1.049876570106230e+01
0	 4.148168148351601e+00	 0.000000000000000e+00	 1.048984623015907e+01
0	 4.185198518651401e+00	 0.000000000000000e+00	 1.048116902472968e+01
0	 4.222228888950800e+00	 0.000000000000000e+00	 1.047272212614925e+01
0	 4.259259259250000e+00	 0.000000000000000e+00	 1.046449357579292e+01
0	 4.296289629549201e+00	 0.000000000000000e+00	 1.045647141503580e+01
0	 4.333319999848601e+00	 0.000000000000000e+00	 1.044864368525304e+01
0	 4.370350370148401e+00	 0.000000000000000e+00	 1.044099842781974e+01
0	 4.407380740448801e+00	 0.000000000000000e+00	 1.043352368411102e+01
0	 4.444411110749998e+00	 0.000000000000000e+00	 1.042620749550198e+01
0	 4.444411110749998e+00	 0.000000000000000e+00	 1.042620749550198e+01
0	 4.481451475596535e+00	 0.000000000000000e+00	 1.041901352607387e+01
0	 4.518491807110308e+00	 0.000000000000000e+00	 1.041191907221736e+01
0	 4.555532071957548e+00	 0.000000000000000e+00	 1.040492675789698e+01
0	 4.592572236804486e+00	 0.000000000000000e+00	 1.039803920756607e+01
0	 4.629612268317358e+00	 0.000000000000000e+00	 1.039125904616669e+01
0	 4.666652133162397e+00	 0.000000000000000e+00	 1.038458889912954e+01
0	 4.703691798005836e+00	 0.000000000000000e+00	 1.037803139237384e+01
0	 4.740731229513909e+00	 0.000000000000000e+00	 1.037158915230732e+01
0	 4.777770394352848e+00	 0.000000000000000e+00	 1.036526480582607e+01
0	 4.814809259188888e+00	 0.000000000000000e+00	 1.035906098031457e+01
0	 4.814809259188888e+00	 0.000000000000000e+00	 1.035906098031457e+01
0	 4.851847807355111e+00	 0.000000000000000e+00	 1.035297190428667e+01
0	 4.888886088852000e+00	 0.000000000000000e+00	 1.034698709733434e+01
0	 4.925924170346889e+00	 0.000000000000000e+00	 1.034110212320990e+01
0	 4.962962118507111e+00	 0.000000000000000e+00	 1.033531254484457e+01
0	 4.999999999999999e+00	 0.000000000000000e+00	 1.032961392434817e+01
0	 5.037037881492887e+00	 0.000000000000000e+00	 1.032400182300875e+01
0	 5.074075829653110e+00	 0.000000000000000e+00	 1.031847180129227e+01
0	 5.111113911148001e+00	 0.000000000000000e+00	 1.031301941884225e+01
0	 5.148152192644890e+00	 0.000000000000000e+00	 1.030764023447952e+01
0	 5.185190740811112e+00	 0.000000000000000e+00	 1.030232980620195e+01
0	 5.185190740811112e+00	 0.000000000000000e+00	 1.030232980620195e+01
0	 5.222229605647151e+00	 0.000000000000000e+00	 1.029707549564384e+01
0	 5.259268770486091e+00	 0.000000000000000e+00	 1.029186824957819e+01
0	 5.296308201994164e+00	 0.000000000000000e+00	 1.028670900332862e+01
0	 5.333347866837603e+00	 0.000000000000000e+00	 1.028159869253226e+01
0	 5.370387731682643e+00	 0.000000000000000e+00	 1.027653825313951e+01
0	 5.407427763195515e+00	 0.000000000000000e+00	 1.027152862141407e+01
0	 5.444467928042457e+00	 0.000000000000000e+00	 1.026657073393281e+01
0	 5.481508192889694e+00	 0.000000000000000e+00	 1.026166552758569e+01
0	 5.518548524403467e+00	 0.000000000000000e+00	 1.025681393957574e+01
0	 5.555588889250002e+00	 0.000000000000000e+00	 1.025201690741892e+01
0	 5.555588889250002e+00	 0.000000000000000e+00	 1.025201690741892e+01
0	 5.592619259551202e+00	 0.000000000000000e+00	 1.024727048474812e+01
0	 5.629649629851602e+00	 0.000000000000000e+00	 1.024256651931242e+01
0	 5.666680000151401e+00	 0.000000000000000e+00	 1.023790350297547e+01
0	 5.703710370450801e+00	 0.000000000000000e+00	 1.023327992760092e+01
0	 5.740740740750002e+00	 0.000000000000000e+00	 1.022869428505242e+01
0	 5.777771111049200e+00	 0.000000000000000e+00	 1.022414506719359e+01
0	 5.814801481348600e+00	 0.000000000000000e+00	 1.021963076588810e+01
0	 5.851831851648401e+00	 0.000000000000000e+00	 1.021514987299956e+01
0	 5.888862221948800e+00	 0.000000000000000e+00	 1.021070088039164e+01
0	 5.925892592249998e+00	 0.000000000000000e+00	 1.020628227992796e+01
0	 5.925892592249998e+00	 0.000000000000000e+00	 1.020628227992796e+01
0	 5.962932962652147e+00	 0.000000000000000e+00	 1.020188750866085e+01
0	 5.999973333055197e+00	 0.000000000000000e+00	 1.019751337904863e+01
0	 6.037013703459048e+00	 0.000000000000000e+00	 1.019315987822132e+01
0	 6.074054073863598e+00	 0.000000000000000e+00	 1.018882699330889e+01
0	 6.111094444268749e+00	 0.000000000000000e+00	 1.018451471144137e+01
0	 6.148134814674400e+00	 0.000000000000000e+00	 1.018022301974873e+01
0	 6.185175185080451e+00	 0.000000000000000e+00	 1.017595190536099e+01
0	 6.222215555486802e+00	 0.000000000000000e+00	 1.017170135540815e+01
0	 6.259255925893352e+00	 0.000000000000000e+00	 1.016747135702019e+01
0	 6.296296296300000e+00	 0.000000000000000e+00	 1.016326189732713e+01
0	 6.296296296300000e+00	 0.000000000000000e+00	 1.016326189732713e+01
0	 6.333336666706651e+00	 0.000000000000000e+00	 1.015906955143879e+01
0	 6.370377037113201e+00	 0.000000000000000e+00	 1.015489042595372e+01
0	 6.407417407519554e+00	 0.000000000000000e+00	 1.015072380523507e+01
0	 6.444457777925605e+00	 0.000000000000000e+00	 1.014656897364599e+01
0	 6.481498148331255e+00	 0.000000000000000e+00	 1.014242521554960e+01
0	 6.518538518736407e+00	 0.000000000000000e+00	 1.013829181530906e+01
0	 6.555578889140956e+00	 0.000000000000000e+00	 1.013416805728750e+01
0	 6.592619259544807e+00	 0.000000000000000e+00	 1.013005322584806e+01
0	 6.629659629947858e+00	 0.000000000000000e+00	 1.012594660535388e+01
0	 6.666700000350003e+00	 0.000000000000000e+00	 1.012184748016813e+01
0	 6.666700000350003e+00	 0.000000000000000e+00	 1.012184748016813e+01
0	 6.703730370651201e+00	 0.000000000000000e+00	 1.011775434565732e+01
0	 6.740760740951601e+00	 0.000000000000000e+00	 1.011366364377991e+01
0	 6.777791111251401e+00	 0.000000000000000e+00	 1.010957489597046e+01
0	 6.814821481550801e+00	 0.000000000000000e+00	 1.010548762366358e+01
0	 6.851851851850000e+00	 0.000000000000000e+00	 1.010140134829388e+01
0	 6.888882222149200e+00	 0.000000000000000e+00	 1.009731559129593e+01
0	 6.925912592448602e+00	 0.000000000000000e+00	 1.009322987410434e+01
0	 6.962942962748400e+00	 0.000000000000000e+00	 1.008914371815370e+01
0	 6.999973333048802e+00	 0.000000000000000e+00	 1.008505664487859e+01
0	 7.037003703349997e+00	 0.000000000000000e+00	 1.008096817571361e+01
0	 7.037003703349997e+00	 0.000000000000000e+00	 1.008096817571360e+01
0	 7.074044073752147e+00	 0.000000000000000e+00	 1.007687533388314e+01
0	 7.111084444155199e+00	 0.000000000000000e+00	 1.007277716165065e+01
0	 7.148124814559049e+00	 0.000000000000000e+00	 1.006867289602523e+01
0	 7.185165184963600e+00	 0.000000000000000e+00	 1.006456177401601e+01
0	 7.222205555368750e+00	 0.000000000000000e+00	 1.006044303263210e+01
0	 7.259245925774400e+00	 0.000000000000000e+00	 1.005631590888264e+01
0	 7.296286296180451e+00	 0.000000000000000e+00	 1.005217963977672e+01
0	 7.333326666586802e+00	 0.000000000000000e+00	 1.004803346232347e+01
0	 7.370367036993352e+00	 0.000000000000000e+00	 1.004387661353200e+01
0	 7.407407407399999e+00	 0.000000000000000e+00	 1.003970833041144e+01
0	 7.407407407399999e+00	 0.000000000000000e+00	 1.003970833041144e+01
0	 7.444447777806652e+00	 0.000000000000000e+00	 1.003552739029554e+01
0	 7.481488148213201e+00	 0.000000000000000e+00	 1.003133246136054e+01
0	 7.518528518619553e+00	 0.000000000000000e+00	 1.002712261687931e+01
0	 7.555568889025603e+00	 0.000000000000000e+00	 1.002289693012472e+01
0	 7.592609259431255e+00	 0.000000000000000e+00	 1.001865447436965e+01
0	 7.629649629836405e+00	 0.000000000000000e+00	 1.001439432288696e+01
0	 7.666690000240954e+00	 0.000000000000000e+00	 1.001011554894954e+01
0	 7.703730370644806e+00	 0.000000000000000e+00	 1.000581722583026e+01
0	 7.740770741047855e+00	 0.000000000000000e+00	 1.000149842680198e+01
0	 7.777811111450003e+00	 0.000000000000000e+00	 9.997158225137591e+00
0	 7.777811111450003e+00	 0.000000000000000e+00	 9.997158225137589e+00
0	 7.814841481751202e+00	 0.000000000000000e+00	 9.992797103823701e+00
0	 7.851871852051601e+00	 0.000000000000000e+00	 9.988412987256764e+00
0	 7.888902222351401e+00	 0.000000000000000e+00	 9.984004635024084e+00
0	 7.925932592650801e+00	 0.000000000000000e+00	 9.979570806712971e+00
0	 7.962962962950000e+00	 0.000000000000000e+00	 9.975110261910734e+00
0	 7.999993333249201e+00	 0.000000000000000e+00	 9.970621760204695e+00
0	 8.037023703548602e+00	 0.000000000000000e+00	 9.966104061182131e+00
0	 8.074054073848401e+00	 0.000000000000000e+00	 9.961555924430378e+00
0	 8.111084444148801e+00	 0.000000000000000e+00	 9.956976109536740e+00
0	 8.148114814450000e+00	 0.000000000000000e+00	 9.952363376088513e+00
0	 8.148114814450000e+00	 0.000000000000000e+00	 9.952363376088513e+00
0	 8.185155179296538e+00	 0.000000000000000e+00	 9.947716313636120e+00
0	 8.222195510810311e+00	 0.000000000000000e+00	 9.943035749912575e+00
0	 8.259235775657549e+00	 0.000000000000000e+00	 9.938320051194996e+00
0	 8.296275940504488e+00	 0.000000000000000e+00	 9.933567583906534e+00
0	 8.333315972017362e+00	 0.000000000000000e+00	 9.928776714616381e+00
0	 8.370355836862398e+00	 0.000000000000000e+00	 9.923945810039786e+00
0	 8.407395501705842e+00	 0.000000000000000e+00	 9.919073237038052e+00
0	 8.444434933213913e+00	 0.000000000000000e+00	 9.914157362618539e+00
0	 8.481474098052853e+00	 0.000000000000000e+00	 9.909196553934656e+00
0	 8.518512962888888e+00	 0.000000000000000e+00	 9.904189178285925e+00
0	 8.518512962888888e+00	 0.000000000000000e+00	 9.904189178285925e+00
0	 8.555551511055112e+00	 0.000000000000000e+00	 9.899135667178118e+00
0	 8.592589792551999e+00	 0.000000000000000e+00	 9.894036078260704e+00
0	 8.629627874046889e+00	 0.000000000000000e+00	 9.888888217904309e+00
0	 8.666665822207115e+00	 0.000000000000000e+00	 9.883689892140753e+00
0	 8.703703703700002e+00	 0.000000000000000e+00	 9.878438906663131e+00
0	 8.740741585192893e+00	 0.000000000000000e+00	 9.873133066825826e+00
0	 8.777779533353117e+00	 0.000000000000000e+00	 9.867770177644468e+00
0	 8.814817614848005e+00	 0.000000000000000e+00	 9.862348043796013e+00
0	 8.851855896344894e+00	 0.000000000000000e+00	 9.856864469618767e+00
0	 8.888894444511113e+00	 0.000000000000000e+00	 9.851317259112477e+00
0	 8.888894444511113e+00	 0.000000000000000e+00	 9.851317259112477e+00
0	 8.925933309347151e+00	 0.000000000000000e+00	 9.845707469913840e+00
0	 8.962972474186092e+00	 0.000000000000000e+00	 9.840035683075005e+00
0	 9.000011905694164e+00	 0.000000000000000e+00	 9.834298987619219e+00
0	 9.037051570537605e+00	 0.000000000000000e+00	 9.828494472775390e+00
0	 9.074091435382645e+00	 0.000000000000000e+00	 9.822619227978176e+00
0	 9.111131466895516e+00	 0.000000000000000e+00	 9.816670342867921e+00
0	 9.148171631742454e+00	 0.000000000000000e+00	 9.810644907290673e+00
0	 9.185211896589696e+00	 0.000000000000000e+00	 9.804540011298212e+00
0	 9.222252228103468e+00	 0.000000000000000e+00	 9.798352745148039e+00
0	 9.259292592950004e+00	 0.000000000000000e+00	 9.792080199303417e+00
0	 9.259292592950004e+00	 0.000000000000000e+00	 9.792080199303415e+00
0	 9.296322966028265e+00	 0.000000000000000e+00	 9.785726119691885e+00
0	 9.333353355768113e+00	 0.000000000000000e+00	 9.779290159039334e+00
0	 9.370383778832126e+00	 0.000000000000000e+00	 9.772768383739754e+00
0	 9.407414251882889e+00	 0.000000000000000e+00	 9.766156860056750e+00
0	 9.444444791582987e+00	 0.000000000000000e+00	 9.759451654123614e+00
0	 9.481475414595002e+00	 0.000000000000000e+00	 9.752648831943329e+00
0	 9.518506137581515e+00	 0.000000000000000e+00	 9.745744459388515e+00
0	 9.555536977205113e+00	 0.000000000000000e+00	 9.738734602201543e+00
0	 9.592567950128375e+00	 0.000000000000000e+00	 9.731615325994410e+00
0	 9.629599073013889e+00	 0.000000000000000e+00	 9.724382696248897e+00
0	 9.629599073013889e+00	 0.000000000000000e+00	 9.724382696248897e+00
0	 9.666640340670911e+00	 0.000000000000000e+00	 9.717037387562776e+00
0	 9.703681658365491e+00	 0.000000000000000e+00	 9.709583175463774e+00
0	 9.740722909420342e+00	 0.000000000000000e+00	 9.702014871086064e+00
0	 9.777763977158179e+00	 0.000000000000000e+00	 9.694327286734751e+00
0	 9.814804744901718e+00	 0.000000000000000e+00	 9.686515235886482e+00
0	 9.851845095973676e+00	 0.000000000000000e+00	 9.678573533189915e+00
0	 9.888884913696767e+00	 0.000000000000000e+00	 9.670496994466269e+00
0	 9.925924081393710e+00	 0.000000000000000e+00	 9.662280436709983e+00
0	 9.962962482387216e+00	 0.000000000000000e+00	 9.653918678089447e+00
0	 1.000000000000000e+01	 0.000000000000000e+00	 9.645406537947647e+00
1	 1.000000000000000e+00	 0.000000000000000e+00	 3.088793052783812e+01
1	 1.011764609779771e+00	 0.000000000000000e+00	 3.004383489861887e+01
1	 1.023529042894170e+00	 0.000000000000000e+00	 2.924981463027137e+01
1	 1.035293322675825e+00	 0.000000000000000e+00	 2.850188532619147e+01
1	 1.047057472457363e+00	 0.000000000000000e+00	 2.779624189300188e+01
1	 1.058821515571412e+00	 0.000000000000000e+00	 2.712924857234336e+01
1	 1.070585475350601e+00	 0.000000000000000e+00	 2.649742963181336e+01
1	 1.082349375127556e+00	 0.000000000000000e+00	 2.589746066475539e+01
1	 1.094113238234906e+00	 0.000000000000000e+00	 2.532616045294156e+01
1	 1.105877088005278e+00	 0.000000000000000e+00	 2.478048335011298e+01
1	 1.117640947771301e+00	 0.000000000000000e+00	 2.425751214789212e+01
1	 1.117640947771301e+00	 0.000000000000000e+00	 2.425751214789212e+01
1	 1.129406836405184e+00	 0.000000000000000e+00	 2.376185020303532e+01
1	 1.141172755044817e+00	 0.000000000000000e+00	 2.329881192453754e+01
1	 1.152938700356340e+00	 0.000000000000000e+00	 2.286643936420936e+01
1	 1.164704669005890e+00	 0.000000000000000e+00	 2.246285368255382e+01
1	 1.176470657659607e+00	 0.000000000000000e+00	 2.208625119402509e+01
1	 1.188236662983631e+00	 0.000000000000000e+00	 2.173489964712146e+01
1	 1.200002681644098e+00	 0.000000000000000e+00	 2.140713472320336e+01
1	 1.211768710307149e+00	 0.000000000000000e+00	 2.110135673917799e+01
1	 1.223534745638923e+00	 0.000000000000000e+00	 2.081602754033428e+01
1	 1.235300784305558e+00	 0.000000000000000e+00	 2.054966757065684e+01
1	 1.235300784305558e+00	 0.000000000000000e+00	 2.054966757065684e+01
1	 1.247064823522136e+00	 0.000000000000000e+00	 2.030285629987756e+01
1	 1.258828862739513e+00	 0.000000000000000e+00	 2.007640415338569e+01
1	 1.270592901957491e+00	 0.000000000000000e+00	 1.986937817412784e+01
1	 1.282356941175869e+00	 0.000000000000000e+00	 1.968087963996031e+01
1	 1.294120980394446e+00	 0.000000000000000e+00	 1.951004250760914e+01
1	 1.305885019613024e+00	 0.000000000000000e+00	 1.935603194073528e+01
1	 1.317649058831402e+00	 0.000000000000000e+00	 1.921804291684895e+01
1	 1.329413098049379e+00	 0.000000000000000e+00	 1.909529890818891e+01
1	 1.341177137266757e+00	 0.000000000000000e+00	 1.898705063202498e+01
1	 1.352941176483334e+00	 0.000000000000000e+00	 1.889257486615872e+01
1	 1.352941176483334e+00	 0.000000000000000e+00	 1.889257486615872e+01
1	 1.364705215698962e+00	 0.000000000000000e+00	 1.881264171390187e+01
1	 1.376469254913690e+00	 0.000000000000000e+00	 1.874813897454182e+01
1	 1.388233294127617e+00	 0.000000000000000e+00	 1.869855225366498e+01
1	 1.399997333340845e+00	 0.000000000000000e+00	 1.866338444647910e+01
1	 1.411761372553473e+00	 0.000000000000000e+00	 1.864215501745152e+01
1	 1.423525411765601e+00	 0.000000000000000e+00	 1.863439931566586e+01
1	 1.435289450977329e+00	 0.000000000000000e+00	 1.863966792384788e+01
1	 1.447053490188757e+00	 0.000000000000000e+00	 1.865752603914466e+01
1	 1.458817529399985e+00	 0.000000000000000e+00	 1.868755288386423e+01
1	 1.470581568611112e+00	 0.000000000000000e+00	 1.872934114449845e+01
1	 1.470581568611112e+00	 0.000000000000000e+00	 1.872934114449845e+01
1	 1.482347607828890e+00	 0.000000000000000e+00	 1.877824360804901e+01
1	 1.494113647046668e+00	 0.000000000000000e+00	 1.882944677516316e+01
1	 1.505879686264445e+00	 0.000000000000000e+00	 1.888234251961227e+01
1	 1.517645725482223e+00	 0.000000000000000e+00	 1.893634157394872e+01
1	 1.529411764700000e+00	 0.000000000000000e+00	 1.899087280408586e+01
1	 1.541177803917777e+00	 0.000000000000000e+00	 1.904538251710720e+01
1	 1.552943843135555e+00	 0.000000000000000e+00	 1.909933380054229e+01
1	 1.564709882353332e+00	 0.000000000000000e+00	 1.915220589145296e+01
1	 1.576475921571110e+00	 0.000000000000000e+00	 1.920349357377265e+01
1	 1.588241960788888e+00	 0.000000000000000e+00	 1.925270660243344e+01
1	 1.588241960788888e+00	 0.000000000000000e+00	 1.925270660243344e+01
1	 1.600006000000016e+00	 0.000000000000000e+00	 1.929912654059047e+01
1	 1.611770039211243e+00	 0.000000000000000e+00	 1.934205082166904e+01
1	 1.623534078422672e+00	 0.000000000000000e+00	 1.938100985090919e+01
1	 1.635298117634399e+00	 0.000000000000000e+00	 1.941554754627052e+01
1	 1.647062156846527e+00	 0.000000000000000e+00	 1.944522085586344e+01
1	 1.658826196059155e+00	 0.000000000000000e+00	 1.946959929591402e+01
1	 1.670590235272382e+00	 0.000000000000000e+00	 1.948826450825023e+01
1	 1.682354274486310e+00	 0.000000000000000e+00	 1.950080983635439e+01
1	 1.694118313701038e+00	 0.000000000000000e+00	 1.950683991907875e+01
1	 1.705882352916666e+00	 0.000000000000000e+00	 1.950597030117208e+01
1	 1.705882352916666e+00	 0.000000000000000e+00	 1.950597030117208e+01
1	 1.717646392133243e+00	 0.000000000000000e+00	 1.949831047339505e+01
1	 1.729410431350621e+00	 0.000000000000000e+00	 1.948382586454684e+01
1	 1.741174470568598e+00	 0.000000000000000e+00	 1.946193589161176e+01
1	 1.752938509786976e+00	 0.000000000000000e+00	 1.943207555683569e+01
1	 1.764702549005553e+00	 0.000000000000000e+00	 1.939369492824583e+01
1	 1.776466588224131e+00	 0.000000000000000e+00	 1.934625864081092e+01
1	 1.788230627442508e+00	 0.000000000000000e+00	 1.928924541729133e+01
1	 1.799994666660487e+00	 0.000000000000000e+00	 1.922214760787861e+01
1	 1.811758705877864e+00	 0.000000000000000e+00	 1.914447074776980e+01
1	 1.823522745094442e+00	 0.000000000000000e+00	 1.905573313186735e+01
1	 1.823522745094442e+00	 0.000000000000000e+00	 1.905573313186735e+01
1	 1.835288783205465e+00	 0.000000000000000e+00	 1.895488003979516e+01
1	 1.847054814647955e+00	 0.000000000000000e+00	 1.884147646144090e+01
1	 1.858820832754377e+00	 0.000000000000000e+00	 1.871592364100556e+01
1	 1.870586830857200e+00	 0.000000000000000e+00	 1.857861271096423e+01
1	 1.882352802288888e+00	 0.000000000000000e+00	 1.842992500735324e+01
1	 1.894118740381910e+00	 0.000000000000000e+00	 1.827023237333141e+01
1	 1.905884638468732e+00	 0.000000000000000e+00	 1.809989745152160e+01
1	 1.917650489881821e+00	 0.000000000000000e+00	 1.791927396561300e+01
1	 1.929416287953643e+00	 0.000000000000000e+00	 1.772870699168168e+01
1	 1.941182026016666e+00	 0.000000000000000e+00	 1.752853321966479e+01
1	 1.941182026016666e+00	 0.000000000000000e+00	 1.752853321966480e+01
1	 1.952945700797734e+00	 0.000000000000000e+00	 1.731914792679269e+01
1	 1.964709322255868e+00	 0.000000000000000e+00	 1.710099197523554e+01
1	 1.976472903721802e+00	 0.000000000000000e+00	 1.687455980291039e+01
1	 1.988236458526268e+00	 0.000000000000000e+00	 1.664033418144497e+01
1	 2.000000000000000e+00	 0.000000000000000e+00	 1.639878656055125e+01
1	 2.011763541473733e+00	 0.000000000000000e+00	 1.615037740025067e+01
1	 2.023527096278199e+00	 0.000000000000000e+00	 1.589555649144830e+01
1	 2.035290677744133e+00	 0.000000000000000e+00	 1.563476326532982e+01
1	 2.047054299202267e+00	 0.000000000000000e+00	 1.536842709203300e+01
1	 2.058817973983335e+00	 0.000000000000000e+00	 1.509696756902539e+01
1	 2.058817973983335e+00	 0.000000000000000e+00	 1.509696756902540e+01
1	 2.070583712046356e+00	 0.000000000000000e+00	 1.482079004980549e+01
1	 2.082349510118179e+00	 0.000000000000000e+00	 1.454061537309925e+01
1	 2.094115361531267e+00	 0.000000000000000e+00	 1.425717692574856e+01
1	 2.105881259618090e+00	 0.000000000000000e+00	 1.397119168527095e+01
1	 2.117647197711111e+00	 0.000000000000000e+00	 1.368336067514381e+01
1	 2.129413169142801e+00	 0.000000000000000e+00	 1.339436940504405e+01
1	 2.141179167245623e+00	 0.000000000000000e+00	 1.310488829662048e+01
1	 2.152945185352045e+00	 0.000000000000000e+00	 1.281557309535023e+01
1	 2.164711216794534e+00	 0.000000000000000e+00	 1.252706526900725e+01
1	 2.176477254905558e+00	 0.000000000000000e+00	 1.223999239324741e+01
1	 2.176477254905558e+00	 0.000000000000000e+00	 1.223999239324741e+01
1	 2.188241294122136e+00	 0.000000000000000e+00	 1.195514262945804e+01
1	 2.200005333339514e+00	 0.000000000000000e+00	 1.167280261310949e+01
1	 2.211769372557491e+00	 0.000000000000000e+00	 1.139298318152950e+01
1	 2.223533411775869e+00	 0.000000000000000e+00	 1.111569494269720e+01
1	 2.235297450994446e+00	 0.000000000000000e+00	 1.084094828127846e+01
1	 2.247061490213023e+00	 0.000000000000000e+00	 1.056875336447119e+01
1	 2.258825529431401e+00	 0.000000000000000e+00	 1.029912014766839e+01
1	 2.270589568649378e+00	 0.000000000000000e+00	 1.003205837994492e+01
1	 2.282353607866756e+00	 0.000000000000000e+00	 9.767577609374692e+00
1	 2.294117647083334e+00	 0.000000000000000e+00	 9.505687188184226e+00
1	 2.294117647083334e+00	 0.000000000000000e+00	 9.505687188184226e+00
1	 2.305881686298962e+00	 0.000000000000000e+00	 9.246859304737493e+00
1	 2.317645725513689e+00	 0.000000000000000e+00	 8.991456000851672e+00
1	 2.329409764727617e+00	 0.000000000000000e+00	 8.739323628738839e+00
1	 2.341173803940845e+00	 0.000000000000000e+00	 8.490311628837521e+00
1	 2.352937843153472e+00	 0.000000000000000e+00	 8.244272452611325e+00
1	 2.364701882365600e+00	 0.000000000000000e+00	 8.001061487651938e+00
1	 2.376465921577328e+00	 0.000000000000000e+00	 7.760536985006684e+00
1	 2.388229960788756e+00	 0.000000000000000e+00	 7.522559988653903e+00
1	 2.399993999999984e+00	 0.000000000000000e+00	 7.286994267052462e+00
1	 2.411758039211112e+00	 0.000000000000000e+00	 7.053706246694551e+00
1	 2.411758039211112e+00	 0.000000000000000e+00	 7.053706246694551e+00
1	 2.423524078428890e+00	 0.000000000000000e+00	 6.821643475729752e+00
1	 2.435290117646667e+00	 0.000000000000000e+00	 6.589748881549601e+00
1	 2.447056156864444e+00	 0.000000000000000e+00	 6.357769195383681e+00
1	 2.458822196082222e+00	 0.000000000000000e+00	 6.125455996262726e+00
1	 2.470588235299999e+00	 0.000000000000000e+00	 5.892565595581755e+00
1	 2.482354274517777e+00	 0.000000000000000e+00	 5.658858924946082e+00
1	 2.494120313735555e+00	 0.000000000000000e+00	 5.424101427191824e+00
1	 2.505886352953332e+00	 0.000000000000000e+00	 5.188062950476686e+00
1	 2.517652392171109e+00	 0.000000000000000e+00	 4.950517645340383e+00
1	 2.529418431388888e+00	 0.000000000000000e+00	 4.711243864638215e+00
1	 2.529418431388888e+00	 0.000000000000000e+00	 4.711243864638216e+00
1	 2.541182470600015e+00	 0.000000000000000e+00	 4.473040425495633e+00
1	 2.552946509811243e+00	 0.000000000000000e+00	 4.238726973879222e+00
1	 2.564710549022671e+00	 0.000000000000000e+00	 4.008239584989619e+00
1	 2.576474588234399e+00	 0.000000000000000e+00	 3.781515501535766e+00
1	 2.588238627446527e+00	 0.000000000000000e+00	 3.558493107202182e+00
1	 2.600002666659154e+00	 0.000000000000000e+00	 3.339111900836534e+00
1	 2.611766705872382e+00	 0.000000000000000e+00	 3.123312471334791e+00
1	 2.623530745086310e+00	 0.000000000000000e+00	 2.911036473202049e+00
1	 2.635294784301037e+00	 0.000000000000000e+00	 2.702226602767999e+00
1	 2.647058823516666e+00	 0.000000000000000e+00	 2.496826575036553e+00
1	 2.647058823516666e+00	 0.000000000000000e+00	 2.496826575036553e+00
1	 2.658822862733244e+00	 0.000000000000000e+00	 2.298077540667090e+00
1	 2.670586901950621e+00	 0.000000000000000e+00	 2.109149838275452e+00
1	 2.682350941168599e+00	 0.000000000000000e+00	 1.929883843430037e+00
1	 2.694114980386975e+00	 0.000000000000000e+00	 1.760122719744222e+00
1	 2.705879019605553e+00	 0.000000000000000e+00	 1.599712358270140e+00
1	 2.717643058824131e+00	 0.000000000000000e+00	 1.448501318466419e+00
1	 2.729407098042508e+00	 0.000000000000000e+00	 1.306340770692634e+00
1	 2.741171137260486e+00	 0.000000000000000e+00	 1.173084440184470e+00
1	 2.752935176477864e+00	 0.000000000000000e+00	 1.048588552465323e+00
1	 2.764699215694442e+00	 0.000000000000000e+00	 9.327117801515988e-01
1	 2.764699215694442e+00	 0.000000000000000e+00	 9.327117801515988e-01
1	 2.776465254361077e+00	 0.000000000000000e+00	 8.245266129924808e-01
1	 2.788231289692851e+00	 0.000000000000000e+00	 7.232054256901148e-01
1	 2.799997318355902e+00	 0.000000000000000e+00	 6.287021899314378e-01
1	 2.811763337016370e+00	 0.000000000000000e+00	 5.409716562830085e-01
1	 2.823529342340392e+00	 0.000000000000000e+00	 4.599693381754119e-01
1	 2.835295330994109e+00	 0.000000000000000e+00	 3.856514962854282e-01
1	 2.847061299643660e+00	 0.000000000000000e+00	 3.179751233045412e-01
1	 2.858827244955183e+00	 0.000000000000000e+00	 2.568979290826529e-01
1	 2.870593163594816e+00	 0.000000000000000e+00	 2.023783261362835e-01
1	 2.882359052228699e+00	 0.000000000000000e+00	 1.543754155108604e-01
1	 2.882359052228699e+00	 0.000000000000000e+00	 1.543754155108603e-01
1	 2.894122911994722e+00	 0.000000000000000e+00	 1.129550369470370e-01
1	 2.905886761765094e+00	 0.000000000000000e+00	 7.812064789762153e-02
1	 2.917650624872444e+00	 0.000000000000000e+00	 4.976240293663386e-02
1	 2.929414524649399e+00	 0.000000000000000e+00	 2.777215412545977e-02
1	 2.941178484428588e+00	 0.000000000000000e+00	 1.204341562726699e-02
1	 2.952942527542637e+00	 0.000000000000000e+00	 2.471329185944103e-03
1	 2.964706677324174e+00	 0.000000000000000e+00	-1.047369554855990e-03
1	 2.976470957105829e+00	 0.000000000000000e+00	 1.385616083802346e-03
1	 2.988235390220228e+00	 0.000000000000000e+00	 9.670111745259065e-03
1	 3.000000000000000e+00	 0.000000000000000e+00	 2.370744073784490e-02
