patch_n	x	y	stress_yy
0	 0.000000000000000e+00	 0.000000000000000e+00	-4.117412332487777e-04
0	 3.703751761278757e-02	 0.000000000000000e+00	-2.242181934743712e-04
0	 7.407591860629409e-02	 0.000000000000000e+00	-9.844178161163485e-06
0	 1.111150863032353e-01	 0.000000000000000e+00	 2.208853505993878e-04
0	 1.481549040263268e-01	 0.000000000000000e+00	 4.574734993698330e-04
0	 1.851952550982844e-01	 0.000000000000000e+00	 6.894219437213196e-04
0	 2.222360228418238e-01	 0.000000000000000e+00	 9.062309285205272e-04
0	 2.592770905796607e-01	 0.000000000000000e+00	 1.097399268148980e-03
0	 2.963183416345107e-01	 0.000000000000000e+00	 1.252424346654755e-03
0	 3.333596593290896e-01	 0.000000000000000e+00	 1.360802117836603e-03
0	 3.704009269861132e-01	 0.000000000000000e+00	 1.412027105260489e-03
0	 3.704009269861132e-01	 0.000000000000000e+00	 1.412027105260489e-03
0	 4.074320498716263e-01	 0.000000000000000e+00	 1.461786523807238e-03
0	 4.444630227948896e-01	 0.000000000000000e+00	 1.548182358884188e-03
0	 4.814938624184864e-01	 0.000000000000000e+00	 1.634314577137731e-03
0	 5.185245854050001e-01	 0.000000000000000e+00	 1.683282968331577e-03
0	 5.555552084170138e-01	 0.000000000000000e+00	 1.658187145339988e-03
0	 5.925857481171107e-01	 0.000000000000000e+00	 1.522126544142199e-03
0	 6.296162211678745e-01	 0.000000000000000e+00	 1.238200423818041e-03
0	 6.666466442318879e-01	 0.000000000000000e+00	 7.695078665447409e-04
0	 7.036770339717346e-01	 0.000000000000000e+00	 7.914777759493582e-05
0	 7.407074070499978e-01	 0.000000000000000e+00	-8.697811146641329e-04
0	 7.407074070499978e-01	 0.000000000000000e+00	-8.697811146641328e-04
0	 7.777477718965361e-01	 0.000000000000000e+00	-2.031350486899635e-03
0	 8.147881034103083e-01	 0.000000000000000e+00	-2.895348247444655e-03
0	 8.518283682575469e-01	 0.000000000000000e+00	-2.803133631624274e-03
0	 8.888685331044861e-01	 0.000000000000000e+00	-1.096065874097045e-03
0	 9.259085646173584e-01	 0.000000000000000e+00	 2.884495791153774e-03
0	 9.629484294623976e-01	 0.000000000000000e+00	 9.797192130828988e-03
0	 9.999880943058367e-01	 0.000000000000000e+00	 2.030066391232227e-02
0	 1.037027525813909e+00	 0.000000000000000e+00	 3.505355190372889e-02
0	 1.074066690652848e+00	 0.000000000000000e+00	 5.471449687385457e-02
0	 1.111105555488888e+00	 0.000000000000000e+00	 7.994213959222433e-02
0	 1.111105555488888e+00	 0.000000000000000e+00	 7.994213959222433e-02
0	 1.148144103655110e+00	 0.000000000000000e+00	 8.451562225113141e-02
0	 1.185182385152000e+00	 0.000000000000000e+00	 3.908720936603431e-02
0	 1.222220466646889e+00	 0.000000000000000e+00	-6.037435204276098e-02
0	 1.259258414807111e+00	 0.000000000000000e+00	-2.178997512473110e-01
0	 1.296296296300000e+00	 0.000000000000000e+00	-4.375191137993135e-01
0	 1.333334177792889e+00	 0.000000000000000e+00	-7.232620015326117e-01
0	 1.370372125953112e+00	 0.000000000000000e+00	-1.079157412580915e+00
0	 1.407410207448001e+00	 0.000000000000000e+00	-1.509233781410741e+00
0	 1.444448488944890e+00	 0.000000000000000e+00	-2.017518978869571e+00
0	 1.481487037111112e+00	 0.000000000000000e+00	-2.608040312249218e+00
0	 1.481487037111112e+00	 0.000000000000000e+00	-2.608040312249218e+00
0	 1.518525901947152e+00	 0.000000000000000e+00	-3.251451983581933e+00
0	 1.555565066786090e+00	 0.000000000000000e+00	-3.903106841756607e+00
0	 1.592604498294163e+00	 0.000000000000000e+00	-4.544079713701890e+00
0	 1.629644163137602e+00	 0.000000000000000e+00	-5.155445388989166e+00
0	 1.666684027982641e+00	 0.000000000000000e+00	-5.718278619847324e+00
0	 1.703724059495513e+00	 0.000000000000000e+00	-6.213654121177002e+00
0	 1.740764224342452e+00	 0.000000000000000e+00	-6.622646570564390e+00
0	 1.777804489189690e+00	 0.000000000000000e+00	-6.926330608294456e+00
0	 1.814844820703462e+00	 0.000000000000000e+00	-7.105780837363733e+00
0	 1.851885185550002e+00	 0.000000000000000e+00	-7.142071823492539e+00
0	 1.851885185550002e+00	 0.000000000000000e+00	-7.142071823492539e+00
0	 1.888915555851201e+00	 0.000000000000000e+00	-6.998477974102308e+00
0	 1.925945926151601e+00	 0.000000000000000e+00	-6.668065547904090e+00
0	 1.962976296451401e+00	 0.000000000000000e+00	-6.176630550578052e+00
0	 2.000006666750801e+00	 0.000000000000000e+00	-5.549968987806258e+00
0	 2.037037037050001e+00	 0.000000000000000e+00	-4.813876865272589e+00
0	 2.074067407349200e+00	 0.000000000000000e+00	-3.994150188662854e+00
0	 2.111097777648601e+00	 0.000000000000000e+00	-3.116584963664677e+00
0	 2.148128147948400e+00	 0.000000000000000e+00	-2.206977195967559e+00
0	 2.185158518248799e+00	 0.000000000000000e+00	-1.291122891262857e+00
0	 2.222188888549998e+00	 0.000000000000000e+00	-3.948180552438227e-01
0	 2.222188888549998e+00	 0.000000000000000e+00	-3.948180552438245e-01
0	 2.259229258952148e+00	 0.000000000000000e+00	 4.613033320841975e-01
0	 2.296269629355197e+00	 0.000000000000000e+00	 1.278461746584265e+00
0	 2.333309999759047e+00	 0.000000000000000e+00	 2.064354125965345e+00
0	 2.370350370163597e+00	 0.000000000000000e+00	 2.826677407937277e+00
0	 2.407390740568747e+00	 0.000000000000000e+00	 3.573128530210827e+00
0	 2.444431110974397e+00	 0.000000000000000e+00	 4.311404430497688e+00
0	 2.481471481380447e+00	 0.000000000000000e+00	 5.049202046510437e+00
0	 2.518511851786798e+00	 0.000000000000000e+00	 5.794218315962581e+00
0	 2.555552222193348e+00	 0.000000000000000e+00	 6.554150176568537e+00
0	 2.592592592600000e+00	 0.000000000000000e+00	 7.336694566043632e+00
0	 2.592592592600000e+00	 0.000000000000000e+00	 7.336694566043631e+00
0	 2.629632963006650e+00	 0.000000000000000e+00	 8.085730108656612e+00
0	 2.666673333413201e+00	 0.000000000000000e+00	 8.741798010353104e+00
0	 2.703713703819551e+00	 0.000000000000000e+00	 9.307589081363519e+00
0	 2.740754074225602e+00	 0.000000000000000e+00	 9.785794131917118e+00
0	 2.777794444631251e+00	 0.000000000000000e+00	 1.017910397224204e+01
0	 2.814834815036402e+00	 0.000000000000000e+00	 1.049020941256533e+01
0	 2.851875185440952e+00	 0.000000000000000e+00	 1.072180126311284e+01
0	 2.888915555844801e+00	 0.000000000000000e+00	 1.087657033410935e+01
0	 2.925955926247851e+00	 0.000000000000000e+00	 1.095720743577847e+01
0	 2.962996296650002e+00	 0.000000000000000e+00	 1.096640337834271e+01
0	 2.962996296650002e+00	 0.000000000000000e+00	 1.096640337834271e+01
0	 3.000026666951201e+00	 0.000000000000000e+00	 1.094135447761190e+01
0	 3.037057037251600e+00	 0.000000000000000e+00	 1.091740815324934e+01
0	 3.074087407551401e+00	 0.000000000000000e+00	 1.089450262803347e+01
0	 3.111117777850801e+00	 0.000000000000000e+00	 1.087257612474276e+01
0	 3.148148148150001e+00	 0.000000000000000e+00	 1.085156686615564e+01
0	 3.185178518449201e+00	 0.000000000000000e+00	 1.083141307505056e+01
0	 3.222208888748601e+00	 0.000000000000000e+00	 1.081205297420595e+01
0	 3.259239259048400e+00	 0.000000000000000e+00	 1.079342478640024e+01
0	 3.296269629348799e+00	 0.000000000000000e+00	 1.077546673441183e+01
0	 3.333299999649998e+00	 0.000000000000000e+00	 1.075811704101917e+01
0	 3.333299999649998e+00	 0.000000000000000e+00	 1.075811704101917e+01
0	 3.370340370052147e+00	 0.000000000000000e+00	 1.074133291422534e+01
0	 3.407380740455197e+00	 0.000000000000000e+00	 1.072511129771941e+01
0	 3.444421110859047e+00	 0.000000000000000e+00	 1.070943619163545e+01
0	 3.481461481263596e+00	 0.000000000000000e+00	 1.069429159610753e+01
0	 3.518501851668747e+00	 0.000000000000000e+00	 1.067966151126973e+01
0	 3.555542222074398e+00	 0.000000000000000e+00	 1.066552993725611e+01
0	 3.592582592480448e+00	 0.000000000000000e+00	 1.065188087420078e+01
0	 3.629622962886798e+00	 0.000000000000000e+00	 1.063869832223781e+01
0	 3.666663333293348e+00	 0.000000000000000e+00	 1.062596628150131e+01
0	 3.703703703700000e+00	 0.000000000000000e+00	 1.061366875212535e+01
0	 3.703703703700000e+00	 0.000000000000000e+00	 1.061366875212535e+01
0	 3.740744074106651e+00	 0.000000000000000e+00	 1.060175259295144e+01
0	 3.777784444513201e+00	 0.000000000000000e+00	 1.059016827405877e+01
0	 3.814824814919551e+00	 0.000000000000000e+00	 1.057890521243807e+01
0	 3.851865185325602e+00	 0.000000000000000e+00	 1.056795282508006e+01
0	 3.888905555731252e+00	 0.000000000000000e+00	 1.055730052897544e+01
0	 3.925945926136402e+00	 0.000000000000000e+00	 1.054693774111492e+01
0	 3.962986296540952e+00	 0.000000000000000e+00	 1.053685387848924e+01
0	 4.000026666944802e+00	 0.000000000000000e+00	 1.052703835808912e+01
0	 4.037067037347851e+00	 0.000000000000000e+00	 1.051748059690527e+01
0	 4.074107407750003e+00	 0.000000000000000e+00	 1.050817001192843e+01
0	 4.074107407750003e+00	 0.000000000000000e+00	 1.050817001192843e+01
0	 4.111137778051202e+00	 0.000000000000000e+00	 1.049908571346428e+01
0	 4.148168148351601e+00	 0.000000000000000e+00	 1.049020614611035e+01
0	 4.185198518651401e+00	 0.000000000000000e+00	 1.048152717202450e+01
0	 4.222228888950800e+00	 0.000000000000000e+00	 1.047304465336460e+01
0	 4.259259259250000e+00	 0.000000000000000e+00	 1.046475445228851e+01
0	 4.296289629549201e+00	 0.000000000000000e+00	 1.045665243095408e+01
0	 4.333319999848601e+00	 0.000000000000000e+00	 1.044873445151918e+01
0	 4.370350370148401e+00	 0.000000000000000e+00	 1.044099637614162e+01
0	 4.407380740448801e+00	 0.000000000000000e+00	 1.043343406697928e+01
0	 4.444411110749998e+00	 0.000000000000000e+00	 1.042604338619000e+01
0	 4.444411110749998e+00	 0.000000000000000e+00	 1.042604338619000e+01
0	 4.481451475596535e+00	 0.000000000000000e+00	 1.041880100568231e+01
0	 4.518491807110308e+00	 0.000000000000000e+00	 1.041168863143811e+01
0	 4.555532071957548e+00	 0.000000000000000e+00	 1.040470375792319e+01
0	 4.592572236804486e+00	 0.000000000000000e+00	 1.039784388011246e+01
0	 4.629612268317358e+00	 0.000000000000000e+00	 1.039110649348973e+01
0	 4.666652133162397e+00	 0.000000000000000e+00	 1.038448909404771e+01
0	 4.703691798005836e+00	 0.000000000000000e+00	 1.037798917828789e+01
0	 4.740731229513909e+00	 0.000000000000000e+00	 1.037160424322048e+01
0	 4.777770394352848e+00	 0.000000000000000e+00	 1.036533178636433e+01
0	 4.814809259188888e+00	 0.000000000000000e+00	 1.035916930574687e+01
0	 4.814809259188888e+00	 0.000000000000000e+00	 1.035916930574686e+01
0	 4.851847807355111e+00	 0.000000000000000e+00	 1.035310494878271e+01
0	 4.888886088852000e+00	 0.000000000000000e+00	 1.034712759348366e+01
0	 4.925924170346889e+00	 0.000000000000000e+00	 1.034123583354599e+01
0	 4.962962118507111e+00	 0.000000000000000e+00	 1.033542826185431e+01
0	 4.999999999999999e+00	 0.000000000000000e+00	 1.032970347048129e+01
0	 5.037037881492887e+00	 0.000000000000000e+00	 1.032406005068725e+01
0	 5.074075829653110e+00	 0.000000000000000e+00	 1.031849659291987e+01
0	 5.111113911148001e+00	 0.000000000000000e+00	 1.031301168681385e+01
0	 5.148152192644890e+00	 0.000000000000000e+00	 1.030760392119063e+01
0	 5.185190740811112e+00	 0.000000000000000e+00	 1.030227188405814e+01
0	 5.185190740811112e+00	 0.000000000000000e+00	 1.030227188405814e+01
0	 5.222229605647151e+00	 0.000000000000000e+00	 1.029700557327792e+01
0	 5.259268770486091e+00	 0.000000000000000e+00	 1.029179544772236e+01
0	 5.296308201994164e+00	 0.000000000000000e+00	 1.028664078654017e+01
0	 5.333347866837603e+00	 0.000000000000000e+00	 1.028154086919294e+01
0	 5.370387731682643e+00	 0.000000000000000e+00	 1.027649497545506e+01
0	 5.407427763195515e+00	 0.000000000000000e+00	 1.027150238541365e+01
0	 5.444467928042457e+00	 0.000000000000000e+00	 1.026656237946847e+01
0	 5.481508192889694e+00	 0.000000000000000e+00	 1.026167423833183e+01
0	 5.518548524403467e+00	 0.000000000000000e+00	 1.025683724302854e+01
0	 5.555588889250002e+00	 0.000000000000000e+00	 1.025205067489585e+01
0	 5.555588889250002e+00	 0.000000000000000e+00	 1.025205067489586e+01
0	 5.592619259551202e+00	 0.000000000000000e+00	 1.024730956010015e+01
0	 5.629649629851602e+00	 0.000000000000000e+00	 1.024260639148076e+01
0	 5.666680000151401e+00	 0.000000000000000e+00	 1.023794050720128e+01
0	 5.703710370450801e+00	 0.000000000000000e+00	 1.023331124542526e+01
0	 5.740740740750002e+00	 0.000000000000000e+00	 1.022871794431625e+01
0	 5.777771111049200e+00	 0.000000000000000e+00	 1.022415994203784e+01
0	 5.814801481348600e+00	 0.000000000000000e+00	 1.021963657675358e+01
0	 5.851831851648401e+00	 0.000000000000000e+00	 1.021514718662700e+01
0	 5.888862221948800e+00	 0.000000000000000e+00	 1.021069110982169e+01
0	 5.925892592249998e+00	 0.000000000000000e+00	 1.020626768450121e+01
0	 5.925892592249998e+00	 0.000000000000000e+00	 1.020626768450121e+01
0	 5.962932962652147e+00	 0.000000000000000e+00	 1.020187067736468e+01
0	 5.999973333055197e+00	 0.000000000000000e+00	 1.019749639781252e+01
0	 6.037013703459048e+00	 0.000000000000000e+00	 1.019314442745245e+01
0	 6.074054073863598e+00	 0.000000000000000e+00	 1.018881434789217e+01
0	 6.111094444268749e+00	 0.000000000000000e+00	 1.018450574073938e+01
0	 6.148134814674400e+00	 0.000000000000000e+00	 1.018021818760177e+01
0	 6.185175185080451e+00	 0.000000000000000e+00	 1.017595127008707e+01
0	 6.222215555486802e+00	 0.000000000000000e+00	 1.017170456980298e+01
0	 6.259255925893352e+00	 0.000000000000000e+00	 1.016747766835719e+01
0	 6.296296296300000e+00	 0.000000000000000e+00	 1.016327014735744e+01
0	 6.296296296300000e+00	 0.000000000000000e+00	 1.016327014735744e+01
0	 6.333336666706651e+00	 0.000000000000000e+00	 1.015907852189982e+01
0	 6.370377037113201e+00	 0.000000000000000e+00	 1.015489922933277e+01
0	 6.407417407519554e+00	 0.000000000000000e+00	 1.015073173464246e+01
0	 6.444457777925605e+00	 0.000000000000000e+00	 1.014657550281503e+01
0	 6.481498148331255e+00	 0.000000000000000e+00	 1.014242999883664e+01
0	 6.518538518736407e+00	 0.000000000000000e+00	 1.013829468769346e+01
0	 6.555578889140956e+00	 0.000000000000000e+00	 1.013416903437163e+01
0	 6.592619259544807e+00	 0.000000000000000e+00	 1.013005250385732e+01
0	 6.629659629947858e+00	 0.000000000000000e+00	 1.012594456113669e+01
0	 6.666700000350003e+00	 0.000000000000000e+00	 1.012184467119591e+01
0	 6.666700000350003e+00	 0.000000000000000e+00	 1.012184467119591e+01
0	 6.703730370651201e+00	 0.000000000000000e+00	 1.011775130314023e+01
0	 6.740760740951601e+00	 0.000000000000000e+00	 1.011366070317955e+01
0	 6.777791111251401e+00	 0.000000000000000e+00	 1.010957231948537e+01
0	 6.814821481550801e+00	 0.000000000000000e+00	 1.010548560022927e+01
0	 6.851851851850000e+00	 0.000000000000000e+00	 1.010139999358280e+01
0	 6.888882222149200e+00	 0.000000000000000e+00	 1.009731494771750e+01
0	 6.925912592448602e+00	 0.000000000000000e+00	 1.009322991080492e+01
0	 6.962942962748400e+00	 0.000000000000000e+00	 1.008914433101662e+01
0	 6.999973333048802e+00	 0.000000000000000e+00	 1.008505765652413e+01
0	 7.037003703349997e+00	 0.000000000000000e+00	 1.008096933549901e+01
0	 7.037003703349997e+00	 0.000000000000000e+00	 1.008096933549901e+01
0	 7.074044073752147e+00	 0.000000000000000e+00	 1.007687643236964e+01
0	 7.111084444155199e+00	 0.000000000000000e+00	 1.007277809656271e+01
0	 7.148124814559049e+00	 0.000000000000000e+00	 1.006867359076179e+01
0	 7.185165184963600e+00	 0.000000000000000e+00	 1.006456217765051e+01
0	 7.222205555368750e+00	 0.000000000000000e+00	 1.006044311991246e+01
0	 7.259245925774400e+00	 0.000000000000000e+00	 1.005631568023126e+01
0	 7.296286296180451e+00	 0.000000000000000e+00	 1.005217912129050e+01
0	 7.333326666586802e+00	 0.000000000000000e+00	 1.004803270577379e+01
0	 7.370367036993352e+00	 0.000000000000000e+00	 1.004387569636473e+01
0	 7.407407407399999e+00	 0.000000000000000e+00	 1.003970735574695e+01
0	 7.407407407399999e+00	 0.000000000000000e+00	 1.003970735574695e+01
0	 7.444447777806652e+00	 0.000000000000000e+00	 1.003552642737848e+01
0	 7.481488148213201e+00	 0.000000000000000e+00	 1.003133152411631e+01
0	 7.518528518619553e+00	 0.000000000000000e+00	 1.002712171274242e+01
0	 7.555568889025603e+00	 0.000000000000000e+00	 1.002289606003880e+01
0	 7.592609259431255e+00	 0.000000000000000e+00	 1.001865363278744e+01
0	 7.629649629836405e+00	 0.000000000000000e+00	 1.001439349777035e+01
0	 7.666690000240954e+00	 0.000000000000000e+00	 1.001011472176950e+01
0	 7.703730370644806e+00	 0.000000000000000e+00	 1.000581637156691e+01
0	 7.740770741047855e+00	 0.000000000000000e+00	 1.000149751394454e+01
0	 7.777811111450003e+00	 0.000000000000000e+00	 9.997157215684407e+00
0	 7.777811111450003e+00	 0.000000000000000e+00	 9.997157215684407e+00
0	 7.814841481751202e+00	 0.000000000000000e+00	 9.992795982489756e+00
0	 7.851871852051601e+00	 0.000000000000000e+00	 9.988411765606795e+00
0	 7.888902222351401e+00	 0.000000000000000e+00	 9.984003324427061e+00
0	 7.925932592650801e+00	 0.000000000000000e+00	 9.979569418342059e+00
0	 7.962962962950000e+00	 0.000000000000000e+00	 9.975108806743325e+00
0	 7.999993333249201e+00	 0.000000000000000e+00	 9.970620249022387e+00
0	 8.037023703548602e+00	 0.000000000000000e+00	 9.966102504570753e+00
0	 8.074054073848401e+00	 0.000000000000000e+00	 9.961554332779951e+00
0	 8.111084444148801e+00	 0.000000000000000e+00	 9.956974493041505e+00
0	 8.148114814450000e+00	 0.000000000000000e+00	 9.952361744746923e+00
0	 8.148114814450000e+00	 0.000000000000000e+00	 9.952361744746923e+00
0	 8.185155179296538e+00	 0.000000000000000e+00	 9.947714663809984e+00
0	 8.222195510810311e+00	 0.000000000000000e+00	 9.943034065661150e+00
0	 8.259235775657549e+00	 0.000000000000000e+00	 9.938318318374810e+00
0	 8.296275940504488e+00	 0.000000000000000e+00	 9.933565790171361e+00
0	 8.333315972017362e+00	 0.000000000000000e+00	 9.928774849417213e+00
0	 8.370355836862398e+00	 0.000000000000000e+00	 9.923943864624743e+00
0	 8.407395501705842e+00	 0.000000000000000e+00	 9.919071204452372e+00
0	 8.444434933213913e+00	 0.000000000000000e+00	 9.914155237704513e+00
0	 8.481474098052853e+00	 0.000000000000000e+00	 9.909194333331595e+00
0	 8.518512962888888e+00	 0.000000000000000e+00	 9.904186860430116e+00
0	 8.518512962888888e+00	 0.000000000000000e+00	 9.904186860430116e+00
0	 8.555551511055112e+00	 0.000000000000000e+00	 9.899133258115949e+00
0	 8.592589792551999e+00	 0.000000000000000e+00	 9.894033589262808e+00
0	 8.629627874046889e+00	 0.000000000000000e+00	 9.888885658459351e+00
0	 8.666665822207115e+00	 0.000000000000000e+00	 9.883687269955415e+00
0	 8.703703703700002e+00	 0.000000000000000e+00	 9.878436227662048e+00
0	 8.740741585192893e+00	 0.000000000000000e+00	 9.873130335151529e+00
0	 8.777779533353117e+00	 0.000000000000000e+00	 9.867767395657358e+00
0	 8.814817614848005e+00	 0.000000000000000e+00	 9.862345212074306e+00
0	 8.851855896344894e+00	 0.000000000000000e+00	 9.856861586958438e+00
0	 8.888894444511113e+00	 0.000000000000000e+00	 9.851314322527220e+00
0	 8.888894444511113e+00	 0.000000000000000e+00	 9.851314322527220e+00
0	 8.925933309347151e+00	 0.000000000000000e+00	 9.845704472403826e+00
0	 8.962972474186092e+00	 0.000000000000000e+00	 9.840032615662707e+00
0	 9.000011905694164e+00	 0.000000000000000e+00	 9.834295842598490e+00
0	 9.037051570537605e+00	 0.000000000000000e+00	 9.828491243711536e+00
0	 9.074091435382645e+00	 0.000000000000000e+00	 9.822615909707878e+00
0	 9.111131466895516e+00	 0.000000000000000e+00	 9.816666931499260e+00
0	 9.148171631742454e+00	 0.000000000000000e+00	 9.810641400203130e+00
0	 9.185211896589696e+00	 0.000000000000000e+00	 9.804536407142656e+00
0	 9.222252228103468e+00	 0.000000000000000e+00	 9.798349043846724e+00
0	 9.259292592950004e+00	 0.000000000000000e+00	 9.792076402049936e+00
0	 9.259292592950004e+00	 0.000000000000000e+00	 9.792076402049934e+00
0	 9.296322966028265e+00	 0.000000000000000e+00	 9.785722229822865e+00
0	 9.333353355768113e+00	 0.000000000000000e+00	 9.779286180437925e+00
0	 9.370383778832126e+00	 0.000000000000000e+00	 9.772764319242766e+00
0	 9.407414251882889e+00	 0.000000000000000e+00	 9.766152711454652e+00
0	 9.444444791582987e+00	 0.000000000000000e+00	 9.759447422160495e+00
0	 9.481475414595002e+00	 0.000000000000000e+00	 9.752644516316908e+00
0	 9.518506137581515e+00	 0.000000000000000e+00	 9.745740058750169e+00
0	 9.555536977205113e+00	 0.000000000000000e+00	 9.738730114156249e+00
0	 9.592567950128375e+00	 0.000000000000000e+00	 9.731610747100792e+00
0	 9.629599073013889e+00	 0.000000000000000e+00	 9.724378022019170e+00
0	 9.629599073013889e+00	 0.000000000000000e+00	 9.724378022019170e+00
0	 9.666640340670911e+00	 0.000000000000000e+00	 9.717032612396549e+00
0	 9.703681658365491e+00	 0.000000000000000e+00	 9.709578294187498e+00
0	 9.740722909420342e+00	 0.000000000000000e+00	 9.702009879709703e+00
0	 9.777763977158179e+00	 0.000000000000000e+00	 9.694322182451852e+00
0	 9.814804744901718e+00	 0.000000000000000e+00	 9.686510017074141e+00
0	 9.851845095973676e+00	 0.000000000000000e+00	 9.678568199408772e+00
0	 9.888884913696767e+00	 0.000000000000000e+00	 9.670491546460546e+00
0	 9.925924081393710e+00	 0.000000000000000e+00	 9.662274876407505e+00
0	 9.962962482387216e+00	 0.000000000000000e+00	 9.653913008601631e+00
0	 1.000000000000000e+01	 0.000000000000000e+00	 9.645400763569496e+00
1	 1.000000000000000e+00	 0.000000000000000e+00	 3.084059781887711e+01
1	 1.007407503517698e+00	 0.000000000000000e+00	 3.030956242074596e+01
1	 1.014815183713579e+00	 0.000000000000000e+00	 2.979750792462865e+01
1	 1.022223017251828e+00	 0.000000000000000e+00	 2.930331955494686e+01
1	 1.029630980796626e+00	 0.000000000000000e+00	 2.882591444282951e+01
1	 1.037039051012158e+00	 0.000000000000000e+00	 2.836424048812673e+01
1	 1.044447204562606e+00	 0.000000000000000e+00	 2.791727526931133e+01
1	 1.051855418112154e+00	 0.000000000000000e+00	 2.748402499893359e+01
1	 1.059263668324984e+00	 0.000000000000000e+00	 2.706352352242231e+01
1	 1.066671931865279e+00	 0.000000000000000e+00	 2.665483135814873e+01
1	 1.074080185397223e+00	 0.000000000000000e+00	 2.625703477678191e+01
1	 1.074080185397223e+00	 0.000000000000000e+00	 2.625703477678191e+01
1	 1.081486409973758e+00	 0.000000000000000e+00	 2.587162226096804e+01
1	 1.088892604556845e+00	 0.000000000000000e+00	 2.550000824079043e+01
1	 1.096298772479197e+00	 0.000000000000000e+00	 2.514151866141685e+01
1	 1.103704917073534e+00	 0.000000000000000e+00	 2.479549757363489e+01
1	 1.111111041672570e+00	 0.000000000000000e+00	 2.446130653014555e+01
1	 1.118517149609023e+00	 0.000000000000000e+00	 2.413832400588543e+01
1	 1.125923244215609e+00	 0.000000000000000e+00	 2.382594484126912e+01
1	 1.133329328825045e+00	 0.000000000000000e+00	 2.352357970730093e+01
1	 1.140735406770048e+00	 0.000000000000000e+00	 2.323065459156106e+01
1	 1.148141481383334e+00	 0.000000000000000e+00	 2.294661030412117e+01
1	 1.148141481383334e+00	 0.000000000000000e+00	 2.294661030412117e+01
1	 1.155549554351028e+00	 0.000000000000000e+00	 2.267233985012179e+01
1	 1.162957620652889e+00	 0.000000000000000e+00	 2.240898882064506e+01
1	 1.170365673622083e+00	 0.000000000000000e+00	 2.215616858193228e+01
1	 1.177773706591777e+00	 0.000000000000000e+00	 2.191350027175871e+01
1	 1.185181712895138e+00	 0.000000000000000e+00	 2.168061449445045e+01
1	 1.192589685865332e+00	 0.000000000000000e+00	 2.145715102722837e+01
1	 1.199997618835527e+00	 0.000000000000000e+00	 2.124275853739193e+01
1	 1.207405505138888e+00	 0.000000000000000e+00	 2.103709430987819e+01
1	 1.214813338108583e+00	 0.000000000000000e+00	 2.083982398475531e+01
1	 1.222221111077777e+00	 0.000000000000000e+00	 2.065062130423004e+01
1	 1.222221111077777e+00	 0.000000000000000e+00	 2.065062130423004e+01
1	 1.229628820713022e+00	 0.000000000000000e+00	 2.046963581593866e+01
1	 1.237036477014400e+00	 0.000000000000000e+00	 2.029706105957507e+01
1	 1.244444093315378e+00	 0.000000000000000e+00	 2.013264723918042e+01
1	 1.251851682949422e+00	 0.000000000000000e+00	 1.997615047378999e+01
1	 1.259259259250000e+00	 0.000000000000000e+00	 1.982733262259607e+01
1	 1.266666835550578e+00	 0.000000000000000e+00	 1.968596111629867e+01
1	 1.274074425184623e+00	 0.000000000000000e+00	 1.955180879438949e+01
1	 1.281482041485601e+00	 0.000000000000000e+00	 1.942465374812761e+01
1	 1.288889697786978e+00	 0.000000000000000e+00	 1.930427916897557e+01
1	 1.296297407422223e+00	 0.000000000000000e+00	 1.919047320227585e+01
1	 1.296297407422223e+00	 0.000000000000000e+00	 1.919047320227585e+01
1	 1.303705180391418e+00	 0.000000000000000e+00	 1.908338466086245e+01
1	 1.311113013361112e+00	 0.000000000000000e+00	 1.898319719691892e+01
1	 1.318520899664473e+00	 0.000000000000000e+00	 1.888975747561040e+01
1	 1.325928832634668e+00	 0.000000000000000e+00	 1.880291559161915e+01
1	 1.333336805604862e+00	 0.000000000000000e+00	 1.872252497431442e+01
1	 1.340744811908223e+00	 0.000000000000000e+00	 1.864844229604953e+01
1	 1.348152844877917e+00	 0.000000000000000e+00	 1.858052738346698e+01
1	 1.355560897847111e+00	 0.000000000000000e+00	 1.851864313169635e+01
1	 1.362968964148972e+00	 0.000000000000000e+00	 1.846265542133629e+01
1	 1.370377037116666e+00	 0.000000000000000e+00	 1.841243303811519e+01
1	 1.370377037116666e+00	 0.000000000000000e+00	 1.841243303811519e+01
1	 1.377783111174532e+00	 0.000000000000000e+00	 1.836827849883361e+01
1	 1.385189185231599e+00	 0.000000000000000e+00	 1.833050303945511e+01
1	 1.392595259288066e+00	 0.000000000000000e+00	 1.829903027184486e+01
1	 1.400001333344133e+00	 0.000000000000000e+00	 1.827378542425526e+01
1	 1.407407407400000e+00	 0.000000000000000e+00	 1.825469529879699e+01
1	 1.414813481455867e+00	 0.000000000000000e+00	 1.824168823024601e+01
1	 1.422219555511934e+00	 0.000000000000000e+00	 1.823469404613738e+01
1	 1.429625629568401e+00	 0.000000000000000e+00	 1.823364402809975e+01
1	 1.437031703625468e+00	 0.000000000000000e+00	 1.823847087438517e+01
1	 1.444437777683334e+00	 0.000000000000000e+00	 1.824910866355187e+01
1	 1.444437777683334e+00	 0.000000000000000e+00	 1.824910866355187e+01
1	 1.451845851762150e+00	 0.000000000000000e+00	 1.826493170105865e+01
1	 1.459253925841866e+00	 0.000000000000000e+00	 1.828525450503385e+01
1	 1.466661999922383e+00	 0.000000000000000e+00	 1.830993561810854e+01
1	 1.474070074003599e+00	 0.000000000000000e+00	 1.833883642654170e+01
1	 1.481478148085416e+00	 0.000000000000000e+00	 1.837182108912306e+01
1	 1.488886222167732e+00	 0.000000000000000e+00	 1.840875646819825e+01
1	 1.496294296250449e+00	 0.000000000000000e+00	 1.844951206274305e+01
1	 1.503702370333466e+00	 0.000000000000000e+00	 1.849395994341581e+01
1	 1.511110444416683e+00	 0.000000000000000e+00	 1.854197468952034e+01
1	 1.518518518500000e+00	 0.000000000000000e+00	 1.859343332781395e+01
1	 1.518518518500000e+00	 0.000000000000000e+00	 1.859343332781395e+01
1	 1.525926592583333e+00	 0.000000000000000e+00	 1.864754559816324e+01
1	 1.533334666666667e+00	 0.000000000000000e+00	 1.870343162522946e+01
1	 1.540742740750001e+00	 0.000000000000000e+00	 1.876083949954430e+01
1	 1.548150814833334e+00	 0.000000000000000e+00	 1.881952213329894e+01
1	 1.555558888916668e+00	 0.000000000000000e+00	 1.887923714553253e+01
1	 1.562966963000002e+00	 0.000000000000000e+00	 1.893974675058578e+01
1	 1.570375037083335e+00	 0.000000000000000e+00	 1.900081764971178e+01
1	 1.577783111166669e+00	 0.000000000000000e+00	 1.906222092574023e+01
1	 1.585191185250002e+00	 0.000000000000000e+00	 1.912373194069540e+01
1	 1.592599259333336e+00	 0.000000000000000e+00	 1.918513023627142e+01
1	 1.592599259333336e+00	 0.000000000000000e+00	 1.918513023627142e+01
1	 1.600005333396652e+00	 0.000000000000000e+00	 1.924650486593972e+01
1	 1.607411407459868e+00	 0.000000000000000e+00	 1.930798841721928e+01
1	 1.614817481522885e+00	 0.000000000000000e+00	 1.936938196025134e+01
1	 1.622223555585601e+00	 0.000000000000000e+00	 1.943049019794223e+01
1	 1.629629629647917e+00	 0.000000000000000e+00	 1.949112138341540e+01
1	 1.637035703709734e+00	 0.000000000000000e+00	 1.955108723970426e+01
1	 1.644441777770951e+00	 0.000000000000000e+00	 1.961020288161485e+01
1	 1.651847851831468e+00	 0.000000000000000e+00	 1.966828673969075e+01
1	 1.659253925891185e+00	 0.000000000000000e+00	 1.972516048621414e+01
1	 1.666659999950002e+00	 0.000000000000000e+00	 1.978064896317978e+01
1	 1.666659999950002e+00	 0.000000000000000e+00	 1.978064896317978e+01
1	 1.674068074027870e+00	 0.000000000000000e+00	 1.983446810779643e+01
1	 1.681476148104936e+00	 0.000000000000000e+00	 1.988629736554004e+01
1	 1.688884222181403e+00	 0.000000000000000e+00	 1.993595593316757e+01
1	 1.696292296257469e+00	 0.000000000000000e+00	 1.998326616586286e+01
1	 1.703700370333336e+00	 0.000000000000000e+00	 2.002805350856889e+01
1	 1.711108444409202e+00	 0.000000000000000e+00	 2.007014642910383e+01
1	 1.718516518485269e+00	 0.000000000000000e+00	 2.010937635300687e+01
1	 1.725924592561735e+00	 0.000000000000000e+00	 2.014557760006198e+01
1	 1.733332666638801e+00	 0.000000000000000e+00	 2.017858732244961e+01
1	 1.740740740716668e+00	 0.000000000000000e+00	 2.020824544447745e+01
1	 1.740740740716668e+00	 0.000000000000000e+00	 2.020824544447745e+01
1	 1.748148814795485e+00	 0.000000000000000e+00	 2.023465941002149e+01
1	 1.755556888875201e+00	 0.000000000000000e+00	 2.025788663848390e+01
1	 1.762964962955718e+00	 0.000000000000000e+00	 2.027769699926634e+01
1	 1.770373037036935e+00	 0.000000000000000e+00	 2.029386421366845e+01
1	 1.777781111118752e+00	 0.000000000000000e+00	 2.030616577463273e+01
1	 1.785189185201069e+00	 0.000000000000000e+00	 2.031438286848772e+01
1	 1.792597259283785e+00	 0.000000000000000e+00	 2.031830029863155e+01
1	 1.800005333366802e+00	 0.000000000000000e+00	 2.031770641110002e+01
1	 1.807413407450019e+00	 0.000000000000000e+00	 2.031239302196508e+01
1	 1.814821481533336e+00	 0.000000000000000e+00	 2.030215534651140e+01
1	 1.814821481533336e+00	 0.000000000000000e+00	 2.030215534651140e+01
1	 1.822227555596669e+00	 0.000000000000000e+00	 2.028617297175436e+01
1	 1.829633629660002e+00	 0.000000000000000e+00	 2.026376150893858e+01
1	 1.837039703723335e+00	 0.000000000000000e+00	 2.023493291177257e+01
1	 1.844445777786667e+00	 0.000000000000000e+00	 2.019969894197445e+01
1	 1.851851851850000e+00	 0.000000000000000e+00	 2.015807117311142e+01
1	 1.859257925913333e+00	 0.000000000000000e+00	 2.011006099434727e+01
1	 1.866663999976665e+00	 0.000000000000000e+00	 2.005567961410083e+01
1	 1.874070074039998e+00	 0.000000000000000e+00	 1.999493806361796e+01
1	 1.881476148103331e+00	 0.000000000000000e+00	 1.992784720045849e+01
1	 1.888882222166664e+00	 0.000000000000000e+00	 1.985441771190176e+01
1	 1.888882222166664e+00	 0.000000000000000e+00	 1.985441771190176e+01
1	 1.896290295138858e+00	 0.000000000000000e+00	 1.977411834397992e+01
1	 1.903698361444220e+00	 0.000000000000000e+00	 1.968661328455479e+01
1	 1.911106414415914e+00	 0.000000000000000e+00	 1.959214138375020e+01
1	 1.918514447387109e+00	 0.000000000000000e+00	 1.949093778914241e+01
1	 1.925922453690970e+00	 0.000000000000000e+00	 1.938323401657539e+01
1	 1.933330426660665e+00	 0.000000000000000e+00	 1.926925801936324e+01
1	 1.940738359629359e+00	 0.000000000000000e+00	 1.914923425592271e+01
1	 1.948146245930221e+00	 0.000000000000000e+00	 1.902338375587718e+01
1	 1.955554078896416e+00	 0.000000000000000e+00	 1.889192418467184e+01
1	 1.962961851861111e+00	 0.000000000000000e+00	 1.875506990673971e+01
1	 1.962961851861111e+00	 0.000000000000000e+00	 1.875506990673971e+01
1	 1.970369561490889e+00	 0.000000000000000e+00	 1.861317205017741e+01
1	 1.977777217786000e+00	 0.000000000000000e+00	 1.846658102502968e+01
1	 1.985184834080111e+00	 0.000000000000000e+00	 1.831550533831353e+01
1	 1.992592423706888e+00	 0.000000000000000e+00	 1.816015042164852e+01
1	 2.000000000000000e+00	 0.000000000000000e+00	 1.800071868884905e+01
1	 2.007407576293111e+00	 0.000000000000000e+00	 1.783740959221256e+01
1	 2.014815165919889e+00	 0.000000000000000e+00	 1.767041967753912e+01
1	 2.022222782214000e+00	 0.000000000000000e+00	 1.749994263791481e+01
1	 2.029630438509112e+00	 0.000000000000000e+00	 1.732616936629137e+01
1	 2.037038148138890e+00	 0.000000000000000e+00	 1.714928800689340e+01
1	 2.037038148138890e+00	 0.000000000000000e+00	 1.714928800689341e+01
1	 2.044445921103584e+00	 0.000000000000000e+00	 1.696946444711014e+01
1	 2.051853754069779e+00	 0.000000000000000e+00	 1.678686373815497e+01
1	 2.059261640370641e+00	 0.000000000000000e+00	 1.660166873373658e+01
1	 2.066669573339335e+00	 0.000000000000000e+00	 1.641405965236173e+01
1	 2.074077546309030e+00	 0.000000000000000e+00	 1.622421412412244e+01
1	 2.081485552612891e+00	 0.000000000000000e+00	 1.603230723649610e+01
1	 2.088893585584086e+00	 0.000000000000000e+00	 1.583851157918327e+01
1	 2.096301638555781e+00	 0.000000000000000e+00	 1.564299728800594e+01
1	 2.103709704861142e+00	 0.000000000000000e+00	 1.544593208788947e+01
1	 2.111117777833337e+00	 0.000000000000000e+00	 1.524748133495082e+01
1	 2.111117777833337e+00	 0.000000000000000e+00	 1.524748133495082e+01
1	 2.118523851896669e+00	 0.000000000000000e+00	 1.504788134921829e+01
1	 2.125929925960002e+00	 0.000000000000000e+00	 1.484733195386573e+01
1	 2.133336000023335e+00	 0.000000000000000e+00	 1.464610044400483e+01
1	 2.140742074086667e+00	 0.000000000000000e+00	 1.444445041582930e+01
1	 2.148148148150000e+00	 0.000000000000000e+00	 1.424264183037760e+01
1	 2.155554222213333e+00	 0.000000000000000e+00	 1.404093107598160e+01
1	 2.162960296276666e+00	 0.000000000000000e+00	 1.383957102943208e+01
1	 2.170366370339999e+00	 0.000000000000000e+00	 1.363881111589196e+01
1	 2.177772444403331e+00	 0.000000000000000e+00	 1.343889736758704e+01
1	 2.185178518466663e+00	 0.000000000000000e+00	 1.324007248130327e+01
1	 2.185178518466663e+00	 0.000000000000000e+00	 1.324007248130327e+01
1	 2.192586592549980e+00	 0.000000000000000e+00	 1.304251877172539e+01
1	 2.199994666633197e+00	 0.000000000000000e+00	 1.284639630117042e+01
1	 2.207402740716215e+00	 0.000000000000000e+00	 1.265175088146396e+01
1	 2.214810814798932e+00	 0.000000000000000e+00	 1.245862771150795e+01
1	 2.222218888881248e+00	 0.000000000000000e+00	 1.226707138749697e+01
1	 2.229626962963065e+00	 0.000000000000000e+00	 1.207712591293090e+01
1	 2.237035037044282e+00	 0.000000000000000e+00	 1.188883470842858e+01
1	 2.244443111124799e+00	 0.000000000000000e+00	 1.170224062134722e+01
1	 2.251851185204516e+00	 0.000000000000000e+00	 1.151738593521191e+01
1	 2.259259259283332e+00	 0.000000000000000e+00	 1.133431237895957e+01
1	 2.259259259283332e+00	 0.000000000000000e+00	 1.133431237895957e+01
1	 2.266667333361199e+00	 0.000000000000000e+00	 1.115307164851967e+01
1	 2.274075407438264e+00	 0.000000000000000e+00	 1.097363898588148e+01
1	 2.281483481514731e+00	 0.000000000000000e+00	 1.079594174321942e+01
1	 2.288891555590798e+00	 0.000000000000000e+00	 1.061990821321683e+01
1	 2.296299629666664e+00	 0.000000000000000e+00	 1.044546761389506e+01
1	 2.303707703742532e+00	 0.000000000000000e+00	 1.027255007373533e+01
1	 2.311115777818598e+00	 0.000000000000000e+00	 1.010108661708689e+01
1	 2.318523851895065e+00	 0.000000000000000e+00	 9.931009149854553e+00
1	 2.325931925972132e+00	 0.000000000000000e+00	 9.762250445460207e+00
1	 2.333340000049998e+00	 0.000000000000000e+00	 9.594744131071357e+00
1	 2.333340000049998e+00	 0.000000000000000e+00	 9.594744131071357e+00
1	 2.340746074108815e+00	 0.000000000000000e+00	 9.428405952125091e+00
1	 2.348152148168532e+00	 0.000000000000000e+00	 9.263049964139212e+00
1	 2.355558222229050e+00	 0.000000000000000e+00	 9.098593855191591e+00
1	 2.362964296290266e+00	 0.000000000000000e+00	 8.934956345298060e+00
1	 2.370370370352083e+00	 0.000000000000000e+00	 8.772057170291035e+00
1	 2.377776444414399e+00	 0.000000000000000e+00	 8.609817065999842e+00
1	 2.385182518477116e+00	 0.000000000000000e+00	 8.448157752725612e+00
1	 2.392588592540132e+00	 0.000000000000000e+00	 8.287001920004354e+00
1	 2.399994666603348e+00	 0.000000000000000e+00	 8.126273211652357e+00
1	 2.407400740666664e+00	 0.000000000000000e+00	 7.965896211087539e+00
1	 2.407400740666664e+00	 0.000000000000000e+00	 7.965896211087540e+00
1	 2.414808814749997e+00	 0.000000000000000e+00	 7.805928035745737e+00
1	 2.422216888833331e+00	 0.000000000000000e+00	 7.646533323101647e+00
1	 2.429624962916665e+00	 0.000000000000000e+00	 7.487669220493758e+00
1	 2.437033036999999e+00	 0.000000000000000e+00	 7.329293396313301e+00
1	 2.444441111083332e+00	 0.000000000000000e+00	 7.171364032108924e+00
1	 2.451849185166666e+00	 0.000000000000000e+00	 7.013839814834137e+00
1	 2.459257259250000e+00	 0.000000000000000e+00	 6.856679929235137e+00
1	 2.466665333333334e+00	 0.000000000000000e+00	 6.699844050376067e+00
1	 2.474073407416667e+00	 0.000000000000000e+00	 6.543292336297785e+00
1	 2.481481481500000e+00	 0.000000000000000e+00	 6.386985420809010e+00
1	 2.481481481500000e+00	 0.000000000000000e+00	 6.386985420809010e+00
1	 2.488889555583317e+00	 0.000000000000000e+00	 6.230449668279213e+00
1	 2.496297629666534e+00	 0.000000000000000e+00	 6.073172250214130e+00
1	 2.503705703749551e+00	 0.000000000000000e+00	 5.915056231841671e+00
1	 2.511113777832268e+00	 0.000000000000000e+00	 5.756005822263860e+00
1	 2.518521851914584e+00	 0.000000000000000e+00	 5.595926357633870e+00
1	 2.525929925996401e+00	 0.000000000000000e+00	 5.434724284628835e+00
1	 2.533338000077618e+00	 0.000000000000000e+00	 5.272307144212538e+00
1	 2.540746074158134e+00	 0.000000000000000e+00	 5.108583555682767e+00
1	 2.548154148237851e+00	 0.000000000000000e+00	 4.943463200996033e+00
1	 2.555562222316666e+00	 0.000000000000000e+00	 4.776856809365694e+00
1	 2.555562222316666e+00	 0.000000000000000e+00	 4.776856809365695e+00
1	 2.562968296374532e+00	 0.000000000000000e+00	 4.610305222414736e+00
1	 2.570374370431599e+00	 0.000000000000000e+00	 4.445304819421472e+00
1	 2.577780444488066e+00	 0.000000000000000e+00	 4.281836147611943e+00
1	 2.585186518544133e+00	 0.000000000000000e+00	 4.119879977127092e+00
1	 2.592592592600000e+00	 0.000000000000000e+00	 3.959417297838808e+00
1	 2.599998666655867e+00	 0.000000000000000e+00	 3.800429316220284e+00
1	 2.607404740711934e+00	 0.000000000000000e+00	 3.642897452269896e+00
1	 2.614810814768401e+00	 0.000000000000000e+00	 3.486803336487185e+00
1	 2.622216888825468e+00	 0.000000000000000e+00	 3.332128806900158e+00
1	 2.629622962883334e+00	 0.000000000000000e+00	 3.178855906142896e+00
1	 2.629622962883334e+00	 0.000000000000000e+00	 3.178855906142895e+00
1	 2.637031035851029e+00	 0.000000000000000e+00	 3.028468232647227e+00
1	 2.644439102152889e+00	 0.000000000000000e+00	 2.882516145909389e+00
1	 2.651847155122083e+00	 0.000000000000000e+00	 2.740958726846214e+00
1	 2.659255188091778e+00	 0.000000000000000e+00	 2.603755526821821e+00
1	 2.666663194395138e+00	 0.000000000000000e+00	 2.470866561386736e+00
1	 2.674071167365332e+00	 0.000000000000000e+00	 2.342252304119050e+00
1	 2.681479100335528e+00	 0.000000000000000e+00	 2.217873680566191e+00
1	 2.688886986638889e+00	 0.000000000000000e+00	 2.097692062285081e+00
1	 2.696294819608584e+00	 0.000000000000000e+00	 1.981669260979019e+00
1	 2.703702592577777e+00	 0.000000000000000e+00	 1.869767522729350e+00
1	 2.703702592577777e+00	 0.000000000000000e+00	 1.869767522729350e+00
1	 2.711110302213022e+00	 0.000000000000000e+00	 1.761556436222058e+00
1	 2.718517958514400e+00	 0.000000000000000e+00	 1.656624463119718e+00
1	 2.725925574815378e+00	 0.000000000000000e+00	 1.554962539646038e+00
1	 2.733333164449423e+00	 0.000000000000000e+00	 1.456561678587116e+00
1	 2.740740740750001e+00	 0.000000000000000e+00	 1.361412967835092e+00
1	 2.748148317050578e+00	 0.000000000000000e+00	 1.269507568956854e+00
1	 2.755555906684623e+00	 0.000000000000000e+00	 1.180836715787382e+00
1	 2.762963522985601e+00	 0.000000000000000e+00	 1.095391713047220e+00
1	 2.770371179286979e+00	 0.000000000000000e+00	 1.013163934983633e+00
1	 2.777778888922223e+00	 0.000000000000000e+00	 9.341448240349942e-01
1	 2.777778888922223e+00	 0.000000000000000e+00	 9.341448240349942e-01
1	 2.785186661891417e+00	 0.000000000000000e+00	 8.584504102656492e-01
1	 2.792594494861112e+00	 0.000000000000000e+00	 7.861803135388126e-01
1	 2.800002381164473e+00	 0.000000000000000e+00	 7.173016836483157e-01
1	 2.807410314134668e+00	 0.000000000000000e+00	 6.517820298035306e-01
1	 2.814818287104863e+00	 0.000000000000000e+00	 5.895892161180338e-01
1	 2.822226293408224e+00	 0.000000000000000e+00	 5.306914571678977e-01
1	 2.829634326377918e+00	 0.000000000000000e+00	 4.750573136183214e-01
1	 2.837042379347112e+00	 0.000000000000000e+00	 4.226556879174569e-01
1	 2.844450445648973e+00	 0.000000000000000e+00	 3.734558200561766e-01
1	 2.851858518616666e+00	 0.000000000000000e+00	 3.274272833926450e-01
1	 2.851858518616666e+00	 0.000000000000000e+00	 3.274272833926450e-01
1	 2.859264593229952e+00	 0.000000000000000e+00	 2.845742385856659e-01
1	 2.866670671174954e+00	 0.000000000000000e+00	 2.448852964263682e-01
1	 2.874076755784391e+00	 0.000000000000000e+00	 2.083430868534900e-01
1	 2.881482850390977e+00	 0.000000000000000e+00	 1.749304110587241e-01
1	 2.888888958327430e+00	 0.000000000000000e+00	 1.446302391890795e-01
1	 2.896295082926467e+00	 0.000000000000000e+00	 1.174257080849597e-01
1	 2.903701227520803e+00	 0.000000000000000e+00	 9.330011905327561e-02
1	 2.911107395443156e+00	 0.000000000000000e+00	 7.223693567496792e-02
1	 2.918513590026242e+00	 0.000000000000000e+00	 5.421978164633675e-02
1	 2.925919814602778e+00	 0.000000000000000e+00	 3.923243865355883e-02
1	 2.925919814602778e+00	 0.000000000000000e+00	 3.923243865355883e-02
1	 2.933328068134721e+00	 0.000000000000000e+00	 2.685160646394918e-02
1	 2.940736331675017e+00	 0.000000000000000e+00	 1.665794905259653e-02
1	 2.948144581887846e+00	 0.000000000000000e+00	 8.630579996645699e-03
1	 2.955552795437394e+00	 0.000000000000000e+00	 2.748860688197847e-03
1	 2.962960948987842e+00	 0.000000000000000e+00	-1.007602268780589e-03
1	 2.970369019203374e+00	 0.000000000000000e+00	-2.658959623934420e-03
1	 2.977776982748173e+00	 0.000000000000000e+00	-2.225122008949410e-03
1	 2.985184816286422e+00	 0.000000000000000e+00	 2.742375705073964e-04
1	 2.992592496482303e+00	 0.000000000000000e+00	 4.819681278790271e-03
1	 3.000000000000000e+00	 0.000000000000000e+00	 1.139200402968241e-02
