patch_n	x	y	stress_yy
0	 0.000000000000000e+00	 0.000000000000000e+00	 6.781472573198537e-03
0	 3.703703703703703e-02	 0.000000000000000e+00	 1.546423501772693e-03
0	 7.407407407407410e-02	 0.000000000000000e+00	-1.216632136988304e-03
0	 1.111111111111111e-01	 0.000000000000000e+00	-1.963104039292225e-03
0	 1.481481481481482e-01	 0.000000000000000e+00	-1.148401901346857e-03
0	 1.851851851851852e-01	 0.000000000000000e+00	 7.720645806400301e-04
0	 2.222222222222223e-01	 0.000000000000000e+00	 3.342885710460651e-03
0	 2.592592592592593e-01	 0.000000000000000e+00	 6.108651791907237e-03
0	 2.962962962962963e-01	 0.000000000000000e+00	 8.613953128771999e-03
0	 3.333333333333333e-01	 0.000000000000000e+00	 1.040338002484716e-02
0	 3.703703703703705e-01	 0.000000000000000e+00	 1.102152278392496e-02
0	 3.703703703703705e-01	 0.000000000000000e+00	 1.102152278392496e-02
0	 4.074074074074074e-01	 0.000000000000000e+00	 1.036766236585850e-02
0	 4.444444444444445e-01	 0.000000000000000e+00	 8.789091422410425e-03
0	 4.814814814814816e-01	 0.000000000000000e+00	 6.502417795237178e-03
0	 5.185185185185186e-01	 0.000000000000000e+00	 3.724249325995238e-03
0	 5.555555555555556e-01	 0.000000000000000e+00	 6.711938563410485e-04
0	 5.925925925925926e-01	 0.000000000000000e+00	-2.440140772068933e-03
0	 6.296296296296297e-01	 0.000000000000000e+00	-5.393146717578245e-03
0	 6.666666666666669e-01	 0.000000000000000e+00	-7.971216138530423e-03
0	 7.037037037037038e-01	 0.000000000000000e+00	-9.957741193269011e-03
0	 7.407407407407409e-01	 0.000000000000000e+00	-1.113611404013754e-02
0	 7.407407407407409e-01	 0.000000000000000e+00	-1.113611404013754e-02
0	 7.777777777777778e-01	 0.000000000000000e+00	-1.183409444035395e-02
0	 8.148148148148151e-01	 0.000000000000000e+00	-1.242448366898516e-02
0	 8.518518518518522e-01	 0.000000000000000e+00	-1.275823615514821e-02
0	 8.888888888888892e-01	 0.000000000000000e+00	-1.268630632796011e-02
0	 9.259259259259263e-01	 0.000000000000000e+00	-1.205964861653793e-02
0	 9.629629629629635e-01	 0.000000000000000e+00	-1.072921744999868e-02
0	 1.000000000000000e+00	 0.000000000000000e+00	-8.545967257459409e-03
0	 1.037037037037038e+00	 0.000000000000000e+00	-5.360852468037158e-03
0	 1.074074074074075e+00	 0.000000000000000e+00	-1.024827510848944e-03
0	 1.111111111111111e+00	 0.000000000000000e+00	 4.611153184988087e-03
0	 1.111111111111111e+00	 0.000000000000000e+00	 4.611153184988087e-03
0	 1.148148148148148e+00	 0.000000000000000e+00	-1.947041638013148e-02
0	 1.185185185185185e+00	 0.000000000000000e+00	-1.044927868037835e-01
0	 1.222222222222223e+00	 0.000000000000000e+00	-2.506155294120406e-01
0	 1.259259259259260e+00	 0.000000000000000e+00	-4.579982155309746e-01
0	 1.296296296296297e+00	 0.000000000000000e+00	-7.268004164866593e-01
0	 1.333333333333334e+00	 0.000000000000000e+00	-1.057181703605165e+00
0	 1.370370370370371e+00	 0.000000000000000e+00	-1.449301648212567e+00
0	 1.407407407407408e+00	 0.000000000000000e+00	-1.903319821634935e+00
0	 1.444444444444445e+00	 0.000000000000000e+00	-2.419395795198341e+00
0	 1.481481481481482e+00	 0.000000000000000e+00	-2.997689140228851e+00
0	 1.481481481481482e+00	 0.000000000000000e+00	-2.997689140228851e+00
0	 1.518518518518519e+00	 0.000000000000000e+00	-3.588270341611186e+00
0	 1.555555555555556e+00	 0.000000000000000e+00	-4.134734155341468e+00
0	 1.592592592592593e+00	 0.000000000000000e+00	-4.627526559412911e+00
0	 1.629629629629630e+00	 0.000000000000000e+00	-5.057093531818736e+00
0	 1.666666666666667e+00	 0.000000000000000e+00	-5.413881050552150e+00
0	 1.703703703703704e+00	 0.000000000000000e+00	-5.688335093606375e+00
0	 1.740740740740741e+00	 0.000000000000000e+00	-5.870901638974620e+00
0	 1.777777777777778e+00	 0.000000000000000e+00	-5.952026664650107e+00
0	 1.814814814814816e+00	 0.000000000000000e+00	-5.922156148626037e+00
0	 1.851851851851852e+00	 0.000000000000000e+00	-5.771736068895644e+00
0	 1.851851851851852e+00	 0.000000000000000e+00	-5.771736068895644e+00
0	 1.888888888888889e+00	 0.000000000000000e+00	-5.488539594733165e+00
0	 1.925925925925926e+00	 0.000000000000000e+00	-5.078132715040067e+00
0	 1.962962962962963e+00	 0.000000000000000e+00	-4.557650637250323e+00
0	 2.000000000000000e+00	 0.000000000000000e+00	-3.944228568797931e+00
0	 2.037037037037038e+00	 0.000000000000000e+00	-3.255001717116857e+00
0	 2.074074074074075e+00	 0.000000000000000e+00	-2.507105289641119e+00
0	 2.111111111111112e+00	 0.000000000000000e+00	-1.717674493804680e+00
0	 2.148148148148149e+00	 0.000000000000000e+00	-9.038445370415467e-01
0	 2.185185185185186e+00	 0.000000000000000e+00	-8.275062678570144e-02
0	 2.222222222222223e+00	 0.000000000000000e+00	 7.284720295288594e-01
0	 2.222222222222223e+00	 0.000000000000000e+00	 7.284720295288594e-01
0	 2.259259259259260e+00	 0.000000000000000e+00	 1.512551351358198e+00
0	 2.296296296296297e+00	 0.000000000000000e+00	 2.266902002029084e+00
0	 2.333333333333333e+00	 0.000000000000000e+00	 2.996418889913586e+00
0	 2.370370370370371e+00	 0.000000000000000e+00	 3.705996923383810e+00
0	 2.407407407407407e+00	 0.000000000000000e+00	 4.400531010811862e+00
0	 2.444444444444445e+00	 0.000000000000000e+00	 5.084916060569822e+00
0	 2.481481481481482e+00	 0.000000000000000e+00	 5.764046981029794e+00
0	 2.518518518518520e+00	 0.000000000000000e+00	 6.442818680563878e+00
0	 2.555555555555557e+00	 0.000000000000000e+00	 7.126126067544154e+00
0	 2.592592592592593e+00	 0.000000000000000e+00	 7.818864050342723e+00
0	 2.592592592592593e+00	 0.000000000000000e+00	 7.818864050342723e+00
0	 2.629629629629630e+00	 0.000000000000000e+00	 8.475365211500542e+00
0	 2.666666666666667e+00	 0.000000000000000e+00	 9.048525662231262e+00
0	 2.703703703703704e+00	 0.000000000000000e+00	 9.541085603916041e+00
0	 2.740740740740741e+00	 0.000000000000000e+00	 9.955785237936041e+00
0	 2.777777777777778e+00	 0.000000000000000e+00	 1.029536476567242e+01
0	 2.814814814814816e+00	 0.000000000000000e+00	 1.056256438850634e+01
0	 2.851851851851853e+00	 0.000000000000000e+00	 1.076012430781896e+01
0	 2.888888888888890e+00	 0.000000000000000e+00	 1.089078472499143e+01
0	 2.925925925925927e+00	 0.000000000000000e+00	 1.095728584140494e+01
0	 2.962962962962963e+00	 0.000000000000000e+00	 1.096236785844061e+01
0	 2.962962962962963e+00	 0.000000000000000e+00	 1.096236785844061e+01
0	 3.000000000000000e+00	 0.000000000000000e+00	 1.093820901551652e+01
0	 3.037037037037038e+00	 0.000000000000000e+00	 1.091510598113582e+01
0	 3.074074074074074e+00	 0.000000000000000e+00	 1.089297660030731e+01
0	 3.111111111111112e+00	 0.000000000000000e+00	 1.087173871803978e+01
0	 3.148148148148149e+00	 0.000000000000000e+00	 1.085131017934203e+01
0	 3.185185185185186e+00	 0.000000000000000e+00	 1.083160882922287e+01
0	 3.222222222222223e+00	 0.000000000000000e+00	 1.081255251269110e+01
0	 3.259259259259260e+00	 0.000000000000000e+00	 1.079405907475550e+01
0	 3.296296296296297e+00	 0.000000000000000e+00	 1.077604636042489e+01
0	 3.333333333333333e+00	 0.000000000000000e+00	 1.075843221470806e+01
0	 3.333333333333333e+00	 0.000000000000000e+00	 1.075843221470806e+01
0	 3.370370370370370e+00	 0.000000000000000e+00	 1.074132511867426e+01
0	 3.407407407407408e+00	 0.000000000000000e+00	 1.072487199209471e+01
0	 3.444444444444445e+00	 0.000000000000000e+00	 1.070904833803123e+01
0	 3.481481481481481e+00	 0.000000000000000e+00	 1.069382965954560e+01
0	 3.518518518518518e+00	 0.000000000000000e+00	 1.067919145969962e+01
0	 3.555555555555555e+00	 0.000000000000000e+00	 1.066510924155509e+01
0	 3.592592592592593e+00	 0.000000000000000e+00	 1.065155850817380e+01
0	 3.629629629629631e+00	 0.000000000000000e+00	 1.063851476261754e+01
0	 3.666666666666667e+00	 0.000000000000000e+00	 1.062595350794812e+01
0	 3.703703703703704e+00	 0.000000000000000e+00	 1.061385024722733e+01
0	 3.703703703703704e+00	 0.000000000000000e+00	 1.061385024722733e+01
0	 3.740740740740741e+00	 0.000000000000000e+00	 1.060209774052274e+01
0	 3.777777777777779e+00	 0.000000000000000e+00	 1.059060476050407e+01
0	 3.814814814814815e+00	 0.000000000000000e+00	 1.057937082913629e+01
0	 3.851851851851852e+00	 0.000000000000000e+00	 1.056839546838441e+01
0	 3.888888888888890e+00	 0.000000000000000e+00	 1.055767820021340e+01
0	 3.925925925925927e+00	 0.000000000000000e+00	 1.054721854658825e+01
0	 3.962962962962964e+00	 0.000000000000000e+00	 1.053701602947395e+01
0	 4.000000000000001e+00	 0.000000000000000e+00	 1.052707017083549e+01
0	 4.037037037037039e+00	 0.000000000000000e+00	 1.051738049263786e+01
0	 4.074074074074075e+00	 0.000000000000000e+00	 1.050794651684604e+01
0	 4.074074074074075e+00	 0.000000000000000e+00	 1.050794651684604e+01
0	 4.111111111111112e+00	 0.000000000000000e+00	 1.049877135984275e+01
0	 4.148148148148150e+00	 0.000000000000000e+00	 1.048985048177212e+01
0	 4.185185185185186e+00	 0.000000000000000e+00	 1.048117192024121e+01
0	 4.222222222222223e+00	 0.000000000000000e+00	 1.047272371285709e+01
0	 4.259259259259260e+00	 0.000000000000000e+00	 1.046449389722682e+01
0	 4.296296296296298e+00	 0.000000000000000e+00	 1.045647051095748e+01
0	 4.333333333333334e+00	 0.000000000000000e+00	 1.044864159165612e+01
0	 4.370370370370371e+00	 0.000000000000000e+00	 1.044099517692983e+01
0	 4.407407407407409e+00	 0.000000000000000e+00	 1.043351930438567e+01
0	 4.444444444444446e+00	 0.000000000000000e+00	 1.042620201163069e+01
0	 4.444444444444446e+00	 0.000000000000000e+00	 1.042620201163069e+01
0	 4.481481481481483e+00	 0.000000000000000e+00	 1.041900884769485e+01
0	 4.518518518518519e+00	 0.000000000000000e+00	 1.041191509213058e+01
0	 4.555555555555555e+00	 0.000000000000000e+00	 1.040492337832876e+01
0	 4.592592592592593e+00	 0.000000000000000e+00	 1.039803633968021e+01
0	 4.629629629629631e+00	 0.000000000000000e+00	 1.039125660957581e+01
0	 4.666666666666668e+00	 0.000000000000000e+00	 1.038458682140641e+01
0	 4.703703703703704e+00	 0.000000000000000e+00	 1.037802960856284e+01
0	 4.740740740740740e+00	 0.000000000000000e+00	 1.037158760443599e+01
0	 4.777777777777779e+00	 0.000000000000000e+00	 1.036526344241669e+01
0	 4.814814814814815e+00	 0.000000000000000e+00	 1.035905975589581e+01
0	 4.814814814814815e+00	 0.000000000000000e+00	 1.035905975589581e+01
0	 4.851851851851853e+00	 0.000000000000000e+00	 1.035297083129808e+01
0	 4.888888888888888e+00	 0.000000000000000e+00	 1.034698623118444e+01
0	 4.925925925925926e+00	 0.000000000000000e+00	 1.034110150315002e+01
0	 4.962962962962963e+00	 0.000000000000000e+00	 1.033531219478998e+01
0	 5.000000000000002e+00	 0.000000000000000e+00	 1.032961385369944e+01
0	 5.037037037037037e+00	 0.000000000000000e+00	 1.032400202747355e+01
0	 5.074074074074074e+00	 0.000000000000000e+00	 1.031847226370745e+01
0	 5.111111111111111e+00	 0.000000000000000e+00	 1.031302010999628e+01
0	 5.148148148148147e+00	 0.000000000000000e+00	 1.030764111393518e+01
0	 5.185185185185185e+00	 0.000000000000000e+00	 1.030233082311929e+01
0	 5.185185185185185e+00	 0.000000000000000e+00	 1.030233082311929e+01
0	 5.222222222222222e+00	 0.000000000000000e+00	 1.029707662821272e+01
0	 5.259259259259261e+00	 0.000000000000000e+00	 1.029186951627011e+01
0	 5.296296296296299e+00	 0.000000000000000e+00	 1.028671042947239e+01
0	 5.333333333333337e+00	 0.000000000000000e+00	 1.028160031000050e+01
0	 5.370370370370373e+00	 0.000000000000000e+00	 1.027654010003535e+01
0	 5.407407407407410e+00	 0.000000000000000e+00	 1.027153074175789e+01
0	 5.444444444444448e+00	 0.000000000000000e+00	 1.026657317734907e+01
0	 5.481481481481485e+00	 0.000000000000000e+00	 1.026166834898979e+01
0	 5.518518518518523e+00	 0.000000000000000e+00	 1.025681719886099e+01
0	 5.555555555555557e+00	 0.000000000000000e+00	 1.025202066914362e+01
0	 5.555555555555557e+00	 0.000000000000000e+00	 1.025202066914362e+01
0	 5.592592592592593e+00	 0.000000000000000e+00	 1.024727349768531e+01
0	 5.629629629629630e+00	 0.000000000000000e+00	 1.024256878847203e+01
0	 5.666666666666667e+00	 0.000000000000000e+00	 1.023790503289222e+01
0	 5.703703703703703e+00	 0.000000000000000e+00	 1.023328072233426e+01
0	 5.740740740740740e+00	 0.000000000000000e+00	 1.022869434818661e+01
0	 5.777777777777774e+00	 0.000000000000000e+00	 1.022414440183766e+01
0	 5.814814814814812e+00	 0.000000000000000e+00	 1.021962937467584e+01
0	 5.851851851851849e+00	 0.000000000000000e+00	 1.021514775808956e+01
0	 5.888888888888886e+00	 0.000000000000000e+00	 1.021069804346726e+01
0	 5.925925925925926e+00	 0.000000000000000e+00	 1.020627872219733e+01
0	 5.925925925925926e+00	 0.000000000000000e+00	 1.020627872219733e+01
0	 5.962962962962964e+00	 0.000000000000000e+00	 1.020188440912880e+01
0	 6.000000000000002e+00	 0.000000000000000e+00	 1.019751071611475e+01
0	 6.037037037037040e+00	 0.000000000000000e+00	 1.019315763004964e+01
0	 6.074074074074075e+00	 0.000000000000000e+00	 1.018882513782802e+01
0	 6.111111111111114e+00	 0.000000000000000e+00	 1.018451322634439e+01
0	 6.148148148148152e+00	 0.000000000000000e+00	 1.018022188249322e+01
0	 6.185185185185189e+00	 0.000000000000000e+00	 1.017595109316905e+01
0	 6.222222222222227e+00	 0.000000000000000e+00	 1.017170084526634e+01
0	 6.259259259259266e+00	 0.000000000000000e+00	 1.016747112567964e+01
0	 6.296296296296297e+00	 0.000000000000000e+00	 1.016326192130343e+01
0	 6.296296296296297e+00	 0.000000000000000e+00	 1.016326192130343e+01
0	 6.333333333333333e+00	 0.000000000000000e+00	 1.015906982772285e+01
0	 6.370370370370369e+00	 0.000000000000000e+00	 1.015489097243507e+01
0	 6.407407407407407e+00	 0.000000000000000e+00	 1.015072464020266e+01
0	 6.444444444444442e+00	 0.000000000000000e+00	 1.014657011578815e+01
0	 6.481481481481479e+00	 0.000000000000000e+00	 1.014242668395411e+01
0	 6.518518518518515e+00	 0.000000000000000e+00	 1.013829362946309e+01
0	 6.555555555555552e+00	 0.000000000000000e+00	 1.013417023707765e+01
0	 6.592592592592589e+00	 0.000000000000000e+00	 1.013005579156034e+01
0	 6.629629629629626e+00	 0.000000000000000e+00	 1.012594957767372e+01
0	 6.666666666666666e+00	 0.000000000000000e+00	 1.012185088018032e+01
0	 6.666666666666666e+00	 0.000000000000000e+00	 1.012185088018032e+01
0	 6.703703703703703e+00	 0.000000000000000e+00	 1.011775707624188e+01
0	 6.740740740740740e+00	 0.000000000000000e+00	 1.011366570070091e+01
0	 6.777777777777778e+00	 0.000000000000000e+00	 1.010957627484120e+01
0	 6.814814814814816e+00	 0.000000000000000e+00	 1.010548831994655e+01
0	 6.851851851851854e+00	 0.000000000000000e+00	 1.010140135730073e+01
0	 6.888888888888892e+00	 0.000000000000000e+00	 1.009731490818754e+01
0	 6.925925925925928e+00	 0.000000000000000e+00	 1.009322849389075e+01
0	 6.962962962962966e+00	 0.000000000000000e+00	 1.008914163569418e+01
0	 7.000000000000004e+00	 0.000000000000000e+00	 1.008505385488158e+01
0	 7.037037037037037e+00	 0.000000000000000e+00	 1.008096467273679e+01
0	 7.037037037037037e+00	 0.000000000000000e+00	 1.008096467273679e+01
0	 7.074074074074074e+00	 0.000000000000000e+00	 1.007687221668511e+01
0	 7.111111111111110e+00	 0.000000000000000e+00	 1.007277442441484e+01
0	 7.148148148148146e+00	 0.000000000000000e+00	 1.006867053260414e+01
0	 7.185185185185182e+00	 0.000000000000000e+00	 1.006455977793115e+01
0	 7.222222222222221e+00	 0.000000000000000e+00	 1.006044139707405e+01
0	 7.259259259259255e+00	 0.000000000000000e+00	 1.005631462671096e+01
0	 7.296296296296293e+00	 0.000000000000000e+00	 1.005217870352007e+01
0	 7.333333333333328e+00	 0.000000000000000e+00	 1.004803286417955e+01
0	 7.370370370370367e+00	 0.000000000000000e+00	 1.004387634536751e+01
0	 7.407407407407405e+00	 0.000000000000000e+00	 1.003970838376214e+01
0	 7.407407407407405e+00	 0.000000000000000e+00	 1.003970838376214e+01
0	 7.444444444444444e+00	 0.000000000000000e+00	 1.003552776537038e+01
0	 7.481481481481481e+00	 0.000000000000000e+00	 1.003133316773638e+01
0	 7.518518518518520e+00	 0.000000000000000e+00	 1.002712366484412e+01
0	 7.555555555555557e+00	 0.000000000000000e+00	 1.002289833067756e+01
0	 7.592592592592593e+00	 0.000000000000000e+00	 1.001865623922071e+01
0	 7.629629629629631e+00	 0.000000000000000e+00	 1.001439646445753e+01
0	 7.666666666666670e+00	 0.000000000000000e+00	 1.001011808037202e+01
0	 7.703703703703707e+00	 0.000000000000000e+00	 1.000582016094814e+01
0	 7.740740740740746e+00	 0.000000000000000e+00	 1.000150178016987e+01
0	 7.777777777777778e+00	 0.000000000000000e+00	 9.997162012021210e+00
0	 7.777777777777778e+00	 0.000000000000000e+00	 9.997162012021210e+00
0	 7.814814814814814e+00	 0.000000000000000e+00	 9.992800151635397e+00
0	 7.851851851851851e+00	 0.000000000000000e+00	 9.988415284287345e+00
0	 7.888888888888888e+00	 0.000000000000000e+00	 9.984006169173520e+00
0	 7.925925925925924e+00	 0.000000000000000e+00	 9.979571565490399e+00
0	 7.962962962962960e+00	 0.000000000000000e+00	 9.975110232434437e+00
0	 7.999999999999997e+00	 0.000000000000000e+00	 9.970620929202113e+00
0	 8.037037037037035e+00	 0.000000000000000e+00	 9.966102414989901e+00
0	 8.074074074074069e+00	 0.000000000000000e+00	 9.961553448994261e+00
0	 8.111111111111109e+00	 0.000000000000000e+00	 9.956972790411669e+00
0	 8.148148148148149e+00	 0.000000000000000e+00	 9.952359198438588e+00
0	 8.148148148148149e+00	 0.000000000000000e+00	 9.952359198438588e+00
0	 8.185185185185185e+00	 0.000000000000000e+00	 9.947712524951930e+00
0	 8.222222222222221e+00	 0.000000000000000e+00	 9.943032356283476e+00
0	 8.259259259259260e+00	 0.000000000000000e+00	 9.938317053312057e+00
0	 8.296296296296299e+00	 0.000000000000000e+00	 9.933564976916500e+00
0	 8.333333333333336e+00	 0.000000000000000e+00	 9.928774487975627e+00
0	 8.370370370370374e+00	 0.000000000000000e+00	 9.923943947368274e+00
0	 8.407407407407410e+00	 0.000000000000000e+00	 9.919071715973260e+00
0	 8.444444444444448e+00	 0.000000000000000e+00	 9.914156154669410e+00
0	 8.481481481481486e+00	 0.000000000000000e+00	 9.909195624335537e+00
0	 8.518518518518521e+00	 0.000000000000000e+00	 9.904188485850497e+00
0	 8.518518518518521e+00	 0.000000000000000e+00	 9.904188485850499e+00
0	 8.555555555555555e+00	 0.000000000000000e+00	 9.899135167170176e+00
0	 8.592592592592592e+00	 0.000000000000000e+00	 9.894035733499090e+00
0	 8.629629629629628e+00	 0.000000000000000e+00	 9.888888001589020e+00
0	 8.666666666666666e+00	 0.000000000000000e+00	 9.883689788191703e+00
0	 8.703703703703702e+00	 0.000000000000000e+00	 9.878438910058916e+00
0	 8.740740740740737e+00	 0.000000000000000e+00	 9.873133183942402e+00
0	 8.777777777777775e+00	 0.000000000000000e+00	 9.867770426593921e+00
0	 8.814814814814810e+00	 0.000000000000000e+00	 9.862348454765243e+00
0	 8.851851851851849e+00	 0.000000000000000e+00	 9.856865085208122e+00
0	 8.888888888888888e+00	 0.000000000000000e+00	 9.851318134674312e+00
0	 8.888888888888888e+00	 0.000000000000000e+00	 9.851318134674313e+00
0	 8.925925925925926e+00	 0.000000000000000e+00	 9.845708662704672e+00
0	 8.962962962962962e+00	 0.000000000000000e+00	 9.840037241406879e+00
0	 9.000000000000002e+00	 0.000000000000000e+00	 9.834300956382947e+00
0	 9.037037037037040e+00	 0.000000000000000e+00	 9.828496893234886e+00
0	 9.074074074074074e+00	 0.000000000000000e+00	 9.822622137564714e+00
0	 9.111111111111112e+00	 0.000000000000000e+00	 9.816673774974433e+00
0	 9.148148148148151e+00	 0.000000000000000e+00	 9.810648891066073e+00
0	 9.185185185185187e+00	 0.000000000000000e+00	 9.804544571441619e+00
0	 9.222222222222227e+00	 0.000000000000000e+00	 9.798357901703106e+00
0	 9.259259259259260e+00	 0.000000000000000e+00	 9.792085967452543e+00
0	 9.259259259259260e+00	 0.000000000000000e+00	 9.792085967452543e+00
0	 9.296296296296296e+00	 0.000000000000000e+00	 9.785730780379279e+00
0	 9.333333333333332e+00	 0.000000000000000e+00	 9.779293675550809e+00
0	 9.370370370370370e+00	 0.000000000000000e+00	 9.772770723636389e+00
0	 9.407407407407407e+00	 0.000000000000000e+00	 9.766157995305260e+00
0	 9.444444444444443e+00	 0.000000000000000e+00	 9.759451561226683e+00
0	 9.481481481481477e+00	 0.000000000000000e+00	 9.752647492069887e+00
0	 9.518518518518514e+00	 0.000000000000000e+00	 9.745741858504140e+00
0	 9.555555555555550e+00	 0.000000000000000e+00	 9.738730731198681e+00
0	 9.592592592592588e+00	 0.000000000000000e+00	 9.731610180822756e+00
0	 9.629629629629630e+00	 0.000000000000000e+00	 9.724376278045634e+00
0	 9.629629629629630e+00	 0.000000000000000e+00	 9.724376278045634e+00
0	 9.666666666666666e+00	 0.000000000000000e+00	 9.717031733710359e+00
0	 9.703703703703702e+00	 0.000000000000000e+00	 9.709578388007987e+00
0	 9.740740740740740e+00	 0.000000000000000e+00	 9.702011005629696e+00
0	 9.777777777777779e+00	 0.000000000000000e+00	 9.694324351266676e+00
0	 9.814814814814817e+00	 0.000000000000000e+00	 9.686513189610078e+00
0	 9.851851851851855e+00	 0.000000000000000e+00	 9.678572285351120e+00
0	 9.888888888888893e+00	 0.000000000000000e+00	 9.670496403180945e+00
0	 9.925925925925931e+00	 0.000000000000000e+00	 9.662280307790757e+00
0	 9.962962962962967e+00	 0.000000000000000e+00	 9.653918763871671e+00
0	 1.000000000000000e+01	 0.000000000000000e+00	 9.645406536115020e+00
1	 1.000000000000000e+00	 0.000000000000000e+00	 3.088793045700380e+01
1	 1.011764705882353e+00	 0.000000000000000e+00	 3.004385151982821e+01
1	 1.023529411764706e+00	 0.000000000000000e+00	 2.924982376646879e+01
1	 1.035294117647059e+00	 0.000000000000000e+00	 2.850186875209562e+01
1	 1.047058823529412e+00	 0.000000000000000e+00	 2.779618683838815e+01
1	 1.058823529411765e+00	 0.000000000000000e+00	 2.712914725983990e+01
1	 1.070588235294118e+00	 0.000000000000000e+00	 2.649727884503271e+01
1	 1.082352941176471e+00	 0.000000000000000e+00	 2.589726134304480e+01
1	 1.094117647058824e+00	 0.000000000000000e+00	 2.532591730944569e+01
1	 1.105882352941177e+00	 0.000000000000000e+00	 2.478020451020613e+01
1	 1.117647058823530e+00	 0.000000000000000e+00	 2.425720880536132e+01
1	 1.117647058823530e+00	 0.000000000000000e+00	 2.425720880536132e+01
1	 1.129411764705883e+00	 0.000000000000000e+00	 2.376161378252054e+01
1	 1.141176470588235e+00	 0.000000000000000e+00	 2.329863792566804e+01
1	 1.152941176470588e+00	 0.000000000000000e+00	 2.286632329456594e+01
1	 1.164705882352941e+00	 0.000000000000000e+00	 2.246279105767272e+01
1	 1.176470588235294e+00	 0.000000000000000e+00	 2.208623753670858e+01
1	 1.188235294117647e+00	 0.000000000000000e+00	 2.173493048619693e+01
1	 1.200000000000000e+00	 0.000000000000000e+00	 2.140720559185623e+01
1	 1.211764705882353e+00	 0.000000000000000e+00	 2.110146317296935e+01
1	 1.223529411764706e+00	 0.000000000000000e+00	 2.081616507500056e+01
1	 1.235294117647059e+00	 0.000000000000000e+00	 2.054983173977740e+01
1	 1.235294117647059e+00	 0.000000000000000e+00	 2.054983173977740e+01
1	 1.247058823529412e+00	 0.000000000000000e+00	 2.030300180394747e+01
1	 1.258823529411765e+00	 0.000000000000000e+00	 2.007653219662828e+01
1	 1.270588235294118e+00	 0.000000000000000e+00	 1.986948973384237e+01
1	 1.282352941176470e+00	 0.000000000000000e+00	 1.968097547689579e+01
1	 1.294117647058824e+00	 0.000000000000000e+00	 1.951012317577441e+01
1	 1.305882352941176e+00	 0.000000000000000e+00	 1.935609779668084e+01
1	 1.317647058823529e+00	 0.000000000000000e+00	 1.921809412845326e+01
1	 1.329411764705882e+00	 0.000000000000000e+00	 1.909533546297986e+01
1	 1.341176470588235e+00	 0.000000000000000e+00	 1.898707234506503e+01
1	 1.352941176470588e+00	 0.000000000000000e+00	 1.889258138751996e+01
1	 1.352941176470588e+00	 0.000000000000000e+00	 1.889258138751996e+01
1	 1.364705882352941e+00	 0.000000000000000e+00	 1.881263423936971e+01
1	 1.376470588235294e+00	 0.000000000000000e+00	 1.874812034195674e+01
1	 1.388235294117647e+00	 0.000000000000000e+00	 1.869852528688789e+01
1	 1.400000000000000e+00	 0.000000000000000e+00	 1.866335195680844e+01
1	 1.411764705882353e+00	 0.000000000000000e+00	 1.864211980494214e+01
1	 1.423529411764706e+00	 0.000000000000000e+00	 1.863436417035656e+01
1	 1.435294117647059e+00	 0.000000000000000e+00	 1.863963562690402e+01
1	 1.447058823529412e+00	 0.000000000000000e+00	 1.865749936392123e+01
1	 1.458823529411765e+00	 0.000000000000000e+00	 1.868753459689539e+01
1	 1.470588235294118e+00	 0.000000000000000e+00	 1.872933400641806e+01
1	 1.470588235294118e+00	 0.000000000000000e+00	 1.872933400641806e+01
1	 1.482352941176470e+00	 0.000000000000000e+00	 1.877824033358003e+01
1	 1.494117647058824e+00	 0.000000000000000e+00	 1.882944629811878e+01
1	 1.505882352941176e+00	 0.000000000000000e+00	 1.888234391588141e+01
1	 1.517647058823529e+00	 0.000000000000000e+00	 1.893634405493683e+01
1	 1.529411764705882e+00	 0.000000000000000e+00	 1.899087571049031e+01
1	 1.541176470588235e+00	 0.000000000000000e+00	 1.904538531300800e+01
1	 1.552941176470588e+00	 0.000000000000000e+00	 1.909933606779041e+01
1	 1.564705882352941e+00	 0.000000000000000e+00	 1.915220732433955e+01
1	 1.576470588235294e+00	 0.000000000000000e+00	 1.920349397396336e+01
1	 1.588235294117647e+00	 0.000000000000000e+00	 1.925270587415319e+01
1	 1.588235294117647e+00	 0.000000000000000e+00	 1.925270587415319e+01
1	 1.600000000000000e+00	 0.000000000000000e+00	 1.929913213035256e+01
1	 1.611764705882353e+00	 0.000000000000000e+00	 1.934206130948033e+01
1	 1.623529411764706e+00	 0.000000000000000e+00	 1.938102378934536e+01
1	 1.635294117647059e+00	 0.000000000000000e+00	 1.941556346206414e+01
1	 1.647058823529411e+00	 0.000000000000000e+00	 1.944523725140701e+01
1	 1.658823529411765e+00	 0.000000000000000e+00	 1.946961465068275e+01
1	 1.670588235294117e+00	 0.000000000000000e+00	 1.948827728014916e+01
1	 1.682352941176470e+00	 0.000000000000000e+00	 1.950081846299388e+01
1	 1.694117647058823e+00	 0.000000000000000e+00	 1.950684281898272e+01
1	 1.705882352941176e+00	 0.000000000000000e+00	 1.950596587492238e+01
1	 1.705882352941176e+00	 0.000000000000000e+00	 1.950596587492238e+01
1	 1.717647058823529e+00	 0.000000000000000e+00	 1.949829831699486e+01
1	 1.729411764705882e+00	 0.000000000000000e+00	 1.948380669676510e+01
1	 1.741176470588235e+00	 0.000000000000000e+00	 1.946191030833669e+01
1	 1.752941176470588e+00	 0.000000000000000e+00	 1.943204403523329e+01
1	 1.764705882352941e+00	 0.000000000000000e+00	 1.939365783075135e+01
1	 1.776470588235294e+00	 0.000000000000000e+00	 1.934621621896078e+01
1	 1.788235294117646e+00	 0.000000000000000e+00	 1.928919781540341e+01
1	 1.800000000000000e+00	 0.000000000000000e+00	 1.922209486658732e+01
1	 1.811764705882352e+00	 0.000000000000000e+00	 1.914441280742292e+01
1	 1.823529411764706e+00	 0.000000000000000e+00	 1.905566983579071e+01
1	 1.823529411764706e+00	 0.000000000000000e+00	 1.905566983579071e+01
1	 1.835294117647059e+00	 0.000000000000000e+00	 1.895482855970020e+01
1	 1.847058823529411e+00	 0.000000000000000e+00	 1.884143895716642e+01
1	 1.858823529411764e+00	 0.000000000000000e+00	 1.871590184846853e+01
1	 1.870588235294117e+00	 0.000000000000000e+00	 1.857860797035666e+01
1	 1.882352941176470e+00	 0.000000000000000e+00	 1.842993829116221e+01
1	 1.894117647058823e+00	 0.000000000000000e+00	 1.827026431416485e+01
1	 1.905882352941176e+00	 0.000000000000000e+00	 1.809994836972378e+01
1	 1.917647058823529e+00	 0.000000000000000e+00	 1.791934389665557e+01
1	 1.929411764705882e+00	 0.000000000000000e+00	 1.772879571331801e+01
1	 1.941176470588235e+00	 0.000000000000000e+00	 1.752864027883581e+01
1	 1.941176470588235e+00	 0.000000000000000e+00	 1.752864027883581e+01
1	 1.952941176470588e+00	 0.000000000000000e+00	 1.731923660732047e+01
1	 1.964705882352941e+00	 0.000000000000000e+00	 1.710105955488527e+01
1	 1.976470588235294e+00	 0.000000000000000e+00	 1.687460422434953e+01
1	 1.988235294117647e+00	 0.000000000000000e+00	 1.664035400012258e+01
1	 1.999999999999999e+00	 0.000000000000000e+00	 1.639878089286304e+01
1	 2.011764705882352e+00	 0.000000000000000e+00	 1.615034587204448e+01
1	 2.023529411764705e+00	 0.000000000000000e+00	 1.589549918692013e+01
1	 2.035294117647058e+00	 0.000000000000000e+00	 1.563468067635593e+01
1	 2.047058823529411e+00	 0.000000000000000e+00	 1.536832006797949e+01
1	 2.058823529411765e+00	 0.000000000000000e+00	 1.509683726707259e+01
1	 2.058823529411765e+00	 0.000000000000000e+00	 1.509683726707259e+01
1	 2.070588235294117e+00	 0.000000000000000e+00	 1.482068469796730e+01
1	 2.082352941176470e+00	 0.000000000000000e+00	 1.454053667894004e+01
1	 2.094117647058824e+00	 0.000000000000000e+00	 1.425712619240035e+01
1	 2.105882352941177e+00	 0.000000000000000e+00	 1.397116984126255e+01
1	 2.117647058823529e+00	 0.000000000000000e+00	 1.368336830393183e+01
1	 2.129411764705882e+00	 0.000000000000000e+00	 1.339440677420766e+01
1	 2.141176470588235e+00	 0.000000000000000e+00	 1.310495538668516e+01
1	 2.152941176470588e+00	 0.000000000000000e+00	 1.281566962820874e+01
1	 2.164705882352941e+00	 0.000000000000000e+00	 1.252719073590879e+01
1	 2.176470588235295e+00	 0.000000000000000e+00	 1.224014608232910e+01
1	 2.176470588235295e+00	 0.000000000000000e+00	 1.224014608232910e+01
1	 2.188235294117647e+00	 0.000000000000000e+00	 1.195527615633644e+01
1	 2.200000000000000e+00	 0.000000000000000e+00	 1.167291728814697e+01
1	 2.211764705882353e+00	 0.000000000000000e+00	 1.139308026381088e+01
1	 2.223529411764706e+00	 0.000000000000000e+00	 1.111577564110211e+01
1	 2.235294117647059e+00	 0.000000000000000e+00	 1.084101375552575e+01
1	 2.247058823529411e+00	 0.000000000000000e+00	 1.056880472613645e+01
1	 2.258823529411765e+00	 0.000000000000000e+00	 1.029915846117531e+01
1	 2.270588235294118e+00	 0.000000000000000e+00	 1.003208466353117e+01
1	 2.282352941176470e+00	 0.000000000000000e+00	 9.767592836033391e+00
1	 2.294117647058824e+00	 0.000000000000000e+00	 9.505692286581478e+00
1	 2.294117647058824e+00	 0.000000000000000e+00	 9.505692286581478e+00
1	 2.305882352941176e+00	 0.000000000000000e+00	 9.246854445789978e+00
1	 2.317647058823529e+00	 0.000000000000000e+00	 8.991440643337176e+00
1	 2.329411764705883e+00	 0.000000000000000e+00	 8.739297255954613e+00
1	 2.341176470588235e+00	 0.000000000000000e+00	 8.490273748278723e+00
1	 2.352941176470588e+00	 0.000000000000000e+00	 8.244222595653207e+00
1	 2.364705882352941e+00	 0.000000000000000e+00	 8.000999209235838e+00
1	 2.376470588235294e+00	 0.000000000000000e+00	 7.760461863329745e+00
1	 2.388235294117647e+00	 0.000000000000000e+00	 7.522471624862678e+00
1	 2.399999999999999e+00	 0.000000000000000e+00	 7.286892284940221e+00
1	 2.411764705882353e+00	 0.000000000000000e+00	 7.053590292402532e+00
1	 2.411764705882353e+00	 0.000000000000000e+00	 7.053590292402532e+00
1	 2.423529411764706e+00	 0.000000000000000e+00	 6.821552488528845e+00
1	 2.435294117647058e+00	 0.000000000000000e+00	 6.589682169772699e+00
1	 2.447058823529412e+00	 0.000000000000000e+00	 6.357726127633199e+00
1	 2.458823529411764e+00	 0.000000000000000e+00	 6.125435999705081e+00
1	 2.470588235294118e+00	 0.000000000000000e+00	 5.892568154295622e+00
1	 2.482352941176470e+00	 0.000000000000000e+00	 5.658883578322342e+00
1	 2.494117647058823e+00	 0.000000000000000e+00	 5.424147768383617e+00
1	 2.505882352941176e+00	 0.000000000000000e+00	 5.188130624897518e+00
1	 2.517647058823529e+00	 0.000000000000000e+00	 4.950606349208922e+00
1	 2.529411764705882e+00	 0.000000000000000e+00	 4.711353343567884e+00
1	 2.529411764705882e+00	 0.000000000000000e+00	 4.711353343567884e+00
1	 2.541176470588235e+00	 0.000000000000000e+00	 4.473130730595059e+00
1	 2.552941176470588e+00	 0.000000000000000e+00	 4.238800069845563e+00
1	 2.564705882352941e+00	 0.000000000000000e+00	 4.008297403467955e+00
1	 2.576470588235294e+00	 0.000000000000000e+00	 3.781559941790707e+00
1	 2.588235294117647e+00	 0.000000000000000e+00	 3.558526036772698e+00
1	 2.600000000000000e+00	 0.000000000000000e+00	 3.339135156174445e+00
1	 2.611764705882353e+00	 0.000000000000000e+00	 3.123327858427461e+00
1	 2.623529411764705e+00	 0.000000000000000e+00	 2.911045768179735e+00
1	 2.635294117647058e+00	 0.000000000000000e+00	 2.702231552496236e+00
1	 2.647058823529412e+00	 0.000000000000000e+00	 2.496828897694128e+00
1	 2.647058823529412e+00	 0.000000000000000e+00	 2.496828897694128e+00
1	 2.658823529411764e+00	 0.000000000000000e+00	 2.298077745826155e+00
1	 2.670588235294117e+00	 0.000000000000000e+00	 2.109147244842730e+00
1	 2.682352941176470e+00	 0.000000000000000e+00	 1.929877769098588e+00
1	 2.694117647058824e+00	 0.000000000000000e+00	 1.760112481169344e+00
1	 2.705882352941176e+00	 0.000000000000000e+00	 1.599697271237985e+00
1	 2.717647058823529e+00	 0.000000000000000e+00	 1.448480698055761e+00
1	 2.729411764705882e+00	 0.000000000000000e+00	 1.306313931429938e+00
1	 2.741176470588234e+00	 0.000000000000000e+00	 1.173050696192547e+00
1	 2.752941176470587e+00	 0.000000000000000e+00	 1.048547217605839e+00
1	 2.764705882352942e+00	 0.000000000000000e+00	 9.326621681616449e-01
1	 2.764705882352942e+00	 0.000000000000000e+00	 9.326621681616449e-01
1	 2.776470588235294e+00	 0.000000000000000e+00	 8.244868711080102e-01
1	 2.788235294117646e+00	 0.000000000000000e+00	 7.231746434970264e-01
1	 2.799999999999999e+00	 0.000000000000000e+00	 6.286795392532115e-01
1	 2.811764705882353e+00	 0.000000000000000e+00	 5.409563812730557e-01
1	 2.823529411764705e+00	 0.000000000000000e+00	 4.599607454047778e-01
1	 2.835294117647059e+00	 0.000000000000000e+00	 3.856489448269160e-01
1	 2.847058823529411e+00	 0.000000000000000e+00	 3.179780148142294e-01
1	 2.858823529411764e+00	 0.000000000000000e+00	 2.569056978797525e-01
1	 2.870588235294117e+00	 0.000000000000000e+00	 2.023904292822097e-01
1	 2.882352941176471e+00	 0.000000000000000e+00	 1.543913228883424e-01
1	 2.882352941176471e+00	 0.000000000000000e+00	 1.543913228883424e-01
1	 2.894117647058823e+00	 0.000000000000000e+00	 1.129673227469321e-01
1	 2.905882352941176e+00	 0.000000000000000e+00	 7.813002097727470e-02
1	 2.917647058823530e+00	 0.000000000000000e+00	 4.976935194093978e-02
1	 2.929411764705882e+00	 0.000000000000000e+00	 2.777701812220078e-02
1	 2.941176470588235e+00	 0.000000000000000e+00	 1.204645476558406e-02
1	 2.952941176470588e+00	 0.000000000000000e+00	 2.472795358730164e-03
1	 2.964705882352941e+00	 0.000000000000000e+00	-1.047162062904580e-03
1	 2.976470588235294e+00	 0.000000000000000e+00	 1.385012187749207e-03
1	 2.988235294117647e+00	 0.000000000000000e+00	 9.669347330248150e-03
1	 3.000000000000000e+00	 0.000000000000000e+00	 2.370744075325446e-02
