patch_n	x	y	stress_yy
0	 0.000000000000000e+00	 0.000000000000000e+00	-4.117384687771378e-04
0	 3.703703703703703e-02	 0.000000000000000e+00	-2.242284309593158e-04
0	 7.407407407407411e-02	 0.000000000000000e+00	-9.876144675576557e-06
0	 1.111111111111112e-01	 0.000000000000000e+00	 2.208226996334896e-04
0	 1.481481481481482e-01	 0.000000000000000e+00	 4.573724115272925e-04
0	 1.851851851851852e-01	 0.000000000000000e+00	 6.892773005652420e-04
0	 2.222222222222223e-01	 0.000000000000000e+00	 9.060416763067477e-04
0	 2.592592592592593e-01	 0.000000000000000e+00	 1.097169848311220e-03
0	 2.962962962962963e-01	 0.000000000000000e+00	 1.252166126138068e-03
0	 3.333333333333333e-01	 0.000000000000000e+00	 1.360534819346701e-03
0	 3.703703703703705e-01	 0.000000000000000e+00	 1.411780237496531e-03
0	 3.703703703703705e-01	 0.000000000000000e+00	 1.411780237496531e-03
0	 4.074074074074074e-01	 0.000000000000000e+00	 1.461603705750291e-03
0	 4.444444444444446e-01	 0.000000000000000e+00	 1.548087851573535e-03
0	 4.814814814814816e-01	 0.000000000000000e+00	 1.634308937979893e-03
0	 5.185185185185186e-01	 0.000000000000000e+00	 1.683343227982995e-03
0	 5.555555555555556e-01	 0.000000000000000e+00	 1.658266984596478e-03
0	 5.925925925925926e-01	 0.000000000000000e+00	 1.522156470833971e-03
0	 6.296296296296297e-01	 0.000000000000000e+00	 1.238087949709105e-03
0	 6.666666666666669e-01	 0.000000000000000e+00	 7.691376842355125e-04
0	 7.037037037037038e-01	 0.000000000000000e+00	 7.838193742682682e-05
0	 7.407407407407409e-01	 0.000000000000000e+00	-8.711030277033177e-04
0	 7.407407407407409e-01	 0.000000000000000e+00	-8.711030277033177e-04
0	 7.777777777777779e-01	 0.000000000000000e+00	-2.032986166688039e-03
0	 8.148148148148152e-01	 0.000000000000000e+00	-2.897178433504612e-03
0	 8.518518518518522e-01	 0.000000000000000e+00	-2.804966562805655e-03
0	 8.888888888888893e-01	 0.000000000000000e+00	-1.097637289243789e-03
0	 9.259259259259263e-01	 0.000000000000000e+00	 2.883522652528368e-03
0	 9.629629629629636e-01	 0.000000000000000e+00	 9.797226527858197e-03
0	 1.000000000000000e+00	 0.000000000000000e+00	 2.030218760209307e-02
0	 1.037037037037038e+00	 0.000000000000000e+00	 3.505711914058036e-02
0	 1.074074074074075e+00	 0.000000000000000e+00	 5.472073440866751e-02
0	 1.111111111111111e+00	 0.000000000000000e+00	 7.995174667170138e-02
0	 1.111111111111111e+00	 0.000000000000000e+00	 7.995174667170138e-02
0	 1.148148148148148e+00	 0.000000000000000e+00	 8.453070626045858e-02
0	 1.185185185185185e+00	 0.000000000000000e+00	 3.911190127100320e-02
0	 1.222222222222223e+00	 0.000000000000000e+00	-6.033534838338434e-02
0	 1.259259259259260e+00	 0.000000000000000e+00	-2.178417227894236e-01
0	 1.296296296296297e+00	 0.000000000000000e+00	-4.374379020338346e-01
0	 1.333333333333334e+00	 0.000000000000000e+00	-7.231545662033360e-01
0	 1.370370370370371e+00	 0.000000000000000e+00	-1.079022395384649e+00
0	 1.407407407407408e+00	 0.000000000000000e+00	-1.509072069664491e+00
0	 1.444444444444445e+00	 0.000000000000000e+00	-2.017334269129581e+00
0	 1.481481481481482e+00	 0.000000000000000e+00	-2.607839673866633e+00
0	 1.481481481481482e+00	 0.000000000000000e+00	-2.607839673866633e+00
0	 1.518518518518519e+00	 0.000000000000000e+00	-3.251240737339021e+00
0	 1.555555555555556e+00	 0.000000000000000e+00	-3.902887255912228e+00
0	 1.592592592592593e+00	 0.000000000000000e+00	-4.543855924026169e+00
0	 1.629629629629630e+00	 0.000000000000000e+00	-5.155223436120765e+00
0	 1.666666666666667e+00	 0.000000000000000e+00	-5.718066486635925e+00
0	 1.703703703703704e+00	 0.000000000000000e+00	-6.213461770011574e+00
0	 1.740740740740741e+00	 0.000000000000000e+00	-6.622485980687617e+00
0	 1.777777777777778e+00	 0.000000000000000e+00	-6.926215813103981e+00
0	 1.814814814814816e+00	 0.000000000000000e+00	-7.105727961700573e+00
0	 1.851851851851853e+00	 0.000000000000000e+00	-7.142099120917317e+00
0	 1.851851851851853e+00	 0.000000000000000e+00	-7.142099120917317e+00
0	 1.888888888888889e+00	 0.000000000000000e+00	-6.998556329126922e+00
0	 1.925925925925926e+00	 0.000000000000000e+00	-6.668145093936383e+00
0	 1.962962962962963e+00	 0.000000000000000e+00	-6.176669813637009e+00
0	 2.000000000000000e+00	 0.000000000000000e+00	-5.549934886520129e+00
0	 2.037037037037038e+00	 0.000000000000000e+00	-4.813744710877036e+00
0	 2.074074074074075e+00	 0.000000000000000e+00	-3.993903684999078e+00
0	 2.111111111111112e+00	 0.000000000000000e+00	-3.116216207177543e+00
0	 2.148148148148149e+00	 0.000000000000000e+00	-2.206486675703776e+00
0	 2.185185185185186e+00	 0.000000000000000e+00	-1.290519488869079e+00
0	 2.222222222222223e+00	 0.000000000000000e+00	-3.941190449647873e-01
0	 2.222222222222223e+00	 0.000000000000000e+00	-3.941190449647873e-01
0	 2.259259259259260e+00	 0.000000000000000e+00	 4.618610680704673e-01
0	 2.296296296296297e+00	 0.000000000000000e+00	 1.278900186603831e+00
0	 2.333333333333333e+00	 0.000000000000000e+00	 2.064693298802634e+00
0	 2.370370370370371e+00	 0.000000000000000e+00	 2.826935392834255e+00
0	 2.407407407407407e+00	 0.000000000000000e+00	 3.573321456866056e+00
0	 2.444444444444445e+00	 0.000000000000000e+00	 4.311546479065396e+00
0	 2.481481481481482e+00	 0.000000000000000e+00	 5.049305447599644e+00
0	 2.518518518518520e+00	 0.000000000000000e+00	 5.794293350636163e+00
0	 2.555555555555557e+00	 0.000000000000000e+00	 6.554205176342301e+00
0	 2.592592592592593e+00	 0.000000000000000e+00	 7.336735912885419e+00
0	 2.592592592592593e+00	 0.000000000000000e+00	 7.336735912885419e+00
0	 2.629629629629630e+00	 0.000000000000000e+00	 8.085761686926093e+00
0	 2.666666666666667e+00	 0.000000000000000e+00	 8.741822313228468e+00
0	 2.703703703703704e+00	 0.000000000000000e+00	 9.307608312115292e+00
0	 2.740740740740741e+00	 0.000000000000000e+00	 9.785810203909328e+00
0	 2.777777777777778e+00	 0.000000000000000e+00	 1.017911850893331e+01
0	 2.814814814814816e+00	 0.000000000000000e+00	 1.049022374751002e+01
0	 2.851851851851853e+00	 0.000000000000000e+00	 1.072181643996219e+01
0	 2.888888888888890e+00	 0.000000000000000e+00	 1.087658710661258e+01
0	 2.925925925925927e+00	 0.000000000000000e+00	 1.095722626778395e+01
0	 2.962962962962963e+00	 0.000000000000000e+00	 1.096642444379906e+01
0	 2.962962962962963e+00	 0.000000000000000e+00	 1.096642444379906e+01
0	 3.000000000000001e+00	 0.000000000000000e+00	 1.094137100531774e+01
0	 3.037037037037038e+00	 0.000000000000000e+00	 1.091742044574997e+01
0	 3.074074074074074e+00	 0.000000000000000e+00	 1.089451096954369e+01
0	 3.111111111111112e+00	 0.000000000000000e+00	 1.087258078114686e+01
0	 3.148148148148149e+00	 0.000000000000000e+00	 1.085156808500742e+01
0	 3.185185185185186e+00	 0.000000000000000e+00	 1.083141108557332e+01
0	 3.222222222222224e+00	 0.000000000000000e+00	 1.081204798729251e+01
0	 3.259259259259260e+00	 0.000000000000000e+00	 1.079341699461292e+01
0	 3.296296296296297e+00	 0.000000000000000e+00	 1.077545631198251e+01
0	 3.333333333333333e+00	 0.000000000000000e+00	 1.075810414384923e+01
0	 3.333333333333333e+00	 0.000000000000000e+00	 1.075810414384923e+01
0	 3.370370370370370e+00	 0.000000000000000e+00	 1.074132211964425e+01
0	 3.407407407407408e+00	 0.000000000000000e+00	 1.072510240318167e+01
0	 3.444444444444445e+00	 0.000000000000000e+00	 1.070942900048379e+01
0	 3.481481481481481e+00	 0.000000000000000e+00	 1.069428591757293e+01
0	 3.518518518518518e+00	 0.000000000000000e+00	 1.067965716047139e+01
0	 3.555555555555555e+00	 0.000000000000000e+00	 1.066552673520150e+01
0	 3.592592592592593e+00	 0.000000000000000e+00	 1.065187864778555e+01
0	 3.629629629629631e+00	 0.000000000000000e+00	 1.063869690424587e+01
0	 3.666666666666667e+00	 0.000000000000000e+00	 1.062596551060477e+01
0	 3.703703703703704e+00	 0.000000000000000e+00	 1.061366847288456e+01
0	 3.703703703703704e+00	 0.000000000000000e+00	 1.061366847288456e+01
0	 3.740740740740741e+00	 0.000000000000000e+00	 1.060175276088008e+01
0	 3.777777777777779e+00	 0.000000000000000e+00	 1.059016895166145e+01
0	 3.814814814814815e+00	 0.000000000000000e+00	 1.057890646216387e+01
0	 3.851851851851852e+00	 0.000000000000000e+00	 1.056795470932250e+01
0	 3.888888888888890e+00	 0.000000000000000e+00	 1.055730311007254e+01
0	 3.925925925925927e+00	 0.000000000000000e+00	 1.054694108134917e+01
0	 3.962962962962965e+00	 0.000000000000000e+00	 1.053685804008758e+01
0	 4.000000000000001e+00	 0.000000000000000e+00	 1.052704340322294e+01
0	 4.037037037037039e+00	 0.000000000000000e+00	 1.051748658769046e+01
0	 4.074074074074075e+00	 0.000000000000000e+00	 1.050817701042531e+01
0	 4.074074074074075e+00	 0.000000000000000e+00	 1.050817701042531e+01
0	 4.111111111111112e+00	 0.000000000000000e+00	 1.049909129058536e+01
0	 4.148148148148150e+00	 0.000000000000000e+00	 1.049021034325649e+01
0	 4.185185185185186e+00	 0.000000000000000e+00	 1.048153002926587e+01
0	 4.222222222222223e+00	 0.000000000000000e+00	 1.047304620944069e+01
0	 4.259259259259260e+00	 0.000000000000000e+00	 1.046475474460811e+01
0	 4.296296296296298e+00	 0.000000000000000e+00	 1.045665149559533e+01
0	 4.333333333333334e+00	 0.000000000000000e+00	 1.044873232322952e+01
0	 4.370370370370371e+00	 0.000000000000000e+00	 1.044099308833786e+01
0	 4.407407407407409e+00	 0.000000000000000e+00	 1.043342965174753e+01
0	 4.444444444444446e+00	 0.000000000000000e+00	 1.042603787428571e+01
0	 4.444444444444446e+00	 0.000000000000000e+00	 1.042603787428571e+01
0	 4.481481481481483e+00	 0.000000000000000e+00	 1.041879632452461e+01
0	 4.518518518518519e+00	 0.000000000000000e+00	 1.041168466700642e+01
0	 4.555555555555555e+00	 0.000000000000000e+00	 1.040470040651326e+01
0	 4.592592592592593e+00	 0.000000000000000e+00	 1.039784104782726e+01
0	 4.629629629629631e+00	 0.000000000000000e+00	 1.039110409573056e+01
0	 4.666666666666668e+00	 0.000000000000000e+00	 1.038448705500530e+01
0	 4.703703703703704e+00	 0.000000000000000e+00	 1.037798743043361e+01
0	 4.740740740740740e+00	 0.000000000000000e+00	 1.037160272679762e+01
0	 4.777777777777779e+00	 0.000000000000000e+00	 1.036533044887946e+01
0	 4.814814814814815e+00	 0.000000000000000e+00	 1.035916810146127e+01
0	 4.814814814814815e+00	 0.000000000000000e+00	 1.035916810146127e+01
0	 4.851851851851853e+00	 0.000000000000000e+00	 1.035310389072607e+01
0	 4.888888888888888e+00	 0.000000000000000e+00	 1.034712673796190e+01
0	 4.925925925925926e+00	 0.000000000000000e+00	 1.034123522060846e+01
0	 4.962962962962963e+00	 0.000000000000000e+00	 1.033542791610543e+01
0	 5.000000000000002e+00	 0.000000000000000e+00	 1.032970340189254e+01
0	 5.037037037037037e+00	 0.000000000000000e+00	 1.032406025540944e+01
0	 5.074074074074074e+00	 0.000000000000000e+00	 1.031849705409584e+01
0	 5.111111111111111e+00	 0.000000000000000e+00	 1.031301237539144e+01
0	 5.148148148148147e+00	 0.000000000000000e+00	 1.030760479673593e+01
0	 5.185185185185185e+00	 0.000000000000000e+00	 1.030227289556900e+01
0	 5.185185185185185e+00	 0.000000000000000e+00	 1.030227289556899e+01
0	 5.222222222222222e+00	 0.000000000000000e+00	 1.029700669865416e+01
0	 5.259259259259261e+00	 0.000000000000000e+00	 1.029179670524355e+01
0	 5.296296296296299e+00	 0.000000000000000e+00	 1.028664220150981e+01
0	 5.333333333333337e+00	 0.000000000000000e+00	 1.028154247362555e+01
0	 5.370370370370373e+00	 0.000000000000000e+00	 1.027649680776340e+01
0	 5.407407407407410e+00	 0.000000000000000e+00	 1.027150449009599e+01
0	 5.444444444444448e+00	 0.000000000000000e+00	 1.026656480679594e+01
0	 5.481481481481485e+00	 0.000000000000000e+00	 1.026167704403587e+01
0	 5.518518518518523e+00	 0.000000000000000e+00	 1.025684048798842e+01
0	 5.555555555555557e+00	 0.000000000000000e+00	 1.025205442482620e+01
0	 5.555555555555557e+00	 0.000000000000000e+00	 1.025205442482620e+01
0	 5.592592592592593e+00	 0.000000000000000e+00	 1.024731256570932e+01
0	 5.629629629629630e+00	 0.000000000000000e+00	 1.024260865631734e+01
0	 5.666666666666667e+00	 0.000000000000000e+00	 1.023794203460205e+01
0	 5.703703703703704e+00	 0.000000000000000e+00	 1.023331203851523e+01
0	 5.740740740740740e+00	 0.000000000000000e+00	 1.022871800600872e+01
0	 5.777777777777774e+00	 0.000000000000000e+00	 1.022415927503428e+01
0	 5.814814814814812e+00	 0.000000000000000e+00	 1.021963518354372e+01
0	 5.851851851851849e+00	 0.000000000000000e+00	 1.021514506948883e+01
0	 5.888888888888886e+00	 0.000000000000000e+00	 1.021068827082141e+01
0	 5.925925925925926e+00	 0.000000000000000e+00	 1.020626412549326e+01
0	 5.925925925925926e+00	 0.000000000000000e+00	 1.020626412549326e+01
0	 5.962962962962964e+00	 0.000000000000000e+00	 1.020186757839080e+01
0	 6.000000000000003e+00	 0.000000000000000e+00	 1.019749373673145e+01
0	 6.037037037037040e+00	 0.000000000000000e+00	 1.019314218196350e+01
0	 6.074074074074075e+00	 0.000000000000000e+00	 1.018881249553520e+01
0	 6.111111111111115e+00	 0.000000000000000e+00	 1.018450425889487e+01
0	 6.148148148148153e+00	 0.000000000000000e+00	 1.018021705349078e+01
0	 6.185185185185190e+00	 0.000000000000000e+00	 1.017595046077121e+01
0	 6.222222222222227e+00	 0.000000000000000e+00	 1.017170406218443e+01
0	 6.259259259259266e+00	 0.000000000000000e+00	 1.016747743917875e+01
0	 6.296296296296298e+00	 0.000000000000000e+00	 1.016327017320243e+01
0	 6.296296296296298e+00	 0.000000000000000e+00	 1.016327017320243e+01
0	 6.333333333333333e+00	 0.000000000000000e+00	 1.015907879987015e+01
0	 6.370370370370370e+00	 0.000000000000000e+00	 1.015489977740497e+01
0	 6.407407407407407e+00	 0.000000000000000e+00	 1.015073257116782e+01
0	 6.444444444444443e+00	 0.000000000000000e+00	 1.014657664651955e+01
0	 6.481481481481479e+00	 0.000000000000000e+00	 1.014243146882107e+01
0	 6.518518518518515e+00	 0.000000000000000e+00	 1.013829650343325e+01
0	 6.555555555555552e+00	 0.000000000000000e+00	 1.013417121571701e+01
0	 6.592592592592589e+00	 0.000000000000000e+00	 1.013005507103322e+01
0	 6.629629629629626e+00	 0.000000000000000e+00	 1.012594753474278e+01
0	 6.666666666666666e+00	 0.000000000000000e+00	 1.012184807220657e+01
0	 6.666666666666666e+00	 0.000000000000000e+00	 1.012184807220657e+01
0	 6.703703703703703e+00	 0.000000000000000e+00	 1.011775403432683e+01
0	 6.740740740740741e+00	 0.000000000000000e+00	 1.011366276043075e+01
0	 6.777777777777778e+00	 0.000000000000000e+00	 1.010957369851670e+01
0	 6.814814814814816e+00	 0.000000000000000e+00	 1.010548629658306e+01
0	 6.851851851851854e+00	 0.000000000000000e+00	 1.010140000262821e+01
0	 6.888888888888892e+00	 0.000000000000000e+00	 1.009731426465048e+01
0	 6.925925925925928e+00	 0.000000000000000e+00	 1.009322853064827e+01
0	 6.962962962962966e+00	 0.000000000000000e+00	 1.008914224861994e+01
0	 7.000000000000004e+00	 0.000000000000000e+00	 1.008505486656385e+01
0	 7.037037037037038e+00	 0.000000000000000e+00	 1.008096583247838e+01
0	 7.037037037037038e+00	 0.000000000000000e+00	 1.008096583247838e+01
0	 7.074074074074074e+00	 0.000000000000000e+00	 1.007687331503249e+01
0	 7.111111111111110e+00	 0.000000000000000e+00	 1.007277535912776e+01
0	 7.148148148148146e+00	 0.000000000000000e+00	 1.006867122711145e+01
0	 7.185185185185183e+00	 0.000000000000000e+00	 1.006456018133080e+01
0	 7.222222222222221e+00	 0.000000000000000e+00	 1.006044148413307e+01
0	 7.259259259259256e+00	 0.000000000000000e+00	 1.005631439786551e+01
0	 7.296296296296293e+00	 0.000000000000000e+00	 1.005217818487537e+01
0	 7.333333333333328e+00	 0.000000000000000e+00	 1.004803210750992e+01
0	 7.370370370370367e+00	 0.000000000000000e+00	 1.004387542811641e+01
0	 7.407407407407405e+00	 0.000000000000000e+00	 1.003970740904209e+01
0	 7.407407407407405e+00	 0.000000000000000e+00	 1.003970740904209e+01
0	 7.444444444444444e+00	 0.000000000000000e+00	 1.003552680241821e+01
0	 7.481481481481481e+00	 0.000000000000000e+00	 1.003133223047383e+01
0	 7.518518518518521e+00	 0.000000000000000e+00	 1.002712276070295e+01
0	 7.555555555555557e+00	 0.000000000000000e+00	 1.002289746059955e+01
0	 7.592592592592593e+00	 0.000000000000000e+00	 1.001865539765763e+01
0	 7.629629629629631e+00	 0.000000000000000e+00	 1.001439563937117e+01
0	 7.666666666666671e+00	 0.000000000000000e+00	 1.001011725323417e+01
0	 7.703703703703707e+00	 0.000000000000000e+00	 1.000581930674061e+01
0	 7.740740740740747e+00	 0.000000000000000e+00	 1.000150086738448e+01
0	 7.777777777777779e+00	 0.000000000000000e+00	 9.997161002659766e+00
0	 7.777777777777779e+00	 0.000000000000000e+00	 9.997161002659766e+00
0	 7.814814814814814e+00	 0.000000000000000e+00	 9.992799030383512e+00
0	 7.851851851851851e+00	 0.000000000000000e+00	 9.988414062710440e+00
0	 7.888888888888888e+00	 0.000000000000000e+00	 9.984004858641082e+00
0	 7.925925925925925e+00	 0.000000000000000e+00	 9.979570177175933e+00
0	 7.962962962962961e+00	 0.000000000000000e+00	 9.975108777315523e+00
0	 7.999999999999998e+00	 0.000000000000000e+00	 9.970619418060370e+00
0	 8.037037037037035e+00	 0.000000000000000e+00	 9.966100858410982e+00
0	 8.074074074074069e+00	 0.000000000000000e+00	 9.961551857367885e+00
0	 8.111111111111109e+00	 0.000000000000000e+00	 9.956971173931599e+00
0	 8.148148148148149e+00	 0.000000000000000e+00	 9.952357567102645e+00
0	 8.148148148148149e+00	 0.000000000000000e+00	 9.952357567102645e+00
0	 8.185185185185185e+00	 0.000000000000000e+00	 9.947710875125450e+00
0	 8.222222222222221e+00	 0.000000000000000e+00	 9.943030672027929e+00
0	 8.259259259259260e+00	 0.000000000000000e+00	 9.938315320485843e+00
0	 8.296296296296299e+00	 0.000000000000000e+00	 9.933563183174993e+00
0	 8.333333333333336e+00	 0.000000000000000e+00	 9.928772622771122e+00
0	 8.370370370370374e+00	 0.000000000000000e+00	 9.923942001950003e+00
0	 8.407407407407410e+00	 0.000000000000000e+00	 9.919069683387416e+00
0	 8.444444444444448e+00	 0.000000000000000e+00	 9.914154029759109e+00
0	 8.481481481481486e+00	 0.000000000000000e+00	 9.909193403740861e+00
0	 8.518518518518521e+00	 0.000000000000000e+00	 9.904186168008454e+00
0	 8.518518518518521e+00	 0.000000000000000e+00	 9.904186168008453e+00
0	 8.555555555555555e+00	 0.000000000000000e+00	 9.899132758127346e+00
0	 8.592592592592592e+00	 0.000000000000000e+00	 9.894033244525700e+00
0	 8.629629629629628e+00	 0.000000000000000e+00	 9.888885442173335e+00
0	 8.666666666666666e+00	 0.000000000000000e+00	 9.883687166040012e+00
0	 8.703703703703702e+00	 0.000000000000000e+00	 9.878436231095549e+00
0	 8.740740740740737e+00	 0.000000000000000e+00	 9.873130452309729e+00
0	 8.777777777777775e+00	 0.000000000000000e+00	 9.867767644652359e+00
0	 8.814814814814810e+00	 0.000000000000000e+00	 9.862345623093235e+00
0	 8.851851851851849e+00	 0.000000000000000e+00	 9.856862202602139e+00
0	 8.888888888888888e+00	 0.000000000000000e+00	 9.851315198148889e+00
0	 8.888888888888888e+00	 0.000000000000000e+00	 9.851315198148891e+00
0	 8.925925925925926e+00	 0.000000000000000e+00	 9.845705665261068e+00
0	 8.962962962962962e+00	 0.000000000000000e+00	 9.840034174068514e+00
0	 9.000000000000002e+00	 0.000000000000000e+00	 9.834297811444443e+00
0	 9.037037037037040e+00	 0.000000000000000e+00	 9.828493664262028e+00
0	 9.074074074074074e+00	 0.000000000000000e+00	 9.822618819394453e+00
0	 9.111111111111112e+00	 0.000000000000000e+00	 9.816670363714902e+00
0	 9.148148148148151e+00	 0.000000000000000e+00	 9.810645384096583e+00
0	 9.185185185185187e+00	 0.000000000000000e+00	 9.804540967412670e+00
0	 9.222222222222227e+00	 0.000000000000000e+00	 9.798354200536354e+00
0	 9.259259259259260e+00	 0.000000000000000e+00	 9.792082170340827e+00
0	 9.259259259259260e+00	 0.000000000000000e+00	 9.792082170340828e+00
0	 9.296296296296296e+00	 0.000000000000000e+00	 9.785726890633695e+00
0	 9.333333333333332e+00	 0.000000000000000e+00	 9.779289697055493e+00
0	 9.370370370370370e+00	 0.000000000000000e+00	 9.772766659228882e+00
0	 9.407407407407407e+00	 0.000000000000000e+00	 9.766153846776497e+00
0	 9.444444444444443e+00	 0.000000000000000e+00	 9.759447329320988e+00
0	 9.481481481481477e+00	 0.000000000000000e+00	 9.752643176484989e+00
0	 9.518518518518514e+00	 0.000000000000000e+00	 9.745737457891146e+00
0	 9.555555555555550e+00	 0.000000000000000e+00	 9.738726243162104e+00
0	 9.592592592592588e+00	 0.000000000000000e+00	 9.731605601920494e+00
0	 9.629629629629630e+00	 0.000000000000000e+00	 9.724371603788978e+00
0	 9.629629629629630e+00	 0.000000000000000e+00	 9.724371603788978e+00
0	 9.666666666666666e+00	 0.000000000000000e+00	 9.717026958526276e+00
0	 9.703703703703702e+00	 0.000000000000000e+00	 9.709573506725327e+00
0	 9.740740740740740e+00	 0.000000000000000e+00	 9.702006014260011e+00
0	 9.777777777777779e+00	 0.000000000000000e+00	 9.694319247004220e+00
0	 9.814814814814817e+00	 0.000000000000000e+00	 9.686507970831837e+00
0	 9.851851851851855e+00	 0.000000000000000e+00	 9.678566951616755e+00
0	 9.888888888888893e+00	 0.000000000000000e+00	 9.670490955232804e+00
0	 9.925925925925931e+00	 0.000000000000000e+00	 9.662274747553978e+00
0	 9.962962962962967e+00	 0.000000000000000e+00	 9.653913094454039e+00
0	 1.000000000000000e+01	 0.000000000000000e+00	 9.645400761806973e+00
1	 1.000000000000000e+00	 0.000000000000000e+00	 3.084059547903281e+01
1	 1.007407407407407e+00	 0.000000000000000e+00	 3.030954247152276e+01
1	 1.014814814814815e+00	 0.000000000000000e+00	 2.979749619863761e+01
1	 1.022222222222222e+00	 0.000000000000000e+00	 2.930333612912679e+01
1	 1.029629629629630e+00	 0.000000000000000e+00	 2.882597397724335e+01
1	 1.037037037037037e+00	 0.000000000000000e+00	 2.836435255111885e+01
1	 1.044444444444445e+00	 0.000000000000000e+00	 2.791744465014346e+01
1	 1.051851851851852e+00	 0.000000000000000e+00	 2.748425200893584e+01
1	 1.059259259259259e+00	 0.000000000000000e+00	 2.706380428562184e+01
1	 1.066666666666667e+00	 0.000000000000000e+00	 2.665515809226825e+01
1	 1.074074074074074e+00	 0.000000000000000e+00	 2.625739606543650e+01
1	 1.074074074074074e+00	 0.000000000000000e+00	 2.625739606543650e+01
1	 1.081481481481482e+00	 0.000000000000000e+00	 2.587190616526448e+01
1	 1.088888888888889e+00	 0.000000000000000e+00	 2.550021682350140e+01
1	 1.096296296296297e+00	 0.000000000000000e+00	 2.514165430343929e+01
1	 1.103703703703704e+00	 0.000000000000000e+00	 2.479556295526162e+01
1	 1.111111111111111e+00	 0.000000000000000e+00	 2.446130461314698e+01
1	 1.118518518518519e+00	 0.000000000000000e+00	 2.413825801632884e+01
1	 1.125925925925926e+00	 0.000000000000000e+00	 2.382581825300821e+01
1	 1.133333333333333e+00	 0.000000000000000e+00	 2.352339622607365e+01
1	 1.140740740740741e+00	 0.000000000000000e+00	 2.323041813963738e+01
1	 1.148148148148148e+00	 0.000000000000000e+00	 2.294632500544749e+01
1	 1.148148148148148e+00	 0.000000000000000e+00	 2.294632500544749e+01
1	 1.155555555555556e+00	 0.000000000000000e+00	 2.267208338250996e+01
1	 1.162962962962963e+00	 0.000000000000000e+00	 2.240876093445602e+01
1	 1.170370370370371e+00	 0.000000000000000e+00	 2.215596867781132e+01
1	 1.177777777777778e+00	 0.000000000000000e+00	 2.191332741484932e+01
1	 1.185185185185185e+00	 0.000000000000000e+00	 2.168046742778664e+01
1	 1.192592592592593e+00	 0.000000000000000e+00	 2.145702818437483e+01
1	 1.200000000000000e+00	 0.000000000000000e+00	 2.124265805439635e+01
1	 1.207407407407407e+00	 0.000000000000000e+00	 2.103701403659603e+01
1	 1.214814814814815e+00	 0.000000000000000e+00	 2.083976149560297e+01
1	 1.222222222222222e+00	 0.000000000000000e+00	 2.065057390841886e+01
1	 1.222222222222222e+00	 0.000000000000000e+00	 2.065057390841886e+01
1	 1.229629629629630e+00	 0.000000000000000e+00	 2.046959934993378e+01
1	 1.237037037037037e+00	 0.000000000000000e+00	 2.029703079823738e+01
1	 1.244444444444445e+00	 0.000000000000000e+00	 2.013261954390203e+01
1	 1.251851851851852e+00	 0.000000000000000e+00	 1.997612276411388e+01
1	 1.259259259259259e+00	 0.000000000000000e+00	 1.982730334953695e+01
1	 1.266666666666667e+00	 0.000000000000000e+00	 1.968592973725255e+01
1	 1.274074074074074e+00	 0.000000000000000e+00	 1.955177574952612e+01
1	 1.281481481481482e+00	 0.000000000000000e+00	 1.942462043816608e+01
1	 1.288888888888889e+00	 0.000000000000000e+00	 1.930424793424962e+01
1	 1.296296296296297e+00	 0.000000000000000e+00	 1.919044730300079e+01
1	 1.296296296296297e+00	 0.000000000000000e+00	 1.919044730300079e+01
1	 1.303703703703704e+00	 0.000000000000000e+00	 1.908336665069454e+01
1	 1.311111111111111e+00	 0.000000000000000e+00	 1.898318795447974e+01
1	 1.318518518518518e+00	 0.000000000000000e+00	 1.888975733976595e+01
1	 1.325925925925926e+00	 0.000000000000000e+00	 1.880292437050121e+01
1	 1.333333333333333e+00	 0.000000000000000e+00	 1.872254195365686e+01
1	 1.340740740740741e+00	 0.000000000000000e+00	 1.864846624687890e+01
1	 1.348148148148148e+00	 0.000000000000000e+00	 1.858055656918376e+01
1	 1.355555555555556e+00	 0.000000000000000e+00	 1.851867531458210e+01
1	 1.362962962962963e+00	 0.000000000000000e+00	 1.846268786851904e+01
1	 1.370370370370371e+00	 0.000000000000000e+00	 1.841246252702472e+01
1	 1.370370370370371e+00	 0.000000000000000e+00	 1.841246252702472e+01
1	 1.377777777777778e+00	 0.000000000000000e+00	 1.836829144594491e+01
1	 1.385185185185185e+00	 0.000000000000000e+00	 1.833050138301546e+01
1	 1.392592592592593e+00	 0.000000000000000e+00	 1.829901591218306e+01
1	 1.400000000000000e+00	 0.000000000000000e+00	 1.827376022487698e+01
1	 1.407407407407407e+00	 0.000000000000000e+00	 1.825466108744380e+01
1	 1.414814814814815e+00	 0.000000000000000e+00	 1.824164679991915e+01
1	 1.422222222222222e+00	 0.000000000000000e+00	 1.823464715608794e+01
1	 1.429629629629630e+00	 0.000000000000000e+00	 1.823359340478619e+01
1	 1.437037037037037e+00	 0.000000000000000e+00	 1.823841821239964e+01
1	 1.444444444444445e+00	 0.000000000000000e+00	 1.824905562651639e+01
1	 1.444444444444445e+00	 0.000000000000000e+00	 1.824905562651639e+01
1	 1.451851851851852e+00	 0.000000000000000e+00	 1.826487578138894e+01
1	 1.459259259259259e+00	 0.000000000000000e+00	 1.828519639610983e+01
1	 1.466666666666667e+00	 0.000000000000000e+00	 1.830987608533890e+01
1	 1.474074074074074e+00	 0.000000000000000e+00	 1.833877630565230e+01
1	 1.481481481481481e+00	 0.000000000000000e+00	 1.837176128449470e+01
1	 1.488888888888889e+00	 0.000000000000000e+00	 1.840869795125218e+01
1	 1.496296296296296e+00	 0.000000000000000e+00	 1.844945587037245e+01
1	 1.503703703703704e+00	 0.000000000000000e+00	 1.849390717646193e+01
1	 1.511111111111112e+00	 0.000000000000000e+00	 1.854192651129156e+01
1	 1.518518518518519e+00	 0.000000000000000e+00	 1.859339096264656e+01
1	 1.518518518518519e+00	 0.000000000000000e+00	 1.859339096264656e+01
1	 1.525925925925926e+00	 0.000000000000000e+00	 1.864750882159506e+01
1	 1.533333333333333e+00	 0.000000000000000e+00	 1.870339873690294e+01
1	 1.540740740740741e+00	 0.000000000000000e+00	 1.876080881782329e+01
1	 1.548148148148148e+00	 0.000000000000000e+00	 1.881949199448480e+01
1	 1.555555555555555e+00	 0.000000000000000e+00	 1.887920590310896e+01
1	 1.562962962962964e+00	 0.000000000000000e+00	 1.893971277449119e+01
1	 1.570370370370371e+00	 0.000000000000000e+00	 1.900077932563835e+01
1	 1.577777777777778e+00	 0.000000000000000e+00	 1.906217665445863e+01
1	 1.585185185185186e+00	 0.000000000000000e+00	 1.912368013740389e+01
1	 1.592592592592593e+00	 0.000000000000000e+00	 1.918506932996884e+01
1	 1.592592592592593e+00	 0.000000000000000e+00	 1.918506932996884e+01
1	 1.600000000000000e+00	 0.000000000000000e+00	 1.924645072278329e+01
1	 1.607407407407408e+00	 0.000000000000000e+00	 1.930794120280836e+01
1	 1.614814814814815e+00	 0.000000000000000e+00	 1.936934177271227e+01
1	 1.622222222222223e+00	 0.000000000000000e+00	 1.943045706981788e+01
1	 1.629629629629630e+00	 0.000000000000000e+00	 1.949109528349662e+01
1	 1.637037037037037e+00	 0.000000000000000e+00	 1.955106807480553e+01
1	 1.644444444444445e+00	 0.000000000000000e+00	 1.961019049829607e+01
1	 1.651851851851852e+00	 0.000000000000000e+00	 1.966828092592696e+01
1	 1.659259259259259e+00	 0.000000000000000e+00	 1.972516097301467e+01
1	 1.666666666666667e+00	 0.000000000000000e+00	 1.978065542615906e+01
1	 1.666666666666667e+00	 0.000000000000000e+00	 1.978065542615906e+01
1	 1.674074074074074e+00	 0.000000000000000e+00	 1.983446641300844e+01
1	 1.681481481481482e+00	 0.000000000000000e+00	 1.988628916334859e+01
1	 1.688888888888889e+00	 0.000000000000000e+00	 1.993594286400640e+01
1	 1.696296296296296e+00	 0.000000000000000e+00	 1.998324986011745e+01
1	 1.703703703703703e+00	 0.000000000000000e+00	 2.002803558646720e+01
1	 1.711111111111111e+00	 0.000000000000000e+00	 2.007012850061526e+01
1	 1.718518518518518e+00	 0.000000000000000e+00	 2.010936001774965e+01
1	 1.725925925925926e+00	 0.000000000000000e+00	 2.014556444721820e+01
1	 1.733333333333333e+00	 0.000000000000000e+00	 2.017857893068755e+01
1	 1.740740740740740e+00	 0.000000000000000e+00	 2.020824338188114e+01
1	 1.740740740740740e+00	 0.000000000000000e+00	 2.020824338188114e+01
1	 1.748148148148148e+00	 0.000000000000000e+00	 2.023466392863881e+01
1	 1.755555555555556e+00	 0.000000000000000e+00	 2.025789674545769e+01
1	 1.762962962962963e+00	 0.000000000000000e+00	 2.027771179633163e+01
1	 1.770370370370370e+00	 0.000000000000000e+00	 2.029388289522936e+01
1	 1.777777777777778e+00	 0.000000000000000e+00	 2.030618762588691e+01
1	 1.785185185185185e+00	 0.000000000000000e+00	 2.031440726359646e+01
1	 1.792592592592593e+00	 0.000000000000000e+00	 2.031832669893470e+01
1	 1.800000000000000e+00	 0.000000000000000e+00	 2.031773436337418e+01
1	 1.807407407407408e+00	 0.000000000000000e+00	 2.031242215672383e+01
1	 1.814814814814815e+00	 0.000000000000000e+00	 2.030218537634691e+01
1	 1.814814814814815e+00	 0.000000000000000e+00	 2.030218537634691e+01
1	 1.822222222222222e+00	 0.000000000000000e+00	 2.028619942163481e+01
1	 1.829629629629630e+00	 0.000000000000000e+00	 2.026378256562067e+01
1	 1.837037037037037e+00	 0.000000000000000e+00	 2.023494677614820e+01
1	 1.844444444444445e+00	 0.000000000000000e+00	 2.019970382880654e+01
1	 1.851851851851852e+00	 0.000000000000000e+00	 2.015806531077542e+01
1	 1.859259259259259e+00	 0.000000000000000e+00	 2.011004262457832e+01
1	 1.866666666666667e+00	 0.000000000000000e+00	 2.005564699174623e+01
1	 1.874074074074074e+00	 0.000000000000000e+00	 1.999488945639477e+01
1	 1.881481481481482e+00	 0.000000000000000e+00	 1.992778088871630e+01
1	 1.888888888888889e+00	 0.000000000000000e+00	 1.985433198839049e+01
1	 1.888888888888889e+00	 0.000000000000000e+00	 1.985433198839049e+01
1	 1.896296296296296e+00	 0.000000000000000e+00	 1.977403447551077e+01
1	 1.903703703703704e+00	 0.000000000000000e+00	 1.968653378813865e+01
1	 1.911111111111111e+00	 0.000000000000000e+00	 1.959206827294880e+01
1	 1.918518518518519e+00	 0.000000000000000e+00	 1.949087259558624e+01
1	 1.925925925925926e+00	 0.000000000000000e+00	 1.938317781145524e+01
1	 1.933333333333334e+00	 0.000000000000000e+00	 1.926921143488106e+01
1	 1.940740740740741e+00	 0.000000000000000e+00	 1.914919750668787e+01
1	 1.948148148148148e+00	 0.000000000000000e+00	 1.902335666023480e+01
1	 1.955555555555556e+00	 0.000000000000000e+00	 1.889190618595126e+01
1	 1.962962962962963e+00	 0.000000000000000e+00	 1.875506009441121e+01
1	 1.962962962962963e+00	 0.000000000000000e+00	 1.875506009441121e+01
1	 1.970370370370371e+00	 0.000000000000000e+00	 1.861316845634320e+01
1	 1.977777777777777e+00	 0.000000000000000e+00	 1.846658133680201e+01
1	 1.985185185185185e+00	 0.000000000000000e+00	 1.831550794666455e+01
1	 1.992592592592592e+00	 0.000000000000000e+00	 1.816015438586530e+01
1	 2.000000000000000e+00	 0.000000000000000e+00	 1.800072370100645e+01
1	 2.007407407407408e+00	 0.000000000000000e+00	 1.783741594169225e+01
1	 2.014814814814815e+00	 0.000000000000000e+00	 1.767042821562116e+01
1	 2.022222222222222e+00	 0.000000000000000e+00	 1.749995474246661e+01
1	 2.029629629629629e+00	 0.000000000000000e+00	 1.732618690657846e+01
1	 2.037037037037037e+00	 0.000000000000000e+00	 1.714931330853405e+01
1	 2.037037037037037e+00	 0.000000000000000e+00	 1.714931330853405e+01
1	 2.044444444444444e+00	 0.000000000000000e+00	 1.696949987709881e+01
1	 2.051851851851852e+00	 0.000000000000000e+00	 1.678691117828672e+01
1	 2.059259259259259e+00	 0.000000000000000e+00	 1.660172972009108e+01
1	 2.066666666666666e+00	 0.000000000000000e+00	 1.641413539390314e+01
1	 2.074074074074074e+00	 0.000000000000000e+00	 1.622430552123716e+01
1	 2.081481481481481e+00	 0.000000000000000e+00	 1.603241489945764e+01
1	 2.088888888888889e+00	 0.000000000000000e+00	 1.583863584653397e+01
1	 2.096296296296297e+00	 0.000000000000000e+00	 1.564313824484575e+01
1	 2.103703703703705e+00	 0.000000000000000e+00	 1.544608958406312e+01
1	 2.111111111111111e+00	 0.000000000000000e+00	 1.524765500312392e+01
1	 2.111111111111111e+00	 0.000000000000000e+00	 1.524765500312392e+01
1	 2.118518518518519e+00	 0.000000000000000e+00	 1.504801726325731e+01
1	 2.125925925925926e+00	 0.000000000000000e+00	 1.484743032075124e+01
1	 2.133333333333333e+00	 0.000000000000000e+00	 1.464616155431433e+01
1	 2.140740740740741e+00	 0.000000000000000e+00	 1.444447464191181e+01
1	 2.148148148148148e+00	 0.000000000000000e+00	 1.424262962457156e+01
1	 2.155555555555555e+00	 0.000000000000000e+00	 1.404088296887426e+01
1	 2.162962962962963e+00	 0.000000000000000e+00	 1.383948762815978e+01
1	 2.170370370370370e+00	 0.000000000000000e+00	 1.363869310248002e+01
1	 2.177777777777777e+00	 0.000000000000000e+00	 1.343874549732849e+01
1	 2.185185185185185e+00	 0.000000000000000e+00	 1.323988758117487e+01
1	 2.185185185185185e+00	 0.000000000000000e+00	 1.323988758117487e+01
1	 2.192592592592592e+00	 0.000000000000000e+00	 1.304235431434198e+01
1	 2.200000000000000e+00	 0.000000000000000e+00	 1.284625133396625e+01
1	 2.207407407407408e+00	 0.000000000000000e+00	 1.265162448864928e+01
1	 2.214814814814815e+00	 0.000000000000000e+00	 1.245851901363351e+01
1	 2.222222222222223e+00	 0.000000000000000e+00	 1.226697954102462e+01
1	 2.229629629629631e+00	 0.000000000000000e+00	 1.207705010981076e+01
1	 2.237037037037038e+00	 0.000000000000000e+00	 1.188877417568226e+01
1	 2.244444444444446e+00	 0.000000000000000e+00	 1.170219462065680e+01
1	 2.251851851851853e+00	 0.000000000000000e+00	 1.151735376251511e+01
1	 2.259259259259260e+00	 0.000000000000000e+00	 1.133429336405066e+01
1	 2.259259259259260e+00	 0.000000000000000e+00	 1.133429336405066e+01
1	 2.266666666666667e+00	 0.000000000000000e+00	 1.115306566630820e+01
1	 2.274074074074074e+00	 0.000000000000000e+00	 1.097364641498904e+01
1	 2.281481481481482e+00	 0.000000000000000e+00	 1.079596293393734e+01
1	 2.288888888888889e+00	 0.000000000000000e+00	 1.061994348778877e+01
1	 2.296296296296296e+00	 0.000000000000000e+00	 1.044551726679672e+01
1	 2.303703703703703e+00	 0.000000000000000e+00	 1.027261437195080e+01
1	 2.311111111111110e+00	 0.000000000000000e+00	 1.010116580038178e+01
1	 2.318518518518518e+00	 0.000000000000000e+00	 9.931103431046360e+00
1	 2.325925925925925e+00	 0.000000000000000e+00	 9.762360010685056e+00
1	 2.333333333333333e+00	 0.000000000000000e+00	 9.594869140048051e+00
1	 2.333333333333333e+00	 0.000000000000000e+00	 9.594869140048051e+00
1	 2.340740740740741e+00	 0.000000000000000e+00	 9.428501825922023e+00
1	 2.348148148148148e+00	 0.000000000000000e+00	 9.263117500256556e+00
1	 2.355555555555556e+00	 0.000000000000000e+00	 9.098633818157310e+00
1	 2.362962962962963e+00	 0.000000000000000e+00	 8.934969467267861e+00
1	 2.370370370370371e+00	 0.000000000000000e+00	 8.772044151636187e+00
1	 2.377777777777779e+00	 0.000000000000000e+00	 8.609778575882878e+00
1	 2.385185185185185e+00	 0.000000000000000e+00	 8.448094429664307e+00
1	 2.392592592592593e+00	 0.000000000000000e+00	 8.286914372424437e+00
1	 2.400000000000001e+00	 0.000000000000000e+00	 8.126162018428808e+00
1	 2.407407407407408e+00	 0.000000000000000e+00	 7.965761922075172e+00
1	 2.407407407407408e+00	 0.000000000000000e+00	 7.965761922075172e+00
1	 2.414814814814815e+00	 0.000000000000000e+00	 7.805813331063431e+00
1	 2.422222222222222e+00	 0.000000000000000e+00	 7.646436518320803e+00
1	 2.429629629629629e+00	 0.000000000000000e+00	 7.487588667732529e+00
1	 2.437037037037037e+00	 0.000000000000000e+00	 7.329227483744480e+00
1	 2.444444444444444e+00	 0.000000000000000e+00	 7.171311183475895e+00
1	 2.451851851851852e+00	 0.000000000000000e+00	 7.013798488975146e+00
1	 2.459259259259259e+00	 0.000000000000000e+00	 6.856648619615285e+00
1	 2.466666666666665e+00	 0.000000000000000e+00	 6.699821284626713e+00
1	 2.474074074074073e+00	 0.000000000000000e+00	 6.543276675764128e+00
1	 2.481481481481481e+00	 0.000000000000000e+00	 6.386975460104349e+00
1	 2.481481481481481e+00	 0.000000000000000e+00	 6.386975460104349e+00
1	 2.488888888888889e+00	 0.000000000000000e+00	 6.230445500027653e+00
1	 2.496296296296296e+00	 0.000000000000000e+00	 6.073175439537271e+00
1	 2.503703703703704e+00	 0.000000000000000e+00	 5.915068338500687e+00
1	 2.511111111111111e+00	 0.000000000000000e+00	 5.756028400621849e+00
1	 2.518518518518519e+00	 0.000000000000000e+00	 5.595960956619833e+00
1	 2.525925925925927e+00	 0.000000000000000e+00	 5.434772447703827e+00
1	 2.533333333333334e+00	 0.000000000000000e+00	 5.272370409337957e+00
1	 2.540740740740742e+00	 0.000000000000000e+00	 5.108663455289952e+00
1	 2.548148148148149e+00	 0.000000000000000e+00	 4.943561261958077e+00
1	 2.555555555555556e+00	 0.000000000000000e+00	 4.776974552970903e+00
1	 2.555555555555556e+00	 0.000000000000000e+00	 4.776974552970903e+00
1	 2.562962962962962e+00	 0.000000000000000e+00	 4.610398442087074e+00
1	 2.570370370370370e+00	 0.000000000000000e+00	 4.445373955941415e+00
1	 2.577777777777778e+00	 0.000000000000000e+00	 4.281881633023231e+00
1	 2.585185185185185e+00	 0.000000000000000e+00	 4.119902234876446e+00
1	 2.592592592592592e+00	 0.000000000000000e+00	 3.959416742912963e+00
1	 2.600000000000000e+00	 0.000000000000000e+00	 3.800406355280844e+00
1	 2.607407407407407e+00	 0.000000000000000e+00	 3.642852483785452e+00
1	 2.614814814814813e+00	 0.000000000000000e+00	 3.486736750863328e+00
1	 2.622222222222222e+00	 0.000000000000000e+00	 3.332040986607073e+00
1	 2.629629629629630e+00	 0.000000000000000e+00	 3.178747225840583e+00
1	 2.629629629629630e+00	 0.000000000000000e+00	 3.178747225840583e+00
1	 2.637037037037037e+00	 0.000000000000000e+00	 3.028378403587452e+00
1	 2.644444444444444e+00	 0.000000000000000e+00	 2.882442045302148e+00
1	 2.651851851851852e+00	 0.000000000000000e+00	 2.740897566243090e+00
1	 2.659259259259260e+00	 0.000000000000000e+00	 2.603704833866419e+00
1	 2.666666666666667e+00	 0.000000000000000e+00	 2.470824161545381e+00
1	 2.674074074074075e+00	 0.000000000000000e+00	 2.342216302394289e+00
1	 2.681481481481482e+00	 0.000000000000000e+00	 2.217842443194651e+00
1	 2.688888888888890e+00	 0.000000000000000e+00	 2.097664198421862e+00
1	 2.696296296296297e+00	 0.000000000000000e+00	 1.981643604370291e+00
1	 2.703703703703704e+00	 0.000000000000000e+00	 1.869743113374897e+00
1	 2.703703703703704e+00	 0.000000000000000e+00	 1.869743113374897e+00
1	 2.711111111111111e+00	 0.000000000000000e+00	 1.761533928259984e+00
1	 2.718518518518518e+00	 0.000000000000000e+00	 1.656605630266056e+00
1	 2.725925925925926e+00	 0.000000000000000e+00	 1.554948626806464e+00
1	 2.733333333333333e+00	 0.000000000000000e+00	 1.456553429279224e+00
1	 2.740740740740740e+00	 0.000000000000000e+00	 1.361410651661836e+00
1	 2.748148148148147e+00	 0.000000000000000e+00	 1.269511009128820e+00
1	 2.755555555555555e+00	 0.000000000000000e+00	 1.180845316691511e+00
1	 2.762962962962962e+00	 0.000000000000000e+00	 1.095404487859795e+00
1	 2.770370370370369e+00	 0.000000000000000e+00	 1.013179533325270e+00
1	 2.777777777777777e+00	 0.000000000000000e+00	 9.341615596654720e-01
1	 2.777777777777777e+00	 0.000000000000000e+00	 9.341615596654720e-01
1	 2.785185185185185e+00	 0.000000000000000e+00	 8.584671350234991e-01
1	 2.792592592592592e+00	 0.000000000000000e+00	 7.861967914425148e-01
1	 2.800000000000000e+00	 0.000000000000000e+00	 7.173179134216268e-01
1	 2.807407407407408e+00	 0.000000000000000e+00	 6.517982296868420e-01
1	 2.814814814814814e+00	 0.000000000000000e+00	 5.896058086618079e-01
1	 2.822222222222222e+00	 0.000000000000000e+00	 5.307090540097994e-01
1	 2.829629629629630e+00	 0.000000000000000e+00	 4.750767002458057e-01
1	 2.837037037037037e+00	 0.000000000000000e+00	 4.226778084172814e-01
1	 2.844444444444445e+00	 0.000000000000000e+00	 3.734817618524416e-01
1	 2.851851851851852e+00	 0.000000000000000e+00	 3.274582619747999e-01
1	 2.851851851851852e+00	 0.000000000000000e+00	 3.274582619747999e-01
1	 2.859259259259259e+00	 0.000000000000000e+00	 2.845992080402345e-01
1	 2.866666666666667e+00	 0.000000000000000e+00	 2.449048363871442e-01
1	 2.874074074074074e+00	 0.000000000000000e+00	 2.083577259045076e-01
1	 2.881481481481481e+00	 0.000000000000000e+00	 1.749406346186951e-01
1	 2.888888888888888e+00	 0.000000000000000e+00	 1.446364973968305e-01
1	 2.896296296296296e+00	 0.000000000000000e+00	 1.174284236854032e-01
1	 2.903703703703703e+00	 0.000000000000000e+00	 9.329969528348819e-02
1	 2.911111111111110e+00	 0.000000000000000e+00	 7.223376414996743e-02
1	 2.918518518518518e+00	 0.000000000000000e+00	 5.421425024413890e-02
1	 2.925925925925926e+00	 0.000000000000000e+00	 3.922493939913016e-02
1	 2.925925925925926e+00	 0.000000000000000e+00	 3.922493939913016e-02
1	 2.933333333333334e+00	 0.000000000000000e+00	 2.684579113132980e-02
1	 2.940740740740741e+00	 0.000000000000000e+00	 1.665352918872721e-02
1	 2.948148148148149e+00	 0.000000000000000e+00	 8.627366771858665e-03
1	 2.955555555555556e+00	 0.000000000000000e+00	 2.746725470227424e-03
1	 2.962962962962963e+00	 0.000000000000000e+00	-1.008767342558272e-03
1	 2.970370370370371e+00	 0.000000000000000e+00	-2.659281074672028e-03
1	 2.977777777777778e+00	 0.000000000000000e+00	-2.224784443658691e-03
1	 2.985185185185186e+00	 0.000000000000000e+00	 2.749520336072068e-04
1	 2.992592592592593e+00	 0.000000000000000e+00	 4.820353587942953e-03
1	 3.000000000000000e+00	 0.000000000000000e+00	 1.139203878121884e-02
