x	y	stress_yy
 0.000000000000000e+00	 0.000000000000000e+00	-3.196267660990774e-03
 0.000000000000000e+00	 0.000000000000000e+00	 7.615736414565447e-03
 1.414213562387500e+00	 0.000000000000000e+00	 4.358121233324917e-01
 1.414213562387500e+00	 0.000000000000000e+00	 4.965700015189407e-01
 0.000000000000000e+00	 0.000000000000000e+00	 7.615736414568853e-03
 0.000000000000000e+00	 0.000000000000000e+00	-3.196267660992637e-03
