x	y	stress_yy
 3.535533905900000e+00	 3.535533905900000e+00	 1.327238078611981e+00
 3.535533905900000e+00	 3.535533905900000e+00	 1.327238078611981e+00
 3.535533905899999e+00	 3.535533905899999e+00	 1.327238078611981e+00
 3.535533905900000e+00	 3.535533905900000e+00	 1.327238078611981e+00
 3.535533905900000e+00	 3.535533905900000e+00	 1.327238078611981e+00
 3.535533905900000e+00	 3.535533905900000e+00	 1.327238078611981e+00
 3.535533905900000e+00	 3.535533905900000e+00	 1.327238078611981e+00
 3.535533905900000e+00	 3.535533905900000e+00	 1.327238078611981e+00
 3.535533905899999e+00	 3.535533905899999e+00	 1.327238078611981e+00
 3.535533905899999e+00	 3.535533905899999e+00	 1.327238078611981e+00
 3.535533905900000e+00	 3.535533905900000e+00	 1.327238078611981e+00
 3.537301672853000e+00	 3.537301672853000e+00	 3.464926498657087e+01
 3.537124896157699e+00	 3.537478449548299e+00	 3.263584080907468e+01
 3.536948119462399e+00	 3.537655226243599e+00	 3.067764841879419e+01
 3.536771342767100e+00	 3.537832002938900e+00	 2.877468781572692e+01
 3.536594566071800e+00	 3.538008779634200e+00	 2.692695899987287e+01
 3.536417789376500e+00	 3.538185556329501e+00	 2.513446197123247e+01
 3.536241012681200e+00	 3.538362333024800e+00	 2.339719672980702e+01
 3.536064235985900e+00	 3.538539109720100e+00	 2.171516327559121e+01
 3.535887459290600e+00	 3.538715886415400e+00	 2.008836160859702e+01
 3.535710682595300e+00	 3.538892663110700e+00	 1.851679172881304e+01
 3.535533905900000e+00	 3.539069439806000e+00	 1.700045363624290e+01
 3.542604973711999e+00	 3.542604973711999e+00	 1.726352141564647e+01
 3.541897866930800e+00	 3.543312080493200e+00	 1.628874742462743e+01
 3.541190760149600e+00	 3.544019187274400e+00	 1.533861645057809e+01
 3.540483653368400e+00	 3.544726294055600e+00	 1.441312849349623e+01
 3.539776546587199e+00	 3.545433400836799e+00	 1.351228355337910e+01
 3.539069439805999e+00	 3.546140507617999e+00	 1.263608163022546e+01
 3.538362333024800e+00	 3.546847614399200e+00	 1.178452272403240e+01
 3.537655226243600e+00	 3.547554721180400e+00	 1.095760683479793e+01
 3.536948119462400e+00	 3.548261827961600e+00	 1.015533396251921e+01
 3.536241012681200e+00	 3.548968934742800e+00	 9.377704107195559e+00
 3.535533905899999e+00	 3.549676041524000e+00	 8.624717268823140e+00
 3.551443808477000e+00	 3.551443808477000e+00	 1.153861727159113e+01
 3.549852818219300e+00	 3.553034798734700e+00	 1.089191279150747e+01
 3.548261827961601e+00	 3.554625788992401e+00	 1.026133806350254e+01
 3.546670837703899e+00	 3.556216779250099e+00	 9.646893087551163e+00
 3.545079847446199e+00	 3.557807769507800e+00	 9.048577863628410e+00
 3.543488857188500e+00	 3.559398759765501e+00	 8.466392391708634e+00
 3.541897866930800e+00	 3.560989750023200e+00	 7.900336671766969e+00
 3.540306876673100e+00	 3.562580740280900e+00	 7.350410703778145e+00
 3.538715886415400e+00	 3.564171730538600e+00	 6.816614487716960e+00
 3.537124896157701e+00	 3.565762720796301e+00	 6.298948023558316e+00
 3.535533905900000e+00	 3.567353711054000e+00	 5.797411311276935e+00
 3.563818177148000e+00	 3.563818177148000e+00	 8.688766681543854e+00
 3.560989750023201e+00	 3.566646604272801e+00	 8.202677201658449e+00
 3.558161322898400e+00	 3.569475031397600e+00	 7.728776306213197e+00
 3.555332895773600e+00	 3.572303458522400e+00	 7.267063995066607e+00
 3.552504468648801e+00	 3.575131885647200e+00	 6.817540268077165e+00
 3.549676041524000e+00	 3.577960312772000e+00	 6.380205125103300e+00
 3.546847614399200e+00	 3.580788739896800e+00	 5.955058566003588e+00
 3.544019187274400e+00	 3.583617167021600e+00	 5.542100590636530e+00
 3.541190760149600e+00	 3.586445594146400e+00	 5.141331198860657e+00
 3.538362333024801e+00	 3.589274021271200e+00	 4.752750390534382e+00
 3.535533905900000e+00	 3.592102448396000e+00	 4.376358165516341e+00
 3.579728079725000e+00	 3.579728079725000e+00	 6.982365852579581e+00
 3.575308662342500e+00	 3.584147497107501e+00	 6.591535682839829e+00
 3.570889244959999e+00	 3.588566914489999e+00	 6.210630185880266e+00
 3.566469827577500e+00	 3.592986331872500e+00	 5.839649361161102e+00
 3.562050410195000e+00	 3.597405749255000e+00	 5.478593208142574e+00
 3.557630992812500e+00	 3.601825166637500e+00	 5.127461726284942e+00
 3.553211575430000e+00	 3.606244584020000e+00	 4.786254915048420e+00
 3.548792158047500e+00	 3.610664001402500e+00	 4.454972773893189e+00
 3.544372740665000e+00	 3.615083418785000e+00	 4.133615302279560e+00
 3.539953323282500e+00	 3.619502836167500e+00	 3.822182499667753e+00
 3.535533905900000e+00	 3.623922253550000e+00	 3.520674346841327e+00
 3.599173516208000e+00	 3.599173516208000e+00	 5.845765265152457e+00
 3.592809555177200e+00	 3.605537477238800e+00	 5.517965212359168e+00
 3.586445594146400e+00	 3.611901438269600e+00	 5.198622323183297e+00
 3.580081633115601e+00	 3.618265399300401e+00	 4.887736596013093e+00
 3.573717672084800e+00	 3.624629360331200e+00	 4.585308010560013e+00
 3.567353711053999e+00	 3.630993321361999e+00	 4.291336601168711e+00
 3.560989750023200e+00	 3.637357282392799e+00	 4.005822348895650e+00
 3.554625788992400e+00	 3.643721243423600e+00	 3.728765252128893e+00
 3.548261827961600e+00	 3.650085204454400e+00	 3.460165309256495e+00
 3.541897866930801e+00	 3.656449165485200e+00	 3.200022518666526e+00
 3.535533905899999e+00	 3.662813126516000e+00	 2.948336878747061e+00
 3.622154486597000e+00	 3.622154486597000e+00	 5.033987416336933e+00
 3.613492428527299e+00	 3.630816544666700e+00	 4.750963375028030e+00
 3.604830370457599e+00	 3.639478602736399e+00	 4.475368428505057e+00
 3.596168312387900e+00	 3.648140660806100e+00	 4.207202572703328e+00
 3.587506254318200e+00	 3.656802718875800e+00	 3.946465803558166e+00
 3.578844196248499e+00	 3.665464776945500e+00	 3.693158117004878e+00
 3.570182138178799e+00	 3.674126835015199e+00	 3.447279508978773e+00
 3.561520080109100e+00	 3.682788893084900e+00	 3.208829975415143e+00
 3.552858022039399e+00	 3.691450951154599e+00	 2.977809512249297e+00
 3.544195963969701e+00	 3.700113009224300e+00	 2.754218115416528e+00
 3.535533905900000e+00	 3.708775067294000e+00	 2.538055780852102e+00
 3.648670990892001e+00	 3.648670990892001e+00	 4.424832128061565e+00
 3.637357282392799e+00	 3.659984699391199e+00	 4.175244711875474e+00
 3.626043573893600e+00	 3.671298407890399e+00	 3.932325978508469e+00
 3.614729865394401e+00	 3.682612116389601e+00	 3.696075918903687e+00
 3.603416156895200e+00	 3.693925824888800e+00	 3.466494524004224e+00
 3.592102448396000e+00	 3.705239533387999e+00	 3.243581784753187e+00
 3.580788739896799e+00	 3.716553241887199e+00	 3.027337692093661e+00
 3.569475031397600e+00	 3.727866950386400e+00	 2.817762236968720e+00
 3.558161322898400e+00	 3.739180658885599e+00	 2.614855410321419e+00
 3.546847614399200e+00	 3.750494367384801e+00	 2.418617203094814e+00
 3.535533905900000e+00	 3.761808075884000e+00	 2.229047606231952e+00
 3.678723029093000e+00	 3.678723029093000e+00	 3.950526496380793e+00
 3.664404116773699e+00	 3.693041941412299e+00	 3.726849067249799e+00
 3.650085204454400e+00	 3.707360853731600e+00	 3.509254735258199e+00
 3.635766292135100e+00	 3.721679766050900e+00	 3.297743482045106e+00
 3.621447379815800e+00	 3.735998678370200e+00	 3.092315289249592e+00
 3.607128467496501e+00	 3.750317590689500e+00	 2.892970138510691e+00
 3.592809555177200e+00	 3.764636503008800e+00	 2.699708011467414e+00
 3.578490642857899e+00	 3.778955415328099e+00	 2.512528889758743e+00
 3.564171730538600e+00	 3.793274327647400e+00	 2.331432755023605e+00
 3.549852818219300e+00	 3.807593239966700e+00	 2.156419588900938e+00
 3.535533905899999e+00	 3.821912152286000e+00	 1.987489373029597e+00
 3.712310601200000e+00	 3.712310601200000e+00	 3.570460993321770e+00
 3.694632931670000e+00	 3.729988270730000e+00	 3.367441636838472e+00
 3.676955262139999e+00	 3.747665940260000e+00	 3.170040053932421e+00
 3.659277592610000e+00	 3.765343609790000e+00	 2.978256210054321e+00
 3.641599923080000e+00	 3.783021279320000e+00	 2.792090070654811e+00
 3.623922253550000e+00	 3.800698948850000e+00	 2.611541601184450e+00
 3.606244584020000e+00	 3.818376618380000e+00	 2.436610767093724e+00
 3.588566914490000e+00	 3.836054287910000e+00	 2.267297533833041e+00
 3.570889244960000e+00	 3.853731957440000e+00	 2.103601866852742e+00
 3.553211575430000e+00	 3.871409626969999e+00	 1.945523731603089e+00
 3.535533905900000e+00	 3.889087296500000e+00	 1.793063093534265e+00
 3.712310601200000e+00	 3.712310601200000e+00	 3.570460993321770e+00
 3.694632931670000e+00	 3.729988270730000e+00	 3.367441636838472e+00
 3.676955262139999e+00	 3.747665940260000e+00	 3.170040053932421e+00
 3.659277592610000e+00	 3.765343609790000e+00	 2.978256210054321e+00
 3.641599923080000e+00	 3.783021279320000e+00	 2.792090070654811e+00
 3.623922253550000e+00	 3.800698948850000e+00	 2.611541601184450e+00
 3.606244584020000e+00	 3.818376618380000e+00	 2.436610767093724e+00
 3.588566914490000e+00	 3.836054287910000e+00	 2.267297533833041e+00
 3.570889244960000e+00	 3.853731957440000e+00	 2.103601866852742e+00
 3.553211575430000e+00	 3.871409626969999e+00	 1.945523731603089e+00
 3.535533905900000e+00	 3.889087296500000e+00	 1.793063093534265e+00
 3.749433707213000e+00	 3.749433707213000e+00	 3.269413228289847e+00
 3.728043727081699e+00	 3.770823687344300e+00	 3.088063822537066e+00
 3.706653746950401e+00	 3.792213667475602e+00	 2.912231685476216e+00
 3.685263766819100e+00	 3.813603647606901e+00	 2.741916755901066e+00
 3.663873786687800e+00	 3.834993627738200e+00	 2.577118972605233e+00
 3.642483806556500e+00	 3.856383607869500e+00	 2.417838274382165e+00
 3.621093826425200e+00	 3.877773588000800e+00	 2.264074600025158e+00
 3.599703846293900e+00	 3.899163568132100e+00	 2.115827888327345e+00
 3.578313866162600e+00	 3.920553548263401e+00	 1.973098078081700e+00
 3.556923886031300e+00	 3.941943528394700e+00	 1.835885108081043e+00
 3.535533905900000e+00	 3.963333508526000e+00	 1.704188917118014e+00
 3.790092347132000e+00	 3.790092347132000e+00	 3.021496773321708e+00
 3.764636503008800e+00	 3.815548191255201e+00	 2.857461862358821e+00
 3.739180658885600e+00	 3.841004035378399e+00	 2.698766137508831e+00
 3.713724814762400e+00	 3.866459879501600e+00	 2.545409495607927e+00
 3.688268970639200e+00	 3.891915723624801e+00	 2.397391833491969e+00
 3.662813126516001e+00	 3.917371567748000e+00	 2.254713047996509e+00
 3.637357282392801e+00	 3.942827411871201e+00	 2.117373035956773e+00
 3.611901438269601e+00	 3.968283255994400e+00	 1.985371694207671e+00
 3.586445594146400e+00	 3.993739100117600e+00	 1.858708919583786e+00
 3.560989750023200e+00	 4.019194944240800e+00	 1.737384608919393e+00
 3.535533905900000e+00	 4.044650788364001e+00	 1.621398659048438e+00
 3.834286520957000e+00	 3.834286520957000e+00	 2.813602574518205e+00
 3.804411259451300e+00	 3.864161782462700e+00	 2.663682990476504e+00
 3.774535997945601e+00	 3.894037043968401e+00	 2.518884154096908e+00
 3.744660736439900e+00	 3.923912305474100e+00	 2.379205898616116e+00
 3.714785474934199e+00	 3.953787566979799e+00	 2.244648057270232e+00
 3.684910213428500e+00	 3.983662828485500e+00	 2.115210463294752e+00
 3.655034951922799e+00	 4.013538089991199e+00	 1.990892949924559e+00
 3.625159690417100e+00	 4.043413351496900e+00	 1.871695350393936e+00
 3.595284428911400e+00	 4.073288613002600e+00	 1.757617497936562e+00
 3.565409167405701e+00	 4.103163874508302e+00	 1.648659225785499e+00
 3.535533905900000e+00	 4.133039136014000e+00	 1.544820367173214e+00
 3.882016228688000e+00	 3.882016228688000e+00	 2.636582057900493e+00
 3.847367996409200e+00	 3.916664460966799e+00	 2.498363983997393e+00
 3.812719764130399e+00	 3.951312693245600e+00	 2.365029140412269e+00
 3.778071531851600e+00	 3.985960925524400e+00	 2.236577267003979e+00
 3.743423299572800e+00	 4.020609157803200e+00	 2.113008103630293e+00
 3.708775067294000e+00	 4.055257390082001e+00	 1.994321390147872e+00
 3.674126835015199e+00	 4.089905622360799e+00	 1.880516866412294e+00
 3.639478602736399e+00	 4.124553854639600e+00	 1.771594272278027e+00
 3.604830370457600e+00	 4.159202086918400e+00	 1.667553347598458e+00
 3.570182138178800e+00	 4.193850319197201e+00	 1.568393832225859e+00
 3.535533905900000e+00	 4.228498551476000e+00	 1.474115466011418e+00
 3.933281470325000e+00	 3.933281470325000e+00	 2.483861348598550e+00
 3.893506713882501e+00	 3.973056226767500e+00	 2.355481683917362e+00
 3.853731957440000e+00	 4.012830983210000e+00	 2.231740926335882e+00
 3.813957200997501e+00	 4.052605739652501e+00	 2.112638682314109e+00
 3.774182444555001e+00	 4.092380496095001e+00	 1.998174558310127e+00
 3.734407688112500e+00	 4.132155252537500e+00	 1.888348160780134e+00
 3.694632931670000e+00	 4.171930008980000e+00	 1.783159096178407e+00
 3.654858175227500e+00	 4.211704765422501e+00	 1.682606970957325e+00
 3.615083418785000e+00	 4.251479521865001e+00	 1.586691391567368e+00
 3.575308662342500e+00	 4.291254278307500e+00	 1.495411964457106e+00
 3.535533905900000e+00	 4.331029034750000e+00	 1.408768296073200e+00
 3.988082245868001e+00	 3.988082245868001e+00	 2.350598275972554e+00
 3.942827411871201e+00	 4.033337079864801e+00	 2.230590747539625e+00
 3.897572577874401e+00	 4.078591913861600e+00	 2.114978031289586e+00
 3.852317743877601e+00	 4.123846747858400e+00	 2.003759547577876e+00
 3.807062909880800e+00	 4.169101581855200e+00	 1.896934716756732e+00
 3.761808075884000e+00	 4.214356415852000e+00	 1.794502959175210e+00
 3.716553241887200e+00	 4.259611249848800e+00	 1.696463695179165e+00
 3.671298407890400e+00	 4.304866083845600e+00	 1.602816345111275e+00
 3.626043573893600e+00	 4.350120917842401e+00	 1.513560329311007e+00
 3.580788739896799e+00	 4.395375751839199e+00	 1.428695068114656e+00
 3.535533905900000e+00	 4.440630585836001e+00	 1.348219981855311e+00
 4.046418555317000e+00	 4.046418555317000e+00	 2.233149696789075e+00
 3.995330090375300e+00	 4.097507020258700e+00	 2.120340762206439e+00
 3.944241625433601e+00	 4.148595485200401e+00	 2.011686687682889e+00
 3.893153160491901e+00	 4.199683950142100e+00	 1.907186639276172e+00
 3.842064695550200e+00	 4.250772415083800e+00	 1.806839783038856e+00
 3.790976230608500e+00	 4.301860880025500e+00	 1.710645285018314e+00
 3.739887765666800e+00	 4.352949344967200e+00	 1.618602311256751e+00
 3.688799300725100e+00	 4.404037809908901e+00	 1.530710027791178e+00
 3.637710835783400e+00	 4.455126274850600e+00	 1.446967600653433e+00
 3.586622370841700e+00	 4.506214739792300e+00	 1.367374195870157e+00
 3.535533905900000e+00	 4.557303204734001e+00	 1.291928979462819e+00
 4.108290398672001e+00	 4.108290398672001e+00	 2.128723751324963e+00
 4.051014749394801e+00	 4.165566047949200e+00	 2.022160277732122e+00
 3.993739100117601e+00	 4.222841697226401e+00	 1.919517879536122e+00
 3.936463450840401e+00	 4.280117346503601e+00	 1.820795381628129e+00
 3.879187801563201e+00	 4.337392995780801e+00	 1.725991608891111e+00
 3.821912152286000e+00	 4.394668645058002e+00	 1.635105386199853e+00
 3.764636503008800e+00	 4.451944294335201e+00	 1.548135538420957e+00
 3.707360853731600e+00	 4.509219943612401e+00	 1.465080890412825e+00
 3.650085204454400e+00	 4.566495592889600e+00	 1.385940267025684e+00
 3.592809555177200e+00	 4.623771242166800e+00	 1.310712493101563e+00
 3.535533905900000e+00	 4.681046891444001e+00	 1.239396393474308e+00
 4.173697775933000e+00	 4.173697775933000e+00	 2.035146337643636e+00
 4.109881388929700e+00	 4.237514162936299e+00	 1.934044175374419e+00
 4.046065001926401e+00	 4.301330549939601e+00	 1.836636338284327e+00
 3.982248614923100e+00	 4.365146936942900e+00	 1.742921200954420e+00
 3.918432227919801e+00	 4.428963323946201e+00	 1.652897137953141e+00
 3.854615840916500e+00	 4.492779710949501e+00	 1.566562523836316e+00
 3.790799453913200e+00	 4.556596097952800e+00	 1.483915733147152e+00
 3.726983066909900e+00	 4.620412484956100e+00	 1.404955140416231e+00
 3.663166679906600e+00	 4.684228871959401e+00	 1.329679120161527e+00
 3.599350292903300e+00	 4.748045258962700e+00	 1.258086046888385e+00
 3.535533905900000e+00	 4.811861645966001e+00	 1.190174295089536e+00
 4.242640687100000e+00	 4.242640687100000e+00	 1.950700355731893e+00
 4.171930008980000e+00	 4.313351365220000e+00	 1.854407016256455e+00
 4.101219330860000e+00	 4.384062043339999e+00	 1.761588440552013e+00
 4.030508652739999e+00	 4.454772721460000e+00	 1.672242417437201e+00
 3.959797974620000e+00	 4.525483399580001e+00	 1.586366735711634e+00
 3.889087296500000e+00	 4.596194077700000e+00	 1.503959184155901e+00
 3.818376618380000e+00	 4.666904755820000e+00	 1.425017551531579e+00
 3.747665940260000e+00	 4.737615433940000e+00	 1.349539626581210e+00
 3.676955262140000e+00	 4.808326112060000e+00	 1.277523198028334e+00
 3.606244584020000e+00	 4.879036790180000e+00	 1.208966054577446e+00
 3.535533905900000e+00	 4.949747468300000e+00	 1.143865984914044e+00
 3.535533905900000e+00	 3.535533905900000e+00	 1.327238078611981e+00
 3.535533905900000e+00	 3.535533905900000e+00	 1.327238078611981e+00
 3.535533905899999e+00	 3.535533905899999e+00	 1.327238078611981e+00
 3.535533905900000e+00	 3.535533905900000e+00	 1.327238078611980e+00
 3.535533905900000e+00	 3.535533905900000e+00	 1.327238078611981e+00
 3.535533905900000e+00	 3.535533905900000e+00	 1.327238078611981e+00
 3.535533905900000e+00	 3.535533905900000e+00	 1.327238078611981e+00
 3.535533905900000e+00	 3.535533905900000e+00	 1.327238078611981e+00
 3.535533905899999e+00	 3.535533905899999e+00	 1.327238078611981e+00
 3.535533905899999e+00	 3.535533905899999e+00	 1.327238078611981e+00
 3.535533905900000e+00	 3.535533905900000e+00	 1.327238078611981e+00
 3.535533905900000e+00	 3.539069439806000e+00	 1.583823932398752e+01
 3.535357129204699e+00	 3.538892663110698e+00	 1.557581693194780e+01
 3.535180352509399e+00	 3.538715886415400e+00	 1.496929992575214e+01
 3.535003575814100e+00	 3.538539109720100e+00	 1.401868830540130e+01
 3.534826799118800e+00	 3.538362333024800e+00	 1.272398207089640e+01
 3.534650022423500e+00	 3.538185556329501e+00	 1.108518122223694e+01
 3.534473245728201e+00	 3.538008779634201e+00	 9.102285759423616e+00
 3.534296469032900e+00	 3.537832002938900e+00	 6.775295682458806e+00
 3.534119692337600e+00	 3.537655226243600e+00	 4.104210991327254e+00
 3.533942915642300e+00	 3.537478449548300e+00	 1.089031686047623e+00
 3.533766138947000e+00	 3.537301672853000e+00	-2.270242233387007e+00
 3.535533905899999e+00	 3.549676041524000e+00	 7.898043816278935e+00
 3.534826799118800e+00	 3.548968934742800e+00	 7.782569688471021e+00
 3.534119692337601e+00	 3.548261827961600e+00	 7.490545511805802e+00
 3.533412585556400e+00	 3.547554721180400e+00	 7.021971286284495e+00
 3.532705478775199e+00	 3.546847614399200e+00	 6.376847011909325e+00
 3.531998371993999e+00	 3.546140507617999e+00	 5.555172688681902e+00
 3.531291265212799e+00	 3.545433400836799e+00	 4.556948316604146e+00
 3.530584158431600e+00	 3.544726294055600e+00	 3.382173895677027e+00
 3.529877051650400e+00	 3.544019187274400e+00	 2.030849425904548e+00
 3.529169944869200e+00	 3.543312080493200e+00	 5.029749072847801e-01
 3.528462838088000e+00	 3.542604973711999e+00	-1.201449660178497e+00
 3.535533905900000e+00	 3.567353711054000e+00	 5.310598847607936e+00
 3.533942915642300e+00	 3.565762720796300e+00	 5.234640957483941e+00
 3.532351925384601e+00	 3.564171730538601e+00	 5.040479713469515e+00
 3.530760935126899e+00	 3.562580740280899e+00	 4.728115115584369e+00
 3.529169944869199e+00	 3.560989750023199e+00	 4.297547163848077e+00
 3.527578954611501e+00	 3.559398759765501e+00	 3.748775858281023e+00
 3.525987964353800e+00	 3.557807769507800e+00	 3.081801198902642e+00
 3.524396974096100e+00	 3.556216779250100e+00	 2.296623185732288e+00
 3.522805983838400e+00	 3.554625788992400e+00	 1.393241818790249e+00
 3.521214993580701e+00	 3.553034798734700e+00	 3.716570980959393e-01
 3.519624003323000e+00	 3.551443808477000e+00	-7.681309763299418e-01
 3.535533905900000e+00	 3.592102448396000e+00	 4.027228827967096e+00
 3.532705478775201e+00	 3.589274021271200e+00	 3.969312379435487e+00
 3.529877051650399e+00	 3.586445594146400e+00	 3.822834495490653e+00
 3.527048624525600e+00	 3.583617167021599e+00	 3.587795176243764e+00
 3.524220197400801e+00	 3.580788739896800e+00	 3.264194421805833e+00
 3.521391770276001e+00	 3.577960312772000e+00	 2.852032232288035e+00
 3.518563343151201e+00	 3.575131885647200e+00	 2.351308607801385e+00
 3.515734916026400e+00	 3.572303458522400e+00	 1.762023548456738e+00
 3.512906488901601e+00	 3.569475031397601e+00	 1.084177054365698e+00
 3.510078061776800e+00	 3.566646604272800e+00	 3.177691256390349e-01
 3.507249634652000e+00	 3.563818177148000e+00	-5.372002376122719e-01
 3.535533905900000e+00	 3.623922253550000e+00	 3.259835727102226e+00
 3.531114488517500e+00	 3.619502836167500e+00	 3.212246282685967e+00
 3.526695071135000e+00	 3.615083418785000e+00	 3.094030645603479e+00
 3.522275653752501e+00	 3.610664001402500e+00	 2.905188834954997e+00
 3.517856236370000e+00	 3.606244584020000e+00	 2.645720851164351e+00
 3.513436818987500e+00	 3.601825166637500e+00	 2.315626694655270e+00
 3.509017401605000e+00	 3.597405749255000e+00	 1.914906365851506e+00
 3.504597984222500e+00	 3.592986331872500e+00	 1.443559865176834e+00
 3.500178566840000e+00	 3.588566914489999e+00	 9.015871930550692e-01
 3.495759149457500e+00	 3.584147497107501e+00	 2.889883499097233e-01
 3.491339732075000e+00	 3.579728079725000e+00	-3.942366638350708e-01
 3.535533905899999e+00	 3.662813126516000e+00	 2.748725755105670e+00
 3.529169944869200e+00	 3.656449165485200e+00	 2.707858520747620e+00
 3.522805983838400e+00	 3.650085204454399e+00	 2.608384740125116e+00
 3.516442022807601e+00	 3.643721243423601e+00	 2.450304414503280e+00
 3.510078061776800e+00	 3.637357282392800e+00	 2.233617545147221e+00
 3.503714100746000e+00	 3.630993321361999e+00	 1.958324133322083e+00
 3.497350139715199e+00	 3.624629360331200e+00	 1.624424180292995e+00
 3.490986178684401e+00	 3.618265399300400e+00	 1.231917704983330e+00
 3.484622217653600e+00	 3.611901438269601e+00	 7.808046720675104e-01
 3.478258256622800e+00	 3.605537477238800e+00	 2.710851017890766e-01
 3.471894295592000e+00	 3.599173516208000e+00	-2.972410045867022e-01
 3.535533905900000e+00	 3.708775067294000e+00	 2.383337938533220e+00
 3.526871847830299e+00	 3.700113009224300e+00	 2.347232125396240e+00
 3.518209789760600e+00	 3.691450951154600e+00	 2.261136284842348e+00
 3.509547731690899e+00	 3.682788893084900e+00	 2.125050420061762e+00
 3.500885673621200e+00	 3.674126835015199e+00	 1.938974534244623e+00
 3.492223615551500e+00	 3.665464776945500e+00	 1.702908630581123e+00
 3.483561557481799e+00	 3.656802718875799e+00	 1.416852712261418e+00
 3.474899499412100e+00	 3.648140660806100e+00	 1.080806782475725e+00
 3.466237441342399e+00	 3.639478602736399e+00	 6.947708444141232e-01
 3.457575383272700e+00	 3.630816544666700e+00	 2.587449012668574e-01
 3.448913325203000e+00	 3.622154486597000e+00	-2.272710437759058e-01
 3.535533905900000e+00	 3.761808075884000e+00	 2.108633747465024e+00
 3.524220197400799e+00	 3.750494367384799e+00	 2.076111539696972e+00
 3.512906488901600e+00	 3.739180658885599e+00	 2.000079081818559e+00
 3.501592780402401e+00	 3.727866950386401e+00	 1.880536380938127e+00
 3.490279071903200e+00	 3.716553241887200e+00	 1.717483444164008e+00
 3.478965363403999e+00	 3.705239533388000e+00	 1.510920278604524e+00
 3.467651654904799e+00	 3.693925824888800e+00	 1.260846891367998e+00
 3.456337946405600e+00	 3.682612116389600e+00	 9.672632895627380e-01
 3.445024237906400e+00	 3.671298407890399e+00	 6.301694802970107e-01
 3.433710529407200e+00	 3.659984699391201e+00	 2.495654706791109e-01
 3.422396820908000e+00	 3.648670990892001e+00	-1.745487321826570e-01
 3.535533905899999e+00	 3.821912152286000e+00	 1.894132107431278e+00
 3.521214993580699e+00	 3.807593239966699e+00	 1.864434832030841e+00
 3.506896081261400e+00	 3.793274327647400e+00	 1.796277913406044e+00
 3.492577168942101e+00	 3.778955415328100e+00	 1.689661365967585e+00
 3.478258256622800e+00	 3.764636503008800e+00	 1.544585204126137e+00
 3.463939344303500e+00	 3.750317590689500e+00	 1.361049442292354e+00
 3.449620431984200e+00	 3.735998678370200e+00	 1.139054094876843e+00
 3.435301519664899e+00	 3.721679766050900e+00	 8.785991762901761e-01
 3.420982607345600e+00	 3.707360853731601e+00	 5.796847009429649e-01
 3.406663695026300e+00	 3.693041941412299e+00	 2.423106832457003e-01
 3.392344782707000e+00	 3.678723029093000e+00	-1.335228623910761e-01
 3.535533905900000e+00	 3.889087296500000e+00	 1.721587804226589e+00
 3.517856236370001e+00	 3.871409626970000e+00	 1.694200717147749e+00
 3.500178566839999e+00	 3.853731957440000e+00	 1.632401819126532e+00
 3.482500897310000e+00	 3.836054287910000e+00	 1.536191137279299e+00
 3.464823227780000e+00	 3.818376618380000e+00	 1.405568698722354e+00
 3.447145558250000e+00	 3.800698948850000e+00	 1.240534530571956e+00
 3.429467888720000e+00	 3.783021279320000e+00	 1.041088659944277e+00
 3.411790219190000e+00	 3.765343609790000e+00	 8.072311139554277e-01
 3.394112549660000e+00	 3.747665940260000e+00	 5.389619197214749e-01
 3.376434880130000e+00	 3.729988270729999e+00	 2.362811043583895e-01
 3.358757210600000e+00	 3.712310601200000e+00	-1.008113050178729e-01
 3.535533905900000e+00	 3.889087296500000e+00	 1.721587804226589e+00
 3.517856236370001e+00	 3.871409626970000e+00	 1.694200717147749e+00
 3.500178566839999e+00	 3.853731957440000e+00	 1.632401819126532e+00
 3.482500897310000e+00	 3.836054287910000e+00	 1.536191137279299e+00
 3.464823227780000e+00	 3.818376618380000e+00	 1.405568698722354e+00
 3.447145558250000e+00	 3.800698948850000e+00	 1.240534530571956e+00
 3.429467888720000e+00	 3.783021279320000e+00	 1.041088659944277e+00
 3.411790219190000e+00	 3.765343609790000e+00	 8.072311139554277e-01
 3.394112549660000e+00	 3.747665940260000e+00	 5.389619197214749e-01
 3.376434880130000e+00	 3.729988270729999e+00	 2.362811043583895e-01
 3.358757210600000e+00	 3.712310601200000e+00	-1.008113050178729e-01
 3.535533905900000e+00	 3.963333508526000e+00	 1.609218008290421e+00
 3.514143925768699e+00	 3.941943528394700e+00	 1.581045648501751e+00
 3.492753945637400e+00	 3.920553548263401e+00	 1.521730649059137e+00
 3.471363965506101e+00	 3.899163568132101e+00	 1.431273058001076e+00
 3.449973985374800e+00	 3.877773588000800e+00	 1.309672923365927e+00
 3.428584005243500e+00	 3.856383607869500e+00	 1.156930293191911e+00
 3.407194025112200e+00	 3.834993627738200e+00	 9.730452155171281e-01
 3.385804044980900e+00	 3.813603647606900e+00	 7.580177383795039e-01
 3.364414064849600e+00	 3.792213667475601e+00	 5.118479098168772e-01
 3.343024084718299e+00	 3.770823687344300e+00	 2.345357778669190e-01
 3.321634104587000e+00	 3.749433707213000e+00	-7.391860943283973e-02
 3.535533905900000e+00	 4.044650788364001e+00	 1.517585402514768e+00
 3.510078061776801e+00	 4.019194944240800e+00	 1.489616179799386e+00
 3.484622217653600e+00	 3.993739100117600e+00	 1.433249471394646e+00
 3.459166373530399e+00	 3.968283255994399e+00	 1.348485358270280e+00
 3.433710529407200e+00	 3.942827411871201e+00	 1.235323921395729e+00
 3.408254685284000e+00	 3.917371567748000e+00	 1.093765241740164e+00
 3.382798841160800e+00	 3.891915723624800e+00	 9.238094002724840e-01
 3.357342997037601e+00	 3.866459879501601e+00	 7.254564779613264e-01
 3.331887152914400e+00	 3.841004035378400e+00	 4.987065557750447e-01
 3.306431308791199e+00	 3.815548191255200e+00	 2.435597146817190e-01
 3.280975464668000e+00	 3.790092347132000e+00	-3.998396435082247e-02
 3.535533905900000e+00	 4.133039136014000e+00	 1.441149267475606e+00
 3.505658644394300e+00	 4.103163874508301e+00	 1.413978196011418e+00
 3.475783382888600e+00	 4.073288613002600e+00	 1.360748048750996e+00
 3.445908121382900e+00	 4.043413351496901e+00	 1.281458956581587e+00
 3.416032859877199e+00	 4.013538089991199e+00	 1.176111050389907e+00
 3.386157598371500e+00	 3.983662828485500e+00	 1.044704461062159e+00
 3.356282336865799e+00	 3.953787566979799e+00	 8.872393194840391e-01
 3.326407075360099e+00	 3.923912305474100e+00	 7.037157565407133e-01
 3.296531813854400e+00	 3.894037043968400e+00	 4.941339031168426e-01
 3.266656552348700e+00	 3.864161782462701e+00	 2.584938900965818e-01
 3.236781290843000e+00	 3.834286520957000e+00	-3.204151636460165e-03
 3.535533905900000e+00	 4.228498551476000e+00	 1.376128727785495e+00
 3.500885673621199e+00	 4.193850319197200e+00	 1.350113526121158e+00
 3.466237441342400e+00	 4.159202086918400e+00	 1.300055832036122e+00
 3.431589209063600e+00	 4.124553854639601e+00	 1.225955849707761e+00
 3.396940976784800e+00	 4.089905622360800e+00	 1.127813783312512e+00
 3.362292744506000e+00	 4.055257390082001e+00	 1.005629837025874e+00
 3.327644512227200e+00	 4.020609157803200e+00	 8.594042150224189e-01
 3.292996279948400e+00	 3.985960925524400e+00	 6.891371214757838e-01
 3.258348047669600e+00	 3.951312693245600e+00	 4.948287605586714e-01
 3.223699815390800e+00	 3.916664460966800e+00	 2.764793364428542e-01
 3.189051583112000e+00	 3.882016228688000e+00	 3.408905329917343e-02
 3.535533905900000e+00	 4.331029034750000e+00	 1.319861347313181e+00
 3.495759149457500e+00	 4.291254278307502e+00	 1.295212583490683e+00
 3.455984393015000e+00	 4.251479521865000e+00	 1.248279096443146e+00
 3.416209636572500e+00	 4.211704765422500e+00	 1.179061195050237e+00
 3.376434880130000e+00	 4.171930008980000e+00	 1.087559188189993e+00
 3.336660123687500e+00	 4.132155252537500e+00	 9.737733847388286e-01
 3.296885367245000e+00	 4.092380496095000e+00	 8.377040935715545e-01
 3.257110610802500e+00	 4.052605739652501e+00	 6.793516235613382e-01
 3.217335854359999e+00	 4.012830983210000e+00	 4.987162835797442e-01
 3.177561097917500e+00	 3.973056226767500e+00	 2.957983824967144e-01
 3.137786341475000e+00	 3.933281470325000e+00	 7.059822918056480e-02
 3.535533905900000e+00	 4.440630585836001e+00	 1.270421528007400e+00
 3.490279071903200e+00	 4.395375751839200e+00	 1.247256411334639e+00
 3.445024237906400e+00	 4.350120917842402e+00	 1.203353283263542e+00
 3.399769403909600e+00	 4.304866083845601e+00	 1.138712598744654e+00
 3.354514569912799e+00	 4.259611249848800e+00	 1.053334812725789e+00
 3.309259735916000e+00	 4.214356415852000e+00	 9.472203801520575e-01
 3.264004901919200e+00	 4.169101581855201e+00	 8.203697559658480e-01
 3.218750067922400e+00	 4.123846747858400e+00	 6.727833951068394e-01
 3.173495233925600e+00	 4.078591913861601e+00	 5.044617525119985e-01
 3.128240399928799e+00	 4.033337079864800e+00	 3.154052831155661e-01
 3.082985565932000e+00	 3.988082245868001e+00	 1.056144418490713e-01
 3.535533905900000e+00	 4.557303204734001e+00	 1.226384263772632e+00
 3.484445440958299e+00	 4.506214739792300e+00	 1.204759608561243e+00
 3.433356976016600e+00	 4.455126274850601e+00	 1.163769465595833e+00
 3.382268511074900e+00	 4.404037809908901e+00	 1.103414489422913e+00
 3.331180046133199e+00	 4.352949344967200e+00	 1.023695334584571e+00
 3.280091581191499e+00	 4.301860880025501e+00	 9.246126556184970e-01
 3.229003116249800e+00	 4.250772415083800e+00	 8.061671070579648e-01
 3.177914651308099e+00	 4.199683950142100e+00	 6.683593434318387e-01
 3.126826186366400e+00	 4.148595485200400e+00	 5.111900192645762e-01
 3.075737721424700e+00	 4.097507020258700e+00	 3.346597890762169e-01
 3.024649256482999e+00	 4.046418555317000e+00	 1.387693073824054e-01
 3.535533905900000e+00	 4.681046891444001e+00	 1.186673802674305e+00
 3.478258256622800e+00	 4.623771242166801e+00	 1.166606661327598e+00
 3.420982607345600e+00	 4.566495592889601e+00	 1.128401298562482e+00
 3.363706958068400e+00	 4.509219943612401e+00	 1.072058636705847e+00
 3.306431308791200e+00	 4.451944294335202e+00	 9.975795980776103e-01
 3.249155659514000e+00	 4.394668645058002e+00	 9.049651049907181e-01
 3.191880010236800e+00	 4.337392995780801e+00	 7.942160797511564e-01
 3.134604360959600e+00	 4.280117346503600e+00	 6.653334446579380e-01
 3.077328711682400e+00	 4.222841697226400e+00	 5.183181220031204e-01
 3.020053062405199e+00	 4.165566047949200e+00	 3.531710340717814e-01
 2.962777413128000e+00	 4.108290398672001e+00	 1.698931031420418e-01
 3.535533905900000e+00	 4.811861645966001e+00	 1.150463785562456e+00
 3.471717518896699e+00	 4.748045258962700e+00	 1.131944574586469e+00
 3.407901131893400e+00	 4.684228871959401e+00	 1.096392183870321e+00
 3.344084744890099e+00	 4.620412484956100e+00	 1.043807889190115e+00
 3.280268357886800e+00	 4.556596097952801e+00	 9.741929663112141e-01
 3.216451970883500e+00	 4.492779710949500e+00	 8.875486909882395e-01
 3.152635583880200e+00	 4.428963323946200e+00	 7.838763389650919e-01
 3.088819196876900e+00	 4.365146936942900e+00	 6.631771859749170e-01
 3.025002809873600e+00	 4.301330549939600e+00	 5.254525077401365e-01
 2.961186422870299e+00	 4.237514162936300e+00	 3.707035799724352e-01
 2.897370035866999e+00	 4.173697775933000e+00	 2.003410517184075e-01
 3.535533905900000e+00	 4.949747468300000e+00	 1.117109618927323e+00
 3.464823227780000e+00	 4.879036790180000e+00	 1.100110563533116e+00
 3.394112549660000e+00	 4.808326112060000e+00	 1.067079721369341e+00
 3.323401871540000e+00	 4.737615433940000e+00	 1.018018827981535e+00
 3.252691193420000e+00	 4.666904755820000e+00	 9.529296188990571e-01
 3.181980515300000e+00	 4.596194077700000e+00	 8.718138296350716e-01
 3.111269837180000e+00	 4.525483399580000e+00	 7.746731956865730e-01
 3.040559159060000e+00	 4.454772721459999e+00	 6.615094525343579e-01
 2.969848480940000e+00	 4.384062043340000e+00	 5.323243356430573e-01
 2.899137802820000e+00	 4.313351365219999e+00	 3.884729009424279e-01
 2.828427124700000e+00	 4.242640687100000e+00	 2.294796722727003e-01
 3.535533905900000e+00	 3.535533905900000e+00	 1.327238078611981e+00
 3.535533905900000e+00	 3.535533905900000e+00	 1.327238078611981e+00
 3.535533905899999e+00	 3.535533905899999e+00	 1.327238078611981e+00
 3.535533905900000e+00	 3.535533905900000e+00	 1.327238078611980e+00
 3.535533905900000e+00	 3.535533905900000e+00	 1.327238078611981e+00
 3.535533905900000e+00	 3.535533905900000e+00	 1.327238078611981e+00
 3.535533905900000e+00	 3.535533905900000e+00	 1.327238078611981e+00
 3.535533905900000e+00	 3.535533905900000e+00	 1.327238078611981e+00
 3.535533905899999e+00	 3.535533905899999e+00	 1.327238078611981e+00
 3.535533905899999e+00	 3.535533905899999e+00	 1.327238078611982e+00
 3.535533905900000e+00	 3.535533905900000e+00	 1.327238078611981e+00
 3.533766138947000e+00	 3.537301672853000e+00	 2.984776983734694e-02
 3.533589362251699e+00	 3.537124896157699e+00	-1.313303635441825e+00
 3.533412585556399e+00	 3.536948119462399e+00	-2.447720140716770e+00
 3.533235808861100e+00	 3.536771342767100e+00	-3.373401745973603e+00
 3.533059032165800e+00	 3.536594566071800e+00	-4.090348451211357e+00
 3.532882255470500e+00	 3.536417789376500e+00	-4.598560256434221e+00
 3.532705478775200e+00	 3.536241012681200e+00	-4.898037161644481e+00
 3.532528702079900e+00	 3.536064235985900e+00	-4.988779166824623e+00
 3.532351925384600e+00	 3.535887459290600e+00	-4.870786272030703e+00
 3.532175148689300e+00	 3.535710682595300e+00	-4.544058477201913e+00
 3.531998371994000e+00	 3.535533905900000e+00	-4.008595782358976e+00
 3.528462838088000e+00	 3.542604973711999e+00	-1.912522816136074e-01
 3.527755731306800e+00	 3.541897866930800e+00	-8.897063349122664e-01
 3.527048624525600e+00	 3.541190760149600e+00	-1.476104852706835e+00
 3.526341517744400e+00	 3.540483653368400e+00	-1.950447834996182e+00
 3.525634410963200e+00	 3.539776546587199e+00	-2.312735281775833e+00
 3.524927304182000e+00	 3.539069439805999e+00	-2.562967193047780e+00
 3.524220197400799e+00	 3.538362333024800e+00	-2.701143568807254e+00
 3.523513090619600e+00	 3.537655226243600e+00	-2.727264409054764e+00
 3.522805983838400e+00	 3.536948119462400e+00	-2.641329713783285e+00
 3.522098877057200e+00	 3.536241012681200e+00	-2.443339483000775e+00
 3.521391770275999e+00	 3.535533905899999e+00	-2.133293716698092e+00
 3.519624003323000e+00	 3.551443808477000e+00	-8.940322399445449e-02
 3.518033013065300e+00	 3.549852818219300e+00	-5.601383619560628e-01
 3.516442022807601e+00	 3.548261827961601e+00	-9.546170329073644e-01
 3.514851032549899e+00	 3.546670837703899e+00	-1.272839236828663e+00
 3.513260042292199e+00	 3.545079847446199e+00	-1.514804973701626e+00
 3.511669052034501e+00	 3.543488857188500e+00	-1.680514243503600e+00
 3.510078061776800e+00	 3.541897866930800e+00	-1.769967046216495e+00
 3.508487071519101e+00	 3.540306876673100e+00	-1.783163381821075e+00
 3.506896081261401e+00	 3.538715886415400e+00	-1.720103250296562e+00
 3.505305091003700e+00	 3.537124896157701e+00	-1.580786651623929e+00
 3.503714100746000e+00	 3.535533905900000e+00	-1.365213585782000e+00
 3.507249634652000e+00	 3.563818177148000e+00	-5.739564268330166e-03
 3.504421207527201e+00	 3.560989750023201e+00	-3.601522239939102e-01
 3.501592780402400e+00	 3.558161322898400e+00	-6.568777142086782e-01
 3.498764353277600e+00	 3.555332895773600e+00	-8.959160348015219e-01
 3.495935926152800e+00	 3.552504468648801e+00	-1.077267185661358e+00
 3.493107499028000e+00	 3.549676041524000e+00	-1.200931166676684e+00
 3.490279071903200e+00	 3.546847614399200e+00	-1.266907977736754e+00
 3.487450644778400e+00	 3.544019187274400e+00	-1.275197618730949e+00
 3.484622217653600e+00	 3.541190760149600e+00	-1.225800089547310e+00
 3.481793790528800e+00	 3.538362333024801e+00	-1.118715390075147e+00
 3.478965363404000e+00	 3.535533905900000e+00	-9.539435202036672e-01
 3.491339732075000e+00	 3.579728079725000e+00	 5.477343703340434e-02
 3.486920314692500e+00	 3.575308662342500e+00	-2.290044253549623e-01
 3.482500897310000e+00	 3.570889244959999e+00	-4.664508510379509e-01
 3.478081479927500e+00	 3.566469827577500e+00	-6.575658395919292e-01
 3.473662062545000e+00	 3.562050410195000e+00	-8.023493905930146e-01
 3.469242645162500e+00	 3.557630992812500e+00	-9.008015036175931e-01
 3.464823227780000e+00	 3.553211575430000e+00	-9.529221782418806e-01
 3.460403810397500e+00	 3.548792158047500e+00	-9.587114140419387e-01
 3.455984393015000e+00	 3.544372740665000e+00	-9.181692105941686e-01
 3.451564975632500e+00	 3.539953323282500e+00	-8.312955674750393e-01
 3.447145558250000e+00	 3.535533905900000e+00	-6.980904842601976e-01
 3.471894295592000e+00	 3.599173516208000e+00	 9.926441251454603e-02
 3.465530334561199e+00	 3.592809555177200e+00	-1.370255868749592e-01
 3.459166373530400e+00	 3.586445594146400e+00	-3.346436229534112e-01
 3.452802412499601e+00	 3.580081633115601e+00	-4.935896944553949e-01
 3.446438451468800e+00	 3.573717672084800e+00	-6.138638001156499e-01
 3.440074490438000e+00	 3.567353711053999e+00	-6.954659386688395e-01
 3.433710529407199e+00	 3.560989750023200e+00	-7.383961088496402e-01
 3.427346568376400e+00	 3.554625788992400e+00	-7.426543093927287e-01
 3.420982607345600e+00	 3.548261827961600e+00	-7.082405390327792e-01
 3.414618646314801e+00	 3.541897866930801e+00	-6.351547965044635e-01
 3.408254685284000e+00	 3.535533905899999e+00	-5.233970805425232e-01
 3.448913325203000e+00	 3.622154486597000e+00	 1.329370838832952e-01
 3.440251267133299e+00	 3.613492428527299e+00	-6.919544691457336e-02
 3.431589209063599e+00	 3.604830370457599e+00	-2.381703419936190e-01
 3.422927150993900e+00	 3.596168312387900e+00	-3.739875795255595e-01
 3.414265092924200e+00	 3.587506254318200e+00	-4.766471563197527e-01
 3.405603034854500e+00	 3.578844196248499e+00	-5.461490691855924e-01
 3.396940976784799e+00	 3.570182138178799e+00	-5.824933149323636e-01
 3.388278918715100e+00	 3.561520080109100e+00	-5.856798903693448e-01
 3.379616860645399e+00	 3.552858022039399e+00	-5.557087923060205e-01
 3.370954802575700e+00	 3.544195963969701e+00	-4.925800175516336e-01
 3.362292744506000e+00	 3.535533905900000e+00	-3.962935629154384e-01
 3.422396820908000e+00	 3.648670990892001e+00	 1.590959903280033e-01
 3.411083112408799e+00	 3.637357282392799e+00	-1.725000886755985e-02
 3.399769403909600e+00	 3.626043573893600e+00	-1.645973274476983e-01
 3.388455695410401e+00	 3.614729865394401e+00	-2.829459410062303e-01
 3.377141986911200e+00	 3.603416156895200e+00	-3.722958792647165e-01
 3.365828278411999e+00	 3.592102448396000e+00	-4.326471154338227e-01
 3.354514569912800e+00	 3.580788739896799e+00	-4.639996424041585e-01
 3.343200861413600e+00	 3.569475031397600e+00	-4.663534530663242e-01
 3.331887152914399e+00	 3.558161322898400e+00	-4.397085403109400e-01
 3.320573444415200e+00	 3.546847614399200e+00	-3.840648970286890e-01
 3.309259735916000e+00	 3.535533905900000e+00	-2.994225161101297e-01
 3.392344782707000e+00	 3.678723029093000e+00	 1.798522854087648e-01
 3.378025870387699e+00	 3.664404116773699e+00	 2.369745737921219e-02
 3.363706958068400e+00	 3.650085204454400e+00	-1.067067164292298e-01
 3.349388045749100e+00	 3.635766292135100e+00	-2.113602216061295e-01
 3.335069133429800e+00	 3.621447379815800e+00	-2.902630248118631e-01
 3.320750221110500e+00	 3.607128467496501e+00	-3.434151524451317e-01
 3.306431308791201e+00	 3.592809555177200e+00	-3.708165679741278e-01
 3.292112396471899e+00	 3.578490642857899e+00	-3.724672569861983e-01
 3.277793484152601e+00	 3.564171730538600e+00	-3.483672050685008e-01
 3.263474571833300e+00	 3.549852818219300e+00	-2.985163978084451e-01
 3.249155659514000e+00	 3.535533905899999e+00	-2.229148207932737e-01
 3.358757210600000e+00	 3.712310601200000e+00	 1.965944194683070e-01
 3.341079541070000e+00	 3.694632931670000e+00	 5.670980052082593e-02
 3.323401871539999e+00	 3.676955262139999e+00	-6.003034771182039e-02
 3.305724202010000e+00	 3.659277592610000e+00	-1.536259981139582e-01
 3.288046532480000e+00	 3.641599923080000e+00	-2.240771235698782e-01
 3.270368862950000e+00	 3.623922253550000e+00	-2.713836969639626e-01
 3.252691193420000e+00	 3.606244584020000e+00	-2.955456751555525e-01
 3.235013523890000e+00	 3.588566914490000e+00	-2.965630664164263e-01
 3.217335854360000e+00	 3.570889244960000e+00	-2.744358238906890e-01
 3.199658184830000e+00	 3.553211575430000e+00	-2.291639204583898e-01
 3.181980515300000e+00	 3.535533905900000e+00	-1.607473289995764e-01
 3.358757210600000e+00	 3.712310601200000e+00	 1.965944194683070e-01
 3.341079541070000e+00	 3.694632931670000e+00	 5.670980052082593e-02
 3.323401871539999e+00	 3.676955262139999e+00	-6.003034771182039e-02
 3.305724202010000e+00	 3.659277592610000e+00	-1.536259981139582e-01
 3.288046532480000e+00	 3.641599923080000e+00	-2.240771235698782e-01
 3.270368862950000e+00	 3.623922253550000e+00	-2.713836969639626e-01
 3.252691193420000e+00	 3.606244584020000e+00	-2.955456751555525e-01
 3.235013523890000e+00	 3.588566914490000e+00	-2.965630664164263e-01
 3.217335854360000e+00	 3.570889244960000e+00	-2.744358238906890e-01
 3.199658184830000e+00	 3.553211575430000e+00	-2.291639204583898e-01
 3.181980515300000e+00	 3.535533905900000e+00	-1.607473289995764e-01
 3.321634104587000e+00	 3.749433707213000e+00	 2.050529118487305e-01
 3.300244124455890e+00	 3.728043727081699e+00	 7.731038718492204e-02
 3.278854144324760e+00	 3.706653746950401e+00	-2.930543826134661e-02
 3.257464164193611e+00	 3.685263766819100e+00	-1.147945164522450e-01
 3.236074184062439e+00	 3.663873786687800e+00	-1.791567993501575e-01
 3.214684203931250e+00	 3.642483806556500e+00	-2.223922389176232e-01
 3.193294223800040e+00	 3.621093826425200e+00	-2.445007677055492e-01
 3.171904243668811e+00	 3.599703846293900e+00	-2.454823809389286e-01
 3.150514263537560e+00	 3.578313866162600e+00	-2.253370061722814e-01
 3.129124283406290e+00	 3.556923886031300e+00	-1.840645953606896e-01
 3.107734303275000e+00	 3.535533905900000e+00	-1.216651004594162e-01
 3.280975464668000e+00	 3.790092347132000e+00	 2.152873360404061e-01
 3.255519620545560e+00	 3.764636503008800e+00	 9.742108585569918e-02
 3.230063776423039e+00	 3.739180658885600e+00	-1.042600028340362e-03
 3.204607932300439e+00	 3.713724814762400e+00	-8.010364064368450e-02
 3.179152088177761e+00	 3.688268970639200e+00	-1.397619550226551e-01
 3.153696244055000e+00	 3.662813126516001e+00	-1.800174621979239e-01
 3.128240399932160e+00	 3.637357282392801e+00	-2.008700812025041e-01
 3.102784555809240e+00	 3.611901438269601e+00	-2.023197133403414e-01
 3.077328711686240e+00	 3.586445594146400e+00	-1.843663181217053e-01
 3.051872867563160e+00	 3.560989750023200e+00	-1.470097910217521e-01
 3.026417023440000e+00	 3.535533905900000e+00	-9.025005106081957e-02
 3.236781290843000e+00	 3.834286520957000e+00	 2.260923690376701e-01
 3.206906029339010e+00	 3.804411259451300e+00	 1.164367644769885e-01
 3.177030767834840e+00	 3.774535997945601e+00	 2.469544757617735e-02
 3.147155506330491e+00	 3.744660736439900e+00	-4.913145078152517e-02
 3.117280244825959e+00	 3.714785474934199e+00	-1.050437997134571e-01
 3.087404983321250e+00	 3.684910213428500e+00	-1.430414683375804e-01
 3.057529721816359e+00	 3.655034951922799e+00	-1.631243257724077e-01
 3.027654460311290e+00	 3.625159690417100e+00	-1.652922411370666e-01
 2.997779198806040e+00	 3.595284428911400e+00	-1.495450689278973e-01
 2.967903937300611e+00	 3.565409167405701e+00	-1.158827127921106e-01
 2.938028675795000e+00	 3.535533905900000e+00	-6.421110543708441e-02
 3.189051583112000e+00	 3.882016228688000e+00	 2.368017486508399e-01
 3.154403350836239e+00	 3.847367996409200e+00	 1.341012394027354e-01
 3.119755118560160e+00	 3.812719764130399e+00	 4.801891085089467e-02
 3.085106886283760e+00	 3.778071531851600e+00	-2.144503283545564e-02
 3.050458654007040e+00	 3.743423299572800e+00	-7.429038748808044e-02
 3.015810421730001e+00	 3.708775067294000e+00	-1.105169489397544e-01
 2.981162189452639e+00	 3.674126835015199e+00	-1.301245130242464e-01
 2.946513957174960e+00	 3.639478602736399e+00	-1.331128755763271e-01
 2.911865724896960e+00	 3.604830370457600e+00	-1.185459667515363e-01
 2.877217492618640e+00	 3.570182138178800e+00	-8.720341231198667e-02
 2.842569260339999e+00	 3.535533905900000e+00	-3.926800742139408e-02
 3.137786341475000e+00	 3.933281470325000e+00	 2.470462120345177e-01
 3.098011585037250e+00	 3.893506713882501e+00	 1.503343598809706e-01
 3.058236828599000e+00	 3.853731957440000e+00	 6.910324732708820e-02
 3.018462072160250e+00	 3.813957200997501e+00	 3.353183237493826e-03
 2.978687315721000e+00	 3.774182444555001e+00	-4.691552352486293e-02
 2.938912559281250e+00	 3.734407688112500e+00	-8.163700753682529e-02
 2.899137802841000e+00	 3.694632931670000e+00	-9.966415021062802e-02
 2.859363046400250e+00	 3.654858175227500e+00	-1.022421073108796e-01
 2.819588289959000e+00	 3.615083418785000e+00	-8.937214240722005e-02
 2.779813533517250e+00	 3.575308662342500e+00	-6.105558558015300e-02
 2.740038777074999e+00	 3.535533905900000e+00	-1.729369016390642e-02
 3.082985565932000e+00	 3.988082245868001e+00	 2.566239557325699e-01
 3.037730731942040e+00	 3.942827411871201e+00	 1.651436489518808e-01
 2.992475897951360e+00	 3.897572577874401e+00	 8.813927270376691e-02
 2.947221063959960e+00	 3.852317743877601e+00	 2.561128191273465e-02
 2.901966229967839e+00	 3.807062909880800e+00	-2.118333890374764e-02
 2.856711395975000e+00	 3.761808075884000e+00	-5.333547828690287e-02
 2.811456561981440e+00	 3.716553241887200e+00	-7.105275486407864e-02
 2.766201727987160e+00	 3.671298407890400e+00	-7.433705842849386e-02
 2.720946893992159e+00	 3.626043573893600e+00	-6.319027876337086e-02
 2.675692059996439e+00	 3.580788739896799e+00	-3.761429304668792e-02
 2.630437225999999e+00	 3.535533905900000e+00	 2.388976674344734e-03
 3.024649256482999e+00	 4.046418555317000e+00	 2.654288455329299e-01
 2.973560791550610e+00	 3.995330090375300e+00	 1.785780321547404e-01
 2.922472326617240e+00	 3.944241625433601e+00	 1.059102639688144e-01
 2.871383861682889e+00	 3.893153160491901e+00	 4.785431266151695e-02
 2.820295396747559e+00	 3.842064695550200e+00	 3.332191051680963e-03
 2.769206931811250e+00	 3.790976230608500e+00	-2.765881975155100e-02
 2.718118466873960e+00	 3.739887765666800e+00	-4.512143862274848e-02
 2.667030001935690e+00	 3.688799300725100e+00	-4.905838442019889e-02
 2.615941536996440e+00	 3.637710835783400e+00	-3.947237598590300e-02
 2.564853072056209e+00	 3.586622370841700e+00	-1.636611817833136e-02
 2.513764607114999e+00	 3.535533905900000e+00	 2.025763389005353e-02
 2.962777413128000e+00	 4.108290398672001e+00	 2.734094891188416e-01
 2.905501763862960e+00	 4.051014749394801e+00	 1.918507723564681e-01
 2.848226114596640e+00	 3.993739100117601e+00	 1.237397185262106e-01
 2.790950465329039e+00	 3.936463450840401e+00	 6.835428985407957e-02
 2.733674816060160e+00	 3.879187801563201e+00	 2.569065513521382e-02
 2.676399166790000e+00	 3.821912152286000e+00	-4.255016809505047e-03
 2.619123517518559e+00	 3.764636503008800e+00	-2.148655713342915e-02
 2.561847868245839e+00	 3.707360853731600e+00	-2.600779696417210e-02
 2.504572218971839e+00	 3.650085204454400e+00	-1.782256740357432e-02
 2.447296569696559e+00	 3.592809555177200e+00	 3.065315977549221e-03
 2.390020920419999e+00	 3.535533905900000e+00	 3.665198130818659e-02
 2.897370035866999e+00	 4.173697775933000e+00	 2.819547446475254e-01
 2.833553648879089e+00	 4.109881388929700e+00	 2.050066291443376e-01
 2.769737261889559e+00	 4.046065001926401e+00	 1.400579829959611e-01
 2.705920874898409e+00	 3.982248614923100e+00	 8.710350682740023e-02
 2.642104487905640e+00	 3.918432227919801e+00	 4.613790130335477e-02
 2.578288100911249e+00	 3.854615840916500e+00	 1.715586712824316e-02
 2.514471713915239e+00	 3.790799453913200e+00	 1.521050462101048e-04
 2.450655326917609e+00	 3.726983066909900e+00	-4.878684158900554e-03
 2.386838939918359e+00	 3.663166679906600e+00	 2.058200336458538e-03
 2.323022552917489e+00	 3.599350292903300e+00	 2.095747661827704e-02
 2.259206165914999e+00	 3.535533905900000e+00	 5.181379971140446e-02
 2.828427124700000e+00	 4.242640687100000e+00	 2.904154442689984e-01
 2.757716446599001e+00	 4.171930008980000e+00	 2.170297697609122e-01
 2.687005768496000e+00	 4.101219330860000e+00	 1.549823186585791e-01
 2.616295090391000e+00	 4.030508652739999e+00	 1.042658818333117e-01
 2.545584412284000e+00	 3.959797974620000e+00	 6.487325021631093e-02
 2.474873734175000e+00	 3.889087296500000e+00	 3.679721479864348e-02
 2.404163056064000e+00	 3.818376618380000e+00	 2.003056663125907e-02
 2.333452377951000e+00	 3.747665940260000e+00	 1.456609682497503e-02
 2.262741699836000e+00	 3.676955262140000e+00	 2.039659655050022e-02
 2.192031021719000e+00	 3.606244584020000e+00	 3.751487617123106e-02
 2.121320343600000e+00	 3.535533905900000e+00	 6.591367546101434e-02
 3.535533905900000e+00	 3.535533905900000e+00	 1.327238078611981e+00
 3.535533905900000e+00	 3.535533905900000e+00	 1.327238078611981e+00
 3.535533905899999e+00	 3.535533905899999e+00	 1.327238078611981e+00
 3.535533905900000e+00	 3.535533905900000e+00	 1.327238078611980e+00
 3.535533905900000e+00	 3.535533905900000e+00	 1.327238078611981e+00
 3.535533905900000e+00	 3.535533905900000e+00	 1.327238078611981e+00
 3.535533905900000e+00	 3.535533905900000e+00	 1.327238078611981e+00
 3.535533905900000e+00	 3.535533905900000e+00	 1.327238078611981e+00
 3.535533905899999e+00	 3.535533905899999e+00	 1.327238078611981e+00
 3.535533905899999e+00	 3.535533905899999e+00	 1.327238078611982e+00
 3.535533905900000e+00	 3.535533905900000e+00	 1.327238078611981e+00
 3.531998371994000e+00	 3.535533905900000e+00	-3.359045869932988e+00
 3.532175148689299e+00	 3.535357129204699e+00	-4.303392131147321e+00
 3.532351925384600e+00	 3.535180352509399e+00	-5.266121646737213e+00
 3.532528702079900e+00	 3.535003575814100e+00	-6.247234416685162e+00
 3.532705478775200e+00	 3.534826799118800e+00	-7.246730440992786e+00
 3.532882255470500e+00	 3.534650022423500e+00	-8.264609719663834e+00
 3.533059032165800e+00	 3.534473245728201e+00	-9.300872252703687e+00
 3.533235808861100e+00	 3.534296469032900e+00	-1.035551804008705e+01
 3.533412585556400e+00	 3.534119692337600e+00	-1.142854708187536e+01
 3.533589362251700e+00	 3.533942915642300e+00	-1.251995937800814e+01
 3.533766138947000e+00	 3.533766138947000e+00	-1.362975492850463e+01
 3.521391770275999e+00	 3.535533905899999e+00	-1.560263703721889e+00
 3.522098877057200e+00	 3.534826799118800e+00	-2.030166487602475e+00
 3.522805983838400e+00	 3.534119692337601e+00	-2.510575207788210e+00
 3.523513090619600e+00	 3.533412585556400e+00	-3.001489864276355e+00
 3.524220197400799e+00	 3.532705478775199e+00	-3.502910457061902e+00
 3.524927304182000e+00	 3.531998371993999e+00	-4.014836986148066e+00
 3.525634410963200e+00	 3.531291265212799e+00	-4.537269451528620e+00
 3.526341517744400e+00	 3.530584158431600e+00	-5.070207853202836e+00
 3.527048624525600e+00	 3.529877051650400e+00	-5.613652191164567e+00
 3.527755731306800e+00	 3.529169944869200e+00	-6.167602465420294e+00
 3.528462838088000e+00	 3.528462838088000e+00	-6.732058675959664e+00
 3.503714100746000e+00	 3.535533905900000e+00	-1.000078920169842e+00
 3.505305091003700e+00	 3.533942915642300e+00	-1.312381759849913e+00
 3.506896081261401e+00	 3.532351925384601e+00	-1.631825641156744e+00
 3.508487071519100e+00	 3.530760935126899e+00	-1.958410564065093e+00
 3.510078061776799e+00	 3.529169944869199e+00	-2.292136528551346e+00
 3.511669052034501e+00	 3.527578954611501e+00	-2.633003534587765e+00
 3.513260042292200e+00	 3.525987964353800e+00	-2.981011582150698e+00
 3.514851032549900e+00	 3.524396974096100e+00	-3.336160671214860e+00
 3.516442022807600e+00	 3.522805983838400e+00	-3.698450801754768e+00
 3.518033013065301e+00	 3.521214993580701e+00	-4.067881973745765e+00
 3.519624003323000e+00	 3.519624003323000e+00	-4.444454187161624e+00
 3.478965363404000e+00	 3.535533905900000e+00	-7.269544121887237e-01
 3.481793790528801e+00	 3.532705478775201e+00	-9.605418951348709e-01
 3.484622217653599e+00	 3.529877051650399e+00	-1.199449484494705e+00
 3.487450644778400e+00	 3.527048624525600e+00	-1.443677180126963e+00
 3.490279071903200e+00	 3.524220197400801e+00	-1.693224981889832e+00
 3.493107499028000e+00	 3.521391770276001e+00	-1.948092889641539e+00
 3.495935926152800e+00	 3.518563343151201e+00	-2.208280903240929e+00
 3.498764353277600e+00	 3.515734916026400e+00	-2.473789022546667e+00
 3.501592780402401e+00	 3.512906488901601e+00	-2.744617247417033e+00
 3.504421207527200e+00	 3.510078061776800e+00	-3.020765577710386e+00
 3.507249634652000e+00	 3.507249634652000e+00	-3.302234013285717e+00
 3.447145558250000e+00	 3.535533905900000e+00	-5.649320336563284e-01
 3.451564975632500e+00	 3.531114488517500e+00	-7.513004038270759e-01
 3.455984393015000e+00	 3.526695071135000e+00	-9.418521668817235e-01
 3.460403810397501e+00	 3.522275653752501e+00	-1.136587322280333e+00
 3.464823227780000e+00	 3.517856236370000e+00	-1.335505869483259e+00
 3.469242645162500e+00	 3.513436818987500e+00	-1.538607807950810e+00
 3.473662062545000e+00	 3.509017401605000e+00	-1.745893137143174e+00
 3.478081479927500e+00	 3.504597984222500e+00	-1.957361856520320e+00
 3.482500897310000e+00	 3.500178566840000e+00	-2.173013965542886e+00
 3.486920314692501e+00	 3.495759149457500e+00	-2.392849463670969e+00
 3.491339732075000e+00	 3.491339732075000e+00	-2.616868350364451e+00
 3.408254685284000e+00	 3.535533905899999e+00	-4.573521194014320e-01
 3.414618646314800e+00	 3.529169944869200e+00	-6.122292352254374e-01
 3.420982607345600e+00	 3.522805983838400e+00	-7.705137770480884e-01
 3.427346568376401e+00	 3.516442022807601e+00	-9.322057432575171e-01
 3.433710529407200e+00	 3.510078061776800e+00	-1.097305132242044e+00
 3.440074490438000e+00	 3.503714100746000e+00	-1.265811942389940e+00
 3.446438451468799e+00	 3.497350139715199e+00	-1.437726172089433e+00
 3.452802412499600e+00	 3.490986178684401e+00	-1.613047819728790e+00
 3.459166373530401e+00	 3.484622217653600e+00	-1.791776883696259e+00
 3.465530334561200e+00	 3.478258256622800e+00	-1.973913362380137e+00
 3.471894295592000e+00	 3.471894295592000e+00	-2.159457254168601e+00
 3.362292744506000e+00	 3.535533905900000e+00	-3.804201397278725e-01
 3.370954802575699e+00	 3.526871847830299e+00	-5.127822636390863e-01
 3.379616860645399e+00	 3.518209789760600e+00	-6.479889793021709e-01
 3.388278918715100e+00	 3.509547731690899e+00	-7.860402826528490e-01
 3.396940976784800e+00	 3.500885673621200e+00	-9.269361696269255e-01
 3.405603034854500e+00	 3.492223615551500e+00	-1.070676636160209e+00
 3.414265092924199e+00	 3.483561557481799e+00	-1.217261678188483e+00
 3.422927150993900e+00	 3.474899499412100e+00	-1.366691291647421e+00
 3.431589209063599e+00	 3.466237441342399e+00	-1.518965472472976e+00
 3.440251267133300e+00	 3.457575383272700e+00	-1.674084216600820e+00
 3.448913325203000e+00	 3.448913325203000e+00	-1.832047519966714e+00
 3.309259735916000e+00	 3.535533905900000e+00	-3.223990993847305e-01
 3.320573444415199e+00	 3.524220197400799e+00	-4.378482722859849e-01
 3.331887152914400e+00	 3.512906488901600e+00	-5.557156338722082e-01
 3.343200861413601e+00	 3.501592780402401e+00	-6.760011750875279e-01
 3.354514569912800e+00	 3.490279071903200e+00	-7.987048868760128e-01
 3.365828278411999e+00	 3.478965363403999e+00	-9.238267601819066e-01
 3.377141986911199e+00	 3.467651654904799e+00	-1.051366785949262e+00
 3.388455695410400e+00	 3.456337946405600e+00	-1.181324955122305e+00
 3.399769403909600e+00	 3.445024237906400e+00	-1.313951586905347e+00
 3.411083112408801e+00	 3.433710529407200e+00	-1.449614473138594e+00
 3.422396820908000e+00	 3.422396820908000e+00	-1.587691544922432e+00
 3.249155659514000e+00	 3.535533905899999e+00	-2.768318404995956e-01
 3.263474571833299e+00	 3.521214993580699e+00	-3.790956934730985e-01
 3.277793484152599e+00	 3.506896081261400e+00	-4.834440596534156e-01
 3.292112396471900e+00	 3.492577168942101e+00	-5.898769206816136e-01
 3.306431308791201e+00	 3.478258256622800e+00	-6.983942581988892e-01
 3.320750221110500e+00	 3.463939344303500e+00	-8.089960538463208e-01
 3.335069133429800e+00	 3.449620431984200e+00	-9.216822892651095e-01
 3.349388045749099e+00	 3.435301519664899e+00	-1.037460136995231e+00
 3.363706958068401e+00	 3.420982607345600e+00	-1.155420733012527e+00
 3.378025870387700e+00	 3.406663695026300e+00	-1.275459403994965e+00
 3.392344782707000e+00	 3.392344782707000e+00	-1.397576152695934e+00
 3.181980515300000e+00	 3.535533905900000e+00	-2.398726696367945e-01
 3.199658184830001e+00	 3.517856236370001e+00	-3.315538111348862e-01
 3.217335854360000e+00	 3.500178566839999e+00	-4.250518558069247e-01
 3.235013523890000e+00	 3.482500897310000e+00	-5.203667691073817e-01
 3.252691193420000e+00	 3.464823227780000e+00	-6.174985164907389e-01
 3.270368862950000e+00	 3.447145558250000e+00	-7.165360199311986e-01
 3.288046532480000e+00	 3.429467888720000e+00	-8.186874197101081e-01
 3.305724202010000e+00	 3.411790219190000e+00	-9.226458588289177e-01
 3.323401871540000e+00	 3.394112549660000e+00	-1.028411342468783e+00
 3.341079541070000e+00	 3.376434880130000e+00	-1.135983875810817e+00
 3.358757210600000e+00	 3.358757210600000e+00	-1.245363464036171e+00
 3.181980515300000e+00	 3.535533905900000e+00	-2.398726696367945e-01
 3.199658184830001e+00	 3.517856236370001e+00	-3.315538111348862e-01
 3.217335854360000e+00	 3.500178566839999e+00	-4.250518558069247e-01
 3.235013523890000e+00	 3.482500897310000e+00	-5.203667691073817e-01
 3.252691193420000e+00	 3.464823227780000e+00	-6.174985164907389e-01
 3.270368862950000e+00	 3.447145558250000e+00	-7.165360199311986e-01
 3.288046532480000e+00	 3.429467888720000e+00	-8.186874197101081e-01
 3.305724202010000e+00	 3.411790219190000e+00	-9.226458588289177e-01
 3.323401871540000e+00	 3.394112549660000e+00	-1.028411342468783e+00
 3.341079541070000e+00	 3.376434880130000e+00	-1.135983875810817e+00
 3.358757210600000e+00	 3.358757210600000e+00	-1.245363464036171e+00
 3.107734303275000e+00	 3.535533905900000e+00	-2.015893204084802e-01
 3.129124283406289e+00	 3.514143925768699e+00	-2.807622290260997e-01
 3.150514263537560e+00	 3.492753945637400e+00	-3.623128806804085e-01
 3.171904243668811e+00	 3.471363965506101e+00	-4.462412141714382e-01
 3.193294223800040e+00	 3.449973985374800e+00	-5.325471682993547e-01
 3.214684203931250e+00	 3.428584005243500e+00	-6.227941074579086e-01
 3.236074184062440e+00	 3.407194025112200e+00	-7.155396601018869e-01
 3.257464164193611e+00	 3.385804044980900e+00	-8.106484452968712e-01
 3.278854144324760e+00	 3.364414064849600e+00	-9.081204722213013e-01
 3.300244124455890e+00	 3.343024084718299e+00	-1.007955750053622e+00
 3.321634104587000e+00	 3.321634104587000e+00	-1.110154287972262e+00
 3.026417023440000e+00	 3.535533905900000e+00	-1.573900036792649e-01
 3.051872867563160e+00	 3.510078061776801e+00	-2.290266594553524e-01
 3.077328711686239e+00	 3.484622217653600e+00	-3.032447977255357e-01
 3.102784555809239e+00	 3.459166373530399e+00	-3.800443153364669e-01
 3.128240399932160e+00	 3.433710529407200e+00	-4.605983730024226e-01
 3.153696244055000e+00	 3.408254685284000e+00	-5.445948473164479e-01
 3.179152088177760e+00	 3.382798841160800e+00	-6.311521307097012e-01
 3.204607932300440e+00	 3.357342997037601e+00	-7.202702386526063e-01
 3.230063776423040e+00	 3.331887152914400e+00	-8.119491866155399e-01
 3.255519620545560e+00	 3.306431308791199e+00	-9.061889900689443e-01
 3.280975464668000e+00	 3.280975464668000e+00	-1.002989664483149e+00
 2.938028675795000e+00	 3.535533905900000e+00	-1.109833051611801e-01
 2.967903937300610e+00	 3.505658644394300e+00	-1.783710336321762e-01
 2.997779198806040e+00	 3.475783382888600e+00	-2.482324939344341e-01
 3.027654460311290e+00	 3.445908121382900e+00	-3.208553950602725e-01
 3.057529721816359e+00	 3.416032859877199e+00	-3.982836993783712e-01
 3.087404983321250e+00	 3.386157598371500e+00	-4.782509874967646e-01
 3.117280244825959e+00	 3.356282336865799e+00	-5.607572844233929e-01
 3.147155506330490e+00	 3.326407075360099e+00	-6.458026151661770e-01
 3.177030767834840e+00	 3.296531813854400e+00	-7.333870047330467e-01
 3.206906029339010e+00	 3.266656552348700e+00	-8.235104781318865e-01
 3.236781290843000e+00	 3.236781290843000e+00	-9.161730603706248e-01
 2.842569260339999e+00	 3.535533905900000e+00	-6.161431529278913e-02
 2.877217492618640e+00	 3.500885673621199e+00	-1.277223350028548e-01
 2.911865724896959e+00	 3.466237441342400e+00	-1.962729605162952e-01
 2.946513957174960e+00	 3.431589209063600e+00	-2.684699047668649e-01
 2.981162189452640e+00	 3.396940976784800e+00	-3.436167885319704e-01
 3.015810421730001e+00	 3.362292744506000e+00	-4.211458870382302e-01
 3.050458654007040e+00	 3.327644512227200e+00	-5.010572392967676e-01
 3.085106886283759e+00	 3.292996279948400e+00	-5.833508843187035e-01
 3.119755118560160e+00	 3.258348047669600e+00	-6.680268611151639e-01
 3.154403350836239e+00	 3.223699815390800e+00	-7.550852086972186e-01
 3.189051583112000e+00	 3.189051583112000e+00	-8.445259660759861e-01
 2.740038777074999e+00	 3.535533905900000e+00	-1.326825436529006e-02
 2.779813533517249e+00	 3.495759149457500e+00	-7.858390664344045e-02
 2.819588289958999e+00	 3.455984393015000e+00	-1.461205358166930e-01
 2.859363046400250e+00	 3.416209636572500e+00	-2.185743067929848e-01
 2.899137802841000e+00	 3.376434880130000e+00	-2.938537224160905e-01
 2.938912559281250e+00	 3.336660123687500e+00	-3.713060632535884e-01
 2.978687315721000e+00	 3.296885367245000e+00	-4.497000226631098e-01
 3.018462072160250e+00	 3.257110610802500e+00	-5.301722467523389e-01
 3.058236828598999e+00	 3.217335854359999e+00	-6.127877104236700e-01
 3.098011585037250e+00	 3.177561097917500e+00	-6.975464726930494e-01
 3.137786341475000e+00	 3.137786341475000e+00	-7.844485925764364e-01
 2.630437225999999e+00	 3.535533905900000e+00	 3.345263463945519e-02
 2.675692059996440e+00	 3.490279071903200e+00	-3.197126917044502e-02
 2.720946893992160e+00	 3.445024237906400e+00	-9.962787407151072e-02
 2.766201727987160e+00	 3.399769403909600e+00	-1.728127030494875e-01
 2.811456561981439e+00	 3.354514569912799e+00	-2.478907930334534e-01
 2.856711395975000e+00	 3.309259735916000e+00	-3.248621440229796e-01
 2.901966229967840e+00	 3.264004901919200e+00	-4.037267560176355e-01
 2.947221063959960e+00	 3.218750067922400e+00	-4.842820810825912e-01
 2.992475897951359e+00	 3.173495233925600e+00	-5.654553382077312e-01
 3.037730731942039e+00	 3.128240399928799e+00	-6.484838850019823e-01
 3.082985565932000e+00	 3.082985565932000e+00	-7.333678083900126e-01
 2.513764607114999e+00	 3.535533905900000e+00	 7.825017302620463e-02
 2.564853072056209e+00	 3.484445440958299e+00	 1.213303413825367e-02
 2.615941536996440e+00	 3.433356976016600e+00	-5.694505933290259e-02
 2.667030001935689e+00	 3.382268511074900e+00	-1.307869947262651e-01
 2.718118466873960e+00	 3.331180046133199e+00	-2.062167161405325e-01
 2.769206931811250e+00	 3.280091581191499e+00	-2.832342235753003e-01
 2.820295396747559e+00	 3.229003116249800e+00	-3.618395170301619e-01
 2.871383861682889e+00	 3.177914651308099e+00	-4.420325965047039e-01
 2.922472326617240e+00	 3.126826186366400e+00	-5.238134619985166e-01
 2.973560791550609e+00	 3.075737721424700e+00	-6.061296191150306e-01
 3.024649256482999e+00	 3.024649256482999e+00	-6.893992816484293e-01
 2.390020920419999e+00	 3.535533905900000e+00	 1.209987873838833e-01
 2.447296569696559e+00	 3.478258256622800e+00	 5.382010611643218e-02
 2.504572218971839e+00	 3.420982607345600e+00	-1.712861455823156e-02
 2.561847868245839e+00	 3.363706958068400e+00	-9.201898634185693e-02
 2.619123517518560e+00	 3.306431308791200e+00	-1.681800649633367e-01
 2.676399166790000e+00	 3.249155659514000e+00	-2.456118504223022e-01
 2.733674816060160e+00	 3.191880010236800e+00	-3.243143427183751e-01
 2.790950465329039e+00	 3.134604360959600e+00	-4.042875418511792e-01
 2.848226114596639e+00	 3.077328711682400e+00	-4.855314478203397e-01
 2.905501763862960e+00	 3.020053062405199e+00	-5.680460606254596e-01
 2.962777413128000e+00	 2.962777413128000e+00	-6.511333970302047e-01
 2.259206165914999e+00	 3.535533905900000e+00	 1.616693690011692e-01
 2.323022552917489e+00	 3.471717518896699e+00	 9.321203904508596e-02
 2.386838939918359e+00	 3.407901131893400e+00	 2.008319139898485e-02
 2.450655326917609e+00	 3.344084744890099e+00	-5.611494168005107e-02
 2.514471713915239e+00	 3.280268357886800e+00	-1.332644531312986e-01
 2.578288100911249e+00	 3.216451970883500e+00	-2.113653429544146e-01
 2.642104487905639e+00	 3.152635583880200e+00	-2.904176111490679e-01
 2.705920874898409e+00	 3.088819196876900e+00	-3.704212577149076e-01
 2.769737261889559e+00	 3.025002809873600e+00	-4.513762826515960e-01
 2.833553648879089e+00	 2.961186422870299e+00	-5.332826859587841e-01
 2.897370035866999e+00	 2.897370035866999e+00	-6.161404676361335e-01
 2.121320343600000e+00	 3.535533905900000e+00	 2.002845000749668e-01
 2.192031021719000e+00	 3.464823227780000e+00	 1.304384182307567e-01
 2.262741699836000e+00	 3.394112549660000e+00	 5.491931413660400e-02
 2.333452377951000e+00	 3.323401871540000e+00	-2.275132158344784e-02
 2.404163056064000e+00	 3.252691193420000e+00	-1.010579285550161e-01
 2.474873734175000e+00	 3.181980515300000e+00	-1.800005067777827e-01
 2.545584412284000e+00	 3.111269837180000e+00	-2.595790562514516e-01
 2.616295090391000e+00	 3.040559159060000e+00	-3.397935769757088e-01
 2.687005768496000e+00	 2.969848480940000e+00	-4.206440689502516e-01
 2.757716446599000e+00	 2.899137802820000e+00	-5.021305321747699e-01
 2.828427124700000e+00	 2.828427124700000e+00	-5.842529666489606e-01
 3.535533905900000e+00	 3.535533905900000e+00	 1.327238078611981e+00
 3.535533905900000e+00	 3.535533905900000e+00	 1.327238078611981e+00
 3.535533905899999e+00	 3.535533905899999e+00	 1.327238078611981e+00
 3.535533905900000e+00	 3.535533905900000e+00	 1.327238078611981e+00
 3.535533905900000e+00	 3.535533905900000e+00	 1.327238078611981e+00
 3.535533905900000e+00	 3.535533905900000e+00	 1.327238078611981e+00
 3.535533905900000e+00	 3.535533905900000e+00	 1.327238078611981e+00
 3.535533905900000e+00	 3.535533905900000e+00	 1.327238078611981e+00
 3.535533905899999e+00	 3.535533905899999e+00	 1.327238078611981e+00
 3.535533905899999e+00	 3.535533905899999e+00	 1.327238078611980e+00
 3.535533905900000e+00	 3.535533905900000e+00	 1.327238078611981e+00
 3.533766138947000e+00	 3.533766138947000e+00	 1.429059031408681e+01
 3.533942915642299e+00	 3.533589362251699e+00	 1.757709884001484e+01
 3.534119692337599e+00	 3.533412585556399e+00	 2.040768961565178e+01
 3.534296469032900e+00	 3.533235808861100e+00	 2.278236264098727e+01
 3.534473245728200e+00	 3.533059032165800e+00	 2.470111791602359e+01
 3.534650022423500e+00	 3.532882255470500e+00	 2.616395544076268e+01
 3.534826799118800e+00	 3.532705478775200e+00	 2.717087521520770e+01
 3.535003575814100e+00	 3.532528702079900e+00	 2.772187723934699e+01
 3.535180352509400e+00	 3.532351925384600e+00	 2.781696151320289e+01
 3.535357129204700e+00	 3.532175148689300e+00	 2.745612803675590e+01
 3.535533905900000e+00	 3.531998371994000e+00	 2.663937681001150e+01
 3.528462838088000e+00	 3.528462838088000e+00	 7.202406607800187e+00
 3.529169944869200e+00	 3.527755731306800e+00	 8.836005015429707e+00
 3.529877051650401e+00	 3.527048624525600e+00	 1.024280448664180e+01
 3.530584158431600e+00	 3.526341517744400e+00	 1.142280502143785e+01
 3.531291265212799e+00	 3.525634410963200e+00	 1.237600661981880e+01
 3.531998371993999e+00	 3.524927304182000e+00	 1.310240928179003e+01
 3.532705478775199e+00	 3.524220197400799e+00	 1.360201300735140e+01
 3.533412585556400e+00	 3.523513090619600e+00	 1.387481779650551e+01
 3.534119692337600e+00	 3.522805983838400e+00	 1.392082364925396e+01
 3.534826799118800e+00	 3.522098877057200e+00	 1.374003056560116e+01
 3.535533905899999e+00	 3.521391770275999e+00	 1.333243854554669e+01
 3.519624003323000e+00	 3.519624003323000e+00	 4.798941627342379e+00
 3.521214993580700e+00	 3.518033013065300e+00	 5.889774788879917e+00
 3.522805983838401e+00	 3.516442022807601e+00	 6.829135416521686e+00
 3.524396974096099e+00	 3.514851032549899e+00	 7.617023510292857e+00
 3.525987964353799e+00	 3.513260042292199e+00	 8.253439070219402e+00
 3.527578954611501e+00	 3.511669052034501e+00	 8.738382096325406e+00
 3.529169944869200e+00	 3.510078061776800e+00	 9.071852588636698e+00
 3.530760935126900e+00	 3.508487071519101e+00	 9.253850547178173e+00
 3.532351925384600e+00	 3.506896081261401e+00	 9.284375971975170e+00
 3.533942915642301e+00	 3.505305091003700e+00	 9.163428863052948e+00
 3.535533905900000e+00	 3.503714100746000e+00	 8.891009220436553e+00
 3.507249634652000e+00	 3.507249634652000e+00	 3.590169038531740e+00
 3.510078061776801e+00	 3.504421207527201e+00	 4.411175117747367e+00
 3.512906488901600e+00	 3.501592780402400e+00	 5.118175542442256e+00
 3.515734916026400e+00	 3.498764353277600e+00	 5.711170312758101e+00
 3.518563343151201e+00	 3.495935926152800e+00	 6.190159428836131e+00
 3.521391770276001e+00	 3.493107499028000e+00	 6.555142890817772e+00
 3.524220197400801e+00	 3.490279071903200e+00	 6.806120698844640e+00
 3.527048624525600e+00	 3.487450644778400e+00	 6.943092853058199e+00
 3.529877051650400e+00	 3.484622217653600e+00	 6.966059353600142e+00
 3.532705478775200e+00	 3.481793790528800e+00	 6.875020200611703e+00
 3.535533905900000e+00	 3.478965363404000e+00	 6.669975394234585e+00
 3.491339732075000e+00	 3.491339732075000e+00	 2.863192474862302e+00
 3.495759149457500e+00	 3.486920314692500e+00	 3.522815429460773e+00
 3.500178566839999e+00	 3.482500897310000e+00	 4.090849873391081e+00
 3.504597984222500e+00	 3.478081479927500e+00	 4.567295807192855e+00
 3.509017401605000e+00	 3.473662062545000e+00	 4.952153231405983e+00
 3.513436818987500e+00	 3.469242645162500e+00	 5.245422146570250e+00
 3.517856236370000e+00	 3.464823227780000e+00	 5.447102553225393e+00
 3.522275653752500e+00	 3.460403810397500e+00	 5.557194451911061e+00
 3.526695071135000e+00	 3.455984393015000e+00	 5.575697843167234e+00
 3.531114488517500e+00	 3.451564975632500e+00	 5.502612727533552e+00
 3.535533905900000e+00	 3.447145558250000e+00	 5.337854107882221e+00
 3.471894295592000e+00	 3.471894295592000e+00	 2.378314349589872e+00
 3.478258256622799e+00	 3.465530334561199e+00	 2.930576051568152e+00
 3.484622217653599e+00	 3.459166373530400e+00	 3.406167529935352e+00
 3.490986178684401e+00	 3.452802412499601e+00	 3.805088786303126e+00
 3.497350139715200e+00	 3.446438451468800e+00	 4.127200728705190e+00
 3.503714100746000e+00	 3.440074490438000e+00	 4.372300585250517e+00
 3.510078061776800e+00	 3.433710529407199e+00	 4.540731459672348e+00
 3.516442022807600e+00	 3.427346568376400e+00	 4.632493351728926e+00
 3.522805983838400e+00	 3.420982607345600e+00	 4.647586261178501e+00
 3.529169944869201e+00	 3.414618646314801e+00	 4.586010187779386e+00
 3.535533905899999e+00	 3.408254685284000e+00	 4.447765131289797e+00
 3.448913325203000e+00	 3.448913325203000e+00	 2.032303911522843e+00
 3.457575383272700e+00	 3.440251267133299e+00	 2.507391138495874e+00
 3.466237441342399e+00	 3.431589209063599e+00	 2.916404415021397e+00
 3.474899499412099e+00	 3.422927150993900e+00	 3.259392407708797e+00
 3.483561557481800e+00	 3.414265092924200e+00	 3.536355115948492e+00
 3.492223615551500e+00	 3.405603034854500e+00	 3.747292539130969e+00
 3.500885673621199e+00	 3.396940976784799e+00	 3.892204676646646e+00
 3.509547731690900e+00	 3.388278918715100e+00	 3.971091527885954e+00
 3.518209789760599e+00	 3.379616860645399e+00	 3.983953092239357e+00
 3.526871847830300e+00	 3.370954802575700e+00	 3.930789369097295e+00
 3.535533905900000e+00	 3.362292744506000e+00	 3.811600357850198e+00
 3.422396820908000e+00	 3.422396820908000e+00	 1.771399827791931e+00
 3.433710529407199e+00	 3.411083112408799e+00	 2.188894585180077e+00
 3.445024237906400e+00	 3.399769403909600e+00	 2.548340005764996e+00
 3.456337946405601e+00	 3.388455695410401e+00	 2.849736088188478e+00
 3.467651654904800e+00	 3.377141986911200e+00	 3.093082831092266e+00
 3.478965363403999e+00	 3.365828278411999e+00	 3.278380233118224e+00
 3.490279071903200e+00	 3.354514569912800e+00	 3.405628292908101e+00
 3.501592780402400e+00	 3.343200861413600e+00	 3.474827009103715e+00
 3.512906488901599e+00	 3.331887152914399e+00	 3.485976380346830e+00
 3.524220197400800e+00	 3.320573444415200e+00	 3.439076405279287e+00
 3.535533905900000e+00	 3.309259735916000e+00	 3.334127082542860e+00
 3.392344782707000e+00	 3.392344782707000e+00	 1.568419660483012e+00
 3.406663695026299e+00	 3.378025870387699e+00	 1.941144638872854e+00
 3.420982607345600e+00	 3.363706958068400e+00	 2.262019873498497e+00
 3.435301519664900e+00	 3.349388045749100e+00	 2.531045361606435e+00
 3.449620431984200e+00	 3.335069133429800e+00	 2.748221100443244e+00
 3.463939344303500e+00	 3.320750221110500e+00	 2.913547087255398e+00
 3.478258256622800e+00	 3.306431308791201e+00	 3.027023319289458e+00
 3.492577168942099e+00	 3.292112396471899e+00	 3.088649793791961e+00
 3.506896081261401e+00	 3.277793484152601e+00	 3.098426508009402e+00
 3.521214993580700e+00	 3.263474571833300e+00	 3.056353459188353e+00
 3.535533905899999e+00	 3.249155659514000e+00	 2.962430644575306e+00
 3.358757210600000e+00	 3.358757210600000e+00	 1.406083127807021e+00
 3.376434880130000e+00	 3.341079541070000e+00	 1.742966723900835e+00
 3.394112549659999e+00	 3.323401871539999e+00	 2.032957920464245e+00
 3.411790219190000e+00	 3.305724202010000e+00	 2.276056712316155e+00
 3.429467888720000e+00	 3.288046532480000e+00	 2.472263094275394e+00
 3.447145558250000e+00	 3.270368862950000e+00	 2.621577061160840e+00
 3.464823227780000e+00	 3.252691193420000e+00	 2.723998607791339e+00
 3.482500897310000e+00	 3.235013523890000e+00	 2.779527728985751e+00
 3.500178566840000e+00	 3.217335854360000e+00	 2.788164419562944e+00
 3.517856236369999e+00	 3.199658184830000e+00	 2.749908674341763e+00
 3.535533905900000e+00	 3.181980515300000e+00	 2.664760488141078e+00
 3.358757210600000e+00	 3.358757210600000e+00	 1.406083127807021e+00
 3.376434880130000e+00	 3.341079541070000e+00	 1.742966723900835e+00
 3.394112549659999e+00	 3.323401871539999e+00	 2.032957920464245e+00
 3.411790219190000e+00	 3.305724202010000e+00	 2.276056712316155e+00
 3.429467888720000e+00	 3.288046532480000e+00	 2.472263094275394e+00
 3.447145558250000e+00	 3.270368862950000e+00	 2.621577061160840e+00
 3.464823227780000e+00	 3.252691193420000e+00	 2.723998607791339e+00
 3.482500897310000e+00	 3.235013523890000e+00	 2.779527728985751e+00
 3.500178566840000e+00	 3.217335854360000e+00	 2.788164419562944e+00
 3.517856236369999e+00	 3.199658184830000e+00	 2.749908674341763e+00
 3.535533905900000e+00	 3.181980515300000e+00	 2.664760488141078e+00
 3.321634104587000e+00	 3.321634104587000e+00	 1.248009328841702e+00
 3.343024084718299e+00	 3.300244124455890e+00	 1.558033284804149e+00
 3.364414064849600e+00	 3.278854144324760e+00	 1.825921213512022e+00
 3.385804044980900e+00	 3.257464164193611e+00	 2.051673105785663e+00
 3.407194025112200e+00	 3.236074184062439e+00	 2.235288952445559e+00
 3.428584005243500e+00	 3.214684203931250e+00	 2.376768744312256e+00
 3.449973985374800e+00	 3.193294223800040e+00	 2.476112472206450e+00
 3.471363965506100e+00	 3.171904243668811e+00	 2.533320126948911e+00
 3.492753945637400e+00	 3.150514263537560e+00	 2.548391699360534e+00
 3.514143925768699e+00	 3.129124283406290e+00	 2.521327180262297e+00
 3.535533905900000e+00	 3.107734303275000e+00	 2.452126560475309e+00
 3.280975464668000e+00	 3.280975464668000e+00	 1.122211889919729e+00
 3.306431308791200e+00	 3.255519620545560e+00	 1.409474206448716e+00
 3.331887152914400e+00	 3.230063776423039e+00	 1.658325097347333e+00
 3.357342997037599e+00	 3.204607932300439e+00	 1.868764547143481e+00
 3.382798841160801e+00	 3.179152088177761e+00	 2.040792540365164e+00
 3.408254685284001e+00	 3.153696244055000e+00	 2.174409061540547e+00
 3.433710529407200e+00	 3.128240399932160e+00	 2.269614095197931e+00
 3.459166373530400e+00	 3.102784555809240e+00	 2.326407625865776e+00
 3.484622217653600e+00	 3.077328711686240e+00	 2.344789638072680e+00
 3.510078061776800e+00	 3.051872867563160e+00	 2.324760116347386e+00
 3.535533905900000e+00	 3.026417023440000e+00	 2.266319045218772e+00
 3.236781290843000e+00	 3.236781290843000e+00	 1.020030121782582e+00
 3.266656552348700e+00	 3.206906029339010e+00	 1.287750934939830e+00
 3.296531813854400e+00	 3.177030767834840e+00	 1.520042341544530e+00
 3.326407075360100e+00	 3.147155506330491e+00	 1.716904316586895e+00
 3.356282336865799e+00	 3.117280244825959e+00	 1.878336835057270e+00
 3.386157598371500e+00	 3.087404983321250e+00	 2.004339871946157e+00
 3.416032859877199e+00	 3.057529721816359e+00	 2.094913402244217e+00
 3.445908121382900e+00	 3.027654460311290e+00	 2.150057400942240e+00
 3.475783382888600e+00	 2.997779198806040e+00	 2.169771843031179e+00
 3.505658644394301e+00	 2.967903937300611e+00	 2.154056703502137e+00
 3.535533905900000e+00	 2.938028675795000e+00	 2.102911957346362e+00
 3.189051583112000e+00	 3.189051583112000e+00	 9.356053578264441e-01
 3.223699815390799e+00	 3.154403350836239e+00	 1.186359114096526e+00
 3.258348047669599e+00	 3.119755118560160e+00	 1.404115933886121e+00
 3.292996279948400e+00	 3.085106886283760e+00	 1.588875778182306e+00
 3.327644512227200e+00	 3.050458654007040e+00	 1.740638607972254e+00
 3.362292744506000e+00	 3.015810421730001e+00	 1.859404384243289e+00
 3.396940976784800e+00	 2.981162189452639e+00	 1.945173067982874e+00
 3.431589209063600e+00	 2.946513957174960e+00	 1.997944620178604e+00
 3.466237441342399e+00	 2.911865724896960e+00	 2.017719001818222e+00
 3.500885673621200e+00	 2.877217492618640e+00	 2.004496173889584e+00
 3.535533905900000e+00	 2.842569260339999e+00	 1.958276097380713e+00
 3.137786341475000e+00	 3.137786341475000e+00	 8.648457582570649e-01
 3.177561097917500e+00	 3.098011585037250e+00	 1.100721865920811e+00
 3.217335854359999e+00	 3.058236828599000e+00	 1.305617095060229e+00
 3.257110610802500e+00	 3.018462072160250e+00	 1.479531386657664e+00
 3.296885367245000e+00	 2.978687315721000e+00	 1.622464681695559e+00
 3.336660123687500e+00	 2.938912559281250e+00	 1.734416921156493e+00
 3.376434880130000e+00	 2.899137802841000e+00	 1.815388046023145e+00
 3.416209636572500e+00	 2.859363046400250e+00	 1.865377997278318e+00
 3.455984393014999e+00	 2.819588289959000e+00	 1.884386715904937e+00
 3.495759149457500e+00	 2.779813533517250e+00	 1.872414142886039e+00
 3.535533905900000e+00	 2.740038777074999e+00	 1.829460219204769e+00
 3.082985565932000e+00	 3.082985565932000e+00	 8.048150281034322e-01
 3.128240399928800e+00	 3.037730731942040e+00	 1.027531747983052e+00
 3.173495233925599e+00	 2.992475897951360e+00	 1.220961655737156e+00
 3.218750067922400e+00	 2.947221063959960e+00	 1.385104664439587e+00
 3.264004901919199e+00	 2.901966229967839e+00	 1.519960687164246e+00
 3.309259735916000e+00	 2.856711395975000e+00	 1.625529636985128e+00
 3.354514569912800e+00	 2.811456561981440e+00	 1.701811426976345e+00
 3.399769403909600e+00	 2.766201727987160e+00	 1.748805970212077e+00
 3.445024237906400e+00	 2.720946893992159e+00	 1.766513179766615e+00
 3.490279071903199e+00	 2.675692059996439e+00	 1.754932968714335e+00
 3.535533905900000e+00	 2.630437225999999e+00	 1.714065250129706e+00
 3.024649256482999e+00	 3.024649256482999e+00	 7.533566737134455e-01
 3.075737721424699e+00	 2.973560791550610e+00	 9.643436134578682e-01
 3.126826186366400e+00	 2.922472326617240e+00	 1.147484404813091e+00
 3.177914651308100e+00	 2.871383861682889e+00	 1.302778922718111e+00
 3.229003116249799e+00	 2.820295396747559e+00	 1.430227042111949e+00
 3.280091581191499e+00	 2.769206931811250e+00	 1.529828637933729e+00
 3.331180046133199e+00	 2.718118466873960e+00	 1.601583585122629e+00
 3.382268511074900e+00	 2.667030001935690e+00	 1.645491758617898e+00
 3.433356976016600e+00	 2.615941536996440e+00	 1.661553033358863e+00
 3.484445440958300e+00	 2.564853072056209e+00	 1.649767284284894e+00
 3.535533905900000e+00	 2.513764607114999e+00	 1.610134386335459e+00
 2.962777413128000e+00	 2.962777413128000e+00	 7.088549480611239e-01
 3.020053062405199e+00	 2.905501763862960e+00	 9.093139677117728e-01
 3.077328711682400e+00	 2.848226114596640e+00	 1.083164973276325e+00
 3.134604360959600e+00	 2.790950465329039e+00	 1.230407788531963e+00
 3.191880010236801e+00	 2.733674816060160e+00	 1.351042237255914e+00
 3.249155659514000e+00	 2.676399166790000e+00	 1.445068143225433e+00
 3.306431308791200e+00	 2.619123517518559e+00	 1.512485330217852e+00
 3.363706958068399e+00	 2.561847868245839e+00	 1.553293622010520e+00
 3.420982607345600e+00	 2.504572218971839e+00	 1.567492842380843e+00
 3.478258256622800e+00	 2.447296569696559e+00	 1.555082815106262e+00
 3.535533905900000e+00	 2.390020920419999e+00	 1.516063363964273e+00
 2.897370035866999e+00	 2.897370035866999e+00	 6.714331176064654e-01
 2.961186422870299e+00	 2.833553648879089e+00	 8.610291024783799e-01
 3.025002809873600e+00	 2.769737261889559e+00	 1.026446072793959e+00
 3.088819196876900e+00	 2.705920874898409e+00	 1.166328816924183e+00
 3.152635583880200e+00	 2.642104487905640e+00	 1.280677091117217e+00
 3.216451970883500e+00	 2.578288100911249e+00	 1.369490651621240e+00
 3.280268357886800e+00	 2.514471713915239e+00	 1.432769254684468e+00
 3.344084744890099e+00	 2.450655326917609e+00	 1.470512656555127e+00
 3.407901131893400e+00	 2.386838939918359e+00	 1.482720613481477e+00
 3.471717518896699e+00	 2.323022552917489e+00	 1.469392881711783e+00
 3.535533905900000e+00	 2.259206165914999e+00	 1.430529217494342e+00
 2.828427124700000e+00	 2.828427124700000e+00	 6.394720145728507e-01
 2.899137802820000e+00	 2.757716446599001e+00	 8.196771536421595e-01
 2.969848480940000e+00	 2.687005768496000e+00	 9.761098552088480e-01
 3.040559159060000e+00	 2.616295090391000e+00	 1.109236017648513e+00
 3.111269837180000e+00	 2.545584412284000e+00	 1.217766956654694e+00
 3.181980515300000e+00	 2.474873734175000e+00	 1.301702340634024e+00
 3.252691193420000e+00	 2.404163056064000e+00	 1.361041837993131e+00
 3.323401871540000e+00	 2.333452377951000e+00	 1.395785117138653e+00
 3.394112549660000e+00	 2.262741699836000e+00	 1.405931846477228e+00
 3.464823227780000e+00	 2.192031021719000e+00	 1.391481694415477e+00
 3.535533905900000e+00	 2.121320343600000e+00	 1.352434329360039e+00
 3.535533905900000e+00	 3.535533905900000e+00	 1.327238078611981e+00
 3.535533905900000e+00	 3.535533905900000e+00	 1.327238078611981e+00
 3.535533905899999e+00	 3.535533905899999e+00	 1.327238078611981e+00
 3.535533905900000e+00	 3.535533905900000e+00	 1.327238078611981e+00
 3.535533905900000e+00	 3.535533905900000e+00	 1.327238078611981e+00
 3.535533905900000e+00	 3.535533905900000e+00	 1.327238078611981e+00
 3.535533905900000e+00	 3.535533905900000e+00	 1.327238078611981e+00
 3.535533905900000e+00	 3.535533905900000e+00	 1.327238078611981e+00
 3.535533905899999e+00	 3.535533905899999e+00	 1.327238078611981e+00
 3.535533905899999e+00	 3.535533905899999e+00	 1.327238078611981e+00
 3.535533905900000e+00	 3.535533905900000e+00	 1.327238078611981e+00
 3.535533905900000e+00	 3.531998371994000e+00	 2.719183080060026e+01
 3.535710682595299e+00	 3.532175148689299e+00	 2.892259154431092e+01
 3.535887459290599e+00	 3.532351925384600e+00	 3.044925034554413e+01
 3.536064235985900e+00	 3.532528702079900e+00	 3.177180720430124e+01
 3.536241012681200e+00	 3.532705478775200e+00	 3.289026212058359e+01
 3.536417789376500e+00	 3.532882255470500e+00	 3.380461509439019e+01
 3.536594566071801e+00	 3.533059032165800e+00	 3.451486612572110e+01
 3.536771342767100e+00	 3.533235808861100e+00	 3.502101521457918e+01
 3.536948119462400e+00	 3.533412585556400e+00	 3.532306236095002e+01
 3.537124896157700e+00	 3.533589362251700e+00	 3.542100756485073e+01
 3.537301672853000e+00	 3.533766138947000e+00	 3.531485082627522e+01
 3.535533905899999e+00	 3.521391770275999e+00	 1.357332537615887e+01
 3.536241012681200e+00	 3.522098877057200e+00	 1.444100475053338e+01
 3.536948119462400e+00	 3.522805983838400e+00	 1.520937975194884e+01
 3.537655226243600e+00	 3.523513090619600e+00	 1.587845038040273e+01
 3.538362333024800e+00	 3.524220197400799e+00	 1.644821663589403e+01
 3.539069439805999e+00	 3.524927304182000e+00	 1.691867851842074e+01
 3.539776546587199e+00	 3.525634410963200e+00	 1.728983602798141e+01
 3.540483653368400e+00	 3.526341517744400e+00	 1.756168916457356e+01
 3.541190760149600e+00	 3.527048624525600e+00	 1.773423792819732e+01
 3.541897866930800e+00	 3.527755731306800e+00	 1.780748231884792e+01
 3.542604973711999e+00	 3.528462838088000e+00	 1.778142233652561e+01
 3.535533905900000e+00	 3.503714100746000e+00	 9.067824523452368e+00
 3.537124896157700e+00	 3.505305091003700e+00	 9.643758362157179e+00
 3.538715886415401e+00	 3.506896081261401e+00	 1.015406077975927e+01
 3.540306876673099e+00	 3.508487071519100e+00	 1.059873177623887e+01
 3.541897866930799e+00	 3.510078061776799e+00	 1.097777135157590e+01
 3.543488857188500e+00	 3.511669052034501e+00	 1.129117950575136e+01
 3.545079847446200e+00	 3.513260042292200e+00	 1.153895623874503e+01
 3.546670837703900e+00	 3.514851032549900e+00	 1.172110155053681e+01
 3.548261827961600e+00	 3.516442022807600e+00	 1.183761544110739e+01
 3.549852818219301e+00	 3.518033013065301e+00	 1.188849791043675e+01
 3.551443808477000e+00	 3.519624003323000e+00	 1.187374895850566e+01
 3.535533905900000e+00	 3.478965363404000e+00	 6.822214469526435e+00
 3.538362333024801e+00	 3.481793790528801e+00	 7.251455530465319e+00
 3.541190760149600e+00	 3.484622217653599e+00	 7.631665578377992e+00
 3.544019187274400e+00	 3.487450644778400e+00	 7.962844613153438e+00
 3.546847614399200e+00	 3.490279071903200e+00	 8.244992634680459e+00
 3.549676041524000e+00	 3.493107499028000e+00	 8.478109642848125e+00
 3.552504468648801e+00	 3.495935926152800e+00	 8.662195637545263e+00
 3.555332895773600e+00	 3.498764353277600e+00	 8.797250618660589e+00
 3.558161322898401e+00	 3.501592780402401e+00	 8.883274586083431e+00
 3.560989750023201e+00	 3.504421207527200e+00	 8.920267539702452e+00
 3.563818177148000e+00	 3.507249634652000e+00	 8.908229479406543e+00
 3.535533905900000e+00	 3.447145558250000e+00	 5.477734498083441e+00
 3.539953323282500e+00	 3.451564975632500e+00	 5.818727680221800e+00
 3.544372740665000e+00	 3.455984393015000e+00	 6.120489724620564e+00
 3.548792158047500e+00	 3.460403810397501e+00	 6.383105628523357e+00
 3.553211575430000e+00	 3.464823227780000e+00	 6.606575391506553e+00
 3.557630992812500e+00	 3.469242645162500e+00	 6.790899013146330e+00
 3.562050410195000e+00	 3.473662062545000e+00	 6.936076493018945e+00
 3.566469827577500e+00	 3.478081479927500e+00	 7.042107830700671e+00
 3.570889244960000e+00	 3.482500897310000e+00	 7.108993025767782e+00
 3.575308662342501e+00	 3.486920314692501e+00	 7.136732077796365e+00
 3.579728079725000e+00	 3.491339732075000e+00	 7.125324986362906e+00
 3.535533905899999e+00	 3.408254685284000e+00	 4.580401002907164e+00
 3.541897866930800e+00	 3.414618646314800e+00	 4.862719015971248e+00
 3.548261827961599e+00	 3.420982607345600e+00	 5.112448748318042e+00
 3.554625788992400e+00	 3.427346568376401e+00	 5.329590197174516e+00
 3.560989750023200e+00	 3.433710529407200e+00	 5.514143359767599e+00
 3.567353711053999e+00	 3.440074490438000e+00	 5.666108233324262e+00
 3.573717672084799e+00	 3.446438451468799e+00	 5.785484815071471e+00
 3.580081633115600e+00	 3.452802412499600e+00	 5.871935315762207e+00
 3.586445594146400e+00	 3.459166373530401e+00	 5.925661180552150e+00
 3.592809555177201e+00	 3.465530334561200e+00	 5.946799652605638e+00
 3.599173516208000e+00	 3.471894295592000e+00	 5.935350730657293e+00
 3.535533905900000e+00	 3.362292744506000e+00	 3.939548726712510e+00
 3.544195963969699e+00	 3.370954802575699e+00	 4.179715348023262e+00
 3.552858022039400e+00	 3.379616860645399e+00	 4.391962828800885e+00
 3.561520080109099e+00	 3.388278918715100e+00	 4.576291162052829e+00
 3.570182138178799e+00	 3.396940976784800e+00	 4.732700340786476e+00
 3.578844196248499e+00	 3.405603034854500e+00	 4.861190358009242e+00
 3.587506254318199e+00	 3.414265092924199e+00	 4.961761206728551e+00
 3.596168312387900e+00	 3.422927150993900e+00	 5.034412879951828e+00
 3.604830370457599e+00	 3.431589209063599e+00	 5.079145370686445e+00
 3.613492428527301e+00	 3.440251267133300e+00	 5.095958671939854e+00
 3.622154486597000e+00	 3.448913325203000e+00	 5.084805565132606e+00
 3.535533905900000e+00	 3.309259735916000e+00	 3.458826236341539e+00
 3.546847614399199e+00	 3.320573444415199e+00	 3.667336540679841e+00
 3.558161322898400e+00	 3.331887152914400e+00	 3.851421231623948e+00
 3.569475031397601e+00	 3.343200861413601e+00	 4.011080293593041e+00
 3.580788739896800e+00	 3.354514569912800e+00	 4.146313711006336e+00
 3.592102448396000e+00	 3.365828278411999e+00	 4.257121468283047e+00
 3.603416156895200e+00	 3.377141986911199e+00	 4.343503549842370e+00
 3.614729865394400e+00	 3.388455695410400e+00	 4.405459940103535e+00
 3.626043573893599e+00	 3.399769403909600e+00	 4.442990623485725e+00
 3.637357282392800e+00	 3.411083112408801e+00	 4.456095584408148e+00
 3.648670990892001e+00	 3.422396820908000e+00	 4.444774807290038e+00
 3.535533905899999e+00	 3.249155659514000e+00	 3.084760504881614e+00
 3.549852818219299e+00	 3.263474571833299e+00	 3.268616369659908e+00
 3.564171730538599e+00	 3.277793484152599e+00	 3.430758971841698e+00
 3.578490642857900e+00	 3.292112396471900e+00	 3.571188279840244e+00
 3.592809555177201e+00	 3.306431308791201e+00	 3.689904262068822e+00
 3.607128467496501e+00	 3.320750221110500e+00	 3.786906886940706e+00
 3.621447379815800e+00	 3.335069133429800e+00	 3.862196122869165e+00
 3.635766292135099e+00	 3.349388045749099e+00	 3.915771938267445e+00
 3.650085204454400e+00	 3.363706958068401e+00	 3.947634301548854e+00
 3.664404116773699e+00	 3.378025870387700e+00	 3.957783181126641e+00
 3.678723029093000e+00	 3.392344782707000e+00	 3.946218545414080e+00
 3.535533905900000e+00	 3.181980515300000e+00	 2.785294374134478e+00
 3.553211575430001e+00	 3.199658184830001e+00	 2.949398615391101e+00
 3.570889244959999e+00	 3.217335854360000e+00	 3.093956561190434e+00
 3.588566914490000e+00	 3.235013523890000e+00	 3.218968152096450e+00
 3.606244584020000e+00	 3.252691193420000e+00	 3.324433328673159e+00
 3.623922253550000e+00	 3.270368862950000e+00	 3.410352031484560e+00
 3.641599923080000e+00	 3.288046532480000e+00	 3.476724201094635e+00
 3.659277592610000e+00	 3.305724202010000e+00	 3.523549778067380e+00
 3.676955262140000e+00	 3.323401871540000e+00	 3.550828702966801e+00
 3.694632931670000e+00	 3.341079541070000e+00	 3.558560916356877e+00
 3.712310601200000e+00	 3.358757210600000e+00	 3.546746358801617e+00
 3.535533905900000e+00	 3.181980515300000e+00	 2.785294374134478e+00
 3.553211575430001e+00	 3.199658184830001e+00	 2.949398615391101e+00
 3.570889244959999e+00	 3.217335854360000e+00	 3.093956561190434e+00
 3.588566914490000e+00	 3.235013523890000e+00	 3.218968152096450e+00
 3.606244584020000e+00	 3.252691193420000e+00	 3.324433328673159e+00
 3.623922253550000e+00	 3.270368862950000e+00	 3.410352031484560e+00
 3.641599923080000e+00	 3.288046532480000e+00	 3.476724201094635e+00
 3.659277592610000e+00	 3.305724202010000e+00	 3.523549778067380e+00
 3.676955262140000e+00	 3.323401871540000e+00	 3.550828702966801e+00
 3.694632931670000e+00	 3.341079541070000e+00	 3.558560916356877e+00
 3.712310601200000e+00	 3.358757210600000e+00	 3.546746358801617e+00
 3.535533905900000e+00	 3.107734303275000e+00	 2.550114833759175e+00
 3.556923886031300e+00	 3.129124283406289e+00	 2.701743812570913e+00
 3.578313866162600e+00	 3.150514263537560e+00	 2.835343836919664e+00
 3.599703846293900e+00	 3.171904243668811e+00	 2.950914801510771e+00
 3.621093826425200e+00	 3.193294223800040e+00	 3.048456601049612e+00
 3.642483806556500e+00	 3.214684203931250e+00	 3.127969130241610e+00
 3.663873786687800e+00	 3.236074184062440e+00	 3.189452283792239e+00
 3.685263766819100e+00	 3.257464164193611e+00	 3.232905956407001e+00
 3.706653746950400e+00	 3.278854144324760e+00	 3.258330042791466e+00
 3.728043727081699e+00	 3.300244124455890e+00	 3.265724437651243e+00
 3.749433707213000e+00	 3.321634104587000e+00	 3.255089035691968e+00
 3.535533905900000e+00	 3.026417023440000e+00	 2.347714310725157e+00
 3.560989750023201e+00	 3.051872867563160e+00	 2.489527491646811e+00
 3.586445594146400e+00	 3.077328711686239e+00	 2.614661393630818e+00
 3.611901438269600e+00	 3.102784555809239e+00	 2.723115839202005e+00
 3.637357282392801e+00	 3.128240399932160e+00	 2.814890650885235e+00
 3.662813126516000e+00	 3.153696244055000e+00	 2.889985651205450e+00
 3.688268970639200e+00	 3.179152088177760e+00	 2.948400662687645e+00
 3.713724814762401e+00	 3.204607932300440e+00	 2.990135507856885e+00
 3.739180658885600e+00	 3.230063776423040e+00	 3.015190009238291e+00
 3.764636503008800e+00	 3.255519620545560e+00	 3.023563989357055e+00
 3.790092347132000e+00	 3.280975464668000e+00	 3.015257270738426e+00
 3.535533905900000e+00	 2.938028675795000e+00	 2.171825567382180e+00
 3.565409167405700e+00	 2.967903937300610e+00	 2.305737571922454e+00
 3.595284428911401e+00	 2.997779198806040e+00	 2.424173141143493e+00
 3.625159690417101e+00	 3.027654460311290e+00	 2.527131988158809e+00
 3.655034951922800e+00	 3.057529721816359e+00	 2.614613826081969e+00
 3.684910213428500e+00	 3.087404983321250e+00	 2.686618368026599e+00
 3.714785474934199e+00	 3.117280244825959e+00	 2.743145327106407e+00
 3.744660736439900e+00	 3.147155506330490e+00	 2.784194416435154e+00
 3.774535997945601e+00	 3.177030767834840e+00	 2.809765349126671e+00
 3.804411259451300e+00	 3.206906029339010e+00	 2.819857838294856e+00
 3.834286520957000e+00	 3.236781290843000e+00	 2.814471597053656e+00
 3.535533905900000e+00	 2.842569260339999e+00	 2.017628274200871e+00
 3.570182138178799e+00	 2.877217492618640e+00	 2.145055230670826e+00
 3.604830370457600e+00	 2.911865724896959e+00	 2.258081499427246e+00
 3.639478602736400e+00	 2.946513957174960e+00	 2.356706632944350e+00
 3.674126835015199e+00	 2.981162189452640e+00	 2.440930183696408e+00
 3.708775067294000e+00	 3.015810421730001e+00	 2.510751704157745e+00
 3.743423299572800e+00	 3.050458654007040e+00	 2.566170746802757e+00
 3.778071531851600e+00	 3.085106886283759e+00	 2.607186864105889e+00
 3.812719764130400e+00	 3.119755118560160e+00	 2.633799608541649e+00
 3.847367996409200e+00	 3.154403350836239e+00	 2.646008532584611e+00
 3.882016228688000e+00	 3.189051583112000e+00	 2.643813188709407e+00
 3.535533905900000e+00	 2.740038777074999e+00	 1.881374876604820e+00
 3.575308662342500e+00	 2.779813533517249e+00	 2.003388021361342e+00
 3.615083418784999e+00	 2.819588289958999e+00	 2.111966658817907e+00
 3.654858175227500e+00	 2.859363046400250e+00	 2.207110111961043e+00
 3.694632931670000e+00	 2.899137802841000e+00	 2.288817703777325e+00
 3.734407688112500e+00	 2.938912559281250e+00	 2.357088757253369e+00
 3.774182444555001e+00	 2.978687315721000e+00	 2.411922595375854e+00
 3.813957200997500e+00	 3.018462072160250e+00	 2.453318541131505e+00
 3.853731957440000e+00	 3.058236828598999e+00	 2.481275917507094e+00
 3.893506713882500e+00	 3.098011585037250e+00	 2.495794047489450e+00
 3.933281470325000e+00	 3.137786341475000e+00	 2.496872254065453e+00
 3.535533905900000e+00	 2.630437225999999e+00	 1.760118819937656e+00
 3.580788739896800e+00	 2.675692059996440e+00	 1.877543837510453e+00
 3.626043573893601e+00	 2.720946893992160e+00	 1.982406115585857e+00
 3.671298407890400e+00	 2.766201727987160e+00	 2.074704656992982e+00
 3.716553241887199e+00	 2.811456561981439e+00	 2.154438464560948e+00
 3.761808075884000e+00	 2.856711395975000e+00	 2.221606541118942e+00
 3.807062909880800e+00	 2.901966229967840e+00	 2.276207889496181e+00
 3.852317743877601e+00	 2.947221063959960e+00	 2.318241512521916e+00
 3.897572577874401e+00	 2.992475897951359e+00	 2.347706413025454e+00
 3.942827411871199e+00	 3.037730731942039e+00	 2.364601593836124e+00
 3.988082245868001e+00	 3.082985565932000e+00	 2.368926057783304e+00
 3.535533905900000e+00	 2.513764607114999e+00	 1.651517689187438e+00
 3.586622370841700e+00	 2.564853072056209e+00	 1.765000990958759e+00
 3.637710835783401e+00	 2.615941536996440e+00	 1.866711872968696e+00
 3.688799300725101e+00	 2.667030001935689e+00	 1.956648900576409e+00
 3.739887765666800e+00	 2.718118466873960e+00	 2.034810639141069e+00
 3.790976230608500e+00	 2.769206931811250e+00	 2.101195654021879e+00
 3.842064695550200e+00	 2.820295396747559e+00	 2.155802510578078e+00
 3.893153160491900e+00	 2.871383861682889e+00	 2.198629774168928e+00
 3.944241625433600e+00	 2.922472326617240e+00	 2.229676010153729e+00
 3.995330090375300e+00	 2.973560791550609e+00	 2.248939783891798e+00
 4.046418555317000e+00	 3.024649256482999e+00	 2.256419660742488e+00
 3.535533905900000e+00	 2.390020920419999e+00	 1.553689845060482e+00
 3.592809555177201e+00	 2.447296569696559e+00	 1.663743986048505e+00
 3.650085204454401e+00	 2.504572218971839e+00	 1.762745645994448e+00
 3.707360853731600e+00	 2.561847868245839e+00	 1.850692803347447e+00
 3.764636503008801e+00	 2.619123517518560e+00	 1.927583436556656e+00
 3.821912152286000e+00	 2.676399166790000e+00	 1.993415524071241e+00
 3.879187801563200e+00	 2.733674816060160e+00	 2.048187044340400e+00
 3.936463450840400e+00	 2.790950465329039e+00	 2.091895975813331e+00
 3.993739100117601e+00	 2.848226114596639e+00	 2.124540296939274e+00
 4.051014749394800e+00	 2.905501763862960e+00	 2.146117986167466e+00
 4.108290398672001e+00	 2.962777413128000e+00	 2.156627021947171e+00
 3.535533905900000e+00	 2.259206165914999e+00	 1.465109078778787e+00
 3.599350292903300e+00	 2.323022552917489e+00	 1.572144602756812e+00
 3.663166679906601e+00	 2.386838939918359e+00	 1.668786675628923e+00
 3.726983066909900e+00	 2.450655326917609e+00	 1.755032501175779e+00
 3.790799453913201e+00	 2.514471713915239e+00	 1.830879283178048e+00
 3.854615840916500e+00	 2.578288100911249e+00	 1.896324225416408e+00
 3.918432227919800e+00	 2.642104487905639e+00	 1.951364531671548e+00
 3.982248614923100e+00	 2.705920874898409e+00	 1.995997405724167e+00
 4.046065001926400e+00	 2.769737261889559e+00	 2.030220051354968e+00
 4.109881388929700e+00	 2.833553648879089e+00	 2.054029672344667e+00
 4.173697775933000e+00	 2.897370035866999e+00	 2.067423472473988e+00
 3.535533905900000e+00	 2.121320343600000e+00	 1.384526391034442e+00
 3.606244584020000e+00	 2.192031021719000e+00	 1.488874606043515e+00
 3.676955262139999e+00	 2.262741699836000e+00	 1.583435644615055e+00
 3.747665940260000e+00	 2.333452377951000e+00	 1.668205702844642e+00
 3.818376618380000e+00	 2.404163056064000e+00	 1.743180976827865e+00
 3.889087296500000e+00	 2.474873734175000e+00	 1.808357662660314e+00
 3.959797974620000e+00	 2.545584412284000e+00	 1.863731956437573e+00
 4.030508652740000e+00	 2.616295090391000e+00	 1.909300054255230e+00
 4.101219330860000e+00	 2.687005768496000e+00	 1.945058152208879e+00
 4.171930008980000e+00	 2.757716446599000e+00	 1.971002446394102e+00
 4.242640687100000e+00	 2.828427124700000e+00	 1.987129132906493e+00
 3.535533905900000e+00	 3.535533905900000e+00	 1.327238078611981e+00
 3.535533905900000e+00	 3.535533905900000e+00	 1.327238078611981e+00
 3.535533905899999e+00	 3.535533905899999e+00	 1.327238078611981e+00
 3.535533905900000e+00	 3.535533905900000e+00	 1.327238078611981e+00
 3.535533905900000e+00	 3.535533905900000e+00	 1.327238078611981e+00
 3.535533905900000e+00	 3.535533905900000e+00	 1.327238078611981e+00
 3.535533905900000e+00	 3.535533905900000e+00	 1.327238078611981e+00
 3.535533905900000e+00	 3.535533905900000e+00	 1.327238078611981e+00
 3.535533905899999e+00	 3.535533905899999e+00	 1.327238078611981e+00
 3.535533905899999e+00	 3.535533905899999e+00	 1.327238078611981e+00
 3.535533905900000e+00	 3.535533905900000e+00	 1.327238078611981e+00
 3.537301672853000e+00	 3.533766138947000e+00	 3.056484974922443e+01
 3.537478449548299e+00	 3.533942915642299e+00	 3.065318678496542e+01
 3.537655226243599e+00	 3.534119692337599e+00	 3.049944010009150e+01
 3.537832002938900e+00	 3.534296469032900e+00	 3.010360969460850e+01
 3.538008779634200e+00	 3.534473245728200e+00	 2.946569556851631e+01
 3.538185556329501e+00	 3.534650022423500e+00	 2.858569772181319e+01
 3.538362333024800e+00	 3.534826799118800e+00	 2.746361615449807e+01
 3.538539109720100e+00	 3.535003575814100e+00	 2.609945086657650e+01
 3.538715886415400e+00	 3.535180352509400e+00	 2.449320185803280e+01
 3.538892663110700e+00	 3.535357129204700e+00	 2.264486912888348e+01
 3.539069439806000e+00	 3.535533905900000e+00	 2.055445267912301e+01
 3.542604973711999e+00	 3.528462838088000e+00	 1.536365989471422e+01
 3.543312080493200e+00	 3.529169944869200e+00	 1.540283180851725e+01
 3.544019187274400e+00	 3.529877051650401e+00	 1.532014975459554e+01
 3.544726294055600e+00	 3.530584158431600e+00	 1.511561373294721e+01
 3.545433400836799e+00	 3.531291265212799e+00	 1.478922374357157e+01
 3.546140507617999e+00	 3.531998371993999e+00	 1.434097978646538e+01
 3.546847614399200e+00	 3.532705478775199e+00	 1.377088186162803e+01
 3.547554721180400e+00	 3.533412585556400e+00	 1.307892996905722e+01
 3.548261827961600e+00	 3.534119692337600e+00	 1.226512410875235e+01
 3.548968934742800e+00	 3.534826799118800e+00	 1.132946428070943e+01
 3.549676041524000e+00	 3.535533905899999e+00	 1.027195048492866e+01
 3.551443808477000e+00	 3.519624003323000e+00	 1.025838984058647e+01
 3.553034798734700e+00	 3.521214993580700e+00	 1.028846923132249e+01
 3.554625788992401e+00	 3.522805983838401e+00	 1.023758486705994e+01
 3.556216779250099e+00	 3.524396974096099e+00	 1.010573674777904e+01
 3.557807769507800e+00	 3.525987964353799e+00	 9.892924873459517e+00
 3.559398759765501e+00	 3.527578954611501e+00	 9.599149244082575e+00
 3.560989750023200e+00	 3.529169944869200e+00	 9.224409859627876e+00
 3.562580740280900e+00	 3.530760935126900e+00	 8.768706720075532e+00
 3.564171730538600e+00	 3.532351925384600e+00	 8.232039825406028e+00
 3.565762720796301e+00	 3.533942915642301e+00	 7.614409175599489e+00
 3.567353711054000e+00	 3.535533905900000e+00	 6.915814770636285e+00
 3.563818177148000e+00	 3.507249634652000e+00	 7.698757731960794e+00
 3.566646604272801e+00	 3.510078061776801e+00	 7.725599539775772e+00
 3.569475031397600e+00	 3.512906488901600e+00	 7.692075355265447e+00
 3.572303458522400e+00	 3.515734916026400e+00	 7.598185178318729e+00
 3.575131885647200e+00	 3.518563343151201e+00	 7.443929008824556e+00
 3.577960312772000e+00	 3.521391770276001e+00	 7.229306846671969e+00
 3.580788739896800e+00	 3.524220197400801e+00	 6.954318691749769e+00
 3.583617167021600e+00	 3.527048624525600e+00	 6.618964543946771e+00
 3.586445594146400e+00	 3.529877051650400e+00	 6.223244403152058e+00
 3.589274021271200e+00	 3.532705478775200e+00	 5.767158269254499e+00
 3.592102448396000e+00	 3.535533905900000e+00	 5.250706142142946e+00
 3.579728079725000e+00	 3.491339732075000e+00	 6.160885087929982e+00
 3.584147497107501e+00	 3.495759149457500e+00	 6.186150004305325e+00
 3.588566914489999e+00	 3.500178566839999e+00	 6.163456603484010e+00
 3.592986331872500e+00	 3.504597984222500e+00	 6.092804885042248e+00
 3.597405749255000e+00	 3.509017401605000e+00	 5.974194848556302e+00
 3.601825166637500e+00	 3.513436818987500e+00	 5.807626493602386e+00
 3.606244584020000e+00	 3.517856236370000e+00	 5.593099819756752e+00
 3.610664001402500e+00	 3.522275653752500e+00	 5.330614826595713e+00
 3.615083418785000e+00	 3.526695071135000e+00	 5.020171513695435e+00
 3.619502836167500e+00	 3.531114488517500e+00	 4.661769880632142e+00
 3.623922253550000e+00	 3.535533905900000e+00	 4.255409926982214e+00
 3.599173516208000e+00	 3.471894295592000e+00	 5.134890159369907e+00
 3.605537477238800e+00	 3.478258256622799e+00	 5.159208756323231e+00
 3.611901438269600e+00	 3.484622217653599e+00	 5.143861484055930e+00
 3.618265399300401e+00	 3.490986178684401e+00	 5.088848341302704e+00
 3.624629360331200e+00	 3.497350139715200e+00	 4.994169326798198e+00
 3.630993321361999e+00	 3.503714100746000e+00	 4.859824439277092e+00
 3.637357282392799e+00	 3.510078061776800e+00	 4.685813677474071e+00
 3.643721243423600e+00	 3.516442022807600e+00	 4.472137040123784e+00
 3.650085204454400e+00	 3.522805983838400e+00	 4.218794525960918e+00
 3.656449165485200e+00	 3.529169944869201e+00	 3.925786133720139e+00
 3.662813126516000e+00	 3.535533905899999e+00	 3.593111862136106e+00
 3.622154486597000e+00	 3.448913325203000e+00	 4.401779090118293e+00
 3.630816544666700e+00	 3.457575383272700e+00	 4.425430582342235e+00
 3.639478602736399e+00	 3.466237441342399e+00	 4.415349821136483e+00
 3.648140660806100e+00	 3.474899499412099e+00	 4.371536803310383e+00
 3.656802718875800e+00	 3.483561557481800e+00	 4.293991525673235e+00
 3.665464776945500e+00	 3.492223615551500e+00	 4.182713985034336e+00
 3.674126835015199e+00	 3.500885673621199e+00	 4.037704178203017e+00
 3.682788893084900e+00	 3.509547731690900e+00	 3.858962101988597e+00
 3.691450951154599e+00	 3.518209789760599e+00	 3.646487753200349e+00
 3.700113009224300e+00	 3.526871847830300e+00	 3.400281128647606e+00
 3.708775067294000e+00	 3.535533905900000e+00	 3.120342225139673e+00
 3.648670990892001e+00	 3.422396820908000e+00	 3.849991251213651e+00
 3.659984699391199e+00	 3.433710529407199e+00	 3.873943993350172e+00
 3.671298407890399e+00	 3.445024237906400e+00	 3.868617927592715e+00
 3.682612116389601e+00	 3.456337946405601e+00	 3.833422245951462e+00
 3.693925824888800e+00	 3.467651654904800e+00	 3.768711918389184e+00
 3.705239533387999e+00	 3.478965363403999e+00	 3.674725632226448e+00
 3.716553241887199e+00	 3.490279071903200e+00	 3.551463380353802e+00
 3.727866950386400e+00	 3.501592780402400e+00	 3.398925155661773e+00
 3.739180658885599e+00	 3.512906488901599e+00	 3.217110951040897e+00
 3.750494367384801e+00	 3.524220197400800e+00	 3.006020759381665e+00
 3.761808075884000e+00	 3.535533905900000e+00	 2.765654573574617e+00
 3.678723029093000e+00	 3.392344782707000e+00	 3.420167539168299e+00
 3.693041941412299e+00	 3.406663695026299e+00	 3.443869688681662e+00
 3.707360853731600e+00	 3.420982607345600e+00	 3.441761429593141e+00
 3.721679766050900e+00	 3.435301519664900e+00	 3.413842730316009e+00
 3.735998678370200e+00	 3.449620431984200e+00	 3.360015989138967e+00
 3.750317590689500e+00	 3.463939344303500e+00	 3.279439787754029e+00
 3.764636503008800e+00	 3.478258256622800e+00	 3.173057707131441e+00
 3.778955415328099e+00	 3.492577168942099e+00	 3.040869732858236e+00
 3.793274327647400e+00	 3.506896081261401e+00	 2.882875850521470e+00
 3.807593239966700e+00	 3.521214993580700e+00	 2.699076045708125e+00
 3.821912152286000e+00	 3.535533905899999e+00	 2.489470304005211e+00
 3.712310601200000e+00	 3.358757210600000e+00	 3.075743868534023e+00
 3.729988270730000e+00	 3.376434880130000e+00	 3.099247518358887e+00
 3.747665940260000e+00	 3.394112549659999e+00	 3.099717598071164e+00
 3.765343609790000e+00	 3.411790219190000e+00	 3.077154048234829e+00
 3.783021279320000e+00	 3.429467888720000e+00	 3.031556809413884e+00
 3.800698948850000e+00	 3.447145558250000e+00	 2.962925822172325e+00
 3.818376618380000e+00	 3.464823227780000e+00	 2.870077708024630e+00
 3.836054287910000e+00	 3.482500897310000e+00	 2.754121803895173e+00
 3.853731957440000e+00	 3.500178566840000e+00	 2.615139139246847e+00
 3.871409626969999e+00	 3.517856236369999e+00	 2.453129686959000e+00
 3.889087296500000e+00	 3.535533905900000e+00	 2.268093419910942e+00
 3.712310601200000e+00	 3.358757210600000e+00	 3.075743868534023e+00
 3.729988270730000e+00	 3.376434880130000e+00	 3.099247518358887e+00
 3.747665940260000e+00	 3.394112549659999e+00	 3.099717598071164e+00
 3.765343609790000e+00	 3.411790219190000e+00	 3.077154048234829e+00
 3.783021279320000e+00	 3.429467888720000e+00	 3.031556809413884e+00
 3.800698948850000e+00	 3.447145558250000e+00	 2.962925822172325e+00
 3.818376618380000e+00	 3.464823227780000e+00	 2.870077708024630e+00
 3.836054287910000e+00	 3.482500897310000e+00	 2.754121803895173e+00
 3.853731957440000e+00	 3.500178566840000e+00	 2.615139139246847e+00
 3.871409626969999e+00	 3.517856236369999e+00	 2.453129686959000e+00
 3.889087296500000e+00	 3.535533905900000e+00	 2.268093419910942e+00
 3.749433707213000e+00	 3.321634104587000e+00	 2.831444571472386e+00
 3.770823687344300e+00	 3.343024084718299e+00	 2.851232891598683e+00
 3.792213667475602e+00	 3.364414064849600e+00	 2.850926955992873e+00
 3.813603647606901e+00	 3.385804044980900e+00	 2.830526659360457e+00
 3.834993627738200e+00	 3.407194025112200e+00	 2.790031896406916e+00
 3.856383607869500e+00	 3.428584005243500e+00	 2.729442561837749e+00
 3.877773588000800e+00	 3.449973985374800e+00	 2.648638482158749e+00
 3.899163568132100e+00	 3.471363965506100e+00	 2.546352936470709e+00
 3.920553548263401e+00	 3.492753945637400e+00	 2.423983024167397e+00
 3.941943528394700e+00	 3.514143925768699e+00	 2.281528697202794e+00
 3.963333508526000e+00	 3.535533905900000e+00	 2.118989907530790e+00
 3.790092347132000e+00	 3.280975464668000e+00	 2.634585014099814e+00
 3.815548191255201e+00	 3.306431308791200e+00	 2.650358584021031e+00
 3.841004035378399e+00	 3.331887152914400e+00	 2.648262292860564e+00
 3.866459879501600e+00	 3.357342997037599e+00	 2.628295963143455e+00
 3.891915723624801e+00	 3.382798841160801e+00	 2.590459417394742e+00
 3.917371567748000e+00	 3.408254685284001e+00	 2.534752478139464e+00
 3.942827411871201e+00	 3.433710529407200e+00	 2.461174967902660e+00
 3.968283255994400e+00	 3.459166373530400e+00	 2.368969430820590e+00
 3.993739100117600e+00	 3.484622217653600e+00	 2.257890841300509e+00
 4.019194944240800e+00	 3.510078061776800e+00	 2.128956190289901e+00
 4.044650788364001e+00	 3.535533905900000e+00	 1.982165396806289e+00
 3.834286520957000e+00	 3.236781290843000e+00	 2.472650748637311e+00
 3.864161782462700e+00	 3.266656552348700e+00	 2.484369285159312e+00
 3.894037043968401e+00	 3.296531813854400e+00	 2.479940406953561e+00
 3.923912305474100e+00	 3.326407075360100e+00	 2.459363827133815e+00
 3.953787566979799e+00	 3.356282336865799e+00	 2.422639258813829e+00
 3.983662828485500e+00	 3.386157598371500e+00	 2.369766415107352e+00
 4.013538089991199e+00	 3.416032859877199e+00	 2.300745009128142e+00
 4.043413351496900e+00	 3.445908121382900e+00	 2.215574753989953e+00
 4.073288613002600e+00	 3.475783382888600e+00	 2.112379734260018e+00
 4.103163874508302e+00	 3.505658644394301e+00	 1.992893832377550e+00
 4.133039136014000e+00	 3.535533905900000e+00	 1.857279184875096e+00
 3.882016228688000e+00	 3.189051583112000e+00	 2.337110456824798e+00
 3.916664460966799e+00	 3.223699815390799e+00	 2.344867792659163e+00
 3.951312693245600e+00	 3.258348047669599e+00	 2.337837611954885e+00
 3.985960925524400e+00	 3.292996279948400e+00	 2.316019467186425e+00
 4.020609157803200e+00	 3.327644512227200e+00	 2.279412910828239e+00
 4.055257390082001e+00	 3.362292744506000e+00	 2.228017495354785e+00
 4.089905622360799e+00	 3.396940976784800e+00	 2.161832773240520e+00
 4.124553854639600e+00	 3.431589209063600e+00	 2.080858296959904e+00
 4.159202086918400e+00	 3.466237441342399e+00	 1.983889309289461e+00
 4.193850319197201e+00	 3.500885673621200e+00	 1.871032223011588e+00
 4.228498551476000e+00	 3.535533905900000e+00	 1.743412402219081e+00
 3.933281470325000e+00	 3.137786341475000e+00	 2.221961848924388e+00
 3.973056226767500e+00	 3.177561097917500e+00	 2.225918441657141e+00
 4.012830983210000e+00	 3.217335854359999e+00	 2.216179178660049e+00
 4.052605739652501e+00	 3.257110610802500e+00	 2.192743382919864e+00
 4.092380496095001e+00	 3.296885367245000e+00	 2.155610377423339e+00
 4.132155252537500e+00	 3.336660123687500e+00	 2.104779485157222e+00
 4.171930008980000e+00	 3.376434880130000e+00	 2.040250029108267e+00
 4.211704765422501e+00	 3.416209636572500e+00	 1.962021332263224e+00
 4.251479521865001e+00	 3.455984393014999e+00	 1.869585249537581e+00
 4.291254278307500e+00	 3.495759149457500e+00	 1.761359875979094e+00
 4.331029034750000e+00	 3.535533905900000e+00	 1.639470839195012e+00
 3.988082245868001e+00	 3.082985565932000e+00	 2.122867305813678e+00
 4.033337079864801e+00	 3.128240399928800e+00	 2.123213137577796e+00
 4.078591913861600e+00	 3.173495233925599e+00	 2.110752167770140e+00
 4.123846747858400e+00	 3.218750067922400e+00	 2.085483399220016e+00
 4.169101581855200e+00	 3.264004901919199e+00	 2.047405834756720e+00
 4.214356415852000e+00	 3.309259735916000e+00	 1.996518477209551e+00
 4.259611249848800e+00	 3.354514569912800e+00	 1.932820329407809e+00
 4.304866083845600e+00	 3.399769403909600e+00	 1.856310394180796e+00
 4.350120917842401e+00	 3.445024237906400e+00	 1.766987674357809e+00
 4.395375751839199e+00	 3.490279071903199e+00	 1.662163067003310e+00
 4.440630585836001e+00	 3.535533905900000e+00	 1.544362843989984e+00
 4.046418555317000e+00	 3.024649256482999e+00	 2.036619198833549e+00
 4.097507020258700e+00	 3.075737721424699e+00	 2.033553261016703e+00
 4.148595485200401e+00	 3.126826186366400e+00	 2.018413766889603e+00
 4.199683950142100e+00	 3.177914651308100e+00	 1.991199281811573e+00
 4.250772415083800e+00	 3.229003116249799e+00	 1.951908371141929e+00
 4.301860880025500e+00	 3.280091581191499e+00	 1.900539600239993e+00
 4.352949344967200e+00	 3.331180046133199e+00	 1.837091534465081e+00
 4.404037809908901e+00	 3.382268511074900e+00	 1.761562739176513e+00
 4.455126274850600e+00	 3.433356976016600e+00	 1.673951779733611e+00
 4.506214739792300e+00	 3.484445440958300e+00	 1.571994865165906e+00
 4.557303204734001e+00	 3.535533905900000e+00	 1.457073536937885e+00
 4.108290398672001e+00	 2.962777413128000e+00	 1.960797638863844e+00
 4.165566047949200e+00	 3.020053062405199e+00	 1.954516697903941e+00
 4.222841697226401e+00	 3.077328711682400e+00	 1.936773721604753e+00
 4.280117346503601e+00	 3.134604360959600e+00	 1.907566688415554e+00
 4.337392995780801e+00	 3.191880010236801e+00	 1.866893576785615e+00
 4.394668645058002e+00	 3.249155659514000e+00	 1.814752365164205e+00
 4.451944294335201e+00	 3.306431308791200e+00	 1.751141032000598e+00
 4.509219943612401e+00	 3.363706958068399e+00	 1.676057555744066e+00
 4.566495592889600e+00	 3.420982607345600e+00	 1.589499914843879e+00
 4.623771242166800e+00	 3.478258256622800e+00	 1.489636673596894e+00
 4.681046891444001e+00	 3.535533905900000e+00	 1.376690683102528e+00
 4.173697775933000e+00	 2.897370035866999e+00	 1.893544801044414e+00
 4.237514162936299e+00	 2.961186422870299e+00	 1.884237453745540e+00
 4.301330549939601e+00	 3.025002809873600e+00	 1.863983160226836e+00
 4.365146936942900e+00	 3.088819196876900e+00	 1.832779124269070e+00
 4.428963323946201e+00	 3.152635583880200e+00	 1.790622549653004e+00
 4.492779710949501e+00	 3.216451970883500e+00	 1.737510640159399e+00
 4.556596097952800e+00	 3.280268357886800e+00	 1.673440599569025e+00
 4.620412484956100e+00	 3.344084744890099e+00	 1.598409631662643e+00
 4.684228871959401e+00	 3.407901131893400e+00	 1.512414940221017e+00
 4.748045258962700e+00	 3.471717518896699e+00	 1.414061259893722e+00
 4.811861645966001e+00	 3.535533905900000e+00	 1.302408271625065e+00
 4.242640687100000e+00	 2.828427124700000e+00	 1.833412197174379e+00
 4.313351365220000e+00	 2.899137802820000e+00	 1.821255975351730e+00
 4.384062043339999e+00	 2.969848480940000e+00	 1.798590545044874e+00
 4.454772721460000e+00	 3.040559159060000e+00	 1.765412102349465e+00
 4.525483399580001e+00	 3.111269837180000e+00	 1.721716843361160e+00
 4.596194077700000e+00	 3.181980515300000e+00	 1.667500964175614e+00
 4.666904755820000e+00	 3.252691193420000e+00	 1.602760660888484e+00
 4.737615433940000e+00	 3.323401871540000e+00	 1.527492129595427e+00
 4.808326112060000e+00	 3.394112549660000e+00	 1.441691566392098e+00
 4.879036790180000e+00	 3.464823227780000e+00	 1.344400300861913e+00
 4.949747468300000e+00	 3.535533905900000e+00	 1.233520300347835e+00
 3.535533905900000e+00	 3.535533905900000e+00	 1.327238078611981e+00
 3.535533905900000e+00	 3.535533905900000e+00	 1.327238078611981e+00
 3.535533905899999e+00	 3.535533905899999e+00	 1.327238078611981e+00
 3.535533905900000e+00	 3.535533905900000e+00	 1.327238078611981e+00
 3.535533905900000e+00	 3.535533905900000e+00	 1.327238078611981e+00
 3.535533905900000e+00	 3.535533905900000e+00	 1.327238078611981e+00
 3.535533905900000e+00	 3.535533905900000e+00	 1.327238078611981e+00
 3.535533905900000e+00	 3.535533905900000e+00	 1.327238078611981e+00
 3.535533905899999e+00	 3.535533905899999e+00	 1.327238078611981e+00
 3.535533905899999e+00	 3.535533905899999e+00	 1.327238078611981e+00
 3.535533905900000e+00	 3.535533905900000e+00	 1.327238078611981e+00
 3.539069439806000e+00	 3.535533905900000e+00	 2.013753658466092e+01
 3.538892663110698e+00	 3.535710682595299e+00	 2.279405553441354e+01
 3.538715886415400e+00	 3.535887459290599e+00	 2.504470705341974e+01
 3.538539109720100e+00	 3.536064235985900e+00	 2.688949114168224e+01
 3.538362333024800e+00	 3.536241012681200e+00	 2.832840779920050e+01
 3.538185556329501e+00	 3.536417789376500e+00	 2.936145702597383e+01
 3.538008779634201e+00	 3.536594566071801e+00	 2.998863882200147e+01
 3.537832002938900e+00	 3.536771342767100e+00	 3.020995318728567e+01
 3.537655226243600e+00	 3.536948119462400e+00	 3.002540012182296e+01
 3.537478449548300e+00	 3.537124896157700e+00	 2.943497962561599e+01
 3.537301672853000e+00	 3.537301672853000e+00	 2.843869169866401e+01
 3.549676041524000e+00	 3.535533905899999e+00	 9.737259305200986e+00
 3.548968934742800e+00	 3.536241012681200e+00	 1.109426582351955e+01
 3.548261827961600e+00	 3.536948119462400e+00	 1.224857832806225e+01
 3.547554721180400e+00	 3.537655226243600e+00	 1.320019681882719e+01
 3.546847614399200e+00	 3.538362333024800e+00	 1.394912129581248e+01
 3.546140507617999e+00	 3.539069439805999e+00	 1.449535175901499e+01
 3.545433400836799e+00	 3.539776546587199e+00	 1.483888820843325e+01
 3.544726294055600e+00	 3.540483653368400e+00	 1.497973064406489e+01
 3.544019187274400e+00	 3.541190760149600e+00	 1.491787906590765e+01
 3.543312080493200e+00	 3.541897866930800e+00	 1.465333347395932e+01
 3.542604973711999e+00	 3.542604973711999e+00	 1.418609386821780e+01
 3.567353711054000e+00	 3.535533905900000e+00	 6.536868674797260e+00
 3.565762720796300e+00	 3.537124896157700e+00	 7.437499190757975e+00
 3.564171730538601e+00	 3.538715886415401e+00	 8.203697925178810e+00
 3.562580740280899e+00	 3.540306876673099e+00	 8.835464878034577e+00
 3.560989750023199e+00	 3.541897866930799e+00	 9.332800049299916e+00
 3.559398759765501e+00	 3.543488857188500e+00	 9.695703438949902e+00
 3.557807769507800e+00	 3.545079847446200e+00	 9.924175046959206e+00
 3.556216779250100e+00	 3.546670837703900e+00	 1.001821487330272e+01
 3.554625788992400e+00	 3.548261827961600e+00	 9.977822917955200e+00
 3.553034798734700e+00	 3.549852818219301e+00	 9.802999180891483e+00
 3.551443808477000e+00	 3.551443808477000e+00	 9.493743662086342e+00
 3.592102448396000e+00	 3.535533905900000e+00	 4.986195734306504e+00
 3.589274021271200e+00	 3.538362333024801e+00	 5.654271079824681e+00
 3.586445594146400e+00	 3.541190760149600e+00	 6.222146494744465e+00
 3.583617167021599e+00	 3.544019187274400e+00	 6.689821978924344e+00
 3.580788739896800e+00	 3.546847614399200e+00	 7.057297532222887e+00
 3.577960312772000e+00	 3.549676041524000e+00	 7.324573154498584e+00
 3.575131885647200e+00	 3.552504468648801e+00	 7.491648845609942e+00
 3.572303458522400e+00	 3.555332895773600e+00	 7.558524605415458e+00
 3.569475031397601e+00	 3.558161322898401e+00	 7.525200433773576e+00
 3.566646604272800e+00	 3.560989750023201e+00	 7.391676330542870e+00
 3.563818177148000e+00	 3.563818177148000e+00	 7.157952295581827e+00
 3.623922253550000e+00	 3.535533905900000e+00	 4.071261138685944e+00
 3.619502836167500e+00	 3.539953323282500e+00	 4.598392101414838e+00
 3.615083418785000e+00	 3.544372740665000e+00	 5.045894322388306e+00
 3.610664001402500e+00	 3.548792158047500e+00	 5.413767801066617e+00
 3.606244584020000e+00	 3.553211575430000e+00	 5.702012536909962e+00
 3.601825166637500e+00	 3.557630992812500e+00	 5.910628529378578e+00
 3.597405749255000e+00	 3.562050410195000e+00	 6.039615777932713e+00
 3.592986331872500e+00	 3.566469827577500e+00	 6.088974282032617e+00
 3.588566914489999e+00	 3.570889244960000e+00	 6.058704041138465e+00
 3.584147497107501e+00	 3.575308662342501e+00	 5.948805054710559e+00
 3.579728079725000e+00	 3.579728079725000e+00	 5.759277322209084e+00
 3.662813126516000e+00	 3.535533905899999e+00	 3.467412573007718e+00
 3.656449165485200e+00	 3.541897866930800e+00	 3.899981125577901e+00
 3.650085204454399e+00	 3.548261827961599e+00	 4.266648204825539e+00
 3.643721243423601e+00	 3.554625788992400e+00	 4.567413809138918e+00
 3.637357282392800e+00	 3.560989750023200e+00	 4.802277936906284e+00
 3.630993321361999e+00	 3.567353711053999e+00	 4.971240586515908e+00
 3.624629360331200e+00	 3.573717672084799e+00	 5.074301756356047e+00
 3.618265399300400e+00	 3.580081633115600e+00	 5.111461444814971e+00
 3.611901438269601e+00	 3.586445594146400e+00	 5.082719650280952e+00
 3.605537477238800e+00	 3.592809555177201e+00	 4.988076371142234e+00
 3.599173516208000e+00	 3.599173516208000e+00	 4.827531605787094e+00
 3.708775067294000e+00	 3.535533905900000e+00	 3.038780375567652e+00
 3.700113009224300e+00	 3.544195963969699e+00	 3.403501383256031e+00
 3.691450951154600e+00	 3.552858022039400e+00	 3.712132255071125e+00
 3.682788893084900e+00	 3.561520080109099e+00	 3.964672986948761e+00
 3.674126835015199e+00	 3.570182138178799e+00	 4.161123574824753e+00
 3.665464776945500e+00	 3.578844196248499e+00	 4.301484014634902e+00
 3.656802718875799e+00	 3.587506254318199e+00	 4.385754302315028e+00
 3.648140660806100e+00	 3.596168312387900e+00	 4.413934433800942e+00
 3.639478602736399e+00	 3.604830370457599e+00	 4.386024405028437e+00
 3.630816544666700e+00	 3.613492428527301e+00	 4.302024211933317e+00
 3.622154486597000e+00	 3.622154486597000e+00	 4.161933832478475e+00
 3.761808075884000e+00	 3.535533905900000e+00	 2.718501630314804e+00
 3.750494367384799e+00	 3.546847614399199e+00	 3.032163855480853e+00
 3.739180658885599e+00	 3.558161322898400e+00	 3.297097450071017e+00
 3.727866950386401e+00	 3.569475031397601e+00	 3.513302405029555e+00
 3.716553241887200e+00	 3.580788739896800e+00	 3.680778711300726e+00
 3.705239533388000e+00	 3.592102448396000e+00	 3.799526359828749e+00
 3.693925824888800e+00	 3.603416156895200e+00	 3.869545341557875e+00
 3.682612116389600e+00	 3.614729865394400e+00	 3.890835647432321e+00
 3.671298407890399e+00	 3.626043573893599e+00	 3.863397249805220e+00
 3.659984699391201e+00	 3.637357282392800e+00	 3.787230174314618e+00
 3.648670990892001e+00	 3.648670990892001e+00	 3.662334395639741e+00
 3.821912152286000e+00	 3.535533905899999e+00	 2.469853666629677e+00
 3.807593239966699e+00	 3.549852818219299e+00	 2.743695185972470e+00
 3.793274327647400e+00	 3.564171730538599e+00	 2.974535045501078e+00
 3.778955415328100e+00	 3.578490642857900e+00	 3.162373226856952e+00
 3.764636503008800e+00	 3.592809555177201e+00	 3.307209711681506e+00
 3.750317590689500e+00	 3.607128467496501e+00	 3.409044481616161e+00
 3.735998678370200e+00	 3.621447379815800e+00	 3.467877518302298e+00
 3.721679766050900e+00	 3.635766292135099e+00	 3.483708782923273e+00
 3.707360853731601e+00	 3.650085204454400e+00	 3.456538294725691e+00
 3.693041941412299e+00	 3.664404116773699e+00	 3.386366017945174e+00
 3.678723029093000e+00	 3.678723029093000e+00	 3.273191934220920e+00
 3.889087296500000e+00	 3.535533905900000e+00	 2.270993335856942e+00
 3.871409626970000e+00	 3.553211575430001e+00	 2.512905872722022e+00
 3.853731957440000e+00	 3.570889244959999e+00	 2.716398695785150e+00
 3.836054287910000e+00	 3.588566914490000e+00	 2.881471770501545e+00
 3.818376618380000e+00	 3.606244584020000e+00	 3.008125062326369e+00
 3.800698948850000e+00	 3.623922253550000e+00	 3.096358519055057e+00
 3.783021279320000e+00	 3.641599923080000e+00	 3.146172137654187e+00
 3.765343609790000e+00	 3.659277592610000e+00	 3.157565869340456e+00
 3.747665940260000e+00	 3.676955262140000e+00	 3.130539679564945e+00
 3.729988270729999e+00	 3.694632931670000e+00	 3.065093533778660e+00
 3.712310601200000e+00	 3.712310601200000e+00	 2.961227397432537e+00
 3.889087296500000e+00	 3.535533905900000e+00	 2.270993335856942e+00
 3.871409626970000e+00	 3.553211575430001e+00	 2.512905872722022e+00
 3.853731957440000e+00	 3.570889244959999e+00	 2.716398695785150e+00
 3.836054287910000e+00	 3.588566914490000e+00	 2.881471770501545e+00
 3.818376618380000e+00	 3.606244584020000e+00	 3.008125062326369e+00
 3.800698948850000e+00	 3.623922253550000e+00	 3.096358519055057e+00
 3.783021279320000e+00	 3.641599923080000e+00	 3.146172137654187e+00
 3.765343609790000e+00	 3.659277592610000e+00	 3.157565869340456e+00
 3.747665940260000e+00	 3.676955262140000e+00	 3.130539679564945e+00
 3.729988270729999e+00	 3.694632931670000e+00	 3.065093533778660e+00
 3.712310601200000e+00	 3.712310601200000e+00	 2.961227397432537e+00
 3.963333508526000e+00	 3.535533905900000e+00	 2.059573223586892e+00
 3.941943528394700e+00	 3.556923886031300e+00	 2.280428676916772e+00
 3.920553548263401e+00	 3.578313866162600e+00	 2.466832184183578e+00
 3.899163568132101e+00	 3.599703846293900e+00	 2.618783684189268e+00
 3.877773588000800e+00	 3.621093826425200e+00	 2.736283115735687e+00
 3.856383607869500e+00	 3.642483806556500e+00	 2.819330396296437e+00
 3.834993627738200e+00	 3.663873786687800e+00	 2.867925502261861e+00
 3.813603647606900e+00	 3.685263766819100e+00	 2.882068355608788e+00
 3.792213667475601e+00	 3.706653746950400e+00	 2.861758895131777e+00
 3.770823687344300e+00	 3.728043727081699e+00	 2.806997059625239e+00
 3.749433707213000e+00	 3.749433707213000e+00	 2.717782787883422e+00
 4.044650788364001e+00	 3.535533905900000e+00	 1.894603401168078e+00
 4.019194944240800e+00	 3.560989750023201e+00	 2.097713796493621e+00
 3.993739100117600e+00	 3.586445594146400e+00	 2.269603505012317e+00
 3.968283255994399e+00	 3.611901438269600e+00	 2.410272423574499e+00
 3.942827411871201e+00	 3.637357282392801e+00	 2.519720429181803e+00
 3.917371567748000e+00	 3.662813126516000e+00	 2.597947452548724e+00
 3.891915723624800e+00	 3.688268970639200e+00	 2.644953375724034e+00
 3.866459879501601e+00	 3.713724814762401e+00	 2.660738095545826e+00
 3.841004035378400e+00	 3.739180658885600e+00	 2.645301508851888e+00
 3.815548191255200e+00	 3.764636503008800e+00	 2.598643512479682e+00
 3.790092347132000e+00	 3.790092347132000e+00	 2.520764003266355e+00
 4.133039136014000e+00	 3.535533905900000e+00	 1.762790816535017e+00
 4.103163874508301e+00	 3.565409167405700e+00	 1.950745644586574e+00
 4.073288613002600e+00	 3.595284428911401e+00	 2.110159888425642e+00
 4.043413351496901e+00	 3.625159690417101e+00	 2.241033364309659e+00
 4.013538089991199e+00	 3.655034951922800e+00	 2.343365933138438e+00
 3.983662828485500e+00	 3.684910213428500e+00	 2.417157416478026e+00
 3.953787566979799e+00	 3.714785474934199e+00	 2.462407647569374e+00
 3.923912305474100e+00	 3.744660736439900e+00	 2.479116459652828e+00
 3.894037043968400e+00	 3.774535997945601e+00	 2.467283685968119e+00
 3.864161782462701e+00	 3.804411259451300e+00	 2.426909159754381e+00
 3.834286520957000e+00	 3.834286520957000e+00	 2.357992714250130e+00
 4.228498551476000e+00	 3.535533905900000e+00	 1.655309140025587e+00
 4.193850319197200e+00	 3.570182138178799e+00	 1.830171754576084e+00
 4.159202086918400e+00	 3.604830370457600e+00	 1.978750920137418e+00
 4.124553854639601e+00	 3.639478602736400e+00	 2.101046357089149e+00
 4.089905622360800e+00	 3.674126835015199e+00	 2.197057836460226e+00
 4.055257390082001e+00	 3.708775067294000e+00	 2.266785085122804e+00
 4.020609157803200e+00	 3.743423299572800e+00	 2.310227842943416e+00
 3.985960925524400e+00	 3.778071531851600e+00	 2.327385849787505e+00
 3.951312693245600e+00	 3.812719764130400e+00	 2.318258845519411e+00
 3.916664460966800e+00	 3.847367996409200e+00	 2.282846570002378e+00
 3.882016228688000e+00	 3.882016228688000e+00	 2.221148763098564e+00
 4.331029034750000e+00	 3.535533905900000e+00	 1.566101760113877e+00
 4.291254278307502e+00	 3.575308662342500e+00	 1.729543617309367e+00
 4.251479521865000e+00	 3.615083418784999e+00	 1.868627576725253e+00
 4.211704765422500e+00	 3.654858175227500e+00	 1.983353222530203e+00
 4.171930008980000e+00	 3.694632931670000e+00	 2.073720196256562e+00
 4.132155252537500e+00	 3.734407688112500e+00	 2.139728089921194e+00
 4.092380496095000e+00	 3.774182444555001e+00	 2.181376509997420e+00
 4.052605739652501e+00	 3.813957200997500e+00	 2.198665062956665e+00
 4.012830983210000e+00	 3.853731957440000e+00	 2.191593355268442e+00
 3.973056226767500e+00	 3.893506713882500e+00	 2.160160993400367e+00
 3.933281470325000e+00	 3.933281470325000e+00	 2.104367583818145e+00
 4.440630585836001e+00	 3.535533905900000e+00	 1.490894310945194e+00
 4.395375751839200e+00	 3.580788739896800e+00	 1.644289192724999e+00
 4.350120917842402e+00	 3.626043573893601e+00	 1.774986973559602e+00
 4.304866083845601e+00	 3.671298407890400e+00	 1.882987096580991e+00
 4.259611249848800e+00	 3.716553241887199e+00	 1.968288973324074e+00
 4.214356415852000e+00	 3.761808075884000e+00	 2.030892024169809e+00
 4.169101581855201e+00	 3.807062909880800e+00	 2.070795669495967e+00
 4.123846747858400e+00	 3.852317743877601e+00	 2.087999329677130e+00
 4.078591913861601e+00	 3.897572577874401e+00	 2.082502425084678e+00
 4.033337079864800e+00	 3.942827411871199e+00	 2.054304376086821e+00
 3.988082245868001e+00	 3.988082245868001e+00	 2.003404603048554e+00
 4.557303204734001e+00	 3.535533905900000e+00	 1.426596220714505e+00
 4.506214739792300e+00	 3.586622370841700e+00	 1.571087916110127e+00
 4.455126274850601e+00	 3.637710835783401e+00	 1.694328578833848e+00
 4.404037809908901e+00	 3.688799300725101e+00	 1.796317399527843e+00
 4.352949344967200e+00	 3.739887765666800e+00	 1.877053534883202e+00
 4.301860880025501e+00	 3.790976230608500e+00	 1.936536150999137e+00
 4.250772415083800e+00	 3.842064695550200e+00	 1.974764413969670e+00
 4.199683950142100e+00	 3.893153160491900e+00	 1.991737489883644e+00
 4.148595485200400e+00	 3.944241625433600e+00	 1.987454544824721e+00
 4.097507020258700e+00	 3.995330090375300e+00	 1.961914744871376e+00
 4.046418555317000e+00	 4.046418555317000e+00	 1.915117256096906e+00
 4.681046891444001e+00	 3.535533905900000e+00	 1.370925119582381e+00
 4.623771242166801e+00	 3.592809555177201e+00	 1.507477033092324e+00
 4.566495592889601e+00	 3.650085204454401e+00	 1.624047365173861e+00
 4.509219943612401e+00	 3.707360853731600e+00	 1.720634967224135e+00
 4.451944294335202e+00	 3.764636503008801e+00	 1.797238654197320e+00
 4.394668645058002e+00	 3.821912152286000e+00	 1.853857251050075e+00
 4.337392995780801e+00	 3.879187801563200e+00	 1.890489582730869e+00
 4.280117346503600e+00	 3.936463450840400e+00	 1.907134474179993e+00
 4.222841697226400e+00	 3.993739100117601e+00	 1.903790750329534e+00
 4.165566047949200e+00	 4.051014749394800e+00	 1.880457236103409e+00
 4.108290398672001e+00	 4.108290398672001e+00	 1.837132756417342e+00
 4.811861645966001e+00	 3.535533905900000e+00	 1.322163842164185e+00
 4.748045258962700e+00	 3.599350292903300e+00	 1.451596006975231e+00
 4.684228871959401e+00	 3.663166679906601e+00	 1.562169003524304e+00
 4.620412484956100e+00	 3.726983066909900e+00	 1.653881234932089e+00
 4.556596097952801e+00	 3.790799453913201e+00	 1.726731065253623e+00
 4.492779710949500e+00	 3.854615840916500e+00	 1.780716869170913e+00
 4.428963323946200e+00	 3.918432227919800e+00	 1.815837021353346e+00
 4.365146936942900e+00	 3.982248614923100e+00	 1.832089896457689e+00
 4.301330549939600e+00	 4.046065001926400e+00	 1.829473869128099e+00
 4.237514162936300e+00	 4.109881388929700e+00	 1.807987313996111e+00
 4.173697775933000e+00	 4.173697775933000e+00	 1.767628605680639e+00
 4.949747468300000e+00	 3.535533905900000e+00	 1.278998965965064e+00
 4.879036790180000e+00	 3.606244584020000e+00	 1.402016095803291e+00
 4.808326112060000e+00	 3.676955262139999e+00	 1.507172737926474e+00
 4.737615433940000e+00	 3.747665940260000e+00	 1.594466711837110e+00
 4.666904755820000e+00	 3.818376618380000e+00	 1.663895795227139e+00
 4.596194077700000e+00	 3.889087296500000e+00	 1.715457777067354e+00
 4.525483399580000e+00	 3.959797974620000e+00	 1.749150446309522e+00
 4.454772721459999e+00	 4.030508652740000e+00	 1.764971591886400e+00
 4.384062043340000e+00	 4.101219330860000e+00	 1.762919002711718e+00
 4.313351365219999e+00	 4.171930008980000e+00	 1.742990467680189e+00
 4.242640687100000e+00	 4.242640687100000e+00	 1.705183775667507e+00
-3.535533905900000e+00	-3.535533905900000e+00	 1.327238078612282e+00
-3.535533905900000e+00	-3.535533905900000e+00	 1.327238078612282e+00
-3.535533905899999e+00	-3.535533905899999e+00	 1.327238078612282e+00
-3.535533905900000e+00	-3.535533905900000e+00	 1.327238078612282e+00
-3.535533905900000e+00	-3.535533905900000e+00	 1.327238078612282e+00
-3.535533905900000e+00	-3.535533905900000e+00	 1.327238078612282e+00
-3.535533905900000e+00	-3.535533905900000e+00	 1.327238078612282e+00
-3.535533905900000e+00	-3.535533905900000e+00	 1.327238078612282e+00
-3.535533905899999e+00	-3.535533905899999e+00	 1.327238078612282e+00
-3.535533905899999e+00	-3.535533905899999e+00	 1.327238078612282e+00
-3.535533905900000e+00	-3.535533905900000e+00	 1.327238078612282e+00
-3.533766138947000e+00	-3.533766138947000e+00	 1.429059031408672e+01
-3.533942915642299e+00	-3.533589362251699e+00	 1.757709884001476e+01
-3.534119692337599e+00	-3.533412585556399e+00	 2.040768961565185e+01
-3.534296469032900e+00	-3.533235808861100e+00	 2.278236264098744e+01
-3.534473245728200e+00	-3.533059032165800e+00	 2.470111791602382e+01
-3.534650022423500e+00	-3.532882255470500e+00	 2.616395544076293e+01
-3.534826799118800e+00	-3.532705478775200e+00	 2.717087521520791e+01
-3.535003575814100e+00	-3.532528702079900e+00	 2.772187723934720e+01
-3.535180352509400e+00	-3.532351925384600e+00	 2.781696151320312e+01
-3.535357129204700e+00	-3.532175148689300e+00	 2.745612803675608e+01
-3.535533905900000e+00	-3.531998371994000e+00	 2.663937681001159e+01
-3.528462838088000e+00	-3.528462838088000e+00	 7.202406607800127e+00
-3.529169944869200e+00	-3.527755731306800e+00	 8.836005015429684e+00
-3.529877051650401e+00	-3.527048624525600e+00	 1.024280448664183e+01
-3.530584158431600e+00	-3.526341517744400e+00	 1.142280502143791e+01
-3.531291265212799e+00	-3.525634410963200e+00	 1.237600661981888e+01
-3.531998371993999e+00	-3.524927304182000e+00	 1.310240928179015e+01
-3.532705478775199e+00	-3.524220197400799e+00	 1.360201300735153e+01
-3.533412585556400e+00	-3.523513090619600e+00	 1.387481779650567e+01
-3.534119692337600e+00	-3.522805983838400e+00	 1.392082364925411e+01
-3.534826799118800e+00	-3.522098877057200e+00	 1.374003056560131e+01
-3.535533905899999e+00	-3.521391770275999e+00	 1.333243854554683e+01
-3.519624003323000e+00	-3.519624003323000e+00	 4.798941627342311e+00
-3.521214993580700e+00	-3.518033013065300e+00	 5.889774788879889e+00
-3.522805983838401e+00	-3.516442022807601e+00	 6.829135416521691e+00
-3.524396974096099e+00	-3.514851032549899e+00	 7.617023510292892e+00
-3.525987964353799e+00	-3.513260042292199e+00	 8.253439070219448e+00
-3.527578954611501e+00	-3.511669052034501e+00	 8.738382096325466e+00
-3.529169944869200e+00	-3.510078061776800e+00	 9.071852588636775e+00
-3.530760935126900e+00	-3.508487071519101e+00	 9.253850547178269e+00
-3.532351925384600e+00	-3.506896081261401e+00	 9.284375971975260e+00
-3.533942915642301e+00	-3.505305091003700e+00	 9.163428863053035e+00
-3.535533905900000e+00	-3.503714100746000e+00	 8.891009220436640e+00
-3.507249634652000e+00	-3.507249634652000e+00	 3.590169038531686e+00
-3.510078061776801e+00	-3.504421207527201e+00	 4.411175117747338e+00
-3.512906488901600e+00	-3.501592780402400e+00	 5.118175542442253e+00
-3.515734916026400e+00	-3.498764353277600e+00	 5.711170312758112e+00
-3.518563343151201e+00	-3.495935926152800e+00	 6.190159428836157e+00
-3.521391770276001e+00	-3.493107499028000e+00	 6.555142890817811e+00
-3.524220197400801e+00	-3.490279071903200e+00	 6.806120698844685e+00
-3.527048624525600e+00	-3.487450644778400e+00	 6.943092853058253e+00
-3.529877051650400e+00	-3.484622217653600e+00	 6.966059353600204e+00
-3.532705478775200e+00	-3.481793790528800e+00	 6.875020200611765e+00
-3.535533905900000e+00	-3.478965363404000e+00	 6.669975394234644e+00
-3.491339732075000e+00	-3.491339732075000e+00	 2.863192474862255e+00
-3.495759149457500e+00	-3.486920314692500e+00	 3.522815429460741e+00
-3.500178566839999e+00	-3.482500897310000e+00	 4.090849873391064e+00
-3.504597984222500e+00	-3.478081479927500e+00	 4.567295807192854e+00
-3.509017401605000e+00	-3.473662062545000e+00	 4.952153231405996e+00
-3.513436818987500e+00	-3.469242645162500e+00	 5.245422146570273e+00
-3.517856236370000e+00	-3.464823227780000e+00	 5.447102553225424e+00
-3.522275653752500e+00	-3.460403810397500e+00	 5.557194451911096e+00
-3.526695071135000e+00	-3.455984393015000e+00	 5.575697843167270e+00
-3.531114488517500e+00	-3.451564975632500e+00	 5.502612727533592e+00
-3.535533905900000e+00	-3.447145558250000e+00	 5.337854107882260e+00
-3.471894295592000e+00	-3.471894295592000e+00	 2.378314349589827e+00
-3.478258256622799e+00	-3.465530334561199e+00	 2.930576051568122e+00
-3.484622217653599e+00	-3.459166373530400e+00	 3.406167529935332e+00
-3.490986178684401e+00	-3.452802412499601e+00	 3.805088786303122e+00
-3.497350139715200e+00	-3.446438451468800e+00	 4.127200728705194e+00
-3.503714100746000e+00	-3.440074490438000e+00	 4.372300585250530e+00
-3.510078061776800e+00	-3.433710529407199e+00	 4.540731459672367e+00
-3.516442022807600e+00	-3.427346568376400e+00	 4.632493351728945e+00
-3.522805983838400e+00	-3.420982607345600e+00	 4.647586261178525e+00
-3.529169944869201e+00	-3.414618646314801e+00	 4.586010187779409e+00
-3.535533905899999e+00	-3.408254685284000e+00	 4.447765131289822e+00
-3.448913325203000e+00	-3.448913325203000e+00	 2.032303911522805e+00
-3.457575383272700e+00	-3.440251267133299e+00	 2.507391138495842e+00
-3.466237441342399e+00	-3.431589209063599e+00	 2.916404415021378e+00
-3.474899499412099e+00	-3.422927150993900e+00	 3.259392407708786e+00
-3.483561557481800e+00	-3.414265092924200e+00	 3.536355115948489e+00
-3.492223615551500e+00	-3.405603034854500e+00	 3.747292539130972e+00
-3.500885673621199e+00	-3.396940976784799e+00	 3.892204676646651e+00
-3.509547731690900e+00	-3.388278918715100e+00	 3.971091527885962e+00
-3.518209789760599e+00	-3.379616860645399e+00	 3.983953092239366e+00
-3.526871847830300e+00	-3.370954802575700e+00	 3.930789369097305e+00
-3.535533905900000e+00	-3.362292744506000e+00	 3.811600357850207e+00
-3.422396820908000e+00	-3.422396820908000e+00	 1.771399827791891e+00
-3.433710529407199e+00	-3.411083112408799e+00	 2.188894585180047e+00
-3.445024237906400e+00	-3.399769403909600e+00	 2.548340005764971e+00
-3.456337946405601e+00	-3.388455695410401e+00	 2.849736088188461e+00
-3.467651654904800e+00	-3.377141986911200e+00	 3.093082831092255e+00
-3.478965363403999e+00	-3.365828278411999e+00	 3.278380233118217e+00
-3.490279071903200e+00	-3.354514569912800e+00	 3.405628292908097e+00
-3.501592780402400e+00	-3.343200861413600e+00	 3.474827009103714e+00
-3.512906488901599e+00	-3.331887152914399e+00	 3.485976380346827e+00
-3.524220197400800e+00	-3.320573444415200e+00	 3.439076405279287e+00
-3.535533905900000e+00	-3.309259735916000e+00	 3.334127082542856e+00
-3.392344782707000e+00	-3.392344782707000e+00	 1.568419660482973e+00
-3.406663695026299e+00	-3.378025870387699e+00	 1.941144638872826e+00
-3.420982607345600e+00	-3.363706958068400e+00	 2.262019873498471e+00
-3.435301519664900e+00	-3.349388045749100e+00	 2.531045361606415e+00
-3.449620431984200e+00	-3.335069133429800e+00	 2.748221100443226e+00
-3.463939344303500e+00	-3.320750221110500e+00	 2.913547087255385e+00
-3.478258256622800e+00	-3.306431308791201e+00	 3.027023319289444e+00
-3.492577168942099e+00	-3.292112396471899e+00	 3.088649793791950e+00
-3.506896081261401e+00	-3.277793484152601e+00	 3.098426508009391e+00
-3.521214993580700e+00	-3.263474571833300e+00	 3.056353459188339e+00
-3.535533905899999e+00	-3.249155659514000e+00	 2.962430644575292e+00
-3.358757210600000e+00	-3.358757210600000e+00	 1.406083127806987e+00
-3.376434880130000e+00	-3.341079541070000e+00	 1.742966723900806e+00
-3.394112549659999e+00	-3.323401871539999e+00	 2.032957920464219e+00
-3.411790219190000e+00	-3.305724202010000e+00	 2.276056712316132e+00
-3.429467888720000e+00	-3.288046532480000e+00	 2.472263094275372e+00
-3.447145558250000e+00	-3.270368862950000e+00	 2.621577061160821e+00
-3.464823227780000e+00	-3.252691193420000e+00	 2.723998607791319e+00
-3.482500897310000e+00	-3.235013523890000e+00	 2.779527728985732e+00
-3.500178566840000e+00	-3.217335854360000e+00	 2.788164419562922e+00
-3.517856236369999e+00	-3.199658184830000e+00	 2.749908674341742e+00
-3.535533905900000e+00	-3.181980515300000e+00	 2.664760488141053e+00
-3.358757210600000e+00	-3.358757210600000e+00	 1.406083127806987e+00
-3.376434880130000e+00	-3.341079541070000e+00	 1.742966723900806e+00
-3.394112549659999e+00	-3.323401871539999e+00	 2.032957920464219e+00
-3.411790219190000e+00	-3.305724202010000e+00	 2.276056712316132e+00
-3.429467888720000e+00	-3.288046532480000e+00	 2.472263094275372e+00
-3.447145558250000e+00	-3.270368862950000e+00	 2.621577061160821e+00
-3.464823227780000e+00	-3.252691193420000e+00	 2.723998607791319e+00
-3.482500897310000e+00	-3.235013523890000e+00	 2.779527728985732e+00
-3.500178566840000e+00	-3.217335854360000e+00	 2.788164419562922e+00
-3.517856236369999e+00	-3.199658184830000e+00	 2.749908674341742e+00
-3.535533905900000e+00	-3.181980515300000e+00	 2.664760488141053e+00
-3.321634104587000e+00	-3.321634104587000e+00	 1.248009328841668e+00
-3.343024084718299e+00	-3.300244124455890e+00	 1.558033284804118e+00
-3.364414064849600e+00	-3.278854144324760e+00	 1.825921213511995e+00
-3.385804044980900e+00	-3.257464164193611e+00	 2.051673105785637e+00
-3.407194025112200e+00	-3.236074184062439e+00	 2.235288952445536e+00
-3.428584005243500e+00	-3.214684203931250e+00	 2.376768744312234e+00
-3.449973985374800e+00	-3.193294223800040e+00	 2.476112472206431e+00
-3.471363965506100e+00	-3.171904243668811e+00	 2.533320126948894e+00
-3.492753945637400e+00	-3.150514263537560e+00	 2.548391699360518e+00
-3.514143925768699e+00	-3.129124283406290e+00	 2.521327180262281e+00
-3.535533905900000e+00	-3.107734303275000e+00	 2.452126560475294e+00
-3.280975464668000e+00	-3.280975464668000e+00	 1.122211889919697e+00
-3.306431308791200e+00	-3.255519620545560e+00	 1.409474206448687e+00
-3.331887152914400e+00	-3.230063776423039e+00	 1.658325097347307e+00
-3.357342997037599e+00	-3.204607932300439e+00	 1.868764547143456e+00
-3.382798841160801e+00	-3.179152088177761e+00	 2.040792540365142e+00
-3.408254685284001e+00	-3.153696244055000e+00	 2.174409061540528e+00
-3.433710529407200e+00	-3.128240399932160e+00	 2.269614095197914e+00
-3.459166373530400e+00	-3.102784555809240e+00	 2.326407625865761e+00
-3.484622217653600e+00	-3.077328711686240e+00	 2.344789638072667e+00
-3.510078061776800e+00	-3.051872867563160e+00	 2.324760116347377e+00
-3.535533905900000e+00	-3.026417023440000e+00	 2.266319045218766e+00
-3.236781290843000e+00	-3.236781290843000e+00	 1.020030121782552e+00
-3.266656552348700e+00	-3.206906029339010e+00	 1.287750934939802e+00
-3.296531813854400e+00	-3.177030767834840e+00	 1.520042341544503e+00
-3.326407075360100e+00	-3.147155506330491e+00	 1.716904316586873e+00
-3.356282336865799e+00	-3.117280244825959e+00	 1.878336835057252e+00
-3.386157598371500e+00	-3.087404983321250e+00	 2.004339871946140e+00
-3.416032859877199e+00	-3.057529721816359e+00	 2.094913402244202e+00
-3.445908121382900e+00	-3.027654460311290e+00	 2.150057400942228e+00
-3.475783382888600e+00	-2.997779198806040e+00	 2.169771843031171e+00
-3.505658644394301e+00	-2.967903937300611e+00	 2.154056703502133e+00
-3.535533905900000e+00	-2.938028675795000e+00	 2.102911957346360e+00
-3.189051583112000e+00	-3.189051583112000e+00	 9.356053578264173e-01
-3.223699815390799e+00	-3.154403350836239e+00	 1.186359114096502e+00
-3.258348047669599e+00	-3.119755118560160e+00	 1.404115933886100e+00
-3.292996279948400e+00	-3.085106886283760e+00	 1.588875778182287e+00
-3.327644512227200e+00	-3.050458654007040e+00	 1.740638607972237e+00
-3.362292744506000e+00	-3.015810421730001e+00	 1.859404384243275e+00
-3.396940976784800e+00	-2.981162189452639e+00	 1.945173067982862e+00
-3.431589209063600e+00	-2.946513957174960e+00	 1.997944620178596e+00
-3.466237441342399e+00	-2.911865724896960e+00	 2.017719001818216e+00
-3.500885673621200e+00	-2.877217492618640e+00	 2.004496173889583e+00
-3.535533905900000e+00	-2.842569260339999e+00	 1.958276097380715e+00
-3.137786341475000e+00	-3.137786341475000e+00	 8.648457582570450e-01
-3.177561097917500e+00	-3.098011585037250e+00	 1.100721865920791e+00
-3.217335854359999e+00	-3.058236828599000e+00	 1.305617095060210e+00
-3.257110610802500e+00	-3.018462072160250e+00	 1.479531386657647e+00
-3.296885367245000e+00	-2.978687315721000e+00	 1.622464681695546e+00
-3.336660123687500e+00	-2.938912559281250e+00	 1.734416921156480e+00
-3.376434880130000e+00	-2.899137802841000e+00	 1.815388046023136e+00
-3.416209636572500e+00	-2.859363046400250e+00	 1.865377997278310e+00
-3.455984393014999e+00	-2.819588289959000e+00	 1.884386715904932e+00
-3.495759149457500e+00	-2.779813533517250e+00	 1.872414142886037e+00
-3.535533905900000e+00	-2.740038777074999e+00	 1.829460219204772e+00
-3.082985565932000e+00	-3.082985565932000e+00	 8.048150281034163e-01
-3.128240399928800e+00	-3.037730731942040e+00	 1.027531747983036e+00
-3.173495233925599e+00	-2.992475897951360e+00	 1.220961655737141e+00
-3.218750067922400e+00	-2.947221063959960e+00	 1.385104664439571e+00
-3.264004901919199e+00	-2.901966229967839e+00	 1.519960687164234e+00
-3.309259735916000e+00	-2.856711395975000e+00	 1.625529636985116e+00
-3.354514569912800e+00	-2.811456561981440e+00	 1.701811426976336e+00
-3.399769403909600e+00	-2.766201727987160e+00	 1.748805970212071e+00
-3.445024237906400e+00	-2.720946893992159e+00	 1.766513179766612e+00
-3.490279071903199e+00	-2.675692059996439e+00	 1.754932968714335e+00
-3.535533905900000e+00	-2.630437225999999e+00	 1.714065250129708e+00
-3.024649256482999e+00	-3.024649256482999e+00	 7.533566737134345e-01
-3.075737721424699e+00	-2.973560791550610e+00	 9.643436134578552e-01
-3.126826186366400e+00	-2.922472326617240e+00	 1.147484404813080e+00
-3.177914651308100e+00	-2.871383861682889e+00	 1.302778922718101e+00
-3.229003116249799e+00	-2.820295396747559e+00	 1.430227042111940e+00
-3.280091581191499e+00	-2.769206931811250e+00	 1.529828637933720e+00
-3.331180046133199e+00	-2.718118466873960e+00	 1.601583585122622e+00
-3.382268511074900e+00	-2.667030001935690e+00	 1.645491758617891e+00
-3.433356976016600e+00	-2.615941536996440e+00	 1.661553033358858e+00
-3.484445440958300e+00	-2.564853072056209e+00	 1.649767284284891e+00
-3.535533905900000e+00	-2.513764607114999e+00	 1.610134386335460e+00
-2.962777413128000e+00	-2.962777413128000e+00	 7.088549480611170e-01
-3.020053062405199e+00	-2.905501763862960e+00	 9.093139677117659e-01
-3.077328711682400e+00	-2.848226114596640e+00	 1.083164973276315e+00
-3.134604360959600e+00	-2.790950465329039e+00	 1.230407788531954e+00
-3.191880010236801e+00	-2.733674816060160e+00	 1.351042237255904e+00
-3.249155659514000e+00	-2.676399166790000e+00	 1.445068143225425e+00
-3.306431308791200e+00	-2.619123517518559e+00	 1.512485330217845e+00
-3.363706958068399e+00	-2.561847868245839e+00	 1.553293622010513e+00
-3.420982607345600e+00	-2.504572218971839e+00	 1.567492842380837e+00
-3.478258256622800e+00	-2.447296569696559e+00	 1.555082815106257e+00
-3.535533905900000e+00	-2.390020920419999e+00	 1.516063363964270e+00
-2.897370035866999e+00	-2.897370035866999e+00	 6.714331176064607e-01
-2.961186422870299e+00	-2.833553648879089e+00	 8.610291024783748e-01
-3.025002809873600e+00	-2.769737261889559e+00	 1.026446072793953e+00
-3.088819196876900e+00	-2.705920874898409e+00	 1.166328816924177e+00
-3.152635583880200e+00	-2.642104487905640e+00	 1.280677091117209e+00
-3.216451970883500e+00	-2.578288100911249e+00	 1.369490651621232e+00
-3.280268357886800e+00	-2.514471713915239e+00	 1.432769254684459e+00
-3.344084744890099e+00	-2.450655326917609e+00	 1.470512656555119e+00
-3.407901131893400e+00	-2.386838939918359e+00	 1.482720613481470e+00
-3.471717518896699e+00	-2.323022552917489e+00	 1.469392881711776e+00
-3.535533905900000e+00	-2.259206165914999e+00	 1.430529217494334e+00
-2.828427124700000e+00	-2.828427124700000e+00	 6.394720145728505e-01
-2.899137802820000e+00	-2.757716446599001e+00	 8.196771536421563e-01
-2.969848480940000e+00	-2.687005768496000e+00	 9.761098552088439e-01
-3.040559159060000e+00	-2.616295090391000e+00	 1.109236017648507e+00
-3.111269837180000e+00	-2.545584412284000e+00	 1.217766956654685e+00
-3.181980515300000e+00	-2.474873734175000e+00	 1.301702340634013e+00
-3.252691193420000e+00	-2.404163056064000e+00	 1.361041837993121e+00
-3.323401871540000e+00	-2.333452377951000e+00	 1.395785117138642e+00
-3.394112549660000e+00	-2.262741699836000e+00	 1.405931846477216e+00
-3.464823227780000e+00	-2.192031021719000e+00	 1.391481694415464e+00
-3.535533905900000e+00	-2.121320343600000e+00	 1.352434329360026e+00
-3.535533905900000e+00	-3.535533905900000e+00	 1.327238078612282e+00
-3.535533905900000e+00	-3.535533905900000e+00	 1.327238078612282e+00
-3.535533905899999e+00	-3.535533905899999e+00	 1.327238078612282e+00
-3.535533905900000e+00	-3.535533905900000e+00	 1.327238078612282e+00
-3.535533905900000e+00	-3.535533905900000e+00	 1.327238078612282e+00
-3.535533905900000e+00	-3.535533905900000e+00	 1.327238078612282e+00
-3.535533905900000e+00	-3.535533905900000e+00	 1.327238078612282e+00
-3.535533905900000e+00	-3.535533905900000e+00	 1.327238078612282e+00
-3.535533905899999e+00	-3.535533905899999e+00	 1.327238078612282e+00
-3.535533905899999e+00	-3.535533905899999e+00	 1.327238078612282e+00
-3.535533905900000e+00	-3.535533905900000e+00	 1.327238078612282e+00
-3.535533905900000e+00	-3.531998371994000e+00	 2.719183080060112e+01
-3.535710682595299e+00	-3.532175148689299e+00	 2.892259154431174e+01
-3.535887459290599e+00	-3.532351925384600e+00	 3.044925034554501e+01
-3.536064235985900e+00	-3.532528702079900e+00	 3.177180720430212e+01
-3.536241012681200e+00	-3.532705478775200e+00	 3.289026212058445e+01
-3.536417789376500e+00	-3.532882255470500e+00	 3.380461509439105e+01
-3.536594566071801e+00	-3.533059032165800e+00	 3.451486612572192e+01
-3.536771342767100e+00	-3.533235808861100e+00	 3.502101521457997e+01
-3.536948119462400e+00	-3.533412585556400e+00	 3.532306236095068e+01
-3.537124896157700e+00	-3.533589362251700e+00	 3.542100756485137e+01
-3.537301672853000e+00	-3.533766138947000e+00	 3.531485082627567e+01
-3.535533905899999e+00	-3.521391770275999e+00	 1.357332537615920e+01
-3.536241012681200e+00	-3.522098877057200e+00	 1.444100475053373e+01
-3.536948119462400e+00	-3.522805983838400e+00	 1.520937975194919e+01
-3.537655226243600e+00	-3.523513090619600e+00	 1.587845038040308e+01
-3.538362333024800e+00	-3.524220197400799e+00	 1.644821663589439e+01
-3.539069439805999e+00	-3.524927304182000e+00	 1.691867851842109e+01
-3.539776546587199e+00	-3.525634410963200e+00	 1.728983602798174e+01
-3.540483653368400e+00	-3.526341517744400e+00	 1.756168916457388e+01
-3.541190760149600e+00	-3.527048624525600e+00	 1.773423792819761e+01
-3.541897866930800e+00	-3.527755731306800e+00	 1.780748231884819e+01
-3.542604973711999e+00	-3.528462838088000e+00	 1.778142233652580e+01
-3.535533905900000e+00	-3.503714100746000e+00	 9.067824523452533e+00
-3.537124896157700e+00	-3.505305091003700e+00	 9.643758362157367e+00
-3.538715886415401e+00	-3.506896081261401e+00	 1.015406077975947e+01
-3.540306876673099e+00	-3.508487071519100e+00	 1.059873177623906e+01
-3.541897866930799e+00	-3.510078061776799e+00	 1.097777135157611e+01
-3.543488857188500e+00	-3.511669052034501e+00	 1.129117950575156e+01
-3.545079847446200e+00	-3.513260042292200e+00	 1.153895623874523e+01
-3.546670837703900e+00	-3.514851032549900e+00	 1.172110155053700e+01
-3.548261827961600e+00	-3.516442022807600e+00	 1.183761544110757e+01
-3.549852818219301e+00	-3.518033013065301e+00	 1.188849791043691e+01
-3.551443808477000e+00	-3.519624003323000e+00	 1.187374895850578e+01
-3.535533905900000e+00	-3.478965363404000e+00	 6.822214469526531e+00
-3.538362333024801e+00	-3.481793790528801e+00	 7.251455530465431e+00
-3.541190760149600e+00	-3.484622217653599e+00	 7.631665578378104e+00
-3.544019187274400e+00	-3.487450644778400e+00	 7.962844613153559e+00
-3.546847614399200e+00	-3.490279071903200e+00	 8.244992634680584e+00
-3.549676041524000e+00	-3.493107499028000e+00	 8.478109642848256e+00
-3.552504468648801e+00	-3.495935926152800e+00	 8.662195637545393e+00
-3.555332895773600e+00	-3.498764353277600e+00	 8.797250618660714e+00
-3.558161322898401e+00	-3.501592780402401e+00	 8.883274586083546e+00
-3.560989750023201e+00	-3.504421207527200e+00	 8.920267539702552e+00
-3.563818177148000e+00	-3.507249634652000e+00	 8.908229479406630e+00
-3.535533905900000e+00	-3.447145558250000e+00	 5.477734498083498e+00
-3.539953323282500e+00	-3.451564975632500e+00	 5.818727680221864e+00
-3.544372740665000e+00	-3.455984393015000e+00	 6.120489724620638e+00
-3.548792158047500e+00	-3.460403810397501e+00	 6.383105628523440e+00
-3.553211575430000e+00	-3.464823227780000e+00	 6.606575391506640e+00
-3.557630992812500e+00	-3.469242645162500e+00	 6.790899013146417e+00
-3.562050410195000e+00	-3.473662062545000e+00	 6.936076493019032e+00
-3.566469827577500e+00	-3.478081479927500e+00	 7.042107830700752e+00
-3.570889244960000e+00	-3.482500897310000e+00	 7.108993025767861e+00
-3.575308662342501e+00	-3.486920314692501e+00	 7.136732077796433e+00
-3.579728079725000e+00	-3.491339732075000e+00	 7.125324986362961e+00
-3.535533905899999e+00	-3.408254685284000e+00	 4.580401002907188e+00
-3.541897866930800e+00	-3.414618646314800e+00	 4.862719015971282e+00
-3.548261827961599e+00	-3.420982607345600e+00	 5.112448748318086e+00
-3.554625788992400e+00	-3.427346568376401e+00	 5.329590197174564e+00
-3.560989750023200e+00	-3.433710529407200e+00	 5.514143359767654e+00
-3.567353711053999e+00	-3.440074490438000e+00	 5.666108233324319e+00
-3.573717672084799e+00	-3.446438451468799e+00	 5.785484815071526e+00
-3.580081633115600e+00	-3.452802412499600e+00	 5.871935315762260e+00
-3.586445594146400e+00	-3.459166373530401e+00	 5.925661180552202e+00
-3.592809555177201e+00	-3.465530334561200e+00	 5.946799652605685e+00
-3.599173516208000e+00	-3.471894295592000e+00	 5.935350730657334e+00
-3.535533905900000e+00	-3.362292744506000e+00	 3.939548726712517e+00
-3.544195963969699e+00	-3.370954802575699e+00	 4.179715348023274e+00
-3.552858022039400e+00	-3.379616860645399e+00	 4.391962828800904e+00
-3.561520080109099e+00	-3.388278918715100e+00	 4.576291162052856e+00
-3.570182138178799e+00	-3.396940976784800e+00	 4.732700340786504e+00
-3.578844196248499e+00	-3.405603034854500e+00	 4.861190358009274e+00
-3.587506254318199e+00	-3.414265092924199e+00	 4.961761206728585e+00
-3.596168312387900e+00	-3.422927150993900e+00	 5.034412879951862e+00
-3.604830370457599e+00	-3.431589209063599e+00	 5.079145370686478e+00
-3.613492428527301e+00	-3.440251267133300e+00	 5.095958671939882e+00
-3.622154486597000e+00	-3.448913325203000e+00	 5.084805565132636e+00
-3.535533905900000e+00	-3.309259735916000e+00	 3.458826236341529e+00
-3.546847614399199e+00	-3.320573444415199e+00	 3.667336540679836e+00
-3.558161322898400e+00	-3.331887152914400e+00	 3.851421231623947e+00
-3.569475031397601e+00	-3.343200861413601e+00	 4.011080293593046e+00
-3.580788739896800e+00	-3.354514569912800e+00	 4.146313711006346e+00
-3.592102448396000e+00	-3.365828278411999e+00	 4.257121468283059e+00
-3.603416156895200e+00	-3.377141986911199e+00	 4.343503549842385e+00
-3.614729865394400e+00	-3.388455695410400e+00	 4.405459940103552e+00
-3.626043573893599e+00	-3.399769403909600e+00	 4.442990623485740e+00
-3.637357282392800e+00	-3.411083112408801e+00	 4.456095584408165e+00
-3.648670990892001e+00	-3.422396820908000e+00	 4.444774807290051e+00
-3.535533905899999e+00	-3.249155659514000e+00	 3.084760504881588e+00
-3.549852818219299e+00	-3.263474571833299e+00	 3.268616369659887e+00
-3.564171730538599e+00	-3.277793484152599e+00	 3.430758971841682e+00
-3.578490642857900e+00	-3.292112396471900e+00	 3.571188279840231e+00
-3.592809555177201e+00	-3.306431308791201e+00	 3.689904262068813e+00
-3.607128467496501e+00	-3.320750221110500e+00	 3.786906886940703e+00
-3.621447379815800e+00	-3.335069133429800e+00	 3.862196122869162e+00
-3.635766292135099e+00	-3.349388045749099e+00	 3.915771938267445e+00
-3.650085204454400e+00	-3.363706958068401e+00	 3.947634301548854e+00
-3.664404116773699e+00	-3.378025870387700e+00	 3.957783181126642e+00
-3.678723029093000e+00	-3.392344782707000e+00	 3.946218545414082e+00
-3.535533905900000e+00	-3.181980515300000e+00	 2.785294374134437e+00
-3.553211575430001e+00	-3.199658184830001e+00	 2.949398615391063e+00
-3.570889244959999e+00	-3.217335854360000e+00	 3.093956561190403e+00
-3.588566914490000e+00	-3.235013523890000e+00	 3.218968152096423e+00
-3.606244584020000e+00	-3.252691193420000e+00	 3.324433328673135e+00
-3.623922253550000e+00	-3.270368862950000e+00	 3.410352031484540e+00
-3.641599923080000e+00	-3.288046532480000e+00	 3.476724201094618e+00
-3.659277592610000e+00	-3.305724202010000e+00	 3.523549778067367e+00
-3.676955262140000e+00	-3.323401871540000e+00	 3.550828702966788e+00
-3.694632931670000e+00	-3.341079541070000e+00	 3.558560916356866e+00
-3.712310601200000e+00	-3.358757210600000e+00	 3.546746358801606e+00
-3.535533905900000e+00	-3.181980515300000e+00	 2.785294374134437e+00
-3.553211575430001e+00	-3.199658184830001e+00	 2.949398615391063e+00
-3.570889244959999e+00	-3.217335854360000e+00	 3.093956561190403e+00
-3.588566914490000e+00	-3.235013523890000e+00	 3.218968152096423e+00
-3.606244584020000e+00	-3.252691193420000e+00	 3.324433328673135e+00
-3.623922253550000e+00	-3.270368862950000e+00	 3.410352031484540e+00
-3.641599923080000e+00	-3.288046532480000e+00	 3.476724201094618e+00
-3.659277592610000e+00	-3.305724202010000e+00	 3.523549778067367e+00
-3.676955262140000e+00	-3.323401871540000e+00	 3.550828702966788e+00
-3.694632931670000e+00	-3.341079541070000e+00	 3.558560916356866e+00
-3.712310601200000e+00	-3.358757210600000e+00	 3.546746358801606e+00
-3.535533905900000e+00	-3.107734303275000e+00	 2.550114833759151e+00
-3.556923886031300e+00	-3.129124283406289e+00	 2.701743812570893e+00
-3.578313866162600e+00	-3.150514263537560e+00	 2.835343836919647e+00
-3.599703846293900e+00	-3.171904243668811e+00	 2.950914801510757e+00
-3.621093826425200e+00	-3.193294223800040e+00	 3.048456601049600e+00
-3.642483806556500e+00	-3.214684203931250e+00	 3.127969130241598e+00
-3.663873786687800e+00	-3.236074184062440e+00	 3.189452283792229e+00
-3.685263766819100e+00	-3.257464164193611e+00	 3.232905956406992e+00
-3.706653746950400e+00	-3.278854144324760e+00	 3.258330042791458e+00
-3.728043727081699e+00	-3.300244124455890e+00	 3.265724437651236e+00
-3.749433707213000e+00	-3.321634104587000e+00	 3.255089035691959e+00
-3.535533905900000e+00	-3.026417023440000e+00	 2.347714310725146e+00
-3.560989750023201e+00	-3.051872867563160e+00	 2.489527491646803e+00
-3.586445594146400e+00	-3.077328711686239e+00	 2.614661393630810e+00
-3.611901438269600e+00	-3.102784555809239e+00	 2.723115839201999e+00
-3.637357282392801e+00	-3.128240399932160e+00	 2.814890650885228e+00
-3.662813126516000e+00	-3.153696244055000e+00	 2.889985651205444e+00
-3.688268970639200e+00	-3.179152088177760e+00	 2.948400662687641e+00
-3.713724814762401e+00	-3.204607932300440e+00	 2.990135507856880e+00
-3.739180658885600e+00	-3.230063776423040e+00	 3.015190009238286e+00
-3.764636503008800e+00	-3.255519620545560e+00	 3.023563989357048e+00
-3.790092347132000e+00	-3.280975464668000e+00	 3.015257270738421e+00
-3.535533905900000e+00	-2.938028675795000e+00	 2.171825567382178e+00
-3.565409167405700e+00	-2.967903937300610e+00	 2.305737571922452e+00
-3.595284428911401e+00	-2.997779198806040e+00	 2.424173141143492e+00
-3.625159690417101e+00	-3.027654460311290e+00	 2.527131988158809e+00
-3.655034951922800e+00	-3.057529721816359e+00	 2.614613826081968e+00
-3.684910213428500e+00	-3.087404983321250e+00	 2.686618368026597e+00
-3.714785474934199e+00	-3.117280244825959e+00	 2.743145327106407e+00
-3.744660736439900e+00	-3.147155506330490e+00	 2.784194416435152e+00
-3.774535997945601e+00	-3.177030767834840e+00	 2.809765349126667e+00
-3.804411259451300e+00	-3.206906029339010e+00	 2.819857838294851e+00
-3.834286520957000e+00	-3.236781290843000e+00	 2.814471597053651e+00
-3.535533905900000e+00	-2.842569260339999e+00	 2.017628274200874e+00
-3.570182138178799e+00	-2.877217492618640e+00	 2.145055230670829e+00
-3.604830370457600e+00	-2.911865724896959e+00	 2.258081499427248e+00
-3.639478602736400e+00	-2.946513957174960e+00	 2.356706632944352e+00
-3.674126835015199e+00	-2.981162189452640e+00	 2.440930183696409e+00
-3.708775067294000e+00	-3.015810421730001e+00	 2.510751704157746e+00
-3.743423299572800e+00	-3.050458654007040e+00	 2.566170746802757e+00
-3.778071531851600e+00	-3.085106886283759e+00	 2.607186864105888e+00
-3.812719764130400e+00	-3.119755118560160e+00	 2.633799608541647e+00
-3.847367996409200e+00	-3.154403350836239e+00	 2.646008532584607e+00
-3.882016228688000e+00	-3.189051583112000e+00	 2.643813188709403e+00
-3.535533905900000e+00	-2.740038777074999e+00	 1.881374876604824e+00
-3.575308662342500e+00	-2.779813533517249e+00	 2.003388021361347e+00
-3.615083418784999e+00	-2.819588289958999e+00	 2.111966658817910e+00
-3.654858175227500e+00	-2.859363046400250e+00	 2.207110111961045e+00
-3.694632931670000e+00	-2.899137802841000e+00	 2.288817703777327e+00
-3.734407688112500e+00	-2.938912559281250e+00	 2.357088757253370e+00
-3.774182444555001e+00	-2.978687315721000e+00	 2.411922595375852e+00
-3.813957200997500e+00	-3.018462072160250e+00	 2.453318541131503e+00
-3.853731957440000e+00	-3.058236828598999e+00	 2.481275917507090e+00
-3.893506713882500e+00	-3.098011585037250e+00	 2.495794047489445e+00
-3.933281470325000e+00	-3.137786341475000e+00	 2.496872254065446e+00
-3.535533905900000e+00	-2.630437225999999e+00	 1.760118819937660e+00
-3.580788739896800e+00	-2.675692059996440e+00	 1.877543837510455e+00
-3.626043573893601e+00	-2.720946893992160e+00	 1.982406115585859e+00
-3.671298407890400e+00	-2.766201727987160e+00	 2.074704656992983e+00
-3.716553241887199e+00	-2.811456561981439e+00	 2.154438464560949e+00
-3.761808075884000e+00	-2.856711395975000e+00	 2.221606541118941e+00
-3.807062909880800e+00	-2.901966229967840e+00	 2.276207889496179e+00
-3.852317743877601e+00	-2.947221063959960e+00	 2.318241512521914e+00
-3.897572577874401e+00	-2.992475897951359e+00	 2.347706413025450e+00
-3.942827411871199e+00	-3.037730731942039e+00	 2.364601593836118e+00
-3.988082245868001e+00	-3.082985565932000e+00	 2.368926057783297e+00
-3.535533905900000e+00	-2.513764607114999e+00	 1.651517689187440e+00
-3.586622370841700e+00	-2.564853072056209e+00	 1.765000990958759e+00
-3.637710835783401e+00	-2.615941536996440e+00	 1.866711872968696e+00
-3.688799300725101e+00	-2.667030001935689e+00	 1.956648900576407e+00
-3.739887765666800e+00	-2.718118466873960e+00	 2.034810639141067e+00
-3.790976230608500e+00	-2.769206931811250e+00	 2.101195654021875e+00
-3.842064695550200e+00	-2.820295396747559e+00	 2.155802510578073e+00
-3.893153160491900e+00	-2.871383861682889e+00	 2.198629774168923e+00
-3.944241625433600e+00	-2.922472326617240e+00	 2.229676010153722e+00
-3.995330090375300e+00	-2.973560791550609e+00	 2.248939783891790e+00
-4.046418555317000e+00	-3.024649256482999e+00	 2.256419660742480e+00
-3.535533905900000e+00	-2.390020920419999e+00	 1.553689845060480e+00
-3.592809555177201e+00	-2.447296569696559e+00	 1.663743986048502e+00
-3.650085204454401e+00	-2.504572218971839e+00	 1.762745645994443e+00
-3.707360853731600e+00	-2.561847868245839e+00	 1.850692803347441e+00
-3.764636503008801e+00	-2.619123517518560e+00	 1.927583436556650e+00
-3.821912152286000e+00	-2.676399166790000e+00	 1.993415524071234e+00
-3.879187801563200e+00	-2.733674816060160e+00	 2.048187044340391e+00
-3.936463450840400e+00	-2.790950465329039e+00	 2.091895975813321e+00
-3.993739100117601e+00	-2.848226114596639e+00	 2.124540296939265e+00
-4.051014749394800e+00	-2.905501763862960e+00	 2.146117986167456e+00
-4.108290398672001e+00	-2.962777413128000e+00	 2.156627021947158e+00
-3.535533905900000e+00	-2.259206165914999e+00	 1.465109078778780e+00
-3.599350292903300e+00	-2.323022552917489e+00	 1.572144602756805e+00
-3.663166679906601e+00	-2.386838939918359e+00	 1.668786675628913e+00
-3.726983066909900e+00	-2.450655326917609e+00	 1.755032501175770e+00
-3.790799453913201e+00	-2.514471713915239e+00	 1.830879283178038e+00
-3.854615840916500e+00	-2.578288100911249e+00	 1.896324225416396e+00
-3.918432227919800e+00	-2.642104487905639e+00	 1.951364531671535e+00
-3.982248614923100e+00	-2.705920874898409e+00	 1.995997405724155e+00
-4.046065001926400e+00	-2.769737261889559e+00	 2.030220051354954e+00
-4.109881388929700e+00	-2.833553648879089e+00	 2.054029672344654e+00
-4.173697775933000e+00	-2.897370035866999e+00	 2.067423472473972e+00
-3.535533905900000e+00	-2.121320343600000e+00	 1.384526391034428e+00
-3.606244584020000e+00	-2.192031021719000e+00	 1.488874606043499e+00
-3.676955262139999e+00	-2.262741699836000e+00	 1.583435644615039e+00
-3.747665940260000e+00	-2.333452377951000e+00	 1.668205702844626e+00
-3.818376618380000e+00	-2.404163056064000e+00	 1.743180976827848e+00
-3.889087296500000e+00	-2.474873734175000e+00	 1.808357662660295e+00
-3.959797974620000e+00	-2.545584412284000e+00	 1.863731956437555e+00
-4.030508652740000e+00	-2.616295090391000e+00	 1.909300054255212e+00
-4.101219330860000e+00	-2.687005768496000e+00	 1.945058152208859e+00
-4.171930008980000e+00	-2.757716446599000e+00	 1.971002446394083e+00
-4.242640687100000e+00	-2.828427124700000e+00	 1.987129132906473e+00
-3.535533905900000e+00	-3.535533905900000e+00	 1.327238078612282e+00
-3.535533905900000e+00	-3.535533905900000e+00	 1.327238078612282e+00
-3.535533905899999e+00	-3.535533905899999e+00	 1.327238078612282e+00
-3.535533905900000e+00	-3.535533905900000e+00	 1.327238078612282e+00
-3.535533905900000e+00	-3.535533905900000e+00	 1.327238078612282e+00
-3.535533905900000e+00	-3.535533905900000e+00	 1.327238078612282e+00
-3.535533905900000e+00	-3.535533905900000e+00	 1.327238078612282e+00
-3.535533905900000e+00	-3.535533905900000e+00	 1.327238078612282e+00
-3.535533905899999e+00	-3.535533905899999e+00	 1.327238078612282e+00
-3.535533905899999e+00	-3.535533905899999e+00	 1.327238078612282e+00
-3.535533905900000e+00	-3.535533905900000e+00	 1.327238078612282e+00
-3.537301672853000e+00	-3.533766138947000e+00	 3.056484974922456e+01
-3.537478449548299e+00	-3.533942915642299e+00	 3.065318678496558e+01
-3.537655226243599e+00	-3.534119692337599e+00	 3.049944010009150e+01
-3.537832002938900e+00	-3.534296469032900e+00	 3.010360969460841e+01
-3.538008779634200e+00	-3.534473245728200e+00	 2.946569556851616e+01
-3.538185556329501e+00	-3.534650022423500e+00	 2.858569772181297e+01
-3.538362333024800e+00	-3.534826799118800e+00	 2.746361615449784e+01
-3.538539109720100e+00	-3.535003575814100e+00	 2.609945086657621e+01
-3.538715886415400e+00	-3.535180352509400e+00	 2.449320185803242e+01
-3.538892663110700e+00	-3.535357129204700e+00	 2.264486912888304e+01
-3.539069439806000e+00	-3.535533905900000e+00	 2.055445267912250e+01
-3.542604973711999e+00	-3.528462838088000e+00	 1.536365989471435e+01
-3.543312080493200e+00	-3.529169944869200e+00	 1.540283180851734e+01
-3.544019187274400e+00	-3.529877051650401e+00	 1.532014975459563e+01
-3.544726294055600e+00	-3.530584158431600e+00	 1.511561373294728e+01
-3.545433400836799e+00	-3.531291265212799e+00	 1.478922374357160e+01
-3.546140507617999e+00	-3.531998371993999e+00	 1.434097978646538e+01
-3.546847614399200e+00	-3.532705478775199e+00	 1.377088186162798e+01
-3.547554721180400e+00	-3.533412585556400e+00	 1.307892996905712e+01
-3.548261827961600e+00	-3.534119692337600e+00	 1.226512410875221e+01
-3.548968934742800e+00	-3.534826799118800e+00	 1.132946428070925e+01
-3.549676041524000e+00	-3.535533905899999e+00	 1.027195048492840e+01
-3.551443808477000e+00	-3.519624003323000e+00	 1.025838984058656e+01
-3.553034798734700e+00	-3.521214993580700e+00	 1.028846923132257e+01
-3.554625788992401e+00	-3.522805983838401e+00	 1.023758486706000e+01
-3.556216779250099e+00	-3.524396974096099e+00	 1.010573674777910e+01
-3.557807769507800e+00	-3.525987964353799e+00	 9.892924873459554e+00
-3.559398759765501e+00	-3.527578954611501e+00	 9.599149244082595e+00
-3.560989750023200e+00	-3.529169944869200e+00	 9.224409859627864e+00
-3.562580740280900e+00	-3.530760935126900e+00	 8.768706720075500e+00
-3.564171730538600e+00	-3.532351925384600e+00	 8.232039825405966e+00
-3.565762720796301e+00	-3.533942915642301e+00	 7.614409175599375e+00
-3.567353711054000e+00	-3.535533905900000e+00	 6.915814770636147e+00
-3.563818177148000e+00	-3.507249634652000e+00	 7.698757731960851e+00
-3.566646604272801e+00	-3.510078061776801e+00	 7.725599539775828e+00
-3.569475031397600e+00	-3.512906488901600e+00	 7.692075355265494e+00
-3.572303458522400e+00	-3.515734916026400e+00	 7.598185178318768e+00
-3.575131885647200e+00	-3.518563343151201e+00	 7.443929008824587e+00
-3.577960312772000e+00	-3.521391770276001e+00	 7.229306846671983e+00
-3.580788739896800e+00	-3.524220197400801e+00	 6.954318691749769e+00
-3.583617167021600e+00	-3.527048624525600e+00	 6.618964543946750e+00
-3.586445594146400e+00	-3.529877051650400e+00	 6.223244403152020e+00
-3.589274021271200e+00	-3.532705478775200e+00	 5.767158269254435e+00
-3.592102448396000e+00	-3.535533905900000e+00	 5.250706142142850e+00
-3.579728079725000e+00	-3.491339732075000e+00	 6.160885087930027e+00
-3.584147497107501e+00	-3.495759149457500e+00	 6.186150004305365e+00
-3.588566914489999e+00	-3.500178566839999e+00	 6.163456603484046e+00
-3.592986331872500e+00	-3.504597984222500e+00	 6.092804885042276e+00
-3.597405749255000e+00	-3.509017401605000e+00	 5.974194848556327e+00
-3.601825166637500e+00	-3.513436818987500e+00	 5.807626493602399e+00
-3.606244584020000e+00	-3.517856236370000e+00	 5.593099819756755e+00
-3.610664001402500e+00	-3.522275653752500e+00	 5.330614826595703e+00
-3.615083418785000e+00	-3.526695071135000e+00	 5.020171513695412e+00
-3.619502836167500e+00	-3.531114488517500e+00	 4.661769880632101e+00
-3.623922253550000e+00	-3.535533905900000e+00	 4.255409926982152e+00
-3.599173516208000e+00	-3.471894295592000e+00	 5.134890159369930e+00
-3.605537477238800e+00	-3.478258256622799e+00	 5.159208756323260e+00
-3.611901438269600e+00	-3.484622217653599e+00	 5.143861484055950e+00
-3.618265399300401e+00	-3.490986178684401e+00	 5.088848341302723e+00
-3.624629360331200e+00	-3.497350139715200e+00	 4.994169326798213e+00
-3.630993321361999e+00	-3.503714100746000e+00	 4.859824439277102e+00
-3.637357282392799e+00	-3.510078061776800e+00	 4.685813677474071e+00
-3.643721243423600e+00	-3.516442022807600e+00	 4.472137040123777e+00
-3.650085204454400e+00	-3.522805983838400e+00	 4.218794525960901e+00
-3.656449165485200e+00	-3.529169944869201e+00	 3.925786133720109e+00
-3.662813126516000e+00	-3.535533905899999e+00	 3.593111862136060e+00
-3.622154486597000e+00	-3.448913325203000e+00	 4.401779090118304e+00
-3.630816544666700e+00	-3.457575383272700e+00	 4.425430582342250e+00
-3.639478602736399e+00	-3.466237441342399e+00	 4.415349821136496e+00
-3.648140660806100e+00	-3.474899499412099e+00	 4.371536803310393e+00
-3.656802718875800e+00	-3.483561557481800e+00	 4.293991525673243e+00
-3.665464776945500e+00	-3.492223615551500e+00	 4.182713985034341e+00
-3.674126835015199e+00	-3.500885673621199e+00	 4.037704178203014e+00
-3.682788893084900e+00	-3.509547731690900e+00	 3.858962101988588e+00
-3.691450951154599e+00	-3.518209789760599e+00	 3.646487753200334e+00
-3.700113009224300e+00	-3.526871847830300e+00	 3.400281128647578e+00
-3.708775067294000e+00	-3.535533905900000e+00	 3.120342225139638e+00
-3.648670990892001e+00	-3.422396820908000e+00	 3.849991251213653e+00
-3.659984699391199e+00	-3.433710529407199e+00	 3.873943993350172e+00
-3.671298407890399e+00	-3.445024237906400e+00	 3.868617927592718e+00
-3.682612116389601e+00	-3.456337946405601e+00	 3.833422245951464e+00
-3.693925824888800e+00	-3.467651654904800e+00	 3.768711918389185e+00
-3.705239533387999e+00	-3.478965363403999e+00	 3.674725632226448e+00
-3.716553241887199e+00	-3.490279071903200e+00	 3.551463380353796e+00
-3.727866950386400e+00	-3.501592780402400e+00	 3.398925155661761e+00
-3.739180658885599e+00	-3.512906488901599e+00	 3.217110951040881e+00
-3.750494367384801e+00	-3.524220197400800e+00	 3.006020759381643e+00
-3.761808075884000e+00	-3.535533905900000e+00	 2.765654573574588e+00
-3.678723029093000e+00	-3.392344782707000e+00	 3.420167539168287e+00
-3.693041941412299e+00	-3.406663695026299e+00	 3.443869688681652e+00
-3.707360853731600e+00	-3.420982607345600e+00	 3.441761429593133e+00
-3.721679766050900e+00	-3.435301519664900e+00	 3.413842730316003e+00
-3.735998678370200e+00	-3.449620431984200e+00	 3.360015989138961e+00
-3.750317590689500e+00	-3.463939344303500e+00	 3.279439787754018e+00
-3.764636503008800e+00	-3.478258256622800e+00	 3.173057707131429e+00
-3.778955415328099e+00	-3.492577168942099e+00	 3.040869732858221e+00
-3.793274327647400e+00	-3.506896081261401e+00	 2.882875850521452e+00
-3.807593239966700e+00	-3.521214993580700e+00	 2.699076045708102e+00
-3.821912152286000e+00	-3.535533905899999e+00	 2.489470304005184e+00
-3.712310601200000e+00	-3.358757210600000e+00	 3.075743868534001e+00
-3.729988270730000e+00	-3.376434880130000e+00	 3.099247518358867e+00
-3.747665940260000e+00	-3.394112549659999e+00	 3.099717598071146e+00
-3.765343609790000e+00	-3.411790219190000e+00	 3.077154048234811e+00
-3.783021279320000e+00	-3.429467888720000e+00	 3.031556809413867e+00
-3.800698948850000e+00	-3.447145558250000e+00	 2.962925822172308e+00
-3.818376618380000e+00	-3.464823227780000e+00	 2.870077708024612e+00
-3.836054287910000e+00	-3.482500897310000e+00	 2.754121803895152e+00
-3.853731957440000e+00	-3.500178566840000e+00	 2.615139139246824e+00
-3.871409626969999e+00	-3.517856236369999e+00	 2.453129686958974e+00
-3.889087296500000e+00	-3.535533905900000e+00	 2.268093419910913e+00
-3.712310601200000e+00	-3.358757210600000e+00	 3.075743868534001e+00
-3.729988270730000e+00	-3.376434880130000e+00	 3.099247518358867e+00
-3.747665940260000e+00	-3.394112549659999e+00	 3.099717598071146e+00
-3.765343609790000e+00	-3.411790219190000e+00	 3.077154048234811e+00
-3.783021279320000e+00	-3.429467888720000e+00	 3.031556809413867e+00
-3.800698948850000e+00	-3.447145558250000e+00	 2.962925822172308e+00
-3.818376618380000e+00	-3.464823227780000e+00	 2.870077708024612e+00
-3.836054287910000e+00	-3.482500897310000e+00	 2.754121803895152e+00
-3.853731957440000e+00	-3.500178566840000e+00	 2.615139139246824e+00
-3.871409626969999e+00	-3.517856236369999e+00	 2.453129686958974e+00
-3.889087296500000e+00	-3.535533905900000e+00	 2.268093419910913e+00
-3.749433707213000e+00	-3.321634104587000e+00	 2.831444571472366e+00
-3.770823687344300e+00	-3.343024084718299e+00	 2.851232891598664e+00
-3.792213667475602e+00	-3.364414064849600e+00	 2.850926955992852e+00
-3.813603647606901e+00	-3.385804044980900e+00	 2.830526659360437e+00
-3.834993627738200e+00	-3.407194025112200e+00	 2.790031896406897e+00
-3.856383607869500e+00	-3.428584005243500e+00	 2.729442561837728e+00
-3.877773588000800e+00	-3.449973985374800e+00	 2.648638482158727e+00
-3.899163568132100e+00	-3.471363965506100e+00	 2.546352936470683e+00
-3.920553548263401e+00	-3.492753945637400e+00	 2.423983024167368e+00
-3.941943528394700e+00	-3.514143925768699e+00	 2.281528697202763e+00
-3.963333508526000e+00	-3.535533905900000e+00	 2.118989907530754e+00
-3.790092347132000e+00	-3.280975464668000e+00	 2.634585014099796e+00
-3.815548191255201e+00	-3.306431308791200e+00	 2.650358584021013e+00
-3.841004035378399e+00	-3.331887152914400e+00	 2.648262292860547e+00
-3.866459879501600e+00	-3.357342997037599e+00	 2.628295963143436e+00
-3.891915723624801e+00	-3.382798841160801e+00	 2.590459417394722e+00
-3.917371567748000e+00	-3.408254685284001e+00	 2.534752478139443e+00
-3.942827411871201e+00	-3.433710529407200e+00	 2.461174967902638e+00
-3.968283255994400e+00	-3.459166373530400e+00	 2.368969430820564e+00
-3.993739100117600e+00	-3.484622217653600e+00	 2.257890841300482e+00
-4.019194944240800e+00	-3.510078061776800e+00	 2.128956190289869e+00
-4.044650788364001e+00	-3.535533905900000e+00	 1.982165396806253e+00
-3.834286520957000e+00	-3.236781290843000e+00	 2.472650748637296e+00
-3.864161782462700e+00	-3.266656552348700e+00	 2.484369285159295e+00
-3.894037043968401e+00	-3.296531813854400e+00	 2.479940406953546e+00
-3.923912305474100e+00	-3.326407075360100e+00	 2.459363827133798e+00
-3.953787566979799e+00	-3.356282336865799e+00	 2.422639258813811e+00
-3.983662828485500e+00	-3.386157598371500e+00	 2.369766415107333e+00
-4.013538089991199e+00	-3.416032859877199e+00	 2.300745009128122e+00
-4.043413351496900e+00	-3.445908121382900e+00	 2.215574753989932e+00
-4.073288613002600e+00	-3.475783382888600e+00	 2.112379734259993e+00
-4.103163874508302e+00	-3.505658644394301e+00	 1.992893832377520e+00
-4.133039136014000e+00	-3.535533905900000e+00	 1.857279184875063e+00
-3.882016228688000e+00	-3.189051583112000e+00	 2.337110456824785e+00
-3.916664460966799e+00	-3.223699815390799e+00	 2.344867792659149e+00
-3.951312693245600e+00	-3.258348047669599e+00	 2.337837611954871e+00
-3.985960925524400e+00	-3.292996279948400e+00	 2.316019467186409e+00
-4.020609157803200e+00	-3.327644512227200e+00	 2.279412910828223e+00
-4.055257390082001e+00	-3.362292744506000e+00	 2.228017495354768e+00
-4.089905622360799e+00	-3.396940976784800e+00	 2.161832773240502e+00
-4.124553854639600e+00	-3.431589209063600e+00	 2.080858296959885e+00
-4.159202086918400e+00	-3.466237441342399e+00	 1.983889309289440e+00
-4.193850319197201e+00	-3.500885673621200e+00	 1.871032223011564e+00
-4.228498551476000e+00	-3.535533905900000e+00	 1.743412402219052e+00
-3.933281470325000e+00	-3.137786341475000e+00	 2.221961848924374e+00
-3.973056226767500e+00	-3.177561097917500e+00	 2.225918441657129e+00
-4.012830983210000e+00	-3.217335854359999e+00	 2.216179178660037e+00
-4.052605739652501e+00	-3.257110610802500e+00	 2.192743382919851e+00
-4.092380496095001e+00	-3.296885367245000e+00	 2.155610377423324e+00
-4.132155252537500e+00	-3.336660123687500e+00	 2.104779485157207e+00
-4.171930008980000e+00	-3.376434880130000e+00	 2.040250029108251e+00
-4.211704765422501e+00	-3.416209636572500e+00	 1.962021332263208e+00
-4.251479521865001e+00	-3.455984393014999e+00	 1.869585249537563e+00
-4.291254278307500e+00	-3.495759149457500e+00	 1.761359875979074e+00
-4.331029034750000e+00	-3.535533905900000e+00	 1.639470839194988e+00
-3.988082245868001e+00	-3.082985565932000e+00	 2.122867305813668e+00
-4.033337079864801e+00	-3.128240399928800e+00	 2.123213137577784e+00
-4.078591913861600e+00	-3.173495233925599e+00	 2.110752167770126e+00
-4.123846747858400e+00	-3.218750067922400e+00	 2.085483399220003e+00
-4.169101581855200e+00	-3.264004901919199e+00	 2.047405834756705e+00
-4.214356415852000e+00	-3.309259735916000e+00	 1.996518477209536e+00
-4.259611249848800e+00	-3.354514569912800e+00	 1.932820329407795e+00
-4.304866083845600e+00	-3.399769403909600e+00	 1.856310394180781e+00
-4.350120917842401e+00	-3.445024237906400e+00	 1.766987674357795e+00
-4.395375751839199e+00	-3.490279071903199e+00	 1.662163067003291e+00
-4.440630585836001e+00	-3.535533905900000e+00	 1.544362843989964e+00
-4.046418555317000e+00	-3.024649256482999e+00	 2.036619198833538e+00
-4.097507020258700e+00	-3.075737721424699e+00	 2.033553261016690e+00
-4.148595485200401e+00	-3.126826186366400e+00	 2.018413766889589e+00
-4.199683950142100e+00	-3.177914651308100e+00	 1.991199281811559e+00
-4.250772415083800e+00	-3.229003116249799e+00	 1.951908371141916e+00
-4.301860880025500e+00	-3.280091581191499e+00	 1.900539600239979e+00
-4.352949344967200e+00	-3.331180046133199e+00	 1.837091534465068e+00
-4.404037809908901e+00	-3.382268511074900e+00	 1.761562739176501e+00
-4.455126274850600e+00	-3.433356976016600e+00	 1.673951779733599e+00
-4.506214739792300e+00	-3.484445440958300e+00	 1.571994865165891e+00
-4.557303204734001e+00	-3.535533905900000e+00	 1.457073536937869e+00
-4.108290398672001e+00	-2.962777413128000e+00	 1.960797638863830e+00
-4.165566047949200e+00	-3.020053062405199e+00	 1.954516697903927e+00
-4.222841697226401e+00	-3.077328711682400e+00	 1.936773721604739e+00
-4.280117346503601e+00	-3.134604360959600e+00	 1.907566688415540e+00
-4.337392995780801e+00	-3.191880010236801e+00	 1.866893576785600e+00
-4.394668645058002e+00	-3.249155659514000e+00	 1.814752365164191e+00
-4.451944294335201e+00	-3.306431308791200e+00	 1.751141032000586e+00
-4.509219943612401e+00	-3.363706958068399e+00	 1.676057555744053e+00
-4.566495592889600e+00	-3.420982607345600e+00	 1.589499914843867e+00
-4.623771242166800e+00	-3.478258256622800e+00	 1.489636673596882e+00
-4.681046891444001e+00	-3.535533905900000e+00	 1.376690683102514e+00
-4.173697775933000e+00	-2.897370035866999e+00	 1.893544801044398e+00
-4.237514162936299e+00	-2.961186422870299e+00	 1.884237453745524e+00
-4.301330549939601e+00	-3.025002809873600e+00	 1.863983160226819e+00
-4.365146936942900e+00	-3.088819196876900e+00	 1.832779124269054e+00
-4.428963323946201e+00	-3.152635583880200e+00	 1.790622549652988e+00
-4.492779710949501e+00	-3.216451970883500e+00	 1.737510640159385e+00
-4.556596097952800e+00	-3.280268357886800e+00	 1.673440599569011e+00
-4.620412484956100e+00	-3.344084744890099e+00	 1.598409631662630e+00
-4.684228871959401e+00	-3.407901131893400e+00	 1.512414940221005e+00
-4.748045258962700e+00	-3.471717518896699e+00	 1.414061259893710e+00
-4.811861645966001e+00	-3.535533905900000e+00	 1.302408271625052e+00
-4.242640687100000e+00	-2.828427124700000e+00	 1.833412197174360e+00
-4.313351365220000e+00	-2.899137802820000e+00	 1.821255975351711e+00
-4.384062043339999e+00	-2.969848480940000e+00	 1.798590545044856e+00
-4.454772721460000e+00	-3.040559159060000e+00	 1.765412102349447e+00
-4.525483399580001e+00	-3.111269837180000e+00	 1.721716843361143e+00
-4.596194077700000e+00	-3.181980515300000e+00	 1.667500964175598e+00
-4.666904755820000e+00	-3.252691193420000e+00	 1.602760660888469e+00
-4.737615433940000e+00	-3.323401871540000e+00	 1.527492129595413e+00
-4.808326112060000e+00	-3.394112549660000e+00	 1.441691566392085e+00
-4.879036790180000e+00	-3.464823227780000e+00	 1.344400300861902e+00
-4.949747468300000e+00	-3.535533905900000e+00	 1.233520300347823e+00
-3.535533905900000e+00	-3.535533905900000e+00	 1.327238078612282e+00
-3.535533905900000e+00	-3.535533905900000e+00	 1.327238078612282e+00
-3.535533905899999e+00	-3.535533905899999e+00	 1.327238078612282e+00
-3.535533905900000e+00	-3.535533905900000e+00	 1.327238078612282e+00
-3.535533905900000e+00	-3.535533905900000e+00	 1.327238078612282e+00
-3.535533905900000e+00	-3.535533905900000e+00	 1.327238078612282e+00
-3.535533905900000e+00	-3.535533905900000e+00	 1.327238078612282e+00
-3.535533905900000e+00	-3.535533905900000e+00	 1.327238078612282e+00
-3.535533905899999e+00	-3.535533905899999e+00	 1.327238078612282e+00
-3.535533905899999e+00	-3.535533905899999e+00	 1.327238078612282e+00
-3.535533905900000e+00	-3.535533905900000e+00	 1.327238078612282e+00
-3.539069439806000e+00	-3.535533905900000e+00	 2.013753658466100e+01
-3.538892663110698e+00	-3.535710682595299e+00	 2.279405553441361e+01
-3.538715886415400e+00	-3.535887459290599e+00	 2.504470705341980e+01
-3.538539109720100e+00	-3.536064235985900e+00	 2.688949114168225e+01
-3.538362333024800e+00	-3.536241012681200e+00	 2.832840779920052e+01
-3.538185556329501e+00	-3.536417789376500e+00	 2.936145702597383e+01
-3.538008779634201e+00	-3.536594566071801e+00	 2.998863882200148e+01
-3.537832002938900e+00	-3.536771342767100e+00	 3.020995318728566e+01
-3.537655226243600e+00	-3.536948119462400e+00	 3.002540012182290e+01
-3.537478449548300e+00	-3.537124896157700e+00	 2.943497962561592e+01
-3.537301672853000e+00	-3.537301672853000e+00	 2.843869169866393e+01
-3.549676041524000e+00	-3.535533905899999e+00	 9.737259305200974e+00
-3.548968934742800e+00	-3.536241012681200e+00	 1.109426582351953e+01
-3.548261827961600e+00	-3.536948119462400e+00	 1.224857832806225e+01
-3.547554721180400e+00	-3.537655226243600e+00	 1.320019681882720e+01
-3.546847614399200e+00	-3.538362333024800e+00	 1.394912129581249e+01
-3.546140507617999e+00	-3.539069439805999e+00	 1.449535175901501e+01
-3.545433400836799e+00	-3.539776546587199e+00	 1.483888820843327e+01
-3.544726294055600e+00	-3.540483653368400e+00	 1.497973064406490e+01
-3.544019187274400e+00	-3.541190760149600e+00	 1.491787906590766e+01
-3.543312080493200e+00	-3.541897866930800e+00	 1.465333347395932e+01
-3.542604973711999e+00	-3.542604973711999e+00	 1.418609386821780e+01
-3.567353711054000e+00	-3.535533905900000e+00	 6.536868674797256e+00
-3.565762720796300e+00	-3.537124896157700e+00	 7.437499190757968e+00
-3.564171730538601e+00	-3.538715886415401e+00	 8.203697925178817e+00
-3.562580740280899e+00	-3.540306876673099e+00	 8.835464878034585e+00
-3.560989750023199e+00	-3.541897866930799e+00	 9.332800049299923e+00
-3.559398759765501e+00	-3.543488857188500e+00	 9.695703438949915e+00
-3.557807769507800e+00	-3.545079847446200e+00	 9.924175046959222e+00
-3.556216779250100e+00	-3.546670837703900e+00	 1.001821487330273e+01
-3.554625788992400e+00	-3.548261827961600e+00	 9.977822917955212e+00
-3.553034798734700e+00	-3.549852818219301e+00	 9.802999180891494e+00
-3.551443808477000e+00	-3.551443808477000e+00	 9.493743662086338e+00
-3.592102448396000e+00	-3.535533905900000e+00	 4.986195734306490e+00
-3.589274021271200e+00	-3.538362333024801e+00	 5.654271079824676e+00
-3.586445594146400e+00	-3.541190760149600e+00	 6.222146494744468e+00
-3.583617167021599e+00	-3.544019187274400e+00	 6.689821978924349e+00
-3.580788739896800e+00	-3.546847614399200e+00	 7.057297532222897e+00
-3.577960312772000e+00	-3.549676041524000e+00	 7.324573154498596e+00
-3.575131885647200e+00	-3.552504468648801e+00	 7.491648845609957e+00
-3.572303458522400e+00	-3.555332895773600e+00	 7.558524605415469e+00
-3.569475031397601e+00	-3.558161322898401e+00	 7.525200433773584e+00
-3.566646604272800e+00	-3.560989750023201e+00	 7.391676330542872e+00
-3.563818177148000e+00	-3.563818177148000e+00	 7.157952295581828e+00
-3.623922253550000e+00	-3.535533905900000e+00	 4.071261138685932e+00
-3.619502836167500e+00	-3.539953323282500e+00	 4.598392101414828e+00
-3.615083418785000e+00	-3.544372740665000e+00	 5.045894322388304e+00
-3.610664001402500e+00	-3.548792158047500e+00	 5.413767801066616e+00
-3.606244584020000e+00	-3.553211575430000e+00	 5.702012536909962e+00
-3.601825166637500e+00	-3.557630992812500e+00	 5.910628529378585e+00
-3.597405749255000e+00	-3.562050410195000e+00	 6.039615777932719e+00
-3.592986331872500e+00	-3.566469827577500e+00	 6.088974282032622e+00
-3.588566914489999e+00	-3.570889244960000e+00	 6.058704041138471e+00
-3.584147497107501e+00	-3.575308662342501e+00	 5.948805054710558e+00
-3.579728079725000e+00	-3.579728079725000e+00	 5.759277322209083e+00
-3.662813126516000e+00	-3.535533905899999e+00	 3.467412573007702e+00
-3.656449165485200e+00	-3.541897866930800e+00	 3.899981125577889e+00
-3.650085204454399e+00	-3.548261827961599e+00	 4.266648204825533e+00
-3.643721243423601e+00	-3.554625788992400e+00	 4.567413809138914e+00
-3.637357282392800e+00	-3.560989750023200e+00	 4.802277936906283e+00
-3.630993321361999e+00	-3.567353711053999e+00	 4.971240586515909e+00
-3.624629360331200e+00	-3.573717672084799e+00	 5.074301756356049e+00
-3.618265399300400e+00	-3.580081633115600e+00	 5.111461444814972e+00
-3.611901438269601e+00	-3.586445594146400e+00	 5.082719650280951e+00
-3.605537477238800e+00	-3.592809555177201e+00	 4.988076371142229e+00
-3.599173516208000e+00	-3.599173516208000e+00	 4.827531605787089e+00
-3.708775067294000e+00	-3.535533905900000e+00	 3.038780375567631e+00
-3.700113009224300e+00	-3.544195963969699e+00	 3.403501383256015e+00
-3.691450951154600e+00	-3.552858022039400e+00	 3.712132255071112e+00
-3.682788893084900e+00	-3.561520080109099e+00	 3.964672986948754e+00
-3.674126835015199e+00	-3.570182138178799e+00	 4.161123574824745e+00
-3.665464776945500e+00	-3.578844196248499e+00	 4.301484014634897e+00
-3.656802718875799e+00	-3.587506254318199e+00	 4.385754302315023e+00
-3.648140660806100e+00	-3.596168312387900e+00	 4.413934433800939e+00
-3.639478602736399e+00	-3.604830370457599e+00	 4.386024405028429e+00
-3.630816544666700e+00	-3.613492428527301e+00	 4.302024211933309e+00
-3.622154486597000e+00	-3.622154486597000e+00	 4.161933832478464e+00
-3.761808075884000e+00	-3.535533905900000e+00	 2.718501630314778e+00
-3.750494367384799e+00	-3.546847614399199e+00	 3.032163855480833e+00
-3.739180658885599e+00	-3.558161322898400e+00	 3.297097450071000e+00
-3.727866950386401e+00	-3.569475031397601e+00	 3.513302405029540e+00
-3.716553241887200e+00	-3.580788739896800e+00	 3.680778711300712e+00
-3.705239533388000e+00	-3.592102448396000e+00	 3.799526359828736e+00
-3.693925824888800e+00	-3.603416156895200e+00	 3.869545341557864e+00
-3.682612116389600e+00	-3.614729865394400e+00	 3.890835647432310e+00
-3.671298407890399e+00	-3.626043573893599e+00	 3.863397249805208e+00
-3.659984699391201e+00	-3.637357282392800e+00	 3.787230174314606e+00
-3.648670990892001e+00	-3.648670990892001e+00	 3.662334395639728e+00
-3.821912152286000e+00	-3.535533905899999e+00	 2.469853666629648e+00
-3.807593239966699e+00	-3.549852818219299e+00	 2.743695185972442e+00
-3.793274327647400e+00	-3.564171730538599e+00	 2.974535045501053e+00
-3.778955415328100e+00	-3.578490642857900e+00	 3.162373226856928e+00
-3.764636503008800e+00	-3.592809555177201e+00	 3.307209711681486e+00
-3.750317590689500e+00	-3.607128467496501e+00	 3.409044481616141e+00
-3.735998678370200e+00	-3.621447379815800e+00	 3.467877518302281e+00
-3.721679766050900e+00	-3.635766292135099e+00	 3.483708782923256e+00
-3.707360853731601e+00	-3.650085204454400e+00	 3.456538294725673e+00
-3.693041941412299e+00	-3.664404116773699e+00	 3.386366017945156e+00
-3.678723029093000e+00	-3.678723029093000e+00	 3.273191934220899e+00
-3.889087296500000e+00	-3.535533905900000e+00	 2.270993335856902e+00
-3.871409626970000e+00	-3.553211575430001e+00	 2.512905872721986e+00
-3.853731957440000e+00	-3.570889244959999e+00	 2.716398695785118e+00
-3.836054287910000e+00	-3.588566914490000e+00	 2.881471770501515e+00
-3.818376618380000e+00	-3.606244584020000e+00	 3.008125062326342e+00
-3.800698948850000e+00	-3.623922253550000e+00	 3.096358519055032e+00
-3.783021279320000e+00	-3.641599923080000e+00	 3.146172137654161e+00
-3.765343609790000e+00	-3.659277592610000e+00	 3.157565869340432e+00
-3.747665940260000e+00	-3.676955262140000e+00	 3.130539679564921e+00
-3.729988270729999e+00	-3.694632931670000e+00	 3.065093533778636e+00
-3.712310601200000e+00	-3.712310601200000e+00	 2.961227397432512e+00
-3.889087296500000e+00	-3.535533905900000e+00	 2.270993335856902e+00
-3.871409626970000e+00	-3.553211575430001e+00	 2.512905872721986e+00
-3.853731957440000e+00	-3.570889244959999e+00	 2.716398695785118e+00
-3.836054287910000e+00	-3.588566914490000e+00	 2.881471770501515e+00
-3.818376618380000e+00	-3.606244584020000e+00	 3.008125062326342e+00
-3.800698948850000e+00	-3.623922253550000e+00	 3.096358519055032e+00
-3.783021279320000e+00	-3.641599923080000e+00	 3.146172137654161e+00
-3.765343609790000e+00	-3.659277592610000e+00	 3.157565869340432e+00
-3.747665940260000e+00	-3.676955262140000e+00	 3.130539679564921e+00
-3.729988270729999e+00	-3.694632931670000e+00	 3.065093533778636e+00
-3.712310601200000e+00	-3.712310601200000e+00	 2.961227397432512e+00
-3.963333508526000e+00	-3.535533905900000e+00	 2.059573223586864e+00
-3.941943528394700e+00	-3.556923886031300e+00	 2.280428676916748e+00
-3.920553548263401e+00	-3.578313866162600e+00	 2.466832184183557e+00
-3.899163568132101e+00	-3.599703846293900e+00	 2.618783684189249e+00
-3.877773588000800e+00	-3.621093826425200e+00	 2.736283115735671e+00
-3.856383607869500e+00	-3.642483806556500e+00	 2.819330396296422e+00
-3.834993627738200e+00	-3.663873786687800e+00	 2.867925502261847e+00
-3.813603647606900e+00	-3.685263766819100e+00	 2.882068355608775e+00
-3.792213667475601e+00	-3.706653746950400e+00	 2.861758895131763e+00
-3.770823687344300e+00	-3.728043727081699e+00	 2.806997059625224e+00
-3.749433707213000e+00	-3.749433707213000e+00	 2.717782787883408e+00
-4.044650788364001e+00	-3.535533905900000e+00	 1.894603401168057e+00
-4.019194944240800e+00	-3.560989750023201e+00	 2.097713796493605e+00
-3.993739100117600e+00	-3.586445594146400e+00	 2.269603505012303e+00
-3.968283255994399e+00	-3.611901438269600e+00	 2.410272423574487e+00
-3.942827411871201e+00	-3.637357282392801e+00	 2.519720429181793e+00
-3.917371567748000e+00	-3.662813126516000e+00	 2.597947452548716e+00
-3.891915723624800e+00	-3.688268970639200e+00	 2.644953375724025e+00
-3.866459879501601e+00	-3.713724814762401e+00	 2.660738095545819e+00
-3.841004035378400e+00	-3.739180658885600e+00	 2.645301508851881e+00
-3.815548191255200e+00	-3.764636503008800e+00	 2.598643512479673e+00
-3.790092347132000e+00	-3.790092347132000e+00	 2.520764003266347e+00
-4.133039136014000e+00	-3.535533905900000e+00	 1.762790816535002e+00
-4.103163874508301e+00	-3.565409167405700e+00	 1.950745644586562e+00
-4.073288613002600e+00	-3.595284428911401e+00	 2.110159888425633e+00
-4.043413351496901e+00	-3.625159690417101e+00	 2.241033364309651e+00
-4.013538089991199e+00	-3.655034951922800e+00	 2.343365933138432e+00
-3.983662828485500e+00	-3.684910213428500e+00	 2.417157416478021e+00
-3.953787566979799e+00	-3.714785474934199e+00	 2.462407647569371e+00
-3.923912305474100e+00	-3.744660736439900e+00	 2.479116459652823e+00
-3.894037043968400e+00	-3.774535997945601e+00	 2.467283685968114e+00
-3.864161782462701e+00	-3.804411259451300e+00	 2.426909159754375e+00
-3.834286520957000e+00	-3.834286520957000e+00	 2.357992714250126e+00
-4.228498551476000e+00	-3.535533905900000e+00	 1.655309140025575e+00
-4.193850319197200e+00	-3.570182138178799e+00	 1.830171754576073e+00
-4.159202086918400e+00	-3.604830370457600e+00	 1.978750920137409e+00
-4.124553854639601e+00	-3.639478602736400e+00	 2.101046357089142e+00
-4.089905622360800e+00	-3.674126835015199e+00	 2.197057836460220e+00
-4.055257390082001e+00	-3.708775067294000e+00	 2.266785085122800e+00
-4.020609157803200e+00	-3.743423299572800e+00	 2.310227842943413e+00
-3.985960925524400e+00	-3.778071531851600e+00	 2.327385849787501e+00
-3.951312693245600e+00	-3.812719764130400e+00	 2.318258845519408e+00
-3.916664460966800e+00	-3.847367996409200e+00	 2.282846570002375e+00
-3.882016228688000e+00	-3.882016228688000e+00	 2.221148763098561e+00
-4.331029034750000e+00	-3.535533905900000e+00	 1.566101760113864e+00
-4.291254278307502e+00	-3.575308662342500e+00	 1.729543617309357e+00
-4.251479521865000e+00	-3.615083418784999e+00	 1.868627576725245e+00
-4.211704765422500e+00	-3.654858175227500e+00	 1.983353222530195e+00
-4.171930008980000e+00	-3.694632931670000e+00	 2.073720196256556e+00
-4.132155252537500e+00	-3.734407688112500e+00	 2.139728089921189e+00
-4.092380496095000e+00	-3.774182444555001e+00	 2.181376509997416e+00
-4.052605739652501e+00	-3.813957200997500e+00	 2.198665062956661e+00
-4.012830983210000e+00	-3.853731957440000e+00	 2.191593355268438e+00
-3.973056226767500e+00	-3.893506713882500e+00	 2.160160993400363e+00
-3.933281470325000e+00	-3.933281470325000e+00	 2.104367583818139e+00
-4.440630585836001e+00	-3.535533905900000e+00	 1.490894310945180e+00
-4.395375751839200e+00	-3.580788739896800e+00	 1.644289192724987e+00
-4.350120917842402e+00	-3.626043573893601e+00	 1.774986973559591e+00
-4.304866083845601e+00	-3.671298407890400e+00	 1.882987096580981e+00
-4.259611249848800e+00	-3.716553241887199e+00	 1.968288973324066e+00
-4.214356415852000e+00	-3.761808075884000e+00	 2.030892024169801e+00
-4.169101581855201e+00	-3.807062909880800e+00	 2.070795669495960e+00
-4.123846747858400e+00	-3.852317743877601e+00	 2.087999329677122e+00
-4.078591913861601e+00	-3.897572577874401e+00	 2.082502425084672e+00
-4.033337079864800e+00	-3.942827411871199e+00	 2.054304376086812e+00
-3.988082245868001e+00	-3.988082245868001e+00	 2.003404603048546e+00
-4.557303204734001e+00	-3.535533905900000e+00	 1.426596220714487e+00
-4.506214739792300e+00	-3.586622370841700e+00	 1.571087916110111e+00
-4.455126274850601e+00	-3.637710835783401e+00	 1.694328578833833e+00
-4.404037809908901e+00	-3.688799300725101e+00	 1.796317399527829e+00
-4.352949344967200e+00	-3.739887765666800e+00	 1.877053534883190e+00
-4.301860880025501e+00	-3.790976230608500e+00	 1.936536150999125e+00
-4.250772415083800e+00	-3.842064695550200e+00	 1.974764413969659e+00
-4.199683950142100e+00	-3.893153160491900e+00	 1.991737489883634e+00
-4.148595485200400e+00	-3.944241625433600e+00	 1.987454544824712e+00
-4.097507020258700e+00	-3.995330090375300e+00	 1.961914744871365e+00
-4.046418555317000e+00	-4.046418555317000e+00	 1.915117256096895e+00
-4.681046891444001e+00	-3.535533905900000e+00	 1.370925119582358e+00
-4.623771242166801e+00	-3.592809555177201e+00	 1.507477033092302e+00
-4.566495592889601e+00	-3.650085204454401e+00	 1.624047365173841e+00
-4.509219943612401e+00	-3.707360853731600e+00	 1.720634967224116e+00
-4.451944294335202e+00	-3.764636503008801e+00	 1.797238654197302e+00
-4.394668645058002e+00	-3.821912152286000e+00	 1.853857251050058e+00
-4.337392995780801e+00	-3.879187801563200e+00	 1.890489582730854e+00
-4.280117346503600e+00	-3.936463450840400e+00	 1.907134474179977e+00
-4.222841697226400e+00	-3.993739100117601e+00	 1.903790750329519e+00
-4.165566047949200e+00	-4.051014749394800e+00	 1.880457236103394e+00
-4.108290398672001e+00	-4.108290398672001e+00	 1.837132756417326e+00
-4.811861645966001e+00	-3.535533905900000e+00	 1.322163842164156e+00
-4.748045258962700e+00	-3.599350292903300e+00	 1.451596006975203e+00
-4.684228871959401e+00	-3.663166679906601e+00	 1.562169003524279e+00
-4.620412484956100e+00	-3.726983066909900e+00	 1.653881234932064e+00
-4.556596097952801e+00	-3.790799453913201e+00	 1.726731065253599e+00
-4.492779710949500e+00	-3.854615840916500e+00	 1.780716869170889e+00
-4.428963323946200e+00	-3.918432227919800e+00	 1.815837021353323e+00
-4.365146936942900e+00	-3.982248614923100e+00	 1.832089896457668e+00
-4.301330549939600e+00	-4.046065001926400e+00	 1.829473869128079e+00
-4.237514162936300e+00	-4.109881388929700e+00	 1.807987313996090e+00
-4.173697775933000e+00	-4.173697775933000e+00	 1.767628605680617e+00
-4.949747468300000e+00	-3.535533905900000e+00	 1.278998965965028e+00
-4.879036790180000e+00	-3.606244584020000e+00	 1.402016095803257e+00
-4.808326112060000e+00	-3.676955262139999e+00	 1.507172737926441e+00
-4.737615433940000e+00	-3.747665940260000e+00	 1.594466711837077e+00
-4.666904755820000e+00	-3.818376618380000e+00	 1.663895795227108e+00
-4.596194077700000e+00	-3.889087296500000e+00	 1.715457777067324e+00
-4.525483399580000e+00	-3.959797974620000e+00	 1.749150446309494e+00
-4.454772721459999e+00	-4.030508652740000e+00	 1.764971591886372e+00
-4.384062043340000e+00	-4.101219330860000e+00	 1.762919002711690e+00
-4.313351365219999e+00	-4.171930008980000e+00	 1.742990467680161e+00
-4.242640687100000e+00	-4.242640687100000e+00	 1.705183775667481e+00
-3.535533905900000e+00	-3.535533905900000e+00	 1.327238078612282e+00
-3.535533905900000e+00	-3.535533905900000e+00	 1.327238078612282e+00
-3.535533905899999e+00	-3.535533905899999e+00	 1.327238078612282e+00
-3.535533905900000e+00	-3.535533905900000e+00	 1.327238078612282e+00
-3.535533905900000e+00	-3.535533905900000e+00	 1.327238078612282e+00
-3.535533905900000e+00	-3.535533905900000e+00	 1.327238078612282e+00
-3.535533905900000e+00	-3.535533905900000e+00	 1.327238078612282e+00
-3.535533905900000e+00	-3.535533905900000e+00	 1.327238078612282e+00
-3.535533905899999e+00	-3.535533905899999e+00	 1.327238078612282e+00
-3.535533905899999e+00	-3.535533905899999e+00	 1.327238078612283e+00
-3.535533905900000e+00	-3.535533905900000e+00	 1.327238078612282e+00
-3.537301672853000e+00	-3.537301672853000e+00	 3.464926498657055e+01
-3.537124896157699e+00	-3.537478449548299e+00	 3.263584080907435e+01
-3.536948119462399e+00	-3.537655226243599e+00	 3.067764841879383e+01
-3.536771342767100e+00	-3.537832002938900e+00	 2.877468781572666e+01
-3.536594566071800e+00	-3.538008779634200e+00	 2.692695899987261e+01
-3.536417789376500e+00	-3.538185556329501e+00	 2.513446197123229e+01
-3.536241012681200e+00	-3.538362333024800e+00	 2.339719672980687e+01
-3.536064235985900e+00	-3.538539109720100e+00	 2.171516327559116e+01
-3.535887459290600e+00	-3.538715886415400e+00	 2.008836160859714e+01
-3.535710682595300e+00	-3.538892663110700e+00	 1.851679172881314e+01
-3.535533905900000e+00	-3.539069439806000e+00	 1.700045363624314e+01
-3.542604973711999e+00	-3.542604973711999e+00	 1.726352141564644e+01
-3.541897866930800e+00	-3.543312080493200e+00	 1.628874742462739e+01
-3.541190760149600e+00	-3.544019187274400e+00	 1.533861645057803e+01
-3.540483653368400e+00	-3.544726294055600e+00	 1.441312849349617e+01
-3.539776546587199e+00	-3.545433400836799e+00	 1.351228355337904e+01
-3.539069439805999e+00	-3.546140507617999e+00	 1.263608163022539e+01
-3.538362333024800e+00	-3.546847614399200e+00	 1.178452272403235e+01
-3.537655226243600e+00	-3.547554721180400e+00	 1.095760683479786e+01
-3.536948119462400e+00	-3.548261827961600e+00	 1.015533396251915e+01
-3.536241012681200e+00	-3.548968934742800e+00	 9.377704107195530e+00
-3.535533905899999e+00	-3.549676041524000e+00	 8.624717268823069e+00
-3.551443808477000e+00	-3.551443808477000e+00	 1.153861727159114e+01
-3.549852818219300e+00	-3.553034798734700e+00	 1.089191279150747e+01
-3.548261827961601e+00	-3.554625788992401e+00	 1.026133806350254e+01
-3.546670837703899e+00	-3.556216779250099e+00	 9.646893087551149e+00
-3.545079847446199e+00	-3.557807769507800e+00	 9.048577863628385e+00
-3.543488857188500e+00	-3.559398759765501e+00	 8.466392391708595e+00
-3.541897866930800e+00	-3.560989750023200e+00	 7.900336671766933e+00
-3.540306876673100e+00	-3.562580740280900e+00	 7.350410703778094e+00
-3.538715886415400e+00	-3.564171730538600e+00	 6.816614487716908e+00
-3.537124896157701e+00	-3.565762720796301e+00	 6.298948023558252e+00
-3.535533905900000e+00	-3.567353711054000e+00	 5.797411311276877e+00
-3.563818177148000e+00	-3.563818177148000e+00	 8.688766681543868e+00
-3.560989750023201e+00	-3.566646604272801e+00	 8.202677201658458e+00
-3.558161322898400e+00	-3.569475031397600e+00	 7.728776306213194e+00
-3.555332895773600e+00	-3.572303458522400e+00	 7.267063995066595e+00
-3.552504468648801e+00	-3.575131885647200e+00	 6.817540268077146e+00
-3.549676041524000e+00	-3.577960312772000e+00	 6.380205125103272e+00
-3.546847614399200e+00	-3.580788739896800e+00	 5.955058566003561e+00
-3.544019187274400e+00	-3.583617167021600e+00	 5.542100590636490e+00
-3.541190760149600e+00	-3.586445594146400e+00	 5.141331198860612e+00
-3.538362333024801e+00	-3.589274021271200e+00	 4.752750390534331e+00
-3.535533905900000e+00	-3.592102448396000e+00	 4.376358165516285e+00
-3.579728079725000e+00	-3.579728079725000e+00	 6.982365852579595e+00
-3.575308662342500e+00	-3.584147497107501e+00	 6.591535682839839e+00
-3.570889244959999e+00	-3.588566914489999e+00	 6.210630185880265e+00
-3.566469827577500e+00	-3.592986331872500e+00	 5.839649361161094e+00
-3.562050410195000e+00	-3.597405749255000e+00	 5.478593208142564e+00
-3.557630992812500e+00	-3.601825166637500e+00	 5.127461726284920e+00
-3.553211575430000e+00	-3.606244584020000e+00	 4.786254915048395e+00
-3.548792158047500e+00	-3.610664001402500e+00	 4.454972773893158e+00
-3.544372740665000e+00	-3.615083418785000e+00	 4.133615302279524e+00
-3.539953323282500e+00	-3.619502836167500e+00	 3.822182499667710e+00
-3.535533905900000e+00	-3.623922253550000e+00	 3.520674346841279e+00
-3.599173516208000e+00	-3.599173516208000e+00	 5.845765265152466e+00
-3.592809555177200e+00	-3.605537477238800e+00	 5.517965212359173e+00
-3.586445594146400e+00	-3.611901438269600e+00	 5.198622323183295e+00
-3.580081633115601e+00	-3.618265399300401e+00	 4.887736596013087e+00
-3.573717672084800e+00	-3.624629360331200e+00	 4.585308010559999e+00
-3.567353711053999e+00	-3.630993321361999e+00	 4.291336601168693e+00
-3.560989750023200e+00	-3.637357282392799e+00	 4.005822348895628e+00
-3.554625788992400e+00	-3.643721243423600e+00	 3.728765252128866e+00
-3.548261827961600e+00	-3.650085204454400e+00	 3.460165309256463e+00
-3.541897866930801e+00	-3.656449165485200e+00	 3.200022518666492e+00
-3.535533905899999e+00	-3.662813126516000e+00	 2.948336878747017e+00
-3.622154486597000e+00	-3.622154486597000e+00	 5.033987416336940e+00
-3.613492428527299e+00	-3.630816544666700e+00	 4.750963375028029e+00
-3.604830370457599e+00	-3.639478602736399e+00	 4.475368428505052e+00
-3.596168312387900e+00	-3.648140660806100e+00	 4.207202572703318e+00
-3.587506254318200e+00	-3.656802718875800e+00	 3.946465803558150e+00
-3.578844196248499e+00	-3.665464776945500e+00	 3.693158117004860e+00
-3.570182138178799e+00	-3.674126835015199e+00	 3.447279508978752e+00
-3.561520080109100e+00	-3.682788893084900e+00	 3.208829975415119e+00
-3.552858022039399e+00	-3.691450951154599e+00	 2.977809512249268e+00
-3.544195963969701e+00	-3.700113009224300e+00	 2.754218115416494e+00
-3.535533905900000e+00	-3.708775067294000e+00	 2.538055780852063e+00
-3.648670990892001e+00	-3.648670990892001e+00	 4.424832128061563e+00
-3.637357282392799e+00	-3.659984699391199e+00	 4.175244711875468e+00
-3.626043573893600e+00	-3.671298407890399e+00	 3.932325978508461e+00
-3.614729865394401e+00	-3.682612116389601e+00	 3.696075918903674e+00
-3.603416156895200e+00	-3.693925824888800e+00	 3.466494524004206e+00
-3.592102448396000e+00	-3.705239533387999e+00	 3.243581784753167e+00
-3.580788739896799e+00	-3.716553241887199e+00	 3.027337692093637e+00
-3.569475031397600e+00	-3.727866950386400e+00	 2.817762236968694e+00
-3.558161322898400e+00	-3.739180658885599e+00	 2.614855410321391e+00
-3.546847614399200e+00	-3.750494367384801e+00	 2.418617203094785e+00
-3.535533905900000e+00	-3.761808075884000e+00	 2.229047606231920e+00
-3.678723029093000e+00	-3.678723029093000e+00	 3.950526496380784e+00
-3.664404116773699e+00	-3.693041941412299e+00	 3.726849067249785e+00
-3.650085204454400e+00	-3.707360853731600e+00	 3.509254735258185e+00
-3.635766292135100e+00	-3.721679766050900e+00	 3.297743482045089e+00
-3.621447379815800e+00	-3.735998678370200e+00	 3.092315289249572e+00
-3.607128467496501e+00	-3.750317590689500e+00	 2.892970138510669e+00
-3.592809555177200e+00	-3.764636503008800e+00	 2.699708011467389e+00
-3.578490642857899e+00	-3.778955415328099e+00	 2.512528889758717e+00
-3.564171730538600e+00	-3.793274327647400e+00	 2.331432755023579e+00
-3.549852818219300e+00	-3.807593239966700e+00	 2.156419588900907e+00
-3.535533905899999e+00	-3.821912152286000e+00	 1.987489373029567e+00
-3.712310601200000e+00	-3.712310601200000e+00	 3.570460993321755e+00
-3.694632931670000e+00	-3.729988270730000e+00	 3.367441636838455e+00
-3.676955262139999e+00	-3.747665940260000e+00	 3.170040053932401e+00
-3.659277592610000e+00	-3.765343609790000e+00	 2.978256210054298e+00
-3.641599923080000e+00	-3.783021279320000e+00	 2.792090070654788e+00
-3.623922253550000e+00	-3.800698948850000e+00	 2.611541601184425e+00
-3.606244584020000e+00	-3.818376618380000e+00	 2.436610767093696e+00
-3.588566914490000e+00	-3.836054287910000e+00	 2.267297533833013e+00
-3.570889244960000e+00	-3.853731957440000e+00	 2.103601866852713e+00
-3.553211575430000e+00	-3.871409626969999e+00	 1.945523731603060e+00
-3.535533905900000e+00	-3.889087296500000e+00	 1.793063093534234e+00
-3.712310601200000e+00	-3.712310601200000e+00	 3.570460993321755e+00
-3.694632931670000e+00	-3.729988270730000e+00	 3.367441636838455e+00
-3.676955262139999e+00	-3.747665940260000e+00	 3.170040053932401e+00
-3.659277592610000e+00	-3.765343609790000e+00	 2.978256210054298e+00
-3.641599923080000e+00	-3.783021279320000e+00	 2.792090070654788e+00
-3.623922253550000e+00	-3.800698948850000e+00	 2.611541601184425e+00
-3.606244584020000e+00	-3.818376618380000e+00	 2.436610767093696e+00
-3.588566914490000e+00	-3.836054287910000e+00	 2.267297533833013e+00
-3.570889244960000e+00	-3.853731957440000e+00	 2.103601866852713e+00
-3.553211575430000e+00	-3.871409626969999e+00	 1.945523731603060e+00
-3.535533905900000e+00	-3.889087296500000e+00	 1.793063093534234e+00
-3.749433707213000e+00	-3.749433707213000e+00	 3.269413228289840e+00
-3.728043727081699e+00	-3.770823687344300e+00	 3.088063822537056e+00
-3.706653746950401e+00	-3.792213667475602e+00	 2.912231685476205e+00
-3.685263766819100e+00	-3.813603647606901e+00	 2.741916755901054e+00
-3.663873786687800e+00	-3.834993627738200e+00	 2.577118972605218e+00
-3.642483806556500e+00	-3.856383607869500e+00	 2.417838274382148e+00
-3.621093826425200e+00	-3.877773588000800e+00	 2.264074600025141e+00
-3.599703846293900e+00	-3.899163568132100e+00	 2.115827888327326e+00
-3.578313866162600e+00	-3.920553548263401e+00	 1.973098078081680e+00
-3.556923886031300e+00	-3.941943528394700e+00	 1.835885108081021e+00
-3.535533905900000e+00	-3.963333508526000e+00	 1.704188917117992e+00
-3.790092347132000e+00	-3.790092347132000e+00	 3.021496773321708e+00
-3.764636503008800e+00	-3.815548191255201e+00	 2.857461862358818e+00
-3.739180658885600e+00	-3.841004035378399e+00	 2.698766137508827e+00
-3.713724814762400e+00	-3.866459879501600e+00	 2.545409495607919e+00
-3.688268970639200e+00	-3.891915723624801e+00	 2.397391833491962e+00
-3.662813126516001e+00	-3.917371567748000e+00	 2.254713047996498e+00
-3.637357282392801e+00	-3.942827411871201e+00	 2.117373035956761e+00
-3.611901438269601e+00	-3.968283255994400e+00	 1.985371694207657e+00
-3.586445594146400e+00	-3.993739100117600e+00	 1.858708919583771e+00
-3.560989750023200e+00	-4.019194944240800e+00	 1.737384608919377e+00
-3.535533905900000e+00	-4.044650788364001e+00	 1.621398659048421e+00
-3.834286520957000e+00	-3.834286520957000e+00	 2.813602574518206e+00
-3.804411259451300e+00	-3.864161782462700e+00	 2.663682990476504e+00
-3.774535997945601e+00	-3.894037043968401e+00	 2.518884154096905e+00
-3.744660736439900e+00	-3.923912305474100e+00	 2.379205898616112e+00
-3.714785474934199e+00	-3.953787566979799e+00	 2.244648057270225e+00
-3.684910213428500e+00	-3.983662828485500e+00	 2.115210463294744e+00
-3.655034951922799e+00	-4.013538089991199e+00	 1.990892949924550e+00
-3.625159690417100e+00	-4.043413351496900e+00	 1.871695350393925e+00
-3.595284428911400e+00	-4.073288613002600e+00	 1.757617497936550e+00
-3.565409167405701e+00	-4.103163874508302e+00	 1.648659225785486e+00
-3.535533905900000e+00	-4.133039136014000e+00	 1.544820367173201e+00
-3.882016228688000e+00	-3.882016228688000e+00	 2.636582057900496e+00
-3.847367996409200e+00	-3.916664460966799e+00	 2.498363983997393e+00
-3.812719764130399e+00	-3.951312693245600e+00	 2.365029140412266e+00
-3.778071531851600e+00	-3.985960925524400e+00	 2.236577267003975e+00
-3.743423299572800e+00	-4.020609157803200e+00	 2.113008103630287e+00
-3.708775067294000e+00	-4.055257390082001e+00	 1.994321390147867e+00
-3.674126835015199e+00	-4.089905622360799e+00	 1.880516866412285e+00
-3.639478602736399e+00	-4.124553854639600e+00	 1.771594272278018e+00
-3.604830370457600e+00	-4.159202086918400e+00	 1.667553347598447e+00
-3.570182138178800e+00	-4.193850319197201e+00	 1.568393832225847e+00
-3.535533905900000e+00	-4.228498551476000e+00	 1.474115466011406e+00
-3.933281470325000e+00	-3.933281470325000e+00	 2.483861348598549e+00
-3.893506713882501e+00	-3.973056226767500e+00	 2.355481683917359e+00
-3.853731957440000e+00	-4.012830983210000e+00	 2.231740926335880e+00
-3.813957200997501e+00	-4.052605739652501e+00	 2.112638682314103e+00
-3.774182444555001e+00	-4.092380496095001e+00	 1.998174558310120e+00
-3.734407688112500e+00	-4.132155252537500e+00	 1.888348160780126e+00
-3.694632931670000e+00	-4.171930008980000e+00	 1.783159096178398e+00
-3.654858175227500e+00	-4.211704765422501e+00	 1.682606970957315e+00
-3.615083418785000e+00	-4.251479521865001e+00	 1.586691391567358e+00
-3.575308662342500e+00	-4.291254278307500e+00	 1.495411964457095e+00
-3.535533905900000e+00	-4.331029034750000e+00	 1.408768296073189e+00
-3.988082245868001e+00	-3.988082245868001e+00	 2.350598275972551e+00
-3.942827411871201e+00	-4.033337079864801e+00	 2.230590747539620e+00
-3.897572577874401e+00	-4.078591913861600e+00	 2.114978031289580e+00
-3.852317743877601e+00	-4.123846747858400e+00	 2.003759547577866e+00
-3.807062909880800e+00	-4.169101581855200e+00	 1.896934716756723e+00
-3.761808075884000e+00	-4.214356415852000e+00	 1.794502959175200e+00
-3.716553241887200e+00	-4.259611249848800e+00	 1.696463695179155e+00
-3.671298407890400e+00	-4.304866083845600e+00	 1.602816345111264e+00
-3.626043573893600e+00	-4.350120917842401e+00	 1.513560329310996e+00
-3.580788739896799e+00	-4.395375751839199e+00	 1.428695068114643e+00
-3.535533905900000e+00	-4.440630585836001e+00	 1.348219981855299e+00
-4.046418555317000e+00	-4.046418555317000e+00	 2.233149696789068e+00
-3.995330090375300e+00	-4.097507020258700e+00	 2.120340762206431e+00
-3.944241625433601e+00	-4.148595485200401e+00	 2.011686687682881e+00
-3.893153160491901e+00	-4.199683950142100e+00	 1.907186639276162e+00
-3.842064695550200e+00	-4.250772415083800e+00	 1.806839783038844e+00
-3.790976230608500e+00	-4.301860880025500e+00	 1.710645285018302e+00
-3.739887765666800e+00	-4.352949344967200e+00	 1.618602311256739e+00
-3.688799300725100e+00	-4.404037809908901e+00	 1.530710027791164e+00
-3.637710835783400e+00	-4.455126274850600e+00	 1.446967600653419e+00
-3.586622370841700e+00	-4.506214739792300e+00	 1.367374195870143e+00
-3.535533905900000e+00	-4.557303204734001e+00	 1.291928979462805e+00
-4.108290398672001e+00	-4.108290398672001e+00	 2.128723751324952e+00
-4.051014749394801e+00	-4.165566047949200e+00	 2.022160277732108e+00
-3.993739100117601e+00	-4.222841697226401e+00	 1.919517879536110e+00
-3.936463450840401e+00	-4.280117346503601e+00	 1.820795381628115e+00
-3.879187801563201e+00	-4.337392995780801e+00	 1.725991608891096e+00
-3.821912152286000e+00	-4.394668645058002e+00	 1.635105386199836e+00
-3.764636503008800e+00	-4.451944294335201e+00	 1.548135538420939e+00
-3.707360853731600e+00	-4.509219943612401e+00	 1.465080890412808e+00
-3.650085204454400e+00	-4.566495592889600e+00	 1.385940267025667e+00
-3.592809555177200e+00	-4.623771242166800e+00	 1.310712493101547e+00
-3.535533905900000e+00	-4.681046891444001e+00	 1.239396393474292e+00
-4.173697775933000e+00	-4.173697775933000e+00	 2.035146337643618e+00
-4.109881388929700e+00	-4.237514162936299e+00	 1.934044175374400e+00
-4.046065001926401e+00	-4.301330549939601e+00	 1.836636338284308e+00
-3.982248614923100e+00	-4.365146936942900e+00	 1.742921200954400e+00
-3.918432227919801e+00	-4.428963323946201e+00	 1.652897137953121e+00
-3.854615840916500e+00	-4.492779710949501e+00	 1.566562523836296e+00
-3.790799453913200e+00	-4.556596097952800e+00	 1.483915733147131e+00
-3.726983066909900e+00	-4.620412484956100e+00	 1.404955140416212e+00
-3.663166679906600e+00	-4.684228871959401e+00	 1.329679120161507e+00
-3.599350292903300e+00	-4.748045258962700e+00	 1.258086046888365e+00
-3.535533905900000e+00	-4.811861645966001e+00	 1.190174295089516e+00
-4.242640687100000e+00	-4.242640687100000e+00	 1.950700355731869e+00
-4.171930008980000e+00	-4.313351365220000e+00	 1.854407016256430e+00
-4.101219330860000e+00	-4.384062043339999e+00	 1.761588440551988e+00
-4.030508652739999e+00	-4.454772721460000e+00	 1.672242417437175e+00
-3.959797974620000e+00	-4.525483399580001e+00	 1.586366735711608e+00
-3.889087296500000e+00	-4.596194077700000e+00	 1.503959184155875e+00
-3.818376618380000e+00	-4.666904755820000e+00	 1.425017551531553e+00
-3.747665940260000e+00	-4.737615433940000e+00	 1.349539626581185e+00
-3.676955262140000e+00	-4.808326112060000e+00	 1.277523198028309e+00
-3.606244584020000e+00	-4.879036790180000e+00	 1.208966054577423e+00
-3.535533905900000e+00	-4.949747468300000e+00	 1.143865984914021e+00
-3.535533905900000e+00	-3.535533905900000e+00	 1.327238078612282e+00
-3.535533905900000e+00	-3.535533905900000e+00	 1.327238078612282e+00
-3.535533905899999e+00	-3.535533905899999e+00	 1.327238078612282e+00
-3.535533905900000e+00	-3.535533905900000e+00	 1.327238078612282e+00
-3.535533905900000e+00	-3.535533905900000e+00	 1.327238078612282e+00
-3.535533905900000e+00	-3.535533905900000e+00	 1.327238078612282e+00
-3.535533905900000e+00	-3.535533905900000e+00	 1.327238078612282e+00
-3.535533905900000e+00	-3.535533905900000e+00	 1.327238078612282e+00
-3.535533905899999e+00	-3.535533905899999e+00	 1.327238078612282e+00
-3.535533905899999e+00	-3.535533905899999e+00	 1.327238078612283e+00
-3.535533905900000e+00	-3.535533905900000e+00	 1.327238078612282e+00
-3.535533905900000e+00	-3.539069439806000e+00	 1.583823932398652e+01
-3.535357129204699e+00	-3.538892663110698e+00	 1.557581693194682e+01
-3.535180352509399e+00	-3.538715886415400e+00	 1.496929992575128e+01
-3.535003575814100e+00	-3.538539109720100e+00	 1.401868830540043e+01
-3.534826799118800e+00	-3.538362333024800e+00	 1.272398207089567e+01
-3.534650022423500e+00	-3.538185556329501e+00	 1.108518122223617e+01
-3.534473245728201e+00	-3.538008779634201e+00	 9.102285759422914e+00
-3.534296469032900e+00	-3.537832002938900e+00	 6.775295682458019e+00
-3.534119692337600e+00	-3.537655226243600e+00	 4.104210991326536e+00
-3.533942915642300e+00	-3.537478449548300e+00	 1.089031686046970e+00
-3.533766138947000e+00	-3.537301672853000e+00	-2.270242233387709e+00
-3.535533905899999e+00	-3.549676041524000e+00	 7.898043816278605e+00
-3.534826799118800e+00	-3.548968934742800e+00	 7.782569688470689e+00
-3.534119692337601e+00	-3.548261827961600e+00	 7.490545511805450e+00
-3.533412585556400e+00	-3.547554721180400e+00	 7.021971286284166e+00
-3.532705478775199e+00	-3.546847614399200e+00	 6.376847011908994e+00
-3.531998371993999e+00	-3.546140507617999e+00	 5.555172688681591e+00
-3.531291265212799e+00	-3.545433400836799e+00	 4.556948316603841e+00
-3.530584158431600e+00	-3.544726294055600e+00	 3.382173895676747e+00
-3.529877051650400e+00	-3.544019187274400e+00	 2.030849425904290e+00
-3.529169944869200e+00	-3.543312080493200e+00	 5.029749072845485e-01
-3.528462838088000e+00	-3.542604973711999e+00	-1.201449660178723e+00
-3.535533905900000e+00	-3.567353711054000e+00	 5.310598847607743e+00
-3.533942915642300e+00	-3.565762720796300e+00	 5.234640957483742e+00
-3.532351925384601e+00	-3.564171730538601e+00	 5.040479713469312e+00
-3.530760935126899e+00	-3.562580740280899e+00	 4.728115115584171e+00
-3.529169944869199e+00	-3.560989750023199e+00	 4.297547163847889e+00
-3.527578954611501e+00	-3.559398759765501e+00	 3.748775858280837e+00
-3.525987964353800e+00	-3.557807769507800e+00	 3.081801198902464e+00
-3.524396974096100e+00	-3.556216779250100e+00	 2.296623185732121e+00
-3.522805983838400e+00	-3.554625788992400e+00	 1.393241818790097e+00
-3.521214993580701e+00	-3.553034798734700e+00	 3.716570980957977e-01
-3.519624003323000e+00	-3.551443808477000e+00	-7.681309763300614e-01
-3.535533905900000e+00	-3.592102448396000e+00	 4.027228827966979e+00
-3.532705478775201e+00	-3.589274021271200e+00	 3.969312379435364e+00
-3.529877051650399e+00	-3.586445594146400e+00	 3.822834495490526e+00
-3.527048624525600e+00	-3.583617167021599e+00	 3.587795176243634e+00
-3.524220197400801e+00	-3.580788739896800e+00	 3.264194421805707e+00
-3.521391770276001e+00	-3.577960312772000e+00	 2.852032232287914e+00
-3.518563343151201e+00	-3.575131885647200e+00	 2.351308607801264e+00
-3.515734916026400e+00	-3.572303458522400e+00	 1.762023548456626e+00
-3.512906488901601e+00	-3.569475031397601e+00	 1.084177054365591e+00
-3.510078061776800e+00	-3.566646604272800e+00	 3.177691256389419e-01
-3.507249634652000e+00	-3.563818177148000e+00	-5.372002376123534e-01
-3.535533905900000e+00	-3.623922253550000e+00	 3.259835727102145e+00
-3.531114488517500e+00	-3.619502836167500e+00	 3.212246282685880e+00
-3.526695071135000e+00	-3.615083418785000e+00	 3.094030645603390e+00
-3.522275653752501e+00	-3.610664001402500e+00	 2.905188834954908e+00
-3.517856236370000e+00	-3.606244584020000e+00	 2.645720851164261e+00
-3.513436818987500e+00	-3.601825166637500e+00	 2.315626694655183e+00
-3.509017401605000e+00	-3.597405749255000e+00	 1.914906365851422e+00
-3.504597984222500e+00	-3.592986331872500e+00	 1.443559865176752e+00
-3.500178566840000e+00	-3.588566914489999e+00	 9.015871930549912e-01
-3.495759149457500e+00	-3.584147497107501e+00	 2.889883499096494e-01
-3.491339732075000e+00	-3.579728079725000e+00	-3.942366638351325e-01
-3.535533905899999e+00	-3.662813126516000e+00	 2.748725755105613e+00
-3.529169944869200e+00	-3.656449165485200e+00	 2.707858520747562e+00
-3.522805983838400e+00	-3.650085204454399e+00	 2.608384740125053e+00
-3.516442022807601e+00	-3.643721243423601e+00	 2.450304414503213e+00
-3.510078061776800e+00	-3.637357282392800e+00	 2.233617545147155e+00
-3.503714100746000e+00	-3.630993321361999e+00	 1.958324133322018e+00
-3.497350139715199e+00	-3.624629360331200e+00	 1.624424180292929e+00
-3.490986178684401e+00	-3.618265399300400e+00	 1.231917704983269e+00
-3.484622217653600e+00	-3.611901438269601e+00	 7.808046720674511e-01
-3.478258256622800e+00	-3.605537477238800e+00	 2.710851017890245e-01
-3.471894295592000e+00	-3.599173516208000e+00	-2.972410045867486e-01
-3.535533905900000e+00	-3.708775067294000e+00	 2.383337938533180e+00
-3.526871847830299e+00	-3.700113009224300e+00	 2.347232125396196e+00
-3.518209789760600e+00	-3.691450951154600e+00	 2.261136284842304e+00
-3.509547731690899e+00	-3.682788893084900e+00	 2.125050420061715e+00
-3.500885673621200e+00	-3.674126835015199e+00	 1.938974534244574e+00
-3.492223615551500e+00	-3.665464776945500e+00	 1.702908630581074e+00
-3.483561557481799e+00	-3.656802718875799e+00	 1.416852712261369e+00
-3.474899499412100e+00	-3.648140660806100e+00	 1.080806782475677e+00
-3.466237441342399e+00	-3.639478602736399e+00	 6.947708444140778e-01
-3.457575383272700e+00	-3.630816544666700e+00	 2.587449012668141e-01
-3.448913325203000e+00	-3.622154486597000e+00	-2.272710437759455e-01
-3.535533905900000e+00	-3.761808075884000e+00	 2.108633747464996e+00
-3.524220197400799e+00	-3.750494367384799e+00	 2.076111539696941e+00
-3.512906488901600e+00	-3.739180658885599e+00	 2.000079081818526e+00
-3.501592780402401e+00	-3.727866950386401e+00	 1.880536380938093e+00
-3.490279071903200e+00	-3.716553241887200e+00	 1.717483444163970e+00
-3.478965363403999e+00	-3.705239533388000e+00	 1.510920278604487e+00
-3.467651654904799e+00	-3.693925824888800e+00	 1.260846891367961e+00
-3.456337946405600e+00	-3.682612116389600e+00	 9.672632895627028e-01
-3.445024237906400e+00	-3.671298407890399e+00	 6.301694802969752e-01
-3.433710529407200e+00	-3.659984699391201e+00	 2.495654706790772e-01
-3.422396820908000e+00	-3.648670990892001e+00	-1.745487321826893e-01
-3.535533905899999e+00	-3.821912152286000e+00	 1.894132107431258e+00
-3.521214993580699e+00	-3.807593239966699e+00	 1.864434832030817e+00
-3.506896081261400e+00	-3.793274327647400e+00	 1.796277913406021e+00
-3.492577168942101e+00	-3.778955415328100e+00	 1.689661365967559e+00
-3.478258256622800e+00	-3.764636503008800e+00	 1.544585204126109e+00
-3.463939344303500e+00	-3.750317590689500e+00	 1.361049442292325e+00
-3.449620431984200e+00	-3.735998678370200e+00	 1.139054094876814e+00
-3.435301519664899e+00	-3.721679766050900e+00	 8.785991762901495e-01
-3.420982607345600e+00	-3.707360853731601e+00	 5.796847009429378e-01
-3.406663695026300e+00	-3.693041941412299e+00	 2.423106832456720e-01
-3.392344782707000e+00	-3.678723029093000e+00	-1.335228623911034e-01
-3.535533905900000e+00	-3.889087296500000e+00	 1.721587804226574e+00
-3.517856236370001e+00	-3.871409626970000e+00	 1.694200717147732e+00
-3.500178566839999e+00	-3.853731957440000e+00	 1.632401819126517e+00
-3.482500897310000e+00	-3.836054287910000e+00	 1.536191137279279e+00
-3.464823227780000e+00	-3.818376618380000e+00	 1.405568698722335e+00
-3.447145558250000e+00	-3.800698948850000e+00	 1.240534530571936e+00
-3.429467888720000e+00	-3.783021279320000e+00	 1.041088659944256e+00
-3.411790219190000e+00	-3.765343609790000e+00	 8.072311139554064e-01
-3.394112549660000e+00	-3.747665940260000e+00	 5.389619197214531e-01
-3.376434880130000e+00	-3.729988270729999e+00	 2.362811043583697e-01
-3.358757210600000e+00	-3.712310601200000e+00	-1.008113050178931e-01
-3.535533905900000e+00	-3.889087296500000e+00	 1.721587804226574e+00
-3.517856236370001e+00	-3.871409626970000e+00	 1.694200717147732e+00
-3.500178566839999e+00	-3.853731957440000e+00	 1.632401819126517e+00
-3.482500897310000e+00	-3.836054287910000e+00	 1.536191137279279e+00
-3.464823227780000e+00	-3.818376618380000e+00	 1.405568698722335e+00
-3.447145558250000e+00	-3.800698948850000e+00	 1.240534530571936e+00
-3.429467888720000e+00	-3.783021279320000e+00	 1.041088659944256e+00
-3.411790219190000e+00	-3.765343609790000e+00	 8.072311139554064e-01
-3.394112549660000e+00	-3.747665940260000e+00	 5.389619197214531e-01
-3.376434880130000e+00	-3.729988270729999e+00	 2.362811043583697e-01
-3.358757210600000e+00	-3.712310601200000e+00	-1.008113050178931e-01
-3.535533905900000e+00	-3.963333508526000e+00	 1.609218008290408e+00
-3.514143925768699e+00	-3.941943528394700e+00	 1.581045648501735e+00
-3.492753945637400e+00	-3.920553548263401e+00	 1.521730649059118e+00
-3.471363965506101e+00	-3.899163568132101e+00	 1.431273058001056e+00
-3.449973985374800e+00	-3.877773588000800e+00	 1.309672923365906e+00
-3.428584005243500e+00	-3.856383607869500e+00	 1.156930293191889e+00
-3.407194025112200e+00	-3.834993627738200e+00	 9.730452155171037e-01
-3.385804044980900e+00	-3.813603647606900e+00	 7.580177383794783e-01
-3.364414064849600e+00	-3.792213667475601e+00	 5.118479098168485e-01
-3.343024084718299e+00	-3.770823687344300e+00	 2.345357778668887e-01
-3.321634104587000e+00	-3.749433707213000e+00	-7.391860943287065e-02
-3.535533905900000e+00	-4.044650788364001e+00	 1.517585402514756e+00
-3.510078061776801e+00	-4.019194944240800e+00	 1.489616179799373e+00
-3.484622217653600e+00	-3.993739100117600e+00	 1.433249471394630e+00
-3.459166373530399e+00	-3.968283255994399e+00	 1.348485358270261e+00
-3.433710529407200e+00	-3.942827411871201e+00	 1.235323921395708e+00
-3.408254685284000e+00	-3.917371567748000e+00	 1.093765241740141e+00
-3.382798841160800e+00	-3.891915723624800e+00	 9.238094002724591e-01
-3.357342997037601e+00	-3.866459879501601e+00	 7.254564779612983e-01
-3.331887152914400e+00	-3.841004035378400e+00	 4.987065557750133e-01
-3.306431308791199e+00	-3.815548191255200e+00	 2.435597146816856e-01
-3.280975464668000e+00	-3.790092347132000e+00	-3.998396435085813e-02
-3.535533905900000e+00	-4.133039136014000e+00	 1.441149267475595e+00
-3.505658644394300e+00	-4.103163874508301e+00	 1.413978196011405e+00
-3.475783382888600e+00	-4.073288613002600e+00	 1.360748048750981e+00
-3.445908121382900e+00	-4.043413351496901e+00	 1.281458956581571e+00
-3.416032859877199e+00	-4.013538089991199e+00	 1.176111050389887e+00
-3.386157598371500e+00	-3.983662828485500e+00	 1.044704461062136e+00
-3.356282336865799e+00	-3.953787566979799e+00	 8.872393194840145e-01
-3.326407075360099e+00	-3.923912305474100e+00	 7.037157565406857e-01
-3.296531813854400e+00	-3.894037043968400e+00	 4.941339031168114e-01
-3.266656552348700e+00	-3.864161782462701e+00	 2.584938900965478e-01
-3.236781290843000e+00	-3.834286520957000e+00	-3.204151636497274e-03
-3.535533905900000e+00	-4.228498551476000e+00	 1.376128727785484e+00
-3.500885673621199e+00	-4.193850319197200e+00	 1.350113526121146e+00
-3.466237441342400e+00	-4.159202086918400e+00	 1.300055832036107e+00
-3.431589209063600e+00	-4.124553854639601e+00	 1.225955849707745e+00
-3.396940976784800e+00	-4.089905622360800e+00	 1.127813783312493e+00
-3.362292744506000e+00	-4.055257390082001e+00	 1.005629837025852e+00
-3.327644512227200e+00	-4.020609157803200e+00	 8.594042150223947e-01
-3.292996279948400e+00	-3.985960925524400e+00	 6.891371214757569e-01
-3.258348047669600e+00	-3.951312693245600e+00	 4.948287605586413e-01
-3.223699815390800e+00	-3.916664460966800e+00	 2.764793364428192e-01
-3.189051583112000e+00	-3.882016228688000e+00	 3.408905329913834e-02
-3.535533905900000e+00	-4.331029034750000e+00	 1.319861347313170e+00
-3.495759149457500e+00	-4.291254278307502e+00	 1.295212583490670e+00
-3.455984393015000e+00	-4.251479521865000e+00	 1.248279096443132e+00
-3.416209636572500e+00	-4.211704765422500e+00	 1.179061195050221e+00
-3.376434880130000e+00	-4.171930008980000e+00	 1.087559188189975e+00
-3.336660123687500e+00	-4.132155252537500e+00	 9.737733847388093e-01
-3.296885367245000e+00	-4.092380496095000e+00	 8.377040935715322e-01
-3.257110610802500e+00	-4.052605739652501e+00	 6.793516235613136e-01
-3.217335854359999e+00	-4.012830983210000e+00	 4.987162835797190e-01
-3.177561097917500e+00	-3.973056226767500e+00	 2.957983824966849e-01
-3.137786341475000e+00	-3.933281470325000e+00	 7.059822918053121e-02
-3.535533905900000e+00	-4.440630585836001e+00	 1.270421528007387e+00
-3.490279071903200e+00	-4.395375751839200e+00	 1.247256411334625e+00
-3.445024237906400e+00	-4.350120917842402e+00	 1.203353283263529e+00
-3.399769403909600e+00	-4.304866083845601e+00	 1.138712598744639e+00
-3.354514569912799e+00	-4.259611249848800e+00	 1.053334812725773e+00
-3.309259735916000e+00	-4.214356415852000e+00	 9.472203801520385e-01
-3.264004901919200e+00	-4.169101581855201e+00	 8.203697559658282e-01
-3.218750067922400e+00	-4.123846747858400e+00	 6.727833951068181e-01
-3.173495233925600e+00	-4.078591913861601e+00	 5.044617525119751e-01
-3.128240399928799e+00	-4.033337079864800e+00	 3.154052831155399e-01
-3.082985565932000e+00	-3.988082245868001e+00	 1.056144418490417e-01
-3.535533905900000e+00	-4.557303204734001e+00	 1.226384263772616e+00
-3.484445440958299e+00	-4.506214739792300e+00	 1.204759608561228e+00
-3.433356976016600e+00	-4.455126274850601e+00	 1.163769465595818e+00
-3.382268511074900e+00	-4.404037809908901e+00	 1.103414489422898e+00
-3.331180046133199e+00	-4.352949344967200e+00	 1.023695334584556e+00
-3.280091581191499e+00	-4.301860880025501e+00	 9.246126556184810e-01
-3.229003116249800e+00	-4.250772415083800e+00	 8.061671070579474e-01
-3.177914651308099e+00	-4.199683950142100e+00	 6.683593434318204e-01
-3.126826186366400e+00	-4.148595485200400e+00	 5.111900192645559e-01
-3.075737721424700e+00	-4.097507020258700e+00	 3.346597890761946e-01
-3.024649256482999e+00	-4.046418555317000e+00	 1.387693073823812e-01
-3.535533905900000e+00	-4.681046891444001e+00	 1.186673802674288e+00
-3.478258256622800e+00	-4.623771242166801e+00	 1.166606661327582e+00
-3.420982607345600e+00	-4.566495592889601e+00	 1.128401298562467e+00
-3.363706958068400e+00	-4.509219943612401e+00	 1.072058636705834e+00
-3.306431308791200e+00	-4.451944294335202e+00	 9.975795980775961e-01
-3.249155659514000e+00	-4.394668645058002e+00	 9.049651049907028e-01
-3.191880010236800e+00	-4.337392995780801e+00	 7.942160797511423e-01
-3.134604360959600e+00	-4.280117346503600e+00	 6.653334446579225e-01
-3.077328711682400e+00	-4.222841697226400e+00	 5.183181220031051e-01
-3.020053062405199e+00	-4.165566047949200e+00	 3.531710340717645e-01
-2.962777413128000e+00	-4.108290398672001e+00	 1.698931031420222e-01
-3.535533905900000e+00	-4.811861645966001e+00	 1.150463785562435e+00
-3.471717518896699e+00	-4.748045258962700e+00	 1.131944574586452e+00
-3.407901131893400e+00	-4.684228871959401e+00	 1.096392183870304e+00
-3.344084744890099e+00	-4.620412484956100e+00	 1.043807889190100e+00
-3.280268357886800e+00	-4.556596097952801e+00	 9.741929663112002e-01
-3.216451970883500e+00	-4.492779710949500e+00	 8.875486909882284e-01
-3.152635583880200e+00	-4.428963323946200e+00	 7.838763389650798e-01
-3.088819196876900e+00	-4.365146936942900e+00	 6.631771859749056e-01
-3.025002809873600e+00	-4.301330549939600e+00	 5.254525077401268e-01
-2.961186422870299e+00	-4.237514162936300e+00	 3.707035799724240e-01
-2.897370035866999e+00	-4.173697775933000e+00	 2.003410517183960e-01
-3.535533905900000e+00	-4.949747468300000e+00	 1.117109618927300e+00
-3.464823227780000e+00	-4.879036790180000e+00	 1.100110563533096e+00
-3.394112549660000e+00	-4.808326112060000e+00	 1.067079721369325e+00
-3.323401871540000e+00	-4.737615433940000e+00	 1.018018827981520e+00
-3.252691193420000e+00	-4.666904755820000e+00	 9.529296188990442e-01
-3.181980515300000e+00	-4.596194077700000e+00	 8.718138296350610e-01
-3.111269837180000e+00	-4.525483399580000e+00	 7.746731956865635e-01
-3.040559159060000e+00	-4.454772721459999e+00	 6.615094525343497e-01
-2.969848480940000e+00	-4.384062043340000e+00	 5.323243356430499e-01
-2.899137802820000e+00	-4.313351365219999e+00	 3.884729009424229e-01
-2.828427124700000e+00	-4.242640687100000e+00	 2.294796722726946e-01
-3.535533905900000e+00	-3.535533905900000e+00	 1.327238078612282e+00
-3.535533905900000e+00	-3.535533905900000e+00	 1.327238078612282e+00
-3.535533905899999e+00	-3.535533905899999e+00	 1.327238078612282e+00
-3.535533905900000e+00	-3.535533905900000e+00	 1.327238078612282e+00
-3.535533905900000e+00	-3.535533905900000e+00	 1.327238078612282e+00
-3.535533905900000e+00	-3.535533905900000e+00	 1.327238078612282e+00
-3.535533905900000e+00	-3.535533905900000e+00	 1.327238078612282e+00
-3.535533905900000e+00	-3.535533905900000e+00	 1.327238078612282e+00
-3.535533905899999e+00	-3.535533905899999e+00	 1.327238078612282e+00
-3.535533905899999e+00	-3.535533905899999e+00	 1.327238078612283e+00
-3.535533905900000e+00	-3.535533905900000e+00	 1.327238078612282e+00
-3.533766138947000e+00	-3.537301672853000e+00	 2.984776983713755e-02
-3.533589362251699e+00	-3.537124896157699e+00	-1.313303635442142e+00
-3.533412585556399e+00	-3.536948119462399e+00	-2.447720140717141e+00
-3.533235808861100e+00	-3.536771342767100e+00	-3.373401745973891e+00
-3.533059032165800e+00	-3.536594566071800e+00	-4.090348451211703e+00
-3.532882255470500e+00	-3.536417789376500e+00	-4.598560256434495e+00
-3.532705478775200e+00	-3.536241012681200e+00	-4.898037161644703e+00
-3.532528702079900e+00	-3.536064235985900e+00	-4.988779166824685e+00
-3.532351925384600e+00	-3.535887459290600e+00	-4.870786272030723e+00
-3.532175148689300e+00	-3.535710682595300e+00	-4.544058477201699e+00
-3.531998371994000e+00	-3.535533905900000e+00	-4.008595782358595e+00
-3.528462838088000e+00	-3.542604973711999e+00	-1.912522816136458e-01
-3.527755731306800e+00	-3.541897866930800e+00	-8.897063349123380e-01
-3.527048624525600e+00	-3.541190760149600e+00	-1.476104852706900e+00
-3.526341517744400e+00	-3.540483653368400e+00	-1.950447834996259e+00
-3.525634410963200e+00	-3.539776546587199e+00	-2.312735281775893e+00
-3.524927304182000e+00	-3.539069439805999e+00	-2.562967193047835e+00
-3.524220197400799e+00	-3.538362333024800e+00	-2.701143568807309e+00
-3.523513090619600e+00	-3.537655226243600e+00	-2.727264409054788e+00
-3.522805983838400e+00	-3.536948119462400e+00	-2.641329713783269e+00
-3.522098877057200e+00	-3.536241012681200e+00	-2.443339483000723e+00
-3.521391770275999e+00	-3.535533905899999e+00	-2.133293716698002e+00
-3.519624003323000e+00	-3.551443808477000e+00	-8.940322399447481e-02
-3.518033013065300e+00	-3.549852818219300e+00	-5.601383619561005e-01
-3.516442022807601e+00	-3.548261827961601e+00	-9.546170329074005e-01
-3.514851032549899e+00	-3.546670837703899e+00	-1.272839236828690e+00
-3.513260042292199e+00	-3.545079847446199e+00	-1.514804973701654e+00
-3.511669052034501e+00	-3.543488857188500e+00	-1.680514243503625e+00
-3.510078061776800e+00	-3.541897866930800e+00	-1.769967046216516e+00
-3.508487071519101e+00	-3.540306876673100e+00	-1.783163381821088e+00
-3.506896081261401e+00	-3.538715886415400e+00	-1.720103250296550e+00
-3.505305091003700e+00	-3.537124896157701e+00	-1.580786651623918e+00
-3.503714100746000e+00	-3.535533905900000e+00	-1.365213585781971e+00
-3.507249634652000e+00	-3.563818177148000e+00	-5.739564268348096e-03
-3.504421207527201e+00	-3.560989750023201e+00	-3.601522239939307e-01
-3.501592780402400e+00	-3.558161322898400e+00	-6.568777142086987e-01
-3.498764353277600e+00	-3.555332895773600e+00	-8.959160348015454e-01
-3.495935926152800e+00	-3.552504468648801e+00	-1.077267185661381e+00
-3.493107499028000e+00	-3.549676041524000e+00	-1.200931166676705e+00
-3.490279071903200e+00	-3.546847614399200e+00	-1.266907977736765e+00
-3.487450644778400e+00	-3.544019187274400e+00	-1.275197618730957e+00
-3.484622217653600e+00	-3.541190760149600e+00	-1.225800089547311e+00
-3.481793790528800e+00	-3.538362333024801e+00	-1.118715390075140e+00
-3.478965363404000e+00	-3.535533905900000e+00	-9.539435202036612e-01
-3.491339732075000e+00	-3.579728079725000e+00	 5.477343703338819e-02
-3.486920314692500e+00	-3.575308662342500e+00	-2.290044253549784e-01
-3.482500897310000e+00	-3.570889244959999e+00	-4.664508510379712e-01
-3.478081479927500e+00	-3.566469827577500e+00	-6.575658395919465e-01
-3.473662062545000e+00	-3.562050410195000e+00	-8.023493905930306e-01
-3.469242645162500e+00	-3.557630992812500e+00	-9.008015036176060e-01
-3.464823227780000e+00	-3.553211575430000e+00	-9.529221782418913e-01
-3.460403810397500e+00	-3.548792158047500e+00	-9.587114140419458e-01
-3.455984393015000e+00	-3.544372740665000e+00	-9.181692105941773e-01
-3.451564975632500e+00	-3.539953323282500e+00	-8.312955674750352e-01
-3.447145558250000e+00	-3.535533905900000e+00	-6.980904842601880e-01
-3.471894295592000e+00	-3.599173516208000e+00	 9.926441251452836e-02
-3.465530334561199e+00	-3.592809555177200e+00	-1.370255868749773e-01
-3.459166373530400e+00	-3.586445594146400e+00	-3.346436229534291e-01
-3.452802412499601e+00	-3.580081633115601e+00	-4.935896944554073e-01
-3.446438451468800e+00	-3.573717672084800e+00	-6.138638001156634e-01
-3.440074490438000e+00	-3.567353711053999e+00	-6.954659386688529e-01
-3.433710529407199e+00	-3.560989750023200e+00	-7.383961088496483e-01
-3.427346568376400e+00	-3.554625788992400e+00	-7.426543093927386e-01
-3.420982607345600e+00	-3.548261827961600e+00	-7.082405390327887e-01
-3.414618646314801e+00	-3.541897866930801e+00	-6.351547965044655e-01
-3.408254685284000e+00	-3.535533905899999e+00	-5.233970805425192e-01
-3.448913325203000e+00	-3.622154486597000e+00	 1.329370838832801e-01
-3.440251267133299e+00	-3.613492428527299e+00	-6.919544691458718e-02
-3.431589209063599e+00	-3.604830370457599e+00	-2.381703419936346e-01
-3.422927150993900e+00	-3.596168312387900e+00	-3.739875795255728e-01
-3.414265092924200e+00	-3.587506254318200e+00	-4.766471563197653e-01
-3.405603034854500e+00	-3.578844196248499e+00	-5.461490691856006e-01
-3.396940976784799e+00	-3.570182138178799e+00	-5.824933149323714e-01
-3.388278918715100e+00	-3.561520080109100e+00	-5.856798903693489e-01
-3.379616860645399e+00	-3.552858022039399e+00	-5.557087923060213e-01
-3.370954802575700e+00	-3.544195963969701e+00	-4.925800175516292e-01
-3.362292744506000e+00	-3.535533905900000e+00	-3.962935629154353e-01
-3.422396820908000e+00	-3.648670990892001e+00	 1.590959903279886e-01
-3.411083112408799e+00	-3.637357282392799e+00	-1.725000886757244e-02
-3.399769403909600e+00	-3.626043573893600e+00	-1.645973274477113e-01
-3.388455695410401e+00	-3.614729865394401e+00	-2.829459410062396e-01
-3.377141986911200e+00	-3.603416156895200e+00	-3.722958792647222e-01
-3.365828278411999e+00	-3.592102448396000e+00	-4.326471154338248e-01
-3.354514569912800e+00	-3.580788739896799e+00	-4.639996424041629e-01
-3.343200861413600e+00	-3.569475031397600e+00	-4.663534530663241e-01
-3.331887152914399e+00	-3.558161322898400e+00	-4.397085403109366e-01
-3.320573444415200e+00	-3.546847614399200e+00	-3.840648970286812e-01
-3.309259735916000e+00	-3.535533905900000e+00	-2.994225161101194e-01
-3.392344782707000e+00	-3.678723029093000e+00	 1.798522854087513e-01
-3.378025870387699e+00	-3.664404116773699e+00	 2.369745737920026e-02
-3.363706958068400e+00	-3.650085204454400e+00	-1.067067164292372e-01
-3.349388045749100e+00	-3.635766292135100e+00	-2.113602216061360e-01
-3.335069133429800e+00	-3.621447379815800e+00	-2.902630248118637e-01
-3.320750221110500e+00	-3.607128467496501e+00	-3.434151524451316e-01
-3.306431308791201e+00	-3.592809555177200e+00	-3.708165679741244e-01
-3.292112396471899e+00	-3.578490642857899e+00	-3.724672569861923e-01
-3.277793484152601e+00	-3.564171730538600e+00	-3.483672050684896e-01
-3.263474571833300e+00	-3.549852818219300e+00	-2.985163978084321e-01
-3.249155659514000e+00	-3.535533905899999e+00	-2.229148207932567e-01
-3.358757210600000e+00	-3.712310601200000e+00	 1.965944194682968e-01
-3.341079541070000e+00	-3.694632931670000e+00	 5.670980052081840e-02
-3.323401871539999e+00	-3.676955262139999e+00	-6.003034771182440e-02
-3.305724202010000e+00	-3.659277592610000e+00	-1.536259981139618e-01
-3.288046532480000e+00	-3.641599923080000e+00	-2.240771235698772e-01
-3.270368862950000e+00	-3.623922253550000e+00	-2.713836969639561e-01
-3.252691193420000e+00	-3.606244584020000e+00	-2.955456751555426e-01
-3.235013523890000e+00	-3.588566914490000e+00	-2.965630664164123e-01
-3.217335854360000e+00	-3.570889244960000e+00	-2.744358238906719e-01
-3.199658184830000e+00	-3.553211575430000e+00	-2.291639204583673e-01
-3.181980515300000e+00	-3.535533905900000e+00	-1.607473289995498e-01
-3.358757210600000e+00	-3.712310601200000e+00	 1.965944194682968e-01
-3.341079541070000e+00	-3.694632931670000e+00	 5.670980052081840e-02
-3.323401871539999e+00	-3.676955262139999e+00	-6.003034771182440e-02
-3.305724202010000e+00	-3.659277592610000e+00	-1.536259981139618e-01
-3.288046532480000e+00	-3.641599923080000e+00	-2.240771235698772e-01
-3.270368862950000e+00	-3.623922253550000e+00	-2.713836969639561e-01
-3.252691193420000e+00	-3.606244584020000e+00	-2.955456751555426e-01
-3.235013523890000e+00	-3.588566914490000e+00	-2.965630664164123e-01
-3.217335854360000e+00	-3.570889244960000e+00	-2.744358238906719e-01
-3.199658184830000e+00	-3.553211575430000e+00	-2.291639204583673e-01
-3.181980515300000e+00	-3.535533905900000e+00	-1.607473289995498e-01
-3.321634104587000e+00	-3.749433707213000e+00	 2.050529118487051e-01
-3.300244124455890e+00	-3.728043727081699e+00	 7.731038718489971e-02
-3.278854144324760e+00	-3.706653746950401e+00	-2.930543826136862e-02
-3.257464164193611e+00	-3.685263766819100e+00	-1.147945164522643e-01
-3.236074184062439e+00	-3.663873786687800e+00	-1.791567993501727e-01
-3.214684203931250e+00	-3.642483806556500e+00	-2.223922389176390e-01
-3.193294223800040e+00	-3.621093826425200e+00	-2.445007677055623e-01
-3.171904243668811e+00	-3.599703846293900e+00	-2.454823809389384e-01
-3.150514263537560e+00	-3.578313866162600e+00	-2.253370061722929e-01
-3.129124283406290e+00	-3.556923886031300e+00	-1.840645953606919e-01
-3.107734303275000e+00	-3.535533905900000e+00	-1.216651004594152e-01
-3.280975464668000e+00	-3.790092347132000e+00	 2.152873360403724e-01
-3.255519620545560e+00	-3.764636503008800e+00	 9.742108585566772e-02
-3.230063776423039e+00	-3.739180658885600e+00	-1.042600028369790e-03
-3.204607932300439e+00	-3.713724814762400e+00	-8.010364064371372e-02
-3.179152088177761e+00	-3.688268970639200e+00	-1.397619550226845e-01
-3.153696244055000e+00	-3.662813126516001e+00	-1.800174621979523e-01
-3.128240399932160e+00	-3.637357282392801e+00	-2.008700812025287e-01
-3.102784555809240e+00	-3.611901438269601e+00	-2.023197133403637e-01
-3.077328711686240e+00	-3.586445594146400e+00	-1.843663181217264e-01
-3.051872867563160e+00	-3.560989750023200e+00	-1.470097910217714e-01
-3.026417023440000e+00	-3.535533905900000e+00	-9.025005106083464e-02
-3.236781290843000e+00	-3.834286520957000e+00	 2.260923690376362e-01
-3.206906029339010e+00	-3.804411259451300e+00	 1.164367644769533e-01
-3.177030767834840e+00	-3.774535997945601e+00	 2.469544757614277e-02
-3.147155506330491e+00	-3.744660736439900e+00	-4.913145078155966e-02
-3.117280244825959e+00	-3.714785474934199e+00	-1.050437997134918e-01
-3.087404983321250e+00	-3.684910213428500e+00	-1.430414683376113e-01
-3.057529721816359e+00	-3.655034951922799e+00	-1.631243257724384e-01
-3.027654460311290e+00	-3.625159690417100e+00	-1.652922411370972e-01
-2.997779198806040e+00	-3.595284428911400e+00	-1.495450689279267e-01
-2.967903937300611e+00	-3.565409167405701e+00	-1.158827127921342e-01
-2.938028675795000e+00	-3.535533905900000e+00	-6.421110543710778e-02
-3.189051583112000e+00	-3.882016228688000e+00	 2.368017486508052e-01
-3.154403350836239e+00	-3.847367996409200e+00	 1.341012394027007e-01
-3.119755118560160e+00	-3.812719764130399e+00	 4.801891085085930e-02
-3.085106886283760e+00	-3.778071531851600e+00	-2.144503283549130e-02
-3.050458654007040e+00	-3.743423299572800e+00	-7.429038748811506e-02
-3.015810421730001e+00	-3.708775067294000e+00	-1.105169489397893e-01
-2.981162189452639e+00	-3.674126835015199e+00	-1.301245130242783e-01
-2.946513957174960e+00	-3.639478602736399e+00	-1.331128755763574e-01
-2.911865724896960e+00	-3.604830370457600e+00	-1.185459667515698e-01
-2.877217492618640e+00	-3.570182138178800e+00	-8.720341231201606e-02
-2.842569260339999e+00	-3.535533905900000e+00	-3.926800742141989e-02
-3.137786341475000e+00	-3.933281470325000e+00	 2.470462120344833e-01
-3.098011585037250e+00	-3.893506713882501e+00	 1.503343598809366e-01
-3.058236828599000e+00	-3.853731957440000e+00	 6.910324732705860e-02
-3.018462072160250e+00	-3.813957200997501e+00	 3.353183237461782e-03
-2.978687315721000e+00	-3.774182444555001e+00	-4.691552352489452e-02
-2.938912559281250e+00	-3.734407688112500e+00	-8.163700753685627e-02
-2.899137802841000e+00	-3.694632931670000e+00	-9.966415021065787e-02
-2.859363046400250e+00	-3.654858175227500e+00	-1.022421073109080e-01
-2.819588289959000e+00	-3.615083418785000e+00	-8.937214240724714e-02
-2.779813533517250e+00	-3.575308662342500e+00	-6.105558558017687e-02
-2.740038777074999e+00	-3.535533905900000e+00	-1.729369016393217e-02
-3.082985565932000e+00	-3.988082245868001e+00	 2.566239557325407e-01
-3.037730731942040e+00	-3.942827411871201e+00	 1.651436489518525e-01
-2.992475897951360e+00	-3.897572577874401e+00	 8.813927270373892e-02
-2.947221063959960e+00	-3.852317743877601e+00	 2.561128191270684e-02
-2.901966229967839e+00	-3.807062909880800e+00	-2.118333890377377e-02
-2.856711395975000e+00	-3.761808075884000e+00	-5.333547828692844e-02
-2.811456561981440e+00	-3.716553241887200e+00	-7.105275486410308e-02
-2.766201727987160e+00	-3.671298407890400e+00	-7.433705842851576e-02
-2.720946893992159e+00	-3.626043573893600e+00	-6.319027876339281e-02
-2.675692059996439e+00	-3.580788739896799e+00	-3.761429304671166e-02
-2.630437225999999e+00	-3.535533905900000e+00	 2.388976674326804e-03
-3.024649256482999e+00	-4.046418555317000e+00	 2.654288455329043e-01
-2.973560791550610e+00	-3.995330090375300e+00	 1.785780321547162e-01
-2.922472326617240e+00	-3.944241625433601e+00	 1.059102639687936e-01
-2.871383861682889e+00	-3.893153160491901e+00	 4.785431266149558e-02
-2.820295396747559e+00	-3.842064695550200e+00	 3.332191051662464e-03
-2.769206931811250e+00	-3.790976230608500e+00	-2.765881975157022e-02
-2.718118466873960e+00	-3.739887765666800e+00	-4.512143862276520e-02
-2.667030001935690e+00	-3.688799300725100e+00	-4.905838442021529e-02
-2.615941536996440e+00	-3.637710835783400e+00	-3.947237598591666e-02
-2.564853072056209e+00	-3.586622370841700e+00	-1.636611817834696e-02
-2.513764607114999e+00	-3.535533905900000e+00	 2.025763389004118e-02
-2.962777413128000e+00	-4.108290398672001e+00	 2.734094891188215e-01
-2.905501763862960e+00	-4.051014749394801e+00	 1.918507723564511e-01
-2.848226114596640e+00	-3.993739100117601e+00	 1.237397185261952e-01
-2.790950465329039e+00	-3.936463450840401e+00	 6.835428985406540e-02
-2.733674816060160e+00	-3.879187801563201e+00	 2.569065513520236e-02
-2.676399166790000e+00	-3.821912152286000e+00	-4.255016809515205e-03
-2.619123517518559e+00	-3.764636503008800e+00	-2.148655713343792e-02
-2.561847868245839e+00	-3.707360853731600e+00	-2.600779696417857e-02
-2.504572218971839e+00	-3.650085204454400e+00	-1.782256740358154e-02
-2.447296569696559e+00	-3.592809555177200e+00	 3.065315977545946e-03
-2.390020920419999e+00	-3.535533905900000e+00	 3.665198130818403e-02
-2.897370035866999e+00	-4.173697775933000e+00	 2.819547446475121e-01
-2.833553648879089e+00	-4.109881388929700e+00	 2.050066291443249e-01
-2.769737261889559e+00	-4.046065001926401e+00	 1.400579829959518e-01
-2.705920874898409e+00	-3.982248614923100e+00	 8.710350682739292e-02
-2.642104487905640e+00	-3.918432227919801e+00	 4.613790130334924e-02
-2.578288100911249e+00	-3.854615840916500e+00	 1.715586712824041e-02
-2.514471713915239e+00	-3.790799453913200e+00	 1.521050462094942e-04
-2.450655326917609e+00	-3.726983066909900e+00	-4.878684158900304e-03
-2.386838939918359e+00	-3.663166679906600e+00	 2.058200336464311e-03
-2.323022552917489e+00	-3.599350292903300e+00	 2.095747661828040e-02
-2.259206165914999e+00	-3.535533905900000e+00	 5.181379971141153e-02
-2.828427124700000e+00	-4.242640687100000e+00	 2.904154442689912e-01
-2.757716446599001e+00	-4.171930008980000e+00	 2.170297697609073e-01
-2.687005768496000e+00	-4.101219330860000e+00	 1.549823186585782e-01
-2.616295090391000e+00	-4.030508652739999e+00	 1.042658818333138e-01
-2.545584412284000e+00	-3.959797974620000e+00	 6.487325021631614e-02
-2.474873734175000e+00	-3.889087296500000e+00	 3.679721479864899e-02
-2.404163056064000e+00	-3.818376618380000e+00	 2.003056663126873e-02
-2.333452377951000e+00	-3.747665940260000e+00	 1.456609682498758e-02
-2.262741699836000e+00	-3.676955262140000e+00	 2.039659655051418e-02
-2.192031021719000e+00	-3.606244584020000e+00	 3.751487617124849e-02
-2.121320343600000e+00	-3.535533905900000e+00	 6.591367546103247e-02
-3.535533905900000e+00	-3.535533905900000e+00	 1.327238078612282e+00
-3.535533905900000e+00	-3.535533905900000e+00	 1.327238078612283e+00
-3.535533905899999e+00	-3.535533905899999e+00	 1.327238078612282e+00
-3.535533905900000e+00	-3.535533905900000e+00	 1.327238078612282e+00
-3.535533905900000e+00	-3.535533905900000e+00	 1.327238078612282e+00
-3.535533905900000e+00	-3.535533905900000e+00	 1.327238078612282e+00
-3.535533905900000e+00	-3.535533905900000e+00	 1.327238078612282e+00
-3.535533905900000e+00	-3.535533905900000e+00	 1.327238078612282e+00
-3.535533905899999e+00	-3.535533905899999e+00	 1.327238078612282e+00
-3.535533905899999e+00	-3.535533905899999e+00	 1.327238078612283e+00
-3.535533905900000e+00	-3.535533905900000e+00	 1.327238078612282e+00
-3.531998371994000e+00	-3.535533905900000e+00	-3.359045869932508e+00
-3.532175148689299e+00	-3.535357129204699e+00	-4.303392131146982e+00
-3.532351925384600e+00	-3.535180352509399e+00	-5.266121646736946e+00
-3.532528702079900e+00	-3.535003575814100e+00	-6.247234416684952e+00
-3.532705478775200e+00	-3.534826799118800e+00	-7.246730440992673e+00
-3.532882255470500e+00	-3.534650022423500e+00	-8.264609719663763e+00
-3.533059032165800e+00	-3.534473245728201e+00	-9.300872252703680e+00
-3.533235808861100e+00	-3.534296469032900e+00	-1.035551804008705e+01
-3.533412585556400e+00	-3.534119692337600e+00	-1.142854708187543e+01
-3.533589362251700e+00	-3.533942915642300e+00	-1.251995937800817e+01
-3.533766138947000e+00	-3.533766138947000e+00	-1.362975492850464e+01
-3.521391770275999e+00	-3.535533905899999e+00	-1.560263703721604e+00
-3.522098877057200e+00	-3.534826799118800e+00	-2.030166487602255e+00
-3.522805983838400e+00	-3.534119692337601e+00	-2.510575207788072e+00
-3.523513090619600e+00	-3.533412585556400e+00	-3.001489864276265e+00
-3.524220197400799e+00	-3.532705478775199e+00	-3.502910457061866e+00
-3.524927304182000e+00	-3.531998371993999e+00	-4.014836986148076e+00
-3.525634410963200e+00	-3.531291265212799e+00	-4.537269451528664e+00
-3.526341517744400e+00	-3.530584158431600e+00	-5.070207853202886e+00
-3.527048624525600e+00	-3.529877051650400e+00	-5.613652191164627e+00
-3.527755731306800e+00	-3.529169944869200e+00	-6.167602465420364e+00
-3.528462838088000e+00	-3.528462838088000e+00	-6.732058675959723e+00
-3.503714100746000e+00	-3.535533905900000e+00	-1.000078920169685e+00
-3.505305091003700e+00	-3.533942915642300e+00	-1.312381759849801e+00
-3.506896081261401e+00	-3.532351925384601e+00	-1.631825641156667e+00
-3.508487071519100e+00	-3.530760935126899e+00	-1.958410564065057e+00
-3.510078061776799e+00	-3.529169944869199e+00	-2.292136528551350e+00
-3.511669052034501e+00	-3.527578954611501e+00	-2.633003534587790e+00
-3.513260042292200e+00	-3.525987964353800e+00	-2.981011582150735e+00
-3.514851032549900e+00	-3.524396974096100e+00	-3.336160671214920e+00
-3.516442022807600e+00	-3.522805983838400e+00	-3.698450801754833e+00
-3.518033013065301e+00	-3.521214993580701e+00	-4.067881973745836e+00
-3.519624003323000e+00	-3.519624003323000e+00	-4.444454187161691e+00
-3.478965363404000e+00	-3.535533905900000e+00	-7.269544121886294e-01
-3.481793790528801e+00	-3.532705478775201e+00	-9.605418951348024e-01
-3.484622217653599e+00	-3.529877051650399e+00	-1.199449484494684e+00
-3.487450644778400e+00	-3.527048624525600e+00	-1.443677180126962e+00
-3.490279071903200e+00	-3.524220197400801e+00	-1.693224981889850e+00
-3.493107499028000e+00	-3.521391770276001e+00	-1.948092889641577e+00
-3.495935926152800e+00	-3.518563343151201e+00	-2.208280903240980e+00
-3.498764353277600e+00	-3.515734916026400e+00	-2.473789022546718e+00
-3.501592780402401e+00	-3.512906488901601e+00	-2.744617247417091e+00
-3.504421207527200e+00	-3.510078061776800e+00	-3.020765577710436e+00
-3.507249634652000e+00	-3.507249634652000e+00	-3.302234013285774e+00
-3.447145558250000e+00	-3.535533905900000e+00	-5.649320336562850e-01
-3.451564975632500e+00	-3.531114488517500e+00	-7.513004038270528e-01
-3.455984393015000e+00	-3.526695071135000e+00	-9.418521668817227e-01
-3.460403810397501e+00	-3.522275653752501e+00	-1.136587322280352e+00
-3.464823227780000e+00	-3.517856236370000e+00	-1.335505869483292e+00
-3.469242645162500e+00	-3.513436818987500e+00	-1.538607807950851e+00
-3.473662062545000e+00	-3.509017401605000e+00	-1.745893137143218e+00
-3.478081479927500e+00	-3.504597984222500e+00	-1.957361856520371e+00
-3.482500897310000e+00	-3.500178566840000e+00	-2.173013965542938e+00
-3.486920314692501e+00	-3.495759149457500e+00	-2.392849463671016e+00
-3.491339732075000e+00	-3.491339732075000e+00	-2.616868350364498e+00
-3.408254685284000e+00	-3.535533905899999e+00	-4.573521194014054e-01
-3.414618646314800e+00	-3.529169944869200e+00	-6.122292352254364e-01
-3.420982607345600e+00	-3.522805983838400e+00	-7.705137770480993e-01
-3.427346568376401e+00	-3.516442022807601e+00	-9.322057432575348e-01
-3.433710529407200e+00	-3.510078061776800e+00	-1.097305132242076e+00
-3.440074490438000e+00	-3.503714100746000e+00	-1.265811942389976e+00
-3.446438451468799e+00	-3.497350139715199e+00	-1.437726172089475e+00
-3.452802412499600e+00	-3.490986178684401e+00	-1.613047819728838e+00
-3.459166373530401e+00	-3.484622217653600e+00	-1.791776883696304e+00
-3.465530334561200e+00	-3.478258256622800e+00	-1.973913362380183e+00
-3.471894295592000e+00	-3.471894295592000e+00	-2.159457254168640e+00
-3.362292744506000e+00	-3.535533905900000e+00	-3.804201397278708e-01
-3.370954802575699e+00	-3.526871847830299e+00	-5.127822636391031e-01
-3.379616860645399e+00	-3.518209789760600e+00	-6.479889793021884e-01
-3.388278918715100e+00	-3.509547731690899e+00	-7.860402826528745e-01
-3.396940976784800e+00	-3.500885673621200e+00	-9.269361696269582e-01
-3.405603034854500e+00	-3.492223615551500e+00	-1.070676636160245e+00
-3.414265092924199e+00	-3.483561557481799e+00	-1.217261678188525e+00
-3.422927150993900e+00	-3.474899499412100e+00	-1.366691291647463e+00
-3.431589209063599e+00	-3.466237441342399e+00	-1.518965472473014e+00
-3.440251267133300e+00	-3.457575383272700e+00	-1.674084216600856e+00
-3.448913325203000e+00	-3.448913325203000e+00	-1.832047519966743e+00
-3.309259735916000e+00	-3.535533905900000e+00	-3.223990993847446e-01
-3.320573444415199e+00	-3.524220197400799e+00	-4.378482722859978e-01
-3.331887152914400e+00	-3.512906488901600e+00	-5.557156338722294e-01
-3.343200861413601e+00	-3.501592780402401e+00	-6.760011750875579e-01
-3.354514569912800e+00	-3.490279071903200e+00	-7.987048868760445e-01
-3.365828278411999e+00	-3.478965363403999e+00	-9.238267601819380e-01
-3.377141986911199e+00	-3.467651654904799e+00	-1.051366785949294e+00
-3.388455695410400e+00	-3.456337946405600e+00	-1.181324955122341e+00
-3.399769403909600e+00	-3.445024237906400e+00	-1.313951586905378e+00
-3.411083112408801e+00	-3.433710529407200e+00	-1.449614473138624e+00
-3.422396820908000e+00	-3.422396820908000e+00	-1.587691544922455e+00
-3.249155659514000e+00	-3.535533905899999e+00	-2.768318404996096e-01
-3.263474571833299e+00	-3.521214993580699e+00	-3.790956934731201e-01
-3.277793484152599e+00	-3.506896081261400e+00	-4.834440596534397e-01
-3.292112396471900e+00	-3.492577168942101e+00	-5.898769206816422e-01
-3.306431308791201e+00	-3.478258256622800e+00	-6.983942581989169e-01
-3.320750221110500e+00	-3.463939344303500e+00	-8.089960538463480e-01
-3.335069133429800e+00	-3.449620431984200e+00	-9.216822892651368e-01
-3.349388045749099e+00	-3.435301519664899e+00	-1.037460136995255e+00
-3.363706958068401e+00	-3.420982607345600e+00	-1.155420733012554e+00
-3.378025870387700e+00	-3.406663695026300e+00	-1.275459403994990e+00
-3.392344782707000e+00	-3.392344782707000e+00	-1.397576152695955e+00
-3.181980515300000e+00	-3.535533905900000e+00	-2.398726696368104e-01
-3.199658184830001e+00	-3.517856236370001e+00	-3.315538111349049e-01
-3.217335854360000e+00	-3.500178566839999e+00	-4.250518558069440e-01
-3.235013523890000e+00	-3.482500897310000e+00	-5.203667691074019e-01
-3.252691193420000e+00	-3.464823227780000e+00	-6.174985164907597e-01
-3.270368862950000e+00	-3.447145558250000e+00	-7.165360199312217e-01
-3.288046532480000e+00	-3.429467888720000e+00	-8.186874197101316e-01
-3.305724202010000e+00	-3.411790219190000e+00	-9.226458588289408e-01
-3.323401871540000e+00	-3.394112549660000e+00	-1.028411342468804e+00
-3.341079541070000e+00	-3.376434880130000e+00	-1.135983875810836e+00
-3.358757210600000e+00	-3.358757210600000e+00	-1.245363464036187e+00
-3.181980515300000e+00	-3.535533905900000e+00	-2.398726696368104e-01
-3.199658184830001e+00	-3.517856236370001e+00	-3.315538111349049e-01
-3.217335854360000e+00	-3.500178566839999e+00	-4.250518558069440e-01
-3.235013523890000e+00	-3.482500897310000e+00	-5.203667691074019e-01
-3.252691193420000e+00	-3.464823227780000e+00	-6.174985164907597e-01
-3.270368862950000e+00	-3.447145558250000e+00	-7.165360199312217e-01
-3.288046532480000e+00	-3.429467888720000e+00	-8.186874197101316e-01
-3.305724202010000e+00	-3.411790219190000e+00	-9.226458588289408e-01
-3.323401871540000e+00	-3.394112549660000e+00	-1.028411342468804e+00
-3.341079541070000e+00	-3.376434880130000e+00	-1.135983875810836e+00
-3.358757210600000e+00	-3.358757210600000e+00	-1.245363464036187e+00
-3.107734303275000e+00	-3.535533905900000e+00	-2.015893204084768e-01
-3.129124283406289e+00	-3.514143925768699e+00	-2.807622290261060e-01
-3.150514263537560e+00	-3.492753945637400e+00	-3.623128806804168e-01
-3.171904243668811e+00	-3.471363965506101e+00	-4.462412141714456e-01
-3.193294223800040e+00	-3.449973985374800e+00	-5.325471682993665e-01
-3.214684203931250e+00	-3.428584005243500e+00	-6.227941074579224e-01
-3.236074184062440e+00	-3.407194025112200e+00	-7.155396601019040e-01
-3.257464164193611e+00	-3.385804044980900e+00	-8.106484452968916e-01
-3.278854144324760e+00	-3.364414064849600e+00	-9.081204722213209e-01
-3.300244124455890e+00	-3.343024084718299e+00	-1.007955750053642e+00
-3.321634104587000e+00	-3.321634104587000e+00	-1.110154287972281e+00
-3.026417023440000e+00	-3.535533905900000e+00	-1.573900036792532e-01
-3.051872867563160e+00	-3.510078061776801e+00	-2.290266594553452e-01
-3.077328711686239e+00	-3.484622217653600e+00	-3.032447977255319e-01
-3.102784555809239e+00	-3.459166373530399e+00	-3.800443153364691e-01
-3.128240399932160e+00	-3.433710529407200e+00	-4.605983730024265e-01
-3.153696244055000e+00	-3.408254685284000e+00	-5.445948473164595e-01
-3.179152088177760e+00	-3.382798841160800e+00	-6.311521307097172e-01
-3.204607932300440e+00	-3.357342997037601e+00	-7.202702386526221e-01
-3.230063776423040e+00	-3.331887152914400e+00	-8.119491866155595e-01
-3.255519620545560e+00	-3.306431308791199e+00	-9.061889900689655e-01
-3.280975464668000e+00	-3.280975464668000e+00	-1.002989664483172e+00
-2.938028675795000e+00	-3.535533905900000e+00	-1.109833051611730e-01
-2.967903937300610e+00	-3.505658644394300e+00	-1.783710336321706e-01
-2.997779198806040e+00	-3.475783382888600e+00	-2.482324939344326e-01
-3.027654460311290e+00	-3.445908121382900e+00	-3.208553950602712e-01
-3.057529721816359e+00	-3.416032859877199e+00	-3.982836993783772e-01
-3.087404983321250e+00	-3.386157598371500e+00	-4.782509874967752e-01
-3.117280244825959e+00	-3.356282336865799e+00	-5.607572844234087e-01
-3.147155506330490e+00	-3.326407075360099e+00	-6.458026151661957e-01
-3.177030767834840e+00	-3.296531813854400e+00	-7.333870047330686e-01
-3.206906029339010e+00	-3.266656552348700e+00	-8.235104781319105e-01
-3.236781290843000e+00	-3.236781290843000e+00	-9.161730603706467e-01
-2.842569260339999e+00	-3.535533905900000e+00	-6.161431529278491e-02
-2.877217492618640e+00	-3.500885673621199e+00	-1.277223350028511e-01
-2.911865724896959e+00	-3.466237441342400e+00	-1.962729605162948e-01
-2.946513957174960e+00	-3.431589209063600e+00	-2.684699047668663e-01
-2.981162189452640e+00	-3.396940976784800e+00	-3.436167885319786e-01
-3.015810421730001e+00	-3.362292744506000e+00	-4.211458870382420e-01
-3.050458654007040e+00	-3.327644512227200e+00	-5.010572392967833e-01
-3.085106886283759e+00	-3.292996279948400e+00	-5.833508843187215e-01
-3.119755118560160e+00	-3.258348047669600e+00	-6.680268611151854e-01
-3.154403350836239e+00	-3.223699815390800e+00	-7.550852086972426e-01
-3.189051583112000e+00	-3.189051583112000e+00	-8.445259660760085e-01
-2.740038777074999e+00	-3.535533905900000e+00	-1.326825436529555e-02
-2.779813533517249e+00	-3.495759149457500e+00	-7.858390664344492e-02
-2.819588289958999e+00	-3.455984393015000e+00	-1.461205358166970e-01
-2.859363046400250e+00	-3.416209636572500e+00	-2.185743067929926e-01
-2.899137802841000e+00	-3.376434880130000e+00	-2.938537224161012e-01
-2.938912559281250e+00	-3.336660123687500e+00	-3.713060632536024e-01
-2.978687315721000e+00	-3.296885367245000e+00	-4.497000226631267e-01
-3.018462072160250e+00	-3.257110610802500e+00	-5.301722467523590e-01
-3.058236828598999e+00	-3.217335854359999e+00	-6.127877104236915e-01
-3.098011585037250e+00	-3.177561097917500e+00	-6.975464726930727e-01
-3.137786341475000e+00	-3.137786341475000e+00	-7.844485925764602e-01
-2.630437225999999e+00	-3.535533905900000e+00	 3.345263463943893e-02
-2.675692059996440e+00	-3.490279071903200e+00	-3.197126917045690e-02
-2.720946893992160e+00	-3.445024237906400e+00	-9.962787407151916e-02
-2.766201727987160e+00	-3.399769403909600e+00	-1.728127030494996e-01
-2.811456561981439e+00	-3.354514569912799e+00	-2.478907930334666e-01
-2.856711395975000e+00	-3.309259735916000e+00	-3.248621440229961e-01
-2.901966229967840e+00	-3.264004901919200e+00	-4.037267560176557e-01
-2.947221063959960e+00	-3.218750067922400e+00	-4.842820810826126e-01
-2.992475897951359e+00	-3.173495233925600e+00	-5.654553382077541e-01
-3.037730731942039e+00	-3.128240399928799e+00	-6.484838850020056e-01
-3.082985565932000e+00	-3.082985565932000e+00	-7.333678083900355e-01
-2.513764607114999e+00	-3.535533905900000e+00	 7.825017302617912e-02
-2.564853072056209e+00	-3.484445440958299e+00	 1.213303413823441e-02
-2.615941536996440e+00	-3.433356976016600e+00	-5.694505933291549e-02
-2.667030001935689e+00	-3.382268511074900e+00	-1.307869947262821e-01
-2.718118466873960e+00	-3.331180046133199e+00	-2.062167161405498e-01
-2.769206931811250e+00	-3.280091581191499e+00	-2.832342235753190e-01
-2.820295396747559e+00	-3.229003116249800e+00	-3.618395170301822e-01
-2.871383861682889e+00	-3.177914651308099e+00	-4.420325965047265e-01
-2.922472326617240e+00	-3.126826186366400e+00	-5.238134619985385e-01
-2.973560791550609e+00	-3.075737721424700e+00	-6.061296191150536e-01
-3.024649256482999e+00	-3.024649256482999e+00	-6.893992816484524e-01
-2.390020920419999e+00	-3.535533905900000e+00	 1.209987873838502e-01
-2.447296569696559e+00	-3.478258256622800e+00	 5.382010611640642e-02
-2.504572218971839e+00	-3.420982607345600e+00	-1.712861455824971e-02
-2.561847868245839e+00	-3.363706958068400e+00	-9.201898634187725e-02
-2.619123517518560e+00	-3.306431308791200e+00	-1.681800649633579e-01
-2.676399166790000e+00	-3.249155659514000e+00	-2.456118504223227e-01
-2.733674816060160e+00	-3.191880010236800e+00	-3.243143427183962e-01
-2.790950465329039e+00	-3.134604360959600e+00	-4.042875418512003e-01
-2.848226114596639e+00	-3.077328711682400e+00	-4.855314478203645e-01
-2.905501763862960e+00	-3.020053062405199e+00	-5.680460606254825e-01
-2.962777413128000e+00	-2.962777413128000e+00	-6.511333970302291e-01
-2.259206165914999e+00	-3.535533905900000e+00	 1.616693690011260e-01
-2.323022552917489e+00	-3.471717518896699e+00	 9.321203904505534e-02
-2.386838939918359e+00	-3.407901131893400e+00	 2.008319139895953e-02
-2.450655326917609e+00	-3.344084744890099e+00	-5.611494168007436e-02
-2.514471713915239e+00	-3.280268357886800e+00	-1.332644531313226e-01
-2.578288100911249e+00	-3.216451970883500e+00	-2.113653429544392e-01
-2.642104487905639e+00	-3.152635583880200e+00	-2.904176111490919e-01
-2.705920874898409e+00	-3.088819196876900e+00	-3.704212577149316e-01
-2.769737261889559e+00	-3.025002809873600e+00	-4.513762826516206e-01
-2.833553648879089e+00	-2.961186422870299e+00	-5.332826859588089e-01
-2.897370035866999e+00	-2.897370035866999e+00	-6.161404676361570e-01
-2.121320343600000e+00	-3.535533905900000e+00	 2.002845000749159e-01
-2.192031021719000e+00	-3.464823227780000e+00	 1.304384182307206e-01
-2.262741699836000e+00	-3.394112549660000e+00	 5.491931413657364e-02
-2.333452377951000e+00	-3.323401871540000e+00	-2.275132158347595e-02
-2.404163056064000e+00	-3.252691193420000e+00	-1.010579285550417e-01
-2.474873734175000e+00	-3.181980515300000e+00	-1.800005067778086e-01
-2.545584412284000e+00	-3.111269837180000e+00	-2.595790562514774e-01
-2.616295090391000e+00	-3.040559159060000e+00	-3.397935769757330e-01
-2.687005768496000e+00	-2.969848480940000e+00	-4.206440689502763e-01
-2.757716446599000e+00	-2.899137802820000e+00	-5.021305321747965e-01
-2.828427124700000e+00	-2.828427124700000e+00	-5.842529666489861e-01
 4.242640687100000e+00	 4.242640687100000e+00	 1.938600181902429e+00
 4.171930008980000e+00	 4.313351365220000e+00	 1.857223545341950e+00
 4.101219330860000e+00	 4.384062043339999e+00	 1.781380919877799e+00
 4.030508652739999e+00	 4.454772721460000e+00	 1.711070094328615e+00
 3.959797974620000e+00	 4.525483399580001e+00	 1.646288857494007e+00
 3.889087296500000e+00	 4.596194077700000e+00	 1.587034998154567e+00
 3.818376618380000e+00	 4.666904755820000e+00	 1.533306305071872e+00
 3.747665940260000e+00	 4.737615433940000e+00	 1.485100566988466e+00
 3.676955262140000e+00	 4.808326112060000e+00	 1.442415572627883e+00
 3.606244584020000e+00	 4.879036790180000e+00	 1.405249110694630e+00
 3.535533905900000e+00	 4.949747468300000e+00	 1.373598969874188e+00
 4.348706704280000e+00	 4.348706704280000e+00	 1.838440855106177e+00
 4.277996026159999e+00	 4.419417382400001e+00	 1.766705774248596e+00
 4.207285348040001e+00	 4.490128060520000e+00	 1.699773410270118e+00
 4.136574669920001e+00	 4.560838738640000e+00	 1.637641551988321e+00
 4.065863991800001e+00	 4.631549416760000e+00	 1.580307988201750e+00
 3.995153313680000e+00	 4.702260094880001e+00	 1.527770507689937e+00
 3.924442635560000e+00	 4.772970773000000e+00	 1.480026899213390e+00
 3.853731957440000e+00	 4.843681451120001e+00	 1.437074951513591e+00
 3.783021279320000e+00	 4.914392129239999e+00	 1.398912453313012e+00
 3.712310601200000e+00	 4.985102807360000e+00	 1.365537193315093e+00
 3.641599923080000e+00	 5.055813485480000e+00	 1.336946960204258e+00
 4.454772721459999e+00	 4.454772721459999e+00	 1.747171172909905e+00
 4.384062043339999e+00	 4.525483399580001e+00	 1.684742971175726e+00
 4.313351365220001e+00	 4.596194077700001e+00	 1.626386192116632e+00
 4.242640687100001e+00	 4.666904755820001e+00	 1.572098624549132e+00
 4.171930008980000e+00	 4.737615433939999e+00	 1.521878057270710e+00
 4.101219330860000e+00	 4.808326112060000e+00	 1.475722279059836e+00
 4.030508652740000e+00	 4.879036790180000e+00	 1.433629078675952e+00
 3.959797974620000e+00	 4.949747468300000e+00	 1.395596244859484e+00
 3.889087296500000e+00	 5.020458146420000e+00	 1.361621566331831e+00
 3.818376618379999e+00	 5.091168824540000e+00	 1.331702831795376e+00
 3.747665940260000e+00	 5.161879502660001e+00	 1.305837829933473e+00
 4.560838738640000e+00	 4.560838738640000e+00	 1.664785277618642e+00
 4.490128060520001e+00	 4.631549416760000e+00	 1.611329278430764e+00
 4.419417382400002e+00	 4.702260094880002e+00	 1.561213407727151e+00
 4.348706704280000e+00	 4.772970773000000e+00	 1.514435454323252e+00
 4.277996026160000e+00	 4.843681451119999e+00	 1.470993207015486e+00
 4.207285348040001e+00	 4.914392129240000e+00	 1.430884454581258e+00
 4.136574669920000e+00	 4.985102807360000e+00	 1.394106985778952e+00
 4.065863991800000e+00	 5.055813485480001e+00	 1.360658589347925e+00
 3.995153313679999e+00	 5.126524163600000e+00	 1.330537054008516e+00
 3.924442635560000e+00	 5.197234841720000e+00	 1.303740168462043e+00
 3.853731957440000e+00	 5.267945519840000e+00	 1.280265721390799e+00
 4.666904755820001e+00	 4.666904755820001e+00	 1.591277311455483e+00
 4.596194077700001e+00	 4.737615433939999e+00	 1.546458838239194e+00
 4.525483399580001e+00	 4.808326112060000e+00	 1.504249199329555e+00
 4.454772721460000e+00	 4.879036790180001e+00	 1.464646183540951e+00
 4.384062043340000e+00	 4.949747468300001e+00	 1.427647579668741e+00
 4.313351365220000e+00	 5.020458146420000e+00	 1.393251176489263e+00
 4.242640687100001e+00	 5.091168824540000e+00	 1.361454762759838e+00
 4.171930008980000e+00	 5.161879502660000e+00	 1.332256127218761e+00
 4.101219330860000e+00	 5.232590180780000e+00	 1.305653058585307e+00
 4.030508652740001e+00	 5.303300858900001e+00	 1.281643345559730e+00
 3.959797974620000e+00	 5.374011537020000e+00	 1.260224776823262e+00
 4.772970773000000e+00	 4.772970773000000e+00	 1.526641416561577e+00
 4.702260094880002e+00	 4.843681451120001e+00	 1.490125792744563e+00
 4.631549416760000e+00	 4.914392129240000e+00	 1.455487709069785e+00
 4.560838738640001e+00	 4.985102807360001e+00	 1.422724954350567e+00
 4.490128060520000e+00	 5.055813485480001e+00	 1.391835317381202e+00
 4.419417382400000e+00	 5.126524163600001e+00	 1.362816586936968e+00
 4.348706704280001e+00	 5.197234841719999e+00	 1.335666551774122e+00
 4.277996026160000e+00	 5.267945519840000e+00	 1.310383000629897e+00
 4.207285348039999e+00	 5.338656197960001e+00	 1.286963722222502e+00
 4.136574669920001e+00	 5.409366876080001e+00	 1.265406505251132e+00
 4.065863991800000e+00	 5.480077554200001e+00	 1.245709138395951e+00
 4.879036790180001e+00	 4.879036790180001e+00	 1.470871734996144e+00
 4.808326112060000e+00	 4.949747468300001e+00	 1.442324284008479e+00
 4.737615433940000e+00	 5.020458146419999e+00	 1.414923079011842e+00
 4.666904755820000e+00	 5.091168824540000e+00	 1.388665908818489e+00
 4.596194077700000e+00	 5.161879502660000e+00	 1.363550562221655e+00
 4.525483399580001e+00	 5.232590180780000e+00	 1.339574827995552e+00
 4.454772721460000e+00	 5.303300858899999e+00	 1.316736494895377e+00
 4.384062043340000e+00	 5.374011537020000e+00	 1.295033351657296e+00
 4.313351365220000e+00	 5.444722215140001e+00	 1.274463186998463e+00
 4.242640687100000e+00	 5.515432893260000e+00	 1.255023789617000e+00
 4.171930008980000e+00	 5.586143571379999e+00	 1.236712948192012e+00
 4.985102807360000e+00	 4.985102807360000e+00	 1.423962408736456e+00
 4.914392129239999e+00	 5.055813485480000e+00	 1.403048454010607e+00
 4.843681451120000e+00	 5.126524163600000e+00	 1.382549451137780e+00
 4.772970773000000e+00	 5.197234841720000e+00	 1.362463188929168e+00
 4.702260094880001e+00	 5.267945519840000e+00	 1.342787456176942e+00
 4.631549416760000e+00	 5.338656197960001e+00	 1.323520041654253e+00
 4.560838738639999e+00	 5.409366876079999e+00	 1.304658734115233e+00
 4.490128060520000e+00	 5.480077554200000e+00	 1.286201322294989e+00
 4.419417382399999e+00	 5.550788232319999e+00	 1.268145594909603e+00
 4.348706704280000e+00	 5.621498910440000e+00	 1.250489340656144e+00
 4.277996026160000e+00	 5.692209588560001e+00	 1.233230348212650e+00
 5.091168824540000e+00	 5.091168824540000e+00	 1.385907579677845e+00
 5.020458146420000e+00	 5.161879502660000e+00	 1.372292444648674e+00
 4.949747468299999e+00	 5.232590180779999e+00	 1.358360967347719e+00
 4.879036790180002e+00	 5.303300858900001e+00	 1.344110936585112e+00
 4.808326112060001e+00	 5.374011537020000e+00	 1.329540141151965e+00
 4.737615433939999e+00	 5.444722215140001e+00	 1.314646369820364e+00
 4.666904755819999e+00	 5.515432893259999e+00	 1.299427411343376e+00
 4.596194077699999e+00	 5.586143571379999e+00	 1.283881054455047e+00
 4.525483399580000e+00	 5.656854249500000e+00	 1.268005087870397e+00
 4.454772721460000e+00	 5.727564927620000e+00	 1.251797300285429e+00
 4.384062043340000e+00	 5.798275605740001e+00	 1.235255480377121e+00
 5.197234841720000e+00	 5.197234841720000e+00	 1.356701389633697e+00
 5.126524163599999e+00	 5.267945519840000e+00	 1.350050397738453e+00
 5.055813485480000e+00	 5.338656197960000e+00	 1.342351769459828e+00
 4.985102807360001e+00	 5.409366876080001e+00	 1.333603293606888e+00
 4.914392129239999e+00	 5.480077554199999e+00	 1.323802758969681e+00
 4.843681451120001e+00	 5.550788232320000e+00	 1.312947954319233e+00
 4.772970773000000e+00	 5.621498910440000e+00	 1.301036668407548e+00
 4.702260094879999e+00	 5.692209588559999e+00	 1.288066689967607e+00
 4.631549416760000e+00	 5.762920266680000e+00	 1.274035807713371e+00
 4.560838738639999e+00	 5.833630944799999e+00	 1.258941810339778e+00
 4.490128060520000e+00	 5.904341622920001e+00	 1.242782486522742e+00
 5.303300858900000e+00	 5.303300858900000e+00	 1.336337980335454e+00
 5.232590180780000e+00	 5.374011537020000e+00	 1.336316455013783e+00
 5.161879502660001e+00	 5.444722215140001e+00	 1.334515999210333e+00
 5.091168824540000e+00	 5.515432893260001e+00	 1.330934401733110e+00
 5.020458146420000e+00	 5.586143571380000e+00	 1.325569451371098e+00
 4.949747468300000e+00	 5.656854249500000e+00	 1.318418936894261e+00
 4.879036790180000e+00	 5.727564927620000e+00	 1.309480647053541e+00
 4.808326112060000e+00	 5.798275605739999e+00	 1.298752370580856e+00
 4.737615433939999e+00	 5.868986283860000e+00	 1.286231896189104e+00
 4.666904755820000e+00	 5.939696961979999e+00	 1.271917012572161e+00
 4.596194077700000e+00	 6.010407640100000e+00	 1.255805508404876e+00
 5.303300858900000e+00	 5.303300858900000e+00	 1.336337980335454e+00
 5.232590180780000e+00	 5.374011537020000e+00	 1.336316455013783e+00
 5.161879502660001e+00	 5.444722215140001e+00	 1.334515999210333e+00
 5.091168824540000e+00	 5.515432893260001e+00	 1.330934401733110e+00
 5.020458146420000e+00	 5.586143571380000e+00	 1.325569451371098e+00
 4.949747468300000e+00	 5.656854249500000e+00	 1.318418936894261e+00
 4.879036790180000e+00	 5.727564927620000e+00	 1.309480647053541e+00
 4.808326112060000e+00	 5.798275605739999e+00	 1.298752370580856e+00
 4.737615433939999e+00	 5.868986283860000e+00	 1.286231896189104e+00
 4.666904755820000e+00	 5.939696961979999e+00	 1.271917012572161e+00
 4.596194077700000e+00	 6.010407640100000e+00	 1.255805508404876e+00
 5.409366876080000e+00	 5.409366876080000e+00	 1.323468161767401e+00
 5.338656197960000e+00	 5.480077554199999e+00	 1.321888113150959e+00
 5.267945519840000e+00	 5.550788232320000e+00	 1.318732916646928e+00
 5.197234841720001e+00	 5.621498910440001e+00	 1.314000361062253e+00
 5.126524163600001e+00	 5.692209588560001e+00	 1.307688235184858e+00
 5.055813485480000e+00	 5.762920266679999e+00	 1.299794327783641e+00
 4.985102807360001e+00	 5.833630944799999e+00	 1.290316427608482e+00
 4.914392129239999e+00	 5.904341622920001e+00	 1.279252323390237e+00
 4.843681451120001e+00	 5.975052301040002e+00	 1.266599803840741e+00
 4.772970773000000e+00	 6.045762979160000e+00	 1.252356657652807e+00
 4.702260094880001e+00	 6.116473657279999e+00	 1.236520673500222e+00
 5.515432893260001e+00	 5.515432893260001e+00	 1.311650743856756e+00
 5.444722215140002e+00	 5.586143571380001e+00	 1.308627937425374e+00
 5.374011537020001e+00	 5.656854249500001e+00	 1.304233765713798e+00
 5.303300858900000e+00	 5.727564927620000e+00	 1.298466017527913e+00
 5.232590180780001e+00	 5.798275605740001e+00	 1.291322481654575e+00
 5.161879502660000e+00	 5.868986283860000e+00	 1.282800946861625e+00
 5.091168824540000e+00	 5.939696961980000e+00	 1.272899201897879e+00
 5.020458146420001e+00	 6.010407640100001e+00	 1.261615035493129e+00
 4.949747468300000e+00	 6.081118318220000e+00	 1.248946236358151e+00
 4.879036790180001e+00	 6.151828996340001e+00	 1.234890593184691e+00
 4.808326112060000e+00	 6.222539674460000e+00	 1.219445894645476e+00
 5.621498910440001e+00	 5.621498910440001e+00	 1.300879868089113e+00
 5.550788232320000e+00	 5.692209588560000e+00	 1.296530069325015e+00
 5.480077554200000e+00	 5.762920266680001e+00	 1.291012687901321e+00
 5.409366876080001e+00	 5.833630944800000e+00	 1.284325512622854e+00
 5.338656197960000e+00	 5.904341622919999e+00	 1.276466332275410e+00
 5.267945519840000e+00	 5.975052301040001e+00	 1.267432935625766e+00
 5.197234841719998e+00	 6.045762979159998e+00	 1.257223111421676e+00
 5.126524163599999e+00	 6.116473657279999e+00	 1.245834648391871e+00
 5.055813485480000e+00	 6.187184335400000e+00	 1.233265335246062e+00
 4.985102807360002e+00	 6.257895013520002e+00	 1.219512960674934e+00
 4.914392129240000e+00	 6.328605691640000e+00	 1.204575313350154e+00
 5.727564927620000e+00	 5.727564927620000e+00	 1.291149675868119e+00
 5.656854249499999e+00	 5.798275605740000e+00	 1.285588650255916e+00
 5.586143571380002e+00	 5.868986283860002e+00	 1.279063824617920e+00
 5.515432893260000e+00	 5.939696961980001e+00	 1.271572987757894e+00
 5.444722215140001e+00	 6.010407640100000e+00	 1.263113928460571e+00
 5.374011537020002e+00	 6.081118318220001e+00	 1.253684435491664e+00
 5.303300858900000e+00	 6.151828996340000e+00	 1.243282297597865e+00
 5.232590180780000e+00	 6.222539674460000e+00	 1.231905303506845e+00
 5.161879502660002e+00	 6.293250352580000e+00	 1.219551241927251e+00
 5.091168824540000e+00	 6.363961030700000e+00	 1.206217901548706e+00
 5.020458146420000e+00	 6.434671708820000e+00	 1.191903071041812e+00
 5.833630944800000e+00	 5.833630944800000e+00	 1.282454308515462e+00
 5.762920266680000e+00	 5.904341622920001e+00	 1.275797821542158e+00
 5.692209588560001e+00	 5.975052301040000e+00	 1.268381317190071e+00
 5.621498910440001e+00	 6.045762979160001e+00	 1.260202584261898e+00
 5.550788232320001e+00	 6.116473657280000e+00	 1.251259411541311e+00
 5.480077554200001e+00	 6.187184335400000e+00	 1.241549587792965e+00
 5.409366876080001e+00	 6.257895013520001e+00	 1.231070901762485e+00
 5.338656197960001e+00	 6.328605691640000e+00	 1.219821142176482e+00
 5.267945519840000e+00	 6.399316369759999e+00	 1.207798097742539e+00
 5.197234841720000e+00	 6.470027047879999e+00	 1.194999557149218e+00
 5.126524163600001e+00	 6.540737726000001e+00	 1.181423309066059e+00
 5.939696961980001e+00	 5.939696961980001e+00	 1.274787907270877e+00
 5.868986283860002e+00	 6.010407640100001e+00	 1.267151724425867e+00
 5.798275605740002e+00	 6.081118318220000e+00	 1.258959306862288e+00
 5.727564927620000e+00	 6.151828996340002e+00	 1.250208443381772e+00
 5.656854249500000e+00	 6.222539674459999e+00	 1.240896922766932e+00
 5.586143571380001e+00	 6.293250352580000e+00	 1.231022533781358e+00
 5.515432893260002e+00	 6.363961030700001e+00	 1.220583065169616e+00
 5.444722215140001e+00	 6.434671708820001e+00	 1.209576305657252e+00
 5.374011537020000e+00	 6.505382386940001e+00	 1.198000043950789e+00
 5.303300858900000e+00	 6.576093065060000e+00	 1.185852068737727e+00
 5.232590180780001e+00	 6.646803743180001e+00	 1.173130168686541e+00
 6.045762979160001e+00	 6.045762979160001e+00	 1.268144613292142e+00
 5.975052301040000e+00	 6.116473657279999e+00	 1.259644500067212e+00
 5.904341622920001e+00	 6.187184335400002e+00	 1.250791934797130e+00
 5.833630944800001e+00	 6.257895013520001e+00	 1.241584706282467e+00
 5.762920266680000e+00	 6.328605691640000e+00	 1.232020603304773e+00
 5.692209588560001e+00	 6.399316369760000e+00	 1.222097414626576e+00
 5.621498910440001e+00	 6.470027047880000e+00	 1.211812928991380e+00
 5.550788232320002e+00	 6.540737726000001e+00	 1.201164935123672e+00
 5.480077554200001e+00	 6.611448404120000e+00	 1.190151221728909e+00
 5.409366876080000e+00	 6.682159082240000e+00	 1.178769577493530e+00
 5.338656197960001e+00	 6.752869760360000e+00	 1.167017791084949e+00
 6.151828996340001e+00	 6.151828996340001e+00	 1.262518567655079e+00
 6.081118318220001e+00	 6.222539674460001e+00	 1.253270289544404e+00
 6.010407640100002e+00	 6.293250352580002e+00	 1.243873342075200e+00
 5.939696961980001e+00	 6.363961030700001e+00	 1.234325514046974e+00
 5.868986283860002e+00	 6.434671708820002e+00	 1.224624594240215e+00
 5.798275605740002e+00	 6.505382386940001e+00	 1.214768371416391e+00
 5.727564927620000e+00	 6.576093065060000e+00	 1.204754634317944e+00
 5.656854249500001e+00	 6.646803743180000e+00	 1.194581171668297e+00
 5.586143571380001e+00	 6.717514421300001e+00	 1.184245772171845e+00
 5.515432893260001e+00	 6.788225099420000e+00	 1.173746224513968e+00
 5.444722215140001e+00	 6.858935777540001e+00	 1.163080317361014e+00
 6.257895013520000e+00	 6.257895013520000e+00	 1.257903911353547e+00
 6.187184335400000e+00	 6.328605691640000e+00	 1.248023233853693e+00
 6.116473657280001e+00	 6.399316369760002e+00	 1.238197669695136e+00
 6.045762979160000e+00	 6.470027047880000e+00	 1.228425007676323e+00
 5.975052301040002e+00	 6.540737726000001e+00	 1.218703036576683e+00
 5.904341622920001e+00	 6.611448404119999e+00	 1.209029545156616e+00
 5.833630944800000e+00	 6.682159082240000e+00	 1.199402322157510e+00
 5.762920266680001e+00	 6.752869760360000e+00	 1.189819156301720e+00
 5.692209588560001e+00	 6.823580438480001e+00	 1.180277836292584e+00
 5.621498910440001e+00	 6.894291116600001e+00	 1.170776150814415e+00
 5.550788232320000e+00	 6.965001794720001e+00	 1.161311888532502e+00
 6.363961030700000e+00	 6.363961030700000e+00	 1.254294785299447e+00
 6.293250352580001e+00	 6.434671708820001e+00	 1.243897473909369e+00
 6.222539674459999e+00	 6.505382386939999e+00	 1.233759058573620e+00
 6.151828996340001e+00	 6.576093065060000e+00	 1.223877328089587e+00
 6.081118318220000e+00	 6.646803743180000e+00	 1.214250071235634e+00
 6.010407640100000e+00	 6.717514421300000e+00	 1.204875076771105e+00
 5.939696961979999e+00	 6.788225099420000e+00	 1.195750133436320e+00
 5.868986283860000e+00	 6.858935777539999e+00	 1.186873029952576e+00
 5.798275605740001e+00	 6.929646455660000e+00	 1.178241555022148e+00
 5.727564927620000e+00	 7.000357133780000e+00	 1.169853497328287e+00
 5.656854249500000e+00	 7.071067811900000e+00	 1.161706645535223e+00
 3.535533905900000e+00	 4.949747468300000e+00	 8.451439160423493e-01
 3.217335854379000e+00	 5.267945519839500e+00	 8.236365462610445e-01
 2.899137802856000e+00	 5.586143571378001e+00	 8.016050823599852e-01
 2.580939751331000e+00	 5.904341622915500e+00	 7.858598666203185e-01
 2.262741699804000e+00	 6.222539674452000e+00	 7.676422981899050e-01
 1.944543648275000e+00	 6.540737725987500e+00	 7.473378291064928e-01
 1.626345596744000e+00	 6.858935777521999e+00	 7.253319286965977e-01
 1.308147545211000e+00	 7.177133829055500e+00	 7.020100835765120e-01
 9.899494936760004e-01	 7.495331880588001e+00	 6.777577976533319e-01
 6.717514421390002e-01	 7.813529932119500e+00	 6.529605921259606e-01
 3.535533906000000e-01	 8.131727983650000e+00	 6.280040054861262e-01
 3.641599923080000e+00	 5.055813485480000e+00	 8.876494160772597e-01
 3.323401871558908e+00	 5.374011537019409e+00	 8.613189869603907e-01
 3.005203820035829e+00	 5.692209588557827e+00	 8.338416104594224e-01
 2.687005768510768e+00	 6.010407640095268e+00	 8.127525335615660e-01
 2.368807716983719e+00	 6.328605691631719e+00	 7.918183561223088e-01
 2.050609665454688e+00	 6.646803743167188e+00	 7.693980349924087e-01
 1.732411613923670e+00	 6.965001794701669e+00	 7.458770388925358e-01
 1.414213562390668e+00	 7.283199846235167e+00	 7.216408538331860e-01
 1.096015510855681e+00	 7.601397897767681e+00	 6.970749831156977e-01
 7.778174593187080e-01	 7.919595949299207e+00	 6.725649473332568e-01
 4.596194077797500e-01	 8.237794000829751e+00	 6.484962843719315e-01
 3.747665940260000e+00	 5.161879502660001e+00	 9.286565554862186e-01
 3.429467888738630e+00	 5.480077554199131e+00	 8.975673586275688e-01
 3.111269837215319e+00	 5.798275605737318e+00	 8.660225458809732e-01
 2.793071785690070e+00	 6.116473657274569e+00	 8.383173773585220e-01
 2.474873734162880e+00	 6.434671708810881e+00	 8.147091428828275e-01
 2.156675682633750e+00	 6.752869760346252e+00	 7.902155209038600e-01
 1.838477631102680e+00	 7.071067811880678e+00	 7.652219795364272e-01
 1.520279579569670e+00	 7.389265863414171e+00	 7.401140041851959e-01
 1.202081528034720e+00	 7.707463914946717e+00	 7.152770975457210e-01
 8.838834764978303e-01	 8.025661966478330e+00	 6.910967796054576e-01
 5.656854249590001e-01	 8.343860018009002e+00	 6.679585876447659e-01
 3.853731957440000e+00	 5.267945519840000e+00	 9.681594765983008e-01
 3.535533905918168e+00	 5.586143571378667e+00	 9.323758036024004e-01
 3.217335854394470e+00	 5.904341622916472e+00	 8.968278464820273e-01
 2.899137802868907e+00	 6.222539674453408e+00	 8.625787318040875e-01
 2.580939751341480e+00	 6.540737725989480e+00	 8.363389923316741e-01
 2.262741699812188e+00	 6.858935777524687e+00	 8.098146207683659e-01
 1.944543648281030e+00	 7.177133829059030e+00	 7.833910846230785e-01
 1.626345596748008e+00	 7.495331880592508e+00	 7.574538686946393e-01
 1.308147545213121e+00	 7.813529932125118e+00	 7.323884750727947e-01
 9.899494936763680e-01	 8.131727983656866e+00	 7.085804231392274e-01
 6.717514421377502e-01	 8.449926035187751e+00	 6.864152495685721e-01
 3.959797974620000e+00	 5.374011537020000e+00	 1.006152321660641e+00
 3.641599923097520e+00	 5.692209588558019e+00	 9.657384641427734e-01
 3.323401871573279e+00	 6.010407640095282e+00	 9.262516545312245e-01
 3.005203820047280e+00	 6.328605691631781e+00	 8.874903721018941e-01
 2.687005768519520e+00	 6.646803743167519e+00	 8.567322386322611e-01
 2.368807716990000e+00	 6.965001794702500e+00	 8.282196688166386e-01
 2.050609665458720e+00	 7.283199846236720e+00	 8.004086884505113e-01
 1.732411613925680e+00	 7.601397897770181e+00	 7.736847817268355e-01
 1.414213562390880e+00	 7.919595949302879e+00	 7.484334501295222e-01
 1.096015510854320e+00	 8.237794000834819e+00	 7.250402124344613e-01
 7.778174593160000e-01	 8.555992052366001e+00	 7.038906047105261e-01
 4.065863991800000e+00	 5.480077554200001e+00	 1.042629232838437e+00
 3.747665940276688e+00	 5.798275605737188e+00	 9.976494824246338e-01
 3.429467888751750e+00	 6.116473657273752e+00	 9.542881122152711e-01
 3.111269837225187e+00	 6.434671708809688e+00	 9.123436013893232e-01
 2.793071785697000e+00	 6.752869760345000e+00	 8.759132162512080e-01
 2.474873734167188e+00	 7.071067811879688e+00	 8.454549995826088e-01
 2.156675682635750e+00	 7.389265863413750e+00	 8.162991256199601e-01
 1.838477631102688e+00	 7.707463914947187e+00	 7.888310779503163e-01
 1.520279579568000e+00	 8.025661966480001e+00	 7.634363574517347e-01
 1.202081528031688e+00	 8.343860018012187e+00	 7.405004822942778e-01
 8.838834764937499e-01	 8.662058069543750e+00	 7.204089879410296e-01
 4.171930008980000e+00	 5.586143571379999e+00	 1.077584352214945e+00
 3.853731957455669e+00	 5.904341622916171e+00	 1.028103000541984e+00
 3.535533905929880e+00	 6.222539674451879e+00	 9.809313616389207e-01
 3.217335854402630e+00	 6.540737725987129e+00	 9.358679145878310e-01
 2.899137802873920e+00	 6.858935777521920e+00	 8.939062599583496e-01
 2.580939751343750e+00	 7.177133829056250e+00	 8.615449479034268e-01
 2.262741699812119e+00	 7.495331880590119e+00	 8.310867310358778e-01
 1.944543648279030e+00	 7.813529932123529e+00	 8.029170923368438e-01
 1.626345596744480e+00	 8.131727983656479e+00	 7.774215320784904e-01
 1.308147545208470e+00	 8.449926035188970e+00	 7.549855678250306e-01
 9.899494936710000e-01	 8.768124086721002e+00	 7.359947344337253e-01
 4.277996026160000e+00	 5.692209588560001e+00	 1.111011821791475e+00
 3.959797974634466e+00	 6.010407640094966e+00	 1.057093160506885e+00
 3.641599923107670e+00	 6.328605691629670e+00	 1.006175544824991e+00
 3.323401871579608e+00	 6.646803743164107e+00	 9.580574537309919e-01
 3.005203820050280e+00	 6.965001794698281e+00	 9.125373584085912e-01
 2.687005768519688e+00	 7.283199846232187e+00	 8.765138489194597e-01
 2.368807716987829e+00	 7.601397897765828e+00	 8.447958399059494e-01
 2.050609665454707e+00	 7.919595949299208e+00	 8.159671601614054e-01
 1.732411613920320e+00	 8.237794000832318e+00	 7.904133093520833e-01
 1.414213562384668e+00	 8.555992052365168e+00	 7.685198044363123e-01
 1.096015510847750e+00	 8.874190103897751e+00	 7.506721796654978e-01
 4.384062043340000e+00	 5.798275605740001e+00	 1.142905783487395e+00
 4.065863991813079e+00	 6.116473657273579e+00	 1.084614104249454e+00
 3.747665940285120e+00	 6.434671708807119e+00	 1.030014803714350e+00
 3.429467888756119e+00	 6.752869760340618e+00	 9.789063607704322e-01
 3.111269837226079e+00	 7.071067811874079e+00	 9.310872465045033e-01
 2.793071785695000e+00	 7.389265863407500e+00	 8.903860380743042e-01
 2.474873734162880e+00	 7.707463914940878e+00	 8.574507877410873e-01
 2.156675682629720e+00	 8.025661966474219e+00	 8.280056170022296e-01
 1.838477631095520e+00	 8.343860018007520e+00	 8.024360249180467e-01
 1.520279579560280e+00	 8.662058069540779e+00	 7.811275278409537e-01
 1.202081528024000e+00	 8.980256121074001e+00	 7.644656594164780e-01
 4.490128060520000e+00	 5.904341622920001e+00	 1.173260379140130e+00
 4.171930008991507e+00	 6.222539674452007e+00	 1.110659973617857e+00
 3.853731957462230e+00	 6.540737725984229e+00	 1.052443280165918e+00
 3.535533905932168e+00	 6.858935777516667e+00	 9.984087775758337e-01
 3.217335854401320e+00	 7.177133829049320e+00	 9.483549368375248e-01
 2.899137802869687e+00	 7.495331880582187e+00	 9.031858511147929e-01
 2.580939751337270e+00	 7.813529932115271e+00	 8.690759103554448e-01
 2.262741699804068e+00	 8.131727983648567e+00	 8.390567987407830e-01
 1.944543648270080e+00	 8.449926035182079e+00	 8.135140147251589e-01
 1.626345596735308e+00	 8.768124086715808e+00	 7.928330740550441e-01
 1.308147545199750e+00	 9.086322138249749e+00	 7.773995097700519e-01
 4.596194077700000e+00	 6.010407640100000e+00	 1.202069750505152e+00
 4.277996026169750e+00	 6.328605691630251e+00	 1.135224910378315e+00
 3.959797974639000e+00	 6.646803743160999e+00	 1.073455115956668e+00
 3.641599923107750e+00	 6.965001794692250e+00	 1.016558845934927e+00
 3.323401871576000e+00	 7.283199846224001e+00	 9.643345712061485e-01
 3.005203820043750e+00	 7.601397897756250e+00	 9.165807548613032e-01
 2.687005768511000e+00	 7.919595949288999e+00	 8.796955438664138e-01
 2.368807716977750e+00	 8.237794000822250e+00	 8.491450415617789e-01
 2.050609665444000e+00	 8.555992052356002e+00	 8.236716150254466e-01
 1.732411613909750e+00	 8.874190103890250e+00	 8.036607793979214e-01
 1.414213562375000e+00	 9.192388155425000e+00	 7.894980671128661e-01
 3.535533906000000e-01	 8.131727983650000e+00	 6.280040054861262e-01
 3.535533906099975e-02	 8.449926035180502e+00	 6.785724272139326e-01
-2.828427124760007e-01	 8.768124086712003e+00	 7.213467715977429e-01
-6.010407640110009e-01	 9.086322138244501e+00	 7.567126290137862e-01
-9.192388155440012e-01	 9.404520189778001e+00	 7.850556071350664e-01
-1.237436867075001e+00	 9.722718241312503e+00	 8.067613309323882e-01
-1.555634918604002e+00	 1.004091629284800e+01	 8.222154426753772e-01
-1.873832970131002e+00	 1.035911434438450e+01	 8.334298708461158e-01
-2.192031021656002e+00	 1.067731239592200e+01	 8.717416096599285e-01
-2.510229073179003e+00	 1.099551044746050e+01	 9.031134240052593e-01
-2.828427124700000e+00	 1.131370849900000e+01	 9.274450671504743e-01
 4.596194077797500e-01	 8.237794000829751e+00	 6.484962843719315e-01
 1.414213562406073e-01	 8.555992052360297e+00	 6.948483295297904e-01
-1.767766952969206e-01	 8.874190103891841e+00	 7.334162970374580e-01
-4.949747468328333e-01	 9.192388155424377e+00	 7.645857766657029e-01
-8.131727983671312e-01	 9.510586206957910e+00	 7.887423754821272e-01
-1.131370849899814e+00	 9.828784258492435e+00	 8.062717178521861e-01
-1.449568901430882e+00	 1.014698231002796e+01	 8.175594454402013e-01
-1.767766952960334e+00	 1.046518036156448e+01	 8.364609492490728e-01
-2.085965004488173e+00	 1.078337841310199e+01	 8.709513325061307e-01
-2.404163056014395e+00	 1.110157646464050e+01	 8.986147744404319e-01
-2.722361107539000e+00	 1.141977451618000e+01	 9.193510283203973e-01
 5.656854249590001e-01	 8.343860018009002e+00	 6.679585876447659e-01
 2.474873734198297e-01	 8.662058069539690e+00	 7.102241413669956e-01
-7.071067811808075e-02	 8.980256121071360e+00	 7.447156163576876e-01
-3.889087296547308e-01	 9.298454172604014e+00	 7.718186017821127e-01
-7.071067811901213e-01	 9.616652224137640e+00	 7.919187041024429e-01
-1.025304832724251e+00	 9.934850275672252e+00	 8.054015470787491e-01
-1.343502884257122e+00	 1.025304832720784e+01	 8.126527717700295e-01
-1.661700935788732e+00	 1.057124637874441e+01	 8.396594475416358e-01
-1.979898987319082e+00	 1.088944443028196e+01	 8.704763545871897e-01
-2.298097038848173e+00	 1.120764248182049e+01	 8.945793034557121e-01
-2.616295090376000e+00	 1.152584053336000e+01	 9.118680474156784e-01
 6.717514421377502e-01	 8.449926035187751e+00	 6.864152495685721e-01
 3.535533905986671e-01	 8.768124086718677e+00	 7.247241970567763e-01
 3.535533906051937e-02	 9.086322138250562e+00	 7.552690639569228e-01
-2.828427124766934e-01	 9.404520189783398e+00	 7.784354388287693e-01
-6.010407640129711e-01	 9.722718241317191e+00	 7.946089275290146e-01
-9.192388155483140e-01	 1.004091629285194e+01	 8.041751532123258e-01
-1.237436867082722e+00	 1.035911434438765e+01	 8.092233344520784e-01
-1.555634918616195e+00	 1.067731239592430e+01	 8.430153729312836e-01
-1.873832970148733e+00	 1.099551044746191e+01	 8.703066831105838e-01
-2.192031021680336e+00	 1.131370849900048e+01	 8.909970182585738e-01
-2.510229073211000e+00	 1.163190655054000e+01	 9.049861316437848e-01
 7.778174593160000e-01	 8.555992052366001e+00	 7.038906047105261e-01
 4.596194077771197e-01	 8.874190103897261e+00	 7.383728312335807e-01
 1.414213562388793e-01	 9.192388155429441e+00	 7.651009745368913e-01
-1.767766952987209e-01	 9.510586206962541e+00	 7.844606225746603e-01
-4.949747468356811e-01	 9.828784258496562e+00	 7.968373805980892e-01
-8.131727983720015e-01	 1.014698231003150e+01	 8.026168711564013e-01
-1.131370849907681e+00	 1.046518036156736e+01	 8.162173948129694e-01
-1.449568901442722e+00	 1.078337841310414e+01	 8.465187326254957e-01
-1.767766952977122e+00	 1.110157646464184e+01	 8.704323252837869e-01
-2.085965004510883e+00	 1.141977451618046e+01	 8.878579260564891e-01
-2.404163056044000e+00	 1.173797256772000e+01	 8.986952882121827e-01
 8.838834764937499e-01	 8.662058069543750e+00	 7.204089879410296e-01
 5.656854249551873e-01	 8.980256121075440e+00	 7.511943788351031e-01
 2.474873734169993e-01	 9.298454172608000e+00	 7.742356831025583e-01
-7.071067812081344e-02	 9.616652224141438e+00	 7.899184880920171e-01
-3.889087296582510e-01	 9.934850275675750e+00	 7.986283984491573e-01
-7.071067811953139e-01	 1.025304832721094e+01	 8.007510361177206e-01
-1.025304832732002e+00	 1.057124637874700e+01	 8.232010173406519e-01
-1.343502884268315e+00	 1.088944443028394e+01	 8.501595338317484e-01
-1.661700935804252e+00	 1.120764248182175e+01	 8.708432883142767e-01
-1.979898987339815e+00	 1.152584053336044e+01	 8.851520340569292e-01
-2.298097038875000e+00	 1.184403858490000e+01	 8.929855243283409e-01
 9.899494936710000e-01	 8.768124086721002e+00	 7.359947344337253e-01
 6.717514421328696e-01	 9.086322138253211e+00	 7.632131751022719e-01
 3.535533905948793e-01	 9.404520189786242e+00	 7.826975249621373e-01
 3.535533905702911e-02	 9.722718241320093e+00	 7.948333707563274e-01
-2.828427124806811e-01	 1.004091629285476e+01	 8.000063165249602e-01
-6.010407640182518e-01	 1.035911434439025e+01	 8.003391025959868e-01
-9.192388155556818e-01	 1.067731239592656e+01	 8.301642092426019e-01
-1.237436867092972e+00	 1.099551044746369e+01	 8.539277837575175e-01
-1.555634918630122e+00	 1.131370849900164e+01	 8.715295794095269e-01
-1.873832970167133e+00	 1.163190655054041e+01	 8.828693494673683e-01
-2.192031021704000e+00	 1.195010460208000e+01	 8.878468471997261e-01
 1.096015510847750e+00	 8.874190103897751e+00	 7.506721796654978e-01
 7.778174593101670e-01	 9.192388155430578e+00	 7.744535555792669e-01
 4.596194077725194e-01	 9.510586206964160e+00	 7.905108357270867e-01
 1.414213562348066e-01	 9.828784258498498e+00	 7.992296062463243e-01
-1.767766953029712e-01	 1.014698231003359e+01	 8.009954705715094e-01
-4.949747468408140e-01	 1.046518036156944e+01	 8.104319168562253e-01
-8.131727983787219e-01	 1.078337841310604e+01	 8.370969777262947e-01
-1.131370849916695e+00	 1.110157646464340e+01	 8.578134896102795e-01
-1.449568901454732e+00	 1.141977451618151e+01	 8.724812057770129e-01
-1.767766952992835e+00	 1.173797256772038e+01	 8.809998794952772e-01
-2.085965004531000e+00	 1.205617061926000e+01	 8.832692640338070e-01
 1.202081528024000e+00	 8.980256121074001e+00	 7.644656594164780e-01
 8.838834764870794e-01	 9.298454172607540e+00	 7.849398561135134e-01
 5.656854249499194e-01	 9.616652224141761e+00	 7.976999513121249e-01
 2.474873734125191e-01	 9.934850275676661e+00	 8.031315305440047e-01
-7.071067812512116e-02	 1.025304832721224e+01	 8.016201966380663e-01
-3.889087296630014e-01	 1.057124637874850e+01	 8.203364355604251e-01
-7.071067812011217e-01	 1.088944443028544e+01	 8.439893299992054e-01
-1.025304832739482e+00	 1.120764248182306e+01	 8.618066585975086e-01
-1.343502884278083e+00	 1.152584053336136e+01	 8.736881746242081e-01
-1.661700935816923e+00	 1.184403858490034e+01	 8.795336313481295e-01
-1.979898987356000e+00	 1.216223663644000e+01	 8.792427820380522e-01
 1.308147545199750e+00	 9.086322138249749e+00	 7.773995097700519e-01
 9.899494936636072e-01	 9.404520189784098e+00	 7.946964128556984e-01
 6.717514421270792e-01	 9.722718241319040e+00	 8.042892079352281e-01
 3.535533905901665e-01	 1.004091629285458e+01	 8.065634799346335e-01
 3.535533905286879e-02	 1.035911434439071e+01	 8.036317225994809e-01
-2.828427124848140e-01	 1.067731239592744e+01	 8.300426659160571e-01
-6.010407640228819e-01	 1.099551044746476e+01	 8.508312732688064e-01
-9.192388155613346e-01	 1.131370849900268e+01	 8.658972979266804e-01
-1.237436867100172e+00	 1.163190655054119e+01	 8.751404931585871e-01
-1.555634918639395e+00	 1.195010460208030e+01	 8.784606122333963e-01
-1.873832970179000e+00	 1.226830265362000e+01	 8.757574084199296e-01
 1.414213562375000e+00	 9.192388155425000e+00	 7.894980671128661e-01
 1.096015510839750e+00	 9.510586206960253e+00	 8.037475622597715e-01
 7.778174593039995e-01	 9.828784258496002e+00	 8.103029421176441e-01
 4.596194077677492e-01	 1.014698231003225e+01	 8.095497910067406e-01
 1.414213562309989e-01	 1.046518036156900e+01	 8.159590627003471e-01
-1.767766953062514e-01	 1.078337841310625e+01	 8.395406151305927e-01
-4.949747468440017e-01	 1.110157646464400e+01	 8.576128147425717e-01
-8.131727983822520e-01	 1.141977451618225e+01	 8.700754148052672e-01
-1.131370849921002e+00	 1.173797256772100e+01	 8.768281685876232e-01
-1.449568901460252e+00	 1.205617061926025e+01	 8.777708293585484e-01
-1.767766953000000e+00	 1.237436867080000e+01	 8.728031503869101e-01
 4.596194077700000e+00	 6.010407640100000e+00	 1.202069750505152e+00
 4.277996026169750e+00	 6.328605691630251e+00	 1.135224910378315e+00
 3.959797974639000e+00	 6.646803743160999e+00	 1.073455115956668e+00
 3.641599923107750e+00	 6.965001794692250e+00	 1.016558845934927e+00
 3.323401871576000e+00	 7.283199846224001e+00	 9.643345712061485e-01
 3.005203820043750e+00	 7.601397897756250e+00	 9.165807548613032e-01
 2.687005768511000e+00	 7.919595949288999e+00	 8.796955438664138e-01
 2.368807716977750e+00	 8.237794000822250e+00	 8.491450415617789e-01
 2.050609665444000e+00	 8.555992052356002e+00	 8.236716150254466e-01
 1.732411613909750e+00	 8.874190103890250e+00	 8.036607793979214e-01
 1.414213562375000e+00	 9.192388155425000e+00	 7.894980671128661e-01
 4.702260094880001e+00	 6.116473657279999e+00	 1.194361429703303e+00
 4.384062043347993e+00	 6.434671708808493e+00	 1.131360696078246e+00
 4.065863991815769e+00	 6.752869760337770e+00	 1.073132524421830e+00
 3.747665940283332e+00	 7.071067811867834e+00	 1.019475393331773e+00
 3.429467888750680e+00	 7.389265863398680e+00	 9.701877736041137e-01
 3.111269837217813e+00	 7.707463914930313e+00	 9.250681282327960e-01
 2.793071785684730e+00	 8.025661966462728e+00	 8.876056470516798e-01
 2.474873734151432e+00	 8.343860017995931e+00	 8.586276478910497e-01
 2.156675682617920e+00	 8.662058069529921e+00	 8.343336542534731e-01
 1.838477631084193e+00	 8.980256121064693e+00	 8.151091806735012e-01
 1.520279579550250e+00	 9.298454172600250e+00	 8.013397589789091e-01
 4.808326112060000e+00	 6.222539674460000e+00	 1.187484734215326e+00
 4.490128060526420e+00	 6.540737725986919e+00	 1.128158767215730e+00
 4.171930008992881e+00	 6.858935777514880e+00	 1.073302878715618e+00
 3.853731957459380e+00	 7.177133829043878e+00	 1.022715547215724e+00
 3.535533905925920e+00	 7.495331880573918e+00	 9.761952434150900e-01
 3.217335854392500e+00	 7.813529932105001e+00	 9.335404302106456e-01
 2.899137802859121e+00	 8.131727983637120e+00	 8.955457111492957e-01
 2.580939751325780e+00	 8.449926035170282e+00	 8.679491338756292e-01
 2.262741699792481e+00	 8.768124086704479e+00	 8.446434911046670e-01
 1.944543648259220e+00	 9.086322138239719e+00	 8.260142967649793e-01
 1.626345596726000e+00	 9.404520189776003e+00	 8.124470820784255e-01
 4.914392129240000e+00	 6.328605691640000e+00	 1.181433805550702e+00
 4.596194077705031e+00	 6.646803743165531e+00	 1.125613265311016e+00
 4.277996026170331e+00	 6.965001794692331e+00	 1.073960320369058e+00
 3.959797974635893e+00	 7.283199846220391e+00	 1.026273449128589e+00
 3.641599923101720e+00	 7.601397897749719e+00	 9.823511221916708e-01
 3.323401871567813e+00	 7.919595949280311e+00	 9.419918023582339e-01
 3.005203820034170e+00	 8.237794000812169e+00	 9.049939446256534e-01
 2.687005768500793e+00	 8.555992052345292e+00	 8.771338366100282e-01
 2.368807716967681e+00	 8.874190103879682e+00	 8.546254627408740e-01
 2.050609665434833e+00	 9.192388155415331e+00	 8.364004649015282e-01
 1.732411613902251e+00	 9.510586206952253e+00	 8.228443737079044e-01
 5.020458146420000e+00	 6.434671708820000e+00	 1.176202785136955e+00
 4.702260094883831e+00	 6.752869760344332e+00	 1.123718331802405e+00
 4.384062043348120e+00	 7.071067811870121e+00	 1.075098990831224e+00
 4.065863991812869e+00	 7.389265863397370e+00	 1.030143240530223e+00
 3.747665940278081e+00	 7.707463914926081e+00	 9.886495514044966e-01
 3.429467888743750e+00	 8.025661966456250e+00	 9.504163861569881e-01
 3.111269837209881e+00	 8.343860017987883e+00	 9.152421996880731e-01
 2.793071785676470e+00	 8.662058069520970e+00	 8.862060934920247e-01
 2.474873734143521e+00	 8.980256121055522e+00	 8.643039066272139e-01
 2.156675682611031e+00	 9.298454172591534e+00	 8.462920226155999e-01
 1.838477631079000e+00	 9.616652224129000e+00	 8.325559714671182e-01
 5.126524163600001e+00	 6.540737726000001e+00	 1.171785814319658e+00
 4.808326112062812e+00	 6.858935777523310e+00	 1.122468108046236e+00
 4.490128060526250e+00	 7.177133829048250e+00	 1.076713031469233e+00
 4.171930008990314e+00	 7.495331880574812e+00	 1.034319062798523e+00
 3.853731957455000e+00	 7.813529932103002e+00	 9.950846724422444e-01
 3.535533905920313e+00	 8.131727983632812e+00	 9.588083230063728e-01
 3.217335854386251e+00	 8.449926035164252e+00	 9.252884692942939e-01
 2.899137802852813e+00	 8.768124086697311e+00	 8.951902422226760e-01
 2.580939751320001e+00	 9.086322138232001e+00	 8.737031605320880e-01
 2.262741699787813e+00	 9.404520189768313e+00	 8.557133077429266e-01
 1.944543648256250e+00	 9.722718241306250e+00	 8.416062132591274e-01
 5.232590180780001e+00	 6.646803743180001e+00	 1.168177034362422e+00
 4.914392129241980e+00	 6.965001794702480e+00	 1.121856735316893e+00
 4.596194077704721e+00	 7.283199846226719e+00	 1.078796583568243e+00
 4.277996026168221e+00	 7.601397897752721e+00	 1.038795057229423e+00
 3.959797974632481e+00	 7.919595949280481e+00	 1.001650626611635e+00
 3.641599923097501e+00	 8.237794000810002e+00	 9.671617542238951e-01
 3.323401871563281e+00	 8.555992052341281e+00	 9.351268947726068e-01
 3.005203820029821e+00	 8.874190103874323e+00	 9.053444951611425e-01
 2.687005768497121e+00	 9.192388155409120e+00	 8.828475625271780e-01
 2.368807716965181e+00	 9.510586206945682e+00	 8.646886584225335e-01
 2.050609665434000e+00	 9.828784258483999e+00	 8.500194372902848e-01
 5.338656197960001e+00	 6.752869760360000e+00	 1.165370586446904e+00
 5.020458146421332e+00	 7.071067811881830e+00	 1.121878354806801e+00
 4.702260094883530e+00	 7.389265863405529e+00	 1.081343788331451e+00
 4.384062043346592e+00	 7.707463914931092e+00	 1.043565365036901e+00
 4.065863991810521e+00	 8.025661966458522e+00	 1.008341555137426e+00
 3.747665940275313e+00	 8.343860017987812e+00	 9.754708210450934e-01
 3.429467888740971e+00	 8.662058069518972e+00	 9.447516173693447e-01
 3.111269837207493e+00	 8.980256121051994e+00	 9.159823909165642e-01
 2.793071785674881e+00	 9.298454172586881e+00	 8.917614509874607e-01
 2.474873734143133e+00	 9.616652224123634e+00	 8.732424130967387e-01
 2.156675682612251e+00	 9.934850275662251e+00	 8.578199820702415e-01
 5.444722215140001e+00	 6.858935777540001e+00	 1.163360611672802e+00
 5.126524163600871e+00	 7.177133829061370e+00	 1.122527107626424e+00
 4.808326112062681e+00	 7.495331880584680e+00	 1.084348786880095e+00
 4.490128060525431e+00	 7.813529932109931e+00	 1.048624127352969e+00
 4.171930008989120e+00	 8.131727983637120e+00	 1.015151599162408e+00
 3.853731957453751e+00	 8.449926035166250e+00	 9.837296646235483e-01
 3.535533905919320e+00	 8.768124086697320e+00	 9.541567782488727e-01
 3.217335854385831e+00	 9.086322138230331e+00	 9.262313867477872e-01
 2.899137802853281e+00	 9.404520189765281e+00	 9.004691645912074e-01
 2.580939751321671e+00	 9.722718241302172e+00	 8.813989105111599e-01
 2.262741699791000e+00	 1.004091629284100e+01	 8.650321864119508e-01
 5.550788232320000e+00	 6.965001794720001e+00	 1.162141251057846e+00
 5.232590180780594e+00	 7.283199846241094e+00	 1.123797134804261e+00
 4.914392129242171e+00	 7.601397897764170e+00	 1.087805720253446e+00
 4.596194077704732e+00	 7.919595949289233e+00	 1.053965485227678e+00
 4.277996026168281e+00	 8.237794000816283e+00	 1.022074899747416e+00
 3.959797974632814e+00	 8.555992052345315e+00	 9.919324260308717e-01
 3.641599923098331e+00	 8.874190103876332e+00	 9.633365184935864e-01
 3.323401871564833e+00	 9.192388155409333e+00	 9.360856237479982e-01
 3.005203820032321e+00	 9.510586206944321e+00	 9.099781806030198e-01
 2.687005768500794e+00	 9.828784258481294e+00	 8.891824897147208e-01
 2.368807716970251e+00	 1.014698231002025e+01	 8.716803894316800e-01
 5.656854249500000e+00	 7.071067811900000e+00	 1.161706645537811e+00
 5.338656197960500e+00	 7.389265863421000e+00	 1.125682577286852e+00
 5.020458146422000e+00	 7.707463914944000e+00	 1.091708729408815e+00
 4.702260094884500e+00	 8.025661966469000e+00	 1.059583579629109e+00
 4.384062043348000e+00	 8.343860017996001e+00	 1.029105597871306e+00
 4.065863991812500e+00	 8.662058069525001e+00	 1.000073246256707e+00
 3.747665940277999e+00	 8.980256121056000e+00	 9.722849791039163e-01
 3.429467888744500e+00	 9.298454172589000e+00	 9.455392429284143e-01
 3.111269837212000e+00	 9.616652224124001e+00	 9.196344764421313e-01
 2.793071785680500e+00	 9.934850275660999e+00	 8.966174900596532e-01
 2.474873734150000e+00	 1.025304832720000e+01	 8.777889305490054e-01
 1.414213562375000e+00	 9.192388155425000e+00	 7.894980671128661e-01
 1.096015510839750e+00	 9.510586206960253e+00	 8.037475622597715e-01
 7.778174593039995e-01	 9.828784258496002e+00	 8.103029421176441e-01
 4.596194077677492e-01	 1.014698231003225e+01	 8.095497910067406e-01
 1.414213562309989e-01	 1.046518036156900e+01	 8.159590627003471e-01
-1.767766953062514e-01	 1.078337841310625e+01	 8.395406151305927e-01
-4.949747468440017e-01	 1.110157646464400e+01	 8.576128147425717e-01
-8.131727983822520e-01	 1.141977451618225e+01	 8.700754148052672e-01
-1.131370849921002e+00	 1.173797256772100e+01	 8.768281685876232e-01
-1.449568901460252e+00	 1.205617061926025e+01	 8.777708293585484e-01
-1.767766953000000e+00	 1.237436867080000e+01	 8.728031503869101e-01
 1.520279579550250e+00	 9.298454172600250e+00	 8.013397589789091e-01
 1.202081528015902e+00	 9.616652224136393e+00	 8.115004289854142e-01
 8.838834764809596e-01	 9.934850275672924e+00	 8.142264568071784e-01
 5.656854249454217e-01	 1.025304832720983e+01	 8.099034261586606e-01
 2.474873734092890e-01	 1.057124637874713e+01	 8.252860155744521e-01
-7.071067812743882e-02	 1.088944443028482e+01	 8.460126781715600e-01
-3.889087296647616e-01	 1.120764248182288e+01	 8.615924522582314e-01
-7.071067812026793e-01	 1.152584053336133e+01	 8.719250911034260e-01
-1.025304832741192e+00	 1.184403858490017e+01	 8.769103479760604e-01
-1.343502884280300e+00	 1.216223663643940e+01	 8.764479761450127e-01
-1.661700935820000e+00	 1.248043468797900e+01	 8.704377288791204e-01
 1.626345596726000e+00	 9.404520189776003e+00	 8.124470820784255e-01
 1.308147545192460e+00	 9.722718241312920e+00	 8.186571304422599e-01
 9.899494936582395e-01	 1.004091629285008e+01	 8.176920089503896e-01
 6.717514421233394e-01	 1.035911434438748e+01	 8.116101964288334e-01
 3.535533905877592e-01	 1.067731239592512e+01	 8.343223437000649e-01
 3.535533905149885e-02	 1.099551044746300e+01	 8.523503134997054e-01
-2.828427124854414e-01	 1.131370849900112e+01	 8.655938590967284e-01
-6.010407640230619e-01	 1.163190655053948e+01	 8.739527337600665e-01
-9.192388155613621e-01	 1.195010460207808e+01	 8.773266907586124e-01
-1.237436867100342e+00	 1.226830265361692e+01	 8.756154833612171e-01
-1.555634918640000e+00	 1.258650070515600e+01	 8.687188648366880e-01
 1.732411613902251e+00	 9.510586206952253e+00	 8.228443737079044e-01
 1.414213562369423e+00	 9.828784258489829e+00	 8.252420039941032e-01
 1.096015510835839e+00	 1.014698231002748e+01	 8.207239359783797e-01
 7.778174593015020e-01	 1.046518036156520e+01	 8.232508670830507e-01
 4.596194077664092e-01	 1.078337841310297e+01	 8.430580542846556e-01
 1.414213562305614e-01	 1.110157646464081e+01	 8.585435283224967e-01
-1.767766953060413e-01	 1.141977451617872e+01	 8.696070424655260e-01
-4.949747468433993e-01	 1.173797256771670e+01	 8.761483499826536e-01
-8.131727983815120e-01	 1.205617061925473e+01	 8.780672041427459e-01
-1.131370849920380e+00	 1.237436867079284e+01	 8.752633582146276e-01
-1.449568901460000e+00	 1.269256672233100e+01	 8.676365654670826e-01
 1.838477631079000e+00	 9.616652224129000e+00	 8.325559714671182e-01
 1.520279579546790e+00	 9.934850275667131e+00	 8.312793873080306e-01
 1.202081528013760e+00	 1.025304832720512e+01	 8.233465756255335e-01
 8.838834764799095e-01	 1.057124637874297e+01	 8.344247303680368e-01
 5.656854249452393e-01	 1.088944443028068e+01	 8.514831545356933e-01
 2.474873734097491e-01	 1.120764248181825e+01	 8.645823298474017e-01
-7.071067812656137e-02	 1.152584053335568e+01	 8.736220095720927e-01
-3.889087296636917e-01	 1.184403858489298e+01	 8.785019469786516e-01
-7.071067812016419e-01	 1.216223663643012e+01	 8.791218953359248e-01
-1.025304832740412e+00	 1.248043468796713e+01	 8.753816079127128e-01
-1.343502884280000e+00	 1.279863273950400e+01	 8.671808379777745e-01
 1.944543648256250e+00	 9.722718241306250e+00	 8.416062132591274e-01
 1.626345596724563e+00	 1.004091629284481e+01	 8.367936183544178e-01
 1.308147545191999e+00	 1.035911434438300e+01	 8.271593975047775e-01
 9.899494936585621e-01	 1.067731239592081e+01	 8.451217934912624e-01
 6.717514421242493e-01	 1.099551044745825e+01	 8.595876516606489e-01
 3.535533905890615e-01	 1.131370849899531e+01	 8.704567252818881e-01
 3.535533905299880e-02	 1.163190655053200e+01	 8.776287676238921e-01
-2.828427124839391e-01	 1.195010460206831e+01	 8.810035319555268e-01
-6.010407640217517e-01	 1.226830265360425e+01	 8.804807715456160e-01
-9.192388155604395e-01	 1.258650070513981e+01	 8.759602396629400e-01
-1.237436867100000e+00	 1.290469875667500e+01	 8.673416895762380e-01
 2.050609665434000e+00	 9.828784258483999e+00	 8.500194372902848e-01
 1.732411613902740e+00	 1.014698231002288e+01	 8.418090354069319e-01
 1.414213562370560e+00	 1.046518036156112e+01	 8.401685009441217e-01
 1.096015510837459e+00	 1.078337841309872e+01	 8.553320636602008e-01
 7.778174593034396e-01	 1.110157646463568e+01	 8.673615528669897e-01
 4.596194077684990e-01	 1.141977451617200e+01	 8.761567218334226e-01
 1.414213562326389e-01	 1.173797256770768e+01	 8.816173238283912e-01
-1.767766953041415e-01	 1.205617061924272e+01	 8.836431121207438e-01
-4.949747468418417e-01	 1.237436867077712e+01	 8.821338399792857e-01
-8.131727983804619e-01	 1.269256672231088e+01	 8.769892606727807e-01
-1.131370849920000e+00	 1.301076477384400e+01	 8.681091274699473e-01
 2.156675682612251e+00	 9.934850275662251e+00	 8.578199820702415e-01
 1.838477631081322e+00	 1.025304832720133e+01	 8.463499770425519e-01
 1.520279579549440e+00	 1.057124637873948e+01	 8.525246216009635e-01
 1.202081528016602e+00	 1.088944443027670e+01	 8.650455480823199e-01
 8.838834764828094e-01	 1.120764248181297e+01	 8.747948653621832e-01
 5.656854249480617e-01	 1.152584053334832e+01	 8.816723267094693e-01
 2.474873734123590e-01	 1.184403858488272e+01	 8.855776853930537e-01
-7.071067812429888e-02	 1.216223663641620e+01	 8.864106946817680e-01
-3.889087296619116e-01	 1.248043468794873e+01	 8.840711078444030e-01
-7.071067812004793e-01	 1.279863273948034e+01	 8.784586781497044e-01
-1.025304832739999e+00	 1.311683079101100e+01	 8.694731588663802e-01
 2.262741699791000e+00	 1.004091629284100e+01	 8.650321864119508e-01
 1.944543648260310e+00	 1.035911434438017e+01	 8.518743812378067e-01
 1.626345596728640e+00	 1.067731239591808e+01	 8.642177666827745e-01
 1.308147545195990e+00	 1.099551044745473e+01	 8.742522539650910e-01
 9.899494936623597e-01	 1.131370849899012e+01	 8.818775963536967e-01
 6.717514421277494e-01	 1.163190655052425e+01	 8.869935471174951e-01
 3.535533905921591e-01	 1.195010460205712e+01	 8.894998595253452e-01
 3.535533905558874e-02	 1.226830265358873e+01	 8.892962868460654e-01
-2.828427124819616e-01	 1.258650070511908e+01	 8.862825823484333e-01
-6.010407640204918e-01	 1.290469875664817e+01	 8.803584993011846e-01
-9.192388155599993e-01	 1.322289680817600e+01	 8.714237909730154e-01
 2.368807716970251e+00	 1.014698231002025e+01	 8.716803894316800e-01
 2.050609665439703e+00	 1.046518036155940e+01	 8.655872644232088e-01
 1.732411613908160e+00	 1.078337841309692e+01	 8.752379433970265e-01
 1.414213562375622e+00	 1.110157646463283e+01	 8.829421885159799e-01
 1.096015510842090e+00	 1.141977451616713e+01	 8.885997530489967e-01
 7.778174593075620e-01	 1.173797256769982e+01	 8.921103902649635e-01
 4.596194077720391e-01	 1.205617061923088e+01	 8.933738534327291e-01
 1.414213562355213e-01	 1.237436867076033e+01	 8.922898958211005e-01
-1.767766953019914e-01	 1.269256672228818e+01	 8.887582706988468e-01
-4.949747468404992e-01	 1.301076477381440e+01	 8.826787313346951e-01
-8.131727983799992e-01	 1.332896282533900e+01	 8.739510309973345e-01
 2.474873734150000e+00	 1.025304832720000e+01	 8.777889305490054e-01
 2.156675682619500e+00	 1.057124637873900e+01	 8.784609894128331e-01
 1.838477631087999e+00	 1.088944443027600e+01	 8.855751589511900e-01
 1.520279579555499e+00	 1.120764248181100e+01	 8.911053589424566e-01
 1.202081528021999e+00	 1.152584053334400e+01	 8.949513426555475e-01
 8.838834764874985e-01	 1.184403858487500e+01	 8.970128633593386e-01
 5.656854249519983e-01	 1.216223663640400e+01	 8.971896743226695e-01
 2.474873734154980e-01	 1.248043468793100e+01	 8.953815288143393e-01
-7.071067812200227e-02	 1.279863273945600e+01	 8.914881801031115e-01
-3.889087296605026e-01	 1.311683079097900e+01	 8.854093814577099e-01
-7.071067812000000e-01	 1.343502884250000e+01	 8.770448861468204e-01
 2.828427124700000e+00	 4.242640687100000e+00	-5.191743188375030e-02
 2.510229073179000e+00	 4.560838738639499e+00	 1.220948062463012e-01
 2.192031021656000e+00	 4.879036790178001e+00	 2.719663547673178e-01
 1.873832970131000e+00	 5.197234841715500e+00	 3.980826351810448e-01
 1.555634918604000e+00	 5.515432893252001e+00	 5.008290862756347e-01
 1.237436867075000e+00	 5.833630944787501e+00	 5.805911641266848e-01
 9.192388155440001e-01	 6.151828996322000e+00	 6.377543420982461e-01
 6.010407640110003e-01	 6.470027047855501e+00	 6.727041108438254e-01
 2.828427124760003e-01	 6.788225099388001e+00	 6.858259783074175e-01
-3.535533906099975e-02	 7.106423150919500e+00	 6.775054697245129e-01
-3.535533906000000e-01	 7.424621202450000e+00	 6.481281276231072e-01
 2.899137802820000e+00	 4.313351365220000e+00	 4.875535026926380e-02
 2.580939751299000e+00	 4.631549416759500e+00	 2.043365145642707e-01
 2.262741699775999e+00	 4.949747468297999e+00	 3.375184730634215e-01
 1.944543648251000e+00	 5.267945519835501e+00	 4.486866468646512e-01
 1.626345596724000e+00	 5.586143571372000e+00	 5.382264743523584e-01
 1.308147545195000e+00	 5.904341622907500e+00	 6.065234111984077e-01
 9.899494936639996e-01	 6.222539674441999e+00	 6.539629303631436e-01
 6.717514421310001e-01	 6.540737725975498e+00	 6.809305220964101e-01
 3.535533905960002e-01	 6.858935777508002e+00	 6.878116939385640e-01
 3.535533905900017e-02	 7.177133829039500e+00	 6.749919707214865e-01
-2.828427124800000e-01	 7.495331880570001e+00	 6.428568945696019e-01
 2.969848480940000e+00	 4.384062043339999e+00	 1.448049325446341e-01
 2.651650429419000e+00	 4.702260094879499e+00	 2.816597876070767e-01
 2.333452377896001e+00	 5.020458146417998e+00	 3.988078964110706e-01
 2.015254326371000e+00	 5.338656197955500e+00	 4.956837035821418e-01
 1.697056274844000e+00	 5.656854249492000e+00	 5.726726471009123e-01
 1.378858223315000e+00	 5.975052301027501e+00	 6.301601822354954e-01
 1.060660171784000e+00	 6.293250352562000e+00	 6.685317815425295e-01
 7.424621202510001e-01	 6.611448404095501e+00	 6.881729348681709e-01
 4.242640687160004e-01	 6.929646455627999e+00	 6.894691493491261e-01
 1.060660171790003e-01	 7.247844507159500e+00	 6.728059494136620e-01
-2.121320343600000e-01	 7.566042558690000e+00	 6.385688767826116e-01
 3.040559159060000e+00	 4.454772721460000e+00	 2.367067911021375e-01
 2.722361107539000e+00	 4.772970772999500e+00	 3.540718347037439e-01
 2.404163056016000e+00	 5.091168824537999e+00	 4.558418341592443e-01
 2.085965004491000e+00	 5.409366876075500e+00	 5.390810147024362e-01
 1.767766952964000e+00	 5.727564927612000e+00	 6.041748139101488e-01
 1.449568901435000e+00	 6.045762979147502e+00	 6.515086866467448e-01
 1.131370849904000e+00	 6.363961030682000e+00	 6.814681050651259e-01
 8.131727983710000e-01	 6.682159082215498e+00	 6.944385586077640e-01
 4.949747468360004e-01	 7.000357133748002e+00	 6.908055540076954e-01
 1.767766952990004e-01	 7.318555185279501e+00	 6.709546152895554e-01
-1.414213562400000e-01	 7.636753236810002e+00	 6.352712837705814e-01
 3.111269837180000e+00	 4.525483399580001e+00	 3.231058700120058e-01
 2.793071785659000e+00	 4.843681451119500e+00	 4.215798652431926e-01
 2.474873734136000e+00	 5.161879502658000e+00	 5.086274957168033e-01
 2.156675682611000e+00	 5.480077554195501e+00	 5.788857896543325e-01
 1.838477631084000e+00	 5.798275605732000e+00	 6.327401842288126e-01
 1.520279579555001e+00	 6.116473657267500e+00	 6.705761339008312e-01
 1.202081528024000e+00	 6.434671708802000e+00	 6.927791104195510e-01
 8.838834764910003e-01	 6.752869760335502e+00	 6.997346028237358e-01
 5.656854249560004e-01	 7.071067811868001e+00	 6.918281174427470e-01
 2.474873734190002e-01	 7.389265863399498e+00	 6.694451778975760e-01
-7.071067811999998e-02	 7.707463914930000e+00	 6.329713251018375e-01
 3.181980515300000e+00	 4.596194077700000e+00	 4.040004338096169e-01
 2.863782463779000e+00	 4.914392129239499e+00	 4.841910886742182e-01
 2.545584412256001e+00	 5.232590180778001e+00	 5.571720905524864e-01
 2.227386360731000e+00	 5.550788232315500e+00	 6.151052379265192e-01
 1.909188309204000e+00	 5.868986283852001e+00	 6.583759675655282e-01
 1.590990257675000e+00	 6.187184335387501e+00	 6.873697335263190e-01
 1.272792206144000e+00	 6.505382386922001e+00	 7.024720071543042e-01
 9.545941546110002e-01	 6.823580438455500e+00	 7.040682770845210e-01
 6.363961030760004e-01	 7.141778489988000e+00	 6.925440492426457e-01
 3.181980515390003e-01	 7.459976541519501e+00	 6.682848468460095e-01
 2.775557561562891e-17	 7.778174593050000e+00	 6.316762104046070e-01
 3.252691193420000e+00	 4.666904755820000e+00	 4.793887470141708e-01
 2.934493141899000e+00	 4.985102807359500e+00	 5.419127145055023e-01
 2.616295090375999e+00	 5.303300858897998e+00	 6.014828281949214e-01
 2.298097038851000e+00	 5.621498910435499e+00	 6.477465690675620e-01
 1.979898987324000e+00	 5.939696961972000e+00	 6.810893734888044e-01
 1.661700935795000e+00	 6.257895013507500e+00	 7.018966951116559e-01
 1.343502884264000e+00	 6.576093065042001e+00	 7.105540048777681e-01
 1.025304832731000e+00	 6.894291116575500e+00	 7.074467910184391e-01
 7.071067811960003e-01	 7.212489168107999e+00	 6.929605590556455e-01
 3.889087296590001e-01	 7.530687219639499e+00	 6.674808318030452e-01
 7.071067811999998e-02	 7.848885271170000e+00	 6.313931493669938e-01
 3.323401871540000e+00	 4.737615433940000e+00	 5.492690741286740e-01
 3.005203820019001e+00	 5.055813485479501e+00	 5.968447675419850e-01
 2.687005768496000e+00	 5.374011537018000e+00	 6.415669182326180e-01
 2.368807716970999e+00	 5.692209588555500e+00	 6.768169926859160e-01
 2.050609665444000e+00	 6.010407640092001e+00	 7.008876116270379e-01
 1.732411613915000e+00	 6.328605691627500e+00	 7.141642283051834e-01
 1.414213562384000e+00	 6.646803743162000e+00	 7.170323132582176e-01
 1.096015510851000e+00	 6.965001794695501e+00	 7.098773543137000e-01
 7.778174593160001e-01	 7.283199846227999e+00	 6.930848565898861e-01
 4.596194077790004e-01	 7.601397897759501e+00	 6.670403424967545e-01
 1.414213562400000e-01	 7.919595949290001e+00	 6.321293517370051e-01
 3.394112549660000e+00	 4.808326112060000e+00	 6.136396796399607e-01
 3.075914498139000e+00	 5.126524163599500e+00	 6.471403020195979e-01
 2.757716446616000e+00	 5.444722215137999e+00	 6.774315703139733e-01
 2.439518395091000e+00	 5.762920266675499e+00	 7.023237184499256e-01
 2.121320343564000e+00	 6.081118318212001e+00	 7.177778916685150e-01
 1.803122292035000e+00	 6.399316369747500e+00	 7.241795428151196e-01
 1.484924240504000e+00	 6.717514421282001e+00	 7.219141420238160e-01
 1.166726188971000e+00	 7.035712472815500e+00	 7.113671767184010e-01
 8.485281374360004e-01	 7.353910524348001e+00	 6.929241516134039e-01
 5.303300858990002e-01	 7.672108575879500e+00	 6.669705887151015e-01
 2.121320343599999e-01	 7.990306627410000e+00	 6.338920273225329e-01
 3.464823227780000e+00	 4.879036790180000e+00	 6.724988280186736e-01
 3.146625176259000e+00	 5.197234841719500e+00	 6.925897812546835e-01
 2.828427124736000e+00	 5.515432893258000e+00	 7.090839941472706e-01
 2.510229073211000e+00	 5.833630944795501e+00	 7.242739560878133e-01
 2.192031021684000e+00	 6.151828996332000e+00	 7.317674233614035e-01
 1.873832970155000e+00	 6.470027047867501e+00	 7.319498484095807e-01
 1.555634918624000e+00	 6.788225099401999e+00	 7.252067009626146e-01
 1.237436867091000e+00	 7.106423150935498e+00	 7.119234680405340e-01
 9.192388155560003e-01	 7.424621202468002e+00	 6.924856539541183e-01
 6.010407640190004e-01	 7.742819253999500e+00	 6.672787803059426e-01
 2.828427124799999e-01	 8.061017305530001e+00	 6.366883859913623e-01
 3.535533905900000e+00	 4.949747468300000e+00	 7.258447837192741e-01
 3.217335854379000e+00	 5.267945519839500e+00	 7.331914697048973e-01
 2.899137802856000e+00	 5.586143571378001e+00	 7.365313995006777e-01
 2.580939751331000e+00	 5.904341622915500e+00	 7.426749153877010e-01
 2.262741699804000e+00	 6.222539674452000e+00	 7.428634165137666e-01
 1.944543648275000e+00	 6.540737725987500e+00	 7.374823549165697e-01
 1.626345596744000e+00	 6.858935777521999e+00	 7.269171999225600e-01
 1.308147545211000e+00	 7.177133829055500e+00	 7.115534381479731e-01
 9.899494936760004e-01	 7.495331880588001e+00	 6.917765734998470e-01
 6.717514421390002e-01	 7.813529932119500e+00	 6.679721271770236e-01
 3.535533906000000e-01	 8.131727983650000e+00	 6.405256376711723e-01
-3.535533906000000e-01	 7.424621202450000e+00	 6.481281276231072e-01
-6.717514421390002e-01	 7.742819253980501e+00	 6.714617811937125e-01
-9.899494936760007e-01	 8.061017305512001e+00	 6.948110365111041e-01
-1.308147545211001e+00	 8.379215357044501e+00	 7.185614879872425e-01
-1.626345596744001e+00	 8.697413408578001e+00	 7.430987473306345e-01
-1.944543648275002e+00	 9.015611460112503e+00	 7.688084435473568e-01
-2.262741699804002e+00	 9.333809511648003e+00	 7.960762229420668e-01
-2.580939751331002e+00	 9.652007563184501e+00	 8.252877491190134e-01
-2.899137802856002e+00	 9.970205614722001e+00	 8.568287029830577e-01
-3.217335854379002e+00	 1.028840366626050e+01	 8.808985528864739e-01
-3.535533905900000e+00	 1.060660171780000e+01	 9.289772030984662e-01
-2.828427124800000e-01	 7.495331880570001e+00	 6.428568945696019e-01
-6.010407640190004e-01	 7.813529932100502e+00	 6.693292871470289e-01
-9.192388155560007e-01	 8.131727983632002e+00	 6.950958965260575e-01
-1.237436867091001e+00	 8.449926035164502e+00	 7.205423167151346e-01
-1.555634918624001e+00	 8.768124086697998e+00	 7.460541590192966e-01
-1.873832970155002e+00	 9.086322138232504e+00	 7.720170520411673e-01
-2.192031021684001e+00	 9.404520189768002e+00	 7.988166416819874e-01
-2.510229073211002e+00	 9.722718241304504e+00	 8.268385911426223e-01
-2.828427124736002e+00	 1.004091629284201e+01	 8.564685809245798e-01
-3.146625176259002e+00	 1.035911434438050e+01	 8.821042249778452e-01
-3.464823227780000e+00	 1.067731239592000e+01	 9.324242332540813e-01
-2.121320343600000e-01	 7.566042558690000e+00	 6.385688767826116e-01
-5.303300858990004e-01	 7.884240610220501e+00	 6.680003205638565e-01
-8.485281374360008e-01	 8.202438661752002e+00	 6.960045958570219e-01
-1.166726188971001e+00	 8.520636713284505e+00	 7.229672962670333e-01
-1.484924240504001e+00	 8.838834764818003e+00	 7.492740326954336e-01
-1.803122292035001e+00	 9.157032816352501e+00	 7.753104333413890e-01
-2.121320343564002e+00	 9.475230867888005e+00	 8.014621437027083e-01
-2.439518395091001e+00	 9.793428919424503e+00	 8.281148265768622e-01
-2.757716446616002e+00	 1.011162697096200e+01	 8.556541620619906e-01
-3.075914498139002e+00	 1.042982502250050e+01	 8.877299008986810e-01
-3.394112549660000e+00	 1.074802307404000e+01	 9.351296806612481e-01
-1.414213562400000e-01	 7.636753236810002e+00	 6.352712837705814e-01
-4.596194077790004e-01	 7.954951288340502e+00	 6.674820909725594e-01
-7.778174593160008e-01	 8.273149339872003e+00	 6.975443440522823e-01
-1.096015510851001e+00	 8.591347391404499e+00	 7.258436362111435e-01
-1.414213562384001e+00	 8.909545442938004e+00	 7.527655779471700e-01
-1.732411613915001e+00	 9.227743494472501e+00	 7.786957970560606e-01
-2.050609665444001e+00	 9.545941546008001e+00	 8.040199386321814e-01
-2.368807716971002e+00	 9.864139597544501e+00	 8.291236650695915e-01
-2.687005768496002e+00	 1.018233764908200e+01	 8.543926560630526e-01
-3.005203820019002e+00	 1.050053570062050e+01	 8.927868405072938e-01
-3.323401871540000e+00	 1.081873375216000e+01	 9.370943146044020e-01
-7.071067811999998e-02	 7.707463914930000e+00	 6.329713251018375e-01
-3.889087296590003e-01	 8.025661966460500e+00	 6.677818079613952e-01
-7.071067811960005e-01	 8.343860017992000e+00	 6.997223507200192e-01
-1.025304832731001e+00	 8.662058069524500e+00	 7.291785461755542e-01
-1.343502884264001e+00	 8.980256121058002e+00	 7.565360044225145e-01
-1.661700935795001e+00	 9.298454172592502e+00	 7.821803528531072e-01
-1.979898987324002e+00	 9.616652224128003e+00	 8.064972361582435e-01
-2.298097038851002e+00	 9.934850275664502e+00	 8.298723163285602e-01
-2.616295090376002e+00	 1.025304832720200e+01	 8.526912726554284e-01
-2.934493141899003e+00	 1.057124637874050e+01	 8.970710492871264e-01
-3.252691193420000e+00	 1.088944443028000e+01	 9.383189043679804e-01
 2.775557561562891e-17	 7.778174593050000e+00	 6.316762104046070e-01
-3.181980515390002e-01	 8.096372644580500e+00	 6.689066811785072e-01
-6.363961030760007e-01	 8.414570696112003e+00	 7.025458255282990e-01
-9.545941546110012e-01	 8.732768747644503e+00	 7.329792358482609e-01
-1.272792206144001e+00	 9.050966799178001e+00	 7.605925218293772e-01
-1.590990257675002e+00	 9.369164850712501e+00	 7.857713104603530e-01
-1.909188309204002e+00	 9.687362902248005e+00	 8.089012460286333e-01
-2.227386360731002e+00	 1.000556095378450e+01	 8.303679901214178e-01
-2.545584412256003e+00	 1.032375900532200e+01	 8.505572216266741e-01
-2.863782463779002e+00	 1.064195705686050e+01	 8.988371677303406e-01
-3.181980515300000e+00	 1.096015510840000e+01	 9.388042192364189e-01
 7.071067811999998e-02	 7.848885271170000e+00	 6.313931493669938e-01
-2.474873734190003e-01	 8.167083322700501e+00	 6.708639203319318e-01
-5.656854249560007e-01	 8.485281374232001e+00	 7.060219782050808e-01
-8.838834764910009e-01	 8.803479425764500e+00	 7.372529149771434e-01
-1.202081528024001e+00	 9.121677477298000e+00	 7.649423399355557e-01
-1.520279579555001e+00	 9.439875528832502e+00	 7.894758796655144e-01
-1.838477631084002e+00	 9.758073580368004e+00	 8.112391780509799e-01
-2.156675682611002e+00	 1.007627163190450e+01	 8.306178962757085e-01
-2.474873734136002e+00	 1.039446968344200e+01	 8.531366156770404e-01
-2.793071785659002e+00	 1.071266773498050e+01	 9.002083448546989e-01
-3.111269837180000e+00	 1.103086578652000e+01	 9.385510284941544e-01
 1.414213562400000e-01	 7.919595949290001e+00	 6.321293517370051e-01
-1.767766952990004e-01	 8.237794000820502e+00	 6.736607351896015e-01
-4.949747468360006e-01	 8.555992052352002e+00	 7.101580185382181e-01
-8.131727983710010e-01	 8.874190103884500e+00	 7.420067933699737e-01
-1.131370849904001e+00	 9.192388155418001e+00	 7.695926685687444e-01
-1.449568901435001e+00	 9.510586206952500e+00	 7.933012703162030e-01
-1.767766952964002e+00	 9.828784258488003e+00	 8.135182420928133e-01
-2.085965004491002e+00	 1.014698231002450e+01	 8.306292446788694e-01
-2.404163056016002e+00	 1.046518036156200e+01	 8.575690375472098e-01
-2.722361107539003e+00	 1.078337841310050e+01	 9.011816198327849e-01
-3.040559159060000e+00	 1.110157646464000e+01	 9.375601014256243e-01
 2.121320343599999e-01	 7.990306627410000e+00	 6.338920273225329e-01
-1.060660171790003e-01	 8.308504678940501e+00	 6.773043355793312e-01
-4.242640687160007e-01	 8.626702730472001e+00	 7.149611563754574e-01
-7.424621202510009e-01	 8.944900782004501e+00	 7.472480808944223e-01
-1.060660171784001e+00	 9.263098833538002e+00	 7.745507176165336e-01
-1.378858223315001e+00	 9.581296885072502e+00	 7.972546923199241e-01
-1.697056274844002e+00	 9.899494936608003e+00	 8.157456480815566e-01
-2.015254326371002e+00	 1.021769298814450e+01	 8.304092452782382e-01
-2.333452377896002e+00	 1.053589103968200e+01	 8.617722866104014e-01
-2.651650429419003e+00	 1.085408909122050e+01	 9.017540318371795e-01
-2.969848480940000e+00	 1.117228714276000e+01	 9.358322073152636e-01
 2.828427124799999e-01	 8.061017305530001e+00	 6.366883859913623e-01
-3.535533905900039e-02	 8.379215357060499e+00	 6.818019313888390e-01
-3.535533905960007e-01	 8.697413408592000e+00	 7.204386016244366e-01
-6.717514421310010e-01	 9.015611460124502e+00	 7.529839874780498e-01
-9.899494936640012e-01	 9.333809511658002e+00	 7.798236970264062e-01
-1.308147545195002e+00	 9.652007563192502e+00	 8.013433556440852e-01
-1.626345596724002e+00	 9.970205614728002e+00	 8.179286060045250e-01
-1.944543648251002e+00	 1.028840366626450e+01	 8.299651080810527e-01
-2.262741699776002e+00	 1.060660171780200e+01	 8.657434020391993e-01
-2.580939751299002e+00	 1.092479976934050e+01	 9.019226200404673e-01
-2.899137802820000e+00	 1.124299782088000e+01	 9.323102138225081e-01
 3.535533906000000e-01	 8.131727983650000e+00	 6.405256376711723e-01
 3.535533906099975e-02	 8.449926035180502e+00	 6.871607325657325e-01
-2.828427124760007e-01	 8.768124086712003e+00	 7.265975642526911e-01
-6.010407640110009e-01	 9.086322138244501e+00	 7.592217231083196e-01
-9.192388155440012e-01	 9.404520189778001e+00	 7.854188168057460e-01
-1.237436867075001e+00	 9.722718241312503e+00	 8.055744703159821e-01
-1.555634918604002e+00	 1.004091629284800e+01	 8.200743259089427e-01
-1.873832970131002e+00	 1.035911434438450e+01	 8.309303120670835e-01
-2.192031021656002e+00	 1.067731239592200e+01	 8.694794230061849e-01
-2.510229073179003e+00	 1.099551044746050e+01	 9.016844236152287e-01
-2.828427124700000e+00	 1.131370849900000e+01	 9.274450671632044e-01
 2.121320343600000e+00	 3.535533905900000e+00	-2.373400045474995e-02
 1.803122292060500e+00	 3.853731957439500e+00	 1.183576483567368e-01
 1.484924240522000e+00	 4.171930008977999e+00	 2.430632421922485e-01
 1.166726188984500e+00	 4.490128060515501e+00	 3.507682007100570e-01
 8.485281374479999e-01	 4.808326112052000e+00	 4.418579667363297e-01
 5.303300859125000e-01	 5.126524163587500e+00	 5.167180003841985e-01
 2.121320343780000e-01	 5.444722215122000e+00	 5.757337790548074e-01
-1.060660171554999e-01	 5.762920266655501e+00	 6.192907974383073e-01
-4.242640686879998e-01	 6.081118318188000e+00	 6.477745675148827e-01
-7.424621202194999e-01	 6.399316369719500e+00	 6.615706185557592e-01
-1.060660171750000e+00	 6.717514421250000e+00	 6.610644971242130e-01
 2.192031021719000e+00	 3.606244584020000e+00	-3.633058448140088e-02
 1.873832970179595e+00	 3.924442635559499e+00	 1.096896954184682e-01
 1.555634918640980e+00	 4.242640687098001e+00	 2.377430037428969e-01
 1.237436867103155e+00	 4.560838738635501e+00	 3.482147464956964e-01
 9.192388155661200e-01	 4.879036790172002e+00	 4.414903660995076e-01
 6.010407640298749e-01	 5.197234841707501e+00	 5.179553222639682e-01
 2.828427124944199e-01	 5.515432893241999e+00	 5.779950919867366e-01
-3.535533904024489e-02	 5.833630944775498e+00	 6.219951695544940e-01
-3.535533905741199e-01	 6.151828996308002e+00	 6.503410665439692e-01
-6.717514421072044e-01	 6.470027047839499e+00	 6.634183118229486e-01
-9.899494936395001e-01	 6.788225099370000e+00	 6.616124515512960e-01
 2.262741699836000e+00	 3.676955262139999e+00	-4.541935063739532e-02
 1.944543648297079e+00	 3.995153313679500e+00	 1.041330412742748e-01
 1.626345596758720e+00	 4.313351365218001e+00	 2.351375122828427e-01
 1.308147545220920e+00	 4.631549416755501e+00	 3.479794871214258e-01
 9.899494936836797e-01	 4.949747468292000e+00	 4.430444078091420e-01
 6.717514421470002e-01	 5.267945519827499e+00	 5.207177336521268e-01
 3.535533906108800e-01	 5.586143571362000e+00	 5.813849412445421e-01
 3.535533907532003e-02	 5.904341622895500e+00	 6.254315244695970e-01
-2.828427124596796e-01	 6.222539674427998e+00	 6.532429945005599e-01
-6.010407639941197e-01	 6.540737725959500e+00	 6.652048798017716e-01
-9.192388155279999e-01	 6.858935777489999e+00	 6.617027261296615e-01
 2.333452377951000e+00	 3.747665940260000e+00	-5.099303869565042e-02
 2.015254326412955e+00	 4.065863991799500e+00	 1.016948946545319e-01
 1.697056274875220e+00	 4.384062043338001e+00	 2.352539765623716e-01
 1.378858223337795e+00	 4.702260094875498e+00	 3.500696313574421e-01
 1.060660171800680e+00	 5.020458146412000e+00	 4.465273006553411e-01
 7.424621202638753e-01	 5.338656197947501e+00	 5.250124433586916e-01
 4.242640687273800e-01	 5.656854249482000e+00	 5.859105356581582e-01
 1.060660171911952e-01	 5.975052301015499e+00	 6.296070710334689e-01
-2.121320343446797e-01	 6.293250352548000e+00	 6.564875602544230e-01
-5.303300858802448e-01	 6.611448404079501e+00	 6.669375313819083e-01
-8.485281374155000e-01	 6.929646455610001e+00	 6.613425297689169e-01
 2.404163056064000e+00	 3.818376618380000e+00	-5.304445901864732e-02
 2.085965004527220e+00	 4.136574669919500e+00	 1.023824643495030e-01
 1.767766952990480e+00	 4.454772721458001e+00	 2.380996053916506e-01
 1.449568901453780e+00	 4.772970772995500e+00	 3.544923880338276e-01
 1.131370849917120e+00	 5.091168824532001e+00	 4.519462534880985e-01
 8.131727983804999e-01	 5.409366876067502e+00	 5.308466602535703e-01
 4.949747468439200e-01	 5.727564927602000e+00	 5.915790841174078e-01
 1.767766953073801e-01	 6.045762979135501e+00	 6.345290181558447e-01
-1.414213562291197e-01	 6.363961030668000e+00	 6.600819727352126e-01
-4.596194077655795e-01	 6.682159082199498e+00	 6.686234755129298e-01
-7.778174593020000e-01	 7.000357133730001e+00	 6.605390714385433e-01
 2.474873734175000e+00	 3.889087296500000e+00	-5.156640277613918e-02
 2.156675682639875e+00	 4.207285348039500e+00	 1.062029592093365e-01
 1.838477631104500e+00	 4.525483399577999e+00	 2.436816076407372e-01
 1.520279579568875e+00	 4.843681451115501e+00	 3.612549660405423e-01
 1.202081528033000e+00	 5.161879502652001e+00	 4.593084752172855e-01
 8.838834764968749e-01	 5.480077554187500e+00	 5.382275932665476e-01
 5.656854249605001e-01	 5.798275605722002e+00	 5.983977955719888e-01
 2.474873734238751e-01	 6.116473657255501e+00	 6.402045748063453e-01
-7.071067811299973e-02	 6.434671708788001e+00	 6.640334409324585e-01
-3.889087296501247e-01	 6.752869760319500e+00	 6.702699212042849e-01
-7.071067811875000e-01	 7.071067811850000e+00	 6.592995601679075e-01
 2.545584412284000e+00	 3.959797974620000e+00	-4.655166107799706e-02
 2.227386360750920e+00	 4.277996026159500e+00	 1.131635881440723e-01
 1.909188309217279e+00	 4.596194077697999e+00	 2.520071922395703e-01
 1.590990257683080e+00	 4.914392129235500e+00	 3.703645743274384e-01
 1.272792206148320e+00	 5.232590180772000e+00	 4.686211748126623e-01
 9.545941546130000e-01	 5.550788232307501e+00	 5.471624513872990e-01
 6.363961030771200e-01	 5.868986283842001e+00	 6.063738790314877e-01
 3.181980515406802e-01	 6.187184335375502e+00	 6.466409500144643e-01
 3.680333815481162e-12	 6.505382386908000e+00	 6.683491738955802e-01
-3.181980515338797e-01	 6.823580438439498e+00	 6.718840775253080e-01
-6.363961030720000e-01	 7.141778489970000e+00	 6.576312050462622e-01
 2.616295090391000e+00	 4.030508652740000e+00	-3.799302497419346e-02
 2.298097038860355e+00	 4.348706704279500e+00	 1.232715601236225e-01
 1.979898987328820e+00	 4.666904755818001e+00	 2.630835681779799e-01
 1.661700935796395e+00	 4.985102807355500e+00	 3.818284219042478e-01
 1.343502884263080e+00	 5.303300858892000e+00	 4.798915613038718e-01
 1.025304832728875e+00	 5.621498910427500e+00	 5.576584436653756e-01
 7.071067811937800e-01	 5.939696961962001e+00	 6.155145435653735e-01
 3.889087296577952e-01	 6.257895013495501e+00	 6.538453528695938e-01
 7.071067812092029e-02	 6.576093065027999e+00	 6.730363807338758e-01
-2.474873734168447e-01	 6.894291116559502e+00	 6.734731536052110e-01
-5.656854249555001e-01	 7.212489168090000e+00	 6.555412152227382e-01
 2.687005768496000e+00	 4.101219330860000e+00	-2.588328545482367e-02
 2.368807716968180e+00	 4.419417382399501e+00	 1.365340841778109e-01
 2.050609665439120e+00	 4.737615433938000e+00	 2.769179445056751e-01
 1.732411613908820e+00	 5.055813485475500e+00	 3.956537178405913e-01
 1.414213562377280e+00	 5.374011537012001e+00	 4.931268437804460e-01
 1.096015510844500e+00	 5.692209588547501e+00	 5.697227792102204e-01
 7.778174593104800e-01	 6.010407640082001e+00	 6.258269983030013e-01
 4.596194077752201e-01	 6.328605691615500e+00	 6.618249925209923e-01
 1.414213562387203e-01	 6.646803743148000e+00	 6.781022706165298e-01
-1.767766952990197e-01	 6.965001794679500e+00	 6.750443586330996e-01
-4.949747468380000e-01	 7.283199846210000e+00	 6.530367999063513e-01
 2.757716446599000e+00	 4.171930008980000e+00	-1.021523345008030e-02
 2.439518395074395e+00	 4.490128060519500e+00	 1.529583693963256e-01
 2.121320343548180e+00	 4.808326112057999e+00	 2.935175303322653e-01
 1.803122292020355e+00	 5.126524163595501e+00	 4.118476712659778e-01
 1.484924240490920e+00	 5.444722215132000e+00	 5.083342313917965e-01
 1.166726188959875e+00	 5.762920266667501e+00	 5.833626671911603e-01
 8.485281374272200e-01	 6.081118318202000e+00	 6.373184524336076e-01
 5.303300858929550e-01	 6.399316369735500e+00	 6.705870781778182e-01
 2.121320343570802e-01	 6.717514421268001e+00	 6.835540527726104e-01
-1.060660171804048e-01	 7.035712472799500e+00	 6.766049018579556e-01
-4.242640687195001e-01	 7.353910524330001e+00	 6.501251683660048e-01
 2.828427124700000e+00	 4.242640687100000e+00	 9.018340169719002e-03
 2.510229073179000e+00	 4.560838738639499e+00	 1.725516249287659e-01
 2.192031021656000e+00	 4.879036790178001e+00	 3.128895348272346e-01
 1.873832970131000e+00	 5.197234841715500e+00	 4.304174913697999e-01
 1.555634918604000e+00	 5.515432893252001e+00	 5.255209333472295e-01
 1.237436867075000e+00	 5.833630944787501e+00	 5.985853168374027e-01
 9.192388155440001e-01	 6.151828996322000e+00	 6.499961152063182e-01
 6.010407640110003e-01	 6.470027047855501e+00	 6.801388191091100e-01
 2.828427124760003e-01	 6.788225099388001e+00	 6.893989364910695e-01
-3.535533906099975e-02	 7.106423150919500e+00	 6.781619925886484e-01
-3.535533906000000e-01	 7.424621202450000e+00	 6.468135299304848e-01
-1.060660171750000e+00	 6.717514421250000e+00	 6.610644971242130e-01
-1.378858223280500e+00	 7.035712472780501e+00	 6.789770423732510e-01
-1.697056274812001e+00	 7.353910524312001e+00	 6.992238135050040e-01
-2.015254326344501e+00	 7.672108575844502e+00	 7.221904089665101e-01
-2.333452377878001e+00	 7.990306627378001e+00	 7.482624445010029e-01
-2.651650429412501e+00	 8.308504678912502e+00	 7.778255531489445e-01
-2.969848480948002e+00	 8.626702730448002e+00	 8.099185200174884e-01
-3.288046532484502e+00	 8.944900781984501e+00	 8.329777521133030e-01
-3.606244584022002e+00	 9.263098833522003e+00	 8.607783946641279e-01
-3.924442635560502e+00	 9.581296885060503e+00	 8.933793613921291e-01
-4.242640687100000e+00	 9.899494936600000e+00	 9.308395655897795e-01
-9.899494936395001e-01	 6.788225099370000e+00	 6.616124515512960e-01
-1.308147545171615e+00	 7.106423150900500e+00	 6.796579580973698e-01
-1.626345596704161e+00	 7.424621202432001e+00	 6.998384281216143e-01
-1.944543648237136e+00	 7.742819253964501e+00	 7.225394596676109e-01
-2.262741699770541e+00	 8.061017305498000e+00	 7.481466680751863e-01
-2.580939751304376e+00	 8.379215357032503e+00	 7.770456859814221e-01
-2.899137802838642e+00	 8.697413408567998e+00	 8.096221633216720e-01
-3.217335854373337e+00	 9.015611460104502e+00	 8.336745649853563e-01
-3.535533905908463e+00	 9.333809511642004e+00	 8.604169477004981e-01
-3.853731957444017e+00	 9.652007563180504e+00	 8.918356453845036e-01
-4.171930008980000e+00	 9.970205614719999e+00	 9.279895719513653e-01
-9.192388155279999e-01	 6.858935777489999e+00	 6.617027261296615e-01
-1.237436867061561e+00	 7.177133829020502e+00	 6.799424389078993e-01
-1.555634918595040e+00	 7.495331880552001e+00	 7.001178524152887e-01
-1.873832970128441e+00	 7.813529932084503e+00	 7.226145642919457e-01
-2.192031021661760e+00	 8.131727983618001e+00	 7.478181894742755e-01
-2.510229073195001e+00	 8.449926035152501e+00	 7.761143601959668e-01
-2.828427124728162e+00	 8.768124086688003e+00	 8.078887259890135e-01
-3.146625176261242e+00	 9.086322138224503e+00	 8.342788172788328e-01
-3.464823227794243e+00	 9.404520189762003e+00	 8.600295621075666e-01
-3.783021279327162e+00	 9.722718241300498e+00	 8.903326127959689e-01
-4.101219330860000e+00	 1.004091629284000e+01	 9.252468838795485e-01
-8.485281374155000e-01	 6.929646455610001e+00	 6.613425297689169e-01
-1.166726188950336e+00	 7.247844507140503e+00	 6.798376937343543e-01
-1.484924240484641e+00	 7.566042558672001e+00	 7.000692953354524e-01
-1.803122292018416e+00	 7.884240610204502e+00	 7.224229318088521e-01
-2.121320343551661e+00	 8.202438661738002e+00	 7.472842176875124e-01
-2.439518395084376e+00	 8.520636713272502e+00	 7.750387848017173e-01
-2.757716446616561e+00	 8.838834764807999e+00	 8.060722822800940e-01
-3.075914498148217e+00	 9.157032816344504e+00	 8.347865691654908e-01
-3.394112549679342e+00	 9.475230867882001e+00	 8.596122980263915e-01
-3.712310601209937e+00	 9.793428919420503e+00	 8.888663237368839e-01
-4.030508652739999e+00	 1.011162697096000e+01	 9.226075614539956e-01
-7.778174593020000e-01	 7.000357133730001e+00	 6.605390714385433e-01
-1.096015510837940e+00	 7.318555185260502e+00	 6.793509315661348e-01
-1.414213562372961e+00	 7.636753236792001e+00	 6.996999658914151e-01
-1.732411613907060e+00	 7.954951288324499e+00	 7.219717712475417e-01
-2.050609665440241e+00	 8.273149339858001e+00	 7.465519617640165e-01
-2.368807716972501e+00	 8.591347391392501e+00	 7.738261688677019e-01
-2.687005768503842e+00	 8.909545442928001e+00	 8.041800412838389e-01
-3.005203820034262e+00	 9.227743494464502e+00	 8.351938807887510e-01
-3.323401871563761e+00	 9.545941546002000e+00	 8.591612155696917e-01
-3.641599923092342e+00	 9.864139597540504e+00	 8.874328382892680e-01
-3.959797974620000e+00	 1.018233764908000e+01	 9.200676647260257e-01
-7.071067811875000e-01	 7.071067811850000e+00	 6.592995601679075e-01
-1.025304832724375e+00	 7.389265863380500e+00	 6.784893614525175e-01
-1.343502884260001e+00	 7.707463914912001e+00	 6.990170731523717e-01
-1.661700935794376e+00	 8.025661966444503e+00	 7.212682916971188e-01
-1.979898987327501e+00	 8.343860017978002e+00	 7.456286308127966e-01
-2.298097038859376e+00	 8.662058069512502e+00	 7.724837215228328e-01
-2.616295090390002e+00	 8.980256121048003e+00	 8.022192121490705e-01
-2.934493141919377e+00	 9.298454172584503e+00	 8.352207683127819e-01
-3.252691193447502e+00	 9.616652224122003e+00	 8.586723748218541e-01
-3.570889244974377e+00	 9.934850275660501e+00	 8.860282165068050e-01
-3.889087296500000e+00	 1.025304832720000e+01	 9.176232537186281e-01
-6.363961030720000e-01	 7.141778489970000e+00	 6.576312050462622e-01
-9.545941546096405e-01	 7.459976541500501e+00	 6.772601925026707e-01
-1.272792206145761e+00	 7.778174593032001e+00	 6.980278262473959e-01
-1.590990257680361e+00	 8.096372644564500e+00	 7.203197023065715e-01
-1.909188309213441e+00	 8.414570696098002e+00	 7.445214340027485e-01
-2.227386360745001e+00	 8.732768747632502e+00	 7.710186519559135e-01
-2.545584412275042e+00	 9.050966799168004e+00	 8.001970040844912e-01
-2.863782463803562e+00	 9.369164850704502e+00	 8.324421556063771e-01
-3.181980515330562e+00	 9.687362902242004e+00	 8.581418358389289e-01
-3.500178566856042e+00	 1.000556095378050e+01	 8.846485184148491e-01
-3.818376618380000e+00	 1.032375900532000e+01	 9.152703884264529e-01
-5.656854249555001e-01	 7.212489168090000e+00	 6.555412152227382e-01
-8.838834764937356e-01	 7.530687219620501e+00	 6.756706338856469e-01
-1.202081528030240e+00	 7.848885271152000e+00	 6.967394343654563e-01
-1.520279579565016e+00	 8.167083322684501e+00	 7.191332122847749e-01
-1.838477631098061e+00	 8.485281374218001e+00	 7.432375805626589e-01
-2.156675682629376e+00	 8.803479425752501e+00	 7.694381694156310e-01
-2.474873734158962e+00	 9.121677477288003e+00	 7.981206263586953e-01
-2.793071785686817e+00	 9.439875528824501e+00	 8.296706162063523e-01
-3.111269837212942e+00	 9.758073580362002e+00	 8.575656586486315e-01
-3.429467888737337e+00	 1.007627163190050e+01	 8.832898040104054e-01
-3.747665940260000e+00	 1.039446968344000e+01	 9.170354342130363e-01
-4.949747468380000e-01	 7.283199846210000e+00	 6.530367999063513e-01
-8.131727983766603e-01	 7.601397897740501e+00	 6.737278948303770e-01
-1.131370849913441e+00	 7.919595949272002e+00	 6.951591067554007e-01
-1.449568901448341e+00	 8.237794000804501e+00	 7.177160309004886e-01
-1.767766952981361e+00	 8.555992052338002e+00	 7.417842797811943e-01
-2.085965004512501e+00	 8.874190103872500e+00	 7.677494832105667e-01
-2.404163056041762e+00	 9.192388155408002e+00	 7.959972883001676e-01
-2.722361107569141e+00	 9.510586206944502e+00	 8.269133594610942e-01
-3.040559159094642e+00	 9.828784258482003e+00	 8.569399032503373e-01
-3.358757210618262e+00	 1.014698231002050e+01	 8.819481332621540e-01
-3.676955262140000e+00	 1.046518036156000e+01	 9.207191319666118e-01
-4.242640687195001e-01	 7.353910524330001e+00	 6.501251683660048e-01
-7.424621202584154e-01	 7.672108575860500e+00	 6.714391846256813e-01
-1.060660171795361e+00	 7.990306627392000e+00	 6.932940527259637e-01
-1.378858223330336e+00	 8.308504678924502e+00	 7.160753674823654e-01
-1.697056274863341e+00	 8.626702730458002e+00	 7.401687410069206e-01
-2.015254326394377e+00	 8.944900781992501e+00	 7.659598027091892e-01
-2.333452377923442e+00	 9.263098833528002e+00	 7.938341992972863e-01
-2.651650429450537e+00	 9.581296885064503e+00	 8.241775947788816e-01
-2.969848480975662e+00	 9.899494936602002e+00	 8.562606296150883e-01
-3.288046532498817e+00	 1.021769298814050e+01	 8.806195661104326e-01
-3.606244584020000e+00	 1.053589103968000e+01	 9.246994651669450e-01
-3.535533906000000e-01	 7.424621202450000e+00	 6.468135299304848e-01
-6.717514421390002e-01	 7.742819253980501e+00	 6.688117126202714e-01
-9.899494936760007e-01	 8.061017305512001e+00	 6.911514816457736e-01
-1.308147545211001e+00	 8.379215357044501e+00	 7.142184314189445e-01
-1.626345596744001e+00	 8.697413408578001e+00	 7.383981736482832e-01
-1.944543648275002e+00	 9.015611460112503e+00	 7.640763373398557e-01
-2.262741699804002e+00	 9.333809511648003e+00	 7.916385687983112e-01
-2.580939751331002e+00	 9.652007563184501e+00	 8.214705316278892e-01
-2.899137802856002e+00	 9.970205614722001e+00	 8.539579067334430e-01
-3.217335854379002e+00	 1.028840366626050e+01	 8.793001624672366e-01
-3.535533905900000e+00	 1.060660171780000e+01	 9.289772030984662e-01
-7.071067812000000e-01	 7.071067812000000e-01	 2.981990343843404e-01
-1.025304832739500e+00	 1.025304832739500e+00	 4.006902907059064e-01
-1.343502884278000e+00	 1.343502884278000e+00	 4.950483973947499e-01
-1.661700935815500e+00	 1.661700935815500e+00	 5.812733544496260e-01
-1.979898987352000e+00	 1.979898987352000e+00	 6.593651618693811e-01
-2.298097038887500e+00	 2.298097038887500e+00	 7.293238196529448e-01
-2.616295090422000e+00	 2.616295090422000e+00	 7.911493277993392e-01
-2.934493141955500e+00	 2.934493141955500e+00	 8.448416863076673e-01
-3.252691193488000e+00	 3.252691193488000e+00	 8.865438134168422e-01
-3.570889245019500e+00	 3.570889245019500e+00	 9.133778022379730e-01
-3.889087296550000e+00	 3.889087296550000e+00	 9.227578624809667e-01
-5.656854249600001e-01	 8.485281374395001e-01	 2.753752851102419e-01
-8.838834764995001e-01	 1.166726188975580e+00	 3.805632430642827e-01
-1.202081528038000e+00	 1.484924240511220e+00	 4.773000643105112e-01
-1.520279579575500e+00	 1.803122292046420e+00	 5.655857488478635e-01
-1.838477631111999e+00	 2.121320343581179e+00	 6.454202966753537e-01
-2.156675682647501e+00	 2.439518395115500e+00	 7.168037077920771e-01
-2.474873734182000e+00	 2.757716446649380e+00	 7.797359821972059e-01
-2.793071785715500e+00	 3.075914498182820e+00	 8.342171198899917e-01
-3.111269837248000e+00	 3.394112549715820e+00	 8.774202589595155e-01
-3.429467888779500e+00	 3.712310601248380e+00	 8.938967322821301e-01
-3.747665940310000e+00	 4.030508652780500e+00	 9.011454673893903e-01
-4.242640687200000e-01	 9.899494936780000e-01	 2.522730733731979e-01
-7.424621202595000e-01	 1.308147545211220e+00	 3.603147268937469e-01
-1.060660171798000e+00	 1.626345596744480e+00	 4.595872566314117e-01
-1.378858223335500e+00	 1.944543648277780e+00	 5.500906625853084e-01
-1.697056274872000e+00	 2.262741699811121e+00	 6.318249447546205e-01
-2.015254326407501e+00	 2.580939751344501e+00	 7.047901031386041e-01
-2.333452377942000e+00	 2.899137802877921e+00	 7.689861377365854e-01
-2.651650429475500e+00	 3.217335854411380e+00	 8.244130485479559e-01
-2.969848481008000e+00	 3.535533905944879e+00	 8.645179776725673e-01
-3.288046532539500e+00	 3.853731957478419e+00	 8.757780005963824e-01
-3.606244584070000e+00	 4.171930009012000e+00	 8.810485168265162e-01
-2.828427124799999e-01	 1.131370849915500e+00	 2.288923991733044e-01
-6.010407640194999e-01	 1.449568901446420e+00	 3.399447421943775e-01
-9.192388155580001e-01	 1.767766952977780e+00	 4.419099743575168e-01
-1.237436867095500e+00	 2.085965004509581e+00	 5.347880956620119e-01
-1.555634918632000e+00	 2.404163056041821e+00	 6.185791061072199e-01
-1.873832970167500e+00	 2.722361107574501e+00	 6.932830056925559e-01
-2.192031021702000e+00	 3.040559159107620e+00	 7.588997944174893e-01
-2.510229073235500e+00	 3.358757210641180e+00	 8.154294722815543e-01
-2.828427124768000e+00	 3.676955262175179e+00	 8.464775995178020e-01
-3.146625176299500e+00	 3.995153313709620e+00	 8.589900926287196e-01
-3.464823227830001e+00	 4.313351365244501e+00	 8.624355026096973e-01
-1.414213562400000e-01	 1.272792206152000e+00	 2.052332625106559e-01
-4.596194077794999e-01	 1.590990257681180e+00	 3.194532889662582e-01
-7.778174593179999e-01	 1.909188309211120e+00	 4.242682174888911e-01
-1.096015510855500e+00	 2.227386360741821e+00	 5.196780480780259e-01
-1.414213562392000e+00	 2.545584412273280e+00	 6.056827807331884e-01
-1.732411613927500e+00	 2.863782463805500e+00	 6.822824154539483e-01
-2.050609665462000e+00	 3.181980515338480e+00	 7.494769522399255e-01
-2.368807716995500e+00	 3.500178566872221e+00	 8.032131686098706e-01
-2.687005768528000e+00	 3.818376618406720e+00	 8.278669130498781e-01
-3.005203820059498e+00	 4.136574669941979e+00	 8.435014999888957e-01
-3.323401871590000e+00	 4.454772721478000e+00	 8.452749161031932e-01
 0.000000000000000e+00	 1.414213562387500e+00	 1.812956633853476e-01
-3.181980515394999e-01	 1.732411613915500e+00	 2.988403672094666e-01
-6.363961030780002e-01	 2.050609665444501e+00	 4.066619860256003e-01
-9.545941546155002e-01	 2.368807716974501e+00	 5.047605198334013e-01
-1.272792206152000e+00	 2.687005768505500e+00	 5.931359686325617e-01
-1.590990257687500e+00	 3.005203820037500e+00	 6.717883324228080e-01
-1.909188309222000e+00	 3.323401871570499e+00	 7.407176112039031e-01
-2.227386360755500e+00	 3.641599923104501e+00	 7.842465097873488e-01
-2.545584412288000e+00	 3.959797974639500e+00	 8.093474593101899e-01
-2.863782463819500e+00	 4.277996026175499e+00	 8.268290592768819e-01
-3.181980515350000e+00	 4.596194077712500e+00	 8.295352482181542e-01
 1.414213562400000e-01	 1.555634918622000e+00	 1.570796017974713e-01
-1.767766952995000e-01	 1.873832970149380e+00	 2.781059769240805e-01
-4.949747468379999e-01	 2.192031021677920e+00	 3.890912799677071e-01
-8.131727983755002e-01	 2.510229073207620e+00	 4.900355109281836e-01
-1.131370849912000e+00	 2.828427124738480e+00	 5.809386698053712e-01
-1.449568901447500e+00	 3.146625176270499e+00	 6.618007565991528e-01
-1.767766952981999e+00	 3.464823227803680e+00	 7.311971974248256e-01
-2.085965004515500e+00	 3.783021279338020e+00	 7.652971357676227e-01
-2.404163056048000e+00	 4.101219330873519e+00	 7.909768936910306e-01
-2.722361107579500e+00	 4.419417382410179e+00	 8.086220115778263e-01
-3.040559159110000e+00	 4.737615433948000e+00	 8.151849894126171e-01
 2.828427124799999e-01	 1.697056274855500e+00	 1.325850777471218e-01
-3.535533905950006e-02	 2.015254326382820e+00	 2.572501181101763e-01
-3.535533905980002e-01	 2.333452377911380e+00	 3.715560993152706e-01
-6.717514421355002e-01	 2.651650429441180e+00	 4.755030213624192e-01
-9.899494936720001e-01	 2.969848480972220e+00	 5.690908842516526e-01
-1.308147545207500e+00	 3.288046532504500e+00	 6.523196879830024e-01
-1.626345596742000e+00	 3.606244584038020e+00	 7.111970754667408e-01
-1.944543648275500e+00	 3.924442635572780e+00	 7.464227011947074e-01
-2.262741699808000e+00	 4.242640687108779e+00	 7.728128725424088e-01
-2.580939751339500e+00	 4.560838738646019e+00	 7.907531119955674e-01
-2.899137802870000e+00	 4.879036790184500e+00	 8.006289766041295e-01
 4.242640687199999e-01	 1.838477631088000e+00	 1.078120912343924e-01
 1.060660171804999e-01	 2.156675682615820e+00	 2.362727907678311e-01
-2.121320343580002e-01	 2.474873734144880e+00	 3.540564440683514e-01
-5.303300858955001e-01	 2.793071785675180e+00	 4.611630511361535e-01
-8.485281374320002e-01	 3.111269837206720e+00	 5.575926119714329e-01
-1.166726188967500e+00	 3.429467888739500e+00	 6.433451265743726e-01
-1.484924240502000e+00	 3.747665940273519e+00	 6.911979091800105e-01
-1.803122292035500e+00	 4.065863991808779e+00	 7.276808632171670e-01
-2.121320343568000e+00	 4.384062043345280e+00	 7.549130531720736e-01
-2.439518395099500e+00	 4.702260094883020e+00	 7.732800179970271e-01
-2.757716446630000e+00	 5.020458146422000e+00	 7.831673139357350e-01
 5.656854249599998e-01	 1.979898987319500e+00	 8.276064225937702e-02
 2.474873734204999e-01	 2.298097038848380e+00	 2.151739948971177e-01
-7.071067811800015e-02	 2.616295090378420e+00	 3.365923142270082e-01
-3.889087296555003e-01	 2.934493141909620e+00	 4.470156002494278e-01
-7.071067811920002e-01	 3.252691193441980e+00	 5.464438529647399e-01
-1.025304832727500e+00	 3.570889244975500e+00	 6.233339689903088e-01
-1.343502884262000e+00	 3.889087296510181e+00	 6.712574081482681e-01
-1.661700935795500e+00	 4.207285348046020e+00	 7.091292799413129e-01
-1.979898987328000e+00	 4.525483399583019e+00	 7.373350938455390e-01
-2.298097038859499e+00	 4.843681451121180e+00	 7.562603880069015e-01
-2.616295090390000e+00	 5.161879502660500e+00	 7.662907178628136e-01
 7.071067812000000e-01	 2.121320343550000e+00	 5.743073082216460e-02
 3.889087296605001e-01	 2.439518395080500e+00	 1.939537304981121e-01
 7.071067812200001e-02	 2.757716446612000e+00	 3.191637097912951e-01
-2.474873734155001e-01	 3.075914498144500e+00	 4.330606687022821e-01
-5.656854249520000e-01	 3.394112549678000e+00	 5.356446072316005e-01
-8.838834764874999e-01	 3.712310601212500e+00	 6.015739444539033e-01
-1.202081528022000e+00	 4.030508652747999e+00	 6.514332140035228e-01
-1.520279579555500e+00	 4.348706704284500e+00	 6.908256104312345e-01
-1.838477631088000e+00	 4.666904755822000e+00	 7.201366537861065e-01
-2.156675682619499e+00	 4.985102807360500e+00	 7.397518814076901e-01
-2.474873734150000e+00	 5.303300858900000e+00	 7.500568479270477e-01
-3.889087296550000e+00	 3.889087296550000e+00	 9.227578624809667e-01
-4.207285348080500e+00	 4.207285348080500e+00	 9.270677626295056e-01
-4.525483399612001e+00	 4.525483399612001e+00	 9.325311609628724e-01
-4.843681451144501e+00	 4.843681451144501e+00	 9.392069489267568e-01
-5.161879502678001e+00	 5.161879502678001e+00	 9.471540175371521e-01
-5.480077554212501e+00	 5.480077554212501e+00	 9.564312573802605e-01
-5.798275605748001e+00	 5.798275605748001e+00	 9.670975586123793e-01
-6.116473657284502e+00	 6.116473657284502e+00	 9.792118109598114e-01
-6.434671708822003e+00	 6.434671708822003e+00	 9.928329037187535e-01
-6.752869760360502e+00	 6.752869760360502e+00	 1.008019725755202e+00
-7.071067811900000e+00	 7.071067811900000e+00	 1.024831165504847e+00
-3.747665940310000e+00	 4.030508652780500e+00	 9.011454673893903e-01
-4.065863991840500e+00	 4.348706704312799e+00	 9.063353686425824e-01
-4.384062043372000e+00	 4.666904755845901e+00	 9.128428896263119e-01
-4.702260094904502e+00	 4.985102807379801e+00	 9.207269230286588e-01
-5.020458146438002e+00	 5.303300858914501e+00	 9.300463611080365e-01
-5.338656197972500e+00	 5.621498910450001e+00	 9.408600956931026e-01
-5.656854249508002e+00	 5.939696961986303e+00	 9.532270181826403e-01
-5.975052301044502e+00	 6.257895013523402e+00	 9.672060195454711e-01
-6.293250352582001e+00	 6.576093065061301e+00	 9.828559903203471e-01
-6.611448404120503e+00	 6.894291116600003e+00	 1.000235820615846e+00
-6.929646455659999e+00	 7.212489168139501e+00	 1.019404400110275e+00
-3.606244584070000e+00	 4.171930009012000e+00	 8.810485168265162e-01
-3.924442635600501e+00	 4.490128060545901e+00	 8.869937362758124e-01
-4.242640687132001e+00	 4.808326112080401e+00	 8.944206973977171e-01
-4.560838738664500e+00	 5.126524163615501e+00	 9.033882941227220e-01
-4.879036790198001e+00	 5.444722215151201e+00	 9.139554199516863e-01
-5.197234841732502e+00	 5.762920266687503e+00	 9.261809679557382e-01
-5.515432893268001e+00	 6.081118318224401e+00	 9.401238307761756e-01
-5.833630944804502e+00	 6.399316369761902e+00	 9.558429006243609e-01
-6.151828996342001e+00	 6.717514421300001e+00	 9.733970692816173e-01
-6.470027047880503e+00	 7.035712472838703e+00	 9.928452280991340e-01
-6.788225099420000e+00	 7.353910524378000e+00	 1.014246267997855e+00
-3.464823227830001e+00	 4.313351365244501e+00	 8.624355026096973e-01
-3.783021279360500e+00	 4.631549416779800e+00	 8.690113571010816e-01
-4.101219330892001e+00	 4.949747468315501e+00	 8.772330756035089e-01
-4.419417382424502e+00	 5.267945519851603e+00	 8.871595532899034e-01
-4.737615433958002e+00	 5.586143571388102e+00	 8.988496849035919e-01
-5.055813485492502e+00	 5.904341622925002e+00	 9.123623647582005e-01
-5.374011537028003e+00	 6.222539674462302e+00	 9.277564867375589e-01
-5.692209588564504e+00	 6.540737726000003e+00	 9.450909442955922e-01
-6.010407640102002e+00	 6.858935777538103e+00	 9.644246304562217e-01
-6.328605691640503e+00	 7.177133829076603e+00	 9.858164378132652e-01
-6.646803743180000e+00	 7.495331880615500e+00	 1.009325258530330e+00
-3.323401871590000e+00	 4.454772721478000e+00	 8.452749161031932e-01
-3.641599923120500e+00	 4.772970773014500e+00	 8.523567222371744e-01
-3.959797974652001e+00	 5.091168824551201e+00	 8.612485151169955e-01
-4.277996026184502e+00	 5.409366876088101e+00	 8.720091911580377e-01
-4.596194077718002e+00	 5.727564927625203e+00	 8.846976463461176e-01
-4.914392129252502e+00	 6.045762979162501e+00	 8.993727762373813e-01
-5.232590180788002e+00	 6.363961030700001e+00	 9.160934759582123e-01
-5.550788232324503e+00	 6.682159082237702e+00	 9.349186402051223e-01
-5.868986283862001e+00	 7.000357133775601e+00	 9.559071632446516e-01
-6.187184335400503e+00	 7.318555185313703e+00	 9.791179389132691e-01
-6.505382386940000e+00	 7.636753236852000e+00	 1.004609860617266e+00
-3.181980515350000e+00	 4.596194077712500e+00	 8.295352482181542e-01
-3.500178566880500e+00	 4.914392129250001e+00	 8.369983223497546e-01
-3.818376618412000e+00	 5.232590180787500e+00	 8.464355063583610e-01
-4.136574669944501e+00	 5.550788232325001e+00	 8.579056979018300e-01
-4.454772721478000e+00	 5.868986283862500e+00	 8.714677942084886e-01
-4.772970773012503e+00	 6.187184335400001e+00	 8.871806920770284e-01
-5.091168824548000e+00	 6.505382386937500e+00	 9.051032878764071e-01
-5.409366876084501e+00	 6.823580438475002e+00	 9.252944775457476e-01
-5.727564927622003e+00	 7.141778490012502e+00	 9.478131565942284e-01
-6.045762979160502e+00	 7.459976541550001e+00	 9.727182201009946e-01
-6.363961030700001e+00	 7.778174593087501e+00	 1.000068562715043e+00
-3.040559159110000e+00	 4.737615433948000e+00	 8.151849894126171e-01
-3.358757210640501e+00	 5.055813485486300e+00	 8.229046476513678e-01
-3.676955262172001e+00	 5.374011537024400e+00	 8.327625392946558e-01
-3.995153313704501e+00	 5.692209588562301e+00	 8.448175632428403e-01
-4.313351365238002e+00	 6.010407640100001e+00	 8.591286179667790e-01
-4.631549416772502e+00	 6.328605691637502e+00	 8.757546015077289e-01
-4.949747468308002e+00	 6.646803743174803e+00	 8.947544114772479e-01
-5.267945519844503e+00	 6.965001794711903e+00	 9.161869450570861e-01
-5.586143571382002e+00	 7.283199846248803e+00	 9.401110989990911e-01
-5.904341622920501e+00	 7.601397897785502e+00	 9.665857696251008e-01
-6.222539674459999e+00	 7.919595949322000e+00	 9.956698528268422e-01
-2.899137802870000e+00	 4.879036790184500e+00	 8.006289766041295e-01
-3.217335854400500e+00	 5.197234841723399e+00	 8.100441879014212e-01
-3.535533905932001e+00	 5.515432893261901e+00	 8.201981034397914e-01
-3.853731957464501e+00	 5.833630944800001e+00	 8.327132764494829e-01
-4.171930008998001e+00	 6.151828996337702e+00	 8.476486066439046e-01
-4.490128060532502e+00	 6.470027047875002e+00	 8.650629933069049e-01
-4.808326112068002e+00	 6.788225099411903e+00	 8.850153352926623e-01
-5.126524163604503e+00	 7.106423150948401e+00	 9.075645310255793e-01
-5.444722215142002e+00	 7.424621202484502e+00	 9.327694785001881e-01
-5.762920266680503e+00	 7.742819254020202e+00	 9.606890752810464e-01
-6.081118318220000e+00	 8.061017305555499e+00	 9.913822185026335e-01
-2.757716446630000e+00	 5.020458146422000e+00	 7.831673139357350e-01
-3.075914498160500e+00	 5.338656197961300e+00	 7.983854324061772e-01
-3.394112549692001e+00	 5.656854249500001e+00	 8.087106878545239e-01
-3.712310601224502e+00	 5.975052301038101e+00	 8.215613263370054e-01
-4.030508652758003e+00	 6.293250352575602e+00	 8.369962488096129e-01
-4.348706704292502e+00	 6.611448404112502e+00	 8.550743557988025e-01
-4.666904755828001e+00	 6.929646455648801e+00	 8.758545474013937e-01
-4.985102807364501e+00	 7.247844507184500e+00	 8.993957232844679e-01
-5.303300858902003e+00	 7.566042558719602e+00	 9.257567826852644e-01
-5.621498910440502e+00	 7.884240610254102e+00	 9.549966244110818e-01
-5.939696961980001e+00	 8.202438661788001e+00	 9.871741468391731e-01
-2.616295090390000e+00	 5.161879502660500e+00	 7.662907178628136e-01
-2.934493141920500e+00	 5.480077554200000e+00	 7.876272107681128e-01
-3.252691193452000e+00	 5.798275605738699e+00	 7.982687811464481e-01
-3.570889244984501e+00	 6.116473657276600e+00	 8.113302012674922e-01
-3.889087296518001e+00	 6.434671708813699e+00	 8.271400325804732e-01
-4.207285348052501e+00	 6.752869760350001e+00	 8.457571768544774e-01
-4.525483399588002e+00	 7.071067811885502e+00	 8.672405354289917e-01
-4.843681451124502e+00	 7.389265863420202e+00	 8.916490092137935e-01
-5.161879502662001e+00	 7.707463914954101e+00	 9.190414986888549e-01
-5.480077554200502e+00	 8.025661966487203e+00	 9.494769039042362e-01
-5.798275605740000e+00	 8.343860018019500e+00	 9.830141244799864e-01
-2.474873734150000e+00	 5.303300858900000e+00	 7.500568479270477e-01
-2.793071785680501e+00	 5.621498910439501e+00	 7.720286717422010e-01
-3.111269837212001e+00	 5.939696961978001e+00	 7.888408714699846e-01
-3.429467888744500e+00	 6.257895013515500e+00	 8.019883891498423e-01
-3.747665940278001e+00	 6.576093065052001e+00	 8.180484456198627e-01
-4.065863991812502e+00	 6.894291116587501e+00	 8.370799438917912e-01
-4.384062043348002e+00	 7.212489168122003e+00	 8.591417865477977e-01
-4.702260094884503e+00	 7.530687219655503e+00	 8.842928757403835e-01
-5.020458146422001e+00	 7.848885271188002e+00	 9.125921131922720e-01
-5.338656197960502e+00	 8.167083322719503e+00	 9.440984001963102e-01
-5.656854249500000e+00	 8.485281374250000e+00	 9.788706376153622e-01
 7.071067812000000e-01	 2.121320343550000e+00	 5.743073082216460e-02
 3.889087296605001e-01	 2.439518395080500e+00	 1.939537304981121e-01
 7.071067812200001e-02	 2.757716446612000e+00	 3.191637097912951e-01
-2.474873734155001e-01	 3.075914498144500e+00	 4.330606687022821e-01
-5.656854249520000e-01	 3.394112549678000e+00	 5.356446072316005e-01
-8.838834764874999e-01	 3.712310601212500e+00	 6.015739444539033e-01
-1.202081528022000e+00	 4.030508652747999e+00	 6.514332140035228e-01
-1.520279579555500e+00	 4.348706704284500e+00	 6.908256104312345e-01
-1.838477631088000e+00	 4.666904755822000e+00	 7.201366537861065e-01
-2.156675682619499e+00	 4.985102807360500e+00	 7.397518814076901e-01
-2.474873734150000e+00	 5.303300858900000e+00	 7.500568479270477e-01
 8.485281374400002e-01	 2.262741699780500e+00	 3.651151809754372e-02
 5.303300859005002e-01	 2.580939751312800e+00	 1.778292464355949e-01
 2.121320343620002e-01	 2.899137802845900e+00	 3.073755222785467e-01
-1.060660171754999e-01	 3.217335854379801e+00	 4.251503456269551e-01
-4.242640687119999e-01	 3.535533905914500e+00	 5.226207696379401e-01
-7.424621202474999e-01	 3.853731957450001e+00	 5.857814388795357e-01
-1.060660171782000e+00	 4.171930008986299e+00	 6.375339983578071e-01
-1.378858223315500e+00	 4.490128060523400e+00	 6.782639439208948e-01
-1.697056274848000e+00	 4.808326112061301e+00	 7.083567948112498e-01
-2.015254326379499e+00	 5.126524163600000e+00	 7.281980875618709e-01
-2.333452377910000e+00	 5.444722215139500e+00	 7.381733759973260e-01
 9.899494936800003e-01	 2.404163056012000e+00	 1.849766302589739e-02
 6.717514421405005e-01	 2.722361107545900e+00	 1.644186785713033e-01
 3.535533906020003e-01	 3.040559159080400e+00	 2.981098095092886e-01
 3.535533906450024e-02	 3.358757210615499e+00	 4.195710558403907e-01
-2.828427124719996e-01	 3.676955262151200e+00	 5.061377156473393e-01
-6.010407640074996e-01	 3.995153313687500e+00	 5.715305954724024e-01
-9.192388155419995e-01	 4.313351365224400e+00	 6.249596180653618e-01
-1.237436867075500e+00	 4.631549416761900e+00	 6.668102845723987e-01
-1.555634918607999e+00	 4.949747468299999e+00	 6.974681134292934e-01
-1.873832970139499e+00	 5.267945519838700e+00	 7.173186403624355e-01
-2.192031021670000e+00	 5.586143571378000e+00	 7.267474183898457e-01
 1.131370849920000e+00	 2.545584412244501e+00	 3.389165607129402e-03
 8.131727983805003e-01	 2.863782463779801e+00	 1.537220269051579e-01
 4.949747468420004e-01	 3.181980515315500e+00	 2.913665714834547e-01
 1.767766953045003e-01	 3.500178566851601e+00	 4.111574770014693e-01
-1.414213562319996e-01	 3.818376618388100e+00	 4.914708168249345e-01
-4.596194077674994e-01	 4.136574669925000e+00	 5.588790758514617e-01
-7.778174593019994e-01	 4.454772721462300e+00	 6.137677349044484e-01
-1.096015510835499e+00	 4.772970773000000e+00	 6.565222943232925e-01
-1.414213562367999e+00	 5.091168824538101e+00	 6.875282717370486e-01
-1.732411613899500e+00	 5.409366876076601e+00	 7.071712020654422e-01
-2.050609665430000e+00	 5.727564927615501e+00	 7.158366375198910e-01
 1.272792206160001e+00	 2.687005768478001e+00	-8.813974158846438e-03
 9.545941546205006e-01	 3.005203820014501e+00	 1.457392914370857e-01
 6.363961030820006e-01	 3.323401871551201e+00	 2.871458082009875e-01
 3.181980515445003e-01	 3.641599923088100e+00	 3.960100900370678e-01
 8.000315687706207e-12	 3.959797974625201e+00	 4.786777294834216e-01
-3.181980515274995e-01	 4.277996026162501e+00	 5.478845425935117e-01
-6.363961030619995e-01	 4.596194077700001e+00	 6.040160116111817e-01
-9.545941545954993e-01	 4.914392129237700e+00	 6.474576360689895e-01
-1.272792206127999e+00	 5.232590180775601e+00	 6.785949327892061e-01
-1.590990257659499e+00	 5.550788232313701e+00	 6.978134358848406e-01
-1.909188309189999e+00	 5.868986283852001e+00	 7.054986967606491e-01
 1.414213562400001e+00	 2.828427124712501e+00	-1.811175627211473e-02
 1.096015510860501e+00	 3.146625176250000e+00	 1.404704721670205e-01
 7.778174593220004e-01	 3.464823227787500e+00	 2.838038555296309e-01
 4.596194077845006e-01	 3.783021279325001e+00	 3.830110037373649e-01
 1.414213562480006e-01	 4.101219330862501e+00	 4.678161169981161e-01
-1.767766952874994e-01	 4.419417382400001e+00	 5.386046592332171e-01
-4.949747468219994e-01	 4.737615433937502e+00	 5.957621118795554e-01
-8.131727983554993e-01	 5.055813485475001e+00	 6.396739736627867e-01
-1.131370849887999e+00	 5.374011537012500e+00	 6.707257605983532e-01
-1.449568901419499e+00	 5.692209588550001e+00	 6.893030059924872e-01
-1.767766952950000e+00	 6.010407640087501e+00	 6.957912604432317e-01
 1.555634918640001e+00	 2.969848480948001e+00	-2.450418073274974e-02
 1.237436867100501e+00	 3.288046532486301e+00	 1.379155690949009e-01
 9.192388155620005e-01	 3.606244584024401e+00	 2.705343567650357e-01
 6.010407640245006e-01	 3.924442635562301e+00	 3.722178800488252e-01
 2.828427124880007e-01	 4.242640687100000e+00	 4.589436437022132e-01
-3.535533904749925e-02	 4.560838738637500e+00	 5.310970902631325e-01
-3.535533905819994e-01	 4.879036790174801e+00	 5.890637003614616e-01
-6.717514421154992e-01	 5.197234841711902e+00	 6.332289719159037e-01
-9.899494936479989e-01	 5.515432893248801e+00	 6.639784201350105e-01
-1.308147545179499e+00	 5.833630944785501e+00	 6.816975775181858e-01
-1.626345596709999e+00	 6.151828996321999e+00	 6.867719938567007e-01
 1.697056274880001e+00	 3.111269837184501e+00	-2.799124754082419e-02
 1.378858223340501e+00	 3.429467888723401e+00	 1.380745822206690e-01
 1.060660171802001e+00	 3.747665940261901e+00	 2.597452662478326e-01
 7.424621202645008e-01	 4.065863991800001e+00	 3.636883841031540e-01
 4.242640687280008e-01	 4.384062043337701e+00	 4.521179748868030e-01
 1.060660171925009e-01	 4.702260094875001e+00	 5.254195011337208e-01
-2.121320343419991e-01	 5.020458146411902e+00	 5.839784426667162e-01
-5.303300858754990e-01	 5.338656197948401e+00	 6.281802965974883e-01
-8.485281374079989e-01	 5.656854249484501e+00	 6.584105773276387e-01
-1.166726188939499e+00	 5.975052301020201e+00	 6.750548165496890e-01
-1.484924240469999e+00	 6.293250352555501e+00	 6.784985632480895e-01
 1.838477631120001e+00	 3.252691193422001e+00	-2.857295669639975e-02
 1.520279579580501e+00	 3.570889244961301e+00	 1.290537348917079e-01
 1.202081528042001e+00	 3.889087296500001e+00	 2.514943120928010e-01
 8.838834765045009e-01	 4.207285348038101e+00	 3.574801819899599e-01
 5.656854249680008e-01	 4.525483399575601e+00	 4.473967768009028e-01
 2.474873734325010e-01	 4.843681451112501e+00	 5.216295582533812e-01
-7.071067810199896e-02	 5.161879502648801e+00	 5.805640053630826e-01
-3.889087296354989e-01	 5.480077554184501e+00	 6.245856144346463e-01
-7.071067811679986e-01	 5.798275605719601e+00	 6.540798990626744e-01
-1.025304832699499e+00	 6.116473657254101e+00	 6.694323901327448e-01
-1.343502884229999e+00	 6.434671708788001e+00	 6.710286358224278e-01
 1.979898987360001e+00	 3.394112549660501e+00	-2.624930819953489e-02
 1.661700935820501e+00	 3.712310601200001e+00	 1.210168718993070e-01
 1.343502884282001e+00	 4.030508652738701e+00	 2.458391403839147e-01
 1.025304832744501e+00	 4.348706704276601e+00	 3.536509407567922e-01
 7.071067812080010e-01	 4.666904755813702e+00	 4.448377166514700e-01
 3.889087296725012e-01	 4.985102807350001e+00	 5.197849289884690e-01
 7.071067813800115e-02	 5.303300858885501e+00	 5.788780559762937e-01
-2.474873733954988e-01	 5.621498910420200e+00	 6.225025931124702e-01
-5.656854249279987e-01	 5.939696961954101e+00	 6.510440531845417e-01
-8.838834764594987e-01	 6.257895013487200e+00	 6.648879662710915e-01
-1.202081527989999e+00	 6.576093065019501e+00	 6.644198797427588e-01
 2.121320343600000e+00	 3.535533905900000e+00	-2.908847379626445e-02
 1.803122292060500e+00	 3.853731957439500e+00	 1.158502914515083e-01
 1.484924240522000e+00	 4.171930008977999e+00	 2.428374189672300e-01
 1.166726188984500e+00	 4.490128060515501e+00	 3.522583284091443e-01
 8.485281374479999e-01	 4.808326112052000e+00	 4.444984626034344e-01
 5.303300859125000e-01	 5.126524163587500e+00	 5.199432816633175e-01
 2.121320343780000e-01	 5.444722215122000e+00	 5.789782629900750e-01
-1.060660171554999e-01	 5.762920266655501e+00	 6.219889012740514e-01
-4.242640686879998e-01	 6.081118318188000e+00	 6.493607084956861e-01
-7.424621202194999e-01	 6.399316369719500e+00	 6.614792139265093e-01
-1.060660171750000e+00	 6.717514421250000e+00	 6.587299641301674e-01
-2.474873734150000e+00	 5.303300858900000e+00	 7.500568479270477e-01
-2.793071785680501e+00	 5.621498910439501e+00	 7.720286717422010e-01
-3.111269837212001e+00	 5.939696961978001e+00	 7.888408714699846e-01
-3.429467888744500e+00	 6.257895013515500e+00	 8.019883891498423e-01
-3.747665940278001e+00	 6.576093065052001e+00	 8.180484456198627e-01
-4.065863991812502e+00	 6.894291116587501e+00	 8.370799438917912e-01
-4.384062043348002e+00	 7.212489168122003e+00	 8.591417865477977e-01
-4.702260094884503e+00	 7.530687219655503e+00	 8.842928757403835e-01
-5.020458146422001e+00	 7.848885271188002e+00	 9.125921131922720e-01
-5.338656197960502e+00	 8.167083322719503e+00	 9.440984001963102e-01
-5.656854249500000e+00	 8.485281374250000e+00	 9.788706376153622e-01
-2.333452377910000e+00	 5.444722215139500e+00	 7.381733759973260e-01
-2.651650429440501e+00	 5.762920266678821e+00	 7.600420574544949e-01
-2.969848480972001e+00	 6.081118318216982e+00	 7.829112795914752e-01
-3.288046532504501e+00	 6.399316369753980e+00	 7.955286897485206e-01
-3.606244584038001e+00	 6.717514421289822e+00	 8.112731456208621e-01
-3.924442635572501e+00	 7.035712472824502e+00	 8.302035514628885e-01
-4.242640687108000e+00	 7.353910524358022e+00	 8.523788110994505e-01
-4.560838738644502e+00	 7.672108575890383e+00	 8.778578279257526e-01
-4.879036790182002e+00	 7.990306627421583e+00	 9.066995049072624e-01
-5.197234841720502e+00	 8.308504678951623e+00	 9.389627445795925e-01
-5.515432893260000e+00	 8.626702730480501e+00	 9.747064490484141e-01
-2.192031021670000e+00	 5.586143571378000e+00	 7.267474183898457e-01
-2.510229073200500e+00	 5.904341622916981e+00	 7.483956717883768e-01
-2.828427124732000e+00	 6.222539674454721e+00	 7.724178939368948e-01
-3.146625176264501e+00	 6.540737725991221e+00	 7.896814703571526e-01
-3.464823227798001e+00	 6.858935777526483e+00	 8.050145502479404e-01
-3.783021279332500e+00	 7.177133829060502e+00	 8.237480886726153e-01
-4.101219330868002e+00	 7.495331880593284e+00	 8.459409906987211e-01
-4.419417382404502e+00	 7.813529932124821e+00	 8.716521609641963e-01
-4.737615433942001e+00	 8.131727983655123e+00	 9.009405036772593e-01
-5.055813485480503e+00	 8.449926035184182e+00	 9.338649226163207e-01
-5.374011537020000e+00	 8.768124086712000e+00	 9.704843211298694e-01
-2.050609665430000e+00	 5.727564927615501e+00	 7.158366375198910e-01
-2.368807716960500e+00	 6.045762979153981e+00	 7.371471773183447e-01
-2.687005768492000e+00	 6.363961030691221e+00	 7.608957071569391e-01
-3.005203820024501e+00	 6.682159082227223e+00	 7.844152175250647e-01
-3.323401871558000e+00	 7.000357133761981e+00	 7.992411458048769e-01
-3.641599923092500e+00	 7.318555185295502e+00	 8.176820415791968e-01
-3.959797974628001e+00	 7.636753236827781e+00	 8.397968111582903e-01
-4.277996026164502e+00	 7.954951288358823e+00	 8.656443604228382e-01
-4.596194077702002e+00	 8.273149339888622e+00	 8.952835948238438e-01
-4.914392129240502e+00	 8.591347391417182e+00	 9.287734193825214e-01
-5.232590180779999e+00	 8.909545442944502e+00	 9.661727386902038e-01
-1.909188309189999e+00	 5.868986283852001e+00	 7.054986967606491e-01
-2.227386360720500e+00	 6.187184335389819e+00	 7.263542375768113e-01
-2.545584412252000e+00	 6.505382386926482e+00	 7.497117883454973e-01
-2.863782463784500e+00	 6.823580438461980e+00	 7.759569523527807e-01
-3.181980515318001e+00	 7.141778489996322e+00	 7.939214181422157e-01
-3.500178566852502e+00	 7.459976541529503e+00	 8.119738957876228e-01
-3.818376618388001e+00	 7.778174593061522e+00	 8.339147578375860e-01
-4.136574669924502e+00	 8.096372644592384e+00	 8.598029114155530e-01
-4.454772721462003e+00	 8.414570696122084e+00	 8.896972632153273e-01
-4.772970773000501e+00	 8.732768747650622e+00	 9.236567195009531e-01
-5.091168824540000e+00	 9.050966799177999e+00	 9.617401861066175e-01
-1.767766952950000e+00	 6.010407640087501e+00	 6.957912604432317e-01
-2.085965004480499e+00	 6.328605691624501e+00	 7.160745170541295e-01
-2.404163056012000e+00	 6.646803743160502e+00	 7.389238021521376e-01
-2.722361107544500e+00	 6.965001794695501e+00	 7.647247182168213e-01
-3.040559159078000e+00	 7.283199846229501e+00	 7.890238526572608e-01
-3.358757210612501e+00	 7.601397897762502e+00	 8.065921364496321e-01
-3.676955262148001e+00	 7.919595949294504e+00	 8.282633156427788e-01
-3.995153313684502e+00	 8.237794000825502e+00	 8.540962986029451e-01
-4.313351365222002e+00	 8.555992052355503e+00	 8.841499932667494e-01
-4.631549416760501e+00	 8.874190103884501e+00	 9.184833071410827e-01
-4.949747468299999e+00	 9.192388155412500e+00	 9.571551473030143e-01
-1.626345596709999e+00	 6.151828996321999e+00	 6.867719938567007e-01
-1.944543648240499e+00	 6.470027047858019e+00	 7.063656811986048e-01
-2.262741699772000e+00	 6.788225099393282e+00	 7.285894141843992e-01
-2.580939751304500e+00	 7.106423150927781e+00	 7.538287944870807e-01
-2.899137802838001e+00	 7.424621202461523e+00	 7.824694410756304e-01
-3.217335854372500e+00	 7.742819253994503e+00	 8.015052482637020e-01
-3.535533905908001e+00	 8.061017305526722e+00	 8.228109690267742e-01
-3.853731957444502e+00	 8.379215357058182e+00	 8.484930061923440e-01
-4.171930008982002e+00	 8.697413408588883e+00	 8.786102689398614e-01
-4.490128060520502e+00	 9.015611460118825e+00	 9.132216660190917e-01
-4.808326112060000e+00	 9.333809511648003e+00	 9.523861057499973e-01
-1.484924240469999e+00	 6.293250352555501e+00	 6.784985632480895e-01
-1.803122292000499e+00	 6.611448404090380e+00	 6.972853964165349e-01
-2.121320343532000e+00	 6.929646455624821e+00	 7.187662910078190e-01
-2.439518395064500e+00	 7.247844507158822e+00	 7.433268478883170e-01
-2.757716446598000e+00	 7.566042558692382e+00	 7.713526852204540e-01
-3.075914498132501e+00	 7.884240610225502e+00	 7.966817154750440e-01
-3.394112549668001e+00	 8.202438661758183e+00	 8.175262019892002e-01
-3.712310601204501e+00	 8.520636713290422e+00	 8.429615179377892e-01
-4.030508652742001e+00	 8.838834764822224e+00	 8.730465737431232e-01
-4.348706704280501e+00	 9.157032816353583e+00	 9.078402793978546e-01
-4.666904755819999e+00	 9.475230867884500e+00	 9.474015444648618e-01
-1.343502884229999e+00	 6.434671708788001e+00	 6.710286358224278e-01
-1.661700935760499e+00	 6.752869760321581e+00	 6.888913300722170e-01
-1.979898987292000e+00	 7.071067811855122e+00	 7.095121001459469e-01
-2.298097038824499e+00	 7.389265863388623e+00	 7.332765461033165e-01
-2.616295090358000e+00	 7.707463914922082e+00	 7.605702853001376e-01
-2.934493141892500e+00	 8.025661966455502e+00	 7.917789523893335e-01
-3.252691193428001e+00	 8.343860017988883e+00	 8.123774980763944e-01
-3.570889244964501e+00	 8.662058069522223e+00	 8.374703171400284e-01
-3.889087296502001e+00	 8.980256121055524e+00	 8.674273907316894e-01
-4.207285348040501e+00	 9.298454172588784e+00	 9.023076300869332e-01
-4.525483399579999e+00	 9.616652224122001e+00	 9.421699460115777e-01
-1.202081527989999e+00	 6.576093065019501e+00	 6.644198797427588e-01
-1.520279579520499e+00	 6.894291116551623e+00	 6.812411504879814e-01
-1.838477631051999e+00	 7.212489168084183e+00	 7.008845100803738e-01
-2.156675682584499e+00	 7.530687219617182e+00	 7.237355577729148e-01
-2.474873734118000e+00	 7.848885271150622e+00	 7.501799101147429e-01
-2.793071785652500e+00	 8.167083322684503e+00	 7.806032009521758e-01
-3.111269837188001e+00	 8.485281374218824e+00	 8.073333403813976e-01
-3.429467888724501e+00	 8.803479425753583e+00	 8.319878866465025e-01
-3.747665940262001e+00	 9.121677477288785e+00	 8.617212025074000e-01
-4.065863991800502e+00	 9.439875528824425e+00	 8.965922004425686e-01
-4.384062043339998e+00	 9.758073580360501e+00	 9.366597925007838e-01
-1.060660171750000e+00	 6.717514421250000e+00	 6.587299641301674e-01
-1.378858223280500e+00	 7.035712472780501e+00	 6.743925269442080e-01
-1.697056274812001e+00	 7.353910524312001e+00	 6.929411902507595e-01
-2.015254326344501e+00	 7.672108575844502e+00	 7.147615524960256e-01
-2.333452377878001e+00	 7.990306627378001e+00	 7.402392294224216e-01
-2.651650429412501e+00	 8.308504678912502e+00	 7.697598540696056e-01
-2.969848480948002e+00	 8.626702730448002e+00	 8.023622115439450e-01
-3.288046532484502e+00	 8.944900781984501e+00	 8.264827088513376e-01
-3.606244584022002e+00	 9.263098833522003e+00	 8.558964912187684e-01
-3.924442635560502e+00	 9.581296885060503e+00	 8.906624723676656e-01
-4.242640687100000e+00	 9.899494936600000e+00	 9.308395655897795e-01
 0.000000000000000e+00	 0.000000000000000e+00	-3.196267660990774e-03
-7.071067812000001e-02	 7.071067812000001e-02	 2.864276710428842e-02
-1.414213562400000e-01	 1.414213562400000e-01	 5.990114489176986e-02
-2.121320343600001e-01	 2.121320343600001e-01	 9.057886570144658e-02
-2.828427124800000e-01	 2.828427124800000e-01	 1.206759295333233e-01
-3.535533906000000e-01	 3.535533906000000e-01	 1.501923363873980e-01
-4.242640687200000e-01	 4.242640687200000e-01	 1.791280862636713e-01
-4.949747468400000e-01	 4.949747468400000e-01	 2.074831791621411e-01
-5.656854249600000e-01	 5.656854249600000e-01	 2.352576150828119e-01
-6.363961030799999e-01	 6.363961030799999e-01	 2.624513940256799e-01
-7.071067812000000e-01	 7.071067812000000e-01	 2.890645159907463e-01
 1.414213562400000e-01	 1.414213562400000e-01	-2.017200948216226e-02
 7.071067812000001e-02	 2.121320343599950e-01	 1.129213282130739e-02
-1.729302465114379e-17	 2.828427124799800e-01	 4.228648839725201e-02
-7.071067812000005e-02	 3.535533905999550e-01	 7.281105724568888e-02
-1.414213562400000e-01	 4.242640687199201e-01	 1.028658393666264e-01
-2.121320343600000e-01	 4.949747468398750e-01	 1.324508347600782e-01
-2.828427124800001e-01	 5.656854249598201e-01	 1.615660434260571e-01
-3.535533906000000e-01	 6.363961030797549e-01	 1.902114653645729e-01
-4.242640687200000e-01	 7.071067811996801e-01	 2.183871005756403e-01
-4.949747468399999e-01	 7.778174593195950e-01	 2.460929490592620e-01
-5.656854249600001e-01	 8.485281374395001e-01	 2.733290108154620e-01
 2.828427124800000e-01	 2.828427124800000e-01	-3.714305583321840e-02
 2.121320343600000e-01	 3.535533905999801e-01	-6.025508341346264e-03
 1.414213562400000e-01	 4.242640687199200e-01	 2.473312267328655e-02
 7.071067812000000e-02	 4.949747468398200e-01	 5.513283721070630e-02
-2.602085213965210e-18	 5.656854249596801e-01	 8.517363527093817e-02
-7.071067811999998e-02	 6.363961030795000e-01	 1.148555168540051e-01
-1.414213562400000e-01	 7.071067811992801e-01	 1.441784819599319e-01
-2.121320343600000e-01	 7.778174593190200e-01	 1.731425305887392e-01
-2.828427124800000e-01	 8.485281374387200e-01	 2.017476627404529e-01
-3.535533906000000e-01	 9.192388155583799e-01	 2.299938784150961e-01
-4.242640687200000e-01	 9.899494936780000e-01	 2.578811776126892e-01
 4.242640687200001e-01	 4.242640687200001e-01	-5.410940671415614e-02
 3.535533906000001e-01	 4.949747468399550e-01	-2.331015638367370e-02
 2.828427124800001e-01	 5.656854249598203e-01	 7.241047719861136e-03
 2.121320343600000e-01	 6.363961030795950e-01	 3.754420559648520e-02
 1.414213562400000e-01	 7.071067811992801e-01	 6.759931724623583e-02
 7.071067812000006e-02	 7.778174593188750e-01	 9.740638266914645e-02
 7.285838599102590e-17	 8.485281374383800e-01	 1.269654018652578e-01
-7.071067811999990e-02	 9.192388155577949e-01	 1.562763748346010e-01
-1.414213562400000e-01	 9.899494936771202e-01	 1.853393015772087e-01
-2.121320343600000e-01	 1.060660171796355e+00	 2.141541820931215e-01
-2.828427124799999e-01	 1.131370849915500e+00	 2.427210163823729e-01
 5.656854249600001e-01	 5.656854249600001e-01	-7.107106212497993e-02
 4.949747468400001e-01	 6.363961030799201e-01	-4.056181130568504e-02
 4.242640687200000e-01	 7.071067811996802e-01	-1.018973646303855e-02
 3.535533906000001e-01	 7.778174593192801e-01	 2.004516240300420e-02
 2.828427124800001e-01	 8.485281374387200e-01	 5.014288529249337e-02
 2.121320343600001e-01	 9.192388155580001e-01	 8.010343220547571e-02
 1.414213562400000e-01	 9.899494936771200e-01	 1.099268031420001e-01
 7.071067812000008e-02	 1.060660171796080e+00	 1.396129981021121e-01
 6.938893903907228e-17	 1.131370849914880e+00	 1.691620170858637e-01
-7.071067811999987e-02	 1.202081528033520e+00	 1.985738600932975e-01
-1.414213562400000e-01	 1.272792206152000e+00	 2.278485271244638e-01
 7.071067812000000e-01	 7.071067812000000e-01	-8.802802206568923e-02
 6.363961030799999e-01	 7.778174593198752e-01	-5.778047310737858e-02
 5.656854249600000e-01	 8.485281374394998e-01	-2.755922987541806e-02
 4.949747468399999e-01	 9.192388155588751e-01	 2.635707630250686e-03
 4.242640687199999e-01	 9.899494936780001e-01	 3.280433940969121e-02
 3.535533906000000e-01	 1.060660171796875e+00	 6.294666546296458e-02
 2.828427124800000e-01	 1.131370849915500e+00	 9.306268579012966e-02
 2.121320343600000e-01	 1.202081528033875e+00	 1.231524003912468e-01
 1.414213562400000e-01	 1.272792206152000e+00	 1.532158092663758e-01
 7.071067812000009e-02	 1.343502884269875e+00	 1.832529124155811e-01
 0.000000000000000e+00	 1.414213562387500e+00	 2.132637098389210e-01
 8.485281374399999e-01	 8.485281374399999e-01	-1.049802865362840e-01
 7.778174593200000e-01	 9.192388155598201e-01	-7.496614178876390e-02
 7.071067812000000e-01	 9.899494936792800e-01	-4.486743251729191e-02
 6.363961030800001e-01	 1.060660171798380e+00	-1.468415872179069e-02
 5.656854249599998e-01	 1.131370849917120e+00	 1.558367959781085e-02
 4.949747468400000e-01	 1.202081528035500e+00	 4.593608244158805e-02
 4.242640687199999e-01	 1.272792206153520e+00	 7.637304980961405e-02
 3.535533906000000e-01	 1.343502884271180e+00	 1.068945817019645e-01
 2.828427124800001e-01	 1.414213562388480e+00	 1.375006781187115e-01
 2.121320343600001e-01	 1.484924240505420e+00	 1.681913390599330e-01
 1.414213562400000e-01	 1.555634918622000e+00	 1.989665645257036e-01
 9.899494936800000e-01	 9.899494936800000e-01	-1.219278555367613e-01
 9.192388155599999e-01	 1.060660171799755e+00	-9.211881734984695e-02
 8.485281374399999e-01	 1.131370849919020e+00	-6.211434438866763e-02
 7.778174593199998e-01	 1.202081528037795e+00	-3.191443665313715e-02
 7.071067811999999e-01	 1.272792206156080e+00	-1.519094143169017e-03
 6.363961030799998e-01	 1.343502884273875e+00	 2.907168314132397e-02
 5.656854249599998e-01	 1.414213562391180e+00	 5.985789520043081e-02
 4.949747468400000e-01	 1.484924240507995e+00	 9.083954203423936e-02
 4.242640687199999e-01	 1.555634918624320e+00	 1.220166236428394e-01
 3.535533906000000e-01	 1.626345596740155e+00	 1.533891400263221e-01
 2.828427124799999e-01	 1.697056274855500e+00	 1.849570911847803e-01
 1.131370849920000e+00	 1.131370849920000e+00	-1.388707290671207e-01
 1.060660171800000e+00	 1.202081528039680e+00	-1.092384997906267e-01
 9.899494936799997e-01	 1.272792206158720e+00	-7.929996548955069e-02
 9.192388155600000e-01	 1.343502884277120e+00	-4.905512616379930e-02
 8.485281374400000e-01	 1.414213562394880e+00	-1.850398181326479e-02
 7.778174593199999e-01	 1.484924240512000e+00	 1.235346756215155e-02
 7.071067811999998e-01	 1.555634918628479e+00	 4.351722196255187e-02
 6.363961030799999e-01	 1.626345596744319e+00	 7.498728138804334e-02
 5.656854249600000e-01	 1.697056274859520e+00	 1.067636458387293e-01
 4.949747468400000e-01	 1.767766952974080e+00	 1.388463153147202e-01
 4.242640687199999e-01	 1.838477631088000e+00	 1.712352898161202e-01
 1.272792206160000e+00	 1.272792206160000e+00	-1.558089071273673e-01
 1.202081528040000e+00	 1.343502884279595e+00	-1.263251891111118e-01
 1.131370849920000e+00	 1.414213562398380e+00	-9.642429581995629e-02
 1.060660171800000e+00	 1.484924240516355e+00	-6.610622725378786e-02
 9.899494936799998e-01	 1.555634918633520e+00	-3.537098341249036e-02
 9.192388155600001e-01	 1.626345596749875e+00	-4.218564295949578e-03
 8.485281374399999e-01	 1.697056274865420e+00	 2.735103009595979e-02
 7.778174593199997e-01	 1.767766952980154e+00	 5.933779976335685e-02
 7.071067812000000e-01	 1.838477631094080e+00	 9.174174470636121e-02
 6.363961030799998e-01	 1.909188309207195e+00	 1.245628649251025e-01
 5.656854249599998e-01	 1.979898987319500e+00	 1.578011604197081e-01
 1.414213562400000e+00	 1.414213562400000e+00	-1.727423897174988e-01
 1.343502884280000e+00	 1.484924240519500e+00	-1.433788853113031e-01
 1.272792206160000e+00	 1.555634918638000e+00	-1.134873353798845e-01
 1.202081528040000e+00	 1.626345596755500e+00	-8.306773992311517e-02
 1.131370849920000e+00	 1.697056274872000e+00	-5.212009894086291e-02
 1.060660171800000e+00	 1.767766952987500e+00	-2.064441243299171e-02
 9.899494936800001e-01	 1.838477631102000e+00	 1.135931960063472e-02
 9.192388155600001e-01	 1.909188309215500e+00	 4.389109716015541e-02
 8.485281374400000e-01	 1.979898987328000e+00	 7.695092024571087e-02
 7.778174593200000e-01	 2.050609665439500e+00	 1.105387888574501e-01
 7.071067812000000e-01	 2.121320343550000e+00	 1.446547029955166e-01
 1.414213562400000e+00	 1.414213562400000e+00	-1.727423897174988e-01
 1.343502884280000e+00	 1.484924240519500e+00	-1.433788853113031e-01
 1.272792206160000e+00	 1.555634918638000e+00	-1.134873353798845e-01
 1.202081528040000e+00	 1.626345596755500e+00	-8.306773992311517e-02
 1.131370849920000e+00	 1.697056274872000e+00	-5.212009894086291e-02
 1.060660171800000e+00	 1.767766952987500e+00	-2.064441243299171e-02
 9.899494936800001e-01	 1.838477631102000e+00	 1.135931960063472e-02
 9.192388155600001e-01	 1.909188309215500e+00	 4.389109716015541e-02
 8.485281374400000e-01	 1.979898987328000e+00	 7.695092024571087e-02
 7.778174593200000e-01	 2.050609665439500e+00	 1.105387888574501e-01
 7.071067812000000e-01	 2.121320343550000e+00	 1.446547029955166e-01
 1.555634918639000e+00	 1.555634918639000e+00	-2.273092368968555e-01
 1.484924240519190e+00	 1.626345596758415e+00	-1.921665336120474e-01
 1.414213562399361e+00	 1.697056274876661e+00	-1.567759902230714e-01
 1.343502884279510e+00	 1.767766952993735e+00	-1.211376067298493e-01
 1.272792206159640e+00	 1.838477631109640e+00	-8.525138313229241e-02
 1.202081528039750e+00	 1.909188309224375e+00	-4.911731943031655e-02
 1.131370849919840e+00	 1.979898987337940e+00	-1.273541562383634e-02
 1.060660171799910e+00	 2.050609665450335e+00	 2.389432828723809e-02
 9.899494936799603e-01	 2.121320343561560e+00	 6.077191230299414e-02
 9.192388155599902e-01	 2.192031021671615e+00	 9.789733642352358e-02
 8.485281374400002e-01	 2.262741699780500e+00	 1.352706006489174e-01
 1.697056274876000e+00	 1.697056274876000e+00	-2.753721735087748e-01
 1.626345596756760e+00	 1.767766952995360e+00	-2.349964088065606e-01
 1.555634918637441e+00	 1.838477631113440e+00	-1.946530094213111e-01
 1.484924240518040e+00	 1.909188309230240e+00	-1.543419753529856e-01
 1.414213562398561e+00	 1.979898987345761e+00	-1.140633066015525e-01
 1.343502884279000e+00	 2.050609665460000e+00	-7.381700316698163e-02
 1.272792206159361e+00	 2.121320343572961e+00	-3.360306504923626e-02
 1.202081528039640e+00	 2.192031021684640e+00	 6.578507751715368e-03
 1.131370849919840e+00	 2.262741699795041e+00	 4.672771523590458e-02
 1.060660171799960e+00	 2.333452377904161e+00	 8.684455740337094e-02
 9.899494936800003e-01	 2.404163056012000e+00	 1.269290342541421e-01
 1.838477631111000e+00	 1.838477631111000e+00	-3.169311995520044e-01
 1.767766952992710e+00	 1.909188309230335e+00	-2.718685108936507e-01
 1.697056274874241e+00	 1.979898987348341e+00	-2.271183929734605e-01
 1.626345596755591e+00	 2.050609665465015e+00	-1.826808457914555e-01
 1.555634918636760e+00	 2.121320343580360e+00	-1.385558693476558e-01
 1.484924240517751e+00	 2.192031021694375e+00	-9.474346364207836e-02
 1.414213562398560e+00	 2.262741699807060e+00	-5.124362867474722e-02
 1.343502884279191e+00	 2.333452377918416e+00	-8.056364445683584e-03
 1.272792206159641e+00	 2.404163056028440e+00	 3.481832904508855e-02
 1.202081528039911e+00	 2.474873734137137e+00	 7.738045179754696e-02
 1.131370849920000e+00	 2.545584412244501e+00	 1.196300038116684e-01
 1.979898987344000e+00	 1.979898987344000e+00	-3.519863150251756e-01
 1.909188309227041e+00	 2.050609665463341e+00	-3.027828398720247e-01
 1.838477631109761e+00	 2.121320343581360e+00	-2.541721408783327e-01
 1.767766952992160e+00	 2.192031021698061e+00	-2.061542180441704e-01
 1.697056274874240e+00	 2.262741699813440e+00	-1.587290713696084e-01
 1.626345596756001e+00	 2.333452377927501e+00	-1.118967008547213e-01
 1.555634918637441e+00	 2.404163056040240e+00	-6.565710649958365e-02
 1.484924240518561e+00	 2.474873734151660e+00	-2.001028830427093e-02
 1.414213562399361e+00	 2.545584412261760e+00	 2.504375373114209e-02
 1.343502884279840e+00	 2.616295090370540e+00	 6.950501960657232e-02
 1.272792206160001e+00	 2.687005768478001e+00	 1.133735093219408e-01
 2.121320343575000e+00	 2.121320343575000e+00	-3.805375199268058e-01
 2.050609665459751e+00	 2.192031021694376e+00	-3.277393957403265e-01
 1.979898987344001e+00	 2.262741699812501e+00	-2.758142531346905e-01
 1.909188309227751e+00	 2.333452377929376e+00	-2.247620921100152e-01
 1.838477631111000e+00	 2.404163056045000e+00	-1.745829126664245e-01
 1.767766952993751e+00	 2.474873734159376e+00	-1.252767148040390e-01
 1.697056274876001e+00	 2.545584412272500e+00	-7.684349852298465e-02
 1.626345596757751e+00	 2.616295090384376e+00	-2.928326382338975e-02
 1.555634918639000e+00	 2.687005768495000e+00	 1.740398929462209e-02
 1.484924240519751e+00	 2.757716446604376e+00	 6.321826083091828e-02
 1.414213562400001e+00	 2.828427124712501e+00	 1.081595507853648e-01
 2.262741699804001e+00	 2.262741699804001e+00	-4.025848142552963e-01
 2.192031021690841e+00	 2.333452377923441e+00	-3.467381784971122e-01
 2.121320343576961e+00	 2.404163056041761e+00	-2.920447297412478e-01
 2.050609665462361e+00	 2.474873734158961e+00	-2.385044679878578e-01
 1.979898987347041e+00	 2.545584412275040e+00	-1.861173932371124e-01
 1.909188309231001e+00	 2.616295090390001e+00	-1.348835054891798e-01
 1.838477631114241e+00	 2.687005768503841e+00	-8.480280474422783e-02
 1.767766952996761e+00	 2.757716446616560e+00	-3.587529100242873e-02
 1.697056274878561e+00	 2.828427124728161e+00	 1.189903573604639e-02
 1.626345596759641e+00	 2.899137802838641e+00	 5.852017547101837e-02
 1.555634918640001e+00	 2.969848480948001e+00	 1.039881282023156e-01
 2.404163056031001e+00	 2.404163056031001e+00	-4.181281980089269e-01
 2.333452377920311e+00	 2.474873734150536e+00	-3.597791881408633e-01
 2.262741699808641e+00	 2.545584412269141e+00	-3.028635706966671e-01
 2.192031021695991e+00	 2.616295090386816e+00	-2.473813456765390e-01
 2.121320343582361e+00	 2.687005768503560e+00	-1.933325130806843e-01
 2.050609665467751e+00	 2.757716446619376e+00	-1.407170729093077e-01
 1.979898987352161e+00	 2.828427124734261e+00	-8.953502516261277e-02
 1.909188309235591e+00	 2.899137802848216e+00	-3.978636984081252e-02
 1.838477631118041e+00	 2.969848480961241e+00	 8.528893055887110e-03
 1.767766952999511e+00	 3.040559159073336e+00	 5.541076352727106e-02
 1.697056274880001e+00	 3.111269837184501e+00	 1.008592415731273e-01
 2.545584412256001e+00	 2.545584412256001e+00	-4.271676711858657e-01
 2.474873734148161e+00	 2.616295090375661e+00	-3.668624246699705e-01
 2.404163056039042e+00	 2.687005768494641e+00	-3.082707759995660e-01
 2.333452377928641e+00	 2.757716446612941e+00	-2.513927251748815e-01
 2.262741699816961e+00	 2.828427124730562e+00	-1.962282721961505e-01
 2.192031021704001e+00	 2.899137802847501e+00	-1.427774170636039e-01
 2.121320343589761e+00	 2.969848480963762e+00	-9.104015977747595e-02
 2.050609665474241e+00	 3.040559159079341e+00	-4.101650033800436e-02
 1.979898987357441e+00	 3.111269837194241e+00	 7.293561254575365e-03
 1.909188309239361e+00	 3.181980515308461e+00	 5.389002500002521e-02
 1.838477631120001e+00	 3.252691193422001e+00	 9.877289089810320e-02
 2.687005768479001e+00	 2.687005768479001e+00	-4.297032337841675e-01
 2.616295090374391e+00	 2.757716446598816e+00	-3.679878880827553e-01
 2.545584412268161e+00	 2.828427124718262e+00	-3.082663456485133e-01
 2.474873734160311e+00	 2.899137802837336e+00	-2.505386064816849e-01
 2.404163056050841e+00	 2.969848480956041e+00	-1.948046705825185e-01
 2.333452377939751e+00	 3.040559159074375e+00	-1.410645379512685e-01
 2.262741699827041e+00	 3.111269837192341e+00	-8.931820858817965e-02
 2.192031021712711e+00	 3.181980515309936e+00	-3.956568249350609e-02
 2.121320343596761e+00	 3.252691193427161e+00	 8.193040332502288e-03
 2.050609665479191e+00	 3.323401871544016e+00	 5.395795988959401e-02
 1.979898987360001e+00	 3.394112549660501e+00	 9.772907617751314e-02
 2.828427124700000e+00	 2.828427124700000e+00	-4.257348858017633e-01
 2.757716446599001e+00	 2.899137802820000e+00	-3.631555783774561e-01
 2.687005768496000e+00	 2.969848480940000e+00	-3.028502796420254e-01
 2.616295090391000e+00	 3.040559159060000e+00	-2.448189895957245e-01
 2.545584412284000e+00	 3.111269837180000e+00	-1.890617082388039e-01
 2.474873734175000e+00	 3.181980515300000e+00	-1.355784355715182e-01
 2.404163056064000e+00	 3.252691193420000e+00	-8.436917159411897e-02
 2.333452377951000e+00	 3.323401871540000e+00	-3.543391630685655e-02
 2.262741699836000e+00	 3.394112549660000e+00	 1.122733029001760e-02
 2.192031021719000e+00	 3.464823227780000e+00	 5.409900782216603e-02
 2.121320343600000e+00	 3.535533905900000e+00	 8.965962566560254e-02
 7.071067812000000e-01	-7.071067812000000e-01	 2.576364412612970e-01
 6.363961030800001e-01	-6.363961030800001e-01	 2.353941419611863e-01
 5.656854249600000e-01	-5.656854249600000e-01	 2.125385601756173e-01
 4.949747468400000e-01	-4.949747468400000e-01	 1.890696959045877e-01
 4.242640687200000e-01	-4.242640687200000e-01	 1.649875491481020e-01
 3.535533906000000e-01	-3.535533906000000e-01	 1.402921199061581e-01
 2.828427124800000e-01	-2.828427124800000e-01	 1.149834081787559e-01
 2.121320343600001e-01	-2.121320343600001e-01	 8.906141396589640e-02
 1.414213562400000e-01	-1.414213562400000e-01	 6.252613726757583e-02
 7.071067812000006e-02	-7.071067812000006e-02	 3.537757808380002e-02
 0.000000000000000e+00	 0.000000000000000e+00	 7.615736414565447e-03
 8.485281374395001e-01	-5.656854249600001e-01	 2.967861282679395e-01
 7.778174593195951e-01	-4.949747468400000e-01	 2.733761338069145e-01
 7.071067811996801e-01	-4.242640687200000e-01	 2.493192133861248e-01
 6.363961030797549e-01	-3.535533906000000e-01	 2.246153670055774e-01
 5.656854249598200e-01	-2.828427124800001e-01	 1.992645946652765e-01
 4.949747468398750e-01	-2.121320343600000e-01	 1.732668963652319e-01
 4.242640687199201e-01	-1.414213562400000e-01	 1.466222721054470e-01
 3.535533905999550e-01	-7.071067812000005e-02	 1.193307218859279e-01
 2.828427124799801e-01	-6.071532165918825e-17	 9.139224570668471e-02
 2.121320343599951e-01	 7.071067811999993e-02	 6.280684356771629e-02
 1.414213562400000e-01	 1.414213562400000e-01	 3.357451546903133e-02
 9.899494936780000e-01	-4.242640687200000e-01	 3.341785399787121e-01
 9.192388155583799e-01	-3.535533906000001e-01	 3.095088497964064e-01
 8.485281374387200e-01	-2.828427124800000e-01	 2.841585901800424e-01
 7.778174593190199e-01	-2.121320343600000e-01	 2.581277611296332e-01
 7.071067811992802e-01	-1.414213562400000e-01	 2.314163626451917e-01
 6.363961030794999e-01	-7.071067811999998e-02	 2.040243947267284e-01
 5.656854249596800e-01	-1.040834085586084e-17	 1.759518573742599e-01
 4.949747468398200e-01	 7.071067811999998e-02	 1.471987505877971e-01
 4.242640687199200e-01	 1.414213562400000e-01	 1.177650743673488e-01
 3.535533905999801e-01	 2.121320343599999e-01	 8.765082871292540e-02
 2.828427124800000e-01	 2.828427124800000e-01	 5.685601362454037e-02
 1.131370849915500e+00	-2.828427124799999e-01	 3.698136763932881e-01
 1.060660171796355e+00	-2.121320343599999e-01	 3.437922899293646e-01
 9.899494936771203e-01	-1.414213562400000e-01	 3.170566905571015e-01
 9.192388155577950e-01	-7.071067811999990e-02	 2.896068782765218e-01
 8.485281374383800e-01	 9.020562075079397e-17	 2.614428530876406e-01
 7.778174593188751e-01	 7.071067812000006e-02	 2.325646149904814e-01
 7.071067811992801e-01	 1.414213562400000e-01	 2.029721639850607e-01
 6.363961030795950e-01	 2.121320343600000e-01	 1.726655000713953e-01
 5.656854249598202e-01	 2.828427124800000e-01	 1.416446232495018e-01
 4.949747468399552e-01	 3.535533906000001e-01	 1.099095335193963e-01
 4.242640687200001e-01	 4.242640687200001e-01	 7.746023088109269e-02
 1.272792206152000e+00	-1.414213562400000e-01	 4.036915375113325e-01
 1.202081528033520e+00	-7.071067811999998e-02	 3.762264542054838e-01
 1.131370849914880e+00	 2.515349040166370e-17	 3.480135145170328e-01
 1.060660171796080e+00	 7.071067812000008e-02	 3.190527184460041e-01
 9.899494936771202e-01	 1.414213562400001e-01	 2.893440659924235e-01
 9.192388155580001e-01	 2.121320343600001e-01	 2.588875571563169e-01
 8.485281374387200e-01	 2.828427124800000e-01	 2.276831919377089e-01
 7.778174593192801e-01	 3.535533906000001e-01	 1.957309703366217e-01
 7.071067811996802e-01	 4.242640687200000e-01	 1.630308923530755e-01
 6.363961030799202e-01	 4.949747468400000e-01	 1.295829579870931e-01
 5.656854249600001e-01	 5.656854249600001e-01	 9.538716723868942e-02
 1.414213562387500e+00	 0.000000000000000e+00	 4.358121233324917e-01
 1.343502884269875e+00	 7.071067812000000e-02	 4.068113426244466e-01
 1.272792206152000e+00	 1.414213562400000e-01	 3.770290620595469e-01
 1.202081528033875e+00	 2.121320343600001e-01	 3.464652816378270e-01
 1.131370849915500e+00	 2.828427124800000e-01	 3.151200013593185e-01
 1.060660171796875e+00	 3.535533906000000e-01	 2.829932212240526e-01
 9.899494936780000e-01	 4.242640687200000e-01	 2.500849412320586e-01
 9.192388155588750e-01	 4.949747468399999e-01	 2.163951613833631e-01
 8.485281374395000e-01	 5.656854249600000e-01	 1.819238816779952e-01
 7.778174593198751e-01	 6.363961030800001e-01	 1.466711021159745e-01
 7.071067812000000e-01	 7.071067812000000e-01	 1.106368226973285e-01
 1.555634918622000e+00	 1.414213562400000e-01	 4.661754338564060e-01
 1.484924240505420e+00	 2.121320343600000e-01	 4.355469551859200e-01
 1.414213562388480e+00	 2.828427124800000e-01	 4.041033331843501e-01
 1.343502884271180e+00	 3.535533906000000e-01	 3.718445678517309e-01
 1.272792206153520e+00	 4.242640687200000e-01	 3.387706591880996e-01
 1.202081528035500e+00	 4.949747468399999e-01	 3.048816071934958e-01
 1.131370849917120e+00	 5.656854249599998e-01	 2.701774118679529e-01
 1.060660171798380e+00	 6.363961030799999e-01	 2.346580732115057e-01
 9.899494936792802e-01	 7.071067811999999e-01	 1.983235912241767e-01
 9.192388155598202e-01	 7.778174593200000e-01	 1.611739659060059e-01
 8.485281374399999e-01	 8.485281374399999e-01	 1.232091972570119e-01
 1.697056274855500e+00	 2.828427124799999e-01	 4.947814690827012e-01
 1.626345596740155e+00	 3.535533905999999e-01	 4.624332918895709e-01
 1.555634918624320e+00	 4.242640687199999e-01	 4.292363278911355e-01
 1.484924240507995e+00	 4.949747468400000e-01	 3.951905770874417e-01
 1.414213562391180e+00	 5.656854249600000e-01	 3.602960394785337e-01
 1.343502884273875e+00	 6.363961030799999e-01	 3.245527150644506e-01
 1.272792206156080e+00	 7.071067811999999e-01	 2.879606038452345e-01
 1.202081528037795e+00	 7.778174593199999e-01	 2.505197058209229e-01
 1.131370849919020e+00	 8.485281374399998e-01	 2.122300209915466e-01
 1.060660171799755e+00	 9.192388155599999e-01	 1.730915493571440e-01
 9.899494936800000e-01	 9.899494936800000e-01	 1.331042909177387e-01
 1.838477631088000e+00	 4.242640687199999e-01	 5.216302290109908e-01
 1.767766952974080e+00	 4.949747468399999e-01	 4.874703527350381e-01
 1.697056274859520e+00	 5.656854249599998e-01	 4.524280461795861e-01
 1.626345596744320e+00	 6.363961030799999e-01	 4.165033093446802e-01
 1.555634918628480e+00	 7.071067811999999e-01	 3.796961422303725e-01
 1.484924240512000e+00	 7.778174593199998e-01	 3.420065448367097e-01
 1.414213562394880e+00	 8.485281374399998e-01	 3.034345171637364e-01
 1.343502884277120e+00	 9.192388155599998e-01	 2.639800592114917e-01
 1.272792206158720e+00	 9.899494936799997e-01	 2.236431709800186e-01
 1.202081528039680e+00	 1.060660171800000e+00	 1.824238524693456e-01
 1.131370849920000e+00	 1.131370849920000e+00	 1.403221036795103e-01
 1.979898987319500e+00	 5.656854249599998e-01	 5.467217136408745e-01
 1.909188309207195e+00	 6.363961030799997e-01	 5.106581377219642e-01
 1.838477631094080e+00	 7.071067811999998e-01	 4.736784880493701e-01
 1.767766952980155e+00	 7.778174593200000e-01	 4.357827646231545e-01
 1.697056274865420e+00	 8.485281374399999e-01	 3.969709674433652e-01
 1.626345596749875e+00	 9.192388155600000e-01	 3.572430965100586e-01
 1.555634918633520e+00	 9.899494936800000e-01	 3.165991518232827e-01
 1.484924240516355e+00	 1.060660171800000e+00	 2.750391333830785e-01
 1.414213562398380e+00	 1.131370849920000e+00	 2.325630411894939e-01
 1.343502884279595e+00	 1.202081528040000e+00	 1.891708752425626e-01
 1.272792206160000e+00	 1.272792206160000e+00	 1.448626355423260e-01
 2.121320343550000e+00	 7.071067812000000e-01	 5.700559229719457e-01
 2.050609665439501e+00	 7.778174593200000e-01	 5.319966468499702e-01
 1.979898987328000e+00	 8.485281374400000e-01	 4.929876535001542e-01
 1.909188309215500e+00	 9.192388155600000e-01	 4.530289429225602e-01
 1.838477631102000e+00	 9.899494936800000e-01	 4.121205151172486e-01
 1.767766952987500e+00	 1.060660171800000e+00	 3.702623700842752e-01
 1.697056274872000e+00	 1.131370849920000e+00	 3.274545078236923e-01
 1.626345596755500e+00	 1.202081528040000e+00	 2.836969283355479e-01
 1.555634918638000e+00	 1.272792206160000e+00	 2.389896316198885e-01
 1.484924240519500e+00	 1.343502884280000e+00	 1.933326176767543e-01
 1.414213562400000e+00	 1.414213562400000e+00	 1.467258865061824e-01
 2.121320343550000e+00	 7.071067812000000e-01	 5.700559229719457e-01
 2.050609665439501e+00	 7.778174593200000e-01	 5.319966468499702e-01
 1.979898987328000e+00	 8.485281374400000e-01	 4.929876535001542e-01
 1.909188309215500e+00	 9.192388155600000e-01	 4.530289429225602e-01
 1.838477631102000e+00	 9.899494936800000e-01	 4.121205151172486e-01
 1.767766952987500e+00	 1.060660171800000e+00	 3.702623700842752e-01
 1.697056274872000e+00	 1.131370849920000e+00	 3.274545078236923e-01
 1.626345596755500e+00	 1.202081528040000e+00	 2.836969283355479e-01
 1.555634918638000e+00	 1.272792206160000e+00	 2.389896316198885e-01
 1.484924240519500e+00	 1.343502884280000e+00	 1.933326176767543e-01
 1.414213562400000e+00	 1.414213562400000e+00	 1.467258865061824e-01
 2.262741699780500e+00	 8.485281374400002e-01	 5.983323177929778e-01
 2.192031021671615e+00	 9.192388155599901e-01	 5.687053131560210e-01
 2.121320343561560e+00	 9.899494936799604e-01	 5.368943060124491e-01
 2.050609665450336e+00	 1.060660171799910e+00	 5.028992963622803e-01
 1.979898987337940e+00	 1.131370849919840e+00	 4.667202842055186e-01
 1.909188309224375e+00	 1.202081528039750e+00	 4.283572695421616e-01
 1.838477631109640e+00	 1.272792206159640e+00	 3.878102523722038e-01
 1.767766952993735e+00	 1.343502884279510e+00	 3.450792326956277e-01
 1.697056274876660e+00	 1.414213562399360e+00	 3.001642105124054e-01
 1.626345596758415e+00	 1.484924240519190e+00	 2.530651858225058e-01
 1.555634918639000e+00	 1.555634918639000e+00	 2.037821586258874e-01
 2.404163056012000e+00	 9.899494936800003e-01	 6.397823057228834e-01
 2.333452377904160e+00	 1.060660171799960e+00	 6.168054522298718e-01
 2.262741699795041e+00	 1.131370849919840e+00	 5.904103109515696e-01
 2.192031021684640e+00	 1.202081528039640e+00	 5.605968818879149e-01
 2.121320343572961e+00	 1.272792206159361e+00	 5.273651650388289e-01
 2.050609665460001e+00	 1.343502884279000e+00	 4.907151604042278e-01
 1.979898987345760e+00	 1.414213562398560e+00	 4.506468679840107e-01
 1.909188309230240e+00	 1.484924240518040e+00	 4.071602877780697e-01
 1.838477631113441e+00	 1.555634918637441e+00	 3.602554197862844e-01
 1.767766952995360e+00	 1.626345596756760e+00	 3.099322640085181e-01
 1.697056274876000e+00	 1.697056274876000e+00	 2.561908204446336e-01
 2.545584412244501e+00	 1.131370849920000e+00	 6.944058867634101e-01
 2.474873734137136e+00	 1.202081528039910e+00	 6.762970640731357e-01
 2.404163056028440e+00	 1.272792206159641e+00	 6.535356683190123e-01
 2.333452377918416e+00	 1.343502884279191e+00	 6.261216995008597e-01
 2.262741699807060e+00	 1.414213562398560e+00	 5.940551576184802e-01
 2.192031021694375e+00	 1.484924240517751e+00	 5.573360426716680e-01
 2.121320343580360e+00	 1.555634918636760e+00	 5.159643546601974e-01
 2.050609665465016e+00	 1.626345596755590e+00	 4.699400935838347e-01
 1.979898987348340e+00	 1.697056274874240e+00	 4.192632594423309e-01
 1.909188309230336e+00	 1.767766952992710e+00	 3.639338522354228e-01
 1.838477631111000e+00	 1.838477631111000e+00	 3.039518719628340e-01
 2.687005768478001e+00	 1.272792206160001e+00	 7.622030609159569e-01
 2.616295090370540e+00	 1.343502884279841e+00	 7.471801486871770e-01
 2.545584412261761e+00	 1.414213562399361e+00	 7.262703781161093e-01
 2.474873734151660e+00	 1.484924240518561e+00	 6.994737492024072e-01
 2.404163056040240e+00	 1.555634918637441e+00	 6.667902619457141e-01
 2.333452377927501e+00	 1.626345596756001e+00	 6.282199163456573e-01
 2.262741699813441e+00	 1.697056274874241e+00	 5.837627124018490e-01
 2.192031021698060e+00	 1.767766952992160e+00	 5.334186501138889e-01
 2.121320343581361e+00	 1.838477631109760e+00	 4.771877294813539e-01
 2.050609665463340e+00	 1.909188309227041e+00	 4.150699505038203e-01
 1.979898987344000e+00	 1.979898987344000e+00	 3.470653131808351e-01
 2.828427124712501e+00	 1.414213562400001e+00	 8.431738281815848e-01
 2.757716446604376e+00	 1.484924240519751e+00	 8.294547060731159e-01
 2.687005768495000e+00	 1.555634918639000e+00	 8.086144403440229e-01
 2.616295090384376e+00	 1.626345596757751e+00	 7.806530309937497e-01
 2.545584412272500e+00	 1.697056274876001e+00	 7.455704780217222e-01
 2.474873734159376e+00	 1.767766952993751e+00	 7.033667814273589e-01
 2.404163056045001e+00	 1.838477631111000e+00	 6.540419412100529e-01
 2.333452377929376e+00	 1.909188309227751e+00	 5.975959573691969e-01
 2.262741699812501e+00	 1.979898987344000e+00	 5.340288299041547e-01
 2.192031021694376e+00	 2.050609665459751e+00	 4.633405588142774e-01
 2.121320343575000e+00	 2.121320343575000e+00	 3.855311440989124e-01
 2.969848480948001e+00	 1.555634918640001e+00	 9.381148614299967e-01
 2.899137802838641e+00	 1.626345596759641e+00	 9.231207362318155e-01
 2.828427124728161e+00	 1.697056274878561e+00	 9.005678550037475e-01
 2.757716446616561e+00	 1.767766952996761e+00	 8.696595448759672e-01
 2.687005768503841e+00	 1.838477631114241e+00	 8.303958058476396e-01
 2.616295090390001e+00	 1.909188309231001e+00	 7.827766379179051e-01
 2.545584412275041e+00	 1.979898987347041e+00	 7.268020410858983e-01
 2.474873734158961e+00	 2.050609665462361e+00	 6.624720153507352e-01
 2.404163056041761e+00	 2.121320343576961e+00	 5.897865607115177e-01
 2.333452377923440e+00	 2.192031021690840e+00	 5.087456771673332e-01
 2.262741699804001e+00	 2.262741699804001e+00	 4.193493647172592e-01
 3.111269837184501e+00	 1.697056274880001e+00	 1.049720498619652e+00
 3.040559159073335e+00	 1.767766952999510e+00	 1.031097679858964e+00
 2.969848480961241e+00	 1.838477631118041e+00	 1.002962269104882e+00
 2.899137802848216e+00	 1.909188309235591e+00	 9.664932908500441e-01
 2.828427124734261e+00	 1.979898987352161e+00	 9.212662454245452e-01
 2.757716446619376e+00	 2.050609665467751e+00	 8.664494858184202e-01
 2.687005768503561e+00	 2.121320343582361e+00	 8.020430120304665e-01
 2.616295090386816e+00	 2.192031021695991e+00	 7.280468240594781e-01
 2.545584412269141e+00	 2.262741699808641e+00	 6.444609219042327e-01
 2.474873734150536e+00	 2.333452377920310e+00	 5.512853055634901e-01
 2.404163056031001e+00	 2.404163056031001e+00	 4.485199750360072e-01
 3.252691193422001e+00	 1.838477631120001e+00	 1.175128508202212e+00
 3.181980515308461e+00	 1.909188309239361e+00	 1.152223538374337e+00
 3.111269837194241e+00	 1.979898987357441e+00	 1.118574227211066e+00
 3.040559159079341e+00	 2.050609665474242e+00	 1.074180906303851e+00
 2.969848480963762e+00	 2.121320343589761e+00	 1.019043907244133e+00
 2.899137802847501e+00	 2.192031021704001e+00	 9.543853251299985e-01
 2.828427124730561e+00	 2.262741699816961e+00	 8.797648540448472e-01
 2.757716446612941e+00	 2.333452377928641e+00	 7.943203834964127e-01
 2.687005768494640e+00	 2.404163056039041e+00	 6.980519134830776e-01
 2.616295090375661e+00	 2.474873734148161e+00	 5.909594440032203e-01
 2.545584412256001e+00	 2.545584412256001e+00	 4.730429750552031e-01
 3.394112549660501e+00	 1.979898987360001e+00	 1.314308458942621e+00
 3.323401871544016e+00	 2.050609665479191e+00	 1.285338775583494e+00
 3.252691193427161e+00	 2.121320343596761e+00	 1.244393001546880e+00
 3.181980515309936e+00	 2.192031021712711e+00	 1.191471468423740e+00
 3.111269837192341e+00	 2.262741699827041e+00	 1.126574507805037e+00
 3.040559159074376e+00	 2.333452377939751e+00	 1.049702451281729e+00
 2.969848480956041e+00	 2.404163056050841e+00	 9.608556304447637e-01
 2.899137802837336e+00	 2.474873734160311e+00	 8.612926936625226e-01
 2.828427124718261e+00	 2.545584412268161e+00	 7.505595354488295e-01
 2.757716446598816e+00	 2.616295090374391e+00	 6.277680924869645e-01
 2.687005768479001e+00	 2.687005768479001e+00	 4.929183647748330e-01
 3.535533905900000e+00	 2.121320343600000e+00	 1.467229919605473e+00
 3.464823227780000e+00	 2.192031021719000e+00	 1.430412960251560e+00
 3.394112549660000e+00	 2.262741699836000e+00	 1.380388160877887e+00
 3.323401871540000e+00	 2.333452377951000e+00	 1.317155853074848e+00
 3.252691193420000e+00	 2.404163056064000e+00	 1.240716368432838e+00
 3.181980515300000e+00	 2.474873734175000e+00	 1.151070038542253e+00
 3.111269837180000e+00	 2.545584412284000e+00	 1.048217194993484e+00
 3.040559159060000e+00	 2.616295090391000e+00	 9.321581693769284e-01
 2.969848480940000e+00	 2.687005768496000e+00	 8.028932932829800e-01
 2.899137802820000e+00	 2.757716446599000e+00	 6.617112510151260e-01
 2.828427124700000e+00	 2.828427124700000e+00	 5.081461441947983e-01
 7.071067811900000e+00	-7.071067811900000e+00	 1.024831165504912e+00
 6.752869760360500e+00	-6.752869760360500e+00	 1.006647677276713e+00
 6.434671708822000e+00	-6.434671708822000e+00	 9.907715907547967e-01
 6.116473657284500e+00	-6.116473657284500e+00	 9.771440175036297e-01
 5.798275605748000e+00	-5.798275605748000e+00	 9.657060686573750e-01
 5.480077554212500e+00	-5.480077554212500e+00	 9.563988549199953e-01
 5.161879502678000e+00	-5.161879502678000e+00	 9.491634865653555e-01
 4.843681451144501e+00	-4.843681451144501e+00	 9.439410734373211e-01
 4.525483399612001e+00	-4.525483399612001e+00	 9.406727249498644e-01
 4.207285348080500e+00	-4.207285348080500e+00	 9.392995500871615e-01
 3.889087296550000e+00	-3.889087296550000e+00	 9.397626574037008e-01
 7.212489168139501e+00	-6.929646455659999e+00	 1.030278818557579e+00
 6.894291116600002e+00	-6.611448404120502e+00	 1.011687880980976e+00
 6.576093065061299e+00	-6.293250352581999e+00	 9.956985962774548e-01
 6.257895013523400e+00	-5.975052301044499e+00	 9.822520772540760e-01
 5.939696961986299e+00	-5.656854249507999e+00	 9.712894362875651e-01
 5.621498910450001e+00	-5.338656197972501e+00	 9.627517853244165e-01
 5.303300858914501e+00	-5.020458146438001e+00	 9.565802358809981e-01
 4.985102807379800e+00	-4.702260094904501e+00	 9.527158990436464e-01
 4.666904755845901e+00	-4.384062043372001e+00	 9.510998854687711e-01
 4.348706704312801e+00	-4.065863991840501e+00	 9.516733053829602e-01
 4.030508652780500e+00	-3.747665940310000e+00	 9.543772685830765e-01
 7.353910524378000e+00	-6.788225099420000e+00	 1.034995729279165e+00
 7.035712472838700e+00	-6.470027047880500e+00	 1.016265090612946e+00
 6.717514421299998e+00	-6.151828996341997e+00	 1.000430356383136e+00
 6.399316369761900e+00	-5.833630944804500e+00	 9.874326406393652e-01
 6.081118318224401e+00	-5.515432893268000e+00	 9.772130570009029e-01
 5.762920266687502e+00	-5.197234841732500e+00	 9.697127186567518e-01
 5.444722215151200e+00	-4.879036790198000e+00	 9.648727383657567e-01
 5.126524163615501e+00	-4.560838738664501e+00	 9.626342284567008e-01
 4.808326112080400e+00	-4.242640687132000e+00	 9.629383008284120e-01
 4.490128060545900e+00	-3.924442635600501e+00	 9.657260669498602e-01
 4.171930009011999e+00	-3.606244584070000e+00	 9.709386482621618e-01
 7.495331880615500e+00	-6.646803743180000e+00	 1.039013406947462e+00
 7.177133829076599e+00	-6.328605691640500e+00	 1.020410815204977e+00
 6.858935777538101e+00	-6.010407640102000e+00	 1.004998379858757e+00
 6.540737726000001e+00	-5.692209588564500e+00	 9.927172162009801e-01
 6.222539674462300e+00	-5.374011537028000e+00	 9.835084390934311e-01
 5.904341622925001e+00	-5.055813485492501e+00	 9.773131629675993e-01
 5.586143571388099e+00	-4.737615433957999e+00	 9.740725018247838e-01
 5.267945519851603e+00	-4.419417382424502e+00	 9.737275692361904e-01
 4.949747468315500e+00	-4.101219330892000e+00	 9.762194783430418e-01
 4.631549416779801e+00	-3.783021279360501e+00	 9.814893418566715e-01
 4.313351365244501e+00	-3.464823227830001e+00	 9.894782721694910e-01
 7.636753236852000e+00	-6.505382386940000e+00	 1.042363360387118e+00
 7.318555185313699e+00	-6.187184335400499e+00	 1.024156563336293e+00
 7.000357133775601e+00	-5.868986283862001e+00	 1.009434175038116e+00
 6.682159082237701e+00	-5.550788232324500e+00	 9.981373120272869e-01
 6.363961030699999e+00	-5.232590180787999e+00	 9.902070904080842e-01
 6.045762979162500e+00	-4.914392129252501e+00	 9.855846258544598e-01
 5.727564927625202e+00	-4.596194077718001e+00	 9.842110336101426e-01
 5.409366876088102e+00	-4.277996026184501e+00	 9.860274284887438e-01
 5.091168824551201e+00	-3.959797974652000e+00	 9.909749248738488e-01
 4.772970773014499e+00	-3.641599923120500e+00	 9.989946367191338e-01
 4.454772721478000e+00	-3.323401871590000e+00	 1.004602074173214e+00
 7.778174593087501e+00	-6.363961030700001e+00	 1.045077097969650e+00
 7.459976541550001e+00	-6.045762979160499e+00	 1.027533843132996e+00
 7.141778490012500e+00	-5.727564927622001e+00	 1.013769249801893e+00
 6.823580438475000e+00	-5.409366876084500e+00	 1.003724435753545e+00
 6.505382386937500e+00	-5.091168824548000e+00	 9.973405183346986e-01
 6.187184335400000e+00	-4.772970773012500e+00	 9.945586144617433e-01
 5.868986283862501e+00	-4.454772721478000e+00	 9.953198406208191e-01
 5.550788232325000e+00	-4.136574669944500e+00	 9.995653128679107e-01
 5.232590180787501e+00	-3.818376618412000e+00	 1.007236146828954e+00
 4.914392129250000e+00	-3.500178566880500e+00	 1.018273458750192e+00
 4.596194077712500e+00	-3.181980515350000e+00	 1.021669922871951e+00
 7.919595949322000e+00	-6.222539674459999e+00	 1.047186127613452e+00
 7.601397897785501e+00	-5.904341622920500e+00	 1.030574162268070e+00
 7.283199846248798e+00	-5.586143571382001e+00	 1.018035111577665e+00
 6.965001794711900e+00	-5.267945519844499e+00	 1.009510094561918e+00
 6.646803743174800e+00	-4.949747468308000e+00	 1.004940229810021e+00
 6.328605691637501e+00	-4.631549416772500e+00	 1.004266635480784e+00
 6.010407640099999e+00	-4.313351365238000e+00	 1.007430429302725e+00
 5.692209588562300e+00	-3.995153313704500e+00	 1.014372728574187e+00
 5.374011537024399e+00	-3.676955262172000e+00	 1.025034650163427e+00
 5.055813485486299e+00	-3.358757210640501e+00	 1.036124997975345e+00
 4.737615433948000e+00	-3.040559159110000e+00	 1.041411396688650e+00
 8.061017305555499e+00	-6.081118318220000e+00	 1.048721956783804e+00
 7.742819254020198e+00	-5.762920266680500e+00	 1.033309027961397e+00
 7.424621202484500e+00	-5.444722215142001e+00	 1.022263267339911e+00
 7.106423150948401e+00	-5.126524163604500e+00	 1.015525795181482e+00
 6.788225099411900e+00	-4.808326112068000e+00	 1.013037731317727e+00
 6.470027047874999e+00	-4.490128060532500e+00	 1.014740195149842e+00
 6.151828996337699e+00	-4.171930008997999e+00	 1.020574305648715e+00
 5.833630944800000e+00	-3.853731957464501e+00	 1.030481181355012e+00
 5.515432893261900e+00	-3.535533905932000e+00	 1.044401943270873e+00
 5.197234841723400e+00	-3.217335854400500e+00	 1.054377607954440e+00
 4.879036790184500e+00	-2.899137802870000e+00	 1.063796064388578e+00
 8.202438661788001e+00	-5.939696961980001e+00	 1.049716092492886e+00
 7.884240610254100e+00	-5.621498910440499e+00	 1.035769946979765e+00
 7.566042558719599e+00	-5.303300858901999e+00	 1.026485223610027e+00
 7.247844507184499e+00	-4.985102807364499e+00	 1.021803043888238e+00
 6.929646455648800e+00	-4.666904755828001e+00	 1.021664528888415e+00
 6.611448404112500e+00	-4.348706704292501e+00	 1.026010799254125e+00
 6.293250352575599e+00	-4.030508652758000e+00	 1.034782975198590e+00
 5.975052301038100e+00	-3.712310601224500e+00	 1.047922176504786e+00
 5.656854249500000e+00	-3.394112549692000e+00	 1.063753759523474e+00
 5.338656197961299e+00	-3.075914498160500e+00	 1.074981098486841e+00
 5.020458146422000e+00	-2.757716446630000e+00	 1.088793494737011e+00
 8.343860018019500e+00	-5.798275605740000e+00	 1.050200041299784e+00
 8.025661966487201e+00	-5.480077554200501e+00	 1.037988425636879e+00
 7.707463914954100e+00	-5.161879502662001e+00	 1.030732486456333e+00
 7.389265863420200e+00	-4.843681451124500e+00	 1.028373346505120e+00
 7.071067811885500e+00	-4.525483399588000e+00	 1.030852128099633e+00
 6.752869760349999e+00	-4.207285348052499e+00	 1.038109953125784e+00
 6.434671708813701e+00	-3.889087296518001e+00	 1.050087943039112e+00
 6.116473657276600e+00	-3.570889244984500e+00	 1.066727224496744e+00
 5.798275605738699e+00	-3.252691193452000e+00	 1.082420654599679e+00
 5.480077554200000e+00	-2.934493141920501e+00	 1.097905038337822e+00
 5.161879502660499e+00	-2.616295090390000e+00	 1.116373256499218e+00
 8.485281374250000e+00	-5.656854249500000e+00	 1.050205309310498e+00
 8.167083322719501e+00	-5.338656197960501e+00	 1.039995969793366e+00
 7.848885271187999e+00	-5.020458146422000e+00	 1.035036561494081e+00
 7.530687219655500e+00	-4.702260094884500e+00	 1.035268208402003e+00
 7.212489168122000e+00	-4.384062043348000e+00	 1.040632034075876e+00
 6.894291116587500e+00	-4.065863991812500e+00	 1.051069161643937e+00
 6.576093065052000e+00	-3.747665940277999e+00	 1.066520713804014e+00
 6.257895013515500e+00	-3.429467888744500e+00	 1.086464770202148e+00
 5.939696961978000e+00	-3.111269837212001e+00	 1.103115685664537e+00
 5.621498910439501e+00	-2.793071785680501e+00	 1.123118996272656e+00
 5.303300858900000e+00	-2.474873734150000e+00	 1.146504918440479e+00
 3.889087296550000e+00	-3.889087296550000e+00	 9.397626574037008e-01
 3.570889245019500e+00	-3.570889245019500e+00	 9.345012279878928e-01
 3.252691193487999e+00	-3.252691193487999e+00	 9.097943327107583e-01
 2.934493141955499e+00	-2.934493141955499e+00	 8.682277618608363e-01
 2.616295090421999e+00	-2.616295090421999e+00	 8.126794223255052e-01
 2.298097038887499e+00	-2.298097038887499e+00	 7.470063958643464e-01
 1.979898987351999e+00	-1.979898987351999e+00	 6.712086824767796e-01
 1.661700935815498e+00	-1.661700935815498e+00	 5.852862821623346e-01
 1.343502884277998e+00	-1.343502884277998e+00	 4.892391949206565e-01
 1.025304832739498e+00	-1.025304832739498e+00	 3.830674207514990e-01
 7.071067812000000e-01	-7.071067812000000e-01	 2.667709596547355e-01
 4.030508652780500e+00	-3.747665940310000e+00	 9.543772685830765e-01
 3.712310601248379e+00	-3.429467888779499e+00	 9.470660642322661e-01
 3.394112549715819e+00	-3.111269837247999e+00	 9.153929628534878e-01
 3.075914498182819e+00	-2.793071785715499e+00	 8.747555034087688e-01
 2.757716446649379e+00	-2.474873734181999e+00	 8.233749530036778e-01
 2.439518395115499e+00	-2.156675682647498e+00	 7.613193213190144e-01
 2.121320343581178e+00	-1.838477631111999e+00	 6.898076967524052e-01
 1.803122292046418e+00	-1.520279579575498e+00	 6.088400793034072e-01
 1.484924240511218e+00	-1.202081528037998e+00	 5.184164689716600e-01
 1.166726188975578e+00	-8.838834764994977e-01	 4.185368657568979e-01
 8.485281374395001e-01	-5.656854249600001e-01	 3.092012696589437e-01
 4.171930009011999e+00	-3.606244584070000e+00	 9.709386482621618e-01
 3.853731957478419e+00	-3.288046532539500e+00	 9.553437317399724e-01
 3.535533905944880e+00	-2.969848481008000e+00	 9.238039586852780e-01
 3.217335854411378e+00	-2.651650429475499e+00	 8.840198743175528e-01
 2.899137802877919e+00	-2.333452377941999e+00	 8.357722486198507e-01
 2.580939751344499e+00	-2.015254326407498e+00	 7.773445090858873e-01
 2.262741699811119e+00	-1.697056274871998e+00	 7.101294707144784e-01
 1.944543648277778e+00	-1.378858223335498e+00	 6.341271335052138e-01
 1.626345596744478e+00	-1.060660171797998e+00	 5.493374974577576e-01
 1.308147545211218e+00	-7.424621202594975e-01	 4.557605625718393e-01
 9.899494936780000e-01	-4.242640687200000e-01	 3.533963288472592e-01
 4.313351365244501e+00	-3.464823227830001e+00	 9.894782721694910e-01
 3.995153313709619e+00	-3.146625176299499e+00	 9.663948258859373e-01
 3.676955262175180e+00	-2.828427124767999e+00	 9.349968889714017e-01
 3.358757210641179e+00	-2.510229073235499e+00	 8.960746874967512e-01
 3.040559159107620e+00	-2.192031021701999e+00	 8.496584378752208e-01
 2.722361107574499e+00	-1.873832970167499e+00	 7.950819591650271e-01
 2.404163056041818e+00	-1.555634918631998e+00	 7.321740043630838e-01
 2.085965004509578e+00	-1.237436867095498e+00	 6.611474447678752e-01
 1.767766952977778e+00	-9.192388155579977e-01	 5.820022803790984e-01
 1.449568901446417e+00	-6.010407640194974e-01	 4.947385111965048e-01
 1.131370849915500e+00	-2.828427124799999e-01	 3.993561372198993e-01
 4.454772721478000e+00	-3.323401871590000e+00	 1.004602074173214e+00
 4.136574669941981e+00	-3.005203820059499e+00	 9.801889154354246e-01
 3.818376618406720e+00	-2.687005768528000e+00	 9.489413224771339e-01
 3.500178566872220e+00	-2.368807716995499e+00	 9.108895117116539e-01
 3.181980515338480e+00	-2.050609665461999e+00	 8.660636995523285e-01
 2.863782463805499e+00	-1.732411613927498e+00	 8.145316715564892e-01
 2.545584412273278e+00	-1.414213562391998e+00	 7.559412976983060e-01
 2.227386360741818e+00	-1.096015510855498e+00	 6.899010130914984e-01
 1.909188309211118e+00	-7.778174593179976e-01	 6.164108177358234e-01
 1.590990257681178e+00	-4.596194077794977e-01	 5.354707116310689e-01
 1.272792206152000e+00	-1.414213562400000e-01	 4.470806947770624e-01
 4.596194077712500e+00	-3.181980515350000e+00	 1.021669922871951e+00
 4.277996026175501e+00	-2.863782463819500e+00	 9.966955691537009e-01
 3.959797974639498e+00	-2.545584412287999e+00	 9.656068279677527e-01
 3.641599923104499e+00	-2.227386360755499e+00	 9.284339157275481e-01
 3.323401871570498e+00	-1.909188309221998e+00	 8.852070488465563e-01
 3.005203820037498e+00	-1.590990257687499e+00	 8.359564437382700e-01
 2.687005768505498e+00	-1.272792206151998e+00	 7.814313507202191e-01
 2.368807716974498e+00	-9.545941546154979e-01	 7.203878384761879e-01
 2.050609665444498e+00	-6.363961030779979e-01	 6.525631095280616e-01
 1.732411613915498e+00	-3.181980515394975e-01	 5.779571638756879e-01
 1.414213562387500e+00	 0.000000000000000e+00	 4.965700015189407e-01
 4.737615433948000e+00	-3.040559159110000e+00	 1.041411396688650e+00
 4.419417382410180e+00	-2.722361107579500e+00	 1.015884355806035e+00
 4.101219330873520e+00	-2.404163056048000e+00	 9.849629742085322e-01
 3.783021279338019e+00	-2.085965004515499e+00	 9.486774683097221e-01
 3.464823227803679e+00	-1.767766952981999e+00	 9.070580545232068e-01
 3.146625176270499e+00	-1.449568901447499e+00	 8.601349492625976e-01
 2.828427124738479e+00	-1.131370849911998e+00	 8.086441634288974e-01
 2.510229073207618e+00	-8.131727983754981e-01	 7.526079209220419e-01
 2.192031021677918e+00	-4.949747468379977e-01	 6.904591557559379e-01
 1.873832970149377e+00	-1.767766952994975e-01	 6.221978679305149e-01
 1.555634918622000e+00	 1.414213562400000e-01	 5.478240574457125e-01
 4.879036790184500e+00	-2.899137802870000e+00	 1.063796064388578e+00
 4.560838738646019e+00	-2.580939751339499e+00	 1.037724844157696e+00
 4.242640687108779e+00	-2.262741699808000e+00	 1.006979329964746e+00
 3.924442635572779e+00	-1.944543648275499e+00	 9.715897382234608e-01
 3.606244584038019e+00	-1.626345596741999e+00	 9.315862853475784e-01
 3.288046532504499e+00	-1.308147545207499e+00	 8.869991877508392e-01
 2.969848480972219e+00	-9.899494936719984e-01	 8.378586618469933e-01
 2.651650429441178e+00	-6.717514421354980e-01	 7.865612604291465e-01
 2.333452377911378e+00	-3.535533905979978e-01	 7.300989564195675e-01
 2.015254326382817e+00	-3.535533905949750e-02	 6.681928237956891e-01
 1.697056274855500e+00	 2.828427124799999e-01	 6.008428625575422e-01
 5.020458146422000e+00	-2.757716446630000e+00	 1.088793494737011e+00
 4.702260094883020e+00	-2.439518395099500e+00	 1.062186602973954e+00
 4.384062043345279e+00	-2.121320343568000e+00	 1.031625464001672e+00
 4.065863991808779e+00	-1.803122292035499e+00	 9.971402942340477e-01
 3.747665940273519e+00	-1.484924240501999e+00	 9.587613100849635e-01
 3.429467888739499e+00	-1.166726188967499e+00	 9.165187279683028e-01
 3.111269837206718e+00	-8.485281374319982e-01	 8.704427642979469e-01
 2.793071785675178e+00	-5.303300858954981e-01	 8.222478569975875e-01
 2.474873734144878e+00	-2.121320343579978e-01	 7.714825115190529e-01
 2.156675682615818e+00	 1.060660171805025e-01	 7.159420314713405e-01
 1.838477631088000e+00	 4.242640687199999e-01	 6.556264168545847e-01
 5.161879502660499e+00	-2.616295090390000e+00	 1.116373256499218e+00
 4.843681451121180e+00	-2.298097038859499e+00	 1.089239201020082e+00
 4.525483399583018e+00	-1.979898987327999e+00	 1.058870945084583e+00
 4.207285348046018e+00	-1.661700935795499e+00	 1.025298705106763e+00
 3.889087296510178e+00	-1.343502884261999e+00	 9.885526975006553e-01
 3.570889244975499e+00	-1.025304832727499e+00	 9.486631386802911e-01
 3.252691193441978e+00	-7.071067811919984e-01	 9.056602450597016e-01
 2.934493141909618e+00	-3.889087296554980e-01	 8.596677106274369e-01
 2.616295090378417e+00	-7.071067811799796e-02	 8.146098210544950e-01
 2.298097038848377e+00	 2.474873734205024e-01	 7.654454909575888e-01
 1.979898987319500e+00	 5.656854249599998e-01	 7.121747203369815e-01
 5.303300858900000e+00	-2.474873734150000e+00	 1.146504918440479e+00
 4.985102807360500e+00	-2.156675682619500e+00	 1.118852207061354e+00
 4.666904755822000e+00	-1.838477631087999e+00	 1.088685341978757e+00
 4.348706704284499e+00	-1.520279579555499e+00	 1.056034539606887e+00
 4.030508652747999e+00	-1.202081528021999e+00	 1.020930016359941e+00
 3.712310601212499e+00	-8.838834764874985e-01	 9.834019886521070e-01
 3.394112549677998e+00	-5.656854249519983e-01	 9.434806728975672e-01
 3.075914498144499e+00	-2.474873734154980e-01	 9.011962855104940e-01
 2.757716446611997e+00	 7.071067812200227e-02	 8.594808850259807e-01
 2.439518395080498e+00	 3.889087296605026e-01	 8.167032022545432e-01
 2.121320343550000e+00	 7.071067812000000e-01	 7.704877730048654e-01
 8.485281374250000e+00	-5.656854249500000e+00	 1.050205309310498e+00
 8.167083322719501e+00	-5.338656197960501e+00	 1.039995969793366e+00
 7.848885271187999e+00	-5.020458146422000e+00	 1.035036561494081e+00
 7.530687219655500e+00	-4.702260094884500e+00	 1.035268208402003e+00
 7.212489168122000e+00	-4.384062043348000e+00	 1.040632034075876e+00
 6.894291116587500e+00	-4.065863991812500e+00	 1.051069161643937e+00
 6.576093065052000e+00	-3.747665940277999e+00	 1.066520713804014e+00
 6.257895013515500e+00	-3.429467888744500e+00	 1.086464770202148e+00
 5.939696961978000e+00	-3.111269837212001e+00	 1.103115685664537e+00
 5.621498910439501e+00	-2.793071785680501e+00	 1.123118996272656e+00
 5.303300858900000e+00	-2.474873734150000e+00	 1.146504918440479e+00
 8.626702730480501e+00	-5.515432893260000e+00	 1.050016441834677e+00
 8.308504678951619e+00	-5.197234841720499e+00	 1.041780098184462e+00
 7.990306627421581e+00	-4.879036790182001e+00	 1.038589968181904e+00
 7.672108575890380e+00	-4.560838738644500e+00	 1.040387177058719e+00
 7.353910524358018e+00	-4.242640687107999e+00	 1.047112849615969e+00
 7.035712472824501e+00	-3.924442635572500e+00	 1.058708110224168e+00
 6.717514421289819e+00	-3.606244584038000e+00	 1.075114092165452e+00
 6.399316369753979e+00	-3.288046532504500e+00	 1.092491902799146e+00
 6.081118318216981e+00	-2.969848480972001e+00	 1.109742014845526e+00
 5.762920266678822e+00	-2.651650429440500e+00	 1.130245326471681e+00
 5.444722215139500e+00	-2.333452377910000e+00	 1.154032054091524e+00
 8.768124086712000e+00	-5.374011537020000e+00	 1.049917983726757e+00
 8.449926035184181e+00	-5.055813485480499e+00	 1.043605211037347e+00
 8.131727983655120e+00	-4.737615433942000e+00	 1.042134934821894e+00
 7.813529932124820e+00	-4.419417382404498e+00	 1.045448281554442e+00
 7.495331880593279e+00	-4.101219330867999e+00	 1.053486377278353e+00
 7.177133829060502e+00	-3.783021279332499e+00	 1.066190347606398e+00
 6.858935777526480e+00	-3.464823227798000e+00	 1.083501317823940e+00
 6.540737725991220e+00	-3.146625176264500e+00	 1.098510311154399e+00
 6.222539674454719e+00	-2.828427124731999e+00	 1.116304331168925e+00
 5.904341622916981e+00	-2.510229073200500e+00	 1.137252355197258e+00
 5.586143571378001e+00	-2.192031021670000e+00	 1.161384599653258e+00
 8.909545442944502e+00	-5.232590180779999e+00	 1.051543176669171e+00
 8.591347391417179e+00	-4.914392129240498e+00	 1.045502812853485e+00
 8.273149339888619e+00	-4.596194077702000e+00	 1.045702965670148e+00
 7.954951288358820e+00	-4.277996026164499e+00	 1.050483025899913e+00
 7.636753236827779e+00	-3.959797974627999e+00	 1.059784120828411e+00
 7.318555185295500e+00	-3.641599923092500e+00	 1.073547377310649e+00
 7.000357133761980e+00	-3.323401871557999e+00	 1.089231516700330e+00
 6.682159082227221e+00	-3.005203820024500e+00	 1.104489564033153e+00
 6.363961030691222e+00	-2.687005768492000e+00	 1.122772203399991e+00
 6.045762979153981e+00	-2.368807716960500e+00	 1.144109651214661e+00
 5.727564927615502e+00	-2.050609665430000e+00	 1.168532123890969e+00
 9.050966799177999e+00	-5.091168824540000e+00	 1.053943146895123e+00
 8.732768747650619e+00	-4.772970773000500e+00	 1.047504407681305e+00
 8.414570696122080e+00	-4.454772721462000e+00	 1.049325564529746e+00
 8.096372644592378e+00	-4.136574669924498e+00	 1.055522913652855e+00
 7.778174593061522e+00	-3.818376618388000e+00	 1.066037583578515e+00
 7.459976541529501e+00	-3.500178566852500e+00	 1.080810703439363e+00
 7.141778489996320e+00	-3.181980515318000e+00	 1.094608656565403e+00
 6.823580438461980e+00	-2.863782463784500e+00	 1.110399230200656e+00
 6.505382386926481e+00	-2.545584412252000e+00	 1.129115200303985e+00
 6.187184335389821e+00	-2.227386360720500e+00	 1.150786783289161e+00
 5.868986283852001e+00	-1.909188309189999e+00	 1.175444195569948e+00
 9.192388155412500e+00	-4.949747468299999e+00	 1.055982425031196e+00
 8.874190103884501e+00	-4.631549416760500e+00	 1.050334417932633e+00
 8.555992052355499e+00	-4.313351365221999e+00	 1.053034234750749e+00
 8.237794000825501e+00	-3.995153313684500e+00	 1.060599447917987e+00
 7.919595949294502e+00	-3.676955262148000e+00	 1.072278268388038e+00
 7.601397897762501e+00	-3.358757210612499e+00	 1.086469240266775e+00
 7.283199846229503e+00	-3.040559159078000e+00	 1.099941067100278e+00
 6.965001794695500e+00	-2.722361107544499e+00	 1.116208878422157e+00
 6.646803743160501e+00	-2.404163056012000e+00	 1.135302890646164e+00
 6.328605691624502e+00	-2.085965004480500e+00	 1.157253320186033e+00
 6.010407640087500e+00	-1.767766952949999e+00	 1.182090383455484e+00
 9.333809511648003e+00	-4.808326112060000e+00	 1.057663551353035e+00
 9.015611460118823e+00	-4.490128060520500e+00	 1.054178912527290e+00
 8.697413408588879e+00	-4.171930008981998e+00	 1.056860479230213e+00
 8.379215357058181e+00	-3.853731957444499e+00	 1.065744131347026e+00
 8.061017305526720e+00	-3.535533905907998e+00	 1.078537680687468e+00
 7.742819253994502e+00	-3.217335854372499e+00	 1.091205345599951e+00
 7.424621202461522e+00	-2.899137802838000e+00	 1.105198317070199e+00
 7.106423150927782e+00	-2.580939751304499e+00	 1.121888077462906e+00
 6.788225099393280e+00	-2.262741699772000e+00	 1.141304843191788e+00
 6.470027047858021e+00	-1.944543648240500e+00	 1.163478830670549e+00
 6.151828996321999e+00	-1.626345596709999e+00	 1.188440256312869e+00
 9.475230867884500e+00	-4.666904755819999e+00	 1.058989066059854e+00
 9.157032816353579e+00	-4.348706704280500e+00	 1.057604228347432e+00
 8.838834764822220e+00	-4.030508652741999e+00	 1.060953383580092e+00
 8.520636713290420e+00	-3.712310601204499e+00	 1.070988466138707e+00
 8.202438661758181e+00	-3.394112549667999e+00	 1.083999697200818e+00
 7.884240610225500e+00	-3.075914498132499e+00	 1.095891147749203e+00
 7.566042558692381e+00	-2.757716446598000e+00	 1.110349975240410e+00
 7.247844507158820e+00	-2.439518395064499e+00	 1.127406396088151e+00
 6.929646455624821e+00	-2.121320343532000e+00	 1.147090626706119e+00
 6.611448404090381e+00	-1.803122292000500e+00	 1.169432883507983e+00
 6.293250352555501e+00	-1.484924240469999e+00	 1.194463382907387e+00
 9.616652224122001e+00	-4.525483399579999e+00	 1.059961509274437e+00
 9.298454172588782e+00	-4.207285348040499e+00	 1.060612905665051e+00
 8.980256121055522e+00	-3.889087296501998e+00	 1.065843454942585e+00
 8.662058069522221e+00	-3.570889244964499e+00	 1.076363960276806e+00
 8.343860017988879e+00	-3.252691193427998e+00	 1.088095001960315e+00
 8.025661966455502e+00	-2.934493141892499e+00	 1.100496215479773e+00
 7.707463914922080e+00	-2.616295090357999e+00	 1.115365610376154e+00
 7.389265863388621e+00	-2.298097038824499e+00	 1.132733403063146e+00
 7.071067811855122e+00	-1.979898987291999e+00	 1.152629809954417e+00
 6.752869760321582e+00	-1.661700935760499e+00	 1.175085047463606e+00
 6.434671708788001e+00	-1.343502884229999e+00	 1.200129332004327e+00
 9.758073580360501e+00	-4.384062043339998e+00	 1.060583421043140e+00
 9.439875528824421e+00	-4.065863991800500e+00	 1.063207484675709e+00
 9.121677477288781e+00	-3.747665940261999e+00	 1.070255861265950e+00
 8.803479425753581e+00	-3.429467888724498e+00	 1.081617511204727e+00
 8.485281374218824e+00	-3.111269837187999e+00	 1.092134429682152e+00
 8.167083322684503e+00	-2.793071785652499e+00	 1.104990117556902e+00
 7.848885271150622e+00	-2.474873734117999e+00	 1.120214791242676e+00
 7.530687219617181e+00	-2.156675682584499e+00	 1.137838667153143e+00
 7.212489168084182e+00	-1.838477631051999e+00	 1.157891961701944e+00
 6.894291116551622e+00	-1.520279579520499e+00	 1.180404891302693e+00
 6.576093065019501e+00	-1.202081527989999e+00	 1.205407672368976e+00
 9.899494936600000e+00	-4.242640687100000e+00	 1.060857341335895e+00
 9.581296885060500e+00	-3.924442635560500e+00	 1.065390505498541e+00
 9.263098833522001e+00	-3.606244584022000e+00	 1.074193142818525e+00
 8.944900781984499e+00	-3.288046532484499e+00	 1.084872020924026e+00
 8.626702730448001e+00	-2.969848480948000e+00	 1.096087549131570e+00
 8.308504678912501e+00	-2.651650429412500e+00	 1.109342422745833e+00
 7.990306627378000e+00	-2.333452377878000e+00	 1.124867086605224e+00
 7.672108575844501e+00	-2.015254326344500e+00	 1.142691757123394e+00
 7.353910524312001e+00	-1.697056274812000e+00	 1.162846650713961e+00
 7.035712472780501e+00	-1.378858223280500e+00	 1.185361983790516e+00
 6.717514421250000e+00	-1.060660171750000e+00	 1.210267972766620e+00
 5.303300858900000e+00	-2.474873734150000e+00	 1.146504918440479e+00
 4.985102807360500e+00	-2.156675682619500e+00	 1.118852207061354e+00
 4.666904755822000e+00	-1.838477631087999e+00	 1.088685341978757e+00
 4.348706704284499e+00	-1.520279579555499e+00	 1.056034539606887e+00
 4.030508652747999e+00	-1.202081528021999e+00	 1.020930016359941e+00
 3.712310601212499e+00	-8.838834764874985e-01	 9.834019886521070e-01
 3.394112549677998e+00	-5.656854249519983e-01	 9.434806728975672e-01
 3.075914498144499e+00	-2.474873734154980e-01	 9.011962855104940e-01
 2.757716446611997e+00	 7.071067812200227e-02	 8.594808850259807e-01
 2.439518395080498e+00	 3.889087296605026e-01	 8.167032022545432e-01
 2.121320343550000e+00	 7.071067812000000e-01	 7.704877730048654e-01
 5.444722215139500e+00	-2.333452377910000e+00	 1.154032054091524e+00
 5.126524163600000e+00	-2.015254326379499e+00	 1.122181990262832e+00
 4.808326112061301e+00	-1.697056274848000e+00	 1.089972199971305e+00
 4.490128060523400e+00	-1.378858223315499e+00	 1.057432899631131e+00
 4.171930008986299e+00	-1.060660171781999e+00	 1.024594305656497e+00
 3.853731957449999e+00	-7.424621202474984e-01	 9.914866344615948e-01
 3.535533905914499e+00	-4.242640687119982e-01	 9.581401024606193e-01
 3.217335854379798e+00	-1.060660171754979e-01	 9.245849260677639e-01
 2.899137802845898e+00	 2.121320343620024e-01	 8.916347269203673e-01
 2.580939751312798e+00	 5.303300859005027e-01	 8.630420283806179e-01
 2.262741699780500e+00	 8.485281374400002e-01	 8.331146578947293e-01
 5.586143571378001e+00	-2.192031021670000e+00	 1.161384599653258e+00
 5.267945519838700e+00	-1.873832970139499e+00	 1.126275265260587e+00
 4.949747468300000e+00	-1.555634918607999e+00	 1.092960631645735e+00
 4.631549416761899e+00	-1.237436867075498e+00	 1.061470915222868e+00
 4.313351365224399e+00	-9.192388155419986e-01	 1.031836332406160e+00
 3.995153313687498e+00	-6.010407640074983e-01	 1.004087099609801e+00
 3.676955262151199e+00	-2.828427124719979e-01	 9.782534332479906e-01
 3.358757210615499e+00	 3.535533906450226e-02	 9.543655497349317e-01
 3.040559159080398e+00	 3.535533906020026e-01	 9.324536654848492e-01
 2.722361107545898e+00	 6.717514421405030e-01	 9.168356451424140e-01
 2.404163056012000e+00	 9.899494936800003e-01	 9.041364048639300e-01
 5.727564927615502e+00	-2.050609665430000e+00	 1.168532123890969e+00
 5.409366876076600e+00	-1.732411613899500e+00	 1.131101600819899e+00
 5.091168824538100e+00	-1.414213562367999e+00	 1.097620205767318e+00
 4.772970773000000e+00	-1.096015510835499e+00	 1.068118155147362e+00
 4.454772721462299e+00	-7.778174593019984e-01	 1.042625665374188e+00
 4.136574669924999e+00	-4.596194077674982e-01	 1.021172952861975e+00
 3.818376618388098e+00	-1.414213562319979e-01	 1.003790234024920e+00
 3.500178566851599e+00	 1.767766953045024e-01	 9.905077252772351e-01
 3.181980515315498e+00	 4.949747468420027e-01	 9.813556430331561e-01
 2.863782463779797e+00	 8.131727983805029e-01	 9.780840525398871e-01
 2.545584412244501e+00	 1.131370849920000e+00	 9.835530139124111e-01
 5.868986283852001e+00	-1.909188309189999e+00	 1.175444195569948e+00
 5.550788232313701e+00	-1.590990257659499e+00	 1.136630565706052e+00
 5.232590180775599e+00	-1.272792206127999e+00	 1.103920491101330e+00
 4.914392129237699e+00	-9.545941545954986e-01	 1.077344188169883e+00
 4.596194077700000e+00	-6.363961030619986e-01	 1.056931873325845e+00
 4.277996026162501e+00	-3.181980515274982e-01	 1.042713762983373e+00
 3.959797974625198e+00	 8.002168372378549e-12	 1.034720073556658e+00
 3.641599923088099e+00	 3.181980515445025e-01	 1.032981021459913e+00
 3.323401871551199e+00	 6.363961030820029e-01	 1.037526823107382e+00
 3.005203820014498e+00	 9.545941546205029e-01	 1.048387694913336e+00
 2.687005768478001e+00	 1.272792206160001e+00	 1.071364485040135e+00
 6.010407640087500e+00	-1.767766952949999e+00	 1.182090383455484e+00
 5.692209588550001e+00	-1.449568901419499e+00	 1.142831728684329e+00
 5.374011537012500e+00	-1.131370849887999e+00	 1.111831056413050e+00
 5.055813485475000e+00	-8.131727983554985e-01	 1.089118583055706e+00
 4.737615433937499e+00	-4.949747468219984e-01	 1.074724525026398e+00
 4.419417382400000e+00	-1.767766952874980e-01	 1.068679098739259e+00
 4.101219330862500e+00	 1.414213562480024e-01	 1.071012520608465e+00
 3.783021279324998e+00	 4.596194077845027e-01	 1.081755007048223e+00
 3.464823227787499e+00	 7.778174593220029e-01	 1.100936774472780e+00
 3.146625176249998e+00	 1.096015510860503e+00	 1.128588039296416e+00
 2.828427124712501e+00	 1.414213562400001e+00	 1.167570818247081e+00
 6.151828996321999e+00	-1.626345596709999e+00	 1.188440256312869e+00
 5.833630944785500e+00	-1.308147545179499e+00	 1.149674658520018e+00
 5.515432893248801e+00	-9.899494936479986e-01	 1.121321470467759e+00
 5.197234841711900e+00	-6.717514421154984e-01	 1.103410908570107e+00
 4.879036790174800e+00	-3.535533905819983e-01	 1.095973189241122e+00
 4.560838738637499e+00	-3.535533904749782e-02	 1.099038528894906e+00
 4.242640687100000e+00	 2.828427124880024e-01	 1.112637143945610e+00
 3.924442635562299e+00	 6.010407640245028e-01	 1.136799250807431e+00
 3.606244584024399e+00	 9.192388155620030e-01	 1.171555065894610e+00
 3.288046532486298e+00	 1.237436867100503e+00	 1.216934805621435e+00
 2.969848480948001e+00	 1.555634918640001e+00	 1.272968686402237e+00
 6.293250352555501e+00	-1.484924240469999e+00	 1.194463382907387e+00
 5.975052301020201e+00	-1.166726188939498e+00	 1.157128923978401e+00
 5.656854249484501e+00	-8.485281374079986e-01	 1.132361302030743e+00
 5.338656197948400e+00	-5.303300858754983e-01	 1.120190733478372e+00
 5.020458146411899e+00	-2.121320343419980e-01	 1.120647434735297e+00
 4.702260094874999e+00	 1.060660171925024e-01	 1.133761622215591e+00
 4.384062043337700e+00	 4.242640687280026e-01	 1.159563512333371e+00
 4.065863991799999e+00	 7.424621202645029e-01	 1.198083321502814e+00
 3.747665940261899e+00	 1.060660171802003e+00	 1.249351266138152e+00
 3.429467888723399e+00	 1.378858223340504e+00	 1.313397562653668e+00
 3.111269837184501e+00	 1.697056274880001e+00	 1.390252427463702e+00
 6.434671708788001e+00	-1.343502884229999e+00	 1.200129332004327e+00
 6.116473657254100e+00	-1.025304832699499e+00	 1.165164093824768e+00
 5.798275605719600e+00	-7.071067811679984e-01	 1.144920119867289e+00
 5.480077554184501e+00	-3.889087296354982e-01	 1.139427626545783e+00
 5.161879502648800e+00	-7.071067810199802e-02	 1.148716830274213e+00
 4.843681451112499e+00	 2.474873734325023e-01	 1.172817947466601e+00
 4.525483399575600e+00	 5.656854249680027e-01	 1.211761194537034e+00
 4.207285348038099e+00	 8.838834765045029e-01	 1.265576787899660e+00
 3.889087296499999e+00	 1.202081528042003e+00	 1.334294943968693e+00
 3.570889244961298e+00	 1.520279579580503e+00	 1.417945879158406e+00
 3.252691193422001e+00	 1.838477631120001e+00	 1.516559809883140e+00
 6.576093065019501e+00	-1.202081527989999e+00	 1.205407672368976e+00
 6.257895013487201e+00	-8.838834764594988e-01	 1.173749736824406e+00
 5.939696961954101e+00	-5.656854249279983e-01	 1.158967492742683e+00
 5.621498910420200e+00	-2.474873733954980e-01	 1.161091156537633e+00
 5.303300858885500e+00	 7.071067813800208e-02	 1.180150944623160e+00
 4.985102807350001e+00	 3.889087296725026e-01	 1.216177073413234e+00
 4.666904755813699e+00	 7.071067812080027e-01	 1.269199759321897e+00
 4.348706704276599e+00	 1.025304832744503e+00	 1.339249218763267e+00
 4.030508652738699e+00	 1.343502884282003e+00	 1.426355668151532e+00
 3.712310601199998e+00	 1.661700935820504e+00	 1.530549323900952e+00
 3.394112549660501e+00	 1.979898987360001e+00	 1.651860402425856e+00
 6.717514421250000e+00	-1.060660171750000e+00	 1.210267972766620e+00
 6.399316369719500e+00	-7.424621202194998e-01	 1.182855421742604e+00
 6.081118318188000e+00	-4.242640686879995e-01	 1.174472989422220e+00
 5.762920266655499e+00	-1.060660171554992e-01	 1.185150892219220e+00
 5.444722215121999e+00	 2.121320343780010e-01	 1.214919346547437e+00
 5.126524163587499e+00	 5.303300859125013e-01	 1.263808568820787e+00
 4.808326112051999e+00	 8.485281374480016e-01	 1.331848775453264e+00
 4.490128060515498e+00	 1.166726188984502e+00	 1.419070182858944e+00
 4.171930008977998e+00	 1.484924240522002e+00	 1.525503007451984e+00
 3.853731957439497e+00	 1.803122292060502e+00	 1.651177465646620e+00
 3.535533905900000e+00	 2.121320343600000e+00	 1.796123773857171e+00
 9.899494936600000e+00	-4.242640687100000e+00	 1.060857341335895e+00
 9.581296885060500e+00	-3.924442635560500e+00	 1.072152987338029e+00
 9.263098833522001e+00	-3.606244584022000e+00	 1.085482462290639e+00
 8.944900781984499e+00	-3.288046532484499e+00	 1.098452533822047e+00
 8.626702730448001e+00	-2.969848480948000e+00	 1.109723611248946e+00
 8.308504678912501e+00	-2.651650429412500e+00	 1.120798389876211e+00
 7.990306627378000e+00	-2.333452377878000e+00	 1.131907314542474e+00
 7.672108575844501e+00	-2.015254326344500e+00	 1.143080601661639e+00
 7.353910524312001e+00	-1.697056274812000e+00	 1.154348467647603e+00
 7.035712472780501e+00	-1.378858223280500e+00	 1.165741128914265e+00
 6.717514421250000e+00	-1.060660171750000e+00	 1.177288801875520e+00
 9.970205614719999e+00	-4.171930008980000e+00	 1.064740096525442e+00
 9.652007563180501e+00	-3.853731957444015e+00	 1.075772095742568e+00
 9.333809511641999e+00	-3.535533905908459e+00	 1.088825577231074e+00
 9.015611460104504e+00	-3.217335854373335e+00	 1.100295918383479e+00
 8.697413408568002e+00	-2.899137802838641e+00	 1.111146794455331e+00
 8.379215357032503e+00	-2.580939751304375e+00	 1.121466365832749e+00
 8.061017305497998e+00	-2.262741699770540e+00	 1.131835558638956e+00
 7.742819253964499e+00	-1.944543648237135e+00	 1.142284589287843e+00
 7.424621202432001e+00	-1.626345596704161e+00	 1.152843674193296e+00
 7.106423150900500e+00	-1.308147545171615e+00	 1.163543029769203e+00
 6.788225099370000e+00	-9.899494936395000e-01	 1.174412872429449e+00
 1.004091629284000e+01	-4.101219330860000e+00	 1.068637010472052e+00
 9.722718241300498e+00	-3.783021279327159e+00	 1.079354548006482e+00
 9.404520189762000e+00	-3.464823227794240e+00	 1.092081221165423e+00
 9.086322138224501e+00	-3.146625176261240e+00	 1.101951034135513e+00
 8.768124086687997e+00	-2.828427124728159e+00	 1.112497499949864e+00
 8.449926035152499e+00	-2.510229073195000e+00	 1.122013118647821e+00
 8.131727983617999e+00	-2.192031021661760e+00	 1.131593834164363e+00
 7.813529932084500e+00	-1.873832970128440e+00	 1.141269862913364e+00
 7.495331880552000e+00	-1.555634918595040e+00	 1.151071421308699e+00
 7.177133829020501e+00	-1.237436867061561e+00	 1.161028725764247e+00
 6.858935777489999e+00	-9.192388155279999e-01	 1.171171992693880e+00
 1.011162697096000e+01	-4.030508652739999e+00	 1.072548400650471e+00
 9.793428919420498e+00	-3.712310601209934e+00	 1.082900661623163e+00
 9.475230867881999e+00	-3.394112549679341e+00	 1.094413159143566e+00
 9.157032816344499e+00	-3.075914498148215e+00	 1.103420258414989e+00
 8.838834764807999e+00	-2.757716446616560e+00	 1.113664331130063e+00
 8.520636713272500e+00	-2.439518395084376e+00	 1.122434844417090e+00
 8.202438661738002e+00	-2.121320343551660e+00	 1.131178337214357e+00
 7.884240610204500e+00	-1.803122292018415e+00	 1.140032618633865e+00
 7.566042558672001e+00	-1.484924240484641e+00	 1.149027905089478e+00
 7.247844507140502e+00	-1.166726188950336e+00	 1.158194412995061e+00
 6.929646455610000e+00	-8.485281374155000e-01	 1.167562358764479e+00
 1.018233764908000e+01	-3.959797974620000e+00	 1.076474584530667e+00
 9.864139597540500e+00	-3.641599923092341e+00	 1.086410754081233e+00
 9.545941546001998e+00	-3.323401871563759e+00	 1.096360731021234e+00
 9.227743494464498e+00	-3.005203820034259e+00	 1.104705980962520e+00
 8.909545442928000e+00	-2.687005768503841e+00	 1.114261894752314e+00
 8.591347391392503e+00	-2.368807716972500e+00	 1.122727739236213e+00
 8.273149339858001e+00	-2.050609665440240e+00	 1.130585263884598e+00
 7.954951288324501e+00	-1.732411613907061e+00	 1.138569052545007e+00
 7.636753236792002e+00	-1.414213562372961e+00	 1.146709321631293e+00
 7.318555185260500e+00	-1.096015510837940e+00	 1.155036287557307e+00
 7.000357133730001e+00	-7.778174593020000e-01	 1.163580166736906e+00
 1.025304832720000e+01	-3.889087296500000e+00	 1.080415879577832e+00
 9.934850275660498e+00	-3.570889244974375e+00	 1.089885142864532e+00
 9.616652224122001e+00	-3.252691193447501e+00	 1.098176176106301e+00
 9.298454172584499e+00	-2.934493141919375e+00	 1.105810588077083e+00
 8.980256121048001e+00	-2.616295090390000e+00	 1.114629352993594e+00
 8.662058069512501e+00	-2.298097038859375e+00	 1.122887999200849e+00
 8.343860017978002e+00	-1.979898987327501e+00	 1.129810810270747e+00
 8.025661966444501e+00	-1.661700935794375e+00	 1.136875360742453e+00
 7.707463914912000e+00	-1.343502884260000e+00	 1.144111867029805e+00
 7.389265863380501e+00	-1.025304832724375e+00	 1.151550545546647e+00
 7.071067811850001e+00	-7.071067811875000e-01	 1.159221612706819e+00
 1.032375900532000e+01	-3.818376618380000e+00	 1.084372603252380e+00
 1.000556095378050e+01	-3.500178566856041e+00	 1.093324145452128e+00
 9.687362902241997e+00	-3.181980515330559e+00	 1.099861880672812e+00
 9.369164850704500e+00	-2.863782463803560e+00	 1.106736466045970e+00
 9.050966799168000e+00	-2.545584412275040e+00	 1.114769098917213e+00
 8.732768747632500e+00	-2.227386360745000e+00	 1.122911820406657e+00
 8.414570696098002e+00	-1.909188309213440e+00	 1.128851172468464e+00
 8.096372644564502e+00	-1.590990257680360e+00	 1.134947739321862e+00
 7.778174593031999e+00	-1.272792206145760e+00	 1.141231737380679e+00
 7.459976541500499e+00	-9.545941546096403e-01	 1.147733383058740e+00
 7.141778489970001e+00	-6.363961030720000e-01	 1.154482892769879e+00
 1.039446968344000e+01	-3.747665940260000e+00	 1.088345073009951e+00
 1.007627163190050e+01	-3.429467888737336e+00	 1.096441207123319e+00
 9.758073580362000e+00	-3.111269837212939e+00	 1.101420230983123e+00
 9.439875528824500e+00	-2.793071785686815e+00	 1.107486001144782e+00
 9.121677477288001e+00	-2.474873734158960e+00	 1.114683510225116e+00
 8.803479425752499e+00	-2.156675682629375e+00	 1.122795398949296e+00
 8.485281374218001e+00	-1.838477631098060e+00	 1.127702546573409e+00
 8.167083322684501e+00	-1.520279579565015e+00	 1.132782384378897e+00
 7.848885271152000e+00	-1.202081528030240e+00	 1.138065128779572e+00
 7.530687219620502e+00	-8.838834764937354e-01	 1.143580996189249e+00
 7.212489168090000e+00	-5.656854249555001e-01	 1.149360203021743e+00
 1.046518036156000e+01	-3.676955262140000e+00	 1.092333606301409e+00
 1.014698231002050e+01	-3.358757210618260e+00	 1.098706084968204e+00
 9.828784258482001e+00	-3.040559159094640e+00	 1.102853613287903e+00
 9.510586206944501e+00	-2.722361107569140e+00	 1.108061579637433e+00
 9.192388155408002e+00	-2.404163056041760e+00	 1.114374976365397e+00
 8.874190103872502e+00	-2.085965004512500e+00	 1.121838795446108e+00
 8.555992052338000e+00	-1.767766952981360e+00	 1.126361128681242e+00
 8.237794000804501e+00	-1.449568901448340e+00	 1.130375492009218e+00
 7.919595949272002e+00	-1.131370849913441e+00	 1.134608237322148e+00
 7.601397897740501e+00	-8.131727983766603e-01	 1.139089581033831e+00
 7.283199846210000e+00	-4.949747468380000e-01	 1.143849739558068e+00
 1.053589103968000e+01	-3.606244584020000e+00	 1.096338520572841e+00
 1.021769298814050e+01	-3.288046532498816e+00	 1.100897369673093e+00
 9.899494936602000e+00	-2.969848480975660e+00	 1.104164413826134e+00
 9.581296885064502e+00	-2.651650429450535e+00	 1.108465587776150e+00
 9.263098833528000e+00	-2.333452377923440e+00	 1.113845883603527e+00
 8.944900781992503e+00	-2.015254326394376e+00	 1.120350291018939e+00
 8.626702730458000e+00	-1.697056274863340e+00	 1.124823114887624e+00
 8.308504678924500e+00	-1.378858223330335e+00	 1.127723258308485e+00
 7.990306627392002e+00	-1.060660171795361e+00	 1.130857259104066e+00
 7.672108575860501e+00	-7.424621202584155e-01	 1.134255333688147e+00
 7.353910524330001e+00	-4.242640687195001e-01	 1.137947698474510e+00
 1.060660171780000e+01	-3.535533905900000e+00	 1.100360133265558e+00
 1.028840366626050e+01	-3.217335854379000e+00	 1.103017447452031e+00
 9.970205614722001e+00	-2.899137802856000e+00	 1.105355018825107e+00
 9.652007563184499e+00	-2.580939751331000e+00	 1.108700411801472e+00
 9.333809511648001e+00	-2.262741699804000e+00	 1.113098618193291e+00
 9.015611460112503e+00	-1.944543648275000e+00	 1.118594623711888e+00
 8.697413408578001e+00	-1.626345596744000e+00	 1.123084701288214e+00
 8.379215357044501e+00	-1.308147545211000e+00	 1.124821879372358e+00
 8.061017305512001e+00	-9.899494936760004e-01	 1.126808390220985e+00
 7.742819253980501e+00	-6.717514421390002e-01	 1.129074450247852e+00
 7.424621202450000e+00	-3.535533906000000e-01	 1.131650275866726e+00
 6.717514421250000e+00	-1.060660171750000e+00	 1.177288801875520e+00
 6.399316369719500e+00	-7.424621202194998e-01	 1.137428991408473e+00
 6.081118318188000e+00	-4.242640686879995e-01	 1.120657057012276e+00
 5.762920266655499e+00	-1.060660171554992e-01	 1.127003215099581e+00
 5.444722215121999e+00	 2.121320343780010e-01	 1.156497682083236e+00
 5.126524163587499e+00	 5.303300859125013e-01	 1.209170674376283e+00
 4.808326112051999e+00	 8.485281374480016e-01	 1.285052408391962e+00
 4.490128060515498e+00	 1.166726188984502e+00	 1.384173100543703e+00
 4.171930008977998e+00	 1.484924240522002e+00	 1.506562967245137e+00
 3.853731957439497e+00	 1.803122292060502e+00	 1.652252224910085e+00
 3.535533905900000e+00	 2.121320343600000e+00	 1.821271089952568e+00
 6.788225099370000e+00	-9.899494936395000e-01	 1.174412872429449e+00
 6.470027047839499e+00	-6.717514421072046e-01	 1.138615744793528e+00
 6.151828996308001e+00	-3.535533905741194e-01	 1.125216917881556e+00
 5.833630944775499e+00	-3.535533904024424e-02	 1.134246608106330e+00
 5.515432893241998e+00	 2.828427124944210e-01	 1.165735031880859e+00
 5.197234841707501e+00	 6.010407640298765e-01	 1.219712405618353e+00
 4.879036790171999e+00	 9.192388155661215e-01	 1.296208945732233e+00
 4.560838738635498e+00	 1.237436867103157e+00	 1.395254868636129e+00
 4.242640687097999e+00	 1.555634918640983e+00	 1.516880390743878e+00
 3.924442635559498e+00	 1.873832970179597e+00	 1.661115728469523e+00
 3.606244584020000e+00	 2.192031021719000e+00	 1.827991098227312e+00
 6.858935777489999e+00	-9.192388155279999e-01	 1.171171992693880e+00
 6.540737725959501e+00	-6.010407639941198e-01	 1.139299281119107e+00
 6.222539674427999e+00	-2.828427124596793e-01	 1.129135294921429e+00
 5.904341622895500e+00	 3.535533907532079e-02	 1.140710250513786e+00
 5.586143571362000e+00	 3.535533906108811e-01	 1.174054364309336e+00
 5.267945519827498e+00	 6.717514421470013e-01	 1.229197852721454e+00
 4.949747468291999e+00	 9.899494936836816e-01	 1.306170932163739e+00
 4.631549416755497e+00	 1.308147545220922e+00	 1.405003819050003e+00
 4.313351365217998e+00	 1.626345596758722e+00	 1.525726729794280e+00
 3.995153313679496e+00	 1.944543648297082e+00	 1.668369880810827e+00
 3.676955262139999e+00	 2.262741699836000e+00	 1.832963488514110e+00
 6.929646455610000e+00	-8.485281374155000e-01	 1.167562358764479e+00
 6.611448404079500e+00	-5.303300858802450e-01	 1.139475796480880e+00
 6.293250352547999e+00	-2.121320343446793e-01	 1.132408384227568e+00
 5.975052301015499e+00	 1.060660171911959e-01	 1.146390338417617e+00
 5.656854249481999e+00	 4.242640687273811e-01	 1.181451875464333e+00
 5.338656197947500e+00	 7.424621202638765e-01	 1.237623211781251e+00
 5.020458146411998e+00	 1.060660171800682e+00	 1.314934563782131e+00
 4.702260094875498e+00	 1.378858223337797e+00	 1.413416147880963e+00
 4.384062043337997e+00	 1.697056274875222e+00	 1.533098180491970e+00
 4.065863991799498e+00	 2.015254326412957e+00	 1.674010878029607e+00
 3.747665940260000e+00	 2.333452377951000e+00	 1.836184456908541e+00
 7.000357133730001e+00	-7.778174593020000e-01	 1.163580166736906e+00
 6.682159082199501e+00	-4.596194077655796e-01	 1.139141486974512e+00
 6.363961030667999e+00	-1.414213562291193e-01	 1.135032381895638e+00
 6.045762979135497e+00	 1.767766953073808e-01	 1.151283067913493e+00
 5.727564927601999e+00	 4.949747468439211e-01	 1.187923761441520e+00
 5.409366876067499e+00	 8.131727983805015e-01	 1.244984678893402e+00
 5.091168824531999e+00	 1.131370849917122e+00	 1.322496036683059e+00
 4.772970772995498e+00	 1.449568901453782e+00	 1.420488051224651e+00
 4.454772721457998e+00	 1.767766952990482e+00	 1.538990938932573e+00
 4.136574669919498e+00	 2.085965004527222e+00	 1.678034916221453e+00
 3.818376618380000e+00	 2.404163056064000e+00	 1.837650199506168e+00
 7.071067811850001e+00	-7.071067811875000e-01	 1.159221612706819e+00
 6.752869760319500e+00	-3.889087296501247e-01	 1.138292548695666e+00
 6.434671708788000e+00	-7.071067811299936e-02	 1.137003484021309e+00
 6.116473657255501e+00	 2.474873734238759e-01	 1.155384635097080e+00
 5.798275605721999e+00	 5.656854249605011e-01	 1.193466218336558e+00
 5.480077554187498e+00	 8.838834764968763e-01	 1.251278450153568e+00
 5.161879502651998e+00	 1.202081528033002e+00	 1.328851546962175e+00
 4.843681451115497e+00	 1.520279579568877e+00	 1.426215725176696e+00
 4.525483399577998e+00	 1.838477631104503e+00	 1.543401201211691e+00
 4.207285348039497e+00	 2.156675682639877e+00	 1.680438191481960e+00
 3.889087296500000e+00	 2.474873734175000e+00	 1.837356912402557e+00
 7.141778489970001e+00	-6.363961030720000e-01	 1.154482892769879e+00
 6.823580438439499e+00	-3.181980515338796e-01	 1.136925177740007e+00
 6.505382386908000e+00	 3.680569737873896e-12	 1.138317886700244e+00
 6.187184335375499e+00	 3.181980515406809e-01	 1.158691236064044e+00
 5.868986283841998e+00	 6.363961030771210e-01	 1.198075442245110e+00
 5.550788232307498e+00	 9.545941546130015e-01	 1.256500721657399e+00
 5.232590180771998e+00	 1.272792206148322e+00	 1.333997290715119e+00
 4.914392129235498e+00	 1.590990257683082e+00	 1.430595365832730e+00
 4.596194077697998e+00	 1.909188309217283e+00	 1.546325163424939e+00
 4.277996026159498e+00	 2.227386360750922e+00	 1.681216899906715e+00
 3.959797974620000e+00	 2.545584412284000e+00	 1.835300791693265e+00
 7.212489168090000e+00	-5.656854249555001e-01	 1.149360203021743e+00
 6.894291116559501e+00	-2.474873734168447e-01	 1.135035570203196e+00
 6.576093065027998e+00	 7.071067812092068e-02	 1.138971786028109e+00
 6.257895013495500e+00	 3.889087296577959e-01	 1.161199066910047e+00
 5.939696961961999e+00	 7.071067811937811e-01	 1.201747629262833e+00
 5.621498910427499e+00	 1.025304832728876e+00	 1.260647689500550e+00
 5.303300858891999e+00	 1.343502884263082e+00	 1.337929464037533e+00
 4.985102807355498e+00	 1.661700935796397e+00	 1.433623169288373e+00
 4.666904755817998e+00	 1.979898987328822e+00	 1.547759021667925e+00
 4.348706704279497e+00	 2.298097038860357e+00	 1.680367237591291e+00
 4.030508652740000e+00	 2.616295090391000e+00	 1.831478033473836e+00
 7.283199846210000e+00	-4.949747468380000e-01	 1.143849739558068e+00
 6.965001794679501e+00	-1.767766952990198e-01	 1.132619922180895e+00
 6.646803743147999e+00	 1.414213562387206e-01	 1.138961378100564e+00
 6.328605691615500e+00	 4.596194077752209e-01	 1.162904323730750e+00
 6.010407640082000e+00	 7.778174593104810e-01	 1.204478975485386e+00
 5.692209588547499e+00	 1.096015510844501e+00	 1.263715549778667e+00
 5.374011537011999e+00	 1.414213562377282e+00	 1.340644263025050e+00
 5.055813485475498e+00	 1.732411613908822e+00	 1.435295331639252e+00
 4.737615433937998e+00	 2.050609665439122e+00	 1.547698972036244e+00
 4.419417382399497e+00	 2.368807716968182e+00	 1.677885400631268e+00
 4.101219330860000e+00	 2.687005768496000e+00	 1.825884833839817e+00
 7.353910524330001e+00	-4.242640687195001e-01	 1.137947698474510e+00
 7.035712472799499e+00	-1.060660171804047e-01	 1.129674429768762e+00
 6.717514421268000e+00	 2.121320343570806e-01	 1.138282859013270e+00
 6.399316369735500e+00	 5.303300858929558e-01	 1.163803202621810e+00
 6.081118318201999e+00	 8.485281374272211e-01	 1.206265677008418e+00
 5.762920266667499e+00	 1.166726188959876e+00	 1.265700498587397e+00
 5.444722215131999e+00	 1.484924240490922e+00	 1.342137883773307e+00
 5.126524163595498e+00	 1.803122292020357e+00	 1.435608048980977e+00
 4.808326112057998e+00	 2.121320343548182e+00	 1.546141210625493e+00
 4.490128060519497e+00	 2.439518395074397e+00	 1.673767585122212e+00
 4.171930008980000e+00	 2.757716446599000e+00	 1.818517388886743e+00
 7.424621202450000e+00	-3.535533906000000e-01	 1.131650275866726e+00
 7.106423150919500e+00	-3.535533906099975e-02	 1.126195289062455e+00
 6.788225099388000e+00	 2.828427124760007e-01	 1.136932424861886e+00
 6.470027047855499e+00	 6.010407640110009e-01	 1.163891899678885e+00
 6.151828996321999e+00	 9.192388155440012e-01	 1.207103929927585e+00
 5.833630944787498e+00	 1.237436867075001e+00	 1.266598732022380e+00
 5.515432893251999e+00	 1.555634918604002e+00	 1.342406522377931e+00
 5.197234841715498e+00	 1.873832970131002e+00	 1.434557517409161e+00
 4.879036790177997e+00	 2.192031021656002e+00	 1.543081933531262e+00
 4.560838738639497e+00	 2.510229073179003e+00	 1.668009987159683e+00
 4.242640687100000e+00	 2.828427124700000e+00	 1.809371894710145e+00
 1.060660171780000e+01	-3.535533905900000e+00	 1.100360133265558e+00
 1.028840366626050e+01	-3.217335854379000e+00	 1.098248347594570e+00
 9.970205614722001e+00	-2.899137802856000e+00	 1.097191440093977e+00
 9.652007563184499e+00	-2.580939751331000e+00	 1.098516975180421e+00
 9.333809511648001e+00	-2.262741699804000e+00	 1.102269944666021e+00
 9.015611460112503e+00	-1.944543648275000e+00	 1.108495334262058e+00
 8.697413408578001e+00	-1.626345596744000e+00	 1.115089416899438e+00
 8.379215357044501e+00	-1.308147545211000e+00	 1.120305221028207e+00
 8.061017305512001e+00	-9.899494936760004e-01	 1.127144978904982e+00
 7.742819253980501e+00	-6.717514421390002e-01	 1.135638906943480e+00
 7.424621202450000e+00	-3.535533906000000e-01	 1.145817221557420e+00
 1.067731239592000e+01	-3.464823227780000e+00	 1.101481259311324e+00
 1.035911434438050e+01	-3.146625176258999e+00	 1.097715753420653e+00
 1.004091629284200e+01	-2.828427124736000e+00	 1.096156863320785e+00
 9.722718241304502e+00	-2.510229073211001e+00	 1.097096935158699e+00
 9.404520189768002e+00	-2.192031021684000e+00	 1.100580960478316e+00
 9.086322138232500e+00	-1.873832970155000e+00	 1.106653930858208e+00
 8.768124086697998e+00	-1.555634918624000e+00	 1.114373617317232e+00
 8.449926035164500e+00	-1.237436867091000e+00	 1.119568326986955e+00
 8.131727983632004e+00	-9.192388155560005e-01	 1.126545293299799e+00
 7.813529932100502e+00	-6.010407640190005e-01	 1.135334732669482e+00
 7.495331880570001e+00	-2.828427124800001e-01	 1.145966861509723e+00
 1.074802307404000e+01	-3.394112549660000e+00	 1.101470489736623e+00
 1.042982502250050e+01	-3.075914498138999e+00	 1.096865611653143e+00
 1.011162697096200e+01	-2.757716446616000e+00	 1.094831223656306e+00
 9.793428919424501e+00	-2.439518395091000e+00	 1.095412316987162e+00
 9.475230867888001e+00	-2.121320343563999e+00	 1.098653882921432e+00
 9.157032816352501e+00	-1.803122292035000e+00	 1.104600912769481e+00
 8.838834764818001e+00	-1.484924240504000e+00	 1.113298397832316e+00
 8.520636713284503e+00	-1.166726188971000e+00	 1.118776406575660e+00
 8.202438661752000e+00	-8.485281374360003e-01	 1.125917309184095e+00
 7.884240610220500e+00	-5.303300858990003e-01	 1.135028987744484e+00
 7.566042558690000e+00	-2.121320343600000e-01	 1.146141658670543e+00
 1.081873375216000e+01	-3.323401871540000e+00	 1.100870719433190e+00
 1.050053570062050e+01	-3.005203820019000e+00	 1.095700308471028e+00
 1.018233764908200e+01	-2.687005768496000e+00	 1.093216907292774e+00
 9.864139597544503e+00	-2.368807716971000e+00	 1.093465506871286e+00
 9.545941546008001e+00	-2.050609665444000e+00	 1.096491098214085e+00
 9.227743494472502e+00	-1.732411613915000e+00	 1.102338672363337e+00
 8.909545442938002e+00	-1.414213562384000e+00	 1.111053218951378e+00
 8.591347391404499e+00	-1.096015510851000e+00	 1.117925655889981e+00
 8.273149339872001e+00	-7.778174593160003e-01	 1.125257222653526e+00
 7.954951288340502e+00	-4.596194077790004e-01	 1.134717868264139e+00
 7.636753236810001e+00	-1.414213562399999e-01	 1.146337809135538e+00
 1.088944443028000e+01	-3.252691193420000e+00	 1.099931689192819e+00
 1.057124637874050e+01	-2.934493141899001e+00	 1.094222230041609e+00
 1.025304832720200e+01	-2.616295090376000e+00	 1.091316300410732e+00
 9.934850275664500e+00	-2.298097038851000e+00	 1.091258891004857e+00
 9.616652224128002e+00	-1.979898987324000e+00	 1.094094992563308e+00
 9.298454172592502e+00	-1.661700935795000e+00	 1.099869595860049e+00
 8.980256121058000e+00	-1.343502884264000e+00	 1.108627686842502e+00
 8.662058069524504e+00	-1.025304832731000e+00	 1.117012271025574e+00
 8.343860017992000e+00	-7.071067811960003e-01	 1.124561229803749e+00
 8.025661966460499e+00	-3.889087296590001e-01	 1.134397570324107e+00
 7.707463914930000e+00	-7.071067812000004e-02	 1.146551509000363e+00
 1.096015510840000e+01	-3.181980515300000e+00	 1.098655785157882e+00
 1.064195705686050e+01	-2.863782463779000e+00	 1.092433762520501e+00
 1.032375900532200e+01	-2.545584412256000e+00	 1.089131789179039e+00
 1.000556095378450e+01	-2.227386360731000e+00	 1.088794855569976e+00
 9.687362902248001e+00	-1.909188309204000e+00	 1.091467952164443e+00
 9.369164850712501e+00	-1.590990257675000e+00	 1.097196069468204e+00
 9.050966799178001e+00	-1.272792206144000e+00	 1.106024198021632e+00
 8.732768747644501e+00	-9.545941546110003e-01	 1.116032448078094e+00
 8.414570696112001e+00	-6.363961030760004e-01	 1.123825526730418e+00
 8.096372644580502e+00	-3.181980515390002e-01	 1.134064290020041e+00
 7.778174593050000e+00	 2.775557561562891e-17	 1.146778954360675e+00
 1.103086578652000e+01	-3.111269837180000e+00	 1.097045393459061e+00
 1.071266773498050e+01	-2.793071785659000e+00	 1.090337292051627e+00
 1.039446968344200e+01	-2.474873734136000e+00	 1.086665759754863e+00
 1.007627163190450e+01	-2.156675682611000e+00	 1.086075786737057e+00
 9.758073580368000e+00	-1.838477631084000e+00	 1.088612363201148e+00
 9.439875528832500e+00	-1.520279579555000e+00	 1.094320479384701e+00
 9.121677477298002e+00	-1.202081528024000e+00	 1.103245125559887e+00
 8.803479425764502e+00	-8.838834764910001e-01	 1.114982383143198e+00
 8.485281374231999e+00	-5.656854249560004e-01	 1.123046309529190e+00
 8.167083322700499e+00	-2.474873734190003e-01	 1.133714223447598e+00
 7.848885271169999e+00	 7.071067811999998e-02	 1.147016341312130e+00
 1.110157646464000e+01	-3.040559159060000e+00	 1.095102900215351e+00
 1.078337841310050e+01	-2.722361107539000e+00	 1.087935204767229e+00
 1.046518036156200e+01	-2.404163056016000e+00	 1.083920598283685e+00
 1.014698231002450e+01	-2.085965004491000e+00	 1.083104070664822e+00
 9.828784258488001e+00	-1.767766952964000e+00	 1.085530611845387e+00
 9.510586206952500e+00	-1.449568901435000e+00	 1.091245211794749e+00
 9.192388155418001e+00	-1.131370849904000e+00	 1.100292860516878e+00
 8.874190103884501e+00	-8.131727983710003e-01	 1.112718547473631e+00
 8.555992052352002e+00	-4.949747468360002e-01	 1.122219774295723e+00
 8.237794000820504e+00	-1.767766952990004e-01	 1.133343566702434e+00
 7.919595949290001e+00	 1.414213562400000e-01	 1.147259865950383e+00
 1.117228714276000e+01	-2.969848480940000e+00	 1.092830691534061e+00
 1.085408909122050e+01	-2.651650429419000e+00	 1.085229886787857e+00
 1.053589103968200e+01	-2.333452377896000e+00	 1.080898690899301e+00
 1.021769298814450e+01	-2.015254326371000e+00	 1.079882093500310e+00
 9.899494936608001e+00	-1.697056274844000e+00	 1.082225084257443e+00
 9.581296885072501e+00	-1.378858223315000e+00	 1.087972652871873e+00
 9.263098833538001e+00	-1.060660171784000e+00	 1.097169789079369e+00
 8.944900782004501e+00	-7.424621202510002e-01	 1.109861479299067e+00
 8.626702730472001e+00	-4.242640687160004e-01	 1.121342117125672e+00
 8.308504678940501e+00	-1.060660171790003e-01	 1.132948515880206e+00
 7.990306627410000e+00	 2.121320343599999e-01	 1.147505724371091e+00
 1.124299782088000e+01	-2.899137802820000e+00	 1.090231153510813e+00
 1.092479976934050e+01	-2.580939751299001e+00	 1.082223724222376e+00
 1.060660171780200e+01	-2.262741699776000e+00	 1.077602423723817e+00
 1.028840366626450e+01	-1.944543648251000e+00	 1.076412241378871e+00
 9.970205614728000e+00	-1.626345596724000e+00	 1.078698166585907e+00
 9.652007563192502e+00	-1.308147545195000e+00	 1.084505188777906e+00
 9.333809511658000e+00	-9.899494936640003e-01	 1.093878297422440e+00
 9.015611460124500e+00	-6.717514421310002e-01	 1.106862473564927e+00
 8.697413408592002e+00	-3.535533905960003e-01	 1.120409534114692e+00
 8.379215357060501e+00	-3.535533905900035e-02	 1.132525267076570e+00
 8.061017305530001e+00	 2.828427124799999e-01	 1.147750112669910e+00
 1.131370849900000e+01	-2.828427124700000e+00	 1.087306672229541e+00
 1.099551044746050e+01	-2.510229073179000e+00	 1.078919103167963e+00
 1.067731239592200e+01	-2.192031021656000e+00	 1.074034182867653e+00
 1.035911434438450e+01	-1.873832970131000e+00	 1.072696900424165e+00
 1.004091629284800e+01	-1.555634918604000e+00	 1.074952244967684e+00
 9.722718241312501e+00	-1.237436867075000e+00	 1.080845205662997e+00
 9.404520189777999e+00	-9.192388155440001e-01	 1.090420771709478e+00
 9.086322138244501e+00	-6.010407640110003e-01	 1.103723932341061e+00
 8.768124086712003e+00	-2.828427124760003e-01	 1.119418221358440e+00
 8.449926035180500e+00	 3.535533906099975e-02	 1.132070016387180e+00
 8.131727983650000e+00	 3.535533906000000e-01	 1.147989226942497e+00
 7.424621202450000e+00	-3.535533906000000e-01	 1.145817221557420e+00
 7.106423150919500e+00	-3.535533906099975e-02	 1.146144215477872e+00
 6.788225099388000e+00	 2.828427124760007e-01	 1.157647694477453e+00
 6.470027047855499e+00	 6.010407640110009e-01	 1.180357874970052e+00
 6.151828996321999e+00	 9.192388155440012e-01	 1.214304973369554e+00
 5.833630944787498e+00	 1.237436867075001e+00	 1.259519206089841e+00
 5.515432893251999e+00	 1.555634918604002e+00	 1.316030789544791e+00
 5.197234841715498e+00	 1.873832970131002e+00	 1.383869940148276e+00
 4.879036790177997e+00	 2.192031021656002e+00	 1.463066874314168e+00
 4.560838738639497e+00	 2.510229073179003e+00	 1.553651808456335e+00
 4.242640687100000e+00	 2.828427124700000e+00	 1.655654958988642e+00
 7.495331880570001e+00	-2.828427124800001e-01	 1.145966861509723e+00
 7.177133829039499e+00	 3.535533905900022e-02	 1.147474319166133e+00
 6.858935777508000e+00	 3.535533905960005e-01	 1.159604742181551e+00
 6.540737725975499e+00	 6.717514421310008e-01	 1.182388346969846e+00
 6.222539674441998e+00	 9.899494936640008e-01	 1.215855349944878e+00
 5.904341622907500e+00	 1.308147545195002e+00	 1.260035967520506e+00
 5.586143571371998e+00	 1.626345596724001e+00	 1.314960416110585e+00
 5.267945519835499e+00	 1.944543648251002e+00	 1.380658912128969e+00
 4.949747468297998e+00	 2.262741699776003e+00	 1.457161671989501e+00
 4.631549416759497e+00	 2.580939751299002e+00	 1.544498912106027e+00
 4.313351365220000e+00	 2.899137802820000e+00	 1.642700848892390e+00
 7.566042558690000e+00	-2.121320343600000e-01	 1.146141658670543e+00
 7.247844507159501e+00	 1.060660171790003e-01	 1.148470285189430e+00
 6.929646455627999e+00	 4.242640687160008e-01	 1.160868357347207e+00
 6.611448404095501e+00	 7.424621202510009e-01	 1.183366091557716e+00
 6.293250352562000e+00	 1.060660171784001e+00	 1.215993704234796e+00
 5.975052301027500e+00	 1.378858223315002e+00	 1.258781411792282e+00
 5.656854249492000e+00	 1.697056274844002e+00	 1.311759430644007e+00
 5.338656197955499e+00	 2.015254326371001e+00	 1.374957977203800e+00
 5.020458146417997e+00	 2.333452377896002e+00	 1.448407267885484e+00
 4.702260094879497e+00	 2.651650429419002e+00	 1.532137519102882e+00
 4.384062043339999e+00	 2.969848480940000e+00	 1.626178947269811e+00
 7.636753236810001e+00	-1.414213562399999e-01	 1.146337809135538e+00
 7.318555185279502e+00	 1.767766952990004e-01	 1.149128309643423e+00
 7.000357133748000e+00	 4.949747468360007e-01	 1.161434736070078e+00
 6.682159082215500e+00	 8.131727983710010e-01	 1.183287304829318e+00
 6.363961030681999e+00	 1.131370849904001e+00	 1.214716232334963e+00
 6.045762979147499e+00	 1.449568901435002e+00	 1.255751735000824e+00
 5.727564927611998e+00	 1.767766952964001e+00	 1.306424029240710e+00
 5.409366876075498e+00	 2.085965004491002e+00	 1.366763331468427e+00
 5.091168824537998e+00	 2.404163056016003e+00	 1.436799858097776e+00
 4.772970772999497e+00	 2.722361107539003e+00	 1.516563825542559e+00
 4.454772721460000e+00	 3.040559159060000e+00	 1.606085450216565e+00
 7.707463914930000e+00	-7.071067812000004e-02	 1.146551509000363e+00
 7.389265863399500e+00	 2.474873734190003e-01	 1.149444588623769e+00
 7.071067811868001e+00	 5.656854249560007e-01	 1.161300074445818e+00
 6.752869760335496e+00	 8.838834764910006e-01	 1.182148182880310e+00
 6.434671708801998e+00	 1.202081528024001e+00	 1.212019130341036e+00
 6.116473657267499e+00	 1.520279579555001e+00	 1.250943133241788e+00
 5.798275605731999e+00	 1.838477631084002e+00	 1.298950407996349e+00
 5.480077554195498e+00	 2.156675682611002e+00	 1.356071171018505e+00
 5.161879502657997e+00	 2.474873734136002e+00	 1.422335638722034e+00
 4.843681451119497e+00	 2.793071785659003e+00	 1.497774027520710e+00
 4.525483399580001e+00	 3.111269837180000e+00	 1.582416553828305e+00
 7.778174593050000e+00	 2.775557561562891e-17	 1.146778954360675e+00
 7.459976541519500e+00	 3.181980515390003e-01	 1.149415318226119e+00
 7.141778489988000e+00	 6.363961030760007e-01	 1.160460568570085e+00
 6.823580438455501e+00	 9.545941546110009e-01	 1.179944921806345e+00
 6.505382386921999e+00	 1.272792206144001e+00	 1.207898594348672e+00
 6.187184335387498e+00	 1.590990257675001e+00	 1.244351802610829e+00
 5.868986283851997e+00	 1.909188309204002e+00	 1.289334763006583e+00
 5.550788232315498e+00	 2.227386360731002e+00	 1.342877691949691e+00
 5.232590180777998e+00	 2.545584412256002e+00	 1.405010805853911e+00
 4.914392129239497e+00	 2.863782463779002e+00	 1.475764321132994e+00
 4.596194077700000e+00	 3.181980515300000e+00	 1.555168454200691e+00
 7.848885271169999e+00	 7.071067811999998e-02	 1.147016341312130e+00
 7.530687219639501e+00	 3.889087296590003e-01	 1.149036694546134e+00
 7.212489168108000e+00	 7.071067811960006e-01	 1.158912414538534e+00
 6.894291116575499e+00	 1.025304832731001e+00	 1.176673717703082e+00
 6.576093065041999e+00	 1.343502884264001e+00	 1.202350820453525e+00
 6.257895013507499e+00	 1.661700935795001e+00	 1.235973939203605e+00
 5.939696961971999e+00	 1.979898987324002e+00	 1.277573290367064e+00
 5.621498910435497e+00	 2.298097038851002e+00	 1.327179090357641e+00
 5.303300858897998e+00	 2.616295090376002e+00	 1.384821555589065e+00
 4.985102807359497e+00	 2.934493141899002e+00	 1.450530902475068e+00
 4.666904755820000e+00	 3.252691193420000e+00	 1.524337347429375e+00
 7.919595949290001e+00	 1.414213562400000e-01	 1.147259865950383e+00
 7.601397897759501e+00	 4.596194077790004e-01	 1.148304913679467e+00
 7.283199846227998e+00	 7.778174593160004e-01	 1.156651808446822e+00
 6.965001794695499e+00	 1.096015510851001e+00	 1.172330766666176e+00
 6.646803743162000e+00	 1.414213562384001e+00	 1.195372004751252e+00
 6.328605691627497e+00	 1.732411613915001e+00	 1.225805739115772e+00
 6.010407640091998e+00	 2.050609665444002e+00	 1.263662186173453e+00
 5.692209588555498e+00	 2.368807716971002e+00	 1.308971562338010e+00
 5.374011537017997e+00	 2.687005768496002e+00	 1.361764084023153e+00
 5.055813485479496e+00	 3.005203820019002e+00	 1.422069967642587e+00
 4.737615433940000e+00	 3.323401871540000e+00	 1.489919429610016e+00
 7.990306627410000e+00	 2.121320343599999e-01	 1.147505724371091e+00
 7.672108575879500e+00	 5.303300858990003e-01	 1.147216171721776e+00
 7.353910524347998e+00	 8.485281374360006e-01	 1.153674946390604e+00
 7.035712472815500e+00	 1.166726188971001e+00	 1.166912264791282e+00
 6.717514421281999e+00	 1.484924240504001e+00	 1.186958343337509e+00
 6.399316369747498e+00	 1.803122292035001e+00	 1.213843398442985e+00
 6.081118318211998e+00	 2.121320343564002e+00	 1.247597646521404e+00
 5.762920266675497e+00	 2.439518395091002e+00	 1.288251303986455e+00
 5.444722215137997e+00	 2.757716446616002e+00	 1.335834587251828e+00
 5.126524163599497e+00	 3.075914498139002e+00	 1.390377712731206e+00
 4.808326112060000e+00	 3.394112549660000e+00	 1.451910896838269e+00
 8.061017305530001e+00	 2.828427124799999e-01	 1.147750112669910e+00
 7.742819253999499e+00	 6.010407640190003e-01	 1.145766664768717e+00
 7.424621202467999e+00	 9.192388155560006e-01	 1.149978024465538e+00
 7.106423150935500e+00	 1.237436867091001e+00	 1.160414408174057e+00
 6.788225099401999e+00	 1.555634918624001e+00	 1.177106032307954e+00
 6.470027047867498e+00	 1.873832970155001e+00	 1.200083113280901e+00
 6.151828996331998e+00	 2.192031021684001e+00	 1.229375867506572e+00
 5.833630944795498e+00	 2.510229073211002e+00	 1.265014511398632e+00
 5.515432893257998e+00	 2.828427124736002e+00	 1.307029261370750e+00
 5.197234841719498e+00	 3.146625176259002e+00	 1.355450333836582e+00
 4.879036790180000e+00	 3.464823227780000e+00	 1.409353078697550e+00
 8.131727983650000e+00	 3.535533906000000e-01	 1.147989226942497e+00
 7.813529932119500e+00	 6.717514421390002e-01	 1.143952588915944e+00
 7.495331880588000e+00	 9.899494936760007e-01	 1.145557238767279e+00
 7.177133829055499e+00	 1.308147545211001e+00	 1.152833392910158e+00
 6.858935777521999e+00	 1.626345596744001e+00	 1.165811267758240e+00
 6.540737725987499e+00	 1.944543648275002e+00	 1.184521079725175e+00
 6.222539674451999e+00	 2.262741699804002e+00	 1.208993045224614e+00
 5.904341622915497e+00	 2.580939751331002e+00	 1.239257380670198e+00
 5.586143571377997e+00	 2.899137802856002e+00	 1.275344302475573e+00
 5.267945519839498e+00	 3.217335854379002e+00	 1.317284027054373e+00
 4.949747468300000e+00	 3.535533905900000e+00	 1.360147942530823e+00
 1.131370849900000e+01	-2.828427124700000e+00	 1.087306672240564e+00
 1.099551044746050e+01	-2.510229073179000e+00	 1.078781418457337e+00
 1.067731239592200e+01	-2.192031021656000e+00	 1.073618240165673e+00
 1.035911434438450e+01	-1.873832970131000e+00	 1.071862126460873e+00
 1.004091629284800e+01	-1.555634918604000e+00	 1.073558066472895e+00
 9.722718241312501e+00	-1.237436867075000e+00	 1.078751049366333e+00
 9.404520189777999e+00	-9.192388155440001e-01	 1.087486064340391e+00
 9.086322138244501e+00	-6.010407640110003e-01	 1.099808100628865e+00
 8.768124086712003e+00	-2.828427124760003e-01	 1.114380692032336e+00
 8.449926035180500e+00	 3.535533906099975e-02	 1.125770216176289e+00
 8.131727983650000e+00	 3.535533906000000e-01	 1.140286582575885e+00
 1.141977451618000e+01	-2.722361107539000e+00	 1.084628447457478e+00
 1.110157646464050e+01	-2.404163056014392e+00	 1.076697554715187e+00
 1.078337841310199e+01	-2.085965004488170e+00	 1.072030506668732e+00
 1.046518036156448e+01	-1.767766952960332e+00	 1.070672292011184e+00
 1.014698231002796e+01	-1.449568901430880e+00	 1.072667899470266e+00
 9.828784258492441e+00	-1.131370849899813e+00	 1.078062317808319e+00
 9.510586206957909e+00	-8.131727983671301e-01	 1.086900535822290e+00
 9.192388155424378e+00	-4.949747468328327e-01	 1.099227542343708e+00
 8.874190103891841e+00	-1.767766952969202e-01	 1.115088325588060e+00
 8.555992052360299e+00	 1.414213562406073e-01	 1.127537377608626e+00
 8.237794000829751e+00	 4.596194077797500e-01	 1.141803220482533e+00
 1.152584053336000e+01	-2.616295090376000e+00	 1.081932480116235e+00
 1.120764248182049e+01	-2.298097038848170e+00	 1.074485996296931e+00
 1.088944443028196e+01	-1.979898987319080e+00	 1.070205126465862e+00
 1.057124637874441e+01	-1.661700935788730e+00	 1.069134858913872e+00
 1.025304832720784e+01	-1.343502884257120e+00	 1.071320181966444e+00
 9.934850275672252e+00	-1.025304832724250e+00	 1.076806083983675e+00
 9.616652224137638e+00	-7.071067811901203e-01	 1.085637553360253e+00
 9.298454172604012e+00	-3.889087296547302e-01	 1.097859578525439e+00
 8.980256121071360e+00	-7.071067811808029e-02	 1.113517141647384e+00
 8.662058069539690e+00	 2.474873734198297e-01	 1.128385209698401e+00
 8.343860018009002e+00	 5.656854249590001e-01	 1.142291123807686e+00
 1.163190655054000e+01	-2.510229073211000e+00	 1.079226823102192e+00
 1.131370849900048e+01	-2.192031021680333e+00	 1.072154796132623e+00
 1.099551044746191e+01	-1.873832970148730e+00	 1.068150152531812e+00
 1.067731239592430e+01	-1.555634918616193e+00	 1.067257880188379e+00
 1.035911434438764e+01	-1.237436867082720e+00	 1.069522967025569e+00
 1.004091629285194e+01	-9.192388155483125e-01	 1.074990401001230e+00
 9.722718241317187e+00	-6.010407640129700e-01	 1.083705170107798e+00
 9.404520189783399e+00	-2.828427124766926e-01	 1.095712262372265e+00
 9.086322138250560e+00	 3.535533906051969e-02	 1.111056665856167e+00
 8.768124086718679e+00	 3.535533905986672e-01	 1.128300874268446e+00
 8.449926035187751e+00	 6.717514421377502e-01	 1.141737454374172e+00
 1.173797256772000e+01	-2.404163056044000e+00	 1.076519529241545e+00
 1.141977451618046e+01	-2.085965004510880e+00	 1.069712007093153e+00
 1.110157646464184e+01	-1.767766952977120e+00	 1.065873637782169e+00
 1.078337841310414e+01	-1.449568901442720e+00	 1.065049408794985e+00
 1.046518036156736e+01	-1.131370849907680e+00	 1.067284307652609e+00
 1.014698231003150e+01	-8.131727983719998e-01	 1.072623321910646e+00
 9.828784258496563e+00	-4.949747468356801e-01	 1.081111439159276e+00
 9.510586206962541e+00	-1.767766952987201e-01	 1.092793647023227e+00
 9.192388155429439e+00	 1.414213562388798e-01	 1.107714933161759e+00
 8.874190103897259e+00	 4.596194077771197e-01	 1.125920284550763e+00
 8.555992052366001e+00	 7.778174593160000e-01	 1.140129374004820e+00
 1.184403858490000e+01	-2.298097038875000e+00	 1.073818651301326e+00
 1.152584053336044e+01	-1.979898987339813e+00	 1.067165681990251e+00
 1.120764248182175e+01	-1.661700935804250e+00	 1.063383635073354e+00
 1.088944443028394e+01	-1.343502884268313e+00	 1.062517497634802e+00
 1.057124637874700e+01	-1.025304832732000e+00	 1.064612256793370e+00
 1.025304832721094e+01	-7.071067811953125e-01	 1.069712899702418e+00
 9.934850275675750e+00	-3.889087296582502e-01	 1.077864413549872e+00
 9.616652224141438e+00	-7.071067812081266e-02	 1.089111785558196e+00
 9.298454172608002e+00	 2.474873734169996e-01	 1.103500002984378e+00
 8.980256121075437e+00	 5.656854249551871e-01	 1.121074046202889e+00
 8.662058069543750e+00	 8.838834764937499e-01	 1.137454044522459e+00
 1.195010460208000e+01	-2.192031021704000e+00	 1.071132241989411e+00
 1.163190655054041e+01	-1.873832970167130e+00	 1.064523873576483e+00
 1.131370849900164e+01	-1.555634918630120e+00	 1.060688197202626e+00
 1.099551044746369e+01	-1.237436867092970e+00	 1.059670199549782e+00
 1.067731239592656e+01	-9.192388155556800e-01	 1.061514867334492e+00
 1.035911434439025e+01	-6.010407640182500e-01	 1.066267187307874e+00
 1.004091629285476e+01	-2.828427124806802e-01	 1.073972146255600e+00
 9.722718241320090e+00	 3.535533905702981e-02	 1.084674730997875e+00
 9.404520189786238e+00	 3.535533905948796e-01	 1.098419928389414e+00
 9.086322138253211e+00	 6.717514421328696e-01	 1.115252725319422e+00
 8.768124086721002e+00	 9.899494936710000e-01	 1.133698627749918e+00
 1.205617061926000e+01	-2.085965004531000e+00	 1.068468353954511e+00
 1.173797256772037e+01	-1.767766952992832e+00	 1.061794634545256e+00
 1.141977451618151e+01	-1.449568901454730e+00	 1.057795376908083e+00
 1.110157646464340e+01	-1.131370849916693e+00	 1.056515567322711e+00
 1.078337841310604e+01	-8.131727983787200e-01	 1.058000192103450e+00
 1.046518036156944e+01	-4.949747468408127e-01	 1.062294237599178e+00
 1.014698231003359e+01	-1.767766953029702e-01	 1.069442690193314e+00
 9.828784258498498e+00	 1.414213562348073e-01	 1.079490536303803e+00
 9.510586206964158e+00	 4.596194077725196e-01	 1.092482762383091e+00
 9.192388155430580e+00	 7.778174593101672e-01	 1.108464354918106e+00
 8.874190103897750e+00	 1.096015510847750e+00	 1.127480299651708e+00
 1.216223663644000e+01	-1.979898987356000e+00	 1.065835039786182e+00
 1.184403858490034e+01	-1.661700935816920e+00	 1.058986017530814e+00
 1.152584053336136e+01	-1.343502884278080e+00	 1.054713226868657e+00
 1.120764248182306e+01	-1.025304832739480e+00	 1.053061653677212e+00
 1.088944443028544e+01	-7.071067812011200e-01	 1.054076283868556e+00
 1.057124637874850e+01	-3.889087296630002e-01	 1.057802103389327e+00
 1.025304832721224e+01	-7.071067812512009e-02	 1.064284098220697e+00
 9.934850275676657e+00	 2.474873734125197e-01	 1.073567254378351e+00
 9.616652224141761e+00	 5.656854249499196e-01	 1.085696557912467e+00
 9.298454172607540e+00	 8.838834764870793e-01	 1.100716994907695e+00
 8.980256121074001e+00	 1.202081528024000e+00	 1.118673544008689e+00
 1.226830265362000e+01	-1.873832970179000e+00	 1.063240352014818e+00
 1.195010460208030e+01	-1.555634918639393e+00	 1.056106075108241e+00
 1.163190655054119e+01	-1.237436867100170e+00	 1.051449799704124e+00
 1.131370849900268e+01	-9.192388155613324e-01	 1.049316511277746e+00
 1.099551044746476e+01	-6.010407640228801e-01	 1.049751195338959e+00
 1.067731239592744e+01	-2.828427124848126e-01	 1.052798837432159e+00
 1.035911434439071e+01	 3.535533905286981e-02	 1.058504423136269e+00
 1.004091629285458e+01	 3.535533905901673e-01	 1.066912938064723e+00
 9.722718241319040e+00	 6.717514421270796e-01	 1.078069367865430e+00
 9.404520189784098e+00	 9.899494936636071e-01	 1.092018698220765e+00
 9.086322138249750e+00	 1.308147545199750e+00	 1.108805914847541e+00
 1.237436867080000e+01	-1.767766953000000e+00	 1.060692343111656e+00
 1.205617061926025e+01	-1.449568901460250e+00	 1.053162859793465e+00
 1.173797256772100e+01	-1.131370849921000e+00	 1.048013147975097e+00
 1.141977451618225e+01	-8.131727983822499e-01	 1.045288192729616e+00
 1.110157646464400e+01	-4.949747468439998e-01	 1.045032979164644e+00
 1.078337841310625e+01	-1.767766953062500e-01	 1.047292492422342e+00
 1.046518036156900e+01	 1.414213562310000e-01	 1.052111717679389e+00
 1.014698231003225e+01	 4.596194077677498e-01	 1.059535640146961e+00
 9.828784258496002e+00	 7.778174593039998e-01	 1.069609245070706e+00
 9.510586206960252e+00	 1.096015510839750e+00	 1.082377517730725e+00
 9.192388155425000e+00	 1.414213562375000e+00	 1.097885443441550e+00
 8.131727983650000e+00	 3.535533906000000e-01	 1.140286582575885e+00
 7.813529932119500e+00	 6.717514421390002e-01	 1.135492816482021e+00
 7.495331880588000e+00	 9.899494936760007e-01	 1.137772343714197e+00
 7.177133829055499e+00	 1.308147545211001e+00	 1.147155380686124e+00
 6.858935777521999e+00	 1.626345596744001e+00	 1.163672143811515e+00
 6.540737725987499e+00	 1.944543648275002e+00	 1.187352849504076e+00
 6.222539674451999e+00	 2.262741699804002e+00	 1.218227714177513e+00
 5.904341622915497e+00	 2.580939751331002e+00	 1.256326954245523e+00
 5.586143571377997e+00	 2.899137802856002e+00	 1.301680786121804e+00
 5.267945519839498e+00	 3.217335854379002e+00	 1.354319426220050e+00
 4.949747468300000e+00	 3.535533905900000e+00	 1.409314262664536e+00
 8.237794000829751e+00	 4.596194077797500e-01	 1.141803220482533e+00
 7.919595949299205e+00	 7.778174593187078e-01	 1.134704352474746e+00
 7.601397897767679e+00	 1.096015510855681e+00	 1.134824158691891e+00
 7.283199846235164e+00	 1.414213562390668e+00	 1.142192855547694e+00
 6.965001794701670e+00	 1.732411613923671e+00	 1.156840659455866e+00
 6.646803743167185e+00	 2.050609665454688e+00	 1.178797786830106e+00
 6.328605691631718e+00	 2.368807716983722e+00	 1.208094454084094e+00
 6.010407640095266e+00	 2.687005768510770e+00	 1.244760877631498e+00
 5.692209588557827e+00	 3.005203820035832e+00	 1.288827273885973e+00
 5.374011537019406e+00	 3.323401871558910e+00	 1.340323859261155e+00
 5.055813485480000e+00	 3.641599923080000e+00	 1.388551769456255e+00
 8.343860018009002e+00	 5.656854249590001e-01	 1.142291123807686e+00
 8.025661966478330e+00	 8.838834764978303e-01	 1.133167758345792e+00
 7.707463914946718e+00	 1.202081528034721e+00	 1.131408448007723e+00
 7.389265863414169e+00	 1.520279579569671e+00	 1.137043409207221e+00
 7.071067811880678e+00	 1.838477631102681e+00	 1.150102858357998e+00
 6.752869760346248e+00	 2.156675682633751e+00	 1.170617011873743e+00
 6.434671708810879e+00	 2.474873734162881e+00	 1.198616086168115e+00
 6.116473657274567e+00	 2.793071785690072e+00	 1.234130297654752e+00
 5.798275605737318e+00	 3.111269837215322e+00	 1.277189862747262e+00
 5.480077554199129e+00	 3.429467888738633e+00	 1.327824997859231e+00
 5.161879502660001e+00	 3.747665940260000e+00	 1.369855632847983e+00
 8.449926035187751e+00	 6.717514421377502e-01	 1.141737454374172e+00
 8.131727983656866e+00	 9.899494936763678e-01	 1.130870195917988e+00
 7.813529932125119e+00	 1.308147545213121e+00	 1.127512373484528e+00
 7.495331880592508e+00	 1.626345596748008e+00	 1.131694203487545e+00
 7.177133829059029e+00	 1.944543648281031e+00	 1.143445902340755e+00
 6.858935777524686e+00	 2.262741699812190e+00	 1.162797686457835e+00
 6.540737725989477e+00	 2.580939751341481e+00	 1.189779772252429e+00
 6.222539674453406e+00	 2.899137802868910e+00	 1.224422376138137e+00
 5.904341622916469e+00	 3.217335854394472e+00	 1.266755714528526e+00
 5.586143571378665e+00	 3.535533905918170e+00	 1.312566839603053e+00
 5.267945519840000e+00	 3.853731957440000e+00	 1.353219991720906e+00
 8.555992052366001e+00	 7.778174593160000e-01	 1.140129374004820e+00
 8.237794000834819e+00	 1.096015510854320e+00	 1.127798827014169e+00
 7.919595949302880e+00	 1.414213562390881e+00	 1.123123096945140e+00
 7.601397897770179e+00	 1.732411613925681e+00	 1.126132400211506e+00
 7.283199846236720e+00	 2.050609665458722e+00	 1.136856953226981e+00
 6.965001794702500e+00	 2.368807716990002e+00	 1.155326972405235e+00
 6.646803743167519e+00	 2.687005768519522e+00	 1.181572674159887e+00
 6.328605691631778e+00	 3.005203820047282e+00	 1.215624274904507e+00
 6.010407640095278e+00	 3.323401871573282e+00	 1.257511991052616e+00
 5.692209588558018e+00	 3.641599923097523e+00	 1.298133808846642e+00
 5.374011537020000e+00	 3.959797974620000e+00	 1.338638988274193e+00
 8.662058069543750e+00	 8.838834764937499e-01	 1.137454044522459e+00
 8.343860018012190e+00	 1.202081528031688e+00	 1.123940813457162e+00
 8.025661966480000e+00	 1.520279579568000e+00	 1.118227780212397e+00
 7.707463914947186e+00	 1.838477631102688e+00	 1.120345161201944e+00
 7.389265863413747e+00	 2.156675682635750e+00	 1.130323172839522e+00
 7.071067811879686e+00	 2.474873734167189e+00	 1.148192031538791e+00
 6.752869760344996e+00	 2.793071785697001e+00	 1.173981953713344e+00
 6.434671708809685e+00	 3.111269837225190e+00	 1.207723155776719e+00
 6.116473657273748e+00	 3.429467888751752e+00	 1.249445854142385e+00
 5.798275605737185e+00	 3.747665940276690e+00	 1.285460374997518e+00
 5.480077554200001e+00	 4.065863991800000e+00	 1.326106764625082e+00
 8.768124086721002e+00	 9.899494936710000e-01	 1.133698627749918e+00
 8.449926035188968e+00	 1.308147545208470e+00	 1.119283317069802e+00
 8.131727983656480e+00	 1.626345596744481e+00	 1.112813585109131e+00
 7.813529932123528e+00	 1.944543648279031e+00	 1.114319648281699e+00
 7.495331880590120e+00	 2.262741699812121e+00	 1.123831723001224e+00
 7.177133829056248e+00	 2.580939751343752e+00	 1.141380025681352e+00
 6.858935777521920e+00	 2.899137802873922e+00	 1.166994772735653e+00
 6.540737725987128e+00	 3.217335854402632e+00	 1.200706180577624e+00
 6.222539674451879e+00	 3.535533905929882e+00	 1.239009064447038e+00
 5.904341622916168e+00	 3.853731957455672e+00	 1.274540677129994e+00
 5.586143571379999e+00	 4.171930008980000e+00	 1.315617462808870e+00
 8.874190103897750e+00	 1.096015510847750e+00	 1.127480299651708e+00
 8.555992052365166e+00	 1.414213562384667e+00	 1.113813499674921e+00
 8.237794000832320e+00	 1.732411613920321e+00	 1.106867673458182e+00
 7.919595949299207e+00	 2.050609665454708e+00	 1.108043023273614e+00
 7.601397897765829e+00	 2.368807716987831e+00	 1.117369765534934e+00
 7.283199846232185e+00	 2.687005768519689e+00	 1.134878116655771e+00
 6.965001794698280e+00	 3.005203820050282e+00	 1.160598293049667e+00
 6.646803743164105e+00	 3.323401871579609e+00	 1.194560511130078e+00
 6.328605691629668e+00	 3.641599923107671e+00	 1.229242102057007e+00
 6.010407640094964e+00	 3.959797974634469e+00	 1.265368857186678e+00
 5.692209588560001e+00	 4.277996026160000e+00	 1.307165224778915e+00
 8.980256121074001e+00	 1.202081528024000e+00	 1.118673544008689e+00
 8.662058069540780e+00	 1.520279579560280e+00	 1.107518523095351e+00
 8.343860018007520e+00	 1.838477631095521e+00	 1.100377207082385e+00
 8.025661966474219e+00	 2.156675682629721e+00	 1.101502448000530e+00
 7.707463914940881e+00	 2.474873734162881e+00	 1.110924462263497e+00
 7.389265863407499e+00	 2.793071785695001e+00	 1.128673466284898e+00
 7.071067811874077e+00	 3.111269837226081e+00	 1.154779676478241e+00
 6.752869760340617e+00	 3.429467888756121e+00	 1.189273309256937e+00
 6.434671708807118e+00	 3.747665940285122e+00	 1.220927976407233e+00
 6.116473657273577e+00	 4.065863991813082e+00	 1.257939057028243e+00
 5.798275605740001e+00	 4.384062043340000e+00	 1.300744192406638e+00
 9.086322138249750e+00	 1.308147545199750e+00	 1.108805914847541e+00
 8.768124086715808e+00	 1.626345596735308e+00	 1.100385549153927e+00
 8.449926035182077e+00	 1.944543648270080e+00	 1.093329347804579e+00
 8.131727983648567e+00	 2.262741699804068e+00	 1.094685084285290e+00
 7.813529932115267e+00	 2.580939751337270e+00	 1.104482975009763e+00
 7.495331880582186e+00	 2.899137802869689e+00	 1.122753236391584e+00
 7.177133829049319e+00	 3.217335854401322e+00	 1.149526084844228e+00
 6.858935777516665e+00	 3.535533905932169e+00	 1.181996197672844e+00
 6.540737725984227e+00	 3.853731957462231e+00	 1.214060826704842e+00
 6.222539674452005e+00	 4.171930008991509e+00	 1.252245418433416e+00
 5.904341622920001e+00	 4.490128060520000e+00	 1.296348507481512e+00
 9.192388155425000e+00	 1.414213562375000e+00	 1.097885443441550e+00
 8.874190103890252e+00	 1.732411613909750e+00	 1.091071032952110e+00
 8.555992052355998e+00	 2.050609665444000e+00	 1.085711257447600e+00
 8.237794000822250e+00	 2.368807716977751e+00	 1.087578093950736e+00
 7.919595949288999e+00	 2.687005768511001e+00	 1.098032465596577e+00
 7.601397897756249e+00	 3.005203820043751e+00	 1.117104588798683e+00
 7.283199846223998e+00	 3.323401871576002e+00	 1.144824679970485e+00
 6.965001794692249e+00	 3.641599923107753e+00	 1.175231909563794e+00
 6.646803743160998e+00	 3.959797974639002e+00	 1.208634794635874e+00
 6.328605691630247e+00	 4.277996026169752e+00	 1.248282083098984e+00
 6.010407640100000e+00	 4.596194077700000e+00	 1.293972311711071e+00
 1.237436867080000e+01	-1.767766953000000e+00	 1.060692343111656e+00
 1.205617061926025e+01	-1.449568901460250e+00	 1.053162859793465e+00
 1.173797256772100e+01	-1.131370849921000e+00	 1.048013147975097e+00
 1.141977451618225e+01	-8.131727983822499e-01	 1.045288192729616e+00
 1.110157646464400e+01	-4.949747468439998e-01	 1.045032979164644e+00
 1.078337841310625e+01	-1.767766953062500e-01	 1.047292492422342e+00
 1.046518036156900e+01	 1.414213562310000e-01	 1.052111717679389e+00
 1.014698231003225e+01	 4.596194077677498e-01	 1.059535640146961e+00
 9.828784258496002e+00	 7.778174593039998e-01	 1.069609245070706e+00
 9.510586206960252e+00	 1.096015510839750e+00	 1.082377517730725e+00
 9.192388155425000e+00	 1.414213562375000e+00	 1.097885443441550e+00
 1.248043468797900e+01	-1.661700935820000e+00	 1.058297252925687e+00
 1.216223663643939e+01	-1.343502884280298e+00	 1.051686044623853e+00
 1.184403858490017e+01	-1.025304832741190e+00	 1.047194904889050e+00
 1.152584053336133e+01	-7.071067812026772e-01	 1.044868818392099e+00
 1.120764248182288e+01	-3.889087296647598e-01	 1.044752769838376e+00
 1.088944443028481e+01	-7.071067812743748e-02	 1.046891743967783e+00
 1.057124637874713e+01	 2.474873734092900e-01	 1.051330725554736e+00
 1.025304832720983e+01	 5.656854249454224e-01	 1.058114699408136e+00
 9.934850275672922e+00	 8.838834764809601e-01	 1.067288650371350e+00
 9.616652224136393e+00	 1.202081528015902e+00	 1.078897563322190e+00
 9.298454172600250e+00	 1.520279579550250e+00	 1.092986423172889e+00
 1.258650070515600e+01	-1.555634918640000e+00	 1.056161321246740e+00
 1.226830265361692e+01	-1.237436867100340e+00	 1.050372796818039e+00
 1.195010460207808e+01	-9.192388155613598e-01	 1.046444638111681e+00
 1.163190655053948e+01	-6.010407640230595e-01	 1.044421829396250e+00
 1.131370849900112e+01	-2.828427124854396e-01	 1.044349354974878e+00
 1.099551044746300e+01	 3.535533905150018e-02	 1.046272199185215e+00
 1.067731239592512e+01	 3.535533905877601e-01	 1.050235346399417e+00
 1.035911434438748e+01	 6.717514421233401e-01	 1.056283781024115e+00
 1.004091629285008e+01	 9.899494936582398e-01	 1.064462487500401e+00
 9.722718241312922e+00	 1.308147545192460e+00	 1.074816450303800e+00
 9.404520189776003e+00	 1.626345596726000e+00	 1.087390653944253e+00
 1.269256672233100e+01	-1.449568901460000e+00	 1.054292600368568e+00
 1.237436867079283e+01	-1.131370849920377e+00	 1.049231168714466e+00
 1.205617061925473e+01	-8.131727983815097e-01	 1.045770400026119e+00
 1.173797256771669e+01	-4.949747468433972e-01	 1.043955278169884e+00
 1.141977451617872e+01	-1.767766953060396e-01	 1.043830787046650e+00
 1.110157646464081e+01	 1.414213562305628e-01	 1.045441910591823e+00
 1.078337841310297e+01	 4.596194077664102e-01	 1.048833632775303e+00
 1.046518036156519e+01	 7.778174593015027e-01	 1.054050937601457e+00
 1.014698231002748e+01	 1.096015510835840e+00	 1.061138809109103e+00
 9.828784258489831e+00	 1.414213562369423e+00	 1.070142231371485e+00
 9.510586206952253e+00	 1.732411613902251e+00	 1.081106188496254e+00
 1.279863273950400e+01	-1.343502884280000e+00	 1.052699142525774e+00
 1.248043468796713e+01	-1.025304832740410e+00	 1.048269212592420e+00
 1.216223663643012e+01	-7.071067812016396e-01	 1.045180242956338e+00
 1.184403858489297e+01	-3.889087296636894e-01	 1.043477217081656e+00
 1.152584053335568e+01	-7.071067812655958e-02	 1.043205118467033e+00
 1.120764248181825e+01	 2.474873734097503e-01	 1.044408930645633e+00
 1.088944443028068e+01	 5.656854249452403e-01	 1.047133637185104e+00
 1.057124637874297e+01	 8.838834764799102e-01	 1.051424221687554e+00
 1.025304832720512e+01	 1.202081528013760e+00	 1.057325667789533e+00
 9.934850275667133e+00	 1.520279579546790e+00	 1.064882959162007e+00
 9.616652224129002e+00	 1.838477631079000e+00	 1.074141079510341e+00
 1.290469875667500e+01	-1.237436867100000e+00	 1.051388999893801e+00
 1.258650070513981e+01	-9.192388155604369e-01	 1.047494980672032e+00
 1.226830265360425e+01	-6.010407640217494e-01	 1.044682219167149e+00
 1.195010460206831e+01	-2.828427124839369e-01	 1.042995698441065e+00
 1.163190655053200e+01	 3.535533905300049e-02	 1.042480401590211e+00
 1.131370849899531e+01	 3.535533905890630e-01	 1.043181311745513e+00
 1.099551044745825e+01	 6.717514421242506e-01	 1.045143412072372e+00
 1.067731239592081e+01	 9.899494936585629e-01	 1.048411685770643e+00
 1.035911434438300e+01	 1.308147545192000e+00	 1.053031116074611e+00
 1.004091629284481e+01	 1.626345596724563e+00	 1.059046686252968e+00
 9.722718241306250e+00	 1.944543648256250e+00	 1.066503379608800e+00
 1.301076477384400e+01	-1.131370849920000e+00	 1.050370224588943e+00
 1.269256672231088e+01	-8.131727983804595e-01	 1.046916525114274e+00
 1.237436867077712e+01	-4.949747468418393e-01	 1.044284380864211e+00
 1.205617061924272e+01	-1.767766953041393e-01	 1.042518774498453e+00
 1.173797256770768e+01	 1.414213562326406e-01	 1.041664688711207e+00
 1.141977451617200e+01	 4.596194077685006e-01	 1.041767106231167e+00
 1.110157646463568e+01	 7.778174593034406e-01	 1.042871009821495e+00
 1.078337841309872e+01	 1.096015510837461e+00	 1.045021382279796e+00
 1.046518036156112e+01	 1.414213562370560e+00	 1.048263206438092e+00
 1.014698231002288e+01	 1.732411613902741e+00	 1.052641465162810e+00
 9.828784258483999e+00	 2.050609665434000e+00	 1.058201141354755e+00
 1.311683079101100e+01	-1.025304832739999e+00	 1.049650868668336e+00
 1.279863273948033e+01	-7.071067812004769e-01	 1.046541898020969e+00
 1.248043468794873e+01	-3.889087296619093e-01	 1.043994780194027e+00
 1.216223663641619e+01	-7.071067812429675e-02	 1.042054497445003e+00
 1.184403858488272e+01	 2.474873734123607e-01	 1.040766032065887e+00
 1.152584053334831e+01	 5.656854249480632e-01	 1.040174366383147e+00
 1.120764248181297e+01	 8.838834764828106e-01	 1.040324482757707e+00
 1.088944443027669e+01	 1.202081528016603e+00	 1.041261363584926e+00
 1.057124637873948e+01	 1.520279579549440e+00	 1.043029991294574e+00
 1.025304832720133e+01	 1.838477631081323e+00	 1.045675348350811e+00
 9.934850275662251e+00	 2.156675682612251e+00	 1.049242417252167e+00
 1.322289680817600e+01	-9.192388155599993e-01	 1.049238984129966e+00
 1.290469875664817e+01	-6.010407640204892e-01	 1.046379151434781e+00
 1.258650070511908e+01	-2.828427124819593e-01	 1.043821469243944e+00
 1.226830265358873e+01	 3.535533905559084e-02	 1.041610919412745e+00
 1.195010460205712e+01	 3.535533905921608e-01	 1.039792483830962e+00
 1.163190655052425e+01	 6.717514421277507e-01	 1.038411144422843e+00
 1.131370849899012e+01	 9.899494936623605e-01	 1.037511883147080e+00
 1.099551044745473e+01	 1.308147545195991e+00	 1.037139681996790e+00
 1.067731239591808e+01	 1.626345596728640e+00	 1.037339522999494e+00
 1.035911434438017e+01	 1.944543648260310e+00	 1.038156388217090e+00
 1.004091629284100e+01	 2.262741699791000e+00	 1.039635259745840e+00
 1.332896282533900e+01	-8.131727983799992e-01	 1.049142622912663e+00
 1.301076477381439e+01	-4.949747468404967e-01	 1.046436337339223e+00
 1.269256672228817e+01	-1.767766953019892e-01	 1.043772500042154e+00
 1.237436867076033e+01	 1.414213562355234e-01	 1.041196092474552e+00
 1.205617061923088e+01	 4.596194077720410e-01	 1.038752096123986e+00
 1.173797256769982e+01	 7.778174593075634e-01	 1.036485492512489e+00
 1.141977451616713e+01	 1.096015510842091e+00	 1.034441263196528e+00
 1.110157646463283e+01	 1.414213562375623e+00	 1.032664389766983e+00
 1.078337841309692e+01	 1.732411613908161e+00	 1.031199853849128e+00
 1.046518036155939e+01	 2.050609665439703e+00	 1.030092637102608e+00
 1.014698231002025e+01	 2.368807716970251e+00	 1.029387721221416e+00
 1.343502884250000e+01	-7.071067812000000e-01	 1.049369836896110e+00
 1.311683079097900e+01	-3.889087296605001e-01	 1.046721507658656e+00
 1.279863273945600e+01	-7.071067812199998e-02	 1.043855924557698e+00
 1.248043468793100e+01	 2.474873734155001e-01	 1.040818068644141e+00
 1.216223663640400e+01	 5.656854249520000e-01	 1.037652921003357e+00
 1.184403858487500e+01	 8.838834764874999e-01	 1.034405462755164e+00
 1.152584053334400e+01	 1.202081528022000e+00	 1.031120675053810e+00
 1.120764248181100e+01	 1.520279579555500e+00	 1.027843539087943e+00
 1.088944443027600e+01	 1.838477631088000e+00	 1.024619036080597e+00
 1.057124637873900e+01	 2.156675682619499e+00	 1.021492147289163e+00
 1.025304832720000e+01	 2.474873734150000e+00	 1.018507854005374e+00
 9.192388155425000e+00	 1.414213562375000e+00	 1.097885443441550e+00
 8.874190103890252e+00	 1.732411613909750e+00	 1.091071032952110e+00
 8.555992052355998e+00	 2.050609665444000e+00	 1.085711257447600e+00
 8.237794000822250e+00	 2.368807716977751e+00	 1.087578093950736e+00
 7.919595949288999e+00	 2.687005768511001e+00	 1.098032465596577e+00
 7.601397897756249e+00	 3.005203820043751e+00	 1.117104588798683e+00
 7.283199846223998e+00	 3.323401871576002e+00	 1.144824679970485e+00
 6.965001794692249e+00	 3.641599923107753e+00	 1.175231909563794e+00
 6.646803743160998e+00	 3.959797974639002e+00	 1.208634794635874e+00
 6.328605691630247e+00	 4.277996026169752e+00	 1.248282083098984e+00
 6.010407640100000e+00	 4.596194077700000e+00	 1.293972311711071e+00
 9.298454172600250e+00	 1.520279579550250e+00	 1.092986423172889e+00
 8.980256121064691e+00	 1.838477631084193e+00	 1.086258819366282e+00
 8.662058069529923e+00	 2.156675682617922e+00	 1.083720344990837e+00
 8.343860017995931e+00	 2.474873734151434e+00	 1.085587271865502e+00
 8.025661966462730e+00	 2.793071785684731e+00	 1.095944700672089e+00
 7.707463914930311e+00	 3.111269837217814e+00	 1.114822847824173e+00
 7.389265863398679e+00	 3.429467888750682e+00	 1.142251929735220e+00
 7.071067811867832e+00	 3.747665940283335e+00	 1.169441733059713e+00
 6.752869760337767e+00	 4.065863991815772e+00	 1.202468372651885e+00
 6.434671708808490e+00	 4.384062043347995e+00	 1.241621444719448e+00
 6.116473657279999e+00	 4.702260094880001e+00	 1.286699485923771e+00
 9.404520189776003e+00	 1.626345596726000e+00	 1.087390653944253e+00
 9.086322138239719e+00	 1.944543648259220e+00	 1.080894254749425e+00
 8.768124086704480e+00	 2.262741699792481e+00	 1.081202153085509e+00
 8.449926035170281e+00	 2.580939751325781e+00	 1.083214098708151e+00
 8.131727983637120e+00	 2.899137802859121e+00	 1.093619513051935e+00
 7.813529932104999e+00	 3.217335854392501e+00	 1.112448612530453e+00
 7.495331880573919e+00	 3.535533905925922e+00	 1.137588035519188e+00
 7.177133829043878e+00	 3.853731957459382e+00	 1.164182019501999e+00
 6.858935777514878e+00	 4.171930008992883e+00	 1.196985922912025e+00
 6.540737725986918e+00	 4.490128060526424e+00	 1.235798288149135e+00
 6.222539674460000e+00	 4.808326112060000e+00	 1.280417651778120e+00
 9.510586206952253e+00	 1.732411613902251e+00	 1.081106188496254e+00
 9.192388155415331e+00	 2.050609665434833e+00	 1.074985368815543e+00
 8.874190103879680e+00	 2.368807716967681e+00	 1.076910432374304e+00
 8.555992052345292e+00	 2.687005768500794e+00	 1.080445736301520e+00
 8.237794000812169e+00	 3.005203820034172e+00	 1.091044064558953e+00
 7.919595949280311e+00	 3.323401871567814e+00	 1.109969044740357e+00
 7.601397897749718e+00	 3.641599923101722e+00	 1.132804180963489e+00
 7.283199846220391e+00	 3.959797974635895e+00	 1.159446910320091e+00
 6.965001794692328e+00	 4.277996026170333e+00	 1.192181586856482e+00
 6.646803743165530e+00	 4.596194077705036e+00	 1.230806754838981e+00
 6.328605691640000e+00	 4.914392129240000e+00	 1.275120950735808e+00
 9.616652224129002e+00	 1.838477631079000e+00	 1.074141079510341e+00
 9.298454172591530e+00	 2.156675682611031e+00	 1.068540222258708e+00
 8.980256121055520e+00	 2.474873734143521e+00	 1.070825530328903e+00
 8.662058069520969e+00	 2.793071785676471e+00	 1.077269346468450e+00
 8.343860017987881e+00	 3.111269837209882e+00	 1.088205517015978e+00
 8.025661966456250e+00	 3.429467888743752e+00	 1.107371306276717e+00
 7.707463914926080e+00	 3.747665940278083e+00	 1.128385565042183e+00
 7.389265863397369e+00	 4.065863991812873e+00	 1.155230546861486e+00
 7.071067811870119e+00	 4.384062043348123e+00	 1.188049505843494e+00
 6.752869760344328e+00	 4.702260094883833e+00	 1.226640986157972e+00
 6.434671708820000e+00	 5.020458146420000e+00	 1.270803524176574e+00
 9.722718241306250e+00	 1.944543648256250e+00	 1.066503379608800e+00
 9.404520189768313e+00	 2.262741699787814e+00	 1.061566867745884e+00
 9.086322138232001e+00	 2.580939751320001e+00	 1.064356819290424e+00
 8.768124086697311e+00	 2.899137802852814e+00	 1.073672091031775e+00
 8.449926035164250e+00	 3.217335854386252e+00	 1.085091032245845e+00
 8.131727983632812e+00	 3.535533905920315e+00	 1.103183040998979e+00
 7.813529932103000e+00	 3.853731957455002e+00	 1.124326327047068e+00
 7.495331880574810e+00	 4.171930008990315e+00	 1.151527070391730e+00
 7.177133829048247e+00	 4.490128060526253e+00	 1.184583821149349e+00
 6.858935777523309e+00	 4.808326112062816e+00	 1.223295123393146e+00
 6.540737726000001e+00	 5.126524163600001e+00	 1.267459513398206e+00
 9.828784258483999e+00	 2.050609665434000e+00	 1.058201141354755e+00
 9.510586206945678e+00	 2.368807716965180e+00	 1.054073357884879e+00
 9.192388155409121e+00	 2.687005768497121e+00	 1.057512327598726e+00
 8.874190103874318e+00	 3.005203820029821e+00	 1.068563032579440e+00
 8.555992052341280e+00	 3.323401871563282e+00	 1.081687772071388e+00
 8.237794000809997e+00	 3.641599923097502e+00	 1.098850080363735e+00
 7.919595949280480e+00	 3.959797974632482e+00	 1.120620608151001e+00
 7.601397897752719e+00	 4.277996026168223e+00	 1.148330622094416e+00
 7.283199846226719e+00	 4.596194077704723e+00	 1.181778673968383e+00
 6.965001794702477e+00	 4.914392129241984e+00	 1.220763307749581e+00
 6.646803743180001e+00	 5.232590180780001e+00	 1.265083059616536e+00
 9.934850275662251e+00	 2.156675682612251e+00	 1.049242417252167e+00
 9.616652224123630e+00	 2.474873734143133e+00	 1.046067745224333e+00
 9.298454172586879e+00	 2.793071785674881e+00	 1.050300116244639e+00
 8.980256121051994e+00	 3.111269837207494e+00	 1.061984504151416e+00
 8.662058069518970e+00	 3.429467888740972e+00	 1.077982898315442e+00
 8.343860017987812e+00	 3.747665940275315e+00	 1.094711272856196e+00
 8.025661966458518e+00	 4.065863991810523e+00	 1.117262549444888e+00
 7.707463914931092e+00	 4.384062043346596e+00	 1.145635343071187e+00
 7.389265863405528e+00	 4.702260094883533e+00	 1.179628205412981e+00
 7.071067811881830e+00	 5.020458146421335e+00	 1.219039680350410e+00
 6.752869760360000e+00	 5.338656197960001e+00	 1.263668303965445e+00
 1.004091629284100e+01	 2.262741699791000e+00	 1.039635259745840e+00
 9.722718241302172e+00	 2.580939751321671e+00	 1.037558082253726e+00
 9.404520189765279e+00	 2.899137802853281e+00	 1.042728237762320e+00
 9.086322138230329e+00	 3.217335854385832e+00	 1.055190708470795e+00
 8.768124086697320e+00	 3.535533905919322e+00	 1.073180213916481e+00
 8.449926035166250e+00	 3.853731957453753e+00	 1.090760757720041e+00
 8.131727983637120e+00	 4.171930008989123e+00	 1.114246291937681e+00
 7.813529932109930e+00	 4.490128060525433e+00	 1.143435374341732e+00
 7.495331880584679e+00	 4.808326112062684e+00	 1.178126556513570e+00
 7.177133829061367e+00	 5.126524163600873e+00	 1.218118382236806e+00
 6.858935777540001e+00	 5.444722215140001e+00	 1.263209387496856e+00
 1.014698231002025e+01	 2.368807716970251e+00	 1.029387721221416e+00
 9.828784258481296e+00	 2.687005768500794e+00	 1.028552421403379e+00
 9.510586206944321e+00	 3.005203820032321e+00	 1.034804744626766e+00
 9.192388155409331e+00	 3.323401871564834e+00	 1.048189672688452e+00
 8.874190103876330e+00	 3.641599923098331e+00	 1.067337549300023e+00
 8.555992052345314e+00	 3.959797974632815e+00	 1.086992675871532e+00
 8.237794000816280e+00	 4.277996026168282e+00	 1.111565976556375e+00
 7.919595949289230e+00	 4.596194077704736e+00	 1.141724856843780e+00
 7.601397897764169e+00	 4.914392129242173e+00	 1.177267868218621e+00
 7.283199846241090e+00	 5.232590180780597e+00	 1.217993554367983e+00
 6.965001794720001e+00	 5.550788232320000e+00	 1.263700451180734e+00
 1.025304832720000e+01	 2.474873734150000e+00	 1.018507854005374e+00
 9.934850275661001e+00	 2.793071785680500e+00	 1.019058815044451e+00
 9.616652224124000e+00	 3.111269837212001e+00	 1.026537689253815e+00
 9.298454172589000e+00	 3.429467888744501e+00	 1.040989458028044e+00
 8.980256121056000e+00	 3.747665940278001e+00	 1.060749601147226e+00
 8.662058069524999e+00	 4.065863991812502e+00	 1.083401168144982e+00
 8.343860017995999e+00	 4.384062043348002e+00	 1.109215744146010e+00
 8.025661966468997e+00	 4.702260094884502e+00	 1.140497931433111e+00
 7.707463914943999e+00	 5.020458146422002e+00	 1.177046281394651e+00
 7.389265863420998e+00	 5.338656197960503e+00	 1.218659337621199e+00
 7.071067811900000e+00	 5.656854249500000e+00	 1.265135635905085e+00
 4.949747468300000e+00	 3.535533905900000e+00	 1.329284962156462e+00
 4.879036790180000e+00	 3.606244584020000e+00	 1.415776090840120e+00
 4.808326112060000e+00	 3.676955262139999e+00	 1.491137261620399e+00
 4.737615433940000e+00	 3.747665940260000e+00	 1.555366293999791e+00
 4.666904755820000e+00	 3.818376618380000e+00	 1.608460965670241e+00
 4.596194077700000e+00	 3.889087296500000e+00	 1.650419065602538e+00
 4.525483399580000e+00	 3.959797974620000e+00	 1.681238382748452e+00
 4.454772721459999e+00	 4.030508652740000e+00	 1.700916706040737e+00
 4.384062043340000e+00	 4.101219330860000e+00	 1.709451824393126e+00
 4.313351365219999e+00	 4.171930008980000e+00	 1.706841526700329e+00
 4.242640687100000e+00	 4.242640687100000e+00	 1.693083601838044e+00
 5.055813485480000e+00	 3.641599923080000e+00	 1.327761715720152e+00
 4.985102807360000e+00	 3.712310601199999e+00	 1.404628824260815e+00
 4.914392129239999e+00	 3.783021279320000e+00	 1.471304030995850e+00
 4.843681451120001e+00	 3.853731957440000e+00	 1.527785124933023e+00
 4.772970773000001e+00	 3.924442635560000e+00	 1.574069895061079e+00
 4.702260094880001e+00	 3.995153313680000e+00	 1.610156130349744e+00
 4.631549416760000e+00	 4.065863991800001e+00	 1.636041619749725e+00
 4.560838738640000e+00	 4.136574669920001e+00	 1.651724152192714e+00
 4.490128060520000e+00	 4.207285348040002e+00	 1.657201516591378e+00
 4.419417382400001e+00	 4.277996026160000e+00	 1.652471501839373e+00
 4.348706704280000e+00	 4.348706704280000e+00	 1.637531896811325e+00
 5.161879502660001e+00	 3.747665940260000e+00	 1.325742420955357e+00
 5.091168824540000e+00	 3.818376618380000e+00	 1.393451907378808e+00
 5.020458146419999e+00	 3.889087296500000e+00	 1.451907528911784e+00
 4.949747468300000e+00	 3.959797974620000e+00	 1.501107074560985e+00
 4.879036790180000e+00	 4.030508652740000e+00	 1.541048333314095e+00
 4.808326112060000e+00	 4.101219330860000e+00	 1.571729094139778e+00
 4.737615433939999e+00	 4.171930008980000e+00	 1.593147145987680e+00
 4.666904755820000e+00	 4.242640687100000e+00	 1.605300277788428e+00
 4.596194077699999e+00	 4.313351365219999e+00	 1.608186278453628e+00
 4.525483399580000e+00	 4.384062043339999e+00	 1.601802936875871e+00
 4.454772721459999e+00	 4.454772721459999e+00	 1.586148041928721e+00
 5.267945519840000e+00	 3.853731957440000e+00	 1.323221216743260e+00
 5.197234841720000e+00	 3.924442635560000e+00	 1.382239471179736e+00
 5.126524163600001e+00	 3.995153313680000e+00	 1.432941897654088e+00
 5.055813485480001e+00	 4.065863991800001e+00	 1.475326285171958e+00
 4.985102807359999e+00	 4.136574669920000e+00	 1.509390422719965e+00
 4.914392129240001e+00	 4.207285348040001e+00	 1.535132099265710e+00
 4.843681451120000e+00	 4.277996026159999e+00	 1.552549103757777e+00
 4.772970773000000e+00	 4.348706704280000e+00	 1.561639225125732e+00
 4.702260094880001e+00	 4.419417382400001e+00	 1.562400252280118e+00
 4.631549416760001e+00	 4.490128060520002e+00	 1.554829974112459e+00
 4.560838738640000e+00	 4.560838738640000e+00	 1.538926179495262e+00
 5.374011537020000e+00	 3.959797974620000e+00	 1.320192245283033e+00
 5.303300858900000e+00	 4.030508652740001e+00	 1.370985657865162e+00
 5.232590180780001e+00	 4.101219330860000e+00	 1.414401279426721e+00
 5.161879502660001e+00	 4.171930008980000e+00	 1.450436898972290e+00
 5.091168824540001e+00	 4.242640687100001e+00	 1.479090305487426e+00
 5.020458146420000e+00	 4.313351365220000e+00	 1.500359287938669e+00
 4.949747468300001e+00	 4.384062043340000e+00	 1.514241635273540e+00
 4.879036790180000e+00	 4.454772721460000e+00	 1.520735136420541e+00
 4.808326112060000e+00	 4.525483399580001e+00	 1.519837580289153e+00
 4.737615433940001e+00	 4.596194077700002e+00	 1.511546755769838e+00
 4.666904755820001e+00	 4.666904755820001e+00	 1.495860451734042e+00
 5.480077554200001e+00	 4.065863991800000e+00	 1.316649648691914e+00
 5.409366876080002e+00	 4.136574669920001e+00	 1.359684609554713e+00
 5.338656197960001e+00	 4.207285348039999e+00	 1.396279816351700e+00
 5.267945519840001e+00	 4.277996026160000e+00	 1.426433058086390e+00
 5.197234841720000e+00	 4.348706704280000e+00	 1.450142123743281e+00
 5.126524163600001e+00	 4.419417382400000e+00	 1.467404802287848e+00
 5.055813485480001e+00	 4.490128060520000e+00	 1.478218882666552e+00
 4.985102807360000e+00	 4.560838738640000e+00	 1.482582153806830e+00
 4.914392129239999e+00	 4.631549416760000e+00	 1.480492404617103e+00
 4.843681451120001e+00	 4.702260094880001e+00	 1.471947423986770e+00
 4.772970773000000e+00	 4.772970773000000e+00	 1.456945000786212e+00
 5.586143571379999e+00	 4.171930008980000e+00	 1.312587569005200e+00
 5.515432893260001e+00	 4.242640687100000e+00	 1.348330468286079e+00
 5.444722215140000e+00	 4.313351365220000e+00	 1.378571650469106e+00
 5.374011537020000e+00	 4.384062043340000e+00	 1.403308904556733e+00
 5.303300858899999e+00	 4.454772721459999e+00	 1.422540019532393e+00
 5.232590180780000e+00	 4.525483399580001e+00	 1.436262784360504e+00
 5.161879502660000e+00	 4.596194077700000e+00	 1.444474987986460e+00
 5.091168824540000e+00	 4.666904755820001e+00	 1.447174419336640e+00
 5.020458146420000e+00	 4.737615433940000e+00	 1.444358867318399e+00
 4.949747468300001e+00	 4.808326112060000e+00	 1.436026120820076e+00
 4.879036790180001e+00	 4.879036790180001e+00	 1.422173968710989e+00
 5.692209588560001e+00	 4.277996026160000e+00	 1.308000148176252e+00
 5.621498910440001e+00	 4.348706704279999e+00	 1.336917376015012e+00
 5.550788232320000e+00	 4.419417382400000e+00	 1.361270923737080e+00
 5.480077554200000e+00	 4.490128060520000e+00	 1.381058580343848e+00
 5.409366876080000e+00	 4.560838738640000e+00	 1.396278134817686e+00
 5.338656197960001e+00	 4.631549416760000e+00	 1.406927376121950e+00
 5.267945519839999e+00	 4.702260094879999e+00	 1.413004093200972e+00
 5.197234841720000e+00	 4.772970773000000e+00	 1.414506074980067e+00
 5.126524163599999e+00	 4.843681451119999e+00	 1.411431110365531e+00
 5.055813485480001e+00	 4.914392129240000e+00	 1.403776988244640e+00
 4.985102807360000e+00	 4.985102807360000e+00	 1.391541497485646e+00
 5.798275605740001e+00	 4.384062043340000e+00	 1.302881528076490e+00
 5.727564927620000e+00	 4.454772721459999e+00	 1.325439474615322e+00
 5.656854249499998e+00	 4.525483399579999e+00	 1.344371778031825e+00
 5.586143571380001e+00	 4.596194077700001e+00	 1.359676227326328e+00
 5.515432893260001e+00	 4.666904755820001e+00	 1.371350611480143e+00
 5.444722215140000e+00	 4.737615433939999e+00	 1.379392719455560e+00
 5.374011537019999e+00	 4.808326112059999e+00	 1.383800340195850e+00
 5.303300858899999e+00	 4.879036790179999e+00	 1.384571262625270e+00
 5.232590180779999e+00	 4.949747468299999e+00	 1.381703275649048e+00
 5.161879502660001e+00	 5.020458146420000e+00	 1.375194168153398e+00
 5.091168824540000e+00	 5.091168824540000e+00	 1.365041729005517e+00
 5.904341622920001e+00	 4.490128060520000e+00	 1.297225850495390e+00
 5.833630944800000e+00	 4.560838738639999e+00	 1.313890905878874e+00
 5.762920266679999e+00	 4.631549416760000e+00	 1.327868355147596e+00
 5.692209588560002e+00	 4.702260094880001e+00	 1.339155987300822e+00
 5.621498910440000e+00	 4.772970773000000e+00	 1.347751591318801e+00
 5.550788232320001e+00	 4.843681451120001e+00	 1.353652956162763e+00
 5.480077554200000e+00	 4.914392129239999e+00	 1.356857870774918e+00
 5.409366876079999e+00	 4.985102807359999e+00	 1.357364124078458e+00
 5.338656197960000e+00	 5.055813485480000e+00	 1.355169504977551e+00
 5.267945519840000e+00	 5.126524163599999e+00	 1.350271802357351e+00
 5.197234841720000e+00	 5.197234841720000e+00	 1.342668805083985e+00
 6.010407640100000e+00	 4.596194077700000e+00	 1.291027257140484e+00
 5.939696961980000e+00	 4.666904755820000e+00	 1.302265811515594e+00
 5.868986283860000e+00	 4.737615433940000e+00	 1.311754796796707e+00
 5.798275605739999e+00	 4.808326112060000e+00	 1.319492001982032e+00
 5.727564927620000e+00	 4.879036790180000e+00	 1.325475216050757e+00
 5.656854249499999e+00	 4.949747468300000e+00	 1.329702227963047e+00
 5.586143571379999e+00	 5.020458146419999e+00	 1.332170826660052e+00
 5.515432893260000e+00	 5.091168824540000e+00	 1.332878801063901e+00
 5.444722215140001e+00	 5.161879502660000e+00	 1.331823940077703e+00
 5.374011537019999e+00	 5.232590180780000e+00	 1.329004032585543e+00
 5.303300858900000e+00	 5.303300858900000e+00	 1.324416867452494e+00
 6.010407640100000e+00	 4.596194077700000e+00	 1.291027257140484e+00
 5.939696961980000e+00	 4.666904755820000e+00	 1.302265811515594e+00
 5.868986283860000e+00	 4.737615433940000e+00	 1.311754796796707e+00
 5.798275605739999e+00	 4.808326112060000e+00	 1.319492001982032e+00
 5.727564927620000e+00	 4.879036790180000e+00	 1.325475216050757e+00
 5.656854249499999e+00	 4.949747468300000e+00	 1.329702227963047e+00
 5.586143571379999e+00	 5.020458146419999e+00	 1.332170826660052e+00
 5.515432893260000e+00	 5.091168824540000e+00	 1.332878801063901e+00
 5.444722215140001e+00	 5.161879502660000e+00	 1.331823940077703e+00
 5.374011537019999e+00	 5.232590180780000e+00	 1.329004032585543e+00
 5.303300858900000e+00	 5.303300858900000e+00	 1.324416867452494e+00
 6.116473657279999e+00	 4.702260094880001e+00	 1.279190641855050e+00
 6.045762979159998e+00	 4.772970773000001e+00	 1.290065327900203e+00
 5.975052301040001e+00	 4.843681451120000e+00	 1.299246005035097e+00
 5.904341622920002e+00	 4.914392129240001e+00	 1.306730462256878e+00
 5.833630944800000e+00	 4.985102807360000e+00	 1.312516488543669e+00
 5.762920266679999e+00	 5.055813485480000e+00	 1.316601872854577e+00
 5.692209588560001e+00	 5.126524163600000e+00	 1.318984404129689e+00
 5.621498910440001e+00	 5.197234841720000e+00	 1.319661871290071e+00
 5.550788232320000e+00	 5.267945519840000e+00	 1.318632063237771e+00
 5.480077554200000e+00	 5.338656197960000e+00	 1.315892768855814e+00
 5.409366876080000e+00	 5.409366876080000e+00	 1.311441777008208e+00
 6.222539674460000e+00	 4.808326112060000e+00	 1.269424639312415e+00
 6.151828996340001e+00	 4.879036790180001e+00	 1.279862466496650e+00
 6.081118318220000e+00	 4.949747468300001e+00	 1.288661844967564e+00
 6.010407640099999e+00	 5.020458146420000e+00	 1.295820563721240e+00
 5.939696961980001e+00	 5.091168824540001e+00	 1.301336411734744e+00
 5.868986283859999e+00	 5.161879502660001e+00	 1.305207177966117e+00
 5.798275605740001e+00	 5.232590180780000e+00	 1.307430651354386e+00
 5.727564927620000e+00	 5.303300858900002e+00	 1.308004620819557e+00
 5.656854249500001e+00	 5.374011537020000e+00	 1.306926875262614e+00
 5.586143571379999e+00	 5.444722215140001e+00	 1.304195203565522e+00
 5.515432893260001e+00	 5.515432893260001e+00	 1.299807394591225e+00
 6.328605691640000e+00	 4.914392129240000e+00	 1.261723390974273e+00
 6.257895013520001e+00	 4.985102807360001e+00	 1.271651368769014e+00
 6.187184335400002e+00	 5.055813485480001e+00	 1.279996458060576e+00
 6.116473657280001e+00	 5.126524163600000e+00	 1.286756447843980e+00
 6.045762979159998e+00	 5.197234841719998e+00	 1.291929127095230e+00
 5.975052301040001e+00	 5.267945519840000e+00	 1.295512284771308e+00
 5.904341622920000e+00	 5.338656197960000e+00	 1.297503709810178e+00
 5.833630944800000e+00	 5.409366876080000e+00	 1.297901191130783e+00
 5.762920266680000e+00	 5.480077554200000e+00	 1.296702517633046e+00
 5.692209588560002e+00	 5.550788232320002e+00	 1.293905478197872e+00
 5.621498910440001e+00	 5.621498910440001e+00	 1.289507861687141e+00
 6.434671708820000e+00	 5.020458146420000e+00	 1.256081038220366e+00
 6.363961030699999e+00	 5.091168824540000e+00	 1.265426176099428e+00
 6.293250352579999e+00	 5.161879502660002e+00	 1.273243985698655e+00
 6.222539674459999e+00	 5.232590180779999e+00	 1.279532256012009e+00
 6.151828996340000e+00	 5.303300858900000e+00	 1.284288776014430e+00
 6.081118318220001e+00	 5.374011537020002e+00	 1.287511334661842e+00
 6.010407640100000e+00	 5.444722215140000e+00	 1.289197720891144e+00
 5.939696961980000e+00	 5.515432893260000e+00	 1.289345723620220e+00
 5.868986283860000e+00	 5.586143571380001e+00	 1.287953131747930e+00
 5.798275605740001e+00	 5.656854249500000e+00	 1.285017734154115e+00
 5.727564927620000e+00	 5.727564927620000e+00	 1.280537319699600e+00
 6.540737726000001e+00	 5.126524163600001e+00	 1.252491722348485e+00
 6.470027047880001e+00	 5.197234841720001e+00	 1.261181029788070e+00
 6.399316369759998e+00	 5.267945519840000e+00	 1.268398569184372e+00
 6.328605691640000e+00	 5.338656197960001e+00	 1.274142129530285e+00
 6.257895013520000e+00	 5.409366876080001e+00	 1.278409499799694e+00
 6.187184335400000e+00	 5.480077554200001e+00	 1.281198468947456e+00
 6.116473657280001e+00	 5.550788232320001e+00	 1.282506825909413e+00
 6.045762979160000e+00	 5.621498910440001e+00	 1.282332359602385e+00
 5.975052301040001e+00	 5.692209588560001e+00	 1.280672858924173e+00
 5.904341622920000e+00	 5.762920266680000e+00	 1.277526112753555e+00
 5.833630944800000e+00	 5.833630944800000e+00	 1.272889909950291e+00
 6.646803743180001e+00	 5.232590180780001e+00	 1.250949584574465e+00
 6.576093065060001e+00	 5.303300858900002e+00	 1.258910071053169e+00
 6.505382386940000e+00	 5.374011537020001e+00	 1.265454349738339e+00
 6.434671708820001e+00	 5.444722215140002e+00	 1.270580209621815e+00
 6.363961030699999e+00	 5.515432893260000e+00	 1.274285439676413e+00
 6.293250352580001e+00	 5.586143571380002e+00	 1.276567828855935e+00
 6.222539674460001e+00	 5.656854249500001e+00	 1.277425166095159e+00
 6.151828996340002e+00	 5.727564927620001e+00	 1.276855240309844e+00
 6.081118318220001e+00	 5.798275605740001e+00	 1.274855840396728e+00
 6.010407640100000e+00	 5.868986283860000e+00	 1.271424755233531e+00
 5.939696961980001e+00	 5.939696961980001e+00	 1.266559773678950e+00
 6.752869760360000e+00	 5.338656197960001e+00	 1.251448766032190e+00
 6.682159082239999e+00	 5.409366876080001e+00	 1.258607441030994e+00
 6.611448404120003e+00	 5.480077554200002e+00	 1.264405468499220e+00
 6.540737726000001e+00	 5.550788232320002e+00	 1.268840637427646e+00
 6.470027047879999e+00	 5.621498910440001e+00	 1.271910736788029e+00
 6.399316369760000e+00	 5.692209588560001e+00	 1.273613555533108e+00
 6.328605691640000e+00	 5.762920266680001e+00	 1.273946882596600e+00
 6.257895013520001e+00	 5.833630944800000e+00	 1.272908506893204e+00
 6.187184335400000e+00	 5.904341622920001e+00	 1.270496217318596e+00
 6.116473657280001e+00	 5.975052301040001e+00	 1.266707802749435e+00
 6.045762979160001e+00	 6.045762979160001e+00	 1.261541052043354e+00
 6.858935777540001e+00	 5.444722215140001e+00	 1.253983407773587e+00
 6.788225099420000e+00	 5.515432893260002e+00	 1.260267280775861e+00
 6.717514421300002e+00	 5.586143571380002e+00	 1.265246066523717e+00
 6.646803743180000e+00	 5.656854249500001e+00	 1.268917554006872e+00
 6.576093065060001e+00	 5.727564927620002e+00	 1.271279532196022e+00
 6.505382386940001e+00	 5.798275605740002e+00	 1.272329790042845e+00
 6.434671708820001e+00	 5.868986283860001e+00	 1.272066116479996e+00
 6.363961030700001e+00	 5.939696961980000e+00	 1.270486300421116e+00
 6.293250352580000e+00	 6.010407640100000e+00	 1.267588130760816e+00
 6.222539674460000e+00	 6.081118318220001e+00	 1.263369396374695e+00
 6.151828996340001e+00	 6.151828996340001e+00	 1.257827886119325e+00
 6.965001794720001e+00	 5.550788232320000e+00	 1.258547650768623e+00
 6.894291116600001e+00	 5.621498910440001e+00	 1.263883731260126e+00
 6.823580438480001e+00	 5.692209588560003e+00	 1.267970284786576e+00
 6.752869760360001e+00	 5.762920266680000e+00	 1.270805100336627e+00
 6.682159082240001e+00	 5.833630944800001e+00	 1.272385966879916e+00
 6.611448404120000e+00	 5.904341622920001e+00	 1.272710673367059e+00
 6.540737726000001e+00	 5.975052301040001e+00	 1.271777008729652e+00
 6.470027047880000e+00	 6.045762979160001e+00	 1.269582761880270e+00
 6.399316369760001e+00	 6.116473657280000e+00	 1.266125721712468e+00
 6.328605691640000e+00	 6.187184335400000e+00	 1.261403677100782e+00
 6.257895013520000e+00	 6.257895013520000e+00	 1.255414416900723e+00
 7.071067811900000e+00	 5.656854249500000e+00	 1.265135635905307e+00
 7.000357133780001e+00	 5.727564927620000e+00	 1.269450933374188e+00
 6.929646455659999e+00	 5.798275605740001e+00	 1.272572264180582e+00
 6.858935777539999e+00	 5.868986283860000e+00	 1.274497417312086e+00
 6.788225099419999e+00	 5.939696961980000e+00	 1.275224181737274e+00
 6.717514421300000e+00	 6.010407640100000e+00	 1.274750346405703e+00
 6.646803743180000e+00	 6.081118318220000e+00	 1.273073700247906e+00
 6.576093065060000e+00	 6.151828996340001e+00	 1.270192032175398e+00
 6.505382386939999e+00	 6.222539674459999e+00	 1.266103131080674e+00
 6.434671708820000e+00	 6.293250352579999e+00	 1.260804785837206e+00
 6.363961030700000e+00	 6.363961030700000e+00	 1.254294785299447e+00
-2.828427124700000e+00	-2.828427124700000e+00	 5.081461441947827e-01
-2.899137802820000e+00	-2.757716446599001e+00	 6.617112510151023e-01
-2.969848480940000e+00	-2.687005768496000e+00	 8.028932932829477e-01
-3.040559159060000e+00	-2.616295090391000e+00	 9.321581693768902e-01
-3.111269837180000e+00	-2.545584412284000e+00	 1.048217194993441e+00
-3.181980515300000e+00	-2.474873734175000e+00	 1.151070038542205e+00
-3.252691193420000e+00	-2.404163056064000e+00	 1.240716368432790e+00
-3.323401871540000e+00	-2.333452377951000e+00	 1.317155853074803e+00
-3.394112549660000e+00	-2.262741699836000e+00	 1.380388160877844e+00
-3.464823227780000e+00	-2.192031021719000e+00	 1.430412960251521e+00
-3.535533905900000e+00	-2.121320343600000e+00	 1.467229919605440e+00
-2.687005768479001e+00	-2.687005768479001e+00	 4.929183647748242e-01
-2.757716446598814e+00	-2.616295090374390e+00	 6.277680924869522e-01
-2.828427124718261e+00	-2.545584412268160e+00	 7.505595354488107e-01
-2.899137802837335e+00	-2.474873734160310e+00	 8.612926936624989e-01
-2.969848480956040e+00	-2.404163056050840e+00	 9.608556304447371e-01
-3.040559159074375e+00	-2.333452377939750e+00	 1.049702451281698e+00
-3.111269837192340e+00	-2.262741699827040e+00	 1.126574507805010e+00
-3.181980515309936e+00	-2.192031021712711e+00	 1.191471468423710e+00
-3.252691193427161e+00	-2.121320343596759e+00	 1.244393001546853e+00
-3.323401871544015e+00	-2.050609665479190e+00	 1.285338775583474e+00
-3.394112549660500e+00	-1.979898987360000e+00	 1.314308458942607e+00
-2.545584412256000e+00	-2.545584412256000e+00	 4.730429750552018e-01
-2.616295090375660e+00	-2.474873734148161e+00	 5.909594440032147e-01
-2.687005768494640e+00	-2.404163056039040e+00	 6.980519134830699e-01
-2.757716446612940e+00	-2.333452377928640e+00	 7.943203834964011e-01
-2.828427124730560e+00	-2.262741699816960e+00	 8.797648540448321e-01
-2.899137802847500e+00	-2.192031021704000e+00	 9.543853251299824e-01
-2.969848480963760e+00	-2.121320343589761e+00	 1.019043907244122e+00
-3.040559159079340e+00	-2.050609665474240e+00	 1.074180906303836e+00
-3.111269837194239e+00	-1.979898987357440e+00	 1.118574227211055e+00
-3.181980515308460e+00	-1.909188309239360e+00	 1.152223538374335e+00
-3.252691193421999e+00	-1.838477631120000e+00	 1.175128508202214e+00
-2.404163056031000e+00	-2.404163056031000e+00	 4.485199750360073e-01
-2.474873734150535e+00	-2.333452377920310e+00	 5.512853055634901e-01
-2.545584412269140e+00	-2.262741699808640e+00	 6.444609219042295e-01
-2.616295090386815e+00	-2.192031021695989e+00	 7.280468240594747e-01
-2.687005768503560e+00	-2.121320343582360e+00	 8.020430120304621e-01
-2.757716446619376e+00	-2.050609665467751e+00	 8.664494858184136e-01
-2.828427124734260e+00	-1.979898987352160e+00	 9.212662454245414e-01
-2.899137802848215e+00	-1.909188309235590e+00	 9.664932908500430e-01
-2.969848480961240e+00	-1.838477631118040e+00	 1.002962269104883e+00
-3.040559159073335e+00	-1.767766952999510e+00	 1.031097679858972e+00
-3.111269837184500e+00	-1.697056274880000e+00	 1.049720498619666e+00
-2.262741699804000e+00	-2.262741699804000e+00	 4.193493647172627e-01
-2.333452377923440e+00	-2.192031021690839e+00	 5.087456771673338e-01
-2.404163056041760e+00	-2.121320343576960e+00	 5.897865607115164e-01
-2.474873734158960e+00	-2.050609665462360e+00	 6.624720153507331e-01
-2.545584412275040e+00	-1.979898987347040e+00	 7.268020410858992e-01
-2.616295090390000e+00	-1.909188309231000e+00	 7.827766379179073e-01
-2.687005768503840e+00	-1.838477631114240e+00	 8.303958058476422e-01
-2.757716446616560e+00	-1.767766952996760e+00	 8.696595448759739e-01
-2.828427124728160e+00	-1.697056274878560e+00	 9.005678550037561e-01
-2.899137802838641e+00	-1.626345596759640e+00	 9.231207362318301e-01
-2.969848480948000e+00	-1.555634918640000e+00	 9.381148614300181e-01
-2.121320343575000e+00	-2.121320343575000e+00	 3.855311440989125e-01
-2.192031021694375e+00	-2.050609665459751e+00	 4.633405588142788e-01
-2.262741699812500e+00	-1.979898987344000e+00	 5.340288299041523e-01
-2.333452377929376e+00	-1.909188309227750e+00	 5.975959573691972e-01
-2.404163056044999e+00	-1.838477631111000e+00	 6.540419412100557e-01
-2.474873734159375e+00	-1.767766952993750e+00	 7.033667814273612e-01
-2.545584412272500e+00	-1.697056274876000e+00	 7.455704780217288e-01
-2.616295090384376e+00	-1.626345596757750e+00	 7.806530309937583e-01
-2.687005768495000e+00	-1.555634918639000e+00	 8.086144403440358e-01
-2.757716446604375e+00	-1.484924240519750e+00	 8.294547060731351e-01
-2.828427124712500e+00	-1.414213562400000e+00	 8.431738281816086e-01
-1.979898987344000e+00	-1.979898987344000e+00	 3.470653131808332e-01
-2.050609665463340e+00	-1.909188309227040e+00	 4.150699505038177e-01
-2.121320343581360e+00	-1.838477631109760e+00	 4.771877294813556e-01
-2.192031021698060e+00	-1.767766952992160e+00	 5.334186501138860e-01
-2.262741699813440e+00	-1.697056274874240e+00	 5.837627124018491e-01
-2.333452377927500e+00	-1.626345596756000e+00	 6.282199163456584e-01
-2.404163056040240e+00	-1.555634918637440e+00	 6.667902619457183e-01
-2.474873734151660e+00	-1.484924240518560e+00	 6.994737492024149e-01
-2.545584412261761e+00	-1.414213562399360e+00	 7.262703781161221e-01
-2.616295090370540e+00	-1.343502884279840e+00	 7.471801486871936e-01
-2.687005768478000e+00	-1.272792206160000e+00	 7.622030609159777e-01
-1.838477631111000e+00	-1.838477631111000e+00	 3.039518719628264e-01
-1.909188309230335e+00	-1.767766952992710e+00	 3.639338522354165e-01
-1.979898987348340e+00	-1.697056274874240e+00	 4.192632594423243e-01
-2.050609665465016e+00	-1.626345596755590e+00	 4.699400935838300e-01
-2.121320343580360e+00	-1.555634918636760e+00	 5.159643546601926e-01
-2.192031021694375e+00	-1.484924240517750e+00	 5.573360426716639e-01
-2.262741699807060e+00	-1.414213562398560e+00	 5.940551576184798e-01
-2.333452377918416e+00	-1.343502884279190e+00	 6.261216995008607e-01
-2.404163056028440e+00	-1.272792206159640e+00	 6.535356683190187e-01
-2.474873734137136e+00	-1.202081528039910e+00	 6.762970640731446e-01
-2.545584412244500e+00	-1.131370849920000e+00	 6.944058867634201e-01
-1.697056274876000e+00	-1.697056274876000e+00	 2.561908204446183e-01
-1.767766952995360e+00	-1.626345596756760e+00	 3.099322640085055e-01
-1.838477631113440e+00	-1.555634918637440e+00	 3.602554197862700e-01
-1.909188309230240e+00	-1.484924240518040e+00	 4.071602877780576e-01
-1.979898987345760e+00	-1.414213562398560e+00	 4.506468679839999e-01
-2.050609665460000e+00	-1.343502884279000e+00	 4.907151604042175e-01
-2.121320343572960e+00	-1.272792206159360e+00	 5.273651650388201e-01
-2.192031021684640e+00	-1.202081528039640e+00	 5.605968818879088e-01
-2.262741699795040e+00	-1.131370849919840e+00	 5.904103109515629e-01
-2.333452377904160e+00	-1.060660171799960e+00	 6.168054522298692e-01
-2.404163056012000e+00	-9.899494936800002e-01	 6.397823057228831e-01
-1.555634918639000e+00	-1.555634918639000e+00	 2.037821586258637e-01
-1.626345596758415e+00	-1.484924240519190e+00	 2.530651858224832e-01
-1.697056274876660e+00	-1.414213562399360e+00	 3.001642105123850e-01
-1.767766952993735e+00	-1.343502884279511e+00	 3.450792326956046e-01
-1.838477631109640e+00	-1.272792206159640e+00	 3.878102523721833e-01
-1.909188309224375e+00	-1.202081528039750e+00	 4.283572695421420e-01
-1.979898987337940e+00	-1.131370849919840e+00	 4.667202842054974e-01
-2.050609665450335e+00	-1.060660171799910e+00	 5.028992963622599e-01
-2.121320343561560e+00	-9.899494936799603e-01	 5.368943060124328e-01
-2.192031021671615e+00	-9.192388155599901e-01	 5.687053131560049e-01
-2.262741699780500e+00	-8.485281374400002e-01	 5.983323177929606e-01
-1.414213562400000e+00	-1.414213562400000e+00	 1.467258865061477e-01
-1.484924240519500e+00	-1.343502884280000e+00	 1.933326176767211e-01
-1.555634918638000e+00	-1.272792206160000e+00	 2.389896316198550e-01
-1.626345596755500e+00	-1.202081528040000e+00	 2.836969283355142e-01
-1.697056274872000e+00	-1.131370849920000e+00	 3.274545078236588e-01
-1.767766952987500e+00	-1.060660171800000e+00	 3.702623700842401e-01
-1.838477631102000e+00	-9.899494936800000e-01	 4.121205151172139e-01
-1.909188309215500e+00	-9.192388155600000e-01	 4.530289429225250e-01
-1.979898987328000e+00	-8.485281374400000e-01	 4.929876535001184e-01
-2.050609665439500e+00	-7.778174593200001e-01	 5.319966468499324e-01
-2.121320343550000e+00	-7.071067812000000e-01	 5.700559229719068e-01
-1.414213562400000e+00	-1.414213562400000e+00	 1.467258865061477e-01
-1.484924240519500e+00	-1.343502884280000e+00	 1.933326176767211e-01
-1.555634918638000e+00	-1.272792206160000e+00	 2.389896316198550e-01
-1.626345596755500e+00	-1.202081528040000e+00	 2.836969283355142e-01
-1.697056274872000e+00	-1.131370849920000e+00	 3.274545078236588e-01
-1.767766952987500e+00	-1.060660171800000e+00	 3.702623700842401e-01
-1.838477631102000e+00	-9.899494936800000e-01	 4.121205151172139e-01
-1.909188309215500e+00	-9.192388155600000e-01	 4.530289429225250e-01
-1.979898987328000e+00	-8.485281374400000e-01	 4.929876535001184e-01
-2.050609665439500e+00	-7.778174593200001e-01	 5.319966468499324e-01
-2.121320343550000e+00	-7.071067812000000e-01	 5.700559229719068e-01
-1.272792206160000e+00	-1.272792206160000e+00	 1.448626355422987e-01
-1.343502884279595e+00	-1.202081528040000e+00	 1.891708752425404e-01
-1.414213562398380e+00	-1.131370849920000e+00	 2.325630411894687e-01
-1.484924240516355e+00	-1.060660171800000e+00	 2.750391333830559e-01
-1.555634918633520e+00	-9.899494936799998e-01	 3.165991518232573e-01
-1.626345596749875e+00	-9.192388155600000e-01	 3.572430965100332e-01
-1.697056274865420e+00	-8.485281374399999e-01	 3.969709674433379e-01
-1.767766952980155e+00	-7.778174593199999e-01	 4.357827646231242e-01
-1.838477631094080e+00	-7.071067812000001e-01	 4.736784880493420e-01
-1.909188309207195e+00	-6.363961030800001e-01	 5.106581377219359e-01
-1.979898987319500e+00	-5.656854249599998e-01	 5.467217136408459e-01
-1.131370849920000e+00	-1.131370849920000e+00	 1.403221036794912e-01
-1.202081528039680e+00	-1.060660171800000e+00	 1.824238524693282e-01
-1.272792206158720e+00	-9.899494936799996e-01	 2.236431709799974e-01
-1.343502884277120e+00	-9.192388155599995e-01	 2.639800592114733e-01
-1.414213562394880e+00	-8.485281374399998e-01	 3.034345171637170e-01
-1.484924240512000e+00	-7.778174593199997e-01	 3.420065448366896e-01
-1.555634918628480e+00	-7.071067811999997e-01	 3.796961422303509e-01
-1.626345596744320e+00	-6.363961030799998e-01	 4.165033093446577e-01
-1.697056274859520e+00	-5.656854249599997e-01	 4.524280461795605e-01
-1.767766952974080e+00	-4.949747468399999e-01	 4.874703527350146e-01
-1.838477631088000e+00	-4.242640687199998e-01	 5.216302290109666e-01
-9.899494936799995e-01	-9.899494936799995e-01	 1.331042909177277e-01
-1.060660171799755e+00	-9.192388155599998e-01	 1.730915493571314e-01
-1.131370849919020e+00	-8.485281374399998e-01	 2.122300209915373e-01
-1.202081528037795e+00	-7.778174593199998e-01	 2.505197058209101e-01
-1.272792206156079e+00	-7.071067811999995e-01	 2.879606038452198e-01
-1.343502884273875e+00	-6.363961030799997e-01	 3.245527150644358e-01
-1.414213562391180e+00	-5.656854249599996e-01	 3.602960394785177e-01
-1.484924240507995e+00	-4.949747468399997e-01	 3.951905770874251e-01
-1.555634918624320e+00	-4.242640687199997e-01	 4.292363278911188e-01
-1.626345596740155e+00	-3.535533905999997e-01	 4.624332918895511e-01
-1.697056274855500e+00	-2.828427124799996e-01	 4.947814690826798e-01
-8.485281374399996e-01	-8.485281374399996e-01	 1.232091972570061e-01
-9.192388155598193e-01	-7.778174593199993e-01	 1.611739659060007e-01
-9.899494936792795e-01	-7.071067811999995e-01	 1.983235912241726e-01
-1.060660171798379e+00	-6.363961030799994e-01	 2.346580732114953e-01
-1.131370849917120e+00	-5.656854249599995e-01	 2.701774118679443e-01
-1.202081528035500e+00	-4.949747468399996e-01	 3.048816071934866e-01
-1.272792206153520e+00	-4.242640687199996e-01	 3.387706591880891e-01
-1.343502884271180e+00	-3.535533905999996e-01	 3.718445678517159e-01
-1.414213562388480e+00	-2.828427124799996e-01	 4.041033331843365e-01
-1.484924240505419e+00	-2.121320343599996e-01	 4.355469551859060e-01
-1.555634918622000e+00	-1.414213562399995e-01	 4.661754338563895e-01
-7.071067811999994e-01	-7.071067811999994e-01	 1.106368226973272e-01
-7.778174593198744e-01	-6.363961030799995e-01	 1.466711021159730e-01
-8.485281374394993e-01	-5.656854249599993e-01	 1.819238816779906e-01
-9.192388155588744e-01	-4.949747468399994e-01	 2.163951613833588e-01
-9.899494936779993e-01	-4.242640687199994e-01	 2.500849412320518e-01
-1.060660171796874e+00	-3.535533905999994e-01	 2.829932212240444e-01
-1.131370849915500e+00	-2.828427124799994e-01	 3.151200013593094e-01
-1.202081528033875e+00	-2.121320343599994e-01	 3.464652816378158e-01
-1.272792206151999e+00	-1.414213562399994e-01	 3.770290620595347e-01
-1.343502884269874e+00	-7.071067811999945e-02	 4.068113426244340e-01
-1.414213562387499e+00	 6.106226635438361e-16	 4.358121233324778e-01
-5.656854249599993e-01	-5.656854249599993e-01	 9.538716723868929e-02
-6.363961030799193e-01	-4.949747468399994e-01	 1.295829579870915e-01
-7.071067811996794e-01	-4.242640687199993e-01	 1.630308923530735e-01
-7.778174593192794e-01	-3.535533905999992e-01	 1.957309703366179e-01
-8.485281374387192e-01	-2.828427124799992e-01	 2.276831919377053e-01
-9.192388155579994e-01	-2.121320343599992e-01	 2.588875571563108e-01
-9.899494936771194e-01	-1.414213562399992e-01	 2.893440659924164e-01
-1.060660171796079e+00	-7.071067811999929e-02	 3.190527184459946e-01
-1.131370849914879e+00	 6.938893903907228e-16	 3.480135145170218e-01
-1.202081528033519e+00	 7.071067812000069e-02	 3.762264542054731e-01
-1.272792206151999e+00	 1.414213562400008e-01	 4.036915375113196e-01
-4.242640687199991e-01	-4.242640687199991e-01	 7.746023088109495e-02
-4.949747468399541e-01	-3.535533905999991e-01	 1.099095335193968e-01
-5.656854249598191e-01	-2.828427124799991e-01	 1.416446232495009e-01
-6.363961030795942e-01	-2.121320343599991e-01	 1.726655000713941e-01
-7.071067811992792e-01	-1.414213562399991e-01	 2.029721639850575e-01
-7.778174593188741e-01	-7.071067811999909e-02	 2.325646149904759e-01
-8.485281374383791e-01	 9.020562075079397e-16	 2.614428530876363e-01
-9.192388155577941e-01	 7.071067812000088e-02	 2.896068782765139e-01
-9.899494936771190e-01	 1.414213562400009e-01	 3.170566905570934e-01
-1.060660171796354e+00	 2.121320343600009e-01	 3.437922899293563e-01
-1.131370849915499e+00	 2.828427124800009e-01	 3.698136763932773e-01
-2.828427124799990e-01	-2.828427124799990e-01	 5.685601362454295e-02
-3.535533905999790e-01	-2.121320343599990e-01	 8.765082871292804e-02
-4.242640687199191e-01	-1.414213562399990e-01	 1.177650743673479e-01
-4.949747468398191e-01	-7.071067811999898e-02	 1.471987505877949e-01
-5.656854249596792e-01	 1.013078509970456e-15	 1.759518573742566e-01
-6.363961030794990e-01	 7.071067812000102e-02	 2.040243947267236e-01
-7.071067811992791e-01	 1.414213562400010e-01	 2.314163626451856e-01
-7.778174593190190e-01	 2.121320343600010e-01	 2.581277611296261e-01
-8.485281374387190e-01	 2.828427124800009e-01	 2.841585901800350e-01
-9.192388155583791e-01	 3.535533906000009e-01	 3.095088497963995e-01
-9.899494936779990e-01	 4.242640687200010e-01	 3.341785399787029e-01
-1.414213562399989e-01	-1.414213562399989e-01	 3.357451546903513e-02
-2.121320343599939e-01	-7.071067811999886e-02	 6.280684356771696e-02
-2.828427124799789e-01	 1.131039706336878e-15	 9.139224570668407e-02
-3.535533905999539e-01	 7.071067812000116e-02	 1.193307218859289e-01
-4.242640687199189e-01	 1.414213562400012e-01	 1.466222721054466e-01
-4.949747468398739e-01	 2.121320343600011e-01	 1.732668963652277e-01
-5.656854249598188e-01	 2.828427124800011e-01	 1.992645946652716e-01
-6.363961030797538e-01	 3.535533906000011e-01	 2.246153670055733e-01
-7.071067811996788e-01	 4.242640687200011e-01	 2.493192133861178e-01
-7.778174593195938e-01	 4.949747468400010e-01	 2.733761338069086e-01
-8.485281374394988e-01	 5.656854249600012e-01	 2.967861282679309e-01
 0.000000000000000e+00	 0.000000000000000e+00	 7.615736414568853e-03
-7.071067812000001e-02	 7.071067812000001e-02	 3.537757808380049e-02
-1.414213562400000e-01	 1.414213562400000e-01	 6.252613726757709e-02
-2.121320343600001e-01	 2.121320343600001e-01	 8.906141396589476e-02
-2.828427124800000e-01	 2.828427124800000e-01	 1.149834081787531e-01
-3.535533906000000e-01	 3.535533906000000e-01	 1.402921199061550e-01
-4.242640687200000e-01	 4.242640687200000e-01	 1.649875491480972e-01
-4.949747468400000e-01	 4.949747468400000e-01	 1.890696959045821e-01
-5.656854249600000e-01	 5.656854249600000e-01	 2.125385601756097e-01
-6.363961030799999e-01	 6.363961030799999e-01	 2.353941419611786e-01
-7.071067812000000e-01	 7.071067812000000e-01	 2.576364412612904e-01
-3.535533905900000e+00	-2.121320343600000e+00	 1.796123773857168e+00
-3.853731957439500e+00	-1.803122292060500e+00	 1.651177465646597e+00
-4.171930008977999e+00	-1.484924240522000e+00	 1.525503007451944e+00
-4.490128060515501e+00	-1.166726188984500e+00	 1.419070182858896e+00
-4.808326112052000e+00	-8.485281374479999e-01	 1.331848775453214e+00
-5.126524163587500e+00	-5.303300859125000e-01	 1.263808568820738e+00
-5.444722215122000e+00	-2.121320343780000e-01	 1.214919346547394e+00
-5.762920266655501e+00	 1.060660171554999e-01	 1.185150892219186e+00
-6.081118318188000e+00	 4.242640686879998e-01	 1.174472989422198e+00
-6.399316369719500e+00	 7.424621202194999e-01	 1.182855421742597e+00
-6.717514421250000e+00	 1.060660171750000e+00	 1.210267972766627e+00
-3.394112549660500e+00	-1.979898987360000e+00	 1.651860402425877e+00
-3.712310601200000e+00	-1.661700935820500e+00	 1.530549323900945e+00
-4.030508652738701e+00	-1.343502884281999e+00	 1.426355668151507e+00
-4.348706704276600e+00	-1.025304832744500e+00	 1.339249218763230e+00
-4.666904755813700e+00	-7.071067812080000e-01	 1.269199759321853e+00
-4.985102807350000e+00	-3.889087296725000e-01	 1.216177073413189e+00
-5.303300858885500e+00	-7.071067813799993e-02	 1.180150944623121e+00
-5.621498910420200e+00	 2.474873733954999e-01	 1.161091156537603e+00
-5.939696961954101e+00	 5.656854249279999e-01	 1.158967492742663e+00
-6.257895013487200e+00	 8.838834764594997e-01	 1.173749736824400e+00
-6.576093065019500e+00	 1.202081527990000e+00	 1.205407672368985e+00
-3.252691193421999e+00	-1.838477631120000e+00	 1.516559809883183e+00
-3.570889244961299e+00	-1.520279579580500e+00	 1.417945879158418e+00
-3.889087296499999e+00	-1.202081528042000e+00	 1.334294943968680e+00
-4.207285348038100e+00	-8.838834765044999e-01	 1.265576787899633e+00
-4.525483399575600e+00	-5.656854249679998e-01	 1.211761194536998e+00
-4.843681451112502e+00	-2.474873734325000e-01	 1.172817947466562e+00
-5.161879502648801e+00	 7.071067810199998e-02	 1.148716830274177e+00
-5.480077554184501e+00	 3.889087296354999e-01	 1.139427626545753e+00
-5.798275605719598e+00	 7.071067811679996e-01	 1.144920119867269e+00
-6.116473657254100e+00	 1.025304832699500e+00	 1.165164093824762e+00
-6.434671708788000e+00	 1.343502884230000e+00	 1.200129332004337e+00
-3.111269837184500e+00	-1.697056274880000e+00	 1.390252427463763e+00
-3.429467888723400e+00	-1.378858223340500e+00	 1.313397562653694e+00
-3.747665940261901e+00	-1.060660171802000e+00	 1.249351266138151e+00
-4.065863991800001e+00	-7.424621202644998e-01	 1.198083321502794e+00
-4.384062043337701e+00	-4.242640687279999e-01	 1.159563512333339e+00
-4.702260094875001e+00	-1.060660171925000e-01	 1.133761622215554e+00
-5.020458146411901e+00	 2.121320343420000e-01	 1.120647434735262e+00
-5.338656197948400e+00	 5.303300858755000e-01	 1.120190733478342e+00
-5.656854249484500e+00	 8.485281374079996e-01	 1.132361302030724e+00
-5.975052301020200e+00	 1.166726188939500e+00	 1.157128923978397e+00
-6.293250352555502e+00	 1.484924240470000e+00	 1.194463382907399e+00
-2.969848480948000e+00	-1.555634918640000e+00	 1.272968686402313e+00
-3.288046532486300e+00	-1.237436867100500e+00	 1.216934805621471e+00
-3.606244584024400e+00	-9.192388155620002e-01	 1.171555065894616e+00
-3.924442635562301e+00	-6.010407640244999e-01	 1.136799250807415e+00
-4.242640687100000e+00	-2.828427124879999e-01	 1.112637143945580e+00
-4.560838738637501e+00	 3.535533904750007e-02	 1.099038528894870e+00
-4.879036790174800e+00	 3.535533905820001e-01	 1.095973189241085e+00
-5.197234841711900e+00	 6.717514421154999e-01	 1.103410908570076e+00
-5.515432893248801e+00	 9.899494936479997e-01	 1.121321470467739e+00
-5.833630944785498e+00	 1.308147545179499e+00	 1.149674658520012e+00
-6.151828996322000e+00	 1.626345596710000e+00	 1.188440256312882e+00
-2.828427124712500e+00	-1.414213562400000e+00	 1.167570818247168e+00
-3.146625176250000e+00	-1.096015510860500e+00	 1.128588039296460e+00
-3.464823227787500e+00	-7.778174593220003e-01	 1.100936774472789e+00
-3.783021279325001e+00	-4.596194077845000e-01	 1.081755007048208e+00
-4.101219330862500e+00	-1.414213562479998e-01	 1.071012520608436e+00
-4.419417382399999e+00	 1.767766952875000e-01	 1.068679098739221e+00
-4.737615433937501e+00	 4.949747468219998e-01	 1.074724525026358e+00
-5.055813485475000e+00	 8.131727983554998e-01	 1.089118583055672e+00
-5.374011537012501e+00	 1.131370849888000e+00	 1.111831056413027e+00
-5.692209588549999e+00	 1.449568901419499e+00	 1.142831728684323e+00
-6.010407640087500e+00	 1.767766952950000e+00	 1.182090383455498e+00
-2.687005768478000e+00	-1.272792206160000e+00	 1.071364485040228e+00
-3.005203820014500e+00	-9.545941546204999e-01	 1.048387694913386e+00
-3.323401871551200e+00	-6.363961030819999e-01	 1.037526823107393e+00
-3.641599923088100e+00	-3.181980515444999e-01	 1.032981021459897e+00
-3.959797974625201e+00	-7.999906292965876e-12	 1.034720073556624e+00
-4.277996026162501e+00	 3.181980515274999e-01	 1.042713762983331e+00
-4.596194077699999e+00	 6.363961030619998e-01	 1.056931873325801e+00
-4.914392129237699e+00	 9.545941545954997e-01	 1.077344188169845e+00
-5.232590180775600e+00	 1.272792206128000e+00	 1.103920491101303e+00
-5.550788232313700e+00	 1.590990257659500e+00	 1.136630565706043e+00
-5.868986283852000e+00	 1.909188309190000e+00	 1.175444195569961e+00
-2.545584412244500e+00	-1.131370849920000e+00	 9.835530139125059e-01
-2.863782463779800e+00	-8.131727983804999e-01	 9.780840525399366e-01
-3.181980515315500e+00	-4.949747468420002e-01	 9.813556430331660e-01
-3.500178566851600e+00	-1.767766953045000e-01	 9.905077252772156e-01
-3.818376618388100e+00	 1.414213562320000e-01	 1.003790234024881e+00
-4.136574669925000e+00	 4.596194077674999e-01	 1.021172952861928e+00
-4.454772721462300e+00	 7.778174593019997e-01	 1.042625665374139e+00
-4.772970773000001e+00	 1.096015510835500e+00	 1.068118155147317e+00
-5.091168824538100e+00	 1.414213562368000e+00	 1.097620205767286e+00
-5.409366876076600e+00	 1.732411613899500e+00	 1.131101600819887e+00
-5.727564927615500e+00	 2.050609665430000e+00	 1.168532123890981e+00
-2.404163056012000e+00	-9.899494936800002e-01	 9.041364048640234e-01
-2.722361107545900e+00	-6.717514421405002e-01	 9.168356451424605e-01
-3.040559159080400e+00	-3.535533906020001e-01	 9.324536654848554e-01
-3.358757210615499e+00	-3.535533906450004e-02	 9.543655497349074e-01
-3.676955262151200e+00	 2.828427124719999e-01	 9.782534332479440e-01
-3.995153313687501e+00	 6.010407640074998e-01	 1.004087099609744e+00
-4.313351365224400e+00	 9.192388155419996e-01	 1.031836332406102e+00
-4.631549416761900e+00	 1.237436867075500e+00	 1.061470915222815e+00
-4.949747468300000e+00	 1.555634918607999e+00	 1.092960631645697e+00
-5.267945519838699e+00	 1.873832970139499e+00	 1.126275265260570e+00
-5.586143571378001e+00	 2.192031021670000e+00	 1.161384599653268e+00
-2.262741699780500e+00	-8.485281374400002e-01	 8.331146578948181e-01
-2.580939751312800e+00	-5.303300859005001e-01	 8.630420283806572e-01
-2.899137802845901e+00	-2.121320343620002e-01	 8.916347269203647e-01
-3.217335854379800e+00	 1.060660171754999e-01	 9.245849260677294e-01
-3.535533905914500e+00	 4.242640687120000e-01	 9.581401024605636e-01
-3.853731957450000e+00	 7.424621202474999e-01	 9.914866344615278e-01
-4.171930008986300e+00	 1.060660171782000e+00	 1.024594305656427e+00
-4.490128060523401e+00	 1.378858223315500e+00	 1.057432899631069e+00
-4.808326112061299e+00	 1.697056274847999e+00	 1.089972199971260e+00
-5.126524163600000e+00	 2.015254326379500e+00	 1.122181990262811e+00
-5.444722215139500e+00	 2.333452377910000e+00	 1.154032054091532e+00
-2.121320343550000e+00	-7.071067812000000e-01	 7.704877730049429e-01
-2.439518395080500e+00	-3.889087296604999e-01	 8.167032022545709e-01
-2.757716446612001e+00	-7.071067812200003e-02	 8.594808850259651e-01
-3.075914498144500e+00	 2.474873734155001e-01	 9.011962855104483e-01
-3.394112549678000e+00	 5.656854249520001e-01	 9.434806728974982e-01
-3.712310601212500e+00	 8.838834764874999e-01	 9.834019886520265e-01
-4.030508652748000e+00	 1.202081528022000e+00	 1.020930016359860e+00
-4.348706704284500e+00	 1.520279579555500e+00	 1.056034539606814e+00
-4.666904755821999e+00	 1.838477631088000e+00	 1.088685341978701e+00
-4.985102807360500e+00	 2.156675682619500e+00	 1.118852207061324e+00
-5.303300858900000e+00	 2.474873734150000e+00	 1.146504918440482e+00
-6.717514421250000e+00	 1.060660171750000e+00	 1.210267972766627e+00
-7.035712472780501e+00	 1.378858223280500e+00	 1.185361983790530e+00
-7.353910524312001e+00	 1.697056274812001e+00	 1.162846650713981e+00
-7.672108575844502e+00	 2.015254326344501e+00	 1.142691757123417e+00
-7.990306627378001e+00	 2.333452377878001e+00	 1.124867086605248e+00
-8.308504678912502e+00	 2.651650429412501e+00	 1.109342422745854e+00
-8.626702730448002e+00	 2.969848480948002e+00	 1.096087549131583e+00
-8.944900781984501e+00	 3.288046532484502e+00	 1.084872020924027e+00
-9.263098833522003e+00	 3.606244584022002e+00	 1.074193142818509e+00
-9.581296885060503e+00	 3.924442635560502e+00	 1.065390505498500e+00
-9.899494936600000e+00	 4.242640687100000e+00	 1.060857341335828e+00
-6.576093065019500e+00	 1.202081527990000e+00	 1.205407672368985e+00
-6.894291116551620e+00	 1.520279579520500e+00	 1.180404891302709e+00
-7.212489168084181e+00	 1.838477631052000e+00	 1.157891961701966e+00
-7.530687219617181e+00	 2.156675682584500e+00	 1.137838667153169e+00
-7.848885271150623e+00	 2.474873734118002e+00	 1.120214791242704e+00
-8.167083322684501e+00	 2.793071785652501e+00	 1.104990117556927e+00
-8.485281374218822e+00	 3.111269837188002e+00	 1.092134429682169e+00
-8.803479425753583e+00	 3.429467888724502e+00	 1.081617511204733e+00
-9.121677477288781e+00	 3.747665940262002e+00	 1.070255861265935e+00
-9.439875528824423e+00	 4.065863991800503e+00	 1.063207484675668e+00
-9.758073580360499e+00	 4.384062043340000e+00	 1.060583421043074e+00
-6.434671708788000e+00	 1.343502884230000e+00	 1.200129332004337e+00
-6.752869760321580e+00	 1.661700935760500e+00	 1.175085047463625e+00
-7.071067811855121e+00	 1.979898987292001e+00	 1.152629809954442e+00
-7.389265863388621e+00	 2.298097038824501e+00	 1.132733403063175e+00
-7.707463914922081e+00	 2.616295090358001e+00	 1.115365610376185e+00
-8.025661966455500e+00	 2.934493141892502e+00	 1.100496215479803e+00
-8.343860017988883e+00	 3.252691193428001e+00	 1.088095001960337e+00
-8.662058069522221e+00	 3.570889244964502e+00	 1.076363960276814e+00
-8.980256121055524e+00	 3.889087296502002e+00	 1.065843454942571e+00
-9.298454172588782e+00	 4.207285348040504e+00	 1.060612905665011e+00
-9.616652224122001e+00	 4.525483399580000e+00	 1.059961509274371e+00
-6.293250352555502e+00	 1.484924240470000e+00	 1.194463382907399e+00
-6.611448404090379e+00	 1.803122292000500e+00	 1.169432883508003e+00
-6.929646455624821e+00	 2.121320343532000e+00	 1.147090626706146e+00
-7.247844507158822e+00	 2.439518395064501e+00	 1.127406396088183e+00
-7.566042558692383e+00	 2.757716446598002e+00	 1.110349975240444e+00
-7.884240610225503e+00	 3.075914498132502e+00	 1.095891147749236e+00
-8.202438661758180e+00	 3.394112549668002e+00	 1.083999697200845e+00
-8.520636713290424e+00	 3.712310601204502e+00	 1.070988466138718e+00
-8.838834764822220e+00	 4.030508652742003e+00	 1.060953383580078e+00
-9.157032816353581e+00	 4.348706704280503e+00	 1.057604228347393e+00
-9.475230867884502e+00	 4.666904755820000e+00	 1.058989066059788e+00
-6.151828996322000e+00	 1.626345596710000e+00	 1.188440256312882e+00
-6.470027047858022e+00	 1.944543648240500e+00	 1.163478830670571e+00
-6.788225099393281e+00	 2.262741699772000e+00	 1.141304843191817e+00
-7.106423150927781e+00	 2.580939751304501e+00	 1.121888077462940e+00
-7.424621202461521e+00	 2.899137802838001e+00	 1.105198317070236e+00
-7.742819253994502e+00	 3.217335854372501e+00	 1.091205345599987e+00
-8.061017305526722e+00	 3.535533905908001e+00	 1.078537680687497e+00
-8.379215357058184e+00	 3.853731957444502e+00	 1.065744131347039e+00
-8.697413408588881e+00	 4.171930008982002e+00	 1.056860479230202e+00
-9.015611460118825e+00	 4.490128060520504e+00	 1.054178912527253e+00
-9.333809511648001e+00	 4.808326112060000e+00	 1.057663551352969e+00
-6.010407640087500e+00	 1.767766952950000e+00	 1.182090383455498e+00
-6.328605691624501e+00	 2.085965004480500e+00	 1.157253320186056e+00
-6.646803743160499e+00	 2.404163056012000e+00	 1.135302890646194e+00
-6.965001794695501e+00	 2.722361107544501e+00	 1.116208878422193e+00
-7.283199846229500e+00	 3.040559159078001e+00	 1.099941067100317e+00
-7.601397897762502e+00	 3.358757210612501e+00	 1.086469240266814e+00
-7.919595949294501e+00	 3.676955262148001e+00	 1.072278268388069e+00
-8.237794000825502e+00	 3.995153313684502e+00	 1.060599447918000e+00
-8.555992052355503e+00	 4.313351365222003e+00	 1.053034234750740e+00
-8.874190103884501e+00	 4.631549416760502e+00	 1.050334417932597e+00
-9.192388155412500e+00	 4.949747468300000e+00	 1.055982425031130e+00
-5.868986283852000e+00	 1.909188309190000e+00	 1.175444195569961e+00
-6.187184335389821e+00	 2.227386360720500e+00	 1.150786783289184e+00
-6.505382386926480e+00	 2.545584412252001e+00	 1.129115200304015e+00
-6.823580438461981e+00	 2.863782463784501e+00	 1.110399230200693e+00
-7.141778489996321e+00	 3.181980515318001e+00	 1.094608656565443e+00
-7.459976541529504e+00	 3.500178566852502e+00	 1.080810703439403e+00
-7.778174593061524e+00	 3.818376618388002e+00	 1.066037583578545e+00
-8.096372644592384e+00	 4.136574669924503e+00	 1.055522913652870e+00
-8.414570696122084e+00	 4.454772721462003e+00	 1.049325564529739e+00
-8.732768747650622e+00	 4.772970773000503e+00	 1.047504407681270e+00
-9.050966799177999e+00	 5.091168824540000e+00	 1.053943146895058e+00
-5.727564927615500e+00	 2.050609665430000e+00	 1.168532123890981e+00
-6.045762979153980e+00	 2.368807716960500e+00	 1.144109651214682e+00
-6.363961030691222e+00	 2.687005768492001e+00	 1.122772203400022e+00
-6.682159082227220e+00	 3.005203820024501e+00	 1.104489564033190e+00
-7.000357133761982e+00	 3.323401871558001e+00	 1.089231516700372e+00
-7.318555185295501e+00	 3.641599923092502e+00	 1.073547377310689e+00
-7.636753236827782e+00	 3.959797974628001e+00	 1.059784120828442e+00
-7.954951288358822e+00	 4.277996026164502e+00	 1.050483025899927e+00
-8.273149339888622e+00	 4.596194077702003e+00	 1.045702965670142e+00
-8.591347391417182e+00	 4.914392129240502e+00	 1.045502812853452e+00
-8.909545442944500e+00	 5.232590180780000e+00	 1.051543176669105e+00
-5.586143571378001e+00	 2.192031021670000e+00	 1.161384599653268e+00
-5.904341622916980e+00	 2.510229073200500e+00	 1.137252355197279e+00
-6.222539674454722e+00	 2.828427124732001e+00	 1.116304331168954e+00
-6.540737725991222e+00	 3.146625176264501e+00	 1.098510311154435e+00
-6.858935777526482e+00	 3.464823227798002e+00	 1.083501317823981e+00
-7.177133829060503e+00	 3.783021279332502e+00	 1.066190347606437e+00
-7.495331880593283e+00	 4.101219330868002e+00	 1.053486377278384e+00
-7.813529932124821e+00	 4.419417382404501e+00	 1.045448281554457e+00
-8.131727983655123e+00	 4.737615433942002e+00	 1.042134934821887e+00
-8.449926035184184e+00	 5.055813485480503e+00	 1.043605211037315e+00
-8.768124086712000e+00	 5.374011537020000e+00	 1.049917983726692e+00
-5.444722215139500e+00	 2.333452377910000e+00	 1.154032054091532e+00
-5.762920266678821e+00	 2.651650429440500e+00	 1.130245326471699e+00
-6.081118318216979e+00	 2.969848480972000e+00	 1.109742014845553e+00
-6.399316369753981e+00	 3.288046532504501e+00	 1.092491902799181e+00
-6.717514421289820e+00	 3.606244584038000e+00	 1.075114092165491e+00
-7.035712472824502e+00	 3.924442635572501e+00	 1.058708110224207e+00
-7.353910524358022e+00	 4.242640687108002e+00	 1.047112849616000e+00
-7.672108575890382e+00	 4.560838738644502e+00	 1.040387177058735e+00
-7.990306627421581e+00	 4.879036790182001e+00	 1.038589968181899e+00
-8.308504678951623e+00	 5.197234841720502e+00	 1.041780098184430e+00
-8.626702730480499e+00	 5.515432893260000e+00	 1.050016441834614e+00
-5.303300858900000e+00	 2.474873734150000e+00	 1.146504918440482e+00
-5.621498910439501e+00	 2.793071785680501e+00	 1.123118996272670e+00
-5.939696961978000e+00	 3.111269837212001e+00	 1.103115685664560e+00
-6.257895013515501e+00	 3.429467888744500e+00	 1.086464770202181e+00
-6.576093065052001e+00	 3.747665940278001e+00	 1.066520713804052e+00
-6.894291116587500e+00	 4.065863991812501e+00	 1.051069161643975e+00
-7.212489168122002e+00	 4.384062043348002e+00	 1.040632034075906e+00
-7.530687219655502e+00	 4.702260094884503e+00	 1.035268208402018e+00
-7.848885271188003e+00	 5.020458146422002e+00	 1.035036561494076e+00
-8.167083322719503e+00	 5.338656197960502e+00	 1.039995969793335e+00
-8.485281374250000e+00	 5.656854249500000e+00	 1.050205309310435e+00
-2.121320343550000e+00	-7.071067812000000e-01	 7.704877730049429e-01
-2.439518395080500e+00	-3.889087296604999e-01	 8.167032022545709e-01
-2.757716446612001e+00	-7.071067812200003e-02	 8.594808850259651e-01
-3.075914498144500e+00	 2.474873734155001e-01	 9.011962855104483e-01
-3.394112549678000e+00	 5.656854249520001e-01	 9.434806728974982e-01
-3.712310601212500e+00	 8.838834764874999e-01	 9.834019886520265e-01
-4.030508652748000e+00	 1.202081528022000e+00	 1.020930016359860e+00
-4.348706704284500e+00	 1.520279579555500e+00	 1.056034539606814e+00
-4.666904755821999e+00	 1.838477631088000e+00	 1.088685341978701e+00
-4.985102807360500e+00	 2.156675682619500e+00	 1.118852207061324e+00
-5.303300858900000e+00	 2.474873734150000e+00	 1.146504918440482e+00
-1.979898987319500e+00	-5.656854249599998e-01	 7.121747203370796e-01
-2.298097038848379e+00	-2.474873734204999e-01	 7.654454909576336e-01
-2.616295090378420e+00	 7.071067811800011e-02	 8.146098210544960e-01
-2.934493141909620e+00	 3.889087296555002e-01	 8.596677106274064e-01
-3.252691193441979e+00	 7.071067811920001e-01	 9.056602450596458e-01
-3.570889244975500e+00	 1.025304832727501e+00	 9.486631386802243e-01
-3.889087296510179e+00	 1.343502884262000e+00	 9.885526975005845e-01
-4.207285348046018e+00	 1.661700935795500e+00	 1.025298705106700e+00
-4.525483399583019e+00	 1.979898987328000e+00	 1.058870945084538e+00
-4.843681451121180e+00	 2.298097038859500e+00	 1.089239201020063e+00
-5.161879502660500e+00	 2.616295090390000e+00	 1.116373256499232e+00
-1.838477631088000e+00	-4.242640687199998e-01	 6.556264168546975e-01
-2.156675682615820e+00	-1.060660171804998e-01	 7.159420314713976e-01
-2.474873734144881e+00	 2.121320343580003e-01	 7.714825115190659e-01
-2.793071785675179e+00	 5.303300858955002e-01	 8.222478569975660e-01
-3.111269837206720e+00	 8.485281374320001e-01	 8.704427642979020e-01
-3.429467888739499e+00	 1.166726188967500e+00	 9.165187279682433e-01
-3.747665940273520e+00	 1.484924240502000e+00	 9.587613100849011e-01
-4.065863991808780e+00	 1.803122292035500e+00	 9.971402942339922e-01
-4.384062043345279e+00	 2.121320343568000e+00	 1.031625464001635e+00
-4.702260094883019e+00	 2.439518395099500e+00	 1.062186602973942e+00
-5.020458146422000e+00	 2.757716446630000e+00	 1.088793494737032e+00
-1.697056274855500e+00	-2.828427124799996e-01	 6.008428625576672e-01
-2.015254326382820e+00	 3.535533905950033e-02	 6.681928237957580e-01
-2.333452377911380e+00	 3.535533905980004e-01	 7.300989564195881e-01
-2.651650429441180e+00	 6.717514421355005e-01	 7.865612604291323e-01
-2.969848480972219e+00	 9.899494936720002e-01	 8.378586618469559e-01
-3.288046532504500e+00	 1.308147545207500e+00	 8.869991877507859e-01
-3.606244584038019e+00	 1.626345596742000e+00	 9.315862853475209e-01
-3.924442635572780e+00	 1.944543648275500e+00	 9.715897382234115e-01
-4.242640687108779e+00	 2.262741699808001e+00	 1.006979329964714e+00
-4.560838738646019e+00	 2.580939751339500e+00	 1.037724844157689e+00
-4.879036790184501e+00	 2.899137802870000e+00	 1.063796064388606e+00
-1.555634918622000e+00	-1.414213562399995e-01	 5.478240574458474e-01
-1.873832970149380e+00	 1.767766952995005e-01	 6.221978679305915e-01
-2.192031021677920e+00	 4.949747468380004e-01	 6.904591557559648e-01
-2.510229073207619e+00	 8.131727983755004e-01	 7.526079209220312e-01
-2.828427124738480e+00	 1.131370849912001e+00	 8.086441634288613e-01
-3.146625176270500e+00	 1.449568901447501e+00	 8.601349492625481e-01
-3.464823227803679e+00	 1.767766952982001e+00	 9.070580545231530e-01
-3.783021279338020e+00	 2.085965004515500e+00	 9.486774683096754e-01
-4.101219330873520e+00	 2.404163056048001e+00	 9.849629742085011e-01
-4.419417382410180e+00	 2.722361107579501e+00	 1.015884355806031e+00
-4.737615433947999e+00	 3.040559159110000e+00	 1.041411396688679e+00
-1.414213562387499e+00	 6.106226635438361e-16	 4.965700015190841e-01
-1.732411613915499e+00	 3.181980515395006e-01	 5.779571638757695e-01
-2.050609665444499e+00	 6.363961030780007e-01	 6.525631095280928e-01
-2.368807716974500e+00	 9.545941546155008e-01	 7.203878384761793e-01
-2.687005768505500e+00	 1.272792206152001e+00	 7.814313507201824e-01
-3.005203820037500e+00	 1.590990257687500e+00	 8.359564437382198e-01
-3.323401871570500e+00	 1.909188309222001e+00	 8.852070488465016e-01
-3.641599923104499e+00	 2.227386360755500e+00	 9.284339157274996e-01
-3.959797974639499e+00	 2.545584412288000e+00	 9.656068279677210e-01
-4.277996026175499e+00	 2.863782463819500e+00	 9.966955691536956e-01
-4.596194077712499e+00	 3.181980515350000e+00	 1.021669922871979e+00
-1.272792206151999e+00	 1.414213562400008e-01	 4.470806947772101e-01
-1.590990257681180e+00	 4.596194077795007e-01	 5.354707116311539e-01
-1.909188309211119e+00	 7.778174593180007e-01	 6.164108177358540e-01
-2.227386360741819e+00	 1.096015510855501e+00	 6.899010130914885e-01
-2.545584412273279e+00	 1.414213562392001e+00	 7.559412976982658e-01
-2.863782463805499e+00	 1.732411613927501e+00	 8.145316715564336e-01
-3.181980515338480e+00	 2.050609665462001e+00	 8.660636995522694e-01
-3.500178566872219e+00	 2.368807716995501e+00	 9.108895117116007e-01
-3.818376618406719e+00	 2.687005768528000e+00	 9.489413224770989e-01
-4.136574669941979e+00	 3.005203820059501e+00	 9.801889154354151e-01
-4.454772721477998e+00	 3.323401871590000e+00	 1.004602074173241e+00
-1.131370849915499e+00	 2.828427124800009e-01	 3.993561372200500e-01
-1.449568901446419e+00	 6.010407640195008e-01	 4.947385111965917e-01
-1.767766952977779e+00	 9.192388155580008e-01	 5.820022803791305e-01
-2.085965004509579e+00	 1.237436867095501e+00	 6.611474447678618e-01
-2.404163056041819e+00	 1.555634918632001e+00	 7.321740043630385e-01
-2.722361107574499e+00	 1.873832970167501e+00	 7.950819591649642e-01
-3.040559159107619e+00	 2.192031021702001e+00	 8.496584378751553e-01
-3.358757210641178e+00	 2.510229073235501e+00	 8.960746874966898e-01
-3.676955262175179e+00	 2.828427124768001e+00	 9.349968889713576e-01
-3.995153313709619e+00	 3.146625176299501e+00	 9.663948258859210e-01
-4.313351365244499e+00	 3.464823227830001e+00	 9.894782721695139e-01
-9.899494936779990e-01	 4.242640687200010e-01	 3.533963288474109e-01
-1.308147545211219e+00	 7.424621202595010e-01	 4.557605625719249e-01
-1.626345596744479e+00	 1.060660171798001e+00	 5.493374974577857e-01
-1.944543648277780e+00	 1.378858223335501e+00	 6.341271335051960e-01
-2.262741699811119e+00	 1.697056274872001e+00	 7.101294707144252e-01
-2.580939751344499e+00	 2.015254326407501e+00	 7.773445090858133e-01
-2.899137802877919e+00	 2.333452377942001e+00	 8.357722486197731e-01
-3.217335854411379e+00	 2.651650429475501e+00	 8.840198743174812e-01
-3.535533905944879e+00	 2.969848481008001e+00	 9.238039586852236e-01
-3.853731957478419e+00	 3.288046532539501e+00	 9.553437317399462e-01
-4.171930009011999e+00	 3.606244584070001e+00	 9.709386482621871e-01
-8.485281374394988e-01	 5.656854249600012e-01	 3.092012696590942e-01
-1.166726188975579e+00	 8.838834764995012e-01	 4.185368657569798e-01
-1.484924240511219e+00	 1.202081528038001e+00	 5.184164689716827e-01
-1.803122292046419e+00	 1.520279579575501e+00	 6.088400793033812e-01
-2.121320343581179e+00	 1.838477631112001e+00	 6.898076967523428e-01
-2.439518395115499e+00	 2.156675682647502e+00	 7.613193213189280e-01
-2.757716446649379e+00	 2.474873734182001e+00	 8.233749530035847e-01
-3.075914498182819e+00	 2.793071785715501e+00	 8.747555034086840e-01
-3.394112549715819e+00	 3.111269837248001e+00	 9.153929628534203e-01
-3.712310601248379e+00	 3.429467888779500e+00	 9.470660642322264e-01
-4.030508652780499e+00	 3.747665940310001e+00	 9.543772685831045e-01
-7.071067812000000e-01	 7.071067812000000e-01	 2.667709596548842e-01
-1.025304832739500e+00	 1.025304832739500e+00	 3.830674207515776e-01
-1.343502884278000e+00	 1.343502884278000e+00	 4.892391949206721e-01
-1.661700935815500e+00	 1.661700935815500e+00	 5.852862821622984e-01
-1.979898987352000e+00	 1.979898987352000e+00	 6.712086824767041e-01
-2.298097038887500e+00	 2.298097038887500e+00	 7.470063958642463e-01
-2.616295090422000e+00	 2.616295090422000e+00	 8.126794223253951e-01
-2.934493141955500e+00	 2.934493141955500e+00	 8.682277618607329e-01
-3.252691193488000e+00	 3.252691193488000e+00	 9.097943327106727e-01
-3.570889245019500e+00	 3.570889245019500e+00	 9.345012279878531e-01
-3.889087296550000e+00	 3.889087296550000e+00	 9.397626574037319e-01
-5.303300858900000e+00	 2.474873734150000e+00	 1.146504918440482e+00
-5.621498910439501e+00	 2.793071785680501e+00	 1.123118996272670e+00
-5.939696961978000e+00	 3.111269837212001e+00	 1.103115685664560e+00
-6.257895013515501e+00	 3.429467888744500e+00	 1.086464770202181e+00
-6.576093065052001e+00	 3.747665940278001e+00	 1.066520713804052e+00
-6.894291116587500e+00	 4.065863991812501e+00	 1.051069161643975e+00
-7.212489168122002e+00	 4.384062043348002e+00	 1.040632034075906e+00
-7.530687219655502e+00	 4.702260094884503e+00	 1.035268208402018e+00
-7.848885271188003e+00	 5.020458146422002e+00	 1.035036561494076e+00
-8.167083322719503e+00	 5.338656197960502e+00	 1.039995969793335e+00
-8.485281374250000e+00	 5.656854249500000e+00	 1.050205309310435e+00
-5.161879502660500e+00	 2.616295090390000e+00	 1.116373256499232e+00
-5.480077554200000e+00	 2.934493141920501e+00	 1.097905038337843e+00
-5.798275605738700e+00	 3.252691193452002e+00	 1.082420654599709e+00
-6.116473657276602e+00	 3.570889244984501e+00	 1.066727224496783e+00
-6.434671708813702e+00	 3.889087296518002e+00	 1.050087943039155e+00
-6.752869760350001e+00	 4.207285348052501e+00	 1.038109953125826e+00
-7.071067811885501e+00	 4.525483399588002e+00	 1.030852128099664e+00
-7.389265863420202e+00	 4.843681451124501e+00	 1.028373346505137e+00
-7.707463914954102e+00	 5.161879502662003e+00	 1.030732486456328e+00
-8.025661966487203e+00	 5.480077554200504e+00	 1.037988425636847e+00
-8.343860018019500e+00	 5.798275605740000e+00	 1.050200041299721e+00
-5.020458146422000e+00	 2.757716446630000e+00	 1.088793494737032e+00
-5.338656197961300e+00	 3.075914498160500e+00	 1.074981098486869e+00
-5.656854249500000e+00	 3.394112549692001e+00	 1.063753759523507e+00
-5.975052301038101e+00	 3.712310601224501e+00	 1.047922176504828e+00
-6.293250352575599e+00	 4.030508652758002e+00	 1.034782975198636e+00
-6.611448404112502e+00	 4.348706704292502e+00	 1.026010799254168e+00
-6.929646455648802e+00	 4.666904755828003e+00	 1.021664528888448e+00
-7.247844507184501e+00	 4.985102807364502e+00	 1.021803043888257e+00
-7.566042558719603e+00	 5.303300858902003e+00	 1.026485223610023e+00
-7.884240610254103e+00	 5.621498910440503e+00	 1.035769946979735e+00
-8.202438661787999e+00	 5.939696961980000e+00	 1.049716092492823e+00
-4.879036790184501e+00	 2.899137802870000e+00	 1.063796064388606e+00
-5.197234841723399e+00	 3.217335854400501e+00	 1.054377607954471e+00
-5.515432893261900e+00	 3.535533905932001e+00	 1.044401943270910e+00
-5.833630944800002e+00	 3.853731957464501e+00	 1.030481181355059e+00
-6.151828996337700e+00	 4.171930008998000e+00	 1.020574305648763e+00
-6.470027047875002e+00	 4.490128060532502e+00	 1.014740195149886e+00
-6.788225099411900e+00	 4.808326112068001e+00	 1.013037731317761e+00
-7.106423150948403e+00	 5.126524163604503e+00	 1.015525795181500e+00
-7.424621202484501e+00	 5.444722215142002e+00	 1.022263267339907e+00
-7.742819254020202e+00	 5.762920266680503e+00	 1.033309027961366e+00
-8.061017305555501e+00	 6.081118318220001e+00	 1.048721956783741e+00
-4.737615433947999e+00	 3.040559159110000e+00	 1.041411396688679e+00
-5.055813485486300e+00	 3.358757210640501e+00	 1.036124997975377e+00
-5.374011537024400e+00	 3.676955262172001e+00	 1.025034650163468e+00
-5.692209588562300e+00	 3.995153313704501e+00	 1.014372728574236e+00
-6.010407640100001e+00	 4.313351365238003e+00	 1.007430429302776e+00
-6.328605691637502e+00	 4.631549416772503e+00	 1.004266635480829e+00
-6.646803743174801e+00	 4.949747468308002e+00	 1.004940229810056e+00
-6.965001794711903e+00	 5.267945519844503e+00	 1.009510094561935e+00
-7.283199846248803e+00	 5.586143571382004e+00	 1.018035111577660e+00
-7.601397897785501e+00	 5.904341622920501e+00	 1.030574162268038e+00
-7.919595949322000e+00	 6.222539674460000e+00	 1.047186127613387e+00
-4.596194077712499e+00	 3.181980515350000e+00	 1.021669922871979e+00
-4.914392129249999e+00	 3.500178566880501e+00	 1.018273458750224e+00
-5.232590180787500e+00	 3.818376618412001e+00	 1.007236146828999e+00
-5.550788232325000e+00	 4.136574669944501e+00	 9.995653128679622e-01
-5.868986283862501e+00	 4.454772721478002e+00	 9.953198406208712e-01
-6.187184335400000e+00	 4.772970773012502e+00	 9.945586144617889e-01
-6.505382386937502e+00	 5.091168824548003e+00	 9.973405183347317e-01
-6.823580438475001e+00	 5.409366876084502e+00	 1.003724435753562e+00
-7.141778490012501e+00	 5.727564927622002e+00	 1.013769249801888e+00
-7.459976541550001e+00	 6.045762979160503e+00	 1.027533843132964e+00
-7.778174593087499e+00	 6.363961030700001e+00	 1.045077097969586e+00
-4.454772721477998e+00	 3.323401871590000e+00	 1.004602074173241e+00
-4.772970773014499e+00	 3.641599923120500e+00	 9.989946367191703e-01
-5.091168824551200e+00	 3.959797974652001e+00	 9.909749248738968e-01
-5.409366876088100e+00	 4.277996026184501e+00	 9.860274284887967e-01
-5.727564927625200e+00	 4.596194077718002e+00	 9.842110336101961e-01
-6.045762979162498e+00	 4.914392129252501e+00	 9.855846258545062e-01
-6.363961030700001e+00	 5.232590180788002e+00	 9.902070904081182e-01
-6.682159082237702e+00	 5.550788232324503e+00	 9.981373120273038e-01
-7.000357133775601e+00	 5.868986283862003e+00	 1.009434175038110e+00
-7.318555185313701e+00	 6.187184335400503e+00	 1.024156563336260e+00
-7.636753236852000e+00	 6.505382386940001e+00	 1.042363360387053e+00
-4.313351365244499e+00	 3.464823227830001e+00	 9.894782721695139e-01
-4.631549416779799e+00	 3.783021279360501e+00	 9.814893418567110e-01
-4.949747468315500e+00	 4.101219330892001e+00	 9.762194783430932e-01
-5.267945519851601e+00	 4.419417382424503e+00	 9.737275692362457e-01
-5.586143571388100e+00	 4.737615433958001e+00	 9.740725018248376e-01
-5.904341622925001e+00	 5.055813485492502e+00	 9.773131629676454e-01
-6.222539674462301e+00	 5.374011537028003e+00	 9.835084390934644e-01
-6.540737726000001e+00	 5.692209588564504e+00	 9.927172162009960e-01
-6.858935777538100e+00	 6.010407640102002e+00	 1.004998379858750e+00
-7.177133829076602e+00	 6.328605691640503e+00	 1.020410815204943e+00
-7.495331880615499e+00	 6.646803743180000e+00	 1.039013406947397e+00
-4.171930009011999e+00	 3.606244584070001e+00	 9.709386482621871e-01
-4.490128060545899e+00	 3.924442635600501e+00	 9.657260669499030e-01
-4.808326112080400e+00	 4.242640687132003e+00	 9.629383008284633e-01
-5.126524163615500e+00	 4.560838738664502e+00	 9.626342284567557e-01
-5.444722215151200e+00	 4.879036790198001e+00	 9.648727383658100e-01
-5.762920266687500e+00	 5.197234841732502e+00	 9.697127186567975e-01
-6.081118318224402e+00	 5.515432893268002e+00	 9.772130570009349e-01
-6.399316369761900e+00	 5.833630944804503e+00	 9.874326406393799e-01
-6.717514421300002e+00	 6.151828996342004e+00	 1.000430356383127e+00
-7.035712472838702e+00	 6.470027047880503e+00	 1.016265090612911e+00
-7.353910524378000e+00	 6.788225099420002e+00	 1.034995729279100e+00
-4.030508652780499e+00	 3.747665940310001e+00	 9.543772685831045e-01
-4.348706704312800e+00	 4.065863991840503e+00	 9.516733053830040e-01
-4.666904755845900e+00	 4.384062043372002e+00	 9.510998854688233e-01
-4.985102807379799e+00	 4.702260094904502e+00	 9.527158990437019e-01
-5.303300858914500e+00	 5.020458146438002e+00	 9.565802358810523e-01
-5.621498910450001e+00	 5.338656197972503e+00	 9.627517853244607e-01
-5.939696961986300e+00	 5.656854249508003e+00	 9.712894362875960e-01
-6.257895013523401e+00	 5.975052301044503e+00	 9.822520772540889e-01
-6.576093065061301e+00	 6.293250352582004e+00	 9.956985962774463e-01
-6.894291116600001e+00	 6.611448404120503e+00	 1.011687880980941e+00
-7.212489168139498e+00	 6.929646455660001e+00	 1.030278818557514e+00
-3.889087296550000e+00	 3.889087296550000e+00	 9.397626574037319e-01
-4.207285348080500e+00	 4.207285348080500e+00	 9.392995500872063e-01
-4.525483399612001e+00	 4.525483399612001e+00	 9.406727249499163e-01
-4.843681451144501e+00	 4.843681451144501e+00	 9.439410734373761e-01
-5.161879502678001e+00	 5.161879502678001e+00	 9.491634865654066e-01
-5.480077554212501e+00	 5.480077554212501e+00	 9.563988549200388e-01
-5.798275605748001e+00	 5.798275605748001e+00	 9.657060686574046e-01
-6.116473657284502e+00	 6.116473657284502e+00	 9.771440175036417e-01
-6.434671708822003e+00	 6.434671708822003e+00	 9.907715907547865e-01
-6.752869760360502e+00	 6.752869760360502e+00	 1.006647677276677e+00
-7.071067811900000e+00	 7.071067811900000e+00	 1.024831165504847e+00
-4.242640687100000e+00	-2.828427124700000e+00	 1.809371894710191e+00
-4.560838738639499e+00	-2.510229073179000e+00	 1.668009987159700e+00
-4.879036790178001e+00	-2.192031021656000e+00	 1.543081933531254e+00
-5.197234841715500e+00	-1.873832970131000e+00	 1.434557517409139e+00
-5.515432893252001e+00	-1.555634918604000e+00	 1.342406522377899e+00
-5.833630944787501e+00	-1.237436867075000e+00	 1.266598732022346e+00
-6.151828996322000e+00	-9.192388155440001e-01	 1.207103929927552e+00
-6.470027047855501e+00	-6.010407640110003e-01	 1.163891899678858e+00
-6.788225099388001e+00	-2.828427124760003e-01	 1.136932424861867e+00
-7.106423150919500e+00	 3.535533906099975e-02	 1.126195289062448e+00
-7.424621202450000e+00	 3.535533906000000e-01	 1.131650275866731e+00
-4.171930008980000e+00	-2.757716446599001e+00	 1.818517388886792e+00
-4.490128060519501e+00	-2.439518395074395e+00	 1.673767585122228e+00
-4.808326112058001e+00	-2.121320343548180e+00	 1.546141210625489e+00
-5.126524163595501e+00	-1.803122292020355e+00	 1.435608048980954e+00
-5.444722215132001e+00	-1.484924240490920e+00	 1.342137883773276e+00
-5.762920266667500e+00	-1.166726188959875e+00	 1.265700498587363e+00
-6.081118318201999e+00	-8.485281374272197e-01	 1.206265677008387e+00
-6.399316369735499e+00	-5.303300858929552e-01	 1.163803202621783e+00
-6.717514421268002e+00	-2.121320343570802e-01	 1.138282859013252e+00
-7.035712472799500e+00	 1.060660171804048e-01	 1.129674429768754e+00
-7.353910524330002e+00	 4.242640687195001e-01	 1.137947698474517e+00
-4.101219330860000e+00	-2.687005768496000e+00	 1.825884833839867e+00
-4.419417382399500e+00	-2.368807716968180e+00	 1.677885400631286e+00
-4.737615433938000e+00	-2.050609665439120e+00	 1.547698972036240e+00
-5.055813485475500e+00	-1.732411613908820e+00	 1.435295331639230e+00
-5.374011537011999e+00	-1.414213562377280e+00	 1.340644263025020e+00
-5.692209588547501e+00	-1.096015510844500e+00	 1.263715549778635e+00
-6.010407640082000e+00	-7.778174593104800e-01	 1.204478975485354e+00
-6.328605691615499e+00	-4.596194077752201e-01	 1.162904323730722e+00
-6.646803743147999e+00	-1.414213562387203e-01	 1.138961378100546e+00
-6.965001794679501e+00	 1.767766952990197e-01	 1.132619922180888e+00
-7.283199846210000e+00	 4.949747468380000e-01	 1.143849739558075e+00
-4.030508652739999e+00	-2.616295090391000e+00	 1.831478033473886e+00
-4.348706704279500e+00	-2.298097038860355e+00	 1.680367237591310e+00
-4.666904755818000e+00	-1.979898987328820e+00	 1.547759021667919e+00
-4.985102807355500e+00	-1.661700935796395e+00	 1.433623169288353e+00
-5.303300858892000e+00	-1.343502884263080e+00	 1.337929464037503e+00
-5.621498910427500e+00	-1.025304832728875e+00	 1.260647689500517e+00
-5.939696961962000e+00	-7.071067811937801e-01	 1.201747629262802e+00
-6.257895013495498e+00	-3.889087296577952e-01	 1.161199066910021e+00
-6.576093065028001e+00	-7.071067812092036e-02	 1.138971786028091e+00
-6.894291116559501e+00	 2.474873734168447e-01	 1.135035570203190e+00
-7.212489168090002e+00	 5.656854249555000e-01	 1.149360203021750e+00
-3.959797974620000e+00	-2.545584412284000e+00	 1.835300791693316e+00
-4.277996026159500e+00	-2.227386360750920e+00	 1.681216899906733e+00
-4.596194077698001e+00	-1.909188309217280e+00	 1.546325163424936e+00
-4.914392129235500e+00	-1.590990257683080e+00	 1.430595365832709e+00
-5.232590180772000e+00	-1.272792206148320e+00	 1.333997290715090e+00
-5.550788232307500e+00	-9.545941546130002e-01	 1.256500721657366e+00
-5.868986283842000e+00	-6.363961030771200e-01	 1.198075442245078e+00
-6.187184335375502e+00	-3.181980515406801e-01	 1.158691236064017e+00
-6.505382386908001e+00	-3.680306059905547e-12	 1.138317886700226e+00
-6.823580438439499e+00	 3.181980515338796e-01	 1.136925177740001e+00
-7.141778489970000e+00	 6.363961030720000e-01	 1.154482892769887e+00
-3.889087296500000e+00	-2.474873734175000e+00	 1.837356912402609e+00
-4.207285348039500e+00	-2.156675682639875e+00	 1.680438191481981e+00
-4.525483399578001e+00	-1.838477631104500e+00	 1.543401201211686e+00
-4.843681451115501e+00	-1.520279579568875e+00	 1.426215725176675e+00
-5.161879502652000e+00	-1.202081528033000e+00	 1.328851546962145e+00
-5.480077554187500e+00	-8.838834764968750e-01	 1.251278450153533e+00
-5.798275605722000e+00	-5.656854249605001e-01	 1.193466218336526e+00
-6.116473657255501e+00	-2.474873734238751e-01	 1.155384635097053e+00
-6.434671708788001e+00	 7.071067811299972e-02	 1.137003484021291e+00
-6.752869760319499e+00	 3.889087296501247e-01	 1.138292548695660e+00
-7.071067811850000e+00	 7.071067811875000e-01	 1.159221612706828e+00
-3.818376618380000e+00	-2.404163056064000e+00	 1.837650199506219e+00
-4.136574669919500e+00	-2.085965004527220e+00	 1.678034916221474e+00
-4.454772721457999e+00	-1.767766952990480e+00	 1.538990938932566e+00
-4.772970772995500e+00	-1.449568901453780e+00	 1.420488051224630e+00
-5.091168824532001e+00	-1.131370849917120e+00	 1.322496036683029e+00
-5.409366876067501e+00	-8.131727983804999e-01	 1.244984678893368e+00
-5.727564927602001e+00	-4.949747468439201e-01	 1.187923761441487e+00
-6.045762979135501e+00	-1.767766953073802e-01	 1.151283067913465e+00
-6.363961030667999e+00	 1.414213562291197e-01	 1.135032381895620e+00
-6.682159082199498e+00	 4.596194077655796e-01	 1.139141486974506e+00
-7.000357133730001e+00	 7.778174593020000e-01	 1.163580166736915e+00
-3.747665940260000e+00	-2.333452377951000e+00	 1.836184456908593e+00
-4.065863991799501e+00	-2.015254326412955e+00	 1.674010878029623e+00
-4.384062043338000e+00	-1.697056274875220e+00	 1.533098180491967e+00
-4.702260094875499e+00	-1.378858223337795e+00	 1.413416147880943e+00
-5.020458146412000e+00	-1.060660171800680e+00	 1.314934563782098e+00
-5.338656197947500e+00	-7.424621202638750e-01	 1.237623211781214e+00
-5.656854249482000e+00	-4.242640687273802e-01	 1.181451875464300e+00
-5.975052301015500e+00	-1.060660171911951e-01	 1.146390338417589e+00
-6.293250352547999e+00	 2.121320343446796e-01	 1.132408384227549e+00
-6.611448404079500e+00	 5.303300858802448e-01	 1.139475796480874e+00
-6.929646455609999e+00	 8.485281374155000e-01	 1.167562358764489e+00
-3.676955262140000e+00	-2.262741699836000e+00	 1.832963488514162e+00
-3.995153313679500e+00	-1.944543648297080e+00	 1.668369880810843e+00
-4.313351365218000e+00	-1.626345596758720e+00	 1.525726729794276e+00
-4.631549416755501e+00	-1.308147545220920e+00	 1.405003819049980e+00
-4.949747468292000e+00	-9.899494936836799e-01	 1.306170932163705e+00
-5.267945519827501e+00	-6.717514421470001e-01	 1.229197852721416e+00
-5.586143571362000e+00	-3.535533906108801e-01	 1.174054364309301e+00
-5.904341622895500e+00	-3.535533907532012e-02	 1.140710250513757e+00
-6.222539674428001e+00	 2.828427124596797e-01	 1.129135294921411e+00
-6.540737725959501e+00	 6.010407639941197e-01	 1.139299281119102e+00
-6.858935777490000e+00	 9.192388155280000e-01	 1.171171992693890e+00
-3.606244584020000e+00	-2.192031021719000e+00	 1.827991098227365e+00
-3.924442635559501e+00	-1.873832970179595e+00	 1.661115728469536e+00
-4.242640687098000e+00	-1.555634918640980e+00	 1.516880390743872e+00
-4.560838738635500e+00	-1.237436867103155e+00	 1.395254868636106e+00
-4.879036790172001e+00	-9.192388155661200e-01	 1.296208945732199e+00
-5.197234841707501e+00	-6.010407640298751e-01	 1.219712405618314e+00
-5.515432893241999e+00	-2.828427124944200e-01	 1.165735031880824e+00
-5.833630944775500e+00	 3.535533904024484e-02	 1.134246608106301e+00
-6.151828996308001e+00	 3.535533905741198e-01	 1.125216917881537e+00
-6.470027047839500e+00	 6.717514421072047e-01	 1.138615744793521e+00
-6.788225099370000e+00	 9.899494936395000e-01	 1.174412872429458e+00
-3.535533905900000e+00	-2.121320343600000e+00	 1.821271089952619e+00
-3.853731957439500e+00	-1.803122292060500e+00	 1.652252224910102e+00
-4.171930008977999e+00	-1.484924240522000e+00	 1.506562967245127e+00
-4.490128060515501e+00	-1.166726188984500e+00	 1.384173100543677e+00
-4.808326112052000e+00	-8.485281374479999e-01	 1.285052408391925e+00
-5.126524163587500e+00	-5.303300859125000e-01	 1.209170674376244e+00
-5.444722215122000e+00	-2.121320343780000e-01	 1.156497682083199e+00
-5.762920266655501e+00	 1.060660171554999e-01	 1.127003215099550e+00
-6.081118318188000e+00	 4.242640686879998e-01	 1.120657057012256e+00
-6.399316369719500e+00	 7.424621202194999e-01	 1.137428991408467e+00
-6.717514421250000e+00	 1.060660171750000e+00	 1.177288801875530e+00
-7.424621202450000e+00	 3.535533906000000e-01	 1.131650275866731e+00
-7.742819253980501e+00	 6.717514421390002e-01	 1.129074450247869e+00
-8.061017305512001e+00	 9.899494936760007e-01	 1.126808390221010e+00
-8.379215357044501e+00	 1.308147545211001e+00	 1.124821879372388e+00
-8.697413408578001e+00	 1.626345596744001e+00	 1.123084701288242e+00
-9.015611460112503e+00	 1.944543648275002e+00	 1.118594623711913e+00
-9.333809511648003e+00	 2.262741699804002e+00	 1.113098618193308e+00
-9.652007563184501e+00	 2.580939751331002e+00	 1.108700411801479e+00
-9.970205614722001e+00	 2.899137802856002e+00	 1.105355018825098e+00
-1.028840366626050e+01	 3.217335854379002e+00	 1.103017447452002e+00
-1.060660171780000e+01	 3.535533905900000e+00	 1.100360133265504e+00
-7.353910524330002e+00	 4.242640687195001e-01	 1.137947698474517e+00
-7.672108575860500e+00	 7.424621202584155e-01	 1.134255333688163e+00
-7.990306627392001e+00	 1.060660171795361e+00	 1.130857259104091e+00
-8.308504678924502e+00	 1.378858223330336e+00	 1.127723258308515e+00
-8.626702730458002e+00	 1.697056274863341e+00	 1.124823114887653e+00
-8.944900781992503e+00	 2.015254326394377e+00	 1.120350291018963e+00
-9.263098833528000e+00	 2.333452377923441e+00	 1.113845883603544e+00
-9.581296885064502e+00	 2.651650429450537e+00	 1.108465587776157e+00
-9.899494936602004e+00	 2.969848480975663e+00	 1.104164413826124e+00
-1.021769298814050e+01	 3.288046532498818e+00	 1.100897369673063e+00
-1.053589103968000e+01	 3.606244584020000e+00	 1.096338520572784e+00
-7.283199846210000e+00	 4.949747468380000e-01	 1.143849739558075e+00
-7.601397897740502e+00	 8.131727983766603e-01	 1.139089581033849e+00
-7.919595949272001e+00	 1.131370849913441e+00	 1.134608237322174e+00
-8.237794000804504e+00	 1.449568901448341e+00	 1.130375492009247e+00
-8.555992052338000e+00	 1.767766952981361e+00	 1.126361128681272e+00
-8.874190103872500e+00	 2.085965004512501e+00	 1.121838795446133e+00
-9.192388155408002e+00	 2.404163056041762e+00	 1.114374976365414e+00
-9.510586206944501e+00	 2.722361107569142e+00	 1.108061579637439e+00
-9.828784258482001e+00	 3.040559159094642e+00	 1.102853613287893e+00
-1.014698231002050e+01	 3.358757210618262e+00	 1.098706084968174e+00
-1.046518036156000e+01	 3.676955262139999e+00	 1.092333606301351e+00
-7.212489168090002e+00	 5.656854249555000e-01	 1.149360203021750e+00
-7.530687219620503e+00	 8.838834764937354e-01	 1.143580996189267e+00
-7.848885271152002e+00	 1.202081528030241e+00	 1.138065128779598e+00
-8.167083322684499e+00	 1.520279579565016e+00	 1.132782384378927e+00
-8.485281374218001e+00	 1.838477631098061e+00	 1.127702546573438e+00
-8.803479425752501e+00	 2.156675682629376e+00	 1.122795398949321e+00
-9.121677477287998e+00	 2.474873734158961e+00	 1.114683510225133e+00
-9.439875528824503e+00	 2.793071785686817e+00	 1.107486001144787e+00
-9.758073580362000e+00	 3.111269837212942e+00	 1.101420230983112e+00
-1.007627163190050e+01	 3.429467888737337e+00	 1.096441207123289e+00
-1.039446968344000e+01	 3.747665940260000e+00	 1.088345073009892e+00
-7.141778489970000e+00	 6.363961030720000e-01	 1.154482892769887e+00
-7.459976541500501e+00	 9.545941546096405e-01	 1.147733383058758e+00
-7.778174593032000e+00	 1.272792206145761e+00	 1.141231737380705e+00
-8.096372644564498e+00	 1.590990257680360e+00	 1.134947739321892e+00
-8.414570696098000e+00	 1.909188309213441e+00	 1.128851172468494e+00
-8.732768747632502e+00	 2.227386360745001e+00	 1.122911820406682e+00
-9.050966799168002e+00	 2.545584412275042e+00	 1.114769098917230e+00
-9.369164850704502e+00	 2.863782463803562e+00	 1.106736466045974e+00
-9.687362902242002e+00	 3.181980515330561e+00	 1.099861880672801e+00
-1.000556095378050e+01	 3.500178566856043e+00	 1.093324145452095e+00
-1.032375900532000e+01	 3.818376618380000e+00	 1.084372603252318e+00
-7.071067811850000e+00	 7.071067811875000e-01	 1.159221612706828e+00
-7.389265863380500e+00	 1.025304832724375e+00	 1.151550545546665e+00
-7.707463914912001e+00	 1.343502884260001e+00	 1.144111867029832e+00
-8.025661966444504e+00	 1.661700935794376e+00	 1.136875360742483e+00
-8.343860017978002e+00	 1.979898987327501e+00	 1.129810810270777e+00
-8.662058069512501e+00	 2.298097038859376e+00	 1.122887999200875e+00
-8.980256121048004e+00	 2.616295090390002e+00	 1.114629352993611e+00
-9.298454172584501e+00	 2.934493141919376e+00	 1.105810588077087e+00
-9.616652224122003e+00	 3.252691193447502e+00	 1.098176176106290e+00
-9.934850275660503e+00	 3.570889244974377e+00	 1.089885142864499e+00
-1.025304832720000e+01	 3.889087296500000e+00	 1.080415879577770e+00
-7.000357133730001e+00	 7.778174593020000e-01	 1.163580166736915e+00
-7.318555185260501e+00	 1.096015510837940e+00	 1.155036287557325e+00
-7.636753236792001e+00	 1.414213562372961e+00	 1.146709321631318e+00
-7.954951288324501e+00	 1.732411613907061e+00	 1.138569052545038e+00
-8.273149339858001e+00	 2.050609665440241e+00	 1.130585263884629e+00
-8.591347391392503e+00	 2.368807716972501e+00	 1.122727739236239e+00
-8.909545442928003e+00	 2.687005768503842e+00	 1.114261894752330e+00
-9.227743494464502e+00	 3.005203820034262e+00	 1.104705980962525e+00
-9.545941546002002e+00	 3.323401871563763e+00	 1.096360731021223e+00
-9.864139597540500e+00	 3.641599923092342e+00	 1.086410754081198e+00
-1.018233764908000e+01	 3.959797974620000e+00	 1.076474584530604e+00
-6.929646455609999e+00	 8.485281374155000e-01	 1.167562358764489e+00
-7.247844507140502e+00	 1.166726188950336e+00	 1.158194412995079e+00
-7.566042558672000e+00	 1.484924240484641e+00	 1.149027905089504e+00
-7.884240610204500e+00	 1.803122292018416e+00	 1.140032618633895e+00
-8.202438661738002e+00	 2.121320343551661e+00	 1.131178337214388e+00
-8.520636713272500e+00	 2.439518395084376e+00	 1.122434844417117e+00
-8.838834764808002e+00	 2.757716446616562e+00	 1.113664331130080e+00
-9.157032816344502e+00	 3.075914498148217e+00	 1.103420258414995e+00
-9.475230867882003e+00	 3.394112549679342e+00	 1.094413159143554e+00
-9.793428919420503e+00	 3.712310601209937e+00	 1.082900661623128e+00
-1.011162697096000e+01	 4.030508652740000e+00	 1.072548400650407e+00
-6.858935777490000e+00	 9.192388155280000e-01	 1.171171992693890e+00
-7.177133829020502e+00	 1.237436867061560e+00	 1.161028725764266e+00
-7.495331880552000e+00	 1.555634918595041e+00	 1.151071421308726e+00
-7.813529932084501e+00	 1.873832970128441e+00	 1.141269862913394e+00
-8.131727983618001e+00	 2.192031021661761e+00	 1.131593834164394e+00
-8.449926035152501e+00	 2.510229073195001e+00	 1.122013118647849e+00
-8.768124086688003e+00	 2.828427124728162e+00	 1.112497499949881e+00
-9.086322138224501e+00	 3.146625176261241e+00	 1.101951034135518e+00
-9.404520189762003e+00	 3.464823227794242e+00	 1.092081221165412e+00
-9.722718241300502e+00	 3.783021279327162e+00	 1.079354548006444e+00
-1.004091629284000e+01	 4.101219330860000e+00	 1.068637010471987e+00
-6.788225099370000e+00	 9.899494936395000e-01	 1.174412872429458e+00
-7.106423150900500e+00	 1.308147545171615e+00	 1.163543029769221e+00
-7.424621202432000e+00	 1.626345596704161e+00	 1.152843674193322e+00
-7.742819253964501e+00	 1.944543648237136e+00	 1.142284589287873e+00
-8.061017305498002e+00	 2.262741699770541e+00	 1.131835558638987e+00
-8.379215357032502e+00	 2.580939751304377e+00	 1.121466365832776e+00
-8.697413408568003e+00	 2.899137802838641e+00	 1.111146794455350e+00
-9.015611460104502e+00	 3.217335854373337e+00	 1.100295918383486e+00
-9.333809511642002e+00	 3.535533905908462e+00	 1.088825577231061e+00
-9.652007563180502e+00	 3.853731957444017e+00	 1.075772095742531e+00
-9.970205614719999e+00	 4.171930008980000e+00	 1.064740096525375e+00
-6.717514421250000e+00	 1.060660171750000e+00	 1.177288801875530e+00
-7.035712472780501e+00	 1.378858223280500e+00	 1.165741128914284e+00
-7.353910524312001e+00	 1.697056274812001e+00	 1.154348467647629e+00
-7.672108575844502e+00	 2.015254326344501e+00	 1.143080601661669e+00
-7.990306627378001e+00	 2.333452377878001e+00	 1.131907314542506e+00
-8.308504678912502e+00	 2.651650429412501e+00	 1.120798389876239e+00
-8.626702730448002e+00	 2.969848480948002e+00	 1.109723611248967e+00
-8.944900781984501e+00	 3.288046532484502e+00	 1.098452533822053e+00
-9.263098833522003e+00	 3.606244584022002e+00	 1.085482462290627e+00
-9.581296885060503e+00	 3.924442635560502e+00	 1.072152987337990e+00
-9.899494936600000e+00	 4.242640687100000e+00	 1.060857341335828e+00
-4.949747468300000e+00	-3.535533905900000e+00	 1.360147942530847e+00
-5.267945519839500e+00	-3.217335854379000e+00	 1.317284027054380e+00
-5.586143571378001e+00	-2.899137802856000e+00	 1.275344302475563e+00
-5.904341622915500e+00	-2.580939751331000e+00	 1.239257380670179e+00
-6.222539674452000e+00	-2.262741699804000e+00	 1.208993045224589e+00
-6.540737725987500e+00	-1.944543648275000e+00	 1.184521079725150e+00
-6.858935777521999e+00	-1.626345596744000e+00	 1.165811267758217e+00
-7.177133829055500e+00	-1.308147545211000e+00	 1.152833392910140e+00
-7.495331880588001e+00	-9.899494936760004e-01	 1.145557238767266e+00
-7.813529932119500e+00	-6.717514421390002e-01	 1.143952588915939e+00
-8.131727983650000e+00	-3.535533906000000e-01	 1.147989226942498e+00
-4.879036790180000e+00	-3.464823227780000e+00	 1.409353078697581e+00
-5.197234841719500e+00	-3.146625176258999e+00	 1.355450333836591e+00
-5.515432893258000e+00	-2.828427124736000e+00	 1.307029261370742e+00
-5.833630944795502e+00	-2.510229073211001e+00	 1.265014511398614e+00
-6.151828996332001e+00	-2.192031021684000e+00	 1.229375867506547e+00
-6.470027047867501e+00	-1.873832970155000e+00	 1.200083113280875e+00
-6.788225099401998e+00	-1.555634918624000e+00	 1.177106032307929e+00
-7.106423150935498e+00	-1.237436867091000e+00	 1.160414408174038e+00
-7.424621202468001e+00	-9.192388155560005e-01	 1.149978024465524e+00
-7.742819253999499e+00	-6.010407640190005e-01	 1.145766664768710e+00
-8.061017305530001e+00	-2.828427124800001e-01	 1.147750112669912e+00
-4.808326112060000e+00	-3.394112549660000e+00	 1.451910896838303e+00
-5.126524163599499e+00	-3.075914498138999e+00	 1.390377712731217e+00
-5.444722215137999e+00	-2.757716446616000e+00	 1.335834587251821e+00
-5.762920266675501e+00	-2.439518395091000e+00	 1.288251303986437e+00
-6.081118318212000e+00	-2.121320343563999e+00	 1.247597646521379e+00
-6.399316369747499e+00	-1.803122292035000e+00	 1.213843398442958e+00
-6.717514421281999e+00	-1.484924240504000e+00	 1.186958343337484e+00
-7.035712472815500e+00	-1.166726188971000e+00	 1.166912264791261e+00
-7.353910524347998e+00	-8.485281374360003e-01	 1.153674946390591e+00
-7.672108575879499e+00	-5.303300858990003e-01	 1.147216171721769e+00
-7.990306627410000e+00	-2.121320343600000e-01	 1.147505724371092e+00
-4.737615433940000e+00	-3.323401871540000e+00	 1.489919429610053e+00
-5.055813485479499e+00	-3.005203820019000e+00	 1.422069967642599e+00
-5.374011537018001e+00	-2.687005768496000e+00	 1.361764084023146e+00
-5.692209588555498e+00	-2.368807716971000e+00	 1.308971562337991e+00
-6.010407640092000e+00	-2.050609665444000e+00	 1.263662186173428e+00
-6.328605691627501e+00	-1.732411613915000e+00	 1.225805739115745e+00
-6.646803743162001e+00	-1.414213562384000e+00	 1.195372004751226e+00
-6.965001794695498e+00	-1.096015510851000e+00	 1.172330766666154e+00
-7.283199846228001e+00	-7.778174593160003e-01	 1.156651808446807e+00
-7.601397897759502e+00	-4.596194077790004e-01	 1.148304913679460e+00
-7.919595949290001e+00	-1.414213562399999e-01	 1.147259865950385e+00
-4.666904755820000e+00	-3.252691193420000e+00	 1.524337347429414e+00
-4.985102807359500e+00	-2.934493141899001e+00	 1.450530902475082e+00
-5.303300858898000e+00	-2.616295090376000e+00	 1.384821555589060e+00
-5.621498910435500e+00	-2.298097038851000e+00	 1.327179090357622e+00
-5.939696961972001e+00	-1.979898987324000e+00	 1.277573290367040e+00
-6.257895013507501e+00	-1.661700935795000e+00	 1.235973939203577e+00
-6.576093065042000e+00	-1.343502884264000e+00	 1.202350820453498e+00
-6.894291116575501e+00	-1.025304832731000e+00	 1.176673717703060e+00
-7.212489168108000e+00	-7.071067811960003e-01	 1.158912414538519e+00
-7.530687219639498e+00	-3.889087296590001e-01	 1.149036694546127e+00
-7.848885271170000e+00	-7.071067812000004e-02	 1.147016341312132e+00
-4.596194077700000e+00	-3.181980515300000e+00	 1.555168454200732e+00
-4.914392129239500e+00	-2.863782463779000e+00	 1.475764321133008e+00
-5.232590180778002e+00	-2.545584412256000e+00	 1.405010805853906e+00
-5.550788232315500e+00	-2.227386360731000e+00	 1.342877691949673e+00
-5.868986283852001e+00	-1.909188309204000e+00	 1.289334763006557e+00
-6.187184335387500e+00	-1.590990257675000e+00	 1.244351802610800e+00
-6.505382386922001e+00	-1.272792206144000e+00	 1.207898594348644e+00
-6.823580438455501e+00	-9.545941546110003e-01	 1.179944921806323e+00
-7.141778489988001e+00	-6.363961030760004e-01	 1.160460568570069e+00
-7.459976541519500e+00	-3.181980515390002e-01	 1.149415318226112e+00
-7.778174593050000e+00	 2.775557561562891e-17	 1.146778954360678e+00
-4.525483399580000e+00	-3.111269837180000e+00	 1.582416553828348e+00
-4.843681451119500e+00	-2.793071785659000e+00	 1.497774027520725e+00
-5.161879502657998e+00	-2.474873734136000e+00	 1.422335638722028e+00
-5.480077554195500e+00	-2.156675682611000e+00	 1.356071171018486e+00
-5.798275605732000e+00	-1.838477631084000e+00	 1.298950407996323e+00
-6.116473657267500e+00	-1.520279579555000e+00	 1.250943133241758e+00
-6.434671708802001e+00	-1.202081528024000e+00	 1.212019130341008e+00
-6.752869760335502e+00	-8.838834764910001e-01	 1.182148182880286e+00
-7.071067811867999e+00	-5.656854249560004e-01	 1.161300074445802e+00
-7.389265863399498e+00	-2.474873734190003e-01	 1.149444588623761e+00
-7.707463914930000e+00	 7.071067811999998e-02	 1.146551509000366e+00
-4.454772721459999e+00	-3.040559159060000e+00	 1.606085450216609e+00
-4.772970772999500e+00	-2.722361107539000e+00	 1.516563825542573e+00
-5.091168824538000e+00	-2.404163056016000e+00	 1.436799858097772e+00
-5.409366876075500e+00	-2.085965004491000e+00	 1.366763331468407e+00
-5.727564927612001e+00	-1.767766952964000e+00	 1.306424029240683e+00
-6.045762979147500e+00	-1.449568901435000e+00	 1.255751735000793e+00
-6.363961030682001e+00	-1.131370849904000e+00	 1.214716232334934e+00
-6.682159082215501e+00	-8.131727983710003e-01	 1.183287304829294e+00
-7.000357133748000e+00	-4.949747468360002e-01	 1.161434736070061e+00
-7.318555185279501e+00	-1.767766952990004e-01	 1.149128309643417e+00
-7.636753236810000e+00	 1.414213562400000e-01	 1.146337809135542e+00
-4.384062043340000e+00	-2.969848480940000e+00	 1.626178947269856e+00
-4.702260094879501e+00	-2.651650429419000e+00	 1.532137519102898e+00
-5.020458146418000e+00	-2.333452377896000e+00	 1.448407267885480e+00
-5.338656197955501e+00	-2.015254326371000e+00	 1.374957977203780e+00
-5.656854249492000e+00	-1.697056274844000e+00	 1.311759430643979e+00
-5.975052301027501e+00	-1.378858223315000e+00	 1.258781411792250e+00
-6.293250352562000e+00	-1.060660171784000e+00	 1.215993704234766e+00
-6.611448404095499e+00	-7.424621202510002e-01	 1.183366091557691e+00
-6.929646455628000e+00	-4.242640687160004e-01	 1.160868357347190e+00
-7.247844507159501e+00	-1.060660171790003e-01	 1.148470285189424e+00
-7.566042558690000e+00	 2.121320343599999e-01	 1.146141658670548e+00
-4.313351365219999e+00	-2.899137802820000e+00	 1.642700848892435e+00
-4.631549416759499e+00	-2.580939751299001e+00	 1.544498912106043e+00
-4.949747468298000e+00	-2.262741699776000e+00	 1.457161671989496e+00
-5.267945519835501e+00	-1.944543648251000e+00	 1.380658912128948e+00
-5.586143571372000e+00	-1.626345596724000e+00	 1.314960416110557e+00
-5.904341622907500e+00	-1.308147545195000e+00	 1.260035967520474e+00
-6.222539674442000e+00	-9.899494936640003e-01	 1.215855349944848e+00
-6.540737725975498e+00	-6.717514421310002e-01	 1.182388346969820e+00
-6.858935777508000e+00	-3.535533905960003e-01	 1.159604742181534e+00
-7.177133829039501e+00	-3.535533905900035e-02	 1.147474319166125e+00
-7.495331880570000e+00	 2.828427124799999e-01	 1.145966861509728e+00
-4.242640687100000e+00	-2.828427124700000e+00	 1.655654958988689e+00
-4.560838738639499e+00	-2.510229073179000e+00	 1.553651808456352e+00
-4.879036790178001e+00	-2.192031021656000e+00	 1.463066874314163e+00
-5.197234841715500e+00	-1.873832970131000e+00	 1.383869940148255e+00
-5.515432893252001e+00	-1.555634918604000e+00	 1.316030789544759e+00
-5.833630944787501e+00	-1.237436867075000e+00	 1.259519206089808e+00
-6.151828996322000e+00	-9.192388155440001e-01	 1.214304973369523e+00
-6.470027047855501e+00	-6.010407640110003e-01	 1.180357874970026e+00
-6.788225099388001e+00	-2.828427124760003e-01	 1.157647694477435e+00
-7.106423150919500e+00	 3.535533906099975e-02	 1.146144215477866e+00
-7.424621202450000e+00	 3.535533906000000e-01	 1.145817221557427e+00
-8.131727983650000e+00	-3.535533906000000e-01	 1.147989226942498e+00
-8.449926035180502e+00	-3.535533906099975e-02	 1.132070016387193e+00
-8.768124086712003e+00	 2.828427124760007e-01	 1.119418221358460e+00
-9.086322138244501e+00	 6.010407640110009e-01	 1.103723932341085e+00
-9.404520189778001e+00	 9.192388155440012e-01	 1.090420771709504e+00
-9.722718241312503e+00	 1.237436867075001e+00	 1.080845205663022e+00
-1.004091629284800e+01	 1.555634918604002e+00	 1.074952244967704e+00
-1.035911434438450e+01	 1.873832970131002e+00	 1.072696900424176e+00
-1.067731239592200e+01	 2.192031021656002e+00	 1.074034182867651e+00
-1.099551044746050e+01	 2.510229073179003e+00	 1.078919103167944e+00
-1.131370849900000e+01	 2.828427124700000e+00	 1.087306672229502e+00
-8.061017305530001e+00	-2.828427124800001e-01	 1.147750112669912e+00
-8.379215357060499e+00	 3.535533905900022e-02	 1.132525267076582e+00
-8.697413408592002e+00	 3.535533905960005e-01	 1.120409534114711e+00
-9.015611460124502e+00	 6.717514421310008e-01	 1.106862473564950e+00
-9.333809511657998e+00	 9.899494936640008e-01	 1.093878297422466e+00
-9.652007563192504e+00	 1.308147545195002e+00	 1.084505188777931e+00
-9.970205614728002e+00	 1.626345596724001e+00	 1.078698166585925e+00
-1.028840366626450e+01	 1.944543648251002e+00	 1.076412241378880e+00
-1.060660171780200e+01	 2.262741699776003e+00	 1.077602423723814e+00
-1.092479976934050e+01	 2.580939751299002e+00	 1.082223724222356e+00
-1.124299782088000e+01	 2.899137802820000e+00	 1.090231153510772e+00
-7.990306627410000e+00	-2.121320343600000e-01	 1.147505724371092e+00
-8.308504678940503e+00	 1.060660171790003e-01	 1.132948515880218e+00
-8.626702730471999e+00	 4.242640687160008e-01	 1.121342117125691e+00
-8.944900782004503e+00	 7.424621202510009e-01	 1.109861479299090e+00
-9.263098833538001e+00	 1.060660171784001e+00	 1.097169789079395e+00
-9.581296885072502e+00	 1.378858223315002e+00	 1.087972652871897e+00
-9.899494936608004e+00	 1.697056274844002e+00	 1.082225084257461e+00
-1.021769298814450e+01	 2.015254326371001e+00	 1.079882093500319e+00
-1.053589103968200e+01	 2.333452377896002e+00	 1.080898690899296e+00
-1.085408909122050e+01	 2.651650429419002e+00	 1.085229886787836e+00
-1.117228714276000e+01	 2.969848480940000e+00	 1.092830691534019e+00
-7.919595949290001e+00	-1.414213562399999e-01	 1.147259865950385e+00
-8.237794000820504e+00	 1.767766952990004e-01	 1.133343566702447e+00
-8.555992052352002e+00	 4.949747468360007e-01	 1.122219774295743e+00
-8.874190103884501e+00	 8.131727983710010e-01	 1.112718547473655e+00
-9.192388155418003e+00	 1.131370849904001e+00	 1.100292860516903e+00
-9.510586206952501e+00	 1.449568901435002e+00	 1.091245211794774e+00
-9.828784258488000e+00	 1.767766952964001e+00	 1.085530611845405e+00
-1.014698231002450e+01	 2.085965004491002e+00	 1.083104070664831e+00
-1.046518036156200e+01	 2.404163056016003e+00	 1.083920598283679e+00
-1.078337841310050e+01	 2.722361107539003e+00	 1.087935204767207e+00
-1.110157646464000e+01	 3.040559159060000e+00	 1.095102900215307e+00
-7.848885271170000e+00	-7.071067812000004e-02	 1.147016341312132e+00
-8.167083322700499e+00	 2.474873734190003e-01	 1.133714223447611e+00
-8.485281374232001e+00	 5.656854249560007e-01	 1.123046309529211e+00
-8.803479425764500e+00	 8.838834764910006e-01	 1.114982383143222e+00
-9.121677477298002e+00	 1.202081528024001e+00	 1.103245125559912e+00
-9.439875528832502e+00	 1.520279579555001e+00	 1.094320479384725e+00
-9.758073580368002e+00	 1.838477631084002e+00	 1.088612363201165e+00
-1.007627163190450e+01	 2.156675682611002e+00	 1.086075786737065e+00
-1.039446968344200e+01	 2.474873734136002e+00	 1.086665759754857e+00
-1.071266773498050e+01	 2.793071785659003e+00	 1.090337292051604e+00
-1.103086578652000e+01	 3.111269837180000e+00	 1.097045393459016e+00
-7.778174593050000e+00	 2.775557561562891e-17	 1.146778954360678e+00
-8.096372644580502e+00	 3.181980515390003e-01	 1.134064290020055e+00
-8.414570696112001e+00	 6.363961030760007e-01	 1.123825526730439e+00
-8.732768747644501e+00	 9.545941546110009e-01	 1.116032448078119e+00
-9.050966799178001e+00	 1.272792206144001e+00	 1.106024198021657e+00
-9.369164850712503e+00	 1.590990257675001e+00	 1.097196069468228e+00
-9.687362902248003e+00	 1.909188309204002e+00	 1.091467952164462e+00
-1.000556095378450e+01	 2.227386360731002e+00	 1.088794855569984e+00
-1.032375900532200e+01	 2.545584412256002e+00	 1.089131789179033e+00
-1.064195705686050e+01	 2.863782463779002e+00	 1.092433762520476e+00
-1.096015510840000e+01	 3.181980515300000e+00	 1.098655785157835e+00
-7.707463914930000e+00	 7.071067811999998e-02	 1.146551509000366e+00
-8.025661966460500e+00	 3.889087296590003e-01	 1.134397570324121e+00
-8.343860017992002e+00	 7.071067811960006e-01	 1.124561229803770e+00
-8.662058069524500e+00	 1.025304832731001e+00	 1.117012271025599e+00
-8.980256121058002e+00	 1.343502884264001e+00	 1.108627686842528e+00
-9.298454172592503e+00	 1.661700935795001e+00	 1.099869595860073e+00
-9.616652224128002e+00	 1.979898987324002e+00	 1.094094992563326e+00
-9.934850275664502e+00	 2.298097038851002e+00	 1.091258891004864e+00
-1.025304832720200e+01	 2.616295090376002e+00	 1.091316300410726e+00
-1.057124637874050e+01	 2.934493141899002e+00	 1.094222230041584e+00
-1.088944443028000e+01	 3.252691193420000e+00	 1.099931689192772e+00
-7.636753236810000e+00	 1.414213562400000e-01	 1.146337809135542e+00
-7.954951288340502e+00	 4.596194077790004e-01	 1.134717868264155e+00
-8.273149339871999e+00	 7.778174593160004e-01	 1.125257222653549e+00
-8.591347391404501e+00	 1.096015510851001e+00	 1.117925655890008e+00
-8.909545442938001e+00	 1.414213562384001e+00	 1.111053218951406e+00
-9.227743494472501e+00	 1.732411613915001e+00	 1.102338672363362e+00
-9.545941546008002e+00	 2.050609665444002e+00	 1.096491098214103e+00
-9.864139597544503e+00	 2.368807716971002e+00	 1.093465506871293e+00
-1.018233764908200e+01	 2.687005768496002e+00	 1.093216907292766e+00
-1.050053570062050e+01	 3.005203820019002e+00	 1.095700308471001e+00
-1.081873375216000e+01	 3.323401871540000e+00	 1.100870719433140e+00
-7.566042558690000e+00	 2.121320343599999e-01	 1.146141658670548e+00
-7.884240610220500e+00	 5.303300858990003e-01	 1.135028987744500e+00
-8.202438661752003e+00	 8.485281374360006e-01	 1.125917309184120e+00
-8.520636713284501e+00	 1.166726188971001e+00	 1.118776406575688e+00
-8.838834764818001e+00	 1.484924240504001e+00	 1.113298397832343e+00
-9.157032816352501e+00	 1.803122292035001e+00	 1.104600912769507e+00
-9.475230867888003e+00	 2.121320343564002e+00	 1.098653882921451e+00
-9.793428919424503e+00	 2.439518395091002e+00	 1.095412316987170e+00
-1.011162697096200e+01	 2.757716446616002e+00	 1.094831223656298e+00
-1.042982502250050e+01	 3.075914498139002e+00	 1.096865611653115e+00
-1.074802307404000e+01	 3.394112549660000e+00	 1.101470489736572e+00
-7.495331880570000e+00	 2.828427124799999e-01	 1.145966861509728e+00
-7.813529932100501e+00	 6.010407640190003e-01	 1.135334732669499e+00
-8.131727983632000e+00	 9.192388155560006e-01	 1.126545293299825e+00
-8.449926035164502e+00	 1.237436867091001e+00	 1.119568326986984e+00
-8.768124086698002e+00	 1.555634918624001e+00	 1.114373617317260e+00
-9.086322138232502e+00	 1.873832970155001e+00	 1.106653930858234e+00
-9.404520189768002e+00	 2.192031021684001e+00	 1.100580960478336e+00
-9.722718241304502e+00	 2.510229073211002e+00	 1.097096935158707e+00
-1.004091629284200e+01	 2.828427124736002e+00	 1.096156863320776e+00
-1.035911434438050e+01	 3.146625176259002e+00	 1.097715753420625e+00
-1.067731239592000e+01	 3.464823227780000e+00	 1.101481259311272e+00
-7.424621202450000e+00	 3.535533906000000e-01	 1.145817221557427e+00
-7.742819253980501e+00	 6.717514421390002e-01	 1.135638906943498e+00
-8.061017305512001e+00	 9.899494936760007e-01	 1.127144978905009e+00
-8.379215357044501e+00	 1.308147545211001e+00	 1.120305221028238e+00
-8.697413408578001e+00	 1.626345596744001e+00	 1.115089416899468e+00
-9.015611460112503e+00	 1.944543648275002e+00	 1.108495334262085e+00
-9.333809511648003e+00	 2.262741699804002e+00	 1.102269944666040e+00
-9.652007563184501e+00	 2.580939751331002e+00	 1.098516975180429e+00
-9.970205614722001e+00	 2.899137802856002e+00	 1.097191440093970e+00
-1.028840366626050e+01	 3.217335854379002e+00	 1.098248347594541e+00
-1.060660171780000e+01	 3.535533905900000e+00	 1.100360133265504e+00
-7.071067811900000e+00	-5.656854249500000e+00	 1.265135635905080e+00
-7.389265863421000e+00	-5.338656197960500e+00	 1.218659337621201e+00
-7.707463914944000e+00	-5.020458146422000e+00	 1.177046281394657e+00
-8.025661966469000e+00	-4.702260094884500e+00	 1.140497931433120e+00
-8.343860017996001e+00	-4.384062043348000e+00	 1.109215744146024e+00
-8.662058069525001e+00	-4.065863991812500e+00	 1.083401168144997e+00
-8.980256121056000e+00	-3.747665940277999e+00	 1.060749601147244e+00
-9.298454172589000e+00	-3.429467888744500e+00	 1.040989458028062e+00
-9.616652224124001e+00	-3.111269837212000e+00	 1.026537689253837e+00
-9.934850275660999e+00	-2.793071785680500e+00	 1.019058815044474e+00
-1.025304832720000e+01	-2.474873734150000e+00	 1.018507854005395e+00
-6.965001794720001e+00	-5.550788232320000e+00	 1.263700451180727e+00
-7.283199846241094e+00	-5.232590180780593e+00	 1.217993554367981e+00
-7.601397897764168e+00	-4.914392129242170e+00	 1.177267868218624e+00
-7.919595949289233e+00	-4.596194077704733e+00	 1.141724856843786e+00
-8.237794000816280e+00	-4.277996026168280e+00	 1.111565976556382e+00
-8.555992052345315e+00	-3.959797974632813e+00	 1.086992675871542e+00
-8.874190103876330e+00	-3.641599923098330e+00	 1.067337549300035e+00
-9.192388155409333e+00	-3.323401871564832e+00	 1.048189672688467e+00
-9.510586206944321e+00	-3.005203820032320e+00	 1.034804744626786e+00
-9.828784258481294e+00	-2.687005768500793e+00	 1.028552421403399e+00
-1.014698231002025e+01	-2.368807716970250e+00	 1.029387721221434e+00
-6.858935777540000e+00	-5.444722215140001e+00	 1.263209387496847e+00
-7.177133829061371e+00	-5.126524163600870e+00	 1.218118382236801e+00
-7.495331880584678e+00	-4.808326112062679e+00	 1.178126556513569e+00
-7.813529932109931e+00	-4.490128060525430e+00	 1.143435374341733e+00
-8.131727983637120e+00	-4.171930008989120e+00	 1.114246291937684e+00
-8.449926035166252e+00	-3.853731957453751e+00	 1.090760757720045e+00
-8.768124086697320e+00	-3.535533905919320e+00	 1.073180213916486e+00
-9.086322138230331e+00	-3.217335854385830e+00	 1.055190708470805e+00
-9.404520189765281e+00	-2.899137802853280e+00	 1.042728237762335e+00
-9.722718241302170e+00	-2.580939751321670e+00	 1.037558082253742e+00
-1.004091629284100e+01	-2.262741699791000e+00	 1.039635259745856e+00
-6.752869760359999e+00	-5.338656197960000e+00	 1.263668303965434e+00
-7.071067811881833e+00	-5.020458146421333e+00	 1.219039680350404e+00
-7.389265863405531e+00	-4.702260094883530e+00	 1.179628205412977e+00
-7.707463914931093e+00	-4.384062043346593e+00	 1.145635343071185e+00
-8.025661966458520e+00	-4.065863991810520e+00	 1.117262549444888e+00
-8.343860017987813e+00	-3.747665940275313e+00	 1.094711272856197e+00
-8.662058069518970e+00	-3.429467888740970e+00	 1.077982898315443e+00
-8.980256121051992e+00	-3.111269837207493e+00	 1.061984504151423e+00
-9.298454172586879e+00	-2.793071785674880e+00	 1.050300116244651e+00
-9.616652224123632e+00	-2.474873734143132e+00	 1.046067745224347e+00
-9.934850275662251e+00	-2.156675682612251e+00	 1.049242417252180e+00
-6.646803743180000e+00	-5.232590180780001e+00	 1.265083059616525e+00
-6.965001794702478e+00	-4.914392129241980e+00	 1.220763307749574e+00
-7.283199846226720e+00	-4.596194077704721e+00	 1.181778673968378e+00
-7.601397897752720e+00	-4.277996026168220e+00	 1.148330622094413e+00
-7.919595949280478e+00	-3.959797974632479e+00	 1.120620608150998e+00
-8.237794000810000e+00	-3.641599923097500e+00	 1.098850080363731e+00
-8.555992052341280e+00	-3.323401871563280e+00	 1.081687772071386e+00
-8.874190103874321e+00	-3.005203820029821e+00	 1.068563032579444e+00
-9.192388155409121e+00	-2.687005768497121e+00	 1.057512327598735e+00
-9.510586206945680e+00	-2.368807716965180e+00	 1.054073357884891e+00
-9.828784258484001e+00	-2.050609665434000e+00	 1.058201141354765e+00
-6.540737726000001e+00	-5.126524163600000e+00	 1.267459513398194e+00
-6.858935777523314e+00	-4.808326112062812e+00	 1.223295123393137e+00
-7.177133829048253e+00	-4.490128060526251e+00	 1.184583821149342e+00
-7.495331880574813e+00	-4.171930008990313e+00	 1.151527070391725e+00
-7.813529932102999e+00	-3.853731957455000e+00	 1.124326327047063e+00
-8.131727983632812e+00	-3.535533905920313e+00	 1.103183040998971e+00
-8.449926035164250e+00	-3.217335854386250e+00	 1.085091032245841e+00
-8.768124086697313e+00	-2.899137802852813e+00	 1.073672091031777e+00
-9.086322138232001e+00	-2.580939751320000e+00	 1.064356819290430e+00
-9.404520189768313e+00	-2.262741699787813e+00	 1.061566867745895e+00
-9.722718241306250e+00	-1.944543648256250e+00	 1.066503379608808e+00
-6.434671708819999e+00	-5.020458146419999e+00	 1.270803524176563e+00
-6.752869760344331e+00	-4.702260094883830e+00	 1.226640986157966e+00
-7.071067811870121e+00	-4.384062043348120e+00	 1.188049505843487e+00
-7.389265863397370e+00	-4.065863991812870e+00	 1.155230546861480e+00
-7.707463914926081e+00	-3.747665940278080e+00	 1.128385565042176e+00
-8.025661966456250e+00	-3.429467888743750e+00	 1.107371306276708e+00
-8.343860017987879e+00	-3.111269837209879e+00	 1.088205517015974e+00
-8.662058069520969e+00	-2.793071785676470e+00	 1.077269346468450e+00
-8.980256121055518e+00	-2.474873734143520e+00	 1.070825530328908e+00
-9.298454172591530e+00	-2.156675682611030e+00	 1.068540222258715e+00
-9.616652224129002e+00	-1.838477631079000e+00	 1.074141079510348e+00
-6.328605691640000e+00	-4.914392129240000e+00	 1.275120950735799e+00
-6.646803743165529e+00	-4.596194077705032e+00	 1.230806754838974e+00
-6.965001794692329e+00	-4.277996026170331e+00	 1.192181586856476e+00
-7.283199846220394e+00	-3.959797974635893e+00	 1.159446910320084e+00
-7.601397897749720e+00	-3.641599923101720e+00	 1.132804180963481e+00
-7.919595949280312e+00	-3.323401871567813e+00	 1.109969044740349e+00
-8.237794000812169e+00	-3.005203820034170e+00	 1.091044064558948e+00
-8.555992052345292e+00	-2.687005768500793e+00	 1.080445736301520e+00
-8.874190103879679e+00	-2.368807716967680e+00	 1.076910432374307e+00
-9.192388155415333e+00	-2.050609665434833e+00	 1.074985368815550e+00
-9.510586206952249e+00	-1.732411613902250e+00	 1.081106188496261e+00
-6.222539674460001e+00	-4.808326112060001e+00	 1.280417651778113e+00
-6.540737725986919e+00	-4.490128060526420e+00	 1.235798288149129e+00
-6.858935777514879e+00	-4.171930008992879e+00	 1.196985922912020e+00
-7.177133829043880e+00	-3.853731957459380e+00	 1.164182019501992e+00
-7.495331880573920e+00	-3.535533905925920e+00	 1.137588035519179e+00
-7.813529932105000e+00	-3.217335854392501e+00	 1.112448612530446e+00
-8.131727983637118e+00	-2.899137802859120e+00	 1.093619513051931e+00
-8.449926035170279e+00	-2.580939751325780e+00	 1.083214098708150e+00
-8.768124086704480e+00	-2.262741699792481e+00	 1.081202153085512e+00
-9.086322138239717e+00	-1.944543648259220e+00	 1.080894254749431e+00
-9.404520189776001e+00	-1.626345596726000e+00	 1.087390653944260e+00
-6.116473657280000e+00	-4.702260094880000e+00	 1.286699485923767e+00
-6.434671708808493e+00	-4.384062043347993e+00	 1.241621444719445e+00
-6.752869760337769e+00	-4.065863991815769e+00	 1.202468372651882e+00
-7.071067811867833e+00	-3.747665940283332e+00	 1.169441733059708e+00
-7.389265863398681e+00	-3.429467888750680e+00	 1.142251929735213e+00
-7.707463914930312e+00	-3.111269837217812e+00	 1.114822847824167e+00
-8.025661966462732e+00	-2.793071785684730e+00	 1.095944700672086e+00
-8.343860017995933e+00	-2.474873734151433e+00	 1.085587271865502e+00
-8.662058069529920e+00	-2.156675682617920e+00	 1.083720344990840e+00
-8.980256121064693e+00	-1.838477631084193e+00	 1.086258819366287e+00
-9.298454172600250e+00	-1.520279579550250e+00	 1.092986423172895e+00
-6.010407640100000e+00	-4.596194077700000e+00	 1.293972311711072e+00
-6.328605691630251e+00	-4.277996026169751e+00	 1.248282083098984e+00
-6.646803743160999e+00	-3.959797974639000e+00	 1.208634794635874e+00
-6.965001794692250e+00	-3.641599923107750e+00	 1.175231909563791e+00
-7.283199846223999e+00	-3.323401871576000e+00	 1.144824679970480e+00
-7.601397897756250e+00	-3.005203820043750e+00	 1.117104588798679e+00
-7.919595949288999e+00	-2.687005768511000e+00	 1.098032465596576e+00
-8.237794000822250e+00	-2.368807716977750e+00	 1.087578093950738e+00
-8.555992052356000e+00	-2.050609665444000e+00	 1.085711257447604e+00
-8.874190103890250e+00	-1.732411613909750e+00	 1.091071032952116e+00
-9.192388155425000e+00	-1.414213562375000e+00	 1.097885443441557e+00
-1.025304832720000e+01	-2.474873734150000e+00	 1.018507854005395e+00
-1.057124637873900e+01	-2.156675682619500e+00	 1.021492147289182e+00
-1.088944443027600e+01	-1.838477631087999e+00	 1.024619036080612e+00
-1.120764248181100e+01	-1.520279579555499e+00	 1.027843539087955e+00
-1.152584053334400e+01	-1.202081528021999e+00	 1.031120675053819e+00
-1.184403858487500e+01	-8.838834764874985e-01	 1.034405462755171e+00
-1.216223663640400e+01	-5.656854249519983e-01	 1.037652921003362e+00
-1.248043468793100e+01	-2.474873734154980e-01	 1.040818068644145e+00
-1.279863273945600e+01	 7.071067812200227e-02	 1.043855924557701e+00
-1.311683079097900e+01	 3.889087296605026e-01	 1.046721507658658e+00
-1.343502884250000e+01	 7.071067812000000e-01	 1.049369836896112e+00
-1.014698231002025e+01	-2.368807716970250e+00	 1.029387721221434e+00
-1.046518036155939e+01	-2.050609665439702e+00	 1.030092637102624e+00
-1.078337841309692e+01	-1.732411613908159e+00	 1.031199853849142e+00
-1.110157646463283e+01	-1.414213562375622e+00	 1.032664389766995e+00
-1.141977451616713e+01	-1.096015510842089e+00	 1.034441263196538e+00
-1.173797256769981e+01	-7.778174593075607e-01	 1.036485492512497e+00
-1.205617061923088e+01	-4.596194077720384e-01	 1.038752096123992e+00
-1.237436867076034e+01	-1.414213562355205e-01	 1.041196092474556e+00
-1.269256672228817e+01	 1.767766953019923e-01	 1.043772500042158e+00
-1.301076477381440e+01	 4.949747468405001e-01	 1.046436337339226e+00
-1.332896282533900e+01	 8.131727983800000e-01	 1.049142622912665e+00
-1.004091629284100e+01	-2.262741699791000e+00	 1.039635259745856e+00
-1.035911434438017e+01	-1.944543648260309e+00	 1.038156388217105e+00
-1.067731239591808e+01	-1.626345596728640e+00	 1.037339522999506e+00
-1.099551044745473e+01	-1.308147545195989e+00	 1.037139681996802e+00
-1.131370849899012e+01	-9.899494936623587e-01	 1.037511883147090e+00
-1.163190655052425e+01	-6.717514421277486e-01	 1.038411144422852e+00
-1.195010460205712e+01	-3.535533905921585e-01	 1.039792483830969e+00
-1.226830265358873e+01	-3.535533905558799e-02	 1.041610919412751e+00
-1.258650070511908e+01	 2.828427124819622e-01	 1.043821469243949e+00
-1.290469875664818e+01	 6.010407640204927e-01	 1.046379151434784e+00
-1.322289680817600e+01	 9.192388155599999e-01	 1.049238984129966e+00
-9.934850275662251e+00	-2.156675682612251e+00	 1.049242417252180e+00
-1.025304832720133e+01	-1.838477631081322e+00	 1.045675348350824e+00
-1.057124637873948e+01	-1.520279579549440e+00	 1.043029991294586e+00
-1.088944443027669e+01	-1.202081528016602e+00	 1.041261363584938e+00
-1.120764248181297e+01	-8.838834764828090e-01	 1.040324482757718e+00
-1.152584053334832e+01	-5.656854249480612e-01	 1.040174366383156e+00
-1.184403858488272e+01	-2.474873734123583e-01	 1.040766032065895e+00
-1.216223663641620e+01	 7.071067812429956e-02	 1.042054497445010e+00
-1.248043468794873e+01	 3.889087296619124e-01	 1.043994780194033e+00
-1.279863273948033e+01	 7.071067812004802e-01	 1.046541898020972e+00
-1.311683079101100e+01	 1.025304832740000e+00	 1.049650868668337e+00
-9.828784258484001e+00	-2.050609665434000e+00	 1.058201141354765e+00
-1.014698231002288e+01	-1.732411613902740e+00	 1.052641465162822e+00
-1.046518036156112e+01	-1.414213562370559e+00	 1.048263206438104e+00
-1.078337841309872e+01	-1.096015510837459e+00	 1.045021382279808e+00
-1.110157646463568e+01	-7.778174593034390e-01	 1.042871009821508e+00
-1.141977451617200e+01	-4.596194077684986e-01	 1.041767106231178e+00
-1.173797256770768e+01	-1.414213562326383e-01	 1.041664688711216e+00
-1.205617061924272e+01	 1.767766953041420e-01	 1.042518774498460e+00
-1.237436867077712e+01	 4.949747468418423e-01	 1.044284380864216e+00
-1.269256672231088e+01	 8.131727983804627e-01	 1.046916525114277e+00
-1.301076477384400e+01	 1.131370849920000e+00	 1.050370224588943e+00
-9.722718241306250e+00	-1.944543648256250e+00	 1.066503379608808e+00
-1.004091629284481e+01	-1.626345596724563e+00	 1.059046686252980e+00
-1.035911434438300e+01	-1.308147545191999e+00	 1.053031116074622e+00
-1.067731239592081e+01	-9.899494936585616e-01	 1.048411685770655e+00
-1.099551044745825e+01	-6.717514421242488e-01	 1.045143412072385e+00
-1.131370849899531e+01	-3.535533905890611e-01	 1.043181311745525e+00
-1.163190655053200e+01	-3.535533905299827e-02	 1.042480401590221e+00
-1.195010460206831e+01	 2.828427124839396e-01	 1.042995698441073e+00
-1.226830265360425e+01	 6.010407640217522e-01	 1.044682219167154e+00
-1.258650070513981e+01	 9.192388155604400e-01	 1.047494980672034e+00
-1.290469875667500e+01	 1.237436867100000e+00	 1.051388999893800e+00
-9.616652224129002e+00	-1.838477631079000e+00	 1.074141079510348e+00
-9.934850275667129e+00	-1.520279579546790e+00	 1.064882959162018e+00
-1.025304832720512e+01	-1.202081528013759e+00	 1.057325667789545e+00
-1.057124637874297e+01	-8.838834764799091e-01	 1.051424221687568e+00
-1.088944443028068e+01	-5.656854249452388e-01	 1.047133637185118e+00
-1.120764248181825e+01	-2.474873734097485e-01	 1.044408930645646e+00
-1.152584053335569e+01	 7.071067812656173e-02	 1.043205118467044e+00
-1.184403858489297e+01	 3.889087296636920e-01	 1.043477217081665e+00
-1.216223663643012e+01	 7.071067812016423e-01	 1.045180242956343e+00
-1.248043468796713e+01	 1.025304832740413e+00	 1.048269212592422e+00
-1.279863273950400e+01	 1.343502884280000e+00	 1.052699142525771e+00
-9.510586206952249e+00	-1.732411613902250e+00	 1.081106188496261e+00
-9.828784258489833e+00	-1.414213562369422e+00	 1.070142231371495e+00
-1.014698231002748e+01	-1.096015510835840e+00	 1.061138809109116e+00
-1.046518036156519e+01	-7.778174593015017e-01	 1.054050937601471e+00
-1.078337841310297e+01	-4.596194077664090e-01	 1.048833632775318e+00
-1.110157646464081e+01	-1.414213562305611e-01	 1.045441910591838e+00
-1.141977451617872e+01	 1.767766953060416e-01	 1.043830787046662e+00
-1.173797256771669e+01	 4.949747468433995e-01	 1.043955278169893e+00
-1.205617061925473e+01	 8.131727983815122e-01	 1.045770400026126e+00
-1.237436867079283e+01	 1.131370849920380e+00	 1.049231168714467e+00
-1.269256672233100e+01	 1.449568901460000e+00	 1.054292600368563e+00
-9.404520189776001e+00	-1.626345596726000e+00	 1.087390653944260e+00
-9.722718241312919e+00	-1.308147545192460e+00	 1.074816450303812e+00
-1.004091629285008e+01	-9.899494936582395e-01	 1.064462487500415e+00
-1.035911434438748e+01	-6.717514421233393e-01	 1.056283781024131e+00
-1.067731239592512e+01	-3.535533905877590e-01	 1.050235346399433e+00
-1.099551044746300e+01	-3.535533905149865e-02	 1.046272199185230e+00
-1.131370849900112e+01	 2.828427124854416e-01	 1.044349354974891e+00
-1.163190655053948e+01	 6.010407640230618e-01	 1.044421829396261e+00
-1.195010460207808e+01	 9.192388155613622e-01	 1.046444638111687e+00
-1.226830265361692e+01	 1.237436867100342e+00	 1.050372796818040e+00
-1.258650070515600e+01	 1.555634918640000e+00	 1.056161321246734e+00
-9.298454172600250e+00	-1.520279579550250e+00	 1.092986423172895e+00
-9.616652224136393e+00	-1.202081528015902e+00	 1.078897563322201e+00
-9.934850275672918e+00	-8.838834764809592e-01	 1.067288650371365e+00
-1.025304832720983e+01	-5.656854249454217e-01	 1.058114699408153e+00
-1.057124637874713e+01	-2.474873734092890e-01	 1.051330725554754e+00
-1.088944443028482e+01	 7.071067812743881e-02	 1.046891743967800e+00
-1.120764248182288e+01	 3.889087296647616e-01	 1.044752769838391e+00
-1.152584053336134e+01	 7.071067812026794e-01	 1.044868818392110e+00
-1.184403858490017e+01	 1.025304832741192e+00	 1.047194904889056e+00
-1.216223663643940e+01	 1.343502884280300e+00	 1.051686044623852e+00
-1.248043468797900e+01	 1.661700935820000e+00	 1.058297252925679e+00
-9.192388155425000e+00	-1.414213562375000e+00	 1.097885443441557e+00
-9.510586206960252e+00	-1.096015510839750e+00	 1.082377517730738e+00
-9.828784258496002e+00	-7.778174593039995e-01	 1.069609245070723e+00
-1.014698231003225e+01	-4.596194077677492e-01	 1.059535640146979e+00
-1.046518036156900e+01	-1.414213562309989e-01	 1.052111717679408e+00
-1.078337841310625e+01	 1.767766953062514e-01	 1.047292492422360e+00
-1.110157646464400e+01	 4.949747468440017e-01	 1.045032979164659e+00
-1.141977451618225e+01	 8.131727983822521e-01	 1.045288192729628e+00
-1.173797256772100e+01	 1.131370849921002e+00	 1.048013147975103e+00
-1.205617061926025e+01	 1.449568901460252e+00	 1.053162859793463e+00
-1.237436867080000e+01	 1.767766953000000e+00	 1.060692343111646e+00
-6.010407640100000e+00	-4.596194077700000e+00	 1.293972311711072e+00
-6.328605691630251e+00	-4.277996026169751e+00	 1.248282083098984e+00
-6.646803743160999e+00	-3.959797974639000e+00	 1.208634794635874e+00
-6.965001794692250e+00	-3.641599923107750e+00	 1.175231909563791e+00
-7.283199846223999e+00	-3.323401871576000e+00	 1.144824679970480e+00
-7.601397897756250e+00	-3.005203820043750e+00	 1.117104588798679e+00
-7.919595949288999e+00	-2.687005768511000e+00	 1.098032465596576e+00
-8.237794000822250e+00	-2.368807716977750e+00	 1.087578093950738e+00
-8.555992052356000e+00	-2.050609665444000e+00	 1.085711257447604e+00
-8.874190103890250e+00	-1.732411613909750e+00	 1.091071032952116e+00
-9.192388155425000e+00	-1.414213562375000e+00	 1.097885443441557e+00
-5.904341622920000e+00	-4.490128060520000e+00	 1.296348507481512e+00
-6.222539674452007e+00	-4.171930008991507e+00	 1.252245418433416e+00
-6.540737725984230e+00	-3.853731957462229e+00	 1.214060826704840e+00
-6.858935777516668e+00	-3.535533905932168e+00	 1.181996197672838e+00
-7.177133829049319e+00	-3.217335854401319e+00	 1.149526084844221e+00
-7.495331880582188e+00	-2.899137802869688e+00	 1.122753236391577e+00
-7.813529932115269e+00	-2.580939751337270e+00	 1.104482975009758e+00
-8.131727983648569e+00	-2.262741699804067e+00	 1.094685084285288e+00
-8.449926035182081e+00	-1.944543648270080e+00	 1.093329347804579e+00
-8.768124086715808e+00	-1.626345596735308e+00	 1.100385549153928e+00
-9.086322138249750e+00	-1.308147545199750e+00	 1.108805914847545e+00
-5.798275605740001e+00	-4.384062043340000e+00	 1.300744192406639e+00
-6.116473657273580e+00	-4.065863991813080e+00	 1.257939057028241e+00
-6.434671708807119e+00	-3.747665940285120e+00	 1.220927976407229e+00
-6.752869760340618e+00	-3.429467888756119e+00	 1.189273309256929e+00
-7.071067811874078e+00	-3.111269837226079e+00	 1.154779676478230e+00
-7.389265863407499e+00	-2.793071785695000e+00	 1.128673466284887e+00
-7.707463914940879e+00	-2.474873734162879e+00	 1.110924462263489e+00
-8.025661966474221e+00	-2.156675682629720e+00	 1.101502448000524e+00
-8.343860018007518e+00	-1.838477631095520e+00	 1.100377207082382e+00
-8.662058069540780e+00	-1.520279579560280e+00	 1.107518523095350e+00
-8.980256121074000e+00	-1.202081528024000e+00	 1.118673544008690e+00
-5.692209588559999e+00	-4.277996026159999e+00	 1.307165224778918e+00
-6.010407640094967e+00	-3.959797974634466e+00	 1.265368857186677e+00
-6.328605691629669e+00	-3.641599923107670e+00	 1.229242102057002e+00
-6.646803743164107e+00	-3.323401871579607e+00	 1.194560511130068e+00
-6.965001794698279e+00	-3.005203820050279e+00	 1.160598293049654e+00
-7.283199846232187e+00	-2.687005768519687e+00	 1.134878116655757e+00
-7.601397897765829e+00	-2.368807716987829e+00	 1.117369765534922e+00
-7.919595949299207e+00	-2.050609665454707e+00	 1.108043023273604e+00
-8.237794000832320e+00	-1.732411613920320e+00	 1.106867673458175e+00
-8.555992052365168e+00	-1.414213562384667e+00	 1.113813499674916e+00
-8.874190103897751e+00	-1.096015510847750e+00	 1.127480299651706e+00
-5.586143571380000e+00	-4.171930008980000e+00	 1.315617462808875e+00
-5.904341622916169e+00	-3.853731957455670e+00	 1.274540677129994e+00
-6.222539674451880e+00	-3.535533905929879e+00	 1.239009064447033e+00
-6.540737725987128e+00	-3.217335854402628e+00	 1.200706180577612e+00
-6.858935777521921e+00	-2.899137802873919e+00	 1.166994772735639e+00
-7.177133829056249e+00	-2.580939751343750e+00	 1.141380025681336e+00
-7.495331880590119e+00	-2.262741699812120e+00	 1.123831723001210e+00
-7.813529932123529e+00	-1.944543648279030e+00	 1.114319648281687e+00
-8.131727983656479e+00	-1.626345596744480e+00	 1.112813585109123e+00
-8.449926035188971e+00	-1.308147545208470e+00	 1.119283317069796e+00
-8.768124086721000e+00	-9.899494936709997e-01	 1.133698627749915e+00
-5.480077554199999e+00	-4.065863991800000e+00	 1.326106764625089e+00
-5.798275605737186e+00	-3.747665940276686e+00	 1.285460374997520e+00
-6.116473657273749e+00	-3.429467888751749e+00	 1.249445854142381e+00
-6.434671708809688e+00	-3.111269837225187e+00	 1.207723155776706e+00
-6.752869760345000e+00	-2.793071785696999e+00	 1.173981953713328e+00
-7.071067811879686e+00	-2.474873734167187e+00	 1.148192031538773e+00
-7.389265863413751e+00	-2.156675682635750e+00	 1.130323172839506e+00
-7.707463914947187e+00	-1.838477631102687e+00	 1.120345161201930e+00
-8.025661966480000e+00	-1.520279579568000e+00	 1.118227780212386e+00
-8.343860018012187e+00	-1.202081528031687e+00	 1.123940813457156e+00
-8.662058069543750e+00	-8.838834764937497e-01	 1.137454044522455e+00
-5.374011537019999e+00	-3.959797974619999e+00	 1.338638988274205e+00
-5.692209588558019e+00	-3.641599923097520e+00	 1.298133808846647e+00
-6.010407640095278e+00	-3.323401871573279e+00	 1.257511991052612e+00
-6.328605691631780e+00	-3.005203820047279e+00	 1.215624274904495e+00
-6.646803743167519e+00	-2.687005768519519e+00	 1.181572674159870e+00
-6.965001794702499e+00	-2.368807716989999e+00	 1.155326972405216e+00
-7.283199846236720e+00	-2.050609665458720e+00	 1.136856953226962e+00
-7.601397897770179e+00	-1.732411613925680e+00	 1.126132400211490e+00
-7.919595949302878e+00	-1.414213562390880e+00	 1.123123096945129e+00
-8.237794000834821e+00	-1.096015510854320e+00	 1.127798827014161e+00
-8.555992052365999e+00	-7.778174593159994e-01	 1.140129374004817e+00
-5.267945519840000e+00	-3.853731957439999e+00	 1.353219991720921e+00
-5.586143571378666e+00	-3.535533905918166e+00	 1.312566839603061e+00
-5.904341622916468e+00	-3.217335854394468e+00	 1.266755714528523e+00
-6.222539674453407e+00	-2.899137802868907e+00	 1.224422376138123e+00
-6.540737725989480e+00	-2.580939751341480e+00	 1.189779772252410e+00
-6.858935777524687e+00	-2.262741699812187e+00	 1.162797686457816e+00
-7.177133829059029e+00	-1.944543648281029e+00	 1.143445902340735e+00
-7.495331880592507e+00	-1.626345596748007e+00	 1.131694203487529e+00
-7.813529932125119e+00	-1.308147545213119e+00	 1.127512373484516e+00
-8.131727983656866e+00	-9.899494936763673e-01	 1.130870195917981e+00
-8.449926035187749e+00	-6.717514421377493e-01	 1.141737454374171e+00
-5.161879502660000e+00	-3.747665940259999e+00	 1.369855632848004e+00
-5.480077554199130e+00	-3.429467888738629e+00	 1.327824997859243e+00
-5.798275605737319e+00	-3.111269837215318e+00	 1.277189862747259e+00
-6.116473657274570e+00	-2.793071785690069e+00	 1.234130297654737e+00
-6.434671708810877e+00	-2.474873734162879e+00	 1.198616086168095e+00
-6.752869760346249e+00	-2.156675682633749e+00	 1.170617011873720e+00
-7.071067811880678e+00	-1.838477631102679e+00	 1.150102858357978e+00
-7.389265863414170e+00	-1.520279579569669e+00	 1.137043409207204e+00
-7.707463914946720e+00	-1.202081528034720e+00	 1.131408448007711e+00
-8.025661966478328e+00	-8.838834764978295e-01	 1.133167758345785e+00
-8.343860018009000e+00	-5.656854249589993e-01	 1.142291123807686e+00
-5.055813485479999e+00	-3.641599923079999e+00	 1.388551769456279e+00
-5.374011537019407e+00	-3.323401871558907e+00	 1.340323859261167e+00
-5.692209588557829e+00	-3.005203820035829e+00	 1.288827273885969e+00
-6.010407640095266e+00	-2.687005768510766e+00	 1.244760877631484e+00
-6.328605691631720e+00	-2.368807716983720e+00	 1.208094454084073e+00
-6.646803743167188e+00	-2.050609665454687e+00	 1.178797786830083e+00
-6.965001794701669e+00	-1.732411613923669e+00	 1.156840659455845e+00
-7.283199846235166e+00	-1.414213562390667e+00	 1.142192855547676e+00
-7.601397897767679e+00	-1.096015510855679e+00	 1.134824158691879e+00
-7.919595949299207e+00	-7.778174593187069e-01	 1.134704352474741e+00
-8.237794000829748e+00	-4.596194077797492e-01	 1.141803220482536e+00
-4.949747468300000e+00	-3.535533905900000e+00	 1.409314262664569e+00
-5.267945519839500e+00	-3.217335854379000e+00	 1.354319426220063e+00
-5.586143571378001e+00	-2.899137802856000e+00	 1.301680786121801e+00
-5.904341622915500e+00	-2.580939751331000e+00	 1.256326954245508e+00
-6.222539674452000e+00	-2.262741699804000e+00	 1.218227714177491e+00
-6.540737725987500e+00	-1.944543648275000e+00	 1.187352849504053e+00
-6.858935777521999e+00	-1.626345596744000e+00	 1.163672143811493e+00
-7.177133829055500e+00	-1.308147545211000e+00	 1.147155380686106e+00
-7.495331880588001e+00	-9.899494936760004e-01	 1.137772343714185e+00
-7.813529932119500e+00	-6.717514421390002e-01	 1.135492816482018e+00
-8.131727983650000e+00	-3.535533906000000e-01	 1.140286582575889e+00
-9.192388155425000e+00	-1.414213562375000e+00	 1.097885443441557e+00
-9.510586206960252e+00	-1.096015510839750e+00	 1.082377517730738e+00
-9.828784258496002e+00	-7.778174593039995e-01	 1.069609245070723e+00
-1.014698231003225e+01	-4.596194077677492e-01	 1.059535640146979e+00
-1.046518036156900e+01	-1.414213562309989e-01	 1.052111717679408e+00
-1.078337841310625e+01	 1.767766953062514e-01	 1.047292492422360e+00
-1.110157646464400e+01	 4.949747468440017e-01	 1.045032979164659e+00
-1.141977451618225e+01	 8.131727983822521e-01	 1.045288192729628e+00
-1.173797256772100e+01	 1.131370849921002e+00	 1.048013147975103e+00
-1.205617061926025e+01	 1.449568901460252e+00	 1.053162859793463e+00
-1.237436867080000e+01	 1.767766953000000e+00	 1.060692343111646e+00
-9.086322138249750e+00	-1.308147545199750e+00	 1.108805914847545e+00
-9.404520189784099e+00	-9.899494936636072e-01	 1.092018698220775e+00
-9.722718241319045e+00	-6.717514421270794e-01	 1.078069367865445e+00
-1.004091629285458e+01	-3.535533905901665e-01	 1.066912938064741e+00
-1.035911434439071e+01	-3.535533905286876e-02	 1.058504423136289e+00
-1.067731239592744e+01	 2.828427124848140e-01	 1.052798837432177e+00
-1.099551044746476e+01	 6.010407640228819e-01	 1.049751195338974e+00
-1.131370849900268e+01	 9.192388155613346e-01	 1.049316511277758e+00
-1.163190655054119e+01	 1.237436867100173e+00	 1.051449799704130e+00
-1.195010460208030e+01	 1.555634918639395e+00	 1.056106075108238e+00
-1.226830265362000e+01	 1.873832970179000e+00	 1.063240352014806e+00
-8.980256121074000e+00	-1.202081528024000e+00	 1.118673544008690e+00
-9.298454172607540e+00	-8.838834764870794e-01	 1.100716994907703e+00
-9.616652224141761e+00	-5.656854249499191e-01	 1.085696557912481e+00
-9.934850275676661e+00	-2.474873734125190e-01	 1.073567254378368e+00
-1.025304832721224e+01	 7.071067812512133e-02	 1.064284098220716e+00
-1.057124637874850e+01	 3.889087296630016e-01	 1.057802103389346e+00
-1.088944443028544e+01	 7.071067812011219e-01	 1.054076283868572e+00
-1.120764248182306e+01	 1.025304832739482e+00	 1.053061653677223e+00
-1.152584053336136e+01	 1.343502884278082e+00	 1.054713226868662e+00
-1.184403858490034e+01	 1.661700935816923e+00	 1.058986017530809e+00
-1.216223663644000e+01	 1.979898987356000e+00	 1.065835039786167e+00
-8.874190103897751e+00	-1.096015510847750e+00	 1.127480299651706e+00
-9.192388155430578e+00	-7.778174593101669e-01	 1.108464354918113e+00
-9.510586206964161e+00	-4.596194077725190e-01	 1.092482762383106e+00
-9.828784258498501e+00	-1.414213562348063e-01	 1.079490536303821e+00
-1.014698231003359e+01	 1.767766953029713e-01	 1.069442690193333e+00
-1.046518036156944e+01	 4.949747468408143e-01	 1.062294237599197e+00
-1.078337841310604e+01	 8.131727983787219e-01	 1.058000192103467e+00
-1.110157646464340e+01	 1.131370849916695e+00	 1.056515567322722e+00
-1.141977451618151e+01	 1.449568901454733e+00	 1.057795376908086e+00
-1.173797256772038e+01	 1.767766952992835e+00	 1.061794634545250e+00
-1.205617061926000e+01	 2.085965004531000e+00	 1.068468353954493e+00
-8.768124086721000e+00	-9.899494936709997e-01	 1.133698627749915e+00
-9.086322138253211e+00	-6.717514421328694e-01	 1.115252725319429e+00
-9.404520189786240e+00	-3.535533905948789e-01	 1.098419928389428e+00
-9.722718241320091e+00	-3.535533905702869e-02	 1.084674730997893e+00
-1.004091629285476e+01	 2.828427124806814e-01	 1.073972146255620e+00
-1.035911434439025e+01	 6.010407640182520e-01	 1.066267187307894e+00
-1.067731239592656e+01	 9.192388155556820e-01	 1.061514867334509e+00
-1.099551044746369e+01	 1.237436867092973e+00	 1.059670199549793e+00
-1.131370849900164e+01	 1.555634918630123e+00	 1.060688197202630e+00
-1.163190655054041e+01	 1.873832970167133e+00	 1.064523873576476e+00
-1.195010460208000e+01	 2.192031021704000e+00	 1.071132241989390e+00
-8.662058069543750e+00	-8.838834764937497e-01	 1.137454044522455e+00
-8.980256121075438e+00	-5.656854249551867e-01	 1.121074046202894e+00
-9.298454172608000e+00	-2.474873734169988e-01	 1.103500002984392e+00
-9.616652224141436e+00	 7.071067812081396e-02	 1.089111785558215e+00
-9.934850275675752e+00	 3.889087296582516e-01	 1.077864413549892e+00
-1.025304832721094e+01	 7.071067811953143e-01	 1.069712899702440e+00
-1.057124637874700e+01	 1.025304832732002e+00	 1.064612256793388e+00
-1.088944443028394e+01	 1.343502884268315e+00	 1.062517497634814e+00
-1.120764248182175e+01	 1.661700935804253e+00	 1.063383635073356e+00
-1.152584053336044e+01	 1.979898987339815e+00	 1.067165681990242e+00
-1.184403858490000e+01	 2.298097038875000e+00	 1.073818651301303e+00
-8.555992052365999e+00	-7.778174593159994e-01	 1.140129374004817e+00
-8.874190103897259e+00	-4.596194077771190e-01	 1.125920284550769e+00
-9.192388155429441e+00	-1.414213562388788e-01	 1.107714933161774e+00
-9.510586206962540e+00	 1.767766952987214e-01	 1.092793647023247e+00
-9.828784258496562e+00	 4.949747468356817e-01	 1.081111439159299e+00
-1.014698231003150e+01	 8.131727983720018e-01	 1.072623321910669e+00
-1.046518036156736e+01	 1.131370849907682e+00	 1.067284307652627e+00
-1.078337841310414e+01	 1.449568901442723e+00	 1.065049408794996e+00
-1.110157646464184e+01	 1.767766952977123e+00	 1.065873637782171e+00
-1.141977451618046e+01	 2.085965004510883e+00	 1.069712007093143e+00
-1.173797256772000e+01	 2.404163056044001e+00	 1.076519529241518e+00
-8.449926035187749e+00	-6.717514421377493e-01	 1.141737454374171e+00
-8.768124086718673e+00	-3.535533905986664e-01	 1.128300874268454e+00
-9.086322138250560e+00	-3.535533906051870e-02	 1.111056665856183e+00
-9.404520189783399e+00	 2.828427124766941e-01	 1.095712262372287e+00
-9.722718241317191e+00	 6.010407640129718e-01	 1.083705170107823e+00
-1.004091629285194e+01	 9.192388155483147e-01	 1.074990401001254e+00
-1.035911434438764e+01	 1.237436867082722e+00	 1.069522967025588e+00
-1.067731239592430e+01	 1.555634918616195e+00	 1.067257880188391e+00
-1.099551044746191e+01	 1.873832970148733e+00	 1.068150152531814e+00
-1.131370849900048e+01	 2.192031021680336e+00	 1.072154796132610e+00
-1.163190655054000e+01	 2.510229073211001e+00	 1.079226823102163e+00
-8.343860018009000e+00	-5.656854249589993e-01	 1.142291123807686e+00
-8.662058069539690e+00	-2.474873734198288e-01	 1.128385209698410e+00
-8.980256121071362e+00	 7.071067811808149e-02	 1.113517141647402e+00
-9.298454172604011e+00	 3.889087296547317e-01	 1.097859578525463e+00
-9.616652224137640e+00	 7.071067811901218e-01	 1.085637553360280e+00
-9.934850275672250e+00	 1.025304832724252e+00	 1.076806083983700e+00
-1.025304832720784e+01	 1.343502884257123e+00	 1.071320181966465e+00
-1.057124637874441e+01	 1.661700935788733e+00	 1.069134858913885e+00
-1.088944443028196e+01	 1.979898987319083e+00	 1.070205126465863e+00
-1.120764248182049e+01	 2.298097038848173e+00	 1.074485996296917e+00
-1.152584053336000e+01	 2.616295090376001e+00	 1.081932480116202e+00
-8.237794000829748e+00	-4.596194077797492e-01	 1.141803220482536e+00
-8.555992052360297e+00	-1.414213562406064e-01	 1.127537377608638e+00
-8.874190103891843e+00	 1.767766952969214e-01	 1.115088325588080e+00
-9.192388155424378e+00	 4.949747468328342e-01	 1.099227542343735e+00
-9.510586206957910e+00	 8.131727983671319e-01	 1.086900535822319e+00
-9.828784258492441e+00	 1.131370849899815e+00	 1.078062317808346e+00
-1.014698231002796e+01	 1.449568901430883e+00	 1.072667899470288e+00
-1.046518036156448e+01	 1.767766952960335e+00	 1.070672292011198e+00
-1.078337841310199e+01	 2.085965004488173e+00	 1.072030506668733e+00
-1.110157646464050e+01	 2.404163056014396e+00	 1.076697554715171e+00
-1.141977451618000e+01	 2.722361107539001e+00	 1.084628447457442e+00
-8.131727983650000e+00	-3.535533906000000e-01	 1.140286582575889e+00
-8.449926035180502e+00	-3.535533906099975e-02	 1.125770216176305e+00
-8.768124086712003e+00	 2.828427124760007e-01	 1.114380692032360e+00
-9.086322138244501e+00	 6.010407640110009e-01	 1.099808100628894e+00
-9.404520189778001e+00	 9.192388155440012e-01	 1.087486064340422e+00
-9.722718241312503e+00	 1.237436867075001e+00	 1.078751049366363e+00
-1.004091629284800e+01	 1.555634918604002e+00	 1.073558066472919e+00
-1.035911434438450e+01	 1.873832970131002e+00	 1.071862126460887e+00
-1.067731239592200e+01	 2.192031021656002e+00	 1.073618240165672e+00
-1.099551044746050e+01	 2.510229073179003e+00	 1.078781418457319e+00
-1.131370849900000e+01	 2.828427124700000e+00	 1.087306672240525e+00
-6.363961030700000e+00	-6.363961030700000e+00	 1.254294785299426e+00
-6.434671708820001e+00	-6.293250352580001e+00	 1.260804785837186e+00
-6.505382386939999e+00	-6.222539674459999e+00	 1.266103131080656e+00
-6.576093065060000e+00	-6.151828996340001e+00	 1.270192032175381e+00
-6.646803743180000e+00	-6.081118318220000e+00	 1.273073700247890e+00
-6.717514421300000e+00	-6.010407640100000e+00	 1.274750346405689e+00
-6.788225099420000e+00	-5.939696961979999e+00	 1.275224181737262e+00
-6.858935777539999e+00	-5.868986283860000e+00	 1.274497417312075e+00
-6.929646455660000e+00	-5.798275605740001e+00	 1.272572264180573e+00
-7.000357133780000e+00	-5.727564927620000e+00	 1.269450933374181e+00
-7.071067811900000e+00	-5.656854249500000e+00	 1.265135635905303e+00
-6.257895013520000e+00	-6.257895013520000e+00	 1.255414416900702e+00
-6.328605691639998e+00	-6.187184335400000e+00	 1.261403677100762e+00
-6.399316369759998e+00	-6.116473657279998e+00	 1.266125721712449e+00
-6.470027047880001e+00	-6.045762979159999e+00	 1.269582761880252e+00
-6.540737726000000e+00	-5.975052301040001e+00	 1.271777008729635e+00
-6.611448404120000e+00	-5.904341622920001e+00	 1.272710673367044e+00
-6.682159082240000e+00	-5.833630944800000e+00	 1.272385966879902e+00
-6.752869760360000e+00	-5.762920266679999e+00	 1.270805100336615e+00
-6.823580438480001e+00	-5.692209588560002e+00	 1.267970284786566e+00
-6.894291116599999e+00	-5.621498910440001e+00	 1.263883731260117e+00
-6.965001794720001e+00	-5.550788232320000e+00	 1.258547650768616e+00
-6.151828996339999e+00	-6.151828996339999e+00	 1.257827886119304e+00
-6.222539674459999e+00	-6.081118318219999e+00	 1.263369396374674e+00
-6.293250352579999e+00	-6.010407640100000e+00	 1.267588130760796e+00
-6.363961030699999e+00	-5.939696961980000e+00	 1.270486300421098e+00
-6.434671708820001e+00	-5.868986283860000e+00	 1.272066116479980e+00
-6.505382386939999e+00	-5.798275605740000e+00	 1.272329790042828e+00
-6.576093065060000e+00	-5.727564927620000e+00	 1.271279532196008e+00
-6.646803743180000e+00	-5.656854249500002e+00	 1.268917554006858e+00
-6.717514421300000e+00	-5.586143571380000e+00	 1.265246066523706e+00
-6.788225099420000e+00	-5.515432893260001e+00	 1.260267280775851e+00
-6.858935777540000e+00	-5.444722215140001e+00	 1.253983407773579e+00
-6.045762979160000e+00	-6.045762979160000e+00	 1.261541052043333e+00
-6.116473657280000e+00	-5.975052301039999e+00	 1.266707802749414e+00
-6.187184335400000e+00	-5.904341622920001e+00	 1.270496217318577e+00
-6.257895013520000e+00	-5.833630944800000e+00	 1.272908506893186e+00
-6.328605691640000e+00	-5.762920266679999e+00	 1.273946882596583e+00
-6.399316369760000e+00	-5.692209588560001e+00	 1.273613555533092e+00
-6.470027047879999e+00	-5.621498910440000e+00	 1.271910736788014e+00
-6.540737725999999e+00	-5.550788232320000e+00	 1.268840637427632e+00
-6.611448404119999e+00	-5.480077554200000e+00	 1.264405468499208e+00
-6.682159082240000e+00	-5.409366876080000e+00	 1.258607441030983e+00
-6.752869760359999e+00	-5.338656197960000e+00	 1.251448766032181e+00
-5.939696961980000e+00	-5.939696961980000e+00	 1.266559773678930e+00
-6.010407640100000e+00	-5.868986283860001e+00	 1.271424755233512e+00
-6.081118318220000e+00	-5.798275605740000e+00	 1.274855840396710e+00
-6.151828996339999e+00	-5.727564927620000e+00	 1.276855240309826e+00
-6.222539674459999e+00	-5.656854249500001e+00	 1.277425166095142e+00
-6.293250352580000e+00	-5.586143571379999e+00	 1.276567828855919e+00
-6.363961030700001e+00	-5.515432893260001e+00	 1.274285439676399e+00
-6.434671708820000e+00	-5.444722215140000e+00	 1.270580209621800e+00
-6.505382386940000e+00	-5.374011537020001e+00	 1.265454349738326e+00
-6.576093065060001e+00	-5.303300858900002e+00	 1.258910071053158e+00
-6.646803743180000e+00	-5.232590180780001e+00	 1.250949584574455e+00
-5.833630944799999e+00	-5.833630944799999e+00	 1.272889909950271e+00
-5.904341622920001e+00	-5.762920266680001e+00	 1.277526112753536e+00
-5.975052301040000e+00	-5.692209588560000e+00	 1.280672858924154e+00
-6.045762979160001e+00	-5.621498910440001e+00	 1.282332359602367e+00
-6.116473657280000e+00	-5.550788232320000e+00	 1.282506825909396e+00
-6.187184335400000e+00	-5.480077554200000e+00	 1.281198468947440e+00
-6.257895013519999e+00	-5.409366876079999e+00	 1.278409499799679e+00
-6.328605691639999e+00	-5.338656197960001e+00	 1.274142129530271e+00
-6.399316369759999e+00	-5.267945519840000e+00	 1.268398569184358e+00
-6.470027047879999e+00	-5.197234841720001e+00	 1.261181029788059e+00
-6.540737726000001e+00	-5.126524163600000e+00	 1.252491722348474e+00
-5.727564927620000e+00	-5.727564927620000e+00	 1.280537319699581e+00
-5.798275605740000e+00	-5.656854249499999e+00	 1.285017734154098e+00
-5.868986283860000e+00	-5.586143571380000e+00	 1.287953131747912e+00
-5.939696961980000e+00	-5.515432893260001e+00	 1.289345723620202e+00
-6.010407640100000e+00	-5.444722215140001e+00	 1.289197720891127e+00
-6.081118318220000e+00	-5.374011537019999e+00	 1.287511334661826e+00
-6.151828996340000e+00	-5.303300858899999e+00	 1.284288776014416e+00
-6.222539674460001e+00	-5.232590180780000e+00	 1.279532256011995e+00
-6.293250352580001e+00	-5.161879502660001e+00	 1.273243985698642e+00
-6.363961030700001e+00	-5.091168824540001e+00	 1.265426176099415e+00
-6.434671708819999e+00	-5.020458146419999e+00	 1.256081038220355e+00
-5.621498910440000e+00	-5.621498910440000e+00	 1.289507861687124e+00
-5.692209588559999e+00	-5.550788232320000e+00	 1.293905478197854e+00
-5.762920266680000e+00	-5.480077554200000e+00	 1.296702517633030e+00
-5.833630944799999e+00	-5.409366876080001e+00	 1.297901191130767e+00
-5.904341622920000e+00	-5.338656197960000e+00	 1.297503709810162e+00
-5.975052301040000e+00	-5.267945519840000e+00	 1.295512284771293e+00
-6.045762979159998e+00	-5.197234841719999e+00	 1.291929127095216e+00
-6.116473657280000e+00	-5.126524163600001e+00	 1.286756447843967e+00
-6.187184335399998e+00	-5.055813485479999e+00	 1.279996458060563e+00
-6.257895013520000e+00	-4.985102807360001e+00	 1.271651368769002e+00
-6.328605691640000e+00	-4.914392129240000e+00	 1.261723390974262e+00
-5.515432893260001e+00	-5.515432893260001e+00	 1.299807394591209e+00
-5.586143571380000e+00	-5.444722215140000e+00	 1.304195203565506e+00
-5.656854249499999e+00	-5.374011537019999e+00	 1.306926875262599e+00
-5.727564927620000e+00	-5.303300858900002e+00	 1.308004620819542e+00
-5.798275605740001e+00	-5.232590180780001e+00	 1.307430651354372e+00
-5.868986283859999e+00	-5.161879502660000e+00	 1.305207177966103e+00
-5.939696961979999e+00	-5.091168824540000e+00	 1.301336411734729e+00
-6.010407640099999e+00	-5.020458146420000e+00	 1.295820563721227e+00
-6.081118318220000e+00	-4.949747468300000e+00	 1.288661844967552e+00
-6.151828996339999e+00	-4.879036790180001e+00	 1.279862466496638e+00
-6.222539674460001e+00	-4.808326112060001e+00	 1.269424639312405e+00
-5.409366876080001e+00	-5.409366876080001e+00	 1.311441777008194e+00
-5.480077554200000e+00	-5.338656197960000e+00	 1.315892768855800e+00
-5.550788232320000e+00	-5.267945519840000e+00	 1.318632063237757e+00
-5.621498910440001e+00	-5.197234841720001e+00	 1.319661871290057e+00
-5.692209588560000e+00	-5.126524163600000e+00	 1.318984404129675e+00
-5.762920266680001e+00	-5.055813485480002e+00	 1.316601872854564e+00
-5.833630944800000e+00	-4.985102807360001e+00	 1.312516488543657e+00
-5.904341622919999e+00	-4.914392129239999e+00	 1.306730462256866e+00
-5.975052301040000e+00	-4.843681451120000e+00	 1.299246005035086e+00
-6.045762979160001e+00	-4.772970773000000e+00	 1.290065327900193e+00
-6.116473657280000e+00	-4.702260094880000e+00	 1.279190641855041e+00
-5.303300858900000e+00	-5.303300858900000e+00	 1.324416867452483e+00
-5.374011537020000e+00	-5.232590180780000e+00	 1.329004032585532e+00
-5.444722215140001e+00	-5.161879502660000e+00	 1.331823940077690e+00
-5.515432893260000e+00	-5.091168824540000e+00	 1.332878801063889e+00
-5.586143571380000e+00	-5.020458146420000e+00	 1.332170826660040e+00
-5.656854249500000e+00	-4.949747468300000e+00	 1.329702227963036e+00
-5.727564927620000e+00	-4.879036790180001e+00	 1.325475216050747e+00
-5.798275605740000e+00	-4.808326112060000e+00	 1.319492001982023e+00
-5.868986283860000e+00	-4.737615433940000e+00	 1.311754796796698e+00
-5.939696961979999e+00	-4.666904755820000e+00	 1.302265811515584e+00
-6.010407640100000e+00	-4.596194077700000e+00	 1.291027257140477e+00
-5.303300858900000e+00	-5.303300858900000e+00	 1.324416867452483e+00
-5.374011537020000e+00	-5.232590180780000e+00	 1.329004032585532e+00
-5.444722215140001e+00	-5.161879502660000e+00	 1.331823940077690e+00
-5.515432893260000e+00	-5.091168824540000e+00	 1.332878801063889e+00
-5.586143571380000e+00	-5.020458146420000e+00	 1.332170826660040e+00
-5.656854249500000e+00	-4.949747468300000e+00	 1.329702227963036e+00
-5.727564927620000e+00	-4.879036790180001e+00	 1.325475216050747e+00
-5.798275605740000e+00	-4.808326112060000e+00	 1.319492001982023e+00
-5.868986283860000e+00	-4.737615433940000e+00	 1.311754796796698e+00
-5.939696961979999e+00	-4.666904755820000e+00	 1.302265811515584e+00
-6.010407640100000e+00	-4.596194077700000e+00	 1.291027257140477e+00
-5.197234841720000e+00	-5.197234841720000e+00	 1.342668805083971e+00
-5.267945519840000e+00	-5.126524163599999e+00	 1.350271802357336e+00
-5.338656197960001e+00	-5.055813485480002e+00	 1.355169504977537e+00
-5.409366876080001e+00	-4.985102807360001e+00	 1.357364124078444e+00
-5.480077554200000e+00	-4.914392129240000e+00	 1.356857870774905e+00
-5.550788232320000e+00	-4.843681451120000e+00	 1.353652956162749e+00
-5.621498910440001e+00	-4.772970773000000e+00	 1.347751591318788e+00
-5.692209588559999e+00	-4.702260094880000e+00	 1.339155987300809e+00
-5.762920266680000e+00	-4.631549416760000e+00	 1.327868355147583e+00
-5.833630944799999e+00	-4.560838738639999e+00	 1.313890905878863e+00
-5.904341622920000e+00	-4.490128060520000e+00	 1.297225850495379e+00
-5.091168824540000e+00	-5.091168824540000e+00	 1.365041729005500e+00
-5.161879502660000e+00	-5.020458146420000e+00	 1.375194168153382e+00
-5.232590180780000e+00	-4.949747468300000e+00	 1.381703275649031e+00
-5.303300858899998e+00	-4.879036790179998e+00	 1.384571262625253e+00
-5.374011537020001e+00	-4.808326112060001e+00	 1.383800340195835e+00
-5.444722215140000e+00	-4.737615433940000e+00	 1.379392719455544e+00
-5.515432893260001e+00	-4.666904755820000e+00	 1.371350611480127e+00
-5.586143571379999e+00	-4.596194077700000e+00	 1.359676227326313e+00
-5.656854249500000e+00	-4.525483399580000e+00	 1.344371778031810e+00
-5.727564927620000e+00	-4.454772721459999e+00	 1.325439474615308e+00
-5.798275605740001e+00	-4.384062043340000e+00	 1.302881528076476e+00
-4.985102807359999e+00	-4.985102807359999e+00	 1.391541497485629e+00
-5.055813485480000e+00	-4.914392129239999e+00	 1.403776988244622e+00
-5.126524163600001e+00	-4.843681451120000e+00	 1.411431110365513e+00
-5.197234841720001e+00	-4.772970773000001e+00	 1.414506074980050e+00
-5.267945519839998e+00	-4.702260094879998e+00	 1.413004093200955e+00
-5.338656197960001e+00	-4.631549416760000e+00	 1.406927376121933e+00
-5.409366876079998e+00	-4.560838738639999e+00	 1.396278134817669e+00
-5.480077554199999e+00	-4.490128060519999e+00	 1.381058580343831e+00
-5.550788232319999e+00	-4.419417382400000e+00	 1.361270923737064e+00
-5.621498910440001e+00	-4.348706704280001e+00	 1.336917376014997e+00
-5.692209588559999e+00	-4.277996026159999e+00	 1.308000148176237e+00
-4.879036790180000e+00	-4.879036790180000e+00	 1.422173968710970e+00
-4.949747468299999e+00	-4.808326112060000e+00	 1.436026120820058e+00
-5.020458146420000e+00	-4.737615433940000e+00	 1.444358867318380e+00
-5.091168824540000e+00	-4.666904755819999e+00	 1.447174419336621e+00
-5.161879502660000e+00	-4.596194077700000e+00	 1.444474987986442e+00
-5.232590180780001e+00	-4.525483399580001e+00	 1.436262784360485e+00
-5.303300858899999e+00	-4.454772721459999e+00	 1.422540019532376e+00
-5.374011537020000e+00	-4.384062043340000e+00	 1.403308904556715e+00
-5.444722215140001e+00	-4.313351365220000e+00	 1.378571650469088e+00
-5.515432893259999e+00	-4.242640687099999e+00	 1.348330468286062e+00
-5.586143571380000e+00	-4.171930008980000e+00	 1.312587569005183e+00
-4.772970772999999e+00	-4.772970772999999e+00	 1.456945000786193e+00
-4.843681451120000e+00	-4.702260094880000e+00	 1.471947423986752e+00
-4.914392129240000e+00	-4.631549416760000e+00	 1.480492404617084e+00
-4.985102807360000e+00	-4.560838738640000e+00	 1.482582153806810e+00
-5.055813485480000e+00	-4.490128060519999e+00	 1.478218882666533e+00
-5.126524163599999e+00	-4.419417382399999e+00	 1.467404802287831e+00
-5.197234841719998e+00	-4.348706704280000e+00	 1.450142123743262e+00
-5.267945519840000e+00	-4.277996026159999e+00	 1.426433058086372e+00
-5.338656197960000e+00	-4.207285348040000e+00	 1.396279816351683e+00
-5.409366876080000e+00	-4.136574669919999e+00	 1.359684609554694e+00
-5.480077554199999e+00	-4.065863991800000e+00	 1.316649648691895e+00
-4.666904755819999e+00	-4.666904755819999e+00	 1.495860451734023e+00
-4.737615433939999e+00	-4.596194077700000e+00	 1.511546755769821e+00
-4.808326112060000e+00	-4.525483399579999e+00	 1.519837580289134e+00
-4.879036790180000e+00	-4.454772721459999e+00	 1.520735136420523e+00
-4.949747468299999e+00	-4.384062043339998e+00	 1.514241635273522e+00
-5.020458146419999e+00	-4.313351365220000e+00	 1.500359287938651e+00
-5.091168824540000e+00	-4.242640687100000e+00	 1.479090305487408e+00
-5.161879502660000e+00	-4.171930008980000e+00	 1.450436898972272e+00
-5.232590180780001e+00	-4.101219330859999e+00	 1.414401279426703e+00
-5.303300858899999e+00	-4.030508652739998e+00	 1.370985657865143e+00
-5.374011537019999e+00	-3.959797974619999e+00	 1.320192245283015e+00
-4.560838738639999e+00	-4.560838738639999e+00	 1.538926179495246e+00
-4.631549416759999e+00	-4.490128060519998e+00	 1.554829974112442e+00
-4.702260094880000e+00	-4.419417382399999e+00	 1.562400252280101e+00
-4.772970773000000e+00	-4.348706704279999e+00	 1.561639225125714e+00
-4.843681451119999e+00	-4.277996026159999e+00	 1.552549103757760e+00
-4.914392129239999e+00	-4.207285348039999e+00	 1.535132099265692e+00
-4.985102807359999e+00	-4.136574669919999e+00	 1.509390422719947e+00
-5.055813485480000e+00	-4.065863991800000e+00	 1.475326285171941e+00
-5.126524163599998e+00	-3.995153313679999e+00	 1.432941897654071e+00
-5.197234841719999e+00	-3.924442635559999e+00	 1.382239471179717e+00
-5.267945519840000e+00	-3.853731957439999e+00	 1.323221216743242e+00
-4.454772721459999e+00	-4.454772721459999e+00	 1.586148041928706e+00
-4.525483399579999e+00	-4.384062043339999e+00	 1.601802936875855e+00
-4.596194077700000e+00	-4.313351365220000e+00	 1.608186278453614e+00
-4.666904755819999e+00	-4.242640687100000e+00	 1.605300277788412e+00
-4.737615433940000e+00	-4.171930008980000e+00	 1.593147145987665e+00
-4.808326112060000e+00	-4.101219330860000e+00	 1.571729094139762e+00
-4.879036790180000e+00	-4.030508652739999e+00	 1.541048333314079e+00
-4.949747468299998e+00	-3.959797974619999e+00	 1.501107074560968e+00
-5.020458146419999e+00	-3.889087296500000e+00	 1.451907528911767e+00
-5.091168824539999e+00	-3.818376618379999e+00	 1.393451907378791e+00
-5.161879502660000e+00	-3.747665940259999e+00	 1.325742420955339e+00
-4.348706704279999e+00	-4.348706704279999e+00	 1.637531896811311e+00
-4.419417382399998e+00	-4.277996026159999e+00	 1.652471501839359e+00
-4.490128060519999e+00	-4.207285348040000e+00	 1.657201516591366e+00
-4.560838738639999e+00	-4.136574669919999e+00	 1.651724152192700e+00
-4.631549416760000e+00	-4.065863991800000e+00	 1.636041619749711e+00
-4.702260094879999e+00	-3.995153313679999e+00	 1.610156130349729e+00
-4.772970772999999e+00	-3.924442635559999e+00	 1.574069895061064e+00
-4.843681451119998e+00	-3.853731957439999e+00	 1.527785124933009e+00
-4.914392129239999e+00	-3.783021279319999e+00	 1.471304030995835e+00
-4.985102807359999e+00	-3.712310601199999e+00	 1.404628824260799e+00
-5.055813485479999e+00	-3.641599923079999e+00	 1.327761715720135e+00
-4.242640687100000e+00	-4.242640687100000e+00	 1.693083601838034e+00
-4.313351365220000e+00	-4.171930008980000e+00	 1.706841526700319e+00
-4.384062043339999e+00	-4.101219330860000e+00	 1.709451824393115e+00
-4.454772721460000e+00	-4.030508652739999e+00	 1.700916706040726e+00
-4.525483399580001e+00	-3.959797974620000e+00	 1.681238382748441e+00
-4.596194077700000e+00	-3.889087296500000e+00	 1.650419065602525e+00
-4.666904755820000e+00	-3.818376618380000e+00	 1.608460965670228e+00
-4.737615433940000e+00	-3.747665940260000e+00	 1.555366293999778e+00
-4.808326112060000e+00	-3.676955262140000e+00	 1.491137261620384e+00
-4.879036790180000e+00	-3.606244584020000e+00	 1.415776090840106e+00
-4.949747468300000e+00	-3.535533905900000e+00	 1.329284962156447e+00
-5.656854249500000e+00	-7.071067811900000e+00	 1.161706645535193e+00
-5.727564927620000e+00	-7.000357133780001e+00	 1.169853497328259e+00
-5.798275605740001e+00	-6.929646455659999e+00	 1.178241555022119e+00
-5.868986283860000e+00	-6.858935777539999e+00	 1.186873029952548e+00
-5.939696961980000e+00	-6.788225099419999e+00	 1.195750133436292e+00
-6.010407640100000e+00	-6.717514421300000e+00	 1.204875076771078e+00
-6.081118318220000e+00	-6.646803743180000e+00	 1.214250071235609e+00
-6.151828996340001e+00	-6.576093065060000e+00	 1.223877328089562e+00
-6.222539674459999e+00	-6.505382386939999e+00	 1.233759058573596e+00
-6.293250352579999e+00	-6.434671708820000e+00	 1.243897473909347e+00
-6.363961030700000e+00	-6.363961030700000e+00	 1.254294785299425e+00
-5.550788232320000e+00	-6.965001794720001e+00	 1.161311888532474e+00
-5.621498910440001e+00	-6.894291116599999e+00	 1.170776150814387e+00
-5.692209588560001e+00	-6.823580438480000e+00	 1.180277836292556e+00
-5.762920266679999e+00	-6.752869760360000e+00	 1.189819156301693e+00
-5.833630944799999e+00	-6.682159082240000e+00	 1.199402322157484e+00
-5.904341622920001e+00	-6.611448404119999e+00	 1.209029545156591e+00
-5.975052301040001e+00	-6.540737726000000e+00	 1.218703036576658e+00
-6.045762979160000e+00	-6.470027047880000e+00	 1.228425007676300e+00
-6.116473657280000e+00	-6.399316369759999e+00	 1.238197669695113e+00
-6.187184335400000e+00	-6.328605691639999e+00	 1.248023233853671e+00
-6.257895013520000e+00	-6.257895013520000e+00	 1.257903911353527e+00
-5.444722215140001e+00	-6.858935777540000e+00	 1.163080317360987e+00
-5.515432893260001e+00	-6.788225099420000e+00	 1.173746224513940e+00
-5.586143571380000e+00	-6.717514421300000e+00	 1.184245772171819e+00
-5.656854249500002e+00	-6.646803743180000e+00	 1.194581171668270e+00
-5.727564927620000e+00	-6.576093065059999e+00	 1.204754634317919e+00
-5.798275605740000e+00	-6.505382386939999e+00	 1.214768371416366e+00
-5.868986283860000e+00	-6.434671708820000e+00	 1.224624594240191e+00
-5.939696961980000e+00	-6.363961030699998e+00	 1.234325514046950e+00
-6.010407640099999e+00	-6.293250352579999e+00	 1.243873342075176e+00
-6.081118318219999e+00	-6.222539674459999e+00	 1.253270289544382e+00
-6.151828996339999e+00	-6.151828996339999e+00	 1.262518567655058e+00
-5.338656197960000e+00	-6.752869760359999e+00	 1.167017791084923e+00
-5.409366876080000e+00	-6.682159082239999e+00	 1.178769577493505e+00
-5.480077554200002e+00	-6.611448404120001e+00	 1.190151221728884e+00
-5.550788232320000e+00	-6.540737725999998e+00	 1.201164935123647e+00
-5.621498910440000e+00	-6.470027047879999e+00	 1.211812928991356e+00
-5.692209588560000e+00	-6.399316369760000e+00	 1.222097414626551e+00
-5.762920266680000e+00	-6.328605691640000e+00	 1.232020603304749e+00
-5.833630944800000e+00	-6.257895013520000e+00	 1.241584706282444e+00
-5.904341622920000e+00	-6.187184335400000e+00	 1.250791934797108e+00
-5.975052301040001e+00	-6.116473657280000e+00	 1.259644500067191e+00
-6.045762979160000e+00	-6.045762979160000e+00	 1.268144613292122e+00
-5.232590180780001e+00	-6.646803743180000e+00	 1.173130168686516e+00
-5.303300858900002e+00	-6.576093065060000e+00	 1.185852068737702e+00
-5.374011537020000e+00	-6.505382386939999e+00	 1.198000043950765e+00
-5.444722215140000e+00	-6.434671708819999e+00	 1.209576305657228e+00
-5.515432893260002e+00	-6.363961030700000e+00	 1.220583065169592e+00
-5.586143571380000e+00	-6.293250352580000e+00	 1.231022533781334e+00
-5.656854249500001e+00	-6.222539674460000e+00	 1.240896922766909e+00
-5.727564927620000e+00	-6.151828996339999e+00	 1.250208443381750e+00
-5.798275605740001e+00	-6.081118318220001e+00	 1.258959306862267e+00
-5.868986283860002e+00	-6.010407640100000e+00	 1.267151724425847e+00
-5.939696961980000e+00	-5.939696961980000e+00	 1.274787907270857e+00
-5.126524163600000e+00	-6.540737726000001e+00	 1.181423309066036e+00
-5.197234841720000e+00	-6.470027047880001e+00	 1.194999557149195e+00
-5.267945519840000e+00	-6.399316369759999e+00	 1.207798097742516e+00
-5.338656197960001e+00	-6.328605691640000e+00	 1.219821142176460e+00
-5.409366876080000e+00	-6.257895013519999e+00	 1.231070901762463e+00
-5.480077554200000e+00	-6.187184335400000e+00	 1.241549587792942e+00
-5.550788232320000e+00	-6.116473657280000e+00	 1.251259411541291e+00
-5.621498910440001e+00	-6.045762979160000e+00	 1.260202584261876e+00
-5.692209588559999e+00	-5.975052301040000e+00	 1.268381317190051e+00
-5.762920266680001e+00	-5.904341622920001e+00	 1.275797821542138e+00
-5.833630944799999e+00	-5.833630944799999e+00	 1.282454308515442e+00
-5.020458146419999e+00	-6.434671708819999e+00	 1.191903071041791e+00
-5.091168824540000e+00	-6.363961030700000e+00	 1.206217901548685e+00
-5.161879502660002e+00	-6.293250352580000e+00	 1.219551241927230e+00
-5.232590180780001e+00	-6.222539674460000e+00	 1.231905303506825e+00
-5.303300858900000e+00	-6.151828996340000e+00	 1.243282297597845e+00
-5.374011537020000e+00	-6.081118318220000e+00	 1.253684435491643e+00
-5.444722215140000e+00	-6.010407640100000e+00	 1.263113928460551e+00
-5.515432893260001e+00	-5.939696961980001e+00	 1.271572987757875e+00
-5.586143571380000e+00	-5.868986283860000e+00	 1.279063824617901e+00
-5.656854249500000e+00	-5.798275605740000e+00	 1.285588650255897e+00
-5.727564927620000e+00	-5.727564927620000e+00	 1.291149675868100e+00
-4.914392129240000e+00	-6.328605691640000e+00	 1.204575313350136e+00
-4.985102807360001e+00	-6.257895013519998e+00	 1.219512960674916e+00
-5.055813485480000e+00	-6.187184335400000e+00	 1.233265335246044e+00
-5.126524163600001e+00	-6.116473657280000e+00	 1.245834648391852e+00
-5.197234841719999e+00	-6.045762979159999e+00	 1.257223111421657e+00
-5.267945519840000e+00	-5.975052301040000e+00	 1.267432935625747e+00
-5.338656197959999e+00	-5.904341622919999e+00	 1.276466332275391e+00
-5.409366876080000e+00	-5.833630944800000e+00	 1.284325512622835e+00
-5.480077554200000e+00	-5.762920266680000e+00	 1.291012687901302e+00
-5.550788232320000e+00	-5.692209588560000e+00	 1.296530069324996e+00
-5.621498910440000e+00	-5.621498910440000e+00	 1.300879868089096e+00
-4.808326112060001e+00	-6.222539674460001e+00	 1.219445894645462e+00
-4.879036790180000e+00	-6.151828996339999e+00	 1.234890593184675e+00
-4.949747468300000e+00	-6.081118318220000e+00	 1.248946236358134e+00
-5.020458146420002e+00	-6.010407640100000e+00	 1.261615035493113e+00
-5.091168824540000e+00	-5.939696961979999e+00	 1.272899201897861e+00
-5.161879502660000e+00	-5.868986283859999e+00	 1.282800946861608e+00
-5.232590180780000e+00	-5.798275605740000e+00	 1.291322481654558e+00
-5.303300858900000e+00	-5.727564927620000e+00	 1.298466017527895e+00
-5.374011537020000e+00	-5.656854249500000e+00	 1.304233765713781e+00
-5.444722215140001e+00	-5.586143571380001e+00	 1.308627937425356e+00
-5.515432893260001e+00	-5.515432893260001e+00	 1.311650743856740e+00
-4.702260094880000e+00	-6.116473657280000e+00	 1.236520673500209e+00
-4.772970772999999e+00	-6.045762979159998e+00	 1.252356657652794e+00
-4.843681451120000e+00	-5.975052301040001e+00	 1.266599803840727e+00
-4.914392129240001e+00	-5.904341622920001e+00	 1.279252323390223e+00
-4.985102807360001e+00	-5.833630944800000e+00	 1.290316427608467e+00
-5.055813485480002e+00	-5.762920266680001e+00	 1.299794327783625e+00
-5.126524163600000e+00	-5.692209588560000e+00	 1.307688235184843e+00
-5.197234841719999e+00	-5.621498910439999e+00	 1.314000361062238e+00
-5.267945519840000e+00	-5.550788232320000e+00	 1.318732916646913e+00
-5.338656197959999e+00	-5.480077554200000e+00	 1.321888113150943e+00
-5.409366876080001e+00	-5.409366876080001e+00	 1.323468161767386e+00
-4.596194077700000e+00	-6.010407640100000e+00	 1.255805508404866e+00
-4.666904755820000e+00	-5.939696961980000e+00	 1.271917012572150e+00
-4.737615433939999e+00	-5.868986283860000e+00	 1.286231896189093e+00
-4.808326112060000e+00	-5.798275605739999e+00	 1.298752370580845e+00
-4.879036790180000e+00	-5.727564927620000e+00	 1.309480647053529e+00
-4.949747468300000e+00	-5.656854249499999e+00	 1.318418936894248e+00
-5.020458146420000e+00	-5.586143571380000e+00	 1.325569451371085e+00
-5.091168824540000e+00	-5.515432893260000e+00	 1.330934401733096e+00
-5.161879502660000e+00	-5.444722215140001e+00	 1.334515999210319e+00
-5.232590180780000e+00	-5.374011537020000e+00	 1.336316455013769e+00
-5.303300858900000e+00	-5.303300858900000e+00	 1.336337980335442e+00
-4.596194077700000e+00	-6.010407640100000e+00	 1.255805508404866e+00
-4.666904755820000e+00	-5.939696961980000e+00	 1.271917012572150e+00
-4.737615433939999e+00	-5.868986283860000e+00	 1.286231896189093e+00
-4.808326112060000e+00	-5.798275605739999e+00	 1.298752370580845e+00
-4.879036790180000e+00	-5.727564927620000e+00	 1.309480647053529e+00
-4.949747468300000e+00	-5.656854249499999e+00	 1.318418936894248e+00
-5.020458146420000e+00	-5.586143571380000e+00	 1.325569451371085e+00
-5.091168824540000e+00	-5.515432893260000e+00	 1.330934401733096e+00
-5.161879502660000e+00	-5.444722215140001e+00	 1.334515999210319e+00
-5.232590180780000e+00	-5.374011537020000e+00	 1.336316455013769e+00
-5.303300858900000e+00	-5.303300858900000e+00	 1.336337980335442e+00
-4.490128060520000e+00	-5.904341622920000e+00	 1.242782486522729e+00
-4.560838738639999e+00	-5.833630944799999e+00	 1.258941810339764e+00
-4.631549416760000e+00	-5.762920266680000e+00	 1.274035807713357e+00
-4.702260094880001e+00	-5.692209588560001e+00	 1.288066689967592e+00
-4.772970773000000e+00	-5.621498910440000e+00	 1.301036668407532e+00
-4.843681451120000e+00	-5.550788232320000e+00	 1.312947954319217e+00
-4.914392129239999e+00	-5.480077554199999e+00	 1.323802758969665e+00
-4.985102807360001e+00	-5.409366876080001e+00	 1.333603293606872e+00
-5.055813485480001e+00	-5.338656197960001e+00	 1.342351769459811e+00
-5.126524163599998e+00	-5.267945519839999e+00	 1.350050397738438e+00
-5.197234841720000e+00	-5.197234841720000e+00	 1.356701389633681e+00
-4.384062043340000e+00	-5.798275605740001e+00	 1.235255480377105e+00
-4.454772721460000e+00	-5.727564927620000e+00	 1.251797300285413e+00
-4.525483399580001e+00	-5.656854249499999e+00	 1.268005087870380e+00
-4.596194077699998e+00	-5.586143571379997e+00	 1.283881054455029e+00
-4.666904755820001e+00	-5.515432893260002e+00	 1.299427411343359e+00
-4.737615433940000e+00	-5.444722215140000e+00	 1.314646369820347e+00
-4.808326112060000e+00	-5.374011537020000e+00	 1.329540141151948e+00
-4.879036790180000e+00	-5.303300858900000e+00	 1.344110936585095e+00
-4.949747468300000e+00	-5.232590180780000e+00	 1.358360967347700e+00
-5.020458146420000e+00	-5.161879502660000e+00	 1.372292444648655e+00
-5.091168824540000e+00	-5.091168824540000e+00	 1.385907579677827e+00
-4.277996026159999e+00	-5.692209588559999e+00	 1.233230348212632e+00
-4.348706704279999e+00	-5.621498910440001e+00	 1.250489340656125e+00
-4.419417382400000e+00	-5.550788232320000e+00	 1.268145594909585e+00
-4.490128060520000e+00	-5.480077554200001e+00	 1.286201322294969e+00
-4.560838738639999e+00	-5.409366876079999e+00	 1.304658734115215e+00
-4.631549416760000e+00	-5.338656197960000e+00	 1.323520041654234e+00
-4.702260094879999e+00	-5.267945519839998e+00	 1.342787456176922e+00
-4.772970773000000e+00	-5.197234841720000e+00	 1.362463188929148e+00
-4.843681451120000e+00	-5.126524163599999e+00	 1.382549451137761e+00
-4.914392129240001e+00	-5.055813485480001e+00	 1.403048454010589e+00
-4.985102807359999e+00	-4.985102807359999e+00	 1.423962408736437e+00
-4.171930008980000e+00	-5.586143571380000e+00	 1.236712948191993e+00
-4.242640687099999e+00	-5.515432893260000e+00	 1.255023789616981e+00
-4.313351365220000e+00	-5.444722215140001e+00	 1.274463186998443e+00
-4.384062043340000e+00	-5.374011537020000e+00	 1.295033351657277e+00
-4.454772721459999e+00	-5.303300858899999e+00	 1.316736494895357e+00
-4.525483399580001e+00	-5.232590180780001e+00	 1.339574827995533e+00
-4.596194077699999e+00	-5.161879502659999e+00	 1.363550562221634e+00
-4.666904755819999e+00	-5.091168824540000e+00	 1.388665908818468e+00
-4.737615433940000e+00	-5.020458146419999e+00	 1.414923079011822e+00
-4.808326112060000e+00	-4.949747468300000e+00	 1.442324284008459e+00
-4.879036790180000e+00	-4.879036790180000e+00	 1.470871734996125e+00
-4.065863991800000e+00	-5.480077554199999e+00	 1.245709138395932e+00
-4.136574669920000e+00	-5.409366876080000e+00	 1.265406505251112e+00
-4.207285348039999e+00	-5.338656197960000e+00	 1.286963722222482e+00
-4.277996026159999e+00	-5.267945519840000e+00	 1.310383000629876e+00
-4.348706704279999e+00	-5.197234841720000e+00	 1.335666551774102e+00
-4.419417382399999e+00	-5.126524163599999e+00	 1.362816586936949e+00
-4.490128060519999e+00	-5.055813485480000e+00	 1.391835317381182e+00
-4.560838738639999e+00	-4.985102807360001e+00	 1.422724954350546e+00
-4.631549416760000e+00	-4.914392129239999e+00	 1.455487709069767e+00
-4.702260094879999e+00	-4.843681451120000e+00	 1.490125792744543e+00
-4.772970772999999e+00	-4.772970772999999e+00	 1.526641416561558e+00
-3.959797974619999e+00	-5.374011537019999e+00	 1.260224776823243e+00
-4.030508652740000e+00	-5.303300858899999e+00	 1.281643345559710e+00
-4.101219330859999e+00	-5.232590180780000e+00	 1.305653058585288e+00
-4.171930008980000e+00	-5.161879502660001e+00	 1.332256127218741e+00
-4.242640687099999e+00	-5.091168824539999e+00	 1.361454762759818e+00
-4.313351365219999e+00	-5.020458146419999e+00	 1.393251176489244e+00
-4.384062043339999e+00	-4.949747468300000e+00	 1.427647579668723e+00
-4.454772721459999e+00	-4.879036790180000e+00	 1.464646183540933e+00
-4.525483399580001e+00	-4.808326112060000e+00	 1.504249199329538e+00
-4.596194077699999e+00	-4.737615433939999e+00	 1.546458838239176e+00
-4.666904755819999e+00	-4.666904755819999e+00	 1.591277311455463e+00
-3.853731957439999e+00	-5.267945519840000e+00	 1.280265721390780e+00
-3.924442635559998e+00	-5.197234841719999e+00	 1.303740168462023e+00
-3.995153313679999e+00	-5.126524163600000e+00	 1.330537054008498e+00
-4.065863991800000e+00	-5.055813485480000e+00	 1.360658589347907e+00
-4.136574669919999e+00	-4.985102807359999e+00	 1.394106985778934e+00
-4.207285348039999e+00	-4.914392129239999e+00	 1.430884454581241e+00
-4.277996026159999e+00	-4.843681451119999e+00	 1.470993207015468e+00
-4.348706704280000e+00	-4.772970772999999e+00	 1.514435454323234e+00
-4.419417382399999e+00	-4.702260094879999e+00	 1.561213407727135e+00
-4.490128060519999e+00	-4.631549416759999e+00	 1.611329278430746e+00
-4.560838738639999e+00	-4.560838738639999e+00	 1.664785277618626e+00
-3.747665940259999e+00	-5.161879502660000e+00	 1.305837829933457e+00
-3.818376618380000e+00	-5.091168824540000e+00	 1.331702831795358e+00
-3.889087296500000e+00	-5.020458146420000e+00	 1.361621566331814e+00
-3.959797974619999e+00	-4.949747468299999e+00	 1.395596244859468e+00
-4.030508652740000e+00	-4.879036790180001e+00	 1.433629078675937e+00
-4.101219330860000e+00	-4.808326112060000e+00	 1.475722279059821e+00
-4.171930008979999e+00	-4.737615433939999e+00	 1.521878057270695e+00
-4.242640687099999e+00	-4.666904755819999e+00	 1.572098624549117e+00
-4.313351365219999e+00	-4.596194077700000e+00	 1.626386192116618e+00
-4.384062043339998e+00	-4.525483399579999e+00	 1.684742971175712e+00
-4.454772721459999e+00	-4.454772721459999e+00	 1.747171172909891e+00
-3.641599923079999e+00	-5.055813485479999e+00	 1.336946960204243e+00
-3.712310601199999e+00	-4.985102807359999e+00	 1.365537193315081e+00
-3.783021279319999e+00	-4.914392129239999e+00	 1.398912453313000e+00
-3.853731957439999e+00	-4.843681451119998e+00	 1.437074951513579e+00
-3.924442635559999e+00	-4.772970772999999e+00	 1.480026899213376e+00
-3.995153313679999e+00	-4.702260094879999e+00	 1.527770507689925e+00
-4.065863991799999e+00	-4.631549416759999e+00	 1.580307988201740e+00
-4.136574669919999e+00	-4.560838738639998e+00	 1.637641551988309e+00
-4.207285348039998e+00	-4.490128060519998e+00	 1.699773410270108e+00
-4.277996026159999e+00	-4.419417382399999e+00	 1.766705774248584e+00
-4.348706704279999e+00	-4.348706704279999e+00	 1.838440855106167e+00
-3.535533905900000e+00	-4.949747468300000e+00	 1.373598969874179e+00
-3.606244584020000e+00	-4.879036790180000e+00	 1.405249110694620e+00
-3.676955262139999e+00	-4.808326112060000e+00	 1.442415572627874e+00
-3.747665940260000e+00	-4.737615433940000e+00	 1.485100566988457e+00
-3.818376618380000e+00	-4.666904755820000e+00	 1.533306305071861e+00
-3.889087296500000e+00	-4.596194077700000e+00	 1.587034998154559e+00
-3.959797974620000e+00	-4.525483399580000e+00	 1.646288857493998e+00
-4.030508652740000e+00	-4.454772721459999e+00	 1.711070094328604e+00
-4.101219330860000e+00	-4.384062043340000e+00	 1.781380919877791e+00
-4.171930008980000e+00	-4.313351365219999e+00	 1.857223545341941e+00
-4.242640687100000e+00	-4.242640687100000e+00	 1.938600181902423e+00
 7.071067812000000e-01	-1.343502884250000e+01	 8.770448861468420e-01
 3.889087296605001e-01	-1.311683079097900e+01	 8.854093814577306e-01
 7.071067812199998e-02	-1.279863273945600e+01	 8.914881801031306e-01
-2.474873734155001e-01	-1.248043468793100e+01	 8.953815288143572e-01
-5.656854249520000e-01	-1.216223663640400e+01	 8.971896743226850e-01
-8.838834764874999e-01	-1.184403858487500e+01	 8.970128633593516e-01
-1.202081528022000e+00	-1.152584053334400e+01	 8.949513426555564e-01
-1.520279579555500e+00	-1.120764248181100e+01	 8.911053589424625e-01
-1.838477631088000e+00	-1.088944443027600e+01	 8.855751589511907e-01
-2.156675682619499e+00	-1.057124637873900e+01	 8.784609894128279e-01
-2.474873734150000e+00	-1.025304832720000e+01	 8.777889305489968e-01
 8.131727983800000e-01	-1.332896282533900e+01	 8.739510309973547e-01
 4.949747468404976e-01	-1.301076477381439e+01	 8.826787313347143e-01
 1.767766953019900e-01	-1.269256672228817e+01	 8.887582706988658e-01
-1.414213562355226e-01	-1.237436867076033e+01	 8.922898958211181e-01
-4.596194077720399e-01	-1.205617061923088e+01	 8.933738534327442e-01
-7.778174593075625e-01	-1.173797256769982e+01	 8.921103902649758e-01
-1.096015510842090e+00	-1.141977451616713e+01	 8.885997530490051e-01
-1.414213562375622e+00	-1.110157646463283e+01	 8.829421885159843e-01
-1.732411613908160e+00	-1.078337841309692e+01	 8.752379433970249e-01
-2.050609665439702e+00	-1.046518036155939e+01	 8.655872644231999e-01
-2.368807716970250e+00	-1.014698231002025e+01	 8.716803894316737e-01
 9.192388155599999e-01	-1.322289680817600e+01	 8.714237909730338e-01
 6.010407640204901e-01	-1.290469875664817e+01	 8.803584993012046e-01
 2.828427124819599e-01	-1.258650070511908e+01	 8.862825823484514e-01
-3.535533905559008e-02	-1.226830265358873e+01	 8.892962868460829e-01
-3.535533905921601e-01	-1.195010460205712e+01	 8.894998595253603e-01
-6.717514421277501e-01	-1.163190655052425e+01	 8.869935471175071e-01
-9.899494936623597e-01	-1.131370849899012e+01	 8.818775963537043e-01
-1.308147545195990e+00	-1.099551044745473e+01	 8.742522539650927e-01
-1.626345596728640e+00	-1.067731239591808e+01	 8.642177666827700e-01
-1.944543648260309e+00	-1.035911434438017e+01	 8.518743812377937e-01
-2.262741699791000e+00	-1.004091629284100e+01	 8.650321864119462e-01
 1.025304832740000e+00	-1.311683079101100e+01	 8.694731588663981e-01
 7.071067812004775e-01	-1.279863273948033e+01	 8.784586781497234e-01
 3.889087296619101e-01	-1.248043468794873e+01	 8.840711078444213e-01
 7.071067812429739e-02	-1.216223663641619e+01	 8.864106946817851e-01
-2.474873734123600e-01	-1.184403858488272e+01	 8.855776853930686e-01
-5.656854249480626e-01	-1.152584053334831e+01	 8.816723267094808e-01
-8.838834764828097e-01	-1.120764248181297e+01	 8.747948653621894e-01
-1.202081528016602e+00	-1.088944443027669e+01	 8.650455480823201e-01
-1.520279579549439e+00	-1.057124637873948e+01	 8.525246216009555e-01
-1.838477631081322e+00	-1.025304832720133e+01	 8.463499770425416e-01
-2.156675682612250e+00	-9.934850275662251e+00	 8.578199820702372e-01
 1.131370849920000e+00	-1.301076477384400e+01	 8.681091274699644e-01
 8.131727983804599e-01	-1.269256672231088e+01	 8.769892606727993e-01
 4.949747468418400e-01	-1.237436867077712e+01	 8.821338399793042e-01
 1.767766953041399e-01	-1.205617061924272e+01	 8.836431121207606e-01
-1.414213562326400e-01	-1.173797256770768e+01	 8.816173238284049e-01
-4.596194077685000e-01	-1.141977451617200e+01	 8.761567218334324e-01
-7.778174593034399e-01	-1.110157646463568e+01	 8.673615528669942e-01
-1.096015510837460e+00	-1.078337841309872e+01	 8.553320636601989e-01
-1.414213562370560e+00	-1.046518036156112e+01	 8.401685009441109e-01
-1.732411613902739e+00	-1.014698231002288e+01	 8.418090354069250e-01
-2.050609665434000e+00	-9.828784258484001e+00	 8.500194372902828e-01
 1.237436867100000e+00	-1.290469875667500e+01	 8.673416895762548e-01
 9.192388155604377e-01	-1.258650070513982e+01	 8.759602396629583e-01
 6.010407640217500e-01	-1.226830265360425e+01	 8.804807715456342e-01
 2.828427124839374e-01	-1.195010460206831e+01	 8.810035319555438e-01
-3.535533905300010e-02	-1.163190655053200e+01	 8.776287676239060e-01
-3.535533905890624e-01	-1.131370849899531e+01	 8.704567252818978e-01
-6.717514421242500e-01	-1.099551044745825e+01	 8.595876516606522e-01
-9.899494936585623e-01	-1.067731239592081e+01	 8.451217934912584e-01
-1.308147545192000e+00	-1.035911434438300e+01	 8.271593975047632e-01
-1.626345596724562e+00	-1.004091629284481e+01	 8.367936183544101e-01
-1.944543648256250e+00	-9.722718241306250e+00	 8.416062132591263e-01
 1.343502884280000e+00	-1.279863273950400e+01	 8.671808379777919e-01
 1.025304832740410e+00	-1.248043468796713e+01	 8.753816079127311e-01
 7.071067812016401e-01	-1.216223663643012e+01	 8.791218953359431e-01
 3.889087296636898e-01	-1.184403858489297e+01	 8.785019469786688e-01
 7.071067812655991e-02	-1.152584053335568e+01	 8.736220095721061e-01
-2.474873734097500e-01	-1.120764248181825e+01	 8.645823298474109e-01
-5.656854249452399e-01	-1.088944443028068e+01	 8.514831545356950e-01
-8.838834764799097e-01	-1.057124637874297e+01	 8.344247303680296e-01
-1.202081528013760e+00	-1.025304832720512e+01	 8.233465756255216e-01
-1.520279579546790e+00	-9.934850275667129e+00	 8.312793873080268e-01
-1.838477631079000e+00	-9.616652224129002e+00	 8.325559714671186e-01
 1.449568901460000e+00	-1.269256672233100e+01	 8.676365654670992e-01
 1.131370849920377e+00	-1.237436867079283e+01	 8.752633582146464e-01
 8.131727983815099e-01	-1.205617061925473e+01	 8.780672041427646e-01
 4.949747468433973e-01	-1.173797256771669e+01	 8.761483499826703e-01
 1.767766953060399e-01	-1.141977451617872e+01	 8.696070424655398e-01
-1.414213562305626e-01	-1.110157646464081e+01	 8.585435283225044e-01
-4.596194077664100e-01	-1.078337841310297e+01	 8.430580542846562e-01
-7.778174593015025e-01	-1.046518036156519e+01	 8.232508670830408e-01
-1.096015510835840e+00	-1.014698231002748e+01	 8.207239359783711e-01
-1.414213562369422e+00	-9.828784258489833e+00	 8.252420039941011e-01
-1.732411613902250e+00	-9.510586206952249e+00	 8.228443737079041e-01
 1.555634918640000e+00	-1.258650070515600e+01	 8.687188648367052e-01
 1.237436867100340e+00	-1.226830265361692e+01	 8.756154833612360e-01
 9.192388155613598e-01	-1.195010460207808e+01	 8.773266907586318e-01
 6.010407640230597e-01	-1.163190655053948e+01	 8.739527337600834e-01
 2.828427124854399e-01	-1.131370849900112e+01	 8.655938590967409e-01
-3.535533905150015e-02	-1.099551044746300e+01	 8.523503134997119e-01
-3.535533905877600e-01	-1.067731239592512e+01	 8.343223437000636e-01
-6.717514421233400e-01	-1.035911434438748e+01	 8.116101964288200e-01
-9.899494936582397e-01	-1.004091629285008e+01	 8.176920089503865e-01
-1.308147545192460e+00	-9.722718241312920e+00	 8.186571304422585e-01
-1.626345596726000e+00	-9.404520189776001e+00	 8.124470820784259e-01
 1.661700935820000e+00	-1.248043468797900e+01	 8.704377288791376e-01
 1.343502884280297e+00	-1.216223663643939e+01	 8.764479761450321e-01
 1.025304832741190e+00	-1.184403858490017e+01	 8.769103479760796e-01
 7.071067812026772e-01	-1.152584053336133e+01	 8.719250911034434e-01
 3.889087296647599e-01	-1.120764248182288e+01	 8.615924522582443e-01
 7.071067812743739e-02	-1.088944443028481e+01	 8.460126781715651e-01
-2.474873734092901e-01	-1.057124637874713e+01	 8.252860155744488e-01
-5.656854249454224e-01	-1.025304832720983e+01	 8.099034261586512e-01
-8.838834764809598e-01	-9.934850275672920e+00	 8.142264568071768e-01
-1.202081528015902e+00	-9.616652224136391e+00	 8.115004289854173e-01
-1.520279579550250e+00	-9.298454172600250e+00	 8.013397589789094e-01
 1.767766953000000e+00	-1.237436867080000e+01	 8.728031503869279e-01
 1.449568901460250e+00	-1.205617061926025e+01	 8.777708293585678e-01
 1.131370849921000e+00	-1.173797256772100e+01	 8.768281685876438e-01
 8.131727983822499e-01	-1.141977451618225e+01	 8.700754148052838e-01
 4.949747468439999e-01	-1.110157646464400e+01	 8.576128147425834e-01
 1.767766953062500e-01	-1.078337841310625e+01	 8.395406151305972e-01
-1.414213562309999e-01	-1.046518036156900e+01	 8.159590627003405e-01
-4.596194077677499e-01	-1.014698231003225e+01	 8.095497910067363e-01
-7.778174593039998e-01	-9.828784258496002e+00	 8.103029421176465e-01
-1.096015510839750e+00	-9.510586206960252e+00	 8.037475622597754e-01
-1.414213562375000e+00	-9.192388155425000e+00	 7.894980671128660e-01
-2.474873734150000e+00	-1.025304832720000e+01	 8.777889305489968e-01
-2.793071785680500e+00	-9.934850275661001e+00	 8.966174900596533e-01
-3.111269837212001e+00	-9.616652224124000e+00	 9.196344764421347e-01
-3.429467888744501e+00	-9.298454172589000e+00	 9.455392429284197e-01
-3.747665940278001e+00	-8.980256121056000e+00	 9.722849791039219e-01
-4.065863991812502e+00	-8.662058069524999e+00	 1.000073246256710e+00
-4.384062043348002e+00	-8.343860017995999e+00	 1.029105597871306e+00
-4.702260094884502e+00	-8.025661966468997e+00	 1.059583579629102e+00
-5.020458146422002e+00	-7.707463914943999e+00	 1.091708729408801e+00
-5.338656197960503e+00	-7.389265863420998e+00	 1.125682577286832e+00
-5.656854249500000e+00	-7.071067811900000e+00	 1.161706645537781e+00
-2.368807716970250e+00	-1.014698231002025e+01	 8.716803894316737e-01
-2.687005768500792e+00	-9.828784258481292e+00	 8.891824897147207e-01
-3.005203820032320e+00	-9.510586206944319e+00	 9.099781806030228e-01
-3.323401871564832e+00	-9.192388155409331e+00	 9.360856237480021e-01
-3.641599923098331e+00	-8.874190103876330e+00	 9.633365184935887e-01
-3.959797974632814e+00	-8.555992052345312e+00	 9.919324260308719e-01
-4.277996026168282e+00	-8.237794000816280e+00	 1.022074899747412e+00
-4.596194077704735e+00	-7.919595949289231e+00	 1.053965485227669e+00
-4.914392129242173e+00	-7.601397897764167e+00	 1.087805720253431e+00
-5.232590180780596e+00	-7.283199846241090e+00	 1.123797134804238e+00
-5.550788232320000e+00	-6.965001794720001e+00	 1.162141251057815e+00
-2.262741699791000e+00	-1.004091629284100e+01	 8.650321864119462e-01
-2.580939751321671e+00	-9.722718241302168e+00	 8.813989105111604e-01
-2.899137802853281e+00	-9.404520189765281e+00	 9.004691645912112e-01
-3.217335854385831e+00	-9.086322138230329e+00	 9.262313867477909e-01
-3.535533905919320e+00	-8.768124086697318e+00	 9.541567782488739e-01
-3.853731957453751e+00	-8.449926035166248e+00	 9.837296646235481e-01
-4.171930008989122e+00	-8.131727983637118e+00	 1.015151599162404e+00
-4.490128060525431e+00	-7.813529932109929e+00	 1.048624127352959e+00
-4.808326112062683e+00	-7.495331880584677e+00	 1.084348786880077e+00
-5.126524163600873e+00	-7.177133829061368e+00	 1.122527107626399e+00
-5.444722215140001e+00	-6.858935777540000e+00	 1.163360611672769e+00
-2.156675682612250e+00	-9.934850275662251e+00	 8.578199820702372e-01
-2.474873734143133e+00	-9.616652224123630e+00	 8.732424130967402e-01
-2.793071785674881e+00	-9.298454172586881e+00	 8.917614509874654e-01
-3.111269837207494e+00	-8.980256121051992e+00	 9.159823909165679e-01
-3.429467888740971e+00	-8.662058069518970e+00	 9.447516173693462e-01
-3.747665940275314e+00	-8.343860017987812e+00	 9.754708210450915e-01
-4.065863991810522e+00	-8.025661966458518e+00	 1.008341555137419e+00
-4.384062043346595e+00	-7.707463914931091e+00	 1.043565365036889e+00
-4.702260094883532e+00	-7.389265863405529e+00	 1.081343788331432e+00
-5.020458146421336e+00	-7.071067811881831e+00	 1.121878354806775e+00
-5.338656197960000e+00	-6.752869760359999e+00	 1.165370586446871e+00
-2.050609665434000e+00	-9.828784258484001e+00	 8.500194372902828e-01
-2.368807716965180e+00	-9.510586206945678e+00	 8.646886584225359e-01
-2.687005768497121e+00	-9.192388155409121e+00	 8.828475625271814e-01
-3.005203820029821e+00	-8.874190103874318e+00	 9.053444951611452e-01
-3.323401871563282e+00	-8.555992052341281e+00	 9.351268947726075e-01
-3.641599923097502e+00	-8.237794000809998e+00	 9.671617542238922e-01
-3.959797974632481e+00	-7.919595949280477e+00	 1.001650626611628e+00
-4.277996026168222e+00	-7.601397897752718e+00	 1.038795057229410e+00
-4.596194077704722e+00	-7.283199846226718e+00	 1.078796583568223e+00
-4.914392129241984e+00	-6.965001794702478e+00	 1.121856735316867e+00
-5.232590180780001e+00	-6.646803743180000e+00	 1.168177034362389e+00
-1.944543648256250e+00	-9.722718241306250e+00	 8.416062132591263e-01
-2.262741699787813e+00	-9.404520189768316e+00	 8.557133077429291e-01
-2.580939751320001e+00	-9.086322138231997e+00	 8.737031605320926e-01
-2.899137802852814e+00	-8.768124086697313e+00	 8.951902422226783e-01
-3.217335854386250e+00	-8.449926035164246e+00	 9.252884692942934e-01
-3.535533905920314e+00	-8.131727983632812e+00	 9.588083230063698e-01
-3.853731957455002e+00	-7.813529932102997e+00	 9.950846724422364e-01
-4.171930008990315e+00	-7.495331880574810e+00	 1.034319062798509e+00
-4.490128060526253e+00	-7.177133829048247e+00	 1.076713031469213e+00
-4.808326112062814e+00	-6.858935777523310e+00	 1.122468108046210e+00
-5.126524163600000e+00	-6.540737726000001e+00	 1.171785814319624e+00
-1.838477631079000e+00	-9.616652224129002e+00	 8.325559714671186e-01
-2.156675682611030e+00	-9.298454172591530e+00	 8.462920226156029e-01
-2.474873734143521e+00	-8.980256121055522e+00	 8.643039066272201e-01
-2.793071785676471e+00	-8.662058069520972e+00	 8.862060934920291e-01
-3.111269837209882e+00	-8.343860017987879e+00	 9.152421996880727e-01
-3.429467888743751e+00	-8.025661966456250e+00	 9.504163861569851e-01
-3.747665940278083e+00	-7.707463914926080e+00	 9.886495514044881e-01
-4.065863991812873e+00	-7.389265863397369e+00	 1.030143240530210e+00
-4.384062043348123e+00	-7.071067811870118e+00	 1.075098990831204e+00
-4.702260094883832e+00	-6.752869760344328e+00	 1.123718331802380e+00
-5.020458146419999e+00	-6.434671708819999e+00	 1.176202785136924e+00
-1.732411613902250e+00	-9.510586206952249e+00	 8.228443737079041e-01
-2.050609665434833e+00	-9.192388155415330e+00	 8.364004649015320e-01
-2.368807716967681e+00	-8.874190103879680e+00	 8.546254627408798e-01
-2.687005768500793e+00	-8.555992052345292e+00	 8.771338366100332e-01
-3.005203820034172e+00	-8.237794000812169e+00	 9.049939446256542e-01
-3.323401871567814e+00	-7.919595949280311e+00	 9.419918023582314e-01
-3.641599923101722e+00	-7.601397897749719e+00	 9.823511221916631e-01
-3.959797974635894e+00	-7.283199846220390e+00	 1.026273449128576e+00
-4.277996026170332e+00	-6.965001794692328e+00	 1.073960320369040e+00
-4.596194077705034e+00	-6.646803743165529e+00	 1.125613265310992e+00
-4.914392129240000e+00	-6.328605691640000e+00	 1.181433805550673e+00
-1.626345596726000e+00	-9.404520189776001e+00	 8.124470820784259e-01
-1.944543648259220e+00	-9.086322138239721e+00	 8.260142967649845e-01
-2.262741699792481e+00	-8.768124086704482e+00	 8.446434911046738e-01
-2.580939751325781e+00	-8.449926035170282e+00	 8.679491338756360e-01
-2.899137802859121e+00	-8.131727983637120e+00	 8.955457111492980e-01
-3.217335854392502e+00	-7.813529932105000e+00	 9.335404302106431e-01
-3.535533905925922e+00	-7.495331880573918e+00	 9.761952434150833e-01
-3.853731957459381e+00	-7.177133829043877e+00	 1.022715547215713e+00
-4.171930008992883e+00	-6.858935777514879e+00	 1.073302878715601e+00
-4.490128060526422e+00	-6.540737725986919e+00	 1.128158767215707e+00
-4.808326112060001e+00	-6.222539674460001e+00	 1.187484734215300e+00
-1.520279579550250e+00	-9.298454172600250e+00	 8.013397589789094e-01
-1.838477631084193e+00	-8.980256121064691e+00	 8.151091806735067e-01
-2.156675682617920e+00	-8.662058069529920e+00	 8.343336542534803e-01
-2.474873734151434e+00	-8.343860017995933e+00	 8.586276478910568e-01
-2.793071785684731e+00	-8.025661966462726e+00	 8.876056470516842e-01
-3.111269837217814e+00	-7.707463914930312e+00	 9.250681282327953e-01
-3.429467888750682e+00	-7.389265863398679e+00	 9.701877736041085e-01
-3.747665940283334e+00	-7.071067811867831e+00	 1.019475393331762e+00
-4.065863991815772e+00	-6.752869760337766e+00	 1.073132524421816e+00
-4.384062043347996e+00	-6.434671708808491e+00	 1.131360696078226e+00
-4.702260094880000e+00	-6.116473657280000e+00	 1.194361429703279e+00
-1.414213562375000e+00	-9.192388155425000e+00	 7.894980671128660e-01
-1.732411613909750e+00	-8.874190103890252e+00	 8.036607793979260e-01
-2.050609665444001e+00	-8.555992052355998e+00	 8.236716150254539e-01
-2.368807716977751e+00	-8.237794000822248e+00	 8.491450415617866e-01
-2.687005768511001e+00	-7.919595949288999e+00	 8.796955438664200e-01
-3.005203820043751e+00	-7.601397897756248e+00	 9.165807548613039e-01
-3.323401871576002e+00	-7.283199846223998e+00	 9.643345712061451e-01
-3.641599923107752e+00	-6.965001794692249e+00	 1.016558845934919e+00
-3.959797974639002e+00	-6.646803743160998e+00	 1.073455115956654e+00
-4.277996026169752e+00	-6.328605691630247e+00	 1.135224910378298e+00
-4.596194077700000e+00	-6.010407640100000e+00	 1.202069750505132e+00
 1.767766953000000e+00	-1.237436867080000e+01	 8.728031503869279e-01
 1.449568901460250e+00	-1.205617061926025e+01	 8.777708293585678e-01
 1.131370849921000e+00	-1.173797256772100e+01	 8.768281685876438e-01
 8.131727983822499e-01	-1.141977451618225e+01	 8.700754148052838e-01
 4.949747468439999e-01	-1.110157646464400e+01	 8.576128147425834e-01
 1.767766953062500e-01	-1.078337841310625e+01	 8.395406151305972e-01
-1.414213562309999e-01	-1.046518036156900e+01	 8.159590627003405e-01
-4.596194077677499e-01	-1.014698231003225e+01	 8.095497910067363e-01
-7.778174593039998e-01	-9.828784258496002e+00	 8.103029421176465e-01
-1.096015510839750e+00	-9.510586206960252e+00	 8.037475622597754e-01
-1.414213562375000e+00	-9.192388155425000e+00	 7.894980671128660e-01
 1.873832970179000e+00	-1.226830265362000e+01	 8.757574084199488e-01
 1.555634918639393e+00	-1.195010460208030e+01	 8.784606122334159e-01
 1.237436867100170e+00	-1.163190655054119e+01	 8.751404931586060e-01
 9.192388155613325e-01	-1.131370849900268e+01	 8.658972979266952e-01
 6.010407640228800e-01	-1.099551044746476e+01	 8.508312732688155e-01
 2.828427124848126e-01	-1.067731239592744e+01	 8.300426659160569e-01
-3.535533905286981e-02	-1.035911434439071e+01	 8.036317225994687e-01
-3.535533905901673e-01	-1.004091629285458e+01	 8.065634799346304e-01
-6.717514421270796e-01	-9.722718241319043e+00	 8.042892079352296e-01
-9.899494936636070e-01	-9.404520189784098e+00	 7.946964128557006e-01
-1.308147545199750e+00	-9.086322138249750e+00	 7.773995097700518e-01
 1.979898987356000e+00	-1.216223663644000e+01	 8.792427820380717e-01
 1.661700935816920e+00	-1.184403858490034e+01	 8.795336313481494e-01
 1.343502884278080e+00	-1.152584053336136e+01	 8.736881746242260e-01
 1.025304832739480e+00	-1.120764248182306e+01	 8.618066585975217e-01
 7.071067812011201e-01	-1.088944443028544e+01	 8.439893299992107e-01
 3.889087296630002e-01	-1.057124637874850e+01	 8.203364355604212e-01
 7.071067812512027e-02	-1.025304832721224e+01	 8.016201966380561e-01
-2.474873734125197e-01	-9.934850275676661e+00	 8.031315305440031e-01
-5.656854249499195e-01	-9.616652224141761e+00	 7.976999513121256e-01
-8.838834764870794e-01	-9.298454172607540e+00	 7.849398561135158e-01
-1.202081528024000e+00	-8.980256121074000e+00	 7.644656594164752e-01
 2.085965004531000e+00	-1.205617061926000e+01	 8.832692640338272e-01
 1.767766952992833e+00	-1.173797256772038e+01	 8.809998794952972e-01
 1.449568901454730e+00	-1.141977451618151e+01	 8.724812057770288e-01
 1.131370849916693e+00	-1.110157646464340e+01	 8.578134896102895e-01
 8.131727983787200e-01	-1.078337841310604e+01	 8.370969777262973e-01
 4.949747468408129e-01	-1.046518036156944e+01	 8.104319168562173e-01
 1.767766953029703e-01	-1.014698231003359e+01	 8.009954705715014e-01
-1.414213562348071e-01	-9.828784258498498e+00	 7.992296062463230e-01
-4.596194077725195e-01	-9.510586206964161e+00	 7.905108357270878e-01
-7.778174593101670e-01	-9.192388155430580e+00	 7.744535555792680e-01
-1.096015510847750e+00	-8.874190103897751e+00	 7.506721796654929e-01
 2.192031021704000e+00	-1.195010460208000e+01	 8.878468471997470e-01
 1.873832970167131e+00	-1.163190655054041e+01	 8.828693494673875e-01
 1.555634918630120e+00	-1.131370849900164e+01	 8.715295794095421e-01
 1.237436867092970e+00	-1.099551044746369e+01	 8.539277837575261e-01
 9.192388155556803e-01	-1.067731239592656e+01	 8.301642092426014e-01
 6.010407640182506e-01	-1.035911434439025e+01	 8.003391025959736e-01
 2.828427124806804e-01	-1.004091629285476e+01	 8.000063165249561e-01
-3.535533905702946e-02	-9.722718241320091e+00	 7.948333707563267e-01
-3.535533905948793e-01	-9.404520189786240e+00	 7.826975249621383e-01
-6.717514421328696e-01	-9.086322138253212e+00	 7.632131751022739e-01
-9.899494936709997e-01	-8.768124086721000e+00	 7.359947344337210e-01
 2.298097038875000e+00	-1.184403858490000e+01	 8.929855243283615e-01
 1.979898987339813e+00	-1.152584053336044e+01	 8.851520340569476e-01
 1.661700935804250e+00	-1.120764248182175e+01	 8.708432883142903e-01
 1.343502884268313e+00	-1.088944443028394e+01	 8.501595338317538e-01
 1.025304832732000e+00	-1.057124637874700e+01	 8.232010173406478e-01
 7.071067811953130e-01	-1.025304832721094e+01	 8.007510361177089e-01
 3.889087296582506e-01	-9.934850275675753e+00	 7.986283984491523e-01
 7.071067812081318e-02	-9.616652224141436e+00	 7.899184880920181e-01
-2.474873734169993e-01	-9.298454172608000e+00	 7.742356831025606e-01
-5.656854249551868e-01	-8.980256121075437e+00	 7.511943788351038e-01
-8.838834764937494e-01	-8.662058069543750e+00	 7.204089879410229e-01
 2.404163056044001e+00	-1.173797256772000e+01	 8.986952882122038e-01
 2.085965004510881e+00	-1.141977451618046e+01	 8.878579260565065e-01
 1.767766952977120e+00	-1.110157646464184e+01	 8.704323252837985e-01
 1.449568901442720e+00	-1.078337841310414e+01	 8.465187326254987e-01
 1.131370849907681e+00	-1.046518036156736e+01	 8.162173948129610e-01
 8.131727983720007e-01	-1.014698231003150e+01	 8.026168711563929e-01
 4.949747468356807e-01	-9.828784258496562e+00	 7.968373805980868e-01
 1.767766952987208e-01	-9.510586206962540e+00	 7.844606225746602e-01
-1.414213562388791e-01	-9.192388155429441e+00	 7.651009745368931e-01
-4.596194077771192e-01	-8.874190103897259e+00	 7.383728312335807e-01
-7.778174593159993e-01	-8.555992052365999e+00	 7.038906047105168e-01
 2.510229073211001e+00	-1.163190655054000e+01	 9.049861316438051e-01
 2.192031021680333e+00	-1.131370849900047e+01	 8.909970182585902e-01
 1.873832970148730e+00	-1.099551044746191e+01	 8.703066831105934e-01
 1.555634918616193e+00	-1.067731239592430e+01	 8.430153729312844e-01
 1.237436867082721e+00	-1.035911434438764e+01	 8.092233344520661e-01
 9.192388155483134e-01	-1.004091629285194e+01	 8.041751532123198e-01
 6.010407640129708e-01	-9.722718241317191e+00	 7.946089275290150e-01
 2.828427124766933e-01	-9.404520189783398e+00	 7.784354388287720e-01
-3.535533906051908e-02	-9.086322138250560e+00	 7.552690639569249e-01
-3.535533905986665e-01	-8.768124086718677e+00	 7.247241970567729e-01
-6.717514421377494e-01	-8.449926035187749e+00	 6.864152495685614e-01
 2.616295090376001e+00	-1.152584053336000e+01	 9.118680474156994e-01
 2.298097038848171e+00	-1.120764248182049e+01	 8.945793034557287e-01
 1.979898987319081e+00	-1.088944443028196e+01	 8.704763545871979e-01
 1.661700935788731e+00	-1.057124637874441e+01	 8.396594475416324e-01
 1.343502884257120e+00	-1.025304832720784e+01	 8.126527717700205e-01
 1.025304832724251e+00	-9.934850275672250e+00	 8.054015470787461e-01
 7.071067811901208e-01	-9.616652224137638e+00	 7.919187041024436e-01
 3.889087296547309e-01	-9.298454172604009e+00	 7.718186017821166e-01
 7.071067811808113e-02	-8.980256121071362e+00	 7.447156163576880e-01
-2.474873734198288e-01	-8.662058069539690e+00	 7.102241413669926e-01
-5.656854249589993e-01	-8.343860018009000e+00	 6.679585876447524e-01
 2.722361107539001e+00	-1.141977451618000e+01	 9.193510283204193e-01
 2.404163056014394e+00	-1.110157646464050e+01	 8.986147744404462e-01
 2.085965004488171e+00	-1.078337841310199e+01	 8.709513325061367e-01
 1.767766952960333e+00	-1.046518036156448e+01	 8.364609492490663e-01
 1.449568901430881e+00	-1.014698231002796e+01	 8.175594454401963e-01
 1.131370849899814e+00	-9.828784258492437e+00	 8.062717178521834e-01
 8.131727983671310e-01	-9.510586206957910e+00	 7.887423754821281e-01
 4.949747468328335e-01	-9.192388155424377e+00	 7.645857766657054e-01
 1.767766952969210e-01	-8.874190103891840e+00	 7.334162970374586e-01
-1.414213562406064e-01	-8.555992052360297e+00	 6.948483295297840e-01
-4.596194077797492e-01	-8.237794000829748e+00	 6.484962843719166e-01
 2.828427124700000e+00	-1.131370849900000e+01	 9.274450671504952e-01
 2.510229073179000e+00	-1.099551044746050e+01	 9.031134240052732e-01
 2.192031021656000e+00	-1.067731239592200e+01	 8.717416096599321e-01
 1.873832970131000e+00	-1.035911434438450e+01	 8.334298708461063e-01
 1.555634918604000e+00	-1.004091629284800e+01	 8.222154426753728e-01
 1.237436867075000e+00	-9.722718241312501e+00	 8.067613309323887e-01
 9.192388155440001e-01	-9.404520189777999e+00	 7.850556071350678e-01
 6.010407640110003e-01	-9.086322138244501e+00	 7.567126290137882e-01
 2.828427124760003e-01	-8.768124086712003e+00	 7.213467715977434e-01
-3.535533906099975e-02	-8.449926035180500e+00	 6.785724272139252e-01
-3.535533906000000e-01	-8.131727983650000e+00	 6.280040054861074e-01
-1.414213562375000e+00	-9.192388155425000e+00	 7.894980671128660e-01
-1.732411613909750e+00	-8.874190103890252e+00	 8.036607793979260e-01
-2.050609665444001e+00	-8.555992052355998e+00	 8.236716150254539e-01
-2.368807716977751e+00	-8.237794000822248e+00	 8.491450415617866e-01
-2.687005768511001e+00	-7.919595949288999e+00	 8.796955438664200e-01
-3.005203820043751e+00	-7.601397897756248e+00	 9.165807548613039e-01
-3.323401871576002e+00	-7.283199846223998e+00	 9.643345712061451e-01
-3.641599923107752e+00	-6.965001794692249e+00	 1.016558845934919e+00
-3.959797974639002e+00	-6.646803743160998e+00	 1.073455115956654e+00
-4.277996026169752e+00	-6.328605691630247e+00	 1.135224910378298e+00
-4.596194077700000e+00	-6.010407640100000e+00	 1.202069750505132e+00
-1.308147545199750e+00	-9.086322138249750e+00	 7.773995097700518e-01
-1.626345596735308e+00	-8.768124086715808e+00	 7.928330740550482e-01
-1.944543648270081e+00	-8.449926035182083e+00	 8.135140147251656e-01
-2.262741699804069e+00	-8.131727983648569e+00	 8.390567987407919e-01
-2.580939751337272e+00	-7.813529932115269e+00	 8.690759103554520e-01
-2.899137802869689e+00	-7.495331880582186e+00	 9.031858511147951e-01
-3.217335854401322e+00	-7.177133829049319e+00	 9.483549368375216e-01
-3.535533905932169e+00	-6.858935777516666e+00	 9.984087775758261e-01
-3.853731957462232e+00	-6.540737725984227e+00	 1.052443280165904e+00
-4.171930008991509e+00	-6.222539674452005e+00	 1.110659973617838e+00
-4.490128060520000e+00	-5.904341622920000e+00	 1.173260379140107e+00
-1.202081528024000e+00	-8.980256121074000e+00	 7.644656594164752e-01
-1.520279579560280e+00	-8.662058069540780e+00	 7.811275278409577e-01
-1.838477631095521e+00	-8.343860018007518e+00	 8.024360249180544e-01
-2.156675682629721e+00	-8.025661966474219e+00	 8.280056170022391e-01
-2.474873734162881e+00	-7.707463914940879e+00	 8.574507877410958e-01
-2.793071785695000e+00	-7.389265863407497e+00	 8.903860380743083e-01
-3.111269837226082e+00	-7.071067811874078e+00	 9.310872465045015e-01
-3.429467888756121e+00	-6.752869760340618e+00	 9.789063607704241e-01
-3.747665940285122e+00	-6.434671708807117e+00	 1.030014803714335e+00
-4.065863991813083e+00	-6.116473657273578e+00	 1.084614104249435e+00
-4.384062043340000e+00	-5.798275605740001e+00	 1.142905783487369e+00
-1.096015510847750e+00	-8.874190103897751e+00	 7.506721796654929e-01
-1.414213562384667e+00	-8.555992052365168e+00	 7.685198044363133e-01
-1.732411613920321e+00	-8.237794000832320e+00	 7.904133093520913e-01
-2.050609665454709e+00	-7.919595949299207e+00	 8.159671601614151e-01
-2.368807716987831e+00	-7.601397897765828e+00	 8.447958399059586e-01
-2.687005768519688e+00	-7.283199846232185e+00	 8.765138489194655e-01
-3.005203820050281e+00	-6.965001794698278e+00	 9.125373584085906e-01
-3.323401871579609e+00	-6.646803743164106e+00	 9.580574537309838e-01
-3.641599923107672e+00	-6.328605691629667e+00	 1.006175544824976e+00
-3.959797974634470e+00	-6.010407640094964e+00	 1.057093160506865e+00
-4.277996026159999e+00	-5.692209588559999e+00	 1.111011821791446e+00
-9.899494936709997e-01	-8.768124086721000e+00	 7.359947344337210e-01
-1.308147545208470e+00	-8.449926035188970e+00	 7.549855678250325e-01
-1.626345596744480e+00	-8.131727983656479e+00	 7.774215320784990e-01
-1.944543648279031e+00	-7.813529932123528e+00	 8.029170923368537e-01
-2.262741699812121e+00	-7.495331880590119e+00	 8.310867310358891e-01
-2.580939751343752e+00	-7.177133829056250e+00	 8.615449479034343e-01
-2.899137802873922e+00	-6.858935777521919e+00	 8.939062599583495e-01
-3.217335854402632e+00	-6.540737725987129e+00	 9.358679145878246e-01
-3.535533905929882e+00	-6.222539674451877e+00	 9.809313616389048e-01
-3.853731957455672e+00	-5.904341622916166e+00	 1.028103000541960e+00
-4.171930008980000e+00	-5.586143571380000e+00	 1.077584352214912e+00
-8.838834764937494e-01	-8.662058069543750e+00	 7.204089879410229e-01
-1.202081528031687e+00	-8.343860018012187e+00	 7.405004822942782e-01
-1.520279579568000e+00	-8.025661966480000e+00	 7.634363574517433e-01
-1.838477631102688e+00	-7.707463914947186e+00	 7.888310779503278e-01
-2.156675682635750e+00	-7.389265863413748e+00	 8.162991256199710e-01
-2.474873734167188e+00	-7.071067811879686e+00	 8.454549995826180e-01
-2.793071785697002e+00	-6.752869760344998e+00	 8.759132162512104e-01
-3.111269837225189e+00	-6.434671708809685e+00	 9.123436013893171e-01
-3.429467888751752e+00	-6.116473657273746e+00	 9.542881122152541e-01
-3.747665940276689e+00	-5.798275605737183e+00	 9.976494824246075e-01
-4.065863991800000e+00	-5.480077554199999e+00	 1.042629232838403e+00
-7.778174593159993e-01	-8.555992052365999e+00	 7.038906047105168e-01
-1.096015510854320e+00	-8.237794000834818e+00	 7.250402124344607e-01
-1.414213562390880e+00	-7.919595949302879e+00	 7.484334501295292e-01
-1.732411613925680e+00	-7.601397897770178e+00	 7.736847817268466e-01
-2.050609665458721e+00	-7.283199846236720e+00	 8.004086884505230e-01
-2.368807716990001e+00	-6.965001794702496e+00	 8.282196688166489e-01
-2.687005768519521e+00	-6.646803743167519e+00	 8.567322386322651e-01
-3.005203820047281e+00	-6.328605691631776e+00	 8.874903721018872e-01
-3.323401871573282e+00	-6.010407640095277e+00	 9.262516545312085e-01
-3.641599923097522e+00	-5.692209588558018e+00	 9.657384641427461e-01
-3.959797974619999e+00	-5.374011537019999e+00	 1.006152321660604e+00
-6.717514421377494e-01	-8.449926035187749e+00	 6.864152495685614e-01
-9.899494936763670e-01	-8.131727983656864e+00	 7.085804231392245e-01
-1.308147545213120e+00	-7.813529932125119e+00	 7.323884750727999e-01
-1.626345596748008e+00	-7.495331880592507e+00	 7.574538686946493e-01
-1.944543648281030e+00	-7.177133829059028e+00	 7.833910846230920e-01
-2.262741699812188e+00	-6.858935777524685e+00	 8.098146207683763e-01
-2.580939751341481e+00	-6.540737725989478e+00	 8.363389923316804e-01
-2.899137802868909e+00	-6.222539674453405e+00	 8.625787318040834e-01
-3.217335854394471e+00	-5.904341622916467e+00	 8.968278464820102e-01
-3.535533905918169e+00	-5.586143571378664e+00	 9.323758036023710e-01
-3.853731957439999e+00	-5.267945519840000e+00	 9.681594765982593e-01
-5.656854249589993e-01	-8.343860018009000e+00	 6.679585876447524e-01
-8.838834764978296e-01	-8.025661966478328e+00	 6.910967796054528e-01
-1.202081528034720e+00	-7.707463914946720e+00	 7.152770975457250e-01
-1.520279579569670e+00	-7.389265863414169e+00	 7.401140041852055e-01
-1.838477631102680e+00	-7.071067811880678e+00	 7.652219795364386e-01
-2.156675682633751e+00	-6.752869760346247e+00	 7.902155209038735e-01
-2.474873734162881e+00	-6.434671708810877e+00	 8.147091428828348e-01
-2.793071785690071e+00	-6.116473657274567e+00	 8.383173773585176e-01
-3.111269837215322e+00	-5.798275605737317e+00	 8.660225458809570e-01
-3.429467888738631e+00	-5.480077554199126e+00	 8.975673586275383e-01
-3.747665940259999e+00	-5.161879502660000e+00	 9.286565554861751e-01
-4.596194077797492e-01	-8.237794000829748e+00	 6.484962843719166e-01
-7.778174593187069e-01	-7.919595949299207e+00	 6.725649473332516e-01
-1.096015510855680e+00	-7.601397897767678e+00	 6.970749831156999e-01
-1.414213562390668e+00	-7.283199846235165e+00	 7.216408538331950e-01
-1.732411613923670e+00	-6.965001794701668e+00	 7.458770388925479e-01
-2.050609665454688e+00	-6.646803743167184e+00	 7.693980349924207e-01
-2.368807716983721e+00	-6.328605691631718e+00	 7.918183561223164e-01
-2.687005768510769e+00	-6.010407640095265e+00	 8.127525335615651e-01
-3.005203820035832e+00	-5.692209588557827e+00	 8.338416104594081e-01
-3.323401871558909e+00	-5.374011537019404e+00	 8.613189869603607e-01
-3.641599923079999e+00	-5.055813485479999e+00	 8.876494160772125e-01
-3.535533906000000e-01	-8.131727983650000e+00	 6.280040054861074e-01
-6.717514421390002e-01	-7.813529932119500e+00	 6.529605921259535e-01
-9.899494936760007e-01	-7.495331880588000e+00	 6.777577976533343e-01
-1.308147545211001e+00	-7.177133829055499e+00	 7.020100835765207e-01
-1.626345596744001e+00	-6.858935777521999e+00	 7.253319286966091e-01
-1.944543648275002e+00	-6.540737725987499e+00	 7.473378291065049e-01
-2.262741699804002e+00	-6.222539674451999e+00	 7.676422981899138e-01
-2.580939751331002e+00	-5.904341622915497e+00	 7.858598666203186e-01
-2.899137802856002e+00	-5.586143571377997e+00	 8.016050823599701e-01
-3.217335854379002e+00	-5.267945519839498e+00	 8.236365462610122e-01
-3.535533905900000e+00	-4.949747468300000e+00	 8.451439160423013e-01
 2.828427124700000e+00	-1.131370849900000e+01	 9.274450671632254e-01
 2.510229073179000e+00	-1.099551044746050e+01	 9.016844236152418e-01
 2.192031021656000e+00	-1.067731239592200e+01	 8.694794230061860e-01
 1.873832970131000e+00	-1.035911434438450e+01	 8.309303120670709e-01
 1.555634918604000e+00	-1.004091629284800e+01	 8.200743259089349e-01
 1.237436867075000e+00	-9.722718241312501e+00	 8.055744703159792e-01
 9.192388155440001e-01	-9.404520189777999e+00	 7.854188168057442e-01
 6.010407640110003e-01	-9.086322138244501e+00	 7.592217231083190e-01
 2.828427124760003e-01	-8.768124086712003e+00	 7.265975642526893e-01
-3.535533906099975e-02	-8.449926035180500e+00	 6.871607325657234e-01
-3.535533906000000e-01	-8.131727983650000e+00	 6.405256376711546e-01
 2.899137802820000e+00	-1.124299782088000e+01	 9.323102138225283e-01
 2.580939751299000e+00	-1.092479976934050e+01	 9.019226200404780e-01
 2.262741699775999e+00	-1.060660171780200e+01	 8.657434020391988e-01
 1.944543648251000e+00	-1.028840366626450e+01	 8.299651080810417e-01
 1.626345596724000e+00	-9.970205614728002e+00	 8.179286060045194e-01
 1.308147545195000e+00	-9.652007563192502e+00	 8.013433556440818e-01
 9.899494936639996e-01	-9.333809511657996e+00	 7.798236970264059e-01
 6.717514421310001e-01	-9.015611460124500e+00	 7.529839874780508e-01
 3.535533905960002e-01	-8.697413408592002e+00	 7.204386016244351e-01
 3.535533905900017e-02	-8.379215357060499e+00	 6.818019313888313e-01
-2.828427124800000e-01	-8.061017305530001e+00	 6.366883859913441e-01
 2.969848480940000e+00	-1.117228714276000e+01	 9.358322073152829e-01
 2.651650429419000e+00	-1.085408909122050e+01	 9.017540318371891e-01
 2.333452377896001e+00	-1.053589103968200e+01	 8.617722866103992e-01
 2.015254326371000e+00	-1.021769298814450e+01	 8.304092452782308e-01
 1.697056274844000e+00	-9.899494936607999e+00	 8.157456480815501e-01
 1.378858223315000e+00	-9.581296885072501e+00	 7.972546923199222e-01
 1.060660171784000e+00	-9.263098833538001e+00	 7.745507176165318e-01
 7.424621202510001e-01	-8.944900782004499e+00	 7.472480808944200e-01
 4.242640687160004e-01	-8.626702730471999e+00	 7.149611563754545e-01
 1.060660171790003e-01	-8.308504678940501e+00	 6.773043355793223e-01
-2.121320343600000e-01	-7.990306627410001e+00	 6.338920273225147e-01
 3.040559159060000e+00	-1.110157646464000e+01	 9.375601014256428e-01
 2.722361107539000e+00	-1.078337841310050e+01	 9.011816198327918e-01
 2.404163056016000e+00	-1.046518036156200e+01	 8.575690375472049e-01
 2.085965004491000e+00	-1.014698231002450e+01	 8.306292446788619e-01
 1.767766952964000e+00	-9.828784258488000e+00	 8.135182420928102e-01
 1.449568901435000e+00	-9.510586206952501e+00	 7.933012703161987e-01
 1.131370849904000e+00	-9.192388155418001e+00	 7.695926685687442e-01
 8.131727983710000e-01	-8.874190103884500e+00	 7.420067933699722e-01
 4.949747468360004e-01	-8.555992052352002e+00	 7.101580185382153e-01
 1.767766952990004e-01	-8.237794000820504e+00	 6.736607351895906e-01
-1.414213562400000e-01	-7.919595949290000e+00	 6.321293517369868e-01
 3.111269837180000e+00	-1.103086578652000e+01	 9.385510284941724e-01
 2.793071785659000e+00	-1.071266773498050e+01	 9.002083448547052e-01
 2.474873734136000e+00	-1.039446968344200e+01	 8.531366156770330e-01
 2.156675682611000e+00	-1.007627163190450e+01	 8.306178962757019e-01
 1.838477631084000e+00	-9.758073580368000e+00	 8.112391780509778e-01
 1.520279579555001e+00	-9.439875528832502e+00	 7.894758796655111e-01
 1.202081528024000e+00	-9.121677477298000e+00	 7.649423399355545e-01
 8.838834764910003e-01	-8.803479425764504e+00	 7.372529149771418e-01
 5.656854249560004e-01	-8.485281374232001e+00	 7.060219782050769e-01
 2.474873734190002e-01	-8.167083322700499e+00	 6.708639203319233e-01
-7.071067811999998e-02	-7.848885271170000e+00	 6.313931493669747e-01
 3.181980515300000e+00	-1.096015510840000e+01	 9.388042192364354e-01
 2.863782463779000e+00	-1.064195705686050e+01	 8.988371677303452e-01
 2.545584412256001e+00	-1.032375900532200e+01	 8.505572216266681e-01
 2.227386360731000e+00	-1.000556095378450e+01	 8.303679901214126e-01
 1.909188309204000e+00	-9.687362902248003e+00	 8.089012460286289e-01
 1.590990257675000e+00	-9.369164850712501e+00	 7.857713104603498e-01
 1.272792206144000e+00	-9.050966799178001e+00	 7.605925218293755e-01
 9.545941546110002e-01	-8.732768747644501e+00	 7.329792358482599e-01
 6.363961030760004e-01	-8.414570696112001e+00	 7.025458255282945e-01
 3.181980515390003e-01	-8.096372644580500e+00	 6.689066811784969e-01
 2.775557561562891e-17	-7.778174593050001e+00	 6.316762104045865e-01
 3.252691193420000e+00	-1.088944443028000e+01	 9.383189043679955e-01
 2.934493141899000e+00	-1.057124637874050e+01	 8.970710492871292e-01
 2.616295090375999e+00	-1.025304832720200e+01	 8.526912726554223e-01
 2.298097038851000e+00	-9.934850275664500e+00	 8.298723163285555e-01
 1.979898987324000e+00	-9.616652224128002e+00	 8.064972361582390e-01
 1.661700935795000e+00	-9.298454172592500e+00	 7.821803528531042e-01
 1.343502884264000e+00	-8.980256121058002e+00	 7.565360044225129e-01
 1.025304832731000e+00	-8.662058069524502e+00	 7.291785461755521e-01
 7.071067811960003e-01	-8.343860017992000e+00	 6.997223507200148e-01
 3.889087296590001e-01	-8.025661966460499e+00	 6.677818079613841e-01
 7.071067811999998e-02	-7.707463914930001e+00	 6.329713251018197e-01
 3.323401871540000e+00	-1.081873375216000e+01	 9.370943146044162e-01
 3.005203820019001e+00	-1.050053570062050e+01	 8.927868405072960e-01
 2.687005768496000e+00	-1.018233764908200e+01	 8.543926560630476e-01
 2.368807716970999e+00	-9.864139597544499e+00	 8.291236650695861e-01
 2.050609665444000e+00	-9.545941546008001e+00	 8.040199386321772e-01
 1.732411613915000e+00	-9.227743494472499e+00	 7.786957970560574e-01
 1.414213562384000e+00	-8.909545442938001e+00	 7.527655779471680e-01
 1.096015510851000e+00	-8.591347391404502e+00	 7.258436362111381e-01
 7.778174593160001e-01	-8.273149339872001e+00	 6.975443440522771e-01
 4.596194077790004e-01	-7.954951288340501e+00	 6.674820909725475e-01
 1.414213562400000e-01	-7.636753236810001e+00	 6.352712837705613e-01
 3.394112549660000e+00	-1.074802307404000e+01	 9.351296806612613e-01
 3.075914498139000e+00	-1.042982502250050e+01	 8.877299008986806e-01
 2.757716446616000e+00	-1.011162697096200e+01	 8.556541620619855e-01
 2.439518395091000e+00	-9.793428919424500e+00	 8.281148265768575e-01
 2.121320343564000e+00	-9.475230867888001e+00	 8.014621437027047e-01
 1.803122292035000e+00	-9.157032816352501e+00	 7.753104333413861e-01
 1.484924240504000e+00	-8.838834764817999e+00	 7.492740326954322e-01
 1.166726188971000e+00	-8.520636713284501e+00	 7.229672962670299e-01
 8.485281374360004e-01	-8.202438661752003e+00	 6.960045958570139e-01
 5.303300858990002e-01	-7.884240610220502e+00	 6.680003205638437e-01
 2.121320343599999e-01	-7.566042558690000e+00	 6.385688767825911e-01
 3.464823227780000e+00	-1.067731239592000e+01	 9.324242332540934e-01
 3.146625176259000e+00	-1.035911434438050e+01	 8.821042249778428e-01
 2.828427124736000e+00	-1.004091629284200e+01	 8.564685809245758e-01
 2.510229073211000e+00	-9.722718241304500e+00	 8.268385911426176e-01
 2.192031021684000e+00	-9.404520189768000e+00	 7.988166416819823e-01
 1.873832970155000e+00	-9.086322138232502e+00	 7.720170520411642e-01
 1.555634918624000e+00	-8.768124086698000e+00	 7.460541590192927e-01
 1.237436867091000e+00	-8.449926035164500e+00	 7.205423167151304e-01
 9.192388155560003e-01	-8.131727983632002e+00	 6.950958965260494e-01
 6.010407640190004e-01	-7.813529932100501e+00	 6.693292871470148e-01
 2.828427124799999e-01	-7.495331880570000e+00	 6.428568945695810e-01
 3.535533905900000e+00	-1.060660171780000e+01	 9.289772030984759e-01
 3.217335854379000e+00	-1.028840366626050e+01	 8.808985528864722e-01
 2.899137802856000e+00	-9.970205614722001e+00	 8.568287029830530e-01
 2.580939751331000e+00	-9.652007563184499e+00	 8.252877491190077e-01
 2.262741699804000e+00	-9.333809511648001e+00	 7.960762229420615e-01
 1.944543648275000e+00	-9.015611460112503e+00	 7.688084435473507e-01
 1.626345596744000e+00	-8.697413408578001e+00	 7.430987473306278e-01
 1.308147545211000e+00	-8.379215357044501e+00	 7.185614879872351e-01
 9.899494936760004e-01	-8.061017305512001e+00	 6.948110365110957e-01
 6.717514421390002e-01	-7.742819253980501e+00	 6.714617811936996e-01
 3.535533906000000e-01	-7.424621202450000e+00	 6.481281276230852e-01
-3.535533906000000e-01	-8.131727983650000e+00	 6.405256376711546e-01
-6.717514421390002e-01	-7.813529932119500e+00	 6.679721271770180e-01
-9.899494936760007e-01	-7.495331880588000e+00	 6.917765734998520e-01
-1.308147545211001e+00	-7.177133829055499e+00	 7.115534381479849e-01
-1.626345596744001e+00	-6.858935777521999e+00	 7.269171999225729e-01
-1.944543648275002e+00	-6.540737725987499e+00	 7.374823549165830e-01
-2.262741699804002e+00	-6.222539674451999e+00	 7.428634165137767e-01
-2.580939751331002e+00	-5.904341622915497e+00	 7.426749153876970e-01
-2.899137802856002e+00	-5.586143571377997e+00	 7.365313995006569e-01
-3.217335854379002e+00	-5.267945519839498e+00	 7.331914697048584e-01
-3.535533905900000e+00	-4.949747468300000e+00	 7.258447837192146e-01
-2.828427124800000e-01	-8.061017305530001e+00	 6.366883859913441e-01
-6.010407640190004e-01	-7.742819253999498e+00	 6.672787803059367e-01
-9.192388155560007e-01	-7.424621202467999e+00	 6.924856539541251e-01
-1.237436867091001e+00	-7.106423150935499e+00	 7.119234680405455e-01
-1.555634918624001e+00	-6.788225099401997e+00	 7.252067009626321e-01
-1.873832970155002e+00	-6.470027047867500e+00	 7.319498484095953e-01
-2.192031021684001e+00	-6.151828996331997e+00	 7.317674233614146e-01
-2.510229073211002e+00	-5.833630944795499e+00	 7.242739560878125e-01
-2.828427124736002e+00	-5.515432893257998e+00	 7.090839941472535e-01
-3.146625176259002e+00	-5.197234841719498e+00	 6.925897812546422e-01
-3.464823227780000e+00	-4.879036790180000e+00	 6.724988280186120e-01
-2.121320343600000e-01	-7.990306627410001e+00	 6.338920273225147e-01
-5.303300858990004e-01	-7.672108575879501e+00	 6.669705887150967e-01
-8.485281374360008e-01	-7.353910524347999e+00	 6.929241516134110e-01
-1.166726188971001e+00	-7.035712472815501e+00	 7.113671767184140e-01
-1.484924240504001e+00	-6.717514421281998e+00	 7.219141420238340e-01
-1.803122292035001e+00	-6.399316369747496e+00	 7.241795428151352e-01
-2.121320343564002e+00	-6.081118318211999e+00	 7.177778916685273e-01
-2.439518395091001e+00	-5.762920266675498e+00	 7.023237184499245e-01
-2.757716446616002e+00	-5.444722215137999e+00	 6.774315703139567e-01
-3.075914498139002e+00	-5.126524163599496e+00	 6.471403020195574e-01
-3.394112549660000e+00	-4.808326112060000e+00	 6.136396796398965e-01
-1.414213562400000e-01	-7.919595949290000e+00	 6.321293517369868e-01
-4.596194077790004e-01	-7.601397897759501e+00	 6.670403424967490e-01
-7.778174593160008e-01	-7.283199846227999e+00	 6.930848565898935e-01
-1.096015510851001e+00	-6.965001794695499e+00	 7.098773543137129e-01
-1.414213562384001e+00	-6.646803743162000e+00	 7.170323132582357e-01
-1.732411613915001e+00	-6.328605691627499e+00	 7.141642283052003e-01
-2.050609665444001e+00	-6.010407640091996e+00	 7.008876116270517e-01
-2.368807716971002e+00	-5.692209588555499e+00	 6.768169926859169e-01
-2.687005768496002e+00	-5.374011537017997e+00	 6.415669182326001e-01
-3.005203820019002e+00	-5.055813485479496e+00	 5.968447675419445e-01
-3.323401871540000e+00	-4.737615433940000e+00	 5.492690741286066e-01
-7.071067811999998e-02	-7.848885271170000e+00	 6.313931493669747e-01
-3.889087296590003e-01	-7.530687219639500e+00	 6.674808318030407e-01
-7.071067811960005e-01	-7.212489168108000e+00	 6.929605590556525e-01
-1.025304832731001e+00	-6.894291116575497e+00	 7.074467910184546e-01
-1.343502884264001e+00	-6.576093065041999e+00	 7.105540048777859e-01
-1.661700935795001e+00	-6.257895013507499e+00	 7.018966951116757e-01
-1.979898987324002e+00	-5.939696961971999e+00	 6.810893734888184e-01
-2.298097038851002e+00	-5.621498910435498e+00	 6.477465690675632e-01
-2.616295090376002e+00	-5.303300858897997e+00	 6.014828281949054e-01
-2.934493141899003e+00	-4.985102807359498e+00	 5.419127145054594e-01
-3.252691193420000e+00	-4.666904755820000e+00	 4.793887470140999e-01
 2.775557561562891e-17	-7.778174593050001e+00	 6.316762104045865e-01
-3.181980515390002e-01	-7.459976541519500e+00	 6.682848468460046e-01
-6.363961030760007e-01	-7.141778489987999e+00	 6.925440492426541e-01
-9.545941546110012e-01	-6.823580438455501e+00	 7.040682770845366e-01
-1.272792206144001e+00	-6.505382386921999e+00	 7.024720071543239e-01
-1.590990257675002e+00	-6.187184335387498e+00	 6.873697335263398e-01
-1.909188309204002e+00	-5.868986283851998e+00	 6.583759675655423e-01
-2.227386360731002e+00	-5.550788232315497e+00	 6.151052379265216e-01
-2.545584412256003e+00	-5.232590180777998e+00	 5.571720905524702e-01
-2.863782463779002e+00	-4.914392129239497e+00	 4.841910886741758e-01
-3.181980515300000e+00	-4.596194077700000e+00	 4.040004338095441e-01
 7.071067811999998e-02	-7.707463914930001e+00	 6.329713251018197e-01
-2.474873734190003e-01	-7.389265863399500e+00	 6.694451778975700e-01
-5.656854249560007e-01	-7.071067811868000e+00	 6.918281174427549e-01
-8.838834764910009e-01	-6.752869760335499e+00	 6.997346028237521e-01
-1.202081528024001e+00	-6.434671708801998e+00	 6.927791104195729e-01
-1.520279579555001e+00	-6.116473657267498e+00	 6.705761339008512e-01
-1.838477631084002e+00	-5.798275605731998e+00	 6.327401842288278e-01
-2.156675682611002e+00	-5.480077554195498e+00	 5.788857896543358e-01
-2.474873734136002e+00	-5.161879502657998e+00	 5.086274957167859e-01
-2.793071785659002e+00	-4.843681451119497e+00	 4.215798652431497e-01
-3.111269837180000e+00	-4.525483399580000e+00	 3.231058700119295e-01
 1.414213562400000e-01	-7.636753236810001e+00	 6.352712837705613e-01
-1.767766952990004e-01	-7.318555185279502e+00	 6.709546152895520e-01
-4.949747468360006e-01	-7.000357133747998e+00	 6.908055540077042e-01
-8.131727983710010e-01	-6.682159082215500e+00	 6.944385586077806e-01
-1.131370849904001e+00	-6.363961030681999e+00	 6.814681050651485e-01
-1.449568901435001e+00	-6.045762979147497e+00	 6.515086866467650e-01
-1.767766952964002e+00	-5.727564927611999e+00	 6.041748139101649e-01
-2.085965004491002e+00	-5.409366876075498e+00	 5.390810147024379e-01
-2.404163056016002e+00	-5.091168824537998e+00	 4.558418341592267e-01
-2.722361107539003e+00	-4.772970772999497e+00	 3.540718347036994e-01
-3.040559159060000e+00	-4.454772721459999e+00	 2.367067911020585e-01
 2.121320343599999e-01	-7.566042558690000e+00	 6.385688767825911e-01
-1.060660171790003e-01	-7.247844507159500e+00	 6.728059494136567e-01
-4.242640687160007e-01	-6.929646455628000e+00	 6.894691493491354e-01
-7.424621202510009e-01	-6.611448404095499e+00	 6.881729348681881e-01
-1.060660171784001e+00	-6.293250352561999e+00	 6.685317815425502e-01
-1.378858223315001e+00	-5.975052301027499e+00	 6.301601822355166e-01
-1.697056274844002e+00	-5.656854249491998e+00	 5.726726471009252e-01
-2.015254326371002e+00	-5.338656197955499e+00	 4.956837035821435e-01
-2.333452377896002e+00	-5.020458146417997e+00	 3.988078964110517e-01
-2.651650429419003e+00	-4.702260094879497e+00	 2.816597876070298e-01
-2.969848480940000e+00	-4.384062043340000e+00	 1.448049325445513e-01
 2.828427124799999e-01	-7.495331880570000e+00	 6.428568945695810e-01
-3.535533905900039e-02	-7.177133829039500e+00	 6.749919707214800e-01
-3.535533905960007e-01	-6.858935777508000e+00	 6.878116939385729e-01
-6.717514421310010e-01	-6.540737725975499e+00	 6.809305220964281e-01
-9.899494936640012e-01	-6.222539674441999e+00	 6.539629303631644e-01
-1.308147545195002e+00	-5.904341622907499e+00	 6.065234111984295e-01
-1.626345596724002e+00	-5.586143571371999e+00	 5.382264743523744e-01
-1.944543648251002e+00	-5.267945519835498e+00	 4.486866468646514e-01
-2.262741699776002e+00	-4.949747468297998e+00	 3.375184730634001e-01
-2.580939751299002e+00	-4.631549416759497e+00	 2.043365145642224e-01
-2.899137802820000e+00	-4.313351365219999e+00	 4.875535026917968e-02
 3.535533906000000e-01	-7.424621202450000e+00	 6.481281276230852e-01
 3.535533906099975e-02	-7.106423150919500e+00	 6.775054697245075e-01
-2.828427124760007e-01	-6.788225099388000e+00	 6.858259783074261e-01
-6.010407640110009e-01	-6.470027047855499e+00	 6.727041108438419e-01
-9.192388155440012e-01	-6.151828996321999e+00	 6.377543420982676e-01
-1.237436867075001e+00	-5.833630944787498e+00	 5.805911641267081e-01
-1.555634918604002e+00	-5.515432893251999e+00	 5.008290862756509e-01
-1.873832970131002e+00	-5.197234841715498e+00	 3.980826351810438e-01
-2.192031021656002e+00	-4.879036790177997e+00	 2.719663547673005e-01
-2.510229073179003e+00	-4.560838738639497e+00	 1.220948062462469e-01
-2.828427124700000e+00	-4.242640687100000e+00	-5.191743188383793e-02
 3.535533905900000e+00	-1.060660171780000e+01	 9.289772030984759e-01
 3.217335854379000e+00	-1.028840366626050e+01	 8.793001624672354e-01
 2.899137802856000e+00	-9.970205614722001e+00	 8.539579067334386e-01
 2.580939751331000e+00	-9.652007563184499e+00	 8.214705316278843e-01
 2.262741699804000e+00	-9.333809511648001e+00	 7.916385687983063e-01
 1.944543648275000e+00	-9.015611460112503e+00	 7.640763373398508e-01
 1.626345596744000e+00	-8.697413408578001e+00	 7.383981736482772e-01
 1.308147545211000e+00	-8.379215357044501e+00	 7.142184314189377e-01
 9.899494936760004e-01	-8.061017305512001e+00	 6.911514816457650e-01
 6.717514421390002e-01	-7.742819253980501e+00	 6.688117126202573e-01
 3.535533906000000e-01	-7.424621202450000e+00	 6.468135299304616e-01
 3.606244584020000e+00	-1.053589103968000e+01	 9.246994651669550e-01
 3.288046532498814e+00	-1.021769298814050e+01	 8.806195661104306e-01
 2.969848480975660e+00	-9.899494936602000e+00	 8.562606296150865e-01
 2.651650429450535e+00	-9.581296885064503e+00	 8.241775947788782e-01
 2.333452377923440e+00	-9.263098833528003e+00	 7.938341992972802e-01
 2.015254326394375e+00	-8.944900781992503e+00	 7.659598027091843e-01
 1.697056274863340e+00	-8.626702730458000e+00	 7.401687410069144e-01
 1.378858223330335e+00	-8.308504678924500e+00	 7.160753674823592e-01
 1.060660171795361e+00	-7.990306627392001e+00	 6.932940527259540e-01
 7.424621202584155e-01	-7.672108575860500e+00	 6.714391846256671e-01
 4.242640687195001e-01	-7.353910524330002e+00	 6.501251683659812e-01
 3.676955262139999e+00	-1.046518036156000e+01	 9.207191319666195e-01
 3.358757210618260e+00	-1.014698231002050e+01	 8.819481332621547e-01
 3.040559159094640e+00	-9.828784258481999e+00	 8.569399032503345e-01
 2.722361107569141e+00	-9.510586206944501e+00	 8.269133594610897e-01
 2.404163056041760e+00	-9.192388155407999e+00	 7.959972883001647e-01
 2.085965004512500e+00	-8.874190103872502e+00	 7.677494832105627e-01
 1.767766952981360e+00	-8.555992052337999e+00	 7.417842797811907e-01
 1.449568901448340e+00	-8.237794000804501e+00	 7.177160309004829e-01
 1.131370849913441e+00	-7.919595949272000e+00	 6.951591067553906e-01
 8.131727983766601e-01	-7.601397897740501e+00	 6.737278948303613e-01
 4.949747468380000e-01	-7.283199846210000e+00	 6.530367999063276e-01
 3.747665940260000e+00	-1.039446968344000e+01	 9.170354342130429e-01
 3.429467888737334e+00	-1.007627163190050e+01	 8.832898040104066e-01
 3.111269837212940e+00	-9.758073580362000e+00	 8.575656586486282e-01
 2.793071785686815e+00	-9.439875528824500e+00	 8.296706162063479e-01
 2.474873734158960e+00	-9.121677477288001e+00	 7.981206263586921e-01
 2.156675682629376e+00	-8.803479425752501e+00	 7.694381694156267e-01
 1.838477631098060e+00	-8.485281374218003e+00	 7.432375805626534e-01
 1.520279579565015e+00	-8.167083322684498e+00	 7.191332122847677e-01
 1.202081528030240e+00	-7.848885271152002e+00	 6.967394343654468e-01
 8.838834764937353e-01	-7.530687219620501e+00	 6.756706338856321e-01
 5.656854249555000e-01	-7.212489168090001e+00	 6.555412152227142e-01
 3.818376618380000e+00	-1.032375900532000e+01	 9.152703884264588e-01
 3.500178566856040e+00	-1.000556095378050e+01	 8.846485184148484e-01
 3.181980515330559e+00	-9.687362902242002e+00	 8.581418358389269e-01
 2.863782463803560e+00	-9.369164850704500e+00	 8.324421556063744e-01
 2.545584412275040e+00	-9.050966799168002e+00	 8.001970040844855e-01
 2.227386360745001e+00	-8.732768747632502e+00	 7.710186519559075e-01
 1.909188309213440e+00	-8.414570696098000e+00	 7.445214340027434e-01
 1.590990257680361e+00	-8.096372644564502e+00	 7.203197023065655e-01
 1.272792206145761e+00	-7.778174593032002e+00	 6.980278262473866e-01
 9.545941546096403e-01	-7.459976541500500e+00	 6.772601925026568e-01
 6.363961030720000e-01	-7.141778489970000e+00	 6.576312050462401e-01
 3.889087296500000e+00	-1.025304832720000e+01	 9.176232537186357e-01
 3.570889244974375e+00	-9.934850275660500e+00	 8.860282165068062e-01
 3.252691193447500e+00	-9.616652224122001e+00	 8.586723748218519e-01
 2.934493141919375e+00	-9.298454172584501e+00	 8.352207683127786e-01
 2.616295090390000e+00	-8.980256121048001e+00	 8.022192121490653e-01
 2.298097038859375e+00	-8.662058069512499e+00	 7.724837215228270e-01
 1.979898987327500e+00	-8.343860017978001e+00	 7.456286308127904e-01
 1.661700935794375e+00	-8.025661966444501e+00	 7.212682916971123e-01
 1.343502884260000e+00	-7.707463914912002e+00	 6.990170731523613e-01
 1.025304832724375e+00	-7.389265863380500e+00	 6.784893614525029e-01
 7.071067811875000e-01	-7.071067811850001e+00	 6.592995601678852e-01
 3.959797974620000e+00	-1.018233764908000e+01	 9.200676647260333e-01
 3.641599923092341e+00	-9.864139597540500e+00	 8.874328382892682e-01
 3.323401871563759e+00	-9.545941546001998e+00	 8.591612155696889e-01
 3.005203820034260e+00	-9.227743494464500e+00	 8.351938807887472e-01
 2.687005768503841e+00	-8.909545442928001e+00	 8.041800412838341e-01
 2.368807716972500e+00	-8.591347391392500e+00	 7.738261688676953e-01
 2.050609665440240e+00	-8.273149339858001e+00	 7.465519617640091e-01
 1.732411613907060e+00	-7.954951288324501e+00	 7.219717712475343e-01
 1.414213562372960e+00	-7.636753236791999e+00	 6.996999658914049e-01
 1.096015510837940e+00	-7.318555185260499e+00	 6.793509315661193e-01
 7.778174593020001e-01	-7.000357133730001e+00	 6.605390714385193e-01
 4.030508652740000e+00	-1.011162697096000e+01	 9.226075614540029e-01
 3.712310601209935e+00	-9.793428919420499e+00	 8.888663237368851e-01
 3.394112549679339e+00	-9.475230867882001e+00	 8.596122980263869e-01
 3.075914498148214e+00	-9.157032816344499e+00	 8.347865691654847e-01
 2.757716446616560e+00	-8.838834764808002e+00	 8.060722822800870e-01
 2.439518395084375e+00	-8.520636713272500e+00	 7.750387848017103e-01
 2.121320343551660e+00	-8.202438661738002e+00	 7.472842176875043e-01
 1.803122292018415e+00	-7.884240610204500e+00	 7.224229318088430e-01
 1.484924240484640e+00	-7.566042558672001e+00	 7.000692953354402e-01
 1.166726188950336e+00	-7.247844507140501e+00	 6.798376937343369e-01
 8.485281374155000e-01	-6.929646455609999e+00	 6.613425297688922e-01
 4.101219330860000e+00	-1.004091629284000e+01	 9.252468838795573e-01
 3.783021279327160e+00	-9.722718241300500e+00	 8.903326127959693e-01
 3.464823227794239e+00	-9.404520189762001e+00	 8.600295621075627e-01
 3.146625176261240e+00	-9.086322138224499e+00	 8.342788172788262e-01
 2.828427124728160e+00	-8.768124086688001e+00	 8.078887259890064e-01
 2.510229073195001e+00	-8.449926035152503e+00	 7.761143601959581e-01
 2.192031021661760e+00	-8.131727983617999e+00	 7.478181894742670e-01
 1.873832970128440e+00	-7.813529932084501e+00	 7.226145642919357e-01
 1.555634918595040e+00	-7.495331880552001e+00	 7.001178524152749e-01
 1.237436867061561e+00	-7.177133829020501e+00	 6.799424389078822e-01
 9.192388155280000e-01	-6.858935777490000e+00	 6.617027261296367e-01
 4.171930008980000e+00	-9.970205614719999e+00	 9.279895719513734e-01
 3.853731957444015e+00	-9.652007563180501e+00	 8.918356453845040e-01
 3.535533905908460e+00	-9.333809511642000e+00	 8.604169477004922e-01
 3.217335854373335e+00	-9.015611460104502e+00	 8.336745649853485e-01
 2.899137802838640e+00	-8.697413408568000e+00	 8.096221633216629e-01
 2.580939751304375e+00	-8.379215357032502e+00	 7.770456859814128e-01
 2.262741699770539e+00	-8.061017305498000e+00	 7.481466680751752e-01
 1.944543648237135e+00	-7.742819253964499e+00	 7.225394596675984e-01
 1.626345596704160e+00	-7.424621202432001e+00	 6.998384281215991e-01
 1.308147545171616e+00	-7.106423150900501e+00	 6.796579580973503e-01
 9.899494936395001e-01	-6.788225099369999e+00	 6.616124515512696e-01
 4.242640687100000e+00	-9.899494936600000e+00	 9.308395655897883e-01
 3.924442635560500e+00	-9.581296885060500e+00	 8.933793613921296e-01
 3.606244584022000e+00	-9.263098833522001e+00	 8.607783946641205e-01
 3.288046532484499e+00	-8.944900781984499e+00	 8.329777521132932e-01
 2.969848480948000e+00	-8.626702730448001e+00	 8.099185200174774e-01
 2.651650429412500e+00	-8.308504678912501e+00	 7.778255531489318e-01
 2.333452377878000e+00	-7.990306627378000e+00	 7.482624445009911e-01
 2.015254326344500e+00	-7.672108575844501e+00	 7.221904089664964e-01
 1.697056274812000e+00	-7.353910524312001e+00	 6.992238135049884e-01
 1.378858223280500e+00	-7.035712472780501e+00	 6.789770423732295e-01
 1.060660171750000e+00	-6.717514421250000e+00	 6.610644971241856e-01
 3.535533906000000e-01	-7.424621202450000e+00	 6.468135299304616e-01
 3.535533906099975e-02	-7.106423150919500e+00	 6.781619925886413e-01
-2.828427124760007e-01	-6.788225099388000e+00	 6.893989364910752e-01
-6.010407640110009e-01	-6.470027047855499e+00	 6.801388191091237e-01
-9.192388155440012e-01	-6.151828996321999e+00	 6.499961152063365e-01
-1.237436867075001e+00	-5.833630944787498e+00	 5.985853168374198e-01
-1.555634918604002e+00	-5.515432893251999e+00	 5.255209333472427e-01
-1.873832970131002e+00	-5.197234841715498e+00	 4.304174913697961e-01
-2.192031021656002e+00	-4.879036790177997e+00	 3.128895348272095e-01
-2.510229073179003e+00	-4.560838738639497e+00	 1.725516249287117e-01
-2.828427124700000e+00	-4.242640687100000e+00	 9.018340169630337e-03
 4.242640687195001e-01	-7.353910524330002e+00	 6.501251683659812e-01
 1.060660171804047e-01	-7.035712472799499e+00	 6.766049018579496e-01
-2.121320343570806e-01	-6.717514421268001e+00	 6.835540527726156e-01
-5.303300858929558e-01	-6.399316369735500e+00	 6.705870781778346e-01
-8.485281374272209e-01	-6.081118318201997e+00	 6.373184524336282e-01
-1.166726188959877e+00	-5.762920266667499e+00	 5.833626671911780e-01
-1.484924240490922e+00	-5.444722215131998e+00	 5.083342313918081e-01
-1.803122292020357e+00	-5.126524163595499e+00	 4.118476712659752e-01
-2.121320343548183e+00	-4.808326112057999e+00	 2.935175303322429e-01
-2.439518395074397e+00	-4.490128060519497e+00	 1.529583693962761e-01
-2.757716446599001e+00	-4.171930008980000e+00	-1.021523345017050e-02
 4.949747468380000e-01	-7.283199846210000e+00	 6.530367999063276e-01
 1.767766952990197e-01	-6.965001794679502e+00	 6.750443586330942e-01
-1.414213562387207e-01	-6.646803743148000e+00	 6.781022706165378e-01
-4.596194077752209e-01	-6.328605691615500e+00	 6.618249925210090e-01
-7.778174593104811e-01	-6.010407640081998e+00	 6.258269983030239e-01
-1.096015510844501e+00	-5.692209588547500e+00	 5.697227792102411e-01
-1.414213562377282e+00	-5.374011537011999e+00	 4.931268437804597e-01
-1.732411613908821e+00	-5.055813485475498e+00	 3.956537178405920e-01
-2.050609665439122e+00	-4.737615433937997e+00	 2.769179445056531e-01
-2.368807716968182e+00	-4.419417382399497e+00	 1.365340841777594e-01
-2.687005768496000e+00	-4.101219330860000e+00	-2.588328545491129e-02
 5.656854249555000e-01	-7.212489168090001e+00	 6.555412152227142e-01
 2.474873734168447e-01	-6.894291116559501e+00	 6.734731536052061e-01
-7.071067812092069e-02	-6.576093065027999e+00	 6.730363807338851e-01
-3.889087296577958e-01	-6.257895013495499e+00	 6.538453528696088e-01
-7.071067811937809e-01	-5.939696961961999e+00	 6.155145435653963e-01
-1.025304832728877e+00	-5.621498910427499e+00	 5.576584436653976e-01
-1.343502884263082e+00	-5.303300858891998e+00	 4.798915613038869e-01
-1.661700935796397e+00	-4.985102807355498e+00	 3.818284219042471e-01
-1.979898987328822e+00	-4.666904755817997e+00	 2.630835681779571e-01
-2.298097038860357e+00	-4.348706704279498e+00	 1.232715601235750e-01
-2.616295090391000e+00	-4.030508652739999e+00	-3.799302497428064e-02
 6.363961030720000e-01	-7.141778489970000e+00	 6.576312050462401e-01
 3.181980515338797e-01	-6.823580438439501e+00	 6.718840775253021e-01
-3.680620044854699e-12	-6.505382386908000e+00	 6.683491738955891e-01
-3.181980515406808e-01	-6.187184335375497e+00	 6.466409500144840e-01
-6.363961030771212e-01	-5.868986283841999e+00	 6.063738790315110e-01
-9.545941546130012e-01	-5.550788232307499e+00	 5.471624513873204e-01
-1.272792206148322e+00	-5.232590180771998e+00	 4.686211748126767e-01
-1.590990257683082e+00	-4.914392129235498e+00	 3.703645743274394e-01
-1.909188309217282e+00	-4.596194077697997e+00	 2.520071922395518e-01
-2.227386360750923e+00	-4.277996026159498e+00	 1.131635881440199e-01
-2.545584412284000e+00	-3.959797974620000e+00	-4.655166107808206e-02
 7.071067811875000e-01	-7.071067811850001e+00	 6.592995601678852e-01
 3.889087296501247e-01	-6.752869760319499e+00	 6.702699212042804e-01
 7.071067811299936e-02	-6.434671708788000e+00	 6.640334409324677e-01
-2.474873734238759e-01	-6.116473657255500e+00	 6.402045748063639e-01
-5.656854249605011e-01	-5.798275605721999e+00	 5.983977955720119e-01
-8.838834764968764e-01	-5.480077554187499e+00	 5.382275932665708e-01
-1.202081528033002e+00	-5.161879502651999e+00	 4.593084752173017e-01
-1.520279579568877e+00	-4.843681451115498e+00	 3.612549660405444e-01
-1.838477631104502e+00	-4.525483399577998e+00	 2.436816076407174e-01
-2.156675682639877e+00	-4.207285348039496e+00	 1.062029592092871e-01
-2.474873734175000e+00	-3.889087296500000e+00	-5.156640277622659e-02
 7.778174593020001e-01	-7.000357133730001e+00	 6.605390714385193e-01
 4.596194077655797e-01	-6.682159082199501e+00	 6.686234755129244e-01
 1.414213562291193e-01	-6.363961030667999e+00	 6.600819727352206e-01
-1.767766953073808e-01	-6.045762979135499e+00	 6.345290181558650e-01
-4.949747468439211e-01	-5.727564927601999e+00	 5.915790841174315e-01
-8.131727983805014e-01	-5.409366876067499e+00	 5.308466602535925e-01
-1.131370849917122e+00	-5.091168824531999e+00	 4.519462534881137e-01
-1.449568901453782e+00	-4.772970772995499e+00	 3.544923880338288e-01
-1.767766952990482e+00	-4.454772721457998e+00	 2.380996053916304e-01
-2.085965004527222e+00	-4.136574669919497e+00	 1.023824643494548e-01
-2.404163056064000e+00	-3.818376618380000e+00	-5.304445901873354e-02
 8.485281374155000e-01	-6.929646455609999e+00	 6.613425297688922e-01
 5.303300858802448e-01	-6.611448404079501e+00	 6.669375313819036e-01
 2.121320343446793e-01	-6.293250352547998e+00	 6.564875602544332e-01
-1.060660171911959e-01	-5.975052301015499e+00	 6.296070710334882e-01
-4.242640687273811e-01	-5.656854249482000e+00	 5.859105356581827e-01
-7.424621202638764e-01	-5.338656197947498e+00	 5.250124433587157e-01
-1.060660171800682e+00	-5.020458146412000e+00	 4.465273006553598e-01
-1.378858223337797e+00	-4.702260094875498e+00	 3.500696313574448e-01
-1.697056274875222e+00	-4.384062043337997e+00	 2.352539765623507e-01
-2.015254326412957e+00	-4.065863991799498e+00	 1.016948946544824e-01
-2.333452377951000e+00	-3.747665940260000e+00	-5.099303869573779e-02
 9.192388155280000e-01	-6.858935777490000e+00	 6.617027261296367e-01
 6.010407639941198e-01	-6.540737725959500e+00	 6.652048798017652e-01
 2.828427124596793e-01	-6.222539674428000e+00	 6.532429945005696e-01
-3.535533907532087e-02	-5.904341622895499e+00	 6.254315244696153e-01
-3.535533906108811e-01	-5.586143571361999e+00	 5.813849412445651e-01
-6.717514421470014e-01	-5.267945519827498e+00	 5.207177336521495e-01
-9.899494936836818e-01	-4.949747468291998e+00	 4.430444078091598e-01
-1.308147545220922e+00	-4.631549416755497e+00	 3.479794871214280e-01
-1.626345596758722e+00	-4.313351365217998e+00	 2.351375122828219e-01
-1.944543648297082e+00	-3.995153313679497e+00	 1.041330412742230e-01
-2.262741699836000e+00	-3.676955262140000e+00	-4.541935063748410e-02
 9.899494936395001e-01	-6.788225099369999e+00	 6.616124515512696e-01
 6.717514421072047e-01	-6.470027047839499e+00	 6.634183118229439e-01
 3.535533905741194e-01	-6.151828996308000e+00	 6.503410665439768e-01
 3.535533904024404e-02	-5.833630944775499e+00	 6.219951695545141e-01
-2.828427124944211e-01	-5.515432893241999e+00	 5.779950919867591e-01
-6.010407640298765e-01	-5.197234841707498e+00	 5.179553222639935e-01
-9.192388155661217e-01	-4.879036790171999e+00	 4.414903660995236e-01
-1.237436867103157e+00	-4.560838738635498e+00	 3.482147464956974e-01
-1.555634918640982e+00	-4.242640687097998e+00	 2.377430037428762e-01
-1.873832970179597e+00	-3.924442635559497e+00	 1.096896954184163e-01
-2.192031021719000e+00	-3.606244584020000e+00	-3.633058448149226e-02
 1.060660171750000e+00	-6.717514421250000e+00	 6.610644971241856e-01
 7.424621202194998e-01	-6.399316369719500e+00	 6.615706185557501e-01
 4.242640686879995e-01	-6.081118318188000e+00	 6.477745675148910e-01
 1.060660171554992e-01	-5.762920266655499e+00	 6.192907974383257e-01
-2.121320343780010e-01	-5.444722215121999e+00	 5.757337790548289e-01
-5.303300859125013e-01	-5.126524163587499e+00	 5.167180003842206e-01
-8.485281374480016e-01	-4.808326112051999e+00	 4.418579667363455e-01
-1.166726188984502e+00	-4.490128060515498e+00	 3.507682007100577e-01
-1.484924240522002e+00	-4.171930008977998e+00	 2.430632421922249e-01
-1.803122292060502e+00	-3.853731957439497e+00	 1.183576483566829e-01
-2.121320343600000e+00	-3.535533905900000e+00	-2.373400045484178e-02
 4.242640687100000e+00	-9.899494936600000e+00	 9.308395655897884e-01
 3.924442635560500e+00	-9.581296885060500e+00	 8.906624723676644e-01
 3.606244584022000e+00	-9.263098833522001e+00	 8.558964912187584e-01
 3.288046532484499e+00	-8.944900781984499e+00	 8.264827088513234e-01
 2.969848480948000e+00	-8.626702730448001e+00	 8.023622115439286e-01
 2.651650429412500e+00	-8.308504678912501e+00	 7.697598540695874e-01
 2.333452377878000e+00	-7.990306627378000e+00	 7.402392294224027e-01
 2.015254326344500e+00	-7.672108575844501e+00	 7.147615524960045e-01
 1.697056274812000e+00	-7.353910524312001e+00	 6.929411902507370e-01
 1.378858223280500e+00	-7.035712472780501e+00	 6.743925269441804e-01
 1.060660171750000e+00	-6.717514421250000e+00	 6.587299641301343e-01
 4.384062043340000e+00	-9.758073580360499e+00	 9.366597925007916e-01
 4.065863991800500e+00	-9.439875528824421e+00	 8.965922004425676e-01
 3.747665940261999e+00	-9.121677477288777e+00	 8.617212025073914e-01
 3.429467888724500e+00	-8.803479425753579e+00	 8.319878866464919e-01
 3.111269837187999e+00	-8.485281374218818e+00	 8.073333403813839e-01
 2.793071785652500e+00	-8.167083322684503e+00	 7.806032009521608e-01
 2.474873734118000e+00	-7.848885271150621e+00	 7.501799101147274e-01
 2.156675682584500e+00	-7.530687219617182e+00	 7.237355577728986e-01
 1.838477631052000e+00	-7.212489168084181e+00	 7.008845100803571e-01
 1.520279579520500e+00	-6.894291116551622e+00	 6.812411504879599e-01
 1.202081527990000e+00	-6.576093065019500e+00	 6.644198797427288e-01
 4.525483399580000e+00	-9.616652224122001e+00	 9.421699460115855e-01
 4.207285348040499e+00	-9.298454172588778e+00	 9.023076300869339e-01
 3.889087296501998e+00	-8.980256121055520e+00	 8.674273907316831e-01
 3.570889244964500e+00	-8.662058069522219e+00	 8.374703171400184e-01
 3.252691193428000e+00	-8.343860017988881e+00	 8.123774980763815e-01
 2.934493141892501e+00	-8.025661966455500e+00	 7.917789523893208e-01
 2.616295090358000e+00	-7.707463914922079e+00	 7.605702853001249e-01
 2.298097038824500e+00	-7.389265863388621e+00	 7.332765461033037e-01
 1.979898987292000e+00	-7.071067811855119e+00	 7.095121001459311e-01
 1.661700935760500e+00	-6.752869760321580e+00	 6.888913300721974e-01
 1.343502884230000e+00	-6.434671708788000e+00	 6.710286358223997e-01
 4.666904755820000e+00	-9.475230867884502e+00	 9.474015444648709e-01
 4.348706704280501e+00	-9.157032816353579e+00	 9.078402793978553e-01
 4.030508652742001e+00	-8.838834764822220e+00	 8.730465737431192e-01
 3.712310601204500e+00	-8.520636713290420e+00	 8.429615179377805e-01
 3.394112549668000e+00	-8.202438661758180e+00	 8.175262019891905e-01
 3.075914498132500e+00	-7.884240610225502e+00	 7.966817154750337e-01
 2.757716446597999e+00	-7.566042558692381e+00	 7.713526852204446e-01
 2.439518395064501e+00	-7.247844507158821e+00	 7.433268478883071e-01
 2.121320343532000e+00	-6.929646455624821e+00	 7.187662910078061e-01
 1.803122292000500e+00	-6.611448404090382e+00	 6.972853964165173e-01
 1.484924240470000e+00	-6.293250352555502e+00	 6.784985632480636e-01
 4.808326112060000e+00	-9.333809511648001e+00	 9.523861057500073e-01
 4.490128060520499e+00	-9.015611460118818e+00	 9.132216660190946e-01
 4.171930008982001e+00	-8.697413408588881e+00	 8.786102689398588e-01
 3.853731957444500e+00	-8.379215357058179e+00	 8.484930061923369e-01
 3.535533905907999e+00	-8.061017305526720e+00	 8.228109690267662e-01
 3.217335854372501e+00	-7.742819253994499e+00	 8.015052482636917e-01
 2.899137802838001e+00	-7.424621202461521e+00	 7.824694410756222e-01
 2.580939751304501e+00	-7.106423150927781e+00	 7.538287944870715e-01
 2.262741699772000e+00	-6.788225099393280e+00	 7.285894141843868e-01
 1.944543648240500e+00	-6.470027047858020e+00	 7.063656811985874e-01
 1.626345596710000e+00	-6.151828996322000e+00	 6.867719938566732e-01
 4.949747468300000e+00	-9.192388155412500e+00	 9.571551473030242e-01
 4.631549416760500e+00	-8.874190103884500e+00	 9.184833071410872e-01
 4.313351365222001e+00	-8.555992052355501e+00	 8.841499932667483e-01
 3.995153313684500e+00	-8.237794000825501e+00	 8.540962986029421e-01
 3.676955262148000e+00	-7.919595949294500e+00	 8.282633156427713e-01
 3.358757210612500e+00	-7.601397897762501e+00	 8.065921364496218e-01
 3.040559159078000e+00	-7.283199846229500e+00	 7.890238526572516e-01
 2.722361107544500e+00	-6.965001794695500e+00	 7.647247182168103e-01
 2.404163056012000e+00	-6.646803743160500e+00	 7.389238021521243e-01
 2.085965004480500e+00	-6.328605691624500e+00	 7.160745170541094e-01
 1.767766952950000e+00	-6.010407640087500e+00	 6.957912604432022e-01
 5.091168824540000e+00	-9.050966799177999e+00	 9.617401861066293e-01
 4.772970773000500e+00	-8.732768747650619e+00	 9.236567195009600e-01
 4.454772721462000e+00	-8.414570696122079e+00	 8.896972632153304e-01
 4.136574669924499e+00	-8.096372644592378e+00	 8.598029114155517e-01
 3.818376618388000e+00	-7.778174593061522e+00	 8.339147578375791e-01
 3.500178566852501e+00	-7.459976541529501e+00	 8.119738957876144e-01
 3.181980515318000e+00	-7.141778489996319e+00	 7.939214181422042e-01
 2.863782463784500e+00	-6.823580438461980e+00	 7.759569523527687e-01
 2.545584412251999e+00	-6.505382386926478e+00	 7.497117883454816e-01
 2.227386360720500e+00	-6.187184335389820e+00	 7.263542375767893e-01
 1.909188309190000e+00	-5.868986283852000e+00	 7.054986967606152e-01
 5.232590180780000e+00	-8.909545442944500e+00	 9.661727386902190e-01
 4.914392129240500e+00	-8.591347391417180e+00	 9.287734193825322e-01
 4.596194077702000e+00	-8.273149339888620e+00	 8.952835948238484e-01
 4.277996026164500e+00	-7.954951288358822e+00	 8.656443604228384e-01
 3.959797974628000e+00	-7.636753236827781e+00	 8.397968111582852e-01
 3.641599923092500e+00	-7.318555185295500e+00	 8.176820415791882e-01
 3.323401871558000e+00	-7.000357133761979e+00	 7.992411458048642e-01
 3.005203820024500e+00	-6.682159082227221e+00	 7.844152175250489e-01
 2.687005768492000e+00	-6.363961030691220e+00	 7.608957071569197e-01
 2.368807716960500e+00	-6.045762979153982e+00	 7.371471773183178e-01
 2.050609665430000e+00	-5.727564927615500e+00	 7.158366375198524e-01
 5.374011537020000e+00	-8.768124086712000e+00	 9.704843211298875e-01
 5.055813485480499e+00	-8.449926035184179e+00	 9.338649226163341e-01
 4.737615433941999e+00	-8.131727983655120e+00	 9.009405036772682e-01
 4.419417382404499e+00	-7.813529932124819e+00	 8.716521609641984e-01
 4.101219330867999e+00	-7.495331880593279e+00	 8.459409906987183e-01
 3.783021279332500e+00	-7.177133829060501e+00	 8.237480886726064e-01
 3.464823227798000e+00	-6.858935777526479e+00	 8.050145502479256e-01
 3.146625176264500e+00	-6.540737725991218e+00	 7.896814703571320e-01
 2.828427124732000e+00	-6.222539674454719e+00	 7.724178939368707e-01
 2.510229073200500e+00	-5.904341622916980e+00	 7.483956717883423e-01
 2.192031021670000e+00	-5.586143571378001e+00	 7.267474183897988e-01
 5.515432893260000e+00	-8.626702730480499e+00	 9.747064490484368e-01
 5.197234841720500e+00	-8.308504678951621e+00	 9.389627445796106e-01
 4.879036790182000e+00	-7.990306627421580e+00	 9.066995049072742e-01
 4.560838738644500e+00	-7.672108575890380e+00	 8.778578279257585e-01
 4.242640687108000e+00	-7.353910524358021e+00	 8.523788110994481e-01
 3.924442635572499e+00	-7.035712472824501e+00	 8.302035514628787e-01
 3.606244584038001e+00	-6.717514421289822e+00	 8.112731456208432e-01
 3.288046532504500e+00	-6.399316369753981e+00	 7.955286897484946e-01
 2.969848480971999e+00	-6.081118318216980e+00	 7.829112795914419e-01
 2.651650429440501e+00	-5.762920266678821e+00	 7.600420574544523e-01
 2.333452377910000e+00	-5.444722215139500e+00	 7.381733759972688e-01
 5.656854249500000e+00	-8.485281374250000e+00	 9.788706376153891e-01
 5.338656197960500e+00	-8.167083322719499e+00	 9.440984001963315e-01
 5.020458146422000e+00	-7.848885271187998e+00	 9.125921131922882e-01
 4.702260094884500e+00	-7.530687219655500e+00	 8.842928757403925e-01
 4.384062043348000e+00	-7.212489168122000e+00	 8.591417865477972e-01
 4.065863991812500e+00	-6.894291116587500e+00	 8.370799438917803e-01
 3.747665940277999e+00	-6.576093065051999e+00	 8.180484456198418e-01
 3.429467888744500e+00	-6.257895013515499e+00	 8.019883891498105e-01
 3.111269837212001e+00	-5.939696961978001e+00	 7.888408714699423e-01
 2.793071785680501e+00	-5.621498910439500e+00	 7.720286717421478e-01
 2.474873734150000e+00	-5.303300858900000e+00	 7.500568479269802e-01
 1.060660171750000e+00	-6.717514421250000e+00	 6.587299641301343e-01
 7.424621202194998e-01	-6.399316369719500e+00	 6.614792139264942e-01
 4.242640686879995e-01	-6.081118318188000e+00	 6.493607084956865e-01
 1.060660171554992e-01	-5.762920266655499e+00	 6.219889012740625e-01
-2.121320343780010e-01	-5.444722215121999e+00	 5.789782629900867e-01
-5.303300859125013e-01	-5.126524163587499e+00	 5.199432816633280e-01
-8.485281374480016e-01	-4.808326112051999e+00	 4.444984626034333e-01
-1.166726188984502e+00	-4.490128060515498e+00	 3.522583284091245e-01
-1.484924240522002e+00	-4.171930008977998e+00	 2.428374189671825e-01
-1.803122292060502e+00	-3.853731957439497e+00	 1.158502914514235e-01
-2.121320343600000e+00	-3.535533905900000e+00	-2.908847379639340e-02
 1.202081527990000e+00	-6.576093065019500e+00	 6.644198797427288e-01
 8.838834764594995e-01	-6.257895013487198e+00	 6.648879662710813e-01
 5.656854249279993e-01	-5.939696961954101e+00	 6.510440531845461e-01
 2.474873733954992e-01	-5.621498910420199e+00	 6.225025931124850e-01
-7.071067813800107e-02	-5.303300858885499e+00	 5.788780559763140e-01
-3.889087296725013e-01	-4.985102807349999e+00	 5.197849289884855e-01
-7.071067812080016e-01	-4.666904755813698e+00	 4.448377166514796e-01
-1.025304832744502e+00	-4.348706704276599e+00	 3.536509407567845e-01
-1.343502884282002e+00	-4.030508652738698e+00	 2.458391403838841e-01
-1.661700935820503e+00	-3.712310601199997e+00	 1.210168718992437e-01
-1.979898987360000e+00	-3.394112549660500e+00	-2.624930819965127e-02
 1.343502884230000e+00	-6.434671708788000e+00	 6.710286358223997e-01
 1.025304832699500e+00	-6.116473657254099e+00	 6.694323901327353e-01
 7.071067811679994e-01	-5.798275605719599e+00	 6.540798990626808e-01
 3.889087296354993e-01	-5.480077554184499e+00	 6.245856144346644e-01
 7.071067810199895e-02	-5.161879502648799e+00	 5.805640053631069e-01
-2.474873734325014e-01	-4.843681451112499e+00	 5.216295582534050e-01
-5.656854249680014e-01	-4.525483399575599e+00	 4.473967768009227e-01
-8.838834765045018e-01	-4.207285348038097e+00	 3.574801819899670e-01
-1.202081528042002e+00	-3.889087296499998e+00	 2.514943120927858e-01
-1.520279579580503e+00	-3.570889244961298e+00	 1.290537348916648e-01
-1.838477631120000e+00	-3.252691193421999e+00	-2.857295669652044e-02
 1.484924240470000e+00	-6.293250352555502e+00	 6.784985632480636e-01
 1.166726188939500e+00	-5.975052301020199e+00	 6.750548165496831e-01
 8.485281374079994e-01	-5.656854249484501e+00	 6.584105773276482e-01
 5.303300858754992e-01	-5.338656197948400e+00	 6.281802965975084e-01
 2.121320343419991e-01	-5.020458146411900e+00	 5.839784426667431e-01
-1.060660171925014e-01	-4.702260094875000e+00	 5.254195011337517e-01
-4.242640687280016e-01	-4.384062043337699e+00	 4.521179748868321e-01
-7.424621202645019e-01	-4.065863991799998e+00	 3.636883841031727e-01
-1.060660171802002e+00	-3.747665940261898e+00	 2.597452662478361e-01
-1.378858223340503e+00	-3.429467888723398e+00	 1.380745822206444e-01
-1.697056274880000e+00	-3.111269837184500e+00	-2.799124754095048e-02
 1.626345596710000e+00	-6.151828996322000e+00	 6.867719938566732e-01
 1.308147545179500e+00	-5.833630944785500e+00	 6.816975775181772e-01
 9.899494936479994e-01	-5.515432893248800e+00	 6.639784201350196e-01
 6.717514421154992e-01	-5.197234841711899e+00	 6.332289719159259e-01
 3.535533905819991e-01	-4.879036790174800e+00	 5.890637003614927e-01
 3.535533904749859e-02	-4.560838738637499e+00	 5.310970902631684e-01
-2.828427124880016e-01	-4.242640687099998e+00	 4.589436437022513e-01
-6.010407640245020e-01	-3.924442635562298e+00	 3.722178800488577e-01
-9.192388155620023e-01	-3.606244584024398e+00	 2.705343567650579e-01
-1.237436867100502e+00	-3.288046532486298e+00	 1.379155690948644e-01
-1.555634918640000e+00	-2.969848480948000e+00	-2.450418073288405e-02
 1.767766952950000e+00	-6.010407640087500e+00	 6.957912604432022e-01
 1.449568901419500e+00	-5.692209588550000e+00	 6.893030059924781e-01
 1.131370849887999e+00	-5.374011537012499e+00	 6.707257605983613e-01
 8.131727983554989e-01	-5.055813485474999e+00	 6.396739736628111e-01
 4.949747468219988e-01	-4.737615433937499e+00	 5.957621118795889e-01
 1.767766952874986e-01	-4.419417382399998e+00	 5.386046592332600e-01
-1.414213562480017e-01	-4.101219330862498e+00	 4.678161169981650e-01
-4.596194077845021e-01	-3.783021279324998e+00	 3.830110037374088e-01
-7.778174593220021e-01	-3.464823227787497e+00	 2.838038555296700e-01
-1.096015510860503e+00	-3.146625176249997e+00	 1.404704721669717e-01
-1.414213562400000e+00	-2.828427124712500e+00	-1.811175627225597e-02
 1.909188309190000e+00	-5.868986283852000e+00	 7.054986967606152e-01
 1.590990257659499e+00	-5.550788232313701e+00	 6.978134358848259e-01
 1.272792206127999e+00	-5.232590180775601e+00	 6.785949327892102e-01
 9.545941545954991e-01	-4.914392129237699e+00	 6.474576360690103e-01
 6.363961030619989e-01	-4.596194077699999e+00	 6.040160116112192e-01
 3.181980515274985e-01	-4.277996026162499e+00	 5.478845425935589e-01
-8.001710405380892e-12	-3.959797974625199e+00	 4.786777294834784e-01
-3.181980515445020e-01	-3.641599923088098e+00	 3.960100900371274e-01
-6.363961030820023e-01	-3.323401871551198e+00	 2.871458082010134e-01
-9.545941546205026e-01	-3.005203820014498e+00	 1.457392914370240e-01
-1.272792206160000e+00	-2.687005768478000e+00	-8.813974158995708e-03
 2.050609665430000e+00	-5.727564927615500e+00	 7.158366375198524e-01
 1.732411613899499e+00	-5.409366876076598e+00	 7.071712020654257e-01
 1.414213562367999e+00	-5.091168824538100e+00	 6.875282717370509e-01
 1.096015510835499e+00	-4.772970772999998e+00	 6.565222943233150e-01
 7.778174593019990e-01	-4.454772721462300e+00	 6.137677349044879e-01
 4.596194077674984e-01	-4.136574669924999e+00	 5.588790758515148e-01
 1.414213562319982e-01	-3.818376618388099e+00	 4.914708168250006e-01
-1.767766953045021e-01	-3.500178566851598e+00	 4.111574770015424e-01
-4.949747468420023e-01	-3.181980515315498e+00	 2.913665714834613e-01
-8.131727983805026e-01	-2.863782463779797e+00	 1.537220269050825e-01
-1.131370849920000e+00	-2.545584412244500e+00	 3.389165606972694e-03
 2.192031021670000e+00	-5.586143571378001e+00	 7.267474183897988e-01
 1.873832970139499e+00	-5.267945519838700e+00	 7.173186403624118e-01
 1.555634918607999e+00	-4.949747468300000e+00	 6.974681134292914e-01
 1.237436867075499e+00	-4.631549416761899e+00	 6.668102845724185e-01
 9.192388155419988e-01	-4.313351365224400e+00	 6.249596180654008e-01
 6.010407640074985e-01	-3.995153313687499e+00	 5.715305954724602e-01
 2.828427124719981e-01	-3.676955262151198e+00	 5.061377156474123e-01
-3.535533906450216e-02	-3.358757210615497e+00	 4.195710558404514e-01
-3.535533906020025e-01	-3.040559159080398e+00	 2.981098095092755e-01
-6.717514421405028e-01	-2.722361107545898e+00	 1.644186785712145e-01
-9.899494936800002e-01	-2.404163056012000e+00	 1.849766302573111e-02
 2.333452377910000e+00	-5.444722215139500e+00	 7.381733759972688e-01
 2.015254326379500e+00	-5.126524163600000e+00	 7.281980875618380e-01
 1.697056274847999e+00	-4.808326112061299e+00	 7.083567948112404e-01
 1.378858223315499e+00	-4.490128060523399e+00	 6.782639439209104e-01
 1.060660171781999e+00	-4.171930008986299e+00	 6.375339983578454e-01
 7.424621202474984e-01	-3.853731957449999e+00	 5.857814388795961e-01
 4.242640687119982e-01	-3.535533905914499e+00	 5.226207696380212e-01
 1.060660171754979e-01	-3.217335854379798e+00	 4.251503456269910e-01
-2.121320343620023e-01	-2.899137802845898e+00	 3.073755222785144e-01
-5.303300859005027e-01	-2.580939751312798e+00	 1.778292464354922e-01
-8.485281374400002e-01	-2.262741699780500e+00	 3.651151809737058e-02
 2.474873734150000e+00	-5.303300858900000e+00	 7.500568479269802e-01
 2.156675682619500e+00	-4.985102807360501e+00	 7.397518814076472e-01
 1.838477631087999e+00	-4.666904755821999e+00	 7.201366537860896e-01
 1.520279579555499e+00	-4.348706704284499e+00	 6.908256104312455e-01
 1.202081528021999e+00	-4.030508652747999e+00	 6.514332140035600e-01
 8.838834764874985e-01	-3.712310601212499e+00	 6.015739444539679e-01
 5.656854249519983e-01	-3.394112549677999e+00	 5.356446072316755e-01
 2.474873734154980e-01	-3.075914498144499e+00	 4.330606687022945e-01
-7.071067812200227e-02	-2.757716446611997e+00	 3.191637097912441e-01
-3.889087296605025e-01	-2.439518395080498e+00	 1.939537304979951e-01
-7.071067812000000e-01	-2.121320343550000e+00	 5.743073082198291e-02
 5.656854249500000e+00	-8.485281374250000e+00	 9.788706376153891e-01
 5.338656197960500e+00	-8.167083322719499e+00	 9.440984001963315e-01
 5.020458146422000e+00	-7.848885271187998e+00	 9.125921131922882e-01
 4.702260094884500e+00	-7.530687219655500e+00	 8.842928757403925e-01
 4.384062043348000e+00	-7.212489168122000e+00	 8.591417865477972e-01
 4.065863991812500e+00	-6.894291116587500e+00	 8.370799438917803e-01
 3.747665940277999e+00	-6.576093065051999e+00	 8.180484456198418e-01
 3.429467888744500e+00	-6.257895013515499e+00	 8.019883891498105e-01
 3.111269837212001e+00	-5.939696961978001e+00	 7.888408714699423e-01
 2.793071785680501e+00	-5.621498910439500e+00	 7.720286717421478e-01
 2.474873734150000e+00	-5.303300858900000e+00	 7.500568479269802e-01
 5.798275605740000e+00	-8.343860018019500e+00	 9.830141244800188e-01
 5.480077554200501e+00	-8.025661966487199e+00	 9.494769039042610e-01
 5.161879502662001e+00	-7.707463914954100e+00	 9.190414986888711e-01
 4.843681451124501e+00	-7.389265863420199e+00	 8.916490092138001e-01
 4.525483399587999e+00	-7.071067811885498e+00	 8.672405354289876e-01
 4.207285348052500e+00	-6.752869760350000e+00	 8.457571768544624e-01
 3.889087296518000e+00	-6.434671708813701e+00	 8.271400325804462e-01
 3.570889244984500e+00	-6.116473657276599e+00	 8.113302012674561e-01
 3.252691193452001e+00	-5.798275605738700e+00	 7.982687811464005e-01
 2.934493141920501e+00	-5.480077554200001e+00	 7.876272107680545e-01
 2.616295090390000e+00	-5.161879502660500e+00	 7.662907178627456e-01
 5.939696961980000e+00	-8.202438661787999e+00	 9.871741468392105e-01
 5.621498910440501e+00	-7.884240610254101e+00	 9.549966244111093e-01
 5.303300858902000e+00	-7.566042558719599e+00	 9.257567826852814e-01
 4.985102807364499e+00	-7.247844507184499e+00	 8.993957232844727e-01
 4.666904755827999e+00	-6.929646455648799e+00	 8.758545474013872e-01
 4.348706704292501e+00	-6.611448404112500e+00	 8.550743557987838e-01
 4.030508652758000e+00	-6.293250352575599e+00	 8.369962488095828e-01
 3.712310601224500e+00	-5.975052301038100e+00	 8.215613263369640e-01
 3.394112549692000e+00	-5.656854249499999e+00	 8.087106878544715e-01
 3.075914498160500e+00	-5.338656197961300e+00	 7.983854324061150e-01
 2.757716446630000e+00	-5.020458146422000e+00	 7.831673139356645e-01
 6.081118318220001e+00	-8.061017305555501e+00	 9.913822185026756e-01
 5.762920266680500e+00	-7.742819254020198e+00	 9.606890752810766e-01
 5.444722215142001e+00	-7.424621202484501e+00	 9.327694785002049e-01
 5.126524163604500e+00	-7.106423150948398e+00	 9.075645310255827e-01
 4.808326112068000e+00	-6.788225099411897e+00	 8.850153352926529e-01
 4.490128060532500e+00	-6.470027047874999e+00	 8.650629933068840e-01
 4.171930008998000e+00	-6.151828996337699e+00	 8.476486066438700e-01
 3.853731957464501e+00	-5.833630944799999e+00	 8.327132764494358e-01
 3.535533905932001e+00	-5.515432893261901e+00	 8.201981034397359e-01
 3.217335854400501e+00	-5.197234841723399e+00	 8.100441879013565e-01
 2.899137802870000e+00	-4.879036790184501e+00	 8.006289766040584e-01
 6.222539674460000e+00	-7.919595949322000e+00	 9.956698528268877e-01
 5.904341622920501e+00	-7.601397897785501e+00	 9.665857696251321e-01
 5.586143571382001e+00	-7.283199846248799e+00	 9.401110989991079e-01
 5.267945519844498e+00	-6.965001794711897e+00	 9.161869450570886e-01
 4.949747468308002e+00	-6.646803743174799e+00	 8.947544114772363e-01
 4.631549416772501e+00	-6.328605691637499e+00	 8.757546015077038e-01
 4.313351365238001e+00	-6.010407640100000e+00	 8.591286179667404e-01
 3.995153313704500e+00	-5.692209588562299e+00	 8.448175632427917e-01
 3.676955262172001e+00	-5.374011537024401e+00	 8.327625392945968e-01
 3.358757210640501e+00	-5.055813485486301e+00	 8.229046476513006e-01
 3.040559159110000e+00	-4.737615433948000e+00	 8.151849894125444e-01
 6.363961030700001e+00	-7.778174593087499e+00	 1.000068562715093e+00
 6.045762979160498e+00	-7.459976541549999e+00	 9.727182201010272e-01
 5.727564927622002e+00	-7.141778490012499e+00	 9.478131565942450e-01
 5.409366876084500e+00	-6.823580438474999e+00	 9.252944775457477e-01
 5.091168824548001e+00	-6.505382386937500e+00	 9.051032878763934e-01
 4.772970773012501e+00	-6.187184335399999e+00	 8.871806920770007e-01
 4.454772721478001e+00	-5.868986283862499e+00	 8.714677942084476e-01
 4.136574669944501e+00	-5.550788232324999e+00	 8.579056979017786e-01
 3.818376618412001e+00	-5.232590180787501e+00	 8.464355063583003e-01
 3.500178566880501e+00	-4.914392129249999e+00	 8.369983223496869e-01
 3.181980515350000e+00	-4.596194077712499e+00	 8.295352482180827e-01
 6.505382386940001e+00	-7.636753236852000e+00	 1.004609860617319e+00
 6.187184335400501e+00	-7.318555185313700e+00	 9.791179389133031e-01
 5.868986283862000e+00	-7.000357133775597e+00	 9.559071632446691e-01
 5.550788232324501e+00	-6.682159082237700e+00	 9.349186402051224e-01
 5.232590180788000e+00	-6.363961030699998e+00	 9.160934759581975e-01
 4.914392129252501e+00	-6.045762979162499e+00	 8.993727762373522e-01
 4.596194077718001e+00	-5.727564927625200e+00	 8.846976463460751e-01
 4.277996026184502e+00	-5.409366876088100e+00	 8.720091911579857e-01
 3.959797974652001e+00	-5.091168824551199e+00	 8.612485151169336e-01
 3.641599923120501e+00	-4.772970773014500e+00	 8.523567222371062e-01
 3.323401871590000e+00	-4.454772721477998e+00	 8.452749161031234e-01
 6.646803743180000e+00	-7.495331880615499e+00	 1.009325258530386e+00
 6.328605691640500e+00	-7.177133829076598e+00	 9.858164378133019e-01
 6.010407640102000e+00	-6.858935777538098e+00	 9.644246304562397e-01
 5.692209588564501e+00	-6.540737726000000e+00	 9.450909442955922e-01
 5.374011537028001e+00	-6.222539674462300e+00	 9.277564867375423e-01
 5.055813485492502e+00	-5.904341622924999e+00	 9.123623647581696e-01
 4.737615433958001e+00	-5.586143571388099e+00	 8.988496849035470e-01
 4.419417382424501e+00	-5.267945519851599e+00	 8.871595532898497e-01
 4.101219330892001e+00	-4.949747468315500e+00	 8.772330756034472e-01
 3.783021279360502e+00	-4.631549416779800e+00	 8.690113571010157e-01
 3.464823227830001e+00	-4.313351365244499e+00	 8.624355026096309e-01
 6.788225099420002e+00	-7.353910524378000e+00	 1.014246267997915e+00
 6.470027047880501e+00	-7.035712472838700e+00	 9.928452280991723e-01
 6.151828996341999e+00	-6.717514421299999e+00	 9.733970692816365e-01
 5.833630944804502e+00	-6.399316369761899e+00	 9.558429006243611e-01
 5.515432893268001e+00	-6.081118318224397e+00	 9.401238307761599e-01
 5.197234841732500e+00	-5.762920266687499e+00	 9.261809679557071e-01
 4.879036790198000e+00	-5.444722215151198e+00	 9.139554199516420e-01
 4.560838738664502e+00	-5.126524163615499e+00	 9.033882941226690e-01
 4.242640687132002e+00	-4.808326112080399e+00	 8.944206973976574e-01
 3.924442635600501e+00	-4.490128060545899e+00	 8.869937362757487e-01
 3.606244584070001e+00	-4.171930009011999e+00	 8.810485168264530e-01
 6.929646455660001e+00	-7.212489168139498e+00	 1.019404400110338e+00
 6.611448404120502e+00	-6.894291116600000e+00	 1.000235820615886e+00
 6.293250352582000e+00	-6.576093065061298e+00	 9.828559903203652e-01
 5.975052301044500e+00	-6.257895013523398e+00	 9.672060195454717e-01
 5.656854249508002e+00	-5.939696961986300e+00	 9.532270181826225e-01
 5.338656197972502e+00	-5.621498910449999e+00	 9.408600956930706e-01
 5.020458146438002e+00	-5.303300858914500e+00	 9.300463611079939e-01
 4.702260094904501e+00	-4.985102807379799e+00	 9.207269230286059e-01
 4.384062043372001e+00	-4.666904755845899e+00	 9.128428896262543e-01
 4.065863991840502e+00	-4.348706704312799e+00	 9.063353686425234e-01
 3.747665940310001e+00	-4.030508652780498e+00	 9.011454673893335e-01
 7.071067811900000e+00	-7.071067811900000e+00	 1.024831165504912e+00
 6.752869760360500e+00	-6.752869760360500e+00	 1.008019725755243e+00
 6.434671708822000e+00	-6.434671708822000e+00	 9.928329037187738e-01
 6.116473657284500e+00	-6.116473657284500e+00	 9.792118109598116e-01
 5.798275605748000e+00	-5.798275605748000e+00	 9.670975586123625e-01
 5.480077554212500e+00	-5.480077554212500e+00	 9.564312573802289e-01
 5.161879502678000e+00	-5.161879502678000e+00	 9.471540175371105e-01
 4.843681451144501e+00	-4.843681451144501e+00	 9.392069489267068e-01
 4.525483399612001e+00	-4.525483399612001e+00	 9.325311609628191e-01
 4.207285348080500e+00	-4.207285348080500e+00	 9.270677626294523e-01
 3.889087296550000e+00	-3.889087296550000e+00	 9.227578624809177e-01
 2.474873734150000e+00	-5.303300858900000e+00	 7.500568479269802e-01
 2.156675682619500e+00	-4.985102807360501e+00	 7.397518814076472e-01
 1.838477631087999e+00	-4.666904755821999e+00	 7.201366537860896e-01
 1.520279579555499e+00	-4.348706704284499e+00	 6.908256104312455e-01
 1.202081528021999e+00	-4.030508652747999e+00	 6.514332140035600e-01
 8.838834764874985e-01	-3.712310601212499e+00	 6.015739444539679e-01
 5.656854249519983e-01	-3.394112549677999e+00	 5.356446072316755e-01
 2.474873734154980e-01	-3.075914498144499e+00	 4.330606687022945e-01
-7.071067812200227e-02	-2.757716446611997e+00	 3.191637097912441e-01
-3.889087296605025e-01	-2.439518395080498e+00	 1.939537304979951e-01
-7.071067812000000e-01	-2.121320343550000e+00	 5.743073082198291e-02
 2.616295090390000e+00	-5.161879502660500e+00	 7.662907178627456e-01
 2.298097038859500e+00	-4.843681451121180e+00	 7.562603880068640e-01
 1.979898987328000e+00	-4.525483399583019e+00	 7.373350938455334e-01
 1.661700935795499e+00	-4.207285348046019e+00	 7.091292799413389e-01
 1.343502884261999e+00	-3.889087296510179e+00	 6.712574081483281e-01
 1.025304832727499e+00	-3.570889244975498e+00	 6.233339689903994e-01
 7.071067811919983e-01	-3.252691193441978e+00	 5.464438529648095e-01
 3.889087296554981e-01	-2.934493141909619e+00	 4.470156002494401e-01
 7.071067811799796e-02	-2.616295090378418e+00	 3.365923142269587e-01
-2.474873734205024e-01	-2.298097038848377e+00	 2.151739948970068e-01
-5.656854249599998e-01	-1.979898987319500e+00	 8.276064225920227e-02
 2.757716446630000e+00	-5.020458146422000e+00	 7.831673139356645e-01
 2.439518395099500e+00	-4.702260094883020e+00	 7.732800179969941e-01
 2.121320343568000e+00	-4.384062043345279e+00	 7.549130531720788e-01
 1.803122292035499e+00	-4.065863991808778e+00	 7.276808632172100e-01
 1.484924240501999e+00	-3.747665940273519e+00	 6.911979091800919e-01
 1.166726188967499e+00	-3.429467888739498e+00	 6.433451265744848e-01
 8.485281374319986e-01	-3.111269837206718e+00	 5.575926119714977e-01
 5.303300858954982e-01	-2.793071785675178e+00	 4.611630511361652e-01
 2.121320343579980e-01	-2.474873734144878e+00	 3.540564440683055e-01
-1.060660171805023e-01	-2.156675682615818e+00	 2.362727907677252e-01
-4.242640687199998e-01	-1.838477631088000e+00	 1.078120912342254e-01
 2.899137802870000e+00	-4.879036790184501e+00	 8.006289766040584e-01
 2.580939751339500e+00	-4.560838738646019e+00	 7.907531119955395e-01
 2.262741699808000e+00	-4.242640687108779e+00	 7.728128725424243e-01
 1.944543648275499e+00	-3.924442635572779e+00	 7.464227011947668e-01
 1.626345596741999e+00	-3.606244584038019e+00	 7.111970754668419e-01
 1.308147545207499e+00	-3.288046532504498e+00	 6.523196879831054e-01
 9.899494936719986e-01	-2.969848480972217e+00	 5.690908842517132e-01
 6.717514421354984e-01	-2.651650429441178e+00	 4.755030213624313e-01
 3.535533905979981e-01	-2.333452377911377e+00	 3.715560993152270e-01
 3.535533905949783e-02	-2.015254326382817e+00	 2.572501181100749e-01
-2.828427124799996e-01	-1.697056274855500e+00	 1.325850777469599e-01
 3.040559159110000e+00	-4.737615433948000e+00	 8.151849894125444e-01
 2.722361107579500e+00	-4.419417382410178e+00	 8.086220115778034e-01
 2.404163056048000e+00	-4.101219330873519e+00	 7.909768936910566e-01
 2.085965004515499e+00	-3.783021279338019e+00	 7.652971357676992e-01
 1.767766952981999e+00	-3.464823227803679e+00	 7.311971974249476e-01
 1.449568901447499e+00	-3.146625176270498e+00	 6.618007565992476e-01
 1.131370849911999e+00	-2.828427124738478e+00	 5.809386698054280e-01
 8.131727983754985e-01	-2.510229073207618e+00	 4.900355109281934e-01
 4.949747468379983e-01	-2.192031021677918e+00	 3.890912799676636e-01
 1.767766952994979e-01	-1.873832970149377e+00	 2.781059769239824e-01
-1.414213562399995e-01	-1.555634918622000e+00	 1.570796017973144e-01
 3.181980515350000e+00	-4.596194077712499e+00	 8.295352482180827e-01
 2.863782463819500e+00	-4.277996026175499e+00	 8.268290592768635e-01
 2.545584412288000e+00	-3.959797974639498e+00	 8.093474593102267e-01
 2.227386360755499e+00	-3.641599923104498e+00	 7.842465097874391e-01
 1.909188309221999e+00	-3.323401871570499e+00	 7.407176112040175e-01
 1.590990257687499e+00	-3.005203820037498e+00	 6.717883324228953e-01
 1.272792206151999e+00	-2.687005768505498e+00	 5.931359686326135e-01
 9.545941546154987e-01	-2.368807716974497e+00	 5.047605198334089e-01
 6.363961030779983e-01	-2.050609665444497e+00	 4.066619860255583e-01
 3.181980515394981e-01	-1.732411613915497e+00	 2.988403672093711e-01
 6.106226635438361e-16	-1.414213562387499e+00	 1.812956633851933e-01
 3.323401871590000e+00	-4.454772721477998e+00	 8.452749161031234e-01
 3.005203820059500e+00	-4.136574669941978e+00	 8.435014999888800e-01
 2.687005768528000e+00	-3.818376618406719e+00	 8.278669130499234e-01
 2.368807716995499e+00	-3.500178566872218e+00	 8.032131686099742e-01
 2.050609665462000e+00	-3.181980515338478e+00	 7.494769522400284e-01
 1.732411613927499e+00	-2.863782463805498e+00	 6.822824154540283e-01
 1.414213562391999e+00	-2.545584412273278e+00	 6.056827807332373e-01
 1.096015510855499e+00	-2.227386360741817e+00	 5.196780480780344e-01
 7.778174593179986e-01	-1.909188309211117e+00	 4.242682174888496e-01
 4.596194077794982e-01	-1.590990257681177e+00	 3.194532889661647e-01
 1.414213562400008e-01	-1.272792206151999e+00	 2.052332625105055e-01
 3.464823227830001e+00	-4.313351365244499e+00	 8.624355026096309e-01
 3.146625176299500e+00	-3.995153313709618e+00	 8.589900926287104e-01
 2.828427124768000e+00	-3.676955262175178e+00	 8.464775995178559e-01
 2.510229073235501e+00	-3.358757210641179e+00	 8.154294722816547e-01
 2.192031021701999e+00	-3.040559159107619e+00	 7.588997944175817e-01
 1.873832970167500e+00	-2.722361107574498e+00	 6.932830056926294e-01
 1.555634918631999e+00	-2.404163056041817e+00	 6.185791061072647e-01
 1.237436867095499e+00	-2.085965004509577e+00	 5.347880956620182e-01
 9.192388155579987e-01	-1.767766952977777e+00	 4.419099743574770e-01
 6.010407640194984e-01	-1.449568901446417e+00	 3.399447421942858e-01
 2.828427124800009e-01	-1.131370849915499e+00	 2.288923991731558e-01
 3.606244584070001e+00	-4.171930009011999e+00	 8.810485168264530e-01
 3.288046532539501e+00	-3.853731957478419e+00	 8.757780005963796e-01
 2.969848481008001e+00	-3.535533905944879e+00	 8.645179776726285e-01
 2.651650429475500e+00	-3.217335854411378e+00	 8.244130485480429e-01
 2.333452377942000e+00	-2.899137802877918e+00	 7.689861377366694e-01
 2.015254326407500e+00	-2.580939751344498e+00	 7.047901031386742e-01
 1.697056274871999e+00	-2.262741699811118e+00	 6.318249447546641e-01
 1.378858223335499e+00	-1.944543648277777e+00	 5.500906625853146e-01
 1.060660171797999e+00	-1.626345596744477e+00	 4.595872566313726e-01
 7.424621202594984e-01	-1.308147545211217e+00	 3.603147268936568e-01
 4.242640687200010e-01	-9.899494936779990e-01	 2.522730733730514e-01
 3.747665940310001e+00	-4.030508652780498e+00	 9.011454673893335e-01
 3.429467888779501e+00	-3.712310601248379e+00	 8.938967322821352e-01
 3.111269837248001e+00	-3.394112549715818e+00	 8.774202589595783e-01
 2.793071785715500e+00	-3.075914498182818e+00	 8.342171198900683e-01
 2.474873734182000e+00	-2.757716446649378e+00	 7.797359821972834e-01
 2.156675682647500e+00	-2.439518395115498e+00	 7.168037077921426e-01
 1.838477631111999e+00	-2.121320343581177e+00	 6.454202966753954e-01
 1.520279579575499e+00	-1.803122292046417e+00	 5.655857488478704e-01
 1.202081528037999e+00	-1.484924240511217e+00	 4.773000643104750e-01
 8.838834764994986e-01	-1.166726188975576e+00	 3.805632430641940e-01
 5.656854249600012e-01	-8.485281374394988e-01	 2.753752851100955e-01
 3.889087296550000e+00	-3.889087296550000e+00	 9.227578624809177e-01
 3.570889245019500e+00	-3.570889245019500e+00	 9.133778022379866e-01
 3.252691193487999e+00	-3.252691193487999e+00	 8.865438134168950e-01
 2.934493141955499e+00	-2.934493141955499e+00	 8.448416863077352e-01
 2.616295090421999e+00	-2.616295090421999e+00	 7.911493277994105e-01
 2.298097038887499e+00	-2.298097038887499e+00	 7.293238196530076e-01
 1.979898987351999e+00	-1.979898987351999e+00	 6.593651618694214e-01
 1.661700935815498e+00	-1.661700935815498e+00	 5.812733544496341e-01
 1.343502884277998e+00	-1.343502884277998e+00	 4.950483973947140e-01
 1.025304832739498e+00	-1.025304832739498e+00	 4.006902907058188e-01
 7.071067812000000e-01	-7.071067812000000e-01	 2.981990343841956e-01
-2.121320343600000e+00	-3.535533905900000e+00	 8.965962566555330e-02
-2.192031021719000e+00	-3.464823227780000e+00	 5.409900782212590e-02
-2.262741699836000e+00	-3.394112549660000e+00	 1.122733028997758e-02
-2.333452377951000e+00	-3.323401871540000e+00	-3.543391630689668e-02
-2.404163056064000e+00	-3.252691193420000e+00	-8.436917159416188e-02
-2.474873734175000e+00	-3.181980515300000e+00	-1.355784355715633e-01
-2.545584412284000e+00	-3.111269837180000e+00	-1.890617082388515e-01
-2.616295090391000e+00	-3.040559159060000e+00	-2.448189895957713e-01
-2.687005768496000e+00	-2.969848480940000e+00	-3.028502796420762e-01
-2.757716446599000e+00	-2.899137802820000e+00	-3.631555783775065e-01
-2.828427124700000e+00	-2.828427124700000e+00	-4.257348858018128e-01
-1.979898987360000e+00	-3.394112549660500e+00	 9.772907617749027e-02
-2.050609665479190e+00	-3.323401871544014e+00	 5.395795988956775e-02
-2.121320343596760e+00	-3.252691193427160e+00	 8.193040332474977e-03
-2.192031021712710e+00	-3.181980515309936e+00	-3.956568249353534e-02
-2.262741699827040e+00	-3.111269837192339e+00	-8.931820858821243e-02
-2.333452377939750e+00	-3.040559159074375e+00	-1.410645379513011e-01
-2.404163056050840e+00	-2.969848480956040e+00	-1.948046705825563e-01
-2.474873734160310e+00	-2.899137802837335e+00	-2.505386064817190e-01
-2.545584412268160e+00	-2.828427124718260e+00	-3.082663456485487e-01
-2.616295090374390e+00	-2.757716446598815e+00	-3.679878880827894e-01
-2.687005768479001e+00	-2.687005768479001e+00	-4.297032337842041e-01
-1.838477631120000e+00	-3.252691193421999e+00	 9.877289089808922e-02
-1.909188309239360e+00	-3.181980515308460e+00	 5.389002500000767e-02
-1.979898987357440e+00	-3.111269837194240e+00	 7.293561254557490e-03
-2.050609665474240e+00	-3.040559159079340e+00	-4.101650033802479e-02
-2.121320343589760e+00	-2.969848480963760e+00	-9.104015977749730e-02
-2.192031021704000e+00	-2.899137802847500e+00	-1.427774170636249e-01
-2.262741699816960e+00	-2.828427124730560e+00	-1.962282721961746e-01
-2.333452377928640e+00	-2.757716446612941e+00	-2.513927251749051e-01
-2.404163056039040e+00	-2.687005768494640e+00	-3.082707759995900e-01
-2.474873734148160e+00	-2.616295090375660e+00	-3.668624246699941e-01
-2.545584412256000e+00	-2.545584412256000e+00	-4.271676711858894e-01
-1.697056274880000e+00	-3.111269837184500e+00	 1.008592415731177e-01
-1.767766952999510e+00	-3.040559159073335e+00	 5.541076352725877e-02
-1.838477631118040e+00	-2.969848480961241e+00	 8.528893055873565e-03
-1.909188309235590e+00	-2.899137802848215e+00	-3.978636984082584e-02
-1.979898987352160e+00	-2.828427124734260e+00	-8.953502516262835e-02
-2.050609665467750e+00	-2.757716446619376e+00	-1.407170729093231e-01
-2.121320343582360e+00	-2.687005768503560e+00	-1.933325130806994e-01
-2.192031021695990e+00	-2.616295090386815e+00	-2.473813456765532e-01
-2.262741699808640e+00	-2.545584412269140e+00	-3.028635706966806e-01
-2.333452377920310e+00	-2.474873734150535e+00	-3.597791881408778e-01
-2.404163056031000e+00	-2.404163056031000e+00	-4.181281980089412e-01
-1.555634918640000e+00	-2.969848480948000e+00	 1.039881282023094e-01
-1.626345596759640e+00	-2.899137802838640e+00	 5.852017547101188e-02
-1.697056274878560e+00	-2.828427124728161e+00	 1.189903573603748e-02
-1.767766952996760e+00	-2.757716446616559e+00	-3.587529100243678e-02
-1.838477631114240e+00	-2.687005768503840e+00	-8.480280474423828e-02
-1.909188309231000e+00	-2.616295090390000e+00	-1.348835054891898e-01
-1.979898987347040e+00	-2.545584412275040e+00	-1.861173932371216e-01
-2.050609665462360e+00	-2.474873734158960e+00	-2.385044679878668e-01
-2.121320343576960e+00	-2.404163056041760e+00	-2.920447297412554e-01
-2.192031021690840e+00	-2.333452377923440e+00	-3.467381784971238e-01
-2.262741699804000e+00	-2.262741699804000e+00	-4.025848142553049e-01
-1.414213562400000e+00	-2.828427124712500e+00	 1.081595507853597e-01
-1.484924240519750e+00	-2.757716446604375e+00	 6.321826083091009e-02
-1.555634918639000e+00	-2.687005768495000e+00	 1.740398929461554e-02
-1.626345596757750e+00	-2.616295090384376e+00	-2.928326382339425e-02
-1.697056274876000e+00	-2.545584412272500e+00	-7.684349852299116e-02
-1.767766952993750e+00	-2.474873734159375e+00	-1.252767148040452e-01
-1.838477631111000e+00	-2.404163056045000e+00	-1.745829126664308e-01
-1.909188309227750e+00	-2.333452377929375e+00	-2.247620921100222e-01
-1.979898987344000e+00	-2.262741699812500e+00	-2.758142531346970e-01
-2.050609665459750e+00	-2.192031021694375e+00	-3.277393957403346e-01
-2.121320343575000e+00	-2.121320343575000e+00	-3.805375199268132e-01
-1.272792206160000e+00	-2.687005768478000e+00	 1.133735093219330e-01
-1.343502884279840e+00	-2.616295090370540e+00	 6.950501960656516e-02
-1.414213562399360e+00	-2.545584412261760e+00	 2.504375373113454e-02
-1.484924240518560e+00	-2.474873734151660e+00	-2.001028830427587e-02
-1.555634918637440e+00	-2.404163056040240e+00	-6.565710649958890e-02
-1.626345596756000e+00	-2.333452377927500e+00	-1.118967008547260e-01
-1.697056274874240e+00	-2.262741699813440e+00	-1.587290713696146e-01
-1.767766952992160e+00	-2.192031021698060e+00	-2.061542180441751e-01
-1.838477631109760e+00	-2.121320343581361e+00	-2.541721408783397e-01
-1.909188309227040e+00	-2.050609665463341e+00	-3.027828398720305e-01
-1.979898987344000e+00	-1.979898987344000e+00	-3.519863150251802e-01
-1.131370849920000e+00	-2.545584412244500e+00	 1.196300038116594e-01
-1.202081528039910e+00	-2.474873734137135e+00	 7.738045179753922e-02
-1.272792206159640e+00	-2.404163056028440e+00	 3.481832904508014e-02
-1.343502884279190e+00	-2.333452377918416e+00	-8.056364445691855e-03
-1.414213562398560e+00	-2.262741699807060e+00	-5.124362867475445e-02
-1.484924240517750e+00	-2.192031021694375e+00	-9.474346364208454e-02
-1.555634918636760e+00	-2.121320343580360e+00	-1.385558693476623e-01
-1.626345596755590e+00	-2.050609665465015e+00	-1.826808457914631e-01
-1.697056274874239e+00	-1.979898987348339e+00	-2.271183929734676e-01
-1.767766952992710e+00	-1.909188309230335e+00	-2.718685108936569e-01
-1.838477631111000e+00	-1.838477631111000e+00	-3.169311995520119e-01
-9.899494936800002e-01	-2.404163056012000e+00	 1.269290342541289e-01
-1.060660171799960e+00	-2.333452377904160e+00	 8.684455740336022e-02
-1.131370849919840e+00	-2.262741699795040e+00	 4.672771523589522e-02
-1.202081528039640e+00	-2.192031021684640e+00	 6.578507751705986e-03
-1.272792206159361e+00	-2.121320343572961e+00	-3.360306504924607e-02
-1.343502884279000e+00	-2.050609665460000e+00	-7.381700316699120e-02
-1.414213562398560e+00	-1.979898987345760e+00	-1.140633066015629e-01
-1.484924240518040e+00	-1.909188309230240e+00	-1.543419753529954e-01
-1.555634918637440e+00	-1.838477631113440e+00	-1.946530094213208e-01
-1.626345596756760e+00	-1.767766952995360e+00	-2.349964088065732e-01
-1.697056274876000e+00	-1.697056274876000e+00	-2.753721735087853e-01
-8.485281374400002e-01	-2.262741699780500e+00	 1.352706006489010e-01
-9.192388155599901e-01	-2.192031021671615e+00	 9.789733642350726e-02
-9.899494936799601e-01	-2.121320343561560e+00	 6.077191230297943e-02
-1.060660171799911e+00	-2.050609665450335e+00	 2.389432828722329e-02
-1.131370849919840e+00	-1.979898987337940e+00	-1.273541562385008e-02
-1.202081528039750e+00	-1.909188309224375e+00	-4.911731943033122e-02
-1.272792206159640e+00	-1.838477631109640e+00	-8.525138313230726e-02
-1.343502884279510e+00	-1.767766952993735e+00	-1.211376067298639e-01
-1.414213562399360e+00	-1.697056274876660e+00	-1.567759902230879e-01
-1.484924240519190e+00	-1.626345596758415e+00	-1.921665336120641e-01
-1.555634918639000e+00	-1.555634918639000e+00	-2.273092368968742e-01
-7.071067812000000e-01	-2.121320343550000e+00	 1.446547029954937e-01
-7.778174593200000e-01	-2.050609665439501e+00	 1.105387888574293e-01
-8.485281374399999e-01	-1.979898987328000e+00	 7.695092024568997e-02
-9.192388155600000e-01	-1.909188309215500e+00	 4.389109716013542e-02
-9.899494936800000e-01	-1.838477631102000e+00	 1.135931960061465e-02
-1.060660171800000e+00	-1.767766952987500e+00	-2.064441243301197e-02
-1.131370849920000e+00	-1.697056274872000e+00	-5.212009894088417e-02
-1.202081528040000e+00	-1.626345596755500e+00	-8.306773992313736e-02
-1.272792206160000e+00	-1.555634918638000e+00	-1.134873353799096e-01
-1.343502884280000e+00	-1.484924240519500e+00	-1.433788853113278e-01
-1.414213562400000e+00	-1.414213562400000e+00	-1.727423897175250e-01
-7.071067812000000e-01	-2.121320343550000e+00	 1.446547029954937e-01
-7.778174593200000e-01	-2.050609665439501e+00	 1.105387888574293e-01
-8.485281374399999e-01	-1.979898987328000e+00	 7.695092024568997e-02
-9.192388155600000e-01	-1.909188309215500e+00	 4.389109716013542e-02
-9.899494936800000e-01	-1.838477631102000e+00	 1.135931960061465e-02
-1.060660171800000e+00	-1.767766952987500e+00	-2.064441243301197e-02
-1.131370849920000e+00	-1.697056274872000e+00	-5.212009894088417e-02
-1.202081528040000e+00	-1.626345596755500e+00	-8.306773992313736e-02
-1.272792206160000e+00	-1.555634918638000e+00	-1.134873353799096e-01
-1.343502884280000e+00	-1.484924240519500e+00	-1.433788853113278e-01
-1.414213562400000e+00	-1.414213562400000e+00	-1.727423897175250e-01
-5.656854249599998e-01	-1.979898987319500e+00	 1.578011604196909e-01
-6.363961030799999e-01	-1.909188309207194e+00	 1.245628649250890e-01
-7.071067812000000e-01	-1.838477631094080e+00	 9.174174470634766e-02
-7.778174593200000e-01	-1.767766952980155e+00	 5.933779976334308e-02
-8.485281374399999e-01	-1.697056274865420e+00	 2.735103009594669e-02
-9.192388155599999e-01	-1.626345596749875e+00	-4.218564295962943e-03
-9.899494936799998e-01	-1.555634918633520e+00	-3.537098341250666e-02
-1.060660171800000e+00	-1.484924240516355e+00	-6.610622725380416e-02
-1.131370849920000e+00	-1.414213562398380e+00	-9.642429581997307e-02
-1.202081528040000e+00	-1.343502884279595e+00	-1.263251891111307e-01
-1.272792206160000e+00	-1.272792206160000e+00	-1.558089071273888e-01
-4.242640687199998e-01	-1.838477631088000e+00	 1.712352898161139e-01
-4.949747468399996e-01	-1.767766952974080e+00	 1.388463153147134e-01
-5.656854249599997e-01	-1.697056274859520e+00	 1.067636458387246e-01
-6.363961030799997e-01	-1.626345596744319e+00	 7.498728138803615e-02
-7.071067811999998e-01	-1.555634918628480e+00	 4.351722196254543e-02
-7.778174593199997e-01	-1.484924240512000e+00	 1.235346756214260e-02
-8.485281374399997e-01	-1.414213562394880e+00	-1.850398181327396e-02
-9.192388155599996e-01	-1.343502884277120e+00	-4.905512616380929e-02
-9.899494936799997e-01	-1.272792206158720e+00	-7.929996548956218e-02
-1.060660171799999e+00	-1.202081528039680e+00	-1.092384997906414e-01
-1.131370849920000e+00	-1.131370849920000e+00	-1.388707290671381e-01
-2.828427124799996e-01	-1.697056274855500e+00	 1.849570911847795e-01
-3.535533905999996e-01	-1.626345596740155e+00	 1.533891400263228e-01
-4.242640687199998e-01	-1.555634918624320e+00	 1.220166236428386e-01
-4.949747468399996e-01	-1.484924240507995e+00	 9.083954203423728e-02
-5.656854249599996e-01	-1.414213562391179e+00	 5.985789520042814e-02
-6.363961030799997e-01	-1.343502884273874e+00	 2.907168314132069e-02
-7.071067811999995e-01	-1.272792206156079e+00	-1.519094143175928e-03
-7.778174593199997e-01	-1.202081528037795e+00	-3.191443665314337e-02
-8.485281374399997e-01	-1.131370849919020e+00	-6.211434438867493e-02
-9.192388155599998e-01	-1.060660171799755e+00	-9.211881734985455e-02
-9.899494936799995e-01	-9.899494936799995e-01	-1.219278555367711e-01
-1.414213562399995e-01	-1.555634918622000e+00	 1.989665645257084e-01
-2.121320343599995e-01	-1.484924240505420e+00	 1.681913390599363e-01
-2.828427124799996e-01	-1.414213562388480e+00	 1.375006781187147e-01
-3.535533905999996e-01	-1.343502884271180e+00	 1.068945817019671e-01
-4.242640687199996e-01	-1.272792206153520e+00	 7.637304980961554e-02
-4.949747468399996e-01	-1.202081528035500e+00	 4.593608244158751e-02
-5.656854249599995e-01	-1.131370849917119e+00	 1.558367959780942e-02
-6.363961030799994e-01	-1.060660171798379e+00	-1.468415872179361e-02
-7.071067811999995e-01	-9.899494936792795e-01	-4.486743251729710e-02
-7.778174593199995e-01	-9.192388155598196e-01	-7.496614178877187e-02
-8.485281374399996e-01	-8.485281374399996e-01	-1.049802865362917e-01
 6.106226635438361e-16	-1.414213562387499e+00	 2.132637098389284e-01
-7.071067811999940e-02	-1.343502884269875e+00	 1.832529124155864e-01
-1.414213562399994e-01	-1.272792206151999e+00	 1.532158092663819e-01
-2.121320343599994e-01	-1.202081528033874e+00	 1.231524003912507e-01
-2.828427124799994e-01	-1.131370849915500e+00	 9.306268579013281e-02
-3.535533905999994e-01	-1.060660171796874e+00	 6.294666546296701e-02
-4.242640687199994e-01	-9.899494936779994e-01	 3.280433940969329e-02
-4.949747468399993e-01	-9.192388155588745e-01	 2.635707630251338e-03
-5.656854249599993e-01	-8.485281374394995e-01	-2.755922987542150e-02
-6.363961030799994e-01	-7.778174593198744e-01	-5.778047310738279e-02
-7.071067811999994e-01	-7.071067811999994e-01	-8.802802206569402e-02
 1.414213562400008e-01	-1.272792206151999e+00	 2.278485271244746e-01
 7.071067812000073e-02	-1.202081528033520e+00	 1.985738600933071e-01
 7.632783294297949e-16	-1.131370849914879e+00	 1.691620170858723e-01
-7.071067811999926e-02	-1.060660171796079e+00	 1.396129981021199e-01
-1.414213562399993e-01	-9.899494936771192e-01	 1.099268031420048e-01
-2.121320343599992e-01	-9.192388155579992e-01	 8.010343220547980e-02
-2.828427124799992e-01	-8.485281374387195e-01	 5.014288529249625e-02
-3.535533905999992e-01	-7.778174593192793e-01	 2.004516240300565e-02
-4.242640687199993e-01	-7.071067811996793e-01	-1.018973646303890e-02
-4.949747468399991e-01	-6.363961030799191e-01	-4.056181130568568e-02
-5.656854249599993e-01	-5.656854249599993e-01	-7.107106212498472e-02
 2.828427124800009e-01	-1.131370849915499e+00	 2.427210163823838e-01
 2.121320343600009e-01	-1.060660171796354e+00	 2.141541820931326e-01
 1.414213562400009e-01	-9.899494936771192e-01	 1.853393015772186e-01
 7.071067812000088e-02	-9.192388155577941e-01	 1.562763748346076e-01
 8.743006318923108e-16	-8.485281374383791e-01	 1.269654018652620e-01
-7.071067811999909e-02	-7.778174593188742e-01	 9.740638266915137e-02
-1.414213562399991e-01	-7.071067811992792e-01	 6.759931724623762e-02
-2.121320343599991e-01	-6.363961030795943e-01	 3.754420559648549e-02
-2.828427124799991e-01	-5.656854249598191e-01	 7.241047719858749e-03
-3.535533905999990e-01	-4.949747468399541e-01	-2.331015638367764e-02
-4.242640687199991e-01	-4.242640687199991e-01	-5.410940671415916e-02
 4.242640687200010e-01	-9.899494936779990e-01	 2.578811776127014e-01
 3.535533906000011e-01	-9.192388155583793e-01	 2.299938784151051e-01
 2.828427124800010e-01	-8.485281374387191e-01	 2.017476627404612e-01
 2.121320343600010e-01	-7.778174593190191e-01	 1.731425305887474e-01
 1.414213562400010e-01	-7.071067811992791e-01	 1.441784819599371e-01
 7.071067812000102e-02	-6.363961030794992e-01	 1.148555168540090e-01
 1.013078509970455e-15	-5.656854249596790e-01	 8.517363527094124e-02
-7.071067811999898e-02	-4.949747468398190e-01	 5.513283721070789e-02
-1.414213562399990e-01	-4.242640687199191e-01	 2.473312267328690e-02
-2.121320343599990e-01	-3.535533905999790e-01	-6.025508341348781e-03
-2.828427124799990e-01	-2.828427124799990e-01	-3.714305583322125e-02
 5.656854249600012e-01	-8.485281374394988e-01	 2.733290108154736e-01
 4.949747468400011e-01	-7.778174593195940e-01	 2.460929490592744e-01
 4.242640687200012e-01	-7.071067811996790e-01	 2.183871005756465e-01
 3.535533906000011e-01	-6.363961030797538e-01	 1.902114653645798e-01
 2.828427124800011e-01	-5.656854249598190e-01	 1.615660434260623e-01
 2.121320343600011e-01	-4.949747468398739e-01	 1.324508347600820e-01
 1.414213562400011e-01	-4.242640687199189e-01	 1.028658393666286e-01
 7.071067812000116e-02	-3.535533905999539e-01	 7.281105724568990e-02
 1.165734175856414e-15	-2.828427124799789e-01	 4.228648839725130e-02
-7.071067811999884e-02	-2.121320343599939e-01	 1.129213282130626e-02
-1.414213562399989e-01	-1.414213562399989e-01	-2.017200948216313e-02
 7.071067812000000e-01	-7.071067812000000e-01	 2.890645159907571e-01
 6.363961030800001e-01	-6.363961030800001e-01	 2.624513940256891e-01
 5.656854249600000e-01	-5.656854249600000e-01	 2.352576150828202e-01
 4.949747468400000e-01	-4.949747468400000e-01	 2.074831791621480e-01
 4.242640687200000e-01	-4.242640687200000e-01	 1.791280862636740e-01
 3.535533906000000e-01	-3.535533906000000e-01	 1.501923363874007e-01
 2.828427124800000e-01	-2.828427124800000e-01	 1.206759295333258e-01
 2.121320343600001e-01	-2.121320343600001e-01	 9.057886570144910e-02
 1.414213562400000e-01	-1.414213562400000e-01	 5.990114489176887e-02
 7.071067812000006e-02	-7.071067812000006e-02	 2.864276710428775e-02
 0.000000000000000e+00	 0.000000000000000e+00	-3.196267660992637e-03
