x	y	stress_xx
 3.5355339059e+00	 3.5355339059e+00	 2.6546660279e-02
 3.5355339059e+00	 3.5355339059e+00	 2.6546660279e-02
 3.5355339059e+00	 3.5355339059e+00	 2.6546660279e-02
 3.5355339059e+00	 3.5355339059e+00	 2.6546660279e-02
 3.5355339059e+00	 3.5355339059e+00	 2.6546660279e-02
 3.5355339059e+00	 3.5355339059e+00	 2.6546660279e-02
 3.5355339059e+00	 3.5355339059e+00	 2.6546660279e-02
 3.5355339059e+00	 3.5355339059e+00	 2.6546660279e-02
 3.5355339059e+00	 3.5355339059e+00	 2.6546660279e-02
 3.5355339059e+00	 3.5355339059e+00	 2.6546660279e-02
 3.5355339059e+00	 3.5355339059e+00	 2.6546660279e-02
 3.5373016729e+00	 3.5373016729e+00	-4.9015986778e-01
 3.5371248962e+00	 3.5374784495e+00	-1.4428165929e+00
 3.5369481195e+00	 3.5376552262e+00	-2.2146565837e+00
 3.5367713428e+00	 3.5378320029e+00	-2.8056798401e+00
 3.5365945661e+00	 3.5380087796e+00	-3.2158863621e+00
 3.5364177894e+00	 3.5381855563e+00	-3.4452761497e+00
 3.5362410127e+00	 3.5383623330e+00	-3.4938492030e+00
 3.5360642360e+00	 3.5385391097e+00	-3.3616055218e+00
 3.5358874593e+00	 3.5387158864e+00	-3.0485451063e+00
 3.5357106826e+00	 3.5388926631e+00	-2.5546679565e+00
 3.5355339059e+00	 3.5390694398e+00	-1.8799740722e+00
 3.5426049737e+00	 3.5426049737e+00	-2.3931577105e-01
 3.5418978669e+00	 3.5433120805e+00	-6.9574019220e-01
 3.5411907601e+00	 3.5440191873e+00	-1.0632902633e+00
 3.5404836534e+00	 3.5447262941e+00	-1.3419659843e+00
 3.5397765466e+00	 3.5454334008e+00	-1.5317673552e+00
 3.5390694398e+00	 3.5461405076e+00	-1.6326943761e+00
 3.5383623330e+00	 3.5468476144e+00	-1.6447470468e+00
 3.5376552262e+00	 3.5475547212e+00	-1.5679253676e+00
 3.5369481195e+00	 3.5482618280e+00	-1.4022293382e+00
 3.5362410127e+00	 3.5489689347e+00	-1.1476589588e+00
 3.5355339059e+00	 3.5496760415e+00	-8.0421422932e-01
 3.5514438085e+00	 3.5514438085e+00	-1.6163828318e-01
 3.5498528182e+00	 3.5530347987e+00	-4.6370270363e-01
 3.5482618280e+00	 3.5546257890e+00	-7.0675009804e-01
 3.5466708377e+00	 3.5562167793e+00	-8.9078046644e-01
 3.5450798474e+00	 3.5578077695e+00	-1.0157938088e+00
 3.5434888572e+00	 3.5593987598e+00	-1.0817901252e+00
 3.5418978669e+00	 3.5609897500e+00	-1.0887694156e+00
 3.5403068767e+00	 3.5625807403e+00	-1.0367316801e+00
 3.5387158864e+00	 3.5641717305e+00	-9.2567691864e-01
 3.5371248962e+00	 3.5657627208e+00	-7.5560513123e-01
 3.5355339059e+00	 3.5673537111e+00	-5.2651631792e-01
 3.5638181771e+00	 3.5638181771e+00	-1.2389541614e-01
 3.5609897500e+00	 3.5666466043e+00	-3.5087283198e-01
 3.5581613229e+00	 3.5694750314e+00	-5.3361371014e-01
 3.5553328958e+00	 3.5723034585e+00	-6.7211805072e-01
 3.5525044686e+00	 3.5751318856e+00	-7.6638585380e-01
 3.5496760415e+00	 3.5779603128e+00	-8.1641711947e-01
 3.5468476144e+00	 3.5807887399e+00	-8.2221184782e-01
 3.5440191873e+00	 3.5836171670e+00	-7.8377003895e-01
 3.5411907601e+00	 3.5864455941e+00	-7.0109169294e-01
 3.5383623330e+00	 3.5892740213e+00	-5.7417680988e-01
 3.5355339059e+00	 3.5921024484e+00	-4.0302538986e-01
 3.5797280797e+00	 3.5797280797e+00	-1.0158512911e-01
 3.5753086623e+00	 3.5841474971e+00	-2.8419882061e-01
 3.5708892450e+00	 3.5885669145e+00	-4.3139681381e-01
 3.5664698276e+00	 3.5929863319e+00	-5.4317910905e-01
 3.5620504102e+00	 3.5974057493e+00	-6.1954570667e-01
 3.5576309928e+00	 3.6018251666e+00	-6.6049660701e-01
 3.5532115754e+00	 3.6062445840e+00	-6.6603181042e-01
 3.5487921580e+00	 3.6106640014e+00	-6.3615131723e-01
 3.5443727407e+00	 3.6150834188e+00	-5.7085512778e-01
 3.5399533233e+00	 3.6195028362e+00	-4.7014324243e-01
 3.5355339059e+00	 3.6239222535e+00	-3.3401566617e-01
 3.5991735162e+00	 3.5991735162e+00	-8.6838113228e-02
 3.5928095552e+00	 3.6055374772e+00	-2.4017947704e-01
 3.5864455941e+00	 3.6119014383e+00	-3.6396587492e-01
 3.5800816331e+00	 3.6182653993e+00	-4.5819730788e-01
 3.5737176721e+00	 3.6246293603e+00	-5.2287378166e-01
 3.5673537111e+00	 3.6309933214e+00	-5.5799528818e-01
 3.5609897500e+00	 3.6373572824e+00	-5.6356183284e-01
 3.5546257890e+00	 3.6437212434e+00	-5.3957341668e-01
 3.5482618280e+00	 3.6500852045e+00	-4.8603004071e-01
 3.5418978669e+00	 3.6564491655e+00	-4.0293170595e-01
 3.5355339059e+00	 3.6628131265e+00	-2.9027841341e-01
 3.6221544866e+00	 3.6221544866e+00	-7.6355003951e-02
 3.6134924285e+00	 3.6308165447e+00	-2.0895103124e-01
 3.6048303705e+00	 3.6394786027e+00	-3.1616854606e-01
 3.5961683124e+00	 3.6481406608e+00	-3.9800755100e-01
 3.5875062543e+00	 3.6568027189e+00	-4.5446804862e-01
 3.5788441962e+00	 3.6654647769e+00	-4.8555004149e-01
 3.5701821382e+00	 3.6741268350e+00	-4.9125353219e-01
 3.5615200801e+00	 3.6827888931e+00	-4.7157852329e-01
 3.5528580220e+00	 3.6914509512e+00	-4.2652501735e-01
 3.5441959640e+00	 3.7001130092e+00	-3.5609301696e-01
 3.5355339059e+00	 3.7087750673e+00	-2.6028252467e-01
 3.6486709909e+00	 3.6486709909e+00	-6.8510319234e-02
 3.6373572824e+00	 3.6599846994e+00	-1.8565003372e-01
 3.6260435739e+00	 3.6712984079e+00	-2.8053813419e-01
 3.6147298654e+00	 3.6826121164e+00	-3.5317462638e-01
 3.6034161569e+00	 3.6939258249e+00	-4.0355951601e-01
 3.5921024484e+00	 3.7052395334e+00	-4.3169280882e-01
 3.5807887399e+00	 3.7165532419e+00	-4.3757451053e-01
 3.5694750314e+00	 3.7278669504e+00	-4.2120462687e-01
 3.5581613229e+00	 3.7391806589e+00	-3.8258316357e-01
 3.5468476144e+00	 3.7504943674e+00	-3.2171012637e-01
 3.5355339059e+00	 3.7618080759e+00	-2.3858552098e-01
 3.6787230291e+00	 3.6787230291e+00	-6.2410772200e-02
 3.6644041168e+00	 3.6930419414e+00	-1.6760175292e-01
 3.6500852045e+00	 3.7073608537e+00	-2.5296981717e-01
 3.6357662921e+00	 3.7216797661e+00	-3.1851497658e-01
 3.6214473798e+00	 3.7359986784e+00	-3.6423724276e-01
 3.6071284675e+00	 3.7503175907e+00	-3.9013662733e-01
 3.5928095552e+00	 3.7646365030e+00	-3.9621314188e-01
 3.5784906429e+00	 3.7789554153e+00	-3.8246679805e-01
 3.5641717305e+00	 3.7932743276e+00	-3.4889760745e-01
 3.5498528182e+00	 3.8075932400e+00	-2.9550558168e-01
 3.5355339059e+00	 3.8219121523e+00	-2.2229073238e-01
 3.7123106012e+00	 3.7123106012e+00	-5.7524956047e-02
 3.6946329317e+00	 3.7299882707e+00	-1.5321370654e-01
 3.6769552621e+00	 3.7476659403e+00	-2.3102026885e-01
 3.6592775926e+00	 3.7653436098e+00	-2.9094466485e-01
 3.6415999231e+00	 3.7830212793e+00	-3.3298691639e-01
 3.6239222535e+00	 3.8006989489e+00	-3.5714704532e-01
 3.6062445840e+00	 3.8183766184e+00	-3.6342507349e-01
 3.5885669145e+00	 3.8360542879e+00	-3.5182102276e-01
 3.5708892450e+00	 3.8537319574e+00	-3.2233491499e-01
 3.5532115754e+00	 3.8714096270e+00	-2.7496677203e-01
 3.5355339059e+00	 3.8890872965e+00	-2.0971661573e-01
 3.7123106012e+00	 3.7123106012e+00	-5.7524956047e-02
 3.6946329317e+00	 3.7299882707e+00	-1.5321370654e-01
 3.6769552621e+00	 3.7476659403e+00	-2.3102026885e-01
 3.6592775926e+00	 3.7653436098e+00	-2.9094466485e-01
 3.6415999231e+00	 3.7830212793e+00	-3.3298691639e-01
 3.6239222535e+00	 3.8006989489e+00	-3.5714704532e-01
 3.6062445840e+00	 3.8183766184e+00	-3.6342507349e-01
 3.5885669145e+00	 3.8360542879e+00	-3.5182102276e-01
 3.5708892450e+00	 3.8537319574e+00	-3.2233491499e-01
 3.5532115754e+00	 3.8714096270e+00	-2.7496677203e-01
 3.5355339059e+00	 3.8890872965e+00	-2.0971661573e-01
 3.7494337072e+00	 3.7494337072e+00	-4.2676084312e-02
 3.7280437271e+00	 3.7708236873e+00	-1.2657231188e-01
 3.7066537470e+00	 3.7922136675e+00	-1.9382055409e-01
 3.6852637668e+00	 3.8136036476e+00	-2.4442084965e-01
 3.6638737867e+00	 3.8349936277e+00	-2.7837323730e-01
 3.6424838066e+00	 3.8563836079e+00	-2.9567775573e-01
 3.6210938264e+00	 3.8777735880e+00	-2.9633444367e-01
 3.5997038463e+00	 3.8991635681e+00	-2.8034333984e-01
 3.5783138662e+00	 3.9205535483e+00	-2.4770448295e-01
 3.5569238860e+00	 3.9419435284e+00	-1.9841791172e-01
 3.5355339059e+00	 3.9633335085e+00	-1.3248366486e-01
 3.7900923471e+00	 3.7900923471e+00	-3.1990603432e-02
 3.7646365030e+00	 3.8155481913e+00	-1.0716195106e-01
 3.7391806589e+00	 3.8410040354e+00	-1.6683205360e-01
 3.7137248148e+00	 3.8664598795e+00	-2.1100097629e-01
 3.6882689706e+00	 3.8919157236e+00	-2.3966878441e-01
 3.6628131265e+00	 3.9173715677e+00	-2.5283554320e-01
 3.6373572824e+00	 3.9428274119e+00	-2.5050131792e-01
 3.6119014383e+00	 3.9682832560e+00	-2.3266617383e-01
 3.5864455941e+00	 3.9937391001e+00	-1.9933017620e-01
 3.5609897500e+00	 4.0191949442e+00	-1.5049339027e-01
 3.5355339059e+00	 4.0446507884e+00	-8.6155881303e-02
 3.8342865210e+00	 3.8342865210e+00	-2.4143786752e-02
 3.8044112595e+00	 3.8641617825e+00	-9.2723424778e-02
 3.7745359979e+00	 3.8940370440e+00	-1.4685590540e-01
 3.7446607364e+00	 3.9239123055e+00	-1.8654133411e-01
 3.7147854749e+00	 3.9537875670e+00	-2.1177981638e-01
 3.6849102134e+00	 3.9836628285e+00	-2.2257145772e-01
 3.6550349519e+00	 4.0135380900e+00	-2.1891636360e-01
 3.6251596904e+00	 4.0434133515e+00	-2.0081463952e-01
 3.5952844289e+00	 4.0732886130e+00	-1.6826639096e-01
 3.5654091674e+00	 4.1031638745e+00	-1.2127172342e-01
 3.5355339059e+00	 4.1330391360e+00	-5.9830742378e-02
 3.8820162287e+00	 3.8820162287e+00	-1.8286288661e-02
 3.8473679964e+00	 3.9166644610e+00	-8.1800442406e-02
 3.8127197641e+00	 3.9513126932e+00	-1.3183185341e-01
 3.7780715319e+00	 3.9859609255e+00	-1.6838068624e-01
 3.7434232996e+00	 4.0206091578e+00	-1.9144710544e-01
 3.7087750673e+00	 4.0552573901e+00	-2.0103127556e-01
 3.6741268350e+00	 4.0899056224e+00	-1.9713336117e-01
 3.6394786027e+00	 4.1245538546e+00	-1.7975352682e-01
 3.6048303705e+00	 4.1592020869e+00	-1.4889193706e-01
 3.5701821382e+00	 4.1938503192e+00	-1.0454875646e-01
 3.5355339059e+00	 4.2284985515e+00	-4.6724149568e-02
 3.9332814703e+00	 3.9332814703e+00	-1.3855702830e-02
 3.8935067139e+00	 3.9730562268e+00	-7.3423120377e-02
 3.8537319574e+00	 4.0128309832e+00	-1.2038887585e-01
 3.8139572010e+00	 4.0526057397e+00	-1.5475321819e-01
 3.7741824446e+00	 4.0923804961e+00	-1.7651639632e-01
 3.7344076881e+00	 4.1321552525e+00	-1.8567865920e-01
 3.6946329317e+00	 4.1719300090e+00	-1.8224025575e-01
 3.6548581752e+00	 4.2117047654e+00	-1.6620143492e-01
 3.6150834188e+00	 4.2514795219e+00	-1.3756244566e-01
 3.5753086623e+00	 4.2912542783e+00	-9.6323536894e-02
 3.5355339059e+00	 4.3310290348e+00	-4.2484957579e-02
 3.9880822459e+00	 3.9880822459e+00	-1.0469344818e-02
 3.9428274119e+00	 4.0333370799e+00	-6.6927359311e-02
 3.8975725779e+00	 4.0785919139e+00	-1.1158888385e-01
 3.8523177439e+00	 4.1238467479e+00	-1.4445428509e-01
 3.8070629099e+00	 4.1691015819e+00	-1.6552392970e-01
 3.7618080759e+00	 4.2143564159e+00	-1.7479818434e-01
 3.7165532419e+00	 4.2596112498e+00	-1.7227741566e-01
 3.6712984079e+00	 4.3048660838e+00	-1.5796199034e-01
 3.6260435739e+00	 4.3501209178e+00	-1.3185227505e-01
 3.5807887399e+00	 4.3953757518e+00	-9.3948636447e-02
 3.5355339059e+00	 4.4406305858e+00	-4.4251441208e-02
 4.0464185553e+00	 4.0464185553e+00	-7.8607232078e-03
 3.9953300904e+00	 4.0975070203e+00	-6.1847488456e-02
 3.9442416254e+00	 4.1485954852e+00	-1.0477447442e-01
 3.8931531605e+00	 4.1996839501e+00	-1.3664220862e-01
 3.8420646956e+00	 4.2507724151e+00	-1.5745121857e-01
 3.7909762306e+00	 4.3018608800e+00	-1.6720203180e-01
 3.7398877657e+00	 4.3529493450e+00	-1.6589517583e-01
 3.6887993007e+00	 4.4040378099e+00	-1.5353117818e-01
 3.6377108358e+00	 4.4551262749e+00	-1.3011056639e-01
 3.5866223708e+00	 4.5062147398e+00	-9.5633868001e-02
 3.5355339059e+00	 4.5573032047e+00	-5.0101610539e-02
 4.1082903987e+00	 4.1082903987e+00	-5.8405631149e-03
 4.0510147494e+00	 4.1655660479e+00	-5.7850189482e-02
 3.9937391001e+00	 4.2228416972e+00	-9.9475278965e-02
 3.9364634508e+00	 4.2801173465e+00	-1.3071657489e-01
 3.8791878016e+00	 4.3373929958e+00	-1.5157482058e-01
 3.8219121523e+00	 4.3946686451e+00	-1.6205075938e-01
 3.7646365030e+00	 4.4519442943e+00	-1.6214513462e-01
 3.7073608537e+00	 4.5092199436e+00	-1.5185868964e-01
 3.6500852045e+00	 4.5664955929e+00	-1.3119216779e-01
 3.5928095552e+00	 4.6237712422e+00	-1.0014631243e-01
 3.5355339059e+00	 4.6810468914e+00	-5.8721866913e-02
 4.1736977759e+00	 4.1736977759e+00	-4.2721594213e-03
 4.1098813889e+00	 4.2375141629e+00	-5.4692574478e-02
 4.0460650019e+00	 4.3013305499e+00	-9.5348580887e-02
 3.9822486149e+00	 4.3651469369e+00	-1.2624120682e-01
 3.9184322279e+00	 4.4289633239e+00	-1.4737148046e-01
 3.8546158409e+00	 4.4927797109e+00	-1.5874042998e-01
 3.7907994539e+00	 4.5565960980e+00	-1.6034908359e-01
 3.7269830669e+00	 4.6204124850e+00	-1.5219846949e-01
 3.6631666799e+00	 4.6842288720e+00	-1.3428961587e-01
 3.5993502929e+00	 4.7480452590e+00	-1.0662355097e-01
 3.5355339059e+00	 4.8118616460e+00	-6.9201302996e-02
 4.2426406871e+00	 4.2426406871e+00	-3.0553734963e-03
 4.1719300090e+00	 4.3133513652e+00	-5.2194871587e-02
 4.1012193309e+00	 4.3840620433e+00	-9.2140647123e-02
 4.0305086527e+00	 4.4547727215e+00	-1.2289409881e-01
 3.9597979746e+00	 4.5254833996e+00	-1.4445662535e-01
 3.8890872965e+00	 4.5961940777e+00	-1.5682962548e-01
 3.8183766184e+00	 4.6669047558e+00	-1.6001449793e-01
 3.7476659403e+00	 4.7376154339e+00	-1.5401264144e-01
 3.6769552621e+00	 4.8083261121e+00	-1.3882545477e-01
 3.6062445840e+00	 4.8790367902e+00	-1.1445433669e-01
 3.5355339059e+00	 4.9497474683e+00	-8.0900685972e-02
 3.5355339059e+00	 3.5355339059e+00	 2.6546660279e-02
 3.5355339059e+00	 3.5355339059e+00	 2.6546660279e-02
 3.5355339059e+00	 3.5355339059e+00	 2.6546660279e-02
 3.5355339059e+00	 3.5355339059e+00	 2.6546660279e-02
 3.5355339059e+00	 3.5355339059e+00	 2.6546660279e-02
 3.5355339059e+00	 3.5355339059e+00	 2.6546660279e-02
 3.5355339059e+00	 3.5355339059e+00	 2.6546660279e-02
 3.5355339059e+00	 3.5355339059e+00	 2.6546660279e-02
 3.5355339059e+00	 3.5355339059e+00	 2.6546660279e-02
 3.5355339059e+00	 3.5355339059e+00	 2.6546660279e-02
 3.5355339059e+00	 3.5355339059e+00	 2.6546660279e-02
 3.5355339059e+00	 3.5390694398e+00	-4.5918074675e+00
 3.5353571292e+00	 3.5388926631e+00	-2.9609951644e+00
 3.5351803525e+00	 3.5387158864e+00	-1.6242527064e+00
 3.5350035758e+00	 3.5385391097e+00	-5.8158009347e-01
 3.5348267991e+00	 3.5383623330e+00	 1.6702267443e-01
 3.5346500224e+00	 3.5381855563e+00	 6.2155559729e-01
 3.5344732457e+00	 3.5380087796e+00	 7.8201867510e-01
 3.5342964690e+00	 3.5378320029e+00	 6.4841190785e-01
 3.5341196923e+00	 3.5376552262e+00	 2.2073529556e-01
 3.5339429156e+00	 3.5374784495e+00	-5.0101116178e-01
 3.5337661389e+00	 3.5373016729e+00	-1.5168274642e+00
 3.5355339059e+00	 3.5496760415e+00	-2.4997856186e+00
 3.5348267991e+00	 3.5489689347e+00	-1.6365574289e+00
 3.5341196923e+00	 3.5482618280e+00	-9.2589828532e-01
 3.5334125856e+00	 3.5475547212e+00	-3.6780818773e-01
 3.5327054788e+00	 3.5468476144e+00	 3.7712863823e-02
 3.5319983720e+00	 3.5461405076e+00	 2.9066486935e-01
 3.5312912652e+00	 3.5454334008e+00	 3.9104782885e-01
 3.5305841584e+00	 3.5447262941e+00	 3.3886174232e-01
 3.5298770517e+00	 3.5440191873e+00	 1.3410660975e-01
 3.5291699449e+00	 3.5433120805e+00	-2.2321756884e-01
 3.5284628381e+00	 3.5426049737e+00	-7.3311079346e-01
 3.5355339059e+00	 3.5673537111e+00	-1.6624120665e+00
 3.5339429156e+00	 3.5657627208e+00	-1.0826143689e+00
 3.5323519254e+00	 3.5641717305e+00	-6.0527862649e-01
 3.5307609351e+00	 3.5625807403e+00	-2.3040483928e-01
 3.5291699449e+00	 3.5609897500e+00	 4.2006992734e-02
 3.5275789546e+00	 3.5593987598e+00	 2.1195686956e-01
 3.5259879644e+00	 3.5578077695e+00	 2.7944479120e-01
 3.5243969741e+00	 3.5562167793e+00	 2.4447075767e-01
 3.5228059838e+00	 3.5546257890e+00	 1.0703476895e-01
 3.5212149936e+00	 3.5530347987e+00	-1.3286317494e-01
 3.5196240033e+00	 3.5514438085e+00	-4.7522307400e-01
 3.5355339059e+00	 3.5921024484e+00	-1.2176605108e+00
 3.5327054788e+00	 3.5892740213e+00	-7.8474905582e-01
 3.5298770517e+00	 3.5864455941e+00	-4.2869473859e-01
 3.5270486245e+00	 3.5836171670e+00	-1.4949755909e-01
 3.5242201974e+00	 3.5807887399e+00	 5.2842482708e-02
 3.5213917703e+00	 3.5779603128e+00	 1.7832538681e-01
 3.5185633432e+00	 3.5751318856e+00	 2.2695115324e-01
 3.5157349160e+00	 3.5723034585e+00	 1.9871978202e-01
 3.5129064889e+00	 3.5694750314e+00	 9.3631273162e-02
 3.5100780618e+00	 3.5666466043e+00	-8.8314373312e-02
 3.5072496347e+00	 3.5638181771e+00	-3.4711715738e-01
 3.5355339059e+00	 3.6239222535e+00	-9.4263911222e-01
 3.5311144885e+00	 3.6195028362e+00	-5.9951572969e-01
 3.5266950711e+00	 3.6150834188e+00	-3.1771020450e-01
 3.5222756538e+00	 3.6106640014e+00	-9.7222531931e-02
 3.5178562364e+00	 3.6062445840e+00	 6.1947288093e-02
 3.5134368190e+00	 3.6018251666e+00	 1.5979925564e-01
 3.5090174016e+00	 3.5974057493e+00	 1.9633337079e-01
 3.5045979842e+00	 3.5929863319e+00	 1.7154963361e-01
 3.5001785668e+00	 3.5885669145e+00	 8.5448044169e-02
 3.4957591495e+00	 3.5841474971e+00	-6.1971397460e-02
 3.4913397321e+00	 3.5797280797e+00	-2.7070869121e-01
 3.5355339059e+00	 3.6628131265e+00	-7.5603770191e-01
 3.5291699449e+00	 3.6564491655e+00	-4.7346463661e-01
 3.5228059838e+00	 3.6500852045e+00	-2.4177642065e-01
 3.5164420228e+00	 3.6437212434e+00	-6.0973053803e-02
 3.5100780618e+00	 3.6373572824e+00	 6.8945464141e-02
 3.5037141007e+00	 3.6309933214e+00	 1.4797913339e-01
 3.4973501397e+00	 3.6246293603e+00	 1.7612795417e-01
 3.4909861787e+00	 3.6182653993e+00	 1.5339193103e-01
 3.4846222177e+00	 3.6119014383e+00	 7.9771055171e-02
 3.4782582566e+00	 3.6055374772e+00	-4.4734668512e-02
 3.4718942956e+00	 3.5991735162e+00	-2.2012523981e-01
 3.5355339059e+00	 3.7087750673e+00	-6.2129082342e-01
 3.5268718478e+00	 3.7001130092e+00	-3.8230805272e-01
 3.5182097898e+00	 3.6914509512e+00	-1.8672201905e-01
 3.5095477317e+00	 3.6827888931e+00	-3.4532721875e-02
 3.5008856736e+00	 3.6741268350e+00	 7.4259839344e-02
 3.4922236156e+00	 3.6654647769e+00	 1.3965566515e-01
 3.4835615575e+00	 3.6568027189e+00	 1.6165475607e-01
 3.4748994994e+00	 3.6481406608e+00	 1.4025711265e-01
 3.4662374413e+00	 3.6394786027e+00	 7.5462735428e-02
 3.4575753833e+00	 3.6308165447e+00	-3.2728375060e-02
 3.4489133252e+00	 3.6221544866e+00	-1.8431621828e-01
 3.5355339059e+00	 3.7618080759e+00	-5.1955119144e-01
 3.5242201974e+00	 3.7504943674e+00	-3.1344835209e-01
 3.5129064889e+00	 3.7391806589e+00	-1.4510652459e-01
 3.5015927804e+00	 3.7278669504e+00	-1.4525707732e-02
 3.4902790719e+00	 3.7165532419e+00	 7.8294099682e-02
 3.4789653634e+00	 3.7052395334e+00	 1.3335289885e-01
 3.4676516549e+00	 3.6939258249e+00	 1.5065069097e-01
 3.4563379464e+00	 3.6826121164e+00	 1.3018747725e-01
 3.4450242379e+00	 3.6712984079e+00	 7.1963258874e-02
 3.4337105294e+00	 3.6599846994e+00	-2.4021962952e-02
 3.4223968209e+00	 3.6486709909e+00	-1.5776818703e-01
 3.5355339059e+00	 3.8219121523e+00	-4.4012435210e-01
 3.5212149936e+00	 3.8075932400e+00	-2.5970689528e-01
 3.5068960813e+00	 3.7932743276e+00	-1.1265550305e-01
 3.4925771689e+00	 3.7789554153e+00	 1.0298269961e-03
 3.4782582566e+00	 3.7646365030e+00	 8.1349097302e-02
 3.4639393443e+00	 3.7503175907e+00	 1.2830231029e-01
 3.4496204320e+00	 3.7359986784e+00	 1.4188946840e-01
 3.4353015197e+00	 3.7216797661e+00	 1.2211057406e-01
 3.4209826073e+00	 3.7073608537e+00	 6.8965629691e-02
 3.4066636950e+00	 3.6930419414e+00	-1.7545362271e-02
 3.3923447827e+00	 3.6787230291e+00	-1.3742239940e-01
 3.5355339059e+00	 3.8890872965e+00	-3.7649229078e-01
 3.5178562364e+00	 3.8714096270e+00	-2.1669487992e-01
 3.5001785668e+00	 3.8537319574e+00	-8.6740302988e-02
 3.4825008973e+00	 3.8360542879e+00	 1.3371444601e-02
 3.4648232278e+00	 3.8183766184e+00	 8.3640367413e-02
 3.4471455583e+00	 3.8006989489e+00	 1.2406647002e-01
 3.4294678887e+00	 3.7830212793e+00	 1.3464975700e-01
 3.4117902192e+00	 3.7653436098e+00	 1.1539023292e-01
 3.3941125497e+00	 3.7476659403e+00	 6.6287902355e-02
 3.3764348801e+00	 3.7299882707e+00	-1.2657230123e-02
 3.3587572106e+00	 3.7123106012e+00	-1.2144515994e-01
 3.5355339059e+00	 3.8890872965e+00	-3.7649229078e-01
 3.5178562364e+00	 3.8714096270e+00	-2.1669487992e-01
 3.5001785668e+00	 3.8537319574e+00	-8.6740302988e-02
 3.4825008973e+00	 3.8360542879e+00	 1.3371444601e-02
 3.4648232278e+00	 3.8183766184e+00	 8.3640367413e-02
 3.4471455583e+00	 3.8006989489e+00	 1.2406647002e-01
 3.4294678887e+00	 3.7830212793e+00	 1.3464975700e-01
 3.4117902192e+00	 3.7653436098e+00	 1.1539023292e-01
 3.3941125497e+00	 3.7476659403e+00	 6.6287902355e-02
 3.3764348801e+00	 3.7299882707e+00	-1.2657230123e-02
 3.3587572106e+00	 3.7123106012e+00	-1.2144515994e-01
 3.5355339059e+00	 3.9633335085e+00	-3.5408245213e-01
 3.5141439258e+00	 3.9419435284e+00	-2.0995067146e-01
 3.4927539456e+00	 3.9205535483e+00	-9.2602789701e-02
 3.4713639655e+00	 3.8991635681e+00	-2.0387987429e-03
 3.4499739854e+00	 3.8777735880e+00	 6.1741309512e-02
 3.4285840052e+00	 3.8563836079e+00	 9.8737543165e-02
 3.4071940251e+00	 3.8349936277e+00	 1.0894991032e-01
 3.3858040450e+00	 3.8136036476e+00	 9.2378419065e-02
 3.3644140648e+00	 3.7922136675e+00	 4.9023077514e-02
 3.3430240847e+00	 3.7708236873e+00	-2.1116106238e-02
 3.3216341046e+00	 3.7494337072e+00	-1.1803912409e-01
 3.5355339059e+00	 4.0446507884e+00	-3.2838681321e-01
 3.5100780618e+00	 4.0191949442e+00	-1.9667256167e-01
 3.4846222177e+00	 3.9937391001e+00	-8.9248101389e-02
 3.4591663735e+00	 3.9682832560e+00	-6.1134187118e-03
 3.4337105294e+00	 3.9428274119e+00	 5.2731500013e-02
 3.4082546853e+00	 3.9173715677e+00	 8.7286668438e-02
 3.3827988412e+00	 3.8919157236e+00	 9.7552100219e-02
 3.3573429970e+00	 3.8664598795e+00	 8.3527809008e-02
 3.3318871529e+00	 3.8410040354e+00	 4.5213808460e-02
 3.3064313088e+00	 3.8155481913e+00	-1.7389887774e-02
 3.2809754647e+00	 3.7900923471e+00	-1.0428326604e-01
 3.5355339059e+00	 4.1330391360e+00	-3.0172997501e-01
 3.5056586444e+00	 4.1031638745e+00	-1.8007153475e-01
 3.4757833829e+00	 4.0732886130e+00	-8.0631594098e-02
 3.4459081214e+00	 4.0434133515e+00	-3.4101309736e-03
 3.4160328599e+00	 4.0135380900e+00	 5.1592876693e-02
 3.3861575984e+00	 3.9836628285e+00	 8.4377450973e-02
 3.3562823369e+00	 3.9537875670e+00	 9.4943613938e-02
 3.3264070754e+00	 3.9239123055e+00	 8.3291387658e-02
 3.2965318139e+00	 3.8940370440e+00	 4.9420794204e-02
 3.2666565523e+00	 3.8641617825e+00	-6.6681443537e-03
 3.2367812908e+00	 3.8342865210e+00	-8.4975405944e-02
 3.5355339059e+00	 4.2284985515e+00	-2.7535987209e-01
 3.5008856736e+00	 4.1938503192e+00	-1.6199253852e-01
 3.4662374413e+00	 4.1592020869e+00	-6.9096897132e-02
 3.4315892091e+00	 4.1245538546e+00	 3.3270864992e-03
 3.3969409768e+00	 4.0899056224e+00	 5.5279446805e-02
 3.3622927445e+00	 4.0552573901e+00	 8.6760218213e-02
 3.3276445122e+00	 4.0206091578e+00	 9.7769435155e-02
 3.2929962799e+00	 3.9859609255e+00	 8.8307132059e-02
 3.2583480477e+00	 3.9513126932e+00	 5.8373343355e-02
 3.2236998154e+00	 3.9166644610e+00	 7.9681034702e-03
 3.1890515831e+00	 3.8820162287e+00	-6.2908553166e-02
 3.5355339059e+00	 4.3310290348e+00	-2.4993450469e-01
 3.4957591495e+00	 4.2912542783e+00	-1.4350894614e-01
 3.4559843930e+00	 4.2514795219e+00	-5.6062579120e-02
 3.4162096366e+00	 4.2117047654e+00	 1.2404648463e-02
 3.3764348801e+00	 4.1719300090e+00	 6.1892788695e-02
 3.3366601237e+00	 4.1321552525e+00	 9.2401893660e-02
 3.2968853672e+00	 4.0923804961e+00	 1.0393201544e-01
 3.2571106108e+00	 4.0526057397e+00	 9.6483206128e-02
 3.2173358544e+00	 4.0128309832e+00	 7.0055517800e-02
 3.1775610979e+00	 3.9730562268e+00	 2.4649002542e-02
 3.1377863415e+00	 3.9332814703e+00	-3.9736287563e-02
 3.5355339059e+00	 4.4406305858e+00	-2.2578116685e-01
 3.4902790719e+00	 4.3953757518e+00	-1.2524516003e-01
 3.4450242379e+00	 4.3501209178e+00	-4.2398763366e-02
 3.3997694039e+00	 4.3048660838e+00	 2.2758099848e-02
 3.3545145699e+00	 4.2596112498e+00	 7.0225506332e-02
 3.3092597359e+00	 4.2143564159e+00	 1.0000353280e-01
 3.2640049019e+00	 4.1691015819e+00	 1.1209225597e-01
 3.2187500679e+00	 4.1238467479e+00	 1.0649175256e-01
 3.1734952339e+00	 4.0785919139e+00	 8.3202099281e-02
 3.1282403999e+00	 4.0333370799e+00	 4.2223372845e-02
 3.0829855659e+00	 3.9880822459e+00	-1.6444350034e-02
 3.5355339059e+00	 4.5573032047e+00	-2.0303928048e-01
 3.4844454410e+00	 4.5062147398e+00	-1.0755826474e-01
 3.4333569760e+00	 4.4551262749e+00	-2.8641728244e-02
 3.3822685111e+00	 4.4040378099e+00	 3.3710439376e-02
 3.3311800461e+00	 4.3529493450e+00	 7.9498348496e-02
 3.2800915812e+00	 4.3018608800e+00	 1.0872210949e-01
 3.2290031162e+00	 4.2507724151e+00	 1.2138183273e-01
 3.1779146513e+00	 4.1996839501e+00	 1.1747762858e-01
 3.1268261864e+00	 4.1485954852e+00	 9.7009607416e-02
 3.0757377214e+00	 4.0975070203e+00	 5.9977879608e-02
 3.0246492565e+00	 4.0464185553e+00	 6.3825555209e-03
 3.5355339059e+00	 4.6810468914e+00	-1.8174124545e-01
 3.4782582566e+00	 4.6237712422e+00	-9.0643494186e-02
 3.4209826073e+00	 4.5664955929e+00	-1.5120185407e-02
 3.3637069581e+00	 4.5092199436e+00	 4.4828836419e-02
 3.3064313088e+00	 4.4519442943e+00	 8.9203726824e-02
 3.2491556595e+00	 4.3946686451e+00	 1.1800464133e-01
 3.1918800102e+00	 4.3373929958e+00	 1.3123173547e-01
 3.1346043610e+00	 4.2801173465e+00	 1.2888516476e-01
 3.0773287117e+00	 4.2228416972e+00	 1.1096508473e-01
 3.0200530624e+00	 4.1655660479e+00	 7.7471650896e-02
 2.9627774131e+00	 4.1082903987e+00	 2.8405018773e-02
 3.5355339059e+00	 4.8118616460e+00	-1.6185915856e-01
 3.4717175189e+00	 4.7480452590e+00	-7.4597039517e-02
 3.4079011319e+00	 4.6842288720e+00	-2.0316372264e-03
 3.3440847449e+00	 4.6204124850e+00	 5.5837263445e-02
 3.2802683579e+00	 4.5565960980e+00	 9.9009877627e-02
 3.2164519709e+00	 4.4927797109e+00	 1.2748642045e-01
 3.1526355839e+00	 4.4289633239e+00	 1.4126710703e-01
 3.0888191969e+00	 4.3651469369e+00	 1.4035215249e-01
 3.0250028099e+00	 4.3013305499e+00	 1.2474177195e-01
 2.9611864229e+00	 4.2375141629e+00	 9.4436180529e-02
 2.8973700359e+00	 4.1736977759e+00	 5.2752322995e-02
 3.5355339059e+00	 4.9497474683e+00	-1.4333220661e-01
 3.4648232278e+00	 4.8790367902e+00	-5.9454239552e-02
 3.3941125497e+00	 4.8083261121e+00	 1.0510373014e-02
 3.3234018715e+00	 4.7376154339e+00	 6.6561923752e-02
 3.2526911934e+00	 4.6669047558e+00	 1.0870070532e-01
 3.1819805153e+00	 4.5961940777e+00	 1.3692701038e-01
 3.1112698372e+00	 4.5254833996e+00	 1.5124113157e-01
 3.0405591591e+00	 4.4547727215e+00	 1.5164336154e-01
 2.9698484809e+00	 4.3840620433e+00	 1.3813399293e-01
 2.8991378028e+00	 4.3133513652e+00	 1.1389533155e-01
 2.8284271247e+00	 4.2426406871e+00	 7.7923422929e-02
 3.5355339059e+00	 3.5355339059e+00	 2.6546660279e-02
 3.5355339059e+00	 3.5355339059e+00	 2.6546660279e-02
 3.5355339059e+00	 3.5355339059e+00	 2.6546660279e-02
 3.5355339059e+00	 3.5355339059e+00	 2.6546660279e-02
 3.5355339059e+00	 3.5355339059e+00	 2.6546660279e-02
 3.5355339059e+00	 3.5355339059e+00	 2.6546660279e-02
 3.5355339059e+00	 3.5355339059e+00	 2.6546660279e-02
 3.5355339059e+00	 3.5355339059e+00	 2.6546660279e-02
 3.5355339059e+00	 3.5355339059e+00	 2.6546660279e-02
 3.5355339059e+00	 3.5355339059e+00	 2.6546660279e-02
 3.5355339059e+00	 3.5355339059e+00	 2.6546660279e-02
 3.5337661389e+00	 3.5373016729e+00	 2.3264431952e+00
 3.5335893623e+00	 3.5371248962e+00	 3.9585577715e-01
 3.5334125856e+00	 3.5369481195e+00	-1.3627004438e+00
 3.5332358089e+00	 3.5367713428e+00	-2.9492254675e+00
 3.5330590322e+00	 3.5365945661e+00	-4.3637192941e+00
 3.5328822555e+00	 3.5364177894e+00	-5.6061819235e+00
 3.5327054788e+00	 3.5362410127e+00	-6.6766133557e+00
 3.5325287021e+00	 3.5360642360e+00	-7.5750135908e+00
 3.5323519254e+00	 3.5358874593e+00	-8.3013826287e+00
 3.5321751487e+00	 3.5357106826e+00	-8.8557204694e+00
 3.5319983720e+00	 3.5355339059e+00	-9.2380271130e+00
 3.5284628381e+00	 3.5426049737e+00	 1.0675320143e+00
 3.5277557313e+00	 3.5418978669e+00	 6.6969449000e-02
 3.5270486245e+00	 3.5411907601e+00	-8.3853888570e-01
 3.5263415177e+00	 3.5404836534e+00	-1.6489929898e+00
 3.5256344110e+00	 3.5397765466e+00	-2.3643928633e+00
 3.5249273042e+00	 3.5390694398e+00	-2.9847385062e+00
 3.5242201974e+00	 3.5383623330e+00	-3.5100299184e+00
 3.5235130906e+00	 3.5376552262e+00	-3.9402671001e+00
 3.5228059838e+00	 3.5369481195e+00	-4.2754500512e+00
 3.5220988771e+00	 3.5362410127e+00	-4.5155787716e+00
 3.5213917703e+00	 3.5355339059e+00	-4.6606532615e+00
 3.5196240033e+00	 3.5514438085e+00	 7.2088963970e-01
 3.5180330131e+00	 3.5498528182e+00	 4.8535257693e-02
 3.5164420228e+00	 3.5482618280e+00	-5.5873839753e-01
 3.5148510325e+00	 3.5466708377e+00	-1.1009313260e+00
 3.5132600423e+00	 3.5450798474e+00	-1.5780435276e+00
 3.5116690520e+00	 3.5434888572e+00	-1.9900750025e+00
 3.5100780618e+00	 3.5418978669e+00	-2.3370257505e+00
 3.5084870715e+00	 3.5403068767e+00	-2.6188957718e+00
 3.5068960813e+00	 3.5387158864e+00	-2.8356850662e+00
 3.5053050910e+00	 3.5371248962e+00	-2.9873936338e+00
 3.5037141007e+00	 3.5355339059e+00	-3.0740214747e+00
 3.5072496347e+00	 3.5638181771e+00	 5.6104535738e-01
 3.5044212075e+00	 3.5609897500e+00	 5.6205686681e-02
 3.5015927804e+00	 3.5581613229e+00	-3.9934898812e-01
 3.4987643533e+00	 3.5553328958e+00	-8.0561866701e-01
 3.4959359262e+00	 3.5525044686e+00	-1.1626033500e+00
 3.4931074990e+00	 3.5496760415e+00	-1.4703030370e+00
 3.4902790719e+00	 3.5468476144e+00	-1.7287177280e+00
 3.4874506448e+00	 3.5440191873e+00	-1.9378474231e+00
 3.4846222177e+00	 3.5411907601e+00	-2.0976921222e+00
 3.4817937905e+00	 3.5383623330e+00	-2.2082518252e+00
 3.4789653634e+00	 3.5355339059e+00	-2.2695265322e+00
 3.4913397321e+00	 3.5797280797e+00	 4.6926445558e-01
 3.4869203147e+00	 3.5753086623e+00	 6.6023274476e-02
 3.4825008973e+00	 3.5708892450e+00	-2.9766923462e-01
 3.4780814799e+00	 3.5664698276e+00	-6.2181307162e-01
 3.4736620625e+00	 3.5620504102e+00	-9.0640823648e-01
 3.4692426452e+00	 3.5576309928e+00	-1.1514547291e+00
 3.4648232278e+00	 3.5532115754e+00	-1.3569525494e+00
 3.4604038104e+00	 3.5487921580e+00	-1.5229016974e+00
 3.4559843930e+00	 3.5443727407e+00	-1.6493021729e+00
 3.4515649756e+00	 3.5399533233e+00	-1.7361539759e+00
 3.4471455582e+00	 3.5355339059e+00	-1.7834571064e+00
 3.4718942956e+00	 3.5991735162e+00	 4.0963030807e-01
 3.4655303346e+00	 3.5928095552e+00	 7.4573849260e-02
 3.4591663735e+00	 3.5864455941e+00	-2.2753270588e-01
 3.4528024125e+00	 3.5800816331e+00	-4.9668935715e-01
 3.4464384515e+00	 3.5737176721e+00	-7.3289610432e-01
 3.4400744904e+00	 3.5673537111e+00	-9.3615294718e-01
 3.4337105294e+00	 3.5609897500e+00	-1.1064598855e+00
 3.4273465684e+00	 3.5546257890e+00	-1.2438169191e+00
 3.4209826073e+00	 3.5482618280e+00	-1.3482240478e+00
 3.4146186463e+00	 3.5418978669e+00	-1.4196812713e+00
 3.4082546853e+00	 3.5355339059e+00	-1.4581885894e+00
 3.4489133252e+00	 3.6221544866e+00	 3.6764732046e-01
 3.4402512671e+00	 3.6134924285e+00	 8.1514266101e-02
 3.4315892091e+00	 3.6048303705e+00	-1.7643515853e-01
 3.4229271510e+00	 3.5961683124e+00	-4.0620094836e-01
 3.4142650929e+00	 3.5875062543e+00	-6.0778310286e-01
 3.4056030349e+00	 3.5788441962e+00	-7.8118162150e-01
 3.3969409768e+00	 3.5701821382e+00	-9.2639650372e-01
 3.3882789187e+00	 3.5615200801e+00	-1.0434277490e+00
 3.3796168606e+00	 3.5528580220e+00	-1.1322753568e+00
 3.3709548026e+00	 3.5441959640e+00	-1.1929393265e+00
 3.3622927445e+00	 3.5355339059e+00	-1.2254196578e+00
 3.4223968209e+00	 3.6486709909e+00	 3.3636258943e-01
 3.4110831124e+00	 3.6373572824e+00	 8.7040902466e-02
 3.3997694039e+00	 3.6260435739e+00	-1.3770078759e-01
 3.3884556954e+00	 3.6147298654e+00	-3.3786247542e-01
 3.3771419869e+00	 3.6034161569e+00	-5.1344416860e-01
 3.3658282784e+00	 3.5921024484e+00	-6.6444586124e-01
 3.3545145699e+00	 3.5807887399e+00	-7.9086755214e-01
 3.3432008614e+00	 3.5694750314e+00	-8.9270924009e-01
 3.3318871529e+00	 3.5581613229e+00	-9.6997092391e-01
 3.3205734444e+00	 3.5468476144e+00	-1.0226526024e+00
 3.3092597359e+00	 3.5355339059e+00	-1.0507542743e+00
 3.3923447827e+00	 3.6787230291e+00	 3.1203029948e-01
 3.3780258704e+00	 3.6644041168e+00	 9.1408613342e-02
 3.3637069581e+00	 3.6500852045e+00	-1.0745308071e-01
 3.3493880457e+00	 3.6357662921e+00	-2.8455478024e-01
 3.3350691334e+00	 3.6214473798e+00	-4.3989647839e-01
 3.3207502211e+00	 3.6071284675e+00	-5.7347818228e-01
 3.3064313088e+00	 3.5928095552e+00	-6.8529988430e-01
 3.2921123965e+00	 3.5784906429e+00	-7.7536158203e-01
 3.2777934842e+00	 3.5641717305e+00	-8.4366327302e-01
 3.2634745718e+00	 3.5498528182e+00	-8.9020495484e-01
 3.2491556595e+00	 3.5355339059e+00	-9.1498662508e-01
 3.3587572106e+00	 3.7123106012e+00	 2.9245594151e-01
 3.3410795411e+00	 3.6946329317e+00	 9.4836215688e-02
 3.3234018715e+00	 3.6769552621e+00	-8.3290374115e-02
 3.3057242020e+00	 3.6592775926e+00	-2.4192382332e-01
 3.2880465325e+00	 3.6415999231e+00	-3.8106412736e-01
 3.2703688629e+00	 3.6239222535e+00	-5.0071128166e-01
 3.2526911934e+00	 3.6062445840e+00	-6.0086527800e-01
 3.2350135239e+00	 3.5885669145e+00	-6.8152611987e-01
 3.2173358544e+00	 3.5708892450e+00	-7.4269379820e-01
 3.1996581848e+00	 3.5532115754e+00	-7.8436830841e-01
 3.1819805153e+00	 3.5355339059e+00	-8.0654964592e-01
 3.3587572106e+00	 3.7123106012e+00	 2.9245594151e-01
 3.3410795411e+00	 3.6946329317e+00	 9.4836215688e-02
 3.3234018715e+00	 3.6769552621e+00	-8.3290374115e-02
 3.3057242020e+00	 3.6592775926e+00	-2.4192382332e-01
 3.2880465325e+00	 3.6415999231e+00	-3.8106412736e-01
 3.2703688629e+00	 3.6239222535e+00	-5.0071128166e-01
 3.2526911934e+00	 3.6062445840e+00	-6.0086527800e-01
 3.2350135239e+00	 3.5885669145e+00	-6.8152611987e-01
 3.2173358544e+00	 3.5708892450e+00	-7.4269379820e-01
 3.1996581848e+00	 3.5532115754e+00	-7.8436830841e-01
 3.1819805153e+00	 3.5355339059e+00	-8.0654964592e-01
 3.3216341046e+00	 3.7494337072e+00	 2.6159037891e-01
 3.3002441245e+00	 3.7280437271e+00	 8.3115552606e-02
 3.2788541443e+00	 3.7066537470e+00	-7.7832773978e-02
 3.2574641642e+00	 3.6852637668e+00	-2.2125459274e-01
 3.2360741841e+00	 3.6638737867e+00	-3.4714989559e-01
 3.2146842039e+00	 3.6424838066e+00	-4.5551867442e-01
 3.1932942238e+00	 3.6210938264e+00	-5.4636091679e-01
 3.1719042437e+00	 3.5997038463e+00	-6.1967662428e-01
 3.1505142635e+00	 3.5783138662e+00	-6.7546578333e-01
 3.1291242834e+00	 3.5569238860e+00	-7.1372838581e-01
 3.1077343033e+00	 3.5355339059e+00	-7.3446442364e-01
 3.2809754647e+00	 3.7900923471e+00	 2.3876064591e-01
 3.2555196205e+00	 3.7646365030e+00	 7.5703721639e-02
 3.2300637764e+00	 3.7391806589e+00	-7.1434999192e-02
 3.2046079323e+00	 3.7137248148e+00	-2.0265550293e-01
 3.1791520882e+00	 3.6882689706e+00	-3.1795777592e-01
 3.1536962441e+00	 3.6628131265e+00	-4.1734180450e-01
 3.1282403999e+00	 3.6373572824e+00	-5.0080757504e-01
 3.1027845558e+00	 3.6119014383e+00	-5.6835507001e-01
 3.0773287117e+00	 3.5864455941e+00	-6.1998428458e-01
 3.0518728676e+00	 3.5609897500e+00	-6.5569519994e-01
 3.0264170234e+00	 3.5355339059e+00	-6.7548780246e-01
 3.2367812908e+00	 3.8342865210e+00	 2.2141258530e-01
 3.2069060293e+00	 3.8044112595e+00	 7.1019343278e-02
 3.1770307678e+00	 3.7745359979e+00	-6.4794888554e-02
 3.1471555063e+00	 3.7446607364e+00	-1.8603008813e-01
 3.1172802448e+00	 3.7147854749e+00	-2.9268623338e-01
 3.0874049833e+00	 3.6849102134e+00	-3.8476330223e-01
 3.0575297218e+00	 3.6550349519e+00	-4.6226127261e-01
 3.0276544603e+00	 3.6251596904e+00	-5.2518012245e-01
 2.9977791988e+00	 3.5952844289e+00	-5.7351982660e-01
 2.9679039373e+00	 3.5654091674e+00	-6.0728037028e-01
 2.9380286758e+00	 3.5355339059e+00	-6.2624242934e-01
 3.1890515831e+00	 3.8820162287e+00	 2.0790221959e-01
 3.1544033508e+00	 3.8473679964e+00	 6.8083138645e-02
 3.1197551186e+00	 3.8127197641e+00	-5.8289028632e-02
 3.0851068863e+00	 3.7780715319e+00	-1.7121424781e-01
 3.0504586540e+00	 3.7434232996e+00	-2.7069248445e-01
 3.0158104217e+00	 3.7087750673e+00	-3.5672370414e-01
 2.9811621895e+00	 3.6741268350e+00	-4.2930787245e-01
 2.9465139572e+00	 3.6394786027e+00	-4.8844495494e-01
 2.9118657249e+00	 3.6048303705e+00	-5.3193539847e-01
 2.8772174926e+00	 3.5701821382e+00	-5.6156905626e-01
 2.8425692603e+00	 3.5355339059e+00	-5.7777064261e-01
 3.1377863415e+00	 3.9332814703e+00	 1.9713636197e-01
 3.0980115850e+00	 3.8935067139e+00	 6.6270582077e-02
 3.0582368286e+00	 3.8537319574e+00	-5.2117673764e-02
 3.0184620722e+00	 3.8139572010e+00	-1.5802835347e-01
 2.9786873157e+00	 3.7741824446e+00	-2.5146140497e-01
 2.9389125593e+00	 3.7344076881e+00	-3.3226373828e-01
 2.8991378028e+00	 3.6946329317e+00	-3.9772790131e-01
 2.8593630464e+00	 3.6548581752e+00	-4.5073219495e-01
 2.8195882900e+00	 3.6150834188e+00	-4.9127767000e-01
 2.7798135335e+00	 3.5753086623e+00	-5.1936539031e-01
 2.7400387771e+00	 3.5355339059e+00	-5.3499640458e-01
 3.0829855659e+00	 3.9880822459e+00	 1.8836766001e-01
 3.0377307319e+00	 3.9428274119e+00	 6.5173681934e-02
 2.9924758980e+00	 3.8975725779e+00	-4.6382047375e-02
 2.9472210640e+00	 3.8523177439e+00	-1.4629945121e-01
 2.9019662300e+00	 3.8070629099e+00	-2.3162015049e-01
 2.8567113960e+00	 3.7618080759e+00	-3.0484416943e-01
 2.8114565620e+00	 3.7165532419e+00	-3.6645241853e-01
 2.7662017280e+00	 3.6712984079e+00	-4.1644645112e-01
 2.7209468940e+00	 3.6260435739e+00	-4.5482782051e-01
 2.6756920600e+00	 3.5807887399e+00	-4.8159807767e-01
 2.6304372260e+00	 3.5355339059e+00	-4.9675878190e-01
 3.0246492565e+00	 4.0464185553e+00	 1.8107285566e-01
 2.9735607916e+00	 3.9953300904e+00	 6.4520602310e-02
 2.9224723266e+00	 3.9442416254e+00	-3.9721969380e-02
 2.8713838617e+00	 3.8931531605e+00	-1.3059137313e-01
 2.8202953967e+00	 3.8420646956e+00	-2.1058166507e-01
 2.7692069318e+00	 3.7909762306e+00	-2.7969507999e-01
 2.7181184669e+00	 3.7398877657e+00	-3.3793385268e-01
 2.6670300019e+00	 3.6887993007e+00	-3.8530021792e-01
 2.6159415370e+00	 3.6377108358e+00	-4.2179641045e-01
 2.5648530721e+00	 3.5866223708e+00	-4.4742466259e-01
 2.5137646071e+00	 3.5355339059e+00	-4.6218721548e-01
 2.9627774131e+00	 4.1082903987e+00	 1.7487789732e-01
 2.9055017639e+00	 4.0510147494e+00	 6.6824512560e-02
 2.8482261146e+00	 3.9937391001e+00	-2.9329277446e-02
 2.7909504653e+00	 3.9364634508e+00	-1.1525512623e-01
 2.7336748161e+00	 3.8791878016e+00	-1.9095618285e-01
 2.6763991668e+00	 3.8219121523e+00	-2.5643559636e-01
 2.6191235175e+00	 3.7646365030e+00	-3.1169651580e-01
 2.5618478682e+00	 3.7073608537e+00	-3.5674209016e-01
 2.5045722190e+00	 3.6500852045e+00	-3.9157546845e-01
 2.4472965697e+00	 3.5928095552e+00	-4.1619979707e-01
 2.3900209204e+00	 3.5355339059e+00	-4.3061823177e-01
 2.8973700359e+00	 4.1736977759e+00	 1.7282717703e-01
 2.8335536489e+00	 4.1098813889e+00	 7.2018638811e-02
 2.7697372619e+00	 4.0460650019e+00	-1.9140087254e-02
 2.7059208749e+00	 3.9822486149e+00	-1.0065335700e-01
 2.6421044879e+00	 3.9184322279e+00	-1.7252552624e-01
 2.5782881009e+00	 3.8546158409e+00	-2.3476095074e-01
 2.5144717139e+00	 3.7907994539e+00	-2.8736398626e-01
 2.4506553269e+00	 3.7269830669e+00	-3.3033898850e-01
 2.3868389399e+00	 3.6631666799e+00	-3.6369031318e-01
 2.3230225529e+00	 3.5993502929e+00	-3.8742231326e-01
 2.2592061659e+00	 3.5355339059e+00	-4.0153935156e-01
 2.8284271247e+00	 4.2426406871e+00	 1.7331073719e-01
 2.7577164466e+00	 4.1719300090e+00	 7.7519254750e-02
 2.6870057685e+00	 4.1012193309e+00	-9.1441217726e-03
 2.6162950904e+00	 4.0305086527e+00	-8.6685317947e-02
 2.5455844123e+00	 3.9597979746e+00	-1.5511025930e-01
 2.4748737342e+00	 3.8890872965e+00	-2.1442487131e-01
 2.4041630561e+00	 3.8183766184e+00	-2.6463507942e-01
 2.3334523780e+00	 3.7476659403e+00	-3.0574680902e-01
 2.2627416998e+00	 3.6769552621e+00	-3.3776598547e-01
 2.1920310217e+00	 3.6062445840e+00	-3.6069853131e-01
 2.1213203436e+00	 3.5355339059e+00	-3.7455037932e-01
 3.5355339059e+00	 3.5355339059e+00	 2.6546660279e-02
 3.5355339059e+00	 3.5355339059e+00	 2.6546660279e-02
 3.5355339059e+00	 3.5355339059e+00	 2.6546660279e-02
 3.5355339059e+00	 3.5355339059e+00	 2.6546660279e-02
 3.5355339059e+00	 3.5355339059e+00	 2.6546660279e-02
 3.5355339059e+00	 3.5355339059e+00	 2.6546660279e-02
 3.5355339059e+00	 3.5355339059e+00	 2.6546660279e-02
 3.5355339059e+00	 3.5355339059e+00	 2.6546660279e-02
 3.5355339059e+00	 3.5355339059e+00	 2.6546660279e-02
 3.5355339059e+00	 3.5355339059e+00	 2.6546660279e-02
 3.5355339059e+00	 3.5355339059e+00	 2.6546660279e-02
 3.5319983720e+00	 3.5355339059e+00	-8.9596485791e+00
 3.5321751487e+00	 3.5353571292e+00	-1.0251126389e+01
 3.5323519254e+00	 3.5351803525e+00	-1.1456118613e+01
 3.5325287021e+00	 3.5350035758e+00	-1.2574625252e+01
 3.5327054788e+00	 3.5348267991e+00	-1.3606646305e+01
 3.5328822555e+00	 3.5346500224e+00	-1.4552181772e+01
 3.5330590322e+00	 3.5344732457e+00	-1.5411231654e+01
 3.5332358089e+00	 3.5342964690e+00	-1.6183795950e+01
 3.5334125856e+00	 3.5341196923e+00	-1.6869874661e+01
 3.5335893623e+00	 3.5339429156e+00	-1.7469467786e+01
 3.5337661389e+00	 3.5337661389e+00	-1.7982575325e+01
 3.5213917703e+00	 3.5355339059e+00	-4.4150689702e+00
 3.5220988771e+00	 3.5348267991e+00	-5.0526557672e+00
 3.5228059838e+00	 3.5341196923e+00	-5.6495504654e+00
 3.5235130906e+00	 3.5334125856e+00	-6.2057530647e+00
 3.5242201974e+00	 3.5327054788e+00	-6.7212635651e+00
 3.5249273042e+00	 3.5319983720e+00	-7.1960819667e+00
 3.5256344110e+00	 3.5312912652e+00	-7.6302082694e+00
 3.5263415177e+00	 3.5305841584e+00	-8.0236424733e+00
 3.5270486245e+00	 3.5298770517e+00	-8.3763845783e+00
 3.5277557313e+00	 3.5291699449e+00	-8.6884345844e+00
 3.5284628381e+00	 3.5284628381e+00	-8.9597924917e+00
 3.5037141007e+00	 3.5355339059e+00	-2.9175351894e+00
 3.5053050910e+00	 3.5339429156e+00	-3.3403990926e+00
 3.5068960813e+00	 3.5323519254e+00	-3.7363059220e+00
 3.5084870715e+00	 3.5307609351e+00	-4.1052556775e+00
 3.5100780618e+00	 3.5291699449e+00	-4.4472483591e+00
 3.5116690520e+00	 3.5275789546e+00	-4.7622839669e+00
 3.5132600423e+00	 3.5259879644e+00	-5.0503625008e+00
 3.5148510325e+00	 3.5243969741e+00	-5.3114839607e+00
 3.5164420228e+00	 3.5228059838e+00	-5.5456483467e+00
 3.5180330131e+00	 3.5212149936e+00	-5.7528556587e+00
 3.5196240033e+00	 3.5196240033e+00	-5.9331058968e+00
 3.4789653634e+00	 3.5355339059e+00	-2.1722454859e+00
 3.4817937905e+00	 3.5327054788e+00	-2.4883346460e+00
 3.4846222177e+00	 3.5298770517e+00	-2.7840474468e+00
 3.4874506448e+00	 3.5270486245e+00	-3.0593838881e+00
 3.4902790719e+00	 3.5242201974e+00	-3.3143439699e+00
 3.4931074990e+00	 3.5213917703e+00	-3.5489276921e+00
 3.4959359262e+00	 3.5185633432e+00	-3.7631350545e+00
 3.4987643533e+00	 3.5157349160e+00	-3.9569660571e+00
 3.5015927804e+00	 3.5129064889e+00	-4.1304206998e+00
 3.5044212075e+00	 3.5100780618e+00	-4.2834989826e+00
 3.5072496347e+00	 3.5072496347e+00	-4.4162009052e+00
 3.4471455582e+00	 3.5355339059e+00	-1.7263891990e+00
 3.4515649756e+00	 3.5311144885e+00	-1.9785825927e+00
 3.4559843930e+00	 3.5266950711e+00	-2.2142562440e+00
 3.4604038104e+00	 3.5222756538e+00	-2.4334101527e+00
 3.4648232278e+00	 3.5178562364e+00	-2.6360443183e+00
 3.4692426452e+00	 3.5134368190e+00	-2.8221587405e+00
 3.4736620625e+00	 3.5090174016e+00	-2.9917534190e+00
 3.4780814799e+00	 3.5045979842e+00	-3.1448283534e+00
 3.4825008973e+00	 3.5001785668e+00	-3.2813835434e+00
 3.4869203147e+00	 3.4957591495e+00	-3.4014189887e+00
 3.4913397321e+00	 3.4913397321e+00	-3.5049346888e+00
 3.4082546853e+00	 3.5355339059e+00	-1.4298836061e+00
 3.4146186463e+00	 3.5291699449e+00	-1.6395337193e+00
 3.4209826073e+00	 3.5228059838e+00	-1.8351968624e+00
 3.4273465684e+00	 3.5164420228e+00	-2.0168730343e+00
 3.4337105294e+00	 3.5100780618e+00	-2.1845622341e+00
 3.4400744904e+00	 3.5037141007e+00	-2.3382644607e+00
 3.4464384515e+00	 3.4973501397e+00	-2.4779797131e+00
 3.4528024125e+00	 3.4909861787e+00	-2.6037079903e+00
 3.4591663735e+00	 3.4846222177e+00	-2.7154492912e+00
 3.4655303346e+00	 3.4782582566e+00	-2.8132036149e+00
 3.4718942956e+00	 3.4718942956e+00	-2.8969709603e+00
 3.3622927445e+00	 3.5355339059e+00	-1.2186167621e+00
 3.3709548026e+00	 3.5268718478e+00	-1.3978904746e+00
 3.3796168606e+00	 3.5182097898e+00	-1.5649675131e+00
 3.3882789187e+00	 3.5095477317e+00	-1.7198478750e+00
 3.3969409768e+00	 3.5008856736e+00	-1.8625315576e+00
 3.4056030349e+00	 3.4922236156e+00	-1.9930185584e+00
 3.4142650929e+00	 3.4835615575e+00	-2.1113088749e+00
 3.4229271510e+00	 3.4748994994e+00	-2.2174025045e+00
 3.4315892091e+00	 3.4662374413e+00	-2.3112994445e+00
 3.4402512671e+00	 3.4575753833e+00	-2.3929996925e+00
 3.4489133252e+00	 3.4489133252e+00	-2.4625032458e+00
 3.3092597359e+00	 3.5355339059e+00	-1.0606013815e+00
 3.3205734444e+00	 3.5242201974e+00	-1.2170859550e+00
 3.3318871529e+00	 3.5129064889e+00	-1.3627062027e+00
 3.3432008614e+00	 3.5015927804e+00	-1.4974621188e+00
 3.3545145699e+00	 3.4902790719e+00	-1.6213536977e+00
 3.3658282784e+00	 3.4789653634e+00	-1.7343809334e+00
 3.3771419869e+00	 3.4676516549e+00	-1.8365438204e+00
 3.3884556954e+00	 3.4563379464e+00	-1.9278423530e+00
 3.3997694039e+00	 3.4450242379e+00	-2.0083837647e+00
 3.4110831124e+00	 3.4337105294e+00	-2.0783249310e+00
 3.4223968209e+00	 3.4223968209e+00	-2.1373989944e+00
 3.2491556595e+00	 3.5355339059e+00	-9.3809391924e-01
 3.2634745718e+00	 3.5212149936e+00	-1.0768376328e+00
 3.2777934842e+00	 3.5068960813e+00	-1.2057470552e+00
 3.2921123965e+00	 3.4925771689e+00	-1.3248221747e+00
 3.3064313088e+00	 3.4782582566e+00	-1.4340629797e+00
 3.3207502211e+00	 3.4639393443e+00	-1.5334694587e+00
 3.3350691334e+00	 3.4496204320e+00	-1.6230415999e+00
 3.3493880457e+00	 3.4353015197e+00	-1.7032103252e+00
 3.3637069581e+00	 3.4209826073e+00	-1.7735851137e+00
 3.3780258704e+00	 3.4066636950e+00	-1.8341211304e+00
 3.3923447827e+00	 3.3923447827e+00	-1.8848184090e+00
 3.1819805153e+00	 3.5355339059e+00	-8.4046050620e-01
 3.1996581848e+00	 3.5178562364e+00	-9.6499064439e-01
 3.2173358544e+00	 3.5001785668e+00	-1.0805064929e+00
 3.2350135239e+00	 3.4825008973e+00	-1.1870080299e+00
 3.2526911934e+00	 3.4648232278e+00	-1.2844952335e+00
 3.2703688630e+00	 3.4471455583e+00	-1.3730062004e+00
 3.2880465325e+00	 3.4294678887e+00	-1.4530571574e+00
 3.3057242020e+00	 3.4117902192e+00	-1.5240868585e+00
 3.3234018715e+00	 3.3941125497e+00	-1.5860953677e+00
 3.3410795411e+00	 3.3764348801e+00	-1.6390827486e+00
 3.3587572106e+00	 3.3587572106e+00	-1.6830490650e+00
 3.1819805153e+00	 3.5355339059e+00	-8.4046050620e-01
 3.1996581848e+00	 3.5178562364e+00	-9.6499064439e-01
 3.2173358544e+00	 3.5001785668e+00	-1.0805064929e+00
 3.2350135239e+00	 3.4825008973e+00	-1.1870080299e+00
 3.2526911934e+00	 3.4648232278e+00	-1.2844952335e+00
 3.2703688630e+00	 3.4471455583e+00	-1.3730062004e+00
 3.2880465325e+00	 3.4294678887e+00	-1.4530571574e+00
 3.3057242020e+00	 3.4117902192e+00	-1.5240868585e+00
 3.3234018715e+00	 3.3941125497e+00	-1.5860953677e+00
 3.3410795411e+00	 3.3764348801e+00	-1.6390827486e+00
 3.3587572106e+00	 3.3587572106e+00	-1.6830490650e+00
 3.1077343033e+00	 3.5355339059e+00	-7.6871766076e-01
 3.1291242834e+00	 3.5141439258e+00	-8.7665182478e-01
 3.1505142635e+00	 3.4927539456e+00	-9.7682466322e-01
 3.1719042437e+00	 3.4713639655e+00	-1.0692361374e+00
 3.1932942238e+00	 3.4499739854e+00	-1.1538862085e+00
 3.2146842039e+00	 3.4285840052e+00	-1.2314431111e+00
 3.2360741841e+00	 3.4071940251e+00	-1.3012863593e+00
 3.2574641642e+00	 3.3858040450e+00	-1.3633580284e+00
 3.2788541443e+00	 3.3644140648e+00	-1.4176582315e+00
 3.3002441245e+00	 3.3430240847e+00	-1.4641870814e+00
 3.3216341046e+00	 3.3216341046e+00	-1.5029446911e+00
 3.0264170234e+00	 3.5355339059e+00	-7.0426206787e-01
 3.0518728676e+00	 3.5100780618e+00	-8.0007841389e-01
 3.0773287117e+00	 3.4846222177e+00	-8.8897701579e-01
 3.1027845558e+00	 3.4591663735e+00	-9.7095780832e-01
 3.1282403999e+00	 3.4337105294e+00	-1.0465225492e+00
 3.1536962441e+00	 3.4082546853e+00	-1.1155329651e+00
 3.1791520882e+00	 3.3827988412e+00	-1.1776108401e+00
 3.2046079323e+00	 3.3573429970e+00	-1.2327563647e+00
 3.2300637764e+00	 3.3318871529e+00	-1.2809697292e+00
 3.2555196205e+00	 3.3064313088e+00	-1.3222511240e+00
 3.2809754647e+00	 3.2809754647e+00	-1.3566007395e+00
 2.9380286758e+00	 3.5355339059e+00	-6.4628765779e-01
 2.9679039373e+00	 3.5056586444e+00	-7.3327711452e-01
 2.9977791988e+00	 3.4757833829e+00	-8.1370081982e-01
 3.0276544603e+00	 3.4459081214e+00	-8.8786106399e-01
 3.0575297218e+00	 3.4160328599e+00	-9.5662880624e-01
 3.0874049833e+00	 3.3861575984e+00	-1.0190292346e+00
 3.1172802448e+00	 3.3562823369e+00	-1.0750626568e+00
 3.1471555063e+00	 3.3264070754e+00	-1.1247293807e+00
 3.1770307678e+00	 3.2965318139e+00	-1.1680297139e+00
 3.2069060293e+00	 3.2666565523e+00	-1.2049639643e+00
 3.2367812908e+00	 3.2367812908e+00	-1.2355324395e+00
 2.8425692603e+00	 3.5355339059e+00	-5.8734763170e-01
 2.8772174926e+00	 3.5008856736e+00	-6.6983953103e-01
 2.9118657249e+00	 3.4662374413e+00	-7.4637624623e-01
 2.9465139572e+00	 3.4315892091e+00	-8.1712759372e-01
 2.9811621895e+00	 3.3969409768e+00	-8.8034180177e-01
 3.0158104217e+00	 3.3622927445e+00	-9.3756678896e-01
 3.0504586540e+00	 3.3276445122e+00	-9.8880303536e-01
 3.0851068863e+00	 3.2929962799e+00	-1.0340510211e+00
 3.1197551186e+00	 3.2583480477e+00	-1.0733112262e+00
 3.1544033508e+00	 3.2236998154e+00	-1.1065841308e+00
 3.1890515831e+00	 3.1890515831e+00	-1.1338702149e+00
 2.7400387771e+00	 3.5355339059e+00	-5.3327121781e-01
 2.7798135335e+00	 3.4957591495e+00	-6.1080364962e-01
 2.8195882900e+00	 3.4559843930e+00	-6.8263854417e-01
 2.8593630464e+00	 3.4162096366e+00	-7.4992551744e-01
 2.8991378028e+00	 3.3764348801e+00	-8.1175712202e-01
 2.9389125593e+00	 3.3366601237e+00	-8.6785330703e-01
 2.9786873157e+00	 3.2968853672e+00	-9.1536969324e-01
 3.0184620722e+00	 3.2571106108e+00	-9.5699369503e-01
 3.0582368286e+00	 3.2173358544e+00	-9.9287759038e-01
 3.0980115850e+00	 3.1775610979e+00	-1.0230221055e+00
 3.1377863415e+00	 3.1377863415e+00	-1.0474279668e+00
 2.6304372260e+00	 3.5355339059e+00	-4.8344578563e-01
 2.6756920600e+00	 3.4902790719e+00	-5.5718674737e-01
 2.7209468940e+00	 3.4450242379e+00	-6.2551606870e-01
 2.7662017280e+00	 3.3997694039e+00	-6.8983294453e-01
 2.8114565620e+00	 3.3545145699e+00	-7.4856987182e-01
 2.8567113960e+00	 3.3092597359e+00	-8.0172685057e-01
 2.9019662300e+00	 3.2640049019e+00	-8.4930388077e-01
 2.9472210640e+00	 3.2187500679e+00	-8.9082915206e-01
 2.9924758980e+00	 3.1734952339e+00	-9.2385104557e-01
 3.0377307319e+00	 3.1282403999e+00	-9.5128819356e-01
 3.0829855659e+00	 3.0829855659e+00	-9.7314166577e-01
 2.5137646071e+00	 3.5355339059e+00	-4.3733327013e-01
 2.5648530721e+00	 3.4844454410e+00	-5.0816058098e-01
 2.6159415370e+00	 3.4333569760e+00	-5.7411294586e-01
 2.6670300019e+00	 3.3822685111e+00	-6.3594176051e-01
 2.7181184669e+00	 3.3311800461e+00	-6.9227849990e-01
 2.7692069318e+00	 3.2800915812e+00	-7.4312316404e-01
 2.8202953967e+00	 3.2290031162e+00	-7.8847575292e-01
 2.8713838617e+00	 3.1779146513e+00	-8.2833626654e-01
 2.9224723266e+00	 3.1268261864e+00	-8.6270470491e-01
 2.9735607916e+00	 3.0757377214e+00	-8.8914702841e-01
 3.0246492565e+00	 3.0246492565e+00	-9.0871763932e-01
 2.3900209204e+00	 3.5355339059e+00	-3.9446960060e-01
 2.4472965697e+00	 3.4782582566e+00	-4.6305328537e-01
 2.5045722190e+00	 3.4209826073e+00	-5.2728831784e-01
 2.5618478682e+00	 3.3637069581e+00	-5.8721923358e-01
 2.6191235175e+00	 3.3064313088e+00	-6.4169614480e-01
 2.6763991668e+00	 3.2491556595e+00	-6.9071905148e-01
 2.7336748161e+00	 3.1918800102e+00	-7.3428795364e-01
 2.7909504653e+00	 3.1346043610e+00	-7.7240285128e-01
 2.8482261146e+00	 3.0773287117e+00	-8.0506374438e-01
 2.9055017639e+00	 3.0200530624e+00	-8.3227063295e-01
 2.9627774131e+00	 2.9627774131e+00	-8.5240473830e-01
 2.2592061659e+00	 3.5355339059e+00	-3.5445839330e-01
 2.3230225529e+00	 3.4717175189e+00	-4.2131699023e-01
 2.3868389399e+00	 3.4079011319e+00	-4.8435612904e-01
 2.4506553269e+00	 3.3440847449e+00	-5.4285300786e-01
 2.5144717139e+00	 3.2802683579e+00	-5.9589668385e-01
 2.5782881009e+00	 3.2164519709e+00	-6.4348715701e-01
 2.6421044879e+00	 3.1526355839e+00	-6.8562442733e-01
 2.7059208749e+00	 3.0888191969e+00	-7.2230849482e-01
 2.7697372619e+00	 3.0250028099e+00	-7.5353935948e-01
 2.8335536489e+00	 2.9611864229e+00	-7.7931702130e-01
 2.8973700359e+00	 2.8973700359e+00	-7.9964148028e-01
 2.1213203436e+00	 3.5355339059e+00	-3.1696288305e-01
 2.1920310217e+00	 3.4648232278e+00	-3.8250277947e-01
 2.2627416998e+00	 3.3941125497e+00	-4.4476465228e-01
 2.3334523780e+00	 3.3234018715e+00	-5.0219698124e-01
 2.4041630561e+00	 3.2526911934e+00	-5.5414856394e-01
 2.4748737342e+00	 3.1819805153e+00	-6.0061940036e-01
 2.5455844123e+00	 3.1112698372e+00	-6.4160949051e-01
 2.6162950904e+00	 3.0405591591e+00	-6.7711883438e-01
 2.6870057685e+00	 2.9698484809e+00	-7.0714743198e-01
 2.7577164466e+00	 2.8991378028e+00	-7.3169528331e-01
 2.8284271247e+00	 2.8284271247e+00	-7.5076238837e-01
 3.5355339059e+00	 3.5355339059e+00	 2.6546660279e-02
 3.5355339059e+00	 3.5355339059e+00	 2.6546660279e-02
 3.5355339059e+00	 3.5355339059e+00	 2.6546660279e-02
 3.5355339059e+00	 3.5355339059e+00	 2.6546660279e-02
 3.5355339059e+00	 3.5355339059e+00	 2.6546660279e-02
 3.5355339059e+00	 3.5355339059e+00	 2.6546660279e-02
 3.5355339059e+00	 3.5355339059e+00	 2.6546660279e-02
 3.5355339059e+00	 3.5355339059e+00	 2.6546660279e-02
 3.5355339059e+00	 3.5355339059e+00	 2.6546660279e-02
 3.5355339059e+00	 3.5355339059e+00	 2.6546660279e-02
 3.5355339059e+00	 3.5355339059e+00	 2.6546660279e-02
 3.5337661389e+00	 3.5337661389e+00	 1.1788268242e+01
 3.5339429156e+00	 3.5335893623e+00	 1.2441139666e+01
 3.5341196923e+00	 3.5334125856e+00	 1.2749694530e+01
 3.5342964690e+00	 3.5332358089e+00	 1.2713932835e+01
 3.5344732457e+00	 3.5330590322e+00	 1.2333854579e+01
 3.5346500224e+00	 3.5328822555e+00	 1.1609459763e+01
 3.5348267991e+00	 3.5327054788e+00	 1.0540748388e+01
 3.5350035758e+00	 3.5325287021e+00	 9.1277204520e+00
 3.5351803525e+00	 3.5323519254e+00	 7.3703759563e+00
 3.5353571292e+00	 3.5321751487e+00	 5.2687149005e+00
 3.5355339059e+00	 3.5319983720e+00	 2.8227372847e+00
 3.5284628381e+00	 3.5284628381e+00	 5.8944743439e+00
 3.5291699449e+00	 3.5277557313e+00	 6.2156838652e+00
 3.5298770517e+00	 3.5270486245e+00	 6.3651576502e+00
 3.5305841584e+00	 3.5263415177e+00	 6.3428956988e+00
 3.5312912652e+00	 3.5256344110e+00	 6.1488980110e+00
 3.5319983720e+00	 3.5249273042e+00	 5.7831645869e+00
 3.5327054788e+00	 3.5242201974e+00	 5.2456954265e+00
 3.5334125856e+00	 3.5235130906e+00	 4.5364905297e+00
 3.5341196923e+00	 3.5228059838e+00	 3.6555498966e+00
 3.5348267991e+00	 3.5220988771e+00	 2.6028735271e+00
 3.5355339059e+00	 3.5213917703e+00	 1.3784614212e+00
 3.5196240033e+00	 3.5196240033e+00	 3.9096900382e+00
 3.5212149936e+00	 3.5180330131e+00	 4.1232096529e+00
 3.5228059838e+00	 3.5164420228e+00	 4.2219950190e+00
 3.5243969741e+00	 3.5148510325e+00	 4.2060461367e+00
 3.5259879644e+00	 3.5132600423e+00	 4.0753630060e+00
 3.5275789546e+00	 3.5116690520e+00	 3.8299456268e+00
 3.5291699449e+00	 3.5100780618e+00	 3.4697939993e+00
 3.5307609351e+00	 3.5084870715e+00	 2.9949081233e+00
 3.5323519254e+00	 3.5068960813e+00	 2.4052879990e+00
 3.5339429156e+00	 3.5053050910e+00	 1.7009336264e+00
 3.5355339059e+00	 3.5037141007e+00	 8.8184500537e-01
 3.5072496347e+00	 3.5072496347e+00	 2.9134948314e+00
 3.5100780618e+00	 3.5044212075e+00	 3.0737276718e+00
 3.5129064889e+00	 3.5015927804e+00	 3.1476285082e+00
 3.5157349160e+00	 3.4987643533e+00	 3.1351973405e+00
 3.5185633432e+00	 3.4959359262e+00	 3.0364341690e+00
 3.5213917703e+00	 3.4931074990e+00	 2.8513389936e+00
 3.5242201974e+00	 3.4902790719e+00	 2.5799118145e+00
 3.5270486245e+00	 3.4874506448e+00	 2.2221526317e+00
 3.5298770517e+00	 3.4846222177e+00	 1.7780614454e+00
 3.5327054788e+00	 3.4817937905e+00	 1.2476382557e+00
 3.5355339059e+00	 3.4789653634e+00	 6.3088306257e-01
 3.4913397321e+00	 3.4913397321e+00	 2.3145442094e+00
 3.4957591495e+00	 3.4869203147e+00	 2.4430026400e+00
 3.5001785668e+00	 3.4825008973e+00	 2.5021389315e+00
 3.5045979842e+00	 3.4780814799e+00	 2.4919530843e+00
 3.5090174016e+00	 3.4736620625e+00	 2.4124450985e+00
 3.5134368190e+00	 3.4692426452e+00	 2.2636149747e+00
 3.5178562364e+00	 3.4648232278e+00	 2.0454627131e+00
 3.5222756538e+00	 3.4604038104e+00	 1.7579883141e+00
 3.5266950711e+00	 3.4559843930e+00	 1.4011917780e+00
 3.5311144885e+00	 3.4515649756e+00	 9.7507310511e-01
 3.5355339059e+00	 3.4471455582e+00	 4.7959587325e-01
 3.4718942956e+00	 3.4718942956e+00	 1.9147147459e+00
 3.4782582566e+00	 3.4655303346e+00	 2.0220896734e+00
 3.4846222177e+00	 3.4591663735e+00	 2.0714693095e+00
 3.4909861787e+00	 3.4528024125e+00	 2.0628536552e+00
 3.4973501397e+00	 3.4464384515e+00	 1.9961831135e+00
 3.5037141007e+00	 3.4400744904e+00	 1.8713710083e+00
 3.5100780618e+00	 3.4337105294e+00	 1.6885644628e+00
 3.5164420228e+00	 3.4273465684e+00	 1.4477634741e+00
 3.5228059838e+00	 3.4209826073e+00	 1.1489680393e+00
 3.5291699449e+00	 3.4146186463e+00	 7.9217815521e-01
 3.5355339059e+00	 3.4082546853e+00	 3.7739381902e-01
 3.4489133252e+00	 3.4489133252e+00	 1.6288492171e+00
 3.4575753833e+00	 3.4402512671e+00	 1.7209667896e+00
 3.4662374413e+00	 3.4315892091e+00	 1.7631540801e+00
 3.4748994994e+00	 3.4229271510e+00	 1.7554319403e+00
 3.4835615575e+00	 3.4142650929e+00	 1.6978003625e+00
 3.4922236156e+00	 3.4056030349e+00	 1.5902593393e+00
 3.5008856736e+00	 3.3969409768e+00	 1.4328088633e+00
 3.5095477317e+00	 3.3882789187e+00	 1.2254489268e+00
 3.5182097898e+00	 3.3796168606e+00	 9.6817952238e-01
 3.5268718478e+00	 3.3709548026e+00	 6.6100064259e-01
 3.5355339059e+00	 3.3622927445e+00	 3.0391227989e-01
 3.4223968209e+00	 3.4223968209e+00	 1.4134405095e+00
 3.4337105294e+00	 3.4110831124e+00	 1.4942564963e+00
 3.4450242379e+00	 3.3997694039e+00	 1.5312240025e+00
 3.4563379464e+00	 3.3884556954e+00	 1.5243430116e+00
 3.4676516549e+00	 3.3771419869e+00	 1.4736135068e+00
 3.4789653634e+00	 3.3658282784e+00	 1.3790354713e+00
 3.4902790719e+00	 3.3545145699e+00	 1.2406088885e+00
 3.5015927804e+00	 3.3432008614e+00	 1.0583337416e+00
 3.5129064889e+00	 3.3318871529e+00	 8.3221001403e-01
 3.5242201974e+00	 3.3205734444e+00	 5.6223768893e-01
 3.5355339059e+00	 3.3092597359e+00	 2.4841674964e-01
 3.3923447827e+00	 3.3923447827e+00	 1.2454662590e+00
 3.4066636950e+00	 3.3780258704e+00	 1.3175227199e+00
 3.4209826073e+00	 3.3637069581e+00	 1.3504436046e+00
 3.4353015197e+00	 3.3493880457e+00	 1.3442288793e+00
 3.4496204320e+00	 3.3350691334e+00	 1.2988785101e+00
 3.4639393443e+00	 3.3207502211e+00	 1.2143924631e+00
 3.4782582566e+00	 3.3064313088e+00	 1.0907707043e+00
 3.4925771689e+00	 3.2921123965e+00	 9.2801319999e-01
 3.5068960813e+00	 3.2777934842e+00	 7.2611991620e-01
 3.5212149936e+00	 3.2634745718e+00	 4.8509081906e-01
 3.5355339059e+00	 3.2491556595e+00	 2.0492587467e-01
 3.3587572106e+00	 3.3587572106e+00	 1.1106935376e+00
 3.3764348801e+00	 3.3410795411e+00	 1.1757539400e+00
 3.3941125497e+00	 3.3234018715e+00	 1.2054489385e+00
 3.4117902192e+00	 3.3057242020e+00	 1.1997784695e+00
 3.4294678887e+00	 3.2880465325e+00	 1.1587424691e+00
 3.4471455582e+00	 3.2703688629e+00	 1.0823408735e+00
 3.4648232278e+00	 3.2526911934e+00	 9.7057361916e-01
 3.4825008973e+00	 3.2350135239e+00	 8.2344064214e-01
 3.5001785668e+00	 3.2173358544e+00	 6.4094187873e-01
 3.5178562364e+00	 3.1996581848e+00	 4.2307726517e-01
 3.5355339059e+00	 3.1819805153e+00	 1.6984673770e-01
 3.3587572106e+00	 3.3587572106e+00	 1.1106935376e+00
 3.3764348801e+00	 3.3410795411e+00	 1.1757539400e+00
 3.3941125497e+00	 3.3234018715e+00	 1.2054489385e+00
 3.4117902192e+00	 3.3057242020e+00	 1.1997784695e+00
 3.4294678887e+00	 3.2880465325e+00	 1.1587424691e+00
 3.4471455582e+00	 3.2703688629e+00	 1.0823408735e+00
 3.4648232278e+00	 3.2526911934e+00	 9.7057361916e-01
 3.4825008973e+00	 3.2350135239e+00	 8.2344064214e-01
 3.5001785668e+00	 3.2173358544e+00	 6.4094187873e-01
 3.5178562364e+00	 3.1996581848e+00	 4.2307726517e-01
 3.5355339059e+00	 3.1819805153e+00	 1.6984673770e-01
 3.3216341046e+00	 3.3216341046e+00	 9.9278847498e-01
 3.3430240847e+00	 3.3002441245e+00	 1.0511880876e+00
 3.3644140648e+00	 3.2788541443e+00	 1.0782231729e+00
 3.3858040450e+00	 3.2574641642e+00	 1.0738936179e+00
 3.4071940251e+00	 3.2360741841e+00	 1.0381993097e+00
 3.4285840052e+00	 3.2146842039e+00	 9.7114013535e-01
 3.4499739854e+00	 3.1932942238e+00	 8.7271598182e-01
 3.4713639655e+00	 3.1719042437e+00	 7.4292673618e-01
 3.4927539456e+00	 3.1505142635e+00	 5.8177228548e-01
 3.5141439258e+00	 3.1291242834e+00	 3.8925251676e-01
 3.5355339059e+00	 3.1077343033e+00	 1.6536731708e-01
 3.2809754647e+00	 3.2809754647e+00	 8.9916376646e-01
 3.3064313088e+00	 3.2555196205e+00	 9.5097974973e-01
 3.3318871529e+00	 3.2300637764e+00	 9.7445550713e-01
 3.3573429970e+00	 3.2046079323e+00	 9.6959084827e-01
 3.3827988412e+00	 3.1791520882e+00	 9.3638558275e-01
 3.4082546853e+00	 3.1536962441e+00	 8.7483952018e-01
 3.4337105294e+00	 3.1282403999e+00	 7.8495247018e-01
 3.4591663735e+00	 3.1027845558e+00	 6.6672424235e-01
 3.4846222177e+00	 3.0773287117e+00	 5.2015464631e-01
 3.5100780618e+00	 3.0518728676e+00	 3.4524349167e-01
 3.5355339059e+00	 3.0264170234e+00	 1.4199058805e-01
 3.2367812908e+00	 3.2367812908e+00	 8.2312665835e-01
 3.2666565523e+00	 3.2069060293e+00	 8.6864265355e-01
 3.2965318139e+00	 3.1770307678e+00	 8.8815828037e-01
 3.3264070754e+00	 3.1471555063e+00	 8.8167323105e-01
 3.3562823369e+00	 3.1172802448e+00	 8.4918719783e-01
 3.3861575984e+00	 3.0874049833e+00	 7.9069987294e-01
 3.4160328599e+00	 3.0575297218e+00	 7.0621094863e-01
 3.4459081214e+00	 3.0276544603e+00	 5.9572011713e-01
 3.4757833829e+00	 2.9977791988e+00	 4.5922707068e-01
 3.5056586444e+00	 2.9679039373e+00	 2.9673150152e-01
 3.5355339059e+00	 2.9380286758e+00	 1.0823310189e-01
 3.1890515831e+00	 3.1890515831e+00	 7.6017881137e-01
 3.2236998154e+00	 3.1544033508e+00	 7.9976763816e-01
 3.2583480477e+00	 3.1197551186e+00	 8.1520262386e-01
 3.2929962799e+00	 3.0851068863e+00	 8.0648328836e-01
 3.3276445122e+00	 3.0504586540e+00	 7.7360915159e-01
 3.3622927445e+00	 3.0158104217e+00	 7.1657973345e-01
 3.3969409768e+00	 2.9811621895e+00	 6.3539455385e-01
 3.4315892091e+00	 2.9465139572e+00	 5.3005313271e-01
 3.4662374413e+00	 2.9118657249e+00	 4.0055498994e-01
 3.5008856736e+00	 2.8772174926e+00	 2.4689964544e-01
 3.5355339059e+00	 2.8425692603e+00	 6.9086619138e-02
 3.1377863415e+00	 3.1377863415e+00	 7.0719760511e-01
 3.1775610979e+00	 3.0980115850e+00	 7.4126141522e-01
 3.2173358544e+00	 3.0582368286e+00	 7.5265382384e-01
 3.2571106108e+00	 3.0184620722e+00	 7.4137410472e-01
 3.2968853672e+00	 2.9786873157e+00	 7.0742153157e-01
 3.3366601237e+00	 2.9389125593e+00	 6.5079537812e-01
 3.3764348801e+00	 2.8991378028e+00	 5.7149491810e-01
 3.4162096366e+00	 2.8593630464e+00	 4.6951942523e-01
 3.4559843930e+00	 2.8195882900e+00	 3.4486817323e-01
 3.4957591495e+00	 2.7798135335e+00	 1.9754043584e-01
 3.5355339059e+00	 2.7400387771e+00	 2.7535486775e-02
 3.0829855659e+00	 3.0829855659e+00	 6.6195529182e-01
 3.1282403999e+00	 3.0377307319e+00	 6.9089520321e-01
 3.1734952339e+00	 2.9924758980e+00	 6.9837197617e-01
 3.2187500679e+00	 2.9472210640e+00	 6.8438454098e-01
 3.2640049019e+00	 2.9019662300e+00	 6.4893182792e-01
 3.3092597359e+00	 2.8567113960e+00	 5.9201276726e-01
 3.3545145699e+00	 2.8114565620e+00	 5.1362628926e-01
 3.3997694039e+00	 2.7662017280e+00	 4.1377132422e-01
 3.4450242379e+00	 2.7209468940e+00	 2.9244680239e-01
 3.4902790719e+00	 2.6756920600e+00	 1.4965165405e-01
 3.5355339059e+00	 2.6304372260e+00	-1.4615190520e-02
 3.0246492565e+00	 3.0246492565e+00	 6.2282496112e-01
 3.0757377214e+00	 2.9735607916e+00	 6.4702620993e-01
 3.1268261864e+00	 2.9224723266e+00	 6.5076250359e-01
 3.1779146513e+00	 2.8713838617e+00	 6.3403230307e-01
 3.2290031162e+00	 2.8202953967e+00	 5.9683406935e-01
 3.2800915812e+00	 2.7692069318e+00	 5.3916626339e-01
 3.3311800461e+00	 2.7181184669e+00	 4.6102734617e-01
 3.3822685111e+00	 2.6670300019e+00	 3.6241577867e-01
 3.4333569760e+00	 2.6159415370e+00	 2.4333002185e-01
 3.4844454410e+00	 2.5648530721e+00	 1.0376853669e-01
 3.5355339059e+00	 2.5137646071e+00	-5.6270215836e-02
 2.9627774131e+00	 2.9627774131e+00	 5.8859441243e-01
 3.0200530624e+00	 2.9055017639e+00	 6.0841979822e-01
 3.0773287117e+00	 2.8482261146e+00	 6.0861500959e-01
 3.1346043610e+00	 2.7909504653e+00	 5.8917787792e-01
 3.1918800102e+00	 2.7336748161e+00	 5.5010623455e-01
 3.2491556595e+00	 2.6763991668e+00	 4.9139791085e-01
 3.3064313088e+00	 2.6191235175e+00	 4.1305073817e-01
 3.3637069581e+00	 2.5618478682e+00	 3.1506254788e-01
 3.4209826073e+00	 2.5045722190e+00	 1.9743117133e-01
 3.4782582566e+00	 2.4472965697e+00	 6.0154439872e-02
 3.5355339059e+00	 2.3900209204e+00	-9.6769815125e-02
 2.8973700359e+00	 2.8973700359e+00	 5.6154566950e-01
 2.9611864229e+00	 2.8335536489e+00	 5.7413252990e-01
 3.0250028099e+00	 2.7697372619e+00	 5.7099614481e-01
 3.0888191969e+00	 2.7059208749e+00	 5.4893259578e-01
 3.1526355839e+00	 2.6421044879e+00	 5.0793888312e-01
 3.2164519709e+00	 2.5782881009e+00	 4.4801200716e-01
 3.2802683579e+00	 2.5144717139e+00	 3.6914896822e-01
 3.3440847449e+00	 2.4506553269e+00	 2.7134676664e-01
 3.4079011319e+00	 2.3868389399e+00	 1.5460240272e-01
 3.4717175189e+00	 2.3230225529e+00	 1.8912876803e-02
 3.5355339059e+00	 2.2592061659e+00	-1.3572481079e-01
 2.8284271247e+00	 2.8284271247e+00	 5.3956341220e-01
 2.8991378028e+00	 2.7577164466e+00	 5.4647597302e-01
 2.9698484809e+00	 2.6870057685e+00	 5.3717656937e-01
 3.0405591591e+00	 2.6162950904e+00	 5.1259501616e-01
 3.1112698372e+00	 2.5455844123e+00	 4.6968449658e-01
 3.1819805153e+00	 2.4748737342e+00	 4.0844092995e-01
 3.2526911934e+00	 2.4041630561e+00	 3.2886023559e-01
 3.3234018715e+00	 2.3334523780e+00	 2.3093833281e-01
 3.3941125497e+00	 2.2627416998e+00	 1.1467114095e-01
 3.4648232278e+00	 2.1920310217e+00	-1.9945420688e-02
 3.5355339059e+00	 2.1213203436e+00	-1.7291543278e-01
 3.5355339059e+00	 3.5355339059e+00	 2.6546660279e-02
 3.5355339059e+00	 3.5355339059e+00	 2.6546660279e-02
 3.5355339059e+00	 3.5355339059e+00	 2.6546660279e-02
 3.5355339059e+00	 3.5355339059e+00	 2.6546660279e-02
 3.5355339059e+00	 3.5355339059e+00	 2.6546660279e-02
 3.5355339059e+00	 3.5355339059e+00	 2.6546660279e-02
 3.5355339059e+00	 3.5355339059e+00	 2.6546660279e-02
 3.5355339059e+00	 3.5355339059e+00	 2.6546660279e-02
 3.5355339059e+00	 3.5355339059e+00	 2.6546660279e-02
 3.5355339059e+00	 3.5355339059e+00	 2.6546660279e-02
 3.5355339059e+00	 3.5355339059e+00	 2.6546660279e-02
 3.5355339059e+00	 3.5319983720e+00	 4.1117965961e+00
 3.5357106826e+00	 3.5321751487e+00	 4.9318080331e+00
 3.5358874593e+00	 3.5323519254e+00	 5.6748465423e+00
 3.5360642360e+00	 3.5325287021e+00	 6.3409121239e+00
 3.5362410127e+00	 3.5327054788e+00	 6.9300047777e+00
 3.5364177894e+00	 3.5328822555e+00	 7.4421245039e+00
 3.5365945661e+00	 3.5330590322e+00	 7.8772713023e+00
 3.5367713428e+00	 3.5332358089e+00	 8.2354451730e+00
 3.5369481195e+00	 3.5334125856e+00	 8.5166461159e+00
 3.5371248962e+00	 3.5335893623e+00	 8.7208741312e+00
 3.5373016729e+00	 3.5337661389e+00	 8.8481292188e+00
 3.5355339059e+00	 3.5213917703e+00	 1.9405306927e+00
 3.5362410127e+00	 3.5220988771e+00	 2.3568493815e+00
 3.5369481195e+00	 3.5228059838e+00	 2.7353899893e+00
 3.5376552262e+00	 3.5235130906e+00	 3.0761525158e+00
 3.5383623330e+00	 3.5242201974e+00	 3.3791369612e+00
 3.5390694398e+00	 3.5249273042e+00	 3.6443433254e+00
 3.5397765466e+00	 3.5256344110e+00	 3.8717716085e+00
 3.5404836534e+00	 3.5263415177e+00	 4.0614218104e+00
 3.5411907601e+00	 3.5270486245e+00	 4.2132939312e+00
 3.5418978669e+00	 3.5277557313e+00	 4.3273879708e+00
 3.5426049737e+00	 3.5284628381e+00	 4.4037039292e+00
 3.5355339059e+00	 3.5037141007e+00	 1.2944140457e+00
 3.5371248962e+00	 3.5053050910e+00	 1.5666778202e+00
 3.5387158864e+00	 3.5068960813e+00	 1.8141752441e+00
 3.5403068767e+00	 3.5084870715e+00	 2.0369063175e+00
 3.5418978669e+00	 3.5100780618e+00	 2.2348710403e+00
 3.5434888572e+00	 3.5116690520e+00	 2.4080694126e+00
 3.5450798474e+00	 3.5132600423e+00	 2.5565014344e+00
 3.5466708377e+00	 3.5148510325e+00	 2.6801671056e+00
 3.5482618280e+00	 3.5164420228e+00	 2.7790664262e+00
 3.5498528182e+00	 3.5180330131e+00	 2.8531993963e+00
 3.5514438085e+00	 3.5196240033e+00	 2.9025660159e+00
 3.5355339059e+00	 3.4789653634e+00	 9.8610757159e-01
 3.5383623330e+00	 3.4817937905e+00	 1.1845661530e+00
 3.5411907601e+00	 3.4846222177e+00	 1.3647542630e+00
 3.5440191873e+00	 3.4874506448e+00	 1.5266719016e+00
 3.5468476144e+00	 3.4902790719e+00	 1.6703190688e+00
 3.5496760415e+00	 3.4931074990e+00	 1.7956957645e+00
 3.5525044686e+00	 3.4959359262e+00	 1.9028019888e+00
 3.5553328958e+00	 3.4987643533e+00	 1.9916377417e+00
 3.5581613229e+00	 3.5015927804e+00	 2.0622030230e+00
 3.5609897500e+00	 3.5044212075e+00	 2.1144978328e+00
 3.5638181771e+00	 3.5072496347e+00	 2.1485221711e+00
 3.5355339059e+00	 3.4471455582e+00	 8.0598345038e-01
 3.5399533233e+00	 3.4515649756e+00	 9.5962803814e-01
 3.5443727407e+00	 3.4559843930e+00	 1.0988600508e+00
 3.5487921580e+00	 3.4604038104e+00	 1.2237159110e+00
 3.5532115754e+00	 3.4648232278e+00	 1.3341956185e+00
 3.5576309928e+00	 3.4692426452e+00	 1.4302991734e+00
 3.5620504102e+00	 3.4736620625e+00	 1.5120265755e+00
 3.5664698276e+00	 3.4780814799e+00	 1.5793778248e+00
 3.5708892450e+00	 3.4825008973e+00	 1.6323529212e+00
 3.5753086623e+00	 3.4869203147e+00	 1.6709518647e+00
 3.5797280797e+00	 3.4913397321e+00	 1.6951746551e+00
 3.5355339059e+00	 3.4082546853e+00	 6.8687751946e-01
 3.5418978669e+00	 3.4146186463e+00	 8.1055449559e-01
 3.5482618280e+00	 3.4209826073e+00	 9.2245011703e-01
 3.5546257890e+00	 3.4273465684e+00	 1.0225643797e+00
 3.5609897500e+00	 3.4337105294e+00	 1.1108972796e+00
 3.5673537111e+00	 3.4400744904e+00	 1.1874488127e+00
 3.5737176721e+00	 3.4464384515e+00	 1.2522189748e+00
 3.5800816331e+00	 3.4528024125e+00	 1.3050629184e+00
 3.5864455941e+00	 3.4591663735e+00	 1.3460667589e+00
 3.5928095552e+00	 3.4655303346e+00	 1.3752893021e+00
 3.5991735162e+00	 3.4718942956e+00	 1.3927305479e+00
 3.5355339059e+00	 3.3622927445e+00	 6.0245847390e-01
 3.5441959640e+00	 3.3709548026e+00	 7.0456845935e-01
 3.5528580220e+00	 3.3796168606e+00	 7.9674985138e-01
 3.5615200801e+00	 3.3882789187e+00	 8.7900263975e-01
 3.5701821382e+00	 3.3969409768e+00	 9.5132681422e-01
 3.5788441962e+00	 3.4056030349e+00	 1.0137223646e+00
 3.5875062543e+00	 3.4142650929e+00	 1.0661892805e+00
 3.5961683124e+00	 3.4229271510e+00	 1.1087275519e+00
 3.6048303705e+00	 3.4315892091e+00	 1.1413371684e+00
 3.6134924285e+00	 3.4402512671e+00	 1.1640181199e+00
 3.6221544866e+00	 3.4489133252e+00	 1.1767501609e+00
 3.5355339059e+00	 3.3092597359e+00	 5.3938144184e-01
 3.5468476144e+00	 3.3205734444e+00	 6.2528292373e-01
 3.5581613229e+00	 3.3318871529e+00	 7.0264499571e-01
 3.5694750314e+00	 3.3432008614e+00	 7.7146763497e-01
 3.5807887399e+00	 3.3545145699e+00	 8.3175081870e-01
 3.5921024484e+00	 3.3658282784e+00	 8.8349452409e-01
 3.6034161569e+00	 3.3771419869e+00	 9.2669872833e-01
 3.6147298654e+00	 3.3884556954e+00	 9.6136340861e-01
 3.6260435739e+00	 3.3997694039e+00	 9.8748854213e-01
 3.6373572824e+00	 3.4110831124e+00	 1.0050741061e+00
 3.6486709909e+00	 3.4223968209e+00	 1.0141200776e+00
 3.5355339059e+00	 3.2491556595e+00	 4.9036221538e-01
 3.5498528182e+00	 3.2634745718e+00	 5.6364930446e-01
 3.5641717305e+00	 3.2777934842e+00	 6.2947724333e-01
 3.5784906429e+00	 3.2921123965e+00	 6.8784598577e-01
 3.5928095552e+00	 3.3064313088e+00	 7.3875548552e-01
 3.6071284675e+00	 3.3207502211e+00	 7.8220569635e-01
 3.6214473798e+00	 3.3350691334e+00	 8.1819657201e-01
 3.6357662921e+00	 3.3493880457e+00	 8.4672806627e-01
 3.6500852045e+00	 3.3637069581e+00	 8.6780013287e-01
 3.6644041168e+00	 3.3780258704e+00	 8.8141272558e-01
 3.6787230291e+00	 3.3923447827e+00	 8.8756579816e-01
 3.5355339059e+00	 3.1819805153e+00	 4.5109247168e-01
 3.5532115754e+00	 3.1996581848e+00	 5.1429345712e-01
 3.5708892450e+00	 3.2173358544e+00	 5.7089941260e-01
 3.5885669145e+00	 3.2350135239e+00	 6.2091025113e-01
 3.6062445840e+00	 3.2526911934e+00	 6.6432588567e-01
 3.6239222536e+00	 3.2703688630e+00	 7.0114622923e-01
 3.6415999231e+00	 3.2880465325e+00	 7.3137119479e-01
 3.6592775926e+00	 3.3057242020e+00	 7.5500069534e-01
 3.6769552621e+00	 3.3234018715e+00	 7.7203464386e-01
 3.6946329317e+00	 3.3410795411e+00	 7.8247295334e-01
 3.7123106012e+00	 3.3587572106e+00	 7.8631553677e-01
 3.5355339059e+00	 3.1819805153e+00	 4.5109247168e-01
 3.5532115754e+00	 3.1996581848e+00	 5.1429345712e-01
 3.5708892450e+00	 3.2173358544e+00	 5.7089941260e-01
 3.5885669145e+00	 3.2350135239e+00	 6.2091025113e-01
 3.6062445840e+00	 3.2526911934e+00	 6.6432588567e-01
 3.6239222536e+00	 3.2703688630e+00	 7.0114622923e-01
 3.6415999231e+00	 3.2880465325e+00	 7.3137119479e-01
 3.6592775926e+00	 3.3057242020e+00	 7.5500069534e-01
 3.6769552621e+00	 3.3234018715e+00	 7.7203464386e-01
 3.6946329317e+00	 3.3410795411e+00	 7.8247295334e-01
 3.7123106012e+00	 3.3587572106e+00	 7.8631553677e-01
 3.5355339059e+00	 3.1077343033e+00	 3.9400662141e-01
 3.5569238860e+00	 3.1291242834e+00	 4.4830315419e-01
 3.5783138662e+00	 3.1505142635e+00	 4.9718877425e-01
 3.5997038463e+00	 3.1719042437e+00	 5.4066332744e-01
 3.6210938264e+00	 3.1932942238e+00	 5.7872665961e-01
 3.6424838066e+00	 3.2146842039e+00	 6.1137861662e-01
 3.6638737867e+00	 3.2360741841e+00	 6.3861904432e-01
 3.6852637668e+00	 3.2574641642e+00	 6.6044778855e-01
 3.7066537470e+00	 3.2788541443e+00	 6.7686469518e-01
 3.7280437271e+00	 3.3002441245e+00	 6.8786961004e-01
 3.7494337072e+00	 3.3216341046e+00	 6.9346237900e-01
 3.5355339059e+00	 3.0264170234e+00	 3.3191287423e-01
 3.5609897500e+00	 3.0518728676e+00	 3.8154212003e-01
 3.5864455941e+00	 3.0773287117e+00	 4.2658544474e-01
 3.6119014383e+00	 3.1027845558e+00	 4.6704258853e-01
 3.6373572824e+00	 3.1282403999e+00	 5.0291329158e-01
 3.6628131265e+00	 3.1536962441e+00	 5.3419729409e-01
 3.6882689706e+00	 3.1791520882e+00	 5.6089433622e-01
 3.7137248148e+00	 3.2046079323e+00	 5.8300415816e-01
 3.7391806589e+00	 3.2300637764e+00	 6.0052650009e-01
 3.7646365030e+00	 3.2555196205e+00	 6.1346110220e-01
 3.7900923471e+00	 3.2809754647e+00	 6.2180770466e-01
 3.5355339059e+00	 2.9380286758e+00	 2.6903152531e-01
 3.5654091674e+00	 2.9679039373e+00	 3.1667224569e-01
 3.5952844289e+00	 2.9977791988e+00	 3.6031049940e-01
 3.6251596904e+00	 3.0276544603e+00	 3.9994586647e-01
 3.6550349519e+00	 3.0575297218e+00	 4.3557792689e-01
 3.6849102134e+00	 3.0874049833e+00	 4.6720626066e-01
 3.7147854749e+00	 3.1172802448e+00	 4.9483044781e-01
 3.7446607364e+00	 3.1471555063e+00	 5.1845006832e-01
 3.7745359979e+00	 3.1770307678e+00	 5.3806470222e-01
 3.8044112595e+00	 3.2069060293e+00	 5.5367392950e-01
 3.8342865210e+00	 3.2367812908e+00	 5.6527733017e-01
 3.5355339059e+00	 2.8425692603e+00	 2.0757503172e-01
 3.5701821382e+00	 2.8772174926e+00	 2.5494622567e-01
 3.6048303705e+00	 2.9118657249e+00	 2.9873179441e-01
 3.6394786027e+00	 2.9465139572e+00	 3.3893108277e-01
 3.6741268350e+00	 2.9811621895e+00	 3.7554343558e-01
 3.7087750673e+00	 3.0158104217e+00	 4.0856819769e-01
 3.7434232996e+00	 3.0504586540e+00	 4.3800471392e-01
 3.7780715319e+00	 3.0851068863e+00	 4.6385232911e-01
 3.8127197641e+00	 3.1197551186e+00	 4.8611038809e-01
 3.8473679964e+00	 3.1544033508e+00	 5.0477823571e-01
 3.8820162287e+00	 3.1890515831e+00	 5.1985521678e-01
 3.5355339059e+00	 2.7400387771e+00	 1.4866968738e-01
 3.5753086623e+00	 2.7798135335e+00	 1.9688161080e-01
 3.6150834188e+00	 2.8195882900e+00	 2.4180749275e-01
 3.6548581752e+00	 2.8593630464e+00	 2.8344634212e-01
 3.6946329317e+00	 2.8991378028e+00	 3.2179716776e-01
 3.7344076881e+00	 2.9389125593e+00	 3.5685897854e-01
 3.7741824446e+00	 2.9786873157e+00	 3.8863078334e-01
 3.8139572010e+00	 3.0184620722e+00	 4.1711159103e-01
 3.8537319574e+00	 3.0582368286e+00	 4.4230041048e-01
 3.8935067139e+00	 3.0980115850e+00	 4.6419625056e-01
 3.9332814703e+00	 3.1377863415e+00	 4.8279812014e-01
 3.5355339059e+00	 2.6304372260e+00	 9.2843139032e-02
 3.5807887399e+00	 2.6756920600e+00	 1.4261039519e-01
 3.6260435739e+00	 2.7209468940e+00	 1.8930740945e-01
 3.6712984079e+00	 2.7662017280e+00	 2.3293272198e-01
 3.7165532419e+00	 2.8114565620e+00	 2.7348487294e-01
 3.7618080759e+00	 2.8567113960e+00	 3.1096240251e-01
 3.8070629099e+00	 2.9019662300e+00	 3.4536385086e-01
 3.8523177439e+00	 2.9472210640e+00	 3.7668775815e-01
 3.8975725779e+00	 2.9924758980e+00	 4.0493266455e-01
 3.9428274119e+00	 3.0377307319e+00	 4.3009711023e-01
 3.9880822459e+00	 3.0829855659e+00	 4.5217963536e-01
 3.5355339059e+00	 2.5137646071e+00	 4.0290824152e-02
 3.5866223708e+00	 2.5648530721e+00	 9.2065517891e-02
 3.6377108358e+00	 2.6159415370e+00	 1.4092529462e-01
 3.6887993007e+00	 2.6670300019e+00	 1.8686805407e-01
 3.7398877657e+00	 2.7181184669e+00	 2.2989169596e-01
 3.7909762306e+00	 2.7692069318e+00	 2.6999412002e-01
 3.8420646956e+00	 2.8202953967e+00	 3.0717322596e-01
 3.8931531605e+00	 2.8713838617e+00	 3.4142691353e-01
 3.9442416254e+00	 2.9224723266e+00	 3.7275308243e-01
 3.9953300904e+00	 2.9735607916e+00	 4.0114963239e-01
 4.0464185553e+00	 3.0246492565e+00	 4.2661446315e-01
 3.5355339059e+00	 2.3900209204e+00	-8.9746925671e-03
 3.5928095552e+00	 2.4472965697e+00	 4.5082274869e-02
 3.6500852045e+00	 2.5045722190e+00	 9.6335817026e-02
 3.7073608537e+00	 2.5618478682e+00	 1.4478297441e-01
 3.7646365030e+00	 2.6191235175e+00	 1.9042078752e-01
 3.8219121523e+00	 2.6763991668e+00	 2.3324629686e-01
 3.8791878016e+00	 2.7336748161e+00	 2.7325654294e-01
 3.9364634508e+00	 2.7909504653e+00	 3.1044856626e-01
 3.9937391001e+00	 2.8482261146e+00	 3.4481940733e-01
 4.0510147494e+00	 2.9055017639e+00	 3.7636610664e-01
 4.1082903987e+00	 2.9627774131e+00	 4.0508570471e-01
 3.5355339059e+00	 2.2592061659e+00	-5.5038467797e-02
 3.5993502929e+00	 2.3230225529e+00	 1.4539830537e-03
 3.6631666799e+00	 2.3868389399e+00	 5.5222845436e-02
 3.7269830669e+00	 2.4506553269e+00	 1.0626402576e-01
 3.7907994539e+00	 2.5144717139e+00	 1.5457343044e-01
 3.8546158409e+00	 2.5782881009e+00	 2.0014696587e-01
 3.9184322279e+00	 2.6421044879e+00	 2.4298053848e-01
 3.9822486149e+00	 2.7059208749e+00	 2.8307005468e-01
 4.0460650019e+00	 2.7697372619e+00	 3.2041142086e-01
 4.1098813889e+00	 2.8335536489e+00	 3.5500054345e-01
 4.1736977759e+00	 2.8973700359e+00	 3.8683332884e-01
 3.5355339059e+00	 2.1213203436e+00	-9.8033955541e-02
 3.6062445840e+00	 2.1920310217e+00	-3.9037536361e-02
 3.6769552621e+00	 2.2627416998e+00	 1.7292620573e-02
 3.7476659403e+00	 2.3334523780e+00	 7.0950946445e-02
 3.8183766184e+00	 2.4041630561e+00	 1.2193187244e-01
 3.8890872965e+00	 2.4748737342e+00	 1.7022982975e-01
 3.9597979746e+00	 2.5455844123e+00	 2.1583924956e-01
 4.0305086527e+00	 2.6162950904e+00	 2.5875456304e-01
 4.1012193309e+00	 2.6870057685e+00	 2.9897020140e-01
 4.1719300090e+00	 2.7577164466e+00	 3.3648059582e-01
 4.2426406871e+00	 2.8284271247e+00	 3.7128017748e-01
 3.5355339059e+00	 3.5355339059e+00	 2.6546660279e-02
 3.5355339059e+00	 3.5355339059e+00	 2.6546660279e-02
 3.5355339059e+00	 3.5355339059e+00	 2.6546660279e-02
 3.5355339059e+00	 3.5355339059e+00	 2.6546660279e-02
 3.5355339059e+00	 3.5355339059e+00	 2.6546660279e-02
 3.5355339059e+00	 3.5355339059e+00	 2.6546660279e-02
 3.5355339059e+00	 3.5355339059e+00	 2.6546660279e-02
 3.5355339059e+00	 3.5355339059e+00	 2.6546660279e-02
 3.5355339059e+00	 3.5355339059e+00	 2.6546660279e-02
 3.5355339059e+00	 3.5355339059e+00	 2.6546660279e-02
 3.5355339059e+00	 3.5355339059e+00	 2.6546660279e-02
 3.5373016729e+00	 3.5337661389e+00	 1.1734467268e+01
 3.5374784495e+00	 3.5339429156e+00	 1.2750138371e+01
 3.5376552262e+00	 3.5341196923e+00	 1.3505256050e+01
 3.5378320029e+00	 3.5342964690e+00	 1.3999820304e+01
 3.5380087796e+00	 3.5344732457e+00	 1.4233831135e+01
 3.5381855563e+00	 3.5346500224e+00	 1.4207288542e+01
 3.5383623330e+00	 3.5348267991e+00	 1.3920192524e+01
 3.5385391097e+00	 3.5350035758e+00	 1.3372543083e+01
 3.5387158864e+00	 3.5351803525e+00	 1.2564340217e+01
 3.5388926631e+00	 3.5353571292e+00	 1.1495583928e+01
 3.5390694398e+00	 3.5355339059e+00	 1.0166274214e+01
 3.5426049737e+00	 3.5284628381e+00	 5.8987569860e+00
 3.5433120805e+00	 3.5291699449e+00	 6.3914003715e+00
 3.5440191873e+00	 3.5298770517e+00	 6.7543219488e+00
 3.5447262941e+00	 3.5305841584e+00	 6.9875217179e+00
 3.5454334008e+00	 3.5312912652e+00	 7.0909996787e+00
 3.5461405076e+00	 3.5319983720e+00	 7.0647558313e+00
 3.5468476144e+00	 3.5327054788e+00	 6.9087901757e+00
 3.5475547212e+00	 3.5334125856e+00	 6.6231027118e+00
 3.5482618280e+00	 3.5341196923e+00	 6.2076934398e+00
 3.5489689347e+00	 3.5348267991e+00	 5.6625623595e+00
 3.5496760415e+00	 3.5355339059e+00	 4.9877094710e+00
 3.5514438085e+00	 3.5196240033e+00	 3.8952830885e+00
 3.5530347987e+00	 3.5212149936e+00	 4.2229224610e+00
 3.5546257890e+00	 3.5228059838e+00	 4.4643588517e+00
 3.5562167793e+00	 3.5243969741e+00	 4.6195922606e+00
 3.5578077695e+00	 3.5259879644e+00	 4.6886226876e+00
 3.5593987598e+00	 3.5275789546e+00	 4.6714501328e+00
 3.5609897500e+00	 3.5291699449e+00	 4.5680745962e+00
 3.5625807403e+00	 3.5307609351e+00	 4.3784960778e+00
 3.5641717305e+00	 3.5323519254e+00	 4.1027145775e+00
 3.5657627208e+00	 3.5339429156e+00	 3.7407300954e+00
 3.5673537111e+00	 3.5355339059e+00	 3.2925426315e+00
 3.5638181771e+00	 3.5072496347e+00	 2.8828385667e+00
 3.5666466043e+00	 3.5100780618e+00	 3.1297285984e+00
 3.5694750314e+00	 3.5129064889e+00	 3.3121578576e+00
 3.5723034585e+00	 3.5157349160e+00	 3.4301263442e+00
 3.5751318856e+00	 3.5185633432e+00	 3.4836340582e+00
 3.5779603128e+00	 3.5213917703e+00	 3.4726809997e+00
 3.5807887399e+00	 3.5242201974e+00	 3.3972671686e+00
 3.5836171670e+00	 3.5270486245e+00	 3.2573925649e+00
 3.5864455941e+00	 3.5298770517e+00	 3.0530571885e+00
 3.5892740213e+00	 3.5327054788e+00	 2.7842610395e+00
 3.5921024484e+00	 3.5355339059e+00	 2.4510041179e+00
 3.5797280797e+00	 3.4913397321e+00	 2.2721361852e+00
 3.5841474971e+00	 3.4957591495e+00	 2.4711389088e+00
 3.5885669145e+00	 3.5001785668e+00	 2.6187206667e+00
 3.5929863319e+00	 3.5045979842e+00	 2.7148814589e+00
 3.5974057493e+00	 3.5090174016e+00	 2.7596212854e+00
 3.6018251666e+00	 3.5134368190e+00	 2.7529401462e+00
 3.6062445840e+00	 3.5178562364e+00	 2.6948380410e+00
 3.6106640014e+00	 3.5222756538e+00	 2.5853149699e+00
 3.6150834188e+00	 3.5266950711e+00	 2.4243709328e+00
 3.6195028362e+00	 3.5311144885e+00	 2.2120059295e+00
 3.6239222535e+00	 3.5355339059e+00	 1.9482199602e+00
 3.5991735162e+00	 3.4718942956e+00	 1.8638244764e+00
 3.6055374772e+00	 3.4782582566e+00	 2.0311378268e+00
 3.6119014383e+00	 3.4846222177e+00	 2.1557210969e+00
 3.6182653993e+00	 3.4909861787e+00	 2.2375742865e+00
 3.6246293603e+00	 3.4973501397e+00	 2.2766973954e+00
 3.6309933214e+00	 3.5037141007e+00	 2.2730904234e+00
 3.6373572824e+00	 3.5100780618e+00	 2.2267533702e+00
 3.6437212434e+00	 3.5164420228e+00	 2.1376862358e+00
 3.6500852045e+00	 3.5228059838e+00	 2.0058890197e+00
 3.6564491655e+00	 3.5291699449e+00	 1.8313617220e+00
 3.6628131265e+00	 3.5355339059e+00	 1.6141043422e+00
 3.6221544866e+00	 3.4489133252e+00	 1.5717520354e+00
 3.6308165447e+00	 3.4575753833e+00	 1.7165464618e+00
 3.6394786027e+00	 3.4662374413e+00	 1.8248174199e+00
 3.6481406608e+00	 3.4748994994e+00	 1.8965649093e+00
 3.6568027189e+00	 3.4835615575e+00	 1.9317889293e+00
 3.6654647769e+00	 3.4922236156e+00	 1.9304894794e+00
 3.6741268350e+00	 3.5008856736e+00	 1.8926665591e+00
 3.6827888931e+00	 3.5095477317e+00	 1.8183201679e+00
 3.6914509512e+00	 3.5182097898e+00	 1.7074503052e+00
 3.7001130092e+00	 3.5268718478e+00	 1.5600569704e+00
 3.7087750673e+00	 3.5355339059e+00	 1.3761401631e+00
 3.6486709909e+00	 3.4223968209e+00	 1.3517946014e+00
 3.6599846994e+00	 3.4337105294e+00	 1.4801205445e+00
 3.6712984079e+00	 3.4450242379e+00	 1.5765770221e+00
 3.6826121164e+00	 3.4563379464e+00	 1.6409105815e+00
 3.6939258249e+00	 3.4676516549e+00	 1.6732726981e+00
 3.7052395334e+00	 3.4789653634e+00	 1.6737656301e+00
 3.7165532419e+00	 3.4902790719e+00	 1.6423893765e+00
 3.7278669504e+00	 3.5015927804e+00	 1.5791439358e+00
 3.7391806589e+00	 3.5129064889e+00	 1.4840293071e+00
 3.7504943674e+00	 3.5242201974e+00	 1.3570454890e+00
 3.7618080759e+00	 3.5355339059e+00	 1.1981924804e+00
 3.6787230291e+00	 3.3923447827e+00	 1.1804993098e+00
 3.6930419414e+00	 3.4066636950e+00	 1.2958689185e+00
 3.7073608537e+00	 3.4209826073e+00	 1.3829884714e+00
 3.7216797661e+00	 3.4353015197e+00	 1.4418579222e+00
 3.7359986784e+00	 3.4496204320e+00	 1.4724354027e+00
 3.7503175907e+00	 3.4639393443e+00	 1.4743594454e+00
 3.7646365030e+00	 3.4782582566e+00	 1.4480338557e+00
 3.7789554153e+00	 3.4925771689e+00	 1.3934586313e+00
 3.7932743276e+00	 3.5068960813e+00	 1.3106337697e+00
 3.8075932400e+00	 3.5212149936e+00	 1.1995592685e+00
 3.8219121523e+00	 3.5355339059e+00	 1.0602351253e+00
 3.7123106012e+00	 3.3587572106e+00	 1.0433598029e+00
 3.7299882707e+00	 3.3764348801e+00	 1.1484162919e+00
 3.7476659403e+00	 3.3941125497e+00	 1.2281178488e+00
 3.7653436098e+00	 3.4117902192e+00	 1.2824643866e+00
 3.7830212793e+00	 3.4294678887e+00	 1.3114558183e+00
 3.8006989489e+00	 3.4471455582e+00	 1.3150920569e+00
 3.8183766184e+00	 3.4648232278e+00	 1.2928649734e+00
 3.8360542879e+00	 3.4825008973e+00	 1.2452488224e+00
 3.8537319574e+00	 3.5001785668e+00	 1.1722783336e+00
 3.8714096270e+00	 3.5178562364e+00	 1.0739535025e+00
 3.8890872965e+00	 3.5355339059e+00	 9.5027432447e-01
 3.7123106012e+00	 3.3587572106e+00	 1.0433598029e+00
 3.7299882707e+00	 3.3764348801e+00	 1.1484162919e+00
 3.7476659403e+00	 3.3941125497e+00	 1.2281178488e+00
 3.7653436098e+00	 3.4117902192e+00	 1.2824643866e+00
 3.7830212793e+00	 3.4294678887e+00	 1.3114558183e+00
 3.8006989489e+00	 3.4471455582e+00	 1.3150920569e+00
 3.8183766184e+00	 3.4648232278e+00	 1.2928649734e+00
 3.8360542879e+00	 3.4825008973e+00	 1.2452488224e+00
 3.8537319574e+00	 3.5001785668e+00	 1.1722783336e+00
 3.8714096270e+00	 3.5178562364e+00	 1.0739535025e+00
 3.8890872965e+00	 3.5355339059e+00	 9.5027432447e-01
 3.7494337072e+00	 3.3216341046e+00	 9.2099688347e-01
 3.7708236873e+00	 3.3430240847e+00	 1.0176200378e+00
 3.7922136675e+00	 3.3644140648e+00	 1.0914676151e+00
 3.8136036476e+00	 3.3858040450e+00	 1.1425394611e+00
 3.8349936277e+00	 3.4071940251e+00	 1.1708354218e+00
 3.8563836079e+00	 3.4285840052e+00	 1.1763553429e+00
 3.8777735880e+00	 3.4499739854e+00	 1.1590476034e+00
 3.8991635681e+00	 3.4713639655e+00	 1.1183675681e+00
 3.9205535483e+00	 3.4927539456e+00	 1.0549127551e+00
 3.9419435284e+00	 3.5141439258e+00	 9.6868315618e-01
 3.9633335085e+00	 3.5355339059e+00	 8.5967876328e-01
 3.7900923471e+00	 3.2809754647e+00	 8.2458151542e-01
 3.8155481913e+00	 3.3064313088e+00	 9.1346623694e-01
 3.8410040354e+00	 3.3318871529e+00	 9.8165286967e-01
 3.8664598795e+00	 3.3573429970e+00	 1.0291411538e+00
 3.8919157236e+00	 3.3827988412e+00	 1.0559308295e+00
 3.9173715677e+00	 3.4082546853e+00	 1.0620216370e+00
 3.9428274119e+00	 3.4337105294e+00	 1.0474133164e+00
 3.9682832560e+00	 3.4591663735e+00	 1.0117807048e+00
 3.9937391001e+00	 3.4846222177e+00	 9.5501578530e-01
 4.0191949442e+00	 3.5100780618e+00	 8.7755378556e-01
 4.0446507884e+00	 3.5355339059e+00	 7.7939469191e-01
 3.8342865210e+00	 3.2367812908e+00	 7.4697962448e-01
 3.8641617825e+00	 3.2666565523e+00	 8.2881862804e-01
 3.8940370440e+00	 3.2965318139e+00	 8.9166620988e-01
 3.9239123055e+00	 3.3264070754e+00	 9.3552195000e-01
 3.9537875670e+00	 3.3562823369e+00	 9.6038542841e-01
 3.9836628285e+00	 3.3861575984e+00	 9.6625622510e-01
 4.0135380900e+00	 3.4160328599e+00	 9.5313392010e-01
 4.0434133515e+00	 3.4459081214e+00	 9.2101809340e-01
 4.0732886130e+00	 3.4757833829e+00	 8.6910238184e-01
 4.1031638745e+00	 3.5056586444e+00	 7.9812694263e-01
 4.1330391360e+00	 3.5355339059e+00	 7.0816128097e-01
 3.8820162287e+00	 3.1890515831e+00	 6.8340854333e-01
 3.9166644610e+00	 3.2236998154e+00	 7.5885107982e-01
 3.9513126932e+00	 3.2583480477e+00	 8.1672758895e-01
 3.9859609255e+00	 3.2929962799e+00	 8.5703741555e-01
 4.0206091578e+00	 3.3276445122e+00	 8.7977990446e-01
 4.0552573901e+00	 3.3622927445e+00	 8.8495440051e-01
 4.0899056224e+00	 3.3969409768e+00	 8.7256024853e-01
 4.1245538546e+00	 3.4315892091e+00	 8.4259679337e-01
 4.1592020869e+00	 3.4662374413e+00	 7.9454640810e-01
 4.1938503192e+00	 3.5008856736e+00	 7.2844975223e-01
 4.2284985515e+00	 3.5355339059e+00	 6.4478843362e-01
 3.9332814703e+00	 3.1377863415e+00	 6.3055688257e-01
 3.9730562268e+00	 3.1775610979e+00	 7.0019420010e-01
 4.0128309832e+00	 3.2173358544e+00	 7.5347275933e-01
 4.0526057397e+00	 3.2571106108e+00	 7.9039156913e-01
 4.0923804961e+00	 3.2968853672e+00	 8.1094963836e-01
 4.1321552525e+00	 3.3366601237e+00	 8.1514597591e-01
 4.1719300090e+00	 3.3764348801e+00	 8.0297959063e-01
 4.2117047654e+00	 3.4162096366e+00	 7.7444949140e-01
 4.2514795219e+00	 3.4559843930e+00	 7.2933705760e-01
 4.2912542783e+00	 3.4957591495e+00	 6.6695881099e-01
 4.3310290348e+00	 3.5355339059e+00	 5.8822325275e-01
 3.9880822459e+00	 3.0829855659e+00	 5.8606829306e-01
 4.0333370799e+00	 3.1282403999e+00	 6.5043125690e-01
 4.0785919139e+00	 3.1734952339e+00	 6.9947034433e-01
 4.1238467479e+00	 3.2187500679e+00	 7.3318409551e-01
 4.1691015819e+00	 3.2640049019e+00	 7.5157105061e-01
 4.2143564159e+00	 3.3092597359e+00	 7.5462974979e-01
 4.2596112498e+00	 3.3545145699e+00	 7.4235873323e-01
 4.3048660838e+00	 3.3997694039e+00	 7.1475654110e-01
 4.3501209178e+00	 3.4450242379e+00	 6.7182171356e-01
 4.3953757518e+00	 3.4902790719e+00	 6.1239701941e-01
 4.4406305858e+00	 3.5355339059e+00	 5.3755992500e-01
 4.0464185553e+00	 3.0246492565e+00	 5.4822614643e-01
 4.0975070203e+00	 3.0757377214e+00	 6.0778820861e-01
 4.1485954852e+00	 3.1268261864e+00	 6.5292279130e-01
 4.1996839501e+00	 3.1779146513e+00	 6.8362779422e-01
 4.2507724151e+00	 3.2290031162e+00	 6.9990111710e-01
 4.3018608800e+00	 3.2800915812e+00	 7.0174065967e-01
 4.3529493450e+00	 3.3311800461e+00	 6.8914432164e-01
 4.4040378099e+00	 3.3822685111e+00	 6.6211000275e-01
 4.4551262749e+00	 3.4333569760e+00	 6.2063560272e-01
 4.5062147398e+00	 3.4844454410e+00	 5.6374697712e-01
 4.5573032047e+00	 3.5355339059e+00	 4.9202858936e-01
 4.1082903987e+00	 2.9627774131e+00	 5.1575410547e-01
 4.1655660479e+00	 3.0200530624e+00	 5.7093639042e-01
 4.2228416972e+00	 3.0773287117e+00	 6.1247474856e-01
 4.2801173465e+00	 3.1346043610e+00	 6.4036622042e-01
 4.3373929958e+00	 3.1918800102e+00	 6.5460784649e-01
 4.3946686451e+00	 3.2491556595e+00	 6.5519666728e-01
 4.4519442943e+00	 3.3064313088e+00	 6.4212972329e-01
 4.5092199436e+00	 3.3637069581e+00	 6.1540405502e-01
 4.5664955929e+00	 3.4209826073e+00	 5.7501670298e-01
 4.6237712422e+00	 3.4782582566e+00	 5.2017919939e-01
 4.6810468914e+00	 3.5355339059e+00	 4.5097780046e-01
 4.1736977759e+00	 2.8973700359e+00	 4.8768610586e-01
 4.2375141629e+00	 2.9611864229e+00	 5.3886307887e-01
 4.3013305499e+00	 3.0250028099e+00	 5.7708657416e-01
 4.3651469369e+00	 3.0888191969e+00	 6.0235249815e-01
 4.4289633239e+00	 3.1526355839e+00	 6.1465675724e-01
 4.4927797109e+00	 3.2164519709e+00	 6.1399525786e-01
 4.5565960980e+00	 3.2802683579e+00	 6.0036390640e-01
 4.6204124850e+00	 3.3440847449e+00	 5.7375860928e-01
 4.6842288720e+00	 3.4079011319e+00	 5.3417527291e-01
 4.7480452590e+00	 3.4717175189e+00	 4.8101227171e-01
 4.8118616460e+00	 3.5355339059e+00	 4.1385647700e-01
 4.2426406871e+00	 2.8284271247e+00	 4.6327929857e-01
 4.3133513652e+00	 2.8991378028e+00	 5.1078431049e-01
 4.3840620433e+00	 2.9698484809e+00	 5.4594863188e-01
 4.4547727215e+00	 3.0405591591e+00	 5.6876669391e-01
 4.5254833996e+00	 3.1112698372e+00	 5.7923292777e-01
 4.5961940777e+00	 3.1819805153e+00	 5.7734176465e-01
 4.6669047558e+00	 3.2526911934e+00	 5.6308763574e-01
 4.7376154339e+00	 3.3234018715e+00	 5.3646497221e-01
 4.8083261121e+00	 3.3941125497e+00	 4.9746820527e-01
 4.8790367902e+00	 3.4648232278e+00	 4.4568223335e-01
 4.9497474683e+00	 3.5355339059e+00	 3.8019752817e-01
 3.5355339059e+00	 3.5355339059e+00	 2.6546660279e-02
 3.5355339059e+00	 3.5355339059e+00	 2.6546660279e-02
 3.5355339059e+00	 3.5355339059e+00	 2.6546660279e-02
 3.5355339059e+00	 3.5355339059e+00	 2.6546660279e-02
 3.5355339059e+00	 3.5355339059e+00	 2.6546660279e-02
 3.5355339059e+00	 3.5355339059e+00	 2.6546660279e-02
 3.5355339059e+00	 3.5355339059e+00	 2.6546660279e-02
 3.5355339059e+00	 3.5355339059e+00	 2.6546660279e-02
 3.5355339059e+00	 3.5355339059e+00	 2.6546660279e-02
 3.5355339059e+00	 3.5355339059e+00	 2.6546660279e-02
 3.5355339059e+00	 3.5355339059e+00	 2.6546660279e-02
 3.5390694398e+00	 3.5355339059e+00	 9.9875958880e+00
 3.5388926631e+00	 3.5357106826e+00	 1.0606485497e+01
 3.5387158864e+00	 3.5358874593e+00	 1.0835102506e+01
 3.5385391097e+00	 3.5360642360e+00	 1.0673446916e+01
 3.5383623330e+00	 3.5362410127e+00	 1.0121518726e+01
 3.5381855563e+00	 3.5364177894e+00	 9.1793179368e+00
 3.5380087796e+00	 3.5365945661e+00	 7.8468445476e+00
 3.5378320029e+00	 3.5367713428e+00	 6.1240985587e+00
 3.5376552262e+00	 3.5369481195e+00	 4.0110799701e+00
 3.5374784495e+00	 3.5371248962e+00	 1.5077887819e+00
 3.5373016729e+00	 3.5373016729e+00	-1.3857750059e+00
 3.5496760415e+00	 3.5355339059e+00	 4.7585561082e+00
 3.5489689347e+00	 3.5362410127e+00	 5.0937114925e+00
 3.5482618280e+00	 3.5369481195e+00	 5.2350469807e+00
 3.5475547212e+00	 3.5376552262e+00	 5.1825625730e+00
 3.5468476144e+00	 3.5383623330e+00	 4.9362582694e+00
 3.5461405076e+00	 3.5390694398e+00	 4.4961340698e+00
 3.5454334008e+00	 3.5397765466e+00	 3.8621899742e+00
 3.5447262941e+00	 3.5404836534e+00	 3.0344259827e+00
 3.5440191873e+00	 3.5411907601e+00	 2.0128420953e+00
 3.5433120805e+00	 3.5418978669e+00	 7.9743831185e-01
 3.5426049737e+00	 3.5426049737e+00	-6.1178536753e-01
 3.5673537111e+00	 3.5355339059e+00	 3.1301371618e+00
 3.5657627208e+00	 3.5371248962e+00	 3.3549003815e+00
 3.5641717305e+00	 3.5387158864e+00	 3.4512248277e+00
 3.5625807403e+00	 3.5403068767e+00	 3.4191105004e+00
 3.5609897500e+00	 3.5418978669e+00	 3.2585573995e+00
 3.5593987598e+00	 3.5434888572e+00	 2.9695655252e+00
 3.5578077695e+00	 3.5450798474e+00	 2.5521348773e+00
 3.5562167793e+00	 3.5466708377e+00	 2.0062654558e+00
 3.5546257890e+00	 3.5482618280e+00	 1.3319572608e+00
 3.5530347987e+00	 3.5498528182e+00	 5.2921029219e-01
 3.5514438085e+00	 3.5514438085e+00	-4.0197545003e-01
 3.5921024484e+00	 3.5355339059e+00	 2.3376425145e+00
 3.5892740213e+00	 3.5383623330e+00	 2.5042233008e+00
 3.5864455941e+00	 3.5411907601e+00	 2.5750365648e+00
 3.5836171670e+00	 3.5440191873e+00	 2.5500823065e+00
 3.5807887399e+00	 3.5468476144e+00	 2.4293605258e+00
 3.5779603128e+00	 3.5496760415e+00	 2.2128712226e+00
 3.5751318856e+00	 3.5525044686e+00	 1.9006143968e+00
 3.5723034585e+00	 3.5553328958e+00	 1.4925900484e+00
 3.5694750314e+00	 3.5581613229e+00	 9.8879817714e-01
 3.5666466043e+00	 3.5609897500e+00	 3.8923878305e-01
 3.5638181771e+00	 3.5638181771e+00	-3.0608813399e-01
 3.6239222535e+00	 3.5355339059e+00	 1.8692990509e+00
 3.6195028362e+00	 3.5399533233e+00	 1.9999956340e+00
 3.6150834188e+00	 3.5443727407e+00	 2.0545213063e+00
 3.6106640014e+00	 3.5487921580e+00	 2.0328760676e+00
 3.6062445840e+00	 3.5532115754e+00	 1.9350599174e+00
 3.6018251666e+00	 3.5576309928e+00	 1.7610728555e+00
 3.5974057493e+00	 3.5620504102e+00	 1.5109148814e+00
 3.5929863319e+00	 3.5664698276e+00	 1.1845859949e+00
 3.5885669145e+00	 3.5708892450e+00	 7.8208619567e-01
 3.5841474971e+00	 3.5753086623e+00	 3.0341548327e-01
 3.5797280797e+00	 3.5797280797e+00	-2.5142614261e-01
 3.6628131265e+00	 3.5355339059e+00	 1.5602332183e+00
 3.6564491655e+00	 3.5418978669e+00	 1.6665836617e+00
 3.6500852045e+00	 3.5482618280e+00	 1.7098251032e+00
 3.6437212434e+00	 3.5546257890e+00	 1.6899575417e+00
 3.6373572824e+00	 3.5609897500e+00	 1.6069809761e+00
 3.6309933214e+00	 3.5673537111e+00	 1.4608954055e+00
 3.6246293603e+00	 3.5737176721e+00	 1.2517008287e+00
 3.6182653993e+00	 3.5800816331e+00	 9.7939724494e-01
 3.6119014383e+00	 3.5864455941e+00	 6.4398465301e-01
 3.6055374772e+00	 3.5928095552e+00	 2.4546305195e-01
 3.5991735162e+00	 3.5991735162e+00	-2.1616755926e-01
 3.7087750673e+00	 3.5355339059e+00	 1.3411850847e+00
 3.7001130092e+00	 3.5441959640e+00	 1.4299224869e+00
 3.6914509512e+00	 3.5528580220e+00	 1.4648796789e+00
 3.6827888931e+00	 3.5615200801e+00	 1.4460566579e+00
 3.6741268350e+00	 3.5701821382e+00	 1.3734534215e+00
 3.6654647769e+00	 3.5788441962e+00	 1.2470699671e+00
 3.6568027189e+00	 3.5875062543e+00	 1.0669062921e+00
 3.6481406608e+00	 3.5961683124e+00	 8.3296239385e-01
 3.6394786027e+00	 3.6048303705e+00	 5.4523826989e-01
 3.6308165447e+00	 3.6134924285e+00	 2.0373391761e-01
 3.6221544866e+00	 3.6221544866e+00	-1.9155067018e-01
 3.7618080759e+00	 3.5355339059e+00	 1.1779840761e+00
 3.7504943674e+00	 3.5468476144e+00	 1.2533754952e+00
 3.7391806589e+00	 3.5581613229e+00	 1.2819827778e+00
 3.7278669504e+00	 3.5694750314e+00	 1.2638059180e+00
 3.7165532419e+00	 3.5807887399e+00	 1.1988449103e+00
 3.7052395334e+00	 3.5921024484e+00	 1.0870997489e+00
 3.6939258249e+00	 3.6034161569e+00	 9.2857042800e-01
 3.6826121164e+00	 3.6147298654e+00	 7.2325694193e-01
 3.6712984079e+00	 3.6260435739e+00	 4.7115928008e-01
 3.6599846994e+00	 3.6373572824e+00	 1.7227744584e-01
 3.6486709909e+00	 3.6486709909e+00	-1.7338857081e-01
 3.8219121523e+00	 3.5355339059e+00	 1.0518279950e+00
 3.8075932400e+00	 3.5498528182e+00	 1.1167452803e+00
 3.7932743276e+00	 3.5641717305e+00	 1.1403196441e+00
 3.7789554153e+00	 3.5784906429e+00	 1.1225510747e+00
 3.7646365030e+00	 3.5928095552e+00	 1.0634395605e+00
 3.7503175907e+00	 3.6071284675e+00	 9.6298508989e-01
 3.7359986784e+00	 3.6214473798e+00	 8.2118765120e-01
 3.7216797661e+00	 3.6357662921e+00	 6.3804722743e-01
 3.7073608537e+00	 3.6500852045e+00	 4.1356381698e-01
 3.6930419414e+00	 3.6644041168e+00	 1.4773740359e-01
 3.6787230291e+00	 3.6787230291e+00	-1.5943202436e-01
 3.8890872965e+00	 3.5355339059e+00	 9.5151714559e-01
 3.8714096270e+00	 3.5532115754e+00	 1.0079836106e+00
 3.8537319574e+00	 3.5708892450e+00	 1.0274601780e+00
 3.8360542879e+00	 3.5885669145e+00	 1.0099468258e+00
 3.8183766184e+00	 3.6062445840e+00	 9.5544353228e-01
 3.8006989489e+00	 3.6239222536e+00	 8.6395027069e-01
 3.7830212793e+00	 3.6415999231e+00	 7.3546702786e-01
 3.7653436098e+00	 3.6592775926e+00	 5.6999377801e-01
 3.7476659403e+00	 3.6769552621e+00	 3.6753049929e-01
 3.7299882707e+00	 3.6946329317e+00	 1.2807716983e-01
 3.7123106012e+00	 3.7123106012e+00	-1.4836623222e-01
 3.8890872965e+00	 3.5355339059e+00	 9.5151714559e-01
 3.8714096270e+00	 3.5532115754e+00	 1.0079836106e+00
 3.8537319574e+00	 3.5708892450e+00	 1.0274601780e+00
 3.8360542879e+00	 3.5885669145e+00	 1.0099468258e+00
 3.8183766184e+00	 3.6062445840e+00	 9.5544353228e-01
 3.8006989489e+00	 3.6239222536e+00	 8.6395027069e-01
 3.7830212793e+00	 3.6415999231e+00	 7.3546702786e-01
 3.7653436098e+00	 3.6592775926e+00	 5.6999377801e-01
 3.7476659403e+00	 3.6769552621e+00	 3.6753049929e-01
 3.7299882707e+00	 3.6946329317e+00	 1.2807716983e-01
 3.7123106012e+00	 3.7123106012e+00	-1.4836623222e-01
 3.9633335085e+00	 3.5355339059e+00	 8.3421447017e-01
 3.9419435284e+00	 3.5569238860e+00	 8.8756935143e-01
 3.9205535483e+00	 3.5783138662e+00	 9.0768062600e-01
 3.8991635681e+00	 3.5997038463e+00	 8.9454825515e-01
 3.8777735880e+00	 3.6210938264e+00	 8.4817220017e-01
 3.8563836079e+00	 3.6424838066e+00	 7.6855241639e-01
 3.8349936277e+00	 3.6638737867e+00	 6.5568887565e-01
 3.8136036476e+00	 3.6852637668e+00	 5.0958153448e-01
 3.7922136675e+00	 3.7066537470e+00	 3.3023035418e-01
 3.7708236873e+00	 3.7280437271e+00	 1.1763529603e-01
 3.7494337072e+00	 3.7494337072e+00	-1.2820367868e-01
 4.0446507884e+00	 3.5355339059e+00	 7.4186812235e-01
 4.0191949442e+00	 3.5609897500e+00	 7.9224600436e-01
 3.9937391001e+00	 3.5864455941e+00	 8.1243994441e-01
 3.9682832560e+00	 3.6119014383e+00	 8.0244987724e-01
 3.9428274119e+00	 3.6373572824e+00	 7.6227573188e-01
 3.9173715677e+00	 3.6628131265e+00	 6.9191745290e-01
 3.8919157236e+00	 3.6882689706e+00	 5.9137497073e-01
 3.8664598795e+00	 3.7137248148e+00	 4.6064822012e-01
 3.8410040354e+00	 3.7391806589e+00	 2.9973713582e-01
 3.8155481913e+00	 3.7646365030e+00	 1.0864165257e-01
 3.7900923471e+00	 3.7900923471e+00	-1.1263829489e-01
 4.1330391360e+00	 3.5355339059e+00	 6.6766626596e-01
 4.1031638745e+00	 3.5654091674e+00	 7.1524188004e-01
 4.0732886130e+00	 3.5952844289e+00	 7.3517857799e-01
 4.0434133515e+00	 3.6251596904e+00	 7.2747624927e-01
 4.0135380900e+00	 3.6550349519e+00	 6.9213479673e-01
 3.9836628285e+00	 3.6849102134e+00	 6.2915411134e-01
 3.9537875670e+00	 3.7147854749e+00	 5.3853408763e-01
 3.9239123055e+00	 3.7446607364e+00	 4.2027462010e-01
 3.8940370440e+00	 3.7745359979e+00	 2.7437560328e-01
 3.8641617825e+00	 3.8044112595e+00	 1.0083693167e-01
 3.8342865210e+00	 3.8342865210e+00	-1.0034150020e-01
 4.2284985515e+00	 3.5355339059e+00	 6.0702989268e-01
 4.1938503192e+00	 3.5701821382e+00	 6.5198665883e-01
 4.1592020869e+00	 3.6048303705e+00	 6.7145423744e-01
 4.1245538546e+00	 3.6394786027e+00	 6.6543245798e-01
 4.0899056224e+00	 3.6741268350e+00	 6.3392116557e-01
 4.0552573901e+00	 3.7087750673e+00	 5.7692019161e-01
 4.0206091578e+00	 3.7434232996e+00	 4.9442937155e-01
 3.9859609255e+00	 3.7780715319e+00	 3.8644854083e-01
 3.9513126932e+00	 3.8127197641e+00	 2.5297753491e-01
 3.9166644610e+00	 3.8473679964e+00	 9.4016189242e-02
 3.8820162287e+00	 3.8820162287e+00	-9.0435660735e-02
 4.3310290348e+00	 3.5355339059e+00	 5.5677936172e-01
 4.2912542783e+00	 3.5753086623e+00	 5.9929454906e-01
 4.2514795219e+00	 3.6150834188e+00	 6.1816033501e-01
 4.2117047654e+00	 3.6548581752e+00	 6.1337646357e-01
 4.1719300090e+00	 3.6946329317e+00	 5.8494269704e-01
 4.1321552525e+00	 3.7344076881e+00	 5.3285878184e-01
 4.0923804961e+00	 3.7741824446e+00	 4.5712446904e-01
 4.0526057397e+00	 3.8139572010e+00	 3.5773950972e-01
 4.0128309832e+00	 3.8537319574e+00	 2.3470365493e-01
 3.9730562268e+00	 3.8935067139e+00	 8.8016655757e-02
 3.9332814703e+00	 3.9332814703e+00	-8.2321736744e-02
 4.4406305858e+00	 3.5355339059e+00	 5.1464483941e-01
 4.3953757518e+00	 3.5807887399e+00	 5.5488294407e-01
 4.3501209178e+00	 3.6260435739e+00	 5.7306412849e-01
 4.3048660838e+00	 3.6712984079e+00	 5.6918803378e-01
 4.2596112498e+00	 3.7165532419e+00	 5.4325429025e-01
 4.2143564159e+00	 3.7618080759e+00	 4.9526253128e-01
 4.1691015819e+00	 3.8070629099e+00	 4.2521239021e-01
 4.1238467479e+00	 3.8523177439e+00	 3.3310350041e-01
 4.0785919139e+00	 3.8975725779e+00	 2.1893549521e-01
 4.0333370799e+00	 3.9428274119e+00	 8.2708007970e-02
 3.9880822459e+00	 3.9880822459e+00	-7.5579327964e-02
 4.5573032047e+00	 3.5355339059e+00	 4.7896688241e-01
 4.5062147398e+00	 3.5866223708e+00	 5.1707712031e-01
 4.4551262749e+00	 3.6377108358e+00	 5.3452263644e-01
 4.4040378099e+00	 3.6887993007e+00	 5.3130291202e-01
 4.3529493450e+00	 3.7398877657e+00	 5.0741741619e-01
 4.3018608800e+00	 3.7909762306e+00	 4.6286562148e-01
 4.2507724151e+00	 3.8420646956e+00	 3.9764700037e-01
 4.1996839501e+00	 3.8931531605e+00	 3.1176102539e-01
 4.1485954852e+00	 3.9442416254e+00	 2.0520716901e-01
 4.0975070203e+00	 3.9953300904e+00	 7.7984903748e-02
 4.0464185553e+00	 4.0464185553e+00	-6.9906297916e-02
 4.6810468914e+00	 3.5355339059e+00	 4.4850684467e-01
 4.6237712422e+00	 3.5928095552e+00	 4.8462269230e-01
 4.5664955929e+00	 3.6500852045e+00	 5.0130170923e-01
 4.5092199436e+00	 3.7073608537e+00	 4.9854316195e-01
 4.4519442943e+00	 3.7646365030e+00	 4.7634630347e-01
 4.3946686451e+00	 3.8219121523e+00	 4.3471039050e-01
 4.3373929958e+00	 3.8791878016e+00	 3.7363467975e-01
 4.2801173465e+00	 3.9364634508e+00	 2.9311842792e-01
 4.2228416972e+00	 3.9937391001e+00	 1.9316089171e-01
 4.1655660479e+00	 4.0510147494e+00	 7.3761327808e-02
 4.1082903987e+00	 4.1082903987e+00	-6.5081007087e-02
 4.8118616460e+00	 3.5355339059e+00	 4.2232315009e-01
 4.7480452590e+00	 3.5993502929e+00	 4.5656286915e-01
 4.6842288720e+00	 3.6631666799e+00	 4.7245736139e-01
 4.6204124850e+00	 3.7269830669e+00	 4.7000560970e-01
 4.5565960980e+00	 3.7907994539e+00	 4.4920658184e-01
 4.4927797109e+00	 3.8546158409e+00	 4.1005924969e-01
 4.4289633239e+00	 3.9184322279e+00	 3.5256258514e-01
 4.3651469369e+00	 3.9822486149e+00	 2.7671556005e-01
 4.3013305499e+00	 4.0460650019e+00	 1.8251714628e-01
 4.2375141629e+00	 4.1098813889e+00	 6.9966315701e-02
 4.1736977759e+00	 4.1736977759e+00	-6.0937959847e-02
 4.9497474683e+00	 3.5355339059e+00	 3.9968838486e-01
 4.8790367902e+00	 3.6062445840e+00	 4.3215597664e-01
 4.8083261121e+00	 3.6769552621e+00	 4.4725582478e-01
 4.7376154339e+00	 3.7476659403e+00	 4.4498654310e-01
 4.6669047558e+00	 3.8183766184e+00	 4.2534672838e-01
 4.5961940777e+00	 3.8890872965e+00	 3.8833498200e-01
 4.5254833996e+00	 3.9597979746e+00	 3.3394990534e-01
 4.4547727215e+00	 4.0305086527e+00	 2.6219009976e-01
 4.3840620433e+00	 4.1012193309e+00	 1.7305416662e-01
 4.3133513652e+00	 4.1719300090e+00	 6.6540707245e-02
 4.2426406871e+00	 4.2426406871e+00	-5.7351677024e-02
-3.5355339059e+00	-3.5355339059e+00	 2.6546660280e-02
-3.5355339059e+00	-3.5355339059e+00	 2.6546660280e-02
-3.5355339059e+00	-3.5355339059e+00	 2.6546660280e-02
-3.5355339059e+00	-3.5355339059e+00	 2.6546660280e-02
-3.5355339059e+00	-3.5355339059e+00	 2.6546660280e-02
-3.5355339059e+00	-3.5355339059e+00	 2.6546660280e-02
-3.5355339059e+00	-3.5355339059e+00	 2.6546660280e-02
-3.5355339059e+00	-3.5355339059e+00	 2.6546660280e-02
-3.5355339059e+00	-3.5355339059e+00	 2.6546660280e-02
-3.5355339059e+00	-3.5355339059e+00	 2.6546660280e-02
-3.5355339059e+00	-3.5355339059e+00	 2.6546660280e-02
-3.5337661389e+00	-3.5337661389e+00	 1.1788268242e+01
-3.5339429156e+00	-3.5335893623e+00	 1.2441139666e+01
-3.5341196923e+00	-3.5334125856e+00	 1.2749694530e+01
-3.5342964690e+00	-3.5332358089e+00	 1.2713932835e+01
-3.5344732457e+00	-3.5330590322e+00	 1.2333854579e+01
-3.5346500224e+00	-3.5328822555e+00	 1.1609459763e+01
-3.5348267991e+00	-3.5327054788e+00	 1.0540748388e+01
-3.5350035758e+00	-3.5325287021e+00	 9.1277204520e+00
-3.5351803525e+00	-3.5323519254e+00	 7.3703759563e+00
-3.5353571292e+00	-3.5321751487e+00	 5.2687149005e+00
-3.5355339059e+00	-3.5319983720e+00	 2.8227372847e+00
-3.5284628381e+00	-3.5284628381e+00	 5.8944743439e+00
-3.5291699449e+00	-3.5277557313e+00	 6.2156838652e+00
-3.5298770517e+00	-3.5270486245e+00	 6.3651576502e+00
-3.5305841584e+00	-3.5263415177e+00	 6.3428956988e+00
-3.5312912652e+00	-3.5256344110e+00	 6.1488980110e+00
-3.5319983720e+00	-3.5249273042e+00	 5.7831645869e+00
-3.5327054788e+00	-3.5242201974e+00	 5.2456954265e+00
-3.5334125856e+00	-3.5235130906e+00	 4.5364905297e+00
-3.5341196923e+00	-3.5228059838e+00	 3.6555498966e+00
-3.5348267991e+00	-3.5220988771e+00	 2.6028735271e+00
-3.5355339059e+00	-3.5213917703e+00	 1.3784614212e+00
-3.5196240033e+00	-3.5196240033e+00	 3.9096900382e+00
-3.5212149936e+00	-3.5180330131e+00	 4.1232096529e+00
-3.5228059838e+00	-3.5164420228e+00	 4.2219950190e+00
-3.5243969741e+00	-3.5148510325e+00	 4.2060461367e+00
-3.5259879644e+00	-3.5132600423e+00	 4.0753630060e+00
-3.5275789546e+00	-3.5116690520e+00	 3.8299456268e+00
-3.5291699449e+00	-3.5100780618e+00	 3.4697939993e+00
-3.5307609351e+00	-3.5084870715e+00	 2.9949081233e+00
-3.5323519254e+00	-3.5068960813e+00	 2.4052879990e+00
-3.5339429156e+00	-3.5053050910e+00	 1.7009336264e+00
-3.5355339059e+00	-3.5037141007e+00	 8.8184500537e-01
-3.5072496347e+00	-3.5072496347e+00	 2.9134948314e+00
-3.5100780618e+00	-3.5044212075e+00	 3.0737276718e+00
-3.5129064889e+00	-3.5015927804e+00	 3.1476285082e+00
-3.5157349160e+00	-3.4987643533e+00	 3.1351973405e+00
-3.5185633432e+00	-3.4959359262e+00	 3.0364341690e+00
-3.5213917703e+00	-3.4931074990e+00	 2.8513389936e+00
-3.5242201974e+00	-3.4902790719e+00	 2.5799118145e+00
-3.5270486245e+00	-3.4874506448e+00	 2.2221526317e+00
-3.5298770517e+00	-3.4846222177e+00	 1.7780614454e+00
-3.5327054788e+00	-3.4817937905e+00	 1.2476382557e+00
-3.5355339059e+00	-3.4789653634e+00	 6.3088306257e-01
-3.4913397321e+00	-3.4913397321e+00	 2.3145442094e+00
-3.4957591495e+00	-3.4869203147e+00	 2.4430026400e+00
-3.5001785668e+00	-3.4825008973e+00	 2.5021389315e+00
-3.5045979842e+00	-3.4780814799e+00	 2.4919530843e+00
-3.5090174016e+00	-3.4736620625e+00	 2.4124450985e+00
-3.5134368190e+00	-3.4692426452e+00	 2.2636149747e+00
-3.5178562364e+00	-3.4648232278e+00	 2.0454627131e+00
-3.5222756538e+00	-3.4604038104e+00	 1.7579883141e+00
-3.5266950711e+00	-3.4559843930e+00	 1.4011917780e+00
-3.5311144885e+00	-3.4515649756e+00	 9.7507310511e-01
-3.5355339059e+00	-3.4471455582e+00	 4.7959587325e-01
-3.4718942956e+00	-3.4718942956e+00	 1.9147147459e+00
-3.4782582566e+00	-3.4655303346e+00	 2.0220896734e+00
-3.4846222177e+00	-3.4591663735e+00	 2.0714693095e+00
-3.4909861787e+00	-3.4528024125e+00	 2.0628536552e+00
-3.4973501397e+00	-3.4464384515e+00	 1.9961831135e+00
-3.5037141007e+00	-3.4400744904e+00	 1.8713710083e+00
-3.5100780618e+00	-3.4337105294e+00	 1.6885644628e+00
-3.5164420228e+00	-3.4273465684e+00	 1.4477634741e+00
-3.5228059838e+00	-3.4209826073e+00	 1.1489680393e+00
-3.5291699449e+00	-3.4146186463e+00	 7.9217815521e-01
-3.5355339059e+00	-3.4082546853e+00	 3.7739381902e-01
-3.4489133252e+00	-3.4489133252e+00	 1.6288492171e+00
-3.4575753833e+00	-3.4402512671e+00	 1.7209667896e+00
-3.4662374413e+00	-3.4315892091e+00	 1.7631540801e+00
-3.4748994994e+00	-3.4229271510e+00	 1.7554319403e+00
-3.4835615575e+00	-3.4142650929e+00	 1.6978003625e+00
-3.4922236156e+00	-3.4056030349e+00	 1.5902593393e+00
-3.5008856736e+00	-3.3969409768e+00	 1.4328088633e+00
-3.5095477317e+00	-3.3882789187e+00	 1.2254489268e+00
-3.5182097898e+00	-3.3796168606e+00	 9.6817952238e-01
-3.5268718478e+00	-3.3709548026e+00	 6.6100064259e-01
-3.5355339059e+00	-3.3622927445e+00	 3.0391227989e-01
-3.4223968209e+00	-3.4223968209e+00	 1.4134405095e+00
-3.4337105294e+00	-3.4110831124e+00	 1.4942564963e+00
-3.4450242379e+00	-3.3997694039e+00	 1.5312240025e+00
-3.4563379464e+00	-3.3884556954e+00	 1.5243430116e+00
-3.4676516549e+00	-3.3771419869e+00	 1.4736135068e+00
-3.4789653634e+00	-3.3658282784e+00	 1.3790354713e+00
-3.4902790719e+00	-3.3545145699e+00	 1.2406088885e+00
-3.5015927804e+00	-3.3432008614e+00	 1.0583337416e+00
-3.5129064889e+00	-3.3318871529e+00	 8.3221001403e-01
-3.5242201974e+00	-3.3205734444e+00	 5.6223768893e-01
-3.5355339059e+00	-3.3092597359e+00	 2.4841674964e-01
-3.3923447827e+00	-3.3923447827e+00	 1.2454662590e+00
-3.4066636950e+00	-3.3780258704e+00	 1.3175227199e+00
-3.4209826073e+00	-3.3637069581e+00	 1.3504436046e+00
-3.4353015197e+00	-3.3493880457e+00	 1.3442288793e+00
-3.4496204320e+00	-3.3350691334e+00	 1.2988785101e+00
-3.4639393443e+00	-3.3207502211e+00	 1.2143924631e+00
-3.4782582566e+00	-3.3064313088e+00	 1.0907707043e+00
-3.4925771689e+00	-3.2921123965e+00	 9.2801319999e-01
-3.5068960813e+00	-3.2777934842e+00	 7.2611991620e-01
-3.5212149936e+00	-3.2634745718e+00	 4.8509081906e-01
-3.5355339059e+00	-3.2491556595e+00	 2.0492587467e-01
-3.3587572106e+00	-3.3587572106e+00	 1.1106935376e+00
-3.3764348801e+00	-3.3410795411e+00	 1.1757539400e+00
-3.3941125497e+00	-3.3234018715e+00	 1.2054489385e+00
-3.4117902192e+00	-3.3057242020e+00	 1.1997784695e+00
-3.4294678887e+00	-3.2880465325e+00	 1.1587424691e+00
-3.4471455582e+00	-3.2703688629e+00	 1.0823408735e+00
-3.4648232278e+00	-3.2526911934e+00	 9.7057361916e-01
-3.4825008973e+00	-3.2350135239e+00	 8.2344064214e-01
-3.5001785668e+00	-3.2173358544e+00	 6.4094187873e-01
-3.5178562364e+00	-3.1996581848e+00	 4.2307726517e-01
-3.5355339059e+00	-3.1819805153e+00	 1.6984673770e-01
-3.3587572106e+00	-3.3587572106e+00	 1.1106935376e+00
-3.3764348801e+00	-3.3410795411e+00	 1.1757539400e+00
-3.3941125497e+00	-3.3234018715e+00	 1.2054489385e+00
-3.4117902192e+00	-3.3057242020e+00	 1.1997784695e+00
-3.4294678887e+00	-3.2880465325e+00	 1.1587424691e+00
-3.4471455582e+00	-3.2703688629e+00	 1.0823408735e+00
-3.4648232278e+00	-3.2526911934e+00	 9.7057361916e-01
-3.4825008973e+00	-3.2350135239e+00	 8.2344064214e-01
-3.5001785668e+00	-3.2173358544e+00	 6.4094187873e-01
-3.5178562364e+00	-3.1996581848e+00	 4.2307726517e-01
-3.5355339059e+00	-3.1819805153e+00	 1.6984673770e-01
-3.3216341046e+00	-3.3216341046e+00	 9.9278847498e-01
-3.3430240847e+00	-3.3002441245e+00	 1.0511880876e+00
-3.3644140648e+00	-3.2788541443e+00	 1.0782231729e+00
-3.3858040450e+00	-3.2574641642e+00	 1.0738936179e+00
-3.4071940251e+00	-3.2360741841e+00	 1.0381993097e+00
-3.4285840052e+00	-3.2146842039e+00	 9.7114013535e-01
-3.4499739854e+00	-3.1932942238e+00	 8.7271598182e-01
-3.4713639655e+00	-3.1719042437e+00	 7.4292673618e-01
-3.4927539456e+00	-3.1505142635e+00	 5.8177228548e-01
-3.5141439258e+00	-3.1291242834e+00	 3.8925251676e-01
-3.5355339059e+00	-3.1077343033e+00	 1.6536731708e-01
-3.2809754647e+00	-3.2809754647e+00	 8.9916376646e-01
-3.3064313088e+00	-3.2555196205e+00	 9.5097974973e-01
-3.3318871529e+00	-3.2300637764e+00	 9.7445550713e-01
-3.3573429970e+00	-3.2046079323e+00	 9.6959084827e-01
-3.3827988412e+00	-3.1791520882e+00	 9.3638558275e-01
-3.4082546853e+00	-3.1536962441e+00	 8.7483952018e-01
-3.4337105294e+00	-3.1282403999e+00	 7.8495247018e-01
-3.4591663735e+00	-3.1027845558e+00	 6.6672424235e-01
-3.4846222177e+00	-3.0773287117e+00	 5.2015464631e-01
-3.5100780618e+00	-3.0518728676e+00	 3.4524349167e-01
-3.5355339059e+00	-3.0264170234e+00	 1.4199058805e-01
-3.2367812908e+00	-3.2367812908e+00	 8.2312665835e-01
-3.2666565523e+00	-3.2069060293e+00	 8.6864265355e-01
-3.2965318139e+00	-3.1770307678e+00	 8.8815828037e-01
-3.3264070754e+00	-3.1471555063e+00	 8.8167323105e-01
-3.3562823369e+00	-3.1172802448e+00	 8.4918719783e-01
-3.3861575984e+00	-3.0874049833e+00	 7.9069987294e-01
-3.4160328599e+00	-3.0575297218e+00	 7.0621094863e-01
-3.4459081214e+00	-3.0276544603e+00	 5.9572011713e-01
-3.4757833829e+00	-2.9977791988e+00	 4.5922707068e-01
-3.5056586444e+00	-2.9679039373e+00	 2.9673150152e-01
-3.5355339059e+00	-2.9380286758e+00	 1.0823310189e-01
-3.1890515831e+00	-3.1890515831e+00	 7.6017881137e-01
-3.2236998154e+00	-3.1544033508e+00	 7.9976763816e-01
-3.2583480477e+00	-3.1197551186e+00	 8.1520262386e-01
-3.2929962799e+00	-3.0851068863e+00	 8.0648328836e-01
-3.3276445122e+00	-3.0504586540e+00	 7.7360915159e-01
-3.3622927445e+00	-3.0158104217e+00	 7.1657973345e-01
-3.3969409768e+00	-2.9811621895e+00	 6.3539455385e-01
-3.4315892091e+00	-2.9465139572e+00	 5.3005313271e-01
-3.4662374413e+00	-2.9118657249e+00	 4.0055498994e-01
-3.5008856736e+00	-2.8772174926e+00	 2.4689964544e-01
-3.5355339059e+00	-2.8425692603e+00	 6.9086619138e-02
-3.1377863415e+00	-3.1377863415e+00	 7.0719760511e-01
-3.1775610979e+00	-3.0980115850e+00	 7.4126141522e-01
-3.2173358544e+00	-3.0582368286e+00	 7.5265382384e-01
-3.2571106108e+00	-3.0184620722e+00	 7.4137410472e-01
-3.2968853672e+00	-2.9786873157e+00	 7.0742153157e-01
-3.3366601237e+00	-2.9389125593e+00	 6.5079537812e-01
-3.3764348801e+00	-2.8991378028e+00	 5.7149491810e-01
-3.4162096366e+00	-2.8593630464e+00	 4.6951942523e-01
-3.4559843930e+00	-2.8195882900e+00	 3.4486817323e-01
-3.4957591495e+00	-2.7798135335e+00	 1.9754043584e-01
-3.5355339059e+00	-2.7400387771e+00	 2.7535486775e-02
-3.0829855659e+00	-3.0829855659e+00	 6.6195529182e-01
-3.1282403999e+00	-3.0377307319e+00	 6.9089520321e-01
-3.1734952339e+00	-2.9924758980e+00	 6.9837197617e-01
-3.2187500679e+00	-2.9472210640e+00	 6.8438454098e-01
-3.2640049019e+00	-2.9019662300e+00	 6.4893182792e-01
-3.3092597359e+00	-2.8567113960e+00	 5.9201276726e-01
-3.3545145699e+00	-2.8114565620e+00	 5.1362628926e-01
-3.3997694039e+00	-2.7662017280e+00	 4.1377132422e-01
-3.4450242379e+00	-2.7209468940e+00	 2.9244680239e-01
-3.4902790719e+00	-2.6756920600e+00	 1.4965165405e-01
-3.5355339059e+00	-2.6304372260e+00	-1.4615190520e-02
-3.0246492565e+00	-3.0246492565e+00	 6.2282496112e-01
-3.0757377214e+00	-2.9735607916e+00	 6.4702620993e-01
-3.1268261864e+00	-2.9224723266e+00	 6.5076250359e-01
-3.1779146513e+00	-2.8713838617e+00	 6.3403230307e-01
-3.2290031162e+00	-2.8202953967e+00	 5.9683406935e-01
-3.2800915812e+00	-2.7692069318e+00	 5.3916626339e-01
-3.3311800461e+00	-2.7181184669e+00	 4.6102734617e-01
-3.3822685111e+00	-2.6670300019e+00	 3.6241577867e-01
-3.4333569760e+00	-2.6159415370e+00	 2.4333002185e-01
-3.4844454410e+00	-2.5648530721e+00	 1.0376853669e-01
-3.5355339059e+00	-2.5137646071e+00	-5.6270215836e-02
-2.9627774131e+00	-2.9627774131e+00	 5.8859441243e-01
-3.0200530624e+00	-2.9055017639e+00	 6.0841979822e-01
-3.0773287117e+00	-2.8482261146e+00	 6.0861500959e-01
-3.1346043610e+00	-2.7909504653e+00	 5.8917787792e-01
-3.1918800102e+00	-2.7336748161e+00	 5.5010623455e-01
-3.2491556595e+00	-2.6763991668e+00	 4.9139791085e-01
-3.3064313088e+00	-2.6191235175e+00	 4.1305073817e-01
-3.3637069581e+00	-2.5618478682e+00	 3.1506254788e-01
-3.4209826073e+00	-2.5045722190e+00	 1.9743117133e-01
-3.4782582566e+00	-2.4472965697e+00	 6.0154439872e-02
-3.5355339059e+00	-2.3900209204e+00	-9.6769815125e-02
-2.8973700359e+00	-2.8973700359e+00	 5.6154566950e-01
-2.9611864229e+00	-2.8335536489e+00	 5.7413252990e-01
-3.0250028099e+00	-2.7697372619e+00	 5.7099614481e-01
-3.0888191969e+00	-2.7059208749e+00	 5.4893259578e-01
-3.1526355839e+00	-2.6421044879e+00	 5.0793888312e-01
-3.2164519709e+00	-2.5782881009e+00	 4.4801200716e-01
-3.2802683579e+00	-2.5144717139e+00	 3.6914896822e-01
-3.3440847449e+00	-2.4506553269e+00	 2.7134676664e-01
-3.4079011319e+00	-2.3868389399e+00	 1.5460240272e-01
-3.4717175189e+00	-2.3230225529e+00	 1.8912876803e-02
-3.5355339059e+00	-2.2592061659e+00	-1.3572481079e-01
-2.8284271247e+00	-2.8284271247e+00	 5.3956341220e-01
-2.8991378028e+00	-2.7577164466e+00	 5.4647597302e-01
-2.9698484809e+00	-2.6870057685e+00	 5.3717656937e-01
-3.0405591591e+00	-2.6162950904e+00	 5.1259501616e-01
-3.1112698372e+00	-2.5455844123e+00	 4.6968449658e-01
-3.1819805153e+00	-2.4748737342e+00	 4.0844092995e-01
-3.2526911934e+00	-2.4041630561e+00	 3.2886023559e-01
-3.3234018715e+00	-2.3334523780e+00	 2.3093833281e-01
-3.3941125497e+00	-2.2627416998e+00	 1.1467114095e-01
-3.4648232278e+00	-2.1920310217e+00	-1.9945420688e-02
-3.5355339059e+00	-2.1213203436e+00	-1.7291543278e-01
-3.5355339059e+00	-3.5355339059e+00	 2.6546660280e-02
-3.5355339059e+00	-3.5355339059e+00	 2.6546660280e-02
-3.5355339059e+00	-3.5355339059e+00	 2.6546660280e-02
-3.5355339059e+00	-3.5355339059e+00	 2.6546660280e-02
-3.5355339059e+00	-3.5355339059e+00	 2.6546660280e-02
-3.5355339059e+00	-3.5355339059e+00	 2.6546660280e-02
-3.5355339059e+00	-3.5355339059e+00	 2.6546660280e-02
-3.5355339059e+00	-3.5355339059e+00	 2.6546660280e-02
-3.5355339059e+00	-3.5355339059e+00	 2.6546660280e-02
-3.5355339059e+00	-3.5355339059e+00	 2.6546660280e-02
-3.5355339059e+00	-3.5355339059e+00	 2.6546660280e-02
-3.5355339059e+00	-3.5319983720e+00	 4.1117965961e+00
-3.5357106826e+00	-3.5321751487e+00	 4.9318080331e+00
-3.5358874593e+00	-3.5323519254e+00	 5.6748465423e+00
-3.5360642360e+00	-3.5325287021e+00	 6.3409121239e+00
-3.5362410127e+00	-3.5327054788e+00	 6.9300047777e+00
-3.5364177894e+00	-3.5328822555e+00	 7.4421245039e+00
-3.5365945661e+00	-3.5330590322e+00	 7.8772713023e+00
-3.5367713428e+00	-3.5332358089e+00	 8.2354451730e+00
-3.5369481195e+00	-3.5334125856e+00	 8.5166461159e+00
-3.5371248962e+00	-3.5335893623e+00	 8.7208741312e+00
-3.5373016729e+00	-3.5337661389e+00	 8.8481292188e+00
-3.5355339059e+00	-3.5213917703e+00	 1.9405306927e+00
-3.5362410127e+00	-3.5220988771e+00	 2.3568493815e+00
-3.5369481195e+00	-3.5228059838e+00	 2.7353899893e+00
-3.5376552262e+00	-3.5235130906e+00	 3.0761525158e+00
-3.5383623330e+00	-3.5242201974e+00	 3.3791369612e+00
-3.5390694398e+00	-3.5249273042e+00	 3.6443433254e+00
-3.5397765466e+00	-3.5256344110e+00	 3.8717716085e+00
-3.5404836534e+00	-3.5263415177e+00	 4.0614218104e+00
-3.5411907601e+00	-3.5270486245e+00	 4.2132939312e+00
-3.5418978669e+00	-3.5277557313e+00	 4.3273879708e+00
-3.5426049737e+00	-3.5284628381e+00	 4.4037039292e+00
-3.5355339059e+00	-3.5037141007e+00	 1.2944140457e+00
-3.5371248962e+00	-3.5053050910e+00	 1.5666778202e+00
-3.5387158864e+00	-3.5068960813e+00	 1.8141752441e+00
-3.5403068767e+00	-3.5084870715e+00	 2.0369063175e+00
-3.5418978669e+00	-3.5100780618e+00	 2.2348710403e+00
-3.5434888572e+00	-3.5116690520e+00	 2.4080694126e+00
-3.5450798474e+00	-3.5132600423e+00	 2.5565014344e+00
-3.5466708377e+00	-3.5148510325e+00	 2.6801671056e+00
-3.5482618280e+00	-3.5164420228e+00	 2.7790664262e+00
-3.5498528182e+00	-3.5180330131e+00	 2.8531993963e+00
-3.5514438085e+00	-3.5196240033e+00	 2.9025660159e+00
-3.5355339059e+00	-3.4789653634e+00	 9.8610757159e-01
-3.5383623330e+00	-3.4817937905e+00	 1.1845661530e+00
-3.5411907601e+00	-3.4846222177e+00	 1.3647542630e+00
-3.5440191873e+00	-3.4874506448e+00	 1.5266719016e+00
-3.5468476144e+00	-3.4902790719e+00	 1.6703190688e+00
-3.5496760415e+00	-3.4931074990e+00	 1.7956957645e+00
-3.5525044686e+00	-3.4959359262e+00	 1.9028019888e+00
-3.5553328958e+00	-3.4987643533e+00	 1.9916377417e+00
-3.5581613229e+00	-3.5015927804e+00	 2.0622030230e+00
-3.5609897500e+00	-3.5044212075e+00	 2.1144978328e+00
-3.5638181771e+00	-3.5072496347e+00	 2.1485221711e+00
-3.5355339059e+00	-3.4471455582e+00	 8.0598345038e-01
-3.5399533233e+00	-3.4515649756e+00	 9.5962803814e-01
-3.5443727407e+00	-3.4559843930e+00	 1.0988600508e+00
-3.5487921580e+00	-3.4604038104e+00	 1.2237159110e+00
-3.5532115754e+00	-3.4648232278e+00	 1.3341956185e+00
-3.5576309928e+00	-3.4692426452e+00	 1.4302991734e+00
-3.5620504102e+00	-3.4736620625e+00	 1.5120265755e+00
-3.5664698276e+00	-3.4780814799e+00	 1.5793778248e+00
-3.5708892450e+00	-3.4825008973e+00	 1.6323529212e+00
-3.5753086623e+00	-3.4869203147e+00	 1.6709518647e+00
-3.5797280797e+00	-3.4913397321e+00	 1.6951746551e+00
-3.5355339059e+00	-3.4082546853e+00	 6.8687751946e-01
-3.5418978669e+00	-3.4146186463e+00	 8.1055449559e-01
-3.5482618280e+00	-3.4209826073e+00	 9.2245011703e-01
-3.5546257890e+00	-3.4273465684e+00	 1.0225643797e+00
-3.5609897500e+00	-3.4337105294e+00	 1.1108972796e+00
-3.5673537111e+00	-3.4400744904e+00	 1.1874488127e+00
-3.5737176721e+00	-3.4464384515e+00	 1.2522189748e+00
-3.5800816331e+00	-3.4528024125e+00	 1.3050629184e+00
-3.5864455941e+00	-3.4591663735e+00	 1.3460667589e+00
-3.5928095552e+00	-3.4655303346e+00	 1.3752893021e+00
-3.5991735162e+00	-3.4718942956e+00	 1.3927305479e+00
-3.5355339059e+00	-3.3622927445e+00	 6.0245847390e-01
-3.5441959640e+00	-3.3709548026e+00	 7.0456845935e-01
-3.5528580220e+00	-3.3796168606e+00	 7.9674985138e-01
-3.5615200801e+00	-3.3882789187e+00	 8.7900263975e-01
-3.5701821382e+00	-3.3969409768e+00	 9.5132681422e-01
-3.5788441962e+00	-3.4056030349e+00	 1.0137223646e+00
-3.5875062543e+00	-3.4142650929e+00	 1.0661892805e+00
-3.5961683124e+00	-3.4229271510e+00	 1.1087275519e+00
-3.6048303705e+00	-3.4315892091e+00	 1.1413371684e+00
-3.6134924285e+00	-3.4402512671e+00	 1.1640181199e+00
-3.6221544866e+00	-3.4489133252e+00	 1.1767501609e+00
-3.5355339059e+00	-3.3092597359e+00	 5.3938144184e-01
-3.5468476144e+00	-3.3205734444e+00	 6.2528292373e-01
-3.5581613229e+00	-3.3318871529e+00	 7.0264499571e-01
-3.5694750314e+00	-3.3432008614e+00	 7.7146763497e-01
-3.5807887399e+00	-3.3545145699e+00	 8.3175081870e-01
-3.5921024484e+00	-3.3658282784e+00	 8.8349452409e-01
-3.6034161569e+00	-3.3771419869e+00	 9.2669872833e-01
-3.6147298654e+00	-3.3884556954e+00	 9.6136340861e-01
-3.6260435739e+00	-3.3997694039e+00	 9.8748854213e-01
-3.6373572824e+00	-3.4110831124e+00	 1.0050741061e+00
-3.6486709909e+00	-3.4223968209e+00	 1.0141200776e+00
-3.5355339059e+00	-3.2491556595e+00	 4.9036221538e-01
-3.5498528182e+00	-3.2634745718e+00	 5.6364930446e-01
-3.5641717305e+00	-3.2777934842e+00	 6.2947724333e-01
-3.5784906429e+00	-3.2921123965e+00	 6.8784598577e-01
-3.5928095552e+00	-3.3064313088e+00	 7.3875548552e-01
-3.6071284675e+00	-3.3207502211e+00	 7.8220569635e-01
-3.6214473798e+00	-3.3350691334e+00	 8.1819657201e-01
-3.6357662921e+00	-3.3493880457e+00	 8.4672806627e-01
-3.6500852045e+00	-3.3637069581e+00	 8.6780013287e-01
-3.6644041168e+00	-3.3780258704e+00	 8.8141272558e-01
-3.6787230291e+00	-3.3923447827e+00	 8.8756579816e-01
-3.5355339059e+00	-3.1819805153e+00	 4.5109247168e-01
-3.5532115754e+00	-3.1996581848e+00	 5.1429345712e-01
-3.5708892450e+00	-3.2173358544e+00	 5.7089941260e-01
-3.5885669145e+00	-3.2350135239e+00	 6.2091025113e-01
-3.6062445840e+00	-3.2526911934e+00	 6.6432588567e-01
-3.6239222536e+00	-3.2703688630e+00	 7.0114622923e-01
-3.6415999231e+00	-3.2880465325e+00	 7.3137119479e-01
-3.6592775926e+00	-3.3057242020e+00	 7.5500069534e-01
-3.6769552621e+00	-3.3234018715e+00	 7.7203464386e-01
-3.6946329317e+00	-3.3410795411e+00	 7.8247295334e-01
-3.7123106012e+00	-3.3587572106e+00	 7.8631553677e-01
-3.5355339059e+00	-3.1819805153e+00	 4.5109247168e-01
-3.5532115754e+00	-3.1996581848e+00	 5.1429345712e-01
-3.5708892450e+00	-3.2173358544e+00	 5.7089941260e-01
-3.5885669145e+00	-3.2350135239e+00	 6.2091025113e-01
-3.6062445840e+00	-3.2526911934e+00	 6.6432588567e-01
-3.6239222536e+00	-3.2703688630e+00	 7.0114622923e-01
-3.6415999231e+00	-3.2880465325e+00	 7.3137119479e-01
-3.6592775926e+00	-3.3057242020e+00	 7.5500069534e-01
-3.6769552621e+00	-3.3234018715e+00	 7.7203464386e-01
-3.6946329317e+00	-3.3410795411e+00	 7.8247295334e-01
-3.7123106012e+00	-3.3587572106e+00	 7.8631553677e-01
-3.5355339059e+00	-3.1077343033e+00	 3.9400662141e-01
-3.5569238860e+00	-3.1291242834e+00	 4.4830315419e-01
-3.5783138662e+00	-3.1505142635e+00	 4.9718877425e-01
-3.5997038463e+00	-3.1719042437e+00	 5.4066332744e-01
-3.6210938264e+00	-3.1932942238e+00	 5.7872665961e-01
-3.6424838066e+00	-3.2146842039e+00	 6.1137861662e-01
-3.6638737867e+00	-3.2360741841e+00	 6.3861904432e-01
-3.6852637668e+00	-3.2574641642e+00	 6.6044778855e-01
-3.7066537470e+00	-3.2788541443e+00	 6.7686469518e-01
-3.7280437271e+00	-3.3002441245e+00	 6.8786961004e-01
-3.7494337072e+00	-3.3216341046e+00	 6.9346237900e-01
-3.5355339059e+00	-3.0264170234e+00	 3.3191287423e-01
-3.5609897500e+00	-3.0518728676e+00	 3.8154212003e-01
-3.5864455941e+00	-3.0773287117e+00	 4.2658544474e-01
-3.6119014383e+00	-3.1027845558e+00	 4.6704258853e-01
-3.6373572824e+00	-3.1282403999e+00	 5.0291329158e-01
-3.6628131265e+00	-3.1536962441e+00	 5.3419729409e-01
-3.6882689706e+00	-3.1791520882e+00	 5.6089433622e-01
-3.7137248148e+00	-3.2046079323e+00	 5.8300415816e-01
-3.7391806589e+00	-3.2300637764e+00	 6.0052650009e-01
-3.7646365030e+00	-3.2555196205e+00	 6.1346110220e-01
-3.7900923471e+00	-3.2809754647e+00	 6.2180770466e-01
-3.5355339059e+00	-2.9380286758e+00	 2.6903152531e-01
-3.5654091674e+00	-2.9679039373e+00	 3.1667224569e-01
-3.5952844289e+00	-2.9977791988e+00	 3.6031049940e-01
-3.6251596904e+00	-3.0276544603e+00	 3.9994586647e-01
-3.6550349519e+00	-3.0575297218e+00	 4.3557792689e-01
-3.6849102134e+00	-3.0874049833e+00	 4.6720626066e-01
-3.7147854749e+00	-3.1172802448e+00	 4.9483044781e-01
-3.7446607364e+00	-3.1471555063e+00	 5.1845006832e-01
-3.7745359979e+00	-3.1770307678e+00	 5.3806470222e-01
-3.8044112595e+00	-3.2069060293e+00	 5.5367392950e-01
-3.8342865210e+00	-3.2367812908e+00	 5.6527733017e-01
-3.5355339059e+00	-2.8425692603e+00	 2.0757503172e-01
-3.5701821382e+00	-2.8772174926e+00	 2.5494622567e-01
-3.6048303705e+00	-2.9118657249e+00	 2.9873179441e-01
-3.6394786027e+00	-2.9465139572e+00	 3.3893108277e-01
-3.6741268350e+00	-2.9811621895e+00	 3.7554343558e-01
-3.7087750673e+00	-3.0158104217e+00	 4.0856819769e-01
-3.7434232996e+00	-3.0504586540e+00	 4.3800471392e-01
-3.7780715319e+00	-3.0851068863e+00	 4.6385232911e-01
-3.8127197641e+00	-3.1197551186e+00	 4.8611038809e-01
-3.8473679964e+00	-3.1544033508e+00	 5.0477823571e-01
-3.8820162287e+00	-3.1890515831e+00	 5.1985521678e-01
-3.5355339059e+00	-2.7400387771e+00	 1.4866968738e-01
-3.5753086623e+00	-2.7798135335e+00	 1.9688161080e-01
-3.6150834188e+00	-2.8195882900e+00	 2.4180749275e-01
-3.6548581752e+00	-2.8593630464e+00	 2.8344634212e-01
-3.6946329317e+00	-2.8991378028e+00	 3.2179716776e-01
-3.7344076881e+00	-2.9389125593e+00	 3.5685897854e-01
-3.7741824446e+00	-2.9786873157e+00	 3.8863078334e-01
-3.8139572010e+00	-3.0184620722e+00	 4.1711159103e-01
-3.8537319574e+00	-3.0582368286e+00	 4.4230041048e-01
-3.8935067139e+00	-3.0980115850e+00	 4.6419625056e-01
-3.9332814703e+00	-3.1377863415e+00	 4.8279812014e-01
-3.5355339059e+00	-2.6304372260e+00	 9.2843139032e-02
-3.5807887399e+00	-2.6756920600e+00	 1.4261039519e-01
-3.6260435739e+00	-2.7209468940e+00	 1.8930740945e-01
-3.6712984079e+00	-2.7662017280e+00	 2.3293272198e-01
-3.7165532419e+00	-2.8114565620e+00	 2.7348487294e-01
-3.7618080759e+00	-2.8567113960e+00	 3.1096240251e-01
-3.8070629099e+00	-2.9019662300e+00	 3.4536385086e-01
-3.8523177439e+00	-2.9472210640e+00	 3.7668775815e-01
-3.8975725779e+00	-2.9924758980e+00	 4.0493266455e-01
-3.9428274119e+00	-3.0377307319e+00	 4.3009711023e-01
-3.9880822459e+00	-3.0829855659e+00	 4.5217963536e-01
-3.5355339059e+00	-2.5137646071e+00	 4.0290824152e-02
-3.5866223708e+00	-2.5648530721e+00	 9.2065517891e-02
-3.6377108358e+00	-2.6159415370e+00	 1.4092529462e-01
-3.6887993007e+00	-2.6670300019e+00	 1.8686805407e-01
-3.7398877657e+00	-2.7181184669e+00	 2.2989169596e-01
-3.7909762306e+00	-2.7692069318e+00	 2.6999412002e-01
-3.8420646956e+00	-2.8202953967e+00	 3.0717322596e-01
-3.8931531605e+00	-2.8713838617e+00	 3.4142691353e-01
-3.9442416254e+00	-2.9224723266e+00	 3.7275308243e-01
-3.9953300904e+00	-2.9735607916e+00	 4.0114963239e-01
-4.0464185553e+00	-3.0246492565e+00	 4.2661446315e-01
-3.5355339059e+00	-2.3900209204e+00	-8.9746925671e-03
-3.5928095552e+00	-2.4472965697e+00	 4.5082274869e-02
-3.6500852045e+00	-2.5045722190e+00	 9.6335817026e-02
-3.7073608537e+00	-2.5618478682e+00	 1.4478297441e-01
-3.7646365030e+00	-2.6191235175e+00	 1.9042078752e-01
-3.8219121523e+00	-2.6763991668e+00	 2.3324629686e-01
-3.8791878016e+00	-2.7336748161e+00	 2.7325654294e-01
-3.9364634508e+00	-2.7909504653e+00	 3.1044856626e-01
-3.9937391001e+00	-2.8482261146e+00	 3.4481940733e-01
-4.0510147494e+00	-2.9055017639e+00	 3.7636610664e-01
-4.1082903987e+00	-2.9627774131e+00	 4.0508570471e-01
-3.5355339059e+00	-2.2592061659e+00	-5.5038467797e-02
-3.5993502929e+00	-2.3230225529e+00	 1.4539830537e-03
-3.6631666799e+00	-2.3868389399e+00	 5.5222845436e-02
-3.7269830669e+00	-2.4506553269e+00	 1.0626402576e-01
-3.7907994539e+00	-2.5144717139e+00	 1.5457343044e-01
-3.8546158409e+00	-2.5782881009e+00	 2.0014696587e-01
-3.9184322279e+00	-2.6421044879e+00	 2.4298053848e-01
-3.9822486149e+00	-2.7059208749e+00	 2.8307005468e-01
-4.0460650019e+00	-2.7697372619e+00	 3.2041142086e-01
-4.1098813889e+00	-2.8335536489e+00	 3.5500054345e-01
-4.1736977759e+00	-2.8973700359e+00	 3.8683332884e-01
-3.5355339059e+00	-2.1213203436e+00	-9.8033955541e-02
-3.6062445840e+00	-2.1920310217e+00	-3.9037536361e-02
-3.6769552621e+00	-2.2627416998e+00	 1.7292620573e-02
-3.7476659403e+00	-2.3334523780e+00	 7.0950946445e-02
-3.8183766184e+00	-2.4041630561e+00	 1.2193187244e-01
-3.8890872965e+00	-2.4748737342e+00	 1.7022982975e-01
-3.9597979746e+00	-2.5455844123e+00	 2.1583924956e-01
-4.0305086527e+00	-2.6162950904e+00	 2.5875456304e-01
-4.1012193309e+00	-2.6870057685e+00	 2.9897020140e-01
-4.1719300090e+00	-2.7577164466e+00	 3.3648059582e-01
-4.2426406871e+00	-2.8284271247e+00	 3.7128017748e-01
-3.5355339059e+00	-3.5355339059e+00	 2.6546660280e-02
-3.5355339059e+00	-3.5355339059e+00	 2.6546660280e-02
-3.5355339059e+00	-3.5355339059e+00	 2.6546660280e-02
-3.5355339059e+00	-3.5355339059e+00	 2.6546660280e-02
-3.5355339059e+00	-3.5355339059e+00	 2.6546660280e-02
-3.5355339059e+00	-3.5355339059e+00	 2.6546660280e-02
-3.5355339059e+00	-3.5355339059e+00	 2.6546660280e-02
-3.5355339059e+00	-3.5355339059e+00	 2.6546660280e-02
-3.5355339059e+00	-3.5355339059e+00	 2.6546660280e-02
-3.5355339059e+00	-3.5355339059e+00	 2.6546660280e-02
-3.5355339059e+00	-3.5355339059e+00	 2.6546660280e-02
-3.5373016729e+00	-3.5337661389e+00	 1.1734467268e+01
-3.5374784495e+00	-3.5339429156e+00	 1.2750138371e+01
-3.5376552262e+00	-3.5341196923e+00	 1.3505256050e+01
-3.5378320029e+00	-3.5342964690e+00	 1.3999820304e+01
-3.5380087796e+00	-3.5344732457e+00	 1.4233831135e+01
-3.5381855563e+00	-3.5346500224e+00	 1.4207288542e+01
-3.5383623330e+00	-3.5348267991e+00	 1.3920192524e+01
-3.5385391097e+00	-3.5350035758e+00	 1.3372543083e+01
-3.5387158864e+00	-3.5351803525e+00	 1.2564340217e+01
-3.5388926631e+00	-3.5353571292e+00	 1.1495583928e+01
-3.5390694398e+00	-3.5355339059e+00	 1.0166274214e+01
-3.5426049737e+00	-3.5284628381e+00	 5.8987569860e+00
-3.5433120805e+00	-3.5291699449e+00	 6.3914003715e+00
-3.5440191873e+00	-3.5298770517e+00	 6.7543219488e+00
-3.5447262941e+00	-3.5305841584e+00	 6.9875217179e+00
-3.5454334008e+00	-3.5312912652e+00	 7.0909996787e+00
-3.5461405076e+00	-3.5319983720e+00	 7.0647558313e+00
-3.5468476144e+00	-3.5327054788e+00	 6.9087901757e+00
-3.5475547212e+00	-3.5334125856e+00	 6.6231027118e+00
-3.5482618280e+00	-3.5341196923e+00	 6.2076934398e+00
-3.5489689347e+00	-3.5348267991e+00	 5.6625623595e+00
-3.5496760415e+00	-3.5355339059e+00	 4.9877094710e+00
-3.5514438085e+00	-3.5196240033e+00	 3.8952830885e+00
-3.5530347987e+00	-3.5212149936e+00	 4.2229224610e+00
-3.5546257890e+00	-3.5228059838e+00	 4.4643588517e+00
-3.5562167793e+00	-3.5243969741e+00	 4.6195922606e+00
-3.5578077695e+00	-3.5259879644e+00	 4.6886226876e+00
-3.5593987598e+00	-3.5275789546e+00	 4.6714501328e+00
-3.5609897500e+00	-3.5291699449e+00	 4.5680745962e+00
-3.5625807403e+00	-3.5307609351e+00	 4.3784960778e+00
-3.5641717305e+00	-3.5323519254e+00	 4.1027145775e+00
-3.5657627208e+00	-3.5339429156e+00	 3.7407300954e+00
-3.5673537111e+00	-3.5355339059e+00	 3.2925426315e+00
-3.5638181771e+00	-3.5072496347e+00	 2.8828385667e+00
-3.5666466043e+00	-3.5100780618e+00	 3.1297285984e+00
-3.5694750314e+00	-3.5129064889e+00	 3.3121578576e+00
-3.5723034585e+00	-3.5157349160e+00	 3.4301263442e+00
-3.5751318856e+00	-3.5185633432e+00	 3.4836340582e+00
-3.5779603128e+00	-3.5213917703e+00	 3.4726809997e+00
-3.5807887399e+00	-3.5242201974e+00	 3.3972671686e+00
-3.5836171670e+00	-3.5270486245e+00	 3.2573925649e+00
-3.5864455941e+00	-3.5298770517e+00	 3.0530571885e+00
-3.5892740213e+00	-3.5327054788e+00	 2.7842610395e+00
-3.5921024484e+00	-3.5355339059e+00	 2.4510041179e+00
-3.5797280797e+00	-3.4913397321e+00	 2.2721361852e+00
-3.5841474971e+00	-3.4957591495e+00	 2.4711389088e+00
-3.5885669145e+00	-3.5001785668e+00	 2.6187206667e+00
-3.5929863319e+00	-3.5045979842e+00	 2.7148814589e+00
-3.5974057493e+00	-3.5090174016e+00	 2.7596212854e+00
-3.6018251666e+00	-3.5134368190e+00	 2.7529401462e+00
-3.6062445840e+00	-3.5178562364e+00	 2.6948380410e+00
-3.6106640014e+00	-3.5222756538e+00	 2.5853149699e+00
-3.6150834188e+00	-3.5266950711e+00	 2.4243709328e+00
-3.6195028362e+00	-3.5311144885e+00	 2.2120059295e+00
-3.6239222535e+00	-3.5355339059e+00	 1.9482199602e+00
-3.5991735162e+00	-3.4718942956e+00	 1.8638244764e+00
-3.6055374772e+00	-3.4782582566e+00	 2.0311378268e+00
-3.6119014383e+00	-3.4846222177e+00	 2.1557210969e+00
-3.6182653993e+00	-3.4909861787e+00	 2.2375742865e+00
-3.6246293603e+00	-3.4973501397e+00	 2.2766973954e+00
-3.6309933214e+00	-3.5037141007e+00	 2.2730904234e+00
-3.6373572824e+00	-3.5100780618e+00	 2.2267533702e+00
-3.6437212434e+00	-3.5164420228e+00	 2.1376862358e+00
-3.6500852045e+00	-3.5228059838e+00	 2.0058890197e+00
-3.6564491655e+00	-3.5291699449e+00	 1.8313617220e+00
-3.6628131265e+00	-3.5355339059e+00	 1.6141043422e+00
-3.6221544866e+00	-3.4489133252e+00	 1.5717520354e+00
-3.6308165447e+00	-3.4575753833e+00	 1.7165464618e+00
-3.6394786027e+00	-3.4662374413e+00	 1.8248174199e+00
-3.6481406608e+00	-3.4748994994e+00	 1.8965649093e+00
-3.6568027189e+00	-3.4835615575e+00	 1.9317889293e+00
-3.6654647769e+00	-3.4922236156e+00	 1.9304894794e+00
-3.6741268350e+00	-3.5008856736e+00	 1.8926665591e+00
-3.6827888931e+00	-3.5095477317e+00	 1.8183201679e+00
-3.6914509512e+00	-3.5182097898e+00	 1.7074503052e+00
-3.7001130092e+00	-3.5268718478e+00	 1.5600569704e+00
-3.7087750673e+00	-3.5355339059e+00	 1.3761401631e+00
-3.6486709909e+00	-3.4223968209e+00	 1.3517946014e+00
-3.6599846994e+00	-3.4337105294e+00	 1.4801205445e+00
-3.6712984079e+00	-3.4450242379e+00	 1.5765770221e+00
-3.6826121164e+00	-3.4563379464e+00	 1.6409105815e+00
-3.6939258249e+00	-3.4676516549e+00	 1.6732726981e+00
-3.7052395334e+00	-3.4789653634e+00	 1.6737656301e+00
-3.7165532419e+00	-3.4902790719e+00	 1.6423893765e+00
-3.7278669504e+00	-3.5015927804e+00	 1.5791439358e+00
-3.7391806589e+00	-3.5129064889e+00	 1.4840293071e+00
-3.7504943674e+00	-3.5242201974e+00	 1.3570454890e+00
-3.7618080759e+00	-3.5355339059e+00	 1.1981924804e+00
-3.6787230291e+00	-3.3923447827e+00	 1.1804993098e+00
-3.6930419414e+00	-3.4066636950e+00	 1.2958689185e+00
-3.7073608537e+00	-3.4209826073e+00	 1.3829884714e+00
-3.7216797661e+00	-3.4353015197e+00	 1.4418579222e+00
-3.7359986784e+00	-3.4496204320e+00	 1.4724354027e+00
-3.7503175907e+00	-3.4639393443e+00	 1.4743594454e+00
-3.7646365030e+00	-3.4782582566e+00	 1.4480338557e+00
-3.7789554153e+00	-3.4925771689e+00	 1.3934586313e+00
-3.7932743276e+00	-3.5068960813e+00	 1.3106337697e+00
-3.8075932400e+00	-3.5212149936e+00	 1.1995592685e+00
-3.8219121523e+00	-3.5355339059e+00	 1.0602351253e+00
-3.7123106012e+00	-3.3587572106e+00	 1.0433598029e+00
-3.7299882707e+00	-3.3764348801e+00	 1.1484162919e+00
-3.7476659403e+00	-3.3941125497e+00	 1.2281178488e+00
-3.7653436098e+00	-3.4117902192e+00	 1.2824643866e+00
-3.7830212793e+00	-3.4294678887e+00	 1.3114558183e+00
-3.8006989489e+00	-3.4471455582e+00	 1.3150920569e+00
-3.8183766184e+00	-3.4648232278e+00	 1.2928649734e+00
-3.8360542879e+00	-3.4825008973e+00	 1.2452488224e+00
-3.8537319574e+00	-3.5001785668e+00	 1.1722783336e+00
-3.8714096270e+00	-3.5178562364e+00	 1.0739535025e+00
-3.8890872965e+00	-3.5355339059e+00	 9.5027432447e-01
-3.7123106012e+00	-3.3587572106e+00	 1.0433598029e+00
-3.7299882707e+00	-3.3764348801e+00	 1.1484162919e+00
-3.7476659403e+00	-3.3941125497e+00	 1.2281178488e+00
-3.7653436098e+00	-3.4117902192e+00	 1.2824643866e+00
-3.7830212793e+00	-3.4294678887e+00	 1.3114558183e+00
-3.8006989489e+00	-3.4471455582e+00	 1.3150920569e+00
-3.8183766184e+00	-3.4648232278e+00	 1.2928649734e+00
-3.8360542879e+00	-3.4825008973e+00	 1.2452488224e+00
-3.8537319574e+00	-3.5001785668e+00	 1.1722783336e+00
-3.8714096270e+00	-3.5178562364e+00	 1.0739535025e+00
-3.8890872965e+00	-3.5355339059e+00	 9.5027432447e-01
-3.7494337072e+00	-3.3216341046e+00	 9.2099688347e-01
-3.7708236873e+00	-3.3430240847e+00	 1.0176200378e+00
-3.7922136675e+00	-3.3644140648e+00	 1.0914676151e+00
-3.8136036476e+00	-3.3858040450e+00	 1.1425394611e+00
-3.8349936277e+00	-3.4071940251e+00	 1.1708354218e+00
-3.8563836079e+00	-3.4285840052e+00	 1.1763553429e+00
-3.8777735880e+00	-3.4499739854e+00	 1.1590476034e+00
-3.8991635681e+00	-3.4713639655e+00	 1.1183675681e+00
-3.9205535483e+00	-3.4927539456e+00	 1.0549127551e+00
-3.9419435284e+00	-3.5141439258e+00	 9.6868315618e-01
-3.9633335085e+00	-3.5355339059e+00	 8.5967876328e-01
-3.7900923471e+00	-3.2809754647e+00	 8.2458151542e-01
-3.8155481913e+00	-3.3064313088e+00	 9.1346623694e-01
-3.8410040354e+00	-3.3318871529e+00	 9.8165286967e-01
-3.8664598795e+00	-3.3573429970e+00	 1.0291411538e+00
-3.8919157236e+00	-3.3827988412e+00	 1.0559308295e+00
-3.9173715677e+00	-3.4082546853e+00	 1.0620216370e+00
-3.9428274119e+00	-3.4337105294e+00	 1.0474133164e+00
-3.9682832560e+00	-3.4591663735e+00	 1.0117807048e+00
-3.9937391001e+00	-3.4846222177e+00	 9.5501578530e-01
-4.0191949442e+00	-3.5100780618e+00	 8.7755378556e-01
-4.0446507884e+00	-3.5355339059e+00	 7.7939469191e-01
-3.8342865210e+00	-3.2367812908e+00	 7.4697962448e-01
-3.8641617825e+00	-3.2666565523e+00	 8.2881862804e-01
-3.8940370440e+00	-3.2965318139e+00	 8.9166620988e-01
-3.9239123055e+00	-3.3264070754e+00	 9.3552195000e-01
-3.9537875670e+00	-3.3562823369e+00	 9.6038542841e-01
-3.9836628285e+00	-3.3861575984e+00	 9.6625622510e-01
-4.0135380900e+00	-3.4160328599e+00	 9.5313392010e-01
-4.0434133515e+00	-3.4459081214e+00	 9.2101809340e-01
-4.0732886130e+00	-3.4757833829e+00	 8.6910238184e-01
-4.1031638745e+00	-3.5056586444e+00	 7.9812694263e-01
-4.1330391360e+00	-3.5355339059e+00	 7.0816128097e-01
-3.8820162287e+00	-3.1890515831e+00	 6.8340854333e-01
-3.9166644610e+00	-3.2236998154e+00	 7.5885107982e-01
-3.9513126932e+00	-3.2583480477e+00	 8.1672758895e-01
-3.9859609255e+00	-3.2929962799e+00	 8.5703741555e-01
-4.0206091578e+00	-3.3276445122e+00	 8.7977990446e-01
-4.0552573901e+00	-3.3622927445e+00	 8.8495440051e-01
-4.0899056224e+00	-3.3969409768e+00	 8.7256024853e-01
-4.1245538546e+00	-3.4315892091e+00	 8.4259679337e-01
-4.1592020869e+00	-3.4662374413e+00	 7.9454640810e-01
-4.1938503192e+00	-3.5008856736e+00	 7.2844975223e-01
-4.2284985515e+00	-3.5355339059e+00	 6.4478843362e-01
-3.9332814703e+00	-3.1377863415e+00	 6.3055688257e-01
-3.9730562268e+00	-3.1775610979e+00	 7.0019420010e-01
-4.0128309832e+00	-3.2173358544e+00	 7.5347275933e-01
-4.0526057397e+00	-3.2571106108e+00	 7.9039156913e-01
-4.0923804961e+00	-3.2968853672e+00	 8.1094963836e-01
-4.1321552525e+00	-3.3366601237e+00	 8.1514597591e-01
-4.1719300090e+00	-3.3764348801e+00	 8.0297959063e-01
-4.2117047654e+00	-3.4162096366e+00	 7.7444949140e-01
-4.2514795219e+00	-3.4559843930e+00	 7.2933705760e-01
-4.2912542783e+00	-3.4957591495e+00	 6.6695881099e-01
-4.3310290348e+00	-3.5355339059e+00	 5.8822325275e-01
-3.9880822459e+00	-3.0829855659e+00	 5.8606829306e-01
-4.0333370799e+00	-3.1282403999e+00	 6.5043125690e-01
-4.0785919139e+00	-3.1734952339e+00	 6.9947034433e-01
-4.1238467479e+00	-3.2187500679e+00	 7.3318409551e-01
-4.1691015819e+00	-3.2640049019e+00	 7.5157105061e-01
-4.2143564159e+00	-3.3092597359e+00	 7.5462974979e-01
-4.2596112498e+00	-3.3545145699e+00	 7.4235873323e-01
-4.3048660838e+00	-3.3997694039e+00	 7.1475654110e-01
-4.3501209178e+00	-3.4450242379e+00	 6.7182171356e-01
-4.3953757518e+00	-3.4902790719e+00	 6.1239701941e-01
-4.4406305858e+00	-3.5355339059e+00	 5.3755992500e-01
-4.0464185553e+00	-3.0246492565e+00	 5.4822614643e-01
-4.0975070203e+00	-3.0757377214e+00	 6.0778820861e-01
-4.1485954852e+00	-3.1268261864e+00	 6.5292279130e-01
-4.1996839501e+00	-3.1779146513e+00	 6.8362779422e-01
-4.2507724151e+00	-3.2290031162e+00	 6.9990111710e-01
-4.3018608800e+00	-3.2800915812e+00	 7.0174065967e-01
-4.3529493450e+00	-3.3311800461e+00	 6.8914432164e-01
-4.4040378099e+00	-3.3822685111e+00	 6.6211000275e-01
-4.4551262749e+00	-3.4333569760e+00	 6.2063560272e-01
-4.5062147398e+00	-3.4844454410e+00	 5.6374697712e-01
-4.5573032047e+00	-3.5355339059e+00	 4.9202858936e-01
-4.1082903987e+00	-2.9627774131e+00	 5.1575410547e-01
-4.1655660479e+00	-3.0200530624e+00	 5.7093639042e-01
-4.2228416972e+00	-3.0773287117e+00	 6.1247474856e-01
-4.2801173465e+00	-3.1346043610e+00	 6.4036622042e-01
-4.3373929958e+00	-3.1918800102e+00	 6.5460784649e-01
-4.3946686451e+00	-3.2491556595e+00	 6.5519666728e-01
-4.4519442943e+00	-3.3064313088e+00	 6.4212972329e-01
-4.5092199436e+00	-3.3637069581e+00	 6.1540405502e-01
-4.5664955929e+00	-3.4209826073e+00	 5.7501670298e-01
-4.6237712422e+00	-3.4782582566e+00	 5.2017919939e-01
-4.6810468914e+00	-3.5355339059e+00	 4.5097780046e-01
-4.1736977759e+00	-2.8973700359e+00	 4.8768610586e-01
-4.2375141629e+00	-2.9611864229e+00	 5.3886307887e-01
-4.3013305499e+00	-3.0250028099e+00	 5.7708657416e-01
-4.3651469369e+00	-3.0888191969e+00	 6.0235249815e-01
-4.4289633239e+00	-3.1526355839e+00	 6.1465675724e-01
-4.4927797109e+00	-3.2164519709e+00	 6.1399525786e-01
-4.5565960980e+00	-3.2802683579e+00	 6.0036390640e-01
-4.6204124850e+00	-3.3440847449e+00	 5.7375860928e-01
-4.6842288720e+00	-3.4079011319e+00	 5.3417527291e-01
-4.7480452590e+00	-3.4717175189e+00	 4.8101227171e-01
-4.8118616460e+00	-3.5355339059e+00	 4.1385647700e-01
-4.2426406871e+00	-2.8284271247e+00	 4.6327929857e-01
-4.3133513652e+00	-2.8991378028e+00	 5.1078431049e-01
-4.3840620433e+00	-2.9698484809e+00	 5.4594863188e-01
-4.4547727215e+00	-3.0405591591e+00	 5.6876669391e-01
-4.5254833996e+00	-3.1112698372e+00	 5.7923292777e-01
-4.5961940777e+00	-3.1819805153e+00	 5.7734176465e-01
-4.6669047558e+00	-3.2526911934e+00	 5.6308763574e-01
-4.7376154339e+00	-3.3234018715e+00	 5.3646497221e-01
-4.8083261121e+00	-3.3941125497e+00	 4.9746820527e-01
-4.8790367902e+00	-3.4648232278e+00	 4.4568223335e-01
-4.9497474683e+00	-3.5355339059e+00	 3.8019752817e-01
-3.5355339059e+00	-3.5355339059e+00	 2.6546660280e-02
-3.5355339059e+00	-3.5355339059e+00	 2.6546660280e-02
-3.5355339059e+00	-3.5355339059e+00	 2.6546660280e-02
-3.5355339059e+00	-3.5355339059e+00	 2.6546660280e-02
-3.5355339059e+00	-3.5355339059e+00	 2.6546660280e-02
-3.5355339059e+00	-3.5355339059e+00	 2.6546660280e-02
-3.5355339059e+00	-3.5355339059e+00	 2.6546660280e-02
-3.5355339059e+00	-3.5355339059e+00	 2.6546660280e-02
-3.5355339059e+00	-3.5355339059e+00	 2.6546660280e-02
-3.5355339059e+00	-3.5355339059e+00	 2.6546660280e-02
-3.5355339059e+00	-3.5355339059e+00	 2.6546660280e-02
-3.5390694398e+00	-3.5355339059e+00	 9.9875958880e+00
-3.5388926631e+00	-3.5357106826e+00	 1.0606485497e+01
-3.5387158864e+00	-3.5358874593e+00	 1.0835102506e+01
-3.5385391097e+00	-3.5360642360e+00	 1.0673446916e+01
-3.5383623330e+00	-3.5362410127e+00	 1.0121518726e+01
-3.5381855563e+00	-3.5364177894e+00	 9.1793179368e+00
-3.5380087796e+00	-3.5365945661e+00	 7.8468445476e+00
-3.5378320029e+00	-3.5367713428e+00	 6.1240985587e+00
-3.5376552262e+00	-3.5369481195e+00	 4.0110799701e+00
-3.5374784495e+00	-3.5371248962e+00	 1.5077887819e+00
-3.5373016729e+00	-3.5373016729e+00	-1.3857750059e+00
-3.5496760415e+00	-3.5355339059e+00	 4.7585561082e+00
-3.5489689347e+00	-3.5362410127e+00	 5.0937114925e+00
-3.5482618280e+00	-3.5369481195e+00	 5.2350469807e+00
-3.5475547212e+00	-3.5376552262e+00	 5.1825625730e+00
-3.5468476144e+00	-3.5383623330e+00	 4.9362582694e+00
-3.5461405076e+00	-3.5390694398e+00	 4.4961340698e+00
-3.5454334008e+00	-3.5397765466e+00	 3.8621899742e+00
-3.5447262941e+00	-3.5404836534e+00	 3.0344259827e+00
-3.5440191873e+00	-3.5411907601e+00	 2.0128420953e+00
-3.5433120805e+00	-3.5418978669e+00	 7.9743831185e-01
-3.5426049737e+00	-3.5426049737e+00	-6.1178536753e-01
-3.5673537111e+00	-3.5355339059e+00	 3.1301371618e+00
-3.5657627208e+00	-3.5371248962e+00	 3.3549003815e+00
-3.5641717305e+00	-3.5387158864e+00	 3.4512248277e+00
-3.5625807403e+00	-3.5403068767e+00	 3.4191105004e+00
-3.5609897500e+00	-3.5418978669e+00	 3.2585573995e+00
-3.5593987598e+00	-3.5434888572e+00	 2.9695655252e+00
-3.5578077695e+00	-3.5450798474e+00	 2.5521348773e+00
-3.5562167793e+00	-3.5466708377e+00	 2.0062654558e+00
-3.5546257890e+00	-3.5482618280e+00	 1.3319572608e+00
-3.5530347987e+00	-3.5498528182e+00	 5.2921029219e-01
-3.5514438085e+00	-3.5514438085e+00	-4.0197545003e-01
-3.5921024484e+00	-3.5355339059e+00	 2.3376425145e+00
-3.5892740213e+00	-3.5383623330e+00	 2.5042233008e+00
-3.5864455941e+00	-3.5411907601e+00	 2.5750365648e+00
-3.5836171670e+00	-3.5440191873e+00	 2.5500823065e+00
-3.5807887399e+00	-3.5468476144e+00	 2.4293605258e+00
-3.5779603128e+00	-3.5496760415e+00	 2.2128712226e+00
-3.5751318856e+00	-3.5525044686e+00	 1.9006143968e+00
-3.5723034585e+00	-3.5553328958e+00	 1.4925900484e+00
-3.5694750314e+00	-3.5581613229e+00	 9.8879817714e-01
-3.5666466043e+00	-3.5609897500e+00	 3.8923878305e-01
-3.5638181771e+00	-3.5638181771e+00	-3.0608813399e-01
-3.6239222535e+00	-3.5355339059e+00	 1.8692990509e+00
-3.6195028362e+00	-3.5399533233e+00	 1.9999956340e+00
-3.6150834188e+00	-3.5443727407e+00	 2.0545213063e+00
-3.6106640014e+00	-3.5487921580e+00	 2.0328760676e+00
-3.6062445840e+00	-3.5532115754e+00	 1.9350599174e+00
-3.6018251666e+00	-3.5576309928e+00	 1.7610728555e+00
-3.5974057493e+00	-3.5620504102e+00	 1.5109148814e+00
-3.5929863319e+00	-3.5664698276e+00	 1.1845859949e+00
-3.5885669145e+00	-3.5708892450e+00	 7.8208619567e-01
-3.5841474971e+00	-3.5753086623e+00	 3.0341548327e-01
-3.5797280797e+00	-3.5797280797e+00	-2.5142614261e-01
-3.6628131265e+00	-3.5355339059e+00	 1.5602332183e+00
-3.6564491655e+00	-3.5418978669e+00	 1.6665836617e+00
-3.6500852045e+00	-3.5482618280e+00	 1.7098251032e+00
-3.6437212434e+00	-3.5546257890e+00	 1.6899575417e+00
-3.6373572824e+00	-3.5609897500e+00	 1.6069809761e+00
-3.6309933214e+00	-3.5673537111e+00	 1.4608954055e+00
-3.6246293603e+00	-3.5737176721e+00	 1.2517008287e+00
-3.6182653993e+00	-3.5800816331e+00	 9.7939724494e-01
-3.6119014383e+00	-3.5864455941e+00	 6.4398465301e-01
-3.6055374772e+00	-3.5928095552e+00	 2.4546305195e-01
-3.5991735162e+00	-3.5991735162e+00	-2.1616755926e-01
-3.7087750673e+00	-3.5355339059e+00	 1.3411850847e+00
-3.7001130092e+00	-3.5441959640e+00	 1.4299224869e+00
-3.6914509512e+00	-3.5528580220e+00	 1.4648796789e+00
-3.6827888931e+00	-3.5615200801e+00	 1.4460566579e+00
-3.6741268350e+00	-3.5701821382e+00	 1.3734534215e+00
-3.6654647769e+00	-3.5788441962e+00	 1.2470699671e+00
-3.6568027189e+00	-3.5875062543e+00	 1.0669062921e+00
-3.6481406608e+00	-3.5961683124e+00	 8.3296239385e-01
-3.6394786027e+00	-3.6048303705e+00	 5.4523826989e-01
-3.6308165447e+00	-3.6134924285e+00	 2.0373391761e-01
-3.6221544866e+00	-3.6221544866e+00	-1.9155067018e-01
-3.7618080759e+00	-3.5355339059e+00	 1.1779840761e+00
-3.7504943674e+00	-3.5468476144e+00	 1.2533754952e+00
-3.7391806589e+00	-3.5581613229e+00	 1.2819827778e+00
-3.7278669504e+00	-3.5694750314e+00	 1.2638059180e+00
-3.7165532419e+00	-3.5807887399e+00	 1.1988449103e+00
-3.7052395334e+00	-3.5921024484e+00	 1.0870997489e+00
-3.6939258249e+00	-3.6034161569e+00	 9.2857042800e-01
-3.6826121164e+00	-3.6147298654e+00	 7.2325694193e-01
-3.6712984079e+00	-3.6260435739e+00	 4.7115928008e-01
-3.6599846994e+00	-3.6373572824e+00	 1.7227744584e-01
-3.6486709909e+00	-3.6486709909e+00	-1.7338857081e-01
-3.8219121523e+00	-3.5355339059e+00	 1.0518279950e+00
-3.8075932400e+00	-3.5498528182e+00	 1.1167452803e+00
-3.7932743276e+00	-3.5641717305e+00	 1.1403196441e+00
-3.7789554153e+00	-3.5784906429e+00	 1.1225510747e+00
-3.7646365030e+00	-3.5928095552e+00	 1.0634395605e+00
-3.7503175907e+00	-3.6071284675e+00	 9.6298508989e-01
-3.7359986784e+00	-3.6214473798e+00	 8.2118765120e-01
-3.7216797661e+00	-3.6357662921e+00	 6.3804722743e-01
-3.7073608537e+00	-3.6500852045e+00	 4.1356381698e-01
-3.6930419414e+00	-3.6644041168e+00	 1.4773740359e-01
-3.6787230291e+00	-3.6787230291e+00	-1.5943202436e-01
-3.8890872965e+00	-3.5355339059e+00	 9.5151714559e-01
-3.8714096270e+00	-3.5532115754e+00	 1.0079836106e+00
-3.8537319574e+00	-3.5708892450e+00	 1.0274601780e+00
-3.8360542879e+00	-3.5885669145e+00	 1.0099468258e+00
-3.8183766184e+00	-3.6062445840e+00	 9.5544353228e-01
-3.8006989489e+00	-3.6239222536e+00	 8.6395027069e-01
-3.7830212793e+00	-3.6415999231e+00	 7.3546702786e-01
-3.7653436098e+00	-3.6592775926e+00	 5.6999377801e-01
-3.7476659403e+00	-3.6769552621e+00	 3.6753049929e-01
-3.7299882707e+00	-3.6946329317e+00	 1.2807716983e-01
-3.7123106012e+00	-3.7123106012e+00	-1.4836623222e-01
-3.8890872965e+00	-3.5355339059e+00	 9.5151714559e-01
-3.8714096270e+00	-3.5532115754e+00	 1.0079836106e+00
-3.8537319574e+00	-3.5708892450e+00	 1.0274601780e+00
-3.8360542879e+00	-3.5885669145e+00	 1.0099468258e+00
-3.8183766184e+00	-3.6062445840e+00	 9.5544353228e-01
-3.8006989489e+00	-3.6239222536e+00	 8.6395027069e-01
-3.7830212793e+00	-3.6415999231e+00	 7.3546702786e-01
-3.7653436098e+00	-3.6592775926e+00	 5.6999377801e-01
-3.7476659403e+00	-3.6769552621e+00	 3.6753049929e-01
-3.7299882707e+00	-3.6946329317e+00	 1.2807716983e-01
-3.7123106012e+00	-3.7123106012e+00	-1.4836623222e-01
-3.9633335085e+00	-3.5355339059e+00	 8.3421447017e-01
-3.9419435284e+00	-3.5569238860e+00	 8.8756935143e-01
-3.9205535483e+00	-3.5783138662e+00	 9.0768062600e-01
-3.8991635681e+00	-3.5997038463e+00	 8.9454825515e-01
-3.8777735880e+00	-3.6210938264e+00	 8.4817220017e-01
-3.8563836079e+00	-3.6424838066e+00	 7.6855241639e-01
-3.8349936277e+00	-3.6638737867e+00	 6.5568887565e-01
-3.8136036476e+00	-3.6852637668e+00	 5.0958153448e-01
-3.7922136675e+00	-3.7066537470e+00	 3.3023035418e-01
-3.7708236873e+00	-3.7280437271e+00	 1.1763529603e-01
-3.7494337072e+00	-3.7494337072e+00	-1.2820367868e-01
-4.0446507884e+00	-3.5355339059e+00	 7.4186812235e-01
-4.0191949442e+00	-3.5609897500e+00	 7.9224600436e-01
-3.9937391001e+00	-3.5864455941e+00	 8.1243994441e-01
-3.9682832560e+00	-3.6119014383e+00	 8.0244987724e-01
-3.9428274119e+00	-3.6373572824e+00	 7.6227573188e-01
-3.9173715677e+00	-3.6628131265e+00	 6.9191745290e-01
-3.8919157236e+00	-3.6882689706e+00	 5.9137497073e-01
-3.8664598795e+00	-3.7137248148e+00	 4.6064822012e-01
-3.8410040354e+00	-3.7391806589e+00	 2.9973713582e-01
-3.8155481913e+00	-3.7646365030e+00	 1.0864165257e-01
-3.7900923471e+00	-3.7900923471e+00	-1.1263829489e-01
-4.1330391360e+00	-3.5355339059e+00	 6.6766626596e-01
-4.1031638745e+00	-3.5654091674e+00	 7.1524188004e-01
-4.0732886130e+00	-3.5952844289e+00	 7.3517857799e-01
-4.0434133515e+00	-3.6251596904e+00	 7.2747624927e-01
-4.0135380900e+00	-3.6550349519e+00	 6.9213479673e-01
-3.9836628285e+00	-3.6849102134e+00	 6.2915411134e-01
-3.9537875670e+00	-3.7147854749e+00	 5.3853408763e-01
-3.9239123055e+00	-3.7446607364e+00	 4.2027462010e-01
-3.8940370440e+00	-3.7745359979e+00	 2.7437560328e-01
-3.8641617825e+00	-3.8044112595e+00	 1.0083693167e-01
-3.8342865210e+00	-3.8342865210e+00	-1.0034150020e-01
-4.2284985515e+00	-3.5355339059e+00	 6.0702989268e-01
-4.1938503192e+00	-3.5701821382e+00	 6.5198665883e-01
-4.1592020869e+00	-3.6048303705e+00	 6.7145423744e-01
-4.1245538546e+00	-3.6394786027e+00	 6.6543245798e-01
-4.0899056224e+00	-3.6741268350e+00	 6.3392116557e-01
-4.0552573901e+00	-3.7087750673e+00	 5.7692019161e-01
-4.0206091578e+00	-3.7434232996e+00	 4.9442937155e-01
-3.9859609255e+00	-3.7780715319e+00	 3.8644854083e-01
-3.9513126932e+00	-3.8127197641e+00	 2.5297753491e-01
-3.9166644610e+00	-3.8473679964e+00	 9.4016189242e-02
-3.8820162287e+00	-3.8820162287e+00	-9.0435660735e-02
-4.3310290348e+00	-3.5355339059e+00	 5.5677936172e-01
-4.2912542783e+00	-3.5753086623e+00	 5.9929454906e-01
-4.2514795219e+00	-3.6150834188e+00	 6.1816033501e-01
-4.2117047654e+00	-3.6548581752e+00	 6.1337646357e-01
-4.1719300090e+00	-3.6946329317e+00	 5.8494269704e-01
-4.1321552525e+00	-3.7344076881e+00	 5.3285878184e-01
-4.0923804961e+00	-3.7741824446e+00	 4.5712446904e-01
-4.0526057397e+00	-3.8139572010e+00	 3.5773950972e-01
-4.0128309832e+00	-3.8537319574e+00	 2.3470365493e-01
-3.9730562268e+00	-3.8935067139e+00	 8.8016655757e-02
-3.9332814703e+00	-3.9332814703e+00	-8.2321736744e-02
-4.4406305858e+00	-3.5355339059e+00	 5.1464483941e-01
-4.3953757518e+00	-3.5807887399e+00	 5.5488294407e-01
-4.3501209178e+00	-3.6260435739e+00	 5.7306412849e-01
-4.3048660838e+00	-3.6712984079e+00	 5.6918803378e-01
-4.2596112498e+00	-3.7165532419e+00	 5.4325429025e-01
-4.2143564159e+00	-3.7618080759e+00	 4.9526253128e-01
-4.1691015819e+00	-3.8070629099e+00	 4.2521239021e-01
-4.1238467479e+00	-3.8523177439e+00	 3.3310350041e-01
-4.0785919139e+00	-3.8975725779e+00	 2.1893549521e-01
-4.0333370799e+00	-3.9428274119e+00	 8.2708007970e-02
-3.9880822459e+00	-3.9880822459e+00	-7.5579327964e-02
-4.5573032047e+00	-3.5355339059e+00	 4.7896688241e-01
-4.5062147398e+00	-3.5866223708e+00	 5.1707712031e-01
-4.4551262749e+00	-3.6377108358e+00	 5.3452263644e-01
-4.4040378099e+00	-3.6887993007e+00	 5.3130291202e-01
-4.3529493450e+00	-3.7398877657e+00	 5.0741741619e-01
-4.3018608800e+00	-3.7909762306e+00	 4.6286562148e-01
-4.2507724151e+00	-3.8420646956e+00	 3.9764700037e-01
-4.1996839501e+00	-3.8931531605e+00	 3.1176102539e-01
-4.1485954852e+00	-3.9442416254e+00	 2.0520716901e-01
-4.0975070203e+00	-3.9953300904e+00	 7.7984903748e-02
-4.0464185553e+00	-4.0464185553e+00	-6.9906297916e-02
-4.6810468914e+00	-3.5355339059e+00	 4.4850684467e-01
-4.6237712422e+00	-3.5928095552e+00	 4.8462269230e-01
-4.5664955929e+00	-3.6500852045e+00	 5.0130170923e-01
-4.5092199436e+00	-3.7073608537e+00	 4.9854316195e-01
-4.4519442943e+00	-3.7646365030e+00	 4.7634630347e-01
-4.3946686451e+00	-3.8219121523e+00	 4.3471039050e-01
-4.3373929958e+00	-3.8791878016e+00	 3.7363467975e-01
-4.2801173465e+00	-3.9364634508e+00	 2.9311842792e-01
-4.2228416972e+00	-3.9937391001e+00	 1.9316089171e-01
-4.1655660479e+00	-4.0510147494e+00	 7.3761327808e-02
-4.1082903987e+00	-4.1082903987e+00	-6.5081007087e-02
-4.8118616460e+00	-3.5355339059e+00	 4.2232315009e-01
-4.7480452590e+00	-3.5993502929e+00	 4.5656286915e-01
-4.6842288720e+00	-3.6631666799e+00	 4.7245736139e-01
-4.6204124850e+00	-3.7269830669e+00	 4.7000560970e-01
-4.5565960980e+00	-3.7907994539e+00	 4.4920658184e-01
-4.4927797109e+00	-3.8546158409e+00	 4.1005924969e-01
-4.4289633239e+00	-3.9184322279e+00	 3.5256258514e-01
-4.3651469369e+00	-3.9822486149e+00	 2.7671556005e-01
-4.3013305499e+00	-4.0460650019e+00	 1.8251714628e-01
-4.2375141629e+00	-4.1098813889e+00	 6.9966315701e-02
-4.1736977759e+00	-4.1736977759e+00	-6.0937959847e-02
-4.9497474683e+00	-3.5355339059e+00	 3.9968838486e-01
-4.8790367902e+00	-3.6062445840e+00	 4.3215597664e-01
-4.8083261121e+00	-3.6769552621e+00	 4.4725582478e-01
-4.7376154339e+00	-3.7476659403e+00	 4.4498654310e-01
-4.6669047558e+00	-3.8183766184e+00	 4.2534672838e-01
-4.5961940777e+00	-3.8890872965e+00	 3.8833498200e-01
-4.5254833996e+00	-3.9597979746e+00	 3.3394990534e-01
-4.4547727215e+00	-4.0305086527e+00	 2.6219009976e-01
-4.3840620433e+00	-4.1012193309e+00	 1.7305416662e-01
-4.3133513652e+00	-4.1719300090e+00	 6.6540707245e-02
-4.2426406871e+00	-4.2426406871e+00	-5.7351677024e-02
-3.5355339059e+00	-3.5355339059e+00	 2.6546660280e-02
-3.5355339059e+00	-3.5355339059e+00	 2.6546660280e-02
-3.5355339059e+00	-3.5355339059e+00	 2.6546660280e-02
-3.5355339059e+00	-3.5355339059e+00	 2.6546660280e-02
-3.5355339059e+00	-3.5355339059e+00	 2.6546660280e-02
-3.5355339059e+00	-3.5355339059e+00	 2.6546660280e-02
-3.5355339059e+00	-3.5355339059e+00	 2.6546660280e-02
-3.5355339059e+00	-3.5355339059e+00	 2.6546660280e-02
-3.5355339059e+00	-3.5355339059e+00	 2.6546660280e-02
-3.5355339059e+00	-3.5355339059e+00	 2.6546660280e-02
-3.5355339059e+00	-3.5355339059e+00	 2.6546660280e-02
-3.5373016729e+00	-3.5373016729e+00	-4.9015986778e-01
-3.5371248962e+00	-3.5374784495e+00	-1.4428165929e+00
-3.5369481195e+00	-3.5376552262e+00	-2.2146565837e+00
-3.5367713428e+00	-3.5378320029e+00	-2.8056798401e+00
-3.5365945661e+00	-3.5380087796e+00	-3.2158863621e+00
-3.5364177894e+00	-3.5381855563e+00	-3.4452761497e+00
-3.5362410127e+00	-3.5383623330e+00	-3.4938492030e+00
-3.5360642360e+00	-3.5385391097e+00	-3.3616055218e+00
-3.5358874593e+00	-3.5387158864e+00	-3.0485451063e+00
-3.5357106826e+00	-3.5388926631e+00	-2.5546679565e+00
-3.5355339059e+00	-3.5390694398e+00	-1.8799740722e+00
-3.5426049737e+00	-3.5426049737e+00	-2.3931577105e-01
-3.5418978669e+00	-3.5433120805e+00	-6.9574019220e-01
-3.5411907601e+00	-3.5440191873e+00	-1.0632902633e+00
-3.5404836534e+00	-3.5447262941e+00	-1.3419659843e+00
-3.5397765466e+00	-3.5454334008e+00	-1.5317673552e+00
-3.5390694398e+00	-3.5461405076e+00	-1.6326943761e+00
-3.5383623330e+00	-3.5468476144e+00	-1.6447470468e+00
-3.5376552262e+00	-3.5475547212e+00	-1.5679253676e+00
-3.5369481195e+00	-3.5482618280e+00	-1.4022293382e+00
-3.5362410127e+00	-3.5489689347e+00	-1.1476589588e+00
-3.5355339059e+00	-3.5496760415e+00	-8.0421422932e-01
-3.5514438085e+00	-3.5514438085e+00	-1.6163828318e-01
-3.5498528182e+00	-3.5530347987e+00	-4.6370270363e-01
-3.5482618280e+00	-3.5546257890e+00	-7.0675009804e-01
-3.5466708377e+00	-3.5562167793e+00	-8.9078046644e-01
-3.5450798474e+00	-3.5578077695e+00	-1.0157938088e+00
-3.5434888572e+00	-3.5593987598e+00	-1.0817901252e+00
-3.5418978669e+00	-3.5609897500e+00	-1.0887694156e+00
-3.5403068767e+00	-3.5625807403e+00	-1.0367316801e+00
-3.5387158864e+00	-3.5641717305e+00	-9.2567691864e-01
-3.5371248962e+00	-3.5657627208e+00	-7.5560513123e-01
-3.5355339059e+00	-3.5673537111e+00	-5.2651631792e-01
-3.5638181771e+00	-3.5638181771e+00	-1.2389541614e-01
-3.5609897500e+00	-3.5666466043e+00	-3.5087283198e-01
-3.5581613229e+00	-3.5694750314e+00	-5.3361371014e-01
-3.5553328958e+00	-3.5723034585e+00	-6.7211805072e-01
-3.5525044686e+00	-3.5751318856e+00	-7.6638585380e-01
-3.5496760415e+00	-3.5779603128e+00	-8.1641711947e-01
-3.5468476144e+00	-3.5807887399e+00	-8.2221184782e-01
-3.5440191873e+00	-3.5836171670e+00	-7.8377003895e-01
-3.5411907601e+00	-3.5864455941e+00	-7.0109169294e-01
-3.5383623330e+00	-3.5892740213e+00	-5.7417680988e-01
-3.5355339059e+00	-3.5921024484e+00	-4.0302538986e-01
-3.5797280797e+00	-3.5797280797e+00	-1.0158512911e-01
-3.5753086623e+00	-3.5841474971e+00	-2.8419882061e-01
-3.5708892450e+00	-3.5885669145e+00	-4.3139681381e-01
-3.5664698276e+00	-3.5929863319e+00	-5.4317910905e-01
-3.5620504102e+00	-3.5974057493e+00	-6.1954570667e-01
-3.5576309928e+00	-3.6018251666e+00	-6.6049660701e-01
-3.5532115754e+00	-3.6062445840e+00	-6.6603181042e-01
-3.5487921580e+00	-3.6106640014e+00	-6.3615131723e-01
-3.5443727407e+00	-3.6150834188e+00	-5.7085512778e-01
-3.5399533233e+00	-3.6195028362e+00	-4.7014324243e-01
-3.5355339059e+00	-3.6239222535e+00	-3.3401566617e-01
-3.5991735162e+00	-3.5991735162e+00	-8.6838113228e-02
-3.5928095552e+00	-3.6055374772e+00	-2.4017947704e-01
-3.5864455941e+00	-3.6119014383e+00	-3.6396587492e-01
-3.5800816331e+00	-3.6182653993e+00	-4.5819730788e-01
-3.5737176721e+00	-3.6246293603e+00	-5.2287378166e-01
-3.5673537111e+00	-3.6309933214e+00	-5.5799528818e-01
-3.5609897500e+00	-3.6373572824e+00	-5.6356183284e-01
-3.5546257890e+00	-3.6437212434e+00	-5.3957341668e-01
-3.5482618280e+00	-3.6500852045e+00	-4.8603004071e-01
-3.5418978669e+00	-3.6564491655e+00	-4.0293170595e-01
-3.5355339059e+00	-3.6628131265e+00	-2.9027841341e-01
-3.6221544866e+00	-3.6221544866e+00	-7.6355003951e-02
-3.6134924285e+00	-3.6308165447e+00	-2.0895103124e-01
-3.6048303705e+00	-3.6394786027e+00	-3.1616854606e-01
-3.5961683124e+00	-3.6481406608e+00	-3.9800755100e-01
-3.5875062543e+00	-3.6568027189e+00	-4.5446804862e-01
-3.5788441962e+00	-3.6654647769e+00	-4.8555004149e-01
-3.5701821382e+00	-3.6741268350e+00	-4.9125353219e-01
-3.5615200801e+00	-3.6827888931e+00	-4.7157852329e-01
-3.5528580220e+00	-3.6914509512e+00	-4.2652501735e-01
-3.5441959640e+00	-3.7001130092e+00	-3.5609301696e-01
-3.5355339059e+00	-3.7087750673e+00	-2.6028252467e-01
-3.6486709909e+00	-3.6486709909e+00	-6.8510319234e-02
-3.6373572824e+00	-3.6599846994e+00	-1.8565003372e-01
-3.6260435739e+00	-3.6712984079e+00	-2.8053813419e-01
-3.6147298654e+00	-3.6826121164e+00	-3.5317462638e-01
-3.6034161569e+00	-3.6939258249e+00	-4.0355951601e-01
-3.5921024484e+00	-3.7052395334e+00	-4.3169280882e-01
-3.5807887399e+00	-3.7165532419e+00	-4.3757451053e-01
-3.5694750314e+00	-3.7278669504e+00	-4.2120462687e-01
-3.5581613229e+00	-3.7391806589e+00	-3.8258316357e-01
-3.5468476144e+00	-3.7504943674e+00	-3.2171012637e-01
-3.5355339059e+00	-3.7618080759e+00	-2.3858552098e-01
-3.6787230291e+00	-3.6787230291e+00	-6.2410772200e-02
-3.6644041168e+00	-3.6930419414e+00	-1.6760175292e-01
-3.6500852045e+00	-3.7073608537e+00	-2.5296981717e-01
-3.6357662921e+00	-3.7216797661e+00	-3.1851497658e-01
-3.6214473798e+00	-3.7359986784e+00	-3.6423724276e-01
-3.6071284675e+00	-3.7503175907e+00	-3.9013662733e-01
-3.5928095552e+00	-3.7646365030e+00	-3.9621314188e-01
-3.5784906429e+00	-3.7789554153e+00	-3.8246679805e-01
-3.5641717305e+00	-3.7932743276e+00	-3.4889760745e-01
-3.5498528182e+00	-3.8075932400e+00	-2.9550558168e-01
-3.5355339059e+00	-3.8219121523e+00	-2.2229073238e-01
-3.7123106012e+00	-3.7123106012e+00	-5.7524956047e-02
-3.6946329317e+00	-3.7299882707e+00	-1.5321370654e-01
-3.6769552621e+00	-3.7476659403e+00	-2.3102026885e-01
-3.6592775926e+00	-3.7653436098e+00	-2.9094466485e-01
-3.6415999231e+00	-3.7830212793e+00	-3.3298691639e-01
-3.6239222535e+00	-3.8006989489e+00	-3.5714704532e-01
-3.6062445840e+00	-3.8183766184e+00	-3.6342507349e-01
-3.5885669145e+00	-3.8360542879e+00	-3.5182102276e-01
-3.5708892450e+00	-3.8537319574e+00	-3.2233491499e-01
-3.5532115754e+00	-3.8714096270e+00	-2.7496677203e-01
-3.5355339059e+00	-3.8890872965e+00	-2.0971661573e-01
-3.7123106012e+00	-3.7123106012e+00	-5.7524956047e-02
-3.6946329317e+00	-3.7299882707e+00	-1.5321370654e-01
-3.6769552621e+00	-3.7476659403e+00	-2.3102026885e-01
-3.6592775926e+00	-3.7653436098e+00	-2.9094466485e-01
-3.6415999231e+00	-3.7830212793e+00	-3.3298691639e-01
-3.6239222535e+00	-3.8006989489e+00	-3.5714704532e-01
-3.6062445840e+00	-3.8183766184e+00	-3.6342507349e-01
-3.5885669145e+00	-3.8360542879e+00	-3.5182102276e-01
-3.5708892450e+00	-3.8537319574e+00	-3.2233491499e-01
-3.5532115754e+00	-3.8714096270e+00	-2.7496677203e-01
-3.5355339059e+00	-3.8890872965e+00	-2.0971661573e-01
-3.7494337072e+00	-3.7494337072e+00	-4.2676084312e-02
-3.7280437271e+00	-3.7708236873e+00	-1.2657231188e-01
-3.7066537470e+00	-3.7922136675e+00	-1.9382055409e-01
-3.6852637668e+00	-3.8136036476e+00	-2.4442084965e-01
-3.6638737867e+00	-3.8349936277e+00	-2.7837323730e-01
-3.6424838066e+00	-3.8563836079e+00	-2.9567775573e-01
-3.6210938264e+00	-3.8777735880e+00	-2.9633444367e-01
-3.5997038463e+00	-3.8991635681e+00	-2.8034333984e-01
-3.5783138662e+00	-3.9205535483e+00	-2.4770448295e-01
-3.5569238860e+00	-3.9419435284e+00	-1.9841791172e-01
-3.5355339059e+00	-3.9633335085e+00	-1.3248366487e-01
-3.7900923471e+00	-3.7900923471e+00	-3.1990603432e-02
-3.7646365030e+00	-3.8155481913e+00	-1.0716195106e-01
-3.7391806589e+00	-3.8410040354e+00	-1.6683205360e-01
-3.7137248148e+00	-3.8664598795e+00	-2.1100097629e-01
-3.6882689706e+00	-3.8919157236e+00	-2.3966878441e-01
-3.6628131265e+00	-3.9173715677e+00	-2.5283554320e-01
-3.6373572824e+00	-3.9428274119e+00	-2.5050131792e-01
-3.6119014383e+00	-3.9682832560e+00	-2.3266617383e-01
-3.5864455941e+00	-3.9937391001e+00	-1.9933017620e-01
-3.5609897500e+00	-4.0191949442e+00	-1.5049339027e-01
-3.5355339059e+00	-4.0446507884e+00	-8.6155881303e-02
-3.8342865210e+00	-3.8342865210e+00	-2.4143786752e-02
-3.8044112595e+00	-3.8641617825e+00	-9.2723424778e-02
-3.7745359979e+00	-3.8940370440e+00	-1.4685590540e-01
-3.7446607364e+00	-3.9239123055e+00	-1.8654133411e-01
-3.7147854749e+00	-3.9537875670e+00	-2.1177981638e-01
-3.6849102134e+00	-3.9836628285e+00	-2.2257145772e-01
-3.6550349519e+00	-4.0135380900e+00	-2.1891636360e-01
-3.6251596904e+00	-4.0434133515e+00	-2.0081463952e-01
-3.5952844289e+00	-4.0732886130e+00	-1.6826639096e-01
-3.5654091674e+00	-4.1031638745e+00	-1.2127172342e-01
-3.5355339059e+00	-4.1330391360e+00	-5.9830742378e-02
-3.8820162287e+00	-3.8820162287e+00	-1.8286288661e-02
-3.8473679964e+00	-3.9166644610e+00	-8.1800442406e-02
-3.8127197641e+00	-3.9513126932e+00	-1.3183185341e-01
-3.7780715319e+00	-3.9859609255e+00	-1.6838068624e-01
-3.7434232996e+00	-4.0206091578e+00	-1.9144710544e-01
-3.7087750673e+00	-4.0552573901e+00	-2.0103127556e-01
-3.6741268350e+00	-4.0899056224e+00	-1.9713336117e-01
-3.6394786027e+00	-4.1245538546e+00	-1.7975352682e-01
-3.6048303705e+00	-4.1592020869e+00	-1.4889193706e-01
-3.5701821382e+00	-4.1938503192e+00	-1.0454875646e-01
-3.5355339059e+00	-4.2284985515e+00	-4.6724149568e-02
-3.9332814703e+00	-3.9332814703e+00	-1.3855702830e-02
-3.8935067139e+00	-3.9730562268e+00	-7.3423120377e-02
-3.8537319574e+00	-4.0128309832e+00	-1.2038887585e-01
-3.8139572010e+00	-4.0526057397e+00	-1.5475321819e-01
-3.7741824446e+00	-4.0923804961e+00	-1.7651639632e-01
-3.7344076881e+00	-4.1321552525e+00	-1.8567865920e-01
-3.6946329317e+00	-4.1719300090e+00	-1.8224025575e-01
-3.6548581752e+00	-4.2117047654e+00	-1.6620143492e-01
-3.6150834188e+00	-4.2514795219e+00	-1.3756244566e-01
-3.5753086623e+00	-4.2912542783e+00	-9.6323536894e-02
-3.5355339059e+00	-4.3310290348e+00	-4.2484957579e-02
-3.9880822459e+00	-3.9880822459e+00	-1.0469344818e-02
-3.9428274119e+00	-4.0333370799e+00	-6.6927359311e-02
-3.8975725779e+00	-4.0785919139e+00	-1.1158888385e-01
-3.8523177439e+00	-4.1238467479e+00	-1.4445428509e-01
-3.8070629099e+00	-4.1691015819e+00	-1.6552392970e-01
-3.7618080759e+00	-4.2143564159e+00	-1.7479818434e-01
-3.7165532419e+00	-4.2596112498e+00	-1.7227741566e-01
-3.6712984079e+00	-4.3048660838e+00	-1.5796199034e-01
-3.6260435739e+00	-4.3501209178e+00	-1.3185227505e-01
-3.5807887399e+00	-4.3953757518e+00	-9.3948636447e-02
-3.5355339059e+00	-4.4406305858e+00	-4.4251441208e-02
-4.0464185553e+00	-4.0464185553e+00	-7.8607232078e-03
-3.9953300904e+00	-4.0975070203e+00	-6.1847488456e-02
-3.9442416254e+00	-4.1485954852e+00	-1.0477447442e-01
-3.8931531605e+00	-4.1996839501e+00	-1.3664220862e-01
-3.8420646956e+00	-4.2507724151e+00	-1.5745121857e-01
-3.7909762306e+00	-4.3018608800e+00	-1.6720203180e-01
-3.7398877657e+00	-4.3529493450e+00	-1.6589517583e-01
-3.6887993007e+00	-4.4040378099e+00	-1.5353117818e-01
-3.6377108358e+00	-4.4551262749e+00	-1.3011056639e-01
-3.5866223708e+00	-4.5062147398e+00	-9.5633868001e-02
-3.5355339059e+00	-4.5573032047e+00	-5.0101610539e-02
-4.1082903987e+00	-4.1082903987e+00	-5.8405631149e-03
-4.0510147494e+00	-4.1655660479e+00	-5.7850189482e-02
-3.9937391001e+00	-4.2228416972e+00	-9.9475278965e-02
-3.9364634508e+00	-4.2801173465e+00	-1.3071657489e-01
-3.8791878016e+00	-4.3373929958e+00	-1.5157482058e-01
-3.8219121523e+00	-4.3946686451e+00	-1.6205075938e-01
-3.7646365030e+00	-4.4519442943e+00	-1.6214513462e-01
-3.7073608537e+00	-4.5092199436e+00	-1.5185868964e-01
-3.6500852045e+00	-4.5664955929e+00	-1.3119216779e-01
-3.5928095552e+00	-4.6237712422e+00	-1.0014631243e-01
-3.5355339059e+00	-4.6810468914e+00	-5.8721866913e-02
-4.1736977759e+00	-4.1736977759e+00	-4.2721594213e-03
-4.1098813889e+00	-4.2375141629e+00	-5.4692574478e-02
-4.0460650019e+00	-4.3013305499e+00	-9.5348580887e-02
-3.9822486149e+00	-4.3651469369e+00	-1.2624120682e-01
-3.9184322279e+00	-4.4289633239e+00	-1.4737148046e-01
-3.8546158409e+00	-4.4927797109e+00	-1.5874042998e-01
-3.7907994539e+00	-4.5565960980e+00	-1.6034908359e-01
-3.7269830669e+00	-4.6204124850e+00	-1.5219846949e-01
-3.6631666799e+00	-4.6842288720e+00	-1.3428961587e-01
-3.5993502929e+00	-4.7480452590e+00	-1.0662355097e-01
-3.5355339059e+00	-4.8118616460e+00	-6.9201302996e-02
-4.2426406871e+00	-4.2426406871e+00	-3.0553734963e-03
-4.1719300090e+00	-4.3133513652e+00	-5.2194871587e-02
-4.1012193309e+00	-4.3840620433e+00	-9.2140647123e-02
-4.0305086527e+00	-4.4547727215e+00	-1.2289409881e-01
-3.9597979746e+00	-4.5254833996e+00	-1.4445662535e-01
-3.8890872965e+00	-4.5961940777e+00	-1.5682962548e-01
-3.8183766184e+00	-4.6669047558e+00	-1.6001449793e-01
-3.7476659403e+00	-4.7376154339e+00	-1.5401264144e-01
-3.6769552621e+00	-4.8083261121e+00	-1.3882545477e-01
-3.6062445840e+00	-4.8790367902e+00	-1.1445433669e-01
-3.5355339059e+00	-4.9497474683e+00	-8.0900685972e-02
-3.5355339059e+00	-3.5355339059e+00	 2.6546660280e-02
-3.5355339059e+00	-3.5355339059e+00	 2.6546660280e-02
-3.5355339059e+00	-3.5355339059e+00	 2.6546660280e-02
-3.5355339059e+00	-3.5355339059e+00	 2.6546660280e-02
-3.5355339059e+00	-3.5355339059e+00	 2.6546660280e-02
-3.5355339059e+00	-3.5355339059e+00	 2.6546660280e-02
-3.5355339059e+00	-3.5355339059e+00	 2.6546660280e-02
-3.5355339059e+00	-3.5355339059e+00	 2.6546660280e-02
-3.5355339059e+00	-3.5355339059e+00	 2.6546660280e-02
-3.5355339059e+00	-3.5355339059e+00	 2.6546660280e-02
-3.5355339059e+00	-3.5355339059e+00	 2.6546660280e-02
-3.5355339059e+00	-3.5390694398e+00	-4.5918074675e+00
-3.5353571292e+00	-3.5388926631e+00	-2.9609951644e+00
-3.5351803525e+00	-3.5387158864e+00	-1.6242527064e+00
-3.5350035758e+00	-3.5385391097e+00	-5.8158009347e-01
-3.5348267991e+00	-3.5383623330e+00	 1.6702267443e-01
-3.5346500224e+00	-3.5381855563e+00	 6.2155559729e-01
-3.5344732457e+00	-3.5380087796e+00	 7.8201867510e-01
-3.5342964690e+00	-3.5378320029e+00	 6.4841190785e-01
-3.5341196923e+00	-3.5376552262e+00	 2.2073529556e-01
-3.5339429156e+00	-3.5374784495e+00	-5.0101116178e-01
-3.5337661389e+00	-3.5373016729e+00	-1.5168274642e+00
-3.5355339059e+00	-3.5496760415e+00	-2.4997856186e+00
-3.5348267991e+00	-3.5489689347e+00	-1.6365574289e+00
-3.5341196923e+00	-3.5482618280e+00	-9.2589828532e-01
-3.5334125856e+00	-3.5475547212e+00	-3.6780818773e-01
-3.5327054788e+00	-3.5468476144e+00	 3.7712863823e-02
-3.5319983720e+00	-3.5461405076e+00	 2.9066486935e-01
-3.5312912652e+00	-3.5454334008e+00	 3.9104782885e-01
-3.5305841584e+00	-3.5447262941e+00	 3.3886174232e-01
-3.5298770517e+00	-3.5440191873e+00	 1.3410660975e-01
-3.5291699449e+00	-3.5433120805e+00	-2.2321756884e-01
-3.5284628381e+00	-3.5426049737e+00	-7.3311079346e-01
-3.5355339059e+00	-3.5673537111e+00	-1.6624120665e+00
-3.5339429156e+00	-3.5657627208e+00	-1.0826143689e+00
-3.5323519254e+00	-3.5641717305e+00	-6.0527862649e-01
-3.5307609351e+00	-3.5625807403e+00	-2.3040483928e-01
-3.5291699449e+00	-3.5609897500e+00	 4.2006992734e-02
-3.5275789546e+00	-3.5593987598e+00	 2.1195686956e-01
-3.5259879644e+00	-3.5578077695e+00	 2.7944479120e-01
-3.5243969741e+00	-3.5562167793e+00	 2.4447075767e-01
-3.5228059838e+00	-3.5546257890e+00	 1.0703476895e-01
-3.5212149936e+00	-3.5530347987e+00	-1.3286317494e-01
-3.5196240033e+00	-3.5514438085e+00	-4.7522307400e-01
-3.5355339059e+00	-3.5921024484e+00	-1.2176605108e+00
-3.5327054788e+00	-3.5892740213e+00	-7.8474905583e-01
-3.5298770517e+00	-3.5864455941e+00	-4.2869473859e-01
-3.5270486245e+00	-3.5836171670e+00	-1.4949755909e-01
-3.5242201974e+00	-3.5807887399e+00	 5.2842482708e-02
-3.5213917703e+00	-3.5779603128e+00	 1.7832538681e-01
-3.5185633432e+00	-3.5751318856e+00	 2.2695115324e-01
-3.5157349160e+00	-3.5723034585e+00	 1.9871978202e-01
-3.5129064889e+00	-3.5694750314e+00	 9.3631273162e-02
-3.5100780618e+00	-3.5666466043e+00	-8.8314373312e-02
-3.5072496347e+00	-3.5638181771e+00	-3.4711715738e-01
-3.5355339059e+00	-3.6239222535e+00	-9.4263911222e-01
-3.5311144885e+00	-3.6195028362e+00	-5.9951572969e-01
-3.5266950711e+00	-3.6150834188e+00	-3.1771020450e-01
-3.5222756538e+00	-3.6106640014e+00	-9.7222531931e-02
-3.5178562364e+00	-3.6062445840e+00	 6.1947288093e-02
-3.5134368190e+00	-3.6018251666e+00	 1.5979925564e-01
-3.5090174016e+00	-3.5974057493e+00	 1.9633337079e-01
-3.5045979842e+00	-3.5929863319e+00	 1.7154963361e-01
-3.5001785668e+00	-3.5885669145e+00	 8.5448044169e-02
-3.4957591495e+00	-3.5841474971e+00	-6.1971397460e-02
-3.4913397321e+00	-3.5797280797e+00	-2.7070869121e-01
-3.5355339059e+00	-3.6628131265e+00	-7.5603770191e-01
-3.5291699449e+00	-3.6564491655e+00	-4.7346463661e-01
-3.5228059838e+00	-3.6500852045e+00	-2.4177642065e-01
-3.5164420228e+00	-3.6437212434e+00	-6.0973053803e-02
-3.5100780618e+00	-3.6373572824e+00	 6.8945464141e-02
-3.5037141007e+00	-3.6309933214e+00	 1.4797913339e-01
-3.4973501397e+00	-3.6246293603e+00	 1.7612795417e-01
-3.4909861787e+00	-3.6182653993e+00	 1.5339193103e-01
-3.4846222177e+00	-3.6119014383e+00	 7.9771055171e-02
-3.4782582566e+00	-3.6055374772e+00	-4.4734668512e-02
-3.4718942956e+00	-3.5991735162e+00	-2.2012523981e-01
-3.5355339059e+00	-3.7087750673e+00	-6.2129082342e-01
-3.5268718478e+00	-3.7001130092e+00	-3.8230805272e-01
-3.5182097898e+00	-3.6914509512e+00	-1.8672201905e-01
-3.5095477317e+00	-3.6827888931e+00	-3.4532721875e-02
-3.5008856736e+00	-3.6741268350e+00	 7.4259839344e-02
-3.4922236156e+00	-3.6654647769e+00	 1.3965566515e-01
-3.4835615575e+00	-3.6568027189e+00	 1.6165475607e-01
-3.4748994994e+00	-3.6481406608e+00	 1.4025711265e-01
-3.4662374413e+00	-3.6394786027e+00	 7.5462735427e-02
-3.4575753833e+00	-3.6308165447e+00	-3.2728375060e-02
-3.4489133252e+00	-3.6221544866e+00	-1.8431621828e-01
-3.5355339059e+00	-3.7618080759e+00	-5.1955119144e-01
-3.5242201974e+00	-3.7504943674e+00	-3.1344835209e-01
-3.5129064889e+00	-3.7391806589e+00	-1.4510652459e-01
-3.5015927804e+00	-3.7278669504e+00	-1.4525707733e-02
-3.4902790719e+00	-3.7165532419e+00	 7.8294099682e-02
-3.4789653634e+00	-3.7052395334e+00	 1.3335289885e-01
-3.4676516549e+00	-3.6939258249e+00	 1.5065069097e-01
-3.4563379464e+00	-3.6826121164e+00	 1.3018747725e-01
-3.4450242379e+00	-3.6712984079e+00	 7.1963258874e-02
-3.4337105294e+00	-3.6599846994e+00	-2.4021962952e-02
-3.4223968209e+00	-3.6486709909e+00	-1.5776818703e-01
-3.5355339059e+00	-3.8219121523e+00	-4.4012435210e-01
-3.5212149936e+00	-3.8075932400e+00	-2.5970689528e-01
-3.5068960813e+00	-3.7932743276e+00	-1.1265550305e-01
-3.4925771689e+00	-3.7789554153e+00	 1.0298269961e-03
-3.4782582566e+00	-3.7646365030e+00	 8.1349097302e-02
-3.4639393443e+00	-3.7503175907e+00	 1.2830231029e-01
-3.4496204320e+00	-3.7359986784e+00	 1.4188946840e-01
-3.4353015197e+00	-3.7216797661e+00	 1.2211057406e-01
-3.4209826073e+00	-3.7073608537e+00	 6.8965629691e-02
-3.4066636950e+00	-3.6930419414e+00	-1.7545362271e-02
-3.3923447827e+00	-3.6787230291e+00	-1.3742239940e-01
-3.5355339059e+00	-3.8890872965e+00	-3.7649229078e-01
-3.5178562364e+00	-3.8714096270e+00	-2.1669487992e-01
-3.5001785668e+00	-3.8537319574e+00	-8.6740302988e-02
-3.4825008973e+00	-3.8360542879e+00	 1.3371444601e-02
-3.4648232278e+00	-3.8183766184e+00	 8.3640367413e-02
-3.4471455583e+00	-3.8006989489e+00	 1.2406647002e-01
-3.4294678887e+00	-3.7830212793e+00	 1.3464975700e-01
-3.4117902192e+00	-3.7653436098e+00	 1.1539023292e-01
-3.3941125497e+00	-3.7476659403e+00	 6.6287902355e-02
-3.3764348801e+00	-3.7299882707e+00	-1.2657230123e-02
-3.3587572106e+00	-3.7123106012e+00	-1.2144515994e-01
-3.5355339059e+00	-3.8890872965e+00	-3.7649229078e-01
-3.5178562364e+00	-3.8714096270e+00	-2.1669487992e-01
-3.5001785668e+00	-3.8537319574e+00	-8.6740302988e-02
-3.4825008973e+00	-3.8360542879e+00	 1.3371444601e-02
-3.4648232278e+00	-3.8183766184e+00	 8.3640367413e-02
-3.4471455583e+00	-3.8006989489e+00	 1.2406647002e-01
-3.4294678887e+00	-3.7830212793e+00	 1.3464975700e-01
-3.4117902192e+00	-3.7653436098e+00	 1.1539023292e-01
-3.3941125497e+00	-3.7476659403e+00	 6.6287902355e-02
-3.3764348801e+00	-3.7299882707e+00	-1.2657230123e-02
-3.3587572106e+00	-3.7123106012e+00	-1.2144515994e-01
-3.5355339059e+00	-3.9633335085e+00	-3.5408245213e-01
-3.5141439258e+00	-3.9419435284e+00	-2.0995067146e-01
-3.4927539456e+00	-3.9205535483e+00	-9.2602789701e-02
-3.4713639655e+00	-3.8991635681e+00	-2.0387987429e-03
-3.4499739854e+00	-3.8777735880e+00	 6.1741309512e-02
-3.4285840052e+00	-3.8563836079e+00	 9.8737543165e-02
-3.4071940251e+00	-3.8349936277e+00	 1.0894991032e-01
-3.3858040450e+00	-3.8136036476e+00	 9.2378419065e-02
-3.3644140648e+00	-3.7922136675e+00	 4.9023077514e-02
-3.3430240847e+00	-3.7708236873e+00	-2.1116106238e-02
-3.3216341046e+00	-3.7494337072e+00	-1.1803912409e-01
-3.5355339059e+00	-4.0446507884e+00	-3.2838681321e-01
-3.5100780618e+00	-4.0191949442e+00	-1.9667256167e-01
-3.4846222177e+00	-3.9937391001e+00	-8.9248101389e-02
-3.4591663735e+00	-3.9682832560e+00	-6.1134187118e-03
-3.4337105294e+00	-3.9428274119e+00	 5.2731500013e-02
-3.4082546853e+00	-3.9173715677e+00	 8.7286668438e-02
-3.3827988412e+00	-3.8919157236e+00	 9.7552100219e-02
-3.3573429970e+00	-3.8664598795e+00	 8.3527809008e-02
-3.3318871529e+00	-3.8410040354e+00	 4.5213808460e-02
-3.3064313088e+00	-3.8155481913e+00	-1.7389887774e-02
-3.2809754647e+00	-3.7900923471e+00	-1.0428326604e-01
-3.5355339059e+00	-4.1330391360e+00	-3.0172997501e-01
-3.5056586444e+00	-4.1031638745e+00	-1.8007153475e-01
-3.4757833829e+00	-4.0732886130e+00	-8.0631594098e-02
-3.4459081214e+00	-4.0434133515e+00	-3.4101309736e-03
-3.4160328599e+00	-4.0135380900e+00	 5.1592876693e-02
-3.3861575984e+00	-3.9836628285e+00	 8.4377450973e-02
-3.3562823369e+00	-3.9537875670e+00	 9.4943613938e-02
-3.3264070754e+00	-3.9239123055e+00	 8.3291387658e-02
-3.2965318139e+00	-3.8940370440e+00	 4.9420794204e-02
-3.2666565523e+00	-3.8641617825e+00	-6.6681443537e-03
-3.2367812908e+00	-3.8342865210e+00	-8.4975405944e-02
-3.5355339059e+00	-4.2284985515e+00	-2.7535987209e-01
-3.5008856736e+00	-4.1938503192e+00	-1.6199253852e-01
-3.4662374413e+00	-4.1592020869e+00	-6.9096897132e-02
-3.4315892091e+00	-4.1245538546e+00	 3.3270864992e-03
-3.3969409768e+00	-4.0899056224e+00	 5.5279446805e-02
-3.3622927445e+00	-4.0552573901e+00	 8.6760218213e-02
-3.3276445122e+00	-4.0206091578e+00	 9.7769435155e-02
-3.2929962799e+00	-3.9859609255e+00	 8.8307132059e-02
-3.2583480477e+00	-3.9513126932e+00	 5.8373343355e-02
-3.2236998154e+00	-3.9166644610e+00	 7.9681034702e-03
-3.1890515831e+00	-3.8820162287e+00	-6.2908553166e-02
-3.5355339059e+00	-4.3310290348e+00	-2.4993450469e-01
-3.4957591495e+00	-4.2912542783e+00	-1.4350894614e-01
-3.4559843930e+00	-4.2514795219e+00	-5.6062579120e-02
-3.4162096366e+00	-4.2117047654e+00	 1.2404648463e-02
-3.3764348801e+00	-4.1719300090e+00	 6.1892788695e-02
-3.3366601237e+00	-4.1321552525e+00	 9.2401893660e-02
-3.2968853672e+00	-4.0923804961e+00	 1.0393201544e-01
-3.2571106108e+00	-4.0526057397e+00	 9.6483206128e-02
-3.2173358544e+00	-4.0128309832e+00	 7.0055517800e-02
-3.1775610979e+00	-3.9730562268e+00	 2.4649002542e-02
-3.1377863415e+00	-3.9332814703e+00	-3.9736287563e-02
-3.5355339059e+00	-4.4406305858e+00	-2.2578116685e-01
-3.4902790719e+00	-4.3953757518e+00	-1.2524516003e-01
-3.4450242379e+00	-4.3501209178e+00	-4.2398763366e-02
-3.3997694039e+00	-4.3048660838e+00	 2.2758099848e-02
-3.3545145699e+00	-4.2596112498e+00	 7.0225506332e-02
-3.3092597359e+00	-4.2143564159e+00	 1.0000353280e-01
-3.2640049019e+00	-4.1691015819e+00	 1.1209225597e-01
-3.2187500679e+00	-4.1238467479e+00	 1.0649175256e-01
-3.1734952339e+00	-4.0785919139e+00	 8.3202099281e-02
-3.1282403999e+00	-4.0333370799e+00	 4.2223372845e-02
-3.0829855659e+00	-3.9880822459e+00	-1.6444350034e-02
-3.5355339059e+00	-4.5573032047e+00	-2.0303928048e-01
-3.4844454410e+00	-4.5062147398e+00	-1.0755826474e-01
-3.4333569760e+00	-4.4551262749e+00	-2.8641728244e-02
-3.3822685111e+00	-4.4040378099e+00	 3.3710439376e-02
-3.3311800461e+00	-4.3529493450e+00	 7.9498348496e-02
-3.2800915812e+00	-4.3018608800e+00	 1.0872210949e-01
-3.2290031162e+00	-4.2507724151e+00	 1.2138183273e-01
-3.1779146513e+00	-4.1996839501e+00	 1.1747762858e-01
-3.1268261864e+00	-4.1485954852e+00	 9.7009607416e-02
-3.0757377214e+00	-4.0975070203e+00	 5.9977879608e-02
-3.0246492565e+00	-4.0464185553e+00	 6.3825555209e-03
-3.5355339059e+00	-4.6810468914e+00	-1.8174124545e-01
-3.4782582566e+00	-4.6237712422e+00	-9.0643494186e-02
-3.4209826073e+00	-4.5664955929e+00	-1.5120185407e-02
-3.3637069581e+00	-4.5092199436e+00	 4.4828836419e-02
-3.3064313088e+00	-4.4519442943e+00	 8.9203726824e-02
-3.2491556595e+00	-4.3946686451e+00	 1.1800464133e-01
-3.1918800102e+00	-4.3373929958e+00	 1.3123173547e-01
-3.1346043610e+00	-4.2801173465e+00	 1.2888516476e-01
-3.0773287117e+00	-4.2228416972e+00	 1.1096508473e-01
-3.0200530624e+00	-4.1655660479e+00	 7.7471650896e-02
-2.9627774131e+00	-4.1082903987e+00	 2.8405018773e-02
-3.5355339059e+00	-4.8118616460e+00	-1.6185915856e-01
-3.4717175189e+00	-4.7480452590e+00	-7.4597039517e-02
-3.4079011319e+00	-4.6842288720e+00	-2.0316372264e-03
-3.3440847449e+00	-4.6204124850e+00	 5.5837263445e-02
-3.2802683579e+00	-4.5565960980e+00	 9.9009877627e-02
-3.2164519709e+00	-4.4927797109e+00	 1.2748642045e-01
-3.1526355839e+00	-4.4289633239e+00	 1.4126710703e-01
-3.0888191969e+00	-4.3651469369e+00	 1.4035215249e-01
-3.0250028099e+00	-4.3013305499e+00	 1.2474177195e-01
-2.9611864229e+00	-4.2375141629e+00	 9.4436180529e-02
-2.8973700359e+00	-4.1736977759e+00	 5.2752322995e-02
-3.5355339059e+00	-4.9497474683e+00	-1.4333220661e-01
-3.4648232278e+00	-4.8790367902e+00	-5.9454239552e-02
-3.3941125497e+00	-4.8083261121e+00	 1.0510373014e-02
-3.3234018715e+00	-4.7376154339e+00	 6.6561923752e-02
-3.2526911934e+00	-4.6669047558e+00	 1.0870070532e-01
-3.1819805153e+00	-4.5961940777e+00	 1.3692701038e-01
-3.1112698372e+00	-4.5254833996e+00	 1.5124113157e-01
-3.0405591591e+00	-4.4547727215e+00	 1.5164336154e-01
-2.9698484809e+00	-4.3840620433e+00	 1.3813399293e-01
-2.8991378028e+00	-4.3133513652e+00	 1.1389533155e-01
-2.8284271247e+00	-4.2426406871e+00	 7.7923422929e-02
-3.5355339059e+00	-3.5355339059e+00	 2.6546660280e-02
-3.5355339059e+00	-3.5355339059e+00	 2.6546660280e-02
-3.5355339059e+00	-3.5355339059e+00	 2.6546660280e-02
-3.5355339059e+00	-3.5355339059e+00	 2.6546660280e-02
-3.5355339059e+00	-3.5355339059e+00	 2.6546660280e-02
-3.5355339059e+00	-3.5355339059e+00	 2.6546660280e-02
-3.5355339059e+00	-3.5355339059e+00	 2.6546660280e-02
-3.5355339059e+00	-3.5355339059e+00	 2.6546660280e-02
-3.5355339059e+00	-3.5355339059e+00	 2.6546660280e-02
-3.5355339059e+00	-3.5355339059e+00	 2.6546660280e-02
-3.5355339059e+00	-3.5355339059e+00	 2.6546660280e-02
-3.5337661389e+00	-3.5373016729e+00	 2.3264431952e+00
-3.5335893623e+00	-3.5371248962e+00	 3.9585577715e-01
-3.5334125856e+00	-3.5369481195e+00	-1.3627004438e+00
-3.5332358089e+00	-3.5367713428e+00	-2.9492254675e+00
-3.5330590322e+00	-3.5365945661e+00	-4.3637192941e+00
-3.5328822555e+00	-3.5364177894e+00	-5.6061819235e+00
-3.5327054788e+00	-3.5362410127e+00	-6.6766133557e+00
-3.5325287021e+00	-3.5360642360e+00	-7.5750135908e+00
-3.5323519254e+00	-3.5358874593e+00	-8.3013826287e+00
-3.5321751487e+00	-3.5357106826e+00	-8.8557204694e+00
-3.5319983720e+00	-3.5355339059e+00	-9.2380271130e+00
-3.5284628381e+00	-3.5426049737e+00	 1.0675320143e+00
-3.5277557313e+00	-3.5418978669e+00	 6.6969449000e-02
-3.5270486245e+00	-3.5411907601e+00	-8.3853888570e-01
-3.5263415177e+00	-3.5404836534e+00	-1.6489929898e+00
-3.5256344110e+00	-3.5397765466e+00	-2.3643928633e+00
-3.5249273042e+00	-3.5390694398e+00	-2.9847385062e+00
-3.5242201974e+00	-3.5383623330e+00	-3.5100299184e+00
-3.5235130906e+00	-3.5376552262e+00	-3.9402671001e+00
-3.5228059838e+00	-3.5369481195e+00	-4.2754500512e+00
-3.5220988771e+00	-3.5362410127e+00	-4.5155787716e+00
-3.5213917703e+00	-3.5355339059e+00	-4.6606532615e+00
-3.5196240033e+00	-3.5514438085e+00	 7.2088963970e-01
-3.5180330131e+00	-3.5498528182e+00	 4.8535257693e-02
-3.5164420228e+00	-3.5482618280e+00	-5.5873839753e-01
-3.5148510325e+00	-3.5466708377e+00	-1.1009313260e+00
-3.5132600423e+00	-3.5450798474e+00	-1.5780435276e+00
-3.5116690520e+00	-3.5434888572e+00	-1.9900750025e+00
-3.5100780618e+00	-3.5418978669e+00	-2.3370257505e+00
-3.5084870715e+00	-3.5403068767e+00	-2.6188957718e+00
-3.5068960813e+00	-3.5387158864e+00	-2.8356850662e+00
-3.5053050910e+00	-3.5371248962e+00	-2.9873936338e+00
-3.5037141007e+00	-3.5355339059e+00	-3.0740214747e+00
-3.5072496347e+00	-3.5638181771e+00	 5.6104535738e-01
-3.5044212075e+00	-3.5609897500e+00	 5.6205686681e-02
-3.5015927804e+00	-3.5581613229e+00	-3.9934898812e-01
-3.4987643533e+00	-3.5553328958e+00	-8.0561866701e-01
-3.4959359262e+00	-3.5525044686e+00	-1.1626033500e+00
-3.4931074990e+00	-3.5496760415e+00	-1.4703030370e+00
-3.4902790719e+00	-3.5468476144e+00	-1.7287177280e+00
-3.4874506448e+00	-3.5440191873e+00	-1.9378474231e+00
-3.4846222177e+00	-3.5411907601e+00	-2.0976921222e+00
-3.4817937905e+00	-3.5383623330e+00	-2.2082518252e+00
-3.4789653634e+00	-3.5355339059e+00	-2.2695265322e+00
-3.4913397321e+00	-3.5797280797e+00	 4.6926445558e-01
-3.4869203147e+00	-3.5753086623e+00	 6.6023274476e-02
-3.4825008973e+00	-3.5708892450e+00	-2.9766923462e-01
-3.4780814799e+00	-3.5664698276e+00	-6.2181307162e-01
-3.4736620625e+00	-3.5620504102e+00	-9.0640823648e-01
-3.4692426452e+00	-3.5576309928e+00	-1.1514547291e+00
-3.4648232278e+00	-3.5532115754e+00	-1.3569525494e+00
-3.4604038104e+00	-3.5487921580e+00	-1.5229016974e+00
-3.4559843930e+00	-3.5443727407e+00	-1.6493021729e+00
-3.4515649756e+00	-3.5399533233e+00	-1.7361539759e+00
-3.4471455582e+00	-3.5355339059e+00	-1.7834571064e+00
-3.4718942956e+00	-3.5991735162e+00	 4.0963030807e-01
-3.4655303346e+00	-3.5928095552e+00	 7.4573849260e-02
-3.4591663735e+00	-3.5864455941e+00	-2.2753270588e-01
-3.4528024125e+00	-3.5800816331e+00	-4.9668935715e-01
-3.4464384515e+00	-3.5737176721e+00	-7.3289610432e-01
-3.4400744904e+00	-3.5673537111e+00	-9.3615294718e-01
-3.4337105294e+00	-3.5609897500e+00	-1.1064598855e+00
-3.4273465684e+00	-3.5546257890e+00	-1.2438169191e+00
-3.4209826073e+00	-3.5482618280e+00	-1.3482240478e+00
-3.4146186463e+00	-3.5418978669e+00	-1.4196812713e+00
-3.4082546853e+00	-3.5355339059e+00	-1.4581885894e+00
-3.4489133252e+00	-3.6221544866e+00	 3.6764732046e-01
-3.4402512671e+00	-3.6134924285e+00	 8.1514266101e-02
-3.4315892091e+00	-3.6048303705e+00	-1.7643515853e-01
-3.4229271510e+00	-3.5961683124e+00	-4.0620094836e-01
-3.4142650929e+00	-3.5875062543e+00	-6.0778310286e-01
-3.4056030349e+00	-3.5788441962e+00	-7.8118162150e-01
-3.3969409768e+00	-3.5701821382e+00	-9.2639650372e-01
-3.3882789187e+00	-3.5615200801e+00	-1.0434277490e+00
-3.3796168606e+00	-3.5528580220e+00	-1.1322753568e+00
-3.3709548026e+00	-3.5441959640e+00	-1.1929393265e+00
-3.3622927445e+00	-3.5355339059e+00	-1.2254196578e+00
-3.4223968209e+00	-3.6486709909e+00	 3.3636258943e-01
-3.4110831124e+00	-3.6373572824e+00	 8.7040902466e-02
-3.3997694039e+00	-3.6260435739e+00	-1.3770078759e-01
-3.3884556954e+00	-3.6147298654e+00	-3.3786247542e-01
-3.3771419869e+00	-3.6034161569e+00	-5.1344416860e-01
-3.3658282784e+00	-3.5921024484e+00	-6.6444586124e-01
-3.3545145699e+00	-3.5807887399e+00	-7.9086755214e-01
-3.3432008614e+00	-3.5694750314e+00	-8.9270924009e-01
-3.3318871529e+00	-3.5581613229e+00	-9.6997092391e-01
-3.3205734444e+00	-3.5468476144e+00	-1.0226526024e+00
-3.3092597359e+00	-3.5355339059e+00	-1.0507542743e+00
-3.3923447827e+00	-3.6787230291e+00	 3.1203029948e-01
-3.3780258704e+00	-3.6644041168e+00	 9.1408613342e-02
-3.3637069581e+00	-3.6500852045e+00	-1.0745308071e-01
-3.3493880457e+00	-3.6357662921e+00	-2.8455478024e-01
-3.3350691334e+00	-3.6214473798e+00	-4.3989647839e-01
-3.3207502211e+00	-3.6071284675e+00	-5.7347818228e-01
-3.3064313088e+00	-3.5928095552e+00	-6.8529988430e-01
-3.2921123965e+00	-3.5784906429e+00	-7.7536158203e-01
-3.2777934842e+00	-3.5641717305e+00	-8.4366327302e-01
-3.2634745718e+00	-3.5498528182e+00	-8.9020495484e-01
-3.2491556595e+00	-3.5355339059e+00	-9.1498662508e-01
-3.3587572106e+00	-3.7123106012e+00	 2.9245594151e-01
-3.3410795411e+00	-3.6946329317e+00	 9.4836215688e-02
-3.3234018715e+00	-3.6769552621e+00	-8.3290374115e-02
-3.3057242020e+00	-3.6592775926e+00	-2.4192382332e-01
-3.2880465325e+00	-3.6415999231e+00	-3.8106412736e-01
-3.2703688629e+00	-3.6239222535e+00	-5.0071128166e-01
-3.2526911934e+00	-3.6062445840e+00	-6.0086527800e-01
-3.2350135239e+00	-3.5885669145e+00	-6.8152611987e-01
-3.2173358544e+00	-3.5708892450e+00	-7.4269379820e-01
-3.1996581848e+00	-3.5532115754e+00	-7.8436830841e-01
-3.1819805153e+00	-3.5355339059e+00	-8.0654964592e-01
-3.3587572106e+00	-3.7123106012e+00	 2.9245594151e-01
-3.3410795411e+00	-3.6946329317e+00	 9.4836215688e-02
-3.3234018715e+00	-3.6769552621e+00	-8.3290374115e-02
-3.3057242020e+00	-3.6592775926e+00	-2.4192382332e-01
-3.2880465325e+00	-3.6415999231e+00	-3.8106412736e-01
-3.2703688629e+00	-3.6239222535e+00	-5.0071128166e-01
-3.2526911934e+00	-3.6062445840e+00	-6.0086527800e-01
-3.2350135239e+00	-3.5885669145e+00	-6.8152611987e-01
-3.2173358544e+00	-3.5708892450e+00	-7.4269379820e-01
-3.1996581848e+00	-3.5532115754e+00	-7.8436830841e-01
-3.1819805153e+00	-3.5355339059e+00	-8.0654964592e-01
-3.3216341046e+00	-3.7494337072e+00	 2.6159037891e-01
-3.3002441245e+00	-3.7280437271e+00	 8.3115552606e-02
-3.2788541443e+00	-3.7066537470e+00	-7.7832773978e-02
-3.2574641642e+00	-3.6852637668e+00	-2.2125459274e-01
-3.2360741841e+00	-3.6638737867e+00	-3.4714989559e-01
-3.2146842039e+00	-3.6424838066e+00	-4.5551867442e-01
-3.1932942238e+00	-3.6210938264e+00	-5.4636091679e-01
-3.1719042437e+00	-3.5997038463e+00	-6.1967662428e-01
-3.1505142635e+00	-3.5783138662e+00	-6.7546578333e-01
-3.1291242834e+00	-3.5569238860e+00	-7.1372838581e-01
-3.1077343033e+00	-3.5355339059e+00	-7.3446442364e-01
-3.2809754647e+00	-3.7900923471e+00	 2.3876064591e-01
-3.2555196205e+00	-3.7646365030e+00	 7.5703721638e-02
-3.2300637764e+00	-3.7391806589e+00	-7.1434999192e-02
-3.2046079323e+00	-3.7137248148e+00	-2.0265550293e-01
-3.1791520882e+00	-3.6882689706e+00	-3.1795777592e-01
-3.1536962441e+00	-3.6628131265e+00	-4.1734180450e-01
-3.1282403999e+00	-3.6373572824e+00	-5.0080757504e-01
-3.1027845558e+00	-3.6119014383e+00	-5.6835507001e-01
-3.0773287117e+00	-3.5864455941e+00	-6.1998428458e-01
-3.0518728676e+00	-3.5609897500e+00	-6.5569519994e-01
-3.0264170234e+00	-3.5355339059e+00	-6.7548780246e-01
-3.2367812908e+00	-3.8342865210e+00	 2.2141258530e-01
-3.2069060293e+00	-3.8044112595e+00	 7.1019343278e-02
-3.1770307678e+00	-3.7745359979e+00	-6.4794888554e-02
-3.1471555063e+00	-3.7446607364e+00	-1.8603008813e-01
-3.1172802448e+00	-3.7147854749e+00	-2.9268623338e-01
-3.0874049833e+00	-3.6849102134e+00	-3.8476330223e-01
-3.0575297218e+00	-3.6550349519e+00	-4.6226127261e-01
-3.0276544603e+00	-3.6251596904e+00	-5.2518012245e-01
-2.9977791988e+00	-3.5952844289e+00	-5.7351982660e-01
-2.9679039373e+00	-3.5654091674e+00	-6.0728037028e-01
-2.9380286758e+00	-3.5355339059e+00	-6.2624242934e-01
-3.1890515831e+00	-3.8820162287e+00	 2.0790221959e-01
-3.1544033508e+00	-3.8473679964e+00	 6.8083138645e-02
-3.1197551186e+00	-3.8127197641e+00	-5.8289028632e-02
-3.0851068863e+00	-3.7780715319e+00	-1.7121424781e-01
-3.0504586540e+00	-3.7434232996e+00	-2.7069248445e-01
-3.0158104217e+00	-3.7087750673e+00	-3.5672370414e-01
-2.9811621895e+00	-3.6741268350e+00	-4.2930787245e-01
-2.9465139572e+00	-3.6394786027e+00	-4.8844495494e-01
-2.9118657249e+00	-3.6048303705e+00	-5.3193539847e-01
-2.8772174926e+00	-3.5701821382e+00	-5.6156905626e-01
-2.8425692603e+00	-3.5355339059e+00	-5.7777064261e-01
-3.1377863415e+00	-3.9332814703e+00	 1.9713636197e-01
-3.0980115850e+00	-3.8935067139e+00	 6.6270582077e-02
-3.0582368286e+00	-3.8537319574e+00	-5.2117673764e-02
-3.0184620722e+00	-3.8139572010e+00	-1.5802835347e-01
-2.9786873157e+00	-3.7741824446e+00	-2.5146140497e-01
-2.9389125593e+00	-3.7344076881e+00	-3.3226373828e-01
-2.8991378028e+00	-3.6946329317e+00	-3.9772790131e-01
-2.8593630464e+00	-3.6548581752e+00	-4.5073219495e-01
-2.8195882900e+00	-3.6150834188e+00	-4.9127767000e-01
-2.7798135335e+00	-3.5753086623e+00	-5.1936539031e-01
-2.7400387771e+00	-3.5355339059e+00	-5.3499640458e-01
-3.0829855659e+00	-3.9880822459e+00	 1.8836766001e-01
-3.0377307319e+00	-3.9428274119e+00	 6.5173681934e-02
-2.9924758980e+00	-3.8975725779e+00	-4.6382047375e-02
-2.9472210640e+00	-3.8523177439e+00	-1.4629945121e-01
-2.9019662300e+00	-3.8070629099e+00	-2.3162015049e-01
-2.8567113960e+00	-3.7618080759e+00	-3.0484416943e-01
-2.8114565620e+00	-3.7165532419e+00	-3.6645241853e-01
-2.7662017280e+00	-3.6712984079e+00	-4.1644645112e-01
-2.7209468940e+00	-3.6260435739e+00	-4.5482782051e-01
-2.6756920600e+00	-3.5807887399e+00	-4.8159807767e-01
-2.6304372260e+00	-3.5355339059e+00	-4.9675878190e-01
-3.0246492565e+00	-4.0464185553e+00	 1.8107285566e-01
-2.9735607916e+00	-3.9953300904e+00	 6.4520602310e-02
-2.9224723266e+00	-3.9442416254e+00	-3.9721969380e-02
-2.8713838617e+00	-3.8931531605e+00	-1.3059137313e-01
-2.8202953967e+00	-3.8420646956e+00	-2.1058166507e-01
-2.7692069318e+00	-3.7909762306e+00	-2.7969507999e-01
-2.7181184669e+00	-3.7398877657e+00	-3.3793385268e-01
-2.6670300019e+00	-3.6887993007e+00	-3.8530021792e-01
-2.6159415370e+00	-3.6377108358e+00	-4.2179641045e-01
-2.5648530721e+00	-3.5866223708e+00	-4.4742466259e-01
-2.5137646071e+00	-3.5355339059e+00	-4.6218721548e-01
-2.9627774131e+00	-4.1082903987e+00	 1.7487789732e-01
-2.9055017639e+00	-4.0510147494e+00	 6.6824512560e-02
-2.8482261146e+00	-3.9937391001e+00	-2.9329277446e-02
-2.7909504653e+00	-3.9364634508e+00	-1.1525512623e-01
-2.7336748161e+00	-3.8791878016e+00	-1.9095618285e-01
-2.6763991668e+00	-3.8219121523e+00	-2.5643559636e-01
-2.6191235175e+00	-3.7646365030e+00	-3.1169651580e-01
-2.5618478682e+00	-3.7073608537e+00	-3.5674209016e-01
-2.5045722190e+00	-3.6500852045e+00	-3.9157546845e-01
-2.4472965697e+00	-3.5928095552e+00	-4.1619979707e-01
-2.3900209204e+00	-3.5355339059e+00	-4.3061823177e-01
-2.8973700359e+00	-4.1736977759e+00	 1.7282717703e-01
-2.8335536489e+00	-4.1098813889e+00	 7.2018638811e-02
-2.7697372619e+00	-4.0460650019e+00	-1.9140087254e-02
-2.7059208749e+00	-3.9822486149e+00	-1.0065335700e-01
-2.6421044879e+00	-3.9184322279e+00	-1.7252552624e-01
-2.5782881009e+00	-3.8546158409e+00	-2.3476095074e-01
-2.5144717139e+00	-3.7907994539e+00	-2.8736398626e-01
-2.4506553269e+00	-3.7269830669e+00	-3.3033898850e-01
-2.3868389399e+00	-3.6631666799e+00	-3.6369031318e-01
-2.3230225529e+00	-3.5993502929e+00	-3.8742231326e-01
-2.2592061659e+00	-3.5355339059e+00	-4.0153935156e-01
-2.8284271247e+00	-4.2426406871e+00	 1.7331073719e-01
-2.7577164466e+00	-4.1719300090e+00	 7.7519254750e-02
-2.6870057685e+00	-4.1012193309e+00	-9.1441217726e-03
-2.6162950904e+00	-4.0305086527e+00	-8.6685317947e-02
-2.5455844123e+00	-3.9597979746e+00	-1.5511025930e-01
-2.4748737342e+00	-3.8890872965e+00	-2.1442487131e-01
-2.4041630561e+00	-3.8183766184e+00	-2.6463507942e-01
-2.3334523780e+00	-3.7476659403e+00	-3.0574680902e-01
-2.2627416998e+00	-3.6769552621e+00	-3.3776598547e-01
-2.1920310217e+00	-3.6062445840e+00	-3.6069853131e-01
-2.1213203436e+00	-3.5355339059e+00	-3.7455037932e-01
-3.5355339059e+00	-3.5355339059e+00	 2.6546660280e-02
-3.5355339059e+00	-3.5355339059e+00	 2.6546660280e-02
-3.5355339059e+00	-3.5355339059e+00	 2.6546660280e-02
-3.5355339059e+00	-3.5355339059e+00	 2.6546660280e-02
-3.5355339059e+00	-3.5355339059e+00	 2.6546660280e-02
-3.5355339059e+00	-3.5355339059e+00	 2.6546660280e-02
-3.5355339059e+00	-3.5355339059e+00	 2.6546660280e-02
-3.5355339059e+00	-3.5355339059e+00	 2.6546660280e-02
-3.5355339059e+00	-3.5355339059e+00	 2.6546660280e-02
-3.5355339059e+00	-3.5355339059e+00	 2.6546660280e-02
-3.5355339059e+00	-3.5355339059e+00	 2.6546660280e-02
-3.5319983720e+00	-3.5355339059e+00	-8.9596485791e+00
-3.5321751487e+00	-3.5353571292e+00	-1.0251126389e+01
-3.5323519254e+00	-3.5351803525e+00	-1.1456118613e+01
-3.5325287021e+00	-3.5350035758e+00	-1.2574625252e+01
-3.5327054788e+00	-3.5348267991e+00	-1.3606646305e+01
-3.5328822555e+00	-3.5346500224e+00	-1.4552181772e+01
-3.5330590322e+00	-3.5344732457e+00	-1.5411231654e+01
-3.5332358089e+00	-3.5342964690e+00	-1.6183795950e+01
-3.5334125856e+00	-3.5341196923e+00	-1.6869874661e+01
-3.5335893623e+00	-3.5339429156e+00	-1.7469467786e+01
-3.5337661389e+00	-3.5337661389e+00	-1.7982575325e+01
-3.5213917703e+00	-3.5355339059e+00	-4.4150689702e+00
-3.5220988771e+00	-3.5348267991e+00	-5.0526557672e+00
-3.5228059838e+00	-3.5341196923e+00	-5.6495504654e+00
-3.5235130906e+00	-3.5334125856e+00	-6.2057530647e+00
-3.5242201974e+00	-3.5327054788e+00	-6.7212635651e+00
-3.5249273042e+00	-3.5319983720e+00	-7.1960819667e+00
-3.5256344110e+00	-3.5312912652e+00	-7.6302082694e+00
-3.5263415177e+00	-3.5305841584e+00	-8.0236424733e+00
-3.5270486245e+00	-3.5298770517e+00	-8.3763845783e+00
-3.5277557313e+00	-3.5291699449e+00	-8.6884345844e+00
-3.5284628381e+00	-3.5284628381e+00	-8.9597924917e+00
-3.5037141007e+00	-3.5355339059e+00	-2.9175351894e+00
-3.5053050910e+00	-3.5339429156e+00	-3.3403990926e+00
-3.5068960813e+00	-3.5323519254e+00	-3.7363059220e+00
-3.5084870715e+00	-3.5307609351e+00	-4.1052556775e+00
-3.5100780618e+00	-3.5291699449e+00	-4.4472483591e+00
-3.5116690520e+00	-3.5275789546e+00	-4.7622839669e+00
-3.5132600423e+00	-3.5259879644e+00	-5.0503625008e+00
-3.5148510325e+00	-3.5243969741e+00	-5.3114839607e+00
-3.5164420228e+00	-3.5228059838e+00	-5.5456483467e+00
-3.5180330131e+00	-3.5212149936e+00	-5.7528556587e+00
-3.5196240033e+00	-3.5196240033e+00	-5.9331058968e+00
-3.4789653634e+00	-3.5355339059e+00	-2.1722454859e+00
-3.4817937905e+00	-3.5327054788e+00	-2.4883346460e+00
-3.4846222177e+00	-3.5298770517e+00	-2.7840474468e+00
-3.4874506448e+00	-3.5270486245e+00	-3.0593838881e+00
-3.4902790719e+00	-3.5242201974e+00	-3.3143439699e+00
-3.4931074990e+00	-3.5213917703e+00	-3.5489276921e+00
-3.4959359262e+00	-3.5185633432e+00	-3.7631350545e+00
-3.4987643533e+00	-3.5157349160e+00	-3.9569660571e+00
-3.5015927804e+00	-3.5129064889e+00	-4.1304206998e+00
-3.5044212075e+00	-3.5100780618e+00	-4.2834989826e+00
-3.5072496347e+00	-3.5072496347e+00	-4.4162009052e+00
-3.4471455582e+00	-3.5355339059e+00	-1.7263891990e+00
-3.4515649756e+00	-3.5311144885e+00	-1.9785825927e+00
-3.4559843930e+00	-3.5266950711e+00	-2.2142562440e+00
-3.4604038104e+00	-3.5222756538e+00	-2.4334101527e+00
-3.4648232278e+00	-3.5178562364e+00	-2.6360443183e+00
-3.4692426452e+00	-3.5134368190e+00	-2.8221587405e+00
-3.4736620625e+00	-3.5090174016e+00	-2.9917534190e+00
-3.4780814799e+00	-3.5045979842e+00	-3.1448283534e+00
-3.4825008973e+00	-3.5001785668e+00	-3.2813835434e+00
-3.4869203147e+00	-3.4957591495e+00	-3.4014189887e+00
-3.4913397321e+00	-3.4913397321e+00	-3.5049346888e+00
-3.4082546853e+00	-3.5355339059e+00	-1.4298836061e+00
-3.4146186463e+00	-3.5291699449e+00	-1.6395337193e+00
-3.4209826073e+00	-3.5228059838e+00	-1.8351968624e+00
-3.4273465684e+00	-3.5164420228e+00	-2.0168730343e+00
-3.4337105294e+00	-3.5100780618e+00	-2.1845622341e+00
-3.4400744904e+00	-3.5037141007e+00	-2.3382644607e+00
-3.4464384515e+00	-3.4973501397e+00	-2.4779797131e+00
-3.4528024125e+00	-3.4909861787e+00	-2.6037079903e+00
-3.4591663735e+00	-3.4846222177e+00	-2.7154492912e+00
-3.4655303346e+00	-3.4782582566e+00	-2.8132036149e+00
-3.4718942956e+00	-3.4718942956e+00	-2.8969709603e+00
-3.3622927445e+00	-3.5355339059e+00	-1.2186167621e+00
-3.3709548026e+00	-3.5268718478e+00	-1.3978904746e+00
-3.3796168606e+00	-3.5182097898e+00	-1.5649675131e+00
-3.3882789187e+00	-3.5095477317e+00	-1.7198478750e+00
-3.3969409768e+00	-3.5008856736e+00	-1.8625315576e+00
-3.4056030349e+00	-3.4922236156e+00	-1.9930185584e+00
-3.4142650929e+00	-3.4835615575e+00	-2.1113088749e+00
-3.4229271510e+00	-3.4748994994e+00	-2.2174025045e+00
-3.4315892091e+00	-3.4662374413e+00	-2.3112994445e+00
-3.4402512671e+00	-3.4575753833e+00	-2.3929996925e+00
-3.4489133252e+00	-3.4489133252e+00	-2.4625032458e+00
-3.3092597359e+00	-3.5355339059e+00	-1.0606013815e+00
-3.3205734444e+00	-3.5242201974e+00	-1.2170859550e+00
-3.3318871529e+00	-3.5129064889e+00	-1.3627062027e+00
-3.3432008614e+00	-3.5015927804e+00	-1.4974621188e+00
-3.3545145699e+00	-3.4902790719e+00	-1.6213536977e+00
-3.3658282784e+00	-3.4789653634e+00	-1.7343809334e+00
-3.3771419869e+00	-3.4676516549e+00	-1.8365438204e+00
-3.3884556954e+00	-3.4563379464e+00	-1.9278423530e+00
-3.3997694039e+00	-3.4450242379e+00	-2.0083837647e+00
-3.4110831124e+00	-3.4337105294e+00	-2.0783249310e+00
-3.4223968209e+00	-3.4223968209e+00	-2.1373989944e+00
-3.2491556595e+00	-3.5355339059e+00	-9.3809391924e-01
-3.2634745718e+00	-3.5212149936e+00	-1.0768376328e+00
-3.2777934842e+00	-3.5068960813e+00	-1.2057470552e+00
-3.2921123965e+00	-3.4925771689e+00	-1.3248221747e+00
-3.3064313088e+00	-3.4782582566e+00	-1.4340629797e+00
-3.3207502211e+00	-3.4639393443e+00	-1.5334694587e+00
-3.3350691334e+00	-3.4496204320e+00	-1.6230415999e+00
-3.3493880457e+00	-3.4353015197e+00	-1.7032103252e+00
-3.3637069581e+00	-3.4209826073e+00	-1.7735851137e+00
-3.3780258704e+00	-3.4066636950e+00	-1.8341211304e+00
-3.3923447827e+00	-3.3923447827e+00	-1.8848184090e+00
-3.1819805153e+00	-3.5355339059e+00	-8.4046050620e-01
-3.1996581848e+00	-3.5178562364e+00	-9.6499064439e-01
-3.2173358544e+00	-3.5001785668e+00	-1.0805064929e+00
-3.2350135239e+00	-3.4825008973e+00	-1.1870080299e+00
-3.2526911934e+00	-3.4648232278e+00	-1.2844952335e+00
-3.2703688630e+00	-3.4471455583e+00	-1.3730062004e+00
-3.2880465325e+00	-3.4294678887e+00	-1.4530571574e+00
-3.3057242020e+00	-3.4117902192e+00	-1.5240868585e+00
-3.3234018715e+00	-3.3941125497e+00	-1.5860953677e+00
-3.3410795411e+00	-3.3764348801e+00	-1.6390827486e+00
-3.3587572106e+00	-3.3587572106e+00	-1.6830490650e+00
-3.1819805153e+00	-3.5355339059e+00	-8.4046050620e-01
-3.1996581848e+00	-3.5178562364e+00	-9.6499064439e-01
-3.2173358544e+00	-3.5001785668e+00	-1.0805064929e+00
-3.2350135239e+00	-3.4825008973e+00	-1.1870080299e+00
-3.2526911934e+00	-3.4648232278e+00	-1.2844952335e+00
-3.2703688630e+00	-3.4471455583e+00	-1.3730062004e+00
-3.2880465325e+00	-3.4294678887e+00	-1.4530571574e+00
-3.3057242020e+00	-3.4117902192e+00	-1.5240868585e+00
-3.3234018715e+00	-3.3941125497e+00	-1.5860953677e+00
-3.3410795411e+00	-3.3764348801e+00	-1.6390827486e+00
-3.3587572106e+00	-3.3587572106e+00	-1.6830490650e+00
-3.1077343033e+00	-3.5355339059e+00	-7.6871766076e-01
-3.1291242834e+00	-3.5141439258e+00	-8.7665182478e-01
-3.1505142635e+00	-3.4927539456e+00	-9.7682466322e-01
-3.1719042437e+00	-3.4713639655e+00	-1.0692361374e+00
-3.1932942238e+00	-3.4499739854e+00	-1.1538862085e+00
-3.2146842039e+00	-3.4285840052e+00	-1.2314431111e+00
-3.2360741841e+00	-3.4071940251e+00	-1.3012863593e+00
-3.2574641642e+00	-3.3858040450e+00	-1.3633580284e+00
-3.2788541443e+00	-3.3644140648e+00	-1.4176582315e+00
-3.3002441245e+00	-3.3430240847e+00	-1.4641870814e+00
-3.3216341046e+00	-3.3216341046e+00	-1.5029446911e+00
-3.0264170234e+00	-3.5355339059e+00	-7.0426206787e-01
-3.0518728676e+00	-3.5100780618e+00	-8.0007841389e-01
-3.0773287117e+00	-3.4846222177e+00	-8.8897701579e-01
-3.1027845558e+00	-3.4591663735e+00	-9.7095780832e-01
-3.1282403999e+00	-3.4337105294e+00	-1.0465225492e+00
-3.1536962441e+00	-3.4082546853e+00	-1.1155329651e+00
-3.1791520882e+00	-3.3827988412e+00	-1.1776108401e+00
-3.2046079323e+00	-3.3573429970e+00	-1.2327563647e+00
-3.2300637764e+00	-3.3318871529e+00	-1.2809697292e+00
-3.2555196205e+00	-3.3064313088e+00	-1.3222511240e+00
-3.2809754647e+00	-3.2809754647e+00	-1.3566007395e+00
-2.9380286758e+00	-3.5355339059e+00	-6.4628765779e-01
-2.9679039373e+00	-3.5056586444e+00	-7.3327711452e-01
-2.9977791988e+00	-3.4757833829e+00	-8.1370081982e-01
-3.0276544603e+00	-3.4459081214e+00	-8.8786106399e-01
-3.0575297218e+00	-3.4160328599e+00	-9.5662880624e-01
-3.0874049833e+00	-3.3861575984e+00	-1.0190292346e+00
-3.1172802448e+00	-3.3562823369e+00	-1.0750626568e+00
-3.1471555063e+00	-3.3264070754e+00	-1.1247293807e+00
-3.1770307678e+00	-3.2965318139e+00	-1.1680297139e+00
-3.2069060293e+00	-3.2666565523e+00	-1.2049639643e+00
-3.2367812908e+00	-3.2367812908e+00	-1.2355324395e+00
-2.8425692603e+00	-3.5355339059e+00	-5.8734763170e-01
-2.8772174926e+00	-3.5008856736e+00	-6.6983953103e-01
-2.9118657249e+00	-3.4662374413e+00	-7.4637624623e-01
-2.9465139572e+00	-3.4315892091e+00	-8.1712759372e-01
-2.9811621895e+00	-3.3969409768e+00	-8.8034180177e-01
-3.0158104217e+00	-3.3622927445e+00	-9.3756678896e-01
-3.0504586540e+00	-3.3276445122e+00	-9.8880303536e-01
-3.0851068863e+00	-3.2929962799e+00	-1.0340510211e+00
-3.1197551186e+00	-3.2583480477e+00	-1.0733112262e+00
-3.1544033508e+00	-3.2236998154e+00	-1.1065841308e+00
-3.1890515831e+00	-3.1890515831e+00	-1.1338702149e+00
-2.7400387771e+00	-3.5355339059e+00	-5.3327121781e-01
-2.7798135335e+00	-3.4957591495e+00	-6.1080364962e-01
-2.8195882900e+00	-3.4559843930e+00	-6.8263854417e-01
-2.8593630464e+00	-3.4162096366e+00	-7.4992551744e-01
-2.8991378028e+00	-3.3764348801e+00	-8.1175712202e-01
-2.9389125593e+00	-3.3366601237e+00	-8.6785330703e-01
-2.9786873157e+00	-3.2968853672e+00	-9.1536969324e-01
-3.0184620722e+00	-3.2571106108e+00	-9.5699369503e-01
-3.0582368286e+00	-3.2173358544e+00	-9.9287759038e-01
-3.0980115850e+00	-3.1775610979e+00	-1.0230221055e+00
-3.1377863415e+00	-3.1377863415e+00	-1.0474279668e+00
-2.6304372260e+00	-3.5355339059e+00	-4.8344578563e-01
-2.6756920600e+00	-3.4902790719e+00	-5.5718674737e-01
-2.7209468940e+00	-3.4450242379e+00	-6.2551606870e-01
-2.7662017280e+00	-3.3997694039e+00	-6.8983294453e-01
-2.8114565620e+00	-3.3545145699e+00	-7.4856987182e-01
-2.8567113960e+00	-3.3092597359e+00	-8.0172685057e-01
-2.9019662300e+00	-3.2640049019e+00	-8.4930388077e-01
-2.9472210640e+00	-3.2187500679e+00	-8.9082915206e-01
-2.9924758980e+00	-3.1734952339e+00	-9.2385104557e-01
-3.0377307319e+00	-3.1282403999e+00	-9.5128819356e-01
-3.0829855659e+00	-3.0829855659e+00	-9.7314166577e-01
-2.5137646071e+00	-3.5355339059e+00	-4.3733327013e-01
-2.5648530721e+00	-3.4844454410e+00	-5.0816058098e-01
-2.6159415370e+00	-3.4333569760e+00	-5.7411294586e-01
-2.6670300019e+00	-3.3822685111e+00	-6.3594176051e-01
-2.7181184669e+00	-3.3311800461e+00	-6.9227849990e-01
-2.7692069318e+00	-3.2800915812e+00	-7.4312316404e-01
-2.8202953967e+00	-3.2290031162e+00	-7.8847575292e-01
-2.8713838617e+00	-3.1779146513e+00	-8.2833626654e-01
-2.9224723266e+00	-3.1268261864e+00	-8.6270470491e-01
-2.9735607916e+00	-3.0757377214e+00	-8.8914702841e-01
-3.0246492565e+00	-3.0246492565e+00	-9.0871763932e-01
-2.3900209204e+00	-3.5355339059e+00	-3.9446960060e-01
-2.4472965697e+00	-3.4782582566e+00	-4.6305328537e-01
-2.5045722190e+00	-3.4209826073e+00	-5.2728831784e-01
-2.5618478682e+00	-3.3637069581e+00	-5.8721923358e-01
-2.6191235175e+00	-3.3064313088e+00	-6.4169614480e-01
-2.6763991668e+00	-3.2491556595e+00	-6.9071905148e-01
-2.7336748161e+00	-3.1918800102e+00	-7.3428795364e-01
-2.7909504653e+00	-3.1346043610e+00	-7.7240285128e-01
-2.8482261146e+00	-3.0773287117e+00	-8.0506374438e-01
-2.9055017639e+00	-3.0200530624e+00	-8.3227063295e-01
-2.9627774131e+00	-2.9627774131e+00	-8.5240473830e-01
-2.2592061659e+00	-3.5355339059e+00	-3.5445839330e-01
-2.3230225529e+00	-3.4717175189e+00	-4.2131699023e-01
-2.3868389399e+00	-3.4079011319e+00	-4.8435612904e-01
-2.4506553269e+00	-3.3440847449e+00	-5.4285300786e-01
-2.5144717139e+00	-3.2802683579e+00	-5.9589668385e-01
-2.5782881009e+00	-3.2164519709e+00	-6.4348715701e-01
-2.6421044879e+00	-3.1526355839e+00	-6.8562442733e-01
-2.7059208749e+00	-3.0888191969e+00	-7.2230849482e-01
-2.7697372619e+00	-3.0250028099e+00	-7.5353935948e-01
-2.8335536489e+00	-2.9611864229e+00	-7.7931702130e-01
-2.8973700359e+00	-2.8973700359e+00	-7.9964148028e-01
-2.1213203436e+00	-3.5355339059e+00	-3.1696288305e-01
-2.1920310217e+00	-3.4648232278e+00	-3.8250277947e-01
-2.2627416998e+00	-3.3941125497e+00	-4.4476465228e-01
-2.3334523780e+00	-3.3234018715e+00	-5.0219698124e-01
-2.4041630561e+00	-3.2526911934e+00	-5.5414856394e-01
-2.4748737342e+00	-3.1819805153e+00	-6.0061940036e-01
-2.5455844123e+00	-3.1112698372e+00	-6.4160949051e-01
-2.6162950904e+00	-3.0405591591e+00	-6.7711883438e-01
-2.6870057685e+00	-2.9698484809e+00	-7.0714743198e-01
-2.7577164466e+00	-2.8991378028e+00	-7.3169528331e-01
-2.8284271247e+00	-2.8284271247e+00	-7.5076238837e-01
 4.2426406871e+00	 4.2426406871e+00	-1.1432967854e-02
 4.1719300090e+00	 4.3133513652e+00	-4.6097329844e-02
 4.1012193309e+00	 4.3840620433e+00	-7.3576386680e-02
 4.0305086527e+00	 4.4547727215e+00	-9.3871537064e-02
 3.9597979746e+00	 4.5254833996e+00	-1.0698417971e-01
 3.8890872965e+00	 4.5961940777e+00	-1.1291571334e-01
 3.8183766184e+00	 4.6669047558e+00	-1.1166753668e-01
 3.7476659403e+00	 4.7376154339e+00	-1.0324104849e-01
 3.6769552621e+00	 4.8083261121e+00	-8.7637647526e-02
 3.6062445840e+00	 4.8790367902e+00	-6.4858732545e-02
 3.5355339059e+00	 4.9497474683e+00	-3.4905702328e-02
 4.3487067043e+00	 4.3487067043e+00	-3.5048840549e-03
 4.2779960262e+00	 4.4194173824e+00	-3.7794484245e-02
 4.2072853480e+00	 4.4901280605e+00	-6.5696167725e-02
 4.1365746699e+00	 4.5608387386e+00	-8.7211333197e-02
 4.0658639918e+00	 4.6315494168e+00	-1.0234137938e-01
 3.9951533137e+00	 4.7022600949e+00	-1.1108770499e-01
 3.9244426356e+00	 4.7729707730e+00	-1.1345170878e-01
 3.8537319574e+00	 4.8436814511e+00	-1.0943478949e-01
 3.7830212793e+00	 4.9143921292e+00	-9.9038345874e-02
 3.7123106012e+00	 4.9851028074e+00	-8.2263776706e-02
 3.6415999231e+00	 5.0558134855e+00	-5.9112480766e-02
 4.4547727215e+00	 4.4547727215e+00	 3.2845038305e-03
 4.3840620433e+00	 4.5254833996e+00	-3.0047802235e-02
 4.3133513652e+00	 4.5961940777e+00	-5.7789580026e-02
 4.2426406871e+00	 4.6669047558e+00	-7.9942228251e-02
 4.1719300090e+00	 4.7376154339e+00	-9.6507145626e-02
 4.1012193309e+00	 4.8083261121e+00	-1.0748573088e-01
 4.0305086527e+00	 4.8790367902e+00	-1.1287938276e-01
 3.9597979746e+00	 4.9497474683e+00	-1.1268950000e-01
 3.8890872965e+00	 5.0204581464e+00	-1.0691748137e-01
 3.8183766184e+00	 5.0911688245e+00	-9.5564725647e-02
 3.7476659403e+00	 5.1618795027e+00	-7.8632631607e-02
 4.5608387386e+00	 4.5608387386e+00	 8.9342079573e-03
 4.4901280605e+00	 4.6315494168e+00	-2.2858271652e-02
 4.4194173824e+00	 4.7022600949e+00	-4.9857611418e-02
 4.3487067043e+00	 4.7729707730e+00	-7.2065210052e-02
 4.2779960262e+00	 4.8436814511e+00	-8.9482466274e-02
 4.2072853480e+00	 4.9143921292e+00	-1.0211077881e-01
 4.1365746699e+00	 4.9851028074e+00	-1.0995154642e-01
 4.0658639918e+00	 5.0558134855e+00	-1.1300616783e-01
 3.9951533137e+00	 5.1265241636e+00	-1.1127604182e-01
 3.9244426356e+00	 5.1972348417e+00	-1.0476256716e-01
 3.8537319574e+00	 5.2679455198e+00	-9.3467142640e-02
 4.6669047558e+00	 4.6669047558e+00	 1.3443240459e-02
 4.5961940777e+00	 4.7376154339e+00	-1.6226880357e-02
 4.5254833996e+00	 4.8083261121e+00	-4.1901249756e-02
 4.4547727215e+00	 4.8790367902e+00	-6.3581266452e-02
 4.3840620433e+00	 4.9497474683e+00	-8.1268329166e-02
 4.3133513652e+00	 5.0204581464e+00	-9.4963836632e-02
 4.2426406871e+00	 5.0911688245e+00	-1.0466918759e-01
 4.1719300090e+00	 5.1618795027e+00	-1.1038578081e-01
 4.1012193309e+00	 5.2325901808e+00	-1.1211501504e-01
 4.0305086527e+00	 5.3033008589e+00	-1.0985828907e-01
 3.9597979746e+00	 5.3740115370e+00	-1.0361700168e-01
 4.7729707730e+00	 4.7729707730e+00	 1.6810613448e-02
 4.7022600949e+00	 4.8436814511e+00	-1.0154616233e-02
 4.6315494168e+00	 4.9143921292e+00	-3.3921482917e-02
 4.5608387386e+00	 4.9851028074e+00	-5.4491385321e-02
 4.4901280605e+00	 5.0558134855e+00	-7.1865722168e-02
 4.4194173824e+00	 5.1265241636e+00	-8.6045892195e-02
 4.3487067043e+00	 5.1972348417e+00	-9.7033294149e-02
 4.2779960262e+00	 5.2679455198e+00	-1.0482932679e-01
 4.2072853480e+00	 5.3386561980e+00	-1.0943538888e-01
 4.1365746699e+00	 5.4093668761e+00	-1.1085287920e-01
 4.0658639918e+00	 5.4800775542e+00	-1.0908319655e-01
 4.8790367902e+00	 4.8790367902e+00	 1.9035339014e-02
 4.8083261121e+00	 4.9497474683e+00	-4.6424671836e-03
 4.7376154339e+00	 5.0204581464e+00	-2.5919298800e-02
 4.6669047558e+00	 5.0911688245e+00	-4.4796554552e-02
 4.5961940777e+00	 5.1618795027e+00	-6.1275633168e-02
 4.5254833996e+00	 5.2325901808e+00	-7.5357933386e-02
 4.4547727215e+00	 5.3033008589e+00	-8.7044853955e-02
 4.3840620433e+00	 5.3740115370e+00	-9.6337793636e-02
 4.3133513652e+00	 5.4447222151e+00	-1.0323815120e-01
 4.2426406871e+00	 5.5154328933e+00	-1.0774732543e-01
 4.1719300090e+00	 5.5861435714e+00	-1.0986671511e-01
 4.9851028074e+00	 4.9851028074e+00	 2.0116429225e-02
 4.9143921292e+00	 5.0558134855e+00	 3.0857886491e-04
 4.8436814511e+00	 5.1265241636e+00	-1.7895685324e-02
 4.7729707730e+00	 5.1972348417e+00	-3.4497762060e-02
 4.7022600949e+00	 5.2679455198e+00	-4.9499050074e-02
 4.6315494168e+00	 5.3386561980e+00	-6.2900948106e-02
 4.5608387386e+00	 5.4093668761e+00	-7.4704854909e-02
 4.4901280605e+00	 5.4800775542e+00	-8.4912169245e-02
 4.4194173824e+00	 5.5507882323e+00	-9.3524289887e-02
 4.3487067043e+00	 5.6214989104e+00	-1.0054261562e-01
 4.2779960262e+00	 5.6922095886e+00	-1.0596854524e-01
 5.0911688245e+00	 5.0911688245e+00	 2.0052896131e-02
 5.0204581464e+00	 5.1618795027e+00	 4.6975339656e-03
 4.9497474683e+00	 5.2325901808e+00	-9.8516304310e-03
 4.8790367902e+00	 5.3033008589e+00	-2.3595995781e-02
 4.8083261121e+00	 5.3740115370e+00	-3.6536960817e-02
 4.7376154339e+00	 5.4447222151e+00	-4.8675924283e-02
 4.6669047558e+00	 5.5154328933e+00	-6.0014284932e-02
 4.5961940777e+00	 5.5861435714e+00	-7.0553441530e-02
 4.5254833996e+00	 5.6568542495e+00	-8.0294792852e-02
 4.4547727215e+00	 5.7275649276e+00	-8.9239737686e-02
 4.3840620433e+00	 5.7982756057e+00	-9.7389674829e-02
 5.1972348417e+00	 5.1972348417e+00	 1.8843751755e-02
 5.1265241636e+00	 5.2679455198e+00	 8.5234101500e-03
 5.0558134855e+00	 5.3386561980e+00	-1.7881220844e-03
 4.9851028074e+00	 5.4093668761e+00	-1.2092243673e-02
 4.9143921292e+00	 5.4800775542e+00	-2.2390353349e-02
 4.8436814511e+00	 5.5507882323e+00	-3.2683849861e-02
 4.7729707730e+00	 5.6214989104e+00	-4.2974131963e-02
 4.7022600949e+00	 5.6922095886e+00	-5.3262598425e-02
 4.6315494168e+00	 5.7629202667e+00	-6.3550648024e-02
 4.5608387386e+00	 5.8336309448e+00	-7.3839679549e-02
 4.4901280605e+00	 5.9043416229e+00	-8.4131091801e-02
 5.3033008589e+00	 5.3033008589e+00	 1.6488008102e-02
 5.2325901808e+00	 5.3740115370e+00	 1.1785219428e-02
 5.1618795027e+00	 5.4447222151e+00	 6.2938517312e-03
 5.0911688245e+00	 5.5154328933e+00	 1.2506286432e-05
 5.0204581464e+00	 5.5861435714e+00	-7.0602156441e-03
 4.9497474683e+00	 5.6568542495e+00	-1.4925712809e-02
 4.8790367902e+00	 5.7275649276e+00	-2.3585383967e-02
 4.8083261121e+00	 5.7982756057e+00	-3.3040627888e-02
 4.7376154339e+00	 5.8689862839e+00	-4.3292843353e-02
 4.6669047558e+00	 5.9396969620e+00	-5.4343429155e-02
 4.5961940777e+00	 6.0104076401e+00	-6.6193784094e-02
 5.3033008589e+00	 5.3033008589e+00	 1.6488008102e-02
 5.2325901808e+00	 5.3740115370e+00	 1.1785219428e-02
 5.1618795027e+00	 5.4447222151e+00	 6.2938517312e-03
 5.0911688245e+00	 5.5154328933e+00	 1.2506286432e-05
 5.0204581464e+00	 5.5861435714e+00	-7.0602156441e-03
 4.9497474683e+00	 5.6568542495e+00	-1.4925712809e-02
 4.8790367902e+00	 5.7275649276e+00	-2.3585383967e-02
 4.8083261121e+00	 5.7982756057e+00	-3.3040627888e-02
 4.7376154339e+00	 5.8689862839e+00	-4.3292843353e-02
 4.6669047558e+00	 5.9396969620e+00	-5.4343429155e-02
 4.5961940777e+00	 6.0104076401e+00	-6.6193784094e-02
 5.4093668761e+00	 5.4093668761e+00	 1.9695273922e-02
 5.3386561980e+00	 5.4800775542e+00	 1.4475443298e-02
 5.2679455198e+00	 5.5507882323e+00	 8.6749466898e-03
 5.1972348417e+00	 5.6214989104e+00	 2.2923853677e-03
 5.1265241636e+00	 5.6922095886e+00	-4.6736394080e-03
 5.0558134855e+00	 5.7629202667e+00	-1.2224526388e-02
 4.9851028074e+00	 5.8336309448e+00	-2.0361674334e-02
 4.9143921292e+00	 5.9043416229e+00	-2.9086482018e-02
 4.8436814511e+00	 5.9750523010e+00	-3.8400348225e-02
 4.7729707730e+00	 6.0457629792e+00	-4.8304671747e-02
 4.7022600949e+00	 6.1164736573e+00	-5.8800851390e-02
 5.5154328933e+00	 5.5154328933e+00	 2.3220676037e-02
 5.4447222151e+00	 5.5861435714e+00	 1.7352551018e-02
 5.3740115370e+00	 5.6568542495e+00	 1.1111673058e-02
 5.3033008589e+00	 5.7275649276e+00	 4.4966434245e-03
 5.2325901808e+00	 5.7982756057e+00	-2.4939366246e-03
 5.1618795027e+00	 5.8689862839e+00	-9.8614658426e-03
 5.0911688245e+00	 5.9396969620e+00	-1.7607342994e-02
 5.0204581464e+00	 6.0104076401e+00	-2.5732966852e-02
 4.9497474683e+00	 6.0811183182e+00	-3.4239736205e-02
 4.8790367902e+00	 6.1518289963e+00	-4.3129049848e-02
 4.8083261121e+00	 6.2225396745e+00	-5.2402306589e-02
 5.6214989104e+00	 5.6214989104e+00	 2.7063226385e-02
 5.5507882323e+00	 5.6922095886e+00	 2.0415554532e-02
 5.4800775542e+00	 5.7629202667e+00	 1.3603042786e-02
 5.4093668761e+00	 5.8336309448e+00	 6.6242924131e-03
 5.3386561980e+00	 5.9043416229e+00	-5.2209533213e-04
 5.2679455198e+00	 5.9750523010e+00	-7.8375192052e-03
 5.1972348417e+00	 6.0457629792e+00	-1.5323377973e-02
 5.1265241636e+00	 6.1164736573e+00	-2.2981070412e-02
 5.0558134855e+00	 6.1871843354e+00	-3.0811995311e-02
 4.9851028074e+00	 6.2578950135e+00	-3.8817551469e-02
 4.9143921292e+00	 6.3286056916e+00	-4.6999137696e-02
 5.7275649276e+00	 5.7275649276e+00	 3.1221936886e-02
 5.6568542495e+00	 5.7982756057e+00	 2.3663465765e-02
 5.5861435714e+00	 5.8689862839e+00	 1.6148067804e-02
 5.5154328933e+00	 5.9396969620e+00	 8.6743442684e-03
 5.4447222151e+00	 6.0104076401e+00	 1.2408964098e-03
 5.3740115370e+00	 6.0811183182e+00	-6.1536745299e-03
 5.3033008589e+00	 6.1518289963e+00	-1.3510767320e-02
 5.2325901808e+00	 6.2225396745e+00	-2.0831780739e-02
 5.1618795027e+00	 6.2932503526e+00	-2.8118113579e-02
 5.0911688245e+00	 6.3639610307e+00	-3.5371164642e-02
 5.0204581464e+00	 6.4346717088e+00	-4.2592332739e-02
 5.8336309448e+00	 5.8336309448e+00	 3.5695819435e-02
 5.7629202667e+00	 5.9043416229e+00	 2.7095296617e-02
 5.6922095886e+00	 5.9750523010e+00	 1.8745760019e-02
 5.6214989104e+00	 6.0457629792e+00	 1.0645810903e-02
 5.5507882323e+00	 6.1164736573e+00	 2.7940505198e-03
 5.4800775542e+00	 6.1871843354e+00	-4.8109198924e-03
 5.4093668761e+00	 6.2578950135e+00	-1.2170499105e-02
 5.3386561980e+00	 6.3286056916e+00	-1.9286085899e-02
 5.2679455198e+00	 6.3993163698e+00	-2.6159079070e-02
 5.1972348417e+00	 6.4700270479e+00	-3.2790877420e-02
 5.1265241636e+00	 6.5407377260e+00	-3.9182879764e-02
 5.9396969620e+00	 5.9396969620e+00	 4.0483885908e-02
 5.8689862839e+00	 6.0104076401e+00	 3.0710058970e-02
 5.7982756057e+00	 6.0811183182e+00	 2.1395131317e-02
 5.7275649276e+00	 6.1518289963e+00	 1.2537704210e-02
 5.6568542495e+00	 6.2225396745e+00	 4.1363788952e-03
 5.5861435714e+00	 6.2932503526e+00	-3.8102433900e-03
 5.5154328933e+00	 6.3639610307e+00	-1.1303561420e-02
 5.4447222151e+00	 6.4346717088e+00	-1.8344973979e-02
 5.3740115370e+00	 6.5053823869e+00	-2.4935879862e-02
 5.3033008589e+00	 6.5760930651e+00	-3.1077677878e-02
 5.2325901808e+00	 6.6468037432e+00	-3.6771766842e-02
 6.0457629792e+00	 6.0457629792e+00	 4.5585148158e-02
 5.9750523010e+00	 6.1164736573e+00	 3.4506764682e-02
 5.9043416229e+00	 6.1871843354e+00	 2.4095193563e-02
 5.8336309448e+00	 6.2578950135e+00	 1.4349036058e-02
 5.7629202667e+00	 6.3286056916e+00	 5.2668934116e-03
 5.6922095886e+00	 6.3993163698e+00	-3.1526331414e-03
 5.6214989104e+00	 6.4700270479e+00	-1.0910942378e-02
 5.5507882323e+00	 6.5407377260e+00	-1.8009433084e-02
 5.4800775542e+00	 6.6114484041e+00	-2.4449504060e-02
 5.4093668761e+00	 6.6821590822e+00	-3.0232554112e-02
 5.3386561980e+00	 6.7528697604e+00	-3.5359982062e-02
 6.1518289963e+00	 6.1518289963e+00	 5.0998618017e-02
 6.0811183182e+00	 6.2225396745e+00	 3.8484425591e-02
 6.0104076401e+00	 6.2932503526e+00	 2.6844958600e-02
 5.9396969620e+00	 6.3639610307e+00	 1.6078818296e-02
 5.8689862839e+00	 6.4346717088e+00	 6.1846059232e-03
 5.7982756057e+00	 6.5053823869e+00	-2.8390772870e-03
 5.7275649276e+00	 6.5760930651e+00	-1.0993630113e-02
 5.6568542495e+00	 6.6468037432e+00	-1.8280451346e-02
 5.5861435714e+00	 6.7175144213e+00	-2.4700939785e-02
 5.5154328933e+00	 6.7882250994e+00	-3.0256494242e-02
 5.4447222151e+00	 6.8589357775e+00	-3.4948513539e-02
 6.2578950135e+00	 6.2578950135e+00	 5.6723307296e-02
 6.1871843354e+00	 6.3286056916e+00	 4.2642053514e-02
 6.1164736573e+00	 6.3993163698e+00	 2.9643438249e-02
 6.0457629792e+00	 6.4700270479e+00	 1.7726062751e-02
 5.9750523010e+00	 6.5407377260e+00	 6.8885282626e-03
 5.9043416229e+00	 6.6114484041e+00	-2.8705639886e-03
 5.8336309448e+00	 6.6821590822e+00	-1.1552612783e-02
 5.7629202667e+00	 6.7528697604e+00	-1.9159016914e-02
 5.6922095886e+00	 6.8235804385e+00	-2.5691175184e-02
 5.6214989104e+00	 6.8942911166e+00	-3.1150486406e-02
 5.5507882323e+00	 6.9650017947e+00	-3.5538349406e-02
 6.3639610307e+00	 6.3639610307e+00	 6.2758227782e-02
 6.2932503526e+00	 6.4346717088e+00	 4.6978660244e-02
 6.2225396745e+00	 6.5053823869e+00	 3.2489644310e-02
 6.1518289963e+00	 6.5760930651e+00	 1.9289781229e-02
 6.0811183182e+00	 6.6468037432e+00	 7.3776722407e-03
 6.0104076401e+00	 6.7175144213e+00	-3.2480814296e-03
 5.9396969620e+00	 6.7882250994e+00	-1.2588878565e-02
 5.8689862839e+00	 6.8589357775e+00	-2.0646117961e-02
 5.7982756057e+00	 6.9296464557e+00	-2.7421198422e-02
 5.7275649276e+00	 7.0003571338e+00	-3.2915518765e-02
 5.6568542495e+00	 7.0710678119e+00	-3.7130477818e-02
 3.5355339059e+00	 4.9497474683e+00	 5.2122107150e-03
 3.2173358544e+00	 5.2679455198e+00	 1.6745128720e-02
 2.8991378029e+00	 5.5861435714e+00	 2.5986940653e-02
 2.5809397513e+00	 5.9043416229e+00	 4.9520948689e-02
 2.2627416998e+00	 6.2225396745e+00	 6.6475654496e-02
 1.9445436483e+00	 6.5407377260e+00	 7.6757796790e-02
 1.6263455967e+00	 6.8589357775e+00	 8.0274114779e-02
 1.3081475452e+00	 7.1771338291e+00	 7.6931348164e-02
 9.8994949368e-01	 7.4953318806e+00	 6.6636237142e-02
 6.7175144214e-01	 7.8135299321e+00	 4.9295522398e-02
 3.5355339060e-01	 8.1317279837e+00	 2.4815945113e-02
 3.6415999231e+00	 5.0558134855e+00	 7.5879249841e-03
 3.3234018716e+00	 5.3740115370e+00	 1.6848721571e-02
 3.0052038200e+00	 5.6922095886e+00	 2.1514096412e-02
 2.6870057685e+00	 6.0104076401e+00	 3.9649113110e-02
 2.3688077170e+00	 6.3286056916e+00	 5.6623316556e-02
 2.0506096655e+00	 6.6468037432e+00	 6.7633014556e-02
 1.7324116139e+00	 6.9650017947e+00	 7.2584944906e-02
 1.4142135624e+00	 7.2831998462e+00	 7.1385845894e-02
 1.0960155109e+00	 7.6013978978e+00	 6.3942456303e-02
 7.7781745932e-01	 7.9195959493e+00	 5.0161515408e-02
 4.5961940778e-01	 8.2377940008e+00	 2.9949762976e-02
 3.7476659403e+00	 5.1618795027e+00	 1.0002168331e-02
 3.4294678887e+00	 5.4800775542e+00	 1.6860150381e-02
 3.1112698372e+00	 5.7982756057e+00	 1.9893737629e-02
 2.7930717857e+00	 6.1164736573e+00	 2.9499422755e-02
 2.4748737342e+00	 6.4346717088e+00	 4.6361163384e-02
 2.1566756826e+00	 6.7528697603e+00	 5.7966456301e-02
 1.8384776311e+00	 7.0710678119e+00	 6.4222037891e-02
 1.5202795796e+00	 7.3892658634e+00	 6.5034645028e-02
 1.2020815280e+00	 7.7074639149e+00	 6.0311015083e-02
 8.8388347650e-01	 8.0256619665e+00	 4.9957885919e-02
 5.6568542496e-01	 8.3438600180e+00	 3.3881995890e-02
 3.8537319574e+00	 5.2679455198e+00	 1.2453952965e-02
 3.5355339059e+00	 5.5861435714e+00	 1.6778427387e-02
 3.2173358544e+00	 5.9043416229e+00	 1.8049534062e-02
 2.8991378029e+00	 6.2225396745e+00	 1.9091878859e-02
 2.5809397513e+00	 6.5407377260e+00	 3.5709196371e-02
 2.2627416998e+00	 6.8589357775e+00	 4.7778123573e-02
 1.9445436483e+00	 7.1771338291e+00	 5.5205395437e-02
 1.6263455967e+00	 7.4953318806e+00	 5.7897747428e-02
 1.3081475452e+00	 7.8135299321e+00	 5.5761915501e-02
 9.8994949368e-01	 8.1317279837e+00	 4.8704636106e-02
 6.7175144214e-01	 8.4499260352e+00	 3.6632646186e-02
 3.9597979746e+00	 5.3740115370e+00	 1.4942291077e-02
 3.6415999231e+00	 5.6922095886e+00	 1.6602564802e-02
 3.3234018716e+00	 6.0104076401e+00	 1.5980497951e-02
 3.0052038200e+00	 6.3286056916e+00	 1.2948617848e-02
 2.6870057685e+00	 6.6468037432e+00	 2.4687417122e-02
 2.3688077170e+00	 6.9650017947e+00	 3.7088018134e-02
 2.0506096655e+00	 7.2831998462e+00	 4.5555019466e-02
 1.7324116139e+00	 7.6013978978e+00	 4.9995155170e-02
 1.4142135624e+00	 7.9195959493e+00	 5.0315159788e-02
 1.0960155109e+00	 8.2377940008e+00	 4.6421768360e-02
 7.7781745932e-01	 8.5559920524e+00	 3.8221716413e-02
 4.0658639918e+00	 5.4800775542e+00	 1.7466194832e-02
 3.7476659403e+00	 5.7982756057e+00	 1.6331574819e-02
 3.4294678888e+00	 6.1164736573e+00	 1.3685641513e-02
 3.1112698372e+00	 6.4346717088e+00	 9.4009220161e-03
 2.7930717857e+00	 6.7528697603e+00	 1.3315827459e-02
 2.4748737342e+00	 7.0710678119e+00	 2.5916141962e-02
 2.1566756826e+00	 7.3892658634e+00	 3.5290912112e-02
 1.8384776311e+00	 7.7074639149e+00	 4.1346870546e-02
 1.5202795796e+00	 8.0256619665e+00	 4.3990750396e-02
 1.2020815280e+00	 8.3438600180e+00	 4.3129285286e-02
 8.8388347649e-01	 8.6620580695e+00	 3.8669209334e-02
 4.1719300090e+00	 5.5861435714e+00	 2.0024676379e-02
 3.8537319575e+00	 5.9043416229e+00	 1.5964469608e-02
 3.5355339059e+00	 6.2225396745e+00	 1.1163976945e-02
 3.2173358544e+00	 6.5407377260e+00	 5.4957252651e-03
 2.8991378029e+00	 6.8589357775e+00	 1.6144294182e-03
 2.5809397513e+00	 7.1771338291e+00	 1.4282497252e-02
 2.2627416998e+00	 7.4953318806e+00	 2.4433075725e-02
 1.9445436483e+00	 7.8135299321e+00	 3.1972896064e-02
 1.6263455967e+00	 8.1317279837e+00	 3.6808689988e-02
 1.3081475452e+00	 8.4499260352e+00	 3.8847189707e-02
 9.8994949367e-01	 8.7681240867e+00	 3.7995127926e-02
 4.2779960262e+00	 5.6922095886e+00	 2.2616747840e-02
 3.9597979746e+00	 6.0104076401e+00	 1.5500261319e-02
 3.6415999231e+00	 6.3286056916e+00	 8.4145164200e-03
 3.3234018716e+00	 6.6468037432e+00	 1.2320397940e-03
 3.0052038201e+00	 6.9650017947e+00	-6.1746463531e-03
 2.6870057685e+00	 7.2831998462e+00	 2.2070864118e-03
 2.3688077170e+00	 7.6013978978e+00	 1.3001512872e-02
 2.0506096655e+00	 7.9195959493e+00	 2.1893234447e-02
 1.7324116139e+00	 8.2377940008e+00	 2.8788981443e-02
 1.4142135624e+00	 8.5559920524e+00	 3.3595484658e-02
 1.0960155108e+00	 8.8741901039e+00	 3.6219475384e-02
 4.3840620433e+00	 5.7982756057e+00	 2.5241421319e-02
 4.0658639918e+00	 6.1164736573e+00	 1.4937962079e-02
 3.7476659403e+00	 6.4346717088e+00	 5.4362720917e-03
 3.4294678888e+00	 6.7528697603e+00	-3.3911222193e-03
 3.1112698372e+00	 7.0710678119e+00	-1.1671698872e-02
 2.7930717857e+00	 7.3892658634e+00	-1.0290087934e-02
 2.4748737342e+00	 7.7074639149e+00	 1.0162263341e-03
 2.1566756826e+00	 8.0256619665e+00	 1.1127888634e-02
 1.8384776311e+00	 8.3438600180e+00	 1.9951627858e-02
 1.5202795796e+00	 8.6620580695e+00	 2.7394173392e-02
 1.2020815280e+00	 8.9802561211e+00	 3.3362255117e-02
 4.4901280605e+00	 5.9043416229e+00	 2.7897708897e-02
 4.1719300090e+00	 6.2225396745e+00	 1.4276583996e-02
 3.8537319575e+00	 6.5407377260e+00	 2.2282560913e-03
 3.5355339059e+00	 6.8589357775e+00	-8.3747486185e-03
 3.2173358544e+00	 7.1771338290e+00	-1.7659908376e-02
 2.8991378029e+00	 7.4953318806e+00	-2.3189022946e-02
 2.5809397513e+00	 7.8135299321e+00	-1.1502780893e-02
 2.2627416998e+00	 8.1317279836e+00	-3.0313822376e-04
 1.9445436483e+00	 8.4499260352e+00	 1.0316632542e-02
 1.6263455967e+00	 8.7681240867e+00	 2.0263259377e-02
 1.3081475452e+00	 9.0863221382e+00	 2.9443470748e-02
 4.5961940777e+00	 6.0104076401e+00	 3.0584622634e-02
 4.2779960262e+00	 6.3286056916e+00	 1.3515139154e-02
 3.9597979746e+00	 6.6468037432e+00	-1.2105194715e-03
 3.6415999231e+00	 6.9650017947e+00	-1.3719827269e-02
 3.3234018716e+00	 7.2831998462e+00	-2.4140262706e-02
 3.0052038200e+00	 7.6013978978e+00	-3.2599308694e-02
 2.6870057685e+00	 7.9195959493e+00	-2.4535505596e-02
 2.3688077170e+00	 8.2377940008e+00	-1.2379842756e-02
 2.0506096654e+00	 8.5559920524e+00	-9.6000978722e-05
 1.7324116139e+00	 8.8741901039e+00	 1.2222746295e-02
 1.4142135624e+00	 9.1923881554e+00	 2.4483126118e-02
 3.5355339060e-01	 8.1317279837e+00	 2.4815945113e-02
 3.5355339061e-02	 8.4499260352e+00	 3.3735300167e-02
-2.8284271248e-01	 8.7681240867e+00	 3.9302221929e-02
-6.0104076401e-01	 9.0863221382e+00	 4.1423453059e-02
-9.1923881554e-01	 9.4045201898e+00	 4.0005736713e-02
-1.2374368671e+00	 9.7227182413e+00	 3.4955816540e-02
-1.5556349186e+00	 1.0040916293e+01	 2.6180436682e-02
-1.8738329701e+00	 1.0359114344e+01	 1.4284922674e-02
-2.1920310217e+00	 1.0677312396e+01	 1.3328402522e-02
-2.5102290732e+00	 1.0995510447e+01	 9.4985640484e-03
-2.8284271247e+00	 1.1313708499e+01	 2.9139288130e-03
 4.5961940778e-01	 8.2377940008e+00	 2.9949762976e-02
 1.4142135624e-01	 8.5559920524e+00	 3.8604101969e-02
-1.7677669530e-01	 8.8741901039e+00	 4.3548715226e-02
-4.9497474683e-01	 9.1923881554e+00	 4.4690343996e-02
-8.1317279837e-01	 9.5105862070e+00	 4.1935730019e-02
-1.1313708499e+00	 9.8287842585e+00	 3.5191615534e-02
-1.4495689014e+00	 1.0146982310e+01	 2.4364743269e-02
-1.7677669530e+00	 1.0465180362e+01	 1.5238679435e-02
-2.0859650045e+00	 1.0783378413e+01	 1.2167501628e-02
-2.4041630560e+00	 1.1101576465e+01	 5.9565174278e-03
-2.7223611075e+00	 1.1419774516e+01	-3.2757516051e-03
 5.6568542496e-01	 8.3438600180e+00	 3.3881995890e-02
 2.4748737342e-01	 8.6620580695e+00	 4.2447507114e-02
-7.0710678118e-02	 8.9802561211e+00	 4.6945999826e-02
-3.8890872965e-01	 9.2984541726e+00	 4.7284213861e-02
-7.0710678119e-01	 9.6166522241e+00	 4.3368889550e-02
-1.0253048327e+00	 9.9348502757e+00	 3.5106767715e-02
-1.3435028843e+00	 1.0253048327e+01	 2.2404589673e-02
-1.6617009358e+00	 1.0571246379e+01	 1.6496206799e-02
-1.9798989873e+00	 1.0889444430e+01	 1.1478718005e-02
-2.2980970388e+00	 1.1207642482e+01	 3.0549347474e-03
-2.6162950904e+00	 1.1525840533e+01	-8.6566214142e-03
 6.7175144214e-01	 8.4499260352e+00	 3.6632646186e-02
 3.5355339060e-01	 8.7681240867e+00	 4.5285518090e-02
 3.5355339061e-02	 9.0863221383e+00	 4.9514078374e-02
-2.8284271248e-01	 9.4045201898e+00	 4.9225065460e-02
-6.0104076401e-01	 9.7227182413e+00	 4.4325218266e-02
-9.1923881555e-01	 1.0040916293e+01	 3.4721276201e-02
-1.2374368671e+00	 1.0359114344e+01	 2.1051390251e-02
-1.5556349186e+00	 1.0677312396e+01	 1.8047241235e-02
-1.8738329701e+00	 1.0995510447e+01	 1.1251788123e-02
-2.1920310217e+00	 1.1313708499e+01	 7.8355247657e-04
-2.5102290732e+00	 1.1631906551e+01	-1.3238944145e-02
 7.7781745932e-01	 8.5559920524e+00	 3.8221716413e-02
 4.5961940778e-01	 8.8741901039e+00	 4.7138137603e-02
 1.4142135624e-01	 9.1923881554e+00	 5.1272953732e-02
-1.7677669530e-01	 9.5105862070e+00	 5.0532901810e-02
-4.9497474684e-01	 9.8287842585e+00	 4.4824719341e-02
-8.1317279837e-01	 1.0146982310e+01	 3.4055144323e-02
-1.1313708499e+00	 1.0465180362e+01	 2.4228797807e-02
-1.4495689014e+00	 1.0783378413e+01	 1.9881519212e-02
-1.7677669530e+00	 1.1101576465e+01	 1.1476448451e-02
-2.0859650045e+00	 1.1419774516e+01	-8.6789291557e-04
-2.4041630560e+00	 1.1737972568e+01	-1.7032983329e-02
 8.8388347649e-01	 8.6620580695e+00	 3.8669209334e-02
 5.6568542496e-01	 8.9802561211e+00	 4.8025368572e-02
 2.4748737342e-01	 9.2984541726e+00	 5.2242628976e-02
-7.0710678121e-02	 9.6166522241e+00	 5.1227726144e-02
-3.8890872966e-01	 9.9348502757e+00	 4.4887396167e-02
-7.0710678120e-01	 1.0253048327e+01	 3.3128375629e-02
-1.0253048327e+00	 1.0571246379e+01	 2.7510838704e-02
-1.3435028843e+00	 1.0889444430e+01	 2.1988777200e-02
-1.6617009358e+00	 1.1207642482e+01	 1.2142435459e-02
-1.9798989873e+00	 1.1525840533e+01	-1.9096649597e-03
-2.2980970389e+00	 1.1844038585e+01	-2.0049002496e-02
 9.8994949367e-01	 8.7681240867e+00	 3.7995127926e-02
 6.7175144213e-01	 9.0863221383e+00	 4.7967214132e-02
 3.5355339059e-01	 9.4045201898e+00	 5.2443107400e-02
 3.5355339057e-02	 9.7227182413e+00	 5.1329541913e-02
-2.8284271248e-01	 1.0040916293e+01	 4.4533252350e-02
-6.0104076402e-01	 1.0359114344e+01	 3.2706457289e-02
-9.1923881556e-01	 1.0677312396e+01	 3.0887249413e-02
-1.2374368671e+00	 1.0995510447e+01	 2.4358751668e-02
-1.5556349186e+00	 1.1313708499e+01	 1.3239485615e-02
-1.8738329702e+00	 1.1631906551e+01	-2.3520271866e-03
-2.1920310217e+00	 1.1950104602e+01	-2.2297265176e-02
 1.0960155108e+00	 8.8741901039e+00	 3.6219475384e-02
 7.7781745931e-01	 9.1923881554e+00	 4.6983677635e-02
 4.5961940777e-01	 9.5105862070e+00	 5.1894392509e-02
 1.4142135623e-01	 9.8287842585e+00	 5.0858352780e-02
-1.7677669530e-01	 1.0146982310e+01	 4.3782291711e-02
-4.9497474684e-01	 1.0465180362e+01	 3.6738575780e-02
-8.1317279838e-01	 1.0783378413e+01	 3.4347766403e-02
-1.1313708499e+00	 1.1101576465e+01	 2.6981179086e-02
-1.4495689015e+00	 1.1419774516e+01	 1.4757335389e-02
-1.7677669530e+00	 1.1737972568e+01	-2.2052431269e-03
-2.0859650045e+00	 1.2056170619e+01	-2.3788034902e-02
 1.2020815280e+00	 8.9802561211e+00	 3.3362255117e-02
 8.8388347649e-01	 9.2984541726e+00	 4.5094762646e-02
 5.6568542495e-01	 9.6166522241e+00	 5.0616488029e-02
 2.4748737341e-01	 9.9348502757e+00	 4.9834162625e-02
-7.0710678125e-02	 1.0253048327e+01	 4.2654518287e-02
-3.8890872966e-01	 1.0571246379e+01	 4.0676190351e-02
-7.0710678120e-01	 1.0889444430e+01	 3.7882126142e-02
-1.0253048327e+00	 1.1207642482e+01	 2.9845795921e-02
-1.3435028843e+00	 1.1525840533e+01	 1.6685721250e-02
-1.6617009358e+00	 1.1844038585e+01	-1.4795763114e-03
-1.9798989874e+00	 1.2162236636e+01	-2.4531575203e-02
 1.3081475452e+00	 9.0863221382e+00	 2.9443470748e-02
 9.8994949366e-01	 9.4045201898e+00	 4.2320472946e-02
 6.7175144213e-01	 9.7227182413e+00	 4.8629397896e-02
 3.5355339059e-01	 1.0040916293e+01	 4.8276975545e-02
 3.5355339053e-02	 1.0359114344e+01	 4.1910734204e-02
-2.8284271248e-01	 1.0677312396e+01	 4.4509037473e-02
-6.0104076402e-01	 1.0995510447e+01	 4.1480065100e-02
-9.1923881556e-01	 1.1313708499e+01	 3.2942338645e-02
-1.2374368671e+00	 1.1631906551e+01	 1.9014379668e-02
-1.5556349186e+00	 1.1950104602e+01	-1.8529027088e-04
-1.8738329702e+00	 1.2268302654e+01	-2.4538149611e-02
 1.4142135624e+00	 9.1923881554e+00	 2.4483126118e-02
 1.0960155108e+00	 9.5105862070e+00	 3.8680812533e-02
 7.7781745930e-01	 9.8287842585e+00	 4.5953126265e-02
 4.5961940777e-01	 1.0146982310e+01	 4.6206795849e-02
 1.4142135623e-01	 1.0465180362e+01	 4.5428623769e-02
-1.7677669531e-01	 1.0783378413e+01	 4.8226853615e-02
-4.9497474684e-01	 1.1101576465e+01	 4.5131319747e-02
-8.1317279838e-01	 1.1419774516e+01	 3.6260543725e-02
-1.1313708499e+00	 1.1737972568e+01	 2.1733047111e-02
-1.4495689015e+00	 1.2056170619e+01	 1.6673514640e-03
-1.7677669530e+00	 1.2374368671e+01	-2.3818021656e-02
 4.5961940777e+00	 6.0104076401e+00	 3.0584622634e-02
 4.2779960262e+00	 6.3286056916e+00	 1.3515139154e-02
 3.9597979746e+00	 6.6468037432e+00	-1.2105194715e-03
 3.6415999231e+00	 6.9650017947e+00	-1.3719827269e-02
 3.3234018716e+00	 7.2831998462e+00	-2.4140262706e-02
 3.0052038200e+00	 7.6013978978e+00	-3.2599308694e-02
 2.6870057685e+00	 7.9195959493e+00	-2.4535505596e-02
 2.3688077170e+00	 8.2377940008e+00	-1.2379842756e-02
 2.0506096654e+00	 8.5559920524e+00	-9.6000978722e-05
 1.7324116139e+00	 8.8741901039e+00	 1.2222746295e-02
 1.4142135624e+00	 9.1923881554e+00	 2.4483126118e-02
 4.7022600949e+00	 6.1164736573e+00	 2.1192772365e-02
 4.3840620433e+00	 6.4346717088e+00	 5.2923767295e-03
 4.0658639918e+00	 6.7528697603e+00	-8.1980621215e-03
 3.7476659403e+00	 7.0710678119e+00	-1.9406018438e-02
 3.4294678888e+00	 7.3892658634e+00	-2.8458970913e-02
 3.1112698372e+00	 7.7074639149e+00	-3.5484402683e-02
 2.7930717857e+00	 8.0256619665e+00	-3.2254951286e-02
 2.4748737342e+00	 8.3438600180e+00	-1.8756465251e-02
 2.1566756826e+00	 8.6620580695e+00	-5.1266458146e-03
 1.8384776311e+00	 8.9802561211e+00	 8.5412321714e-03
 1.5202795796e+00	 9.2984541726e+00	 2.2153894347e-02
 4.8083261121e+00	 6.2225396745e+00	 1.2385854703e-02
 4.4901280605e+00	 6.5407377260e+00	-2.4832823756e-03
 4.1719300090e+00	 6.8589357775e+00	-1.4876330625e-02
 3.8537319575e+00	 7.1771338290e+00	-2.4920764519e-02
 3.5355339059e+00	 7.4953318806e+00	-3.2744062977e-02
 3.2173358544e+00	 7.8135299321e+00	-3.8473709359e-02
 2.8991378029e+00	 8.1317279836e+00	-3.9934643509e-02
 2.5809397513e+00	 8.4499260352e+00	-2.5232430584e-02
 2.2627416998e+00	 8.7681240867e+00	-1.0395730123e-02
 1.9445436483e+00	 9.0863221382e+00	 4.4821816068e-03
 1.6263455967e+00	 9.4045201898e+00	 1.9308028834e-02
 4.9143921292e+00	 6.3286056916e+00	 4.1628816448e-03
 4.5961940777e+00	 6.6468037432e+00	-9.8128261408e-03
 4.2779960262e+00	 6.9650017947e+00	-2.1246312937e-02
 3.9597979746e+00	 7.2831998462e+00	-3.0265053443e-02
 3.6415999231e+00	 7.6013978977e+00	-3.6996526802e-02
 3.3234018716e+00	 7.9195959493e+00	-4.1568216600e-02
 3.0052038200e+00	 8.2377940008e+00	-4.4107610868e-02
 2.6870057685e+00	 8.5559920523e+00	-3.1787734738e-02
 2.3688077170e+00	 8.8741901039e+00	-1.5883249733e-02
 2.0506096654e+00	 9.1923881554e+00	 6.5598929836e-05
 1.7324116139e+00	 9.5105862070e+00	 1.5965534065e-02
 5.0204581464e+00	 6.4346717088e+00	-3.4771348371e-03
 4.7022600949e+00	 6.7528697603e+00	-1.6697242567e-02
 4.3840620433e+00	 7.0710678119e+00	-2.7308997034e-02
 4.0658639918e+00	 7.3892658634e+00	-3.5439873160e-02
 3.7476659403e+00	 7.7074639149e+00	-4.1217350314e-02
 3.4294678887e+00	 8.0256619665e+00	-4.4768912308e-02
 3.1112698372e+00	 8.3438600180e+00	-4.6222047397e-02
 2.7930717857e+00	 8.6620580695e+00	-3.8402373483e-02
 2.4748737341e+00	 8.9802561211e+00	-2.1569200256e-02
 2.1566756826e+00	 9.2984541726e+00	-4.6885113149e-03
 1.8384776311e+00	 9.6166522241e+00	 1.2146414742e-02
 5.1265241636e+00	 6.5407377260e+00	-1.0535182790e-02
 4.8083261121e+00	 6.8589357775e+00	-2.3137519679e-02
 4.4901280605e+00	 7.1771338290e+00	-3.3065370913e-02
 4.1719300090e+00	 7.4953318806e+00	-4.0446211644e-02
 3.8537319575e+00	 7.8135299321e+00	-4.5407521463e-02
 3.5355339059e+00	 8.1317279836e+00	-4.8076784406e-02
 3.2173358544e+00	 8.4499260352e+00	-4.8581488956e-02
 2.8991378029e+00	 8.7681240867e+00	-4.5056342374e-02
 2.5809397513e+00	 9.0863221382e+00	-2.7433577090e-02
 2.2627416998e+00	 9.4045201898e+00	-9.7601443677e-03
 1.9445436483e+00	 9.7227182413e+00	 7.8706757811e-03
 5.2325901808e+00	 6.6468037432e+00	-1.7012250285e-02
 4.9143921292e+00	 6.9650017947e+00	-2.9134645519e-02
 4.5961940777e+00	 7.2831998462e+00	-3.8516422595e-02
 4.2779960262e+00	 7.6013978978e+00	-4.5285056889e-02
 3.9597979746e+00	 7.9195959493e+00	-4.9568028216e-02
 3.6415999231e+00	 8.2377940008e+00	-5.1492820840e-02
 3.3234018716e+00	 8.5559920523e+00	-5.1186923464e-02
 3.0052038200e+00	 8.8741901039e+00	-4.8777829241e-02
 2.6870057685e+00	 9.1923881554e+00	-3.3456375416e-02
 2.3688077170e+00	 9.5105862069e+00	-1.5129295253e-02
 2.0506096654e+00	 9.8287842585e+00	 3.1583223147e-03
 5.3386561980e+00	 6.7528697604e+00	-2.2909325411e-02
 5.0204581464e+00	 7.0710678119e+00	-3.4689608154e-02
 4.7022600949e+00	 7.3892658634e+00	-4.3663140121e-02
 4.3840620433e+00	 7.7074639149e+00	-4.9957396911e-02
 4.0658639918e+00	 8.0256619665e+00	-5.3699858566e-02
 3.7476659403e+00	 8.3438600180e+00	-5.5018009574e-02
 3.4294678887e+00	 8.6620580695e+00	-5.4039338863e-02
 3.1112698372e+00	 8.9802561211e+00	-5.0891339811e-02
 2.7930717857e+00	 9.2984541726e+00	-3.9617590200e-02
 2.4748737341e+00	 9.6166522241e+00	-2.0775958781e-02
 2.1566756826e+00	 9.9348502757e+00	-1.9706403094e-03
 5.4447222151e+00	 6.8589357775e+00	-2.8227396282e-02
 5.1265241636e+00	 7.1771338291e+00	-3.9803395671e-02
 4.8083261121e+00	 7.4953318806e+00	-4.8506511552e-02
 4.4901280605e+00	 7.8135299321e+00	-5.4464219747e-02
 4.1719300090e+00	 8.1317279836e+00	-5.7804000525e-02
 3.8537319575e+00	 8.4499260352e+00	-5.8653338596e-02
 3.5355339059e+00	 8.7681240867e+00	-5.7139723116e-02
 3.2173358544e+00	 9.0863221382e+00	-5.3390647685e-02
 2.8991378029e+00	 9.4045201898e+00	-4.5897216194e-02
 2.5809397513e+00	 9.7227182413e+00	-2.6680129544e-02
 2.2627416998e+00	 1.0040916293e+01	-7.4962065283e-03
 5.5507882323e+00	 6.9650017947e+00	-3.2967451031e-02
 5.2325901808e+00	 7.2831998462e+00	-4.4476996180e-02
 4.9143921292e+00	 7.6013978978e+00	-5.3047524973e-02
 4.5961940777e+00	 7.9195959493e+00	-5.8806513457e-02
 4.2779960262e+00	 8.2377940008e+00	-6.1881442126e-02
 3.9597979746e+00	 8.5559920523e+00	-6.2399795915e-02
 3.6415999231e+00	 8.8741901039e+00	-6.0489064205e-02
 3.3234018716e+00	 9.1923881554e+00	-5.6276740820e-02
 3.0052038200e+00	 9.5105862069e+00	-4.9890324032e-02
 2.6870057685e+00	 9.8287842585e+00	-3.2821801923e-02
 2.3688077170e+00	 1.0146982310e+01	-1.3398370563e-02
 5.6568542495e+00	 7.0710678119e+00	-3.7130477815e-02
 5.3386561980e+00	 7.3892658634e+00	-4.8711397812e-02
 5.0204581464e+00	 7.7074639149e+00	-5.7287168490e-02
 4.7022600949e+00	 8.0256619665e+00	-6.2985266122e-02
 4.3840620433e+00	 8.3438600180e+00	-6.5933171426e-02
 4.0658639918e+00	 8.6620580695e+00	-6.6258369563e-02
 3.7476659403e+00	 8.9802561211e+00	-6.4088350137e-02
 3.4294678887e+00	 9.2984541726e+00	-5.9550607199e-02
 3.1112698372e+00	 9.6166522241e+00	-5.2772639244e-02
 2.7930717857e+00	 9.9348502757e+00	-3.9180970079e-02
 2.4748737342e+00	 1.0253048327e+01	-1.9657126421e-02
 1.4142135624e+00	 9.1923881554e+00	 2.4483126118e-02
 1.0960155108e+00	 9.5105862070e+00	 3.8680812533e-02
 7.7781745930e-01	 9.8287842585e+00	 4.5953126265e-02
 4.5961940777e-01	 1.0146982310e+01	 4.6206795849e-02
 1.4142135623e-01	 1.0465180362e+01	 4.5428623769e-02
-1.7677669531e-01	 1.0783378413e+01	 4.8226853615e-02
-4.9497474684e-01	 1.1101576465e+01	 4.5131319747e-02
-8.1317279838e-01	 1.1419774516e+01	 3.6260543725e-02
-1.1313708499e+00	 1.1737972568e+01	 2.1733047111e-02
-1.4495689015e+00	 1.2056170619e+01	 1.6673514640e-03
-1.7677669530e+00	 1.2374368671e+01	-2.3818021656e-02
 1.5202795796e+00	 9.2984541726e+00	 2.2153894347e-02
 1.2020815280e+00	 9.6166522241e+00	 3.6030171179e-02
 8.8388347648e-01	 9.9348502757e+00	 4.2944536339e-02
 5.6568542495e-01	 1.0253048327e+01	 4.2803716945e-02
 2.4748737341e-01	 1.0571246379e+01	 4.6956947860e-02
-7.0710678127e-02	 1.0889444430e+01	 4.9588194549e-02
-3.8890872966e-01	 1.1207642482e+01	 4.6379946228e-02
-7.0710678120e-01	 1.1525840533e+01	 3.7450724458e-02
-1.0253048327e+00	 1.1844038585e+01	 2.2919050799e-02
-1.3435028843e+00	 1.2162236636e+01	 2.9034468117e-03
-1.6617009358e+00	 1.2480434688e+01	-2.2477565944e-02
 1.6263455967e+00	 9.4045201898e+00	 1.9308028834e-02
 1.3081475452e+00	 9.7227182413e+00	 3.2971371911e-02
 9.8994949366e-01	 1.0040916293e+01	 3.9636263991e-02
 6.7175144212e-01	 1.0359114344e+01	 3.9926785263e-02
 3.5355339059e-01	 1.0677312396e+01	 4.8395429295e-02
 3.5355339051e-02	 1.0995510447e+01	 5.0960325461e-02
-2.8284271249e-01	 1.1313708499e+01	 4.7739995322e-02
-6.0104076402e-01	 1.1631906551e+01	 3.8852960437e-02
-9.1923881556e-01	 1.1950104602e+01	 2.4417742368e-02
-1.2374368671e+00	 1.2268302654e+01	 4.5528626743e-03
-1.5556349186e+00	 1.2586500705e+01	-2.0623157084e-02
 1.7324116139e+00	 9.5105862070e+00	 1.5965534065e-02
 1.4142135624e+00	 9.8287842585e+00	 2.9524419371e-02
 1.0960155108e+00	 1.0146982310e+01	 3.6048314024e-02
 7.7781745930e-01	 1.0465180362e+01	 4.1285147104e-02
 4.5961940777e-01	 1.0783378413e+01	 4.9733804543e-02
 1.4142135623e-01	 1.1101576465e+01	 5.2332982821e-02
-1.7677669531e-01	 1.1419774516e+01	 4.9201203497e-02
-4.9497474684e-01	 1.1737972568e+01	 4.0456988133e-02
-8.1317279838e-01	 1.2056170619e+01	 2.6218858287e-02
-1.1313708499e+00	 1.2374368671e+01	 6.6053355211e-03
-1.4495689015e+00	 1.2692566722e+01	-1.8265058605e-02
 1.8384776311e+00	 9.6166522241e+00	 1.2146414742e-02
 1.5202795795e+00	 9.9348502757e+00	 2.5709318416e-02
 1.2020815280e+00	 1.0253048327e+01	 3.2200691451e-02
 8.8388347648e-01	 1.0571246379e+01	 4.2432506594e-02
 5.6568542495e-01	 1.0889444430e+01	 5.0961810075e-02
 2.4748737341e-01	 1.1207642482e+01	 5.3695903098e-02
-7.0710678127e-02	 1.1525840533e+01	 5.0753307224e-02
-3.8890872966e-01	 1.1844038585e+01	 4.2252544013e-02
-7.0710678120e-01	 1.2162236636e+01	 2.8312135026e-02
-1.0253048327e+00	 1.2480434688e+01	 9.0506018212e-03
-1.3435028843e+00	 1.2798632740e+01	-1.5413534040e-02
 1.9445436483e+00	 9.7227182413e+00	 7.8706757811e-03
 1.6263455967e+00	 1.0040916293e+01	 2.1546074122e-02
 1.3081475452e+00	 1.0359114344e+01	 2.8788554732e-02
 9.8994949366e-01	 1.0677312396e+01	 4.3358600202e-02
 6.7175144212e-01	 1.0995510447e+01	 5.2069182359e-02
 3.5355339059e-01	 1.1313708499e+01	 5.5038822762e-02
 3.5355339053e-02	 1.1631906551e+01	 5.2386042972e-02
-2.8284271248e-01	 1.1950104602e+01	 4.4229364548e-02
-6.0104076402e-01	 1.2268302654e+01	 3.0687309052e-02
-9.1923881556e-01	 1.2586500705e+01	 1.1878398044e-02
-1.2374368671e+00	 1.2904698757e+01	-1.2078846917e-02
 2.0506096654e+00	 9.8287842585e+00	 3.1583223147e-03
 1.7324116139e+00	 1.0146982310e+01	 1.7054691778e-02
 1.4142135624e+00	 1.0465180362e+01	 2.9255476322e-02
 1.0960155108e+00	 1.0783378413e+01	 4.4053164398e-02
 7.7781745930e-01	 1.1101576465e+01	 5.3045657864e-02
 4.5961940777e-01	 1.1419774516e+01	 5.6351478281e-02
 1.4142135623e-01	 1.1737972568e+01	 5.4089147209e-02
-1.7677669530e-01	 1.2056170619e+01	 4.6377186207e-02
-4.9497474684e-01	 1.2374368671e+01	 3.3334116837e-02
-8.1317279838e-01	 1.2692566722e+01	 1.5078460659e-02
-1.1313708499e+00	 1.3010764774e+01	-8.2712607684e-03
 2.1566756826e+00	 9.9348502757e+00	-1.9706403094e-03
 1.8384776311e+00	 1.0253048327e+01	 1.2255176887e-02
 1.5202795795e+00	 1.0571246379e+01	 2.9379972335e-02
 1.2020815280e+00	 1.0889444430e+01	 4.4505935650e-02
 8.8388347648e-01	 1.1207642482e+01	 5.3880973060e-02
 5.6568542495e-01	 1.1525840533e+01	 5.7623606125e-02
 2.4748737341e-01	 1.1844038585e+01	 5.5852356405e-02
-7.0710678124e-02	 1.2162236636e+01	 4.8685745459e-02
-3.8890872966e-01	 1.2480434688e+01	 3.6242294849e-02
-7.0710678120e-01	 1.2798632739e+01	 1.8640526135e-02
-1.0253048327e+00	 1.3116830791e+01	-4.0010391246e-03
 2.2627416998e+00	 1.0040916293e+01	-7.4962065283e-03
 1.9445436483e+00	 1.0359114344e+01	 7.7817292878e-03
 1.6263455967e+00	 1.0677312396e+01	 2.9151779239e-02
 1.3081475452e+00	 1.0995510447e+01	 4.4706650429e-02
 9.8994949366e-01	 1.1313708499e+01	 5.4564864417e-02
 6.7175144213e-01	 1.1631906551e+01	 5.8844942763e-02
 3.5355339059e-01	 1.1950104602e+01	 5.7665407029e-02
 3.5355339056e-02	 1.2268302654e+01	 5.1144778773e-02
-2.8284271248e-01	 1.2586500705e+01	 3.9401579557e-02
-6.0104076402e-01	 1.2904698757e+01	 2.2554330941e-02
-9.1923881556e-01	 1.3222896808e+01	 7.2155448372e-04
 2.3688077170e+00	 1.0146982310e+01	-1.3398370563e-02
 2.0506096654e+00	 1.0465180362e+01	 6.7153117497e-03
 1.7324116139e+00	 1.0783378413e+01	 2.8560633505e-02
 1.4142135624e+00	 1.1101576465e+01	 4.4645045202e-02
 1.0960155108e+00	 1.1419774516e+01	 5.5087068402e-02
 7.7781745931e-01	 1.1737972568e+01	 6.0005224665e-02
 4.5961940777e-01	 1.2056170619e+01	 5.9518035550e-02
 1.4142135624e-01	 1.2374368671e+01	 5.3744022619e-02
-1.7677669530e-01	 1.2692566722e+01	 4.2801707431e-02
-4.9497474684e-01	 1.3010764774e+01	 2.6809611547e-02
-8.1317279838e-01	 1.3328962825e+01	 5.8862565258e-03
 2.4748737342e+00	 1.0253048327e+01	-1.9657126421e-02
 2.1566756826e+00	 1.0571246379e+01	 5.1750454080e-03
 1.8384776311e+00	 1.0889444430e+01	 2.7596271601e-02
 1.5202795796e+00	 1.1207642482e+01	 4.4310856440e-02
 1.2020815280e+00	 1.1525840533e+01	 5.5437321486e-02
 8.8388347649e-01	 1.1844038585e+01	 6.1094188299e-02
 5.6568542495e-01	 1.2162236636e+01	 6.1399978439e-02
 2.4748737342e-01	 1.2480434688e+01	 5.6473213466e-02
-7.0710678122e-02	 1.2798632739e+01	 4.6432414940e-02
-3.8890872966e-01	 1.3116830791e+01	 3.1396104422e-02
-7.0710678120e-01	 1.3435028842e+01	 1.1482803471e-02
 2.8284271247e+00	 4.2426406871e+00	 7.1843891342e-02
 2.5102290732e+00	 4.5608387386e+00	 8.0186864875e-02
 2.1920310217e+00	 4.8790367902e+00	 8.5382208394e-02
 1.8738329701e+00	 5.1972348417e+00	 8.7336669046e-02
 1.5556349186e+00	 5.5154328933e+00	 8.5956994468e-02
 1.2374368671e+00	 5.8336309448e+00	 8.1149932794e-02
 9.1923881554e-01	 6.1518289963e+00	 7.2822232646e-02
 6.0104076401e-01	 6.4700270479e+00	 6.0880643143e-02
 2.8284271248e-01	 6.7882250994e+00	 4.5231913896e-02
-3.5355339061e-02	 7.1064231509e+00	 2.5782795008e-02
-3.5355339060e-01	 7.4246212025e+00	 2.4400370764e-03
 2.8991378028e+00	 4.3133513652e+00	 7.9834677487e-02
 2.5809397513e+00	 4.6315494168e+00	 8.9212316548e-02
 2.2627416998e+00	 4.9497474683e+00	 9.5036928220e-02
 1.9445436483e+00	 5.2679455198e+00	 9.7215258709e-02
 1.6263455967e+00	 5.5861435714e+00	 9.5654054711e-02
 1.3081475452e+00	 5.9043416229e+00	 9.0260063417e-02
 9.8994949366e-01	 6.2225396744e+00	 8.0940032510e-02
 6.7175144213e-01	 6.5407377260e+00	 6.7600710165e-02
 3.5355339060e-01	 6.8589357775e+00	 5.0148845052e-02
 3.5355339059e-02	 7.1771338290e+00	 2.8491186333e-02
-2.8284271248e-01	 7.4953318806e+00	 2.5344836639e-03
 2.9698484809e+00	 4.3840620433e+00	 8.5209699285e-02
 2.6516504294e+00	 4.7022600949e+00	 9.3951250085e-02
 2.3334523779e+00	 5.0204581464e+00	 1.0094210546e-01
 2.0152543264e+00	 5.3386561980e+00	 1.0388128119e-01
 1.6970562748e+00	 5.6568542495e+00	 1.0267552303e-01
 1.3788582233e+00	 5.9750523010e+00	 9.7231577226e-02
 1.0606601718e+00	 6.2932503526e+00	 8.7456190521e-02
 7.4246212025e-01	 6.6114484041e+00	 7.3256110148e-02
 4.2426406872e-01	 6.9296464556e+00	 5.4538083835e-02
 1.0606601718e-01	 7.2478445072e+00	 3.1208859804e-02
-2.1213203436e-01	 7.5660425587e+00	 3.1751867673e-03
 3.0405591591e+00	 4.4547727215e+00	 8.8972911225e-02
 2.7223611075e+00	 4.7729707730e+00	 9.4409591227e-02
 2.4041630560e+00	 5.0911688245e+00	 1.0310366591e-01
 2.0859650045e+00	 5.4093668761e+00	 1.0734066233e-01
 1.7677669530e+00	 5.7275649276e+00	 1.0702732531e-01
 1.4495689014e+00	 6.0457629791e+00	 1.0207040015e-01
 1.1313708499e+00	 6.3639610307e+00	 9.2376632652e-02
 8.1317279837e-01	 6.6821590822e+00	 7.7852769111e-02
 4.9497474684e-01	 7.0003571337e+00	 5.8405556311e-02
 1.7677669530e-01	 7.3185551853e+00	 3.3941741532e-02
-1.4142135624e-01	 7.6367532368e+00	 4.3680725462e-03
 3.1112698372e+00	 4.5254833996e+00	 8.7942007492e-02
 2.7930717857e+00	 4.8436814511e+00	 9.0593265759e-02
 2.4748737341e+00	 5.1618795027e+00	 1.0152753539e-01
 2.1566756826e+00	 5.4800775542e+00	 1.0759932800e-01
 1.8384776311e+00	 5.7982756057e+00	 1.0871538747e-01
 1.5202795796e+00	 6.1164736573e+00	 1.0478245815e-01
 1.2020815280e+00	 6.4346717088e+00	 9.5707284920e-02
 8.8388347649e-01	 6.7528697603e+00	 8.1396613118e-02
 5.6568542496e-01	 7.0710678119e+00	 6.1757188590e-02
 2.4748737342e-01	 7.3892658634e+00	 3.6695757675e-02
-7.0710678120e-02	 7.7074639149e+00	 6.1190672029e-03
 3.1819805153e+00	 4.5961940777e+00	 8.2116695443e-02
 2.8637824638e+00	 4.9143921292e+00	 8.2508199506e-02
 2.5455844123e+00	 5.2325901808e+00	 9.6219639773e-02
 2.2273863607e+00	 5.5507882323e+00	 1.0466320412e-01
 1.9091883092e+00	 5.8689862839e+00	 1.0774563547e-01
 1.5909902577e+00	 6.1871843354e+00	 1.0537367725e-01
 1.2727922061e+00	 6.5053823869e+00	 9.7454073384e-02
 9.5459415461e-01	 6.8235804385e+00	 8.3893568273e-02
 6.3639610308e-01	 7.1417784900e+00	 6.4598906824e-02
 3.1819805154e-01	 7.4599765415e+00	 3.9476834430e-02
 2.7755575616e-17	 7.7781745931e+00	 8.4340969821e-03
 3.2526911934e+00	 4.6669047558e+00	 7.1496682434e-02
 2.9344931419e+00	 4.9851028074e+00	 7.0160318337e-02
 2.6162950904e+00	 5.3033008589e+00	 8.7185904982e-02
 2.2980970389e+00	 5.6214989104e+00	 9.8538216649e-02
 1.9798989873e+00	 5.9396969620e+00	 1.0412399533e-01
 1.6617009358e+00	 6.2578950135e+00	 1.0384998350e-01
 1.3435028843e+00	 6.5760930650e+00	 9.7622924145e-02
 1.0253048327e+00	 6.8942911166e+00	 8.5349560726e-02
 7.0710678120e-01	 7.2124891681e+00	 6.6936637205e-02
 3.8890872966e-01	 7.5306872196e+00	 4.2290898038e-02
 7.0710678120e-02	 7.8488852712e+00	 1.1319088171e-02
 3.3234018715e+00	 4.7376154339e+00	 5.6081675815e-02
 3.0052038200e+00	 5.0558134855e+00	 5.8402563007e-02
 2.6870057685e+00	 5.3740115370e+00	 7.4432256970e-02
 2.3688077170e+00	 5.6922095886e+00	 8.9230291597e-02
 2.0506096654e+00	 6.0104076401e+00	 9.7856393092e-02
 1.7324116139e+00	 6.3286056916e+00	 1.0021730300e-01
 1.4142135624e+00	 6.6468037432e+00	 9.6219763346e-02
 1.0960155109e+00	 6.9650017947e+00	 8.5770516665e-02
 7.7781745932e-01	 7.2831998462e+00	 6.8776305973e-02
 4.5961940778e-01	 7.6013978978e+00	 4.5143874782e-02
 1.4142135624e-01	 7.9195959493e+00	 1.4779967100e-02
 3.3941125497e+00	 4.8083261121e+00	 3.5871382933e-02
 3.0759144981e+00	 5.1265241636e+00	 4.2872312807e-02
 2.7577164466e+00	 5.4447222151e+00	 5.7964621739e-02
 2.4395183951e+00	 5.7629202667e+00	 7.6745355008e-02
 2.1213203436e+00	 6.0811183182e+00	 8.8948754856e-02
 1.8031222920e+00	 6.3993163697e+00	 9.4481561881e-02
 1.4849242405e+00	 6.7175144213e+00	 9.3250517175e-02
 1.1667261890e+00	 7.0357124728e+00	 8.5162362324e-02
 8.4852813744e-01	 7.3539105243e+00	 7.0123839405e-02
 5.3033008590e-01	 7.6721085759e+00	 4.8041690989e-02
 2.1213203436e-01	 7.9903066274e+00	 1.8822660140e-02
 3.4648232278e+00	 4.8790367902e+00	 1.0865511128e-02
 3.1466251763e+00	 5.1972348417e+00	 2.3084022666e-02
 2.8284271247e+00	 5.5154328933e+00	 3.7788925331e-02
 2.5102290732e+00	 5.8336309448e+00	 6.1089332972e-02
 2.1920310217e+00	 6.1518289963e+00	 7.7407006754e-02
 1.8738329702e+00	 6.4700270479e+00	 8.6648686333e-02
 1.5556349186e+00	 6.7882250994e+00	 8.8721111860e-02
 1.2374368671e+00	 7.1064231509e+00	 8.3531023979e-02
 9.1923881556e-01	 7.4246212025e+00	 7.0985163824e-02
 6.0104076402e-01	 7.7428192540e+00	 5.0990273027e-02
 2.8284271248e-01	 8.0610173055e+00	 2.3453093708e-02
 3.5355339059e+00	 4.9497474683e+00	-1.8936232261e-02
 3.2173358544e+00	 5.2679455198e+00	-9.6260007085e-04
 2.8991378029e+00	 5.5861435714e+00	 1.3911093832e-02
 2.5809397513e+00	 5.9043416229e+00	 4.2268151622e-02
 2.2627416998e+00	 6.2225396745e+00	 6.3237074966e-02
 1.9445436483e+00	 6.5407377260e+00	 7.6724602580e-02
 1.6263455967e+00	 6.8589357775e+00	 8.2637473673e-02
 1.3081475452e+00	 7.1771338291e+00	 8.0882427946e-02
 9.8994949368e-01	 7.4953318806e+00	 7.1366205595e-02
 6.7175144214e-01	 7.8135299321e+00	 5.3995547305e-02
 3.5355339060e-01	 8.1317279837e+00	 2.8677194259e-02
-3.5355339060e-01	 7.4246212025e+00	 2.4400370764e-03
-6.7175144214e-01	 7.7428192540e+00	 9.7704776932e-03
-9.8994949368e-01	 8.0610173055e+00	 1.6181032121e-02
-1.3081475452e+00	 8.3792153570e+00	 2.1578452438e-02
-1.6263455967e+00	 8.6974134086e+00	 2.5869491219e-02
-1.9445436483e+00	 9.0156114601e+00	 2.8960901529e-02
-2.2627416998e+00	 9.3338095116e+00	 3.0759436931e-02
-2.5809397513e+00	 9.6520075632e+00	 3.1171851481e-02
-2.8991378029e+00	 9.9702056147e+00	 3.0104899729e-02
-3.2173358544e+00	 1.0288403666e+01	 4.8146132552e-03
-3.5355339059e+00	 1.0606601718e+01	-1.1566009073e-02
-2.8284271248e-01	 7.4953318806e+00	 2.5344836639e-03
-6.0104076402e-01	 7.8135299321e+00	 1.0337667024e-02
-9.1923881556e-01	 8.1317279836e+00	 1.6994851489e-02
-1.2374368671e+00	 8.4499260352e+00	 2.2412788194e-02
-1.5556349186e+00	 8.7681240867e+00	 2.6498228773e-02
-1.8738329702e+00	 9.0863221382e+00	 2.9157925349e-02
-2.1920310217e+00	 9.4045201898e+00	 3.0298630544e-02
-2.5102290732e+00	 9.7227182413e+00	 2.9827097470e-02
-2.8284271247e+00	 1.0040916293e+01	 2.7650079738e-02
-3.1466251763e+00	 1.0359114344e+01	 7.7845266750e-03
-3.4648232278e+00	 1.0677312396e+01	-7.3419146329e-03
-2.1213203436e-01	 7.5660425587e+00	 3.1751867673e-03
-5.3033008590e-01	 7.8842406102e+00	 1.1355646121e-02
-8.4852813744e-01	 8.2024386618e+00	 1.8163993724e-02
-1.1667261890e+00	 8.5206367133e+00	 2.3506979773e-02
-1.4849242405e+00	 8.8388347648e+00	 2.7291354957e-02
-1.8031222920e+00	 9.1570328164e+00	 2.9423870459e-02
-2.1213203436e+00	 9.4752308679e+00	 2.9811277957e-02
-2.4395183951e+00	 9.7934289194e+00	 2.8360329624e-02
-2.7577164466e+00	 1.0111626971e+01	 2.4977778126e-02
-3.0759144981e+00	 1.0429825023e+01	 1.2482169543e-02
-3.3941125497e+00	 1.0748023074e+01	-3.5947548200e-03
-1.4142135624e-01	 7.6367532368e+00	 4.3680725462e-03
-4.5961940778e-01	 7.9549512883e+00	 1.2830341190e-02
-7.7781745932e-01	 8.2731493399e+00	 1.9694385081e-02
-1.0960155109e+00	 8.5913473914e+00	 2.4866953474e-02
-1.4142135624e+00	 8.9095454429e+00	 2.8254796116e-02
-1.7324116139e+00	 9.2277434945e+00	 2.9764663249e-02
-2.0506096654e+00	 9.5459415460e+00	 2.9303305609e-02
-2.3688077170e+00	 9.8641395975e+00	 2.6777474427e-02
-2.6870057685e+00	 1.0182337649e+01	 2.2093921427e-02
-3.0052038200e+00	 1.0500535701e+01	 1.6798899245e-02
-3.3234018715e+00	 1.0818733752e+01	-3.2266527867e-04
-7.0710678120e-02	 7.7074639149e+00	 6.1190672029e-03
-3.8890872966e-01	 8.0256619665e+00	 1.4767678479e-02
-7.0710678120e-01	 8.3438600180e+00	 2.1591951854e-02
-1.0253048327e+00	 8.6620580695e+00	 2.6498635638e-02
-1.3435028843e+00	 8.9802561211e+00	 2.9394478639e-02
-1.6617009358e+00	 9.2984541726e+00	 3.0186230155e-02
-1.9798989873e+00	 9.6166522241e+00	 2.8780639981e-02
-2.2980970389e+00	 9.9348502757e+00	 2.5084458407e-02
-2.6162950904e+00	 1.0253048327e+01	 1.9004436214e-02
-2.9344931419e+00	 1.0571246379e+01	 2.0258194266e-02
-3.2526911934e+00	 1.0889444430e+01	 2.4762183470e-03
 2.7755575616e-17	 7.7781745931e+00	 8.4340969821e-03
-3.1819805154e-01	 8.0963726446e+00	 1.7173584281e-02
-6.3639610308e-01	 8.4145706961e+00	 2.3862620380e-02
-9.5459415461e-01	 8.7327687476e+00	 2.8407952650e-02
-1.2727922061e+00	 9.0509667992e+00	 3.0716328956e-02
-1.5909902577e+00	 9.3691648507e+00	 3.0694497654e-02
-1.9091883092e+00	 9.6873629022e+00	 2.8249207598e-02
-2.2273863607e+00	 1.0005560954e+01	 2.3287208134e-02
-2.5455844123e+00	 1.0323759005e+01	 1.5715249104e-02
-2.8637824638e+00	 1.0641957057e+01	 1.8703381020e-02
-3.1819805153e+00	 1.0960155108e+01	 4.8037604128e-03
 7.0710678120e-02	 7.8488852712e+00	 1.1319088171e-02
-2.4748737342e-01	 8.1670833227e+00	 2.0053984928e-02
-5.6568542496e-01	 8.4852813742e+00	 2.6512317041e-02
-8.8388347649e-01	 8.8034794258e+00	 3.0600830937e-02
-1.2020815280e+00	 9.1216774773e+00	 3.2226273540e-02
-1.5202795796e+00	 9.4398755288e+00	 3.1295392266e-02
-1.8384776311e+00	 9.7580735804e+00	 2.7714935024e-02
-2.1566756826e+00	 1.0076271632e+01	 2.1391650221e-02
-2.4748737341e+00	 1.0394469683e+01	 1.4456453339e-02
-2.7930717857e+00	 1.0712667735e+01	 1.7031556763e-02
-3.1112698372e+00	 1.1030865787e+01	 6.6618252746e-03
 1.4142135624e-01	 7.9195959493e+00	 1.4779967100e-02
-1.7677669530e-01	 8.2377940008e+00	 2.3414806797e-02
-4.9497474684e-01	 8.5559920524e+00	 2.9546968258e-02
-8.1317279837e-01	 8.8741901039e+00	 3.3083196968e-02
-1.1313708499e+00	 9.1923881554e+00	 3.3930238908e-02
-1.4495689014e+00	 9.5105862070e+00	 3.1994840552e-02
-1.7677669530e+00	 9.8287842585e+00	 2.7183748870e-02
-2.0859650045e+00	 1.0146982310e+01	 1.9403711324e-02
-2.4041630560e+00	 1.0465180362e+01	 1.4063929870e-02
-2.7223611075e+00	 1.0783378413e+01	 1.5239680450e-02
-3.0405591591e+00	 1.1101576465e+01	 8.0522772885e-03
 2.1213203436e-01	 7.9903066274e+00	 1.8822660140e-02
-1.0606601718e-01	 8.3085046789e+00	 2.7261976308e-02
-4.2426406872e-01	 8.6267027305e+00	 3.2972500497e-02
-7.4246212025e-01	 8.9449007820e+00	 3.5860977254e-02
-1.0606601718e+00	 9.2630988335e+00	 3.5834151617e-02
-1.3788582233e+00	 9.5812968851e+00	 3.2798769119e-02
-1.6970562748e+00	 9.8994949366e+00	 2.6661575786e-02
-2.0152543264e+00	 1.0217692988e+01	 1.7329318140e-02
-2.3334523779e+00	 1.0535891040e+01	 1.3647264725e-02
-2.6516504294e+00	 1.0854089091e+01	 1.3324711035e-02
-2.9698484809e+00	 1.1172287143e+01	 8.9769808102e-03
 2.8284271248e-01	 8.0610173055e+00	 2.3453093708e-02
-3.5355339059e-02	 8.3792153571e+00	 3.1601419920e-02
-3.5355339060e-01	 8.6974134086e+00	 3.6794840267e-02
-6.7175144213e-01	 9.0156114601e+00	 3.8940098351e-02
-9.8994949366e-01	 9.3338095117e+00	 3.7943938269e-02
-1.3081475452e+00	 9.6520075632e+00	 3.3713104613e-02
-1.6263455967e+00	 9.9702056147e+00	 2.6154342466e-02
-1.9445436483e+00	 1.0288403666e+01	 1.5174397409e-02
-2.2627416998e+00	 1.0606601718e+01	 1.3203416860e-02
-2.5809397513e+00	 1.0924799769e+01	 1.1283607471e-02
-2.8991378028e+00	 1.1242997821e+01	 6.9459926843e-03
 3.5355339060e-01	 8.1317279837e+00	 2.8677194259e-02
 3.5355339061e-02	 8.4499260352e+00	 3.6439064139e-02
-2.8284271248e-01	 8.7681240867e+00	 4.1019914117e-02
-6.0104076401e-01	 9.0863221382e+00	 4.2326486854e-02
-9.1923881554e-01	 9.4045201898e+00	 4.0265525507e-02
-1.2374368671e+00	 9.7227182413e+00	 3.4743773724e-02
-1.5556349186e+00	 1.0040916293e+01	 2.5667975647e-02
-1.8738329701e+00	 1.0359114344e+01	 1.3643456813e-02
-2.1920310217e+00	 1.0677312396e+01	 1.2729345227e-02
-2.5102290732e+00	 1.0995510447e+01	 9.1133287114e-03
-2.8284271247e+00	 1.1313708499e+01	 2.9139288268e-03
 2.1213203436e+00	 3.5355339059e+00	-2.4472741136e-01
 1.8031222921e+00	 3.8537319574e+00	-1.7516825546e-01
 1.4849242405e+00	 4.1719300090e+00	-1.1544664561e-01
 1.1667261890e+00	 4.4901280605e+00	-6.5655826082e-02
 8.4852813745e-01	 4.8083261121e+00	-2.5889039810e-02
 5.3033008591e-01	 5.1265241636e+00	 3.7604707497e-03
 2.1213203438e-01	 5.4447222151e+00	 2.3199463636e-02
-1.0606601716e-01	 5.7629202667e+00	 3.2334697382e-02
-4.2426406869e-01	 6.0811183182e+00	 3.1072931014e-02
-7.4246212022e-01	 6.3993163697e+00	 1.9320924052e-02
-1.0606601717e+00	 6.7175144212e+00	-3.0145634905e-03
 2.1920310217e+00	 3.6062445840e+00	-2.1917407417e-01
 1.8738329702e+00	 3.9244426356e+00	-1.5586332929e-01
 1.5556349186e+00	 4.2426406871e+00	-1.0149284928e-01
 1.2374368671e+00	 4.5608387386e+00	-5.6155881284e-02
 9.1923881557e-01	 4.8790367902e+00	-1.9945669195e-02
 6.0104076403e-01	 5.1972348417e+00	 7.0445435941e-03
 2.8284271249e-01	 5.5154328932e+00	 2.4721514180e-02
-3.5355339040e-02	 5.8336309448e+00	 3.2992000154e-02
-3.5355339057e-01	 6.1518289963e+00	 3.1762759602e-02
-6.7175144211e-01	 6.4700270478e+00	 2.0940551102e-02
-9.8994949364e-01	 6.7882250994e+00	 4.3213372459e-04
 2.2627416998e+00	 3.6769552621e+00	-1.9016042562e-01
 1.9445436483e+00	 3.9951533137e+00	-1.3352276000e-01
 1.6263455968e+00	 4.3133513652e+00	-8.4928082935e-02
 1.3081475452e+00	 4.6315494168e+00	-4.4469639737e-02
 9.8994949368e-01	 4.9497474683e+00	-1.2240675240e-02
 6.7175144215e-01	 5.2679455198e+00	 1.1665566220e-02
 3.5355339061e-01	 5.5861435714e+00	 2.7155840800e-02
 3.5355339075e-02	 5.9043416229e+00	 3.4136905150e-02
-2.8284271246e-01	 6.2225396744e+00	 3.2515516413e-02
-6.0104076399e-01	 6.5407377260e+00	 2.2198432226e-02
-9.1923881553e-01	 6.8589357775e+00	 3.0924107195e-03
 2.3334523780e+00	 3.7476659403e+00	-1.5768053294e-01
 2.0152543264e+00	 4.0658639918e+00	-1.0814062227e-01
 1.6970562749e+00	 4.3840620433e+00	-6.5746421216e-02
 1.3788582233e+00	 4.7022600949e+00	-3.0591176032e-02
 1.0606601718e+00	 5.0204581464e+00	-2.7681324902e-03
 7.4246212026e-01	 5.3386561979e+00	 1.7629464131e-02
 4.2426406873e-01	 5.6568542495e+00	 3.0508369046e-02
 1.0606601719e-01	 5.9750523010e+00	 3.5775337966e-02
-2.1213203434e-01	 6.2932503525e+00	 3.3337127090e-02
-5.3033008588e-01	 6.6114484041e+00	 2.3100493115e-02
-8.4852813742e-01	 6.9296464556e+00	 4.9721932286e-03
 2.4041630561e+00	 3.8183766184e+00	-1.2172847358e-01
 2.0859650045e+00	 4.1365746699e+00	-7.9710990738e-02
 1.7677669530e+00	 4.4547727215e+00	-4.3941938717e-02
 1.4495689015e+00	 4.7729707730e+00	-1.4514564716e-02
 1.1313708499e+00	 5.0911688245e+00	 8.4778845523e-03
 8.1317279838e-01	 5.4093668761e+00	 2.4942162869e-02
 4.9497474684e-01	 5.7275649276e+00	 3.4785024508e-02
 1.7677669531e-01	 6.0457629791e+00	 3.7913224237e-02
-1.4142135623e-01	 6.3639610307e+00	 3.4233517315e-02
-4.5961940777e-01	 6.6821590822e+00	 2.3652659497e-02
-7.7781745930e-01	 7.0003571337e+00	 6.0774070287e-03
 2.4748737342e+00	 3.8890872965e+00	-8.2298322182e-02
 2.1566756826e+00	 4.2072853480e+00	-4.8227940002e-02
 1.8384776311e+00	 4.5254833996e+00	-1.9508709991e-02
 1.5202795796e+00	 4.8436814511e+00	 3.7661197035e-03
 1.2020815280e+00	 5.1618795027e+00	 2.1503301428e-02
 8.8388347650e-01	 5.4800775542e+00	 3.3609588023e-02
 5.6568542496e-01	 5.7982756057e+00	 3.9991732820e-02
 2.4748737342e-01	 6.1164736573e+00	 4.0556489645e-02
-7.0710678113e-02	 6.4346717088e+00	 3.5210612816e-02
-3.8890872965e-01	 6.7528697603e+00	 2.3860857146e-02
-7.0710678119e-01	 7.0710678118e+00	 6.4139779394e-03
 2.5455844123e+00	 3.9597979746e+00	-3.9384153361e-02
 2.2273863608e+00	 4.2779960262e+00	-1.3685544618e-02
 1.9091883092e+00	 4.5961940777e+00	 7.5591904523e-03
 1.5909902577e+00	 4.9143921292e+00	 2.4256802764e-02
 1.2727922061e+00	 5.2325901808e+00	 3.6314043721e-02
 9.5459415461e-01	 5.5507882323e+00	 4.3637665222e-02
 6.3639610308e-01	 5.8689862838e+00	 4.6134419658e-02
 3.1819805154e-01	 6.1871843354e+00	 4.3711059912e-02
 3.6803338155e-12	 6.5053823869e+00	 3.6274339361e-02
-3.1819805153e-01	 6.8235804384e+00	 2.3731011877e-02
-6.3639610307e-01	 7.1417784900e+00	 5.9878318224e-03
 2.6162950904e+00	 4.0305086527e+00	 7.0199583288e-03
 2.2980970389e+00	 4.3487067043e+00	 2.3922120898e-02
 1.9798989873e+00	 4.6669047558e+00	 3.7267688146e-02
 1.6617009358e+00	 4.9851028074e+00	 4.6963410044e-02
 1.3435028843e+00	 5.3033008589e+00	 5.2916037056e-02
 1.0253048327e+00	 5.6214989104e+00	 5.5032320138e-02
 7.0710678119e-01	 5.9396969620e+00	 5.3219010739e-02
 3.8890872966e-01	 6.2578950135e+00	 4.7382860802e-02
 7.0710678121e-02	 6.5760930650e+00	 3.7430622762e-02
-2.4748737342e-01	 6.8942911166e+00	 2.3269049548e-02
-5.6568542496e-01	 7.2124891681e+00	 4.8048945825e-03
 2.6870057685e+00	 4.1012193309e+00	 5.6919938369e-02
 2.3688077170e+00	 4.4194173824e+00	 6.4600982075e-02
 2.0506096654e+00	 4.7376154339e+00	 6.9622708664e-02
 1.7324116139e+00	 5.0558134855e+00	 7.1891867166e-02
 1.4142135624e+00	 5.3740115370e+00	 7.1315207101e-02
 1.0960155108e+00	 5.6922095885e+00	 6.7799478485e-02
 7.7781745931e-01	 6.0104076401e+00	 6.1251431826e-02
 4.5961940778e-01	 6.3286056916e+00	 5.1577818124e-02
 1.4142135624e-01	 6.6468037431e+00	 3.8685388873e-02
-1.7677669530e-01	 6.9650017947e+00	 2.2480896060e-02
-4.9497474684e-01	 7.2831998462e+00	 2.8710921665e-03
 2.7577164466e+00	 4.1719300090e+00	 1.1032171228e-01
 2.4395183951e+00	 4.4901280605e+00	 1.0835696449e-01
 2.1213203435e+00	 4.8083261121e+00	 1.0463017763e-01
 1.8031222920e+00	 5.1265241636e+00	 9.9048099793e-02
 1.4849242405e+00	 5.4447222151e+00	 9.1517479567e-02
 1.1667261890e+00	 5.7629202667e+00	 8.1945066022e-02
 8.4852813743e-01	 6.0811183182e+00	 7.0237608722e-02
 5.3033008589e-01	 6.3993163697e+00	 5.6301857728e-02
 2.1213203436e-01	 6.7175144213e+00	 4.0044563591e-02
-1.0606601718e-01	 7.0357124728e+00	 2.1372477356e-02
-4.2426406872e-01	 7.3539105243e+00	 1.9235056408e-04
 2.8284271247e+00	 4.2426406871e+00	 1.6723120564e-01
 2.5102290732e+00	 4.5608387386e+00	 1.5519599374e-01
 2.1920310217e+00	 4.8790367902e+00	 1.4229602069e-01
 1.8738329701e+00	 5.1972348417e+00	 1.2843803363e-01
 1.5556349186e+00	 5.5154328933e+00	 1.1352878021e-01
 1.2374368671e+00	 5.8336309448e+00	 9.7475008546e-02
 9.1923881554e-01	 6.1518289963e+00	 8.0183467273e-02
 6.0104076401e-01	 6.4700270479e+00	 6.1560905505e-02
 2.8284271248e-01	 6.7882250994e+00	 4.1514072854e-02
-3.5355339061e-02	 7.1064231509e+00	 1.9949719422e-02
-3.5355339060e-01	 7.4246212025e+00	-3.2254041927e-03
-1.0606601717e+00	 6.7175144212e+00	-3.0145634905e-03
-1.3788582233e+00	 7.0357124728e+00	-1.1412578976e-02
-1.6970562748e+00	 7.3539105243e+00	-1.5502385399e-02
-2.0152543263e+00	 7.6721085758e+00	-1.5377221264e-02
-2.3334523779e+00	 7.9903066274e+00	-1.1130324580e-02
-2.6516504294e+00	 8.3085046789e+00	-2.8549328605e-03
-2.9698484809e+00	 8.6267027304e+00	 6.2160668379e-03
-3.2880465325e+00	 8.9449007820e+00	-1.1210391407e-02
-3.6062445840e+00	 9.2630988335e+00	-2.2579164619e-02
-3.9244426356e+00	 9.5812968851e+00	-2.7467165910e-02
-4.2426406871e+00	 9.8994949366e+00	-2.5451297925e-02
-9.8994949364e-01	 6.7882250994e+00	 4.3213372459e-04
-1.3081475452e+00	 7.1064231509e+00	-6.8399224414e-03
-1.6263455967e+00	 7.4246212024e+00	-1.0341428899e-02
-1.9445436482e+00	 7.7428192540e+00	-1.0165625092e-02
-2.2627416998e+00	 8.0610173055e+00	-6.4057499729e-03
-2.5809397513e+00	 8.3792153570e+00	 8.4495800265e-04
-2.8991378028e+00	 8.6974134086e+00	 1.1493260872e-02
-3.2173358544e+00	 9.0156114601e+00	-3.4504000526e-03
-3.5355339059e+00	 9.3338095116e+00	-1.7297634711e-02
-3.8537319574e+00	 9.6520075632e+00	-2.5120888458e-02
-4.1719300090e+00	 9.9702056147e+00	-2.6497062490e-02
-9.1923881553e-01	 6.8589357775e+00	 3.0924107195e-03
-1.2374368671e+00	 7.1771338290e+00	-2.9269378246e-03
-1.5556349186e+00	 7.4953318806e+00	-5.7133961607e-03
-1.8738329701e+00	 7.8135299321e+00	-5.3602046756e-03
-2.1920310217e+00	 8.1317279836e+00	-1.9606032619e-03
-2.5102290732e+00	 8.4499260352e+00	 4.3921686820e-03
-2.8284271247e+00	 8.7681240867e+00	 1.3604872252e-02
-3.1466251763e+00	 9.0863221382e+00	 4.2874795823e-03
-3.4648232278e+00	 9.4045201898e+00	-1.1919967943e-02
-3.7830212793e+00	 9.7227182413e+00	-2.2560225524e-02
-4.1012193309e+00	 1.0040916293e+01	-2.7210192907e-02
-8.4852813742e-01	 6.9296464556e+00	 4.9721932286e-03
-1.1667261890e+00	 7.2478445071e+00	 3.3230065536e-04
-1.4849242405e+00	 7.5660425587e+00	-1.6123613582e-03
-1.8031222920e+00	 7.8842406102e+00	-9.5503414063e-04
-2.1213203436e+00	 8.2024386617e+00	 2.2110414736e-03
-2.4395183951e+00	 8.5206367133e+00	 7.7926251444e-03
-2.7577164466e+00	 8.8388347648e+00	 1.5696477026e-02
-3.0759144981e+00	 9.1570328163e+00	 1.1997192591e-02
-3.3941125497e+00	 9.4752308679e+00	-6.4522192922e-03
-3.7123106012e+00	 9.7934289194e+00	-1.9791232156e-02
-4.0305086527e+00	 1.0111626971e+01	-2.7596744299e-02
-7.7781745930e-01	 7.0003571337e+00	 6.0774070287e-03
-1.0960155108e+00	 7.3185551853e+00	 2.9437188220e-03
-1.4142135624e+00	 7.6367532368e+00	 1.9676013789e-03
-1.7324116139e+00	 7.9549512883e+00	 3.0558124291e-03
-2.0506096654e+00	 8.2731493399e+00	 6.1151101965e-03
-2.3688077170e+00	 8.5913473914e+00	 1.1052253399e-02
-2.6870057685e+00	 8.9095454429e+00	 1.7774001249e-02
-3.0052038200e+00	 9.2277434945e+00	 1.9672684028e-02
-3.3234018716e+00	 9.5459415460e+00	-9.0044377658e-04
-3.6415999231e+00	 9.8641395975e+00	-1.6819963445e-02
-3.9597979746e+00	 1.0182337649e+01	-2.7662771825e-02
-7.0710678119e-01	 7.0710678118e+00	 6.4139779394e-03
-1.0253048327e+00	 7.3892658634e+00	 4.9132425411e-03
-1.3435028843e+00	 7.7074639149e+00	 5.0324179629e-03
-1.6617009358e+00	 8.0256619664e+00	 6.6782609925e-03
-1.9798989873e+00	 8.3438600180e+00	 9.7575289120e-03
-2.2980970389e+00	 8.6620580695e+00	 1.4176979498e-02
-2.6162950904e+00	 8.9802561210e+00	 1.9843371020e-02
-2.9344931419e+00	 9.2984541726e+00	 2.6663462245e-02
-3.2526911934e+00	 9.6166522241e+00	 4.7293035490e-03
-3.5708892450e+00	 9.9348502757e+00	-1.3652474517e-02
-3.8890872965e+00	 1.0253048327e+01	-2.7414330685e-02
-6.3639610307e-01	 7.1417784900e+00	 5.9878318224e-03
-9.5459415461e-01	 7.4599765415e+00	 6.2467977212e-03
-1.2727922061e+00	 7.7781745930e+00	 7.5880143487e-03
-1.5909902577e+00	 8.0963726446e+00	 9.9182375509e-03
-1.9091883092e+00	 8.4145706961e+00	 1.3144223668e-02
-2.2273863607e+00	 8.7327687476e+00	 1.7172729535e-02
-2.5455844123e+00	 9.0509667992e+00	 2.1910512480e-02
-2.8637824638e+00	 9.3691648507e+00	 2.7264330327e-02
-3.1819805153e+00	 9.6873629022e+00	 1.0430967591e-02
-3.5001785669e+00	 1.0005560954e+01	-1.0294820536e-02
-3.8183766184e+00	 1.0323759005e+01	-2.6857476113e-02
-5.6568542496e-01	 7.2124891681e+00	 4.8048945825e-03
-8.8388347649e-01	 7.5306872196e+00	 6.9503103133e-03
-1.2020815280e+00	 7.8488852712e+00	 9.6403165338e-03
-1.5202795796e+00	 8.1670833227e+00	 1.2781668148e-02
-1.8384776311e+00	 8.4852813742e+00	 1.6281120555e-02
-2.1566756826e+00	 8.8034794258e+00	 2.0045429648e-02
-2.4748737342e+00	 9.1216774773e+00	 2.3981351812e-02
-2.7930717857e+00	 9.4398755288e+00	 2.7995643930e-02
-3.1112698372e+00	 9.7580735804e+00	 1.6198493220e-02
-3.4294678887e+00	 1.0076271632e+01	-6.7530567046e-03
-3.7476659403e+00	 1.0394469683e+01	-2.4252306459e-02
-4.9497474684e-01	 7.2831998462e+00	 2.8710921665e-03
-8.1317279838e-01	 7.6013978977e+00	 7.0297063108e-03
-1.1313708499e+00	 7.9195959493e+00	 1.1195250558e-02
-1.4495689014e+00	 8.2377940008e+00	 1.5274478871e-02
-1.7677669530e+00	 8.5559920523e+00	 1.9174145706e-02
-2.0859650045e+00	 8.8741901039e+00	 2.2801006015e-02
-2.4041630560e+00	 9.1923881554e+00	 2.6061815242e-02
-2.7223611076e+00	 9.5105862069e+00	 2.8863329327e-02
-3.0405591591e+00	 9.8287842585e+00	 2.2025825264e-02
-3.3587572106e+00	 1.0146982310e+01	-3.0332382649e-03
-3.6769552621e+00	 1.0465180362e+01	-2.0490372117e-02
-4.2426406872e-01	 7.3539105243e+00	 1.9235056408e-04
-7.4246212026e-01	 7.6721085759e+00	 6.4909117498e-03
-1.0606601718e+00	 7.9903066274e+00	 1.2258742504e-02
-1.3788582233e+00	 8.3085046789e+00	 1.7402595849e-02
-1.6970562749e+00	 8.6267027305e+00	 2.1829225297e-02
-2.0152543264e+00	 8.9449007820e+00	 2.5445384859e-02
-2.3334523779e+00	 9.2630988335e+00	 2.8157829038e-02
-2.6516504295e+00	 9.5812968851e+00	 2.9873312832e-02
-2.9698484810e+00	 9.8994949366e+00	 2.7906908517e-02
-3.2880465325e+00	 1.0217692988e+01	 8.5857950446e-04
-3.6062445840e+00	 1.0535891040e+01	-1.6262227774e-02
-3.5355339060e-01	 7.4246212025e+00	-3.2254041927e-03
-6.7175144214e-01	 7.7428192540e+00	 5.3398527089e-03
-9.8994949368e-01	 8.0610173055e+00	 1.2836718497e-02
-1.3081475452e+00	 8.3792153570e+00	 1.9171945252e-02
-1.6263455967e+00	 8.6974134086e+00	 2.4252285545e-02
-1.9445436483e+00	 9.0156114601e+00	 2.7984492445e-02
-2.2627416998e+00	 9.3338095116e+00	 3.0275319512e-02
-2.5809397513e+00	 9.6520075632e+00	 3.1031520802e-02
-2.8991378029e+00	 9.9702056147e+00	 3.0159850868e-02
-3.2173358544e+00	 1.0288403666e+01	 4.9163412863e-03
-3.5355339059e+00	 1.0606601718e+01	-1.1566009073e-02
-7.0710678120e-01	 7.0710678120e-01	-1.9961432799e-01
-1.0253048327e+00	 1.0253048327e+00	-1.8935617457e-01
-1.3435028843e+00	 1.3435028843e+00	-1.8067240248e-01
-1.6617009358e+00	 1.6617009358e+00	-1.7356301170e-01
-1.9798989874e+00	 1.9798989874e+00	-1.6802800223e-01
-2.2980970389e+00	 2.2980970389e+00	-1.6406737408e-01
-2.6162950904e+00	 2.6162950904e+00	-1.6168112725e-01
-2.9344931420e+00	 2.9344931420e+00	-1.6086926174e-01
-3.2526911935e+00	 3.2526911935e+00	-1.7357834829e-01
-3.5708892450e+00	 3.5708892450e+00	-1.9656298260e-01
-3.8890872966e+00	 3.8890872966e+00	-2.3245853160e-01
-5.6568542496e-01	 8.4852813744e-01	-2.1565005724e-01
-8.8388347650e-01	 1.1667261890e+00	-1.9963705875e-01
-1.2020815280e+00	 1.4849242405e+00	-1.8597398215e-01
-1.5202795796e+00	 1.8031222920e+00	-1.7466082745e-01
-1.8384776311e+00	 2.1213203436e+00	-1.6569759464e-01
-2.1566756826e+00	 2.4395183951e+00	-1.5908428373e-01
-2.4748737342e+00	 2.7577164466e+00	-1.5482089472e-01
-2.7930717857e+00	 3.0759144982e+00	-1.5290742760e-01
-3.1112698372e+00	 3.3941125497e+00	-1.6082599026e-01
-3.4294678888e+00	 3.7123106012e+00	-1.8944514438e-01
-3.7476659403e+00	 4.0305086528e+00	-2.2844395222e-01
-4.2426406872e-01	 9.8994949368e-01	-2.3361043784e-01
-7.4246212026e-01	 1.3081475452e+00	-2.1149119541e-01
-1.0606601718e+00	 1.6263455967e+00	-1.9249741545e-01
-1.3788582233e+00	 1.9445436483e+00	-1.7662909798e-01
-1.6970562749e+00	 2.2627416998e+00	-1.6388624298e-01
-2.0152543264e+00	 2.5809397513e+00	-1.5426885046e-01
-2.3334523779e+00	 2.8991378029e+00	-1.4777692041e-01
-2.6516504295e+00	 3.2173358544e+00	-1.4441045285e-01
-2.9698484810e+00	 3.5355339059e+00	-1.4825237747e-01
-3.2880465325e+00	 3.8537319575e+00	-1.8042256554e-01
-3.6062445841e+00	 4.1719300090e+00	-2.2220108401e-01
-2.8284271248e-01	 1.1313708499e+00	-2.5349546976e-01
-6.0104076402e-01	 1.4495689014e+00	-2.2491858455e-01
-9.1923881556e-01	 1.7677669530e+00	-2.0024270239e-01
-1.2374368671e+00	 2.0859650045e+00	-1.7946782329e-01
-1.5556349186e+00	 2.4041630560e+00	-1.6259394725e-01
-1.8738329702e+00	 2.7223611076e+00	-1.4962107426e-01
-2.1920310217e+00	 3.0405591591e+00	-1.4054920434e-01
-2.5102290732e+00	 3.3587572106e+00	-1.3537833747e-01
-2.8284271248e+00	 3.6769552622e+00	-1.4180581456e-01
-3.1466251763e+00	 3.9951533137e+00	-1.6954366353e-01
-3.4648232278e+00	 4.3133513652e+00	-2.1377835047e-01
-1.4142135624e-01	 1.2727922062e+00	-2.7530515301e-01
-4.5961940778e-01	 1.5909902577e+00	-2.3991922617e-01
-7.7781745932e-01	 1.9091883092e+00	-2.0920984295e-01
-1.0960155109e+00	 2.2273863607e+00	-1.8317700338e-01
-1.4142135624e+00	 2.5455844123e+00	-1.6182070745e-01
-1.7324116139e+00	 2.8637824638e+00	-1.4514095515e-01
-2.0506096655e+00	 3.1819805153e+00	-1.3313774649e-01
-2.3688077170e+00	 3.5001785669e+00	-1.2758109706e-01
-2.6870057685e+00	 3.8183766184e+00	-1.3680037026e-01
-3.0052038201e+00	 4.1365746699e+00	-1.5685686191e-01
-3.3234018716e+00	 4.4547727215e+00	-2.0322417574e-01
 0.0000000000e+00	 1.4142135624e+00	-2.9903948760e-01
-3.1819805154e-01	 1.7324116139e+00	-2.5649312027e-01
-6.3639610308e-01	 2.0506096654e+00	-2.1939883715e-01
-9.5459415462e-01	 2.3688077170e+00	-1.8775663825e-01
-1.2727922062e+00	 2.6870057685e+00	-1.6156652357e-01
-1.5909902577e+00	 3.0052038200e+00	-1.4082849312e-01
-1.9091883092e+00	 3.3234018716e+00	-1.2554254688e-01
-2.2273863608e+00	 3.6415999231e+00	-1.2287716199e-01
-2.5455844123e+00	 3.9597979746e+00	-1.3175443866e-01
-2.8637824638e+00	 4.2779960262e+00	-1.4798153089e-01
-3.1819805153e+00	 4.5961940777e+00	-1.9058698454e-01
 1.4142135624e-01	 1.5556349186e+00	-3.2469847352e-01
-1.7677669530e-01	 1.8738329701e+00	-2.7464026685e-01
-4.9497474684e-01	 2.1920310217e+00	-2.3080968498e-01
-8.1317279838e-01	 2.5102290732e+00	-1.9320672791e-01
-1.1313708499e+00	 2.8284271247e+00	-1.6183139563e-01
-1.4495689014e+00	 3.1466251763e+00	-1.3668368816e-01
-1.7677669530e+00	 3.4648232278e+00	-1.1837726325e-01
-2.0859650045e+00	 3.7830212793e+00	-1.1844287441e-01
-2.4041630560e+00	 4.1012193309e+00	-1.2662062569e-01
-2.7223611076e+00	 4.4194173824e+00	-1.4300373114e-01
-3.0405591591e+00	 4.7376154339e+00	-1.7591520223e-01
 2.8284271248e-01	 1.6970562749e+00	-3.5228211076e-01
-3.5355339060e-02	 2.0152543264e+00	-2.9436066591e-01
-3.5355339060e-01	 2.3334523779e+00	-2.4344238643e-01
-6.7175144214e-01	 2.6516504294e+00	-1.9952727234e-01
-9.8994949367e-01	 2.9698484810e+00	-1.6261532362e-01
-1.3081475452e+00	 3.2880465325e+00	-1.3270654029e-01
-1.6263455967e+00	 3.6062445840e+00	-1.1607782491e-01
-1.9445436483e+00	 3.9244426356e+00	-1.1423083889e-01
-2.2627416998e+00	 4.2426406871e+00	-1.2135153660e-01
-2.5809397513e+00	 4.5608387386e+00	-1.3753312767e-01
-2.8991378029e+00	 4.8790367902e+00	-1.6286882762e-01
 4.2426406872e-01	 1.8384776311e+00	-3.8179039934e-01
 1.0606601718e-01	 2.1566756826e+00	-3.1565431745e-01
-2.1213203436e-01	 2.4748737341e+00	-2.5729694152e-01
-5.3033008590e-01	 2.7930717857e+00	-2.0671827155e-01
-8.4852813743e-01	 3.1112698372e+00	-1.6391830754e-01
-1.1667261890e+00	 3.4294678887e+00	-1.2889704949e-01
-1.4849242405e+00	 3.7476659403e+00	-1.1431076010e-01
-1.8031222920e+00	 4.0658639918e+00	-1.1019366038e-01
-2.1213203436e+00	 4.3840620433e+00	-1.1589977594e-01
-2.4395183951e+00	 4.7022600949e+00	-1.3152232466e-01
-2.7577164466e+00	 5.0204581464e+00	-1.5715452394e-01
 5.6568542496e-01	 1.9798989873e+00	-4.1322333925e-01
 2.4748737342e-01	 2.2980970388e+00	-3.3852122148e-01
-7.0710678118e-02	 2.6162950904e+00	-2.7237335024e-01
-3.8890872966e-01	 2.9344931419e+00	-2.1477972554e-01
-7.0710678119e-01	 3.2526911934e+00	-1.6574034739e-01
-1.0253048327e+00	 3.5708892450e+00	-1.3035897792e-01
-1.3435028843e+00	 3.8890872965e+00	-1.1302869243e-01
-1.6617009358e+00	 4.2072853480e+00	-1.0628394313e-01
-1.9798989873e+00	 4.5254833996e+00	-1.1021794760e-01
-2.2980970389e+00	 4.8436814511e+00	-1.2492392563e-01
-2.6162950904e+00	 5.1618795027e+00	-1.5049509648e-01
 7.0710678120e-01	 2.1213203435e+00	-4.4658093049e-01
 3.8890872966e-01	 2.4395183951e+00	-3.6296137798e-01
 7.0710678122e-02	 2.7577164466e+00	-2.8867161259e-01
-2.4748737342e-01	 3.0759144981e+00	-2.2371163432e-01
-5.6568542495e-01	 3.3941125497e+00	-1.6808144317e-01
-8.8388347649e-01	 3.7123106012e+00	-1.3335521901e-01
-1.2020815280e+00	 4.0305086527e+00	-1.1218421949e-01
-1.5202795796e+00	 4.3487067043e+00	-1.0245429071e-01
-1.8384776311e+00	 4.6669047558e+00	-1.0425865479e-01
-2.1566756826e+00	 4.9851028074e+00	-1.1769053340e-01
-2.4748737342e+00	 5.3033008589e+00	-1.4284314769e-01
-3.8890872966e+00	 3.8890872966e+00	-2.3245853160e-01
-4.2072853481e+00	 4.2072853481e+00	-2.0040756516e-01
-4.5254833996e+00	 4.5254833996e+00	-1.7361964869e-01
-4.8436814511e+00	 4.8436814511e+00	-1.5167181601e-01
-5.1618795027e+00	 5.1618795027e+00	-1.3414109053e-01
-5.4800775542e+00	 5.4800775542e+00	-1.2060448515e-01
-5.7982756057e+00	 5.7982756057e+00	-1.1063900234e-01
-6.1164736573e+00	 6.1164736573e+00	-1.0382163410e-01
-6.4346717088e+00	 6.4346717088e+00	-9.9729361972e-02
-6.7528697604e+00	 6.7528697604e+00	-9.7939157035e-02
-7.0710678119e+00	 7.0710678119e+00	-9.8027979906e-02
-3.7476659403e+00	 4.0305086528e+00	-2.2844395222e-01
-4.0658639918e+00	 4.3487067043e+00	-1.9820845663e-01
-4.3840620434e+00	 4.6669047558e+00	-1.7274222093e-01
-4.7022600949e+00	 4.9851028074e+00	-1.5162227605e-01
-5.0204581464e+00	 5.3033008589e+00	-1.3442564247e-01
-5.3386561980e+00	 5.6214989105e+00	-1.2072933024e-01
-5.6568542495e+00	 5.9396969620e+00	-1.1011033889e-01
-5.9750523010e+00	 6.2578950135e+00	-1.0214565755e-01
-6.2932503526e+00	 6.5760930651e+00	-9.6412264846e-02
-6.6114484041e+00	 6.8942911166e+00	-9.2487128967e-02
-6.9296464557e+00	 7.2124891681e+00	-8.9947207633e-02
-3.6062445841e+00	 4.1719300090e+00	-2.2220108401e-01
-3.9244426356e+00	 4.4901280605e+00	-1.9402270365e-01
-4.2426406871e+00	 4.8083261121e+00	-1.7011979292e-01
-4.5608387387e+00	 5.1265241636e+00	-1.5006937986e-01
-4.8790367902e+00	 5.4447222152e+00	-1.3344848207e-01
-5.1972348417e+00	 5.7629202667e+00	-1.1983410666e-01
-5.5154328933e+00	 6.0811183182e+00	-1.0880325031e-01
-5.8336309448e+00	 6.3993163698e+00	-9.9932899218e-02
-6.1518289963e+00	 6.7175144213e+00	-9.2800029128e-02
-6.4700270479e+00	 7.0357124728e+00	-8.6981605325e-02
-6.7882250994e+00	 7.3539105244e+00	-8.2054582630e-02
-3.4648232278e+00	 4.3133513652e+00	-2.1377835047e-01
-3.7830212794e+00	 4.6315494168e+00	-1.8789873029e-01
-4.1012193309e+00	 4.9497474683e+00	-1.6580078931e-01
-4.4194173824e+00	 5.2679455199e+00	-1.4706155269e-01
-4.7376154340e+00	 5.5861435714e+00	-1.3125803511e-01
-5.0558134855e+00	 5.9043416229e+00	-1.1796724081e-01
-5.3740115370e+00	 6.2225396745e+00	-1.0676616355e-01
-5.6922095886e+00	 6.5407377260e+00	-9.7231786633e-02
-6.0104076401e+00	 6.8589357775e+00	-8.8941082913e-02
-6.3286056916e+00	 7.1771338291e+00	-8.1471014773e-02
-6.6468037432e+00	 7.4953318806e+00	-7.4398534136e-02
-3.3234018716e+00	 4.4547727215e+00	-2.0322417574e-01
-3.6415999231e+00	 4.7729707730e+00	-1.7988496125e-01
-3.9597979747e+00	 5.0911688246e+00	-1.5983363537e-01
-4.2779960262e+00	 5.4093668761e+00	-1.4264722037e-01
-4.5961940777e+00	 5.7275649276e+00	-1.2790272802e-01
-4.9143921293e+00	 6.0457629792e+00	-1.1517715966e-01
-5.2325901808e+00	 6.3639610307e+00	-1.0404750616e-01
-5.5507882323e+00	 6.6821590822e+00	-9.4090747921e-02
-5.8689862839e+00	 7.0003571338e+00	-8.4883854903e-02
-6.1871843354e+00	 7.3185551853e+00	-7.6003786587e-02
-6.5053823869e+00	 7.6367532369e+00	-6.7027491999e-02
-3.1819805153e+00	 4.5961940777e+00	-1.9058698454e-01
-3.5001785669e+00	 4.9143921293e+00	-1.7002982184e-01
-3.8183766184e+00	 5.2325901808e+00	-1.5226675699e-01
-4.1365746699e+00	 5.5507882323e+00	-1.3687480935e-01
-4.4547727215e+00	 5.8689862839e+00	-1.2343098781e-01
-4.7729707730e+00	 6.1871843354e+00	-1.1151229080e-01
-5.0911688245e+00	 6.5053823869e+00	-1.0069570630e-01
-5.4093668761e+00	 6.8235804385e+00	-9.0558211823e-02
-5.7275649276e+00	 7.1417784900e+00	-8.0676774410e-02
-6.0457629792e+00	 7.4599765416e+00	-7.0628350652e-02
-6.3639610307e+00	 7.7781745931e+00	-5.9989886676e-02
-3.0405591591e+00	 4.7376154339e+00	-1.7591520223e-01
-3.3587572106e+00	 5.0558134855e+00	-1.5838173797e-01
-3.6769552622e+00	 5.3740115370e+00	-1.4314858064e-01
-3.9951533137e+00	 5.6922095886e+00	-1.2979274669e-01
-4.3133513652e+00	 6.0104076401e+00	-1.1789124212e-01
-4.6315494168e+00	 6.3286056916e+00	-1.0702106245e-01
-4.9497474683e+00	 6.6468037432e+00	-9.6759192772e-02
-5.2679455198e+00	 6.9650017947e+00	-8.6682607689e-02
-5.5861435714e+00	 7.2831998462e+00	-7.6368271356e-02
-5.9043416229e+00	 7.6013978978e+00	-6.5393137461e-02
-6.2225396745e+00	 7.9195959493e+00	-5.3334149234e-02
-2.8991378029e+00	 4.8790367902e+00	-1.6286882762e-01
-3.2173358544e+00	 5.1972348417e+00	-1.4498913617e-01
-3.5355339059e+00	 5.5154328933e+00	-1.3252753342e-01
-3.8537319575e+00	 5.8336309448e+00	-1.2144946006e-01
-4.1719300090e+00	 6.1518289963e+00	-1.1133191918e-01
-4.4901280605e+00	 6.4700270479e+00	-1.0175190341e-01
-4.8083261121e+00	 6.7882250994e+00	-9.2286394942e-02
-5.1265241636e+00	 7.1064231509e+00	-8.2512365477e-02
-5.4447222151e+00	 7.4246212025e+00	-7.2006776272e-02
-5.7629202667e+00	 7.7428192540e+00	-6.0346578120e-02
-6.0811183182e+00	 8.0610173056e+00	-4.7108711350e-02
-2.7577164466e+00	 5.0204581464e+00	-1.5715452394e-01
-3.0759144982e+00	 5.3386561980e+00	-1.2990044356e-01
-3.3941125497e+00	 5.6568542495e+00	-1.2045204304e-01
-3.7123106012e+00	 5.9750523010e+00	-1.1189337774e-01
-4.0305086528e+00	 6.2932503526e+00	-1.0380144785e-01
-4.3487067043e+00	 6.6114484041e+00	-9.5753243118e-02
-4.6669047558e+00	 6.9296464556e+00	-8.7325742813e-02
-4.9851028074e+00	 7.2478445072e+00	-7.8095915755e-02
-5.3033008589e+00	 7.5660425587e+00	-6.7640720301e-02
-5.6214989104e+00	 7.8842406103e+00	-5.5537104343e-02
-5.9396969620e+00	 8.2024386618e+00	-4.1362005311e-02
-2.6162950904e+00	 5.1618795027e+00	-1.5049509648e-01
-2.9344931419e+00	 5.4800775542e+00	-1.1379258158e-01
-3.2526911935e+00	 5.7982756057e+00	-1.0697053782e-01
-3.5708892450e+00	 6.1164736573e+00	-1.0117292862e-01
-3.8890872965e+00	 6.4346717088e+00	-9.5348257596e-02
-4.2072853481e+00	 6.7528697604e+00	-8.9073511593e-02
-4.5254833996e+00	 7.0710678119e+00	-8.1925666989e-02
-4.8436814511e+00	 7.3892658634e+00	-7.3481689703e-02
-5.1618795027e+00	 7.7074639150e+00	-6.3318535193e-02
-5.4800775542e+00	 8.0256619665e+00	-5.1013148452e-02
-5.7982756057e+00	 8.3438600180e+00	-3.6142464012e-02
-2.4748737342e+00	 5.3033008589e+00	-1.4284314769e-01
-2.7930717857e+00	 5.6214989104e+00	-1.0968268111e-01
-3.1112698372e+00	 5.9396969620e+00	-9.2131446672e-02
-3.4294678887e+00	 6.2578950135e+00	-8.9336542188e-02
-3.7476659403e+00	 6.5760930651e+00	-8.6020778477e-02
-4.0658639918e+00	 6.8942911166e+00	-8.1761139483e-02
-4.3840620433e+00	 7.2124891681e+00	-7.6134598686e-02
-4.7022600949e+00	 7.5306872197e+00	-6.8718119108e-02
-5.0204581464e+00	 7.8488852712e+00	-5.9088653308e-02
-5.3386561980e+00	 8.1670833227e+00	-4.6823143381e-02
-5.6568542495e+00	 8.4852813743e+00	-3.1498520960e-02
 7.0710678120e-01	 2.1213203435e+00	-4.4658093049e-01
 3.8890872966e-01	 2.4395183951e+00	-3.6296137798e-01
 7.0710678122e-02	 2.7577164466e+00	-2.8867161259e-01
-2.4748737342e-01	 3.0759144981e+00	-2.2371163432e-01
-5.6568542495e-01	 3.3941125497e+00	-1.6808144317e-01
-8.8388347649e-01	 3.7123106012e+00	-1.3335521901e-01
-1.2020815280e+00	 4.0305086527e+00	-1.1218421949e-01
-1.5202795796e+00	 4.3487067043e+00	-1.0245429071e-01
-1.8384776311e+00	 4.6669047558e+00	-1.0425865479e-01
-2.1566756826e+00	 4.9851028074e+00	-1.1769053340e-01
-2.4748737342e+00	 5.3033008589e+00	-1.4284314769e-01
 8.4852813744e-01	 2.2627416998e+00	-4.4800144805e-01
 5.3033008590e-01	 2.5809397513e+00	-3.6080322222e-01
 2.1213203436e-01	 2.8991378028e+00	-2.8315762474e-01
-1.0606601718e-01	 3.2173358544e+00	-2.1506465561e-01
-4.2426406871e-01	 3.5355339059e+00	-1.6025454349e-01
-7.4246212025e-01	 3.8537319575e+00	-1.2616127445e-01
-1.0606601718e+00	 4.1719300090e+00	-1.0371869090e-01
-1.3788582233e+00	 4.4901280605e+00	-9.3020016518e-02
-1.6970562748e+00	 4.8083261121e+00	-9.4158475343e-02
-2.0152543264e+00	 5.1265241636e+00	-1.0722729090e-01
-2.3334523779e+00	 5.4447222151e+00	-1.3231968624e-01
 9.8994949368e-01	 2.4041630560e+00	-4.4727690890e-01
 6.7175144214e-01	 2.7223611075e+00	-3.5657033595e-01
 3.5355339060e-01	 3.0405591591e+00	-2.7563923258e-01
 3.5355339065e-02	 3.3587572106e+00	-2.0448359879e-01
-2.8284271247e-01	 3.6769552622e+00	-1.5331007450e-01
-6.0104076401e-01	 3.9951533137e+00	-1.1770657891e-01
-9.1923881554e-01	 4.3133513652e+00	-9.4056605121e-02
-1.2374368671e+00	 4.6315494168e+00	-8.2453379552e-02
-1.5556349186e+00	 4.9497474683e+00	-8.2990128108e-02
-1.8738329701e+00	 5.2679455198e+00	-9.5760076206e-02
-2.1920310217e+00	 5.5861435714e+00	-1.2085644877e-01
 1.1313708499e+00	 2.5455844122e+00	-4.4440731305e-01
 8.1317279838e-01	 2.8637824638e+00	-3.5026271918e-01
 4.9497474684e-01	 3.1819805153e+00	-2.6611643611e-01
 1.7677669530e-01	 3.5001785669e+00	-1.9420592583e-01
-1.4142135623e-01	 3.8183766184e+00	-1.4499326479e-01
-4.5961940777e-01	 4.1365746699e+00	-1.0794373465e-01
-7.7781745930e-01	 4.4547727215e+00	-8.3150564075e-02
-1.0960155108e+00	 4.7729707730e+00	-7.0706981344e-02
-1.4142135624e+00	 5.0911688245e+00	-7.0706214252e-02
-1.7324116139e+00	 5.4093668761e+00	-8.3241490096e-02
-2.0506096654e+00	 5.7275649276e+00	-1.0840603568e-01
 1.2727922062e+00	 2.6870057685e+00	-4.3939266050e-01
 9.5459415462e-01	 3.0052038200e+00	-3.4188037190e-01
 6.3639610308e-01	 3.3234018716e+00	-2.5458923533e-01
 3.1819805154e-01	 3.6415999231e+00	-1.8615405491e-01
 8.0003156877e-12	 3.9597979746e+00	-1.3525671548e-01
-3.1819805153e-01	 4.2779960262e+00	-9.6825343284e-02
-6.3639610306e-01	 4.5961940777e+00	-7.0953168983e-02
-9.5459415460e-01	 4.9143921292e+00	-5.7733422749e-02
-1.2727922061e+00	 5.2325901808e+00	-5.7259334256e-02
-1.5909902577e+00	 5.5507882323e+00	-6.9624132686e-02
-1.9091883092e+00	 5.8689862839e+00	-9.4921046728e-02
 1.4142135624e+00	 2.8284271247e+00	-4.3223295126e-01
 1.0960155109e+00	 3.1466251762e+00	-3.3142329412e-01
 7.7781745932e-01	 3.4648232278e+00	-2.4176425197e-01
 4.5961940778e-01	 3.7830212793e+00	-1.7657085430e-01
 1.4142135625e-01	 4.1012193309e+00	-1.2405302787e-01
-1.7677669529e-01	 4.4194173824e+00	-8.4304005719e-02
-4.9497474682e-01	 4.7376154339e+00	-5.7417020391e-02
-8.1317279836e-01	 5.0558134855e+00	-4.3485303939e-02
-1.1313708499e+00	 5.3740115370e+00	-4.2602087923e-02
-1.4495689014e+00	 5.6922095886e+00	-5.4860603406e-02
-1.7677669529e+00	 6.0104076401e+00	-8.0354080960e-02
 1.5556349186e+00	 2.9698484809e+00	-4.2292818532e-01
 1.2374368671e+00	 3.2880465325e+00	-3.1889148583e-01
 9.1923881556e-01	 3.6062445840e+00	-2.3246145343e-01
 6.0104076402e-01	 3.9244426356e+00	-1.6540892486e-01
 2.8284271249e-01	 4.2426406871e+00	-1.1133480257e-01
-3.5355339047e-02	 4.5608387386e+00	-7.0332322196e-02
-3.5355339058e-01	 4.8790367902e+00	-4.2494718164e-02
-6.7175144212e-01	 5.1972348417e+00	-2.7915224409e-02
-9.8994949365e-01	 5.5154328932e+00	-2.6687074374e-02
-1.3081475452e+00	 5.8336309448e+00	-3.8903501005e-02
-1.6263455967e+00	 6.1518289963e+00	-6.4657736758e-02
 1.6970562749e+00	 3.1112698372e+00	-4.1147836268e-01
 1.3788582233e+00	 3.4294678887e+00	-3.0428494704e-01
 1.0606601718e+00	 3.7476659403e+00	-2.2146833760e-01
 7.4246212026e-01	 4.0658639918e+00	-1.5262086688e-01
 4.2426406873e-01	 4.3840620433e+00	-9.7054639507e-02
 1.0606601719e-01	 4.7022600949e+00	-5.4862892271e-02
-2.1213203434e-01	 5.0204581464e+00	-2.6138861486e-02
-5.3033008588e-01	 5.3386561979e+00	-1.0975782971e-02
-8.4852813741e-01	 5.6568542495e+00	-9.4668920498e-03
-1.1667261889e+00	 5.9750523010e+00	-2.1705423554e-02
-1.4849242405e+00	 6.2932503526e+00	-4.7784611819e-02
 1.8384776311e+00	 3.2526911934e+00	-3.9788348334e-01
 1.5202795796e+00	 3.5708892450e+00	-2.9280656467e-01
 1.2020815280e+00	 3.8890872965e+00	-2.0873750232e-01
 8.8388347650e-01	 4.2072853480e+00	-1.3815927999e-01
 5.6568542497e-01	 4.5254833996e+00	-8.1165137927e-02
 2.4748737343e-01	 4.8436814511e+00	-3.7848314819e-02
-7.0710678102e-02	 5.1618795026e+00	-8.3020488626e-03
-3.8890872964e-01	 5.4800775542e+00	 7.3804222422e-03
-7.0710678117e-01	 5.7982756057e+00	 9.1058612878e-03
-1.0253048327e+00	 6.1164736573e+00	-3.2189684398e-03
-1.3435028842e+00	 6.4346717088e+00	-2.9687303160e-02
 1.9798989874e+00	 3.3941125497e+00	-3.8214354730e-01
 1.6617009358e+00	 3.7123106012e+00	-2.8026000889e-01
 1.3435028843e+00	 4.0305086527e+00	-1.9422154764e-01
 1.0253048327e+00	 4.3487067043e+00	-1.2197676312e-01
 7.0710678121e-01	 4.6669047558e+00	-6.3618896399e-02
 3.8890872967e-01	 4.9851028074e+00	-1.9241188038e-02
 7.0710678138e-02	 5.3033008589e+00	 1.1063121882e-02
-2.4748737340e-01	 5.6214989104e+00	 2.7200793778e-02
-5.6568542493e-01	 5.9396969620e+00	 2.9078588559e-02
-8.8388347646e-01	 6.2578950135e+00	 1.6603267628e-02
-1.2020815280e+00	 6.5760930650e+00	-1.0318407119e-02
 2.1213203436e+00	 3.5355339059e+00	-3.6776368208e-01
 1.8031222921e+00	 3.8537319574e+00	-2.6581674277e-01
 1.4849242405e+00	 4.1719300090e+00	-1.7787307218e-01
 1.1667261890e+00	 4.4901280605e+00	-1.0402591454e-01
 8.4852813745e-01	 4.8083261121e+00	-4.4368512810e-02
 5.3033008591e-01	 5.1265241636e+00	 1.0058905581e-03
 2.1213203438e-01	 5.4447222151e+00	 3.2004053605e-02
-1.0606601716e-01	 5.7629202667e+00	 4.8532734865e-02
-4.2426406869e-01	 6.0811183182e+00	 5.0498693363e-02
-7.4246212022e-01	 6.3993163697e+00	 3.7808688620e-02
-1.0606601717e+00	 6.7175144212e+00	 1.0369480649e-02
-2.4748737342e+00	 5.3033008589e+00	-1.4284314769e-01
-2.7930717857e+00	 5.6214989104e+00	-1.0968268111e-01
-3.1112698372e+00	 5.9396969620e+00	-9.2131446672e-02
-3.4294678887e+00	 6.2578950135e+00	-8.9336542188e-02
-3.7476659403e+00	 6.5760930651e+00	-8.6020778477e-02
-4.0658639918e+00	 6.8942911166e+00	-8.1761139483e-02
-4.3840620433e+00	 7.2124891681e+00	-7.6134598686e-02
-4.7022600949e+00	 7.5306872197e+00	-6.8718119108e-02
-5.0204581464e+00	 7.8488852712e+00	-5.9088653308e-02
-5.3386561980e+00	 8.1670833227e+00	-4.6823143381e-02
-5.6568542495e+00	 8.4852813743e+00	-3.1498520960e-02
-2.3334523779e+00	 5.4447222151e+00	-1.3231968624e-01
-2.6516504294e+00	 5.7629202667e+00	-1.0312447088e-01
-2.9698484810e+00	 6.0811183182e+00	-7.4575069605e-02
-3.2880465325e+00	 6.3993163698e+00	-7.5224815573e-02
-3.6062445840e+00	 6.7175144213e+00	-7.4852281245e-02
-3.9244426356e+00	 7.0357124728e+00	-7.3034447663e-02
-4.2426406871e+00	 7.3539105244e+00	-6.9348285413e-02
-4.5608387386e+00	 7.6721085759e+00	-6.3370754617e-02
-4.8790367902e+00	 7.9903066274e+00	-5.4678804934e-02
-5.1972348417e+00	 8.3085046790e+00	-4.2849375563e-02
-5.5154328933e+00	 8.6267027305e+00	-2.7459395237e-02
-2.1920310217e+00	 5.5861435714e+00	-1.2085644877e-01
-2.5102290732e+00	 5.9043416229e+00	-9.5815546370e-02
-2.8284271247e+00	 6.2225396745e+00	-6.8014423775e-02
-3.1466251763e+00	 6.5407377260e+00	-6.0185763146e-02
-3.4648232278e+00	 6.8589357775e+00	-6.2979510542e-02
-3.7830212793e+00	 7.1771338291e+00	-6.3826534547e-02
-4.1012193309e+00	 7.4953318806e+00	-6.2303802846e-02
-4.4194173824e+00	 7.8135299321e+00	-5.7988272664e-02
-4.7376154339e+00	 8.1317279837e+00	-5.0456890763e-02
-5.0558134855e+00	 8.4499260352e+00	-3.9286593441e-02
-5.3740115370e+00	 8.7681240867e+00	-2.4054306535e-02
-2.0506096654e+00	 5.7275649276e+00	-1.0840603568e-01
-2.3688077170e+00	 6.0457629792e+00	-8.7708507622e-02
-2.6870057685e+00	 6.3639610307e+00	-6.3911054253e-02
-3.0052038200e+00	 6.6821590822e+00	-4.4267816233e-02
-3.3234018716e+00	 7.0003571338e+00	-5.0450898269e-02
-3.6415999231e+00	 7.3185551853e+00	-5.4185832605e-02
-3.9597979746e+00	 7.6367532368e+00	-5.5049584030e-02
-4.2779960262e+00	 7.9549512884e+00	-5.2619106868e-02
-4.5961940777e+00	 8.2731493399e+00	-4.6471344985e-02
-4.9143921292e+00	 8.5913473914e+00	-3.6183231779e-02
-5.2325901808e+00	 8.9095454429e+00	-2.1331690189e-02
-1.9091883092e+00	 5.8689862839e+00	-9.4921046728e-02
-2.2273863607e+00	 6.1871843354e+00	-7.8755954003e-02
-2.5455844123e+00	 6.5053823869e+00	-5.9151231454e-02
-2.8637824638e+00	 6.8235804385e+00	-3.6200106285e-02
-3.1819805153e+00	 7.1417784900e+00	-3.7314876934e-02
-3.5001785669e+00	 7.4599765415e+00	-4.4160774920e-02
-3.8183766184e+00	 7.7781745931e+00	-4.7634062618e-02
-4.1365746699e+00	 8.0963726446e+00	-4.7311691456e-02
-4.4547727215e+00	 8.4145706961e+00	-4.2770602399e-02
-4.7729707730e+00	 8.7327687477e+00	-3.3587725948e-02
-5.0911688245e+00	 9.0509667992e+00	-1.9339982143e-02
-1.7677669529e+00	 6.0104076401e+00	-8.0354080960e-02
-2.0859650045e+00	 6.3286056916e+00	-6.8910484202e-02
-2.4041630560e+00	 6.6468037432e+00	-5.3687553692e-02
-2.7223611075e+00	 6.9650017947e+00	-3.4778518517e-02
-3.0405591591e+00	 7.2831998462e+00	-2.3619879655e-02
-3.3587572106e+00	 7.6013978978e+00	-3.3799795182e-02
-3.6769552621e+00	 7.9195959493e+00	-4.0105672875e-02
-3.9951533137e+00	 8.2377940008e+00	-4.2114461264e-02
-4.3133513652e+00	 8.5559920524e+00	-3.9403098415e-02
-4.6315494168e+00	 8.8741901039e+00	-3.1548511931e-02
-4.9497474683e+00	 9.1923881554e+00	-1.8127618953e-02
-1.6263455967e+00	 6.1518289963e+00	-6.4657736758e-02
-1.9445436482e+00	 6.4700270479e+00	-5.8124696224e-02
-2.2627416998e+00	 6.7882250994e+00	-4.7472618601e-02
-2.5809397513e+00	 7.1064231509e+00	-3.2794734859e-02
-2.8991378028e+00	 7.4246212025e+00	-1.4184275476e-02
-3.2173358544e+00	 7.7428192540e+00	-2.3151327692e-02
-3.5355339059e+00	 8.0610173055e+00	-3.2512849674e-02
-3.8537319574e+00	 8.3792153571e+00	-3.7075851737e-02
-4.1719300090e+00	 8.6974134086e+00	-3.6417269051e-02
-4.4901280605e+00	 9.0156114601e+00	-3.0114026318e-02
-4.8083261121e+00	 9.3338095116e+00	-1.7743037782e-02
-1.4849242405e+00	 6.2932503526e+00	-4.7784611819e-02
-1.8031222920e+00	 6.6114484041e+00	-4.6351187395e-02
-2.1213203435e+00	 6.9296464556e+00	-4.0459023135e-02
-2.4395183951e+00	 7.2478445072e+00	-3.0201351894e-02
-2.7577164466e+00	 7.5660425587e+00	-1.5671406031e-02
-3.0759144981e+00	 7.8842406102e+00	-1.2263807361e-02
-3.3941125497e+00	 8.2024386618e+00	-2.4904028498e-02
-3.7123106012e+00	 8.5206367133e+00	-3.2244298934e-02
-4.0305086527e+00	 8.8388347648e+00	-3.3861550936e-02
-4.3487067043e+00	 9.1570328164e+00	-2.9332706312e-02
-4.6669047558e+00	 9.4752308679e+00	-1.8234676405e-02
-1.3435028842e+00	 6.4346717088e+00	-2.9687303160e-02
-1.6617009358e+00	 6.7528697603e+00	-3.3542554360e-02
-1.9798989873e+00	 7.0710678119e+00	-3.2599363568e-02
-2.2980970388e+00	 7.3892658634e+00	-2.6950965523e-02
-2.6162950904e+00	 7.7074639149e+00	-1.6690594467e-02
-2.9344931419e+00	 8.0256619665e+00	-1.9114841489e-03
-3.2526911934e+00	 8.3438600180e+00	-1.7327645442e-02
-3.5708892450e+00	 8.6620580695e+00	-2.7668239518e-02
-3.8890872965e+00	 8.9802561211e+00	-3.1784381309e-02
-4.2072853480e+00	 9.2984541726e+00	-2.9252989724e-02
-4.5254833996e+00	 9.6166522241e+00	-1.9650973205e-02
-1.2020815280e+00	 6.5760930650e+00	-1.0318407119e-02
-1.5202795795e+00	 6.8942911166e+00	-1.9651393085e-02
-1.8384776311e+00	 7.2124891681e+00	-2.3846235494e-02
-2.1566756826e+00	 7.5306872196e+00	-2.2996170968e-02
-2.4748737341e+00	 7.8488852712e+00	-1.7194435633e-02
-2.7930717857e+00	 8.1670833227e+00	-6.5342651204e-03
-3.1112698372e+00	 8.4852813742e+00	-9.8321372062e-03
-3.4294678887e+00	 8.8034794258e+00	-2.3396110765e-02
-3.7476659403e+00	 9.1216774773e+00	-3.0234198018e-02
-4.0658639918e+00	 9.4398755288e+00	-2.9923314974e-02
-4.3840620433e+00	 9.7580735804e+00	-2.2040367178e-02
-1.0606601717e+00	 6.7175144212e+00	 1.0369480649e-02
-1.3788582233e+00	 7.0357124728e+00	-4.6302988527e-03
-1.6970562748e+00	 7.3539105243e+00	-1.4152233824e-02
-2.0152543263e+00	 7.6721085758e+00	-1.8289562769e-02
-2.3334523779e+00	 7.9903066274e+00	-1.7135523697e-02
-2.6516504294e+00	 8.3085046789e+00	-1.0783354124e-02
-2.9698484809e+00	 8.6267027304e+00	-2.4659411048e-03
-3.2880465325e+00	 8.9449007820e+00	-1.9476350562e-02
-3.6062445840e+00	 9.2630988335e+00	-2.9259439522e-02
-3.9244426356e+00	 9.5812968851e+00	-3.1392121094e-02
-4.2426406871e+00	 9.8994949366e+00	-2.5451297925e-02
 0.0000000000e+00	 0.0000000000e+00	 5.4961988075e-03
-7.0710678120e-02	 7.0710678120e-02	-2.8483965160e-03
-1.4142135624e-01	 1.4142135624e-01	-1.1382188870e-02
-2.1213203436e-01	 2.1213203436e-01	-2.0105178254e-02
-2.8284271248e-01	 2.8284271248e-01	-2.9017364668e-02
-3.5355339060e-01	 3.5355339060e-01	-3.8118748113e-02
-4.2426406872e-01	 4.2426406872e-01	-4.7409328588e-02
-4.9497474684e-01	 4.9497474684e-01	-5.6889106093e-02
-5.6568542496e-01	 5.6568542496e-01	-6.6558080628e-02
-6.3639610308e-01	 6.3639610308e-01	-7.6416252194e-02
-7.0710678120e-01	 7.0710678120e-01	-8.6463620790e-02
 1.4142135624e-01	 1.4142135624e-01	-1.4687675819e-02
 7.0710678120e-02	 2.1213203436e-01	-2.2982435304e-02
-1.7293024651e-17	 2.8284271248e-01	-3.1326760354e-02
-7.0710678120e-02	 3.5355339060e-01	-3.9720650971e-02
-1.4142135624e-01	 4.2426406872e-01	-4.8164107153e-02
-2.1213203436e-01	 4.9497474684e-01	-5.6657128901e-02
-2.8284271248e-01	 5.6568542496e-01	-6.5199716214e-02
-3.5355339060e-01	 6.3639610308e-01	-7.3791869094e-02
-4.2426406872e-01	 7.0710678120e-01	-8.2433587539e-02
-4.9497474684e-01	 7.7781745932e-01	-9.1124871549e-02
-5.6568542496e-01	 8.4852813744e-01	-9.9865721125e-02
 2.8284271248e-01	 2.8284271248e-01	-3.4926091721e-02
 2.1213203436e-01	 3.5355339060e-01	-4.3343119089e-02
 1.4142135624e-01	 4.2426406872e-01	-5.1670080559e-02
 7.0710678120e-02	 4.9497474684e-01	-5.9906976129e-02
-2.6020852140e-18	 5.6568542496e-01	-6.8053805801e-02
-7.0710678120e-02	 6.3639610308e-01	-7.6110569574e-02
-1.4142135624e-01	 7.0710678120e-01	-8.4077267447e-02
-2.1213203436e-01	 7.7781745932e-01	-9.1953899422e-02
-2.8284271248e-01	 8.4852813744e-01	-9.9740465498e-02
-3.5355339060e-01	 9.1923881556e-01	-1.0743696568e-01
-4.2426406872e-01	 9.8994949368e-01	-1.1504339995e-01
 4.2426406872e-01	 4.2426406872e-01	-5.5219048899e-02
 3.5355339060e-01	 4.9497474684e-01	-6.3930447872e-02
 2.8284271248e-01	 5.6568542496e-01	-7.2412149482e-02
 2.1213203436e-01	 6.3639610308e-01	-8.0664153728e-02
 1.4142135624e-01	 7.0710678120e-01	-8.8686460611e-02
 7.0710678120e-02	 7.7781745932e-01	-9.6479070131e-02
 7.2858385991e-17	 8.4852813744e-01	-1.0404198229e-01
-7.0710678120e-02	 9.1923881556e-01	-1.1137519708e-01
-1.4142135624e-01	 9.8994949368e-01	-1.1847871451e-01
-2.1213203436e-01	 1.0606601718e+00	-1.2535253457e-01
-2.8284271248e-01	 1.1313708499e+00	-1.3199665727e-01
 5.6568542496e-01	 5.6568542496e-01	-7.5566547354e-02
 4.9497474684e-01	 6.3639610308e-01	-8.4744421654e-02
 4.2426406872e-01	 7.0710678120e-01	-9.3552967125e-02
 3.5355339060e-01	 7.7781745932e-01	-1.0199218377e-01
 2.8284271248e-01	 8.4852813744e-01	-1.1006207158e-01
 2.1213203436e-01	 9.1923881556e-01	-1.1776263057e-01
 1.4142135624e-01	 9.8994949368e-01	-1.2509386073e-01
 7.0710678120e-02	 1.0606601718e+00	-1.3205576206e-01
 6.9388939039e-17	 1.1313708499e+00	-1.3864833457e-01
-7.0710678120e-02	 1.2020815280e+00	-1.4487157824e-01
-1.4142135624e-01	 1.2727922062e+00	-1.5072549309e-01
 7.0710678120e-01	 7.0710678120e-01	-9.5968587085e-02
 6.3639610308e-01	 7.7781745932e-01	-1.0578504043e-01
 5.6568542496e-01	 8.4852813744e-01	-1.1509253349e-01
 4.9497474684e-01	 9.1923881556e-01	-1.2389106625e-01
 4.2426406872e-01	 9.8994949368e-01	-1.3218063872e-01
 3.5355339060e-01	 1.0606601718e+00	-1.3996125090e-01
 2.8284271248e-01	 1.1313708499e+00	-1.4723290278e-01
 2.1213203436e-01	 1.2020815280e+00	-1.5399559438e-01
 1.4142135624e-01	 1.2727922062e+00	-1.6024932568e-01
 7.0710678120e-02	 1.3435028843e+00	-1.6599409668e-01
 0.0000000000e+00	 1.4142135624e+00	-1.7122990740e-01
 8.4852813744e-01	 8.4852813744e-01	-1.1642516809e-01
 7.7781745932e-01	 9.1923881556e-01	-1.2705230421e-01
 7.0710678120e-01	 9.8994949368e-01	-1.3703084857e-01
 6.3639610308e-01	 1.0606601718e+00	-1.4636080117e-01
 5.6568542496e-01	 1.1313708499e+00	-1.5504216202e-01
 4.9497474684e-01	 1.2020815280e+00	-1.6307493111e-01
 4.2426406872e-01	 1.2727922062e+00	-1.7045910844e-01
 3.5355339060e-01	 1.3435028843e+00	-1.7719469402e-01
 2.8284271248e-01	 1.4142135624e+00	-1.8328168783e-01
 2.1213203436e-01	 1.4849242405e+00	-1.8872008989e-01
 1.4142135624e-01	 1.5556349186e+00	-1.9350990020e-01
 9.8994949368e-01	 9.8994949368e-01	-1.3693629038e-01
 9.1923881556e-01	 1.0606601718e+00	-1.4854621298e-01
 8.4852813744e-01	 1.1313708499e+00	-1.5936791237e-01
 7.7781745932e-01	 1.2020815280e+00	-1.6940138854e-01
 7.0710678120e-01	 1.2727922062e+00	-1.7864664148e-01
 6.3639610308e-01	 1.3435028843e+00	-1.8710367120e-01
 5.6568542496e-01	 1.4142135624e+00	-1.9477247771e-01
 4.9497474684e-01	 1.4849242405e+00	-2.0165306098e-01
 4.2426406872e-01	 1.5556349186e+00	-2.0774542104e-01
 3.5355339060e-01	 1.6263455967e+00	-2.1304955788e-01
 2.8284271248e-01	 1.6970562749e+00	-2.1756547149e-01
 1.1313708499e+00	 1.1313708499e+00	-1.5750195394e-01
 1.0606601718e+00	 1.2020815280e+00	-1.7026676676e-01
 9.8994949368e-01	 1.2727922062e+00	-1.8210372489e-01
 9.1923881556e-01	 1.3435028843e+00	-1.9301282834e-01
 8.4852813744e-01	 1.4142135624e+00	-2.0299407711e-01
 7.7781745932e-01	 1.4849242405e+00	-2.1204747119e-01
 7.0710678120e-01	 1.5556349186e+00	-2.2017301058e-01
 6.3639610308e-01	 1.6263455967e+00	-2.2737069528e-01
 5.6568542496e-01	 1.6970562749e+00	-2.3364052530e-01
 4.9497474684e-01	 1.7677669530e+00	-2.3898250063e-01
 4.2426406872e-01	 1.8384776311e+00	-2.4339662128e-01
 1.2727922062e+00	 1.2727922062e+00	-1.7812215877e-01
 1.2020815280e+00	 1.3435028843e+00	-1.9221396553e-01
 1.1313708499e+00	 1.4142135624e+00	-2.0523828613e-01
 1.0606601718e+00	 1.4849242405e+00	-2.1719512059e-01
 9.8994949368e-01	 1.5556349186e+00	-2.2808446890e-01
 9.1923881556e-01	 1.6263455967e+00	-2.3790633105e-01
 8.4852813744e-01	 1.6970562749e+00	-2.4666070705e-01
 7.7781745932e-01	 1.7677669530e+00	-2.5434759691e-01
 7.0710678120e-01	 1.8384776311e+00	-2.6096700061e-01
 6.3639610308e-01	 1.9091883092e+00	-2.6651891816e-01
 5.6568542496e-01	 1.9798989873e+00	-2.7100334956e-01
 1.4142135624e+00	 1.4142135624e+00	-1.9879690488e-01
 1.3435028843e+00	 1.4849242405e+00	-2.1438780930e-01
 1.2727922062e+00	 1.5556349186e+00	-2.2877159609e-01
 1.2020815280e+00	 1.6263455968e+00	-2.4194826528e-01
 1.1313708499e+00	 1.6970562749e+00	-2.5391781685e-01
 1.0606601718e+00	 1.7677669530e+00	-2.6468025080e-01
 9.8994949368e-01	 1.8384776311e+00	-2.7423556714e-01
 9.1923881556e-01	 1.9091883092e+00	-2.8258376586e-01
 8.4852813744e-01	 1.9798989873e+00	-2.8972484697e-01
 7.7781745932e-01	 2.0506096654e+00	-2.9565881046e-01
 7.0710678120e-01	 2.1213203435e+00	-3.0038565633e-01
 1.4142135624e+00	 1.4142135624e+00	-1.9879690488e-01
 1.3435028843e+00	 1.4849242405e+00	-2.1438780930e-01
 1.2727922062e+00	 1.5556349186e+00	-2.2877159609e-01
 1.2020815280e+00	 1.6263455968e+00	-2.4194826528e-01
 1.1313708499e+00	 1.6970562749e+00	-2.5391781685e-01
 1.0606601718e+00	 1.7677669530e+00	-2.6468025080e-01
 9.8994949368e-01	 1.8384776311e+00	-2.7423556714e-01
 9.1923881556e-01	 1.9091883092e+00	-2.8258376586e-01
 8.4852813744e-01	 1.9798989873e+00	-2.8972484697e-01
 7.7781745932e-01	 2.0506096654e+00	-2.9565881046e-01
 7.0710678120e-01	 2.1213203435e+00	-3.0038565633e-01
 1.5556349186e+00	 1.5556349186e+00	-2.3273253435e-01
 1.4849242405e+00	 1.6263455968e+00	-2.4447255117e-01
 1.4142135624e+00	 1.6970562749e+00	-2.5513233527e-01
 1.3435028843e+00	 1.7677669530e+00	-2.6471188663e-01
 1.2727922062e+00	 1.8384776311e+00	-2.7321120527e-01
 1.2020815280e+00	 1.9091883092e+00	-2.8063029118e-01
 1.1313708499e+00	 1.9798989873e+00	-2.8696914435e-01
 1.0606601718e+00	 2.0506096655e+00	-2.9222776480e-01
 9.8994949368e-01	 2.1213203436e+00	-2.9640615252e-01
 9.1923881556e-01	 2.1920310217e+00	-2.9950430751e-01
 8.4852813744e-01	 2.2627416998e+00	-3.0152222977e-01
 1.6970562749e+00	 1.6970562749e+00	-2.6985020849e-01
 1.6263455968e+00	 1.7677669530e+00	-2.7795980294e-01
 1.5556349186e+00	 1.8384776311e+00	-2.8511604955e-01
 1.4849242405e+00	 1.9091883092e+00	-2.9131894831e-01
 1.4142135624e+00	 1.9798989873e+00	-2.9656849923e-01
 1.3435028843e+00	 2.0506096655e+00	-3.0086470231e-01
 1.2727922062e+00	 2.1213203436e+00	-3.0420755754e-01
 1.2020815280e+00	 2.1920310217e+00	-3.0659706493e-01
 1.1313708499e+00	 2.2627416998e+00	-3.0803322448e-01
 1.0606601718e+00	 2.3334523779e+00	-3.0851603618e-01
 9.8994949368e-01	 2.4041630560e+00	-3.0804550004e-01
 1.8384776311e+00	 1.8384776311e+00	-3.1014992730e-01
 1.7677669530e+00	 1.9091883092e+00	-3.1484956459e-01
 1.6970562749e+00	 1.9798989873e+00	-3.1872273893e-01
 1.6263455968e+00	 2.0506096655e+00	-3.2176945031e-01
 1.5556349186e+00	 2.1213203436e+00	-3.2398969873e-01
 1.4849242405e+00	 2.1920310217e+00	-3.2538348419e-01
 1.4142135624e+00	 2.2627416998e+00	-3.2595080670e-01
 1.3435028843e+00	 2.3334523779e+00	-3.2569166624e-01
 1.2727922062e+00	 2.4041630560e+00	-3.2460606283e-01
 1.2020815280e+00	 2.4748737341e+00	-3.2269399647e-01
 1.1313708499e+00	 2.5455844122e+00	-3.1995546714e-01
 1.9798989873e+00	 1.9798989873e+00	-3.5363169078e-01
 1.9091883092e+00	 2.0506096655e+00	-3.5514183614e-01
 1.8384776311e+00	 2.1213203436e+00	-3.5595240342e-01
 1.7677669530e+00	 2.1920310217e+00	-3.5606339263e-01
 1.6970562749e+00	 2.2627416998e+00	-3.5547480376e-01
 1.6263455968e+00	 2.3334523779e+00	-3.5418663683e-01
 1.5556349186e+00	 2.4041630560e+00	-3.5219889182e-01
 1.4849242405e+00	 2.4748737342e+00	-3.4951156874e-01
 1.4142135624e+00	 2.5455844123e+00	-3.4612466760e-01
 1.3435028843e+00	 2.6162950904e+00	-3.4203818837e-01
 1.2727922062e+00	 2.6870057685e+00	-3.3725213108e-01
 2.1213203436e+00	 2.1213203436e+00	-4.0029549894e-01
 2.0506096655e+00	 2.1920310217e+00	-3.9883661757e-01
 1.9798989873e+00	 2.2627416998e+00	-3.9680504301e-01
 1.9091883092e+00	 2.3334523779e+00	-3.9420077527e-01
 1.8384776311e+00	 2.4041630560e+00	-3.9102381434e-01
 1.7677669530e+00	 2.4748737342e+00	-3.8727416022e-01
 1.6970562749e+00	 2.5455844123e+00	-3.8295181292e-01
 1.6263455968e+00	 2.6162950904e+00	-3.7805677243e-01
 1.5556349186e+00	 2.6870057685e+00	-3.7258903876e-01
 1.4849242405e+00	 2.7577164466e+00	-3.6654861190e-01
 1.4142135624e+00	 2.8284271247e+00	-3.5993549185e-01
 2.2627416998e+00	 2.2627416998e+00	-4.5014135177e-01
 2.1920310217e+00	 2.3334523779e+00	-4.4593390889e-01
 2.1213203436e+00	 2.4041630560e+00	-4.4128065771e-01
 2.0506096655e+00	 2.4748737342e+00	-4.3618159823e-01
 1.9798989873e+00	 2.5455844123e+00	-4.3063673044e-01
 1.9091883092e+00	 2.6162950904e+00	-4.2464605436e-01
 1.8384776311e+00	 2.6870057685e+00	-4.1820956998e-01
 1.7677669530e+00	 2.7577164466e+00	-4.1132727730e-01
 1.6970562749e+00	 2.8284271247e+00	-4.0399917632e-01
 1.6263455968e+00	 2.8991378028e+00	-3.9622526704e-01
 1.5556349186e+00	 2.9698484809e+00	-3.8800554946e-01
 2.4041630560e+00	 2.4041630560e+00	-5.0316924928e-01
 2.3334523779e+00	 2.4748737342e+00	-4.9643371010e-01
 2.2627416998e+00	 2.5455844123e+00	-4.8937924751e-01
 2.1920310217e+00	 2.6162950904e+00	-4.8200586151e-01
 2.1213203436e+00	 2.6870057685e+00	-4.7431355209e-01
 2.0506096655e+00	 2.7577164466e+00	-4.6630231926e-01
 1.9798989874e+00	 2.8284271247e+00	-4.5797216301e-01
 1.9091883092e+00	 2.8991378028e+00	-4.4932308335e-01
 1.8384776311e+00	 2.9698484810e+00	-4.4035508028e-01
 1.7677669530e+00	 3.0405591591e+00	-4.3106815379e-01
 1.6970562749e+00	 3.1112698372e+00	-4.2146230389e-01
 2.5455844123e+00	 2.5455844123e+00	-5.5937919145e-01
 2.4748737341e+00	 2.6162950904e+00	-5.5033602120e-01
 2.4041630560e+00	 2.6870057685e+00	-5.4110081242e-01
 2.3334523779e+00	 2.7577164466e+00	-5.3167356511e-01
 2.2627416998e+00	 2.8284271247e+00	-5.2205427927e-01
 2.1920310217e+00	 2.8991378028e+00	-5.1224295490e-01
 2.1213203436e+00	 2.9698484810e+00	-5.0223959200e-01
 2.0506096655e+00	 3.0405591591e+00	-4.9204419058e-01
 1.9798989874e+00	 3.1112698372e+00	-4.8165675063e-01
 1.9091883092e+00	 3.1819805153e+00	-4.7107727216e-01
 1.8384776311e+00	 3.2526911934e+00	-4.6030575515e-01
 2.6870057685e+00	 2.6870057685e+00	-6.1877117830e-01
 2.6162950904e+00	 2.7577164466e+00	-6.0764084218e-01
 2.5455844123e+00	 2.8284271247e+00	-5.9644535243e-01
 2.4748737342e+00	 2.8991378028e+00	-5.8518470902e-01
 2.4041630561e+00	 2.9698484810e+00	-5.7385891198e-01
 2.3334523779e+00	 3.0405591591e+00	-5.6246796129e-01
 2.2627416998e+00	 3.1112698372e+00	-5.5101185696e-01
 2.1920310217e+00	 3.1819805153e+00	-5.3949059899e-01
 2.1213203436e+00	 3.2526911934e+00	-5.2790418738e-01
 2.0506096655e+00	 3.3234018715e+00	-5.1625262213e-01
 1.9798989874e+00	 3.3941125497e+00	-5.0453590324e-01
 2.8284271247e+00	 2.8284271247e+00	-6.8134520982e-01
 2.7577164466e+00	 2.8991378028e+00	-6.6834817306e-01
 2.6870057685e+00	 2.9698484809e+00	-6.5541286754e-01
 2.6162950904e+00	 3.0405591591e+00	-6.4253929326e-01
 2.5455844123e+00	 3.1112698372e+00	-6.2972745023e-01
 2.4748737342e+00	 3.1819805153e+00	-6.1697733844e-01
 2.4041630561e+00	 3.2526911934e+00	-6.0428895789e-01
 2.3334523780e+00	 3.3234018715e+00	-5.9166230859e-01
 2.2627416998e+00	 3.3941125497e+00	-5.7909739053e-01
 2.1920310217e+00	 3.4648232278e+00	-5.6724540615e-01
 2.1213203436e+00	 3.5355339059e+00	-5.5765787568e-01
 7.0710678120e-01	-7.0710678120e-01	-1.0898557619e-01
 6.3639610308e-01	-6.3639610308e-01	-9.4084411273e-02
 5.6568542496e-01	-5.6568542496e-01	-7.9763969136e-02
 4.9497474684e-01	-4.9497474684e-01	-6.6024249783e-02
 4.2426406872e-01	-4.2426406872e-01	-5.2865253214e-02
 3.5355339060e-01	-3.5355339060e-01	-4.0286979429e-02
 2.8284271248e-01	-2.8284271248e-01	-2.8289428427e-02
 2.1213203436e-01	-2.1213203436e-01	-1.6872600209e-02
 1.4142135624e-01	-1.4142135624e-01	-6.0364947756e-03
 7.0710678120e-02	-7.0710678120e-02	 4.2188878745e-03
 0.0000000000e+00	 0.0000000000e+00	 1.3893547741e-02
 8.4852813744e-01	-5.6568542496e-01	-8.9801950744e-02
 7.7781745932e-01	-4.9497474684e-01	-7.4878320688e-02
 7.0710678120e-01	-4.2426406872e-01	-6.0538063661e-02
 6.3639610308e-01	-3.5355339060e-01	-4.6781179663e-02
 5.6568542496e-01	-2.8284271248e-01	-3.3607668694e-02
 4.9497474684e-01	-2.1213203436e-01	-2.1017530754e-02
 4.2426406872e-01	-1.4142135624e-01	-9.0107658440e-03
 3.5355339060e-01	-7.0710678120e-02	 2.4126260374e-03
 2.8284271248e-01	-6.0715321659e-17	 1.3252644890e-02
 2.1213203436e-01	 7.0710678120e-02	 2.3509290713e-02
 1.4142135624e-01	 1.4142135624e-01	 3.3182563507e-02
 9.8994949368e-01	-4.2426406872e-01	-7.0462279834e-02
 9.1923881556e-01	-3.5355339060e-01	-5.5579150227e-02
 8.4852813744e-01	-2.8284271248e-01	-4.1282043895e-02
 7.7781745932e-01	-2.1213203436e-01	-2.7570960836e-02
 7.0710678120e-01	-1.4142135624e-01	-1.4445901053e-02
 6.3639610308e-01	-7.0710678120e-02	-1.9068645436e-03
 5.6568542496e-01	-1.0408340856e-17	 1.0046148691e-02
 4.9497474684e-01	 7.0710678120e-02	 2.1413138652e-02
 4.2426406872e-01	 1.4142135624e-01	 3.2194105337e-02
 3.5355339060e-01	 2.1213203436e-01	 4.2389048749e-02
 2.8284271248e-01	 2.8284271248e-01	 5.1997968886e-02
 1.1313708499e+00	-2.8284271248e-01	-5.0966563465e-02
 1.0606601718e+00	-2.1213203436e-01	-3.6186899892e-02
 9.8994949368e-01	-1.4142135624e-01	-2.1995909838e-02
 9.1923881556e-01	-7.0710678120e-02	-8.3935933043e-03
 8.4852813744e-01	 9.0205620751e-17	 4.6200497096e-03
 7.7781745932e-01	 7.0710678120e-02	 1.7045019204e-02
 7.0710678120e-01	 1.4142135624e-01	 2.8881315178e-02
 6.3639610308e-01	 2.1213203436e-01	 4.0128937633e-02
 5.6568542496e-01	 2.8284271248e-01	 5.0787886568e-02
 4.9497474684e-01	 3.5355339060e-01	 6.0858161983e-02
 4.2426406872e-01	 4.2426406872e-01	 7.0339763879e-02
 1.2727922062e+00	-1.4142135624e-01	-3.1314801637e-02
 1.2020815280e+00	-7.0710678120e-02	-1.6701569681e-02
 1.1313708499e+00	 2.5153490402e-17	-2.6796614914e-03
 1.0606601718e+00	 7.0710678120e-02	 1.0750922933e-02
 9.8994949368e-01	 1.4142135624e-01	 2.3590183593e-02
 9.1923881556e-01	 2.1213203436e-01	 3.5838120488e-02
 8.4852813744e-01	 2.8284271248e-01	 4.7494733617e-02
 7.7781745932e-01	 3.5355339060e-01	 5.8560022982e-02
 7.0710678120e-01	 4.2426406872e-01	 6.9033988581e-02
 6.3639610308e-01	 4.9497474684e-01	 7.8916630415e-02
 5.6568542496e-01	 5.6568542496e-01	 8.8207948485e-02
 1.4142135624e+00	 0.0000000000e+00	-1.1506994349e-02
 1.3435028843e+00	 7.0710678120e-02	 2.8768404038e-03
 1.2727922062e+00	 1.4142135624e-01	 1.6666701146e-02
 1.2020815280e+00	 2.1213203436e-01	 2.9862587877e-02
 1.1313708499e+00	 2.8284271248e-01	 4.2464500598e-02
 1.0606601718e+00	 3.5355339060e-01	 5.4472439308e-02
 9.8994949368e-01	 4.2426406872e-01	 6.5886404008e-02
 9.1923881556e-01	 4.9497474684e-01	 7.6706394697e-02
 8.4852813744e-01	 5.6568542496e-01	 8.6932411377e-02
 7.7781745932e-01	 6.3639610308e-01	 9.6564454046e-02
 7.0710678120e-01	 7.0710678120e-01	 1.0560252270e-01
 1.5556349186e+00	 1.4142135624e-01	 8.4568583988e-03
 1.4849242405e+00	 2.1213203436e-01	 2.2548330364e-02
 1.4142135624e+00	 2.8284271248e-01	 3.6043178073e-02
 1.3435028843e+00	 3.5355339060e-01	 4.8941401526e-02
 1.2727922062e+00	 4.2426406872e-01	 6.1243000723e-02
 1.2020815280e+00	 4.9497474684e-01	 7.2947975664e-02
 1.1313708499e+00	 5.6568542496e-01	 8.4056326350e-02
 1.0606601718e+00	 6.3639610308e-01	 9.4568052780e-02
 9.8994949368e-01	 7.0710678120e-01	 1.0448315495e-01
 9.1923881556e-01	 7.7781745932e-01	 1.1380163287e-01
 8.4852813744e-01	 8.4852813744e-01	 1.2252348654e-01
 1.6970562749e+00	 2.8284271248e-01	 2.8576756605e-02
 1.6263455967e+00	 3.5355339060e-01	 4.2312900198e-02
 1.5556349186e+00	 4.2426406872e-01	 5.5449769290e-02
 1.4849242405e+00	 4.9497474684e-01	 6.7987363880e-02
 1.4142135624e+00	 5.6568542496e-01	 7.9925683969e-02
 1.3435028843e+00	 6.3639610308e-01	 9.1264729557e-02
 1.2727922062e+00	 7.0710678120e-01	 1.0200450064e-01
 1.2020815280e+00	 7.7781745932e-01	 1.1214499723e-01
 1.1313708499e+00	 8.4852813744e-01	 1.2168621932e-01
 1.0606601718e+00	 9.1923881556e-01	 1.3062816690e-01
 9.8994949368e-01	 9.8994949368e-01	 1.3897083998e-01
 1.8384776311e+00	 4.2426406872e-01	 4.8852700271e-02
 1.7677669530e+00	 4.9497474684e-01	 6.2170549907e-02
 1.6970562749e+00	 5.6568542496e-01	 7.4886474797e-02
 1.6263455967e+00	 6.3639610308e-01	 8.7000474940e-02
 1.5556349186e+00	 7.0710678120e-01	 9.8512550336e-02
 1.4849242405e+00	 7.7781745932e-01	 1.0942270099e-01
 1.4142135624e+00	 8.4852813744e-01	 1.1973092689e-01
 1.3435028843e+00	 9.1923881556e-01	 1.2943722805e-01
 1.2727922062e+00	 9.8994949368e-01	 1.3854160446e-01
 1.2020815280e+00	 1.0606601718e+00	 1.4704405612e-01
 1.1313708499e+00	 1.1313708499e+00	 1.5494458304e-01
 1.9798989873e+00	 5.6568542496e-01	 6.9284689396e-02
 1.9091883092e+00	 6.3639610308e-01	 8.2121279491e-02
 1.8384776311e+00	 7.0710678120e-01	 9.4353294594e-02
 1.7677669530e+00	 7.7781745932e-01	 1.0598073471e-01
 1.6970562749e+00	 8.4852813744e-01	 1.1700359982e-01
 1.6263455967e+00	 9.1923881556e-01	 1.2742188995e-01
 1.5556349186e+00	 9.8994949368e-01	 1.3723560509e-01
 1.4849242405e+00	 1.0606601718e+00	 1.4644474523e-01
 1.4142135624e+00	 1.1313708499e+00	 1.5504931038e-01
 1.3435028843e+00	 1.2020815280e+00	 1.6304930055e-01
 1.2727922062e+00	 1.2727922062e+00	 1.7044471572e-01
 2.1213203435e+00	 7.0710678120e-01	 8.9872723980e-02
 2.0506096654e+00	 7.7781745932e-01	 1.0216508895e-01
 1.9798989873e+00	 8.4852813744e-01	 1.1385022868e-01
 1.9091883092e+00	 9.1923881556e-01	 1.2492814318e-01
 1.8384776311e+00	 9.8994949368e-01	 1.3539883243e-01
 1.7677669530e+00	 1.0606601718e+00	 1.4526229645e-01
 1.6970562749e+00	 1.1313708499e+00	 1.5451853524e-01
 1.6263455968e+00	 1.2020815280e+00	 1.6316754878e-01
 1.5556349186e+00	 1.2727922062e+00	 1.7120933709e-01
 1.4849242405e+00	 1.3435028843e+00	 1.7864390017e-01
 1.4142135624e+00	 1.4142135624e+00	 1.8547123800e-01
 2.1213203435e+00	 7.0710678120e-01	 8.9872723980e-02
 2.0506096654e+00	 7.7781745932e-01	 1.0216508895e-01
 1.9798989873e+00	 8.4852813744e-01	 1.1385022868e-01
 1.9091883092e+00	 9.1923881556e-01	 1.2492814318e-01
 1.8384776311e+00	 9.8994949368e-01	 1.3539883243e-01
 1.7677669530e+00	 1.0606601718e+00	 1.4526229645e-01
 1.6970562749e+00	 1.1313708499e+00	 1.5451853524e-01
 1.6263455968e+00	 1.2020815280e+00	 1.6316754878e-01
 1.5556349186e+00	 1.2727922062e+00	 1.7120933709e-01
 1.4849242405e+00	 1.3435028843e+00	 1.7864390017e-01
 1.4142135624e+00	 1.4142135624e+00	 1.8547123800e-01
 2.2627416998e+00	 8.4852813744e-01	 8.9134259493e-02
 2.1920310217e+00	 9.1923881556e-01	 1.0978295500e-01
 2.1213203436e+00	 9.8994949368e-01	 1.2896856480e-01
 2.0506096655e+00	 1.0606601718e+00	 1.4669108891e-01
 1.9798989873e+00	 1.1313708499e+00	 1.6295052732e-01
 1.9091883092e+00	 1.2020815280e+00	 1.7774688003e-01
 1.8384776311e+00	 1.2727922062e+00	 1.9108014704e-01
 1.7677669530e+00	 1.3435028843e+00	 2.0295032835e-01
 1.6970562749e+00	 1.4142135624e+00	 2.1335742397e-01
 1.6263455968e+00	 1.4849242405e+00	 2.2230143389e-01
 1.5556349186e+00	 1.5556349186e+00	 2.2978235811e-01
 2.4041630560e+00	 9.8994949368e-01	 8.6379510092e-02
 2.3334523779e+00	 1.0606601718e+00	 1.1527453238e-01
 2.2627416998e+00	 1.1313708499e+00	 1.4185060851e-01
 2.1920310217e+00	 1.2020815280e+00	 1.6610773848e-01
 2.1213203436e+00	 1.2727922062e+00	 1.8804592229e-01
 2.0506096655e+00	 1.3435028843e+00	 2.0766515994e-01
 1.9798989873e+00	 1.4142135624e+00	 2.2496545143e-01
 1.9091883092e+00	 1.4849242405e+00	 2.3994679677e-01
 1.8384776311e+00	 1.5556349186e+00	 2.5260919594e-01
 1.7677669530e+00	 1.6263455968e+00	 2.6295264896e-01
 1.6970562749e+00	 1.6970562749e+00	 2.7097715582e-01
 2.5455844122e+00	 1.1313708499e+00	 8.1608475776e-02
 2.4748737341e+00	 1.2020815280e+00	 1.1863982110e-01
 2.4041630560e+00	 1.2727922062e+00	 1.5249635980e-01
 2.3334523779e+00	 1.3435028843e+00	 1.8317809189e-01
 2.2627416998e+00	 1.4142135624e+00	 2.1068501735e-01
 2.1920310217e+00	 1.4849242405e+00	 2.3501713619e-01
 2.1213203436e+00	 1.5556349186e+00	 2.5617444842e-01
 2.0506096655e+00	 1.6263455968e+00	 2.7415695402e-01
 1.9798989873e+00	 1.6970562749e+00	 2.8896465301e-01
 1.9091883092e+00	 1.7677669530e+00	 3.0059754537e-01
 1.8384776311e+00	 1.8384776311e+00	 3.0905563111e-01
 2.6870057685e+00	 1.2727922062e+00	 7.4821156549e-02
 2.6162950904e+00	 1.3435028843e+00	 1.1987882116e-01
 2.5455844123e+00	 1.4142135624e+00	 1.6090581868e-01
 2.4748737342e+00	 1.4849242405e+00	 1.9790214913e-01
 2.4041630560e+00	 1.5556349186e+00	 2.3086781250e-01
 2.3334523779e+00	 1.6263455968e+00	 2.5980280879e-01
 2.2627416998e+00	 1.6970562749e+00	 2.8470713799e-01
 2.1920310217e+00	 1.7677669530e+00	 3.0558080012e-01
 2.1213203436e+00	 1.8384776311e+00	 3.2242379516e-01
 2.0506096655e+00	 1.9091883092e+00	 3.3523612312e-01
 1.9798989873e+00	 1.9798989873e+00	 3.4401778401e-01
 2.8284271247e+00	 1.4142135624e+00	 6.6017552409e-02
 2.7577164466e+00	 1.4849242405e+00	 1.1899153255e-01
 2.6870057685e+00	 1.5556349186e+00	 1.6707898516e-01
 2.6162950904e+00	 1.6263455968e+00	 2.1027991022e-01
 2.5455844123e+00	 1.6970562749e+00	 2.4859430774e-01
 2.4748737342e+00	 1.7677669530e+00	 2.8202217772e-01
 2.4041630560e+00	 1.8384776311e+00	 3.1056352016e-01
 2.3334523779e+00	 1.9091883092e+00	 3.3421833506e-01
 2.2627416998e+00	 1.9798989873e+00	 3.5298662241e-01
 2.1920310217e+00	 2.0506096655e+00	 3.6686838222e-01
 2.1213203436e+00	 2.1213203436e+00	 3.7586361449e-01
 2.9698484809e+00	 1.5556349186e+00	 5.7037477307e-02
 2.8991378028e+00	 1.6263455968e+00	 1.1597795529e-01
 2.8284271247e+00	 1.6970562749e+00	 1.7101585922e-01
 2.7577164466e+00	 1.7677669530e+00	 2.2031137514e-01
 2.6870057685e+00	 1.8384776311e+00	 2.6386450307e-01
 2.6162950904e+00	 1.9091883092e+00	 3.0167524299e-01
 2.5455844123e+00	 1.9798989873e+00	 3.3374359492e-01
 2.4748737342e+00	 2.0506096655e+00	 3.6006955884e-01
 2.4041630560e+00	 2.1213203436e+00	 3.8065313475e-01
 2.3334523779e+00	 2.1920310217e+00	 3.9549432266e-01
 2.2627416998e+00	 2.2627416998e+00	 4.0459312257e-01
 3.1112698372e+00	 1.6970562749e+00	 5.3569189758e-02
 3.0405591591e+00	 1.7677669530e+00	 1.1742686322e-01
 2.9698484810e+00	 1.8384776311e+00	 1.7463822997e-01
 2.8991378028e+00	 1.9091883092e+00	 2.2799654391e-01
 2.8284271247e+00	 1.9798989874e+00	 2.7667839849e-01
 2.7577164466e+00	 2.0506096655e+00	 3.1876200461e-01
 2.6870057685e+00	 2.1213203436e+00	 3.5424736227e-01
 2.6162950904e+00	 2.1920310217e+00	 3.8313447146e-01
 2.5455844123e+00	 2.2627416998e+00	 4.0542333219e-01
 2.4748737342e+00	 2.3334523779e+00	 4.2111394445e-01
 2.4041630560e+00	 2.4041630560e+00	 4.3020630825e-01
 3.2526911934e+00	 1.8384776311e+00	 4.8668989274e-02
 3.1819805153e+00	 1.9091883092e+00	 1.2000265156e-01
 3.1112698372e+00	 1.9798989874e+00	 1.8383785922e-01
 3.0405591591e+00	 2.0506096655e+00	 2.4017869294e-01
 2.9698484810e+00	 2.1213203436e+00	 2.8902923340e-01
 2.8991378028e+00	 2.1920310217e+00	 3.3328246257e-01
 2.8284271247e+00	 2.2627416998e+00	 3.7207482221e-01
 2.7577164466e+00	 2.3334523779e+00	 4.0341307293e-01
 2.6870057685e+00	 2.4041630560e+00	 4.2729721472e-01
 2.6162950904e+00	 2.4748737341e+00	 4.4372724758e-01
 2.5455844123e+00	 2.5455844123e+00	 4.5270317152e-01
 3.3941125497e+00	 1.9798989874e+00	 4.2292325348e-02
 3.3234018715e+00	 2.0506096655e+00	 1.2098653179e-01
 3.2526911934e+00	 2.1213203436e+00	 1.9133013571e-01
 3.1819805153e+00	 2.1920310217e+00	 2.5332721776e-01
 3.1112698372e+00	 2.2627416998e+00	 3.0698185863e-01
 3.0405591591e+00	 2.3334523779e+00	 3.5229813900e-01
 2.9698484810e+00	 2.4041630561e+00	 3.8928013956e-01
 2.8991378028e+00	 2.4748737342e+00	 4.2090536324e-01
 2.8284271247e+00	 2.5455844123e+00	 4.4627478234e-01
 2.7577164466e+00	 2.6162950904e+00	 4.6333423206e-01
 2.6870057685e+00	 2.6870057685e+00	 4.7208371238e-01
 3.5355339059e+00	 2.1213203436e+00	 3.4394647470e-02
 3.4648232278e+00	 2.1920310217e+00	 1.2033395343e-01
 3.3941125497e+00	 2.2627416998e+00	 1.9707050893e-01
 3.3234018715e+00	 2.3334523780e+00	 2.6460839466e-01
 3.2526911934e+00	 2.4041630561e+00	 3.2295169129e-01
 3.1819805153e+00	 2.4748737342e+00	 3.7210447950e-01
 3.1112698372e+00	 2.5455844123e+00	 4.1207083997e-01
 3.0405591591e+00	 2.6162950904e+00	 4.4285485339e-01
 2.9698484809e+00	 2.6870057685e+00	 4.6446060042e-01
 2.8991378028e+00	 2.7577164466e+00	 4.7993489787e-01
 2.8284271247e+00	 2.8284271247e+00	 4.8834793084e-01
 7.0710678119e+00	-7.0710678119e+00	-9.8027979906e-02
 6.7528697604e+00	-6.7528697604e+00	-1.0039853991e-01
 6.4346717088e+00	-6.4346717088e+00	-1.0375478284e-01
 6.1164736573e+00	-6.1164736573e+00	-1.0851974807e-01
 5.7982756057e+00	-5.7982756057e+00	-1.1511646452e-01
 5.4800775542e+00	-5.4800775542e+00	-1.2396795065e-01
 5.1618795027e+00	-5.1618795027e+00	-1.3549721447e-01
 4.8436814511e+00	-4.8436814511e+00	-1.5012725350e-01
 4.5254833996e+00	-4.5254833996e+00	-1.6828105483e-01
 4.2072853481e+00	-4.2072853481e+00	-1.9038159507e-01
 3.8890872966e+00	-3.8890872966e+00	-2.1685184039e-01
 7.2124891681e+00	-6.9296464557e+00	-1.0522881942e-01
 6.8942911166e+00	-6.6114484041e+00	-1.0698168275e-01
 6.5760930651e+00	-6.2932503526e+00	-1.0988761534e-01
 6.2578950135e+00	-5.9750523010e+00	-1.1436965366e-01
 5.9396969620e+00	-5.6568542495e+00	-1.2085082374e-01
 5.6214989105e+00	-5.3386561980e+00	-1.2975414114e-01
 5.3033008589e+00	-5.0204581464e+00	-1.4150261096e-01
 4.9851028074e+00	-4.7022600949e+00	-1.5651922785e-01
 4.6669047558e+00	-4.3840620434e+00	-1.7522697597e-01
 4.3487067043e+00	-4.0658639918e+00	-1.9804882906e-01
 4.0305086528e+00	-3.7476659403e+00	-2.2540775038e-01
 7.3539105244e+00	-6.7882250994e+00	-1.1262801805e-01
 7.0357124728e+00	-6.4700270479e+00	-1.1351799520e-01
 6.7175144213e+00	-6.1518289963e+00	-1.1572842777e-01
 6.3993163698e+00	-5.8336309448e+00	-1.1968234934e-01
 6.0811183182e+00	-5.5154328933e+00	-1.2580278303e-01
 5.7629202667e+00	-5.1972348417e+00	-1.3451274152e-01
 5.4447222152e+00	-4.8790367902e+00	-1.4623522699e-01
 5.1265241636e+00	-4.5608387387e+00	-1.6139323120e-01
 4.8083261121e+00	-4.2426406871e+00	-1.8040973543e-01
 4.4901280605e+00	-3.9244426356e+00	-2.0370771049e-01
 4.1719300090e+00	-3.6062445841e+00	-2.3171012317e-01
 7.4953318806e+00	-6.6468037432e+00	-1.2017714838e-01
 7.1771338291e+00	-6.3286056916e+00	-1.1995905042e-01
 6.8589357775e+00	-6.0104076401e+00	-1.2122879387e-01
 6.5407377260e+00	-5.6922095886e+00	-1.2440940941e-01
 6.2225396745e+00	-5.3740115370e+00	-1.2992391728e-01
 5.9043416229e+00	-5.0558134855e+00	-1.3819532723e-01
 5.5861435714e+00	-4.7376154340e+00	-1.4964663857e-01
 5.2679455199e+00	-4.4194173824e+00	-1.6470084015e-01
 4.9497474683e+00	-4.1012193309e+00	-1.8378091036e-01
 4.6315494168e+00	-3.7830212794e+00	-2.0730981711e-01
 4.3133513652e+00	-3.4648232278e+00	-2.3571051795e-01
 7.6367532369e+00	-6.5053823869e+00	-1.2782778363e-01
 7.3185551853e+00	-6.1871843354e+00	-1.2625642219e-01
 7.0003571338e+00	-5.8689862839e+00	-1.2634028799e-01
 6.6821590822e+00	-5.5507882323e+00	-1.2850240880e-01
 6.3639610307e+00	-5.2325901808e+00	-1.3316580196e-01
 6.0457629792e+00	-4.9143921293e+00	-1.4075347434e-01
 5.7275649276e+00	-4.5961940777e+00	-1.5168842234e-01
 5.4093668761e+00	-4.2779960262e+00	-1.6639363191e-01
 5.0911688246e+00	-3.9597979747e+00	-1.8529207855e-01
 4.7729707730e+00	-3.6415999231e+00	-2.0880672726e-01
 4.4547727215e+00	-3.3234018716e+00	-2.3957571515e-01
 7.7781745931e+00	-6.3639610307e+00	-1.3553149760e-01
 7.4599765416e+00	-6.0457629792e+00	-1.3236168490e-01
 7.1417784900e+00	-5.7275649276e+00	-1.3101448507e-01
 6.8235804385e+00	-5.4093668761e+00	-1.3191292303e-01
 6.5053823869e+00	-5.0911688245e+00	-1.3548001319e-01
 6.1871843354e+00	-4.7729707730e+00	-1.4213875953e-01
 5.8689862839e+00	-4.4547727215e+00	-1.5231215555e-01
 5.5507882323e+00	-4.1365746699e+00	-1.6642318430e-01
 5.2325901808e+00	-3.8183766184e+00	-1.8489481838e-01
 4.9143921293e+00	-3.5001785669e+00	-2.0815002028e-01
 4.5961940777e+00	-3.1819805153e+00	-2.4084259921e-01
 7.9195959493e+00	-6.2225396745e+00	-1.4323986471e-01
 7.6013978978e+00	-5.9043416229e+00	-1.3822641352e-01
 7.2831998462e+00	-5.5861435714e+00	-1.3520296070e-01
 6.9650017947e+00	-5.2679455198e+00	-1.3459252824e-01
 6.6468037432e+00	-4.9497474683e+00	-1.3681812767e-01
 6.3286056916e+00	-4.6315494168e+00	-1.4230276007e-01
 6.0104076401e+00	-4.3133513652e+00	-1.5146941604e-01
 5.6922095886e+00	-3.9951533137e+00	-1.6474107574e-01
 5.3740115370e+00	-3.6769552622e+00	-1.8254070886e-01
 5.0558134855e+00	-3.3587572106e+00	-2.0663883513e-01
 4.7376154339e+00	-3.0405591591e+00	-2.3922791765e-01
 8.0610173056e+00	-6.0811183182e+00	-1.5090445999e-01
 7.7428192540e+00	-5.7629202667e+00	-1.4380218367e-01
 7.4246212025e+00	-5.4447222151e+00	-1.3885729103e-01
 7.1064231509e+00	-5.1265241636e+00	-1.3649280117e-01
 6.7882250994e+00	-4.8083261121e+00	-1.3713172272e-01
 6.4700270479e+00	-4.4901280605e+00	-1.4119705386e-01
 6.1518289963e+00	-4.1719300090e+00	-1.4911178229e-01
 5.8336309448e+00	-3.8537319575e+00	-1.6129888527e-01
 5.5154328933e+00	-3.5355339059e+00	-1.7818132977e-01
 5.1972348417e+00	-3.2173358544e+00	-2.0334633267e-01
 4.8790367902e+00	-2.8991378029e+00	-2.3477622095e-01
 8.2024386618e+00	-5.9396969620e+00	-1.5847685907e-01
 7.8842406103e+00	-5.6214989104e+00	-1.4904057155e-01
 7.5660425587e+00	-5.3033008589e+00	-1.4192905286e-01
 7.2478445072e+00	-4.9851028074e+00	-1.3756531919e-01
 6.9296464556e+00	-4.6669047558e+00	-1.3637237627e-01
 6.6114484041e+00	-4.3487067043e+00	-1.3877321939e-01
 6.2932503526e+00	-4.0305086528e+00	-1.4519083336e-01
 5.9750523010e+00	-3.7123106012e+00	-1.5604819253e-01
 5.6568542495e+00	-3.3941125497e+00	-1.7245382484e-01
 5.3386561980e+00	-3.0759144982e+00	-1.9745421774e-01
 5.0204581464e+00	-2.7577164466e+00	-2.2753205965e-01
 8.3438600180e+00	-5.7982756057e+00	-1.6590863821e-01
 8.0256619665e+00	-5.4800775542e+00	-1.5389315399e-01
 7.7074639150e+00	-5.1618795027e+00	-1.4436982357e-01
 7.3892658634e+00	-4.8436814511e+00	-1.3776166025e-01
 7.0710678119e+00	-4.5254833996e+00	-1.3449166686e-01
 6.7528697603e+00	-4.2072853481e+00	-1.3498283578e-01
 6.4346717088e+00	-3.8890872965e+00	-1.3965814893e-01
 6.1164736573e+00	-3.5708892450e+00	-1.4894057641e-01
 5.7982756057e+00	-3.2526911935e+00	-1.6556203016e-01
 5.4800775542e+00	-2.9344931419e+00	-1.8900704086e-01
 5.1618795027e+00	-2.6162950904e+00	-2.1753998424e-01
 8.4852813743e+00	-5.6568542495e+00	-1.7315137426e-01
 8.1670833227e+00	-5.3386561980e+00	-1.5831150841e-01
 7.8488852712e+00	-5.0204581464e+00	-1.4613118117e-01
 7.5306872197e+00	-4.7022600949e+00	-1.3703340293e-01
 7.2124891681e+00	-4.3840620433e+00	-1.3144117363e-01
 6.8942911166e+00	-4.0658639918e+00	-1.2977748275e-01
 6.5760930651e+00	-3.7476659403e+00	-1.3246530931e-01
 6.2578950135e+00	-3.4294678887e+00	-1.4012606820e-01
 5.9396969620e+00	-3.1112698372e+00	-1.5635257619e-01
 5.6214989104e+00	-2.7930717857e+00	-1.7804935253e-01
 5.3033008589e+00	-2.4748737341e+00	-2.0484454524e-01
 3.8890872966e+00	-3.8890872966e+00	-2.1685184039e-01
 3.5708892450e+00	-3.5708892450e+00	-1.7591292363e-01
 3.2526911935e+00	-3.2526911935e+00	-1.4985297321e-01
 2.9344931420e+00	-2.9344931420e+00	-1.3603662220e-01
 2.6162950904e+00	-2.6162950904e+00	-1.3770927489e-01
 2.2980970389e+00	-2.2980970389e+00	-1.4292436055e-01
 1.9798989874e+00	-1.9798989874e+00	-1.5168187918e-01
 1.6617009358e+00	-1.6617009358e+00	-1.6398183078e-01
 1.3435028843e+00	-1.3435028843e+00	-1.7982421535e-01
 1.0253048327e+00	-1.0253048327e+00	-1.9920903288e-01
 7.0710678120e-01	-7.0710678120e-01	-2.2213628339e-01
 4.0305086528e+00	-3.7476659403e+00	-2.2540775038e-01
 3.7123106012e+00	-3.4294678888e+00	-1.8678686893e-01
 3.3941125497e+00	-3.1112698372e+00	-1.6378041127e-01
 3.0759144982e+00	-2.7930717857e+00	-1.4864893913e-01
 2.7577164466e+00	-2.4748737342e+00	-1.4426457016e-01
 2.4395183951e+00	-2.1566756826e+00	-1.4590560383e-01
 2.1213203436e+00	-1.8384776311e+00	-1.5018813021e-01
 1.8031222920e+00	-1.5202795796e+00	-1.5711214930e-01
 1.4849242405e+00	-1.2020815280e+00	-1.6667766110e-01
 1.1667261890e+00	-8.8388347650e-01	-1.7888466561e-01
 8.4852813744e-01	-5.6568542496e-01	-1.9373316283e-01
 4.1719300090e+00	-3.6062445841e+00	-2.3171012317e-01
 3.8537319575e+00	-3.2880465325e+00	-1.9809123856e-01
 3.5355339059e+00	-2.9698484810e+00	-1.7523414727e-01
 3.2173358544e+00	-2.6516504295e+00	-1.5927592226e-01
 2.8991378029e+00	-2.3334523779e+00	-1.5037631359e-01
 2.5809397513e+00	-2.0152543264e+00	-1.4871184399e-01
 2.2627416998e+00	-1.6970562749e+00	-1.4878792685e-01
 1.9445436483e+00	-1.3788582233e+00	-1.5060456216e-01
 1.6263455967e+00	-1.0606601718e+00	-1.5416174991e-01
 1.3081475452e+00	-7.4246212026e-01	-1.5945949012e-01
 9.8994949368e-01	-4.2426406872e-01	-1.6649778277e-01
 4.3133513652e+00	-3.4648232278e+00	-2.3571051795e-01
 3.9951533137e+00	-3.1466251763e+00	-2.0667342383e-01
 3.6769552622e+00	-2.8284271248e+00	-1.8425873173e-01
 3.3587572106e+00	-2.5102290732e+00	-1.6776678665e-01
 3.0405591591e+00	-2.1920310217e+00	-1.5682573663e-01
 2.7223611076e+00	-1.8738329702e+00	-1.5134308104e-01
 2.4041630560e+00	-1.5556349186e+00	-1.4748126910e-01
 2.0859650045e+00	-1.2374368671e+00	-1.4445906934e-01
 1.7677669530e+00	-9.1923881556e-01	-1.4227648178e-01
 1.4495689014e+00	-6.0104076402e-01	-1.4093350640e-01
 1.1313708499e+00	-2.8284271248e-01	-1.4043014322e-01
 4.4547727215e+00	-3.3234018716e+00	-2.3957571515e-01
 4.1365746699e+00	-3.0052038201e+00	-2.1257797526e-01
 3.8183766184e+00	-2.6870057685e+00	-1.9089871514e-01
 3.5001785669e+00	-2.3688077170e+00	-1.7416608281e-01
 3.1819805153e+00	-2.0506096655e+00	-1.6200822628e-01
 2.8637824638e+00	-1.7324116139e+00	-1.5379931497e-01
 2.5455844123e+00	-1.4142135624e+00	-1.4626815695e-01
 2.2273863607e+00	-1.0960155109e+00	-1.3867567086e-01
 1.9091883092e+00	-7.7781745932e-01	-1.3102185670e-01
 1.5909902577e+00	-4.5961940778e-01	-1.2330671447e-01
 1.2727922062e+00	-1.4142135624e-01	-1.1553024418e-01
 4.5961940777e+00	-3.1819805153e+00	-2.4084259921e-01
 4.2779960262e+00	-2.8637824638e+00	-2.1584944336e-01
 3.9597979746e+00	-2.5455844123e+00	-1.9519864803e-01
 3.6415999231e+00	-2.2273863608e+00	-1.7851836124e-01
 3.3234018716e+00	-1.9091883092e+00	-1.6543673102e-01
 3.0052038200e+00	-1.5909902577e+00	-1.5558190537e-01
 2.6870057685e+00	-1.2727922062e+00	-1.4514859042e-01
 2.3688077170e+00	-9.5459415462e-01	-1.3325436672e-01
 2.0506096654e+00	-6.3639610308e-01	-1.2039787469e-01
 1.7324116139e+00	-3.1819805154e-01	-1.0657911433e-01
 1.4142135624e+00	 0.0000000000e+00	-9.1798085636e-02
 4.7376154339e+00	-3.0405591591e+00	-2.3922791765e-01
 4.4194173824e+00	-2.7223611076e+00	-2.1653237863e-01
 4.1012193309e+00	-2.4041630560e+00	-1.9720308089e-01
 3.7830212793e+00	-2.0859650045e+00	-1.8086817246e-01
 3.4648232278e+00	-1.7677669530e+00	-1.6715580135e-01
 3.1466251763e+00	-1.4495689014e+00	-1.5569411556e-01
 2.8284271247e+00	-1.1313708499e+00	-1.4412256949e-01
 2.5102290732e+00	-8.1317279838e-01	-1.2819515690e-01
 2.1920310217e+00	-4.9497474684e-01	-1.1040453572e-01
 1.8738329701e+00	-1.7677669530e-01	-9.0750705958e-02
 1.5556349186e+00	 1.4142135624e-01	-6.9233667602e-02
 4.8790367902e+00	-2.8991378029e+00	-2.3477622095e-01
 4.5608387386e+00	-2.5809397513e+00	-2.1467133158e-01
 4.2426406871e+00	-2.2627416998e+00	-1.9695656425e-01
 3.9244426356e+00	-1.9445436483e+00	-1.8126006697e-01
 3.6062445840e+00	-1.6263455967e+00	-1.6720998777e-01
 3.2880465325e+00	-1.3081475452e+00	-1.5443447466e-01
 2.9698484810e+00	-9.8994949367e-01	-1.4256167566e-01
 2.6516504294e+00	-6.7175144214e-01	-1.2349804142e-01
 2.3334523779e+00	-3.5355339060e-01	-1.0104183982e-01
 2.0152543264e+00	-3.5355339059e-02	-7.5821489372e-02
 1.6970562749e+00	 2.8284271248e-01	-4.7836990074e-02
 5.0204581464e+00	-2.7577164466e+00	-2.2753205965e-01
 4.7022600949e+00	-2.4395183951e+00	-2.1031085273e-01
 4.3840620433e+00	-2.1213203436e+00	-1.9450364860e-01
 4.0658639918e+00	-1.8031222920e+00	-1.7973859529e-01
 3.7476659403e+00	-1.4849242405e+00	-1.6564384081e-01
 3.4294678887e+00	-1.1667261890e+00	-1.5184753317e-01
 3.1112698372e+00	-8.4852813743e-01	-1.3797782040e-01
 2.7930717857e+00	-5.3033008590e-01	-1.1916302027e-01
 2.4748737341e+00	-2.1213203436e-01	-9.2309786974e-02
 2.1566756826e+00	 1.0606601718e-01	-6.1791464567e-02
 1.8384776311e+00	 4.2426406872e-01	-2.7608053050e-02
 5.1618795027e+00	-2.6162950904e+00	-2.1753998424e-01
 4.8436814511e+00	-2.2980970389e+00	-2.0349549257e-01
 4.5254833996e+00	-1.9798989873e+00	-1.8988888446e-01
 4.2072853480e+00	-1.6617009358e+00	-1.7634830792e-01
 3.8890872965e+00	-1.3435028843e+00	-1.6250191096e-01
 3.5708892450e+00	-1.0253048327e+00	-1.4797784161e-01
 3.2526911934e+00	-7.0710678119e-01	-1.3240424787e-01
 2.9344931419e+00	-3.8890872966e-01	-1.1519009346e-01
 2.6162950904e+00	-7.0710678118e-02	-8.4208377185e-02
 2.2980970388e+00	 2.4748737342e-01	-4.8660631543e-02
 1.9798989873e+00	 5.6568542496e-01	-8.5468565322e-03
 5.3033008589e+00	-2.4748737341e+00	-2.0484454524e-01
 4.9851028074e+00	-2.1566756826e+00	-1.9426980163e-01
 4.6669047558e+00	-1.8384776311e+00	-1.8315682233e-01
 4.3487067043e+00	-1.5202795796e+00	-1.7113375537e-01
 4.0305086527e+00	-1.2020815280e+00	-1.5782874874e-01
 3.7123106012e+00	-8.8388347649e-01	-1.4286995048e-01
 3.3941125497e+00	-5.6568542495e-01	-1.2588550858e-01
 3.0759144981e+00	-2.4748737342e-01	-1.0650357108e-01
 2.7577164466e+00	 7.0710678122e-02	-7.6737610453e-02
 2.4395183951e+00	 3.8890872966e-01	-3.6428990301e-02
 2.1213203435e+00	 7.0710678120e-01	 9.3465994806e-03
 8.4852813743e+00	-5.6568542495e+00	-1.7315137426e-01
 8.1670833227e+00	-5.3386561980e+00	-1.5831150841e-01
 7.8488852712e+00	-5.0204581464e+00	-1.4613118117e-01
 7.5306872197e+00	-4.7022600949e+00	-1.3703340293e-01
 7.2124891681e+00	-4.3840620433e+00	-1.3144117363e-01
 6.8942911166e+00	-4.0658639918e+00	-1.2977748275e-01
 6.5760930651e+00	-3.7476659403e+00	-1.3246530931e-01
 6.2578950135e+00	-3.4294678887e+00	-1.4012606820e-01
 5.9396969620e+00	-3.1112698372e+00	-1.5635257619e-01
 5.6214989104e+00	-2.7930717857e+00	-1.7804935253e-01
 5.3033008589e+00	-2.4748737341e+00	-2.0484454524e-01
 8.6267027305e+00	-5.5154328933e+00	-1.7983060482e-01
 8.3085046790e+00	-5.1972348417e+00	-1.6297059106e-01
 7.9903066274e+00	-4.8790367902e+00	-1.4894552561e-01
 7.6721085759e+00	-4.5608387386e+00	-1.3817841596e-01
 7.3539105244e+00	-4.2426406871e+00	-1.3109225915e-01
 7.0357124728e+00	-3.9244426356e+00	-1.2811004177e-01
 6.7175144213e+00	-3.6062445840e+00	-1.2965473484e-01
 6.3993163698e+00	-3.2880465325e+00	-1.3778348864e-01
 6.0811183182e+00	-2.9698484810e+00	-1.5316401997e-01
 5.7629202667e+00	-2.6516504294e+00	-1.7403332840e-01
 5.4447222151e+00	-2.3334523779e+00	-2.0001956195e-01
 8.7681240867e+00	-5.3740115370e+00	-1.8557186810e-01
 8.4499260352e+00	-5.0558134855e+00	-1.6667373821e-01
 8.1317279837e+00	-4.7376154339e+00	-1.5078596614e-01
 7.8135299321e+00	-4.4194173824e+00	-1.3833155651e-01
 7.4953318806e+00	-4.1012193309e+00	-1.2973350346e-01
 7.1771338291e+00	-3.7830212793e+00	-1.2541479066e-01
 6.8589357775e+00	-3.4648232278e+00	-1.2579839129e-01
 6.5407377260e+00	-3.1466251763e+00	-1.3434363208e-01
 6.2225396745e+00	-2.8284271247e+00	-1.4891255015e-01
 5.9043416229e+00	-2.5102290732e+00	-1.6898875408e-01
 5.5861435714e+00	-2.1920310217e+00	-1.9420039188e-01
 8.9095454429e+00	-5.2325901808e+00	-1.8651785520e-01
 8.5913473914e+00	-4.9143921292e+00	-1.6937252910e-01
 8.2731493399e+00	-4.5961940777e+00	-1.5160408260e-01
 7.9549512884e+00	-4.2779960262e+00	-1.3744440499e-01
 7.6367532368e+00	-3.9597979746e+00	-1.2731648752e-01
 7.3185551853e+00	-3.6415999231e+00	-1.2164331097e-01
 7.0003571338e+00	-3.3234018716e+00	-1.2195702737e-01
 6.6821590822e+00	-3.0052038200e+00	-1.2985104902e-01
 6.3639610307e+00	-2.6870057685e+00	-1.4364271725e-01
 6.0457629792e+00	-2.3688077170e+00	-1.6296018008e-01
 5.7275649276e+00	-2.0506096654e+00	-1.8743158553e-01
 9.0509667992e+00	-5.0911688245e+00	-1.8461634786e-01
 8.7327687477e+00	-4.7729707730e+00	-1.7101854361e-01
 8.4145706961e+00	-4.4547727215e+00	-1.5135145541e-01
 8.0963726446e+00	-4.1365746699e+00	-1.3546854240e-01
 7.7781745931e+00	-3.8183766184e+00	-1.2379279292e-01
 7.4599765415e+00	-3.5001785669e+00	-1.1674718390e-01
 7.1417784900e+00	-3.1819805153e+00	-1.1721766351e-01
 6.8235804385e+00	-2.8637824638e+00	-1.2435028997e-01
 6.5053823869e+00	-2.5455844123e+00	-1.3739907176e-01
 6.1871843354e+00	-2.2273863607e+00	-1.5599215690e-01
 5.8689862839e+00	-1.9091883092e+00	-1.7975769340e-01
 9.1923881554e+00	-4.9497474683e+00	-1.8250237518e-01
 8.8741901039e+00	-4.6315494168e+00	-1.6992098326e-01
 8.5559920524e+00	-4.3133513652e+00	-1.4997966564e-01
 8.2377940008e+00	-3.9951533137e+00	-1.3235555037e-01
 7.9195959493e+00	-3.6769552621e+00	-1.1911400185e-01
 7.6013978978e+00	-3.3587572106e+00	-1.1138123216e-01
 7.2831998462e+00	-3.0405591591e+00	-1.1148031077e-01
 6.9650017947e+00	-2.7223611075e+00	-1.1788590545e-01
 6.6468037432e+00	-2.4041630560e+00	-1.3022616421e-01
 6.3286056916e+00	-2.0859650045e+00	-1.4812923506e-01
 6.0104076401e+00	-1.7677669529e+00	-1.7122326602e-01
 9.3338095116e+00	-4.8083261121e+00	-1.8018547057e-01
 9.0156114601e+00	-4.4901280605e+00	-1.6537427402e-01
 8.6974134086e+00	-4.1719300090e+00	-1.4744029493e-01
 8.3792153571e+00	-3.8537319574e+00	-1.2805701112e-01
 8.0610173055e+00	-3.5355339059e+00	-1.1323169353e-01
 7.7428192540e+00	-3.2173358544e+00	-1.0540161818e-01
 7.4246212025e+00	-2.8991378028e+00	-1.0478951967e-01
 7.1064231509e+00	-2.5809397513e+00	-1.1050244596e-01
 6.7882250994e+00	-2.2627416998e+00	-1.2216854509e-01
 6.4700270479e+00	-1.9445436482e+00	-1.3941596505e-01
 6.1518289963e+00	-1.6263455967e+00	-1.6187285388e-01
 9.4752308679e+00	-4.6669047558e+00	-1.7767516723e-01
 9.1570328164e+00	-4.3487067043e+00	-1.6065641699e-01
 8.8388347648e+00	-4.0305086527e+00	-1.4340820700e-01
 8.5206367133e+00	-3.7123106012e+00	-1.2252450751e-01
 8.2024386618e+00	-3.3941125497e+00	-1.0648305071e-01
 7.8842406102e+00	-3.0759144981e+00	-9.8478752933e-02
 7.5660425587e+00	-2.7577164466e+00	-9.7189840696e-02
 7.2478445072e+00	-2.4395183951e+00	-1.0224446202e-01
 6.9296464556e+00	-2.1213203435e+00	-1.1327076491e-01
 6.6114484041e+00	-1.8031222920e+00	-1.2989689740e-01
 6.2932503526e+00	-1.4849242405e+00	-1.5175100749e-01
 9.6166522241e+00	-4.5254833996e+00	-1.7498099811e-01
 9.2984541726e+00	-4.2072853480e+00	-1.5577694490e-01
 8.9802561211e+00	-3.8890872965e+00	-1.3642104699e-01
 8.6620580695e+00	-3.5708892450e+00	-1.1570961410e-01
 8.3438600180e+00	-3.2526911934e+00	-9.9322443775e-02
 8.0256619665e+00	-2.9344931419e+00	-9.0657186929e-02
 7.7074639149e+00	-2.6162950904e+00	-8.8725824374e-02
 7.3892658634e+00	-2.2980970388e+00	-9.3156504125e-02
 7.0710678119e+00	-1.9798989873e+00	-1.0357737420e-01
 6.7528697603e+00	-1.6617009358e+00	-1.1961658261e-01
 6.4346717088e+00	-1.3435028842e+00	-1.4090227737e-01
 9.7580735804e+00	-4.3840620433e+00	-1.7211249595e-01
 9.4398755288e+00	-4.0658639918e+00	-1.5074539030e-01
 9.1216774773e+00	-3.7476659403e+00	-1.2930405515e-01
 8.8034794258e+00	-3.4294678887e+00	-1.0768943071e-01
 8.4852813742e+00	-3.1112698372e+00	-9.1273323185e-02
 8.1670833227e+00	-2.7930717857e+00	-8.1981470677e-02
 7.8488852712e+00	-2.4748737341e+00	-7.9442021207e-02
 7.5306872196e+00	-2.1566756826e+00	-8.3283122792e-02
 7.2124891681e+00	-1.8384776311e+00	-9.3132923446e-02
 6.8942911166e+00	-1.5202795795e+00	-1.0861957119e-01
 6.5760930650e+00	-1.2020815280e+00	-1.2937121403e-01
 9.8994949366e+00	-4.2426406871e+00	-1.6907919326e-01
 9.5812968851e+00	-3.9244426356e+00	-1.4557128549e-01
 9.2630988335e+00	-3.6062445840e+00	-1.2206676359e-01
 8.9449007820e+00	-3.2880465325e+00	-9.9723537235e-02
 8.6267027304e+00	-2.9698484809e+00	-8.2380239450e-02
 8.3085046789e+00	-2.6516504294e+00	-7.2496154685e-02
 7.9903066274e+00	-2.3334523779e+00	-6.9382981706e-02
 7.6721085758e+00	-2.0152543263e+00	-7.2668868528e-02
 7.3539105243e+00	-1.6970562748e+00	-8.1981963168e-02
 7.0357124728e+00	-1.3788582233e+00	-9.6950413641e-02
 6.7175144212e+00	-1.0606601717e+00	-1.1720236796e-01
 5.3033008589e+00	-2.4748737341e+00	-2.0484454524e-01
 4.9851028074e+00	-2.1566756826e+00	-1.9426980163e-01
 4.6669047558e+00	-1.8384776311e+00	-1.8315682233e-01
 4.3487067043e+00	-1.5202795796e+00	-1.7113375537e-01
 4.0305086527e+00	-1.2020815280e+00	-1.5782874874e-01
 3.7123106012e+00	-8.8388347649e-01	-1.4286995048e-01
 3.3941125497e+00	-5.6568542495e-01	-1.2588550858e-01
 3.0759144981e+00	-2.4748737342e-01	-1.0650357108e-01
 2.7577164466e+00	 7.0710678122e-02	-7.6737610453e-02
 2.4395183951e+00	 3.8890872966e-01	-3.6428990301e-02
 2.1213203435e+00	 7.0710678120e-01	 9.3465994806e-03
 5.4447222151e+00	-2.3334523779e+00	-2.0001956195e-01
 5.1265241636e+00	-2.0152543264e+00	-1.9388693810e-01
 4.8083261121e+00	-1.6970562748e+00	-1.8625109260e-01
 4.4901280605e+00	-1.3788582233e+00	-1.7674017347e-01
 4.1719300090e+00	-1.0606601718e+00	-1.6498232872e-01
 3.8537319574e+00	-7.4246212025e-01	-1.5060570638e-01
 3.5355339059e+00	-4.2426406871e-01	-1.3323845445e-01
 3.2173358544e+00	-1.0606601718e-01	-1.1250872095e-01
 2.8991378028e+00	 2.1213203436e-01	-8.6173198664e-02
 2.5809397513e+00	 5.3033008590e-01	-4.2140657895e-02
 2.2627416998e+00	 8.4852813744e-01	 8.2486594780e-03
 5.5861435714e+00	-2.1920310217e+00	-1.9420039188e-01
 5.2679455198e+00	-1.8738329701e+00	-1.9212636824e-01
 4.9497474683e+00	-1.5556349186e+00	-1.8758413700e-01
 4.6315494168e+00	-1.2374368671e+00	-1.8020184616e-01
 4.3133513652e+00	-9.1923881554e-01	-1.6960764376e-01
 3.9951533137e+00	-6.0104076401e-01	-1.5542967779e-01
 3.6769552622e+00	-2.8284271247e-01	-1.3729609628e-01
 3.3587572106e+00	 3.5355339065e-02	-1.1483504725e-01
 3.0405591591e+00	 3.5355339060e-01	-8.7674678708e-02
 2.7223611075e+00	 6.7175144214e-01	-4.4282621957e-02
 2.4041630560e+00	 9.8994949368e-01	 1.1128426628e-02
 5.7275649276e+00	-2.0506096654e+00	-1.8743158553e-01
 5.4093668761e+00	-1.7324116139e+00	-1.8903264256e-01
 5.0911688245e+00	-1.4142135624e+00	-1.8720050604e-01
 4.7729707730e+00	-1.0960155108e+00	-1.8156332396e-01
 4.4547727215e+00	-7.7781745930e-01	-1.7174924435e-01
 4.1365746699e+00	-4.5961940777e-01	-1.5738641523e-01
 3.8183766184e+00	-1.4142135623e-01	-1.3810298461e-01
 3.5001785669e+00	 1.7677669530e-01	-1.1352710050e-01
 3.1819805153e+00	 4.9497474684e-01	-8.3286910922e-02
 2.8637824638e+00	 8.1317279838e-01	-4.2854882487e-02
 2.5455844122e+00	 1.1313708499e+00	 1.7985900929e-02
 5.8689862839e+00	-1.9091883092e+00	-1.7975769340e-01
 5.5507882323e+00	-1.5909902577e+00	-1.8465031158e-01
 5.2325901808e+00	-1.2727922061e+00	-1.8514475023e-01
 4.9143921292e+00	-9.5459415460e-01	-1.8086915737e-01
 4.5961940777e+00	-6.3639610306e-01	-1.7145168102e-01
 4.2779960262e+00	-3.1819805153e-01	-1.5652046920e-01
 3.9597979746e+00	 8.0021683724e-12	-1.3570366993e-01
 3.6415999231e+00	 3.1819805154e-01	-1.0862943120e-01
 3.3234018716e+00	 6.3639610308e-01	-7.4925901053e-02
 3.0052038200e+00	 9.5459415462e-01	-3.4221227491e-02
 2.6870057685e+00	 1.2727922062e+00	 2.8821082383e-02
 6.0104076401e+00	-1.7677669529e+00	-1.7122326602e-01
 5.6922095886e+00	-1.4495689014e+00	-1.7902392579e-01
 5.3740115370e+00	-1.1313708499e+00	-1.8146142008e-01
 5.0558134855e+00	-8.1317279836e-01	-1.7816389690e-01
 4.7376154339e+00	-4.9497474682e-01	-1.6875950428e-01
 4.4194173824e+00	-1.7677669529e-01	-1.5287639022e-01
 4.1012193309e+00	 1.4142135625e-01	-1.3014270275e-01
 3.7830212793e+00	 4.5961940778e-01	-1.0018658987e-01
 3.4648232278e+00	 7.7781745932e-01	-6.2636199609e-02
 3.1466251762e+00	 1.0960155109e+00	-1.7119679977e-02
 2.8284271247e+00	 1.4142135624e+00	 4.3633970989e-02
 6.1518289963e+00	-1.6263455967e+00	-1.6187285388e-01
 5.8336309448e+00	-1.3081475452e+00	-1.7219803570e-01
 5.5154328932e+00	-9.8994949365e-01	-1.7619506609e-01
 5.1972348417e+00	-6.7175144212e-01	-1.7349209306e-01
 4.8790367902e+00	-3.5355339058e-01	-1.6371726462e-01
 4.5608387386e+00	-3.5355339047e-02	-1.4649872879e-01
 4.2426406871e+00	 2.8284271249e-01	-1.2146463358e-01
 3.9244426356e+00	 6.0104076402e-01	-8.8243127012e-02
 3.6062445840e+00	 9.1923881556e-01	-4.6462357100e-02
 3.2880465325e+00	 1.2374368671e+00	 4.2495281416e-03
 2.9698484809e+00	 1.5556349186e+00	 6.4264380696e-02
 6.2932503526e+00	-1.4849242405e+00	-1.5175100749e-01
 5.9750523010e+00	-1.1667261889e+00	-1.6421719184e-01
 5.6568542495e+00	-8.4852813741e-01	-1.6939023879e-01
 5.3386561979e+00	-5.3033008588e-01	-1.6689829636e-01
 5.0204581464e+00	-2.1213203434e-01	-1.5636951256e-01
 4.7022600949e+00	 1.0606601719e-01	-1.3743203542e-01
 4.3840620433e+00	 4.2426406873e-01	-1.0971401293e-01
 4.0658639918e+00	 7.4246212026e-01	-7.2843593135e-02
 3.7476659403e+00	 1.0606601718e+00	-2.6448924033e-02
 3.4294678887e+00	 1.3788582233e+00	 2.9841846356e-02
 3.1112698372e+00	 1.6970562749e+00	 9.6400570017e-02
 6.4346717088e+00	-1.3435028842e+00	-1.4090227737e-01
 6.1164736573e+00	-1.0253048327e+00	-1.5512594470e-01
 5.7982756057e+00	-7.0710678117e-01	-1.6109148867e-01
 5.4800775542e+00	-3.8890872964e-01	-1.5842705731e-01
 5.1618795026e+00	-7.0710678102e-02	-1.4676079861e-01
 4.8436814511e+00	 2.4748737343e-01	-1.2572086061e-01
 4.5254833996e+00	 5.6568542497e-01	-9.4935391320e-02
 4.2072853480e+00	 8.8388347650e-01	-5.4032538750e-02
 3.8890872965e+00	 1.2020815280e+00	-2.6404509194e-03
 3.5708892450e+00	 1.5202795796e+00	 5.9612724157e-02
 3.2526911934e+00	 1.8384776311e+00	 1.3309883846e-01
 6.5760930650e+00	-1.2020815280e+00	-1.2937121403e-01
 6.2578950135e+00	-8.8388347646e-01	-1.4496884480e-01
 5.9396969620e+00	-5.6568542493e-01	-1.5134336625e-01
 5.6214989104e+00	-2.4748737340e-01	-1.4812292641e-01
 5.3033008589e+00	 7.0710678138e-02	-1.3493567328e-01
 4.9851028074e+00	 3.8890872967e-01	-1.1140975489e-01
 4.6669047558e+00	 7.0710678121e-01	-7.7173319245e-02
 4.3487067043e+00	 1.0253048327e+00	-3.1854514366e-02
 4.0305086527e+00	 1.3435028843e+00	 2.4918511733e-02
 3.7123106012e+00	 1.6617009358e+00	 9.3517611036e-02
 3.3941125497e+00	 1.9798989874e+00	 1.7431463553e-01
 6.7175144212e+00	-1.0606601717e+00	-1.1720236796e-01
 6.3993163697e+00	-7.4246212022e-01	-1.3379044264e-01
 6.0811183182e+00	-4.2426406869e-01	-1.4019042204e-01
 5.7629202667e+00	-1.0606601716e-01	-1.3603045418e-01
 5.4447222151e+00	 2.1213203438e-01	-1.2093868708e-01
 5.1265241636e+00	 5.3033008591e-01	-9.4543268753e-02
 4.8083261121e+00	 8.4852813745e-01	-5.6472347219e-02
 4.4901280605e+00	 1.1667261890e+00	-6.3540704912e-03
 4.1719300090e+00	 1.4849242405e+00	 5.6183413415e-02
 3.8537319574e+00	 1.8031222921e+00	 1.3151195648e-01
 3.5355339059e+00	 2.1213203436e+00	 2.2000341070e-01
 9.8994949366e+00	-4.2426406871e+00	-1.6907919326e-01
 9.5812968851e+00	-3.9244426356e+00	-1.5046295910e-01
 9.2630988335e+00	-3.6062445840e+00	-1.3060899807e-01
 8.9449007820e+00	-3.2880465325e+00	-1.1067521986e-01
 8.6267027304e+00	-2.9698484809e+00	-9.4500257489e-02
 8.3085046789e+00	-2.6516504294e+00	-8.4543395407e-02
 7.9903066274e+00	-2.3334523779e+00	-8.0116332379e-02
 7.6721085758e+00	-2.0152543263e+00	-8.0847216421e-02
 7.3539105243e+00	-1.6970562748e+00	-8.6364195549e-02
 7.0357124728e+00	-1.3788582233e+00	-9.6295417777e-02
 6.7175144212e+00	-1.0606601717e+00	-1.1026903112e-01
 9.9702056147e+00	-4.1719300090e+00	-1.6379852375e-01
 9.6520075632e+00	-3.8537319574e+00	-1.4565793073e-01
 9.3338095116e+00	-3.5355339059e+00	-1.2607888446e-01
 9.0156114601e+00	-3.2173358544e+00	-1.0700570899e-01
 8.6974134086e+00	-2.8991378028e+00	-9.0759543458e-02
 8.3792153570e+00	-2.5809397513e+00	-8.1099013390e-02
 8.0610173055e+00	-2.2627416998e+00	-7.6738002615e-02
 7.7428192540e+00	-1.9445436482e+00	-7.7304659149e-02
 7.4246212024e+00	-1.6263455967e+00	-8.2427131008e-02
 7.1064231509e+00	-1.3081475452e+00	-9.1733566208e-02
 6.7882250994e+00	-9.8994949364e-01	-1.0485211276e-01
 1.0040916293e+01	-4.1012193309e+00	-1.5829963620e-01
 9.7227182413e+00	-3.7830212793e+00	-1.4070224631e-01
 9.4045201898e+00	-3.4648232278e+00	-1.2146567682e-01
 9.0863221382e+00	-3.1466251763e+00	-1.0343285575e-01
 8.7681240867e+00	-2.8284271247e+00	-8.6891950511e-02
 8.4499260352e+00	-2.5102290732e+00	-7.7598342788e-02
 8.1317279836e+00	-2.1920310217e+00	-7.3373974597e-02
 7.8135299321e+00	-1.8738329701e+00	-7.3846993956e-02
 7.4953318806e+00	-1.5556349186e+00	-7.8645548878e-02
 7.1771338290e+00	-1.2374368671e+00	-8.7397787381e-02
 6.8589357775e+00	-9.1923881553e-01	-9.9731857480e-02
 1.0111626971e+01	-4.0305086527e+00	-1.5258372211e-01
 9.7934289194e+00	-3.7123106012e+00	-1.3559709731e-01
 9.4752308679e+00	-3.3941125497e+00	-1.1715572839e-01
 9.1570328163e+00	-3.0759144981e+00	-9.9953843783e-02
 8.8388347648e+00	-2.7577164466e+00	-8.3152110733e-02
 8.5206367133e+00	-2.4395183951e+00	-7.4046952415e-02
 8.2024386617e+00	-2.1213203436e+00	-7.0029817141e-02
 7.8842406102e+00	-1.8031222920e+00	-7.0479789655e-02
 7.5660425587e+00	-1.4849242405e+00	-7.5025017974e-02
 7.2478445071e+00	-1.1667261890e+00	-8.3293650112e-02
 6.9296464556e+00	-8.4852813742e-01	-9.4913834085e-02
 1.0182337649e+01	-3.9597979746e+00	-1.4665197298e-01
 9.8641395975e+00	-3.6415999231e+00	-1.3034367520e-01
 9.5459415460e+00	-3.3234018716e+00	-1.1297927387e-01
 9.2277434945e+00	-3.0052038200e+00	-9.6565844267e-02
 8.9095454429e+00	-2.6870057685e+00	-8.0378948128e-02
 8.5913473914e+00	-2.3688077170e+00	-7.0450411085e-02
 8.2731493399e+00	-2.0506096654e+00	-6.6711099059e-02
 7.9549512883e+00	-1.7324116139e+00	-6.7208615061e-02
 7.6367532368e+00	-1.4142135624e+00	-7.1571107107e-02
 7.3185551853e+00	-1.0960155108e+00	-7.9426723212e-02
 7.0003571337e+00	-7.7781745930e-01	-9.0403611393e-02
 1.0253048327e+01	-3.8890872965e+00	-1.4050558028e-01
 9.9348502757e+00	-3.5708892450e+00	-1.2494317142e-01
 9.6166522241e+00	-3.2526911934e+00	-1.0882892301e-01
 9.2984541726e+00	-2.9344931419e+00	-9.3266031838e-02
 8.9802561210e+00	-2.6162950904e+00	-7.7756057302e-02
 8.6620580695e+00	-2.2980970389e+00	-6.6814287611e-02
 8.3438600180e+00	-1.9798989873e+00	-6.3423389165e-02
 8.0256619664e+00	-1.6617009358e+00	-6.4039038987e-02
 7.7074639149e+00	-1.3435028843e+00	-6.8289385093e-02
 7.3892658634e+00	-1.0253048327e+00	-7.5802575497e-02
 7.0710678119e+00	-7.0710678119e-01	-8.6206758216e-02
 1.0323759005e+01	-3.8183766184e+00	-1.3414573547e-01
 1.0005560954e+01	-3.5001785669e+00	-1.1939677741e-01
 9.6873629022e+00	-3.1819805153e+00	-1.0470185046e-01
 9.3691648507e+00	-2.8637824638e+00	-9.0051581152e-02
 9.0509667992e+00	-2.5455844123e+00	-7.5280606126e-02
 8.7327687476e+00	-2.2273863607e+00	-6.3144150807e-02
 8.4145706961e+00	-1.9091883092e+00	-6.0172256274e-02
 8.0963726446e+00	-1.5909902577e+00	-6.0976630247e-02
 7.7781745930e+00	-1.2727922061e+00	-6.5185420744e-02
 7.4599765415e+00	-9.5459415461e-01	-7.2426775779e-02
 7.1417784900e+00	-6.3639610307e-01	-8.2328843368e-02
 1.0394469683e+01	-3.7476659403e+00	-1.2757362999e-01
 1.0076271632e+01	-3.4294678887e+00	-1.1383152826e-01
 9.7580735804e+00	-3.1112698372e+00	-1.0059523091e-01
 9.4398755288e+00	-2.7930717857e+00	-8.6919666880e-02
 9.1216774773e+00	-2.4748737342e+00	-7.2949777871e-02
 8.8034794258e+00	-2.1566756826e+00	-5.9445569487e-02
 8.4852813742e+00	-1.8384776311e+00	-5.6963269197e-02
 8.1670833227e+00	-1.5202795796e+00	-5.8026957654e-02
 7.8488852712e+00	-1.2020815280e+00	-6.2264782874e-02
 7.5306872196e+00	-8.8388347649e-01	-6.9304892871e-02
 7.2124891681e+00	-5.6568542496e-01	-7.8775435663e-02
 1.0465180362e+01	-3.6769552621e+00	-1.2079045527e-01
 1.0146982310e+01	-3.3587572106e+00	-1.0853212823e-01
 9.8287842585e+00	-3.0405591591e+00	-9.6506239043e-02
 9.5105862069e+00	-2.7223611076e+00	-8.3867463710e-02
 9.1923881554e+00	-2.4041630560e+00	-7.0760744040e-02
 8.8741901039e+00	-2.0859650045e+00	-5.7331026759e-02
 8.5559920523e+00	-1.7677669530e+00	-5.3801996750e-02
 8.2377940008e+00	-1.4495689014e+00	-5.5195590022e-02
 7.9195959493e+00	-1.1313708499e+00	-5.9533040297e-02
 7.6013978977e+00	-8.1317279838e-01	-6.6442495589e-02
 7.2831998462e+00	-4.9497474684e-01	-7.5552103915e-02
 1.0535891040e+01	-3.6062445840e+00	-1.1379740273e-01
 1.0217692988e+01	-3.2880465325e+00	-1.0318544710e-01
 9.8994949366e+00	-2.9698484810e+00	-9.2432049572e-02
 9.5812968851e+00	-2.6516504295e+00	-8.0892146343e-02
 9.2630988335e+00	-2.3334523779e+00	-6.8710679331e-02
 8.9449007820e+00	-2.0152543264e+00	-5.6032597329e-02
 8.6267027305e+00	-1.6970562749e+00	-5.0694007746e-02
 8.3085046789e+00	-1.3788582233e+00	-5.2488096165e-02
 7.9903066274e+00	-1.0606601718e+00	-5.6995761826e-02
 7.6721085759e+00	-7.4246212026e-01	-6.3845152745e-02
 7.3539105243e+00	-4.2426406872e-01	-7.2664416937e-02
 1.0606601718e+01	-3.5355339059e+00	-1.0659566377e-01
 1.0288403666e+01	-3.2173358544e+00	-9.7788659585e-02
 9.9702056147e+00	-2.8991378029e+00	-8.8369837222e-02
 9.6520075632e+00	-2.5809397513e+00	-7.7990889500e-02
 9.3338095116e+00	-2.2627416998e+00	-6.6796758458e-02
 9.0156114601e+00	-1.9445436483e+00	-5.4932396656e-02
 8.6974134086e+00	-1.6263455967e+00	-4.7644870998e-02
 8.3792153570e+00	-1.3081475452e+00	-4.9910044896e-02
 8.0610173055e+00	-9.8994949368e-01	-5.4658516276e-02
 7.7428192540e+00	-6.7175144214e-01	-6.1518433153e-02
 7.4246212025e+00	-3.5355339060e-01	-7.0117943543e-02
 6.7175144212e+00	-1.0606601717e+00	-1.1026903112e-01
 6.3993163697e+00	-7.4246212022e-01	-1.2188513836e-01
 6.0811183182e+00	-4.2426406869e-01	-1.2716701015e-01
 5.7629202667e+00	-1.0606601716e-01	-1.2574279450e-01
 5.4447222151e+00	 2.1213203438e-01	-1.1724063942e-01
 5.1265241636e+00	 5.3033008591e-01	-1.0128869294e-01
 4.8083261121e+00	 8.4852813745e-01	-7.7515103069e-02
 4.4901280605e+00	 1.1667261890e+00	-4.5548017822e-02
 4.1719300090e+00	 1.4849242405e+00	-5.0155852188e-03
 3.8537319574e+00	 1.8031222921e+00	 4.4454046726e-02
 3.5355339059e+00	 2.1213203436e+00	 1.0323273000e-01
 6.7882250994e+00	-9.8994949364e-01	-1.0485211276e-01
 6.4700270478e+00	-6.7175144211e-01	-1.1343210760e-01
 6.1518289963e+00	-3.5355339057e-01	-1.1603756583e-01
 5.8336309448e+00	-3.5355339040e-02	-1.1229663547e-01
 5.5154328932e+00	 2.8284271249e-01	-1.0183746453e-01
 5.1972348417e+00	 6.0104076403e-01	-8.4288201028e-02
 4.8790367902e+00	 9.1923881557e-01	-5.9276992982e-02
 4.5608387386e+00	 1.2374368671e+00	-2.6431988407e-02
 4.2426406871e+00	 1.5556349186e+00	 1.4618664679e-02
 3.9244426356e+00	 1.8738329702e+00	 6.4246818261e-02
 3.6062445840e+00	 2.1920310217e+00	 1.2282432432e-01
 6.8589357775e+00	-9.1923881553e-01	-9.9731857480e-02
 6.5407377260e+00	-6.0104076399e-01	-1.0532073787e-01
 6.2225396744e+00	-2.8284271246e-01	-1.0529478050e-01
 5.9043416229e+00	 3.5355339075e-02	-9.9282133375e-02
 5.5861435714e+00	 3.5355339061e-01	-8.6910944522e-02
 5.2679455198e+00	 6.7175144215e-01	-6.7809361954e-02
 4.9497474683e+00	 9.8994949368e-01	-4.1605533687e-02
 4.6315494168e+00	 1.3081475452e+00	-7.9276077368e-03
 4.3133513652e+00	 1.6263455968e+00	 3.3596267879e-02
 3.9951533137e+00	 1.9445436483e+00	 8.3337945146e-02
 3.6769552621e+00	 2.2627416998e+00	 1.4166927605e-01
 6.9296464556e+00	-8.4852813742e-01	-9.4913834085e-02
 6.6114484041e+00	-5.3033008588e-01	-9.7556597979e-02
 6.2932503525e+00	-2.1213203434e-01	-9.4944222954e-02
 5.9750523010e+00	 1.0606601719e-01	-8.6704857027e-02
 5.6568542495e+00	 4.2426406873e-01	-7.2466648214e-02
 5.3386561979e+00	 7.4246212026e-01	-5.1857744532e-02
 5.0204581464e+00	 1.0606601718e+00	-2.4506293997e-02
 4.7022600949e+00	 1.3788582233e+00	 9.9595553757e-03
 4.3840620433e+00	 1.6970562749e+00	 5.1911655569e-02
 4.0658639918e+00	 2.0152543264e+00	 1.0172185857e-01
 3.7476659403e+00	 2.3334523780e+00	 1.5976201635e-01
 7.0003571337e+00	-7.7781745930e-01	-9.0403611393e-02
 6.6821590822e+00	-4.5961940777e-01	-9.0145256743e-02
 6.3639610307e+00	-1.4142135623e-01	-8.4991462020e-02
 6.0457629791e+00	 1.7677669531e-01	-7.4570375240e-02
 5.7275649276e+00	 4.9497474684e-01	-5.8510144420e-02
 5.4093668761e+00	 8.1317279838e-01	-3.6438917577e-02
 5.0911688245e+00	 1.1313708499e+00	-7.9848427259e-03
 4.7729707730e+00	 1.4495689015e+00	 2.7223932116e-02
 4.4547727215e+00	 1.7677669530e+00	 6.9559258934e-02
 4.1365746699e+00	 2.0859650045e+00	 1.1939298971e-01
 3.8183766184e+00	 2.4041630561e+00	 1.7709697643e-01
 7.0710678119e+00	-7.0710678119e-01	-8.6206758216e-02
 6.7528697603e+00	-3.8890872965e-01	-8.3092282974e-02
 6.4346717088e+00	-7.0710678113e-02	-7.5442066506e-02
 6.1164736573e+00	 2.4748737342e-01	-6.2884256827e-02
 5.7982756057e+00	 5.6568542496e-01	-4.5047001953e-02
 5.4800775542e+00	 8.8388347650e-01	-2.1558449901e-02
 5.1618795027e+00	 1.2020815280e+00	 7.9532513124e-03
 4.8436814511e+00	 1.5202795796e+00	 4.3859953672e-02
 4.5254833996e+00	 1.8384776311e+00	 8.6533509161e-02
 4.2072853480e+00	 2.1566756826e+00	 1.3634576976e-01
 3.8890872965e+00	 2.4748737342e+00	 1.9366858746e-01
 7.1417784900e+00	-6.3639610307e-01	-8.2328843368e-02
 6.8235804384e+00	-3.1819805153e-01	-7.6403245489e-02
 6.5053823869e+00	 3.6805697379e-12	-6.6301605228e-02
 6.1871843354e+00	 3.1819805154e-01	-5.1652070601e-02
 5.8689862838e+00	 6.3639610308e-01	-3.2082789626e-02
 5.5507882323e+00	 9.5459415461e-01	-7.2219103191e-03
 5.2325901808e+00	 1.2727922061e+00	 2.3302419305e-02
 4.9143921292e+00	 1.5909902577e+00	 5.9862051228e-02
 4.5961940777e+00	 1.9091883092e+00	 1.0282883744e-01
 4.2779960262e+00	 2.2273863608e+00	 1.5257462991e-01
 3.9597979746e+00	 2.5455844123e+00	 2.0947128064e-01
 7.2124891681e+00	-5.6568542496e-01	-7.8775435663e-02
 6.8942911166e+00	-2.4748737342e-01	-7.0083713098e-02
 6.5760930650e+00	 7.0710678121e-02	-5.7575646998e-02
 6.2578950135e+00	 3.8890872966e-01	-4.0879385378e-02
 5.9396969620e+00	 7.0710678119e-01	-1.9623076254e-02
 5.6214989104e+00	 1.0253048327e+00	 6.5651323559e-03
 5.3033008589e+00	 1.3435028843e+00	 3.8057092437e-02
 4.9851028074e+00	 1.6617009358e+00	 7.5224655972e-02
 4.6669047558e+00	 1.9798989873e+00	 1.1843967495e-01
 4.3487067043e+00	 2.2980970389e+00	 1.6807400134e-01
 4.0305086527e+00	 2.6162950904e+00	 2.2449948715e-01
 7.2831998462e+00	-4.9497474684e-01	-7.5552103915e-02
 6.9650017947e+00	-1.7677669530e-01	-6.4139254618e-02
 6.6468037431e+00	 1.4142135624e-01	-4.9269760630e-02
 6.3286056916e+00	 4.5961940778e-01	-3.0571769969e-02
 6.0104076401e+00	 7.7781745931e-01	-7.6734306498e-03
 5.6922095885e+00	 1.0960155108e+00	 1.9797109310e-02
 5.3740115370e+00	 1.4142135624e+00	 5.2211701895e-02
 5.0558134855e+00	 1.7324116139e+00	 8.9942199090e-02
 4.7376154339e+00	 2.0506096654e+00	 1.3336045288e-01
 4.4194173824e+00	 2.3688077170e+00	 1.8283831524e-01
 4.1012193309e+00	 2.6870057685e+00	 2.3874763817e-01
 7.3539105243e+00	-4.2426406872e-01	-7.2664416937e-02
 7.0357124728e+00	-1.0606601718e-01	-5.8575438860e-02
 6.7175144213e+00	 2.1213203436e-01	-4.1389514938e-02
 6.3993163697e+00	 5.3033008589e-01	-2.0734793189e-02
 6.0811183182e+00	 8.4852813743e-01	 3.7605783730e-03
 5.7629202667e+00	 1.1667261890e+00	 3.2468451730e-02
 5.4447222151e+00	 1.4849242405e+00	 6.5760678867e-02
 5.1265241636e+00	 1.8031222920e+00	 1.0400911177e-01
 4.8083261121e+00	 2.1213203435e+00	 1.4758560241e-01
 4.4901280605e+00	 2.4395183951e+00	 1.9686200279e-01
 4.1719300090e+00	 2.7577164466e+00	 2.5221016489e-01
 7.4246212025e+00	-3.5355339060e-01	-7.0117943543e-02
 7.1064231509e+00	-3.5355339061e-02	-5.3397834639e-02
 6.7882250994e+00	 2.8284271248e-01	-3.3940478736e-02
 6.4700270479e+00	 6.0104076401e-01	-1.1374023851e-02
 6.1518289963e+00	 9.1923881554e-01	 1.4673382001e-02
 5.8336309448e+00	 1.2374368671e+00	 4.4573590802e-02
 5.5154328933e+00	 1.5556349186e+00	 7.8698454538e-02
 5.1972348417e+00	 1.8738329701e+00	 1.1741982519e-01
 4.8790367902e+00	 2.1920310217e+00	 1.6110955475e-01
 4.5608387386e+00	 2.5102290732e+00	 2.1013949519e-01
 4.2426406871e+00	 2.8284271247e+00	 2.6488149850e-01
 1.0606601718e+01	-3.5355339059e+00	-1.0659566377e-01
 1.0288403666e+01	-3.2173358544e+00	-9.4066291905e-02
 9.9702056147e+00	-2.8991378029e+00	-8.2017789316e-02
 9.6520075632e+00	-2.5809397513e+00	-7.0101848823e-02
 9.3338095116e+00	-2.2627416998e+00	-5.8463412465e-02
 9.0156114601e+00	-1.9445436483e+00	-4.7247432800e-02
 8.6974134086e+00	-1.6263455967e+00	-4.1700976735e-02
 8.3792153570e+00	-1.3081475452e+00	-4.6799907681e-02
 8.0610173055e+00	-9.8994949368e-01	-5.5474823562e-02
 7.7428192540e+00	-6.7175144214e-01	-6.7353872396e-02
 7.4246212025e+00	-3.5355339060e-01	-8.2065202198e-02
 1.0677312396e+01	-3.4648232278e+00	-1.0201047149e-01
 1.0359114344e+01	-3.1466251763e+00	-9.0047969728e-02
 1.0040916293e+01	-2.8284271247e+00	-7.8129700026e-02
 9.7227182413e+00	-2.5102290732e+00	-6.6296591645e-02
 9.4045201898e+00	-2.1920310217e+00	-5.4693586739e-02
 9.0863221382e+00	-1.8738329702e+00	-4.3465631977e-02
 8.7681240867e+00	-1.5556349186e+00	-3.5077718901e-02
 8.4499260352e+00	-1.2374368671e+00	-4.0082994743e-02
 8.1317279836e+00	-9.1923881556e-01	-4.8560194731e-02
 7.8135299321e+00	-6.0104076402e-01	-6.0137466881e-02
 7.4953318806e+00	-2.8284271248e-01	-7.4442959207e-02
 1.0748023074e+01	-3.3941125497e+00	-9.7943477936e-02
 1.0429825023e+01	-3.0759144981e+00	-8.6250704924e-02
 1.0111626971e+01	-2.7577164466e+00	-7.4450754616e-02
 9.7934289194e+00	-2.4395183951e+00	-6.2688564764e-02
 9.4752308679e+00	-2.1213203436e+00	-5.1109077636e-02
 9.1570328164e+00	-1.8031222920e+00	-3.9857240018e-02
 8.8388347648e+00	-1.4849242405e+00	-2.9078003250e-02
 8.5206367133e+00	-1.1667261890e+00	-3.3339494410e-02
 8.2024386618e+00	-8.4852813744e-01	-4.1615571861e-02
 7.8842406102e+00	-5.3033008590e-01	-5.2887660683e-02
 7.5660425587e+00	-2.1213203436e-01	-6.6783908892e-02
 1.0818733752e+01	-3.3234018715e+00	-9.4210638312e-02
 1.0500535701e+01	-3.0052038200e+00	-8.2671672270e-02
 1.0182337649e+01	-2.6870057685e+00	-7.0978127860e-02
 9.8641395975e+00	-2.3688077170e+00	-5.9274942949e-02
 9.5459415460e+00	-2.0506096654e+00	-4.7707059920e-02
 9.2277434945e+00	-1.7324116139e+00	-3.6419425672e-02
 8.9095454429e+00	-1.4142135624e+00	-2.5556992989e-02
 8.5913473914e+00	-1.0960155109e+00	-2.6574975493e-02
 8.2731493399e+00	-7.7781745932e-01	-3.4646523764e-02
 7.9549512883e+00	-4.5961940778e-01	-4.5610022616e-02
 7.6367532368e+00	-1.4142135624e-01	-5.9093620064e-02
 1.0889444430e+01	-3.2526911934e+00	-9.0705119046e-02
 1.0571246379e+01	-2.9344931419e+00	-7.9308046562e-02
 1.0253048327e+01	-2.6162950904e+00	-6.7708994547e-02
 9.9348502757e+00	-2.2980970389e+00	-5.6052900982e-02
 9.6166522241e+00	-1.9798989873e+00	-4.4484708366e-02
 9.2984541726e+00	-1.6617009358e+00	-3.3149363714e-02
 8.9802561211e+00	-1.3435028843e+00	-2.2191823153e-02
 8.6620580695e+00	-1.0253048327e+00	-1.9795006807e-02
 8.3438600180e+00	-7.0710678120e-01	-2.7658619256e-02
 8.0256619665e+00	-3.8890872966e-01	-3.8310121494e-02
 7.7074639149e+00	-7.0710678120e-02	-5.1377661538e-02
 1.0960155108e+01	-3.1819805153e+00	-8.7424094953e-02
 1.0641957057e+01	-2.8637824638e+00	-7.6157002611e-02
 1.0323759005e+01	-2.5455844123e+00	-6.4640529482e-02
 1.0005560954e+01	-2.2273863607e+00	-5.3019613664e-02
 9.6873629022e+00	-1.9091883092e+00	-4.1439197770e-02
 9.3691648507e+00	-1.5909902577e+00	-3.0044228930e-02
 9.0509667992e+00	-1.2727922061e+00	-1.8979658789e-02
 8.7327687476e+00	-9.5459415461e-01	-1.3005157166e-02
 8.4145706961e+00	-6.3639610308e-01	-2.0657427149e-02
 8.0963726446e+00	-3.1819805154e-01	-3.0993526131e-02
 7.7781745931e+00	 2.7755575616e-17	-4.3641602128e-02
 1.1030865787e+01	-3.1112698372e+00	-8.4364740867e-02
 1.0712667735e+01	-2.7930717857e+00	-7.3215715243e-02
 1.0394469683e+01	-2.4748737341e+00	-6.1769907487e-02
 1.0076271632e+01	-2.1566756826e+00	-5.0172255810e-02
 9.7580735804e+00	-1.8384776311e+00	-3.8567702942e-02
 9.4398755288e+00	-1.5202795796e+00	-2.7101196126e-02
 9.1216774773e+00	-1.2020815280e+00	-1.5917687123e-02
 8.8034794258e+00	-8.8388347649e-01	-6.2109953821e-03
 8.4852813742e+00	-5.6568542496e-01	-1.3648516256e-02
 8.1670833227e+00	-2.4748737342e-01	-2.3665805339e-02
 7.8488852712e+00	 7.0710678120e-02	-3.5891010647e-02
 1.1101576465e+01	-3.0405591591e+00	-8.1524231636e-02
 1.0783378413e+01	-2.7223611075e+00	-7.0481359302e-02
 1.0465180362e+01	-2.4041630560e+00	-5.9094303398e-02
 1.0146982310e+01	-2.0859650045e+00	-4.7508002252e-02
 9.8287842585e+00	-1.7677669530e+00	-3.5867398706e-02
 9.5105862070e+00	-1.4495689014e+00	-2.4317440120e-02
 9.1923881554e+00	-1.1313708499e+00	-1.3003078370e-02
 8.8741901039e+00	-8.1317279837e-01	-2.0692703709e-03
 8.5559920524e+00	-4.9497474684e-01	-6.6374553927e-03
 8.2377940008e+00	-1.7677669530e-01	-1.6332527933e-02
 7.9195959493e+00	 1.4142135624e-01	-2.8131455908e-02
 1.1172287143e+01	-2.9698484809e+00	-7.8899742124e-02
 1.0854089091e+01	-2.6516504294e+00	-6.7951109647e-02
 1.0535891040e+01	-2.3334523779e+00	-5.6610892071e-02
 1.0217692988e+01	-2.0152543264e+00	-4.5024027838e-02
 9.8994949366e+00	-1.6970562748e+00	-3.3335459907e-02
 9.5812968851e+00	-1.3788582233e+00	-2.1690135751e-02
 9.2630988335e+00	-1.0606601718e+00	-1.0233007362e-02
 8.9449007820e+00	-7.4246212025e-01	 8.9096571409e-04
 8.6267027305e+00	-4.2426406872e-01	 3.7018662851e-04
 8.3085046789e+00	-1.0606601718e-01	-8.9992627266e-03
 7.9903066274e+00	 2.1213203436e-01	-2.0368506725e-02
 1.1242997821e+01	-2.8991378028e+00	-7.6488447214e-02
 1.0924799769e+01	-2.5809397513e+00	-6.5622141153e-02
 1.0606601718e+01	-2.2627416998e+00	-5.4316848373e-02
 1.0288403666e+01	-1.9445436483e+00	-4.2717507431e-02
 9.9702056147e+00	-1.6263455967e+00	-3.0969061400e-02
 9.6520075632e+00	-1.3081475452e+00	-1.9216457870e-02
 9.3338095117e+00	-9.8994949366e-01	-7.6046489466e-03
 9.0156114601e+00	-6.7175144213e-01	 3.7214010882e-03
 8.6974134086e+00	-3.5355339060e-01	 7.3688409938e-03
 8.3792153571e+00	-3.5355339059e-02	-1.6715785328e-03
 8.0610173055e+00	 2.8284271248e-01	-1.2607731913e-02
 1.1313708499e+01	-2.8284271247e+00	-7.4287521801e-02
 1.0995510447e+01	-2.5102290732e+00	-6.3491628711e-02
 1.0677312396e+01	-2.1920310217e+00	-5.2209347191e-02
 1.0359114344e+01	-1.8738329701e+00	-4.0585615912e-02
 1.0040916293e+01	-1.5556349186e+00	-2.8765378062e-02
 9.7227182413e+00	-1.2374368671e+00	-1.6893581347e-02
 9.4045201898e+00	-9.1923881554e-01	-5.1151779855e-03
 9.0863221382e+00	-6.0104076401e-01	 6.4248752835e-03
 8.7681240867e+00	-2.8284271248e-01	 1.4352938890e-02
 8.4499260352e+00	 3.5355339061e-02	 5.6449558343e-03
 8.1317279837e+00	 3.5355339060e-01	-4.8547002834e-03
 7.4246212025e+00	-3.5355339060e-01	-8.2065202198e-02
 7.1064231509e+00	-3.5355339061e-02	-7.0297976321e-02
 6.7882250994e+00	 2.8284271248e-01	-5.2382943225e-02
 6.4700270479e+00	 6.0104076401e-01	-2.7948250923e-02
 6.1518289963e+00	 9.1923881554e-01	 3.3779525674e-03
 5.8336309448e+00	 1.2374368671e+00	 4.1967519231e-02
 5.5154328933e+00	 1.5556349186e+00	 8.8192301051e-02
 5.1972348417e+00	 1.8738329701e+00	 1.4242415001e-01
 4.8790367902e+00	 2.1920310217e+00	 2.0503491810e-01
 4.5608387386e+00	 2.5102290732e+00	 2.7639645730e-01
 4.2426406871e+00	 2.8284271247e+00	 3.5688061959e-01
 7.4953318806e+00	-2.8284271248e-01	-7.4442959207e-02
 7.1771338290e+00	 3.5355339059e-02	-6.2474578460e-02
 6.8589357775e+00	 3.5355339060e-01	-4.3582939695e-02
 6.5407377260e+00	 6.7175144213e-01	-1.7396190929e-02
 6.2225396744e+00	 9.8994949366e-01	 1.6457519823e-02
 5.9043416229e+00	 1.3081475452e+00	 5.8350044544e-02
 5.5861435714e+00	 1.6263455967e+00	 1.0865323522e-01
 5.2679455198e+00	 1.9445436483e+00	 1.6773894383e-01
 4.9497474683e+00	 2.2627416998e+00	 2.3597902237e-01
 4.6315494168e+00	 2.5809397513e+00	 3.1374532280e-01
 4.3133513652e+00	 2.8991378028e+00	 4.0140969713e-01
 7.5660425587e+00	-2.1213203436e-01	-6.6783908892e-02
 7.2478445072e+00	 1.0606601718e-01	-5.4993395353e-02
 6.9296464556e+00	 4.2426406872e-01	-3.5504173001e-02
 6.6114484041e+00	 7.4246212025e-01	-7.9443898502e-03
 6.2932503526e+00	 1.0606601718e+00	 2.8057806082e-02
 5.9750523010e+00	 1.3788582233e+00	 7.2874266781e-02
 5.6568542495e+00	 1.6970562748e+00	 1.2687684423e-01
 5.3386561980e+00	 2.0152543264e+00	 1.9043739041e-01
 5.0204581464e+00	 2.3334523779e+00	 2.6392775731e-01
 4.7022600949e+00	 2.6516504294e+00	 3.4771979692e-01
 4.3840620433e+00	 2.9698484809e+00	 4.4218536121e-01
 7.6367532368e+00	-1.4142135624e-01	-5.9093620064e-02
 7.3185551853e+00	 1.7677669530e-01	-4.7859995815e-02
 7.0003571337e+00	 4.9497474684e-01	-2.8152211955e-02
 6.6821590822e+00	 8.1317279837e-01	 4.0158349963e-04
 6.3639610307e+00	 1.1313708499e+00	 3.8173242533e-02
 6.0457629791e+00	 1.4495689014e+00	 8.5534617129e-02
 5.7275649276e+00	 1.7677669530e+00	 1.4285755927e-01
 5.4093668761e+00	 2.0859650045e+00	 2.1051392094e-01
 5.0911688245e+00	 2.4041630560e+00	 2.8887555413e-01
 4.7729707730e+00	 2.7223611075e+00	 3.7831431082e-01
 4.4547727215e+00	 3.0405591591e+00	 4.7920204299e-01
 7.7074639149e+00	-7.0710678120e-02	-5.1377661538e-02
 7.3892658634e+00	 2.4748737342e-01	-4.1079948659e-02
 7.0710678119e+00	 5.6568542496e-01	-2.1532625371e-02
 6.7528697603e+00	 8.8388347649e-01	 7.6361603069e-03
 6.4346717088e+00	 1.2020815280e+00	 4.6798260360e-02
 6.1164736573e+00	 1.5202795796e+00	 9.6325526773e-02
 5.7982756057e+00	 1.8384776311e+00	 1.5658981153e-01
 5.4800775542e+00	 2.1566756826e+00	 2.2796296661e-01
 5.1618795027e+00	 2.4748737341e+00	 3.1081684401e-01
 4.8436814511e+00	 2.7930717857e+00	 4.0552329569e-01
 4.5254833996e+00	 3.1112698372e+00	 5.1245417366e-01
 7.7781745931e+00	 2.7755575616e-17	-4.3641602128e-02
 7.4599765415e+00	 3.1819805154e-01	-3.4658822698e-02
 7.1417784900e+00	 6.3639610308e-01	-1.5650982064e-02
 6.8235804385e+00	 9.5459415461e-01	 1.3753771758e-02
 6.5053823869e+00	 1.2727922061e+00	 5.3927290751e-02
 6.1871843354e+00	 1.5909902577e+00	 1.0524142690e-01
 5.8689862839e+00	 1.9091883092e+00	 1.6806803219e-01
 5.5507882323e+00	 2.2273863607e+00	 2.4277895860e-01
 5.2325901808e+00	 2.5455844123e+00	 3.2974605812e-01
 4.9143921292e+00	 2.8637824638e+00	 4.2934118273e-01
 4.5961940777e+00	 3.1819805153e+00	 5.4193618442e-01
 7.8488852712e+00	 7.0710678120e-02	-3.5891010647e-02
 7.5306872196e+00	 3.8890872966e-01	-2.8602186746e-02
 7.2124891681e+00	 7.0710678120e-01	-1.0512850846e-02
 6.8942911166e+00	 1.0253048327e+00	 1.8748849039e-02
 6.5760930650e+00	 1.3435028843e+00	 5.9554764892e-02
 6.2578950135e+00	 1.6617009358e+00	 1.1227674870e-01
 5.9396969620e+00	 1.9798989873e+00	 1.7728665244e-01
 5.6214989104e+00	 2.2980970389e+00	 2.5495632810e-01
 5.3033008589e+00	 2.6162950904e+00	 3.4565762767e-01
 4.9851028074e+00	 2.9344931419e+00	 4.4976240312e-01
 4.6669047558e+00	 3.2526911934e+00	 5.6764250645e-01
 7.9195959493e+00	 1.4142135624e-01	-2.8131455908e-02
 7.6013978978e+00	 4.5961940778e-01	-2.2915609618e-02
 7.2831998462e+00	 7.7781745932e-01	-6.1238005308e-03
 6.9650017947e+00	 1.0960155109e+00	 2.2615823337e-02
 6.6468037432e+00	 1.4142135624e+00	 6.3675113970e-02
 6.3286056916e+00	 1.7324116139e+00	 1.1742592335e-01
 6.0104076401e+00	 2.0506096654e+00	 1.8424010347e-01
 5.6922095886e+00	 2.3688077170e+00	 2.6448950630e-01
 5.3740115370e+00	 2.6870057685e+00	 3.5854598383e-01
 5.0558134855e+00	 3.0052038200e+00	 4.6678138804e-01
 4.7376154339e+00	 3.3234018715e+00	 5.8956757093e-01
 7.9903066274e+00	 2.1213203436e-01	-2.0368506725e-02
 7.6721085759e+00	 5.3033008590e-01	-1.7604660126e-02
 7.3539105243e+00	 8.4852813744e-01	-2.4893999328e-03
 7.0357124728e+00	 1.1667261890e+00	 2.5349125838e-02
 6.7175144213e+00	 1.4849242405e+00	 6.6282769170e-02
 6.3993163697e+00	 1.8031222920e+00	 1.2068338205e-01
 6.0811183182e+00	 2.1213203436e+00	 1.8892281645e-01
 5.7629202667e+00	 2.4395183951e+00	 2.7137292437e-01
 5.4447222151e+00	 2.7577164466e+00	 3.6840555779e-01
 5.1265241636e+00	 3.0759144981e+00	 4.8039256869e-01
 4.8083261121e+00	 3.3941125497e+00	 6.0770580905e-01
 8.0610173055e+00	 2.8284271248e-01	-1.2607731913e-02
 7.7428192540e+00	 6.0104076402e-01	-1.2674907084e-02
 7.4246212025e+00	 9.1923881556e-01	 3.8478213480e-04
 7.1064231509e+00	 1.2374368671e+00	 2.6943187728e-02
 6.7882250994e+00	 1.5556349186e+00	 6.7372161678e-02
 6.4700270479e+00	 1.8738329702e+00	 1.2204355597e-01
 6.1518289963e+00	 2.1920310217e+00	 1.9132922259e-01
 5.8336309448e+00	 2.5102290732e+00	 2.7560101352e-01
 5.5154328933e+00	 2.8284271247e+00	 3.7523078074e-01
 5.1972348417e+00	 3.1466251763e+00	 4.9059037624e-01
 4.8790367902e+00	 3.4648232278e+00	 6.2164211926e-01
 8.1317279837e+00	 3.5355339060e-01	-4.8547002834e-03
 7.8135299321e+00	 6.7175144214e-01	-8.1319193059e-03
 7.4953318806e+00	 9.8994949368e-01	 2.4931768583e-03
 7.1771338291e+00	 1.3081475452e+00	 2.7392440193e-02
 6.8589357775e+00	 1.6263455967e+00	 6.6937722683e-02
 6.5407377260e+00	 1.9445436483e+00	 1.2150087631e-01
 6.2225396745e+00	 2.2627416998e+00	 1.9145375306e-01
 5.9043416229e+00	 2.5809397513e+00	 2.7716820492e-01
 5.5861435714e+00	 2.8991378029e+00	 3.7901608386e-01
 5.2679455198e+00	 3.2173358544e+00	 4.9736924188e-01
 4.9497474683e+00	 3.5355339059e+00	 6.3046697328e-01
 1.1313708499e+01	-2.8284271247e+00	-7.4287521786e-02
 1.0995510447e+01	-2.5102290732e+00	-6.8555736660e-02
 1.0677312396e+01	-2.1920310217e+00	-6.1064962587e-02
 1.0359114344e+01	-1.8738329701e+00	-5.1960138240e-02
 1.0040916293e+01	-1.5556349186e+00	-4.1386206808e-02
 9.7227182413e+00	-1.2374368671e+00	-2.9488115994e-02
 9.4045201898e+00	-9.1923881554e-01	-1.6410818020e-02
 9.0863221382e+00	-6.0104076401e-01	-2.2992696231e-03
 8.7681240867e+00	-2.8284271248e-01	 9.4728896251e-03
 8.4499260352e+00	 3.5355339061e-02	 5.8816027263e-03
 8.1317279837e+00	 3.5355339060e-01	 1.7712432792e-03
 1.1419774516e+01	-2.7223611075e+00	-6.8453062359e-02
 1.1101576465e+01	-2.4041630560e+00	-6.2934633777e-02
 1.0783378413e+01	-2.0859650045e+00	-5.5478720108e-02
 1.0465180362e+01	-1.7677669530e+00	-4.6230260199e-02
 1.0146982310e+01	-1.4495689014e+00	-3.5334197410e-02
 9.8287842585e+00	-1.1313708499e+00	-2.2935479617e-02
 9.5105862070e+00	-8.1317279837e-01	-9.1790592146e-03
 9.1923881554e+00	-4.9497474683e-01	 5.7901068876e-03
 8.8741901039e+00	-1.7677669530e-01	 2.1827056701e-02
 8.5559920524e+00	 1.4142135624e-01	 2.2440139949e-02
 8.2377940008e+00	 4.5961940778e-01	 1.9827379647e-02
 1.1525840533e+01	-2.6162950904e+00	-6.2696590720e-02
 1.1207642482e+01	-2.2980970388e+00	-5.7512173997e-02
 1.0889444430e+01	-1.9798989873e+00	-5.0211775842e-02
 1.0571246379e+01	-1.6617009358e+00	-4.0940335275e-02
 1.0253048327e+01	-1.3435028843e+00	-2.9842795827e-02
 9.9348502757e+00	-1.0253048327e+00	-1.7064105549e-02
 9.6166522241e+00	-7.0710678119e-01	-2.7492170053e-03
 9.2984541726e+00	-3.8890872965e-01	 1.2956912721e-02
 8.9802561211e+00	-7.0710678118e-02	 2.9909316609e-02
 8.6620580695e+00	 2.4748737342e-01	 3.7994572630e-02
 8.3438600180e+00	 5.6568542496e-01	 3.6739615820e-02
 1.1631906551e+01	-2.5102290732e+00	-5.7008572349e-02
 1.1313708499e+01	-2.1920310217e+00	-5.2278822781e-02
 1.0995510447e+01	-1.8738329701e+00	-4.5254595231e-02
 1.0677312396e+01	-1.5556349186e+00	-3.6080828891e-02
 1.0359114344e+01	-1.2374368671e+00	-2.4902467464e-02
 1.0040916293e+01	-9.1923881555e-01	-1.1864459174e-02
 9.7227182413e+00	-6.0104076401e-01	 2.8882432426e-03
 9.4045201898e+00	-2.8284271248e-01	 1.9210682530e-02
 9.0863221383e+00	 3.5355339061e-02	 3.6957896916e-02
 8.7681240867e+00	 3.5355339060e-01	 5.2526106023e-02
 8.4499260352e+00	 6.7175144214e-01	 5.2489157052e-02
 1.1737972568e+01	-2.4041630560e+00	-5.1379472807e-02
 1.1419774516e+01	-2.0859650045e+00	-4.7225045672e-02
 1.1101576465e+01	-1.7677669530e+00	-4.0597643799e-02
 1.0783378413e+01	-1.4495689014e+00	-3.1642206550e-02
 1.0465180362e+01	-1.1313708499e+00	-2.0503677805e-02
 1.0146982310e+01	-8.1317279837e-01	-7.3270059575e-03
 9.8287842585e+00	-4.9497474684e-01	 7.7428560824e-03
 9.5105862070e+00	-1.7677669530e-01	 2.4560950887e-02
 9.1923881554e+00	 1.4142135624e-01	 4.2982316513e-02
 8.8741901039e+00	 4.5961940778e-01	 6.2861985915e-02
 8.5559920524e+00	 7.7781745932e-01	 6.7057208597e-02
 1.1844038585e+01	-2.2980970389e+00	-4.5799757739e-02
 1.1525840533e+01	-1.9798989873e+00	-4.2341308293e-02
 1.1207642482e+01	-1.6617009358e+00	-3.6231387149e-02
 1.0889444430e+01	-1.3435028843e+00	-2.7614933840e-02
 1.0571246379e+01	-1.0253048327e+00	-1.6636892417e-02
 1.0253048327e+01	-7.0710678120e-01	-3.4422114478e-03
 9.9348502757e+00	-3.8890872966e-01	 1.1824155986e-02
 9.6166522241e+00	-7.0710678121e-02	 2.9017252284e-02
 9.2984541726e+00	 2.4748737342e-01	 4.7992115331e-02
 8.9802561211e+00	 5.6568542496e-01	 6.8603772882e-02
 8.6620580695e+00	 8.8388347649e-01	 8.0424975710e-02
 1.1950104602e+01	-2.1920310217e+00	-4.0259892867e-02
 1.1631906551e+01	-1.8738329702e+00	-3.7618076351e-02
 1.1313708499e+01	-1.5556349186e+00	-3.2146290968e-02
 1.0995510447e+01	-1.2374368671e+00	-2.3989476426e-02
 1.0677312396e+01	-9.1923881556e-01	-1.3292576948e-02
 1.0359114344e+01	-6.0104076402e-01	-2.0054127299e-04
 1.0040916293e+01	-2.8284271248e-01	 1.5141677344e-02
 9.7227182413e+00	 3.5355339057e-02	 3.2589121130e-02
 9.4045201898e+00	 3.5355339059e-01	 5.1996827798e-02
 9.0863221383e+00	 6.7175144213e-01	 7.3219830541e-02
 8.7681240867e+00	 9.8994949367e-01	 9.2573663644e-02
 1.2056170619e+01	-2.0859650045e+00	-3.4750343999e-02
 1.1737972568e+01	-1.7677669530e+00	-3.3045815631e-02
 1.1419774516e+01	-1.4495689015e+00	-2.8332821024e-02
 1.1101576465e+01	-1.1313708499e+00	-2.0756300057e-02
 1.0783378413e+01	-8.1317279838e-01	-1.0461197126e-02
 1.0465180362e+01	-4.9497474684e-01	 2.4075388571e-03
 1.0146982310e+01	-1.7677669530e-01	 1.7704954465e-02
 9.8287842585e+00	 1.4142135623e-01	 3.5286091754e-02
 9.5105862070e+00	 4.5961940777e-01	 5.5005988262e-02
 9.1923881554e+00	 7.7781745931e-01	 7.6719677012e-02
 8.8741901039e+00	 1.0960155108e+00	 1.0028218592e-01
 1.2162236636e+01	-1.9798989874e+00	-2.9261577020e-02
 1.1844038585e+01	-1.6617009358e+00	-2.8614992001e-02
 1.1525840533e+01	-1.3435028843e+00	-2.4781443164e-02
 1.1207642482e+01	-1.0253048327e+00	-1.7905870562e-02
 1.0889444430e+01	-7.0710678120e-01	-8.1332187624e-03
 1.0571246379e+01	-3.8890872966e-01	 4.3915631513e-03
 1.0253048327e+01	-7.0710678125e-02	 1.9523521579e-02
 9.9348502757e+00	 2.4748737341e-01	 3.7117698403e-02
 9.6166522241e+00	 5.6568542495e-01	 5.7029130991e-02
 9.2984541726e+00	 8.8388347649e-01	 7.9112852192e-02
 8.9802561211e+00	 1.2020815280e+00	 1.0322388469e-01
 1.2268302654e+01	-1.8738329702e+00	-2.3784057899e-02
 1.1950104602e+01	-1.5556349186e+00	-2.4316071410e-02
 1.1631906551e+01	-1.2374368671e+00	-2.1482623320e-02
 1.1313708499e+01	-9.1923881556e-01	-1.5428653852e-02
 1.0995510447e+01	-6.0104076402e-01	-6.2991077478e-03
 1.0677312396e+01	-2.8284271248e-01	 5.7610657372e-03
 1.0359114344e+01	 3.5355339053e-02	 2.0606912830e-02
 1.0040916293e+01	 3.5355339059e-01	 3.8093475242e-02
 9.7227182413e+00	 6.7175144213e-01	 5.8075790167e-02
 9.4045201898e+00	 9.8994949366e-01	 8.0408890283e-02
 9.0863221382e+00	 1.3081475452e+00	 1.0494780375e-01
 1.2374368671e+01	-1.7677669530e+00	-1.8308252686e-02
 1.2056170619e+01	-1.4495689015e+00	-2.0139519889e-02
 1.1737972568e+01	-1.1313708499e+00	-1.8426827501e-02
 1.1419774516e+01	-8.1317279838e-01	-1.3315115919e-02
 1.1101576465e+01	-4.9497474684e-01	-4.9493300557e-03
 1.0783378413e+01	-1.7677669531e-01	 6.5255806610e-03
 1.0465180362e+01	 1.4142135623e-01	 2.0964662286e-02
 1.0146982310e+01	 4.5961940777e-01	 3.8222956357e-02
 9.8287842585e+00	 7.7781745930e-01	 5.8155499896e-02
 9.5105862070e+00	 1.0960155108e+00	 8.0617325409e-02
 9.1923881554e+00	 1.4142135624e+00	 1.0546346088e-01
 8.1317279837e+00	 3.5355339060e-01	 1.7712432792e-03
 7.8135299321e+00	 6.7175144214e-01	 4.6561187233e-03
 7.4953318806e+00	 9.8994949368e-01	 1.9716304433e-02
 7.1771338291e+00	 1.3081475452e+00	 4.7323652392e-02
 6.8589357775e+00	 1.6263455967e+00	 8.7850014584e-02
 6.5407377260e+00	 1.9445436483e+00	 1.4166724299e-01
 6.2225396745e+00	 2.2627416998e+00	 2.0914718960e-01
 5.9043416229e+00	 2.5809397513e+00	 2.9066170640e-01
 5.5861435714e+00	 2.8991378029e+00	 3.8658264536e-01
 5.2679455198e+00	 3.2173358544e+00	 4.9728185848e-01
 4.9497474683e+00	 3.5355339059e+00	 6.2099864005e-01
 8.2377940008e+00	 4.5961940778e-01	 1.9827379647e-02
 7.9195959493e+00	 7.7781745932e-01	 1.9865632199e-02
 7.6013978978e+00	 1.0960155109e+00	 3.1478232086e-02
 7.2831998462e+00	 1.4142135624e+00	 5.5037031294e-02
 6.9650017947e+00	 1.7324116139e+00	 9.0913881805e-02
 6.6468037432e+00	 2.0506096655e+00	 1.3948063560e-01
 6.3286056916e+00	 2.3688077170e+00	 2.0110914467e-01
 6.0104076401e+00	 2.6870057685e+00	 2.7617126100e-01
 5.6922095886e+00	 3.0052038200e+00	 3.6503883656e-01
 5.3740115370e+00	 3.3234018716e+00	 4.6808372335e-01
 5.0558134855e+00	 3.6415999231e+00	 5.8105174236e-01
 8.3438600180e+00	 5.6568542496e-01	 3.6739615820e-02
 8.0256619665e+00	 8.8388347650e-01	 3.4272594210e-02
 7.7074639149e+00	 1.2020815280e+00	 4.2778957006e-02
 7.3892658634e+00	 1.5202795796e+00	 6.2630556193e-02
 7.0710678119e+00	 1.8384776311e+00	 9.4199243754e-02
 6.7528697603e+00	 2.1566756826e+00	 1.3785687167e-01
 6.4346717088e+00	 2.4748737342e+00	 1.9397529193e-01
 6.1164736573e+00	 2.7930717857e+00	 2.6292635652e-01
 5.7982756057e+00	 3.1112698372e+00	 3.4508191742e-01
 5.4800775542e+00	 3.4294678887e+00	 4.4081382661e-01
 5.1618795027e+00	 3.7476659403e+00	 5.4349954270e-01
 8.4499260352e+00	 6.7175144214e-01	 5.2489157052e-02
 8.1317279837e+00	 9.8994949368e-01	 4.7858210011e-02
 7.8135299321e+00	 1.3081475452e+00	 5.3599684447e-02
 7.4953318806e+00	 1.6263455967e+00	 7.0085432343e-02
 7.1771338291e+00	 1.9445436483e+00	 9.7687305684e-02
 6.8589357775e+00	 2.2627416998e+00	 1.3677715645e-01
 6.5407377260e+00	 2.5809397513e+00	 1.8772683664e-01
 6.2225396745e+00	 2.8991378029e+00	 2.5090819821e-01
 5.9043416229e+00	 3.2173358544e+00	 3.2669309317e-01
 5.5861435714e+00	 3.5355339059e+00	 4.1363755610e-01
 5.2679455198e+00	 3.8537319574e+00	 5.0834105175e-01
 8.5559920524e+00	 7.7781745932e-01	 6.7057208597e-02
 8.2377940008e+00	 1.0960155109e+00	 6.0603684856e-02
 7.9195959493e+00	 1.4142135624e+00	 6.3921619662e-02
 7.6013978978e+00	 1.7324116139e+00	 7.7382864998e-02
 7.2831998462e+00	 2.0506096655e+00	 1.0135927285e-01
 6.9650017947e+00	 2.3688077170e+00	 1.3622269520e-01
 6.6468037432e+00	 2.6870057685e+00	 1.8234498403e-01
 6.3286056916e+00	 3.0052038200e+00	 2.4009799133e-01
 6.0104076401e+00	 3.3234018716e+00	 3.0985356908e-01
 5.6922095886e+00	 3.6415999231e+00	 3.8809112056e-01
 5.3740115370e+00	 3.9597979746e+00	 4.7557528157e-01
 8.6620580695e+00	 8.8388347649e-01	 8.0424975710e-02
 8.3438600180e+00	 1.2020815280e+00	 7.2490223999e-02
 8.0256619665e+00	 1.5202795796e+00	 7.3725967905e-02
 7.7074639149e+00	 1.8384776311e+00	 8.4504059413e-02
 7.3892658634e+00	 2.1566756826e+00	 1.0519635051e-01
 7.0710678119e+00	 2.4748737342e+00	 1.3617469317e-01
 6.7528697603e+00	 2.7930717857e+00	 1.7781093938e-01
 6.4346717088e+00	 3.1112698372e+00	 2.3047694114e-01
 6.1164736573e+00	 3.4294678888e+00	 2.9454455041e-01
 5.7982756057e+00	 3.7476659403e+00	 3.6457657739e-01
 5.4800775542e+00	 4.0658639918e+00	 4.4520124423e-01
 8.7681240867e+00	 9.8994949367e-01	 9.2573663644e-02
 8.4499260352e+00	 1.3081475452e+00	 8.3499032693e-02
 8.1317279837e+00	 1.6263455967e+00	 8.2993934430e-02
 7.8135299321e+00	 1.9445436483e+00	 9.1430220840e-02
 7.4953318806e+00	 2.2627416998e+00	 1.0917974391e-01
 7.1771338291e+00	 2.5809397513e+00	 1.3661435561e-01
 6.8589357775e+00	 2.8991378029e+00	 1.7410590794e-01
 6.5407377260e+00	 3.2173358544e+00	 2.2202625287e-01
 6.2225396745e+00	 3.5355339059e+00	 2.7924477916e-01
 5.9043416229e+00	 3.8537319575e+00	 3.4309293698e-01
 5.5861435714e+00	 4.1719300090e+00	 4.1721795176e-01
 8.8741901039e+00	 1.0960155108e+00	 1.0028218592e-01
 8.5559920524e+00	 1.4142135624e+00	 9.3611316193e-02
 8.2377940008e+00	 1.7324116139e+00	 9.1706724492e-02
 7.9195959493e+00	 2.0506096655e+00	 9.8142554534e-02
 7.6013978978e+00	 2.3688077170e+00	 1.1329065830e-01
 7.2831998462e+00	 2.6870057685e+00	 1.3752288778e-01
 6.9650017947e+00	 3.0052038201e+00	 1.7121109495e-01
 6.6468037432e+00	 3.3234018716e+00	 2.1472713180e-01
 6.3286056916e+00	 3.6415999231e+00	 2.6527648148e-01
 6.0104076401e+00	 3.9597979746e+00	 3.2363921132e-01
 5.6922095886e+00	 4.2779960262e+00	 3.9162441616e-01
 8.9802561211e+00	 1.2020815280e+00	 1.0322388469e-01
 8.6620580695e+00	 1.5202795796e+00	 1.0280827975e-01
 8.3438600180e+00	 1.8384776311e+00	 9.9845543345e-02
 8.0256619665e+00	 2.1566756826e+00	 1.0462226575e-01
 7.7074639149e+00	 2.4748737342e+00	 1.1751029895e-01
 7.3892658634e+00	 2.7930717857e+00	 1.3888149493e-01
 7.0710678119e+00	 3.1112698372e+00	 1.6910770568e-01
 6.7528697603e+00	 3.4294678888e+00	 2.0856078317e-01
 6.4346717088e+00	 3.7476659403e+00	 2.5297727028e-01
 6.1164736573e+00	 4.0658639918e+00	 3.0621441239e-01
 5.7982756057e+00	 4.3840620433e+00	 3.6841964945e-01
 9.0863221382e+00	 1.3081475452e+00	 1.0494780375e-01
 8.7681240867e+00	 1.6263455967e+00	 1.1107112863e-01
 8.4499260352e+00	 1.9445436483e+00	 1.0739159624e-01
 8.1317279836e+00	 2.2627416998e+00	 1.1085055974e-01
 7.8135299321e+00	 2.5809397513e+00	 1.2181987110e-01
 7.4953318806e+00	 2.8991378029e+00	 1.4067138232e-01
 7.1771338290e+00	 3.2173358544e+00	 1.6777694537e-01
 6.8589357775e+00	 3.5355339059e+00	 2.0231591701e-01
 6.5407377260e+00	 3.8537319575e+00	 2.4234615569e-01
 6.2225396745e+00	 4.1719300090e+00	 2.9081755212e-01
 5.9043416229e+00	 4.4901280605e+00	 3.4760266358e-01
 9.1923881554e+00	 1.4142135624e+00	 1.0546346088e-01
 8.8741901039e+00	 1.7324116139e+00	 1.1526581567e-01
 8.5559920524e+00	 2.0506096654e+00	 1.1432608844e-01
 8.2377940008e+00	 2.3688077170e+00	 1.1680864176e-01
 7.9195959493e+00	 2.6870057685e+00	 1.2620058002e-01
 7.6013978978e+00	 3.0052038200e+00	 1.4287375520e-01
 7.2831998462e+00	 3.3234018716e+00	 1.6720001928e-01
 6.9650017947e+00	 3.6415999231e+00	 1.9710343289e-01
 6.6468037432e+00	 3.9597979746e+00	 2.3338214959e-01
 6.3286056916e+00	 4.2779960262e+00	 2.7744764245e-01
 6.0104076401e+00	 4.5961940777e+00	 3.2917247050e-01
 1.2374368671e+01	-1.7677669530e+00	-1.8308252686e-02
 1.2056170619e+01	-1.4495689015e+00	-2.0139519889e-02
 1.1737972568e+01	-1.1313708499e+00	-1.8426827501e-02
 1.1419774516e+01	-8.1317279838e-01	-1.3315115919e-02
 1.1101576465e+01	-4.9497474684e-01	-4.9493300557e-03
 1.0783378413e+01	-1.7677669531e-01	 6.5255806610e-03
 1.0465180362e+01	 1.4142135623e-01	 2.0964662286e-02
 1.0146982310e+01	 4.5961940777e-01	 3.8222956357e-02
 9.8287842585e+00	 7.7781745930e-01	 5.8155499896e-02
 9.5105862070e+00	 1.0960155108e+00	 8.0617325409e-02
 9.1923881554e+00	 1.4142135624e+00	 1.0546346088e-01
 1.2480434688e+01	-1.6617009358e+00	-1.2926652699e-02
 1.2162236636e+01	-1.3435028843e+00	-1.4768090819e-02
 1.1844038585e+01	-1.0253048327e+00	-1.3151087780e-02
 1.1525840533e+01	-7.0710678120e-01	-8.2205841534e-03
 1.1207642482e+01	-3.8890872966e-01	-1.2152502305e-04
 1.0889444430e+01	-7.0710678127e-02	 1.1001140010e-02
 1.0571246379e+01	 2.4748737341e-01	 2.5002456827e-02
 1.0253048327e+01	 5.6568542495e-01	 4.1737466796e-02
 9.9348502757e+00	 8.8388347648e-01	 6.1061206766e-02
 9.6166522241e+00	 1.2020815280e+00	 8.2828709068e-02
 9.2984541726e+00	 1.5202795796e+00	 1.0689500152e-01
 1.2586500705e+01	-1.5556349186e+00	-7.7317493407e-03
 1.2268302654e+01	-1.2374368671e+00	-9.6329210189e-03
 1.1950104602e+01	-9.1923881556e-01	-8.1611697673e-03
 1.1631906551e+01	-6.0104076402e-01	-3.4614363275e-03
 1.1313708499e+01	-2.8284271249e-01	 4.3213340432e-03
 1.0995510447e+01	 3.5355339052e-02	 1.5042191571e-02
 1.0677312396e+01	 3.5355339059e-01	 2.8556181967e-02
 1.0359114344e+01	 6.7175144212e-01	 4.4718346424e-02
 1.0040916293e+01	 9.8994949366e-01	 6.3383721619e-02
 9.7227182413e+00	 1.3081475452e+00	 8.4407339713e-02
 9.4045201898e+00	 1.6263455967e+00	 1.0764422835e-01
 1.2692566722e+01	-1.4495689015e+00	-2.7140089029e-03
 1.2374368671e+01	-1.1313708499e+00	-4.7244767641e-03
 1.2056170619e+01	-8.1317279838e-01	-3.4475397177e-03
 1.1737972568e+01	-4.9497474684e-01	 9.7186132236e-04
 1.1419774516e+01	-1.7677669531e-01	 8.3887809263e-03
 1.1101576465e+01	 1.4142135623e-01	 1.8658269148e-02
 1.0783378413e+01	 4.5961940777e-01	 3.1635371526e-02
 1.0465180362e+01	 7.7781745930e-01	 4.7175129080e-02
 1.0146982310e+01	 1.0960155108e+00	 6.5132578317e-02
 9.8287842585e+00	 1.4142135624e+00	 8.5362751223e-02
 9.5105862070e+00	 1.7324116139e+00	 1.0772067527e-01
 1.2798632740e+01	-1.3435028843e+00	 2.1361022391e-03
 1.2480434688e+01	-1.0253048327e+00	-3.3224409816e-05
 1.2162236636e+01	-7.0710678120e-01	 9.9933603227e-04
 1.1844038585e+01	-3.8890872966e-01	 5.0888424790e-03
 1.1525840533e+01	-7.0710678127e-02	 1.2090349328e-02
 1.1207642482e+01	 2.4748737341e-01	 2.1858906461e-02
 1.0889444430e+01	 5.6568542495e-01	 3.4249559244e-02
 1.0571246379e+01	 8.8388347648e-01	 4.9117348525e-02
 1.0253048327e+01	 1.2020815280e+00	 6.6317310637e-02
 9.9348502757e+00	 1.5202795795e+00	 8.5704477395e-02
 9.6166522241e+00	 1.8384776311e+00	 1.0713387610e-01
 1.2904698757e+01	-1.2374368671e+00	 6.8281176293e-03
 1.2586500705e+01	-9.1923881556e-01	 4.4503696072e-03
 1.2268302654e+01	-6.0104076402e-01	 5.1889910649e-03
 1.1950104602e+01	-2.8284271248e-01	 8.8990407439e-03
 1.1631906551e+01	 3.5355339053e-02	 1.5435572869e-02
 1.1313708499e+01	 3.5355339059e-01	 2.4653637151e-02
 1.0995510447e+01	 6.7175144212e-01	 3.6408278781e-02
 1.0677312396e+01	 9.8994949366e-01	 5.0554538436e-02
 1.0359114344e+01	 1.3081475452e+00	 6.6947452277e-02
 1.0040916293e+01	 1.6263455967e+00	 8.5442051946e-02
 9.7227182413e+00	 1.9445436483e+00	 1.0589336457e-01
 1.3010764774e+01	-1.1313708499e+00	 1.1371570731e-02
 1.2692566722e+01	-8.1317279838e-01	 8.7358387687e-03
 1.2374368671e+01	-4.9497474684e-01	 9.1309588813e-03
 1.2056170619e+01	-1.7677669530e-01	 1.2411989637e-02
 1.1737972568e+01	 1.4142135623e-01	 1.8433985089e-02
 1.1419774516e+01	 4.5961940777e-01	 2.7051994775e-02
 1.1101576465e+01	 7.7781745930e-01	 3.8121063714e-02
 1.0783378413e+01	 1.0960155108e+00	 5.1496232410e-02
 1.0465180362e+01	 1.4142135624e+00	 6.7032536853e-02
 1.0146982310e+01	 1.7324116139e+00	 8.4585008512e-02
 9.8287842585e+00	 2.0506096654e+00	 1.0400867434e-01
 1.3116830791e+01	-1.0253048327e+00	 1.5775994924e-02
 1.2798632739e+01	-7.0710678120e-01	 1.2832716475e-02
 1.2480434688e+01	-3.8890872966e-01	 1.2834772901e-02
 1.2162236636e+01	-7.0710678124e-02	 1.5637222598e-02
 1.1844038585e+01	 2.4748737341e-01	 2.1095119446e-02
 1.1525840533e+01	 5.6568542495e-01	 2.9063512810e-02
 1.1207642482e+01	 8.8388347648e-01	 3.9397447539e-02
 1.0889444430e+01	 1.2020815280e+00	 5.1951963963e-02
 1.0571246379e+01	 1.5202795795e+00	 6.6582097899e-02
 1.0253048327e+01	 1.8384776311e+00	 8.3142880645e-02
 9.9348502757e+00	 2.1566756826e+00	 1.0148933898e-01
 1.3222896808e+01	-9.1923881556e-01	 2.0050923511e-02
 1.2904698757e+01	-6.0104076402e-01	 1.6750536047e-02
 1.2586500705e+01	-2.8284271248e-01	 1.6309966463e-02
 1.2268302654e+01	 3.5355339056e-02	 1.8584272983e-02
 1.1950104602e+01	 3.5355339059e-01	 2.3428509316e-02
 1.1631906551e+01	 6.7175144213e-01	 3.0697724654e-02
 1.1313708499e+01	 9.8994949366e-01	 4.0246963671e-02
 1.0995510447e+01	 1.3081475452e+00	 5.1931266529e-02
 1.0677312396e+01	 1.6263455967e+00	 6.5605668869e-02
 1.0359114344e+01	 1.9445436483e+00	 8.1125201818e-02
 1.0040916293e+01	 2.2627416998e+00	 9.8344891985e-02
 1.3328962825e+01	-8.1317279838e-01	 2.4205889708e-02
 1.3010764774e+01	-4.9497474684e-01	 2.0498830720e-02
 1.2692566722e+01	-1.7677669530e-01	 1.9566072824e-02
 1.2374368671e+01	 1.4142135624e-01	 2.1262674070e-02
 1.2056170619e+01	 4.5961940777e-01	 2.5443687995e-02
 1.1737972568e+01	 7.7781745931e-01	 3.1964163619e-02
 1.1419774516e+01	 1.0960155108e+00	 4.0679145445e-02
 1.1101576465e+01	 1.4142135624e+00	 5.1443673460e-02
 1.0783378413e+01	 1.7324116139e+00	 6.4112783135e-02
 1.0465180362e+01	 2.0506096654e+00	 7.8541505423e-02
 1.0146982310e+01	 2.3688077170e+00	 9.4584866761e-02
 1.3435028842e+01	-7.0710678120e-01	 2.8250426655e-02
 1.3116830791e+01	-3.8890872966e-01	 2.4087133653e-02
 1.2798632739e+01	-7.0710678122e-02	 2.2612625159e-02
 1.2480434688e+01	 2.4748737342e-01	 2.3681959053e-02
 1.2162236636e+01	 5.6568542495e-01	 2.7150188698e-02
 1.1844038585e+01	 8.8388347649e-01	 3.2872362941e-02
 1.1525840533e+01	 1.2020815280e+00	 4.0703526113e-02
 1.1207642482e+01	 1.5202795796e+00	 5.0498718029e-02
 1.0889444430e+01	 1.8384776311e+00	 6.2112973987e-02
 1.0571246379e+01	 2.1566756826e+00	 7.5401324769e-02
 1.0253048327e+01	 2.4748737342e+00	 9.0218796639e-02
 9.1923881554e+00	 1.4142135624e+00	 1.0546346088e-01
 8.8741901039e+00	 1.7324116139e+00	 1.1526581567e-01
 8.5559920524e+00	 2.0506096654e+00	 1.1432608844e-01
 8.2377940008e+00	 2.3688077170e+00	 1.1680864176e-01
 7.9195959493e+00	 2.6870057685e+00	 1.2620058002e-01
 7.6013978978e+00	 3.0052038200e+00	 1.4287375520e-01
 7.2831998462e+00	 3.3234018716e+00	 1.6720001928e-01
 6.9650017947e+00	 3.6415999231e+00	 1.9710343289e-01
 6.6468037432e+00	 3.9597979746e+00	 2.3338214959e-01
 6.3286056916e+00	 4.2779960262e+00	 2.7744764245e-01
 6.0104076401e+00	 4.5961940777e+00	 3.2917247050e-01
 9.2984541726e+00	 1.5202795796e+00	 1.0689500152e-01
 8.9802561211e+00	 1.8384776311e+00	 1.1610342676e-01
 8.6620580695e+00	 2.1566756826e+00	 1.2047226019e-01
 8.3438600180e+00	 2.4748737342e+00	 1.2126279212e-01
 8.0256619665e+00	 2.7930717857e+00	 1.2841462967e-01
 7.7074639149e+00	 3.1112698372e+00	 1.4229962483e-01
 7.3892658634e+00	 3.4294678888e+00	 1.6328962957e-01
 7.0710678119e+00	 3.7476659403e+00	 1.8828330057e-01
 6.7528697603e+00	 4.0658639918e+00	 2.2037779340e-01
 6.4346717088e+00	 4.3840620433e+00	 2.5965756650e-01
 6.1164736573e+00	 4.7022600949e+00	 3.0599517871e-01
 9.4045201898e+00	 1.6263455967e+00	 1.0764422835e-01
 9.0863221382e+00	 1.9445436483e+00	 1.1650882050e-01
 8.7681240867e+00	 2.2627416998e+00	 1.2625534547e-01
 8.4499260352e+00	 2.5809397513e+00	 1.2558479940e-01
 8.1317279836e+00	 2.8991378029e+00	 1.3072747963e-01
 7.8135299321e+00	 3.2173358544e+00	 1.4205523814e-01
 7.4953318806e+00	 3.5355339059e+00	 1.5905401356e-01
 7.1771338290e+00	 3.8537319575e+00	 1.8050249544e-01
 6.8589357775e+00	 4.1719300090e+00	 2.0866220106e-01
 6.5407377260e+00	 4.4901280605e+00	 2.4340569121e-01
 6.2225396745e+00	 4.8083261121e+00	 2.8460552448e-01
 9.5105862070e+00	 1.7324116139e+00	 1.0772067527e-01
 9.1923881554e+00	 2.0506096654e+00	 1.1649151478e-01
 8.8741901039e+00	 2.3688077170e+00	 1.2876370810e-01
 8.5559920523e+00	 2.6870057685e+00	 1.2975586885e-01
 8.2377940008e+00	 3.0052038200e+00	 1.3312033513e-01
 7.9195959493e+00	 3.3234018716e+00	 1.4212180038e-01
 7.6013978977e+00	 3.6415999231e+00	 1.5539540026e-01
 7.2831998462e+00	 3.9597979746e+00	 1.7376002931e-01
 6.9650017947e+00	 4.2779960262e+00	 1.9823438443e-01
 6.6468037432e+00	 4.5961940777e+00	 2.2869102843e-01
 6.3286056916e+00	 4.9143921292e+00	 2.6500251969e-01
 9.6166522241e+00	 1.8384776311e+00	 1.0713387610e-01
 9.2984541726e+00	 2.1566756826e+00	 1.1606104896e-01
 8.9802561211e+00	 2.4748737341e+00	 1.2785650411e-01
 8.6620580695e+00	 2.7930717857e+00	 1.3375720572e-01
 8.3438600180e+00	 3.1112698372e+00	 1.3557440144e-01
 8.0256619665e+00	 3.4294678887e+00	 1.4248051681e-01
 7.7074639149e+00	 3.7476659403e+00	 1.5252470340e-01
 7.3892658634e+00	 4.0658639918e+00	 1.6805491397e-01
 7.0710678119e+00	 4.3840620433e+00	 1.8909335530e-01
 6.7528697603e+00	 4.7022600949e+00	 2.1551258999e-01
 6.4346717088e+00	 5.0204581464e+00	 2.4718517619e-01
 9.7227182413e+00	 1.9445436483e+00	 1.0589336457e-01
 9.4045201898e+00	 2.2627416998e+00	 1.1522695682e-01
 9.0863221382e+00	 2.5809397513e+00	 1.2679577002e-01
 8.7681240867e+00	 2.8991378029e+00	 1.3757001527e-01
 8.4499260352e+00	 3.2173358544e+00	 1.3807088381e-01
 8.1317279836e+00	 3.5355339059e+00	 1.4252987504e-01
 7.8135299321e+00	 3.8537319575e+00	 1.5044093246e-01
 7.4953318806e+00	 4.1719300090e+00	 1.6338616118e-01
 7.1771338290e+00	 4.4901280605e+00	 1.8123812548e-01
 6.8589357775e+00	 4.8083261121e+00	 2.0386938772e-01
 6.5407377260e+00	 5.1265241636e+00	 2.3115250584e-01
 9.8287842585e+00	 2.0506096654e+00	 1.0400867434e-01
 9.5105862069e+00	 2.3688077170e+00	 1.1399877201e-01
 9.1923881554e+00	 2.6870057685e+00	 1.2559102423e-01
 8.8741901039e+00	 3.0052038200e+00	 1.3864044388e-01
 8.5559920523e+00	 3.3234018716e+00	 1.4059098749e-01
 8.2377940008e+00	 3.6415999231e+00	 1.4296608955e-01
 7.9195959493e+00	 3.9597979746e+00	 1.4914309916e-01
 7.6013978978e+00	 4.2779960262e+00	 1.5975278268e-01
 7.2831998462e+00	 4.5961940777e+00	 1.7466770672e-01
 6.9650017947e+00	 4.9143921292e+00	 1.9376043341e-01
 6.6468037432e+00	 5.2325901808e+00	 2.1690352045e-01
 9.9348502757e+00	 2.1566756826e+00	 1.0148933898e-01
 9.6166522241e+00	 2.4748737341e+00	 1.1238602814e-01
 9.2984541726e+00	 2.7930717857e+00	 1.2425180564e-01
 8.9802561211e+00	 3.1112698372e+00	 1.3694167985e-01
 8.6620580695e+00	 3.4294678887e+00	 1.4311591773e-01
 8.3438600180e+00	 3.7476659403e+00	 1.4393781936e-01
 8.0256619665e+00	 4.0658639918e+00	 1.4863021519e-01
 7.7074639149e+00	 4.3840620433e+00	 1.5715379021e-01
 7.3892658634e+00	 4.7022600949e+00	 1.6938111079e-01
 7.0710678119e+00	 5.0204581464e+00	 1.8518473883e-01
 6.7528697604e+00	 5.3386561980e+00	 2.0443723182e-01
 1.0040916293e+01	 2.2627416998e+00	 9.8344891985e-02
 9.7227182413e+00	 2.5809397513e+00	 1.1039825870e-01
 9.4045201898e+00	 2.8991378029e+00	 1.2278764777e-01
 9.0863221382e+00	 3.2173358544e+00	 1.3536807226e-01
 8.7681240867e+00	 3.5355339059e+00	 1.4534397175e-01
 8.4499260352e+00	 3.8537319575e+00	 1.4544407359e-01
 8.1317279836e+00	 4.1719300090e+00	 1.4890129224e-01
 7.8135299321e+00	 4.4901280605e+00	 1.5558819546e-01
 7.4953318806e+00	 4.8083261121e+00	 1.6537734940e-01
 7.1771338291e+00	 5.1265241636e+00	 1.7814131573e-01
 6.8589357775e+00	 5.4447222151e+00	 1.9375265172e-01
 1.0146982310e+01	 2.3688077170e+00	 9.4584866761e-02
 9.8287842585e+00	 2.6870057685e+00	 1.0804499714e-01
 9.5105862069e+00	 3.0052038200e+00	 1.2120808409e-01
 9.1923881554e+00	 3.3234018716e+00	 1.3392914048e-01
 8.8741901039e+00	 3.6415999231e+00	 1.4571775842e-01
 8.5559920523e+00	 3.9597979746e+00	 1.4748386387e-01
 8.2377940008e+00	 4.2779960262e+00	 1.4995534196e-01
 7.9195959493e+00	 4.5961940777e+00	 1.5505501012e-01
 7.6013978978e+00	 4.9143921292e+00	 1.6265543426e-01
 7.2831998462e+00	 5.2325901808e+00	 1.7262917585e-01
 6.9650017947e+00	 5.5507882323e+00	 1.8484879191e-01
 1.0253048327e+01	 2.4748737342e+00	 9.0218796639e-02
 9.9348502757e+00	 2.7930717857e+00	 1.0533577680e-01
 9.6166522241e+00	 3.1112698372e+00	 1.1952264795e-01
 9.2984541726e+00	 3.4294678887e+00	 1.3263442279e-01
 8.9802561211e+00	 3.7476659403e+00	 1.4440546918e-01
 8.6620580695e+00	 4.0658639918e+00	 1.5005620180e-01
 8.3438600180e+00	 4.3840620433e+00	 1.5179137598e-01
 8.0256619665e+00	 4.7022600949e+00	 1.5555324583e-01
 7.7074639149e+00	 5.0204581464e+00	 1.6121437705e-01
 7.3892658634e+00	 5.3386561980e+00	 1.6864733088e-01
 7.0710678119e+00	 5.6568542495e+00	 1.7772466412e-01
 4.9497474683e+00	 3.5355339059e+00	 4.3614564398e-01
 4.8790367902e+00	 3.6062445840e+00	 4.3814576608e-01
 4.8083261121e+00	 3.6769552621e+00	 4.2855236328e-01
 4.7376154339e+00	 3.7476659403e+00	 4.0736404940e-01
 4.6669047558e+00	 3.8183766184e+00	 3.7457942122e-01
 4.5961940777e+00	 3.8890872965e+00	 3.3019708013e-01
 4.5254833996e+00	 3.9597979746e+00	 2.7421562749e-01
 4.4547727215e+00	 4.0305086527e+00	 2.0663366467e-01
 4.3840620433e+00	 4.1012193309e+00	 1.2744979303e-01
 4.3133513652e+00	 4.1719300090e+00	 3.6662613902e-02
 4.2426406871e+00	 4.2426406871e+00	-6.5729271382e-02
 5.0558134855e+00	 3.6415999231e+00	 3.8315356905e-01
 4.9851028074e+00	 3.7123106012e+00	 3.8727332381e-01
 4.9143921292e+00	 3.7830212793e+00	 3.8079882594e-01
 4.8436814511e+00	 3.8537319574e+00	 3.6372867686e-01
 4.7729707730e+00	 3.9244426356e+00	 3.3606147795e-01
 4.7022600949e+00	 3.9951533137e+00	 2.9779583061e-01
 4.6315494168e+00	 4.0658639918e+00	 2.4893033620e-01
 4.5608387386e+00	 4.1365746699e+00	 1.8946359608e-01
 4.4901280605e+00	 4.2072853480e+00	 1.1939421161e-01
 4.4194173824e+00	 4.2779960262e+00	 3.8720784117e-02
 4.3487067043e+00	 4.3487067043e+00	-5.2558085066e-02
 5.1618795027e+00	 3.7476659403e+00	 3.3578626749e-01
 5.0911688245e+00	 3.8183766184e+00	 3.4132966677e-01
 5.0204581464e+00	 3.8890872965e+00	 3.3727807792e-01
 4.9497474683e+00	 3.9597979746e+00	 3.2363010235e-01
 4.8790367902e+00	 4.0305086527e+00	 3.0038434144e-01
 4.8083261121e+00	 4.1012193309e+00	 2.6753939658e-01
 4.7376154339e+00	 4.1719300090e+00	 2.2509386912e-01
 4.6669047558e+00	 4.2426406871e+00	 1.7304636044e-01
 4.5961940777e+00	 4.3133513652e+00	 1.1139547188e-01
 4.5254833996e+00	 4.3840620433e+00	 4.0139804769e-02
 4.4547727215e+00	 4.4547727215e+00	-4.0722039562e-02
 5.2679455198e+00	 3.8537319574e+00	 2.9404274993e-01
 5.1972348417e+00	 3.9244426356e+00	 3.0031380246e-01
 5.1265241636e+00	 3.9951533137e+00	 2.9798913135e-01
 5.0558134855e+00	 4.0658639918e+00	 2.8706733800e-01
 4.9851028074e+00	 4.1365746699e+00	 2.6754702381e-01
 4.9143921292e+00	 4.2072853480e+00	 2.3942679015e-01
 4.8436814511e+00	 4.2779960262e+00	 2.0270523839e-01
 4.7729707730e+00	 4.3487067043e+00	 1.5738096989e-01
 4.7022600949e+00	 4.4194173824e+00	 1.0345258598e-01
 4.6315494168e+00	 4.4901280605e+00	 4.0918688007e-02
 4.5608387386e+00	 4.5608387386e+00	-3.0222122712e-02
 5.3740115370e+00	 3.9597979746e+00	 2.5792202848e-01
 5.3033008589e+00	 4.0305086527e+00	 2.6422474295e-01
 5.2325901808e+00	 4.1012193309e+00	 2.6293099830e-01
 5.1618795027e+00	 4.1719300090e+00	 2.5403939590e-01
 5.0911688245e+00	 4.2426406871e+00	 2.3754853716e-01
 5.0204581464e+00	 4.3133513652e+00	 2.1345702345e-01
 4.9497474683e+00	 4.3840620433e+00	 1.8176345612e-01
 4.8790367902e+00	 4.4547727215e+00	 1.4246643654e-01
 4.8083261121e+00	 4.5254833996e+00	 9.5564566041e-02
 4.7376154339e+00	 4.5961940777e+00	 4.1056445959e-02
 4.6669047558e+00	 4.6669047558e+00	-2.1059322385e-02
 5.4800775542e+00	 4.0658639918e+00	 2.2742311518e-01
 5.4093668761e+00	 4.1365746699e+00	 2.3306150032e-01
 5.3386561980e+00	 4.2072853480e+00	 2.3210269084e-01
 5.2679455198e+00	 4.2779960262e+00	 2.2454528813e-01
 5.1972348417e+00	 4.3487067043e+00	 2.1038789357e-01
 5.1265241636e+00	 4.4194173824e+00	 1.8962910854e-01
 5.0558134855e+00	 4.4901280605e+00	 1.6226753440e-01
 4.9851028074e+00	 4.5608387386e+00	 1.2830177249e-01
 4.9143921292e+00	 4.6315494168e+00	 8.7730424157e-02
 4.8436814511e+00	 4.7022600949e+00	 4.0552090733e-02
 4.7729707730e+00	 4.7729707730e+00	-1.3234626468e-02
 5.5861435714e+00	 4.1719300090e+00	 2.0254502206e-01
 5.5154328933e+00	 4.2426406871e+00	 2.0682308660e-01
 5.4447222151e+00	 4.3133513652e+00	 2.0550322103e-01
 5.3740115370e+00	 4.3840620433e+00	 1.9858402673e-01
 5.3033008589e+00	 4.4547727215e+00	 1.8606410510e-01
 5.2325901808e+00	 4.5254833996e+00	 1.6794205750e-01
 5.1618795027e+00	 4.5961940777e+00	 1.4421648529e-01
 5.0911688245e+00	 4.6669047558e+00	 1.1488598981e-01
 5.0204581464e+00	 4.7376154339e+00	 7.9949172410e-02
 4.9497474683e+00	 4.8083261121e+00	 3.9404634411e-02
 4.8790367902e+00	 4.8790367902e+00	-6.7490228700e-03
 5.6922095886e+00	 4.2779960262e+00	 1.8328676114e-01
 5.6214989104e+00	 4.3487067043e+00	 1.8550851381e-01
 5.5507882323e+00	 4.4194173824e+00	 1.8313160088e-01
 5.4800775542e+00	 4.4901280605e+00	 1.7615462374e-01
 5.4093668761e+00	 4.5608387386e+00	 1.6457618378e-01
 5.3386561980e+00	 4.6315494168e+00	 1.4839488236e-01
 5.2679455198e+00	 4.7022600949e+00	 1.2760932084e-01
 5.1972348417e+00	 4.7729707730e+00	 1.0221810056e-01
 5.1265241636e+00	 4.8436814511e+00	 7.2219822857e-02
 5.0558134855e+00	 4.9143921292e+00	 3.7613089059e-02
 4.9851028074e+00	 4.9851028074e+00	-1.6034995233e-03
 5.7982756057e+00	 4.3840620433e+00	 1.6964734442e-01
 5.7275649276e+00	 4.4547727215e+00	 1.6911679394e-01
 5.6568542495e+00	 4.5254833996e+00	 1.6498684239e-01
 5.5861435714e+00	 4.5961940777e+00	 1.5725609116e-01
 5.5154328933e+00	 4.6669047558e+00	 1.4592314162e-01
 5.4447222151e+00	 4.7376154339e+00	 1.3098659514e-01
 5.3740115370e+00	 4.8083261121e+00	 1.1244505307e-01
 5.3033008589e+00	 4.8790367902e+00	 9.0297116760e-02
 5.2325901808e+00	 4.9497474683e+00	 6.4541387534e-02
 5.1618795027e+00	 5.0204581464e+00	 3.5176466717e-02
 5.0911688245e+00	 5.0911688245e+00	 2.2009556198e-03
 5.9043416229e+00	 4.4901280605e+00	 1.6162578386e-01
 5.8336309448e+00	 4.5608387386e+00	 1.5764693898e-01
 5.7629202667e+00	 4.6315494168e+00	 1.5106795756e-01
 5.6922095886e+00	 4.7022600949e+00	 1.4188744098e-01
 5.6214989104e+00	 4.7729707730e+00	 1.3010399063e-01
 5.5507882323e+00	 4.8436814511e+00	 1.1571620785e-01
 5.4800775542e+00	 4.9143921292e+00	 9.8722694002e-02
 5.4093668761e+00	 4.9851028074e+00	 7.9122050428e-02
 5.3386561980e+00	 5.0558134855e+00	 5.6912878456e-02
 5.2679455198e+00	 5.1265241636e+00	 3.2093779406e-02
 5.1972348417e+00	 5.1972348417e+00	 4.6633545851e-03
 6.0104076401e+00	 4.5961940777e+00	 1.5922109141e-01
 5.9396969620e+00	 4.6669047558e+00	 1.5109796087e-01
 5.8689862839e+00	 4.7376154339e+00	 1.4137395834e-01
 5.7982756057e+00	 4.8083261121e+00	 1.3004768517e-01
 5.7275649276e+00	 4.8790367902e+00	 1.1711774276e-01
 5.6568542495e+00	 4.9497474683e+00	 1.0258273245e-01
 5.5861435714e+00	 5.0204581464e+00	 8.6441255602e-02
 5.5154328933e+00	 5.0911688245e+00	 6.8691913548e-02
 5.4447222151e+00	 5.1618795027e+00	 4.9333307616e-02
 5.3740115370e+00	 5.2325901808e+00	 2.8364039124e-02
 5.3033008589e+00	 5.3033008589e+00	 5.7827093768e-03
 6.0104076401e+00	 4.5961940777e+00	 1.5922109141e-01
 5.9396969620e+00	 4.6669047558e+00	 1.5109796087e-01
 5.8689862839e+00	 4.7376154339e+00	 1.4137395834e-01
 5.7982756057e+00	 4.8083261121e+00	 1.3004768517e-01
 5.7275649276e+00	 4.8790367902e+00	 1.1711774276e-01
 5.6568542495e+00	 4.9497474683e+00	 1.0258273245e-01
 5.5861435714e+00	 5.0204581464e+00	 8.6441255602e-02
 5.5154328933e+00	 5.0911688245e+00	 6.8691913548e-02
 5.4447222151e+00	 5.1618795027e+00	 4.9333307616e-02
 5.3740115370e+00	 5.2325901808e+00	 2.8364039124e-02
 5.3033008589e+00	 5.3033008589e+00	 5.7827093768e-03
 6.1164736573e+00	 4.7022600949e+00	 1.5361979787e-01
 6.0457629792e+00	 4.7729707730e+00	 1.4613833263e-01
 5.9750523010e+00	 4.8436814511e+00	 1.3717906534e-01
 5.9043416229e+00	 4.9143921292e+00	 1.2674059738e-01
 5.8336309448e+00	 4.9851028074e+00	 1.1482153012e-01
 5.7629202667e+00	 5.0558134855e+00	 1.0142046492e-01
 5.6922095886e+00	 5.1265241636e+00	 8.6536003132e-02
 5.6214989104e+00	 5.1972348417e+00	 7.0166746082e-02
 5.5507882323e+00	 5.2679455198e+00	 5.2311295099e-02
 5.4800775542e+00	 5.3386561980e+00	 3.2968251497e-02
 5.4093668761e+00	 5.4093668761e+00	 1.2136216580e-02
 6.2225396745e+00	 4.8083261121e+00	 1.4967706182e-01
 6.1518289963e+00	 4.8790367902e+00	 1.4265709279e-01
 6.0811183182e+00	 4.9497474683e+00	 1.3428239169e-01
 6.0104076401e+00	 5.0204581464e+00	 1.2455155988e-01
 5.9396969620e+00	 5.0911688245e+00	 1.1346319873e-01
 5.8689862839e+00	 5.1618795027e+00	 1.0101590960e-01
 5.7982756057e+00	 5.2325901808e+00	 8.7208293826e-02
 5.7275649276e+00	 5.3033008589e+00	 7.2038952748e-02
 5.6568542495e+00	 5.3740115370e+00	 5.5506487688e-02
 5.5861435714e+00	 5.4447222151e+00	 3.7609499956e-02
 5.5154328933e+00	 5.5154328933e+00	 1.8346590853e-02
 6.3286056916e+00	 4.9143921292e+00	 1.4739189512e-01
 6.2578950135e+00	 4.9851028074e+00	 1.4065325326e-01
 6.1871843354e+00	 5.0558134855e+00	 1.3268294928e-01
 6.1164736573e+00	 5.1265241636e+00	 1.2347958457e-01
 6.0457629792e+00	 5.1972348417e+00	 1.1304176049e-01
 5.9750523010e+00	 5.2679455198e+00	 1.0136807839e-01
 5.9043416229e+00	 5.3386561980e+00	 8.8457139602e-02
 5.8336309448e+00	 5.4093668761e+00	 7.4307545471e-02
 5.7629202667e+00	 5.4800775542e+00	 5.8917897311e-02
 5.6922095886e+00	 5.5507882323e+00	 4.2286796434e-02
 5.6214989104e+00	 5.6214989104e+00	 2.4412844136e-02
 6.4346717088e+00	 5.0204581464e+00	 1.4676330965e-01
 6.3639610307e+00	 5.0911688245e+00	 1.4012582589e-01
 6.2932503526e+00	 5.1618795027e+00	 1.3237975000e-01
 6.2225396745e+00	 5.2325901808e+00	 1.2352368335e-01
 6.1518289963e+00	 5.3033008589e+00	 1.1355622729e-01
 6.0811183182e+00	 5.3740115370e+00	 1.0247598318e-01
 6.0104076401e+00	 5.4447222151e+00	 9.0281552357e-02
 5.9396969620e+00	 5.5154328933e+00	 7.6971536150e-02
 5.8689862839e+00	 5.5861435714e+00	 6.2544535877e-02
 5.7982756057e+00	 5.6568542495e+00	 4.6999152843e-02
 5.7275649276e+00	 5.7275649276e+00	 3.0333988346e-02
 6.5407377260e+00	 5.1265241636e+00	 1.4779031724e-01
 6.4700270479e+00	 5.1972348417e+00	 1.4107382254e-01
 6.3993163698e+00	 5.2679455198e+00	 1.3337180569e-01
 6.3286056916e+00	 5.3386561980e+00	 1.2468286805e-01
 6.2578950135e+00	 5.4093668761e+00	 1.1500561099e-01
 6.1871843354e+00	 5.4800775542e+00	 1.0433863585e-01
 6.1164736573e+00	 5.5507882323e+00	 9.2680543964e-02
 6.0457629792e+00	 5.6214989104e+00	 8.0029936666e-02
 5.9750523010e+00	 5.6922095886e+00	 6.6385415269e-02
 5.9043416229e+00	 5.7629202667e+00	 5.1745581075e-02
 5.8336309448e+00	 5.8336309448e+00	 3.6109035380e-02
 6.6468037432e+00	 5.2325901808e+00	 1.5047192972e-01
 6.5760930651e+00	 5.3033008589e+00	 1.4349625503e-01
 6.5053823869e+00	 5.3740115370e+00	 1.3565812818e-01
 6.4346717088e+00	 5.4447222151e+00	 1.2695615053e-01
 6.3639610307e+00	 5.5154328933e+00	 1.1738892343e-01
 6.2932503526e+00	 5.5861435714e+00	 1.0695504824e-01
 6.2225396745e+00	 5.6568542495e+00	 9.5653126277e-02
 6.1518289963e+00	 5.7275649276e+00	 8.3481758878e-02
 6.0811183182e+00	 5.7982756057e+00	 7.0439547352e-02
 6.0104076401e+00	 5.8689862839e+00	 5.6525093000e-02
 5.9396969620e+00	 5.9396969620e+00	 4.1736997113e-02
 6.7528697604e+00	 5.3386561980e+00	 1.5480715888e-01
 6.6821590822e+00	 5.4093668761e+00	 1.4739213517e-01
 6.6114484041e+00	 5.4800775542e+00	 1.3923772928e-01
 6.5407377260e+00	 5.5507882323e+00	 1.3034254259e-01
 6.4700270479e+00	 5.6214989104e+00	 1.2070517644e-01
 6.3993163698e+00	 5.6922095886e+00	 1.1032423217e-01
 6.3286056916e+00	 5.7629202667e+00	 9.9198311126e-02
 6.2578950135e+00	 5.8336309448e+00	 8.7326014622e-02
 6.1871843354e+00	 5.9043416229e+00	 7.4705943968e-02
 6.1164736573e+00	 5.9750523010e+00	 6.1336700464e-02
 6.0457629792e+00	 6.0457629792e+00	 4.7216885399e-02
 6.8589357775e+00	 5.4447222151e+00	 1.6079501650e-01
 6.7882250994e+00	 5.5154328933e+00	 1.5276047473e-01
 6.7175144213e+00	 5.5861435714e+00	 1.4410962078e-01
 6.6468037432e+00	 5.6568542495e+00	 1.3484105602e-01
 6.5760930651e+00	 5.7275649276e+00	 1.2495338180e-01
 6.5053823869e+00	 5.7982756057e+00	 1.1444519946e-01
 6.4346717088e+00	 5.8689862839e+00	 1.0331511032e-01
 6.3639610307e+00	 5.9396969620e+00	 9.1561715713e-02
 6.2932503526e+00	 6.0104076401e+00	 7.9183616938e-02
 6.2225396745e+00	 6.0811183182e+00	 6.6179415295e-02
 6.1518289963e+00	 6.1518289963e+00	 5.2547712069e-02
 6.9650017947e+00	 5.5507882323e+00	 1.6843451434e-01
 6.8942911166e+00	 5.6214989104e+00	 1.5960028548e-01
 6.8235804385e+00	 5.6922095886e+00	 1.5027281445e-01
 6.7528697604e+00	 5.7629202667e+00	 1.4045070261e-01
 6.6821590822e+00	 5.8336309448e+00	 1.3013255131e-01
 6.6114484041e+00	 5.9043416229e+00	 1.1931696188e-01
 6.5407377260e+00	 5.9750523010e+00	 1.0800253565e-01
 6.4700270479e+00	 6.0457629792e+00	 9.6187873945e-02
 6.3993163698e+00	 6.1164736573e+00	 8.3871578062e-02
 6.3286056916e+00	 6.1871843354e+00	 7.1052249297e-02
 6.2578950135e+00	 6.2578950135e+00	 5.7728488934e-02
 7.0710678119e+00	 5.6568542495e+00	 1.7772466412e-01
 7.0003571338e+00	 5.7275649276e+00	 1.6791057915e-01
 6.9296464557e+00	 5.7982756057e+00	 1.5772632202e-01
 6.8589357775e+00	 5.8689862839e+00	 1.4717049409e-01
 6.7882250994e+00	 5.9396969620e+00	 1.3624169670e-01
 6.7175144213e+00	 6.0104076401e+00	 1.2493853119e-01
 6.6468037432e+00	 6.0811183182e+00	 1.1325959888e-01
 6.5760930651e+00	 6.1518289963e+00	 1.0120350109e-01
 6.5053823869e+00	 6.2225396745e+00	 8.8768839116e-02
 6.4346717088e+00	 6.2932503526e+00	 7.5954214253e-02
 6.3639610307e+00	 6.3639610307e+00	 6.2758227782e-02
-2.8284271247e+00	-2.8284271247e+00	 4.8834793084e-01
-2.8991378028e+00	-2.7577164466e+00	 4.7993489787e-01
-2.9698484809e+00	-2.6870057685e+00	 4.6446060042e-01
-3.0405591591e+00	-2.6162950904e+00	 4.4285485339e-01
-3.1112698372e+00	-2.5455844123e+00	 4.1207083997e-01
-3.1819805153e+00	-2.4748737342e+00	 3.7210447950e-01
-3.2526911934e+00	-2.4041630561e+00	 3.2295169129e-01
-3.3234018715e+00	-2.3334523780e+00	 2.6460839466e-01
-3.3941125497e+00	-2.2627416998e+00	 1.9707050893e-01
-3.4648232278e+00	-2.1920310217e+00	 1.2033395343e-01
-3.5355339059e+00	-2.1213203436e+00	 3.4394647470e-02
-2.6870057685e+00	-2.6870057685e+00	 4.7208371238e-01
-2.7577164466e+00	-2.6162950904e+00	 4.6333423206e-01
-2.8284271247e+00	-2.5455844123e+00	 4.4627478234e-01
-2.8991378028e+00	-2.4748737342e+00	 4.2090536324e-01
-2.9698484810e+00	-2.4041630561e+00	 3.8928013956e-01
-3.0405591591e+00	-2.3334523779e+00	 3.5229813900e-01
-3.1112698372e+00	-2.2627416998e+00	 3.0698185863e-01
-3.1819805153e+00	-2.1920310217e+00	 2.5332721776e-01
-3.2526911934e+00	-2.1213203436e+00	 1.9133013571e-01
-3.3234018715e+00	-2.0506096655e+00	 1.2098653179e-01
-3.3941125497e+00	-1.9798989874e+00	 4.2292325348e-02
-2.5455844123e+00	-2.5455844123e+00	 4.5270317152e-01
-2.6162950904e+00	-2.4748737341e+00	 4.4372724758e-01
-2.6870057685e+00	-2.4041630560e+00	 4.2729721472e-01
-2.7577164466e+00	-2.3334523779e+00	 4.0341307293e-01
-2.8284271247e+00	-2.2627416998e+00	 3.7207482221e-01
-2.8991378028e+00	-2.1920310217e+00	 3.3328246257e-01
-2.9698484810e+00	-2.1213203436e+00	 2.8902923340e-01
-3.0405591591e+00	-2.0506096655e+00	 2.4017869294e-01
-3.1112698372e+00	-1.9798989874e+00	 1.8383785922e-01
-3.1819805153e+00	-1.9091883092e+00	 1.2000265156e-01
-3.2526911934e+00	-1.8384776311e+00	 4.8668989274e-02
-2.4041630560e+00	-2.4041630560e+00	 4.3020630825e-01
-2.4748737342e+00	-2.3334523779e+00	 4.2111394445e-01
-2.5455844123e+00	-2.2627416998e+00	 4.0542333219e-01
-2.6162950904e+00	-2.1920310217e+00	 3.8313447146e-01
-2.6870057685e+00	-2.1213203436e+00	 3.5424736227e-01
-2.7577164466e+00	-2.0506096655e+00	 3.1876200461e-01
-2.8284271247e+00	-1.9798989874e+00	 2.7667839849e-01
-2.8991378028e+00	-1.9091883092e+00	 2.2799654391e-01
-2.9698484810e+00	-1.8384776311e+00	 1.7463822997e-01
-3.0405591591e+00	-1.7677669530e+00	 1.1742686322e-01
-3.1112698372e+00	-1.6970562749e+00	 5.3569189758e-02
-2.2627416998e+00	-2.2627416998e+00	 4.0459312257e-01
-2.3334523779e+00	-2.1920310217e+00	 3.9549432266e-01
-2.4041630560e+00	-2.1213203436e+00	 3.8065313475e-01
-2.4748737342e+00	-2.0506096655e+00	 3.6006955884e-01
-2.5455844123e+00	-1.9798989873e+00	 3.3374359492e-01
-2.6162950904e+00	-1.9091883092e+00	 3.0167524299e-01
-2.6870057685e+00	-1.8384776311e+00	 2.6386450307e-01
-2.7577164466e+00	-1.7677669530e+00	 2.2031137514e-01
-2.8284271247e+00	-1.6970562749e+00	 1.7101585922e-01
-2.8991378028e+00	-1.6263455968e+00	 1.1597795529e-01
-2.9698484809e+00	-1.5556349186e+00	 5.7037477307e-02
-2.1213203436e+00	-2.1213203436e+00	 3.7586361449e-01
-2.1920310217e+00	-2.0506096655e+00	 3.6686838222e-01
-2.2627416998e+00	-1.9798989873e+00	 3.5298662241e-01
-2.3334523779e+00	-1.9091883092e+00	 3.3421833506e-01
-2.4041630560e+00	-1.8384776311e+00	 3.1056352016e-01
-2.4748737342e+00	-1.7677669530e+00	 2.8202217772e-01
-2.5455844123e+00	-1.6970562749e+00	 2.4859430774e-01
-2.6162950904e+00	-1.6263455968e+00	 2.1027991022e-01
-2.6870057685e+00	-1.5556349186e+00	 1.6707898516e-01
-2.7577164466e+00	-1.4849242405e+00	 1.1899153255e-01
-2.8284271247e+00	-1.4142135624e+00	 6.6017552409e-02
-1.9798989873e+00	-1.9798989873e+00	 3.4401778401e-01
-2.0506096655e+00	-1.9091883092e+00	 3.3523612312e-01
-2.1213203436e+00	-1.8384776311e+00	 3.2242379516e-01
-2.1920310217e+00	-1.7677669530e+00	 3.0558080012e-01
-2.2627416998e+00	-1.6970562749e+00	 2.8470713799e-01
-2.3334523779e+00	-1.6263455968e+00	 2.5980280879e-01
-2.4041630560e+00	-1.5556349186e+00	 2.3086781250e-01
-2.4748737342e+00	-1.4849242405e+00	 1.9790214913e-01
-2.5455844123e+00	-1.4142135624e+00	 1.6090581868e-01
-2.6162950904e+00	-1.3435028843e+00	 1.1987882116e-01
-2.6870057685e+00	-1.2727922062e+00	 7.4821156549e-02
-1.8384776311e+00	-1.8384776311e+00	 3.0905563111e-01
-1.9091883092e+00	-1.7677669530e+00	 3.0059754537e-01
-1.9798989873e+00	-1.6970562749e+00	 2.8896465301e-01
-2.0506096655e+00	-1.6263455968e+00	 2.7415695402e-01
-2.1213203436e+00	-1.5556349186e+00	 2.5617444842e-01
-2.1920310217e+00	-1.4849242405e+00	 2.3501713619e-01
-2.2627416998e+00	-1.4142135624e+00	 2.1068501735e-01
-2.3334523779e+00	-1.3435028843e+00	 1.8317809189e-01
-2.4041630560e+00	-1.2727922062e+00	 1.5249635980e-01
-2.4748737341e+00	-1.2020815280e+00	 1.1863982110e-01
-2.5455844122e+00	-1.1313708499e+00	 8.1608475776e-02
-1.6970562749e+00	-1.6970562749e+00	 2.7097715582e-01
-1.7677669530e+00	-1.6263455968e+00	 2.6295264896e-01
-1.8384776311e+00	-1.5556349186e+00	 2.5260919594e-01
-1.9091883092e+00	-1.4849242405e+00	 2.3994679677e-01
-1.9798989873e+00	-1.4142135624e+00	 2.2496545143e-01
-2.0506096655e+00	-1.3435028843e+00	 2.0766515994e-01
-2.1213203436e+00	-1.2727922062e+00	 1.8804592229e-01
-2.1920310217e+00	-1.2020815280e+00	 1.6610773848e-01
-2.2627416998e+00	-1.1313708499e+00	 1.4185060851e-01
-2.3334523779e+00	-1.0606601718e+00	 1.1527453238e-01
-2.4041630560e+00	-9.8994949368e-01	 8.6379510092e-02
-1.5556349186e+00	-1.5556349186e+00	 2.2978235811e-01
-1.6263455968e+00	-1.4849242405e+00	 2.2230143389e-01
-1.6970562749e+00	-1.4142135624e+00	 2.1335742397e-01
-1.7677669530e+00	-1.3435028843e+00	 2.0295032835e-01
-1.8384776311e+00	-1.2727922062e+00	 1.9108014704e-01
-1.9091883092e+00	-1.2020815280e+00	 1.7774688003e-01
-1.9798989873e+00	-1.1313708499e+00	 1.6295052732e-01
-2.0506096655e+00	-1.0606601718e+00	 1.4669108891e-01
-2.1213203436e+00	-9.8994949368e-01	 1.2896856480e-01
-2.1920310217e+00	-9.1923881556e-01	 1.0978295500e-01
-2.2627416998e+00	-8.4852813744e-01	 8.9134259493e-02
-1.4142135624e+00	-1.4142135624e+00	 1.8547123800e-01
-1.4849242405e+00	-1.3435028843e+00	 1.7864390017e-01
-1.5556349186e+00	-1.2727922062e+00	 1.7120933709e-01
-1.6263455968e+00	-1.2020815280e+00	 1.6316754878e-01
-1.6970562749e+00	-1.1313708499e+00	 1.5451853524e-01
-1.7677669530e+00	-1.0606601718e+00	 1.4526229645e-01
-1.8384776311e+00	-9.8994949368e-01	 1.3539883243e-01
-1.9091883092e+00	-9.1923881556e-01	 1.2492814318e-01
-1.9798989873e+00	-8.4852813744e-01	 1.1385022868e-01
-2.0506096654e+00	-7.7781745932e-01	 1.0216508895e-01
-2.1213203435e+00	-7.0710678120e-01	 8.9872723980e-02
-1.4142135624e+00	-1.4142135624e+00	 1.8547123800e-01
-1.4849242405e+00	-1.3435028843e+00	 1.7864390017e-01
-1.5556349186e+00	-1.2727922062e+00	 1.7120933709e-01
-1.6263455968e+00	-1.2020815280e+00	 1.6316754878e-01
-1.6970562749e+00	-1.1313708499e+00	 1.5451853524e-01
-1.7677669530e+00	-1.0606601718e+00	 1.4526229645e-01
-1.8384776311e+00	-9.8994949368e-01	 1.3539883243e-01
-1.9091883092e+00	-9.1923881556e-01	 1.2492814318e-01
-1.9798989873e+00	-8.4852813744e-01	 1.1385022868e-01
-2.0506096654e+00	-7.7781745932e-01	 1.0216508895e-01
-2.1213203435e+00	-7.0710678120e-01	 8.9872723980e-02
-1.2727922062e+00	-1.2727922062e+00	 1.7044471572e-01
-1.3435028843e+00	-1.2020815280e+00	 1.6304930055e-01
-1.4142135624e+00	-1.1313708499e+00	 1.5504931038e-01
-1.4849242405e+00	-1.0606601718e+00	 1.4644474523e-01
-1.5556349186e+00	-9.8994949368e-01	 1.3723560509e-01
-1.6263455967e+00	-9.1923881556e-01	 1.2742188995e-01
-1.6970562749e+00	-8.4852813744e-01	 1.1700359982e-01
-1.7677669530e+00	-7.7781745932e-01	 1.0598073471e-01
-1.8384776311e+00	-7.0710678120e-01	 9.4353294594e-02
-1.9091883092e+00	-6.3639610308e-01	 8.2121279491e-02
-1.9798989873e+00	-5.6568542496e-01	 6.9284689396e-02
-1.1313708499e+00	-1.1313708499e+00	 1.5494458304e-01
-1.2020815280e+00	-1.0606601718e+00	 1.4704405612e-01
-1.2727922062e+00	-9.8994949368e-01	 1.3854160446e-01
-1.3435028843e+00	-9.1923881556e-01	 1.2943722805e-01
-1.4142135624e+00	-8.4852813744e-01	 1.1973092689e-01
-1.4849242405e+00	-7.7781745932e-01	 1.0942270099e-01
-1.5556349186e+00	-7.0710678120e-01	 9.8512550336e-02
-1.6263455967e+00	-6.3639610308e-01	 8.7000474940e-02
-1.6970562749e+00	-5.6568542496e-01	 7.4886474797e-02
-1.7677669530e+00	-4.9497474684e-01	 6.2170549907e-02
-1.8384776311e+00	-4.2426406872e-01	 4.8852700271e-02
-9.8994949368e-01	-9.8994949368e-01	 1.3897083998e-01
-1.0606601718e+00	-9.1923881556e-01	 1.3062816690e-01
-1.1313708499e+00	-8.4852813744e-01	 1.2168621932e-01
-1.2020815280e+00	-7.7781745932e-01	 1.1214499723e-01
-1.2727922062e+00	-7.0710678120e-01	 1.0200450064e-01
-1.3435028843e+00	-6.3639610308e-01	 9.1264729557e-02
-1.4142135624e+00	-5.6568542496e-01	 7.9925683969e-02
-1.4849242405e+00	-4.9497474684e-01	 6.7987363880e-02
-1.5556349186e+00	-4.2426406872e-01	 5.5449769290e-02
-1.6263455967e+00	-3.5355339060e-01	 4.2312900198e-02
-1.6970562749e+00	-2.8284271248e-01	 2.8576756605e-02
-8.4852813744e-01	-8.4852813744e-01	 1.2252348654e-01
-9.1923881556e-01	-7.7781745932e-01	 1.1380163287e-01
-9.8994949368e-01	-7.0710678120e-01	 1.0448315495e-01
-1.0606601718e+00	-6.3639610308e-01	 9.4568052780e-02
-1.1313708499e+00	-5.6568542496e-01	 8.4056326350e-02
-1.2020815280e+00	-4.9497474684e-01	 7.2947975664e-02
-1.2727922062e+00	-4.2426406872e-01	 6.1243000723e-02
-1.3435028843e+00	-3.5355339060e-01	 4.8941401526e-02
-1.4142135624e+00	-2.8284271248e-01	 3.6043178073e-02
-1.4849242405e+00	-2.1213203436e-01	 2.2548330364e-02
-1.5556349186e+00	-1.4142135624e-01	 8.4568583988e-03
-7.0710678120e-01	-7.0710678120e-01	 1.0560252270e-01
-7.7781745932e-01	-6.3639610308e-01	 9.6564454046e-02
-8.4852813744e-01	-5.6568542496e-01	 8.6932411377e-02
-9.1923881556e-01	-4.9497474684e-01	 7.6706394697e-02
-9.8994949368e-01	-4.2426406872e-01	 6.5886404008e-02
-1.0606601718e+00	-3.5355339060e-01	 5.4472439308e-02
-1.1313708499e+00	-2.8284271248e-01	 4.2464500598e-02
-1.2020815280e+00	-2.1213203436e-01	 2.9862587877e-02
-1.2727922062e+00	-1.4142135624e-01	 1.6666701146e-02
-1.3435028843e+00	-7.0710678120e-02	 2.8768404038e-03
-1.4142135624e+00	 6.1062266354e-16	-1.1506994349e-02
-5.6568542496e-01	-5.6568542496e-01	 8.8207948485e-02
-6.3639610308e-01	-4.9497474684e-01	 7.8916630415e-02
-7.0710678120e-01	-4.2426406872e-01	 6.9033988581e-02
-7.7781745932e-01	-3.5355339060e-01	 5.8560022982e-02
-8.4852813744e-01	-2.8284271248e-01	 4.7494733617e-02
-9.1923881556e-01	-2.1213203436e-01	 3.5838120488e-02
-9.8994949368e-01	-1.4142135624e-01	 2.3590183593e-02
-1.0606601718e+00	-7.0710678120e-02	 1.0750922933e-02
-1.1313708499e+00	 6.9388939039e-16	-2.6796614914e-03
-1.2020815280e+00	 7.0710678120e-02	-1.6701569681e-02
-1.2727922062e+00	 1.4142135624e-01	-3.1314801637e-02
-4.2426406872e-01	-4.2426406872e-01	 7.0339763879e-02
-4.9497474684e-01	-3.5355339060e-01	 6.0858161983e-02
-5.6568542496e-01	-2.8284271248e-01	 5.0787886568e-02
-6.3639610308e-01	-2.1213203436e-01	 4.0128937633e-02
-7.0710678120e-01	-1.4142135624e-01	 2.8881315178e-02
-7.7781745932e-01	-7.0710678120e-02	 1.7045019204e-02
-8.4852813744e-01	 9.0205620751e-16	 4.6200497096e-03
-9.1923881556e-01	 7.0710678120e-02	-8.3935933044e-03
-9.8994949368e-01	 1.4142135624e-01	-2.1995909838e-02
-1.0606601718e+00	 2.1213203436e-01	-3.6186899892e-02
-1.1313708499e+00	 2.8284271248e-01	-5.0966563465e-02
-2.8284271248e-01	-2.8284271248e-01	 5.1997968886e-02
-3.5355339060e-01	-2.1213203436e-01	 4.2389048749e-02
-4.2426406872e-01	-1.4142135624e-01	 3.2194105337e-02
-4.9497474684e-01	-7.0710678120e-02	 2.1413138652e-02
-5.6568542496e-01	 1.0130785100e-15	 1.0046148691e-02
-6.3639610308e-01	 7.0710678120e-02	-1.9068645436e-03
-7.0710678120e-01	 1.4142135624e-01	-1.4445901053e-02
-7.7781745932e-01	 2.1213203436e-01	-2.7570960836e-02
-8.4852813744e-01	 2.8284271248e-01	-4.1282043895e-02
-9.1923881556e-01	 3.5355339060e-01	-5.5579150227e-02
-9.8994949368e-01	 4.2426406872e-01	-7.0462279834e-02
-1.4142135624e-01	-1.4142135624e-01	 3.3182563507e-02
-2.1213203436e-01	-7.0710678120e-02	 2.3509290713e-02
-2.8284271248e-01	 1.1310397063e-15	 1.3252644890e-02
-3.5355339060e-01	 7.0710678120e-02	 2.4126260374e-03
-4.2426406872e-01	 1.4142135624e-01	-9.0107658440e-03
-4.9497474684e-01	 2.1213203436e-01	-2.1017530754e-02
-5.6568542496e-01	 2.8284271248e-01	-3.3607668694e-02
-6.3639610308e-01	 3.5355339060e-01	-4.6781179663e-02
-7.0710678120e-01	 4.2426406872e-01	-6.0538063661e-02
-7.7781745932e-01	 4.9497474684e-01	-7.4878320688e-02
-8.4852813744e-01	 5.6568542496e-01	-8.9801950744e-02
 0.0000000000e+00	 0.0000000000e+00	 1.3893547741e-02
-7.0710678120e-02	 7.0710678120e-02	 4.2188878745e-03
-1.4142135624e-01	 1.4142135624e-01	-6.0364947756e-03
-2.1213203436e-01	 2.1213203436e-01	-1.6872600209e-02
-2.8284271248e-01	 2.8284271248e-01	-2.8289428427e-02
-3.5355339060e-01	 3.5355339060e-01	-4.0286979429e-02
-4.2426406872e-01	 4.2426406872e-01	-5.2865253214e-02
-4.9497474684e-01	 4.9497474684e-01	-6.6024249783e-02
-5.6568542496e-01	 5.6568542496e-01	-7.9763969136e-02
-6.3639610308e-01	 6.3639610308e-01	-9.4084411273e-02
-7.0710678120e-01	 7.0710678120e-01	-1.0898557619e-01
-3.5355339059e+00	-2.1213203436e+00	 2.2000341070e-01
-3.8537319574e+00	-1.8031222921e+00	 1.3151195648e-01
-4.1719300090e+00	-1.4849242405e+00	 5.6183413415e-02
-4.4901280605e+00	-1.1667261890e+00	-6.3540704912e-03
-4.8083261121e+00	-8.4852813745e-01	-5.6472347219e-02
-5.1265241636e+00	-5.3033008591e-01	-9.4543268753e-02
-5.4447222151e+00	-2.1213203438e-01	-1.2093868708e-01
-5.7629202667e+00	 1.0606601716e-01	-1.3603045418e-01
-6.0811183182e+00	 4.2426406869e-01	-1.4019042204e-01
-6.3993163697e+00	 7.4246212022e-01	-1.3379044264e-01
-6.7175144212e+00	 1.0606601717e+00	-1.1720236796e-01
-3.3941125497e+00	-1.9798989874e+00	 1.7431463553e-01
-3.7123106012e+00	-1.6617009358e+00	 9.3517611036e-02
-4.0305086527e+00	-1.3435028843e+00	 2.4918511733e-02
-4.3487067043e+00	-1.0253048327e+00	-3.1854514366e-02
-4.6669047558e+00	-7.0710678121e-01	-7.7173319245e-02
-4.9851028073e+00	-3.8890872967e-01	-1.1140975489e-01
-5.3033008589e+00	-7.0710678138e-02	-1.3493567328e-01
-5.6214989104e+00	 2.4748737340e-01	-1.4812292641e-01
-5.9396969620e+00	 5.6568542493e-01	-1.5134336625e-01
-6.2578950135e+00	 8.8388347646e-01	-1.4496884480e-01
-6.5760930650e+00	 1.2020815280e+00	-1.2937121403e-01
-3.2526911934e+00	-1.8384776311e+00	 1.3309883846e-01
-3.5708892450e+00	-1.5202795796e+00	 5.9612724157e-02
-3.8890872965e+00	-1.2020815280e+00	-2.6404509194e-03
-4.2072853480e+00	-8.8388347650e-01	-5.4032538750e-02
-4.5254833996e+00	-5.6568542497e-01	-9.4935391320e-02
-4.8436814511e+00	-2.4748737343e-01	-1.2572086061e-01
-5.1618795026e+00	 7.0710678102e-02	-1.4676079861e-01
-5.4800775542e+00	 3.8890872964e-01	-1.5842705731e-01
-5.7982756057e+00	 7.0710678117e-01	-1.6109148867e-01
-6.1164736573e+00	 1.0253048327e+00	-1.5512594470e-01
-6.4346717088e+00	 1.3435028842e+00	-1.4090227737e-01
-3.1112698372e+00	-1.6970562749e+00	 9.6400570017e-02
-3.4294678887e+00	-1.3788582233e+00	 2.9841846356e-02
-3.7476659403e+00	-1.0606601718e+00	-2.6448924033e-02
-4.0658639918e+00	-7.4246212026e-01	-7.2843593135e-02
-4.3840620433e+00	-4.2426406873e-01	-1.0971401293e-01
-4.7022600949e+00	-1.0606601719e-01	-1.3743203542e-01
-5.0204581464e+00	 2.1213203434e-01	-1.5636951256e-01
-5.3386561979e+00	 5.3033008588e-01	-1.6689829636e-01
-5.6568542495e+00	 8.4852813741e-01	-1.6939023879e-01
-5.9750523010e+00	 1.1667261889e+00	-1.6421719184e-01
-6.2932503526e+00	 1.4849242405e+00	-1.5175100749e-01
-2.9698484809e+00	-1.5556349186e+00	 6.4264380696e-02
-3.2880465325e+00	-1.2374368671e+00	 4.2495281416e-03
-3.6062445840e+00	-9.1923881556e-01	-4.6462357100e-02
-3.9244426356e+00	-6.0104076402e-01	-8.8243127012e-02
-4.2426406871e+00	-2.8284271249e-01	-1.2146463358e-01
-4.5608387386e+00	 3.5355339048e-02	-1.4649872879e-01
-4.8790367902e+00	 3.5355339058e-01	-1.6371726462e-01
-5.1972348417e+00	 6.7175144212e-01	-1.7349209306e-01
-5.5154328932e+00	 9.8994949365e-01	-1.7619506609e-01
-5.8336309448e+00	 1.3081475452e+00	-1.7219803570e-01
-6.1518289963e+00	 1.6263455967e+00	-1.6187285388e-01
-2.8284271247e+00	-1.4142135624e+00	 4.3633970989e-02
-3.1466251763e+00	-1.0960155109e+00	-1.7119679977e-02
-3.4648232278e+00	-7.7781745932e-01	-6.2636199609e-02
-3.7830212793e+00	-4.5961940778e-01	-1.0018658987e-01
-4.1012193309e+00	-1.4142135625e-01	-1.3014270275e-01
-4.4194173824e+00	 1.7677669529e-01	-1.5287639022e-01
-4.7376154339e+00	 4.9497474682e-01	-1.6875950428e-01
-5.0558134855e+00	 8.1317279836e-01	-1.7816389690e-01
-5.3740115370e+00	 1.1313708499e+00	-1.8146142008e-01
-5.6922095885e+00	 1.4495689014e+00	-1.7902392579e-01
-6.0104076401e+00	 1.7677669529e+00	-1.7122326602e-01
-2.6870057685e+00	-1.2727922062e+00	 2.8821082383e-02
-3.0052038200e+00	-9.5459415462e-01	-3.4221227491e-02
-3.3234018716e+00	-6.3639610308e-01	-7.4925901053e-02
-3.6415999231e+00	-3.1819805154e-01	-1.0862943120e-01
-3.9597979746e+00	-7.9999062930e-12	-1.3570366993e-01
-4.2779960262e+00	 3.1819805153e-01	-1.5652046920e-01
-4.5961940777e+00	 6.3639610306e-01	-1.7145168102e-01
-4.9143921292e+00	 9.5459415460e-01	-1.8086915737e-01
-5.2325901808e+00	 1.2727922061e+00	-1.8514475023e-01
-5.5507882323e+00	 1.5909902577e+00	-1.8465031158e-01
-5.8689862839e+00	 1.9091883092e+00	-1.7975769340e-01
-2.5455844122e+00	-1.1313708499e+00	 1.7985900929e-02
-2.8637824638e+00	-8.1317279838e-01	-4.2854882487e-02
-3.1819805153e+00	-4.9497474684e-01	-8.3286910922e-02
-3.5001785669e+00	-1.7677669530e-01	-1.1352710050e-01
-3.8183766184e+00	 1.4142135623e-01	-1.3810298461e-01
-4.1365746699e+00	 4.5961940777e-01	-1.5738641523e-01
-4.4547727215e+00	 7.7781745930e-01	-1.7174924435e-01
-4.7729707730e+00	 1.0960155108e+00	-1.8156332396e-01
-5.0911688245e+00	 1.4142135624e+00	-1.8720050604e-01
-5.4093668761e+00	 1.7324116139e+00	-1.8903264256e-01
-5.7275649276e+00	 2.0506096654e+00	-1.8743158553e-01
-2.4041630560e+00	-9.8994949368e-01	 1.1128426628e-02
-2.7223611075e+00	-6.7175144214e-01	-4.4282621957e-02
-3.0405591591e+00	-3.5355339060e-01	-8.7674678708e-02
-3.3587572106e+00	-3.5355339065e-02	-1.1483504725e-01
-3.6769552622e+00	 2.8284271247e-01	-1.3729609628e-01
-3.9951533137e+00	 6.0104076401e-01	-1.5542967779e-01
-4.3133513652e+00	 9.1923881554e-01	-1.6960764376e-01
-4.6315494168e+00	 1.2374368671e+00	-1.8020184616e-01
-4.9497474683e+00	 1.5556349186e+00	-1.8758413700e-01
-5.2679455198e+00	 1.8738329701e+00	-1.9212636824e-01
-5.5861435714e+00	 2.1920310217e+00	-1.9420039188e-01
-2.2627416998e+00	-8.4852813744e-01	 8.2486594781e-03
-2.5809397513e+00	-5.3033008590e-01	-4.2140657895e-02
-2.8991378028e+00	-2.1213203436e-01	-8.6173198664e-02
-3.2173358544e+00	 1.0606601718e-01	-1.1250872095e-01
-3.5355339059e+00	 4.2426406871e-01	-1.3323845445e-01
-3.8537319574e+00	 7.4246212025e-01	-1.5060570638e-01
-4.1719300090e+00	 1.0606601718e+00	-1.6498232872e-01
-4.4901280605e+00	 1.3788582233e+00	-1.7674017347e-01
-4.8083261121e+00	 1.6970562748e+00	-1.8625109260e-01
-5.1265241636e+00	 2.0152543264e+00	-1.9388693810e-01
-5.4447222151e+00	 2.3334523779e+00	-2.0001956195e-01
-2.1213203435e+00	-7.0710678120e-01	 9.3465994806e-03
-2.4395183951e+00	-3.8890872966e-01	-3.6428990301e-02
-2.7577164466e+00	-7.0710678122e-02	-7.6737610453e-02
-3.0759144981e+00	 2.4748737342e-01	-1.0650357108e-01
-3.3941125497e+00	 5.6568542495e-01	-1.2588550858e-01
-3.7123106012e+00	 8.8388347649e-01	-1.4286995048e-01
-4.0305086527e+00	 1.2020815280e+00	-1.5782874874e-01
-4.3487067043e+00	 1.5202795796e+00	-1.7113375537e-01
-4.6669047558e+00	 1.8384776311e+00	-1.8315682233e-01
-4.9851028074e+00	 2.1566756826e+00	-1.9426980163e-01
-5.3033008589e+00	 2.4748737342e+00	-2.0484454524e-01
-6.7175144212e+00	 1.0606601717e+00	-1.1720236796e-01
-7.0357124728e+00	 1.3788582233e+00	-9.6950413641e-02
-7.3539105243e+00	 1.6970562748e+00	-8.1981963168e-02
-7.6721085758e+00	 2.0152543263e+00	-7.2668868528e-02
-7.9903066274e+00	 2.3334523779e+00	-6.9382981706e-02
-8.3085046789e+00	 2.6516504294e+00	-7.2496154685e-02
-8.6267027304e+00	 2.9698484809e+00	-8.2380239450e-02
-8.9449007820e+00	 3.2880465325e+00	-9.9723537235e-02
-9.2630988335e+00	 3.6062445840e+00	-1.2206676359e-01
-9.5812968851e+00	 3.9244426356e+00	-1.4557128549e-01
-9.8994949366e+00	 4.2426406871e+00	-1.6907919326e-01
-6.5760930650e+00	 1.2020815280e+00	-1.2937121403e-01
-6.8942911166e+00	 1.5202795795e+00	-1.0861957119e-01
-7.2124891681e+00	 1.8384776311e+00	-9.3132923446e-02
-7.5306872196e+00	 2.1566756826e+00	-8.3283122792e-02
-7.8488852712e+00	 2.4748737341e+00	-7.9442021207e-02
-8.1670833227e+00	 2.7930717857e+00	-8.1981470677e-02
-8.4852813742e+00	 3.1112698372e+00	-9.1273323184e-02
-8.8034794258e+00	 3.4294678887e+00	-1.0768943071e-01
-9.1216774773e+00	 3.7476659403e+00	-1.2930405515e-01
-9.4398755288e+00	 4.0658639918e+00	-1.5074539030e-01
-9.7580735804e+00	 4.3840620433e+00	-1.7211249595e-01
-6.4346717088e+00	 1.3435028842e+00	-1.4090227737e-01
-6.7528697603e+00	 1.6617009358e+00	-1.1961658261e-01
-7.0710678119e+00	 1.9798989873e+00	-1.0357737420e-01
-7.3892658634e+00	 2.2980970388e+00	-9.3156504125e-02
-7.7074639149e+00	 2.6162950904e+00	-8.8725824374e-02
-8.0256619665e+00	 2.9344931419e+00	-9.0657186929e-02
-8.3438600180e+00	 3.2526911934e+00	-9.9322443775e-02
-8.6620580695e+00	 3.5708892450e+00	-1.1570961410e-01
-8.9802561211e+00	 3.8890872965e+00	-1.3642104699e-01
-9.2984541726e+00	 4.2072853480e+00	-1.5577694490e-01
-9.6166522241e+00	 4.5254833996e+00	-1.7498099811e-01
-6.2932503526e+00	 1.4849242405e+00	-1.5175100749e-01
-6.6114484041e+00	 1.8031222920e+00	-1.2989689740e-01
-6.9296464556e+00	 2.1213203435e+00	-1.1327076491e-01
-7.2478445072e+00	 2.4395183951e+00	-1.0224446202e-01
-7.5660425587e+00	 2.7577164466e+00	-9.7189840696e-02
-7.8842406102e+00	 3.0759144981e+00	-9.8478752933e-02
-8.2024386618e+00	 3.3941125497e+00	-1.0648305071e-01
-8.5206367133e+00	 3.7123106012e+00	-1.2252450751e-01
-8.8388347648e+00	 4.0305086527e+00	-1.4340820700e-01
-9.1570328164e+00	 4.3487067043e+00	-1.6065641699e-01
-9.4752308679e+00	 4.6669047558e+00	-1.7767516723e-01
-6.1518289963e+00	 1.6263455967e+00	-1.6187285388e-01
-6.4700270479e+00	 1.9445436482e+00	-1.3941596505e-01
-6.7882250994e+00	 2.2627416998e+00	-1.2216854509e-01
-7.1064231509e+00	 2.5809397513e+00	-1.1050244596e-01
-7.4246212025e+00	 2.8991378028e+00	-1.0478951967e-01
-7.7428192540e+00	 3.2173358544e+00	-1.0540161818e-01
-8.0610173055e+00	 3.5355339059e+00	-1.1323169353e-01
-8.3792153571e+00	 3.8537319574e+00	-1.2805701112e-01
-8.6974134086e+00	 4.1719300090e+00	-1.4744029493e-01
-9.0156114601e+00	 4.4901280605e+00	-1.6537427402e-01
-9.3338095116e+00	 4.8083261121e+00	-1.8018547057e-01
-6.0104076401e+00	 1.7677669529e+00	-1.7122326602e-01
-6.3286056916e+00	 2.0859650045e+00	-1.4812923506e-01
-6.6468037432e+00	 2.4041630560e+00	-1.3022616421e-01
-6.9650017947e+00	 2.7223611075e+00	-1.1788590545e-01
-7.2831998462e+00	 3.0405591591e+00	-1.1148031077e-01
-7.6013978978e+00	 3.3587572106e+00	-1.1138123216e-01
-7.9195959493e+00	 3.6769552621e+00	-1.1911400185e-01
-8.2377940008e+00	 3.9951533137e+00	-1.3235555037e-01
-8.5559920524e+00	 4.3133513652e+00	-1.4997966564e-01
-8.8741901039e+00	 4.6315494168e+00	-1.6992098326e-01
-9.1923881554e+00	 4.9497474683e+00	-1.8250237518e-01
-5.8689862839e+00	 1.9091883092e+00	-1.7975769340e-01
-6.1871843354e+00	 2.2273863607e+00	-1.5599215690e-01
-6.5053823869e+00	 2.5455844123e+00	-1.3739907176e-01
-6.8235804385e+00	 2.8637824638e+00	-1.2435028997e-01
-7.1417784900e+00	 3.1819805153e+00	-1.1721766351e-01
-7.4599765415e+00	 3.5001785669e+00	-1.1674718390e-01
-7.7781745931e+00	 3.8183766184e+00	-1.2379279292e-01
-8.0963726446e+00	 4.1365746699e+00	-1.3546854240e-01
-8.4145706961e+00	 4.4547727215e+00	-1.5135145541e-01
-8.7327687477e+00	 4.7729707730e+00	-1.7101854361e-01
-9.0509667992e+00	 5.0911688245e+00	-1.8461634786e-01
-5.7275649276e+00	 2.0506096654e+00	-1.8743158553e-01
-6.0457629792e+00	 2.3688077170e+00	-1.6296018008e-01
-6.3639610307e+00	 2.6870057685e+00	-1.4364271725e-01
-6.6821590822e+00	 3.0052038200e+00	-1.2985104902e-01
-7.0003571338e+00	 3.3234018716e+00	-1.2195702737e-01
-7.3185551853e+00	 3.6415999231e+00	-1.2164331097e-01
-7.6367532368e+00	 3.9597979746e+00	-1.2731648752e-01
-7.9549512884e+00	 4.2779960262e+00	-1.3744440499e-01
-8.2731493399e+00	 4.5961940777e+00	-1.5160408260e-01
-8.5913473914e+00	 4.9143921292e+00	-1.6937252910e-01
-8.9095454429e+00	 5.2325901808e+00	-1.8651785520e-01
-5.5861435714e+00	 2.1920310217e+00	-1.9420039188e-01
-5.9043416229e+00	 2.5102290732e+00	-1.6898875408e-01
-6.2225396745e+00	 2.8284271247e+00	-1.4891255015e-01
-6.5407377260e+00	 3.1466251763e+00	-1.3434363208e-01
-6.8589357775e+00	 3.4648232278e+00	-1.2579839129e-01
-7.1771338291e+00	 3.7830212793e+00	-1.2541479066e-01
-7.4953318806e+00	 4.1012193309e+00	-1.2973350346e-01
-7.8135299321e+00	 4.4194173824e+00	-1.3833155651e-01
-8.1317279837e+00	 4.7376154339e+00	-1.5078596614e-01
-8.4499260352e+00	 5.0558134855e+00	-1.6667373821e-01
-8.7681240867e+00	 5.3740115370e+00	-1.8557186810e-01
-5.4447222151e+00	 2.3334523779e+00	-2.0001956195e-01
-5.7629202667e+00	 2.6516504294e+00	-1.7403332840e-01
-6.0811183182e+00	 2.9698484810e+00	-1.5316401997e-01
-6.3993163698e+00	 3.2880465325e+00	-1.3778348864e-01
-6.7175144213e+00	 3.6062445840e+00	-1.2965473484e-01
-7.0357124728e+00	 3.9244426356e+00	-1.2811004177e-01
-7.3539105244e+00	 4.2426406871e+00	-1.3109225915e-01
-7.6721085759e+00	 4.5608387386e+00	-1.3817841596e-01
-7.9903066274e+00	 4.8790367902e+00	-1.4894552561e-01
-8.3085046790e+00	 5.1972348417e+00	-1.6297059106e-01
-8.6267027305e+00	 5.5154328933e+00	-1.7983060482e-01
-5.3033008589e+00	 2.4748737342e+00	-2.0484454524e-01
-5.6214989104e+00	 2.7930717857e+00	-1.7804935253e-01
-5.9396969620e+00	 3.1112698372e+00	-1.5635257619e-01
-6.2578950135e+00	 3.4294678887e+00	-1.4012606820e-01
-6.5760930651e+00	 3.7476659403e+00	-1.3246530931e-01
-6.8942911166e+00	 4.0658639918e+00	-1.2977748275e-01
-7.2124891681e+00	 4.3840620433e+00	-1.3144117363e-01
-7.5306872197e+00	 4.7022600949e+00	-1.3703340293e-01
-7.8488852712e+00	 5.0204581464e+00	-1.4613118117e-01
-8.1670833227e+00	 5.3386561980e+00	-1.5831150841e-01
-8.4852813743e+00	 5.6568542495e+00	-1.7315137426e-01
-2.1213203435e+00	-7.0710678120e-01	 9.3465994806e-03
-2.4395183951e+00	-3.8890872966e-01	-3.6428990301e-02
-2.7577164466e+00	-7.0710678122e-02	-7.6737610453e-02
-3.0759144981e+00	 2.4748737342e-01	-1.0650357108e-01
-3.3941125497e+00	 5.6568542495e-01	-1.2588550858e-01
-3.7123106012e+00	 8.8388347649e-01	-1.4286995048e-01
-4.0305086527e+00	 1.2020815280e+00	-1.5782874874e-01
-4.3487067043e+00	 1.5202795796e+00	-1.7113375537e-01
-4.6669047558e+00	 1.8384776311e+00	-1.8315682233e-01
-4.9851028074e+00	 2.1566756826e+00	-1.9426980163e-01
-5.3033008589e+00	 2.4748737342e+00	-2.0484454524e-01
-1.9798989873e+00	-5.6568542496e-01	-8.5468565322e-03
-2.2980970388e+00	-2.4748737342e-01	-4.8660631543e-02
-2.6162950904e+00	 7.0710678118e-02	-8.4208377185e-02
-2.9344931419e+00	 3.8890872966e-01	-1.1519009346e-01
-3.2526911934e+00	 7.0710678119e-01	-1.3240424787e-01
-3.5708892450e+00	 1.0253048327e+00	-1.4797784161e-01
-3.8890872965e+00	 1.3435028843e+00	-1.6250191096e-01
-4.2072853480e+00	 1.6617009358e+00	-1.7634830792e-01
-4.5254833996e+00	 1.9798989873e+00	-1.8988888446e-01
-4.8436814511e+00	 2.2980970389e+00	-2.0349549257e-01
-5.1618795027e+00	 2.6162950904e+00	-2.1753998424e-01
-1.8384776311e+00	-4.2426406872e-01	-2.7608053050e-02
-2.1566756826e+00	-1.0606601718e-01	-6.1791464567e-02
-2.4748737341e+00	 2.1213203436e-01	-9.2309786974e-02
-2.7930717857e+00	 5.3033008590e-01	-1.1916302027e-01
-3.1112698372e+00	 8.4852813743e-01	-1.3797782040e-01
-3.4294678887e+00	 1.1667261890e+00	-1.5184753317e-01
-3.7476659403e+00	 1.4849242405e+00	-1.6564384081e-01
-4.0658639918e+00	 1.8031222920e+00	-1.7973859529e-01
-4.3840620433e+00	 2.1213203436e+00	-1.9450364860e-01
-4.7022600949e+00	 2.4395183951e+00	-2.1031085273e-01
-5.0204581464e+00	 2.7577164466e+00	-2.2753205965e-01
-1.6970562749e+00	-2.8284271248e-01	-4.7836990074e-02
-2.0152543264e+00	 3.5355339060e-02	-7.5821489372e-02
-2.3334523779e+00	 3.5355339060e-01	-1.0104183982e-01
-2.6516504294e+00	 6.7175144214e-01	-1.2349804142e-01
-2.9698484810e+00	 9.8994949367e-01	-1.4256167566e-01
-3.2880465325e+00	 1.3081475452e+00	-1.5443447466e-01
-3.6062445840e+00	 1.6263455967e+00	-1.6720998777e-01
-3.9244426356e+00	 1.9445436483e+00	-1.8126006697e-01
-4.2426406871e+00	 2.2627416998e+00	-1.9695656425e-01
-4.5608387386e+00	 2.5809397513e+00	-2.1467133158e-01
-4.8790367902e+00	 2.8991378029e+00	-2.3477622095e-01
-1.5556349186e+00	-1.4142135624e-01	-6.9233667602e-02
-1.8738329701e+00	 1.7677669530e-01	-9.0750705958e-02
-2.1920310217e+00	 4.9497474684e-01	-1.1040453572e-01
-2.5102290732e+00	 8.1317279838e-01	-1.2819515690e-01
-2.8284271247e+00	 1.1313708499e+00	-1.4412256949e-01
-3.1466251763e+00	 1.4495689014e+00	-1.5569411556e-01
-3.4648232278e+00	 1.7677669530e+00	-1.6715580135e-01
-3.7830212793e+00	 2.0859650045e+00	-1.8086817246e-01
-4.1012193309e+00	 2.4041630560e+00	-1.9720308089e-01
-4.4194173824e+00	 2.7223611076e+00	-2.1653237863e-01
-4.7376154339e+00	 3.0405591591e+00	-2.3922791765e-01
-1.4142135624e+00	 6.1062266354e-16	-9.1798085636e-02
-1.7324116139e+00	 3.1819805154e-01	-1.0657911433e-01
-2.0506096654e+00	 6.3639610308e-01	-1.2039787469e-01
-2.3688077170e+00	 9.5459415462e-01	-1.3325436672e-01
-2.6870057685e+00	 1.2727922062e+00	-1.4514859042e-01
-3.0052038200e+00	 1.5909902577e+00	-1.5558190537e-01
-3.3234018716e+00	 1.9091883092e+00	-1.6543673102e-01
-3.6415999231e+00	 2.2273863608e+00	-1.7851836124e-01
-3.9597979746e+00	 2.5455844123e+00	-1.9519864803e-01
-4.2779960262e+00	 2.8637824638e+00	-2.1584944336e-01
-4.5961940777e+00	 3.1819805154e+00	-2.4084259921e-01
-1.2727922062e+00	 1.4142135624e-01	-1.1553024418e-01
-1.5909902577e+00	 4.5961940778e-01	-1.2330671447e-01
-1.9091883092e+00	 7.7781745932e-01	-1.3102185670e-01
-2.2273863607e+00	 1.0960155109e+00	-1.3867567086e-01
-2.5455844123e+00	 1.4142135624e+00	-1.4626815695e-01
-2.8637824638e+00	 1.7324116139e+00	-1.5379931497e-01
-3.1819805153e+00	 2.0506096655e+00	-1.6200822628e-01
-3.5001785669e+00	 2.3688077170e+00	-1.7416608281e-01
-3.8183766184e+00	 2.6870057685e+00	-1.9089871514e-01
-4.1365746699e+00	 3.0052038201e+00	-2.1257797526e-01
-4.4547727215e+00	 3.3234018716e+00	-2.3957571515e-01
-1.1313708499e+00	 2.8284271248e-01	-1.4043014322e-01
-1.4495689014e+00	 6.0104076402e-01	-1.4093350640e-01
-1.7677669530e+00	 9.1923881556e-01	-1.4227648178e-01
-2.0859650045e+00	 1.2374368671e+00	-1.4445906934e-01
-2.4041630560e+00	 1.5556349186e+00	-1.4748126910e-01
-2.7223611076e+00	 1.8738329702e+00	-1.5134308104e-01
-3.0405591591e+00	 2.1920310217e+00	-1.5682573663e-01
-3.3587572106e+00	 2.5102290732e+00	-1.6776678665e-01
-3.6769552622e+00	 2.8284271248e+00	-1.8425873173e-01
-3.9951533137e+00	 3.1466251763e+00	-2.0667342383e-01
-4.3133513652e+00	 3.4648232278e+00	-2.3571051795e-01
-9.8994949368e-01	 4.2426406872e-01	-1.6649778277e-01
-1.3081475452e+00	 7.4246212026e-01	-1.5945949012e-01
-1.6263455967e+00	 1.0606601718e+00	-1.5416174991e-01
-1.9445436483e+00	 1.3788582233e+00	-1.5060456216e-01
-2.2627416998e+00	 1.6970562749e+00	-1.4878792685e-01
-2.5809397513e+00	 2.0152543264e+00	-1.4871184399e-01
-2.8991378029e+00	 2.3334523779e+00	-1.5037631359e-01
-3.2173358544e+00	 2.6516504295e+00	-1.5927592226e-01
-3.5355339059e+00	 2.9698484810e+00	-1.7523414727e-01
-3.8537319575e+00	 3.2880465325e+00	-1.9809123856e-01
-4.1719300090e+00	 3.6062445841e+00	-2.3171012317e-01
-8.4852813744e-01	 5.6568542496e-01	-1.9373316283e-01
-1.1667261890e+00	 8.8388347650e-01	-1.7888466561e-01
-1.4849242405e+00	 1.2020815280e+00	-1.6667766110e-01
-1.8031222920e+00	 1.5202795796e+00	-1.5711214930e-01
-2.1213203436e+00	 1.8384776311e+00	-1.5018813021e-01
-2.4395183951e+00	 2.1566756826e+00	-1.4590560383e-01
-2.7577164466e+00	 2.4748737342e+00	-1.4426457016e-01
-3.0759144982e+00	 2.7930717857e+00	-1.4864893913e-01
-3.3941125497e+00	 3.1112698372e+00	-1.6378041127e-01
-3.7123106012e+00	 3.4294678888e+00	-1.8678686893e-01
-4.0305086528e+00	 3.7476659403e+00	-2.2540775038e-01
-7.0710678120e-01	 7.0710678120e-01	-2.2213628339e-01
-1.0253048327e+00	 1.0253048327e+00	-1.9920903288e-01
-1.3435028843e+00	 1.3435028843e+00	-1.7982421535e-01
-1.6617009358e+00	 1.6617009358e+00	-1.6398183078e-01
-1.9798989874e+00	 1.9798989874e+00	-1.5168187918e-01
-2.2980970389e+00	 2.2980970389e+00	-1.4292436055e-01
-2.6162950904e+00	 2.6162950904e+00	-1.3770927489e-01
-2.9344931420e+00	 2.9344931420e+00	-1.3603662220e-01
-3.2526911935e+00	 3.2526911935e+00	-1.4985297321e-01
-3.5708892450e+00	 3.5708892450e+00	-1.7591292363e-01
-3.8890872966e+00	 3.8890872966e+00	-2.1685184039e-01
-5.3033008589e+00	 2.4748737342e+00	-2.0484454524e-01
-5.6214989104e+00	 2.7930717857e+00	-1.7804935253e-01
-5.9396969620e+00	 3.1112698372e+00	-1.5635257619e-01
-6.2578950135e+00	 3.4294678887e+00	-1.4012606820e-01
-6.5760930651e+00	 3.7476659403e+00	-1.3246530931e-01
-6.8942911166e+00	 4.0658639918e+00	-1.2977748275e-01
-7.2124891681e+00	 4.3840620433e+00	-1.3144117363e-01
-7.5306872197e+00	 4.7022600949e+00	-1.3703340293e-01
-7.8488852712e+00	 5.0204581464e+00	-1.4613118117e-01
-8.1670833227e+00	 5.3386561980e+00	-1.5831150841e-01
-8.4852813743e+00	 5.6568542495e+00	-1.7315137426e-01
-5.1618795027e+00	 2.6162950904e+00	-2.1753998424e-01
-5.4800775542e+00	 2.9344931419e+00	-1.8900704086e-01
-5.7982756057e+00	 3.2526911935e+00	-1.6556203016e-01
-6.1164736573e+00	 3.5708892450e+00	-1.4894057641e-01
-6.4346717088e+00	 3.8890872965e+00	-1.3965814893e-01
-6.7528697604e+00	 4.2072853481e+00	-1.3498283578e-01
-7.0710678119e+00	 4.5254833996e+00	-1.3449166686e-01
-7.3892658634e+00	 4.8436814511e+00	-1.3776166025e-01
-7.7074639150e+00	 5.1618795027e+00	-1.4436982357e-01
-8.0256619665e+00	 5.4800775542e+00	-1.5389315399e-01
-8.3438600180e+00	 5.7982756057e+00	-1.6590863821e-01
-5.0204581464e+00	 2.7577164466e+00	-2.2753205965e-01
-5.3386561980e+00	 3.0759144982e+00	-1.9745421774e-01
-5.6568542495e+00	 3.3941125497e+00	-1.7245382484e-01
-5.9750523010e+00	 3.7123106012e+00	-1.5604819253e-01
-6.2932503526e+00	 4.0305086528e+00	-1.4519083336e-01
-6.6114484041e+00	 4.3487067043e+00	-1.3877321939e-01
-6.9296464556e+00	 4.6669047558e+00	-1.3637237627e-01
-7.2478445072e+00	 4.9851028074e+00	-1.3756531919e-01
-7.5660425587e+00	 5.3033008589e+00	-1.4192905286e-01
-7.8842406103e+00	 5.6214989104e+00	-1.4904057155e-01
-8.2024386618e+00	 5.9396969620e+00	-1.5847685907e-01
-4.8790367902e+00	 2.8991378029e+00	-2.3477622095e-01
-5.1972348417e+00	 3.2173358544e+00	-2.0334633267e-01
-5.5154328933e+00	 3.5355339059e+00	-1.7818132977e-01
-5.8336309448e+00	 3.8537319575e+00	-1.6129888527e-01
-6.1518289963e+00	 4.1719300090e+00	-1.4911178229e-01
-6.4700270479e+00	 4.4901280605e+00	-1.4119705386e-01
-6.7882250994e+00	 4.8083261121e+00	-1.3713172272e-01
-7.1064231509e+00	 5.1265241636e+00	-1.3649280117e-01
-7.4246212025e+00	 5.4447222151e+00	-1.3885729103e-01
-7.7428192540e+00	 5.7629202667e+00	-1.4380218367e-01
-8.0610173056e+00	 6.0811183182e+00	-1.5090445999e-01
-4.7376154339e+00	 3.0405591591e+00	-2.3922791765e-01
-5.0558134855e+00	 3.3587572106e+00	-2.0663883513e-01
-5.3740115370e+00	 3.6769552622e+00	-1.8254070886e-01
-5.6922095886e+00	 3.9951533137e+00	-1.6474107574e-01
-6.0104076401e+00	 4.3133513652e+00	-1.5146941604e-01
-6.3286056916e+00	 4.6315494168e+00	-1.4230276007e-01
-6.6468037432e+00	 4.9497474683e+00	-1.3681812767e-01
-6.9650017947e+00	 5.2679455198e+00	-1.3459252824e-01
-7.2831998462e+00	 5.5861435714e+00	-1.3520296070e-01
-7.6013978978e+00	 5.9043416229e+00	-1.3822641352e-01
-7.9195959493e+00	 6.2225396745e+00	-1.4323986471e-01
-4.5961940777e+00	 3.1819805154e+00	-2.4084259921e-01
-4.9143921292e+00	 3.5001785669e+00	-2.0815002028e-01
-5.2325901808e+00	 3.8183766184e+00	-1.8489481838e-01
-5.5507882323e+00	 4.1365746699e+00	-1.6642318430e-01
-5.8689862839e+00	 4.4547727215e+00	-1.5231215555e-01
-6.1871843354e+00	 4.7729707730e+00	-1.4213875953e-01
-6.5053823869e+00	 5.0911688245e+00	-1.3548001319e-01
-6.8235804385e+00	 5.4093668761e+00	-1.3191292303e-01
-7.1417784900e+00	 5.7275649276e+00	-1.3101448507e-01
-7.4599765416e+00	 6.0457629792e+00	-1.3236168490e-01
-7.7781745931e+00	 6.3639610307e+00	-1.3553149760e-01
-4.4547727215e+00	 3.3234018716e+00	-2.3957571515e-01
-4.7729707730e+00	 3.6415999231e+00	-2.0880672726e-01
-5.0911688246e+00	 3.9597979747e+00	-1.8529207855e-01
-5.4093668761e+00	 4.2779960262e+00	-1.6639363191e-01
-5.7275649276e+00	 4.5961940777e+00	-1.5168842234e-01
-6.0457629792e+00	 4.9143921293e+00	-1.4075347434e-01
-6.3639610307e+00	 5.2325901808e+00	-1.3316580196e-01
-6.6821590822e+00	 5.5507882323e+00	-1.2850240880e-01
-7.0003571338e+00	 5.8689862839e+00	-1.2634028799e-01
-7.3185551853e+00	 6.1871843354e+00	-1.2625642219e-01
-7.6367532369e+00	 6.5053823869e+00	-1.2782778363e-01
-4.3133513652e+00	 3.4648232278e+00	-2.3571051795e-01
-4.6315494168e+00	 3.7830212794e+00	-2.0730981711e-01
-4.9497474683e+00	 4.1012193309e+00	-1.8378091036e-01
-5.2679455199e+00	 4.4194173824e+00	-1.6470084015e-01
-5.5861435714e+00	 4.7376154340e+00	-1.4964663857e-01
-5.9043416229e+00	 5.0558134855e+00	-1.3819532723e-01
-6.2225396745e+00	 5.3740115370e+00	-1.2992391728e-01
-6.5407377260e+00	 5.6922095886e+00	-1.2440940941e-01
-6.8589357775e+00	 6.0104076401e+00	-1.2122879387e-01
-7.1771338291e+00	 6.3286056916e+00	-1.1995905042e-01
-7.4953318806e+00	 6.6468037432e+00	-1.2017714838e-01
-4.1719300090e+00	 3.6062445841e+00	-2.3171012317e-01
-4.4901280605e+00	 3.9244426356e+00	-2.0370771049e-01
-4.8083261121e+00	 4.2426406871e+00	-1.8040973543e-01
-5.1265241636e+00	 4.5608387387e+00	-1.6139323120e-01
-5.4447222152e+00	 4.8790367902e+00	-1.4623522699e-01
-5.7629202667e+00	 5.1972348417e+00	-1.3451274152e-01
-6.0811183182e+00	 5.5154328933e+00	-1.2580278303e-01
-6.3993163698e+00	 5.8336309448e+00	-1.1968234934e-01
-6.7175144213e+00	 6.1518289963e+00	-1.1572842777e-01
-7.0357124728e+00	 6.4700270479e+00	-1.1351799520e-01
-7.3539105244e+00	 6.7882250994e+00	-1.1262801805e-01
-4.0305086528e+00	 3.7476659403e+00	-2.2540775038e-01
-4.3487067043e+00	 4.0658639918e+00	-1.9804882906e-01
-4.6669047558e+00	 4.3840620434e+00	-1.7522697597e-01
-4.9851028074e+00	 4.7022600949e+00	-1.5651922785e-01
-5.3033008589e+00	 5.0204581464e+00	-1.4150261096e-01
-5.6214989105e+00	 5.3386561980e+00	-1.2975414114e-01
-5.9396969620e+00	 5.6568542495e+00	-1.2085082374e-01
-6.2578950135e+00	 5.9750523010e+00	-1.1436965366e-01
-6.5760930651e+00	 6.2932503526e+00	-1.0988761534e-01
-6.8942911166e+00	 6.6114484041e+00	-1.0698168275e-01
-7.2124891681e+00	 6.9296464557e+00	-1.0522881942e-01
-3.8890872966e+00	 3.8890872966e+00	-2.1685184039e-01
-4.2072853481e+00	 4.2072853481e+00	-1.9038159507e-01
-4.5254833996e+00	 4.5254833996e+00	-1.6828105483e-01
-4.8436814511e+00	 4.8436814511e+00	-1.5012725350e-01
-5.1618795027e+00	 5.1618795027e+00	-1.3549721447e-01
-5.4800775542e+00	 5.4800775542e+00	-1.2396795065e-01
-5.7982756057e+00	 5.7982756057e+00	-1.1511646452e-01
-6.1164736573e+00	 6.1164736573e+00	-1.0851974807e-01
-6.4346717088e+00	 6.4346717088e+00	-1.0375478284e-01
-6.7528697604e+00	 6.7528697604e+00	-1.0039853991e-01
-7.0710678119e+00	 7.0710678119e+00	-9.8027979906e-02
-4.2426406871e+00	-2.8284271247e+00	 2.6488149850e-01
-4.5608387386e+00	-2.5102290732e+00	 2.1013949519e-01
-4.8790367902e+00	-2.1920310217e+00	 1.6110955475e-01
-5.1972348417e+00	-1.8738329701e+00	 1.1741982519e-01
-5.5154328933e+00	-1.5556349186e+00	 7.8698454538e-02
-5.8336309448e+00	-1.2374368671e+00	 4.4573590802e-02
-6.1518289963e+00	-9.1923881554e-01	 1.4673382001e-02
-6.4700270479e+00	-6.0104076401e-01	-1.1374023851e-02
-6.7882250994e+00	-2.8284271248e-01	-3.3940478736e-02
-7.1064231509e+00	 3.5355339061e-02	-5.3397834639e-02
-7.4246212025e+00	 3.5355339060e-01	-7.0117943543e-02
-4.1719300090e+00	-2.7577164466e+00	 2.5221016489e-01
-4.4901280605e+00	-2.4395183951e+00	 1.9686200279e-01
-4.8083261121e+00	-2.1213203435e+00	 1.4758560241e-01
-5.1265241636e+00	-1.8031222920e+00	 1.0400911177e-01
-5.4447222151e+00	-1.4849242405e+00	 6.5760678867e-02
-5.7629202667e+00	-1.1667261890e+00	 3.2468451730e-02
-6.0811183182e+00	-8.4852813743e-01	 3.7605783730e-03
-6.3993163697e+00	-5.3033008589e-01	-2.0734793189e-02
-6.7175144213e+00	-2.1213203436e-01	-4.1389514938e-02
-7.0357124728e+00	 1.0606601718e-01	-5.8575438860e-02
-7.3539105243e+00	 4.2426406872e-01	-7.2664416937e-02
-4.1012193309e+00	-2.6870057685e+00	 2.3874763817e-01
-4.4194173824e+00	-2.3688077170e+00	 1.8283831524e-01
-4.7376154339e+00	-2.0506096654e+00	 1.3336045288e-01
-5.0558134855e+00	-1.7324116139e+00	 8.9942199090e-02
-5.3740115370e+00	-1.4142135624e+00	 5.2211701895e-02
-5.6922095885e+00	-1.0960155108e+00	 1.9797109310e-02
-6.0104076401e+00	-7.7781745931e-01	-7.6734306498e-03
-6.3286056916e+00	-4.5961940778e-01	-3.0571769969e-02
-6.6468037431e+00	-1.4142135624e-01	-4.9269760630e-02
-6.9650017947e+00	 1.7677669530e-01	-6.4139254618e-02
-7.2831998462e+00	 4.9497474684e-01	-7.5552103915e-02
-4.0305086527e+00	-2.6162950904e+00	 2.2449948715e-01
-4.3487067043e+00	-2.2980970389e+00	 1.6807400134e-01
-4.6669047558e+00	-1.9798989873e+00	 1.1843967495e-01
-4.9851028074e+00	-1.6617009358e+00	 7.5224655972e-02
-5.3033008589e+00	-1.3435028843e+00	 3.8057092437e-02
-5.6214989104e+00	-1.0253048327e+00	 6.5651323559e-03
-5.9396969620e+00	-7.0710678119e-01	-1.9623076254e-02
-6.2578950135e+00	-3.8890872966e-01	-4.0879385378e-02
-6.5760930650e+00	-7.0710678121e-02	-5.7575646998e-02
-6.8942911166e+00	 2.4748737342e-01	-7.0083713098e-02
-7.2124891681e+00	 5.6568542496e-01	-7.8775435663e-02
-3.9597979746e+00	-2.5455844123e+00	 2.0947128064e-01
-4.2779960262e+00	-2.2273863608e+00	 1.5257462991e-01
-4.5961940777e+00	-1.9091883092e+00	 1.0282883744e-01
-4.9143921292e+00	-1.5909902577e+00	 5.9862051228e-02
-5.2325901808e+00	-1.2727922061e+00	 2.3302419305e-02
-5.5507882323e+00	-9.5459415461e-01	-7.2219103191e-03
-5.8689862838e+00	-6.3639610308e-01	-3.2082789627e-02
-6.1871843354e+00	-3.1819805154e-01	-5.1652070601e-02
-6.5053823869e+00	-3.6803060599e-12	-6.6301605228e-02
-6.8235804384e+00	 3.1819805153e-01	-7.6403245489e-02
-7.1417784900e+00	 6.3639610307e-01	-8.2328843368e-02
-3.8890872965e+00	-2.4748737342e+00	 1.9366858746e-01
-4.2072853480e+00	-2.1566756826e+00	 1.3634576976e-01
-4.5254833996e+00	-1.8384776311e+00	 8.6533509161e-02
-4.8436814511e+00	-1.5202795796e+00	 4.3859953672e-02
-5.1618795027e+00	-1.2020815280e+00	 7.9532513124e-03
-5.4800775542e+00	-8.8388347650e-01	-2.1558449901e-02
-5.7982756057e+00	-5.6568542496e-01	-4.5047001953e-02
-6.1164736573e+00	-2.4748737342e-01	-6.2884256827e-02
-6.4346717088e+00	 7.0710678113e-02	-7.5442066506e-02
-6.7528697603e+00	 3.8890872965e-01	-8.3092282974e-02
-7.0710678118e+00	 7.0710678119e-01	-8.6206758216e-02
-3.8183766184e+00	-2.4041630561e+00	 1.7709697643e-01
-4.1365746699e+00	-2.0859650045e+00	 1.1939298971e-01
-4.4547727215e+00	-1.7677669530e+00	 6.9559258934e-02
-4.7729707730e+00	-1.4495689015e+00	 2.7223932116e-02
-5.0911688245e+00	-1.1313708499e+00	-7.9848427259e-03
-5.4093668761e+00	-8.1317279838e-01	-3.6438917577e-02
-5.7275649276e+00	-4.9497474684e-01	-5.8510144420e-02
-6.0457629791e+00	-1.7677669531e-01	-7.4570375240e-02
-6.3639610307e+00	 1.4142135623e-01	-8.4991462020e-02
-6.6821590822e+00	 4.5961940777e-01	-9.0145256743e-02
-7.0003571337e+00	 7.7781745930e-01	-9.0403611393e-02
-3.7476659403e+00	-2.3334523780e+00	 1.5976201635e-01
-4.0658639918e+00	-2.0152543264e+00	 1.0172185857e-01
-4.3840620433e+00	-1.6970562749e+00	 5.1911655569e-02
-4.7022600949e+00	-1.3788582233e+00	 9.9595553757e-03
-5.0204581464e+00	-1.0606601718e+00	-2.4506293997e-02
-5.3386561979e+00	-7.4246212026e-01	-5.1857744532e-02
-5.6568542495e+00	-4.2426406873e-01	-7.2466648214e-02
-5.9750523010e+00	-1.0606601719e-01	-8.6704857027e-02
-6.2932503525e+00	 2.1213203434e-01	-9.4944222954e-02
-6.6114484041e+00	 5.3033008588e-01	-9.7556597979e-02
-6.9296464556e+00	 8.4852813742e-01	-9.4913834085e-02
-3.6769552621e+00	-2.2627416998e+00	 1.4166927605e-01
-3.9951533137e+00	-1.9445436483e+00	 8.3337945146e-02
-4.3133513652e+00	-1.6263455968e+00	 3.3596267879e-02
-4.6315494168e+00	-1.3081475452e+00	-7.9276077369e-03
-4.9497474683e+00	-9.8994949368e-01	-4.1605533687e-02
-5.2679455198e+00	-6.7175144215e-01	-6.7809361954e-02
-5.5861435714e+00	-3.5355339061e-01	-8.6910944522e-02
-5.9043416229e+00	-3.5355339075e-02	-9.9282133375e-02
-6.2225396744e+00	 2.8284271246e-01	-1.0529478050e-01
-6.5407377260e+00	 6.0104076399e-01	-1.0532073787e-01
-6.8589357775e+00	 9.1923881553e-01	-9.9731857480e-02
-3.6062445840e+00	-2.1920310217e+00	 1.2282432432e-01
-3.9244426356e+00	-1.8738329702e+00	 6.4246818261e-02
-4.2426406871e+00	-1.5556349186e+00	 1.4618664679e-02
-4.5608387386e+00	-1.2374368671e+00	-2.6431988407e-02
-4.8790367902e+00	-9.1923881557e-01	-5.9276992982e-02
-5.1972348417e+00	-6.0104076403e-01	-8.4288201028e-02
-5.5154328932e+00	-2.8284271249e-01	-1.0183746453e-01
-5.8336309448e+00	 3.5355339040e-02	-1.1229663547e-01
-6.1518289963e+00	 3.5355339057e-01	-1.1603756583e-01
-6.4700270478e+00	 6.7175144211e-01	-1.1343210760e-01
-6.7882250994e+00	 9.8994949364e-01	-1.0485211276e-01
-3.5355339059e+00	-2.1213203436e+00	 1.0323273000e-01
-3.8537319574e+00	-1.8031222921e+00	 4.4454046726e-02
-4.1719300090e+00	-1.4849242405e+00	-5.0155852188e-03
-4.4901280605e+00	-1.1667261890e+00	-4.5548017822e-02
-4.8083261121e+00	-8.4852813745e-01	-7.7515103069e-02
-5.1265241636e+00	-5.3033008591e-01	-1.0128869294e-01
-5.4447222151e+00	-2.1213203438e-01	-1.1724063942e-01
-5.7629202667e+00	 1.0606601716e-01	-1.2574279450e-01
-6.0811183182e+00	 4.2426406869e-01	-1.2716701015e-01
-6.3993163697e+00	 7.4246212022e-01	-1.2188513836e-01
-6.7175144212e+00	 1.0606601717e+00	-1.1026903112e-01
-7.4246212025e+00	 3.5355339060e-01	-7.0117943543e-02
-7.7428192540e+00	 6.7175144214e-01	-6.1518433153e-02
-8.0610173055e+00	 9.8994949368e-01	-5.4658516276e-02
-8.3792153570e+00	 1.3081475452e+00	-4.9910044896e-02
-8.6974134086e+00	 1.6263455967e+00	-4.7644870998e-02
-9.0156114601e+00	 1.9445436483e+00	-5.4932396656e-02
-9.3338095116e+00	 2.2627416998e+00	-6.6796758458e-02
-9.6520075632e+00	 2.5809397513e+00	-7.7990889500e-02
-9.9702056147e+00	 2.8991378029e+00	-8.8369837222e-02
-1.0288403666e+01	 3.2173358544e+00	-9.7788659585e-02
-1.0606601718e+01	 3.5355339059e+00	-1.0659566377e-01
-7.3539105243e+00	 4.2426406872e-01	-7.2664416937e-02
-7.6721085759e+00	 7.4246212026e-01	-6.3845152745e-02
-7.9903066274e+00	 1.0606601718e+00	-5.6995761826e-02
-8.3085046789e+00	 1.3788582233e+00	-5.2488096165e-02
-8.6267027305e+00	 1.6970562749e+00	-5.0694007746e-02
-8.9449007820e+00	 2.0152543264e+00	-5.6032597329e-02
-9.2630988335e+00	 2.3334523779e+00	-6.8710679331e-02
-9.5812968851e+00	 2.6516504295e+00	-8.0892146343e-02
-9.8994949366e+00	 2.9698484810e+00	-9.2432049572e-02
-1.0217692988e+01	 3.2880465325e+00	-1.0318544710e-01
-1.0535891040e+01	 3.6062445840e+00	-1.1379740273e-01
-7.2831998462e+00	 4.9497474684e-01	-7.5552103915e-02
-7.6013978977e+00	 8.1317279838e-01	-6.6442495589e-02
-7.9195959493e+00	 1.1313708499e+00	-5.9533040297e-02
-8.2377940008e+00	 1.4495689014e+00	-5.5195590022e-02
-8.5559920523e+00	 1.7677669530e+00	-5.3801996750e-02
-8.8741901039e+00	 2.0859650045e+00	-5.7331026759e-02
-9.1923881554e+00	 2.4041630560e+00	-7.0760744040e-02
-9.5105862069e+00	 2.7223611076e+00	-8.3867463710e-02
-9.8287842585e+00	 3.0405591591e+00	-9.6506239043e-02
-1.0146982310e+01	 3.3587572106e+00	-1.0853212823e-01
-1.0465180362e+01	 3.6769552621e+00	-1.2079045527e-01
-7.2124891681e+00	 5.6568542496e-01	-7.8775435663e-02
-7.5306872196e+00	 8.8388347649e-01	-6.9304892871e-02
-7.8488852712e+00	 1.2020815280e+00	-6.2264782874e-02
-8.1670833227e+00	 1.5202795796e+00	-5.8026957654e-02
-8.4852813742e+00	 1.8384776311e+00	-5.6963269197e-02
-8.8034794258e+00	 2.1566756826e+00	-5.9445569487e-02
-9.1216774773e+00	 2.4748737342e+00	-7.2949777871e-02
-9.4398755288e+00	 2.7930717857e+00	-8.6919666880e-02
-9.7580735804e+00	 3.1112698372e+00	-1.0059523091e-01
-1.0076271632e+01	 3.4294678887e+00	-1.1383152826e-01
-1.0394469683e+01	 3.7476659403e+00	-1.2757362999e-01
-7.1417784900e+00	 6.3639610307e-01	-8.2328843368e-02
-7.4599765415e+00	 9.5459415461e-01	-7.2426775779e-02
-7.7781745930e+00	 1.2727922061e+00	-6.5185420744e-02
-8.0963726446e+00	 1.5909902577e+00	-6.0976630247e-02
-8.4145706961e+00	 1.9091883092e+00	-6.0172256274e-02
-8.7327687476e+00	 2.2273863607e+00	-6.3144150807e-02
-9.0509667992e+00	 2.5455844123e+00	-7.5280606126e-02
-9.3691648507e+00	 2.8637824638e+00	-9.0051581152e-02
-9.6873629022e+00	 3.1819805153e+00	-1.0470185046e-01
-1.0005560954e+01	 3.5001785669e+00	-1.1939677741e-01
-1.0323759005e+01	 3.8183766184e+00	-1.3414573547e-01
-7.0710678118e+00	 7.0710678119e-01	-8.6206758216e-02
-7.3892658634e+00	 1.0253048327e+00	-7.5802575497e-02
-7.7074639149e+00	 1.3435028843e+00	-6.8289385093e-02
-8.0256619664e+00	 1.6617009358e+00	-6.4039038987e-02
-8.3438600180e+00	 1.9798989873e+00	-6.3423389165e-02
-8.6620580695e+00	 2.2980970389e+00	-6.6814287611e-02
-8.9802561210e+00	 2.6162950904e+00	-7.7756057302e-02
-9.2984541726e+00	 2.9344931419e+00	-9.3266031838e-02
-9.6166522241e+00	 3.2526911934e+00	-1.0882892301e-01
-9.9348502757e+00	 3.5708892450e+00	-1.2494317142e-01
-1.0253048327e+01	 3.8890872965e+00	-1.4050558028e-01
-7.0003571337e+00	 7.7781745930e-01	-9.0403611393e-02
-7.3185551853e+00	 1.0960155108e+00	-7.9426723212e-02
-7.6367532368e+00	 1.4142135624e+00	-7.1571107107e-02
-7.9549512883e+00	 1.7324116139e+00	-6.7208615061e-02
-8.2731493399e+00	 2.0506096654e+00	-6.6711099059e-02
-8.5913473914e+00	 2.3688077170e+00	-7.0450411085e-02
-8.9095454429e+00	 2.6870057685e+00	-8.0378948128e-02
-9.2277434945e+00	 3.0052038200e+00	-9.6565844267e-02
-9.5459415460e+00	 3.3234018716e+00	-1.1297927387e-01
-9.8641395975e+00	 3.6415999231e+00	-1.3034367520e-01
-1.0182337649e+01	 3.9597979746e+00	-1.4665197298e-01
-6.9296464556e+00	 8.4852813742e-01	-9.4913834085e-02
-7.2478445071e+00	 1.1667261890e+00	-8.3293650112e-02
-7.5660425587e+00	 1.4849242405e+00	-7.5025017974e-02
-7.8842406102e+00	 1.8031222920e+00	-7.0479789655e-02
-8.2024386617e+00	 2.1213203436e+00	-7.0029817141e-02
-8.5206367133e+00	 2.4395183951e+00	-7.4046952415e-02
-8.8388347648e+00	 2.7577164466e+00	-8.3152110733e-02
-9.1570328163e+00	 3.0759144981e+00	-9.9953843783e-02
-9.4752308679e+00	 3.3941125497e+00	-1.1715572839e-01
-9.7934289194e+00	 3.7123106012e+00	-1.3559709731e-01
-1.0111626971e+01	 4.0305086527e+00	-1.5258372211e-01
-6.8589357775e+00	 9.1923881553e-01	-9.9731857480e-02
-7.1771338290e+00	 1.2374368671e+00	-8.7397787381e-02
-7.4953318806e+00	 1.5556349186e+00	-7.8645548878e-02
-7.8135299321e+00	 1.8738329701e+00	-7.3846993956e-02
-8.1317279836e+00	 2.1920310217e+00	-7.3373974597e-02
-8.4499260352e+00	 2.5102290732e+00	-7.7598342788e-02
-8.7681240867e+00	 2.8284271247e+00	-8.6891950511e-02
-9.0863221382e+00	 3.1466251763e+00	-1.0343285575e-01
-9.4045201898e+00	 3.4648232278e+00	-1.2146567682e-01
-9.7227182413e+00	 3.7830212793e+00	-1.4070224631e-01
-1.0040916293e+01	 4.1012193309e+00	-1.5829963620e-01
-6.7882250994e+00	 9.8994949364e-01	-1.0485211276e-01
-7.1064231509e+00	 1.3081475452e+00	-9.1733566208e-02
-7.4246212024e+00	 1.6263455967e+00	-8.2427131008e-02
-7.7428192540e+00	 1.9445436482e+00	-7.7304659149e-02
-8.0610173055e+00	 2.2627416998e+00	-7.6738002615e-02
-8.3792153570e+00	 2.5809397513e+00	-8.1099013390e-02
-8.6974134086e+00	 2.8991378028e+00	-9.0759543458e-02
-9.0156114601e+00	 3.2173358544e+00	-1.0700570899e-01
-9.3338095116e+00	 3.5355339059e+00	-1.2607888446e-01
-9.6520075632e+00	 3.8537319574e+00	-1.4565793073e-01
-9.9702056147e+00	 4.1719300090e+00	-1.6379852375e-01
-6.7175144212e+00	 1.0606601717e+00	-1.1026903112e-01
-7.0357124728e+00	 1.3788582233e+00	-9.6295417777e-02
-7.3539105243e+00	 1.6970562748e+00	-8.6364195549e-02
-7.6721085758e+00	 2.0152543263e+00	-8.0847216421e-02
-7.9903066274e+00	 2.3334523779e+00	-8.0116332379e-02
-8.3085046789e+00	 2.6516504294e+00	-8.4543395407e-02
-8.6267027304e+00	 2.9698484809e+00	-9.4500257489e-02
-8.9449007820e+00	 3.2880465325e+00	-1.1067521986e-01
-9.2630988335e+00	 3.6062445840e+00	-1.3060899807e-01
-9.5812968851e+00	 3.9244426356e+00	-1.5046295910e-01
-9.8994949366e+00	 4.2426406871e+00	-1.6907919326e-01
-4.9497474683e+00	-3.5355339059e+00	 6.3046697328e-01
-5.2679455198e+00	-3.2173358544e+00	 4.9736924188e-01
-5.5861435714e+00	-2.8991378029e+00	 3.7901608386e-01
-5.9043416229e+00	-2.5809397513e+00	 2.7716820492e-01
-6.2225396745e+00	-2.2627416998e+00	 1.9145375306e-01
-6.5407377260e+00	-1.9445436483e+00	 1.2150087631e-01
-6.8589357775e+00	-1.6263455967e+00	 6.6937722683e-02
-7.1771338291e+00	-1.3081475452e+00	 2.7392440193e-02
-7.4953318806e+00	-9.8994949368e-01	 2.4931768583e-03
-7.8135299321e+00	-6.7175144214e-01	-8.1319193059e-03
-8.1317279837e+00	-3.5355339060e-01	-4.8547002834e-03
-4.8790367902e+00	-3.4648232278e+00	 6.2164211926e-01
-5.1972348417e+00	-3.1466251763e+00	 4.9059037624e-01
-5.5154328933e+00	-2.8284271247e+00	 3.7523078074e-01
-5.8336309448e+00	-2.5102290732e+00	 2.7560101352e-01
-6.1518289963e+00	-2.1920310217e+00	 1.9132922259e-01
-6.4700270479e+00	-1.8738329702e+00	 1.2204355597e-01
-6.7882250994e+00	-1.5556349186e+00	 6.7372161678e-02
-7.1064231509e+00	-1.2374368671e+00	 2.6943187728e-02
-7.4246212025e+00	-9.1923881556e-01	 3.8478213479e-04
-7.7428192540e+00	-6.0104076402e-01	-1.2674907084e-02
-8.0610173055e+00	-2.8284271248e-01	-1.2607731913e-02
-4.8083261121e+00	-3.3941125497e+00	 6.0770580905e-01
-5.1265241636e+00	-3.0759144981e+00	 4.8039256869e-01
-5.4447222151e+00	-2.7577164466e+00	 3.6840555779e-01
-5.7629202667e+00	-2.4395183951e+00	 2.7137292437e-01
-6.0811183182e+00	-2.1213203436e+00	 1.8892281645e-01
-6.3993163697e+00	-1.8031222920e+00	 1.2068338205e-01
-6.7175144213e+00	-1.4849242405e+00	 6.6282769170e-02
-7.0357124728e+00	-1.1667261890e+00	 2.5349125838e-02
-7.3539105243e+00	-8.4852813744e-01	-2.4893999328e-03
-7.6721085759e+00	-5.3033008590e-01	-1.7604660126e-02
-7.9903066274e+00	-2.1213203436e-01	-2.0368506725e-02
-4.7376154339e+00	-3.3234018715e+00	 5.8956757093e-01
-5.0558134855e+00	-3.0052038200e+00	 4.6678138804e-01
-5.3740115370e+00	-2.6870057685e+00	 3.5854598383e-01
-5.6922095886e+00	-2.3688077170e+00	 2.6448950630e-01
-6.0104076401e+00	-2.0506096654e+00	 1.8424010347e-01
-6.3286056916e+00	-1.7324116139e+00	 1.1742592335e-01
-6.6468037432e+00	-1.4142135624e+00	 6.3675113970e-02
-6.9650017947e+00	-1.0960155109e+00	 2.2615823337e-02
-7.2831998462e+00	-7.7781745932e-01	-6.1238005308e-03
-7.6013978978e+00	-4.5961940778e-01	-2.2915609618e-02
-7.9195959493e+00	-1.4142135624e-01	-2.8131455908e-02
-4.6669047558e+00	-3.2526911934e+00	 5.6764250645e-01
-4.9851028074e+00	-2.9344931419e+00	 4.4976240312e-01
-5.3033008589e+00	-2.6162950904e+00	 3.4565762767e-01
-5.6214989104e+00	-2.2980970389e+00	 2.5495632810e-01
-5.9396969620e+00	-1.9798989873e+00	 1.7728665244e-01
-6.2578950135e+00	-1.6617009358e+00	 1.1227674870e-01
-6.5760930650e+00	-1.3435028843e+00	 5.9554764892e-02
-6.8942911166e+00	-1.0253048327e+00	 1.8748849039e-02
-7.2124891681e+00	-7.0710678120e-01	-1.0512850846e-02
-7.5306872196e+00	-3.8890872966e-01	-2.8602186746e-02
-7.8488852712e+00	-7.0710678120e-02	-3.5891010647e-02
-4.5961940777e+00	-3.1819805153e+00	 5.4193618442e-01
-4.9143921292e+00	-2.8637824638e+00	 4.2934118273e-01
-5.2325901808e+00	-2.5455844123e+00	 3.2974605812e-01
-5.5507882323e+00	-2.2273863607e+00	 2.4277895860e-01
-5.8689862839e+00	-1.9091883092e+00	 1.6806803219e-01
-6.1871843354e+00	-1.5909902577e+00	 1.0524142690e-01
-6.5053823869e+00	-1.2727922061e+00	 5.3927290751e-02
-6.8235804385e+00	-9.5459415461e-01	 1.3753771758e-02
-7.1417784900e+00	-6.3639610308e-01	-1.5650982064e-02
-7.4599765415e+00	-3.1819805154e-01	-3.4658822698e-02
-7.7781745931e+00	 2.7755575616e-17	-4.3641602128e-02
-4.5254833996e+00	-3.1112698372e+00	 5.1245417366e-01
-4.8436814511e+00	-2.7930717857e+00	 4.0552329569e-01
-5.1618795027e+00	-2.4748737341e+00	 3.1081684401e-01
-5.4800775542e+00	-2.1566756826e+00	 2.2796296661e-01
-5.7982756057e+00	-1.8384776311e+00	 1.5658981153e-01
-6.1164736573e+00	-1.5202795796e+00	 9.6325526773e-02
-6.4346717088e+00	-1.2020815280e+00	 4.6798260360e-02
-6.7528697603e+00	-8.8388347649e-01	 7.6361603069e-03
-7.0710678119e+00	-5.6568542496e-01	-2.1532625371e-02
-7.3892658634e+00	-2.4748737342e-01	-4.1079948659e-02
-7.7074639149e+00	 7.0710678120e-02	-5.1377661538e-02
-4.4547727215e+00	-3.0405591591e+00	 4.7920204299e-01
-4.7729707730e+00	-2.7223611075e+00	 3.7831431082e-01
-5.0911688245e+00	-2.4041630560e+00	 2.8887555413e-01
-5.4093668761e+00	-2.0859650045e+00	 2.1051392094e-01
-5.7275649276e+00	-1.7677669530e+00	 1.4285755927e-01
-6.0457629791e+00	-1.4495689014e+00	 8.5534617128e-02
-6.3639610307e+00	-1.1313708499e+00	 3.8173242533e-02
-6.6821590822e+00	-8.1317279837e-01	 4.0158349962e-04
-7.0003571337e+00	-4.9497474684e-01	-2.8152211955e-02
-7.3185551853e+00	-1.7677669530e-01	-4.7859995815e-02
-7.6367532368e+00	 1.4142135624e-01	-5.9093620064e-02
-4.3840620433e+00	-2.9698484809e+00	 4.4218536121e-01
-4.7022600949e+00	-2.6516504294e+00	 3.4771979692e-01
-5.0204581464e+00	-2.3334523779e+00	 2.6392775731e-01
-5.3386561980e+00	-2.0152543264e+00	 1.9043739041e-01
-5.6568542495e+00	-1.6970562748e+00	 1.2687684423e-01
-5.9750523010e+00	-1.3788582233e+00	 7.2874266781e-02
-6.2932503526e+00	-1.0606601718e+00	 2.8057806082e-02
-6.6114484041e+00	-7.4246212025e-01	-7.9443898502e-03
-6.9296464556e+00	-4.2426406872e-01	-3.5504173001e-02
-7.2478445072e+00	-1.0606601718e-01	-5.4993395353e-02
-7.5660425587e+00	 2.1213203436e-01	-6.6783908892e-02
-4.3133513652e+00	-2.8991378028e+00	 4.0140969713e-01
-4.6315494168e+00	-2.5809397513e+00	 3.1374532280e-01
-4.9497474683e+00	-2.2627416998e+00	 2.3597902237e-01
-5.2679455198e+00	-1.9445436483e+00	 1.6773894383e-01
-5.5861435714e+00	-1.6263455967e+00	 1.0865323522e-01
-5.9043416229e+00	-1.3081475452e+00	 5.8350044544e-02
-6.2225396744e+00	-9.8994949366e-01	 1.6457519823e-02
-6.5407377260e+00	-6.7175144213e-01	-1.7396190929e-02
-6.8589357775e+00	-3.5355339060e-01	-4.3582939695e-02
-7.1771338290e+00	-3.5355339059e-02	-6.2474578460e-02
-7.4953318806e+00	 2.8284271248e-01	-7.4442959207e-02
-4.2426406871e+00	-2.8284271247e+00	 3.5688061959e-01
-4.5608387386e+00	-2.5102290732e+00	 2.7639645730e-01
-4.8790367902e+00	-2.1920310217e+00	 2.0503491810e-01
-5.1972348417e+00	-1.8738329701e+00	 1.4242415001e-01
-5.5154328933e+00	-1.5556349186e+00	 8.8192301051e-02
-5.8336309448e+00	-1.2374368671e+00	 4.1967519231e-02
-6.1518289963e+00	-9.1923881554e-01	 3.3779525674e-03
-6.4700270479e+00	-6.0104076401e-01	-2.7948250923e-02
-6.7882250994e+00	-2.8284271248e-01	-5.2382943225e-02
-7.1064231509e+00	 3.5355339061e-02	-7.0297976321e-02
-7.4246212025e+00	 3.5355339060e-01	-8.2065202198e-02
-8.1317279837e+00	-3.5355339060e-01	-4.8547002834e-03
-8.4499260352e+00	-3.5355339061e-02	 5.6449558343e-03
-8.7681240867e+00	 2.8284271248e-01	 1.4352938890e-02
-9.0863221382e+00	 6.0104076401e-01	 6.4248752835e-03
-9.4045201898e+00	 9.1923881554e-01	-5.1151779855e-03
-9.7227182413e+00	 1.2374368671e+00	-1.6893581347e-02
-1.0040916293e+01	 1.5556349186e+00	-2.8765378062e-02
-1.0359114344e+01	 1.8738329701e+00	-4.0585615912e-02
-1.0677312396e+01	 2.1920310217e+00	-5.2209347191e-02
-1.0995510447e+01	 2.5102290732e+00	-6.3491628711e-02
-1.1313708499e+01	 2.8284271247e+00	-7.4287521801e-02
-8.0610173055e+00	-2.8284271248e-01	-1.2607731913e-02
-8.3792153571e+00	 3.5355339059e-02	-1.6715785329e-03
-8.6974134086e+00	 3.5355339060e-01	 7.3688409938e-03
-9.0156114601e+00	 6.7175144213e-01	 3.7214010882e-03
-9.3338095117e+00	 9.8994949366e-01	-7.6046489466e-03
-9.6520075632e+00	 1.3081475452e+00	-1.9216457870e-02
-9.9702056147e+00	 1.6263455967e+00	-3.0969061400e-02
-1.0288403666e+01	 1.9445436483e+00	-4.2717507431e-02
-1.0606601718e+01	 2.2627416998e+00	-5.4316848373e-02
-1.0924799769e+01	 2.5809397513e+00	-6.5622141153e-02
-1.1242997821e+01	 2.8991378028e+00	-7.6488447214e-02
-7.9903066274e+00	-2.1213203436e-01	-2.0368506725e-02
-8.3085046789e+00	 1.0606601718e-01	-8.9992627266e-03
-8.6267027305e+00	 4.2426406872e-01	 3.7018662851e-04
-8.9449007820e+00	 7.4246212025e-01	 8.9096571409e-04
-9.2630988335e+00	 1.0606601718e+00	-1.0233007362e-02
-9.5812968851e+00	 1.3788582233e+00	-2.1690135751e-02
-9.8994949366e+00	 1.6970562748e+00	-3.3335459907e-02
-1.0217692988e+01	 2.0152543264e+00	-4.5024027838e-02
-1.0535891040e+01	 2.3334523779e+00	-5.6610892071e-02
-1.0854089091e+01	 2.6516504294e+00	-6.7951109647e-02
-1.1172287143e+01	 2.9698484809e+00	-7.8899742124e-02
-7.9195959493e+00	-1.4142135624e-01	-2.8131455908e-02
-8.2377940008e+00	 1.7677669530e-01	-1.6332527933e-02
-8.5559920524e+00	 4.9497474684e-01	-6.6374553928e-03
-8.8741901039e+00	 8.1317279837e-01	-2.0692703709e-03
-9.1923881554e+00	 1.1313708499e+00	-1.3003078370e-02
-9.5105862070e+00	 1.4495689014e+00	-2.4317440120e-02
-9.8287842585e+00	 1.7677669530e+00	-3.5867398706e-02
-1.0146982310e+01	 2.0859650045e+00	-4.7508002252e-02
-1.0465180362e+01	 2.4041630560e+00	-5.9094303398e-02
-1.0783378413e+01	 2.7223611075e+00	-7.0481359302e-02
-1.1101576465e+01	 3.0405591591e+00	-8.1524231636e-02
-7.8488852712e+00	-7.0710678120e-02	-3.5891010647e-02
-8.1670833227e+00	 2.4748737342e-01	-2.3665805339e-02
-8.4852813742e+00	 5.6568542496e-01	-1.3648516256e-02
-8.8034794258e+00	 8.8388347649e-01	-6.2109953821e-03
-9.1216774773e+00	 1.2020815280e+00	-1.5917687123e-02
-9.4398755288e+00	 1.5202795796e+00	-2.7101196126e-02
-9.7580735804e+00	 1.8384776311e+00	-3.8567702942e-02
-1.0076271632e+01	 2.1566756826e+00	-5.0172255810e-02
-1.0394469683e+01	 2.4748737341e+00	-6.1769907487e-02
-1.0712667735e+01	 2.7930717857e+00	-7.3215715243e-02
-1.1030865787e+01	 3.1112698372e+00	-8.4364740867e-02
-7.7781745931e+00	 2.7755575616e-17	-4.3641602128e-02
-8.0963726446e+00	 3.1819805154e-01	-3.0993526131e-02
-8.4145706961e+00	 6.3639610308e-01	-2.0657427149e-02
-8.7327687476e+00	 9.5459415461e-01	-1.3005157166e-02
-9.0509667992e+00	 1.2727922061e+00	-1.8979658789e-02
-9.3691648507e+00	 1.5909902577e+00	-3.0044228930e-02
-9.6873629022e+00	 1.9091883092e+00	-4.1439197770e-02
-1.0005560954e+01	 2.2273863607e+00	-5.3019613664e-02
-1.0323759005e+01	 2.5455844123e+00	-6.4640529482e-02
-1.0641957057e+01	 2.8637824638e+00	-7.6157002611e-02
-1.0960155108e+01	 3.1819805153e+00	-8.7424094953e-02
-7.7074639149e+00	 7.0710678120e-02	-5.1377661538e-02
-8.0256619665e+00	 3.8890872966e-01	-3.8310121494e-02
-8.3438600180e+00	 7.0710678120e-01	-2.7658619256e-02
-8.6620580695e+00	 1.0253048327e+00	-1.9795006807e-02
-8.9802561211e+00	 1.3435028843e+00	-2.2191823153e-02
-9.2984541726e+00	 1.6617009358e+00	-3.3149363714e-02
-9.6166522241e+00	 1.9798989873e+00	-4.4484708366e-02
-9.9348502757e+00	 2.2980970389e+00	-5.6052900982e-02
-1.0253048327e+01	 2.6162950904e+00	-6.7708994547e-02
-1.0571246379e+01	 2.9344931419e+00	-7.9308046562e-02
-1.0889444430e+01	 3.2526911934e+00	-9.0705119046e-02
-7.6367532368e+00	 1.4142135624e-01	-5.9093620064e-02
-7.9549512883e+00	 4.5961940778e-01	-4.5610022616e-02
-8.2731493399e+00	 7.7781745932e-01	-3.4646523764e-02
-8.5913473914e+00	 1.0960155109e+00	-2.6574975493e-02
-8.9095454429e+00	 1.4142135624e+00	-2.5556992989e-02
-9.2277434945e+00	 1.7324116139e+00	-3.6419425672e-02
-9.5459415460e+00	 2.0506096654e+00	-4.7707059920e-02
-9.8641395975e+00	 2.3688077170e+00	-5.9274942949e-02
-1.0182337649e+01	 2.6870057685e+00	-7.0978127860e-02
-1.0500535701e+01	 3.0052038200e+00	-8.2671672270e-02
-1.0818733752e+01	 3.3234018715e+00	-9.4210638312e-02
-7.5660425587e+00	 2.1213203436e-01	-6.6783908892e-02
-7.8842406102e+00	 5.3033008590e-01	-5.2887660683e-02
-8.2024386618e+00	 8.4852813744e-01	-4.1615571861e-02
-8.5206367133e+00	 1.1667261890e+00	-3.3339494410e-02
-8.8388347648e+00	 1.4849242405e+00	-2.9078003250e-02
-9.1570328164e+00	 1.8031222920e+00	-3.9857240018e-02
-9.4752308679e+00	 2.1213203436e+00	-5.1109077636e-02
-9.7934289194e+00	 2.4395183951e+00	-6.2688564764e-02
-1.0111626971e+01	 2.7577164466e+00	-7.4450754616e-02
-1.0429825023e+01	 3.0759144981e+00	-8.6250704924e-02
-1.0748023074e+01	 3.3941125497e+00	-9.7943477936e-02
-7.4953318806e+00	 2.8284271248e-01	-7.4442959207e-02
-7.8135299321e+00	 6.0104076402e-01	-6.0137466881e-02
-8.1317279836e+00	 9.1923881556e-01	-4.8560194731e-02
-8.4499260352e+00	 1.2374368671e+00	-4.0082994743e-02
-8.7681240867e+00	 1.5556349186e+00	-3.5077718901e-02
-9.0863221382e+00	 1.8738329702e+00	-4.3465631977e-02
-9.4045201898e+00	 2.1920310217e+00	-5.4693586739e-02
-9.7227182413e+00	 2.5102290732e+00	-6.6296591645e-02
-1.0040916293e+01	 2.8284271247e+00	-7.8129700026e-02
-1.0359114344e+01	 3.1466251763e+00	-9.0047969728e-02
-1.0677312396e+01	 3.4648232278e+00	-1.0201047149e-01
-7.4246212025e+00	 3.5355339060e-01	-8.2065202198e-02
-7.7428192540e+00	 6.7175144214e-01	-6.7353872396e-02
-8.0610173055e+00	 9.8994949368e-01	-5.5474823562e-02
-8.3792153570e+00	 1.3081475452e+00	-4.6799907681e-02
-8.6974134086e+00	 1.6263455967e+00	-4.1700976735e-02
-9.0156114601e+00	 1.9445436483e+00	-4.7247432800e-02
-9.3338095116e+00	 2.2627416998e+00	-5.8463412465e-02
-9.6520075632e+00	 2.5809397513e+00	-7.0101848823e-02
-9.9702056147e+00	 2.8991378029e+00	-8.2017789316e-02
-1.0288403666e+01	 3.2173358544e+00	-9.4066291905e-02
-1.0606601718e+01	 3.5355339059e+00	-1.0659566377e-01
-7.0710678119e+00	-5.6568542495e+00	 1.7772466412e-01
-7.3892658634e+00	-5.3386561980e+00	 1.6864733088e-01
-7.7074639149e+00	-5.0204581464e+00	 1.6121437705e-01
-8.0256619665e+00	-4.7022600949e+00	 1.5555324583e-01
-8.3438600180e+00	-4.3840620433e+00	 1.5179137598e-01
-8.6620580695e+00	-4.0658639918e+00	 1.5005620180e-01
-8.9802561211e+00	-3.7476659403e+00	 1.4440546918e-01
-9.2984541726e+00	-3.4294678887e+00	 1.3263442279e-01
-9.6166522241e+00	-3.1112698372e+00	 1.1952264795e-01
-9.9348502757e+00	-2.7930717857e+00	 1.0533577680e-01
-1.0253048327e+01	-2.4748737342e+00	 9.0218796639e-02
-6.9650017947e+00	-5.5507882323e+00	 1.8484879191e-01
-7.2831998462e+00	-5.2325901808e+00	 1.7262917585e-01
-7.6013978978e+00	-4.9143921292e+00	 1.6265543426e-01
-7.9195959493e+00	-4.5961940777e+00	 1.5505501012e-01
-8.2377940008e+00	-4.2779960262e+00	 1.4995534196e-01
-8.5559920523e+00	-3.9597979746e+00	 1.4748386387e-01
-8.8741901039e+00	-3.6415999231e+00	 1.4571775842e-01
-9.1923881554e+00	-3.3234018716e+00	 1.3392914048e-01
-9.5105862069e+00	-3.0052038200e+00	 1.2120808409e-01
-9.8287842585e+00	-2.6870057685e+00	 1.0804499714e-01
-1.0146982310e+01	-2.3688077170e+00	 9.4584866761e-02
-6.8589357775e+00	-5.4447222151e+00	 1.9375265172e-01
-7.1771338291e+00	-5.1265241636e+00	 1.7814131573e-01
-7.4953318806e+00	-4.8083261121e+00	 1.6537734940e-01
-7.8135299321e+00	-4.4901280605e+00	 1.5558819546e-01
-8.1317279836e+00	-4.1719300090e+00	 1.4890129224e-01
-8.4499260352e+00	-3.8537319575e+00	 1.4544407359e-01
-8.7681240867e+00	-3.5355339059e+00	 1.4534397175e-01
-9.0863221382e+00	-3.2173358544e+00	 1.3536807226e-01
-9.4045201898e+00	-2.8991378029e+00	 1.2278764777e-01
-9.7227182413e+00	-2.5809397513e+00	 1.1039825870e-01
-1.0040916293e+01	-2.2627416998e+00	 9.8344891985e-02
-6.7528697604e+00	-5.3386561980e+00	 2.0443723182e-01
-7.0710678119e+00	-5.0204581464e+00	 1.8518473883e-01
-7.3892658634e+00	-4.7022600949e+00	 1.6938111079e-01
-7.7074639149e+00	-4.3840620433e+00	 1.5715379021e-01
-8.0256619665e+00	-4.0658639918e+00	 1.4863021519e-01
-8.3438600180e+00	-3.7476659403e+00	 1.4393781936e-01
-8.6620580695e+00	-3.4294678887e+00	 1.4311591773e-01
-8.9802561211e+00	-3.1112698372e+00	 1.3694167985e-01
-9.2984541726e+00	-2.7930717857e+00	 1.2425180564e-01
-9.6166522241e+00	-2.4748737341e+00	 1.1238602814e-01
-9.9348502757e+00	-2.1566756826e+00	 1.0148933898e-01
-6.6468037432e+00	-5.2325901808e+00	 2.1690352045e-01
-6.9650017947e+00	-4.9143921292e+00	 1.9376043341e-01
-7.2831998462e+00	-4.5961940777e+00	 1.7466770672e-01
-7.6013978978e+00	-4.2779960262e+00	 1.5975278268e-01
-7.9195959493e+00	-3.9597979746e+00	 1.4914309916e-01
-8.2377940008e+00	-3.6415999231e+00	 1.4296608955e-01
-8.5559920523e+00	-3.3234018716e+00	 1.4059098749e-01
-8.8741901039e+00	-3.0052038200e+00	 1.3864044388e-01
-9.1923881554e+00	-2.6870057685e+00	 1.2559102423e-01
-9.5105862069e+00	-2.3688077170e+00	 1.1399877201e-01
-9.8287842585e+00	-2.0506096654e+00	 1.0400867434e-01
-6.5407377260e+00	-5.1265241636e+00	 2.3115250584e-01
-6.8589357775e+00	-4.8083261121e+00	 2.0386938772e-01
-7.1771338290e+00	-4.4901280605e+00	 1.8123812548e-01
-7.4953318806e+00	-4.1719300090e+00	 1.6338616118e-01
-7.8135299321e+00	-3.8537319575e+00	 1.5044093246e-01
-8.1317279836e+00	-3.5355339059e+00	 1.4252987504e-01
-8.4499260352e+00	-3.2173358544e+00	 1.3807088381e-01
-8.7681240867e+00	-2.8991378029e+00	 1.3757001527e-01
-9.0863221382e+00	-2.5809397513e+00	 1.2679577002e-01
-9.4045201898e+00	-2.2627416998e+00	 1.1522695682e-01
-9.7227182413e+00	-1.9445436483e+00	 1.0589336457e-01
-6.4346717088e+00	-5.0204581464e+00	 2.4718517619e-01
-6.7528697603e+00	-4.7022600949e+00	 2.1551258999e-01
-7.0710678119e+00	-4.3840620433e+00	 1.8909335530e-01
-7.3892658634e+00	-4.0658639918e+00	 1.6805491397e-01
-7.7074639149e+00	-3.7476659403e+00	 1.5252470340e-01
-8.0256619665e+00	-3.4294678887e+00	 1.4248051681e-01
-8.3438600180e+00	-3.1112698372e+00	 1.3557440144e-01
-8.6620580695e+00	-2.7930717857e+00	 1.3375720572e-01
-8.9802561211e+00	-2.4748737341e+00	 1.2785650411e-01
-9.2984541726e+00	-2.1566756826e+00	 1.1606104896e-01
-9.6166522241e+00	-1.8384776311e+00	 1.0713387610e-01
-6.3286056916e+00	-4.9143921292e+00	 2.6500251969e-01
-6.6468037432e+00	-4.5961940777e+00	 2.2869102843e-01
-6.9650017947e+00	-4.2779960262e+00	 1.9823438443e-01
-7.2831998462e+00	-3.9597979746e+00	 1.7376002931e-01
-7.6013978977e+00	-3.6415999231e+00	 1.5539540026e-01
-7.9195959493e+00	-3.3234018716e+00	 1.4212180038e-01
-8.2377940008e+00	-3.0052038200e+00	 1.3312033513e-01
-8.5559920523e+00	-2.6870057685e+00	 1.2975586885e-01
-8.8741901039e+00	-2.3688077170e+00	 1.2876370810e-01
-9.1923881554e+00	-2.0506096654e+00	 1.1649151478e-01
-9.5105862070e+00	-1.7324116139e+00	 1.0772067527e-01
-6.2225396745e+00	-4.8083261121e+00	 2.8460552448e-01
-6.5407377260e+00	-4.4901280605e+00	 2.4340569121e-01
-6.8589357775e+00	-4.1719300090e+00	 2.0866220106e-01
-7.1771338290e+00	-3.8537319575e+00	 1.8050249544e-01
-7.4953318806e+00	-3.5355339059e+00	 1.5905401356e-01
-7.8135299321e+00	-3.2173358544e+00	 1.4205523814e-01
-8.1317279836e+00	-2.8991378029e+00	 1.3072747963e-01
-8.4499260352e+00	-2.5809397513e+00	 1.2558479940e-01
-8.7681240867e+00	-2.2627416998e+00	 1.2625534547e-01
-9.0863221382e+00	-1.9445436483e+00	 1.1650882050e-01
-9.4045201898e+00	-1.6263455967e+00	 1.0764422835e-01
-6.1164736573e+00	-4.7022600949e+00	 3.0599517871e-01
-6.4346717088e+00	-4.3840620433e+00	 2.5965756650e-01
-6.7528697603e+00	-4.0658639918e+00	 2.2037779340e-01
-7.0710678119e+00	-3.7476659403e+00	 1.8828330057e-01
-7.3892658634e+00	-3.4294678888e+00	 1.6328962957e-01
-7.7074639149e+00	-3.1112698372e+00	 1.4229962483e-01
-8.0256619665e+00	-2.7930717857e+00	 1.2841462967e-01
-8.3438600180e+00	-2.4748737342e+00	 1.2126279212e-01
-8.6620580695e+00	-2.1566756826e+00	 1.2047226019e-01
-8.9802561211e+00	-1.8384776311e+00	 1.1610342676e-01
-9.2984541726e+00	-1.5202795796e+00	 1.0689500152e-01
-6.0104076401e+00	-4.5961940777e+00	 3.2917247050e-01
-6.3286056916e+00	-4.2779960262e+00	 2.7744764245e-01
-6.6468037432e+00	-3.9597979746e+00	 2.3338214959e-01
-6.9650017947e+00	-3.6415999231e+00	 1.9710343289e-01
-7.2831998462e+00	-3.3234018716e+00	 1.6720001928e-01
-7.6013978978e+00	-3.0052038200e+00	 1.4287375520e-01
-7.9195959493e+00	-2.6870057685e+00	 1.2620058002e-01
-8.2377940008e+00	-2.3688077170e+00	 1.1680864176e-01
-8.5559920524e+00	-2.0506096654e+00	 1.1432608844e-01
-8.8741901039e+00	-1.7324116139e+00	 1.1526581567e-01
-9.1923881554e+00	-1.4142135624e+00	 1.0546346088e-01
-1.0253048327e+01	-2.4748737342e+00	 9.0218796639e-02
-1.0571246379e+01	-2.1566756826e+00	 7.5401324769e-02
-1.0889444430e+01	-1.8384776311e+00	 6.2112973987e-02
-1.1207642482e+01	-1.5202795796e+00	 5.0498718029e-02
-1.1525840533e+01	-1.2020815280e+00	 4.0703526113e-02
-1.1844038585e+01	-8.8388347649e-01	 3.2872362941e-02
-1.2162236636e+01	-5.6568542495e-01	 2.7150188698e-02
-1.2480434688e+01	-2.4748737342e-01	 2.3681959053e-02
-1.2798632739e+01	 7.0710678122e-02	 2.2612625159e-02
-1.3116830791e+01	 3.8890872966e-01	 2.4087133653e-02
-1.3435028842e+01	 7.0710678120e-01	 2.8250426655e-02
-1.0146982310e+01	-2.3688077170e+00	 9.4584866761e-02
-1.0465180362e+01	-2.0506096654e+00	 7.8541505423e-02
-1.0783378413e+01	-1.7324116139e+00	 6.4112783135e-02
-1.1101576465e+01	-1.4142135624e+00	 5.1443673460e-02
-1.1419774516e+01	-1.0960155108e+00	 4.0679145445e-02
-1.1737972568e+01	-7.7781745931e-01	 3.1964163619e-02
-1.2056170619e+01	-4.5961940777e-01	 2.5443687995e-02
-1.2374368671e+01	-1.4142135624e-01	 2.1262674070e-02
-1.2692566722e+01	 1.7677669530e-01	 1.9566072824e-02
-1.3010764774e+01	 4.9497474684e-01	 2.0498830720e-02
-1.3328962825e+01	 8.1317279838e-01	 2.4205889708e-02
-1.0040916293e+01	-2.2627416998e+00	 9.8344891985e-02
-1.0359114344e+01	-1.9445436483e+00	 8.1125201818e-02
-1.0677312396e+01	-1.6263455967e+00	 6.5605668869e-02
-1.0995510447e+01	-1.3081475452e+00	 5.1931266529e-02
-1.1313708499e+01	-9.8994949366e-01	 4.0246963671e-02
-1.1631906551e+01	-6.7175144213e-01	 3.0697724654e-02
-1.1950104602e+01	-3.5355339059e-01	 2.3428509316e-02
-1.2268302654e+01	-3.5355339056e-02	 1.8584272983e-02
-1.2586500705e+01	 2.8284271248e-01	 1.6309966463e-02
-1.2904698757e+01	 6.0104076402e-01	 1.6750536047e-02
-1.3222896808e+01	 9.1923881556e-01	 2.0050923511e-02
-9.9348502757e+00	-2.1566756826e+00	 1.0148933898e-01
-1.0253048327e+01	-1.8384776311e+00	 8.3142880645e-02
-1.0571246379e+01	-1.5202795795e+00	 6.6582097899e-02
-1.0889444430e+01	-1.2020815280e+00	 5.1951963963e-02
-1.1207642482e+01	-8.8388347648e-01	 3.9397447539e-02
-1.1525840533e+01	-5.6568542495e-01	 2.9063512810e-02
-1.1844038585e+01	-2.4748737341e-01	 2.1095119446e-02
-1.2162236636e+01	 7.0710678124e-02	 1.5637222598e-02
-1.2480434688e+01	 3.8890872966e-01	 1.2834772901e-02
-1.2798632739e+01	 7.0710678120e-01	 1.2832716475e-02
-1.3116830791e+01	 1.0253048327e+00	 1.5775994924e-02
-9.8287842585e+00	-2.0506096654e+00	 1.0400867434e-01
-1.0146982310e+01	-1.7324116139e+00	 8.4585008512e-02
-1.0465180362e+01	-1.4142135624e+00	 6.7032536853e-02
-1.0783378413e+01	-1.0960155108e+00	 5.1496232410e-02
-1.1101576465e+01	-7.7781745930e-01	 3.8121063714e-02
-1.1419774516e+01	-4.5961940777e-01	 2.7051994775e-02
-1.1737972568e+01	-1.4142135623e-01	 1.8433985089e-02
-1.2056170619e+01	 1.7677669530e-01	 1.2411989637e-02
-1.2374368671e+01	 4.9497474684e-01	 9.1309588813e-03
-1.2692566722e+01	 8.1317279838e-01	 8.7358387687e-03
-1.3010764774e+01	 1.1313708499e+00	 1.1371570731e-02
-9.7227182413e+00	-1.9445436483e+00	 1.0589336457e-01
-1.0040916293e+01	-1.6263455967e+00	 8.5442051946e-02
-1.0359114344e+01	-1.3081475452e+00	 6.6947452277e-02
-1.0677312396e+01	-9.8994949366e-01	 5.0554538436e-02
-1.0995510447e+01	-6.7175144212e-01	 3.6408278781e-02
-1.1313708499e+01	-3.5355339059e-01	 2.4653637151e-02
-1.1631906551e+01	-3.5355339053e-02	 1.5435572869e-02
-1.1950104602e+01	 2.8284271248e-01	 8.8990407439e-03
-1.2268302654e+01	 6.0104076402e-01	 5.1889910649e-03
-1.2586500705e+01	 9.1923881556e-01	 4.4503696072e-03
-1.2904698757e+01	 1.2374368671e+00	 6.8281176293e-03
-9.6166522241e+00	-1.8384776311e+00	 1.0713387610e-01
-9.9348502757e+00	-1.5202795795e+00	 8.5704477395e-02
-1.0253048327e+01	-1.2020815280e+00	 6.6317310637e-02
-1.0571246379e+01	-8.8388347648e-01	 4.9117348525e-02
-1.0889444430e+01	-5.6568542495e-01	 3.4249559244e-02
-1.1207642482e+01	-2.4748737341e-01	 2.1858906461e-02
-1.1525840533e+01	 7.0710678127e-02	 1.2090349328e-02
-1.1844038585e+01	 3.8890872966e-01	 5.0888424790e-03
-1.2162236636e+01	 7.0710678120e-01	 9.9933603227e-04
-1.2480434688e+01	 1.0253048327e+00	-3.3224409818e-05
-1.2798632740e+01	 1.3435028843e+00	 2.1361022391e-03
-9.5105862070e+00	-1.7324116139e+00	 1.0772067527e-01
-9.8287842585e+00	-1.4142135624e+00	 8.5362751223e-02
-1.0146982310e+01	-1.0960155108e+00	 6.5132578317e-02
-1.0465180362e+01	-7.7781745930e-01	 4.7175129080e-02
-1.0783378413e+01	-4.5961940777e-01	 3.1635371526e-02
-1.1101576465e+01	-1.4142135623e-01	 1.8658269148e-02
-1.1419774516e+01	 1.7677669531e-01	 8.3887809263e-03
-1.1737972568e+01	 4.9497474684e-01	 9.7186132236e-04
-1.2056170619e+01	 8.1317279838e-01	-3.4475397177e-03
-1.2374368671e+01	 1.1313708499e+00	-4.7244767641e-03
-1.2692566722e+01	 1.4495689015e+00	-2.7140089029e-03
-9.4045201898e+00	-1.6263455967e+00	 1.0764422835e-01
-9.7227182413e+00	-1.3081475452e+00	 8.4407339713e-02
-1.0040916293e+01	-9.8994949366e-01	 6.3383721619e-02
-1.0359114344e+01	-6.7175144212e-01	 4.4718346424e-02
-1.0677312396e+01	-3.5355339059e-01	 2.8556181967e-02
-1.0995510447e+01	-3.5355339051e-02	 1.5042191571e-02
-1.1313708499e+01	 2.8284271249e-01	 4.3213340432e-03
-1.1631906551e+01	 6.0104076402e-01	-3.4614363275e-03
-1.1950104602e+01	 9.1923881556e-01	-8.1611697673e-03
-1.2268302654e+01	 1.2374368671e+00	-9.6329210189e-03
-1.2586500705e+01	 1.5556349186e+00	-7.7317493407e-03
-9.2984541726e+00	-1.5202795796e+00	 1.0689500152e-01
-9.6166522241e+00	-1.2020815280e+00	 8.2828709068e-02
-9.9348502757e+00	-8.8388347648e-01	 6.1061206766e-02
-1.0253048327e+01	-5.6568542495e-01	 4.1737466796e-02
-1.0571246379e+01	-2.4748737341e-01	 2.5002456827e-02
-1.0889444430e+01	 7.0710678127e-02	 1.1001140010e-02
-1.1207642482e+01	 3.8890872966e-01	-1.2152502305e-04
-1.1525840533e+01	 7.0710678120e-01	-8.2205841534e-03
-1.1844038585e+01	 1.0253048327e+00	-1.3151087780e-02
-1.2162236636e+01	 1.3435028843e+00	-1.4768090819e-02
-1.2480434688e+01	 1.6617009358e+00	-1.2926652699e-02
-9.1923881554e+00	-1.4142135624e+00	 1.0546346088e-01
-9.5105862070e+00	-1.0960155108e+00	 8.0617325409e-02
-9.8287842585e+00	-7.7781745930e-01	 5.8155499896e-02
-1.0146982310e+01	-4.5961940777e-01	 3.8222956357e-02
-1.0465180362e+01	-1.4142135623e-01	 2.0964662286e-02
-1.0783378413e+01	 1.7677669531e-01	 6.5255806610e-03
-1.1101576465e+01	 4.9497474684e-01	-4.9493300557e-03
-1.1419774516e+01	 8.1317279838e-01	-1.3315115919e-02
-1.1737972568e+01	 1.1313708499e+00	-1.8426827501e-02
-1.2056170619e+01	 1.4495689015e+00	-2.0139519889e-02
-1.2374368671e+01	 1.7677669530e+00	-1.8308252686e-02
-6.0104076401e+00	-4.5961940777e+00	 3.2917247050e-01
-6.3286056916e+00	-4.2779960262e+00	 2.7744764245e-01
-6.6468037432e+00	-3.9597979746e+00	 2.3338214959e-01
-6.9650017947e+00	-3.6415999231e+00	 1.9710343289e-01
-7.2831998462e+00	-3.3234018716e+00	 1.6720001928e-01
-7.6013978978e+00	-3.0052038200e+00	 1.4287375520e-01
-7.9195959493e+00	-2.6870057685e+00	 1.2620058002e-01
-8.2377940008e+00	-2.3688077170e+00	 1.1680864176e-01
-8.5559920524e+00	-2.0506096654e+00	 1.1432608844e-01
-8.8741901039e+00	-1.7324116139e+00	 1.1526581567e-01
-9.1923881554e+00	-1.4142135624e+00	 1.0546346088e-01
-5.9043416229e+00	-4.4901280605e+00	 3.4760266358e-01
-6.2225396745e+00	-4.1719300090e+00	 2.9081755212e-01
-6.5407377260e+00	-3.8537319575e+00	 2.4234615569e-01
-6.8589357775e+00	-3.5355339059e+00	 2.0231591701e-01
-7.1771338290e+00	-3.2173358544e+00	 1.6777694537e-01
-7.4953318806e+00	-2.8991378029e+00	 1.4067138232e-01
-7.8135299321e+00	-2.5809397513e+00	 1.2181987110e-01
-8.1317279836e+00	-2.2627416998e+00	 1.1085055974e-01
-8.4499260352e+00	-1.9445436483e+00	 1.0739159624e-01
-8.7681240867e+00	-1.6263455967e+00	 1.1107112863e-01
-9.0863221382e+00	-1.3081475452e+00	 1.0494780375e-01
-5.7982756057e+00	-4.3840620433e+00	 3.6841964945e-01
-6.1164736573e+00	-4.0658639918e+00	 3.0621441239e-01
-6.4346717088e+00	-3.7476659403e+00	 2.5297727028e-01
-6.7528697603e+00	-3.4294678888e+00	 2.0856078317e-01
-7.0710678119e+00	-3.1112698372e+00	 1.6910770568e-01
-7.3892658634e+00	-2.7930717857e+00	 1.3888149493e-01
-7.7074639149e+00	-2.4748737342e+00	 1.1751029895e-01
-8.0256619665e+00	-2.1566756826e+00	 1.0462226575e-01
-8.3438600180e+00	-1.8384776311e+00	 9.9845543345e-02
-8.6620580695e+00	-1.5202795796e+00	 1.0280827975e-01
-8.9802561211e+00	-1.2020815280e+00	 1.0322388469e-01
-5.6922095886e+00	-4.2779960262e+00	 3.9162441616e-01
-6.0104076401e+00	-3.9597979746e+00	 3.2363921132e-01
-6.3286056916e+00	-3.6415999231e+00	 2.6527648148e-01
-6.6468037432e+00	-3.3234018716e+00	 2.1472713180e-01
-6.9650017947e+00	-3.0052038201e+00	 1.7121109495e-01
-7.2831998462e+00	-2.6870057685e+00	 1.3752288778e-01
-7.6013978978e+00	-2.3688077170e+00	 1.1329065830e-01
-7.9195959493e+00	-2.0506096655e+00	 9.8142554534e-02
-8.2377940008e+00	-1.7324116139e+00	 9.1706724492e-02
-8.5559920524e+00	-1.4142135624e+00	 9.3611316193e-02
-8.8741901039e+00	-1.0960155108e+00	 1.0028218592e-01
-5.5861435714e+00	-4.1719300090e+00	 4.1721795176e-01
-5.9043416229e+00	-3.8537319575e+00	 3.4309293698e-01
-6.2225396745e+00	-3.5355339059e+00	 2.7924477916e-01
-6.5407377260e+00	-3.2173358544e+00	 2.2202625287e-01
-6.8589357775e+00	-2.8991378029e+00	 1.7410590794e-01
-7.1771338291e+00	-2.5809397513e+00	 1.3661435561e-01
-7.4953318806e+00	-2.2627416998e+00	 1.0917974391e-01
-7.8135299321e+00	-1.9445436483e+00	 9.1430220840e-02
-8.1317279837e+00	-1.6263455967e+00	 8.2993934430e-02
-8.4499260352e+00	-1.3081475452e+00	 8.3499032693e-02
-8.7681240867e+00	-9.8994949367e-01	 9.2573663643e-02
-5.4800775542e+00	-4.0658639918e+00	 4.4520124423e-01
-5.7982756057e+00	-3.7476659403e+00	 3.6457657739e-01
-6.1164736573e+00	-3.4294678888e+00	 2.9454455041e-01
-6.4346717088e+00	-3.1112698372e+00	 2.3047694114e-01
-6.7528697603e+00	-2.7930717857e+00	 1.7781093938e-01
-7.0710678119e+00	-2.4748737342e+00	 1.3617469317e-01
-7.3892658634e+00	-2.1566756826e+00	 1.0519635051e-01
-7.7074639149e+00	-1.8384776311e+00	 8.4504059413e-02
-8.0256619665e+00	-1.5202795796e+00	 7.3725967905e-02
-8.3438600180e+00	-1.2020815280e+00	 7.2490223999e-02
-8.6620580695e+00	-8.8388347649e-01	 8.0424975710e-02
-5.3740115370e+00	-3.9597979746e+00	 4.7557528157e-01
-5.6922095886e+00	-3.6415999231e+00	 3.8809112056e-01
-6.0104076401e+00	-3.3234018716e+00	 3.0985356908e-01
-6.3286056916e+00	-3.0052038200e+00	 2.4009799133e-01
-6.6468037432e+00	-2.6870057685e+00	 1.8234498403e-01
-6.9650017947e+00	-2.3688077170e+00	 1.3622269520e-01
-7.2831998462e+00	-2.0506096655e+00	 1.0135927285e-01
-7.6013978978e+00	-1.7324116139e+00	 7.7382864998e-02
-7.9195959493e+00	-1.4142135624e+00	 6.3921619662e-02
-8.2377940008e+00	-1.0960155109e+00	 6.0603684856e-02
-8.5559920524e+00	-7.7781745932e-01	 6.7057208597e-02
-5.2679455198e+00	-3.8537319574e+00	 5.0834105175e-01
-5.5861435714e+00	-3.5355339059e+00	 4.1363755610e-01
-5.9043416229e+00	-3.2173358544e+00	 3.2669309317e-01
-6.2225396745e+00	-2.8991378029e+00	 2.5090819821e-01
-6.5407377260e+00	-2.5809397513e+00	 1.8772683664e-01
-6.8589357775e+00	-2.2627416998e+00	 1.3677715645e-01
-7.1771338291e+00	-1.9445436483e+00	 9.7687305684e-02
-7.4953318806e+00	-1.6263455967e+00	 7.0085432343e-02
-7.8135299321e+00	-1.3081475452e+00	 5.3599684447e-02
-8.1317279837e+00	-9.8994949368e-01	 4.7858210011e-02
-8.4499260352e+00	-6.7175144214e-01	 5.2489157052e-02
-5.1618795027e+00	-3.7476659403e+00	 5.4349954270e-01
-5.4800775542e+00	-3.4294678887e+00	 4.4081382661e-01
-5.7982756057e+00	-3.1112698372e+00	 3.4508191742e-01
-6.1164736573e+00	-2.7930717857e+00	 2.6292635652e-01
-6.4346717088e+00	-2.4748737342e+00	 1.9397529193e-01
-6.7528697603e+00	-2.1566756826e+00	 1.3785687167e-01
-7.0710678119e+00	-1.8384776311e+00	 9.4199243754e-02
-7.3892658634e+00	-1.5202795796e+00	 6.2630556193e-02
-7.7074639149e+00	-1.2020815280e+00	 4.2778957006e-02
-8.0256619665e+00	-8.8388347650e-01	 3.4272594210e-02
-8.3438600180e+00	-5.6568542496e-01	 3.6739615820e-02
-5.0558134855e+00	-3.6415999231e+00	 5.8105174236e-01
-5.3740115370e+00	-3.3234018716e+00	 4.6808372335e-01
-5.6922095886e+00	-3.0052038200e+00	 3.6503883656e-01
-6.0104076401e+00	-2.6870057685e+00	 2.7617126100e-01
-6.3286056916e+00	-2.3688077170e+00	 2.0110914467e-01
-6.6468037432e+00	-2.0506096655e+00	 1.3948063560e-01
-6.9650017947e+00	-1.7324116139e+00	 9.0913881805e-02
-7.2831998462e+00	-1.4142135624e+00	 5.5037031294e-02
-7.6013978978e+00	-1.0960155109e+00	 3.1478232086e-02
-7.9195959493e+00	-7.7781745932e-01	 1.9865632199e-02
-8.2377940008e+00	-4.5961940778e-01	 1.9827379647e-02
-4.9497474683e+00	-3.5355339059e+00	 6.2099864005e-01
-5.2679455198e+00	-3.2173358544e+00	 4.9728185848e-01
-5.5861435714e+00	-2.8991378029e+00	 3.8658264536e-01
-5.9043416229e+00	-2.5809397513e+00	 2.9066170640e-01
-6.2225396745e+00	-2.2627416998e+00	 2.0914718960e-01
-6.5407377260e+00	-1.9445436483e+00	 1.4166724299e-01
-6.8589357775e+00	-1.6263455967e+00	 8.7850014584e-02
-7.1771338291e+00	-1.3081475452e+00	 4.7323652392e-02
-7.4953318806e+00	-9.8994949368e-01	 1.9716304433e-02
-7.8135299321e+00	-6.7175144214e-01	 4.6561187233e-03
-8.1317279837e+00	-3.5355339060e-01	 1.7712432792e-03
-9.1923881554e+00	-1.4142135624e+00	 1.0546346088e-01
-9.5105862070e+00	-1.0960155108e+00	 8.0617325409e-02
-9.8287842585e+00	-7.7781745930e-01	 5.8155499896e-02
-1.0146982310e+01	-4.5961940777e-01	 3.8222956357e-02
-1.0465180362e+01	-1.4142135623e-01	 2.0964662286e-02
-1.0783378413e+01	 1.7677669531e-01	 6.5255806610e-03
-1.1101576465e+01	 4.9497474684e-01	-4.9493300557e-03
-1.1419774516e+01	 8.1317279838e-01	-1.3315115919e-02
-1.1737972568e+01	 1.1313708499e+00	-1.8426827501e-02
-1.2056170619e+01	 1.4495689015e+00	-2.0139519889e-02
-1.2374368671e+01	 1.7677669530e+00	-1.8308252686e-02
-9.0863221382e+00	-1.3081475452e+00	 1.0494780375e-01
-9.4045201898e+00	-9.8994949366e-01	 8.0408890283e-02
-9.7227182413e+00	-6.7175144213e-01	 5.8075790167e-02
-1.0040916293e+01	-3.5355339059e-01	 3.8093475242e-02
-1.0359114344e+01	-3.5355339053e-02	 2.0606912830e-02
-1.0677312396e+01	 2.8284271248e-01	 5.7610657372e-03
-1.0995510447e+01	 6.0104076402e-01	-6.2991077478e-03
-1.1313708499e+01	 9.1923881556e-01	-1.5428653852e-02
-1.1631906551e+01	 1.2374368671e+00	-2.1482623320e-02
-1.1950104602e+01	 1.5556349186e+00	-2.4316071410e-02
-1.2268302654e+01	 1.8738329702e+00	-2.3784057899e-02
-8.9802561211e+00	-1.2020815280e+00	 1.0322388469e-01
-9.2984541726e+00	-8.8388347649e-01	 7.9112852192e-02
-9.6166522241e+00	-5.6568542495e-01	 5.7029130991e-02
-9.9348502757e+00	-2.4748737341e-01	 3.7117698403e-02
-1.0253048327e+01	 7.0710678125e-02	 1.9523521579e-02
-1.0571246379e+01	 3.8890872966e-01	 4.3915631513e-03
-1.0889444430e+01	 7.0710678120e-01	-8.1332187624e-03
-1.1207642482e+01	 1.0253048327e+00	-1.7905870562e-02
-1.1525840533e+01	 1.3435028843e+00	-2.4781443164e-02
-1.1844038585e+01	 1.6617009358e+00	-2.8614992001e-02
-1.2162236636e+01	 1.9798989874e+00	-2.9261577020e-02
-8.8741901039e+00	-1.0960155108e+00	 1.0028218592e-01
-9.1923881554e+00	-7.7781745931e-01	 7.6719677012e-02
-9.5105862070e+00	-4.5961940777e-01	 5.5005988262e-02
-9.8287842585e+00	-1.4142135623e-01	 3.5286091754e-02
-1.0146982310e+01	 1.7677669530e-01	 1.7704954465e-02
-1.0465180362e+01	 4.9497474684e-01	 2.4075388571e-03
-1.0783378413e+01	 8.1317279838e-01	-1.0461197126e-02
-1.1101576465e+01	 1.1313708499e+00	-2.0756300057e-02
-1.1419774516e+01	 1.4495689015e+00	-2.8332821024e-02
-1.1737972568e+01	 1.7677669530e+00	-3.3045815631e-02
-1.2056170619e+01	 2.0859650045e+00	-3.4750343999e-02
-8.7681240867e+00	-9.8994949367e-01	 9.2573663643e-02
-9.0863221383e+00	-6.7175144213e-01	 7.3219830541e-02
-9.4045201898e+00	-3.5355339059e-01	 5.1996827798e-02
-9.7227182413e+00	-3.5355339057e-02	 3.2589121130e-02
-1.0040916293e+01	 2.8284271248e-01	 1.5141677344e-02
-1.0359114344e+01	 6.0104076402e-01	-2.0054127298e-04
-1.0677312396e+01	 9.1923881556e-01	-1.3292576948e-02
-1.0995510447e+01	 1.2374368671e+00	-2.3989476426e-02
-1.1313708499e+01	 1.5556349186e+00	-3.2146290968e-02
-1.1631906551e+01	 1.8738329702e+00	-3.7618076351e-02
-1.1950104602e+01	 2.1920310217e+00	-4.0259892867e-02
-8.6620580695e+00	-8.8388347649e-01	 8.0424975710e-02
-8.9802561211e+00	-5.6568542496e-01	 6.8603772882e-02
-9.2984541726e+00	-2.4748737342e-01	 4.7992115331e-02
-9.6166522241e+00	 7.0710678121e-02	 2.9017252284e-02
-9.9348502757e+00	 3.8890872966e-01	 1.1824155986e-02
-1.0253048327e+01	 7.0710678120e-01	-3.4422114478e-03
-1.0571246379e+01	 1.0253048327e+00	-1.6636892417e-02
-1.0889444430e+01	 1.3435028843e+00	-2.7614933840e-02
-1.1207642482e+01	 1.6617009358e+00	-3.6231387149e-02
-1.1525840533e+01	 1.9798989873e+00	-4.2341308293e-02
-1.1844038585e+01	 2.2980970389e+00	-4.5799757739e-02
-8.5559920524e+00	-7.7781745932e-01	 6.7057208597e-02
-8.8741901039e+00	-4.5961940778e-01	 6.2861985915e-02
-9.1923881554e+00	-1.4142135624e-01	 4.2982316513e-02
-9.5105862070e+00	 1.7677669530e-01	 2.4560950887e-02
-9.8287842585e+00	 4.9497474684e-01	 7.7428560824e-03
-1.0146982310e+01	 8.1317279837e-01	-7.3270059575e-03
-1.0465180362e+01	 1.1313708499e+00	-2.0503677805e-02
-1.0783378413e+01	 1.4495689014e+00	-3.1642206550e-02
-1.1101576465e+01	 1.7677669530e+00	-4.0597643799e-02
-1.1419774516e+01	 2.0859650045e+00	-4.7225045672e-02
-1.1737972568e+01	 2.4041630560e+00	-5.1379472807e-02
-8.4499260352e+00	-6.7175144214e-01	 5.2489157052e-02
-8.7681240867e+00	-3.5355339060e-01	 5.2526106023e-02
-9.0863221383e+00	-3.5355339061e-02	 3.6957896916e-02
-9.4045201898e+00	 2.8284271248e-01	 1.9210682530e-02
-9.7227182413e+00	 6.0104076401e-01	 2.8882432426e-03
-1.0040916293e+01	 9.1923881555e-01	-1.1864459174e-02
-1.0359114344e+01	 1.2374368671e+00	-2.4902467464e-02
-1.0677312396e+01	 1.5556349186e+00	-3.6080828891e-02
-1.0995510447e+01	 1.8738329701e+00	-4.5254595231e-02
-1.1313708499e+01	 2.1920310217e+00	-5.2278822781e-02
-1.1631906551e+01	 2.5102290732e+00	-5.7008572349e-02
-8.3438600180e+00	-5.6568542496e-01	 3.6739615820e-02
-8.6620580695e+00	-2.4748737342e-01	 3.7994572630e-02
-8.9802561211e+00	 7.0710678118e-02	 2.9909316609e-02
-9.2984541726e+00	 3.8890872965e-01	 1.2956912721e-02
-9.6166522241e+00	 7.0710678119e-01	-2.7492170053e-03
-9.9348502757e+00	 1.0253048327e+00	-1.7064105549e-02
-1.0253048327e+01	 1.3435028843e+00	-2.9842795827e-02
-1.0571246379e+01	 1.6617009358e+00	-4.0940335275e-02
-1.0889444430e+01	 1.9798989873e+00	-5.0211775842e-02
-1.1207642482e+01	 2.2980970388e+00	-5.7512173997e-02
-1.1525840533e+01	 2.6162950904e+00	-6.2696590720e-02
-8.2377940008e+00	-4.5961940778e-01	 1.9827379647e-02
-8.5559920524e+00	-1.4142135624e-01	 2.2440139949e-02
-8.8741901039e+00	 1.7677669530e-01	 2.1827056701e-02
-9.1923881554e+00	 4.9497474683e-01	 5.7901068876e-03
-9.5105862070e+00	 8.1317279837e-01	-9.1790592146e-03
-9.8287842585e+00	 1.1313708499e+00	-2.2935479617e-02
-1.0146982310e+01	 1.4495689014e+00	-3.5334197410e-02
-1.0465180362e+01	 1.7677669530e+00	-4.6230260199e-02
-1.0783378413e+01	 2.0859650045e+00	-5.5478720108e-02
-1.1101576465e+01	 2.4041630560e+00	-6.2934633777e-02
-1.1419774516e+01	 2.7223611075e+00	-6.8453062359e-02
-8.1317279837e+00	-3.5355339060e-01	 1.7712432792e-03
-8.4499260352e+00	-3.5355339061e-02	 5.8816027263e-03
-8.7681240867e+00	 2.8284271248e-01	 9.4728896251e-03
-9.0863221382e+00	 6.0104076401e-01	-2.2992696231e-03
-9.4045201898e+00	 9.1923881554e-01	-1.6410818020e-02
-9.7227182413e+00	 1.2374368671e+00	-2.9488115994e-02
-1.0040916293e+01	 1.5556349186e+00	-4.1386206808e-02
-1.0359114344e+01	 1.8738329701e+00	-5.1960138240e-02
-1.0677312396e+01	 2.1920310217e+00	-6.1064962587e-02
-1.0995510447e+01	 2.5102290732e+00	-6.8555736660e-02
-1.1313708499e+01	 2.8284271247e+00	-7.4287521786e-02
-6.3639610307e+00	-6.3639610307e+00	 6.2758227782e-02
-6.4346717088e+00	-6.2932503526e+00	 7.5954214253e-02
-6.5053823869e+00	-6.2225396745e+00	 8.8768839116e-02
-6.5760930651e+00	-6.1518289963e+00	 1.0120350109e-01
-6.6468037432e+00	-6.0811183182e+00	 1.1325959888e-01
-6.7175144213e+00	-6.0104076401e+00	 1.2493853119e-01
-6.7882250994e+00	-5.9396969620e+00	 1.3624169670e-01
-6.8589357775e+00	-5.8689862839e+00	 1.4717049409e-01
-6.9296464557e+00	-5.7982756057e+00	 1.5772632202e-01
-7.0003571338e+00	-5.7275649276e+00	 1.6791057915e-01
-7.0710678119e+00	-5.6568542495e+00	 1.7772466412e-01
-6.2578950135e+00	-6.2578950135e+00	 5.7728488934e-02
-6.3286056916e+00	-6.1871843354e+00	 7.1052249297e-02
-6.3993163698e+00	-6.1164736573e+00	 8.3871578062e-02
-6.4700270479e+00	-6.0457629792e+00	 9.6187873945e-02
-6.5407377260e+00	-5.9750523010e+00	 1.0800253565e-01
-6.6114484041e+00	-5.9043416229e+00	 1.1931696188e-01
-6.6821590822e+00	-5.8336309448e+00	 1.3013255131e-01
-6.7528697604e+00	-5.7629202667e+00	 1.4045070261e-01
-6.8235804385e+00	-5.6922095886e+00	 1.5027281445e-01
-6.8942911166e+00	-5.6214989104e+00	 1.5960028548e-01
-6.9650017947e+00	-5.5507882323e+00	 1.6843451434e-01
-6.1518289963e+00	-6.1518289963e+00	 5.2547712069e-02
-6.2225396745e+00	-6.0811183182e+00	 6.6179415295e-02
-6.2932503526e+00	-6.0104076401e+00	 7.9183616938e-02
-6.3639610307e+00	-5.9396969620e+00	 9.1561715713e-02
-6.4346717088e+00	-5.8689862839e+00	 1.0331511032e-01
-6.5053823869e+00	-5.7982756057e+00	 1.1444519946e-01
-6.5760930651e+00	-5.7275649276e+00	 1.2495338180e-01
-6.6468037432e+00	-5.6568542495e+00	 1.3484105602e-01
-6.7175144213e+00	-5.5861435714e+00	 1.4410962078e-01
-6.7882250994e+00	-5.5154328933e+00	 1.5276047473e-01
-6.8589357775e+00	-5.4447222151e+00	 1.6079501650e-01
-6.0457629792e+00	-6.0457629792e+00	 4.7216885399e-02
-6.1164736573e+00	-5.9750523010e+00	 6.1336700464e-02
-6.1871843354e+00	-5.9043416229e+00	 7.4705943968e-02
-6.2578950135e+00	-5.8336309448e+00	 8.7326014622e-02
-6.3286056916e+00	-5.7629202667e+00	 9.9198311126e-02
-6.3993163698e+00	-5.6922095886e+00	 1.1032423217e-01
-6.4700270479e+00	-5.6214989104e+00	 1.2070517644e-01
-6.5407377260e+00	-5.5507882323e+00	 1.3034254259e-01
-6.6114484041e+00	-5.4800775542e+00	 1.3923772928e-01
-6.6821590822e+00	-5.4093668761e+00	 1.4739213517e-01
-6.7528697604e+00	-5.3386561980e+00	 1.5480715888e-01
-5.9396969620e+00	-5.9396969620e+00	 4.1736997113e-02
-6.0104076401e+00	-5.8689862839e+00	 5.6525093000e-02
-6.0811183182e+00	-5.7982756057e+00	 7.0439547352e-02
-6.1518289963e+00	-5.7275649276e+00	 8.3481758878e-02
-6.2225396745e+00	-5.6568542495e+00	 9.5653126277e-02
-6.2932503526e+00	-5.5861435714e+00	 1.0695504824e-01
-6.3639610307e+00	-5.5154328933e+00	 1.1738892343e-01
-6.4346717088e+00	-5.4447222151e+00	 1.2695615053e-01
-6.5053823869e+00	-5.3740115370e+00	 1.3565812818e-01
-6.5760930651e+00	-5.3033008589e+00	 1.4349625503e-01
-6.6468037432e+00	-5.2325901808e+00	 1.5047192972e-01
-5.8336309448e+00	-5.8336309448e+00	 3.6109035380e-02
-5.9043416229e+00	-5.7629202667e+00	 5.1745581075e-02
-5.9750523010e+00	-5.6922095886e+00	 6.6385415269e-02
-6.0457629792e+00	-5.6214989104e+00	 8.0029936666e-02
-6.1164736573e+00	-5.5507882323e+00	 9.2680543964e-02
-6.1871843354e+00	-5.4800775542e+00	 1.0433863585e-01
-6.2578950135e+00	-5.4093668761e+00	 1.1500561099e-01
-6.3286056916e+00	-5.3386561980e+00	 1.2468286805e-01
-6.3993163698e+00	-5.2679455198e+00	 1.3337180569e-01
-6.4700270479e+00	-5.1972348417e+00	 1.4107382254e-01
-6.5407377260e+00	-5.1265241636e+00	 1.4779031724e-01
-5.7275649276e+00	-5.7275649276e+00	 3.0333988346e-02
-5.7982756057e+00	-5.6568542495e+00	 4.6999152843e-02
-5.8689862839e+00	-5.5861435714e+00	 6.2544535877e-02
-5.9396969620e+00	-5.5154328933e+00	 7.6971536150e-02
-6.0104076401e+00	-5.4447222151e+00	 9.0281552357e-02
-6.0811183182e+00	-5.3740115370e+00	 1.0247598318e-01
-6.1518289963e+00	-5.3033008589e+00	 1.1355622729e-01
-6.2225396745e+00	-5.2325901808e+00	 1.2352368335e-01
-6.2932503526e+00	-5.1618795027e+00	 1.3237975000e-01
-6.3639610307e+00	-5.0911688245e+00	 1.4012582589e-01
-6.4346717088e+00	-5.0204581464e+00	 1.4676330965e-01
-5.6214989104e+00	-5.6214989104e+00	 2.4412844136e-02
-5.6922095886e+00	-5.5507882323e+00	 4.2286796434e-02
-5.7629202667e+00	-5.4800775542e+00	 5.8917897311e-02
-5.8336309448e+00	-5.4093668761e+00	 7.4307545471e-02
-5.9043416229e+00	-5.3386561980e+00	 8.8457139602e-02
-5.9750523010e+00	-5.2679455198e+00	 1.0136807839e-01
-6.0457629792e+00	-5.1972348417e+00	 1.1304176049e-01
-6.1164736573e+00	-5.1265241636e+00	 1.2347958457e-01
-6.1871843354e+00	-5.0558134855e+00	 1.3268294928e-01
-6.2578950135e+00	-4.9851028074e+00	 1.4065325326e-01
-6.3286056916e+00	-4.9143921292e+00	 1.4739189512e-01
-5.5154328933e+00	-5.5154328933e+00	 1.8346590853e-02
-5.5861435714e+00	-5.4447222151e+00	 3.7609499956e-02
-5.6568542495e+00	-5.3740115370e+00	 5.5506487688e-02
-5.7275649276e+00	-5.3033008589e+00	 7.2038952748e-02
-5.7982756057e+00	-5.2325901808e+00	 8.7208293826e-02
-5.8689862839e+00	-5.1618795027e+00	 1.0101590960e-01
-5.9396969620e+00	-5.0911688245e+00	 1.1346319873e-01
-6.0104076401e+00	-5.0204581464e+00	 1.2455155988e-01
-6.0811183182e+00	-4.9497474683e+00	 1.3428239169e-01
-6.1518289963e+00	-4.8790367902e+00	 1.4265709279e-01
-6.2225396745e+00	-4.8083261121e+00	 1.4967706182e-01
-5.4093668761e+00	-5.4093668761e+00	 1.2136216580e-02
-5.4800775542e+00	-5.3386561980e+00	 3.2968251497e-02
-5.5507882323e+00	-5.2679455198e+00	 5.2311295099e-02
-5.6214989104e+00	-5.1972348417e+00	 7.0166746082e-02
-5.6922095886e+00	-5.1265241636e+00	 8.6536003132e-02
-5.7629202667e+00	-5.0558134855e+00	 1.0142046492e-01
-5.8336309448e+00	-4.9851028074e+00	 1.1482153012e-01
-5.9043416229e+00	-4.9143921292e+00	 1.2674059738e-01
-5.9750523010e+00	-4.8436814511e+00	 1.3717906534e-01
-6.0457629792e+00	-4.7729707730e+00	 1.4613833263e-01
-6.1164736573e+00	-4.7022600949e+00	 1.5361979787e-01
-5.3033008589e+00	-5.3033008589e+00	 5.7827093768e-03
-5.3740115370e+00	-5.2325901808e+00	 2.8364039124e-02
-5.4447222151e+00	-5.1618795027e+00	 4.9333307616e-02
-5.5154328933e+00	-5.0911688245e+00	 6.8691913548e-02
-5.5861435714e+00	-5.0204581464e+00	 8.6441255602e-02
-5.6568542495e+00	-4.9497474683e+00	 1.0258273245e-01
-5.7275649276e+00	-4.8790367902e+00	 1.1711774276e-01
-5.7982756057e+00	-4.8083261121e+00	 1.3004768517e-01
-5.8689862839e+00	-4.7376154339e+00	 1.4137395834e-01
-5.9396969620e+00	-4.6669047558e+00	 1.5109796087e-01
-6.0104076401e+00	-4.5961940777e+00	 1.5922109141e-01
-5.3033008589e+00	-5.3033008589e+00	 5.7827093768e-03
-5.3740115370e+00	-5.2325901808e+00	 2.8364039124e-02
-5.4447222151e+00	-5.1618795027e+00	 4.9333307616e-02
-5.5154328933e+00	-5.0911688245e+00	 6.8691913548e-02
-5.5861435714e+00	-5.0204581464e+00	 8.6441255602e-02
-5.6568542495e+00	-4.9497474683e+00	 1.0258273245e-01
-5.7275649276e+00	-4.8790367902e+00	 1.1711774276e-01
-5.7982756057e+00	-4.8083261121e+00	 1.3004768517e-01
-5.8689862839e+00	-4.7376154339e+00	 1.4137395834e-01
-5.9396969620e+00	-4.6669047558e+00	 1.5109796087e-01
-6.0104076401e+00	-4.5961940777e+00	 1.5922109141e-01
-5.1972348417e+00	-5.1972348417e+00	 4.6633545851e-03
-5.2679455198e+00	-5.1265241636e+00	 3.2093779406e-02
-5.3386561980e+00	-5.0558134855e+00	 5.6912878456e-02
-5.4093668761e+00	-4.9851028074e+00	 7.9122050428e-02
-5.4800775542e+00	-4.9143921292e+00	 9.8722694002e-02
-5.5507882323e+00	-4.8436814511e+00	 1.1571620785e-01
-5.6214989104e+00	-4.7729707730e+00	 1.3010399063e-01
-5.6922095886e+00	-4.7022600949e+00	 1.4188744098e-01
-5.7629202667e+00	-4.6315494168e+00	 1.5106795756e-01
-5.8336309448e+00	-4.5608387386e+00	 1.5764693898e-01
-5.9043416229e+00	-4.4901280605e+00	 1.6162578386e-01
-5.0911688245e+00	-5.0911688245e+00	 2.2009556198e-03
-5.1618795027e+00	-5.0204581464e+00	 3.5176466717e-02
-5.2325901808e+00	-4.9497474683e+00	 6.4541387534e-02
-5.3033008589e+00	-4.8790367902e+00	 9.0297116760e-02
-5.3740115370e+00	-4.8083261121e+00	 1.1244505307e-01
-5.4447222151e+00	-4.7376154339e+00	 1.3098659514e-01
-5.5154328933e+00	-4.6669047558e+00	 1.4592314162e-01
-5.5861435714e+00	-4.5961940777e+00	 1.5725609116e-01
-5.6568542495e+00	-4.5254833996e+00	 1.6498684239e-01
-5.7275649276e+00	-4.4547727215e+00	 1.6911679394e-01
-5.7982756057e+00	-4.3840620433e+00	 1.6964734442e-01
-4.9851028074e+00	-4.9851028074e+00	-1.6034995233e-03
-5.0558134855e+00	-4.9143921292e+00	 3.7613089059e-02
-5.1265241636e+00	-4.8436814511e+00	 7.2219822857e-02
-5.1972348417e+00	-4.7729707730e+00	 1.0221810056e-01
-5.2679455198e+00	-4.7022600949e+00	 1.2760932084e-01
-5.3386561980e+00	-4.6315494168e+00	 1.4839488236e-01
-5.4093668761e+00	-4.5608387386e+00	 1.6457618378e-01
-5.4800775542e+00	-4.4901280605e+00	 1.7615462374e-01
-5.5507882323e+00	-4.4194173824e+00	 1.8313160088e-01
-5.6214989104e+00	-4.3487067043e+00	 1.8550851381e-01
-5.6922095886e+00	-4.2779960262e+00	 1.8328676114e-01
-4.8790367902e+00	-4.8790367902e+00	-6.7490228700e-03
-4.9497474683e+00	-4.8083261121e+00	 3.9404634411e-02
-5.0204581464e+00	-4.7376154339e+00	 7.9949172410e-02
-5.0911688245e+00	-4.6669047558e+00	 1.1488598981e-01
-5.1618795027e+00	-4.5961940777e+00	 1.4421648529e-01
-5.2325901808e+00	-4.5254833996e+00	 1.6794205750e-01
-5.3033008589e+00	-4.4547727215e+00	 1.8606410510e-01
-5.3740115370e+00	-4.3840620433e+00	 1.9858402673e-01
-5.4447222151e+00	-4.3133513652e+00	 2.0550322103e-01
-5.5154328933e+00	-4.2426406871e+00	 2.0682308660e-01
-5.5861435714e+00	-4.1719300090e+00	 2.0254502206e-01
-4.7729707730e+00	-4.7729707730e+00	-1.3234626468e-02
-4.8436814511e+00	-4.7022600949e+00	 4.0552090733e-02
-4.9143921292e+00	-4.6315494168e+00	 8.7730424157e-02
-4.9851028074e+00	-4.5608387386e+00	 1.2830177249e-01
-5.0558134855e+00	-4.4901280605e+00	 1.6226753440e-01
-5.1265241636e+00	-4.4194173824e+00	 1.8962910854e-01
-5.1972348417e+00	-4.3487067043e+00	 2.1038789357e-01
-5.2679455198e+00	-4.2779960262e+00	 2.2454528813e-01
-5.3386561980e+00	-4.2072853480e+00	 2.3210269084e-01
-5.4093668761e+00	-4.1365746699e+00	 2.3306150032e-01
-5.4800775542e+00	-4.0658639918e+00	 2.2742311518e-01
-4.6669047558e+00	-4.6669047558e+00	-2.1059322385e-02
-4.7376154339e+00	-4.5961940777e+00	 4.1056445959e-02
-4.8083261121e+00	-4.5254833996e+00	 9.5564566041e-02
-4.8790367902e+00	-4.4547727215e+00	 1.4246643654e-01
-4.9497474683e+00	-4.3840620433e+00	 1.8176345612e-01
-5.0204581464e+00	-4.3133513652e+00	 2.1345702345e-01
-5.0911688245e+00	-4.2426406871e+00	 2.3754853716e-01
-5.1618795027e+00	-4.1719300090e+00	 2.5403939590e-01
-5.2325901808e+00	-4.1012193309e+00	 2.6293099830e-01
-5.3033008589e+00	-4.0305086527e+00	 2.6422474295e-01
-5.3740115370e+00	-3.9597979746e+00	 2.5792202848e-01
-4.5608387386e+00	-4.5608387386e+00	-3.0222122712e-02
-4.6315494168e+00	-4.4901280605e+00	 4.0918688007e-02
-4.7022600949e+00	-4.4194173824e+00	 1.0345258598e-01
-4.7729707730e+00	-4.3487067043e+00	 1.5738096989e-01
-4.8436814511e+00	-4.2779960262e+00	 2.0270523839e-01
-4.9143921292e+00	-4.2072853480e+00	 2.3942679015e-01
-4.9851028074e+00	-4.1365746699e+00	 2.6754702381e-01
-5.0558134855e+00	-4.0658639918e+00	 2.8706733800e-01
-5.1265241636e+00	-3.9951533137e+00	 2.9798913135e-01
-5.1972348417e+00	-3.9244426356e+00	 3.0031380246e-01
-5.2679455198e+00	-3.8537319574e+00	 2.9404274993e-01
-4.4547727215e+00	-4.4547727215e+00	-4.0722039562e-02
-4.5254833996e+00	-4.3840620433e+00	 4.0139804769e-02
-4.5961940777e+00	-4.3133513652e+00	 1.1139547188e-01
-4.6669047558e+00	-4.2426406871e+00	 1.7304636044e-01
-4.7376154339e+00	-4.1719300090e+00	 2.2509386912e-01
-4.8083261121e+00	-4.1012193309e+00	 2.6753939658e-01
-4.8790367902e+00	-4.0305086527e+00	 3.0038434144e-01
-4.9497474683e+00	-3.9597979746e+00	 3.2363010235e-01
-5.0204581464e+00	-3.8890872965e+00	 3.3727807792e-01
-5.0911688245e+00	-3.8183766184e+00	 3.4132966677e-01
-5.1618795027e+00	-3.7476659403e+00	 3.3578626749e-01
-4.3487067043e+00	-4.3487067043e+00	-5.2558085066e-02
-4.4194173824e+00	-4.2779960262e+00	 3.8720784117e-02
-4.4901280605e+00	-4.2072853480e+00	 1.1939421161e-01
-4.5608387386e+00	-4.1365746699e+00	 1.8946359608e-01
-4.6315494168e+00	-4.0658639918e+00	 2.4893033620e-01
-4.7022600949e+00	-3.9951533137e+00	 2.9779583061e-01
-4.7729707730e+00	-3.9244426356e+00	 3.3606147795e-01
-4.8436814511e+00	-3.8537319574e+00	 3.6372867686e-01
-4.9143921292e+00	-3.7830212793e+00	 3.8079882594e-01
-4.9851028074e+00	-3.7123106012e+00	 3.8727332381e-01
-5.0558134855e+00	-3.6415999231e+00	 3.8315356905e-01
-4.2426406871e+00	-4.2426406871e+00	-6.5729271382e-02
-4.3133513652e+00	-4.1719300090e+00	 3.6662613902e-02
-4.3840620433e+00	-4.1012193309e+00	 1.2744979303e-01
-4.4547727215e+00	-4.0305086527e+00	 2.0663366467e-01
-4.5254833996e+00	-3.9597979746e+00	 2.7421562749e-01
-4.5961940777e+00	-3.8890872965e+00	 3.3019708013e-01
-4.6669047558e+00	-3.8183766184e+00	 3.7457942122e-01
-4.7376154339e+00	-3.7476659403e+00	 4.0736404940e-01
-4.8083261121e+00	-3.6769552621e+00	 4.2855236328e-01
-4.8790367902e+00	-3.6062445840e+00	 4.3814576608e-01
-4.9497474683e+00	-3.5355339059e+00	 4.3614564398e-01
-5.6568542495e+00	-7.0710678119e+00	-3.7130477818e-02
-5.7275649276e+00	-7.0003571338e+00	-3.2915518765e-02
-5.7982756057e+00	-6.9296464557e+00	-2.7421198422e-02
-5.8689862839e+00	-6.8589357775e+00	-2.0646117961e-02
-5.9396969620e+00	-6.7882250994e+00	-1.2588878565e-02
-6.0104076401e+00	-6.7175144213e+00	-3.2480814296e-03
-6.0811183182e+00	-6.6468037432e+00	 7.3776722407e-03
-6.1518289963e+00	-6.5760930651e+00	 1.9289781229e-02
-6.2225396745e+00	-6.5053823869e+00	 3.2489644310e-02
-6.2932503526e+00	-6.4346717088e+00	 4.6978660244e-02
-6.3639610307e+00	-6.3639610307e+00	 6.2758227782e-02
-5.5507882323e+00	-6.9650017947e+00	-3.5538349406e-02
-5.6214989104e+00	-6.8942911166e+00	-3.1150486406e-02
-5.6922095886e+00	-6.8235804385e+00	-2.5691175184e-02
-5.7629202667e+00	-6.7528697604e+00	-1.9159016914e-02
-5.8336309448e+00	-6.6821590822e+00	-1.1552612783e-02
-5.9043416229e+00	-6.6114484041e+00	-2.8705639886e-03
-5.9750523010e+00	-6.5407377260e+00	 6.8885282626e-03
-6.0457629792e+00	-6.4700270479e+00	 1.7726062751e-02
-6.1164736573e+00	-6.3993163698e+00	 2.9643438249e-02
-6.1871843354e+00	-6.3286056916e+00	 4.2642053514e-02
-6.2578950135e+00	-6.2578950135e+00	 5.6723307296e-02
-5.4447222151e+00	-6.8589357775e+00	-3.4948513539e-02
-5.5154328933e+00	-6.7882250994e+00	-3.0256494242e-02
-5.5861435714e+00	-6.7175144213e+00	-2.4700939785e-02
-5.6568542495e+00	-6.6468037432e+00	-1.8280451346e-02
-5.7275649276e+00	-6.5760930651e+00	-1.0993630113e-02
-5.7982756057e+00	-6.5053823869e+00	-2.8390772870e-03
-5.8689862839e+00	-6.4346717088e+00	 6.1846059232e-03
-5.9396969620e+00	-6.3639610307e+00	 1.6078818296e-02
-6.0104076401e+00	-6.2932503526e+00	 2.6844958600e-02
-6.0811183182e+00	-6.2225396745e+00	 3.8484425591e-02
-6.1518289963e+00	-6.1518289963e+00	 5.0998618017e-02
-5.3386561980e+00	-6.7528697604e+00	-3.5359982062e-02
-5.4093668761e+00	-6.6821590822e+00	-3.0232554112e-02
-5.4800775542e+00	-6.6114484041e+00	-2.4449504060e-02
-5.5507882323e+00	-6.5407377260e+00	-1.8009433084e-02
-5.6214989104e+00	-6.4700270479e+00	-1.0910942378e-02
-5.6922095886e+00	-6.3993163698e+00	-3.1526331414e-03
-5.7629202667e+00	-6.3286056916e+00	 5.2668934116e-03
-5.8336309448e+00	-6.2578950135e+00	 1.4349036058e-02
-5.9043416229e+00	-6.1871843354e+00	 2.4095193563e-02
-5.9750523010e+00	-6.1164736573e+00	 3.4506764682e-02
-6.0457629792e+00	-6.0457629792e+00	 4.5585148158e-02
-5.2325901808e+00	-6.6468037432e+00	-3.6771766842e-02
-5.3033008589e+00	-6.5760930651e+00	-3.1077677878e-02
-5.3740115370e+00	-6.5053823869e+00	-2.4935879862e-02
-5.4447222151e+00	-6.4346717088e+00	-1.8344973979e-02
-5.5154328933e+00	-6.3639610307e+00	-1.1303561420e-02
-5.5861435714e+00	-6.2932503526e+00	-3.8102433900e-03
-5.6568542495e+00	-6.2225396745e+00	 4.1363788952e-03
-5.7275649276e+00	-6.1518289963e+00	 1.2537704210e-02
-5.7982756057e+00	-6.0811183182e+00	 2.1395131317e-02
-5.8689862839e+00	-6.0104076401e+00	 3.0710058970e-02
-5.9396969620e+00	-5.9396969620e+00	 4.0483885908e-02
-5.1265241636e+00	-6.5407377260e+00	-3.9182879764e-02
-5.1972348417e+00	-6.4700270479e+00	-3.2790877420e-02
-5.2679455198e+00	-6.3993163698e+00	-2.6159079070e-02
-5.3386561980e+00	-6.3286056916e+00	-1.9286085899e-02
-5.4093668761e+00	-6.2578950135e+00	-1.2170499105e-02
-5.4800775542e+00	-6.1871843354e+00	-4.8109198924e-03
-5.5507882323e+00	-6.1164736573e+00	 2.7940505198e-03
-5.6214989104e+00	-6.0457629792e+00	 1.0645810903e-02
-5.6922095886e+00	-5.9750523010e+00	 1.8745760019e-02
-5.7629202667e+00	-5.9043416229e+00	 2.7095296617e-02
-5.8336309448e+00	-5.8336309448e+00	 3.5695819435e-02
-5.0204581464e+00	-6.4346717088e+00	-4.2592332739e-02
-5.0911688245e+00	-6.3639610307e+00	-3.5371164642e-02
-5.1618795027e+00	-6.2932503526e+00	-2.8118113579e-02
-5.2325901808e+00	-6.2225396745e+00	-2.0831780739e-02
-5.3033008589e+00	-6.1518289963e+00	-1.3510767320e-02
-5.3740115370e+00	-6.0811183182e+00	-6.1536745299e-03
-5.4447222151e+00	-6.0104076401e+00	 1.2408964098e-03
-5.5154328933e+00	-5.9396969620e+00	 8.6743442684e-03
-5.5861435714e+00	-5.8689862839e+00	 1.6148067804e-02
-5.6568542495e+00	-5.7982756057e+00	 2.3663465765e-02
-5.7275649276e+00	-5.7275649276e+00	 3.1221936886e-02
-4.9143921292e+00	-6.3286056916e+00	-4.6999137696e-02
-4.9851028074e+00	-6.2578950135e+00	-3.8817551469e-02
-5.0558134855e+00	-6.1871843354e+00	-3.0811995311e-02
-5.1265241636e+00	-6.1164736573e+00	-2.2981070412e-02
-5.1972348417e+00	-6.0457629792e+00	-1.5323377973e-02
-5.2679455198e+00	-5.9750523010e+00	-7.8375192052e-03
-5.3386561980e+00	-5.9043416229e+00	-5.2209533213e-04
-5.4093668761e+00	-5.8336309448e+00	 6.6242924131e-03
-5.4800775542e+00	-5.7629202667e+00	 1.3603042786e-02
-5.5507882323e+00	-5.6922095886e+00	 2.0415554532e-02
-5.6214989104e+00	-5.6214989104e+00	 2.7063226385e-02
-4.8083261121e+00	-6.2225396745e+00	-5.2402306589e-02
-4.8790367902e+00	-6.1518289963e+00	-4.3129049848e-02
-4.9497474683e+00	-6.0811183182e+00	-3.4239736205e-02
-5.0204581464e+00	-6.0104076401e+00	-2.5732966852e-02
-5.0911688245e+00	-5.9396969620e+00	-1.7607342994e-02
-5.1618795027e+00	-5.8689862839e+00	-9.8614658426e-03
-5.2325901808e+00	-5.7982756057e+00	-2.4939366246e-03
-5.3033008589e+00	-5.7275649276e+00	 4.4966434245e-03
-5.3740115370e+00	-5.6568542495e+00	 1.1111673058e-02
-5.4447222151e+00	-5.5861435714e+00	 1.7352551018e-02
-5.5154328933e+00	-5.5154328933e+00	 2.3220676037e-02
-4.7022600949e+00	-6.1164736573e+00	-5.8800851390e-02
-4.7729707730e+00	-6.0457629792e+00	-4.8304671747e-02
-4.8436814511e+00	-5.9750523010e+00	-3.8400348225e-02
-4.9143921292e+00	-5.9043416229e+00	-2.9086482018e-02
-4.9851028074e+00	-5.8336309448e+00	-2.0361674334e-02
-5.0558134855e+00	-5.7629202667e+00	-1.2224526388e-02
-5.1265241636e+00	-5.6922095886e+00	-4.6736394080e-03
-5.1972348417e+00	-5.6214989104e+00	 2.2923853677e-03
-5.2679455198e+00	-5.5507882323e+00	 8.6749466898e-03
-5.3386561980e+00	-5.4800775542e+00	 1.4475443298e-02
-5.4093668761e+00	-5.4093668761e+00	 1.9695273922e-02
-4.5961940777e+00	-6.0104076401e+00	-6.6193784094e-02
-4.6669047558e+00	-5.9396969620e+00	-5.4343429155e-02
-4.7376154339e+00	-5.8689862839e+00	-4.3292843353e-02
-4.8083261121e+00	-5.7982756057e+00	-3.3040627888e-02
-4.8790367902e+00	-5.7275649276e+00	-2.3585383967e-02
-4.9497474683e+00	-5.6568542495e+00	-1.4925712809e-02
-5.0204581464e+00	-5.5861435714e+00	-7.0602156441e-03
-5.0911688245e+00	-5.5154328933e+00	 1.2506286426e-05
-5.1618795027e+00	-5.4447222151e+00	 6.2938517312e-03
-5.2325901808e+00	-5.3740115370e+00	 1.1785219428e-02
-5.3033008589e+00	-5.3033008589e+00	 1.6488008102e-02
-4.5961940777e+00	-6.0104076401e+00	-6.6193784094e-02
-4.6669047558e+00	-5.9396969620e+00	-5.4343429155e-02
-4.7376154339e+00	-5.8689862839e+00	-4.3292843353e-02
-4.8083261121e+00	-5.7982756057e+00	-3.3040627888e-02
-4.8790367902e+00	-5.7275649276e+00	-2.3585383967e-02
-4.9497474683e+00	-5.6568542495e+00	-1.4925712809e-02
-5.0204581464e+00	-5.5861435714e+00	-7.0602156441e-03
-5.0911688245e+00	-5.5154328933e+00	 1.2506286426e-05
-5.1618795027e+00	-5.4447222151e+00	 6.2938517312e-03
-5.2325901808e+00	-5.3740115370e+00	 1.1785219428e-02
-5.3033008589e+00	-5.3033008589e+00	 1.6488008102e-02
-4.4901280605e+00	-5.9043416229e+00	-8.4131091801e-02
-4.5608387386e+00	-5.8336309448e+00	-7.3839679549e-02
-4.6315494168e+00	-5.7629202667e+00	-6.3550648024e-02
-4.7022600949e+00	-5.6922095886e+00	-5.3262598425e-02
-4.7729707730e+00	-5.6214989104e+00	-4.2974131964e-02
-4.8436814511e+00	-5.5507882323e+00	-3.2683849861e-02
-4.9143921292e+00	-5.4800775542e+00	-2.2390353349e-02
-4.9851028074e+00	-5.4093668761e+00	-1.2092243673e-02
-5.0558134855e+00	-5.3386561980e+00	-1.7881220844e-03
-5.1265241636e+00	-5.2679455198e+00	 8.5234101499e-03
-5.1972348417e+00	-5.1972348417e+00	 1.8843751755e-02
-4.3840620433e+00	-5.7982756057e+00	-9.7389674829e-02
-4.4547727215e+00	-5.7275649276e+00	-8.9239737686e-02
-4.5254833996e+00	-5.6568542495e+00	-8.0294792852e-02
-4.5961940777e+00	-5.5861435714e+00	-7.0553441530e-02
-4.6669047558e+00	-5.5154328933e+00	-6.0014284932e-02
-4.7376154339e+00	-5.4447222151e+00	-4.8675924283e-02
-4.8083261121e+00	-5.3740115370e+00	-3.6536960817e-02
-4.8790367902e+00	-5.3033008589e+00	-2.3595995781e-02
-4.9497474683e+00	-5.2325901808e+00	-9.8516304310e-03
-5.0204581464e+00	-5.1618795027e+00	 4.6975339656e-03
-5.0911688245e+00	-5.0911688245e+00	 2.0052896131e-02
-4.2779960262e+00	-5.6922095886e+00	-1.0596854524e-01
-4.3487067043e+00	-5.6214989104e+00	-1.0054261562e-01
-4.4194173824e+00	-5.5507882323e+00	-9.3524289887e-02
-4.4901280605e+00	-5.4800775542e+00	-8.4912169245e-02
-4.5608387386e+00	-5.4093668761e+00	-7.4704854909e-02
-4.6315494168e+00	-5.3386561980e+00	-6.2900948106e-02
-4.7022600949e+00	-5.2679455198e+00	-4.9499050074e-02
-4.7729707730e+00	-5.1972348417e+00	-3.4497762060e-02
-4.8436814511e+00	-5.1265241636e+00	-1.7895685324e-02
-4.9143921292e+00	-5.0558134855e+00	 3.0857886490e-04
-4.9851028074e+00	-4.9851028074e+00	 2.0116429225e-02
-4.1719300090e+00	-5.5861435714e+00	-1.0986671511e-01
-4.2426406871e+00	-5.5154328933e+00	-1.0774732543e-01
-4.3133513652e+00	-5.4447222151e+00	-1.0323815120e-01
-4.3840620433e+00	-5.3740115370e+00	-9.6337793636e-02
-4.4547727215e+00	-5.3033008589e+00	-8.7044853955e-02
-4.5254833996e+00	-5.2325901808e+00	-7.5357933386e-02
-4.5961940777e+00	-5.1618795027e+00	-6.1275633168e-02
-4.6669047558e+00	-5.0911688245e+00	-4.4796554552e-02
-4.7376154339e+00	-5.0204581464e+00	-2.5919298800e-02
-4.8083261121e+00	-4.9497474683e+00	-4.6424671836e-03
-4.8790367902e+00	-4.8790367902e+00	 1.9035339013e-02
-4.0658639918e+00	-5.4800775542e+00	-1.0908319655e-01
-4.1365746699e+00	-5.4093668761e+00	-1.1085287920e-01
-4.2072853480e+00	-5.3386561980e+00	-1.0943538888e-01
-4.2779960262e+00	-5.2679455198e+00	-1.0482932679e-01
-4.3487067043e+00	-5.1972348417e+00	-9.7033294149e-02
-4.4194173824e+00	-5.1265241636e+00	-8.6045892195e-02
-4.4901280605e+00	-5.0558134855e+00	-7.1865722168e-02
-4.5608387386e+00	-4.9851028074e+00	-5.4491385321e-02
-4.6315494168e+00	-4.9143921292e+00	-3.3921482917e-02
-4.7022600949e+00	-4.8436814511e+00	-1.0154616233e-02
-4.7729707730e+00	-4.7729707730e+00	 1.6810613448e-02
-3.9597979746e+00	-5.3740115370e+00	-1.0361700168e-01
-4.0305086527e+00	-5.3033008589e+00	-1.0985828907e-01
-4.1012193309e+00	-5.2325901808e+00	-1.1211501504e-01
-4.1719300090e+00	-5.1618795027e+00	-1.1038578081e-01
-4.2426406871e+00	-5.0911688245e+00	-1.0466918759e-01
-4.3133513652e+00	-5.0204581464e+00	-9.4963836632e-02
-4.3840620433e+00	-4.9497474683e+00	-8.1268329166e-02
-4.4547727215e+00	-4.8790367902e+00	-6.3581266452e-02
-4.5254833996e+00	-4.8083261121e+00	-4.1901249756e-02
-4.5961940777e+00	-4.7376154339e+00	-1.6226880357e-02
-4.6669047558e+00	-4.6669047558e+00	 1.3443240459e-02
-3.8537319574e+00	-5.2679455198e+00	-9.3467142640e-02
-3.9244426356e+00	-5.1972348417e+00	-1.0476256716e-01
-3.9951533137e+00	-5.1265241636e+00	-1.1127604182e-01
-4.0658639918e+00	-5.0558134855e+00	-1.1300616783e-01
-4.1365746699e+00	-4.9851028074e+00	-1.0995154642e-01
-4.2072853480e+00	-4.9143921292e+00	-1.0211077881e-01
-4.2779960262e+00	-4.8436814511e+00	-8.9482466274e-02
-4.3487067043e+00	-4.7729707730e+00	-7.2065210052e-02
-4.4194173824e+00	-4.7022600949e+00	-4.9857611418e-02
-4.4901280605e+00	-4.6315494168e+00	-2.2858271652e-02
-4.5608387386e+00	-4.5608387386e+00	 8.9342079573e-03
-3.7476659403e+00	-5.1618795027e+00	-7.8632631607e-02
-3.8183766184e+00	-5.0911688245e+00	-9.5564725647e-02
-3.8890872965e+00	-5.0204581464e+00	-1.0691748137e-01
-3.9597979746e+00	-4.9497474683e+00	-1.1268950000e-01
-4.0305086527e+00	-4.8790367902e+00	-1.1287938276e-01
-4.1012193309e+00	-4.8083261121e+00	-1.0748573088e-01
-4.1719300090e+00	-4.7376154339e+00	-9.6507145626e-02
-4.2426406871e+00	-4.6669047558e+00	-7.9942228251e-02
-4.3133513652e+00	-4.5961940777e+00	-5.7789580026e-02
-4.3840620433e+00	-4.5254833996e+00	-3.0047802235e-02
-4.4547727215e+00	-4.4547727215e+00	 3.2845038305e-03
-3.6415999231e+00	-5.0558134855e+00	-5.9112480766e-02
-3.7123106012e+00	-4.9851028074e+00	-8.2263776706e-02
-3.7830212793e+00	-4.9143921292e+00	-9.9038345874e-02
-3.8537319574e+00	-4.8436814511e+00	-1.0943478949e-01
-3.9244426356e+00	-4.7729707730e+00	-1.1345170878e-01
-3.9951533137e+00	-4.7022600949e+00	-1.1108770499e-01
-4.0658639918e+00	-4.6315494168e+00	-1.0234137938e-01
-4.1365746699e+00	-4.5608387386e+00	-8.7211333197e-02
-4.2072853480e+00	-4.4901280605e+00	-6.5696167725e-02
-4.2779960262e+00	-4.4194173824e+00	-3.7794484245e-02
-4.3487067043e+00	-4.3487067043e+00	-3.5048840549e-03
-3.5355339059e+00	-4.9497474683e+00	-3.4905702328e-02
-3.6062445840e+00	-4.8790367902e+00	-6.4858732545e-02
-3.6769552621e+00	-4.8083261121e+00	-8.7637647526e-02
-3.7476659403e+00	-4.7376154339e+00	-1.0324104849e-01
-3.8183766184e+00	-4.6669047558e+00	-1.1166753668e-01
-3.8890872965e+00	-4.5961940777e+00	-1.1291571334e-01
-3.9597979746e+00	-4.5254833996e+00	-1.0698417971e-01
-4.0305086527e+00	-4.4547727215e+00	-9.3871537064e-02
-4.1012193309e+00	-4.3840620433e+00	-7.3576386680e-02
-4.1719300090e+00	-4.3133513652e+00	-4.6097329844e-02
-4.2426406871e+00	-4.2426406871e+00	-1.1432967854e-02
 7.0710678120e-01	-1.3435028842e+01	 1.1482803471e-02
 3.8890872966e-01	-1.3116830791e+01	 3.1396104422e-02
 7.0710678122e-02	-1.2798632739e+01	 4.6432414940e-02
-2.4748737342e-01	-1.2480434688e+01	 5.6473213466e-02
-5.6568542495e-01	-1.2162236636e+01	 6.1399978439e-02
-8.8388347649e-01	-1.1844038585e+01	 6.1094188299e-02
-1.2020815280e+00	-1.1525840533e+01	 5.5437321486e-02
-1.5202795796e+00	-1.1207642482e+01	 4.4310856440e-02
-1.8384776311e+00	-1.0889444430e+01	 2.7596271601e-02
-2.1566756826e+00	-1.0571246379e+01	 5.1750454080e-03
-2.4748737342e+00	-1.0253048327e+01	-1.9657126421e-02
 8.1317279838e-01	-1.3328962825e+01	 5.8862565258e-03
 4.9497474684e-01	-1.3010764774e+01	 2.6809611547e-02
 1.7677669530e-01	-1.2692566722e+01	 4.2801707431e-02
-1.4142135624e-01	-1.2374368671e+01	 5.3744022619e-02
-4.5961940777e-01	-1.2056170619e+01	 5.9518035550e-02
-7.7781745931e-01	-1.1737972568e+01	 6.0005224665e-02
-1.0960155108e+00	-1.1419774516e+01	 5.5087068402e-02
-1.4142135624e+00	-1.1101576465e+01	 4.4645045202e-02
-1.7324116139e+00	-1.0783378413e+01	 2.8560633505e-02
-2.0506096654e+00	-1.0465180362e+01	 6.7153117497e-03
-2.3688077170e+00	-1.0146982310e+01	-1.3398370563e-02
 9.1923881556e-01	-1.3222896808e+01	 7.2155448372e-04
 6.0104076402e-01	-1.2904698757e+01	 2.2554330941e-02
 2.8284271248e-01	-1.2586500705e+01	 3.9401579557e-02
-3.5355339056e-02	-1.2268302654e+01	 5.1144778773e-02
-3.5355339059e-01	-1.1950104602e+01	 5.7665407029e-02
-6.7175144213e-01	-1.1631906551e+01	 5.8844942763e-02
-9.8994949366e-01	-1.1313708499e+01	 5.4564864417e-02
-1.3081475452e+00	-1.0995510447e+01	 4.4706650429e-02
-1.6263455967e+00	-1.0677312396e+01	 2.9151779239e-02
-1.9445436483e+00	-1.0359114344e+01	 7.7817292878e-03
-2.2627416998e+00	-1.0040916293e+01	-7.4962065283e-03
 1.0253048327e+00	-1.3116830791e+01	-4.0010391246e-03
 7.0710678120e-01	-1.2798632739e+01	 1.8640526135e-02
 3.8890872966e-01	-1.2480434688e+01	 3.6242294849e-02
 7.0710678124e-02	-1.2162236636e+01	 4.8685745459e-02
-2.4748737341e-01	-1.1844038585e+01	 5.5852356405e-02
-5.6568542495e-01	-1.1525840533e+01	 5.7623606125e-02
-8.8388347648e-01	-1.1207642482e+01	 5.3880973060e-02
-1.2020815280e+00	-1.0889444430e+01	 4.4505935650e-02
-1.5202795795e+00	-1.0571246379e+01	 2.9379972335e-02
-1.8384776311e+00	-1.0253048327e+01	 1.2255176887e-02
-2.1566756826e+00	-9.9348502757e+00	-1.9706403094e-03
 1.1313708499e+00	-1.3010764774e+01	-8.2712607684e-03
 8.1317279838e-01	-1.2692566722e+01	 1.5078460659e-02
 4.9497474684e-01	-1.2374368671e+01	 3.3334116837e-02
 1.7677669530e-01	-1.2056170619e+01	 4.6377186207e-02
-1.4142135623e-01	-1.1737972568e+01	 5.4089147209e-02
-4.5961940777e-01	-1.1419774516e+01	 5.6351478281e-02
-7.7781745930e-01	-1.1101576465e+01	 5.3045657864e-02
-1.0960155108e+00	-1.0783378413e+01	 4.4053164398e-02
-1.4142135624e+00	-1.0465180362e+01	 2.9255476322e-02
-1.7324116139e+00	-1.0146982310e+01	 1.7054691778e-02
-2.0506096654e+00	-9.8287842585e+00	 3.1583223147e-03
 1.2374368671e+00	-1.2904698757e+01	-1.2078846917e-02
 9.1923881556e-01	-1.2586500705e+01	 1.1878398044e-02
 6.0104076402e-01	-1.2268302654e+01	 3.0687309052e-02
 2.8284271248e-01	-1.1950104602e+01	 4.4229364548e-02
-3.5355339053e-02	-1.1631906551e+01	 5.2386042972e-02
-3.5355339059e-01	-1.1313708499e+01	 5.5038822762e-02
-6.7175144212e-01	-1.0995510447e+01	 5.2069182359e-02
-9.8994949366e-01	-1.0677312396e+01	 4.3358600202e-02
-1.3081475452e+00	-1.0359114344e+01	 2.8788554732e-02
-1.6263455967e+00	-1.0040916293e+01	 2.1546074122e-02
-1.9445436483e+00	-9.7227182413e+00	 7.8706757811e-03
 1.3435028843e+00	-1.2798632740e+01	-1.5413534040e-02
 1.0253048327e+00	-1.2480434688e+01	 9.0506018212e-03
 7.0710678120e-01	-1.2162236636e+01	 2.8312135026e-02
 3.8890872966e-01	-1.1844038585e+01	 4.2252544013e-02
 7.0710678127e-02	-1.1525840533e+01	 5.0753307224e-02
-2.4748737341e-01	-1.1207642482e+01	 5.3695903098e-02
-5.6568542495e-01	-1.0889444430e+01	 5.0961810075e-02
-8.8388347648e-01	-1.0571246379e+01	 4.2432506594e-02
-1.2020815280e+00	-1.0253048327e+01	 3.2200691451e-02
-1.5202795795e+00	-9.9348502757e+00	 2.5709318416e-02
-1.8384776311e+00	-9.6166522241e+00	 1.2146414742e-02
 1.4495689015e+00	-1.2692566722e+01	-1.8265058605e-02
 1.1313708499e+00	-1.2374368671e+01	 6.6053355211e-03
 8.1317279838e-01	-1.2056170619e+01	 2.6218858287e-02
 4.9497474684e-01	-1.1737972568e+01	 4.0456988133e-02
 1.7677669531e-01	-1.1419774516e+01	 4.9201203497e-02
-1.4142135623e-01	-1.1101576465e+01	 5.2332982821e-02
-4.5961940777e-01	-1.0783378413e+01	 4.9733804543e-02
-7.7781745930e-01	-1.0465180362e+01	 4.1285147104e-02
-1.0960155108e+00	-1.0146982310e+01	 3.6048314024e-02
-1.4142135624e+00	-9.8287842585e+00	 2.9524419371e-02
-1.7324116139e+00	-9.5105862070e+00	 1.5965534065e-02
 1.5556349186e+00	-1.2586500705e+01	-2.0623157084e-02
 1.2374368671e+00	-1.2268302654e+01	 4.5528626744e-03
 9.1923881556e-01	-1.1950104602e+01	 2.4417742368e-02
 6.0104076402e-01	-1.1631906551e+01	 3.8852960437e-02
 2.8284271249e-01	-1.1313708499e+01	 4.7739995322e-02
-3.5355339052e-02	-1.0995510447e+01	 5.0960325461e-02
-3.5355339059e-01	-1.0677312396e+01	 4.8395429295e-02
-6.7175144212e-01	-1.0359114344e+01	 3.9926785263e-02
-9.8994949366e-01	-1.0040916293e+01	 3.9636263991e-02
-1.3081475452e+00	-9.7227182413e+00	 3.2971371911e-02
-1.6263455967e+00	-9.4045201898e+00	 1.9308028834e-02
 1.6617009358e+00	-1.2480434688e+01	-2.2477565944e-02
 1.3435028843e+00	-1.2162236636e+01	 2.9034468117e-03
 1.0253048327e+00	-1.1844038585e+01	 2.2919050799e-02
 7.0710678120e-01	-1.1525840533e+01	 3.7450724458e-02
 3.8890872966e-01	-1.1207642482e+01	 4.6379946228e-02
 7.0710678127e-02	-1.0889444430e+01	 4.9588194549e-02
-2.4748737341e-01	-1.0571246379e+01	 4.6956947860e-02
-5.6568542495e-01	-1.0253048327e+01	 4.2803716945e-02
-8.8388347648e-01	-9.9348502757e+00	 4.2944536339e-02
-1.2020815280e+00	-9.6166522241e+00	 3.6030171179e-02
-1.5202795796e+00	-9.2984541726e+00	 2.2153894347e-02
 1.7677669530e+00	-1.2374368671e+01	-2.3818021656e-02
 1.4495689015e+00	-1.2056170619e+01	 1.6673514640e-03
 1.1313708499e+00	-1.1737972568e+01	 2.1733047111e-02
 8.1317279838e-01	-1.1419774516e+01	 3.6260543725e-02
 4.9497474684e-01	-1.1101576465e+01	 4.5131319747e-02
 1.7677669531e-01	-1.0783378413e+01	 4.8226853615e-02
-1.4142135623e-01	-1.0465180362e+01	 4.5428623769e-02
-4.5961940777e-01	-1.0146982310e+01	 4.6206795849e-02
-7.7781745930e-01	-9.8287842585e+00	 4.5953126265e-02
-1.0960155108e+00	-9.5105862070e+00	 3.8680812533e-02
-1.4142135624e+00	-9.1923881554e+00	 2.4483126118e-02
-2.4748737342e+00	-1.0253048327e+01	-1.9657126421e-02
-2.7930717857e+00	-9.9348502757e+00	-3.9180970079e-02
-3.1112698372e+00	-9.6166522241e+00	-5.2772639244e-02
-3.4294678887e+00	-9.2984541726e+00	-5.9550607199e-02
-3.7476659403e+00	-8.9802561211e+00	-6.4088350137e-02
-4.0658639918e+00	-8.6620580695e+00	-6.6258369563e-02
-4.3840620433e+00	-8.3438600180e+00	-6.5933171426e-02
-4.7022600949e+00	-8.0256619665e+00	-6.2985266122e-02
-5.0204581464e+00	-7.7074639149e+00	-5.7287168490e-02
-5.3386561980e+00	-7.3892658634e+00	-4.8711397812e-02
-5.6568542495e+00	-7.0710678119e+00	-3.7130477815e-02
-2.3688077170e+00	-1.0146982310e+01	-1.3398370563e-02
-2.6870057685e+00	-9.8287842585e+00	-3.2821801923e-02
-3.0052038200e+00	-9.5105862069e+00	-4.9890324032e-02
-3.3234018716e+00	-9.1923881554e+00	-5.6276740820e-02
-3.6415999231e+00	-8.8741901039e+00	-6.0489064205e-02
-3.9597979746e+00	-8.5559920523e+00	-6.2399795915e-02
-4.2779960262e+00	-8.2377940008e+00	-6.1881442126e-02
-4.5961940777e+00	-7.9195959493e+00	-5.8806513457e-02
-4.9143921292e+00	-7.6013978978e+00	-5.3047524973e-02
-5.2325901808e+00	-7.2831998462e+00	-4.4476996180e-02
-5.5507882323e+00	-6.9650017947e+00	-3.2967451031e-02
-2.2627416998e+00	-1.0040916293e+01	-7.4962065283e-03
-2.5809397513e+00	-9.7227182413e+00	-2.6680129544e-02
-2.8991378029e+00	-9.4045201898e+00	-4.5897216194e-02
-3.2173358544e+00	-9.0863221382e+00	-5.3390647685e-02
-3.5355339059e+00	-8.7681240867e+00	-5.7139723116e-02
-3.8537319575e+00	-8.4499260352e+00	-5.8653338596e-02
-4.1719300090e+00	-8.1317279836e+00	-5.7804000525e-02
-4.4901280605e+00	-7.8135299321e+00	-5.4464219747e-02
-4.8083261121e+00	-7.4953318806e+00	-4.8506511552e-02
-5.1265241636e+00	-7.1771338291e+00	-3.9803395671e-02
-5.4447222151e+00	-6.8589357775e+00	-2.8227396282e-02
-2.1566756826e+00	-9.9348502757e+00	-1.9706403094e-03
-2.4748737341e+00	-9.6166522241e+00	-2.0775958781e-02
-2.7930717857e+00	-9.2984541726e+00	-3.9617590200e-02
-3.1112698372e+00	-8.9802561211e+00	-5.0891339811e-02
-3.4294678887e+00	-8.6620580695e+00	-5.4039338863e-02
-3.7476659403e+00	-8.3438600180e+00	-5.5018009574e-02
-4.0658639918e+00	-8.0256619665e+00	-5.3699858566e-02
-4.3840620433e+00	-7.7074639149e+00	-4.9957396911e-02
-4.7022600949e+00	-7.3892658634e+00	-4.3663140121e-02
-5.0204581464e+00	-7.0710678119e+00	-3.4689608154e-02
-5.3386561980e+00	-6.7528697604e+00	-2.2909325411e-02
-2.0506096654e+00	-9.8287842585e+00	 3.1583223147e-03
-2.3688077170e+00	-9.5105862069e+00	-1.5129295253e-02
-2.6870057685e+00	-9.1923881554e+00	-3.3456375416e-02
-3.0052038200e+00	-8.8741901039e+00	-4.8777829241e-02
-3.3234018716e+00	-8.5559920523e+00	-5.1186923464e-02
-3.6415999231e+00	-8.2377940008e+00	-5.1492820840e-02
-3.9597979746e+00	-7.9195959493e+00	-4.9568028216e-02
-4.2779960262e+00	-7.6013978978e+00	-4.5285056889e-02
-4.5961940777e+00	-7.2831998462e+00	-3.8516422595e-02
-4.9143921292e+00	-6.9650017947e+00	-2.9134645519e-02
-5.2325901808e+00	-6.6468037432e+00	-1.7012250285e-02
-1.9445436483e+00	-9.7227182413e+00	 7.8706757811e-03
-2.2627416998e+00	-9.4045201898e+00	-9.7601443677e-03
-2.5809397513e+00	-9.0863221382e+00	-2.7433577090e-02
-2.8991378029e+00	-8.7681240867e+00	-4.5056342374e-02
-3.2173358544e+00	-8.4499260352e+00	-4.8581488956e-02
-3.5355339059e+00	-8.1317279836e+00	-4.8076784406e-02
-3.8537319575e+00	-7.8135299321e+00	-4.5407521463e-02
-4.1719300090e+00	-7.4953318806e+00	-4.0446211644e-02
-4.4901280605e+00	-7.1771338290e+00	-3.3065370913e-02
-4.8083261121e+00	-6.8589357775e+00	-2.3137519679e-02
-5.1265241636e+00	-6.5407377260e+00	-1.0535182790e-02
-1.8384776311e+00	-9.6166522241e+00	 1.2146414742e-02
-2.1566756826e+00	-9.2984541726e+00	-4.6885113149e-03
-2.4748737341e+00	-8.9802561211e+00	-2.1569200256e-02
-2.7930717857e+00	-8.6620580695e+00	-3.8402373483e-02
-3.1112698372e+00	-8.3438600180e+00	-4.6222047397e-02
-3.4294678887e+00	-8.0256619665e+00	-4.4768912308e-02
-3.7476659403e+00	-7.7074639149e+00	-4.1217350314e-02
-4.0658639918e+00	-7.3892658634e+00	-3.5439873160e-02
-4.3840620433e+00	-7.0710678119e+00	-2.7308997034e-02
-4.7022600949e+00	-6.7528697603e+00	-1.6697242567e-02
-5.0204581464e+00	-6.4346717088e+00	-3.4771348371e-03
-1.7324116139e+00	-9.5105862070e+00	 1.5965534065e-02
-2.0506096654e+00	-9.1923881554e+00	 6.5598929833e-05
-2.3688077170e+00	-8.8741901039e+00	-1.5883249733e-02
-2.6870057685e+00	-8.5559920523e+00	-3.1787734738e-02
-3.0052038200e+00	-8.2377940008e+00	-4.4107610868e-02
-3.3234018716e+00	-7.9195959493e+00	-4.1568216600e-02
-3.6415999231e+00	-7.6013978977e+00	-3.6996526802e-02
-3.9597979746e+00	-7.2831998462e+00	-3.0265053443e-02
-4.2779960262e+00	-6.9650017947e+00	-2.1246312937e-02
-4.5961940777e+00	-6.6468037432e+00	-9.8128261408e-03
-4.9143921292e+00	-6.3286056916e+00	 4.1628816448e-03
-1.6263455967e+00	-9.4045201898e+00	 1.9308028834e-02
-1.9445436483e+00	-9.0863221382e+00	 4.4821816068e-03
-2.2627416998e+00	-8.7681240867e+00	-1.0395730123e-02
-2.5809397513e+00	-8.4499260352e+00	-2.5232430584e-02
-2.8991378029e+00	-8.1317279836e+00	-3.9934643509e-02
-3.2173358544e+00	-7.8135299321e+00	-3.8473709359e-02
-3.5355339059e+00	-7.4953318806e+00	-3.2744062977e-02
-3.8537319575e+00	-7.1771338290e+00	-2.4920764519e-02
-4.1719300090e+00	-6.8589357775e+00	-1.4876330625e-02
-4.4901280605e+00	-6.5407377260e+00	-2.4832823756e-03
-4.8083261121e+00	-6.2225396745e+00	 1.2385854703e-02
-1.5202795796e+00	-9.2984541726e+00	 2.2153894347e-02
-1.8384776311e+00	-8.9802561211e+00	 8.5412321714e-03
-2.1566756826e+00	-8.6620580695e+00	-5.1266458146e-03
-2.4748737342e+00	-8.3438600180e+00	-1.8756465251e-02
-2.7930717857e+00	-8.0256619665e+00	-3.2254951287e-02
-3.1112698372e+00	-7.7074639149e+00	-3.5484402683e-02
-3.4294678888e+00	-7.3892658634e+00	-2.8458970913e-02
-3.7476659403e+00	-7.0710678119e+00	-1.9406018438e-02
-4.0658639918e+00	-6.7528697603e+00	-8.1980621215e-03
-4.3840620433e+00	-6.4346717088e+00	 5.2923767295e-03
-4.7022600949e+00	-6.1164736573e+00	 2.1192772364e-02
-1.4142135624e+00	-9.1923881554e+00	 2.4483126118e-02
-1.7324116139e+00	-8.8741901039e+00	 1.2222746295e-02
-2.0506096654e+00	-8.5559920524e+00	-9.6000978727e-05
-2.3688077170e+00	-8.2377940008e+00	-1.2379842756e-02
-2.6870057685e+00	-7.9195959493e+00	-2.4535505596e-02
-3.0052038200e+00	-7.6013978978e+00	-3.2599308694e-02
-3.3234018716e+00	-7.2831998462e+00	-2.4140262706e-02
-3.6415999231e+00	-6.9650017947e+00	-1.3719827269e-02
-3.9597979746e+00	-6.6468037432e+00	-1.2105194715e-03
-4.2779960262e+00	-6.3286056916e+00	 1.3515139154e-02
-4.5961940777e+00	-6.0104076401e+00	 3.0584622634e-02
 1.7677669530e+00	-1.2374368671e+01	-2.3818021656e-02
 1.4495689015e+00	-1.2056170619e+01	 1.6673514640e-03
 1.1313708499e+00	-1.1737972568e+01	 2.1733047111e-02
 8.1317279838e-01	-1.1419774516e+01	 3.6260543725e-02
 4.9497474684e-01	-1.1101576465e+01	 4.5131319747e-02
 1.7677669531e-01	-1.0783378413e+01	 4.8226853615e-02
-1.4142135623e-01	-1.0465180362e+01	 4.5428623769e-02
-4.5961940777e-01	-1.0146982310e+01	 4.6206795849e-02
-7.7781745930e-01	-9.8287842585e+00	 4.5953126265e-02
-1.0960155108e+00	-9.5105862070e+00	 3.8680812533e-02
-1.4142135624e+00	-9.1923881554e+00	 2.4483126118e-02
 1.8738329702e+00	-1.2268302654e+01	-2.4538149611e-02
 1.5556349186e+00	-1.1950104602e+01	-1.8529027088e-04
 1.2374368671e+00	-1.1631906551e+01	 1.9014379668e-02
 9.1923881556e-01	-1.1313708499e+01	 3.2942338645e-02
 6.0104076402e-01	-1.0995510447e+01	 4.1480065100e-02
 2.8284271248e-01	-1.0677312396e+01	 4.4509037473e-02
-3.5355339053e-02	-1.0359114344e+01	 4.1910734204e-02
-3.5355339059e-01	-1.0040916293e+01	 4.8276975545e-02
-6.7175144213e-01	-9.7227182413e+00	 4.8629397896e-02
-9.8994949366e-01	-9.4045201898e+00	 4.2320472946e-02
-1.3081475452e+00	-9.0863221382e+00	 2.9443470748e-02
 1.9798989874e+00	-1.2162236636e+01	-2.4531575203e-02
 1.6617009358e+00	-1.1844038585e+01	-1.4795763114e-03
 1.3435028843e+00	-1.1525840533e+01	 1.6685721250e-02
 1.0253048327e+00	-1.1207642482e+01	 2.9845795921e-02
 7.0710678120e-01	-1.0889444430e+01	 3.7882126142e-02
 3.8890872966e-01	-1.0571246379e+01	 4.0676190351e-02
 7.0710678125e-02	-1.0253048327e+01	 4.2654518287e-02
-2.4748737341e-01	-9.9348502757e+00	 4.9834162625e-02
-5.6568542495e-01	-9.6166522241e+00	 5.0616488029e-02
-8.8388347649e-01	-9.2984541726e+00	 4.5094762646e-02
-1.2020815280e+00	-8.9802561211e+00	 3.3362255117e-02
 2.0859650045e+00	-1.2056170619e+01	-2.3788034902e-02
 1.7677669530e+00	-1.1737972568e+01	-2.2052431269e-03
 1.4495689015e+00	-1.1419774516e+01	 1.4757335389e-02
 1.1313708499e+00	-1.1101576465e+01	 2.6981179086e-02
 8.1317279838e-01	-1.0783378413e+01	 3.4347766403e-02
 4.9497474684e-01	-1.0465180362e+01	 3.6738575780e-02
 1.7677669530e-01	-1.0146982310e+01	 4.3782291711e-02
-1.4142135623e-01	-9.8287842585e+00	 5.0858352780e-02
-4.5961940777e-01	-9.5105862070e+00	 5.1894392509e-02
-7.7781745931e-01	-9.1923881554e+00	 4.6983677635e-02
-1.0960155108e+00	-8.8741901039e+00	 3.6219475384e-02
 2.1920310217e+00	-1.1950104602e+01	-2.2297265176e-02
 1.8738329702e+00	-1.1631906551e+01	-2.3520271866e-03
 1.5556349186e+00	-1.1313708499e+01	 1.3239485615e-02
 1.2374368671e+00	-1.0995510447e+01	 2.4358751668e-02
 9.1923881556e-01	-1.0677312396e+01	 3.0887249413e-02
 6.0104076402e-01	-1.0359114344e+01	 3.2706457289e-02
 2.8284271248e-01	-1.0040916293e+01	 4.4533252350e-02
-3.5355339057e-02	-9.7227182413e+00	 5.1329541913e-02
-3.5355339059e-01	-9.4045201898e+00	 5.2443107400e-02
-6.7175144213e-01	-9.0863221383e+00	 4.7967214132e-02
-9.8994949367e-01	-8.7681240867e+00	 3.7995127926e-02
 2.2980970389e+00	-1.1844038585e+01	-2.0049002496e-02
 1.9798989873e+00	-1.1525840533e+01	-1.9096649597e-03
 1.6617009358e+00	-1.1207642482e+01	 1.2142435459e-02
 1.3435028843e+00	-1.0889444430e+01	 2.1988777200e-02
 1.0253048327e+00	-1.0571246379e+01	 2.7510838704e-02
 7.0710678120e-01	-1.0253048327e+01	 3.3128375629e-02
 3.8890872966e-01	-9.9348502757e+00	 4.4887396167e-02
 7.0710678121e-02	-9.6166522241e+00	 5.1227726144e-02
-2.4748737342e-01	-9.2984541726e+00	 5.2242628976e-02
-5.6568542496e-01	-8.9802561211e+00	 4.8025368572e-02
-8.8388347649e-01	-8.6620580695e+00	 3.8669209334e-02
 2.4041630560e+00	-1.1737972568e+01	-1.7032983329e-02
 2.0859650045e+00	-1.1419774516e+01	-8.6789291557e-04
 1.7677669530e+00	-1.1101576465e+01	 1.1476448451e-02
 1.4495689014e+00	-1.0783378413e+01	 1.9881519212e-02
 1.1313708499e+00	-1.0465180362e+01	 2.4228797807e-02
 8.1317279837e-01	-1.0146982310e+01	 3.4055144323e-02
 4.9497474684e-01	-9.8287842585e+00	 4.4824719341e-02
 1.7677669530e-01	-9.5105862070e+00	 5.0532901810e-02
-1.4142135624e-01	-9.1923881554e+00	 5.1272953732e-02
-4.5961940778e-01	-8.8741901039e+00	 4.7138137603e-02
-7.7781745932e-01	-8.5559920524e+00	 3.8221716413e-02
 2.5102290732e+00	-1.1631906551e+01	-1.3238944145e-02
 2.1920310217e+00	-1.1313708499e+01	 7.8355247657e-04
 1.8738329701e+00	-1.0995510447e+01	 1.1251788123e-02
 1.5556349186e+00	-1.0677312396e+01	 1.8047241235e-02
 1.2374368671e+00	-1.0359114344e+01	 2.1051390251e-02
 9.1923881555e-01	-1.0040916293e+01	 3.4721276201e-02
 6.0104076401e-01	-9.7227182413e+00	 4.4325218266e-02
 2.8284271248e-01	-9.4045201898e+00	 4.9225065460e-02
-3.5355339061e-02	-9.0863221383e+00	 4.9514078374e-02
-3.5355339060e-01	-8.7681240867e+00	 4.5285518090e-02
-6.7175144214e-01	-8.4499260352e+00	 3.6632646186e-02
 2.6162950904e+00	-1.1525840533e+01	-8.6566214142e-03
 2.2980970388e+00	-1.1207642482e+01	 3.0549347475e-03
 1.9798989873e+00	-1.0889444430e+01	 1.1478718005e-02
 1.6617009358e+00	-1.0571246379e+01	 1.6496206799e-02
 1.3435028843e+00	-1.0253048327e+01	 2.2404589673e-02
 1.0253048327e+00	-9.9348502757e+00	 3.5106767715e-02
 7.0710678119e-01	-9.6166522241e+00	 4.3368889550e-02
 3.8890872965e-01	-9.2984541726e+00	 4.7284213861e-02
 7.0710678118e-02	-8.9802561211e+00	 4.6945999826e-02
-2.4748737342e-01	-8.6620580695e+00	 4.2447507114e-02
-5.6568542496e-01	-8.3438600180e+00	 3.3881995890e-02
 2.7223611075e+00	-1.1419774516e+01	-3.2757516051e-03
 2.4041630560e+00	-1.1101576465e+01	 5.9565174278e-03
 2.0859650045e+00	-1.0783378413e+01	 1.2167501628e-02
 1.7677669530e+00	-1.0465180362e+01	 1.5238679435e-02
 1.4495689014e+00	-1.0146982310e+01	 2.4364743269e-02
 1.1313708499e+00	-9.8287842585e+00	 3.5191615534e-02
 8.1317279837e-01	-9.5105862070e+00	 4.1935730019e-02
 4.9497474683e-01	-9.1923881554e+00	 4.4690343996e-02
 1.7677669530e-01	-8.8741901039e+00	 4.3548715226e-02
-1.4142135624e-01	-8.5559920524e+00	 3.8604101969e-02
-4.5961940778e-01	-8.2377940008e+00	 2.9949762976e-02
 2.8284271247e+00	-1.1313708499e+01	 2.9139288130e-03
 2.5102290732e+00	-1.0995510447e+01	 9.4985640484e-03
 2.1920310217e+00	-1.0677312396e+01	 1.3328402522e-02
 1.8738329701e+00	-1.0359114344e+01	 1.4284922674e-02
 1.5556349186e+00	-1.0040916293e+01	 2.6180436682e-02
 1.2374368671e+00	-9.7227182413e+00	 3.4955816540e-02
 9.1923881554e-01	-9.4045201898e+00	 4.0005736713e-02
 6.0104076401e-01	-9.0863221382e+00	 4.1423453059e-02
 2.8284271248e-01	-8.7681240867e+00	 3.9302221929e-02
-3.5355339061e-02	-8.4499260352e+00	 3.3735300167e-02
-3.5355339060e-01	-8.1317279837e+00	 2.4815945113e-02
-1.4142135624e+00	-9.1923881554e+00	 2.4483126118e-02
-1.7324116139e+00	-8.8741901039e+00	 1.2222746295e-02
-2.0506096654e+00	-8.5559920524e+00	-9.6000978727e-05
-2.3688077170e+00	-8.2377940008e+00	-1.2379842756e-02
-2.6870057685e+00	-7.9195959493e+00	-2.4535505596e-02
-3.0052038200e+00	-7.6013978978e+00	-3.2599308694e-02
-3.3234018716e+00	-7.2831998462e+00	-2.4140262706e-02
-3.6415999231e+00	-6.9650017947e+00	-1.3719827269e-02
-3.9597979746e+00	-6.6468037432e+00	-1.2105194715e-03
-4.2779960262e+00	-6.3286056916e+00	 1.3515139154e-02
-4.5961940777e+00	-6.0104076401e+00	 3.0584622634e-02
-1.3081475452e+00	-9.0863221382e+00	 2.9443470748e-02
-1.6263455967e+00	-8.7681240867e+00	 2.0263259377e-02
-1.9445436483e+00	-8.4499260352e+00	 1.0316632542e-02
-2.2627416998e+00	-8.1317279836e+00	-3.0313822377e-04
-2.5809397513e+00	-7.8135299321e+00	-1.1502780893e-02
-2.8991378029e+00	-7.4953318806e+00	-2.3189022946e-02
-3.2173358544e+00	-7.1771338290e+00	-1.7659908376e-02
-3.5355339059e+00	-6.8589357775e+00	-8.3747486185e-03
-3.8537319575e+00	-6.5407377260e+00	 2.2282560913e-03
-4.1719300090e+00	-6.2225396745e+00	 1.4276583996e-02
-4.4901280605e+00	-5.9043416229e+00	 2.7897708897e-02
-1.2020815280e+00	-8.9802561211e+00	 3.3362255117e-02
-1.5202795796e+00	-8.6620580695e+00	 2.7394173392e-02
-1.8384776311e+00	-8.3438600180e+00	 1.9951627858e-02
-2.1566756826e+00	-8.0256619665e+00	 1.1127888634e-02
-2.4748737342e+00	-7.7074639149e+00	 1.0162263341e-03
-2.7930717857e+00	-7.3892658634e+00	-1.0290087934e-02
-3.1112698372e+00	-7.0710678119e+00	-1.1671698872e-02
-3.4294678888e+00	-6.7528697603e+00	-3.3911222193e-03
-3.7476659403e+00	-6.4346717088e+00	 5.4362720917e-03
-4.0658639918e+00	-6.1164736573e+00	 1.4937962079e-02
-4.3840620433e+00	-5.7982756057e+00	 2.5241421319e-02
-1.0960155108e+00	-8.8741901039e+00	 3.6219475384e-02
-1.4142135624e+00	-8.5559920524e+00	 3.3595484658e-02
-1.7324116139e+00	-8.2377940008e+00	 2.8788981443e-02
-2.0506096655e+00	-7.9195959493e+00	 2.1893234447e-02
-2.3688077170e+00	-7.6013978978e+00	 1.3001512872e-02
-2.6870057685e+00	-7.2831998462e+00	 2.2070864118e-03
-3.0052038201e+00	-6.9650017947e+00	-6.1746463531e-03
-3.3234018716e+00	-6.6468037432e+00	 1.2320397940e-03
-3.6415999231e+00	-6.3286056916e+00	 8.4145164200e-03
-3.9597979746e+00	-6.0104076401e+00	 1.5500261319e-02
-4.2779960262e+00	-5.6922095886e+00	 2.2616747840e-02
-9.8994949367e-01	-8.7681240867e+00	 3.7995127926e-02
-1.3081475452e+00	-8.4499260352e+00	 3.8847189707e-02
-1.6263455967e+00	-8.1317279837e+00	 3.6808689988e-02
-1.9445436483e+00	-7.8135299321e+00	 3.1972896064e-02
-2.2627416998e+00	-7.4953318806e+00	 2.4433075725e-02
-2.5809397513e+00	-7.1771338291e+00	 1.4282497252e-02
-2.8991378029e+00	-6.8589357775e+00	 1.6144294182e-03
-3.2173358544e+00	-6.5407377260e+00	 5.4957252651e-03
-3.5355339059e+00	-6.2225396745e+00	 1.1163976945e-02
-3.8537319575e+00	-5.9043416229e+00	 1.5964469608e-02
-4.1719300090e+00	-5.5861435714e+00	 2.0024676379e-02
-8.8388347649e-01	-8.6620580695e+00	 3.8669209334e-02
-1.2020815280e+00	-8.3438600180e+00	 4.3129285286e-02
-1.5202795796e+00	-8.0256619665e+00	 4.3990750396e-02
-1.8384776311e+00	-7.7074639149e+00	 4.1346870546e-02
-2.1566756826e+00	-7.3892658634e+00	 3.5290912112e-02
-2.4748737342e+00	-7.0710678119e+00	 2.5916141962e-02
-2.7930717857e+00	-6.7528697603e+00	 1.3315827459e-02
-3.1112698372e+00	-6.4346717088e+00	 9.4009220161e-03
-3.4294678888e+00	-6.1164736573e+00	 1.3685641513e-02
-3.7476659403e+00	-5.7982756057e+00	 1.6331574819e-02
-4.0658639918e+00	-5.4800775542e+00	 1.7466194832e-02
-7.7781745932e-01	-8.5559920524e+00	 3.8221716413e-02
-1.0960155109e+00	-8.2377940008e+00	 4.6421768360e-02
-1.4142135624e+00	-7.9195959493e+00	 5.0315159788e-02
-1.7324116139e+00	-7.6013978978e+00	 4.9995155170e-02
-2.0506096655e+00	-7.2831998462e+00	 4.5555019466e-02
-2.3688077170e+00	-6.9650017947e+00	 3.7088018134e-02
-2.6870057685e+00	-6.6468037432e+00	 2.4687417122e-02
-3.0052038200e+00	-6.3286056916e+00	 1.2948617848e-02
-3.3234018716e+00	-6.0104076401e+00	 1.5980497951e-02
-3.6415999231e+00	-5.6922095886e+00	 1.6602564802e-02
-3.9597979746e+00	-5.3740115370e+00	 1.4942291077e-02
-6.7175144214e-01	-8.4499260352e+00	 3.6632646186e-02
-9.8994949368e-01	-8.1317279837e+00	 4.8704636106e-02
-1.3081475452e+00	-7.8135299321e+00	 5.5761915501e-02
-1.6263455967e+00	-7.4953318806e+00	 5.7897747428e-02
-1.9445436483e+00	-7.1771338291e+00	 5.5205395437e-02
-2.2627416998e+00	-6.8589357775e+00	 4.7778123573e-02
-2.5809397513e+00	-6.5407377260e+00	 3.5709196371e-02
-2.8991378029e+00	-6.2225396745e+00	 1.9091878859e-02
-3.2173358544e+00	-5.9043416229e+00	 1.8049534062e-02
-3.5355339059e+00	-5.5861435714e+00	 1.6778427387e-02
-3.8537319574e+00	-5.2679455198e+00	 1.2453952965e-02
-5.6568542496e-01	-8.3438600180e+00	 3.3881995890e-02
-8.8388347650e-01	-8.0256619665e+00	 4.9957885919e-02
-1.2020815280e+00	-7.7074639149e+00	 6.0311015083e-02
-1.5202795796e+00	-7.3892658634e+00	 6.5034645028e-02
-1.8384776311e+00	-7.0710678119e+00	 6.4222037891e-02
-2.1566756826e+00	-6.7528697603e+00	 5.7966456301e-02
-2.4748737342e+00	-6.4346717088e+00	 4.6361163384e-02
-2.7930717857e+00	-6.1164736573e+00	 2.9499422755e-02
-3.1112698372e+00	-5.7982756057e+00	 1.9893737629e-02
-3.4294678887e+00	-5.4800775542e+00	 1.6860150381e-02
-3.7476659403e+00	-5.1618795027e+00	 1.0002168331e-02
-4.5961940778e-01	-8.2377940008e+00	 2.9949762976e-02
-7.7781745932e-01	-7.9195959493e+00	 5.0161515408e-02
-1.0960155109e+00	-7.6013978978e+00	 6.3942456303e-02
-1.4142135624e+00	-7.2831998462e+00	 7.1385845894e-02
-1.7324116139e+00	-6.9650017947e+00	 7.2584944906e-02
-2.0506096655e+00	-6.6468037432e+00	 6.7633014556e-02
-2.3688077170e+00	-6.3286056916e+00	 5.6623316556e-02
-2.6870057685e+00	-6.0104076401e+00	 3.9649113110e-02
-3.0052038200e+00	-5.6922095886e+00	 2.1514096412e-02
-3.3234018716e+00	-5.3740115370e+00	 1.6848721571e-02
-3.6415999231e+00	-5.0558134855e+00	 7.5879249841e-03
-3.5355339060e-01	-8.1317279837e+00	 2.4815945113e-02
-6.7175144214e-01	-7.8135299321e+00	 4.9295522397e-02
-9.8994949368e-01	-7.4953318806e+00	 6.6636237142e-02
-1.3081475452e+00	-7.1771338291e+00	 7.6931348164e-02
-1.6263455967e+00	-6.8589357775e+00	 8.0274114779e-02
-1.9445436483e+00	-6.5407377260e+00	 7.6757796790e-02
-2.2627416998e+00	-6.2225396745e+00	 6.6475654496e-02
-2.5809397513e+00	-5.9043416229e+00	 4.9520948689e-02
-2.8991378029e+00	-5.5861435714e+00	 2.5986940653e-02
-3.2173358544e+00	-5.2679455198e+00	 1.6745128720e-02
-3.5355339059e+00	-4.9497474683e+00	 5.2122107150e-03
 2.8284271247e+00	-1.1313708499e+01	 2.9139288268e-03
 2.5102290732e+00	-1.0995510447e+01	 9.1133287114e-03
 2.1920310217e+00	-1.0677312396e+01	 1.2729345227e-02
 1.8738329701e+00	-1.0359114344e+01	 1.3643456813e-02
 1.5556349186e+00	-1.0040916293e+01	 2.5667975647e-02
 1.2374368671e+00	-9.7227182413e+00	 3.4743773724e-02
 9.1923881554e-01	-9.4045201898e+00	 4.0265525507e-02
 6.0104076401e-01	-9.0863221382e+00	 4.2326486854e-02
 2.8284271248e-01	-8.7681240867e+00	 4.1019914117e-02
-3.5355339061e-02	-8.4499260352e+00	 3.6439064139e-02
-3.5355339060e-01	-8.1317279837e+00	 2.8677194259e-02
 2.8991378028e+00	-1.1242997821e+01	 6.9459926843e-03
 2.5809397513e+00	-1.0924799769e+01	 1.1283607471e-02
 2.2627416998e+00	-1.0606601718e+01	 1.3203416860e-02
 1.9445436483e+00	-1.0288403666e+01	 1.5174397409e-02
 1.6263455967e+00	-9.9702056147e+00	 2.6154342466e-02
 1.3081475452e+00	-9.6520075632e+00	 3.3713104613e-02
 9.8994949366e-01	-9.3338095117e+00	 3.7943938269e-02
 6.7175144213e-01	-9.0156114601e+00	 3.8940098351e-02
 3.5355339060e-01	-8.6974134086e+00	 3.6794840267e-02
 3.5355339059e-02	-8.3792153571e+00	 3.1601419920e-02
-2.8284271248e-01	-8.0610173055e+00	 2.3453093708e-02
 2.9698484809e+00	-1.1172287143e+01	 8.9769808102e-03
 2.6516504294e+00	-1.0854089091e+01	 1.3324711035e-02
 2.3334523779e+00	-1.0535891040e+01	 1.3647264725e-02
 2.0152543264e+00	-1.0217692988e+01	 1.7329318140e-02
 1.6970562748e+00	-9.8994949366e+00	 2.6661575786e-02
 1.3788582233e+00	-9.5812968851e+00	 3.2798769119e-02
 1.0606601718e+00	-9.2630988335e+00	 3.5834151617e-02
 7.4246212025e-01	-8.9449007820e+00	 3.5860977254e-02
 4.2426406872e-01	-8.6267027305e+00	 3.2972500497e-02
 1.0606601718e-01	-8.3085046789e+00	 2.7261976308e-02
-2.1213203436e-01	-7.9903066274e+00	 1.8822660140e-02
 3.0405591591e+00	-1.1101576465e+01	 8.0522772885e-03
 2.7223611075e+00	-1.0783378413e+01	 1.5239680450e-02
 2.4041630560e+00	-1.0465180362e+01	 1.4063929870e-02
 2.0859650045e+00	-1.0146982310e+01	 1.9403711324e-02
 1.7677669530e+00	-9.8287842585e+00	 2.7183748870e-02
 1.4495689014e+00	-9.5105862070e+00	 3.1994840552e-02
 1.1313708499e+00	-9.1923881554e+00	 3.3930238908e-02
 8.1317279837e-01	-8.8741901039e+00	 3.3083196968e-02
 4.9497474684e-01	-8.5559920524e+00	 2.9546968258e-02
 1.7677669530e-01	-8.2377940008e+00	 2.3414806797e-02
-1.4142135624e-01	-7.9195959493e+00	 1.4779967100e-02
 3.1112698372e+00	-1.1030865787e+01	 6.6618252746e-03
 2.7930717857e+00	-1.0712667735e+01	 1.7031556763e-02
 2.4748737341e+00	-1.0394469683e+01	 1.4456453339e-02
 2.1566756826e+00	-1.0076271632e+01	 2.1391650221e-02
 1.8384776311e+00	-9.7580735804e+00	 2.7714935024e-02
 1.5202795796e+00	-9.4398755288e+00	 3.1295392266e-02
 1.2020815280e+00	-9.1216774773e+00	 3.2226273540e-02
 8.8388347649e-01	-8.8034794258e+00	 3.0600830937e-02
 5.6568542496e-01	-8.4852813742e+00	 2.6512317041e-02
 2.4748737342e-01	-8.1670833227e+00	 2.0053984928e-02
-7.0710678120e-02	-7.8488852712e+00	 1.1319088171e-02
 3.1819805153e+00	-1.0960155108e+01	 4.8037604128e-03
 2.8637824638e+00	-1.0641957057e+01	 1.8703381020e-02
 2.5455844123e+00	-1.0323759005e+01	 1.5715249104e-02
 2.2273863607e+00	-1.0005560954e+01	 2.3287208134e-02
 1.9091883092e+00	-9.6873629022e+00	 2.8249207598e-02
 1.5909902577e+00	-9.3691648507e+00	 3.0694497654e-02
 1.2727922061e+00	-9.0509667992e+00	 3.0716328956e-02
 9.5459415461e-01	-8.7327687476e+00	 2.8407952650e-02
 6.3639610308e-01	-8.4145706961e+00	 2.3862620380e-02
 3.1819805154e-01	-8.0963726446e+00	 1.7173584281e-02
 2.7755575616e-17	-7.7781745931e+00	 8.4340969821e-03
 3.2526911934e+00	-1.0889444430e+01	 2.4762183470e-03
 2.9344931419e+00	-1.0571246379e+01	 2.0258194266e-02
 2.6162950904e+00	-1.0253048327e+01	 1.9004436214e-02
 2.2980970389e+00	-9.9348502757e+00	 2.5084458407e-02
 1.9798989873e+00	-9.6166522241e+00	 2.8780639981e-02
 1.6617009358e+00	-9.2984541726e+00	 3.0186230155e-02
 1.3435028843e+00	-8.9802561211e+00	 2.9394478639e-02
 1.0253048327e+00	-8.6620580695e+00	 2.6498635638e-02
 7.0710678120e-01	-8.3438600180e+00	 2.1591951854e-02
 3.8890872966e-01	-8.0256619665e+00	 1.4767678479e-02
 7.0710678120e-02	-7.7074639149e+00	 6.1190672029e-03
 3.3234018715e+00	-1.0818733752e+01	-3.2266527867e-04
 3.0052038200e+00	-1.0500535701e+01	 1.6798899245e-02
 2.6870057685e+00	-1.0182337649e+01	 2.2093921427e-02
 2.3688077170e+00	-9.8641395975e+00	 2.6777474427e-02
 2.0506096654e+00	-9.5459415460e+00	 2.9303305609e-02
 1.7324116139e+00	-9.2277434945e+00	 2.9764663249e-02
 1.4142135624e+00	-8.9095454429e+00	 2.8254796116e-02
 1.0960155109e+00	-8.5913473914e+00	 2.4866953474e-02
 7.7781745932e-01	-8.2731493399e+00	 1.9694385081e-02
 4.5961940778e-01	-7.9549512883e+00	 1.2830341190e-02
 1.4142135624e-01	-7.6367532368e+00	 4.3680725462e-03
 3.3941125497e+00	-1.0748023074e+01	-3.5947548200e-03
 3.0759144981e+00	-1.0429825023e+01	 1.2482169543e-02
 2.7577164466e+00	-1.0111626971e+01	 2.4977778126e-02
 2.4395183951e+00	-9.7934289194e+00	 2.8360329624e-02
 2.1213203436e+00	-9.4752308679e+00	 2.9811277957e-02
 1.8031222920e+00	-9.1570328164e+00	 2.9423870459e-02
 1.4849242405e+00	-8.8388347648e+00	 2.7291354957e-02
 1.1667261890e+00	-8.5206367133e+00	 2.3506979773e-02
 8.4852813744e-01	-8.2024386618e+00	 1.8163993724e-02
 5.3033008590e-01	-7.8842406102e+00	 1.1355646121e-02
 2.1213203436e-01	-7.5660425587e+00	 3.1751867673e-03
 3.4648232278e+00	-1.0677312396e+01	-7.3419146329e-03
 3.1466251763e+00	-1.0359114344e+01	 7.7845266750e-03
 2.8284271247e+00	-1.0040916293e+01	 2.7650079738e-02
 2.5102290732e+00	-9.7227182413e+00	 2.9827097470e-02
 2.1920310217e+00	-9.4045201898e+00	 3.0298630544e-02
 1.8738329702e+00	-9.0863221382e+00	 2.9157925349e-02
 1.5556349186e+00	-8.7681240867e+00	 2.6498228773e-02
 1.2374368671e+00	-8.4499260352e+00	 2.2412788194e-02
 9.1923881556e-01	-8.1317279836e+00	 1.6994851489e-02
 6.0104076402e-01	-7.8135299321e+00	 1.0337667024e-02
 2.8284271248e-01	-7.4953318806e+00	 2.5344836639e-03
 3.5355339059e+00	-1.0606601718e+01	-1.1566009073e-02
 3.2173358544e+00	-1.0288403666e+01	 4.8146132552e-03
 2.8991378029e+00	-9.9702056147e+00	 3.0104899729e-02
 2.5809397513e+00	-9.6520075632e+00	 3.1171851481e-02
 2.2627416998e+00	-9.3338095116e+00	 3.0759436931e-02
 1.9445436483e+00	-9.0156114601e+00	 2.8960901529e-02
 1.6263455967e+00	-8.6974134086e+00	 2.5869491219e-02
 1.3081475452e+00	-8.3792153570e+00	 2.1578452438e-02
 9.8994949368e-01	-8.0610173055e+00	 1.6181032121e-02
 6.7175144214e-01	-7.7428192540e+00	 9.7704776932e-03
 3.5355339060e-01	-7.4246212025e+00	 2.4400370764e-03
-3.5355339060e-01	-8.1317279837e+00	 2.8677194259e-02
-6.7175144214e-01	-7.8135299321e+00	 5.3995547305e-02
-9.8994949368e-01	-7.4953318806e+00	 7.1366205595e-02
-1.3081475452e+00	-7.1771338291e+00	 8.0882427946e-02
-1.6263455967e+00	-6.8589357775e+00	 8.2637473673e-02
-1.9445436483e+00	-6.5407377260e+00	 7.6724602580e-02
-2.2627416998e+00	-6.2225396745e+00	 6.3237074966e-02
-2.5809397513e+00	-5.9043416229e+00	 4.2268151622e-02
-2.8991378029e+00	-5.5861435714e+00	 1.3911093832e-02
-3.2173358544e+00	-5.2679455198e+00	-9.6260007087e-04
-3.5355339059e+00	-4.9497474683e+00	-1.8936232261e-02
-2.8284271248e-01	-8.0610173055e+00	 2.3453093708e-02
-6.0104076402e-01	-7.7428192540e+00	 5.0990273027e-02
-9.1923881556e-01	-7.4246212025e+00	 7.0985163824e-02
-1.2374368671e+00	-7.1064231509e+00	 8.3531023979e-02
-1.5556349186e+00	-6.7882250994e+00	 8.8721111860e-02
-1.8738329702e+00	-6.4700270479e+00	 8.6648686333e-02
-2.1920310217e+00	-6.1518289963e+00	 7.7407006754e-02
-2.5102290732e+00	-5.8336309448e+00	 6.1089332972e-02
-2.8284271247e+00	-5.5154328933e+00	 3.7788925331e-02
-3.1466251763e+00	-5.1972348417e+00	 2.3084022666e-02
-3.4648232278e+00	-4.8790367902e+00	 1.0865511128e-02
-2.1213203436e-01	-7.9903066274e+00	 1.8822660140e-02
-5.3033008590e-01	-7.6721085759e+00	 4.8041690989e-02
-8.4852813744e-01	-7.3539105243e+00	 7.0123839405e-02
-1.1667261890e+00	-7.0357124728e+00	 8.5162362324e-02
-1.4849242405e+00	-6.7175144213e+00	 9.3250517175e-02
-1.8031222920e+00	-6.3993163697e+00	 9.4481561881e-02
-2.1213203436e+00	-6.0811183182e+00	 8.8948754856e-02
-2.4395183951e+00	-5.7629202667e+00	 7.6745355008e-02
-2.7577164466e+00	-5.4447222151e+00	 5.7964621739e-02
-3.0759144981e+00	-5.1265241636e+00	 4.2872312807e-02
-3.3941125497e+00	-4.8083261121e+00	 3.5871382933e-02
-1.4142135624e-01	-7.9195959493e+00	 1.4779967100e-02
-4.5961940778e-01	-7.6013978978e+00	 4.5143874782e-02
-7.7781745932e-01	-7.2831998462e+00	 6.8776305973e-02
-1.0960155109e+00	-6.9650017947e+00	 8.5770516665e-02
-1.4142135624e+00	-6.6468037432e+00	 9.6219763346e-02
-1.7324116139e+00	-6.3286056916e+00	 1.0021730300e-01
-2.0506096654e+00	-6.0104076401e+00	 9.7856393092e-02
-2.3688077170e+00	-5.6922095886e+00	 8.9230291597e-02
-2.6870057685e+00	-5.3740115370e+00	 7.4432256970e-02
-3.0052038200e+00	-5.0558134855e+00	 5.8402563007e-02
-3.3234018715e+00	-4.7376154339e+00	 5.6081675815e-02
-7.0710678120e-02	-7.8488852712e+00	 1.1319088171e-02
-3.8890872966e-01	-7.5306872196e+00	 4.2290898038e-02
-7.0710678120e-01	-7.2124891681e+00	 6.6936637205e-02
-1.0253048327e+00	-6.8942911166e+00	 8.5349560726e-02
-1.3435028843e+00	-6.5760930650e+00	 9.7622924145e-02
-1.6617009358e+00	-6.2578950135e+00	 1.0384998350e-01
-1.9798989873e+00	-5.9396969620e+00	 1.0412399533e-01
-2.2980970389e+00	-5.6214989104e+00	 9.8538216649e-02
-2.6162950904e+00	-5.3033008589e+00	 8.7185904982e-02
-2.9344931419e+00	-4.9851028074e+00	 7.0160318337e-02
-3.2526911934e+00	-4.6669047558e+00	 7.1496682434e-02
 2.7755575616e-17	-7.7781745931e+00	 8.4340969821e-03
-3.1819805154e-01	-7.4599765415e+00	 3.9476834430e-02
-6.3639610308e-01	-7.1417784900e+00	 6.4598906824e-02
-9.5459415461e-01	-6.8235804385e+00	 8.3893568273e-02
-1.2727922061e+00	-6.5053823869e+00	 9.7454073384e-02
-1.5909902577e+00	-6.1871843354e+00	 1.0537367725e-01
-1.9091883092e+00	-5.8689862839e+00	 1.0774563547e-01
-2.2273863607e+00	-5.5507882323e+00	 1.0466320412e-01
-2.5455844123e+00	-5.2325901808e+00	 9.6219639773e-02
-2.8637824638e+00	-4.9143921292e+00	 8.2508199506e-02
-3.1819805153e+00	-4.5961940777e+00	 8.2116695443e-02
 7.0710678120e-02	-7.7074639149e+00	 6.1190672029e-03
-2.4748737342e-01	-7.3892658634e+00	 3.6695757675e-02
-5.6568542496e-01	-7.0710678119e+00	 6.1757188590e-02
-8.8388347649e-01	-6.7528697603e+00	 8.1396613118e-02
-1.2020815280e+00	-6.4346717088e+00	 9.5707284920e-02
-1.5202795796e+00	-6.1164736573e+00	 1.0478245815e-01
-1.8384776311e+00	-5.7982756057e+00	 1.0871538747e-01
-2.1566756826e+00	-5.4800775542e+00	 1.0759932800e-01
-2.4748737341e+00	-5.1618795027e+00	 1.0152753539e-01
-2.7930717857e+00	-4.8436814511e+00	 9.0593265759e-02
-3.1112698372e+00	-4.5254833996e+00	 8.7942007492e-02
 1.4142135624e-01	-7.6367532368e+00	 4.3680725462e-03
-1.7677669530e-01	-7.3185551853e+00	 3.3941741532e-02
-4.9497474684e-01	-7.0003571337e+00	 5.8405556311e-02
-8.1317279837e-01	-6.6821590822e+00	 7.7852769111e-02
-1.1313708499e+00	-6.3639610307e+00	 9.2376632652e-02
-1.4495689014e+00	-6.0457629791e+00	 1.0207040015e-01
-1.7677669530e+00	-5.7275649276e+00	 1.0702732531e-01
-2.0859650045e+00	-5.4093668761e+00	 1.0734066233e-01
-2.4041630560e+00	-5.0911688245e+00	 1.0310366591e-01
-2.7223611075e+00	-4.7729707730e+00	 9.4409591227e-02
-3.0405591591e+00	-4.4547727215e+00	 8.8972911225e-02
 2.1213203436e-01	-7.5660425587e+00	 3.1751867673e-03
-1.0606601718e-01	-7.2478445072e+00	 3.1208859804e-02
-4.2426406872e-01	-6.9296464556e+00	 5.4538083835e-02
-7.4246212025e-01	-6.6114484041e+00	 7.3256110148e-02
-1.0606601718e+00	-6.2932503526e+00	 8.7456190521e-02
-1.3788582233e+00	-5.9750523010e+00	 9.7231577226e-02
-1.6970562748e+00	-5.6568542495e+00	 1.0267552303e-01
-2.0152543264e+00	-5.3386561980e+00	 1.0388128119e-01
-2.3334523779e+00	-5.0204581464e+00	 1.0094210546e-01
-2.6516504294e+00	-4.7022600949e+00	 9.3951250085e-02
-2.9698484809e+00	-4.3840620433e+00	 8.5209699285e-02
 2.8284271248e-01	-7.4953318806e+00	 2.5344836639e-03
-3.5355339059e-02	-7.1771338290e+00	 2.8491186333e-02
-3.5355339060e-01	-6.8589357775e+00	 5.0148845052e-02
-6.7175144213e-01	-6.5407377260e+00	 6.7600710165e-02
-9.8994949366e-01	-6.2225396744e+00	 8.0940032510e-02
-1.3081475452e+00	-5.9043416229e+00	 9.0260063417e-02
-1.6263455967e+00	-5.5861435714e+00	 9.5654054711e-02
-1.9445436483e+00	-5.2679455198e+00	 9.7215258709e-02
-2.2627416998e+00	-4.9497474683e+00	 9.5036928220e-02
-2.5809397513e+00	-4.6315494168e+00	 8.9212316548e-02
-2.8991378028e+00	-4.3133513652e+00	 7.9834677487e-02
 3.5355339060e-01	-7.4246212025e+00	 2.4400370764e-03
 3.5355339061e-02	-7.1064231509e+00	 2.5782795008e-02
-2.8284271248e-01	-6.7882250994e+00	 4.5231913896e-02
-6.0104076401e-01	-6.4700270479e+00	 6.0880643143e-02
-9.1923881554e-01	-6.1518289963e+00	 7.2822232646e-02
-1.2374368671e+00	-5.8336309448e+00	 8.1149932794e-02
-1.5556349186e+00	-5.5154328933e+00	 8.5956994468e-02
-1.8738329701e+00	-5.1972348417e+00	 8.7336669046e-02
-2.1920310217e+00	-4.8790367902e+00	 8.5382208394e-02
-2.5102290732e+00	-4.5608387386e+00	 8.0186864875e-02
-2.8284271247e+00	-4.2426406871e+00	 7.1843891342e-02
 3.5355339059e+00	-1.0606601718e+01	-1.1566009073e-02
 3.2173358544e+00	-1.0288403666e+01	 4.9163412863e-03
 2.8991378029e+00	-9.9702056147e+00	 3.0159850868e-02
 2.5809397513e+00	-9.6520075632e+00	 3.1031520802e-02
 2.2627416998e+00	-9.3338095116e+00	 3.0275319512e-02
 1.9445436483e+00	-9.0156114601e+00	 2.7984492445e-02
 1.6263455967e+00	-8.6974134086e+00	 2.4252285545e-02
 1.3081475452e+00	-8.3792153570e+00	 1.9171945252e-02
 9.8994949368e-01	-8.0610173055e+00	 1.2836718497e-02
 6.7175144214e-01	-7.7428192540e+00	 5.3398527089e-03
 3.5355339060e-01	-7.4246212025e+00	-3.2254041928e-03
 3.6062445840e+00	-1.0535891040e+01	-1.6262227774e-02
 3.2880465325e+00	-1.0217692988e+01	 8.5857950445e-04
 2.9698484810e+00	-9.8994949366e+00	 2.7906908517e-02
 2.6516504295e+00	-9.5812968851e+00	 2.9873312832e-02
 2.3334523779e+00	-9.2630988335e+00	 2.8157829038e-02
 2.0152543264e+00	-8.9449007820e+00	 2.5445384859e-02
 1.6970562749e+00	-8.6267027305e+00	 2.1829225297e-02
 1.3788582233e+00	-8.3085046789e+00	 1.7402595849e-02
 1.0606601718e+00	-7.9903066274e+00	 1.2258742504e-02
 7.4246212026e-01	-7.6721085759e+00	 6.4909117498e-03
 4.2426406872e-01	-7.3539105243e+00	 1.9235056406e-04
 3.6769552621e+00	-1.0465180362e+01	-2.0490372117e-02
 3.3587572106e+00	-1.0146982310e+01	-3.0332382649e-03
 3.0405591591e+00	-9.8287842585e+00	 2.2025825264e-02
 2.7223611076e+00	-9.5105862069e+00	 2.8863329327e-02
 2.4041630560e+00	-9.1923881554e+00	 2.6061815242e-02
 2.0859650045e+00	-8.8741901039e+00	 2.2801006015e-02
 1.7677669530e+00	-8.5559920523e+00	 1.9174145706e-02
 1.4495689014e+00	-8.2377940008e+00	 1.5274478871e-02
 1.1313708499e+00	-7.9195959493e+00	 1.1195250558e-02
 8.1317279838e-01	-7.6013978977e+00	 7.0297063108e-03
 4.9497474684e-01	-7.2831998462e+00	 2.8710921665e-03
 3.7476659403e+00	-1.0394469683e+01	-2.4252306459e-02
 3.4294678887e+00	-1.0076271632e+01	-6.7530567046e-03
 3.1112698372e+00	-9.7580735804e+00	 1.6198493220e-02
 2.7930717857e+00	-9.4398755288e+00	 2.7995643930e-02
 2.4748737342e+00	-9.1216774773e+00	 2.3981351812e-02
 2.1566756826e+00	-8.8034794258e+00	 2.0045429648e-02
 1.8384776311e+00	-8.4852813742e+00	 1.6281120555e-02
 1.5202795796e+00	-8.1670833227e+00	 1.2781668148e-02
 1.2020815280e+00	-7.8488852712e+00	 9.6403165338e-03
 8.8388347649e-01	-7.5306872196e+00	 6.9503103133e-03
 5.6568542496e-01	-7.2124891681e+00	 4.8048945825e-03
 3.8183766184e+00	-1.0323759005e+01	-2.6857476113e-02
 3.5001785669e+00	-1.0005560954e+01	-1.0294820536e-02
 3.1819805153e+00	-9.6873629022e+00	 1.0430967591e-02
 2.8637824638e+00	-9.3691648507e+00	 2.7264330327e-02
 2.5455844123e+00	-9.0509667992e+00	 2.1910512480e-02
 2.2273863607e+00	-8.7327687476e+00	 1.7172729535e-02
 1.9091883092e+00	-8.4145706961e+00	 1.3144223668e-02
 1.5909902577e+00	-8.0963726446e+00	 9.9182375509e-03
 1.2727922061e+00	-7.7781745930e+00	 7.5880143487e-03
 9.5459415461e-01	-7.4599765415e+00	 6.2467977212e-03
 6.3639610307e-01	-7.1417784900e+00	 5.9878318224e-03
 3.8890872965e+00	-1.0253048327e+01	-2.7414330685e-02
 3.5708892450e+00	-9.9348502757e+00	-1.3652474517e-02
 3.2526911934e+00	-9.6166522241e+00	 4.7293035490e-03
 2.9344931419e+00	-9.2984541726e+00	 2.6663462245e-02
 2.6162950904e+00	-8.9802561210e+00	 1.9843371020e-02
 2.2980970389e+00	-8.6620580695e+00	 1.4176979498e-02
 1.9798989873e+00	-8.3438600180e+00	 9.7575289120e-03
 1.6617009358e+00	-8.0256619664e+00	 6.6782609925e-03
 1.3435028843e+00	-7.7074639149e+00	 5.0324179629e-03
 1.0253048327e+00	-7.3892658634e+00	 4.9132425411e-03
 7.0710678119e-01	-7.0710678119e+00	 6.4139779393e-03
 3.9597979746e+00	-1.0182337649e+01	-2.7662771825e-02
 3.6415999231e+00	-9.8641395975e+00	-1.6819963445e-02
 3.3234018716e+00	-9.5459415460e+00	-9.0044377658e-04
 3.0052038200e+00	-9.2277434945e+00	 1.9672684028e-02
 2.6870057685e+00	-8.9095454429e+00	 1.7774001249e-02
 2.3688077170e+00	-8.5913473914e+00	 1.1052253399e-02
 2.0506096654e+00	-8.2731493399e+00	 6.1151101964e-03
 1.7324116139e+00	-7.9549512883e+00	 3.0558124291e-03
 1.4142135624e+00	-7.6367532368e+00	 1.9676013789e-03
 1.0960155108e+00	-7.3185551853e+00	 2.9437188220e-03
 7.7781745930e-01	-7.0003571337e+00	 6.0774070287e-03
 4.0305086527e+00	-1.0111626971e+01	-2.7596744299e-02
 3.7123106012e+00	-9.7934289194e+00	-1.9791232156e-02
 3.3941125497e+00	-9.4752308679e+00	-6.4522192922e-03
 3.0759144981e+00	-9.1570328163e+00	 1.1997192591e-02
 2.7577164466e+00	-8.8388347648e+00	 1.5696477026e-02
 2.4395183951e+00	-8.5206367133e+00	 7.7926251444e-03
 2.1213203436e+00	-8.2024386617e+00	 2.2110414736e-03
 1.8031222920e+00	-7.8842406102e+00	-9.5503414063e-04
 1.4849242405e+00	-7.5660425587e+00	-1.6123613582e-03
 1.1667261890e+00	-7.2478445071e+00	 3.3230065535e-04
 8.4852813742e-01	-6.9296464556e+00	 4.9721932286e-03
 4.1012193309e+00	-1.0040916293e+01	-2.7210192907e-02
 3.7830212793e+00	-9.7227182413e+00	-2.2560225524e-02
 3.4648232278e+00	-9.4045201898e+00	-1.1919967943e-02
 3.1466251763e+00	-9.0863221382e+00	 4.2874795823e-03
 2.8284271247e+00	-8.7681240867e+00	 1.3604872252e-02
 2.5102290732e+00	-8.4499260352e+00	 4.3921686820e-03
 2.1920310217e+00	-8.1317279836e+00	-1.9606032619e-03
 1.8738329701e+00	-7.8135299321e+00	-5.3602046756e-03
 1.5556349186e+00	-7.4953318806e+00	-5.7133961608e-03
 1.2374368671e+00	-7.1771338290e+00	-2.9269378247e-03
 9.1923881553e-01	-6.8589357775e+00	 3.0924107195e-03
 4.1719300090e+00	-9.9702056147e+00	-2.6497062490e-02
 3.8537319574e+00	-9.6520075632e+00	-2.5120888458e-02
 3.5355339059e+00	-9.3338095116e+00	-1.7297634711e-02
 3.2173358544e+00	-9.0156114601e+00	-3.4504000526e-03
 2.8991378028e+00	-8.6974134086e+00	 1.1493260872e-02
 2.5809397513e+00	-8.3792153570e+00	 8.4495800265e-04
 2.2627416998e+00	-8.0610173055e+00	-6.4057499729e-03
 1.9445436482e+00	-7.7428192540e+00	-1.0165625092e-02
 1.6263455967e+00	-7.4246212024e+00	-1.0341428899e-02
 1.3081475452e+00	-7.1064231509e+00	-6.8399224414e-03
 9.8994949364e-01	-6.7882250994e+00	 4.3213372457e-04
 4.2426406871e+00	-9.8994949366e+00	-2.5451297925e-02
 3.9244426356e+00	-9.5812968851e+00	-2.7467165910e-02
 3.6062445840e+00	-9.2630988335e+00	-2.2579164619e-02
 3.2880465325e+00	-8.9449007820e+00	-1.1210391407e-02
 2.9698484809e+00	-8.6267027304e+00	 6.2160668379e-03
 2.6516504294e+00	-8.3085046789e+00	-2.8549328605e-03
 2.3334523779e+00	-7.9903066274e+00	-1.1130324580e-02
 2.0152543263e+00	-7.6721085758e+00	-1.5377221264e-02
 1.6970562748e+00	-7.3539105243e+00	-1.5502385399e-02
 1.3788582233e+00	-7.0357124728e+00	-1.1412578976e-02
 1.0606601717e+00	-6.7175144212e+00	-3.0145634905e-03
 3.5355339060e-01	-7.4246212025e+00	-3.2254041928e-03
 3.5355339061e-02	-7.1064231509e+00	 1.9949719422e-02
-2.8284271248e-01	-6.7882250994e+00	 4.1514072854e-02
-6.0104076401e-01	-6.4700270479e+00	 6.1560905505e-02
-9.1923881554e-01	-6.1518289963e+00	 8.0183467273e-02
-1.2374368671e+00	-5.8336309448e+00	 9.7475008546e-02
-1.5556349186e+00	-5.5154328933e+00	 1.1352878021e-01
-1.8738329701e+00	-5.1972348417e+00	 1.2843803363e-01
-2.1920310217e+00	-4.8790367902e+00	 1.4229602069e-01
-2.5102290732e+00	-4.5608387386e+00	 1.5519599374e-01
-2.8284271247e+00	-4.2426406871e+00	 1.6723120564e-01
 4.2426406872e-01	-7.3539105243e+00	 1.9235056406e-04
 1.0606601718e-01	-7.0357124728e+00	 2.1372477356e-02
-2.1213203436e-01	-6.7175144213e+00	 4.0044563591e-02
-5.3033008589e-01	-6.3993163697e+00	 5.6301857728e-02
-8.4852813743e-01	-6.0811183182e+00	 7.0237608722e-02
-1.1667261890e+00	-5.7629202667e+00	 8.1945066022e-02
-1.4849242405e+00	-5.4447222151e+00	 9.1517479567e-02
-1.8031222920e+00	-5.1265241636e+00	 9.9048099793e-02
-2.1213203435e+00	-4.8083261121e+00	 1.0463017763e-01
-2.4395183951e+00	-4.4901280605e+00	 1.0835696449e-01
-2.7577164466e+00	-4.1719300090e+00	 1.1032171228e-01
 4.9497474684e-01	-7.2831998462e+00	 2.8710921665e-03
 1.7677669530e-01	-6.9650017947e+00	 2.2480896060e-02
-1.4142135624e-01	-6.6468037431e+00	 3.8685388873e-02
-4.5961940778e-01	-6.3286056916e+00	 5.1577818124e-02
-7.7781745931e-01	-6.0104076401e+00	 6.1251431826e-02
-1.0960155108e+00	-5.6922095885e+00	 6.7799478485e-02
-1.4142135624e+00	-5.3740115370e+00	 7.1315207101e-02
-1.7324116139e+00	-5.0558134855e+00	 7.1891867166e-02
-2.0506096654e+00	-4.7376154339e+00	 6.9622708664e-02
-2.3688077170e+00	-4.4194173824e+00	 6.4600982075e-02
-2.6870057685e+00	-4.1012193309e+00	 5.6919938369e-02
 5.6568542496e-01	-7.2124891681e+00	 4.8048945825e-03
 2.4748737342e-01	-6.8942911166e+00	 2.3269049548e-02
-7.0710678121e-02	-6.5760930650e+00	 3.7430622762e-02
-3.8890872966e-01	-6.2578950135e+00	 4.7382860802e-02
-7.0710678119e-01	-5.9396969620e+00	 5.3219010739e-02
-1.0253048327e+00	-5.6214989104e+00	 5.5032320138e-02
-1.3435028843e+00	-5.3033008589e+00	 5.2916037056e-02
-1.6617009358e+00	-4.9851028074e+00	 4.6963410044e-02
-1.9798989873e+00	-4.6669047558e+00	 3.7267688146e-02
-2.2980970389e+00	-4.3487067043e+00	 2.3922120898e-02
-2.6162950904e+00	-4.0305086527e+00	 7.0199583287e-03
 6.3639610307e-01	-7.1417784900e+00	 5.9878318224e-03
 3.1819805153e-01	-6.8235804384e+00	 2.3731011877e-02
-3.6806200449e-12	-6.5053823869e+00	 3.6274339361e-02
-3.1819805154e-01	-6.1871843354e+00	 4.3711059912e-02
-6.3639610308e-01	-5.8689862838e+00	 4.6134419658e-02
-9.5459415461e-01	-5.5507882323e+00	 4.3637665222e-02
-1.2727922061e+00	-5.2325901808e+00	 3.6314043721e-02
-1.5909902577e+00	-4.9143921292e+00	 2.4256802764e-02
-1.9091883092e+00	-4.5961940777e+00	 7.5591904523e-03
-2.2273863608e+00	-4.2779960262e+00	-1.3685544618e-02
-2.5455844123e+00	-3.9597979746e+00	-3.9384153361e-02
 7.0710678119e-01	-7.0710678119e+00	 6.4139779393e-03
 3.8890872965e-01	-6.7528697603e+00	 2.3860857146e-02
 7.0710678113e-02	-6.4346717088e+00	 3.5210612816e-02
-2.4748737342e-01	-6.1164736573e+00	 4.0556489645e-02
-5.6568542496e-01	-5.7982756057e+00	 3.9991732820e-02
-8.8388347650e-01	-5.4800775542e+00	 3.3609588023e-02
-1.2020815280e+00	-5.1618795027e+00	 2.1503301428e-02
-1.5202795796e+00	-4.8436814511e+00	 3.7661197034e-03
-1.8384776311e+00	-4.5254833996e+00	-1.9508709991e-02
-2.1566756826e+00	-4.2072853480e+00	-4.8227940002e-02
-2.4748737342e+00	-3.8890872965e+00	-8.2298322182e-02
 7.7781745930e-01	-7.0003571337e+00	 6.0774070287e-03
 4.5961940777e-01	-6.6821590822e+00	 2.3652659497e-02
 1.4142135623e-01	-6.3639610307e+00	 3.4233517315e-02
-1.7677669531e-01	-6.0457629791e+00	 3.7913224237e-02
-4.9497474684e-01	-5.7275649276e+00	 3.4785024508e-02
-8.1317279838e-01	-5.4093668761e+00	 2.4942162869e-02
-1.1313708499e+00	-5.0911688245e+00	 8.4778845523e-03
-1.4495689015e+00	-4.7729707730e+00	-1.4514564716e-02
-1.7677669530e+00	-4.4547727215e+00	-4.3941938717e-02
-2.0859650045e+00	-4.1365746699e+00	-7.9710990738e-02
-2.4041630561e+00	-3.8183766184e+00	-1.2172847358e-01
 8.4852813742e-01	-6.9296464556e+00	 4.9721932286e-03
 5.3033008588e-01	-6.6114484041e+00	 2.3100493115e-02
 2.1213203434e-01	-6.2932503525e+00	 3.3337127090e-02
-1.0606601719e-01	-5.9750523010e+00	 3.5775337966e-02
-4.2426406873e-01	-5.6568542495e+00	 3.0508369046e-02
-7.4246212026e-01	-5.3386561979e+00	 1.7629464131e-02
-1.0606601718e+00	-5.0204581464e+00	-2.7681324903e-03
-1.3788582233e+00	-4.7022600949e+00	-3.0591176032e-02
-1.6970562749e+00	-4.3840620433e+00	-6.5746421216e-02
-2.0152543264e+00	-4.0658639918e+00	-1.0814062227e-01
-2.3334523780e+00	-3.7476659403e+00	-1.5768053294e-01
 9.1923881553e-01	-6.8589357775e+00	 3.0924107195e-03
 6.0104076399e-01	-6.5407377260e+00	 2.2198432226e-02
 2.8284271246e-01	-6.2225396744e+00	 3.2515516413e-02
-3.5355339075e-02	-5.9043416229e+00	 3.4136905150e-02
-3.5355339061e-01	-5.5861435714e+00	 2.7155840800e-02
-6.7175144215e-01	-5.2679455198e+00	 1.1665566220e-02
-9.8994949368e-01	-4.9497474683e+00	-1.2240675240e-02
-1.3081475452e+00	-4.6315494168e+00	-4.4469639737e-02
-1.6263455968e+00	-4.3133513652e+00	-8.4928082935e-02
-1.9445436483e+00	-3.9951533137e+00	-1.3352276000e-01
-2.2627416998e+00	-3.6769552621e+00	-1.9016042562e-01
 9.8994949364e-01	-6.7882250994e+00	 4.3213372457e-04
 6.7175144211e-01	-6.4700270478e+00	 2.0940551102e-02
 3.5355339057e-01	-6.1518289963e+00	 3.1762759602e-02
 3.5355339040e-02	-5.8336309448e+00	 3.2992000154e-02
-2.8284271249e-01	-5.5154328932e+00	 2.4721514180e-02
-6.0104076403e-01	-5.1972348417e+00	 7.0445435941e-03
-9.1923881557e-01	-4.8790367902e+00	-1.9945669195e-02
-1.2374368671e+00	-4.5608387386e+00	-5.6155881284e-02
-1.5556349186e+00	-4.2426406871e+00	-1.0149284928e-01
-1.8738329702e+00	-3.9244426356e+00	-1.5586332929e-01
-2.1920310217e+00	-3.6062445840e+00	-2.1917407417e-01
 1.0606601717e+00	-6.7175144212e+00	-3.0145634905e-03
 7.4246212022e-01	-6.3993163697e+00	 1.9320924052e-02
 4.2426406869e-01	-6.0811183182e+00	 3.1072931014e-02
 1.0606601716e-01	-5.7629202667e+00	 3.2334697382e-02
-2.1213203438e-01	-5.4447222151e+00	 2.3199463636e-02
-5.3033008591e-01	-5.1265241636e+00	 3.7604707497e-03
-8.4852813745e-01	-4.8083261121e+00	-2.5889039810e-02
-1.1667261890e+00	-4.4901280605e+00	-6.5655826082e-02
-1.4849242405e+00	-4.1719300090e+00	-1.1544664561e-01
-1.8031222921e+00	-3.8537319574e+00	-1.7516825546e-01
-2.1213203436e+00	-3.5355339059e+00	-2.4472741136e-01
 4.2426406871e+00	-9.8994949366e+00	-2.5451297925e-02
 3.9244426356e+00	-9.5812968851e+00	-3.1392121094e-02
 3.6062445840e+00	-9.2630988335e+00	-2.9259439522e-02
 3.2880465325e+00	-8.9449007820e+00	-1.9476350562e-02
 2.9698484809e+00	-8.6267027304e+00	-2.4659411048e-03
 2.6516504294e+00	-8.3085046789e+00	-1.0783354124e-02
 2.3334523779e+00	-7.9903066274e+00	-1.7135523697e-02
 2.0152543263e+00	-7.6721085758e+00	-1.8289562769e-02
 1.6970562748e+00	-7.3539105243e+00	-1.4152233824e-02
 1.3788582233e+00	-7.0357124728e+00	-4.6302988527e-03
 1.0606601717e+00	-6.7175144212e+00	 1.0369480649e-02
 4.3840620433e+00	-9.7580735804e+00	-2.2040367178e-02
 4.0658639918e+00	-9.4398755288e+00	-2.9923314974e-02
 3.7476659403e+00	-9.1216774773e+00	-3.0234198018e-02
 3.4294678887e+00	-8.8034794258e+00	-2.3396110765e-02
 3.1112698372e+00	-8.4852813742e+00	-9.8321372062e-03
 2.7930717857e+00	-8.1670833227e+00	-6.5342651204e-03
 2.4748737341e+00	-7.8488852712e+00	-1.7194435633e-02
 2.1566756826e+00	-7.5306872196e+00	-2.2996170968e-02
 1.8384776311e+00	-7.2124891681e+00	-2.3846235494e-02
 1.5202795795e+00	-6.8942911166e+00	-1.9651393085e-02
 1.2020815280e+00	-6.5760930650e+00	-1.0318407119e-02
 4.5254833996e+00	-9.6166522241e+00	-1.9650973205e-02
 4.2072853480e+00	-9.2984541726e+00	-2.9252989724e-02
 3.8890872965e+00	-8.9802561211e+00	-3.1784381309e-02
 3.5708892450e+00	-8.6620580695e+00	-2.7668239518e-02
 3.2526911934e+00	-8.3438600180e+00	-1.7327645442e-02
 2.9344931419e+00	-8.0256619665e+00	-1.9114841489e-03
 2.6162950904e+00	-7.7074639149e+00	-1.6690594467e-02
 2.2980970388e+00	-7.3892658634e+00	-2.6950965523e-02
 1.9798989873e+00	-7.0710678119e+00	-3.2599363568e-02
 1.6617009358e+00	-6.7528697603e+00	-3.3542554360e-02
 1.3435028842e+00	-6.4346717088e+00	-2.9687303160e-02
 4.6669047558e+00	-9.4752308679e+00	-1.8234676405e-02
 4.3487067043e+00	-9.1570328164e+00	-2.9332706312e-02
 4.0305086527e+00	-8.8388347648e+00	-3.3861550936e-02
 3.7123106012e+00	-8.5206367133e+00	-3.2244298934e-02
 3.3941125497e+00	-8.2024386618e+00	-2.4904028498e-02
 3.0759144981e+00	-7.8842406102e+00	-1.2263807361e-02
 2.7577164466e+00	-7.5660425587e+00	-1.5671406031e-02
 2.4395183951e+00	-7.2478445072e+00	-3.0201351894e-02
 2.1213203435e+00	-6.9296464556e+00	-4.0459023135e-02
 1.8031222920e+00	-6.6114484041e+00	-4.6351187395e-02
 1.4849242405e+00	-6.2932503526e+00	-4.7784611819e-02
 4.8083261121e+00	-9.3338095116e+00	-1.7743037782e-02
 4.4901280605e+00	-9.0156114601e+00	-3.0114026318e-02
 4.1719300090e+00	-8.6974134086e+00	-3.6417269051e-02
 3.8537319574e+00	-8.3792153571e+00	-3.7075851737e-02
 3.5355339059e+00	-8.0610173055e+00	-3.2512849674e-02
 3.2173358544e+00	-7.7428192540e+00	-2.3151327692e-02
 2.8991378028e+00	-7.4246212025e+00	-1.4184275476e-02
 2.5809397513e+00	-7.1064231509e+00	-3.2794734859e-02
 2.2627416998e+00	-6.7882250994e+00	-4.7472618601e-02
 1.9445436482e+00	-6.4700270479e+00	-5.8124696224e-02
 1.6263455967e+00	-6.1518289963e+00	-6.4657736758e-02
 4.9497474683e+00	-9.1923881554e+00	-1.8127618953e-02
 4.6315494168e+00	-8.8741901039e+00	-3.1548511931e-02
 4.3133513652e+00	-8.5559920524e+00	-3.9403098415e-02
 3.9951533137e+00	-8.2377940008e+00	-4.2114461264e-02
 3.6769552621e+00	-7.9195959493e+00	-4.0105672875e-02
 3.3587572106e+00	-7.6013978978e+00	-3.3799795182e-02
 3.0405591591e+00	-7.2831998462e+00	-2.3619879655e-02
 2.7223611075e+00	-6.9650017947e+00	-3.4778518517e-02
 2.4041630560e+00	-6.6468037432e+00	-5.3687553692e-02
 2.0859650045e+00	-6.3286056916e+00	-6.8910484202e-02
 1.7677669529e+00	-6.0104076401e+00	-8.0354080960e-02
 5.0911688245e+00	-9.0509667992e+00	-1.9339982143e-02
 4.7729707730e+00	-8.7327687477e+00	-3.3587725948e-02
 4.4547727215e+00	-8.4145706961e+00	-4.2770602399e-02
 4.1365746699e+00	-8.0963726446e+00	-4.7311691456e-02
 3.8183766184e+00	-7.7781745931e+00	-4.7634062618e-02
 3.5001785669e+00	-7.4599765415e+00	-4.4160774920e-02
 3.1819805153e+00	-7.1417784900e+00	-3.7314876934e-02
 2.8637824638e+00	-6.8235804385e+00	-3.6200106285e-02
 2.5455844123e+00	-6.5053823869e+00	-5.9151231454e-02
 2.2273863607e+00	-6.1871843354e+00	-7.8755954003e-02
 1.9091883092e+00	-5.8689862839e+00	-9.4921046728e-02
 5.2325901808e+00	-8.9095454429e+00	-2.1331690189e-02
 4.9143921292e+00	-8.5913473914e+00	-3.6183231779e-02
 4.5961940777e+00	-8.2731493399e+00	-4.6471344985e-02
 4.2779960262e+00	-7.9549512884e+00	-5.2619106868e-02
 3.9597979746e+00	-7.6367532368e+00	-5.5049584030e-02
 3.6415999231e+00	-7.3185551853e+00	-5.4185832605e-02
 3.3234018716e+00	-7.0003571338e+00	-5.0450898269e-02
 3.0052038200e+00	-6.6821590822e+00	-4.4267816233e-02
 2.6870057685e+00	-6.3639610307e+00	-6.3911054253e-02
 2.3688077170e+00	-6.0457629792e+00	-8.7708507622e-02
 2.0506096654e+00	-5.7275649276e+00	-1.0840603568e-01
 5.3740115370e+00	-8.7681240867e+00	-2.4054306535e-02
 5.0558134855e+00	-8.4499260352e+00	-3.9286593441e-02
 4.7376154339e+00	-8.1317279837e+00	-5.0456890763e-02
 4.4194173824e+00	-7.8135299321e+00	-5.7988272664e-02
 4.1012193309e+00	-7.4953318806e+00	-6.2303802846e-02
 3.7830212793e+00	-7.1771338291e+00	-6.3826534547e-02
 3.4648232278e+00	-6.8589357775e+00	-6.2979510542e-02
 3.1466251763e+00	-6.5407377260e+00	-6.0185763146e-02
 2.8284271247e+00	-6.2225396745e+00	-6.8014423775e-02
 2.5102290732e+00	-5.9043416229e+00	-9.5815546370e-02
 2.1920310217e+00	-5.5861435714e+00	-1.2085644877e-01
 5.5154328933e+00	-8.6267027305e+00	-2.7459395237e-02
 5.1972348417e+00	-8.3085046790e+00	-4.2849375563e-02
 4.8790367902e+00	-7.9903066274e+00	-5.4678804934e-02
 4.5608387386e+00	-7.6721085759e+00	-6.3370754617e-02
 4.2426406871e+00	-7.3539105244e+00	-6.9348285413e-02
 3.9244426356e+00	-7.0357124728e+00	-7.3034447663e-02
 3.6062445840e+00	-6.7175144213e+00	-7.4852281245e-02
 3.2880465325e+00	-6.3993163698e+00	-7.5224815573e-02
 2.9698484810e+00	-6.0811183182e+00	-7.4575069605e-02
 2.6516504294e+00	-5.7629202667e+00	-1.0312447088e-01
 2.3334523779e+00	-5.4447222151e+00	-1.3231968624e-01
 5.6568542495e+00	-8.4852813743e+00	-3.1498520960e-02
 5.3386561980e+00	-8.1670833227e+00	-4.6823143381e-02
 5.0204581464e+00	-7.8488852712e+00	-5.9088653308e-02
 4.7022600949e+00	-7.5306872197e+00	-6.8718119108e-02
 4.3840620433e+00	-7.2124891681e+00	-7.6134598686e-02
 4.0658639918e+00	-6.8942911166e+00	-8.1761139483e-02
 3.7476659403e+00	-6.5760930651e+00	-8.6020778477e-02
 3.4294678887e+00	-6.2578950135e+00	-8.9336542188e-02
 3.1112698372e+00	-5.9396969620e+00	-9.2131446672e-02
 2.7930717857e+00	-5.6214989104e+00	-1.0968268111e-01
 2.4748737342e+00	-5.3033008589e+00	-1.4284314769e-01
 1.0606601717e+00	-6.7175144212e+00	 1.0369480649e-02
 7.4246212022e-01	-6.3993163697e+00	 3.7808688620e-02
 4.2426406869e-01	-6.0811183182e+00	 5.0498693363e-02
 1.0606601716e-01	-5.7629202667e+00	 4.8532734865e-02
-2.1213203438e-01	-5.4447222151e+00	 3.2004053605e-02
-5.3033008591e-01	-5.1265241636e+00	 1.0058905581e-03
-8.4852813745e-01	-4.8083261121e+00	-4.4368512810e-02
-1.1667261890e+00	-4.4901280605e+00	-1.0402591454e-01
-1.4849242405e+00	-4.1719300090e+00	-1.7787307218e-01
-1.8031222921e+00	-3.8537319574e+00	-2.6581674277e-01
-2.1213203436e+00	-3.5355339059e+00	-3.6776368208e-01
 1.2020815280e+00	-6.5760930650e+00	-1.0318407119e-02
 8.8388347646e-01	-6.2578950135e+00	 1.6603267628e-02
 5.6568542493e-01	-5.9396969620e+00	 2.9078588559e-02
 2.4748737340e-01	-5.6214989104e+00	 2.7200793778e-02
-7.0710678138e-02	-5.3033008589e+00	 1.1063121882e-02
-3.8890872967e-01	-4.9851028073e+00	-1.9241188038e-02
-7.0710678121e-01	-4.6669047558e+00	-6.3618896399e-02
-1.0253048327e+00	-4.3487067043e+00	-1.2197676312e-01
-1.3435028843e+00	-4.0305086527e+00	-1.9422154764e-01
-1.6617009358e+00	-3.7123106012e+00	-2.8026000889e-01
-1.9798989874e+00	-3.3941125497e+00	-3.8214354730e-01
 1.3435028842e+00	-6.4346717088e+00	-2.9687303160e-02
 1.0253048327e+00	-6.1164736573e+00	-3.2189684398e-03
 7.0710678117e-01	-5.7982756057e+00	 9.1058612878e-03
 3.8890872964e-01	-5.4800775542e+00	 7.3804222422e-03
 7.0710678102e-02	-5.1618795026e+00	-8.3020488626e-03
-2.4748737343e-01	-4.8436814511e+00	-3.7848314819e-02
-5.6568542497e-01	-4.5254833996e+00	-8.1165137927e-02
-8.8388347650e-01	-4.2072853480e+00	-1.3815927999e-01
-1.2020815280e+00	-3.8890872965e+00	-2.0873750232e-01
-1.5202795796e+00	-3.5708892450e+00	-2.9280656467e-01
-1.8384776311e+00	-3.2526911934e+00	-3.9788348334e-01
 1.4849242405e+00	-6.2932503526e+00	-4.7784611819e-02
 1.1667261889e+00	-5.9750523010e+00	-2.1705423554e-02
 8.4852813741e-01	-5.6568542495e+00	-9.4668920498e-03
 5.3033008588e-01	-5.3386561979e+00	-1.0975782971e-02
 2.1213203434e-01	-5.0204581464e+00	-2.6138861486e-02
-1.0606601719e-01	-4.7022600949e+00	-5.4862892271e-02
-4.2426406873e-01	-4.3840620433e+00	-9.7054639507e-02
-7.4246212026e-01	-4.0658639918e+00	-1.5262086688e-01
-1.0606601718e+00	-3.7476659403e+00	-2.2146833760e-01
-1.3788582233e+00	-3.4294678887e+00	-3.0428494704e-01
-1.6970562749e+00	-3.1112698372e+00	-4.1147836268e-01
 1.6263455967e+00	-6.1518289963e+00	-6.4657736758e-02
 1.3081475452e+00	-5.8336309448e+00	-3.8903501005e-02
 9.8994949365e-01	-5.5154328932e+00	-2.6687074374e-02
 6.7175144212e-01	-5.1972348417e+00	-2.7915224409e-02
 3.5355339058e-01	-4.8790367902e+00	-4.2494718164e-02
 3.5355339047e-02	-4.5608387386e+00	-7.0332322196e-02
-2.8284271249e-01	-4.2426406871e+00	-1.1133480257e-01
-6.0104076402e-01	-3.9244426356e+00	-1.6540892486e-01
-9.1923881556e-01	-3.6062445840e+00	-2.3246145343e-01
-1.2374368671e+00	-3.2880465325e+00	-3.1889148583e-01
-1.5556349186e+00	-2.9698484809e+00	-4.2292818532e-01
 1.7677669529e+00	-6.0104076401e+00	-8.0354080960e-02
 1.4495689014e+00	-5.6922095885e+00	-5.4860603406e-02
 1.1313708499e+00	-5.3740115370e+00	-4.2602087923e-02
 8.1317279836e-01	-5.0558134855e+00	-4.3485303939e-02
 4.9497474682e-01	-4.7376154339e+00	-5.7417020391e-02
 1.7677669529e-01	-4.4194173824e+00	-8.4304005719e-02
-1.4142135625e-01	-4.1012193309e+00	-1.2405302787e-01
-4.5961940778e-01	-3.7830212793e+00	-1.7657085430e-01
-7.7781745932e-01	-3.4648232278e+00	-2.4176425197e-01
-1.0960155109e+00	-3.1466251762e+00	-3.3142329412e-01
-1.4142135624e+00	-2.8284271247e+00	-4.3223295126e-01
 1.9091883092e+00	-5.8689862839e+00	-9.4921046728e-02
 1.5909902577e+00	-5.5507882323e+00	-6.9624132686e-02
 1.2727922061e+00	-5.2325901808e+00	-5.7259334256e-02
 9.5459415460e-01	-4.9143921292e+00	-5.7733422749e-02
 6.3639610306e-01	-4.5961940777e+00	-7.0953168983e-02
 3.1819805153e-01	-4.2779960262e+00	-9.6825343284e-02
-8.0017104054e-12	-3.9597979746e+00	-1.3525671548e-01
-3.1819805154e-01	-3.6415999231e+00	-1.8615405491e-01
-6.3639610308e-01	-3.3234018716e+00	-2.5458923533e-01
-9.5459415462e-01	-3.0052038200e+00	-3.4188037190e-01
-1.2727922062e+00	-2.6870057685e+00	-4.3939266050e-01
 2.0506096654e+00	-5.7275649276e+00	-1.0840603568e-01
 1.7324116139e+00	-5.4093668761e+00	-8.3241490096e-02
 1.4142135624e+00	-5.0911688245e+00	-7.0706214252e-02
 1.0960155108e+00	-4.7729707730e+00	-7.0706981344e-02
 7.7781745930e-01	-4.4547727215e+00	-8.3150564075e-02
 4.5961940777e-01	-4.1365746699e+00	-1.0794373465e-01
 1.4142135623e-01	-3.8183766184e+00	-1.4499326479e-01
-1.7677669530e-01	-3.5001785669e+00	-1.9420592583e-01
-4.9497474684e-01	-3.1819805153e+00	-2.6611643611e-01
-8.1317279838e-01	-2.8637824638e+00	-3.5026271918e-01
-1.1313708499e+00	-2.5455844122e+00	-4.4440731305e-01
 2.1920310217e+00	-5.5861435714e+00	-1.2085644877e-01
 1.8738329701e+00	-5.2679455198e+00	-9.5760076206e-02
 1.5556349186e+00	-4.9497474683e+00	-8.2990128108e-02
 1.2374368671e+00	-4.6315494168e+00	-8.2453379552e-02
 9.1923881554e-01	-4.3133513652e+00	-9.4056605121e-02
 6.0104076401e-01	-3.9951533137e+00	-1.1770657891e-01
 2.8284271247e-01	-3.6769552622e+00	-1.5331007450e-01
-3.5355339065e-02	-3.3587572106e+00	-2.0448359879e-01
-3.5355339060e-01	-3.0405591591e+00	-2.7563923258e-01
-6.7175144214e-01	-2.7223611075e+00	-3.5657033595e-01
-9.8994949368e-01	-2.4041630560e+00	-4.4727690890e-01
 2.3334523779e+00	-5.4447222151e+00	-1.3231968624e-01
 2.0152543264e+00	-5.1265241636e+00	-1.0722729090e-01
 1.6970562748e+00	-4.8083261121e+00	-9.4158475343e-02
 1.3788582233e+00	-4.4901280605e+00	-9.3020016518e-02
 1.0606601718e+00	-4.1719300090e+00	-1.0371869090e-01
 7.4246212025e-01	-3.8537319574e+00	-1.2616127445e-01
 4.2426406871e-01	-3.5355339059e+00	-1.6025454349e-01
 1.0606601718e-01	-3.2173358544e+00	-2.1506465561e-01
-2.1213203436e-01	-2.8991378028e+00	-2.8315762474e-01
-5.3033008590e-01	-2.5809397513e+00	-3.6080322222e-01
-8.4852813744e-01	-2.2627416998e+00	-4.4800144805e-01
 2.4748737342e+00	-5.3033008589e+00	-1.4284314769e-01
 2.1566756826e+00	-4.9851028074e+00	-1.1769053340e-01
 1.8384776311e+00	-4.6669047558e+00	-1.0425865479e-01
 1.5202795796e+00	-4.3487067043e+00	-1.0245429071e-01
 1.2020815280e+00	-4.0305086527e+00	-1.1218421949e-01
 8.8388347649e-01	-3.7123106012e+00	-1.3335521901e-01
 5.6568542495e-01	-3.3941125497e+00	-1.6808144317e-01
 2.4748737342e-01	-3.0759144981e+00	-2.2371163432e-01
-7.0710678122e-02	-2.7577164466e+00	-2.8867161259e-01
-3.8890872966e-01	-2.4395183951e+00	-3.6296137798e-01
-7.0710678120e-01	-2.1213203435e+00	-4.4658093049e-01
 5.6568542495e+00	-8.4852813743e+00	-3.1498520960e-02
 5.3386561980e+00	-8.1670833227e+00	-4.6823143381e-02
 5.0204581464e+00	-7.8488852712e+00	-5.9088653308e-02
 4.7022600949e+00	-7.5306872197e+00	-6.8718119108e-02
 4.3840620433e+00	-7.2124891681e+00	-7.6134598686e-02
 4.0658639918e+00	-6.8942911166e+00	-8.1761139483e-02
 3.7476659403e+00	-6.5760930651e+00	-8.6020778477e-02
 3.4294678887e+00	-6.2578950135e+00	-8.9336542188e-02
 3.1112698372e+00	-5.9396969620e+00	-9.2131446672e-02
 2.7930717857e+00	-5.6214989104e+00	-1.0968268111e-01
 2.4748737342e+00	-5.3033008589e+00	-1.4284314769e-01
 5.7982756057e+00	-8.3438600180e+00	-3.6142464012e-02
 5.4800775542e+00	-8.0256619665e+00	-5.1013148452e-02
 5.1618795027e+00	-7.7074639150e+00	-6.3318535193e-02
 4.8436814511e+00	-7.3892658634e+00	-7.3481689703e-02
 4.5254833996e+00	-7.0710678119e+00	-8.1925666989e-02
 4.2072853481e+00	-6.7528697604e+00	-8.9073511593e-02
 3.8890872965e+00	-6.4346717088e+00	-9.5348257596e-02
 3.5708892450e+00	-6.1164736573e+00	-1.0117292862e-01
 3.2526911935e+00	-5.7982756057e+00	-1.0697053782e-01
 2.9344931419e+00	-5.4800775542e+00	-1.1379258158e-01
 2.6162950904e+00	-5.1618795027e+00	-1.5049509648e-01
 5.9396969620e+00	-8.2024386618e+00	-4.1362005311e-02
 5.6214989104e+00	-7.8842406103e+00	-5.5537104343e-02
 5.3033008589e+00	-7.5660425587e+00	-6.7640720301e-02
 4.9851028074e+00	-7.2478445072e+00	-7.8095915755e-02
 4.6669047558e+00	-6.9296464556e+00	-8.7325742813e-02
 4.3487067043e+00	-6.6114484041e+00	-9.5753243118e-02
 4.0305086528e+00	-6.2932503526e+00	-1.0380144785e-01
 3.7123106012e+00	-5.9750523010e+00	-1.1189337774e-01
 3.3941125497e+00	-5.6568542495e+00	-1.2045204304e-01
 3.0759144982e+00	-5.3386561980e+00	-1.2990044356e-01
 2.7577164466e+00	-5.0204581464e+00	-1.5715452394e-01
 6.0811183182e+00	-8.0610173056e+00	-4.7108711350e-02
 5.7629202667e+00	-7.7428192540e+00	-6.0346578120e-02
 5.4447222151e+00	-7.4246212025e+00	-7.2006776272e-02
 5.1265241636e+00	-7.1064231509e+00	-8.2512365477e-02
 4.8083261121e+00	-6.7882250994e+00	-9.2286394942e-02
 4.4901280605e+00	-6.4700270479e+00	-1.0175190341e-01
 4.1719300090e+00	-6.1518289963e+00	-1.1133191918e-01
 3.8537319575e+00	-5.8336309448e+00	-1.2144946006e-01
 3.5355339059e+00	-5.5154328933e+00	-1.3252753342e-01
 3.2173358544e+00	-5.1972348417e+00	-1.4498913617e-01
 2.8991378029e+00	-4.8790367902e+00	-1.6286882762e-01
 6.2225396745e+00	-7.9195959493e+00	-5.3334149234e-02
 5.9043416229e+00	-7.6013978978e+00	-6.5393137461e-02
 5.5861435714e+00	-7.2831998462e+00	-7.6368271356e-02
 5.2679455198e+00	-6.9650017947e+00	-8.6682607689e-02
 4.9497474683e+00	-6.6468037432e+00	-9.6759192772e-02
 4.6315494168e+00	-6.3286056916e+00	-1.0702106245e-01
 4.3133513652e+00	-6.0104076401e+00	-1.1789124212e-01
 3.9951533137e+00	-5.6922095886e+00	-1.2979274669e-01
 3.6769552622e+00	-5.3740115370e+00	-1.4314858064e-01
 3.3587572106e+00	-5.0558134855e+00	-1.5838173797e-01
 3.0405591591e+00	-4.7376154339e+00	-1.7591520223e-01
 6.3639610307e+00	-7.7781745931e+00	-5.9989886675e-02
 6.0457629792e+00	-7.4599765415e+00	-7.0628350652e-02
 5.7275649276e+00	-7.1417784900e+00	-8.0676774410e-02
 5.4093668761e+00	-6.8235804385e+00	-9.0558211823e-02
 5.0911688245e+00	-6.5053823869e+00	-1.0069570630e-01
 4.7729707730e+00	-6.1871843354e+00	-1.1151229080e-01
 4.4547727215e+00	-5.8689862839e+00	-1.2343098781e-01
 4.1365746699e+00	-5.5507882323e+00	-1.3687480935e-01
 3.8183766184e+00	-5.2325901808e+00	-1.5226675699e-01
 3.5001785669e+00	-4.9143921292e+00	-1.7002982184e-01
 3.1819805154e+00	-4.5961940777e+00	-1.9058698454e-01
 6.5053823869e+00	-7.6367532369e+00	-6.7027491998e-02
 6.1871843354e+00	-7.3185551853e+00	-7.6003786587e-02
 5.8689862839e+00	-7.0003571338e+00	-8.4883854903e-02
 5.5507882323e+00	-6.6821590822e+00	-9.4090747921e-02
 5.2325901808e+00	-6.3639610307e+00	-1.0404750616e-01
 4.9143921293e+00	-6.0457629792e+00	-1.1517715966e-01
 4.5961940777e+00	-5.7275649276e+00	-1.2790272802e-01
 4.2779960262e+00	-5.4093668761e+00	-1.4264722037e-01
 3.9597979747e+00	-5.0911688246e+00	-1.5983363537e-01
 3.6415999231e+00	-4.7729707730e+00	-1.7988496125e-01
 3.3234018716e+00	-4.4547727215e+00	-2.0322417574e-01
 6.6468037432e+00	-7.4953318806e+00	-7.4398534136e-02
 6.3286056916e+00	-7.1771338291e+00	-8.1471014773e-02
 6.0104076401e+00	-6.8589357775e+00	-8.8941082913e-02
 5.6922095886e+00	-6.5407377260e+00	-9.7231786633e-02
 5.3740115370e+00	-6.2225396745e+00	-1.0676616355e-01
 5.0558134855e+00	-5.9043416229e+00	-1.1796724081e-01
 4.7376154340e+00	-5.5861435714e+00	-1.3125803511e-01
 4.4194173824e+00	-5.2679455199e+00	-1.4706155269e-01
 4.1012193309e+00	-4.9497474683e+00	-1.6580078931e-01
 3.7830212794e+00	-4.6315494168e+00	-1.8789873029e-01
 3.4648232278e+00	-4.3133513652e+00	-2.1377835047e-01
 6.7882250994e+00	-7.3539105244e+00	-8.2054582630e-02
 6.4700270479e+00	-7.0357124728e+00	-8.6981605325e-02
 6.1518289963e+00	-6.7175144213e+00	-9.2800029128e-02
 5.8336309448e+00	-6.3993163698e+00	-9.9932899218e-02
 5.5154328933e+00	-6.0811183182e+00	-1.0880325031e-01
 5.1972348417e+00	-5.7629202667e+00	-1.1983410666e-01
 4.8790367902e+00	-5.4447222152e+00	-1.3344848207e-01
 4.5608387387e+00	-5.1265241636e+00	-1.5006937986e-01
 4.2426406871e+00	-4.8083261121e+00	-1.7011979292e-01
 3.9244426356e+00	-4.4901280605e+00	-1.9402270365e-01
 3.6062445841e+00	-4.1719300090e+00	-2.2220108401e-01
 6.9296464557e+00	-7.2124891681e+00	-8.9947207633e-02
 6.6114484041e+00	-6.8942911166e+00	-9.2487128967e-02
 6.2932503526e+00	-6.5760930651e+00	-9.6412264846e-02
 5.9750523010e+00	-6.2578950135e+00	-1.0214565755e-01
 5.6568542495e+00	-5.9396969620e+00	-1.1011033889e-01
 5.3386561980e+00	-5.6214989104e+00	-1.2072933024e-01
 5.0204581464e+00	-5.3033008589e+00	-1.3442564247e-01
 4.7022600949e+00	-4.9851028074e+00	-1.5162227605e-01
 4.3840620434e+00	-4.6669047558e+00	-1.7274222093e-01
 4.0658639918e+00	-4.3487067043e+00	-1.9820845663e-01
 3.7476659403e+00	-4.0305086528e+00	-2.2844395222e-01
 7.0710678119e+00	-7.0710678119e+00	-9.8027979906e-02
 6.7528697604e+00	-6.7528697604e+00	-9.7939157035e-02
 6.4346717088e+00	-6.4346717088e+00	-9.9729361972e-02
 6.1164736573e+00	-6.1164736573e+00	-1.0382163410e-01
 5.7982756057e+00	-5.7982756057e+00	-1.1063900234e-01
 5.4800775542e+00	-5.4800775542e+00	-1.2060448515e-01
 5.1618795027e+00	-5.1618795027e+00	-1.3414109053e-01
 4.8436814511e+00	-4.8436814511e+00	-1.5167181601e-01
 4.5254833996e+00	-4.5254833996e+00	-1.7361964869e-01
 4.2072853481e+00	-4.2072853481e+00	-2.0040756516e-01
 3.8890872966e+00	-3.8890872966e+00	-2.3245853160e-01
 2.4748737342e+00	-5.3033008589e+00	-1.4284314769e-01
 2.1566756826e+00	-4.9851028074e+00	-1.1769053340e-01
 1.8384776311e+00	-4.6669047558e+00	-1.0425865479e-01
 1.5202795796e+00	-4.3487067043e+00	-1.0245429071e-01
 1.2020815280e+00	-4.0305086527e+00	-1.1218421949e-01
 8.8388347649e-01	-3.7123106012e+00	-1.3335521901e-01
 5.6568542495e-01	-3.3941125497e+00	-1.6808144317e-01
 2.4748737342e-01	-3.0759144981e+00	-2.2371163432e-01
-7.0710678122e-02	-2.7577164466e+00	-2.8867161259e-01
-3.8890872966e-01	-2.4395183951e+00	-3.6296137798e-01
-7.0710678120e-01	-2.1213203435e+00	-4.4658093049e-01
 2.6162950904e+00	-5.1618795027e+00	-1.5049509648e-01
 2.2980970389e+00	-4.8436814511e+00	-1.2492392563e-01
 1.9798989873e+00	-4.5254833996e+00	-1.1021794760e-01
 1.6617009358e+00	-4.2072853480e+00	-1.0628394313e-01
 1.3435028843e+00	-3.8890872965e+00	-1.1302869243e-01
 1.0253048327e+00	-3.5708892450e+00	-1.3035897792e-01
 7.0710678119e-01	-3.2526911934e+00	-1.6574034739e-01
 3.8890872966e-01	-2.9344931419e+00	-2.1477972554e-01
 7.0710678118e-02	-2.6162950904e+00	-2.7237335024e-01
-2.4748737342e-01	-2.2980970388e+00	-3.3852122148e-01
-5.6568542496e-01	-1.9798989873e+00	-4.1322333925e-01
 2.7577164466e+00	-5.0204581464e+00	-1.5715452394e-01
 2.4395183951e+00	-4.7022600949e+00	-1.3152232466e-01
 2.1213203436e+00	-4.3840620433e+00	-1.1589977594e-01
 1.8031222920e+00	-4.0658639918e+00	-1.1019366038e-01
 1.4849242405e+00	-3.7476659403e+00	-1.1431076010e-01
 1.1667261890e+00	-3.4294678887e+00	-1.2889704949e-01
 8.4852813743e-01	-3.1112698372e+00	-1.6391830754e-01
 5.3033008590e-01	-2.7930717857e+00	-2.0671827155e-01
 2.1213203436e-01	-2.4748737341e+00	-2.5729694152e-01
-1.0606601718e-01	-2.1566756826e+00	-3.1565431745e-01
-4.2426406872e-01	-1.8384776311e+00	-3.8179039934e-01
 2.8991378029e+00	-4.8790367902e+00	-1.6286882762e-01
 2.5809397513e+00	-4.5608387386e+00	-1.3753312767e-01
 2.2627416998e+00	-4.2426406871e+00	-1.2135153660e-01
 1.9445436483e+00	-3.9244426356e+00	-1.1423083889e-01
 1.6263455967e+00	-3.6062445840e+00	-1.1607782491e-01
 1.3081475452e+00	-3.2880465325e+00	-1.3270654029e-01
 9.8994949367e-01	-2.9698484810e+00	-1.6261532362e-01
 6.7175144214e-01	-2.6516504294e+00	-1.9952727234e-01
 3.5355339060e-01	-2.3334523779e+00	-2.4344238643e-01
 3.5355339059e-02	-2.0152543264e+00	-2.9436066591e-01
-2.8284271248e-01	-1.6970562749e+00	-3.5228211076e-01
 3.0405591591e+00	-4.7376154339e+00	-1.7591520223e-01
 2.7223611076e+00	-4.4194173824e+00	-1.4300373114e-01
 2.4041630560e+00	-4.1012193309e+00	-1.2662062569e-01
 2.0859650045e+00	-3.7830212793e+00	-1.1844287441e-01
 1.7677669530e+00	-3.4648232278e+00	-1.1837726325e-01
 1.4495689014e+00	-3.1466251763e+00	-1.3668368816e-01
 1.1313708499e+00	-2.8284271247e+00	-1.6183139563e-01
 8.1317279838e-01	-2.5102290732e+00	-1.9320672791e-01
 4.9497474684e-01	-2.1920310217e+00	-2.3080968498e-01
 1.7677669530e-01	-1.8738329701e+00	-2.7464026685e-01
-1.4142135624e-01	-1.5556349186e+00	-3.2469847352e-01
 3.1819805154e+00	-4.5961940777e+00	-1.9058698454e-01
 2.8637824638e+00	-4.2779960262e+00	-1.4798153089e-01
 2.5455844123e+00	-3.9597979746e+00	-1.3175443866e-01
 2.2273863608e+00	-3.6415999231e+00	-1.2287716199e-01
 1.9091883092e+00	-3.3234018716e+00	-1.2554254688e-01
 1.5909902577e+00	-3.0052038200e+00	-1.4082849312e-01
 1.2727922062e+00	-2.6870057685e+00	-1.6156652357e-01
 9.5459415462e-01	-2.3688077170e+00	-1.8775663825e-01
 6.3639610308e-01	-2.0506096654e+00	-2.1939883715e-01
 3.1819805154e-01	-1.7324116139e+00	-2.5649312027e-01
 6.1062266354e-16	-1.4142135624e+00	-2.9903948760e-01
 3.3234018716e+00	-4.4547727215e+00	-2.0322417574e-01
 3.0052038201e+00	-4.1365746699e+00	-1.5685686191e-01
 2.6870057685e+00	-3.8183766184e+00	-1.3680037026e-01
 2.3688077170e+00	-3.5001785669e+00	-1.2758109706e-01
 2.0506096655e+00	-3.1819805153e+00	-1.3313774649e-01
 1.7324116139e+00	-2.8637824638e+00	-1.4514095515e-01
 1.4142135624e+00	-2.5455844123e+00	-1.6182070745e-01
 1.0960155109e+00	-2.2273863607e+00	-1.8317700338e-01
 7.7781745932e-01	-1.9091883092e+00	-2.0920984295e-01
 4.5961940778e-01	-1.5909902577e+00	-2.3991922617e-01
 1.4142135624e-01	-1.2727922062e+00	-2.7530515301e-01
 3.4648232278e+00	-4.3133513652e+00	-2.1377835047e-01
 3.1466251763e+00	-3.9951533137e+00	-1.6954366353e-01
 2.8284271248e+00	-3.6769552622e+00	-1.4180581456e-01
 2.5102290732e+00	-3.3587572106e+00	-1.3537833747e-01
 2.1920310217e+00	-3.0405591591e+00	-1.4054920434e-01
 1.8738329702e+00	-2.7223611076e+00	-1.4962107426e-01
 1.5556349186e+00	-2.4041630560e+00	-1.6259394725e-01
 1.2374368671e+00	-2.0859650045e+00	-1.7946782329e-01
 9.1923881556e-01	-1.7677669530e+00	-2.0024270239e-01
 6.0104076402e-01	-1.4495689014e+00	-2.2491858455e-01
 2.8284271248e-01	-1.1313708499e+00	-2.5349546976e-01
 3.6062445841e+00	-4.1719300090e+00	-2.2220108401e-01
 3.2880465325e+00	-3.8537319575e+00	-1.8042256554e-01
 2.9698484810e+00	-3.5355339059e+00	-1.4825237747e-01
 2.6516504295e+00	-3.2173358544e+00	-1.4441045285e-01
 2.3334523779e+00	-2.8991378029e+00	-1.4777692041e-01
 2.0152543264e+00	-2.5809397513e+00	-1.5426885046e-01
 1.6970562749e+00	-2.2627416998e+00	-1.6388624298e-01
 1.3788582233e+00	-1.9445436483e+00	-1.7662909798e-01
 1.0606601718e+00	-1.6263455967e+00	-1.9249741545e-01
 7.4246212026e-01	-1.3081475452e+00	-2.1149119541e-01
 4.2426406872e-01	-9.8994949368e-01	-2.3361043784e-01
 3.7476659403e+00	-4.0305086528e+00	-2.2844395222e-01
 3.4294678888e+00	-3.7123106012e+00	-1.8944514438e-01
 3.1112698372e+00	-3.3941125497e+00	-1.6082599026e-01
 2.7930717857e+00	-3.0759144982e+00	-1.5290742760e-01
 2.4748737342e+00	-2.7577164466e+00	-1.5482089472e-01
 2.1566756826e+00	-2.4395183951e+00	-1.5908428373e-01
 1.8384776311e+00	-2.1213203436e+00	-1.6569759464e-01
 1.5202795796e+00	-1.8031222920e+00	-1.7466082745e-01
 1.2020815280e+00	-1.4849242405e+00	-1.8597398215e-01
 8.8388347650e-01	-1.1667261890e+00	-1.9963705875e-01
 5.6568542496e-01	-8.4852813744e-01	-2.1565005724e-01
 3.8890872966e+00	-3.8890872966e+00	-2.3245853160e-01
 3.5708892450e+00	-3.5708892450e+00	-1.9656298260e-01
 3.2526911935e+00	-3.2526911935e+00	-1.7357834829e-01
 2.9344931420e+00	-2.9344931420e+00	-1.6086926174e-01
 2.6162950904e+00	-2.6162950904e+00	-1.6168112725e-01
 2.2980970389e+00	-2.2980970389e+00	-1.6406737408e-01
 1.9798989874e+00	-1.9798989874e+00	-1.6802800223e-01
 1.6617009358e+00	-1.6617009358e+00	-1.7356301170e-01
 1.3435028843e+00	-1.3435028843e+00	-1.8067240248e-01
 1.0253048327e+00	-1.0253048327e+00	-1.8935617457e-01
 7.0710678120e-01	-7.0710678120e-01	-1.9961432799e-01
-2.1213203436e+00	-3.5355339059e+00	-5.5765787568e-01
-2.1920310217e+00	-3.4648232278e+00	-5.6724540615e-01
-2.2627416998e+00	-3.3941125497e+00	-5.7909739053e-01
-2.3334523780e+00	-3.3234018715e+00	-5.9166230859e-01
-2.4041630561e+00	-3.2526911934e+00	-6.0428895789e-01
-2.4748737342e+00	-3.1819805153e+00	-6.1697733844e-01
-2.5455844123e+00	-3.1112698372e+00	-6.2972745023e-01
-2.6162950904e+00	-3.0405591591e+00	-6.4253929326e-01
-2.6870057685e+00	-2.9698484809e+00	-6.5541286754e-01
-2.7577164466e+00	-2.8991378028e+00	-6.6834817306e-01
-2.8284271247e+00	-2.8284271247e+00	-6.8134520982e-01
-1.9798989874e+00	-3.3941125497e+00	-5.0453590324e-01
-2.0506096655e+00	-3.3234018715e+00	-5.1625262213e-01
-2.1213203436e+00	-3.2526911934e+00	-5.2790418738e-01
-2.1920310217e+00	-3.1819805153e+00	-5.3949059899e-01
-2.2627416998e+00	-3.1112698372e+00	-5.5101185696e-01
-2.3334523779e+00	-3.0405591591e+00	-5.6246796129e-01
-2.4041630561e+00	-2.9698484810e+00	-5.7385891198e-01
-2.4748737342e+00	-2.8991378028e+00	-5.8518470902e-01
-2.5455844123e+00	-2.8284271247e+00	-5.9644535243e-01
-2.6162950904e+00	-2.7577164466e+00	-6.0764084218e-01
-2.6870057685e+00	-2.6870057685e+00	-6.1877117830e-01
-1.8384776311e+00	-3.2526911934e+00	-4.6030575515e-01
-1.9091883092e+00	-3.1819805153e+00	-4.7107727216e-01
-1.9798989874e+00	-3.1112698372e+00	-4.8165675063e-01
-2.0506096655e+00	-3.0405591591e+00	-4.9204419058e-01
-2.1213203436e+00	-2.9698484810e+00	-5.0223959200e-01
-2.1920310217e+00	-2.8991378028e+00	-5.1224295490e-01
-2.2627416998e+00	-2.8284271247e+00	-5.2205427927e-01
-2.3334523779e+00	-2.7577164466e+00	-5.3167356511e-01
-2.4041630560e+00	-2.6870057685e+00	-5.4110081242e-01
-2.4748737341e+00	-2.6162950904e+00	-5.5033602120e-01
-2.5455844123e+00	-2.5455844123e+00	-5.5937919145e-01
-1.6970562749e+00	-3.1112698372e+00	-4.2146230389e-01
-1.7677669530e+00	-3.0405591591e+00	-4.3106815379e-01
-1.8384776311e+00	-2.9698484810e+00	-4.4035508028e-01
-1.9091883092e+00	-2.8991378028e+00	-4.4932308335e-01
-1.9798989874e+00	-2.8284271247e+00	-4.5797216301e-01
-2.0506096655e+00	-2.7577164466e+00	-4.6630231926e-01
-2.1213203436e+00	-2.6870057685e+00	-4.7431355209e-01
-2.1920310217e+00	-2.6162950904e+00	-4.8200586151e-01
-2.2627416998e+00	-2.5455844123e+00	-4.8937924751e-01
-2.3334523779e+00	-2.4748737342e+00	-4.9643371010e-01
-2.4041630560e+00	-2.4041630560e+00	-5.0316924928e-01
-1.5556349186e+00	-2.9698484809e+00	-3.8800554946e-01
-1.6263455968e+00	-2.8991378028e+00	-3.9622526704e-01
-1.6970562749e+00	-2.8284271247e+00	-4.0399917632e-01
-1.7677669530e+00	-2.7577164466e+00	-4.1132727730e-01
-1.8384776311e+00	-2.6870057685e+00	-4.1820956998e-01
-1.9091883092e+00	-2.6162950904e+00	-4.2464605436e-01
-1.9798989873e+00	-2.5455844123e+00	-4.3063673044e-01
-2.0506096655e+00	-2.4748737342e+00	-4.3618159823e-01
-2.1213203436e+00	-2.4041630560e+00	-4.4128065771e-01
-2.1920310217e+00	-2.3334523779e+00	-4.4593390889e-01
-2.2627416998e+00	-2.2627416998e+00	-4.5014135177e-01
-1.4142135624e+00	-2.8284271247e+00	-3.5993549185e-01
-1.4849242405e+00	-2.7577164466e+00	-3.6654861190e-01
-1.5556349186e+00	-2.6870057685e+00	-3.7258903876e-01
-1.6263455968e+00	-2.6162950904e+00	-3.7805677243e-01
-1.6970562749e+00	-2.5455844123e+00	-3.8295181292e-01
-1.7677669530e+00	-2.4748737342e+00	-3.8727416022e-01
-1.8384776311e+00	-2.4041630560e+00	-3.9102381434e-01
-1.9091883092e+00	-2.3334523779e+00	-3.9420077527e-01
-1.9798989873e+00	-2.2627416998e+00	-3.9680504301e-01
-2.0506096655e+00	-2.1920310217e+00	-3.9883661757e-01
-2.1213203436e+00	-2.1213203436e+00	-4.0029549894e-01
-1.2727922062e+00	-2.6870057685e+00	-3.3725213108e-01
-1.3435028843e+00	-2.6162950904e+00	-3.4203818837e-01
-1.4142135624e+00	-2.5455844123e+00	-3.4612466760e-01
-1.4849242405e+00	-2.4748737342e+00	-3.4951156874e-01
-1.5556349186e+00	-2.4041630560e+00	-3.5219889182e-01
-1.6263455968e+00	-2.3334523779e+00	-3.5418663683e-01
-1.6970562749e+00	-2.2627416998e+00	-3.5547480376e-01
-1.7677669530e+00	-2.1920310217e+00	-3.5606339263e-01
-1.8384776311e+00	-2.1213203436e+00	-3.5595240342e-01
-1.9091883092e+00	-2.0506096655e+00	-3.5514183614e-01
-1.9798989873e+00	-1.9798989873e+00	-3.5363169078e-01
-1.1313708499e+00	-2.5455844122e+00	-3.1995546714e-01
-1.2020815280e+00	-2.4748737341e+00	-3.2269399647e-01
-1.2727922062e+00	-2.4041630560e+00	-3.2460606283e-01
-1.3435028843e+00	-2.3334523779e+00	-3.2569166624e-01
-1.4142135624e+00	-2.2627416998e+00	-3.2595080670e-01
-1.4849242405e+00	-2.1920310217e+00	-3.2538348419e-01
-1.5556349186e+00	-2.1213203436e+00	-3.2398969873e-01
-1.6263455968e+00	-2.0506096655e+00	-3.2176945031e-01
-1.6970562749e+00	-1.9798989873e+00	-3.1872273893e-01
-1.7677669530e+00	-1.9091883092e+00	-3.1484956459e-01
-1.8384776311e+00	-1.8384776311e+00	-3.1014992730e-01
-9.8994949368e-01	-2.4041630560e+00	-3.0804550004e-01
-1.0606601718e+00	-2.3334523779e+00	-3.0851603618e-01
-1.1313708499e+00	-2.2627416998e+00	-3.0803322448e-01
-1.2020815280e+00	-2.1920310217e+00	-3.0659706493e-01
-1.2727922062e+00	-2.1213203436e+00	-3.0420755754e-01
-1.3435028843e+00	-2.0506096655e+00	-3.0086470231e-01
-1.4142135624e+00	-1.9798989873e+00	-2.9656849923e-01
-1.4849242405e+00	-1.9091883092e+00	-2.9131894831e-01
-1.5556349186e+00	-1.8384776311e+00	-2.8511604955e-01
-1.6263455968e+00	-1.7677669530e+00	-2.7795980294e-01
-1.6970562749e+00	-1.6970562749e+00	-2.6985020849e-01
-8.4852813744e-01	-2.2627416998e+00	-3.0152222977e-01
-9.1923881556e-01	-2.1920310217e+00	-2.9950430751e-01
-9.8994949368e-01	-2.1213203436e+00	-2.9640615252e-01
-1.0606601718e+00	-2.0506096655e+00	-2.9222776480e-01
-1.1313708499e+00	-1.9798989873e+00	-2.8696914435e-01
-1.2020815280e+00	-1.9091883092e+00	-2.8063029118e-01
-1.2727922062e+00	-1.8384776311e+00	-2.7321120527e-01
-1.3435028843e+00	-1.7677669530e+00	-2.6471188663e-01
-1.4142135624e+00	-1.6970562749e+00	-2.5513233527e-01
-1.4849242405e+00	-1.6263455968e+00	-2.4447255117e-01
-1.5556349186e+00	-1.5556349186e+00	-2.3273253435e-01
-7.0710678120e-01	-2.1213203435e+00	-3.0038565633e-01
-7.7781745932e-01	-2.0506096654e+00	-2.9565881046e-01
-8.4852813744e-01	-1.9798989873e+00	-2.8972484697e-01
-9.1923881556e-01	-1.9091883092e+00	-2.8258376586e-01
-9.8994949368e-01	-1.8384776311e+00	-2.7423556714e-01
-1.0606601718e+00	-1.7677669530e+00	-2.6468025080e-01
-1.1313708499e+00	-1.6970562749e+00	-2.5391781685e-01
-1.2020815280e+00	-1.6263455968e+00	-2.4194826528e-01
-1.2727922062e+00	-1.5556349186e+00	-2.2877159609e-01
-1.3435028843e+00	-1.4849242405e+00	-2.1438780930e-01
-1.4142135624e+00	-1.4142135624e+00	-1.9879690488e-01
-7.0710678120e-01	-2.1213203435e+00	-3.0038565633e-01
-7.7781745932e-01	-2.0506096654e+00	-2.9565881046e-01
-8.4852813744e-01	-1.9798989873e+00	-2.8972484697e-01
-9.1923881556e-01	-1.9091883092e+00	-2.8258376586e-01
-9.8994949368e-01	-1.8384776311e+00	-2.7423556714e-01
-1.0606601718e+00	-1.7677669530e+00	-2.6468025080e-01
-1.1313708499e+00	-1.6970562749e+00	-2.5391781685e-01
-1.2020815280e+00	-1.6263455968e+00	-2.4194826528e-01
-1.2727922062e+00	-1.5556349186e+00	-2.2877159609e-01
-1.3435028843e+00	-1.4849242405e+00	-2.1438780930e-01
-1.4142135624e+00	-1.4142135624e+00	-1.9879690488e-01
-5.6568542496e-01	-1.9798989873e+00	-2.7100334956e-01
-6.3639610308e-01	-1.9091883092e+00	-2.6651891816e-01
-7.0710678120e-01	-1.8384776311e+00	-2.6096700061e-01
-7.7781745932e-01	-1.7677669530e+00	-2.5434759691e-01
-8.4852813744e-01	-1.6970562749e+00	-2.4666070705e-01
-9.1923881556e-01	-1.6263455967e+00	-2.3790633105e-01
-9.8994949368e-01	-1.5556349186e+00	-2.2808446890e-01
-1.0606601718e+00	-1.4849242405e+00	-2.1719512059e-01
-1.1313708499e+00	-1.4142135624e+00	-2.0523828613e-01
-1.2020815280e+00	-1.3435028843e+00	-1.9221396553e-01
-1.2727922062e+00	-1.2727922062e+00	-1.7812215877e-01
-4.2426406872e-01	-1.8384776311e+00	-2.4339662128e-01
-4.9497474684e-01	-1.7677669530e+00	-2.3898250063e-01
-5.6568542496e-01	-1.6970562749e+00	-2.3364052530e-01
-6.3639610308e-01	-1.6263455967e+00	-2.2737069528e-01
-7.0710678120e-01	-1.5556349186e+00	-2.2017301058e-01
-7.7781745932e-01	-1.4849242405e+00	-2.1204747119e-01
-8.4852813744e-01	-1.4142135624e+00	-2.0299407711e-01
-9.1923881556e-01	-1.3435028843e+00	-1.9301282834e-01
-9.8994949368e-01	-1.2727922062e+00	-1.8210372489e-01
-1.0606601718e+00	-1.2020815280e+00	-1.7026676676e-01
-1.1313708499e+00	-1.1313708499e+00	-1.5750195394e-01
-2.8284271248e-01	-1.6970562749e+00	-2.1756547149e-01
-3.5355339060e-01	-1.6263455967e+00	-2.1304955788e-01
-4.2426406872e-01	-1.5556349186e+00	-2.0774542104e-01
-4.9497474684e-01	-1.4849242405e+00	-2.0165306098e-01
-5.6568542496e-01	-1.4142135624e+00	-1.9477247771e-01
-6.3639610308e-01	-1.3435028843e+00	-1.8710367120e-01
-7.0710678120e-01	-1.2727922062e+00	-1.7864664148e-01
-7.7781745932e-01	-1.2020815280e+00	-1.6940138854e-01
-8.4852813744e-01	-1.1313708499e+00	-1.5936791237e-01
-9.1923881556e-01	-1.0606601718e+00	-1.4854621298e-01
-9.8994949368e-01	-9.8994949368e-01	-1.3693629038e-01
-1.4142135624e-01	-1.5556349186e+00	-1.9350990020e-01
-2.1213203436e-01	-1.4849242405e+00	-1.8872008989e-01
-2.8284271248e-01	-1.4142135624e+00	-1.8328168783e-01
-3.5355339060e-01	-1.3435028843e+00	-1.7719469402e-01
-4.2426406872e-01	-1.2727922062e+00	-1.7045910844e-01
-4.9497474684e-01	-1.2020815280e+00	-1.6307493111e-01
-5.6568542496e-01	-1.1313708499e+00	-1.5504216202e-01
-6.3639610308e-01	-1.0606601718e+00	-1.4636080117e-01
-7.0710678120e-01	-9.8994949368e-01	-1.3703084857e-01
-7.7781745932e-01	-9.1923881556e-01	-1.2705230421e-01
-8.4852813744e-01	-8.4852813744e-01	-1.1642516809e-01
 6.1062266354e-16	-1.4142135624e+00	-1.7122990740e-01
-7.0710678120e-02	-1.3435028843e+00	-1.6599409668e-01
-1.4142135624e-01	-1.2727922062e+00	-1.6024932568e-01
-2.1213203436e-01	-1.2020815280e+00	-1.5399559438e-01
-2.8284271248e-01	-1.1313708499e+00	-1.4723290278e-01
-3.5355339060e-01	-1.0606601718e+00	-1.3996125090e-01
-4.2426406872e-01	-9.8994949368e-01	-1.3218063872e-01
-4.9497474684e-01	-9.1923881556e-01	-1.2389106625e-01
-5.6568542496e-01	-8.4852813744e-01	-1.1509253349e-01
-6.3639610308e-01	-7.7781745932e-01	-1.0578504043e-01
-7.0710678120e-01	-7.0710678120e-01	-9.5968587085e-02
 1.4142135624e-01	-1.2727922062e+00	-1.5072549309e-01
 7.0710678120e-02	-1.2020815280e+00	-1.4487157824e-01
 7.6327832943e-16	-1.1313708499e+00	-1.3864833457e-01
-7.0710678120e-02	-1.0606601718e+00	-1.3205576206e-01
-1.4142135624e-01	-9.8994949368e-01	-1.2509386073e-01
-2.1213203436e-01	-9.1923881556e-01	-1.1776263057e-01
-2.8284271248e-01	-8.4852813744e-01	-1.1006207158e-01
-3.5355339060e-01	-7.7781745932e-01	-1.0199218377e-01
-4.2426406872e-01	-7.0710678120e-01	-9.3552967125e-02
-4.9497474684e-01	-6.3639610308e-01	-8.4744421654e-02
-5.6568542496e-01	-5.6568542496e-01	-7.5566547354e-02
 2.8284271248e-01	-1.1313708499e+00	-1.3199665727e-01
 2.1213203436e-01	-1.0606601718e+00	-1.2535253457e-01
 1.4142135624e-01	-9.8994949368e-01	-1.1847871451e-01
 7.0710678120e-02	-9.1923881556e-01	-1.1137519708e-01
 8.7430063189e-16	-8.4852813744e-01	-1.0404198229e-01
-7.0710678120e-02	-7.7781745932e-01	-9.6479070131e-02
-1.4142135624e-01	-7.0710678120e-01	-8.8686460611e-02
-2.1213203436e-01	-6.3639610308e-01	-8.0664153728e-02
-2.8284271248e-01	-5.6568542496e-01	-7.2412149482e-02
-3.5355339060e-01	-4.9497474684e-01	-6.3930447872e-02
-4.2426406872e-01	-4.2426406872e-01	-5.5219048899e-02
 4.2426406872e-01	-9.8994949368e-01	-1.1504339995e-01
 3.5355339060e-01	-9.1923881556e-01	-1.0743696568e-01
 2.8284271248e-01	-8.4852813744e-01	-9.9740465498e-02
 2.1213203436e-01	-7.7781745932e-01	-9.1953899422e-02
 1.4142135624e-01	-7.0710678120e-01	-8.4077267447e-02
 7.0710678120e-02	-6.3639610308e-01	-7.6110569574e-02
 1.0130785100e-15	-5.6568542496e-01	-6.8053805801e-02
-7.0710678120e-02	-4.9497474684e-01	-5.9906976129e-02
-1.4142135624e-01	-4.2426406872e-01	-5.1670080559e-02
-2.1213203436e-01	-3.5355339060e-01	-4.3343119089e-02
-2.8284271248e-01	-2.8284271248e-01	-3.4926091721e-02
 5.6568542496e-01	-8.4852813744e-01	-9.9865721125e-02
 4.9497474684e-01	-7.7781745932e-01	-9.1124871549e-02
 4.2426406872e-01	-7.0710678120e-01	-8.2433587539e-02
 3.5355339060e-01	-6.3639610308e-01	-7.3791869094e-02
 2.8284271248e-01	-5.6568542496e-01	-6.5199716214e-02
 2.1213203436e-01	-4.9497474684e-01	-5.6657128901e-02
 1.4142135624e-01	-4.2426406872e-01	-4.8164107153e-02
 7.0710678120e-02	-3.5355339060e-01	-3.9720650971e-02
 1.1657341759e-15	-2.8284271248e-01	-3.1326760354e-02
-7.0710678120e-02	-2.1213203436e-01	-2.2982435304e-02
-1.4142135624e-01	-1.4142135624e-01	-1.4687675819e-02
 7.0710678120e-01	-7.0710678120e-01	-8.6463620790e-02
 6.3639610308e-01	-6.3639610308e-01	-7.6416252194e-02
 5.6568542496e-01	-5.6568542496e-01	-6.6558080628e-02
 4.9497474684e-01	-4.9497474684e-01	-5.6889106093e-02
 4.2426406872e-01	-4.2426406872e-01	-4.7409328588e-02
 3.5355339060e-01	-3.5355339060e-01	-3.8118748113e-02
 2.8284271248e-01	-2.8284271248e-01	-2.9017364668e-02
 2.1213203436e-01	-2.1213203436e-01	-2.0105178254e-02
 1.4142135624e-01	-1.4142135624e-01	-1.1382188870e-02
 7.0710678120e-02	-7.0710678120e-02	-2.8483965160e-03
 0.0000000000e+00	 0.0000000000e+00	 5.4961988075e-03
