patch_n	x	y	stress_yy
22	 0.000000000000000e+00	 0.000000000000000e+00	-1.420039100069538e+00
23	 0.000000000000000e+00	 0.000000000000000e+00	-1.409227095993981e+00
23	 1.414213562387500e+00	 0.000000000000000e+00	-9.601111002120367e-01
24	 1.414213562387500e+00	 0.000000000000000e+00	-8.993532220255877e-01
29	 0.000000000000000e+00	 0.000000000000000e+00	-1.409227095993978e+00
40	 0.000000000000000e+00	 0.000000000000000e+00	-1.420039100069540e+00
