x	y	stress_yy
 1.000000000000000e+00	 0.000000000000000e+00	 2.465021174679086e+01
 9.999652819873316e-01	 8.333048840547298e-03	 1.956109843347014e+01
 9.998606548526504e-01	 1.669391286202172e-02	 1.465386469579909e+01
 9.996854145678035e-01	 2.508186591579744e-02	 1.005616263429580e+01
 9.994388649236412e-01	 3.349616549931930e-02	 5.888404945147014e+00
 9.991203179452327e-01	 4.193605278629495e-02	 2.263450543508816e+00
 9.987290943103193e-01	 5.040075266753075e-02	-7.137086323806683e-01
 9.982645237707195e-01	 5.888947380262372e-02	-2.946259132178176e+00
 9.977259455763865e-01	 6.740140868271496e-02	-4.345875302946076e+00
 9.971127089018138e-01	 7.593573370450242e-02	-4.833025868088497e+00
 9.964241732744672e-01	 8.449160925570288e-02	-4.337277234806394e+00
 1.008823457328410e+00	 0.000000000000000e+00	 1.770974050402249e+01
 1.008788432982907e+00	 8.406575145132409e-03	 1.427104429617540e+01
 1.008682882675344e+00	 1.684121089620530e-02	 1.091780652144002e+01
 1.008506096165558e+00	 2.530317469758155e-02	 7.748339630730244e+00
 1.008257371101382e+00	 3.379171749539848e-02	 4.855055371366169e+00
 1.007936013437521e+00	 4.230607376802643e-02	 2.324215029578899e+00
 1.007541337857695e+00	 5.084546156726499e-02	 2.356807864370098e-01
 1.007072668199768e+00	 5.940908257049081e-02	-1.337331404921966e+00
 1.006529337883544e+00	 6.799612214396498e-02	-2.328497003265832e+00
 1.005910690340937e+00	 7.660574941749865e-02	-2.678625697032448e+00
 1.005216079448178e+00	 8.523711737066911e-02	-2.335901419167902e+00
 1.017646782159778e+00	 0.000000000000000e+00	 1.249337648757153e+01
 1.017611451486040e+00	 8.480100344912849e-03	 1.030375296698964e+01
 1.017504978019459e+00	 1.698850671730691e-02	 8.135510759783871e+00
 1.017326645307965e+00	 2.552448015460338e-02	 6.061521028671204e+00
 1.017075744856467e+00	 3.408726505170349e-02	 4.149960187519597e+00
 1.016751576549402e+00	 4.267608919171342e-02	 2.464117407303275e+00
 1.016353449076568e+00	 5.129016378750074e-02	 1.062203149250690e+00
 1.015880680361970e+00	 5.992868353429856e-02	-2.840952901081661e-03
 1.015332597995354e+00	 6.859082667356628e-02	-6.835305325448726e-01
 1.014708539666144e+00	 7.727575506830839e-02	-9.380249151030224e-01
 1.014007853599432e+00	 8.598261429004454e-02	-7.303111844382767e-01
 1.026469991993312e+00	 0.000000000000000e+00	 8.771453787820354e+00
 1.026434354995330e+00	 8.553624585774041e-03	 7.485600271560558e+00
 1.026326958381762e+00	 1.713580061756481e-02	 6.183371834820825e+00
 1.026147079488713e+00	 2.574578272591117e-02	 4.915990139936942e+00
 1.025894003678258e+00	 3.438280875453906e-02	 3.731057702963922e+00
 1.025567024764651e+00	 4.304609979135286e-02	 2.672415426469460e+00
 1.025165445443851e+00	 5.173486021035203e-02	 1.780001054828729e+00
 1.024688577726083e+00	 6.044827772469145e-02	 1.089708798069648e+00
 1.024135743371121e+00	 6.918552345109567e-02	 6.332503752195751e-01
 1.023506274325981e+00	 7.794575198583098e-02	 4.380177337640285e-01
 1.022799513164692e+00	 8.672810149242928e-02	 5.269477070722529e-01
 1.035293104328222e+00	 0.000000000000000e+00	 6.322164948455296e+00
 1.035257161009377e+00	 8.627148013601409e-03	 5.648905425371797e+00
 1.035148841259015e+00	 1.728309288921725e-02	 4.942018086329642e+00
 1.034967416201492e+00	 2.596708285055307e-02	 4.234763924496850e+00
 1.034712165056120e+00	 3.467834919020986e-02	 3.557732350094222e+00
 1.034382375567044e+00	 4.341610630094170e-02	 2.938741628510508e+00
 1.033977344436454e+00	 5.217955171793285e-02	 2.402740118130100e+00
 1.033496377760867e+00	 6.096786617231392e-02	 1.971708488026068e+00
 1.032938791470156e+00	 6.978021365613013e-02	 1.664563098724329e+00
 1.032303911768995e+00	 7.861574149896601e-02	 1.497060733246581e+00
 1.031591075580421e+00	 8.747358045642353e-02	 1.481704869321331e+00
 1.044116136663715e+00	 0.000000000000000e+00	 4.931228480189292e+00
 1.044079887026780e+00	 8.700670774280397e-03	 4.631679470100988e+00
 1.043970644147982e+00	 1.743038382450248e-02	 4.296132444848305e+00
 1.043787672939991e+00	 2.618838096757728e-02	 3.943477065758142e+00
 1.043530246479419e+00	 3.497388694502057e-02	 3.590753170839764e+00
 1.043197646440357e+00	 4.378610945447693e-02	 3.253087107934550e+00
 1.042789163531287e+00	 5.262423919235713e-02	 2.943628727037790e+00
 1.042304097935081e+00	 6.148744990781047e-02	 2.673489155896660e+00
 1.041741759751765e+00	 7.037489846824647e-02	 2.451679484511343e+00
 1.041101469443733e+00	 7.928572493661279e-02	 2.285050486830219e+00
 1.040382558283081e+00	 8.821905266062735e-02	 2.178233510348961e+00
 1.052939106499000e+00	 0.000000000000000e+00	 4.391573175153941e+00
 1.052902550546137e+00	 8.774193013696412e-03	 4.277386421741344e+00
 1.052792384545428e+00	 1.757767371565877e-02	 4.134282168431409e+00
 1.052607867197901e+00	 2.640967751603199e-02	 3.970271904384267e+00
 1.052348265437516e+00	 3.526942260527586e-02	 3.792215412784388e+00
 1.052012854868362e+00	 4.415610998595550e-02	 3.605786096257343e+00
 1.051600920205261e+00	 5.306892351573896e-02	 3.415436803507006e+00
 1.051111755717485e+00	 6.200702996182560e-02	 3.224366234948169e+00
 1.050544665675257e+00	 7.096957906702162e-02	 3.034486005424515e+00
 1.049898964798739e+00	 7.995570362767086e-02	 2.846388443737955e+00
 1.049173978709136e+00	 8.896451958364097e-02	 2.659315210172688e+00
 1.061762031333285e+00	 0.000000000000000e+00	 4.503038239869474e+00
 1.061725169066050e+00	 8.847714877734898e-03	 4.434716387412933e+00
 1.061614079948116e+00	 1.772496285492436e-02	 4.348757111474900e+00
 1.061428016468911e+00	 2.663097293496538e-02	 4.245693888170489e+00
 1.061166239419777e+00	 3.556495675728044e-02	 4.125485053120716e+00
 1.060828018334836e+00	 4.452610862937438e-02	 3.987501320339129e+00
 1.060412631935287e+00	 5.351360557019224e-02	 3.830513627303276e+00
 1.059919368576834e+00	 6.252660736500375e-02	 3.652681347256263e+00
 1.059347526699940e+00	 7.156425663203250e-02	 3.451540909209649e+00
 1.058696415282561e+00	 8.062567890103969e-02	 3.223994867034128e+00
 1.057965354295047e+00	 8.970998270406452e-02	 2.966301459815512e+00
 1.070584928665779e+00	 0.000000000000000e+00	 5.072088329767639e+00
 1.070547760085116e+00	 8.921236512281286e-03	 4.957369957017722e+00
 1.070435747852810e+00	 1.787225153453750e-02	 4.835416030986154e+00
 1.070248138246710e+00	 2.685226766342562e-02	 4.702592218192432e+00
 1.069984185915565e+00	 3.586048998733898e-02	 4.555146080694353e+00
 1.069643154323555e+00	 4.489610611873055e-02	 4.389210090215242e+00
 1.069224316198276e+00	 5.395828623783099e-02	 4.200804776652916e+00
 1.068726953981891e+00	 6.304618314798940e-02	 3.985842024770072e+00
 1.068150360285121e+00	 7.215893234285592e-02	 3.740128531716608e+00
 1.067493838343746e+00	 8.129565208561870e-02	 3.459369438532633e+00
 1.066756702477279e+00	 9.045544350049813e-02	 3.139172149199052e+00
 1.079407815995689e+00	 0.000000000000000e+00	 5.911542628496882e+00
 1.079370341101936e+00	 8.994758063220995e-03	 5.703853221484402e+00
 1.079257405756275e+00	 1.801954004673646e-02	 5.493540468176188e+00
 1.079068250024988e+00	 2.707356214046092e-02	 5.276025392455407e+00
 1.078802122414245e+00	 3.615602288175620e-02	 5.046950377546175e+00
 1.078458280318292e+00	 4.526610318802097e-02	 4.802191074459753e+00
 1.078035990471137e+00	 5.440296640076923e-02	 4.537868236557731e+00
 1.077534529401413e+00	 6.356575834142703e-02	 4.250359476158762e+00
 1.076953183890108e+00	 7.275360737906882e-02	 3.936310937700243e+00
 1.076291251430838e+00	 8.196562451030735e-02	 3.592648882350727e+00
 1.075548040692293e+00	 9.120090345154196e-02	 3.216591179299980e+00
 1.088230710822225e+00	 0.000000000000000e+00	 6.840317171079351e+00
 1.088192929615107e+00	 9.068279676439462e-03	 6.537282811597008e+00
 1.088079071155274e+00	 1.816682868375948e-02	 6.225695773370005e+00
 1.087888369297435e+00	 2.729485680511945e-02	 5.903171367744588e+00
 1.087620066405180e+00	 3.645155602683674e-02	 5.567770051696864e+00
 1.087273413802824e+00	 4.563610057124259e-02	 5.218011723856828e+00
 1.086847672230783e+00	 5.484764694112092e-02	 4.852889722219651e+00
 1.086342112304158e+00	 6.408533397596111e-02	 4.471884510859923e+00
 1.085756014974210e+00	 7.334828292024807e-02	 4.074977041593981e+00
 1.085088671992387e+00	 8.263559750400509e-02	 3.662661777100050e+00
 1.084339386376554e+00	 9.194636403579613e-02	 3.235959362537006e+00
 9.964241732744672e-01	 8.449160925570288e-02	-4.337277234806394e+00
 9.956595725195881e-01	 9.306963622590368e-02	-3.335989012128327e+00
 9.948183983547721e-01	 1.016674728801871e-01	-2.365597911782609e+00
 9.939000435131441e-01	 1.102842106753847e-01	-1.449869094691115e+00
 9.929039128517897e-01	 1.189189249707242e-01	-6.113195798001512e-01
 9.918294237927018e-01	 1.275706751727545e-01	 1.288315636324895e-01
 9.906760067638285e-01	 1.362385048931707e-01	 7.507124949575410e-01
 9.894431056398209e-01	 1.449214421196757e-01	 1.235847273109969e+00
 9.881301781820826e-01	 1.536184993999990e-01	 1.567203839114462e+00
 9.867366964777042e-01	 1.623286740391850e-01	 1.729241228286552e+00
 9.852621473768629e-01	 1.710509483102449e-01	 1.707955929059814e+00
 1.005216079448178e+00	 8.523711737066911e-02	-2.335901419167902e+00
 1.004444732270168e+00	 9.389083219510361e-02	-1.636152723762338e+00
 1.003596136039742e+00	 1.025645314936881e-01	-9.590895148087799e-01
 1.002669678131902e+00	 1.112572987067345e-01	-3.231914290444940e-01
 1.001664758152585e+00	 1.199682010349142e-01	 2.542155715162758e-01
 1.000580788383504e+00	 1.286962895854614e-01	 7.570006973919938e-01
 9.994171942270832e-01	 1.374405995313911e-01	 1.170269234752190e+00
 9.981734146511001e-01	 1.462001502838679e-01	 1.480402786013492e+00
 9.968489026326105e-01	 1.549739456778490e-01	 1.675098779115971e+00
 9.954431256007640e-01	 1.637609741711127e-01	 1.743409175765761e+00
 9.939555658780577e-01	 1.725602090567694e-01	 1.675778308065998e+00
 1.014007853599432e+00	 8.598261429004454e-02	-7.303111844382761e-01
 1.013229760099880e+00	 9.471201583233832e-02	-2.832342775837495e-01
 1.012373741915620e+00	 1.034615766361879e-01	 1.493242285405513e-01
 1.011439181063595e+00	 1.122303721255099e-01	 5.533399255518772e-01
 1.010425471898656e+00	 1.210174613425458e-01	 9.158405151182432e-01
 1.009332021562298e+00	 1.298218870953440e-01	 1.224939803746521e+00
 1.008158250431481e+00	 1.386426761183703e-01	 1.469871064928002e+00
 1.006903592567163e+00	 1.474788392463839e-01	 1.641019711692760e+00
 1.005567496162113e+00	 1.563293716017047e-01	 1.729955222002885e+00
 1.004149423987590e+00	 1.651932527949823e-01	 1.729462258824694e+00
 1.002648853838463e+00	 1.740694471395653e-01	 1.633570926163799e+00
 1.022799513164692e+00	 8.672810149242928e-02	 5.269477070722532e-01
 1.022014673431769e+00	 9.553318876629954e-02	 7.650576766167827e-01
 1.021151233390689e+00	 1.043586100868197e-01	 9.968943601080382e-01
 1.020208569700392e+00	 1.132034328616197e-01	 1.212079276751035e+00
 1.019186071464699e+00	 1.220667079746211e-01	 1.401177508416025e+00
 1.018083140684936e+00	 1.309474699347983e-01	 1.555724985216409e+00
 1.016899192712655e+00	 1.398447370381818e-01	 1.668255128089766e+00
 1.015633656702043e+00	 1.487575115432413e-01	 1.732324801887762e+00
 1.014285976061628e+00	 1.576847798597771e-01	 1.742539532141346e+00
 1.012855608904825e+00	 1.666255127514291e-01	 1.694577938341285e+00
 1.011342028498917e+00	 1.755786655519053e-01	 1.585215336261804e+00
 1.031591075580421e+00	 8.747358045642353e-02	 1.481704869321331e+00
 1.030799489688879e+00	 9.635435262567885e-02	 1.549563218956077e+00
 1.029928627873231e+00	 1.052556336247170e-01	 1.619589933851514e+00
 1.028977861434461e+00	 1.141764828449729e-01	 1.684263453700602e+00
 1.027946574225408e+00	 1.231159430121420e-01	 1.736890361094051e+00
 1.026834163107274e+00	 1.320730403362202e-01	 1.771626739034189e+00
 1.025640038406241e+00	 1.410467846748993e-01	 1.783498902357687e+00
 1.024363624369772e+00	 1.500361697104582e-01	 1.768423466607910e+00
 1.023004359622191e+00	 1.590401731402770e-01	 1.723226717779795e+00
 1.021561697619110e+00	 1.680577568810879e-01	 1.645663246234579e+00
 1.020035107100263e+00	 1.770878672870617e-01	 1.534433807949150e+00
 1.040382558283081e+00	 8.821905266062735e-02	 2.178233510348960e+00
 1.039584226294253e+00	 9.717550903916800e-02	 2.109732034699425e+00
 1.038705942771529e+00	 1.061526490290131e-01	 2.052151728029480e+00
 1.037747073657973e+00	 1.151495240054783e-01	 2.000058565897986e+00
 1.036706997555479e+00	 1.241651685361106e-01	 1.948724480737034e+00
 1.035585106185164e+00	 1.331986005320056e-01	 1.894143560169744e+00
 1.034380804847875e+00	 1.422488214125964e-01	 1.833047663077321e+00
 1.033093512884382e+00	 1.513148162840521e-01	 1.762921426582512e+00
 1.031722664134840e+00	 1.603955541314154e-01	 1.682016637158351e+00
 1.030267707397086e+00	 1.694899880245941e-01	 1.589365939085299e+00
 1.028728106883340e+00	 1.785970553383068e-01	 1.484795853463474e+00
 1.049173978709136e+00	 8.896451958364097e-02	 2.659315210172688e+00
 1.048368900670936e+00	 9.799665963545866e-02	 2.483681222076556e+00
 1.047483195493863e+00	 1.070496580788411e-01	 2.328143253558227e+00
 1.046516223763096e+00	 1.161225582730450e-01	 2.188604411391438e+00
 1.045467358829610e+00	 1.252143866275290e-01	 2.061544909020493e+00
 1.044335987274461e+00	 1.343241527545505e-01	 1.944033862640336e+00
 1.043121509373192e+00	 1.434508496353468e-01	 1.833740575489001e+00
 1.041823339559904e+00	 1.525934538000410e-01	 1.728945292745048e+00
 1.040440906890610e+00	 1.617509255214033e-01	 1.628549409565797e+00
 1.038973655505396e+00	 1.709222090225831e-01	 1.532085114893653e+00
 1.037421045088988e+00	 1.801062326989132e-01	 1.439724453696458e+00
 1.057965354295047e+00	 8.970998270406452e-02	 2.966301459815512e+00
 1.057153530241971e+00	 9.881780604324247e-02	 2.708250211949839e+00
 1.056260403448518e+00	 1.079466625533347e-01	 2.479999216563753e+00
 1.055285329142001e+00	 1.170955875775819e-01	 2.278056671706157e+00
 1.054227675422494e+00	 1.262635993673991e-01	 2.099372465899547e+00
 1.053086823731018e+00	 1.354496992362507e-01	 1.941346317384659e+00
 1.051862169317826e+00	 1.446528717272240e-01	 1.801835498360915e+00
 1.050553121710371e+00	 1.538720847944426e-01	 1.679162135450953e+00
 1.049159105180538e+00	 1.631062899984514e-01	 1.572120077801930e+00
 1.047679559210682e+00	 1.723544227156898e-01	 1.479981324344567e+00
 1.046113938958048e+00	 1.816154023621531e-01	 1.402502001762882e+00
 1.066756702477279e+00	 9.045544350049813e-02	 3.139172149199052e+00
 1.065938132430403e+00	 9.963894989121116e-02	 2.819052966735217e+00
 1.065037584043776e+00	 1.088436642316269e-01	 2.539071582683329e+00
 1.064054407186855e+00	 1.180686138489978e-01	 2.295627021773468e+00
 1.062987964708828e+00	 1.273128088367230e-01	 2.085418111451506e+00
 1.061837632910689e+00	 1.365752422095023e-01	 1.905448698470420e+00
 1.060602802017413e+00	 1.458548900723017e-01	 1.753032573291259e+00
 1.059282876649815e+00	 1.551507118032747e-01	 1.625798101977047e+00
 1.057877276295661e+00	 1.644616502507708e-01	 1.521692565428035e+00
 1.056385435779585e+00	 1.737866319445492e-01	 1.438986205873927e+00
 1.054806805731360e+00	 1.831245673212992e-01	 1.376275980501694e+00
 1.075548040692293e+00	 9.120090345154196e-02	 3.216591179299980e+00
 1.074722724659275e+00	 1.004600928080565e-01	 2.850527614977930e+00
 1.073814754687918e+00	 1.097406648928512e-01	 2.535673380976898e+00
 1.072823475289827e+00	 1.190416390172018e-01	 2.267621274714223e+00
 1.071748244063308e+00	 1.283620171165029e-01	 2.042115627823495e+00
 1.070588432169329e+00	 1.377007839067012e-01	 1.855055323376025e+00
 1.069343424807589e+00	 1.470569070546535e-01	 1.702496669477640e+00
 1.068012621692267e+00	 1.564293373625551e-01	 1.580656137005391e+00
 1.066595437527016e+00	 1.658170089665724e-01	 1.485912969339090e+00
 1.065091302478747e+00	 1.752188395497967e-01	 1.414811671907555e+00
 1.063499662649765e+00	 1.846337305696236e-01	 1.364064389203861e+00
 1.084339386376554e+00	 9.194636403579613e-02	 3.235959362537005e+00
 1.083507324351631e+00	 1.012812364224699e-01	 2.835983667792562e+00
 1.082591932789227e+00	 1.106376663161409e-01	 2.499120376324835e+00
 1.081592550843088e+00	 1.200146650121027e-01	 2.219475673516987e+00
 1.080508530860630e+00	 1.294112262877406e-01	 1.991152717060846e+00
 1.079339238862790e+00	 1.388263265602434e-01	 1.808253167501618e+00
 1.078084055023988e+00	 1.482589250583530e-01	 1.664878749205241e+00
 1.076742374151761e+00	 1.577079640083017e-01	 1.555132857231463e+00
 1.075313606165639e+00	 1.671723688340671e-01	 1.473122225552620e+00
 1.073797176574809e+00	 1.766510483720674e-01	 1.412958671862890e+00
 1.072192526954103e+00	 1.861428951003989e-01	 1.368760933868562e+00
 9.852621473768629e-01	 1.710509483102449e-01	 1.707955929059814e+00
 9.837063042735066e-01	 1.797828046792139e-01	 1.597058127178301e+00
 9.820684407268566e-01	 1.885246801511627e-01	 1.501199009343976e+00
 9.803480899544126e-01	 1.972755162273639e-01	 1.424413051540512e+00
 9.785448016382446e-01	 2.060342404108244e-01	 1.371253963422127e+00
 9.766581423474189e-01	 2.147997664840680e-01	 1.346799496212931e+00
 9.746876959562029e-01	 2.235709948004863e-01	 1.356655690105071e+00
 9.726330640575948e-01	 2.323468125892456e-01	 1.406960543935614e+00
 9.704938663716977e-01	 2.411260942737208e-01	 1.504387089710228e+00
 9.682697411484724e-01	 2.499077018034106e-01	 1.656145854311616e+00
 9.659603455643851e-01	 2.586904849992691e-01	 1.869986690483709e+00
 9.939555658780577e-01	 1.725602090567694e-01	 1.675778308065998e+00
 9.923859948590488e-01	 1.813691105874806e-01	 1.552790452594757e+00
 9.907336796932259e-01	 1.901881196242338e-01	 1.461879534388834e+00
 9.889981494794223e-01	 1.990161683287150e-01	 1.405169413362040e+00
 9.871789499263163e-01	 2.078521747408316e-01	 1.385144877032268e+00
 9.852756437785816e-01	 2.166950430589465e-01	 1.404655930594478e+00
 9.832878112387866e-01	 2.255436639337991e-01	 1.466921733244700e+00
 9.812150503845686e-01	 2.343969147761029e-01	 1.575534169219482e+00
 9.790569775806152e-01	 2.432536600777888e-01	 1.734461041497082e+00
 9.768132278849667e-01	 2.521127517468493e-01	 1.948048875542238e+00
 9.744834554491673e-01	 2.609730294557169e-01	 2.221025319875729e+00
 1.002648853838463e+00	 1.740694471395653e-01	 1.633570926163799e+00
 1.001065555109914e+00	 1.829553926750787e-01	 1.510170431886088e+00
 9.993987885418061e-01	 1.918515341183668e-01	 1.430715008849681e+00
 9.976480791143788e-01	 2.007567942916664e-01	 1.395779795764876e+00
 9.958129685629900e-01	 2.096700817719251e-01	 1.406171993298552e+00
 9.938930158079936e-01	 2.185902911734854e-01	 1.462934720325147e+00
 9.918877973803253e-01	 2.275163034445774e-01	 1.567350687711550e+00
 9.897969078423287e-01	 2.364469861776063e-01	 1.720945682898859e+00
 9.876199602033381e-01	 2.453811939332054e-01	 1.925491857756717e+00
 9.853565863295357e-01	 2.543177685780086e-01	 2.183010811334531e+00
 9.830064373476020e-01	 2.632555396360757e-01	 2.495776458222485e+00
 1.011342028498917e+00	 1.755786655519053e-01	 1.585215336261804e+00
 1.009745002239733e+00	 1.845416540880865e-01	 1.470304871973113e+00
 1.008063784457593e+00	 1.935149269326224e-01	 1.406766123660214e+00
 1.006297896014211e+00	 2.024973975684194e-01	 1.393979076745745e+00
 1.004446874671686e+00	 2.114879651095853e-01	 1.431455807540552e+00
 1.002510275526112e+00	 2.204855145865648e-01	 1.518843987366717e+00
 1.000487671436852e+00	 2.294889172452022e-01	 1.655930340563770e+00
 9.983786534510133e-01	 2.384970308597194e-01	 1.842644053565383e+00
 9.961828312226307e-01	 2.475087000595783e-01	 2.079060131219173e+00
 9.938998334260826e-01	 2.565227566701822e-01	 2.365402695426050e+00
 9.915293081632356e-01	 2.655380200673481e-01	 2.702048219999141e+00
 1.020035107100263e+00	 1.770878672870617e-01	 1.534433807949151e+00
 1.018424353462134e+00	 1.861278979725826e-01	 1.434234892297068e+00
 1.016728684625583e+00	 1.951783013660614e-01	 1.389096857792393e+00
 1.014947617333847e+00	 2.042379816111748e-01	 1.397550059105849e+00
 1.013080685375823e+00	 2.133058283592927e-01	 1.458185336978255e+00
 1.011127440023394e+00	 2.223807170570650e-01	 1.569657249664441e+00
 1.009087450464400e+00	 2.314615092480545e-01	 1.730687360194783e+00
 1.006960304230760e+00	 2.405470528884052e-01	 1.940067579706462e+00
 1.004745607621257e+00	 2.496361826765149e-01	 2.196663565895389e+00
 1.002442986118509e+00	 2.587277203966641e-01	 2.499418174338812e+00
 1.000052084799612e+00	 2.678204752765360e-01	 2.847354959045009e+00
 1.028728106883340e+00	 1.785970553383068e-01	 1.484795853463473e+00
 1.027103625990749e+00	 1.877141274746451e-01	 1.402938576468039e+00
 1.025393506230771e+00	 1.968416607177445e-01	 1.376774307545925e+00
 1.023597260228217e+00	 2.059785498721337e-01	 1.404321517210377e+00
 1.021714417798819e+00	 2.151236751265281e-01	 1.483615411878538e+00
 1.019744526390295e+00	 2.242759023438662e-01	 1.612710969900405e+00
 1.017687151519001e+00	 2.334340833655150e-01	 1.789686101429862e+00
 1.015541877201707e+00	 2.425970563296270e-01	 2.012644934609618e+00
 1.013308306381981e+00	 2.517636460036226e-01	 2.279721229192492e+00
 1.010986061350717e+00	 2.609326641307482e-01	 2.589081917258937e+00
 1.008574784160278e+00	 2.701029097906421e-01	 2.938930769121770e+00
 1.037421045088988e+00	 1.801062326989132e-01	 1.439724453696458e+00
 1.035782837039206e+00	 1.893003457403527e-01	 1.377333522960652e+00
 1.034058266458154e+00	 1.985050082867326e-01	 1.368868560913820e+00
 1.032246841852249e+00	 2.077191058034972e-01	 1.412166382484082e+00
 1.030348089064095e+00	 2.169415090167715e-01	 1.505064147378597e+00
 1.028361551717273e+00	 2.261710742058484e-01	 1.645402275835238e+00
 1.026286791656689e+00	 2.354066435099647e-01	 1.831027522822058e+00
 1.024123389383992e+00	 2.446470452493479e-01	 2.059796214544461e+00
 1.021870944487567e+00	 2.538910942605090e-01	 2.329577649661056e+00
 1.019529076066611e+00	 2.631375922457283e-01	 2.638257666024723e+00
 1.017097423148778e+00	 2.723853281366685e-01	 2.983742372066190e+00
 1.046113938958048e+00	 1.816154023621531e-01	 1.402502001762882e+00
 1.044462003821135e+00	 1.908865559157836e-01	 1.358279300754919e+00
 1.042722982492728e+00	 2.001683473720864e-01	 1.364452614392074e+00
 1.040896379360873e+00	 2.094596528574664e-01	 1.419000059542246e+00
 1.038981716295068e+00	 2.187593336355037e-01	 1.519910585440890e+00
 1.036978533094784e+00	 2.280662364018920e-01	 1.665186842231764e+00
 1.034886387933496e+00	 2.373791935937844e-01	 1.852848209620512e+00
 1.032704857797753e+00	 2.466970237135312e-01	 2.080933990071842e+00
 1.030433538920778e+00	 2.560185316667817e-01	 2.347506769447760e+00
 1.028072047210091e+00	 2.653425091148985e-01	 2.650655946320504e+00
 1.025620018668658e+00	 2.746677348416176e-01	 2.988501429405494e+00
 1.054806805731360e+00	 1.831245673212992e-01	 1.376275980501694e+00
 1.053141143550166e+00	 1.924727611470166e-01	 1.346579815433250e+00
 1.051387671519489e+00	 2.018316812728667e-01	 1.362602329779159e+00
 1.049545889909018e+00	 2.112001944862422e-01	 1.422778865397027e+00
 1.047615316615159e+00	 2.205771525882051e-01	 1.525592497097517e+00
 1.045595487613285e+00	 2.299613926908770e-01	 1.669576925021675e+00
 1.043485957405453e+00	 2.393517375293550e-01	 1.853319496322063e+00
 1.041286299463128e+00	 2.487469957881400e-01	 2.075464360343779e+00
 1.038996106664379e+00	 2.581459624420481e-01	 2.334715759931110e+00
 1.036614991725062e+00	 2.675474191115525e-01	 2.629841459781610e+00
 1.034142587623462e+00	 2.769501344324914e-01	 2.959676310933997e+00
 1.063499662649765e+00	 1.846337305696236e-01	 1.364064389203862e+00
 1.061820273439929e+00	 1.940589645801295e-01	 1.342985590885255e+00
 1.060052350723433e+00	 2.034950132881345e-01	 1.362396428676288e+00
 1.058195390651612e+00	 2.129407341420258e-01	 1.421498584679895e+00
 1.056248907147787e+00	 2.223949694803564e-01	 1.519604335792132e+00
 1.054212432363233e+00	 2.318565468316837e-01	 1.656139538994338e+00
 1.052085517128595e+00	 2.413242792290574e-01	 1.830646683121399e+00
 1.049867731400256e+00	 2.507969655391378e-01	 2.042788010273005e+00
 1.047558664701134e+00	 2.602733908059156e-01	 2.292348708467073e+00
 1.045157926555424e+00	 2.697523266089842e-01	 2.579240175427092e+00
 1.042665146916736e+00	 2.792325314362925e-01	 2.903503351554345e+00
 1.072192526954103e+00	 1.861428951003989e-01	 1.368760933868562e+00
 1.070499410704053e+00	 1.956451693612012e-01	 1.348195971439798e+00
 1.068717037289555e+00	 2.051583467169502e-01	 1.362916522551172e+00
 1.066844898743585e+00	 2.146812752770183e-01	 1.413193134284185e+00
 1.064882505016370e+00	 2.242127879174378e-01	 1.499495333230961e+00
 1.062829384435084e+00	 2.337517025831922e-01	 1.622494770859628e+00
 1.060685084158954e+00	 2.432968226052727e-01	 1.783068340950595e+00
 1.058449170629273e+00	 2.528469370324876e-01	 1.982301270463210e+00
 1.056121230013807e+00	 2.624008209779921e-01	 2.221490183659862e+00
 1.053700868645081e+00	 2.719572359804877e-01	 2.502146137642684e+00
 1.051187713452026e+00	 2.815149303800232e-01	 2.825997625653880e+00
 9.659603455643851e-01	 2.586904849992691e-01	 1.869986690483709e+00
 9.635653563227460e-01	 2.674732820350743e-01	 2.112674340245873e+00
 9.610844706690255e-01	 2.762549201886375e-01	 2.342823059950296e+00
 9.585174061376137e-01	 2.850342158783321e-01	 2.556017976109337e+00
 9.558639007082445e-01	 2.938099749412080e-01	 2.747384519907432e+00
 9.531237131637238e-01	 3.025809930437929e-01	 2.911588119781654e+00
 9.502966234386567e-01	 3.113460561054973e-01	 3.042834538891099e+00
 9.473824329586863e-01	 3.201039407344277e-01	 3.134870862493769e+00
 9.443809649697816e-01	 3.288534146753910e-01	 3.180987137971143e+00
 9.412920648570995e-01	 3.375932372698591e-01	 3.174018667908705e+00
 9.381156004529616e-01	 3.463221599276365e-01	 3.106348954268550e+00
 9.744834554491673e-01	 2.609730294557169e-01	 2.221025319875729e+00
 9.720673341239003e-01	 2.698333211268695e-01	 2.508453870690680e+00
 9.695645584832749e-01	 2.786924436906383e-01	 2.760855543998408e+00
 9.669748435693406e-01	 2.875492031220878e-01	 2.976299856574223e+00
 9.642979250498880e-01	 2.964023947215949e-01	 3.152681621684116e+00
 9.615335595793364e-01	 3.052508035292754e-01	 3.287721963540467e+00
 9.586815251505340e-01	 3.140932047521239e-01	 3.378969629134975e+00
 9.557416214369939e-01	 3.229283642036727e-01	 3.423802593489388e+00
 9.527136701250852e-01	 3.317550387559495e-01	 3.419429952475832e+00
 9.495975152357088e-01	 3.405719768035005e-01	 3.362894095445671e+00
 9.463930234349912e-01	 3.493779187392194e-01	 3.251073147982736e+00
 9.830064373476020e-01	 2.632555396360757e-01	 2.495776458222485e+00
 9.805691842556489e-01	 2.721933247787372e-01	 2.812214545652795e+00
 9.780445189564625e-01	 2.811299305890004e-01	 3.079135328378381e+00
 9.754321539997879e-01	 2.900641525987808e-01	 3.296622603188494e+00
 9.727318227415056e-01	 2.989947755719440e-01	 3.464818213833227e+00
 9.699432797076762e-01	 3.079205739223554e-01	 3.583924172168982e+00
 9.670663009494203e-01	 3.168403121447574e-01	 3.654204795220327e+00
 9.641006843881437e-01	 3.257527452582738e-01	 3.675988846763391e+00
 9.610462501506362e-01	 3.346566192623189e-01	 3.649671670439691e+00
 9.579028408935608e-01	 3.435506716046804e-01	 3.575717299812383e+00
 9.546703221168643e-01	 3.524336316615091e-01	 3.454660529192935e+00
 9.915293081632356e-01	 2.655380200673481e-01	 2.702048219999141e+00
 9.890709235796760e-01	 2.745532976713896e-01	 3.034876351127763e+00
 9.865243689069056e-01	 2.835673857181275e-01	 3.310411885324807e+00
 9.838893542023931e-01	 2.925790692964668e-01	 3.530292898170826e+00
 9.811656105101376e-01	 3.015871226339011e-01	 3.696396945452321e+00
 9.783528902278685e-01	 3.105903095181872e-01	 3.810844080642476e+00
 9.754509674650010e-01	 3.195873837319579e-01	 3.875999672070457e+00
 9.724596383908544e-01	 3.285770895000708e-01	 3.894477002470532e+00
 9.693787215726591e-01	 3.375581619494725e-01	 3.869139632202506e+00
 9.662080583028561e-01	 3.465293275813365e-01	 3.803103506050858e+00
 9.629475129152258e-01	 3.554893047552184e-01	 3.699738782157640e+00
 1.000052084799612e+00	 2.678204752765360e-01	 2.847354959045009e+00
 9.975725689576675e-01	 2.769132444855391e-01	 3.186960387234872e+00
 9.950041251529212e-01	 2.860048139124229e-01	 3.466974551953331e+00
 9.923464609505925e-01	 2.950939582032003e-01	 3.690139566819156e+00
 9.895993050828242e-01	 3.041794410491115e-01	 3.859568033908654e+00
 9.867624078190368e-01	 3.132600156119249e-01	 3.978746751905318e+00
 9.838355413269591e-01	 3.223344249622841e-01	 4.051540072155328e+00
 9.808185000238453e-01	 3.314014025309032e-01	 4.082192880909039e+00
 9.777111009173797e-01	 3.404596725723824e-01	 4.075333184727261e+00
 9.745131839357962e-01	 3.495079506414066e-01	 4.035974274759974e+00
 9.712246122467209e-01	 3.585449440810584e-01	 3.969516444375683e+00
 1.008574784160278e+00	 2.701029097906421e-01	 2.938930769121770e+00
 1.006074137251309e+00	 2.792731699018982e-01	 3.278606990874930e+00
 1.003483804512826e+00	 2.884422200062909e-01	 3.560673426176791e+00
 1.000803491017823e+00	 2.976088243070368e-01	 3.788535412464528e+00
 9.980329231866059e-01	 3.067717359592214e-01	 3.966050220578323e+00
 9.951718491603041e-01	 3.159296974987229e-01	 4.097531252463775e+00
 9.922200391649797e-01	 3.250814412842958e-01	 4.187751798686262e+00
 9.891772858658344e-01	 3.342256899526103e-01	 4.241948331107417e+00
 9.860434047110226e-01	 3.433611568860221e-01	 4.265823304777747e+00
 9.828182342645817e-01	 3.524865466928280e-01	 4.265547441837791e+00
 9.795016365279939e-01	 3.616005556997415e-01	 4.247761469009902e+00
 1.017097423148778e+00	 2.723853281366685e-01	 2.983742372066191e+00
 1.014575645322286e+00	 2.816330786011796e-01	 3.319593017287509e+00
 1.011963423804938e+00	 2.908796088341344e-01	 3.602939286379554e+00
 1.009260461177522e+00	 3.001236725960307e-01	 3.837418032852409e+00
 1.006466481548522e+00	 3.093640125058759e-01	 4.027150757678559e+00
 1.003581230930795e+00	 3.185993604737352e-01	 4.176748099852601e+00
 1.000604477608747e+00	 3.278284381465518e-01	 4.291313861628237e+00
 9.975360124955410e-01	 3.370499573670315e-01	 4.376448542316504e+00
 9.943756494798129e-01	 3.462626206453642e-01	 4.438252353142314e+00
 9.911232257614139e-01	 3.554651216435385e-01	 4.483327684305420e+00
 9.877786021756902e-01	 3.646561456719794e-01	 4.518780994093740e+00
 1.025620018668658e+00	 2.746677348416176e-01	 2.988501429405495e+00
 1.023077110032282e+00	 2.839929752640952e-01	 3.319348329754440e+00
 1.020442999847574e+00	 2.933169852303574e-01	 3.604802592008892e+00
 1.017717388203125e+00	 3.026385080582376e-01	 3.848309677596384e+00
 1.014899996895614e+00	 3.119562758307208e-01	 4.053784482947397e+00
 1.011990569809631e+00	 3.212690098321160e-01	 4.225615930512567e+00
 1.008988873287944e+00	 3.305754209976118e-01	 4.368671131580583e+00
 1.005894696491684e+00	 3.398742103760061e-01	 4.488299094759483e+00
 1.002707851749976e+00	 3.491640696053813e-01	 4.590333952412315e+00
 9.994281748984939e-01	 3.584436814014762e-01	 4.681097675797536e+00
 9.960555256064552e-01	 3.677117200584841e-01	 4.767402248175109e+00
 1.034142587623462e+00	 2.769501344324914e-01	 2.959676310933997e+00
 1.031578548242984e+00	 2.863528645713577e-01	 3.286971543442056e+00
 1.028922549459051e+00	 2.957543540293634e-01	 3.576911618462273e+00
 1.026174288868070e+00	 3.051533356817125e-01	 3.832336202405232e+00
 1.023333485954921e+00	 3.145485310754019e-01	 4.056492035172627e+00
 1.020399882475940e+00	 3.239386508690197e-01	 4.253037433409434e+00
 1.017373242832256e+00	 3.333223952860350e-01	 4.426046464263252e+00
 1.014253354432981e+00	 3.426984545813739e-01	 4.580012764919640e+00
 1.011040028047737e+00	 3.520655095210467e-01	 4.719852981330928e+00
 1.007733098148022e+00	 3.614222318745779e-01	 4.850909797728703e+00
 1.004332423236933e+00	 3.707672849199675e-01	 4.978981177413824e+00
 1.042665146916736e+00	 2.792325314362925e-01	 2.903503351554344e+00
 1.040079976816076e+00	 2.887127512036795e-01	 3.231245066357949e+00
 1.037402089457687e+00	 2.981917200655562e-01	 3.529549776149763e+00
 1.034631179945794e+00	 3.076681604545102e-01	 3.800245172132699e+00
 1.031766965453483e+00	 3.171407833815649e-01	 4.045457260098144e+00
 1.028809185608841e+00	 3.266082888796002e-01	 4.267614591754865e+00
 1.025757602871366e+00	 3.360693664603806e-01	 4.469452326204981e+00
 1.022612002898152e+00	 3.455226955849741e-01	 4.654016099651212e+00
 1.019372194899320e+00	 3.549669461473329e-01	 4.824665679197114e+00
 1.016038011982201e+00	 3.644007789707822e-01	 4.985078374388507e+00
 1.012609311483770e+00	 3.738228463171415e-01	 5.141692063379843e+00
 1.051187713452026e+00	 2.815149303800232e-01	 2.825997625653881e+00
 1.048581412613244e+00	 2.910726398417731e-01	 3.160649477605587e+00
 1.045881636661798e+00	 3.006290881733392e-01	 3.472652160367269e+00
 1.043088078209732e+00	 3.101829873646860e-01	 3.762423161314384e+00
 1.040200452118341e+00	 3.197330378908551e-01	 4.030523853016034e+00
 1.037218495887461e+00	 3.292779291590120e-01	 4.277663272438647e+00
 1.034141970034960e+00	 3.388163399692082e-01	 4.504701950244391e+00
 1.030970658465916e+00	 3.483469389886462e-01	 4.712655772477514e+00
 1.027704368830951e+00	 3.578683852392130e-01	 4.902699854244721e+00
 1.024342932873230e+00	 3.673793285980262e-01	 5.076172402298855e+00
 1.020886206763610e+00	 3.768784103107179e-01	 5.243730575029849e+00
 9.381156004529616e-01	 3.463221599276365e-01	 3.106348954268550e+00
 9.348508998318095e-01	 3.550404073758257e-01	 2.975138926890216e+00
 9.314984086111489e-01	 3.637452306608892e-01	 2.784989119241040e+00
 9.280580630371016e-01	 3.724353592601340e-01	 2.540007098658674e+00
 9.245298229341035e-01	 3.811095166967163e-01	 2.256501382426181e+00
 9.209136719525729e-01	 3.897664210659201e-01	 1.944153431379078e+00
 9.172096178030529e-01	 3.984047855712462e-01	 1.607867712034259e+00
 9.134176924764241e-01	 4.070233190699295e-01	 1.253067537690581e+00
 9.095379524497916e-01	 4.156207266274775e-01	 8.856957358199479e-01
 9.055704788776667e-01	 4.241957100808110e-01	 5.122145607032346e-01
 9.015153777680721e-01	 4.327469686095653e-01	 1.396048399389442e-01
 9.463930234349912e-01	 3.493779187392194e-01	 3.251073147982735e+00
 9.430995168686512e-01	 3.581730912730492e-01	 3.093330814656503e+00
 9.397174450860709e-01	 3.669547211961475e-01	 2.902211844602165e+00
 9.362467437708336e-01	 3.757215267753867e-01	 2.683008497666575e+00
 9.326873723928802e-01	 3.844722202709525e-01	 2.452023101630755e+00
 9.290393144583593e-01	 3.932055084672652e-01	 2.212472854539775e+00
 9.253025777458402e-01	 4.019200932137996e-01	 1.966203444427792e+00
 9.214771945284640e-01	 4.106146719754152e-01	 1.715222761296752e+00
 9.175632217816512e-01	 4.192879383917875e-01	 1.461701395255753e+00
 9.135607413759673e-01	 4.279385828455182e-01	 1.207972862585505e+00
 9.094698602547836e-01	 4.365652930384773e-01	 9.565335555065277e-01
 9.546703221168643e-01	 3.524336316615091e-01	 3.454660529192935e+00
 9.513480100376310e-01	 3.613057281255642e-01	 3.300769210116543e+00
 9.479363581370631e-01	 3.701641635330709e-01	 3.128053168839495e+00
 9.444353015362197e-01	 3.790076449406455e-01	 2.946859614096562e+00
 9.408447993505555e-01	 3.878348733456836e-01	 2.768350624486918e+00
 9.371648349419601e-01	 3.966445442219223e-01	 2.592074313173732e+00
 9.333954161570299e-01	 4.054353480649910e-01	 2.417445601279294e+00
 9.295365755511700e-01	 4.142059709475558e-01	 2.243754214633004e+00
 9.255883705981118e-01	 4.229550950836430e-01	 2.070165019393054e+00
 9.215508838844715e-01	 4.316813994017183e-01	 1.895718474358554e+00
 9.174242232889597e-01	 4.403835601260684e-01	 1.719331201593327e+00
 9.629475129152258e-01	 3.554893047552184e-01	 3.699738782157640e+00
 9.595963956982929e-01	 3.644383241466699e-01	 3.572352890386867e+00
 9.561551640650344e-01	 3.733735640373091e-01	 3.432672417211657e+00
 9.526237525739953e-01	 3.822937202736523e-01	 3.296658933296473e+00
 9.490021199861547e-01	 3.911974825904597e-01	 3.167895522196753e+00
 9.452902495191458e-01	 4.000835351509420e-01	 3.044324709285368e+00
 9.414881490875990e-01	 4.089505570970414e-01	 2.923544669554837e+00
 9.375958515291822e-01	 4.177972231093881e-01	 2.802808999399203e+00
 9.336134148159376e-01	 4.266222039765179e-01	 2.679026894869498e+00
 9.295409222505252e-01	 4.354241671729183e-01	 2.548763742715333e+00
 9.253784826469882e-01	 4.442017774454529e-01	 2.408242130388709e+00
 9.712246122467209e-01	 3.585449440810584e-01	 3.969516444375683e+00
 9.678446902101844e-01	 3.675708855496655e-01	 3.883827294136345e+00
 9.643738791708958e-01	 3.765829290745127e-01	 3.788084306240277e+00
 9.608121131248981e-01	 3.855797592921484e-01	 3.698718460507286e+00
 9.571593504787009e-01	 3.945600546748302e-01	 3.614375249414098e+00
 9.534155743056878e-01	 4.035224880753752e-01	 3.531933161812011e+00
 9.495807925885241e-01	 4.124657272821720e-01	 3.447774129724719e+00
 9.456550384471418e-01	 4.213884355839487e-01	 3.357782945330570e+00
 9.416383703518920e-01	 4.302892723438851e-01	 3.257347285464271e+00
 9.375308723214741e-01	 4.391668935826254e-01	 3.141358353534724e+00
 9.333326541052582e-01	 4.480199525697459e-01	 3.004212148319001e+00
 9.795016365279939e-01	 3.616005556997415e-01	 4.247761469009902e+00
 9.760929099328501e-01	 3.707034185478503e-01	 4.211767507699665e+00
 9.725925197555580e-01	 3.797922650103322e-01	 4.165821938917222e+00
 9.690003994296654e-01	 3.888657685138760e-01	 4.120512924094676e+00
 9.653165070072187e-01	 3.979225962683448e-01	 4.072758405399901e+00
 9.615408254173563e-01	 4.069614098162727e-01	 4.018894694636900e+00
 9.576733627107815e-01	 4.159808655926035e-01	 3.954674919396036e+00
 9.537141522896891e-01	 4.249796154942740e-01	 3.875268176250289e+00
 9.496632531227387e-01	 4.339563074592176e-01	 3.775259403619012e+00
 9.455207499446650e-01	 4.429095860543472e-01	 3.648649986374580e+00
 9.412867534401580e-01	 4.518380930720615e-01	 3.488859103682617e+00
 9.877786021756902e-01	 3.646561456719794e-01	 4.518780994093740e+00
 9.843410712258356e-01	 3.738359293545230e-01	 4.535575968574972e+00
 9.808111021199305e-01	 3.830015782104174e-01	 4.538388610701735e+00
 9.771886277290335e-01	 3.921517544565758e-01	 4.530631505823802e+00
 9.734736057507323e-01	 4.012851140405534e-01	 4.509212719596238e+00
 9.696660189699228e-01	 4.104003071946854e-01	 4.470436726678714e+00
 9.657658755053475e-01	 4.194959790005573e-01	 4.410002657984069e+00
 9.617732090414657e-01	 4.285707699634006e-01	 4.323003278540724e+00
 9.576880790452408e-01	 4.376233165959891e-01	 4.203924709377578e+00
 9.535105709674433e-01	 4.466522520115910e-01	 4.046646906298860e+00
 9.492407964280759e-01	 4.556562065255140e-01	 3.844444907833504e+00
 9.960555256064552e-01	 3.677117200584841e-01	 4.767402248175109e+00
 9.925891904486867e-01	 3.769684241829833e-01	 4.835201807108870e+00
 9.890296425649242e-01	 3.862108750404191e-01	 4.879225407594112e+00
 9.853768142637397e-01	 3.954377236379905e-01	 4.898731950480024e+00
 9.816306628882662e-01	 4.046476146610058e-01	 4.891055602381164e+00
 9.777911710791584e-01	 4.138391870316641e-01	 4.852968200277117e+00
 9.738583470231990e-01	 4.230110744782542e-01	 4.780677471037751e+00
 9.698322246871114e-01	 4.321619061143651e-01	 4.669825919917248e+00
 9.657128640361627e-01	 4.412903070276732e-01	 4.515490400700759e+00
 9.615003512371543e-01	 4.503948988778640e-01	 4.312182379793866e+00
 9.571947988454013e-01	 4.594743005032184e-01	 4.053848906113564e+00
 1.004332423236933e+00	 3.707672849199675e-01	 4.978981177413824e+00
 1.000837283960950e+00	 3.801009092465300e-01	 5.090048818474378e+00
 9.972481573914492e-01	 3.894201618659871e-01	 5.162672987055942e+00
 9.935649752745213e-01	 3.987236825758612e-01	 5.195496916919571e+00
 9.897876945988443e-01	 4.080101047992519e-01	 5.186707112312189e+00
 9.859162978608341e-01	 4.172780561482596e-01	 5.134031194940484e+00
 9.819507933153128e-01	 4.265261589979156e-01	 5.034736263522251e+00
 9.778912152112671e-01	 4.357530310702037e-01	 4.885627776462610e+00
 9.737376240122680e-01	 4.449572860277427e-01	 4.683048968120541e+00
 9.694901066011445e-01	 4.541375340766737e-01	 4.422880809026772e+00
 9.651487764685219e-01	 4.632923825782889e-01	 4.100542520281705e+00
 1.012609311483770e+00	 3.738228463171415e-01	 5.141692063379843e+00
 1.009085368122169e+00	 3.832333907584627e-01	 5.280217840091887e+00
 1.005466662900416e+00	 3.926294450527717e-01	 5.363935205653054e+00
 1.001753127002115e+00	 4.020096377879295e-01	 5.392592441692655e+00
 9.979447170614915e-01	 4.113725911248411e-01	 5.365645200932819e+00
 9.940414154307206e-01	 4.207169213655227e-01	 5.282254883566861e+00
 9.900432304326650e-01	 4.300412395317623e-01	 5.141287301259331e+00
 9.859501965985736e-01	 4.393441519539534e-01	 4.941311635208208e+00
 9.817623748903193e-01	 4.486242608696710e-01	 4.680599695041212e+00
 9.774798529067596e-01	 4.578801650315273e-01	 4.357125485643182e+00
 9.731027450738268e-01	 4.671104603238400e-01	 3.968565089324173e+00
 1.020886206763610e+00	 3.768784103107179e-01	 5.243730575029849e+00
 1.017333459291891e+00	 3.863658749320800e-01	 5.386478896983314e+00
 1.013685175392733e+00	 3.958387309664232e-01	 5.459044488121588e+00
 1.009941285687257e+00	 4.052955957919373e-01	 5.462628394775982e+00
 1.006101746455231e+00	 4.147350803073234e-01	 5.398363105266639e+00
 1.002166539904589e+00	 4.241557895045043e-01	 5.267311697557665e+00
 9.981356744262321e-01	 4.335563230520150e-01	 5.070466968898388e+00
 9.940091848336720e-01	 4.429352758886505e-01	 4.808750548193907e+00
 9.897871325870814e-01	 4.522912388269316e-01	 4.483011992725475e+00
 9.854696060013458e-01	 4.616227991659320e-01	 4.094027871735073e+00
 9.810567204377049e-01	 4.709285413129863e-01	 3.642500840290784e+00
 9.015153777680721e-01	 4.327469686095653e-01	 1.396048399389447e-01
 8.973734916289077e-01	 4.412717521407645e-01	-2.096811124851793e-01
 8.931442941867405e-01	 4.497702121745721e-01	-5.173601005514022e-01
 8.888279661850488e-01	 4.582410436156898e-01	-7.823813814949712e-01
 8.844247137540192e-01	 4.666829410531057e-01	-1.004035252813364e+00
 8.799347685068711e-01	 4.750945993647693e-01	-1.181957421664277e+00
 8.753583876192406e-01	 4.834747143274810e-01	-1.316132991974304e+00
 8.706958538913733e-01	 4.918219832314509e-01	-1.406900054536002e+00
 8.659474757928984e-01	 5.001351054989742e-01	-1.454952865576999e+00
 8.611135874899662e-01	 5.084127833066525e-01	-1.461344599555137e+00
 8.561945488545586e-01	 5.166537222105835e-01	-1.427489662269530e+00
 9.094698602547836e-01	 4.365652930384773e-01	 9.565335555065273e-01
 9.052914283598296e-01	 4.451652946325164e-01	 7.189254547298487e-01
 9.010249147741403e-01	 4.537387404645846e-01	 5.056160157138824e-01
 8.966705018359983e-01	 4.622843139239722e-01	 3.175921731340289e-01
 8.922283974943962e-01	 4.708006980814723e-01	 1.556422492207118e-01
 8.876988354062080e-01	 4.792865762993890e-01	 2.035258590109640e-02
 8.830820750162708e-01	 4.877406328468080e-01	-8.789563231440700e-02
 8.783784016201311e-01	 4.961615535195786e-01	-1.689293533008993e-01
 8.735881264092127e-01	 5.045480262644485e-01	-2.227864185892415e-01
 8.687115864981905e-01	 5.128987418067736e-01	-2.497180992841963e-01
 8.637491449343864e-01	 5.212123942812260e-01	-2.501913949330675e-01
 9.174242232889597e-01	 4.403835601260684e-01	 1.719331201593328e+00
 9.132092461870271e-01	 4.490587786537446e-01	 1.547541185556955e+00
 9.089054170182405e-01	 4.577072091584488e-01	 1.388237602749942e+00
 9.045129197156632e-01	 4.663275235142201e-01	 1.242301957003528e+00
 9.000319640470583e-01	 4.749183932738121e-01	 1.110533648662144e+00
 8.954627857129170e-01	 4.834784902840402e-01	 9.936474894172560e-01
 8.908056464272401e-01	 4.920064873064326e-01	 8.922712504034304e-01
 8.860608339808328e-01	 5.005010586426355e-01	 8.069432522025569e-01
 8.812286622868647e-01	 5.089608807640041e-01	 7.381100058558924e-01
 8.763094714084870e-01	 5.173846329448051e-01	 6.861239143936724e-01
 8.713036275683089e-01	 5.257709978984395e-01	 6.512410447525063e-01
 9.253784826469882e-01	 4.442017774454529e-01	 2.408242130388709e+00
 9.211269608144043e-01	 4.529522119266949e-01	 2.263793054553681e+00
 9.167858165489323e-01	 4.616756261270721e-01	 2.124873049435215e+00
 9.123552353783855e-01	 4.703706804055071e-01	 1.992219386251150e+00
 9.078354288892730e-01	 4.790360347968520e-01	 1.866578289882651e+00
 9.032266348256714e-01	 4.876703496325702e-01	 1.748703218908565e+00
 8.985291171707118e-01	 4.962722861667687e-01	 1.639353054998149e+00
 8.937431662104189e-01	 5.048405072070253e-01	 1.539290208114844e+00
 8.888690985796693e-01	 5.133736777494393e-01	 1.449278644681335e+00
 8.839072572900483e-01	 5.218704656173233e-01	 1.370081846515215e+00
 8.788580117394046e-01	 5.303295421029417e-01	 1.302460708959982e+00
 9.333326541052582e-01	 4.480199525697459e-01	 3.004212148319001e+00
 9.290445879458680e-01	 4.568456021736130e-01	 2.855758174000068e+00
 9.246661289961033e-01	 4.656439992413594e-01	 2.710111359005502e+00
 9.201974643785068e-01	 4.744137926169062e-01	 2.567828668533152e+00
 9.156388074983086e-01	 4.831536308173199e-01	 2.429542078302865e+00
 9.109903981431454e-01	 4.918621626588275e-01	 2.295957503594690e+00
 9.062525025652485e-01	 5.005380378882299e-01	 2.167853546850947e+00
 9.014254135458306e-01	 5.091799078191523e-01	 2.046080068657949e+00
 8.965094504414431e-01	 5.177864259725528e-01	 1.931556587806788e+00
 8.915049592120664e-01	 5.263562487209043e-01	 1.825270516981981e+00
 8.864123124307511e-01	 5.348880359354498e-01	 1.728275241435931e+00
 9.412867534401580e-01	 4.518380930720615e-01	 3.488859103682617e+00
 9.369621432853240e-01	 4.607389571167452e-01	 3.311944965179882e+00
 9.325463699896418e-01	 4.696123363722164e-01	 3.138752980092397e+00
 9.280396222703682e-01	 4.784568681674906e-01	 2.969626374032984e+00
 9.234421153514332e-01	 4.872711895019432e-01	 2.805024876359105e+00
 9.187540910640122e-01	 4.960539376766596e-01	 2.645524183253221e+00
 9.139758179294120e-01	 5.048037509312295e-01	 2.491815181227806e+00
 9.091075912240104e-01	 5.135192690854202e-01	 2.344702934784769e+00
 9.041497330260017e-01	 5.221991341851426e-01	 2.205105442972050e+00
 8.991025922437338e-01	 5.308419911521246e-01	 2.074052170561796e+00
 8.939665446254272e-01	 5.394464884366806e-01	 1.952682360516303e+00
 9.492407964280759e-01	 4.556562065255140e-01	 3.844444907833504e+00
 9.448796425366777e-01	 4.646322844783374e-01	 3.621275226555105e+00
 9.404265551594381e-01	 4.735806453905491e-01	 3.405801044683599e+00
 9.358817246083116e-01	 4.824999150763336e-01	 3.198120969900382e+00
 9.312453679259155e-01	 4.913887190174496e-01	 2.998467465651195e+00
 9.265177289869452e-01	 5.002456829999145e-01	 2.807206734483821e+00
 9.216990785817664e-01	 5.090694337561815e-01	 2.624838335887125e+00
 9.167897144818992e-01	 5.178585996122334e-01	 2.451994541820066e+00
 9.117899614871610e-01	 5.266118111390078e-01	 2.289439434207093e+00
 9.067001714542431e-01	 5.353277018075605e-01	 2.138067749731479e+00
 9.015207233065106e-01	 5.440049086473518e-01	 1.998903478274323e+00
 9.571947988454013e-01	 4.594743005032184e-01	 4.053848906113564e+00
 9.527971014038353e-01	 4.685255919806352e-01	 3.773067046401080e+00
 9.483067001353794e-01	 4.775489341672630e-01	 3.506452989210715e+00
 9.437237869466789e-01	 4.865429413625085e-01	 3.253832320247873e+00
 9.390485806990231e-01	 4.955062275305661e-01	 3.015158100616059e+00
 9.342813273106181e-01	 5.044374069424400e-01	 2.790511057748865e+00
 9.294222998408734e-01	 5.133350948234994e-01	 2.580099516708906e+00
 9.244717985564375e-01	 5.221979080059954e-01	 2.384259075042090e+00
 9.194301509787368e-01	 5.310244655859463e-01	 2.203452025482501e+00
 9.142977119127867e-01	 5.398133895837890e-01	 2.038266531875788e+00
 9.090748634570801e-01	 5.485633056081808e-01	 1.889415564719728e+00
 9.651487764685219e-01	 4.632923825782889e-01	 4.100542520281705e+00
 9.607145355907024e-01	 4.724188873458850e-01	 3.757018510938728e+00
 9.561868205473563e-01	 4.815172105732643e-01	 3.436092536541517e+00
 9.515658248398112e-01	 4.905859550450882e-01	 3.137291153684589e+00
 9.468517691480248e-01	 4.996237232080208e-01	 2.860238677386622e+00
 9.420449014337045e-01	 5.086291178180842e-01	 2.604657568020885e+00
 9.371454970252964e-01	 5.176007425935968e-01	 2.370368595854084e+00
 9.321538586845686e-01	 5.265372028731108e-01	 2.157290786917096e+00
 9.270703166545445e-01	 5.354371062777572e-01	 1.965441155003534e+00
 9.218952286885570e-01	 5.442990633773857e-01	 1.794934225625728e+00
 9.166289800602130e-01	 5.531216883598840e-01	 1.645981358744937e+00
 9.731027450738268e-01	 4.671104603238400e-01	 3.968565089324173e+00
 9.686319608011851e-01	 4.763121782963325e-01	 3.563192162212339e+00
 9.640669320252565e-01	 4.854854824794586e-01	 3.190282018108113e+00
 9.594078538420502e-01	 4.946289641431463e-01	 2.849038500232370e+00
 9.546549487501882e-01	 5.037412142165409e-01	 2.538710539935638e+00
 9.498084667548776e-01	 5.128208239406948e-01	 2.258592629046812e+00
 9.448686854535973e-01	 5.218663855268871e-01	 2.008025138045674e+00
 9.398359101032321e-01	 5.308764928199834e-01	 1.786394484849689e+00
 9.347104736684004e-01	 5.398497419662385e-01	 1.593133159989252e+00
 9.294927368507461e-01	 5.487847320849273e-01	 1.427719614884778e+00
 9.241830880989882e-01	 5.576800659431796e-01	 1.289678020825854e+00
 9.810567204377049e-01	 4.709285413129863e-01	 3.642500840290784e+00
 9.765493927391889e-01	 4.802054725542235e-01	 3.182000162938051e+00
 9.719470501989695e-01	 4.894537577567515e-01	 2.764755016751443e+00
 9.672498895077370e-01	 4.986719766757557e-01	 2.389625099343173e+00
 9.624581349827819e-01	 5.078587087228539e-01	 2.055439944158347e+00
 9.575720386728110e-01	 5.170125336241197e-01	 1.760999368626109e+00
 9.525918804443397e-01	 5.261320320837842e-01	 1.505073866935189e+00
 9.475179680493709e-01	 5.352157864530170e-01	 1.286404953817750e+00
 9.423506371741205e-01	 5.442623814031888e-01	 1.103705466568300e+00
 9.370902514685465e-01	 5.532704046029900e-01	 9.556598333145461e-01
 9.317372025564836e-01	 5.622384473987843e-01	 8.409243162860438e-01
 8.561945488545586e-01	 5.166537222105835e-01	-1.427489662269530e+00
 8.511907456626934e-01	 5.248566319374305e-01	-1.360077344533917e+00
 8.461025901846804e-01	 5.330202275143922e-01	-1.267047867950758e+00
 8.409305205124762e-01	 5.411432294266815e-01	-1.152116871209115e+00
 8.356750002871786e-01	 5.492243640870376e-01	-1.019201756664684e+00
 8.303365186157974e-01	 5.572623644660746e-01	-8.724190629106490e-01
 8.249155899695261e-01	 5.652559707219061e-01	-7.160815372430762e-01
 8.194127540634818e-01	 5.732039308284176e-01	-5.546949041751246e-01
 8.138285757179111e-01	 5.811050012015556e-01	-3.929543267021784e-01
 8.081636447008754e-01	 5.889579473229990e-01	-2.357405576241046e-01
 8.024185755524645e-01	 5.967615443605806e-01	-8.811577889185010e-02
 8.637491449343864e-01	 5.212123942812260e-01	-2.501913949330687e-01
 8.587011908977178e-01	 5.294876820298390e-01	-2.279475010549251e-01
 8.535681402961494e-01	 5.377233087419441e-01	-1.884774541176975e-01
 8.483504350871245e-01	 5.459179836130426e-01	-1.350725652884408e-01
 8.430485430026597e-01	 5.540704218184632e-01	-7.107040554900490e-02
 8.376629574653811e-01	 5.621793451492738e-01	 1.482693511604682e-04
 8.321941974858973e-01	 5.702434826474593e-01	 7.516267933854576e-02
 8.266428075414806e-01	 5.782615712397395e-01	 1.505152678445408e-01
 8.210093574360455e-01	 5.862323563693832e-01	 2.227150388717261e-01
 8.152944421414487e-01	 5.941545926253828e-01	 2.882409849599566e-01
 8.094986816201494e-01	 6.020270443683502e-01	 3.435456074722075e-01
 8.713036275683089e-01	 5.257709978984395e-01	 6.512410447525063e-01
 8.662115233500910e-01	 5.341186625824692e-01	 6.325735827595544e-01
 8.610335782993952e-01	 5.424263193485215e-01	 6.271174778683180e-01
 8.557702382390909e-01	 5.506926661025537e-01	 6.319360173300126e-01
 8.504219749920489e-01	 5.589164067826506e-01	 6.441687605441612e-01
 8.449892862964444e-01	 5.670962520004978e-01	 6.610349346191109e-01
 8.394726957022308e-01	 5.752309196821163e-01	 6.798367453081544e-01
 8.338727524487609e-01	 5.833191357072233e-01	 6.979626040119656e-01
 8.281900313235401e-01	 5.913596345465710e-01	 7.128902717269185e-01
 8.224251325021389e-01	 5.993511598966268e-01	 7.221899209587515e-01
 8.165786813693012e-01	 6.072924653109393e-01	 7.235271167097006e-01
 8.788580117394046e-01	 5.303295421029417e-01	 1.302460708959981e+00
 8.737217579152943e-01	 5.387495827795208e-01	 1.248199545363934e+00
 8.684989190008251e-01	 5.471292686611281e-01	 1.206728769072410e+00
 8.631899446842412e-01	 5.554672863643203e-01	 1.175397747692519e+00
 8.577953108792116e-01	 5.637623285900818e-01	 1.151722261390944e+00
 8.523155196394018e-01	 5.720130947708595e-01	 1.133388093761803e+00
 8.467510990540494e-01	 5.802182917168527e-01	 1.118254412137145e+00
 8.411026031245225e-01	 5.883766342609167e-01	 1.104356937284982e+00
 8.353706116218506e-01	 5.964868459014283e-01	 1.089910902871732e+00
 8.295557299252466e-01	 6.045476594424677e-01	 1.073313805450570e+00
 8.236585888416686e-01	 6.125578176306615e-01	 1.053147946069907e+00
 8.864123124307511e-01	 5.348880359354498e-01	 1.728275241435931e+00
 8.812319094888068e-01	 5.433804518051942e-01	 1.644762364149039e+00
 8.759641772068461e-01	 5.518321660067671e-01	 1.576457001136784e+00
 8.706095691384411e-01	 5.602418538674465e-01	 1.520927256635955e+00
 8.651685652880142e-01	 5.686081968512386e-01	 1.475965957122789e+00
 8.596416720246698e-01	 5.769298832114717e-01	 1.439594314095887e+00
 8.540294219768775e-01	 5.852056086426440e-01	 1.410065293876886e+00
 8.483323739079661e-01	 5.934340769308681e-01	 1.385866694174300e+00
 8.425511125724330e-01	 6.016140006022647e-01	 1.365723927750739e+00
 8.366862485530752e-01	 6.097441015686451e-01	 1.348602514078324e+00
 8.307384180790003e-01	 6.178231117698287e-01	 1.333710280358698e+00
 8.939665446254272e-01	 5.394464884366806e-01	 1.952682360516304e+00
 8.887419929661107e-01	 5.480112788436901e-01	 1.847249314616165e+00
 8.834293677238655e-01	 5.565350207124422e-01	 1.761548804599583e+00
 8.780291263175578e-01	 5.650163780810377e-01	 1.693301467002962e+00
 8.725417528423216e-01	 5.734540211766025e-01	 1.640479681692530e+00
 8.669677579826620e-01	 5.818466270734466e-01	 1.601311184903199e+00
 8.613076789062371e-01	 5.901928803504651e-01	 1.574282349816536e+00
 8.555620791382921e-01	 5.984914737471259e-01	 1.558141134766619e+00
 8.497315484167444e-01	 6.067411088173905e-01	 1.551899699838165e+00
 8.438167025279261e-01	 6.149404965808971e-01	 1.554836693244044e+00
 8.378181831230445e-01	 6.230883581707538e-01	 1.566499209434347e+00
 9.015207233065106e-01	 5.440049086473518e-01	 1.998903478274324e+00
 8.962520232426849e-01	 5.526420730792081e-01	 1.879837989375146e+00
 8.908945053582911e-01	 5.612378421051567e-01	 1.786432207710041e+00
 8.854486309374568e-01	 5.697908684741977e-01	 1.716494203919726e+00
 8.799148881660003e-01	 5.782998111766552e-01	 1.668080048735961e+00
 8.742937920437945e-01	 5.867633361078972e-01	 1.639497256271554e+00
 8.685858842776520e-01	 5.951801167312915e-01	 1.629307897774599e+00
 8.627917331547008e-01	 6.035488347397386e-01	 1.636331386816783e+00
 8.569119333962408e-01	 6.118681807151147e-01	 1.659646937561882e+00
 8.509471059921021e-01	 6.201368547849615e-01	 1.698595698379584e+00
 8.448978980155512e-01	 6.283535672757500e-01	 1.752782563624783e+00
 9.090748634570801e-01	 5.485633056081808e-01	 1.889415564719727e+00
 9.037620152140117e-01	 5.572728436959491e-01	 1.765929490342690e+00
 8.983596049165294e-01	 5.659406395119149e-01	 1.674750140242660e+00
 8.928680977140043e-01	 5.745653345160320e-01	 1.613708995440629e+00
 8.872879858829165e-01	 5.831455764618790e-01	 1.580851536615975e+00
 8.816197887384816e-01	 5.916800200659359e-01	 1.574440399221161e+00
 8.758640525266459e-01	 6.001673276760989e-01	 1.592958243865124e+00
 8.700213502963929e-01	 6.086061699387545e-01	 1.635110344348312e+00
 8.640922817523794e-01	 6.169952264637478e-01	 1.699826896332394e+00
 8.580774730879046e-01	 6.253331864865770e-01	 1.786265050160001e+00
 8.519775767982680e-01	 6.336187495271290e-01	 1.893810671803456e+00
 9.166289800602130e-01	 5.531216883598840e-01	 1.645981358744937e+00
 9.112719837755705e-01	 5.619035998781131e-01	 1.528179899999198e+00
 9.058246812049882e-01	 5.706434222597192e-01	 1.449392199220770e+00
 9.002875413630671e-01	 5.793397856756451e-01	 1.407410168416668e+00
 8.946610606169344e-01	 5.879913266427550e-01	 1.400175952354487e+00
 8.889457625971390e-01	 5.965966886986754e-01	 1.425784678581063e+00
 8.831421980887418e-01	 6.051545230758629e-01	 1.482487008884783e+00
 8.772509449025682e-01	 6.136634893742215e-01	 1.568691496527116e+00
 8.712726077266154e-01	 6.221222562315994e-01	 1.682966754013201e+00
 8.652078179576365e-01	 6.305295019914821e-01	 1.824043436538834e+00
 8.590572335129438e-01	 6.388839153672046e-01	 1.990816046539235e+00
 9.241830880989882e-01	 5.576800659431796e-01	 1.289678020825854e+00
 9.187819438228425e-01	 5.665343508099006e-01	 1.188530130599749e+00
 9.132897490300741e-01	 5.753461996755740e-01	 1.132524776427848e+00
 9.077069766005101e-01	 5.841142314221418e-01	 1.119352337547284e+00
 9.020341269919213e-01	 5.928370713297655e-01	 1.146760367598687e+00
 8.962717281501817e-01	 6.015133517572285e-01	 1.212555824062701e+00
 8.904203353994636e-01	 6.101417128215584e-01	 1.314607226193750e+00
 8.844805313124273e-01	 6.187208030761884e-01	 1.450846748244472e+00
 8.784529255604061e-01	 6.272492801869793e-01	 1.619272254985169e+00
 8.723381547435993e-01	 6.357258116054149e-01	 1.817949286645434e+00
 8.661368822013277e-01	 6.441490752382886e-01	 2.045013000437718e+00
 9.317372025564836e-01	 5.622384473987843e-01	 8.409243162860438e-01
 9.262919102513079e-01	 5.711651056755117e-01	 7.682342437830973e-01
 9.207548231981949e-01	 5.800489810864823e-01	 7.456196410690940e-01
 9.151264181422006e-01	 5.888886812246268e-01	 7.706083791847060e-01
 9.094071996317424e-01	 5.976828201333920e-01	 8.406636136906633e-01
 9.035976999280246e-01	 6.064300189927078e-01	 9.531853794019727e-01
 8.976984788943334e-01	 6.151289068041607e-01	 1.105512281075616e+00
 8.917101238651709e-01	 6.237781210747034e-01	 1.294923289833902e+00
 8.856332494952078e-01	 6.323763084981971e-01	 1.518639655007175e+00
 8.794684975880961e-01	 6.409221256341138e-01	 1.773826940879187e+00
 8.732165369051681e-01	 6.494142395826942e-01	 2.057597197515062e+00
 8.024185755524645e-01	 5.967615443605806e-01	-8.811577889185054e-02
 7.965930109800831e-01	 6.045158907765116e-01	 3.554352605909142e-02
 7.906885874742027e-01	 6.122184477348452e-01	 1.247917925836208e-01
 7.847059963145351e-01	 6.198680180939394e-01	 1.809810571474123e-01
 7.786459526990358e-01	 6.274634168227140e-01	 2.062375219051218e-01
 7.725091954758022e-01	 6.350034715981188e-01	 2.034629196222942e-01
 7.662964868572391e-01	 6.424870233956012e-01	 1.763348543461032e-01
 7.600086121167052e-01	 6.499129270719646e-01	 1.293061159609614e-01
 7.536463792678838e-01	 6.572800519400025e-01	 6.760296837742774e-02
 7.472106187271417e-01	 6.645872823343153e-01	-2.777587307164153e-03
 7.407021829591638e-01	 6.718335181677186e-01	-7.507157204249371e-02
 8.094986816201494e-01	 6.020270443683502e-01	 3.435456074722080e-01
 8.036217154269951e-01	 6.098498109292910e-01	 3.837624279004294e-01
 7.976651944919537e-01	 6.176203310709076e-01	 4.083586753757529e-01
 7.916298161942060e-01	 6.253373970885747e-01	 4.206105290071351e-01
 7.855163020422161e-01	 6.329998134950842e-01	 4.242137821785006e-01
 7.793253974032675e-01	 6.406063976233868e-01	 4.232815247125190e-01
 7.730578712151039e-01	 6.481559802222706e-01	 4.223412899050414e-01
 7.667145156799011e-01	 6.556474060443600e-01	 4.263316724916830e-01
 7.602961459408082e-01	 6.630795344258220e-01	 4.405984242549307e-01
 7.538035997413250e-01	 6.704512398571739e-01	 4.708900345780755e-01
 7.472377370678133e-01	 6.777614125446016e-01	 5.233528038052642e-01
 8.165786813693012e-01	 6.072924653109393e-01	 7.235271167097015e-01
 8.106503143273643e-01	 6.151836509892984e-01	 7.159178456989799e-01
 8.046416967455776e-01	 6.230221332934016e-01	 7.030330279513111e-01
 7.985535321025004e-01	 6.308066939558101e-01	 6.896906091515043e-01
 7.923865482170144e-01	 6.385361270333599e-01	 6.808355816616857e-01
 7.861414969754934e-01	 6.462092395151721e-01	 6.815346416533012e-01
 7.798191540409224e-01	 6.538248519235408e-01	 6.969707171002248e-01
 7.734203185441926e-01	 6.613817989070782e-01	 7.324373793170181e-01
 7.669458127578129e-01	 6.688789298254855e-01	 7.933331505643526e-01
 7.603964817523109e-01	 6.763151093253599e-01	 8.851557200125624e-01
 7.537731930356146e-01	 6.836892179064176e-01	 1.013496080059596e+00
 8.236585888416686e-01	 6.125578176306615e-01	 1.053147946069907e+00
 8.176788216209810e-01	 6.205174215345686e-01	 1.027804349481306e+00
 8.116181080715288e-01	 6.284238651151836e-01	 1.000573543050136e+00
 8.054771577711725e-01	 6.362759195424054e-01	 9.774419369809952e-01
 7.992567048491315e-01	 6.440723684172610e-01	 9.642913032644403e-01
 7.929575077107871e-01	 6.518120083851870e-01	 9.668910552592888e-01
 7.865803487442807e-01	 6.594936497421310e-01	 9.908907221430723e-01
 7.801260340091297e-01	 6.671161170328332e-01	 1.041812636252479e+00
 7.735953929071139e-01	 6.746782496406746e-01	 1.125044850520217e+00
 7.669892778356941e-01	 6.821789023684698e-01	 1.245834302313866e+00
 7.603085638242696e-01	 6.896169460096039e-01	 1.409280239002211e+00
 8.307384180790003e-01	 6.178231117698287e-01	 1.333710280358698e+00
 8.247072512476353e-01	 6.258511331431356e-01	 1.315387793546666e+00
 8.185944423062617e-01	 6.338255372491119e-01	 1.293047776016544e+00
 8.124007069319761e-01	 6.417450846951208e-01	 1.273480571120636e+00
 8.061267855642680e-01	 6.496085486265063e-01	 1.263200017490541e+00
 7.997734431274555e-01	 6.574147153451445e-01	 1.268433988635018e+00
 7.933414687347635e-01	 6.651623849207586e-01	 1.295115370540149e+00
 7.868316753742628e-01	 6.728503717943410e-01	 1.348873499364467e+00
 7.802448995769263e-01	 6.804775053730707e-01	 1.435026080006623e+00
 7.735820010670694e-01	 6.880426306160995e-01	 1.558571604909695e+00
 7.668438623954803e-01	 6.955446086105990e-01	 1.724182290960659e+00
 8.378181831230445e-01	 6.230883581707538e-01	 1.566499209434347e+00
 8.317356171471174e-01	 6.311847963930338e-01	 1.574797227214089e+00
 8.255707132862306e-01	 6.392271604080448e-01	 1.572818197095147e+00
 8.193241933166653e-01	 6.472142002607169e-01	 1.567800344696840e+00
 8.129968039881240e-01	 6.551446786408139e-01	 1.566592313670211e+00
 8.065893167438050e-01	 6.630173715067564e-01	 1.575642593272745e+00
 8.001025274219574e-01	 6.708310687021428e-01	 1.600989547281321e+00
 7.935372559391436e-01	 6.785845745643170e-01	 1.648252069157233e+00
 7.868943459554661e-01	 6.862767085243553e-01	 1.722620886714310e+00
 7.801746645220309e-01	 6.939063056978452e-01	 1.828850537770001e+00
 7.733791017109483e-01	 7.014722174658394e-01	 1.971252036386464e+00
 8.448978980155512e-01	 6.283535672757500e-01	 1.752782563624783e+00
 8.387639332592167e-01	 6.365184218622979e-01	 1.802317126822671e+00
 8.325469348478910e-01	 6.446287453048386e-01	 1.832528859827207e+00
 8.262476306569944e-01	 6.526832770859530e-01	 1.850756022416389e+00
 8.198667737464004e-01	 6.606807694399038e-01	 1.863892008969680e+00
 8.134051420781427e-01	 6.686199879817359e-01	 1.878374282675783e+00
 8.068635382154477e-01	 6.764997123290019e-01	 1.900173995657020e+00
 8.002427890033217e-01	 6.843187367154759e-01	 1.934786321512157e+00
 7.935437452309484e-01	 6.920758705962095e-01	 1.987221524919679e+00
 7.867672812761725e-01	 6.997699392433018e-01	 2.061996790967477e+00
 7.799142947323758e-01	 7.073997843317636e-01	 2.163128834791263e+00
 8.519775767982680e-01	 6.336187495271290e-01	 1.893810671803457e+00
 8.457922135237235e-01	 6.418520201289618e-01	 1.994379930143283e+00
 8.395231208276964e-01	 6.500303026523526e-01	 2.065092649468546e+00
 8.331710326847167e-01	 6.581523260175891e-01	 2.113047212511721e+00
 8.267367084647974e-01	 6.662168320034949e-01	 2.144898683799235e+00
 8.202209326487752e-01	 6.742225758817946e-01	 2.166847860129459e+00
 8.136245145248202e-01	 6.821683270440537e-01	 2.184631013795507e+00
 8.069482878663485e-01	 6.900528696205332e-01	 2.203510355426380e+00
 8.001931105915888e-01	 6.978750030903157e-01	 2.228265241411310e+00
 7.933598644050892e-01	 7.056335428820665e-01	 2.263184148842635e+00
 7.864494544214645e-01	 7.133273209648090e-01	 2.312057438772297e+00
 8.590572335129438e-01	 6.388839153672046e-01	 1.990816046539235e+00
 8.528204718804285e-01	 6.471856017710603e-01	 2.147558855600249e+00
 8.464992850621017e-01	 6.554318431634429e-01	 2.263679077732169e+00
 8.400944131315864e-01	 6.636213579023855e-01	 2.345702989717704e+00
 8.336066217690161e-01	 6.717528773113061e-01	 2.399770995636535e+00
 8.270367019740094e-01	 6.798251463186452e-01	 2.431627394504598e+00
 8.203854697596604e-01	 6.878369240900172e-01	 2.446610770712554e+00
 8.136537658277739e-01	 6.957869846522043e-01	 2.449645033308574e+00
 8.068424552256028e-01	 7.036741175083541e-01	 2.445231128358759e+00
 7.999524269843750e-01	 7.114971282437339e-01	 2.437439446686010e+00
 7.929845937399159e-01	 7.192548391214126e-01	 2.429902947243115e+00
 8.661368822013277e-01	 6.441490752382886e-01	 2.045013000437718e+00
 8.598487222691207e-01	 6.525191773666280e-01	 2.258560989850101e+00
 8.534754413875616e-01	 6.608333775509690e-01	 2.421702592364648e+00
 8.470177857293582e-01	 6.690903835871029e-01	 2.540067188317394e+00
 8.404765272847562e-01	 6.772889163430560e-01	 2.619010726426725e+00
 8.338524635721513e-01	 6.854277104040002e-01	 2.663606801000276e+00
 8.271464173295543e-01	 6.935055147096107e-01	 2.678638206168124e+00
 8.203592361871495e-01	 7.015210931832043e-01	 2.668588991173933e+00
 8.134917923212063e-01	 7.094732253520071e-01	 2.637637039185872e+00
 8.065449820896243e-01	 7.173607069579004e-01	 2.589647190401315e+00
 7.995197256494324e-01	 7.251823505580131e-01	 2.528164928420499e+00
 8.732165369051681e-01	 6.494142395826942e-01	 2.057597197515062e+00
 8.668769786295907e-01	 6.578527574936988e-01	 2.324220628328585e+00
 8.604516036405305e-01	 6.662349165277870e-01	 2.532811372109747e+00
 8.539411642097845e-01	 6.745594139185001e-01	 2.687784326955530e+00
 8.473464386377192e-01	 6.828249600784643e-01	 2.793447521634453e+00
 8.406682309615092e-01	 6.910302792495726e-01	 2.853995086532513e+00
 8.339073706440876e-01	 6.991741101455530e-01	 2.873500480943112e+00
 8.270647122440257e-01	 7.072552065862484e-01	 2.855909997548809e+00
 8.201411350666138e-01	 7.152723381229559e-01	 2.805036563759143e+00
 8.131375427964318e-01	 7.232242906541624e-01	 2.724553858271118e+00
 8.060548631117155e-01	 7.311098670310472e-01	 2.617990759815550e+00
 7.407021829591638e-01	 6.718335181677186e-01	-7.507157204249382e-02
 7.341230687229586e-01	 6.790164615925394e-01	-1.197726619841106e-01
 7.274730610723107e-01	 6.861362925476358e-01	-1.130202682250086e-01
 7.207530641401294e-01	 6.931919731627650e-01	-5.708311686852986e-02
 7.139640025157525e-01	 7.001824832538673e-01	 4.421144577147115e-02
 7.071068208180253e-01	 7.071068208180252e-01	 1.854820649049258e-01
 7.001824832538673e-01	 7.139640025157528e-01	 3.598000953762053e-01
 6.931919731627649e-01	 7.207530641401293e-01	 5.586984095632639e-01
 6.861362925476358e-01	 7.274730610723109e-01	 7.721822749724363e-01
 6.790164615925391e-01	 7.341230687229588e-01	 9.887422780059087e-01
 6.718335181677186e-01	 7.407021829591638e-01	 1.195369267025927e+00
 7.472377370678133e-01	 6.777614125446016e-01	 5.233528038052649e-01
 7.406005722975900e-01	 6.850077343654265e-01	 6.049431463145398e-01
 7.338918885878577e-01	 6.921903868461908e-01	 7.145577917094065e-01
 7.271125980490919e-01	 6.993083229590611e-01	 8.459509659186341e-01
 7.202636334286914e-01	 7.063605135184399e-01	 9.923395527575016e-01
 7.133459476802922e-01	 7.133459476802920e-01	 1.145936985877276e+00
 7.063605135184399e-01	 7.202636334286913e-01	 1.297963710521495e+00
 6.993083229590610e-01	 7.271125980490921e-01	 1.438658937536410e+00
 6.921903868461905e-01	 7.338918885878579e-01	 1.557293664073502e+00
 6.850077343654261e-01	 7.406005722975902e-01	 1.642184933653283e+00
 6.777614125446015e-01	 7.472377370678134e-01	 1.680301868059619e+00
 7.537731930356146e-01	 6.836892179064176e-01	 1.013496080059596e+00
 7.470779786030873e-01	 6.909989171712875e-01	 1.172148396867792e+00
 7.403106197153839e-01	 6.982443902341711e-01	 1.345853264941312e+00
 7.334720364604299e-01	 7.054245809097757e-01	 1.525460391245390e+00
 7.265631697435692e-01	 7.125384510110958e-01	 1.701295436463891e+00
 7.195849808531080e-01	 7.195849808531080e-01	 1.863674871340192e+00
 7.125384510110958e-01	 7.265631697435693e-01	 2.002392309558167e+00
 7.054245809097756e-01	 7.334720364604301e-01	 2.106732621694845e+00
 6.982443902341712e-01	 7.403106197153843e-01	 2.165486631190895e+00
 6.909989171712871e-01	 7.470779786030874e-01	 2.166516292030501e+00
 6.836892179064176e-01	 7.537731930356144e-01	 2.097254297803643e+00
 7.603085638242696e-01	 6.896169460096039e-01	 1.409280239002211e+00
 7.535553004860229e-01	 6.969900218922882e-01	 1.604105378626942e+00
 7.467292671850901e-01	 7.042983147183586e-01	 1.808818054699412e+00
 7.398313919867479e-01	 7.115407591451790e-01	 2.012818854700642e+00
 7.328626239541822e-01	 7.187163079844499e-01	 2.204412914443826e+00
 7.258239327102680e-01	 7.258239327102679e-01	 2.371981669002454e+00
 7.187163079844500e-01	 7.328626239541822e-01	 2.504304982971258e+00
 7.115407591451791e-01	 7.398313919867480e-01	 2.590043257344164e+00
 7.042983147183586e-01	 7.467292671850901e-01	 2.617294652127793e+00
 6.969900218922880e-01	 7.535553004860231e-01	 2.573938360688341e+00
 6.896169460096039e-01	 7.603085638242696e-01	 2.448613485668382e+00
 7.668438623954803e-01	 6.955446086105990e-01	 1.724182290960659e+00
 7.600325507929693e-01	 7.029810604105929e-01	 1.921916496111520e+00
 7.531478437271784e-01	 7.103521723055354e-01	 2.130837921740957e+00
 7.461906772406504e-01	 7.176568697955423e-01	 2.338850006525345e+00
 7.391620085543288e-01	 7.248940966911156e-01	 2.533919673877598e+00
 7.320628156255664e-01	 7.320628156255664e-01	 2.703039827725168e+00
 7.248940966911156e-01	 7.391620085543289e-01	 2.833888680233346e+00
 7.176568697955424e-01	 7.461906772406506e-01	 2.914393735477782e+00
 7.103521723055352e-01	 7.531478437271785e-01	 2.932307616132915e+00
 7.029810604105927e-01	 7.600325507929695e-01	 2.876641348683903e+00
 6.955446086105990e-01	 7.668438623954806e-01	 2.736687805132215e+00
 7.733791017109483e-01	 7.014722174658394e-01	 1.971252036386464e+00
 7.665097423704988e-01	 7.089720446083670e-01	 2.145999541945608e+00
 7.595663620718501e-01	 7.164059750024827e-01	 2.337867188793088e+00
 7.525499048347427e-01	 7.237729249911359e-01	 2.533879947338212e+00
 7.454613360378058e-01	 7.310718293837064e-01	 2.721387494986892e+00
 7.383016419727988e-01	 7.383016419727987e-01	 2.887977724882596e+00
 7.310718293837067e-01	 7.454613360378060e-01	 3.019983957808579e+00
 7.237729249911358e-01	 7.525499048347428e-01	 3.104314119447127e+00
 7.164059750024824e-01	 7.595663620718502e-01	 3.129943895229103e+00
 7.089720446083670e-01	 7.665097423704992e-01	 3.086407301179921e+00
 7.014722174658394e-01	 7.733791017109484e-01	 2.963711062821534e+00
 7.799142947323758e-01	 7.073997843317636e-01	 2.163128834791263e+00
 7.729868880651846e-01	 7.149629863677764e-01	 2.296115383698259e+00
 7.659848349493077e-01	 7.224597348159835e-01	 2.455016180504161e+00
 7.589090873816301e-01	 7.298889368622302e-01	 2.626593953909055e+00
 7.517606188984109e-01	 7.372495183148371e-01	 2.798080730716940e+00
 7.445404241257600e-01	 7.445404241257600e-01	 2.956935153481043e+00
 7.372495183148372e-01	 7.517606188984112e-01	 3.089854456747919e+00
 7.298889368622299e-01	 7.589090873816300e-01	 3.184108864305681e+00
 7.224597348159834e-01	 7.659848349493079e-01	 3.228977551144959e+00
 7.149629863677766e-01	 7.729868880651850e-01	 3.214627810749996e+00
 7.073997843317635e-01	 7.799142947323758e-01	 3.131846305256770e+00
 7.864494544214645e-01	 7.133273209648090e-01	 2.312057438772297e+00
 7.794640007235981e-01	 7.209538975709855e-01	 2.391394041935174e+00
 7.724032750897520e-01	 7.285134637528188e-01	 2.506587104535038e+00
 7.652682374939169e-01	 7.360049175390959e-01	 2.644739784440737e+00
 7.580598696299415e-01	 7.434271757371210e-01	 2.793349237807829e+00
 7.507791744582448e-01	 7.507791744582448e-01	 2.939134679920511e+00
 7.434271757371208e-01	 7.580598696299413e-01	 3.070706029036616e+00
 7.360049175390958e-01	 7.652682374939170e-01	 3.177290231069859e+00
 7.285134637528189e-01	 7.724032750897525e-01	 3.247564090737768e+00
 7.209538975709853e-01	 7.794640007235986e-01	 3.272320972563944e+00
 7.133273209648087e-01	 7.864494544214645e-01	 3.243189453730784e+00
 7.929845937399159e-01	 7.192548391214126e-01	 2.429902947243115e+00
 7.859410931923126e-01	 7.269447901001596e-01	 2.450359377950432e+00
 7.788216952233861e-01	 7.345671738197718e-01	 2.516106046670873e+00
 7.716273677842082e-01	 7.421208791520038e-01	 2.615133549693408e+00
 7.643591007261943e-01	 7.496048139031718e-01	 2.734498502827012e+00
 7.570179053440483e-01	 7.570179053440486e-01	 2.862776640282194e+00
 7.496048139031719e-01	 7.643591007261945e-01	 2.989959410555003e+00
 7.421208791520038e-01	 7.716273677842083e-01	 3.106643447865919e+00
 7.345671738197715e-01	 7.788216952233864e-01	 3.203266727355996e+00
 7.269447901001591e-01	 7.859410931923128e-01	 3.270147516405195e+00
 7.192548391214126e-01	 7.929845937399160e-01	 3.299772777320992e+00
 7.995197256494324e-01	 7.251823505580131e-01	 2.528164928420499e+00
 7.924181783178998e-01	 7.329356758374636e-01	 2.490952471024139e+00
 7.852401080804104e-01	 7.406208770236232e-01	 2.506353294924947e+00
 7.779864908651088e-01	 7.482368338312242e-01	 2.562629312183937e+00
 7.706583246809673e-01	 7.557824450656035e-01	 2.648629173100040e+00
 7.632566291569655e-01	 7.632566291569653e-01	 2.755127050369739e+00
 7.557824450656037e-01	 7.706583246809673e-01	 2.873407730330694e+00
 7.482368338312242e-01	 7.779864908651088e-01	 2.995278688225990e+00
 7.406208770236232e-01	 7.852401080804107e-01	 3.113081367780512e+00
 7.329356758374633e-01	 7.924181783179000e-01	 3.218426162889622e+00
 7.251823505580127e-01	 7.995197256494323e-01	 3.303568213381291e+00
 8.060548631117155e-01	 7.311098670310472e-01	 2.617990759815550e+00
 7.988952689469325e-01	 7.389265666650634e-01	 2.530553759839199e+00
 7.916585263910276e-01	 7.466745853711559e-01	 2.498522430346267e+00
 7.843456193492238e-01	 7.543527937070280e-01	 2.511679603862933e+00
 7.769575539880575e-01	 7.619600814770303e-01	 2.562169838736992e+00
 7.694953582707912e-01	 7.694953582707911e-01	 2.642562415375609e+00
 7.619600814770304e-01	 7.769575539880578e-01	 2.745782839443115e+00
 7.543527937070278e-01	 7.843456193492236e-01	 2.865122940947651e+00
 7.466745853711558e-01	 7.916585263910276e-01	 2.994250384619479e+00
 7.389265666650633e-01	 7.988952689469326e-01	 3.127148248169801e+00
 7.311098670310470e-01	 8.060548631117156e-01	 3.256490544252284e+00
 6.718335181677186e-01	 7.407021829591638e-01	 1.195369267025927e+00
 6.645872823343156e-01	 7.472106187271413e-01	 1.338250186681363e+00
 6.572800519400028e-01	 7.536463792678837e-01	 1.375529410032089e+00
 6.499129270719648e-01	 7.600086121167050e-01	 1.312555554657299e+00
 6.424870233956014e-01	 7.662964868572387e-01	 1.156577793515182e+00
 6.350034715981191e-01	 7.725091954758020e-01	 9.167290133106876e-01
 6.274634168227144e-01	 7.786459526990355e-01	 6.040063537731111e-01
 6.198680180939397e-01	 7.847059963145349e-01	 2.312491791912151e-01
 6.122184477348455e-01	 7.906885874742023e-01	-1.868854614067594e-01
 6.045158907765119e-01	 7.965930109800829e-01	-6.339498244492567e-01
 5.967615443605807e-01	 8.024185755524647e-01	-1.091734847047077e+00
 6.777614125446015e-01	 7.472377370678134e-01	 1.680301868059619e+00
 6.704512398571738e-01	 7.538035997413243e-01	 1.651912015552884e+00
 6.630795344258222e-01	 7.602961459408076e-01	 1.551058586792480e+00
 6.556474060443600e-01	 7.667145156799008e-01	 1.385593081217883e+00
 6.481559802222708e-01	 7.730578712151039e-01	 1.164748512752426e+00
 6.406063976233870e-01	 7.793253974032672e-01	 8.991215277123268e-01
 6.329998134950845e-01	 7.855163020422160e-01	 6.006526292580748e-01
 6.253373970885753e-01	 7.916298161942056e-01	 2.826045584495560e-01
 6.176203310709081e-01	 7.976651944919537e-01	-4.046111465177060e-02
 6.098498109292915e-01	 8.036217154269948e-01	-3.527091332114143e-01
 6.020270443683503e-01	 8.094986816201495e-01	-6.370573695787222e-01
 6.836892179064176e-01	 7.537731930356144e-01	 2.097254297803643e+00
 6.763151093253604e-01	 7.603964817523108e-01	 1.960977524706816e+00
 6.688789298254858e-01	 7.669458127578128e-01	 1.775242481967535e+00
 6.613817989070783e-01	 7.734203185441922e-01	 1.549869580066901e+00
 6.538248519235411e-01	 7.798191540409223e-01	 1.295612745195443e+00
 6.462092395151726e-01	 7.861414969754933e-01	 1.024140850968949e+00
 6.385361270333604e-01	 7.923865482170143e-01	 7.480178837762689e-01
 6.308066939558106e-01	 7.985535321025001e-01	 4.806818902663348e-01
 6.230221332934019e-01	 8.046416967455774e-01	 2.364227576349186e-01
 6.151836509892988e-01	 8.106503143273640e-01	 3.035887933698489e-02
 6.072924653109394e-01	 8.165786813693011e-01	-1.215872393767418e-01
 6.896169460096039e-01	 7.603085638242696e-01	 2.448613485668382e+00
 6.821789023684701e-01	 7.669892778356936e-01	 2.257413402542572e+00
 6.746782496406749e-01	 7.735953929071133e-01	 2.031308103333362e+00
 6.671161170328336e-01	 7.801260340091294e-01	 1.781563104609382e+00
 6.594936497421313e-01	 7.865803487442801e-01	 1.519999197686205e+00
 6.518120083851873e-01	 7.929575077107869e-01	 1.258973544113194e+00
 6.440723684172615e-01	 7.992567048491314e-01	 1.011360034470377e+00
 6.362759195424057e-01	 8.054771577711719e-01	 7.905289574005510e-01
 6.284238651151838e-01	 8.116181080715283e-01	 6.103260269193435e-01
 6.205174215345687e-01	 8.176788216209809e-01	 4.850508169829842e-01
 6.125578176306614e-01	 8.236585888416685e-01	 4.294346530489040e-01
 6.955446086105990e-01	 7.668438623954806e-01	 2.736687805132215e+00
 6.880426306160998e-01	 7.735820010670689e-01	 2.533462693729772e+00
 6.804775053730712e-01	 7.802448995769261e-01	 2.303056396482086e+00
 6.728503717943414e-01	 7.868316753742626e-01	 2.057665558145681e+00
 6.651623849207594e-01	 7.933414687347632e-01	 1.809732374268635e+00
 6.574147153451448e-01	 7.997734431274558e-01	 1.571925696003753e+00
 6.496085486265061e-01	 8.061267855642678e-01	 1.357121831824886e+00
 6.417450846951215e-01	 8.124007069319756e-01	 1.178385091463406e+00
 6.338255372491125e-01	 8.185944423062615e-01	 1.048948117651653e+00
 6.258511331431357e-01	 8.247072512476352e-01	 9.821920513550025e-01
 6.178231117698285e-01	 8.307384180790000e-01	 9.916265760980479e-01
 7.014722174658394e-01	 7.733791017109484e-01	 2.963711062821534e+00
 6.939063056978454e-01	 7.801746645220303e-01	 2.781633747213621e+00
 6.862767085243556e-01	 7.868943459554656e-01	 2.574838575748518e+00
 6.785845745643173e-01	 7.935372559391431e-01	 2.355948846630709e+00
 6.708310687021432e-01	 8.001025274219570e-01	 2.137591002503246e+00
 6.630173715067569e-01	 8.065893167438052e-01	 1.932376085862468e+00
 6.551446786408142e-01	 8.129968039881238e-01	 1.752881230166369e+00
 6.472142002607170e-01	 8.193241933166648e-01	 1.611631230320895e+00
 6.392271604080451e-01	 8.255707132862308e-01	 1.521080235835181e+00
 6.311847963930342e-01	 8.317356171471170e-01	 1.493593609374663e+00
 6.230883581707538e-01	 8.378181831230447e-01	 1.541429992714137e+00
 7.073997843317635e-01	 7.799142947323758e-01	 3.131846305256770e+00
 6.997699392433021e-01	 7.867672812761722e-01	 2.994689741031224e+00
 6.920758705962100e-01	 7.935437452309481e-01	 2.831533668833040e+00
 6.843187367154763e-01	 8.002427890033215e-01	 2.654932758772262e+00
 6.764997123290020e-01	 8.068635382154474e-01	 2.477268576875787e+00
 6.686199879817362e-01	 8.134051420781426e-01	 2.310731728220879e+00
 6.606807694399039e-01	 8.198667737464003e-01	 2.167304280991185e+00
 6.526832770859533e-01	 8.262476306569940e-01	 2.058742513482595e+00
 6.446287453048393e-01	 8.325469348478909e-01	 1.996560025213821e+00
 6.365184218622980e-01	 8.387639332592164e-01	 1.992011252258858e+00
 6.283535672757499e-01	 8.448978980155509e-01	 2.056075425722580e+00
 7.133273209648087e-01	 7.864494544214645e-01	 3.243189453730784e+00
 7.056335428820666e-01	 7.933598644050885e-01	 3.165638750255888e+00
 6.978750030903159e-01	 8.001931105915884e-01	 3.058527204206868e+00
 6.900528696205338e-01	 8.069482878663481e-01	 2.933854472528122e+00
 6.821683270440539e-01	 8.136245145248197e-01	 2.803335895574346e+00
 6.742225758817945e-01	 8.202209326487746e-01	 2.678385661039133e+00
 6.662168320034951e-01	 8.267367084647972e-01	 2.570100401673582e+00
 6.581523260175896e-01	 8.331710326847167e-01	 2.489243267142114e+00
 6.500303026523528e-01	 8.395231208276961e-01	 2.446228509192699e+00
 6.418520201289624e-01	 8.457922135237235e-01	 2.451106617985663e+00
 6.336187495271294e-01	 8.519775767982681e-01	 2.513550045937006e+00
 7.192548391214126e-01	 7.929845937399160e-01	 3.299772777320992e+00
 7.114971282437339e-01	 7.999524269843745e-01	 3.287724326619891e+00
 7.036741175083546e-01	 8.068424552256025e-01	 3.241690975085711e+00
 6.957869846522046e-01	 8.136537658277735e-01	 3.172639593750122e+00
 6.878369240900176e-01	 8.203854697596602e-01	 3.091205475107912e+00
 6.798251463186454e-01	 8.270367019740091e-01	 3.007676846987374e+00
 6.717528773113062e-01	 8.336066217690158e-01	 2.931979881878366e+00
 6.636213579023863e-01	 8.400944131315866e-01	 2.873664240363527e+00
 6.554318431634435e-01	 8.464992850621015e-01	 2.841889186009388e+00
 6.471856017710610e-01	 8.528204718804281e-01	 2.845410307623855e+00
 6.388839153672043e-01	 8.590572335129436e-01	 2.892566883182288e+00
 7.251823505580127e-01	 7.995197256494323e-01	 3.303568213381291e+00
 7.173607069579006e-01	 8.065449820896240e-01	 3.354416560434486e+00
 7.094732253520075e-01	 8.134917923212057e-01	 3.367363818110278e+00
 7.015210931832044e-01	 8.203592361871491e-01	 3.351874638918321e+00
 6.935055147096113e-01	 8.271464173295542e-01	 3.317097734831829e+00
 6.854277104040010e-01	 8.338524635721513e-01	 3.271852066423048e+00
 6.772889163430563e-01	 8.404765272847563e-01	 3.224613499049043e+00
 6.690903835871032e-01	 8.470177857293578e-01	 3.183501963010797e+00
 6.608333775509692e-01	 8.534754413875614e-01	 3.156269153378891e+00
 6.525191773666283e-01	 8.598487222691203e-01	 3.150286803786583e+00
 6.441490752382885e-01	 8.661368822013278e-01	 3.172535566945686e+00
 7.311098670310470e-01	 8.060548631117156e-01	 3.256490544252284e+00
 7.232242906541625e-01	 8.131375427964316e-01	 3.359403597342143e+00
 7.152723381229562e-01	 8.201411350666139e-01	 3.422333348905275e+00
 7.072552065862487e-01	 8.270647122440252e-01	 3.452780879648687e+00
 6.991741101455531e-01	 8.339073706440872e-01	 3.458008850481372e+00
 6.910302792495729e-01	 8.406682309615087e-01	 3.445029688515927e+00
 6.828249600784644e-01	 8.473464386377187e-01	 3.420594122727497e+00
 6.745594139185006e-01	 8.539411642097847e-01	 3.391180104451302e+00
 6.662349165277873e-01	 8.604516036405299e-01	 3.362982146903711e+00
 6.578527574936991e-01	 8.668769786295902e-01	 3.341901116752761e+00
 6.494142395826941e-01	 8.732165369051680e-01	 3.333534509448114e+00
 5.967615443605807e-01	 8.024185755524647e-01	-1.091734847047078e+00
 5.889579473229991e-01	 8.081636447008754e-01	-1.509902662801887e+00
 5.811050012015555e-01	 8.138285757179110e-01	-1.851062069579386e+00
 5.732039308284177e-01	 8.194127540634818e-01	-2.115614648312733e+00
 5.652559707219063e-01	 8.249155899695259e-01	-2.304924621140018e+00
 5.572623644660748e-01	 8.303365186157972e-01	-2.421311509271981e+00
 5.492243640870379e-01	 8.356750002871786e-01	-2.468041451339459e+00
 5.411432294266819e-01	 8.409305205124760e-01	-2.449317198788475e+00
 5.330202275143926e-01	 8.461025901846800e-01	-2.370266807824583e+00
 5.248566319374309e-01	 8.511907456626929e-01	-2.236931050300714e+00
 5.166537222105835e-01	 8.561945488545585e-01	-2.056249568783213e+00
 6.020270443683503e-01	 8.094986816201495e-01	-6.370573695787222e-01
 5.941545926253828e-01	 8.152944421414487e-01	-8.723066603354572e-01
 5.862323563693834e-01	 8.210093574360454e-01	-1.050581970028769e+00
 5.782615712397398e-01	 8.266428075414807e-01	-1.174306681627308e+00
 5.702434826474595e-01	 8.321941974858972e-01	-1.246661567812407e+00
 5.621793451492739e-01	 8.376629574653810e-01	-1.271576639321590e+00
 5.540704218184637e-01	 8.430485430026596e-01	-1.253721937957057e+00
 5.459179836130430e-01	 8.483504350871243e-01	-1.198497289037392e+00
 5.377233087419445e-01	 8.535681402961492e-01	-1.112021030498166e+00
 5.294876820298395e-01	 8.587011908977176e-01	-1.001117738240834e+00
 5.212123942812260e-01	 8.637491449343863e-01	-8.733049696874693e-01
 6.072924653109394e-01	 8.165786813693011e-01	-1.215872393767415e-01
 5.993511598966267e-01	 8.224251325021388e-01	-2.195079933858408e-01
 5.913596345465711e-01	 8.281900313235401e-01	-2.768558558262280e-01
 5.833191357072233e-01	 8.338727524487605e-01	-2.975344901468620e-01
 5.752309196821165e-01	 8.394726957022305e-01	-2.860211901419248e-01
 5.670962520004982e-01	 8.449892862964444e-01	-2.473584542508163e-01
 5.589164067826511e-01	 8.504219749920485e-01	-1.871447553011983e-01
 5.506926661025542e-01	 8.557702382390908e-01	-1.115245181074148e-01
 5.424263193485221e-01	 8.610335782993951e-01	-2.717731932743994e-02
 5.341186625824696e-01	 8.662115233500908e-01	 5.869367404776818e-02
 5.257709978984394e-01	 8.713036275683087e-01	 1.383740092542844e-01
 6.125578176306614e-01	 8.236585888416685e-01	 4.294346530489047e-01
 6.045476594424680e-01	 8.295557299252467e-01	 4.288413019517325e-01
 5.964868459014281e-01	 8.353706116218506e-01	 4.555738372181422e-01
 5.883766342609166e-01	 8.411026031245220e-01	 5.047780562607004e-01
 5.802182917168530e-01	 8.467510990540494e-01	 5.711887910451384e-01
 5.720130947708599e-01	 8.523155196394021e-01	 6.491380791533732e-01
 5.637623285900822e-01	 8.577953108792116e-01	 7.325639215754123e-01
 5.554672863643207e-01	 8.631899446842410e-01	 8.150196177537864e-01
 5.471292686611287e-01	 8.684989190008250e-01	 8.896836667813757e-01
 5.387495827795215e-01	 8.737217579152938e-01	 9.493702220347816e-01
 5.303295421029417e-01	 8.788580117394046e-01	 9.865400849193876e-01
 6.178231117698285e-01	 8.307384180790000e-01	 9.916265760980479e-01
 6.097441015686452e-01	 8.366862485530753e-01	 1.053757403245455e+00
 6.016140006022648e-01	 8.425511125724326e-01	 1.132658299586284e+00
 5.934340769308682e-01	 8.483323739079662e-01	 1.223042884048366e+00
 5.852056086426443e-01	 8.540294219768771e-01	 1.319355764682693e+00
 5.769298832114720e-01	 8.596416720246697e-01	 1.415779932971756e+00
 5.686081968512389e-01	 8.651685652880139e-01	 1.506244559543369e+00
 5.602418538674470e-01	 8.706095691384411e-01	 1.584433185319648e+00
 5.518321660067675e-01	 8.759641772068457e-01	 1.643792300802015e+00
 5.433804518051949e-01	 8.812319094888067e-01	 1.677540304856070e+00
 5.348880359354498e-01	 8.864123124307511e-01	 1.678676833023102e+00
 6.230883581707538e-01	 8.378181831230447e-01	 1.541429992714137e+00
 6.149404965808971e-01	 8.438167025279262e-01	 1.636896788866013e+00
 6.067411088173906e-01	 8.497315484167444e-01	 1.740821795117135e+00
 5.984914737471259e-01	 8.555620791382919e-01	 1.847993814341335e+00
 5.901928803504652e-01	 8.613076789062367e-01	 1.953054253983857e+00
 5.818466270734469e-01	 8.669677579826620e-01	 2.050503227827203e+00
 5.734540211766028e-01	 8.725417528423215e-01	 2.134705905919282e+00
 5.650163780810380e-01	 8.780291263175577e-01	 2.199899110761050e+00
 5.565350207124428e-01	 8.834293677238656e-01	 2.240198156748287e+00
 5.480112788436906e-01	 8.887419929661101e-01	 2.249603928736666e+00
 5.394464884366807e-01	 8.939665446254271e-01	 2.222010194459231e+00
 6.283535672757499e-01	 8.448978980155509e-01	 2.056075425722580e+00
 6.201368547849613e-01	 8.509471059921022e-01	 2.160529747344057e+00
 6.118681807151147e-01	 8.569119333962407e-01	 2.266942157751037e+00
 6.035488347397386e-01	 8.627917331547008e-01	 2.370673374241473e+00
 5.951801167312919e-01	 8.685858842776515e-01	 2.467038353830556e+00
 5.867633361078975e-01	 8.742937920437943e-01	 2.551310592797707e+00
 5.782998111766555e-01	 8.799148881659999e-01	 2.618726552819612e+00
 5.697908684741982e-01	 8.854486309374567e-01	 2.664490216412973e+00
 5.612378421051575e-01	 8.908945053582910e-01	 2.683777773464843e+00
 5.526420730792088e-01	 8.962520232426846e-01	 2.671742439645112e+00
 5.440049086473521e-01	 9.015207233065108e-01	 2.623519406483474e+00
 6.336187495271294e-01	 8.519775767982681e-01	 2.513550045937006e+00
 6.253331864865769e-01	 8.580774730879045e-01	 2.607515225827035e+00
 6.169952264637479e-01	 8.640922817523790e-01	 2.698332276610072e+00
 6.086061699387543e-01	 8.700213502963925e-01	 2.782420279421277e+00
 6.001673276760995e-01	 8.758640525266457e-01	 2.856234556910927e+00
 5.916800200659360e-01	 8.816197887384813e-01	 2.916268666795624e+00
 5.831455764618791e-01	 8.872879858829158e-01	 2.959056431688707e+00
 5.745653345160326e-01	 8.928680977140044e-01	 2.981174013113904e+00
 5.659406395119152e-01	 8.983596049165290e-01	 2.979242036749366e+00
 5.572728436959498e-01	 9.037620152140113e-01	 2.949927775040133e+00
 5.485633056081808e-01	 9.090748634570800e-01	 2.889947392362303e+00
 6.388839153672043e-01	 8.590572335129436e-01	 2.892566883182289e+00
 6.305295019914822e-01	 8.652078179576365e-01	 2.961276940024317e+00
 6.221222562315996e-01	 8.712726077266152e-01	 3.022722512135453e+00
 6.136634893742217e-01	 8.772509449025678e-01	 3.074857549107245e+00
 6.051545230758633e-01	 8.831421980887416e-01	 3.115734946080831e+00
 5.965966886986757e-01	 8.889457625971390e-01	 3.143505733222942e+00
 5.879913266427554e-01	 8.946610606169341e-01	 3.156418242058565e+00
 5.793397856756455e-01	 9.002875413630667e-01	 3.152817262295138e+00
 5.706434222597198e-01	 9.058246812049876e-01	 3.131143201937965e+00
 5.619035998781138e-01	 9.112719837755702e-01	 3.089931262592336e+00
 5.531216883598842e-01	 9.166289800602131e-01	 3.027810640884009e+00
 6.441490752382885e-01	 8.661368822013278e-01	 3.172535566945686e+00
 6.357258116054149e-01	 8.723381547435994e-01	 3.205780673130331e+00
 6.272492801869796e-01	 8.784529255604061e-01	 3.228243989767950e+00
 6.187208030761885e-01	 8.844805313124271e-01	 3.239881217108085e+00
 6.101417128215585e-01	 8.904203353994633e-01	 3.240790731906968e+00
 6.015133517572289e-01	 8.962717281501813e-01	 3.231209480251678e+00
 5.928370713297658e-01	 9.020341269919210e-01	 3.211508818331135e+00
 5.841142314221424e-01	 9.077069766005100e-01	 3.182190321066376e+00
 5.753461996755745e-01	 9.132897490300738e-01	 3.143881577631827e+00
 5.665343508099012e-01	 9.187819438228424e-01	 3.097331991933200e+00
 5.576800659431796e-01	 9.241830880989883e-01	 3.043408605066026e+00
 6.494142395826941e-01	 8.732165369051680e-01	 3.333534509448114e+00
 6.409221256341137e-01	 8.794684975880961e-01	 3.325512695942059e+00
 6.323763084981971e-01	 8.856332494952077e-01	 3.303412721145935e+00
 6.237781210747034e-01	 8.917101238651706e-01	 3.269649604913735e+00
 6.151289068041612e-01	 8.976984788943336e-01	 3.226806115721210e+00
 6.064300189927078e-01	 9.035976999280244e-01	 3.177624879577652e+00
 5.976828201333925e-01	 9.094071996317421e-01	 3.125000438128512e+00
 5.888886812246272e-01	 9.151264181422003e-01	 3.071971282681476e+00
 5.800489810864830e-01	 9.207548231981942e-01	 3.021711889896490e+00
 5.711651056755123e-01	 9.262919102513077e-01	 2.977524783785530e+00
 5.622384473987841e-01	 9.317372025564835e-01	 2.942832647481207e+00
 5.166537222105835e-01	 8.561945488545585e-01	-2.056249568783213e+00
 5.084127833066525e-01	 8.611135874899662e-01	-1.860754588620025e+00
 5.001351054989744e-01	 8.659474757928982e-01	-1.680336576020386e+00
 4.918219832314512e-01	 8.706958538913729e-01	-1.518567015435449e+00
 4.834747143274812e-01	 8.753583876192402e-01	-1.378920213306063e+00
 4.750945993647698e-01	 8.799347685068711e-01	-1.264769785736964e+00
 4.666829410531063e-01	 8.844247137540189e-01	-1.179385201663194e+00
 4.582410436156905e-01	 8.888279661850482e-01	-1.125928384421276e+00
 4.497702121745728e-01	 8.931442941867402e-01	-1.107450375124767e+00
 4.412717521407651e-01	 8.973734916289072e-01	-1.126888061712919e+00
 4.327469686095653e-01	 9.015153777680721e-01	-1.187060977990845e+00
 5.212123942812260e-01	 8.637491449343863e-01	-8.733049696874693e-01
 5.128987418067739e-01	 8.687115864981905e-01	-7.504961676584014e-01
 5.045480262644486e-01	 8.735881264092124e-01	-6.495312825387640e-01
 4.961615535195790e-01	 8.783784016201314e-01	-5.707512898464485e-01
 4.877406328468082e-01	 8.830820750162707e-01	-5.143944369480515e-01
 4.792865762993894e-01	 8.876988354062075e-01	-4.805972469436355e-01
 4.708006980814730e-01	 8.922283974943961e-01	-4.693955258226211e-01
 4.622843139239729e-01	 8.966705018359983e-01	-4.807253690737033e-01
 4.537387404645851e-01	 9.010249147741397e-01	-5.144241646557113e-01
 4.451652946325172e-01	 9.052914283598297e-01	-5.702315899519492e-01
 4.365652930384774e-01	 9.094698602547839e-01	-6.477906010349086e-01
 5.257709978984394e-01	 8.713036275683087e-01	 1.383740092542844e-01
 5.173846329448053e-01	 8.763094714084868e-01	 1.987490170760042e-01
 5.089608807640044e-01	 8.812286622868644e-01	 2.334326527729977e-01
 5.005010586426358e-01	 8.860608339808327e-01	 2.445063383420499e-01
 4.920064873064329e-01	 8.908056464272397e-01	 2.341528495534816e-01
 4.834784902840406e-01	 8.954627857129168e-01	 2.046519446218984e-01
 4.749183932738125e-01	 9.000319640470580e-01	 1.583760381799714e-01
 4.663275235142208e-01	 9.045129197156628e-01	 9.778592930851952e-02
 4.577072091584498e-01	 9.089054170182405e-01	 2.542659144928672e-02
 4.490587786537454e-01	 9.132092461870266e-01	-5.607696889880873e-02
 4.403835601260683e-01	 9.174242232889595e-01	-1.440237787234694e-01
 5.303295421029417e-01	 8.788580117394046e-01	 9.865400849193876e-01
 5.218704656173233e-01	 8.839072572900480e-01	 9.951910305177495e-01
 5.133736777494395e-01	 8.888690985796693e-01	 9.769476890389708e-01
 5.048405072070256e-01	 8.937431662104185e-01	 9.355268516483635e-01
 4.962722861667690e-01	 8.985291171707114e-01	 8.747384535916676e-01
 4.876703496325708e-01	 9.032266348256713e-01	 7.984789670720405e-01
 4.790360347968526e-01	 9.078354288892727e-01	 7.107248844468292e-01
 4.703706804055078e-01	 9.123552353783850e-01	 6.155263036649786e-01
 4.616756261270729e-01	 9.167858165489321e-01	 5.170006267665117e-01
 4.529522119266955e-01	 9.211269608144040e-01	 4.193263811649010e-01
 4.442017774454530e-01	 9.253784826469883e-01	 3.267371723286866e-01
 5.348880359354498e-01	 8.864123124307511e-01	 1.678676833023102e+00
 5.263562487209041e-01	 8.915049592120662e-01	 1.646754895964007e+00
 5.177864259725530e-01	 8.965094504414431e-01	 1.589114724045761e+00
 5.091799078191525e-01	 9.014254135458308e-01	 1.510341822123688e+00
 5.005380378882303e-01	 9.062525025652480e-01	 1.415099880151460e+00
 4.918621626588278e-01	 9.109903981431452e-01	 1.308123045365722e+00
 4.831536308173205e-01	 9.156388074983082e-01	 1.194208326339810e+00
 4.744137926169066e-01	 9.201974643785064e-01	 1.078208142246158e+00
 4.656439992413601e-01	 9.246661289961029e-01	 9.650230294283360e-01
 4.568456021736138e-01	 9.290445879458676e-01	 8.595945161399035e-01
 4.480199525697461e-01	 9.333326541052582e-01	 7.668981750631945e-01
 5.394464884366807e-01	 8.939665446254271e-01	 2.222010194459231e+00
 5.308419911521247e-01	 8.991025922437338e-01	 2.161092746024036e+00
 5.221991341851430e-01	 9.041497330260017e-01	 2.077755492989241e+00
 5.135192690854204e-01	 9.091075912240101e-01	 1.976705691544476e+00
 5.048037509312301e-01	 9.139758179294122e-01	 1.862707157687159e+00
 4.960539376766600e-01	 9.187540910640118e-01	 1.740572517810347e+00
 4.872711895019438e-01	 9.234421153514331e-01	 1.615155629328119e+00
 4.784568681674912e-01	 9.280396222703680e-01	 1.491344184369969e+00
 4.696123363722171e-01	 9.325463699896414e-01	 1.374052508227770e+00
 4.607389571167459e-01	 9.369621432853233e-01	 1.268214562887546e+00
 4.518380930720615e-01	 9.412867534401579e-01	 1.178777164629869e+00
 5.440049086473521e-01	 9.015207233065108e-01	 2.623519406483474e+00
 5.353277018075605e-01	 9.067001714542431e-01	 2.545595365279555e+00
 5.266118111390080e-01	 9.117899614871613e-01	 2.450424345867875e+00
 5.178585996122335e-01	 9.167897144818986e-01	 2.342107435714941e+00
 5.090694337561820e-01	 9.216990785817660e-01	 2.224774070556875e+00
 5.002456829999148e-01	 9.265177289869448e-01	 2.102575346999621e+00
 4.913887190174501e-01	 9.312453679259152e-01	 1.979677540029050e+00
 4.824999150763343e-01	 9.358817246083114e-01	 1.860255836447958e+00
 4.735806453905497e-01	 9.404265551594374e-01	 1.748488293829593e+00
 4.646322844783382e-01	 9.448796425366773e-01	 1.648550033151416e+00
 4.556562065255141e-01	 9.492407964280762e-01	 1.564607671858040e+00
 5.485633056081808e-01	 9.090748634570800e-01	 2.889947392362303e+00
 5.398133895837890e-01	 9.142977119127865e-01	 2.807403160215016e+00
 5.310244655859467e-01	 9.194301509787366e-01	 2.714419439843691e+00
 5.221979080059957e-01	 9.244717985564375e-01	 2.613781648880442e+00
 5.133350948234998e-01	 9.294222998408733e-01	 2.508268832701693e+00
 5.044374069424405e-01	 9.342813273106180e-01	 2.400649107660505e+00
 4.955062275305668e-01	 9.390485806990229e-01	 2.293675340888318e+00
 4.865429413625088e-01	 9.437237869466782e-01	 2.190081073981881e+00
 4.775489341672636e-01	 9.483067001353793e-01	 2.092576696413188e+00
 4.685255919806359e-01	 9.527971014038344e-01	 2.003845873033976e+00
 4.594743005032186e-01	 9.571947988454016e-01	 1.926542228599784e+00
 5.531216883598842e-01	 9.166289800602131e-01	 3.027810640884009e+00
 5.442990633773858e-01	 9.218952286885570e-01	 2.953416589621312e+00
 5.354371062777575e-01	 9.270703166545445e-01	 2.876793380486746e+00
 5.265372028731111e-01	 9.321538586845679e-01	 2.798719081868332e+00
 5.176007425935969e-01	 9.371454970252960e-01	 2.719924234959719e+00
 5.086291178180846e-01	 9.420449014337039e-01	 2.641090481730861e+00
 4.996237232080215e-01	 9.468517691480246e-01	 2.562849457996391e+00
 4.905859550450887e-01	 9.515658248398107e-01	 2.485781953528188e+00
 4.815172105732649e-01	 9.561868205473558e-01	 2.410417339659480e+00
 4.724188873458858e-01	 9.607145355907017e-01	 2.337233263353052e+00
 4.632923825782890e-01	 9.651487764685223e-01	 2.266655605264751e+00
 5.576800659431796e-01	 9.241830880989883e-01	 3.043408605066026e+00
 5.487847320849274e-01	 9.294927368507458e-01	 2.990306086495508e+00
 5.398497419662388e-01	 9.347104736684007e-01	 2.944363343590457e+00
 5.308764928199836e-01	 9.398359101032322e-01	 2.903676665364073e+00
 5.218663855268874e-01	 9.448686854535971e-01	 2.866247296277561e+00
 5.128208239406953e-01	 9.498084667548771e-01	 2.829984288997913e+00
 5.037412142165415e-01	 9.546549487501877e-01	 2.792707647730138e+00
 4.946289641431469e-01	 9.594078538420494e-01	 2.752151757051854e+00
 4.854854824794593e-01	 9.640669320252562e-01	 2.705969089685871e+00
 4.763121782963332e-01	 9.686319608011845e-01	 2.651734185195999e+00
 4.671104603238401e-01	 9.731027450738271e-01	 2.586947890189147e+00
 5.622384473987841e-01	 9.317372025564835e-01	 2.942832647481207e+00
 5.532704046029903e-01	 9.370902514685463e-01	 2.924521500437630e+00
 5.442623814031892e-01	 9.423506371741205e-01	 2.923720707181069e+00
 5.352157864530174e-01	 9.475179680493709e-01	 2.935187047684389e+00
 5.261320320837845e-01	 9.525918804443393e-01	 2.953528447109770e+00
 5.170125336241201e-01	 9.575720386728107e-01	 2.973212079781274e+00
 5.078587087228544e-01	 9.624581349827813e-01	 2.988572786235828e+00
 4.986719766757564e-01	 9.672498895077365e-01	 2.993821789629703e+00
 4.894537577567521e-01	 9.719470501989690e-01	 2.983055696321447e+00
 4.802054725542244e-01	 9.765493927391885e-01	 2.950265764056548e+00
 4.709285413129862e-01	 9.810567204377044e-01	 2.889347419852394e+00
 4.327469686095653e-01	 9.015153777680721e-01	-1.187060977990844e+00
 4.241957100808111e-01	 9.055704788776667e-01	-1.271529082594426e+00
 4.156207266274777e-01	 9.095379524497916e-01	-1.360252654006078e+00
 4.070233190699297e-01	 9.134176924764242e-01	-1.450654162509754e+00
 3.984047855712466e-01	 9.172096178030530e-01	-1.540226047107061e+00
 3.897664210659204e-01	 9.209136719525728e-01	-1.626533279498944e+00
 3.811095166967166e-01	 9.245298229341032e-01	-1.707215681425935e+00
 3.724353592601342e-01	 9.280580630371011e-01	-1.779989998858992e+00
 3.637452306608896e-01	 9.314984086111489e-01	-1.841900516507797e+00
 3.550404073758262e-01	 9.348508998318095e-01	-1.889347936771723e+00
 3.463221599276364e-01	 9.381156004529614e-01	-1.920716465420300e+00
 4.365652930384774e-01	 9.094698602547839e-01	-6.477906010349087e-01
 4.279385828455186e-01	 9.135607413759669e-01	-7.304234980885715e-01
 4.192879383917877e-01	 9.175632217816508e-01	-8.019471972649421e-01
 4.106146719754153e-01	 9.214771945284639e-01	-8.627809749167238e-01
 4.019200932138001e-01	 9.253025777458400e-01	-9.134246568657663e-01
 3.932055084672654e-01	 9.290393144583587e-01	-9.544569364532356e-01
 3.844722202709527e-01	 9.326873723928797e-01	-9.865334908265156e-01
 3.757215267753868e-01	 9.362467437708336e-01	-1.010384905127342e+00
 3.669547211961480e-01	 9.397174450860710e-01	-1.026610039174566e+00
 3.581730912730496e-01	 9.430995168686511e-01	-1.034293589256682e+00
 3.493779187392193e-01	 9.463930234349912e-01	-1.034364452297447e+00
 4.403835601260683e-01	 9.174242232889595e-01	-1.440237787234693e-01
 4.316813994017186e-01	 9.215508838844714e-01	-2.223385713830930e-01
 4.229550950836435e-01	 9.255883705981116e-01	-2.784844503250376e-01
 4.142059709475561e-01	 9.295365755511696e-01	-3.151267875960695e-01
 4.054353480649912e-01	 9.333954161570298e-01	-3.350169560905522e-01
 3.966445442219227e-01	 9.371648349419602e-01	-3.409874581831031e-01
 3.878348733456837e-01	 9.408447993505553e-01	-3.359468877912758e-01
 3.790076449406457e-01	 9.444353015362192e-01	-3.228747402140177e-01
 3.701641635330711e-01	 9.479363581370627e-01	-3.048151084013120e-01
 3.613057281255647e-01	 9.513480100376308e-01	-2.835291317420924e-01
 3.524336316615091e-01	 9.546703221168643e-01	-2.613147788703959e-01
 4.442017774454530e-01	 9.253784826469883e-01	 3.267371723286861e-01
 4.354241671729185e-01	 9.295409222505252e-01	 2.540644135731229e-01
 4.266222039765180e-01	 9.336134148159371e-01	 2.105809657579786e-01
 4.177972231093883e-01	 9.375958515291819e-01	 1.921062355430127e-01
 4.089505570970417e-01	 9.414881490875989e-01	 1.943732500461659e-01
 4.000835351509423e-01	 9.452902495191456e-01	 2.130356768093616e-01
 3.911974825904601e-01	 9.490021199861547e-01	 2.436749846895826e-01
 3.822937202736527e-01	 9.526237525739951e-01	 2.818077281252357e-01
 3.733735640373093e-01	 9.561551640650339e-01	 3.228929367357308e-01
 3.644383241466703e-01	 9.595963956982930e-01	 3.629247793809579e-01
 3.554893047552183e-01	 9.629475129152257e-01	 3.989322443228790e-01
 4.480199525697461e-01	 9.333326541052582e-01	 7.668981750631945e-01
 4.391668935826256e-01	 9.375308723214744e-01	 7.000720496218037e-01
 4.302892723438853e-01	 9.416383703518919e-01	 6.656729597222909e-01
 4.213884355839490e-01	 9.456550384471414e-01	 6.587167978589161e-01
 4.124657272821722e-01	 9.495807925885241e-01	 6.741377159466996e-01
 4.035224880753754e-01	 9.534155743056876e-01	 7.067962682390686e-01
 3.945600546748304e-01	 9.571593504787007e-01	 7.514876789466661e-01
 3.855797592921488e-01	 9.608121131248982e-01	 8.029502152609096e-01
 3.765829290745132e-01	 9.643738791708957e-01	 8.558736460282541e-01
 3.675708855496659e-01	 9.678446902101842e-01	 9.050406575291017e-01
 3.585449440810582e-01	 9.712246122467207e-01	 9.468531964587658e-01
 4.518380930720615e-01	 9.412867534401579e-01	 1.178777164629868e+00
 4.429095860543477e-01	 9.455207499446651e-01	 1.116920892546553e+00
 4.339563074592180e-01	 9.496632531227386e-01	 1.087194752842076e+00
 4.249796154942742e-01	 9.537141522896891e-01	 1.084504303775549e+00
 4.159808655926037e-01	 9.576733627107813e-01	 1.103682966200443e+00
 4.069614098162730e-01	 9.615408254173561e-01	 1.139500278462036e+00
 3.979225962683451e-01	 9.653165070072187e-01	 1.186670269069297e+00
 3.888657685138760e-01	 9.690003994296651e-01	 1.239859927537493e+00
 3.797922650103325e-01	 9.725925197555580e-01	 1.293697753329220e+00
 3.707034185478507e-01	 9.760929099328496e-01	 1.342782362443236e+00
 3.616005556997414e-01	 9.795016365279939e-01	 1.382901999452678e+00
 4.556562065255141e-01	 9.492407964280762e-01	 1.564607671858040e+00
 4.466522520115913e-01	 9.535105709674431e-01	 1.505799442887525e+00
 4.376233165959894e-01	 9.576880790452408e-01	 1.475529622841329e+00
 4.285707699634009e-01	 9.617732090414655e-01	 1.469268701370336e+00
 4.194959790005576e-01	 9.657658755053471e-01	 1.482429546166363e+00
 4.104003071946858e-01	 9.696660189699224e-01	 1.510374773064839e+00
 4.012851140405538e-01	 9.734736057507321e-01	 1.548424236174151e+00
 3.921517544565761e-01	 9.771886277290334e-01	 1.591862619542826e+00
 3.830015782104179e-01	 9.808111021199305e-01	 1.635947111349342e+00
 3.738359293545235e-01	 9.843410712258351e-01	 1.675915141164968e+00
 3.646561456719793e-01	 9.877786021756902e-01	 1.707510334139176e+00
 4.594743005032186e-01	 9.571947988454016e-01	 1.926542228599784e+00
 4.503948988778645e-01	 9.615003512371543e-01	 1.867850029511518e+00
 4.412903070276735e-01	 9.657128640361626e-01	 1.831041611240695e+00
 4.321619061143654e-01	 9.698322246871109e-01	 1.812810333229832e+00
 4.230110744782546e-01	 9.738583470231991e-01	 1.809811310180230e+00
 4.138391870316644e-01	 9.777911710791585e-01	 1.818666914326416e+00
 4.046476146610062e-01	 9.816306628882663e-01	 1.835972409055074e+00
 3.954377236379908e-01	 9.853768142637400e-01	 1.858301697898811e+00
 3.862108750404194e-01	 9.890296425649238e-01	 1.882213172306707e+00
 3.769684241829837e-01	 9.925891904486867e-01	 1.904255641054705e+00
 3.677117200584841e-01	 9.960555256064554e-01	 1.921088021724173e+00
 4.632923825782890e-01	 9.651487764685223e-01	 2.266655605264751e+00
 4.541375340766741e-01	 9.694901066011445e-01	 2.204170600625623e+00
 4.449572860277429e-01	 9.737376240122678e-01	 2.154076196249637e+00
 4.357530310702041e-01	 9.778912152112670e-01	 2.114929795085192e+00
 4.265261589979158e-01	 9.819507933153125e-01	 2.085274745195828e+00
 4.172780561482598e-01	 9.859162978608338e-01	 2.063643004477337e+00
 4.080101047992523e-01	 9.897876945988444e-01	 2.048557956993078e+00
 3.987236825758614e-01	 9.935649752745210e-01	 2.038537368865899e+00
 3.894201618659873e-01	 9.972481573914486e-01	 2.032096470888915e+00
 3.801009092465304e-01	 1.000837283960949e+00	 2.027751154327507e+00
 3.707672849199675e-01	 1.004332423236934e+00	 2.024021265783702e+00
 4.671104603238401e-01	 9.731027450738271e-01	 2.586947890189147e+00
 4.578801650315275e-01	 9.774798529067594e-01	 2.515816427549388e+00
 4.486242608696714e-01	 9.817623748903196e-01	 2.444960933177258e+00
 4.393441519539537e-01	 9.859501965985737e-01	 2.375427801771791e+00
 4.300412395317624e-01	 9.900432304326646e-01	 2.308278327814105e+00
 4.207169213655230e-01	 9.940414154307203e-01	 2.244587575883602e+00
 4.113725911248414e-01	 9.979447170614913e-01	 2.185443431717303e+00
 4.020096377879298e-01	 1.001753127002114e+00	 2.131945827231234e+00
 3.926294450527720e-01	 1.005466662900415e+00	 2.085206131754561e+00
 3.832333907584631e-01	 1.009085368122169e+00	 2.046346700839375e+00
 3.738228463171416e-01	 1.012609311483770e+00	 2.016500573204598e+00
 4.709285413129862e-01	 9.810567204377044e-01	 2.889347419852394e+00
 4.616227991659323e-01	 9.854696060013456e-01	 2.803801726213758e+00
 4.522912388269320e-01	 9.897871325870814e-01	 2.704006064206579e+00
 4.429352758886508e-01	 9.940091848336716e-01	 2.594105060087137e+00
 4.335563230520154e-01	 9.981356744262322e-01	 2.478291912787056e+00
 4.241557895045047e-01	 1.002166539904589e+00	 2.360802525469437e+00
 4.147350803073237e-01	 1.006101746455231e+00	 2.245909855703700e+00
 4.052955957919376e-01	 1.009941285687257e+00	 2.137918484115414e+00
 3.958387309664236e-01	 1.013685175392733e+00	 2.041159400163318e+00
 3.863658749320805e-01	 1.017333459291891e+00	 1.959985002563573e+00
 3.768784103107179e-01	 1.020886206763610e+00	 1.898764310825681e+00
 3.463221599276364e-01	 9.381156004529614e-01	-1.920716465420300e+00
 3.375932372698592e-01	 9.412920648570996e-01	-1.936670866062369e+00
 3.288534146753911e-01	 9.443809649697815e-01	-1.939238691629858e+00
 3.201039407344279e-01	 9.473824329586862e-01	-1.928912964842523e+00
 3.113460561054977e-01	 9.502966234386565e-01	-1.906122168154638e+00
 3.025809930437933e-01	 9.531237131637239e-01	-1.871231156960270e+00
 2.938099749412085e-01	 9.558639007082442e-01	-1.824542325445385e+00
 2.850342158783328e-01	 9.585174061376137e-01	-1.766297014271584e+00
 2.762549201886382e-01	 9.610844706690251e-01	-1.696677148302032e+00
 2.674732820350750e-01	 9.635653563227456e-01	-1.615807091696408e+00
 2.586904849992691e-01	 9.659603455643853e-01	-1.523755706918398e+00
 3.493779187392193e-01	 9.463930234349912e-01	-1.034364452297447e+00
 3.405719768035007e-01	 9.495975152357088e-01	-1.028284553725363e+00
 3.317550387559495e-01	 9.527136701250852e-01	-1.016511051236559e+00
 3.229283642036728e-01	 9.557416214369937e-01	-9.989676817963694e-01
 3.140932047521242e-01	 9.586815251505340e-01	-9.755059035594658e-01
 3.052508035292757e-01	 9.615335595793360e-01	-9.459066761817982e-01
 2.964023947215954e-01	 9.642979250498879e-01	-9.098824985712737e-01
 2.875492031220883e-01	 9.669748435693404e-01	-8.670796915552387e-01
 2.786924436906389e-01	 9.695645584832749e-01	-8.170809119564222e-01
 2.698333211268703e-01	 9.720673341238998e-01	-7.594078836831945e-01
 2.609730294557168e-01	 9.744834554491671e-01	-6.935243306609201e-01
 3.524336316615091e-01	 9.546703221168643e-01	-2.613147788703950e-01
 3.435506716046804e-01	 9.579028408935608e-01	-2.397182033155531e-01
 3.346566192623192e-01	 9.610462501506360e-01	-2.175924078505829e-01
 3.257527452582740e-01	 9.641006843881436e-01	-1.945452904732072e-01
 3.168403121447577e-01	 9.670663009494199e-01	-1.701078668037618e-01
 3.079205739223558e-01	 9.699432797076759e-01	-1.437365356103372e-01
 2.989947755719446e-01	 9.727318227415055e-01	-1.148156102033956e-01
 2.900641525987814e-01	 9.754321539997876e-01	-8.266010197026924e-02
 2.811299305890010e-01	 9.780445189564622e-01	-4.651874130318823e-02
 2.721933247787379e-01	 9.805691842556483e-01	-5.577220267714400e-03
 2.632555396360758e-01	 9.830064373476023e-01	 4.103835944001663e-02
 3.554893047552183e-01	 9.629475129152257e-01	 3.989322443228794e-01
 3.465293275813366e-01	 9.662080583028563e-01	 4.300216779200868e-01
 3.375581619494726e-01	 9.693787215726594e-01	 4.588643519435061e-01
 3.285770895000711e-01	 9.724596383908545e-01	 4.859214886348090e-01
 3.195873837319583e-01	 9.754509674650006e-01	 5.117327048579087e-01
 3.105903095181876e-01	 9.783528902278685e-01	 5.369136376648898e-01
 3.015871226339016e-01	 9.811656105101376e-01	 5.621532919491551e-01
 2.925790692964674e-01	 9.838893542023929e-01	 5.882111246307493e-01
 2.835673857181281e-01	 9.865243689069053e-01	 6.159138808825033e-01
 2.745532976713903e-01	 9.890709235796759e-01	 6.461521988580152e-01
 2.655380200673480e-01	 9.915293081632356e-01	 6.798770002165466e-01
 3.585449440810582e-01	 9.712246122467207e-01	 9.468531964587655e-01
 3.495079506414066e-01	 9.745131839357960e-01	 9.818899900733886e-01
 3.404596725723826e-01	 9.777111009173797e-01	 1.014156937996974e+00
 3.314014025309034e-01	 9.808185000238452e-01	 1.043944164281652e+00
 3.223344249622846e-01	 9.838355413269591e-01	 1.071618651129557e+00
 3.132600156119253e-01	 9.867624078190367e-01	 1.097622126445872e+00
 3.041794410491121e-01	 9.895993050828240e-01	 1.122468657847434e+00
 2.950939582032009e-01	 9.923464609505922e-01	 1.146741967799391e+00
 2.860048139124236e-01	 9.950041251529208e-01	 1.171092485686001e+00
 2.769132444855399e-01	 9.975725689576678e-01	 1.196234153636051e+00
 2.678204752765360e-01	 1.000052084799612e+00	 1.222941003816893e+00
 3.616005556997414e-01	 9.795016365279939e-01	 1.382901999452678e+00
 3.524865466928280e-01	 9.828182342645816e-01	 1.416804206259251e+00
 3.433611568860222e-01	 9.860434047110223e-01	 1.449535333570358e+00
 3.342256899526104e-01	 9.891772858658342e-01	 1.480980471086238e+00
 3.250814412842961e-01	 9.922200391649798e-01	 1.511097023076734e+00
 3.159296974987232e-01	 9.951718491603040e-01	 1.539913223582912e+00
 3.067717359592219e-01	 9.980329231866057e-01	 1.567526338874015e+00
 2.976088243070373e-01	 1.000803491017823e+00	 1.594100571581696e+00
 2.884422200062915e-01	 1.003483804512826e+00	 1.619864682154147e+00
 2.792731699018992e-01	 1.006074137251309e+00	 1.645109344371074e+00
 2.701029097906421e-01	 1.008574784160278e+00	 1.670184252632042e+00
 3.646561456719793e-01	 9.877786021756902e-01	 1.707510334139176e+00
 3.554651216435386e-01	 9.911232257614135e-01	 1.735645466437123e+00
 3.462626206453643e-01	 9.943756494798131e-01	 1.766203375561039e+00
 3.370499573670317e-01	 9.975360124955408e-01	 1.798436254165396e+00
 3.278284381465522e-01	 1.000604477608747e+00	 1.831661099452917e+00
 3.185993604737355e-01	 1.003581230930795e+00	 1.865259216615749e+00
 3.093640125058764e-01	 1.006466481548522e+00	 1.898675386783190e+00
 3.001236725960315e-01	 1.009260461177522e+00	 1.931416713174003e+00
 2.908796088341351e-01	 1.011963423804938e+00	 1.963051160480196e+00
 2.816330786011804e-01	 1.014575645322285e+00	 1.993205803709840e+00
 2.723853281366685e-01	 1.017097423148778e+00	 2.021564803787119e+00
 3.677117200584841e-01	 9.960555256064554e-01	 1.921088021724173e+00
 3.584436814014762e-01	 9.994281748984939e-01	 1.939259603535876e+00
 3.491640696053815e-01	 1.002707851749976e+00	 1.965320243608272e+00
 3.398742103760065e-01	 1.005894696491684e+00	 1.997667248298596e+00
 3.305754209976122e-01	 1.008988873287944e+00	 2.034752291825445e+00
 3.212690098321165e-01	 1.011990569809632e+00	 2.075082263628821e+00
 3.119562758307214e-01	 1.014899996895614e+00	 2.117219753955533e+00
 3.026385080582383e-01	 1.017717388203125e+00	 2.159783190179004e+00
 2.933169852303582e-01	 1.020442999847574e+00	 2.201446637817508e+00
 2.839929752640960e-01	 1.023077110032282e+00	 2.240939281538631e+00
 2.746677348416175e-01	 1.025620018668658e+00	 2.277044602626600e+00
 3.707672849199675e-01	 1.004332423236934e+00	 2.024021265783702e+00
 3.614222318745780e-01	 1.007733098148022e+00	 2.028458105771187e+00
 3.520655095210469e-01	 1.011040028047737e+00	 2.048001863326391e+00
 3.426984545813742e-01	 1.014253354432981e+00	 2.079980757709325e+00
 3.333223952860354e-01	 1.017373242832256e+00	 2.121761944921481e+00
 3.239386508690201e-01	 1.020399882475939e+00	 2.170756166603063e+00
 3.145485310754026e-01	 1.023333485954921e+00	 2.224419900657184e+00
 3.051533356817132e-01	 1.026174288868070e+00	 2.280257131161944e+00
 2.957543540293642e-01	 1.028922549459051e+00	 2.335820750031594e+00
 2.863528645713586e-01	 1.031578548242984e+00	 2.388713604354093e+00
 2.769501344324914e-01	 1.034142587623462e+00	 2.436589204659472e+00
 3.738228463171416e-01	 1.012609311483770e+00	 2.016500573204598e+00
 3.644007789707822e-01	 1.016038011982201e+00	 2.004019018788058e+00
 3.549669461473333e-01	 1.019372194899320e+00	 2.015322228570196e+00
 3.455226955849744e-01	 1.022612002898152e+00	 2.046637242147249e+00
 3.360693664603810e-01	 1.025757602871367e+00	 2.094033038190910e+00
 3.266082888796006e-01	 1.028809185608841e+00	 2.153608048133491e+00
 3.171407833815654e-01	 1.031766965453483e+00	 2.221494314628842e+00
 3.076681604545108e-01	 1.034631179945793e+00	 2.293861233897589e+00
 2.981917200655569e-01	 1.037402089457687e+00	 2.366918892481694e+00
 2.887127512036804e-01	 1.040079976816076e+00	 2.436921010560346e+00
 2.792325314362926e-01	 1.042665146916737e+00	 2.500167505465122e+00
 3.768784103107179e-01	 1.020886206763610e+00	 1.898764310825681e+00
 3.673793285980262e-01	 1.024342932873229e+00	 1.866687791022890e+00
 3.578683852392132e-01	 1.027704368830951e+00	 1.868314647316017e+00
 3.483469389886465e-01	 1.030970658465916e+00	 1.898851814583664e+00
 3.388163399692086e-01	 1.034141970034960e+00	 1.952861794191743e+00
 3.292779291590125e-01	 1.037218495887461e+00	 2.024919936998223e+00
 3.197330378908556e-01	 1.040200452118341e+00	 2.109620947981703e+00
 3.101829873646866e-01	 1.043088078209732e+00	 2.201584935411685e+00
 3.006290881733399e-01	 1.045881636661798e+00	 2.295463012721083e+00
 2.910726398417740e-01	 1.048581412613244e+00	 2.385942463050004e+00
 2.815149303800232e-01	 1.051187713452026e+00	 2.467751478092841e+00
 2.586904849992691e-01	 9.659603455643853e-01	-1.523755706918398e+00
 2.499077018034105e-01	 9.682697411484725e-01	-1.419706066266270e+00
 2.411260942737208e-01	 9.704938663716978e-01	-1.305479482993495e+00
 2.323468125892457e-01	 9.726330640575948e-01	-1.185021959943434e+00
 2.235709948004865e-01	 9.746876959562027e-01	-1.062222956986539e+00
 2.147997664840682e-01	 9.766581423474187e-01	-9.409114993654082e-01
 2.060342404108247e-01	 9.785448016382445e-01	-8.248525704294674e-01
 1.972755162273643e-01	 9.803480899544124e-01	-7.177437790783932e-01
 1.885246801511632e-01	 9.820684407268568e-01	-6.232122917262828e-01
 1.797828046792145e-01	 9.837063042735065e-01	-5.448120181748444e-01
 1.710509483102450e-01	 9.852621473768629e-01	-4.860210404472757e-01
 2.609730294557168e-01	 9.744834554491671e-01	-6.935243306609201e-01
 2.521127517468493e-01	 9.768132278849668e-01	-6.186013708360671e-01
 2.432536600777888e-01	 9.790569775806152e-01	-5.360085539316995e-01
 2.343969147761029e-01	 9.812150503845687e-01	-4.484402786300077e-01
 2.255436639337993e-01	 9.832878112387866e-01	-3.585548682784982e-01
 2.166950430589468e-01	 9.852756437785815e-01	-2.689718950947850e-01
 2.078521747408320e-01	 9.871789499263158e-01	-1.822697436965051e-01
 1.990161683287154e-01	 9.889981494794224e-01	-1.009834029828331e-01
 1.901881196242343e-01	 9.907336796932259e-01	-2.760247498509180e-02
 1.813691105874812e-01	 9.923859948590483e-01	 3.543061100932510e-02
 1.725602090567694e-01	 9.939555658780580e-01	 8.572219098636652e-02
 2.632555396360758e-01	 9.830064373476023e-01	 4.103835944001663e-02
 2.543177685780085e-01	 9.853565863295358e-01	 9.379402307784937e-02
 2.453811939332054e-01	 9.876199602033382e-01	 1.514746819159777e-01
 2.364469861776064e-01	 9.897969078423287e-01	 2.124892038138363e-01
 2.275163034445776e-01	 9.918877973803252e-01	 2.752666459647197e-01
 2.185902911734856e-01	 9.938930158079935e-01	 3.382577948319830e-01
 2.096700817719254e-01	 9.958129685629901e-01	 3.999365040351957e-01
 2.007567942916670e-01	 9.976480791143790e-01	 4.588008425453702e-01
 1.918515341183674e-01	 9.993987885418061e-01	 5.133740658631951e-01
 1.829553926750793e-01	 1.001065555109914e+00	 5.622054230755227e-01
 1.740694471395654e-01	 1.002648853838462e+00	 6.038708128167515e-01
 2.655380200673480e-01	 9.915293081632356e-01	 6.798770002165466e-01
 2.565227566701820e-01	 9.938998334260823e-01	 7.168986373218094e-01
 2.475087000595783e-01	 9.961828312226307e-01	 7.559389587651120e-01
 2.384970308597195e-01	 9.983786534510133e-01	 7.963653019714529e-01
 2.294889172452025e-01	 1.000487671436852e+00	 8.375538116432300e-01
 2.204855145865652e-01	 1.002510275526112e+00	 8.788899222957403e-01
 2.114879651095856e-01	 1.004446874671686e+00	 9.197686683236727e-01
 2.024973975684198e-01	 1.006297896014210e+00	 9.595948354314390e-01
 1.935149269326229e-01	 1.008063784457593e+00	 9.977829674960399e-01
 1.845416540880871e-01	 1.009745002239733e+00	 1.033757243068591e+00
 1.755786655519054e-01	 1.011342028498917e+00	 1.066951235765904e+00
 2.678204752765360e-01	 1.000052084799612e+00	 1.222941003816893e+00
 2.587277203966640e-01	 1.002442986118508e+00	 1.250154103958843e+00
 2.496361826765149e-01	 1.004745607621257e+00	 1.276391779319473e+00
 2.405470528884053e-01	 1.006960304230760e+00	 1.301838463659435e+00
 2.314615092480548e-01	 1.009087450464400e+00	 1.326680445110065e+00
 2.223807170570653e-01	 1.011127440023394e+00	 1.351105368261302e+00
 2.133058283592931e-01	 1.013080685375822e+00	 1.375301585755503e+00
 2.042379816111752e-01	 1.014947617333847e+00	 1.399457374785078e+00
 1.951783013660619e-01	 1.016728684625583e+00	 1.423760034058974e+00
 1.861278979725831e-01	 1.018424353462134e+00	 1.448394876869274e+00
 1.770878672870617e-01	 1.020035107100263e+00	 1.473544135857887e+00
 2.701029097906421e-01	 1.008574784160278e+00	 1.670184252632042e+00
 2.609326641307481e-01	 1.010986061350717e+00	 1.693024110127623e+00
 2.517636460036225e-01	 1.013308306381981e+00	 1.711877720261715e+00
 2.425970563296270e-01	 1.015541877201707e+00	 1.727608551820497e+00
 2.334340833655153e-01	 1.017687151519002e+00	 1.741079332191648e+00
 2.242759023438665e-01	 1.019744526390295e+00	 1.753150644485197e+00
 2.151236751265283e-01	 1.021714417798819e+00	 1.764679388615269e+00
 2.059785498721341e-01	 1.023597260228216e+00	 1.776517123396511e+00
 1.968416607177450e-01	 1.025393506230771e+00	 1.789508306820380e+00
 1.877141274746457e-01	 1.027103625990749e+00	 1.804488451681463e+00
 1.785970553383068e-01	 1.028728106883340e+00	 1.822282213626900e+00
 2.723853281366685e-01	 1.017097423148778e+00	 2.021564803787119e+00
 2.631375922457282e-01	 1.019529076066611e+00	 2.044993390956442e+00
 2.538910942605090e-01	 1.021870944487567e+00	 2.061476818656719e+00
 2.446470452493480e-01	 1.024123389383992e+00	 2.072422734299617e+00
 2.354066435099648e-01	 1.026286791656689e+00	 2.079239735924604e+00
 2.261710742058487e-01	 1.028361551717272e+00	 2.083335138392950e+00
 2.169415090167718e-01	 1.030348089064095e+00	 2.086112610559424e+00
 2.077191058034977e-01	 1.032246841852249e+00	 2.088969702223785e+00
 1.985050082867332e-01	 1.034058266458155e+00	 2.093295279731371e+00
 1.893003457403533e-01	 1.035782837039205e+00	 2.100466889046838e+00
 1.801062326989132e-01	 1.037421045088988e+00	 2.111848064972265e+00
 2.746677348416175e-01	 1.025620018668658e+00	 2.277044602626600e+00
 2.653425091148984e-01	 1.028072047210091e+00	 2.305566767712570e+00
 2.560185316667817e-01	 1.030433538920778e+00	 2.324303034529351e+00
 2.466970237135312e-01	 1.032704857797753e+00	 2.335073475189818e+00
 2.373791935937846e-01	 1.034886387933496e+00	 2.339705025479237e+00
 2.280662364018922e-01	 1.036978533094784e+00	 2.340028492752203e+00
 2.187593336355040e-01	 1.038981716295068e+00	 2.337875434464568e+00
 2.094596528574669e-01	 1.040896379360873e+00	 2.335074927984355e+00
 2.001683473720871e-01	 1.042722982492729e+00	 2.333450252359917e+00
 1.908865559157843e-01	 1.044462003821135e+00	 2.334815502638903e+00
 1.816154023621532e-01	 1.046113938958048e+00	 2.340972157133222e+00
 2.769501344324914e-01	 1.034142587623462e+00	 2.436589204659472e+00
 2.675474191115524e-01	 1.036614991725062e+00	 2.474268228554259e+00
 2.581459624420481e-01	 1.038996106664379e+00	 2.499502785191793e+00
 2.487469957881402e-01	 1.041286299463128e+00	 2.514396621852268e+00
 2.393517375293552e-01	 1.043485957405453e+00	 2.521070419238343e+00
 2.299613926908773e-01	 1.045595487613285e+00	 2.521658112322763e+00
 2.205771525882055e-01	 1.047615316615159e+00	 2.518303074204242e+00
 2.112001944862428e-01	 1.049545889909018e+00	 2.513154185552273e+00
 2.018316812728673e-01	 1.051387671519489e+00	 2.508361812233854e+00
 1.924727611470172e-01	 1.053141143550166e+00	 2.506073713601671e+00
 1.831245673212992e-01	 1.054806805731360e+00	 2.508430903689192e+00
 2.792325314362926e-01	 1.042665146916737e+00	 2.500167505465122e+00
 2.697523266089842e-01	 1.045157926555424e+00	 2.550640049424999e+00
 2.602733908059157e-01	 1.047558664701134e+00	 2.586253547186029e+00
 2.507969655391379e-01	 1.049867731400256e+00	 2.609269582102160e+00
 2.413242792290576e-01	 1.052085517128595e+00	 2.621980835461710e+00
 2.318565468316840e-01	 1.054212432363233e+00	 2.626706790178007e+00
 2.223949694803567e-01	 1.056248907147787e+00	 2.625789282650238e+00
 2.129407341420264e-01	 1.058195390651612e+00	 2.621587927407437e+00
 2.034950132881350e-01	 1.060052350723433e+00	 2.616475439150269e+00
 1.940589645801301e-01	 1.061820273439928e+00	 2.612832876673380e+00
 1.846337305696236e-01	 1.063499662649765e+00	 2.613044832891225e+00
 2.815149303800232e-01	 1.051187713452026e+00	 2.467751478092841e+00
 2.719572359804875e-01	 1.053700868645081e+00	 2.534241952789441e+00
 2.624008209779921e-01	 1.056121230013807e+00	 2.583762521975929e+00
 2.528469370324877e-01	 1.058449170629273e+00	 2.618609586410552e+00
 2.432968226052729e-01	 1.060685084158954e+00	 2.641128844394509e+00
 2.337517025831925e-01	 1.062829384435084e+00	 2.653710446867906e+00
 2.242127879174382e-01	 1.064882505016369e+00	 2.658783978696109e+00
 2.146812752770187e-01	 1.066844898743585e+00	 2.658813292888460e+00
 2.051583467169507e-01	 1.068717037289555e+00	 2.656291224493661e+00
 1.956451693612018e-01	 1.070499410704053e+00	 2.653734210776117e+00
 1.861428951003990e-01	 1.072192526954103e+00	 2.653676844001420e+00
 1.710509483102450e-01	 9.852621473768629e-01	-4.860210404472762e-01
 1.623286740391851e-01	 9.867366964777040e-01	-4.546338296619186e-01
 1.536184993999991e-01	 9.881301781820826e-01	-4.533927401760389e-01
 1.449214421196758e-01	 9.894431056398207e-01	-4.780783359799092e-01
 1.362385048931709e-01	 9.906760067638284e-01	-5.244282303424622e-01
 1.275706751727547e-01	 9.918294237927018e-01	-5.881444032194135e-01
 1.189189249707245e-01	 9.929039128517897e-01	-6.649004244888447e-01
 1.102842106753850e-01	 9.939000435131441e-01	-7.503485658773805e-01
 1.016674728801875e-01	 9.948183983547720e-01	-8.401267853078036e-01
 9.306963622590408e-02	 9.956595725195880e-01	-9.298655683063635e-01
 8.449160925570287e-02	 9.964241732744671e-01	-1.015194612051393e+00
 1.725602090567694e-01	 9.939555658780580e-01	 8.572219098636652e-02
 1.637609741711128e-01	 9.954431256007639e-01	 1.169486646178202e-01
 1.549739456778491e-01	 9.968489026326103e-01	 1.261197407487084e-01
 1.462001502838681e-01	 9.981734146511001e-01	 1.159397420800699e-01
 1.374405995313913e-01	 9.994171942270833e-01	 8.915986654512527e-02
 1.286962895854617e-01	 1.000580788383504e+00	 4.857250124134771e-02
 1.199682010349145e-01	 1.001664758152585e+00	-2.994415841173312e-03
 1.112572987067349e-01	 1.002669678131902e+00	-6.268296976648303e-02
 1.025645314936885e-01	 1.003596136039742e+00	-1.276107625258220e-01
 9.389083219510402e-02	 1.004444732270168e+00	-1.948763119104076e-01
 8.523711737066909e-02	 1.005216079448178e+00	-2.615643413195862e-01
 1.740694471395654e-01	 1.002648853838462e+00	 6.038708128167519e-01
 1.651932527949823e-01	 1.004149423987590e+00	 6.334621015391133e-01
 1.563293716017048e-01	 1.005567496162113e+00	 6.479301128915946e-01
 1.474788392463840e-01	 1.006903592567163e+00	 6.487175993694567e-01
 1.386426761183705e-01	 1.008158250431481e+00	 6.373157700177945e-01
 1.298218870953443e-01	 1.009332021562298e+00	 6.152599865202261e-01
 1.210174613425461e-01	 1.010425471898656e+00	 5.841254695180953e-01
 1.122303721255102e-01	 1.011439181063595e+00	 5.455230312287533e-01
 1.034615766361883e-01	 1.012373741915620e+00	 5.010948497210099e-01
 9.471201583233875e-02	 1.013229760099880e+00	 4.525102994471702e-01
 8.598261429004453e-02	 1.014007853599432e+00	 4.014618518317893e-01
 1.755786655519054e-01	 1.011342028498917e+00	 1.066951235765905e+00
 1.666255127514291e-01	 1.012855608904825e+00	 1.093779168703299e+00
 1.576847798597771e-01	 1.014285976061628e+00	 1.111278098675352e+00
 1.487575115432415e-01	 1.015633656702043e+00	 1.119876522474822e+00
 1.398447370381820e-01	 1.016899192712655e+00	 1.120050686125713e+00
 1.309474699347986e-01	 1.018083140684936e+00	 1.112321417112448e+00
 1.220667079746213e-01	 1.019186071464699e+00	 1.097250937963336e+00
 1.132034328616200e-01	 1.020208569700392e+00	 1.075439676946530e+00
 1.043586100868202e-01	 1.021151233390689e+00	 1.047523090973789e+00
 9.553318876629997e-02	 1.022014673431769e+00	 1.014168515093813e+00
 8.672810149242925e-02	 1.022799513164692e+00	 9.760720521999792e-01
 1.770878672870617e-01	 1.020035107100263e+00	 1.473544135857887e+00
 1.680577568810880e-01	 1.021561697619110e+00	 1.496814864722104e+00
 1.590401731402771e-01	 1.023004359622191e+00	 1.515433039287627e+00
 1.500361697104583e-01	 1.024363624369772e+00	 1.529054201763066e+00
 1.410467846748995e-01	 1.025640038406241e+00	 1.537378700459912e+00
 1.320730403362205e-01	 1.026834163107274e+00	 1.540149415188116e+00
 1.231159430121423e-01	 1.027946574225408e+00	 1.537149443703528e+00
 1.141764828449732e-01	 1.028977861434461e+00	 1.528199764803634e+00
 1.052556336247174e-01	 1.029928627873231e+00	 1.513156893033128e+00
 9.635435262567926e-02	 1.030799489688879e+00	 1.491910539272578e+00
 8.747358045642349e-02	 1.031591075580421e+00	 1.464381290749423e+00
 1.785970553383068e-01	 1.028728106883340e+00	 1.822282213626900e+00
 1.694899880245943e-01	 1.030267707397086e+00	 1.841524770630059e+00
 1.603955541314155e-01	 1.031722664134840e+00	 1.859692708362704e+00
 1.513148162840523e-01	 1.033093512884382e+00	 1.875904108303043e+00
 1.422488214125966e-01	 1.034380804847875e+00	 1.889316730267765e+00
 1.331986005320059e-01	 1.035585106185164e+00	 1.899126390921614e+00
 1.241651685361109e-01	 1.036706997555479e+00	 1.904565291498152e+00
 1.151495240054787e-01	 1.037747073657973e+00	 1.904900310315052e+00
 1.061526490290135e-01	 1.038705942771529e+00	 1.899431275040419e+00
 9.717550903916843e-02	 1.039584226294253e+00	 1.887489228984481e+00
 8.821905266062734e-02	 1.040382558283081e+00	 1.868434704960473e+00
 1.801062326989132e-01	 1.037421045088988e+00	 2.111848064972265e+00
 1.709222090225832e-01	 1.038973655505397e+00	 2.126903407310485e+00
 1.617509255214035e-01	 1.040440906890610e+00	 2.143382184496627e+00
 1.525934538000412e-01	 1.041823339559904e+00	 2.160094901355031e+00
 1.434508496353470e-01	 1.043121509373191e+00	 2.175884478242346e+00
 1.343241527545507e-01	 1.044335987274461e+00	 2.189625045424958e+00
 1.252143866275292e-01	 1.045467358829610e+00	 2.200220683180387e+00
 1.161225582730454e-01	 1.046516223763096e+00	 2.206604123341511e+00
 1.070496580788416e-01	 1.047483195493863e+00	 2.207735427364199e+00
 9.799665963545907e-02	 1.048368900670936e+00	 2.202600655303529e+00
 8.896451958364093e-02	 1.049173978709135e+00	 2.190210539337853e+00
 1.816154023621532e-01	 1.046113938958048e+00	 2.340972157133222e+00
 1.723544227156898e-01	 1.047679559210682e+00	 2.351982673907060e+00
 1.631062899984516e-01	 1.049159105180538e+00	 2.365852779157169e+00
 1.538720847944427e-01	 1.050553121710371e+00	 2.381309864641771e+00
 1.446528717272242e-01	 1.051862169317825e+00	 2.397104387888212e+00
 1.354496992362510e-01	 1.053086823731018e+00	 2.412008847887304e+00
 1.262635993673994e-01	 1.054227675422494e+00	 2.424816711273161e+00
 1.170955875775823e-01	 1.055285329142001e+00	 2.434341304991706e+00
 1.079466625533351e-01	 1.056260403448518e+00	 2.439414690791876e+00
 9.881780604324290e-02	 1.057153530241971e+00	 2.438886536145616e+00
 8.970998270406449e-02	 1.057965354295048e+00	 2.431622995422659e+00
 1.831245673212992e-01	 1.054806805731360e+00	 2.508430903689192e+00
 1.737866319445493e-01	 1.056385435779585e+00	 2.515830362525909e+00
 1.644616502507710e-01	 1.057877276295661e+00	 2.526481016777407e+00
 1.551507118032748e-01	 1.059282876649815e+00	 2.539246369733059e+00
 1.458548900723019e-01	 1.060602802017413e+00	 2.553001600372951e+00
 1.365752422095026e-01	 1.061837632910689e+00	 2.566632488416518e+00
 1.273128088367234e-01	 1.062987964708828e+00	 2.579034302765797e+00
 1.180686138489982e-01	 1.064054407186855e+00	 2.589110669779747e+00
 1.088436642316273e-01	 1.065037584043776e+00	 2.595772437096875e+00
 9.963894989121164e-02	 1.065938132430402e+00	 2.597936547943573e+00
 9.045544350049811e-02	 1.066756702477279e+00	 2.594524940032696e+00
 1.846337305696236e-01	 1.063499662649765e+00	 2.613044832891225e+00
 1.752188395497968e-01	 1.065091302478747e+00	 2.617548744841811e+00
 1.658170089665726e-01	 1.066595437527016e+00	 2.624667664032835e+00
 1.564293373625553e-01	 1.068012621692268e+00	 2.633615364985353e+00
 1.470569070546537e-01	 1.069343424807588e+00	 2.643603912779566e+00
 1.377007839067015e-01	 1.070588432169328e+00	 2.653842307980506e+00
 1.283620171165032e-01	 1.071748244063308e+00	 2.663535115917444e+00
 1.190416390172021e-01	 1.072823475289827e+00	 2.671881097335824e+00
 1.097406648928516e-01	 1.073814754687917e+00	 2.678071856652079e+00
 1.004600928080569e-01	 1.074722724659275e+00	 2.681290523191216e+00
 9.120090345154194e-02	 1.075548040692294e+00	 2.680710479882516e+00
 1.861428951003990e-01	 1.072192526954103e+00	 2.653676844001420e+00
 1.766510483720675e-01	 1.073797176574809e+00	 2.656273226507490e+00
 1.671723688340672e-01	 1.075313606165639e+00	 2.659836805497060e+00
 1.577079640083019e-01	 1.076742374151761e+00	 2.664140888579331e+00
 1.482589250583532e-01	 1.078084055023988e+00	 2.668941737680271e+00
 1.388263265602436e-01	 1.079339238862790e+00	 2.673976706754722e+00
 1.294112262877410e-01	 1.080508530860630e+00	 2.678962392766618e+00
 1.200146650121030e-01	 1.081592550843088e+00	 2.683592817688033e+00
 1.106376663161413e-01	 1.082591932789227e+00	 2.687537658390891e+00
 1.012812364224704e-01	 1.083507324351631e+00	 2.690440540365295e+00
 9.194636403579609e-02	 1.084339386376554e+00	 2.691917410203521e+00
 8.449160925570287e-02	 9.964241732744671e-01	-1.015194612051393e+00
 7.593573370450234e-02	 9.971127089018138e-01	-1.082770939249425e+00
 6.740140868271495e-02	 9.977259455763865e-01	-1.122688388846717e+00
 5.888947380262378e-02	 9.982645237707195e-01	-1.135943394242297e+00
 5.040075266753091e-02	 9.987290943103193e-01	-1.123858461415463e+00
 4.193605278629518e-02	 9.991203179452326e-01	-1.088073207045158e+00
 3.349616549931961e-02	 9.994388649236411e-01	-1.030535191864654e+00
 2.508186591579783e-02	 9.996854145678036e-01	-9.534905626853816e-01
 1.669391286202219e-02	 9.998606548526503e-01	-8.594745168386713e-01
 8.333048840547847e-03	 9.999652819873316e-01	-7.513016030681264e-01
 0.000000000000000e+00	 1.000000000000000e+00	-6.320558732671590e-01
 8.523711737066909e-02	 1.005216079448178e+00	-2.615643413195862e-01
 7.660574941749855e-02	 1.005910690340937e+00	-3.201542621512400e-01
 6.799612214396497e-02	 1.006529337883544e+00	-3.633107310807962e-01
 5.940908257049088e-02	 1.007072668199767e+00	-3.885813224962916e-01
 5.084546156726515e-02	 1.007541337857695e+00	-3.938114229236181e-01
 4.230607376802668e-02	 1.007936013437521e+00	-3.771402728086649e-01
 3.379171749539878e-02	 1.008257371101382e+00	-3.369967038680163e-01
 2.530317469758193e-02	 1.008506096165558e+00	-2.720945807290923e-01
 1.684121089620578e-02	 1.008682882675343e+00	-1.814279562429704e-01
 8.406575145132969e-03	 1.008788432982907e+00	-6.426595048158934e-02
 0.000000000000000e+00	 1.008823457328410e+00	 7.985263587797919e-02
 8.598261429004453e-02	 1.014007853599432e+00	 4.014618518317893e-01
 7.727575506830826e-02	 1.014708539666144e+00	 3.508951076035746e-01
 6.859082667356629e-02	 1.015332597995354e+00	 3.062013236441654e-01
 5.992868353429864e-02	 1.015880680361969e+00	 2.725818946846706e-01
 5.129016378750089e-02	 1.016353449076568e+00	 2.549699624258834e-01
 4.267608919171366e-02	 1.016751576549402e+00	 2.580301446598873e-01
 3.408726505170382e-02	 1.017075744856466e+00	 2.861586468116113e-01
 2.552448015460378e-02	 1.017326645307965e+00	 3.434837514166585e-01
 1.698850671730739e-02	 1.017504978019459e+00	 4.338666800958688e-01
 8.480100344913409e-03	 1.017611451486040e+00	 5.609028216647076e-01
 0.000000000000000e+00	 1.017646782159778e+00	 7.279233190433110e-01
 8.672810149242925e-02	 1.022799513164692e+00	 9.760720521999792e-01
 7.794575198583088e-02	 1.023506274325981e+00	 9.327299495752294e-01
 6.918552345109566e-02	 1.024135743371121e+00	 8.881107343950272e-01
 6.044827772469152e-02	 1.024688577726083e+00	 8.494835525517116e-01
 5.173486021035217e-02	 1.025165445443851e+00	 8.238800986292030e-01
 4.304609979135309e-02	 1.025567024764651e+00	 8.180908784348431e-01
 3.438280875453938e-02	 1.025894003678258e+00	 8.386619105902271e-01
 2.574578272591156e-02	 1.026147079488713e+00	 8.918918664679755e-01
 1.713580061756530e-02	 1.026326958381762e+00	 9.838296465613070e-01
 8.553624585774605e-03	 1.026434354995330e+00	 1.120272390207576e+00
 0.000000000000000e+00	 1.026469991993312e+00	 1.306763914384145e+00
 8.747358045642349e-02	 1.031591075580421e+00	 1.464381290749423e+00
 7.861574149896590e-02	 1.032303911768995e+00	 1.427624066043765e+00
 6.978021365613014e-02	 1.032938791470156e+00	 1.384604247638002e+00
 6.096786617231400e-02	 1.033496377760868e+00	 1.343995560954635e+00
 5.217955171793299e-02	 1.033977344436454e+00	 1.314266270210006e+00
 4.341610630094193e-02	 1.034382375567044e+00	 1.303672725190504e+00
 3.467834919021018e-02	 1.034712165056121e+00	 1.320253382698591e+00
 2.596708285055348e-02	 1.034967416201492e+00	 1.371823305263760e+00
 1.728309288921774e-02	 1.035148841259015e+00	 1.465969138321128e+00
 8.627148013601984e-03	 1.035257161009377e+00	 1.610044565700517e+00
 0.000000000000000e+00	 1.035293104328222e+00	 1.811166241884172e+00
 8.821905266062734e-02	 1.040382558283081e+00	 1.868434704960473e+00
 7.928572493661271e-02	 1.041101469443732e+00	 1.837775688794382e+00
 7.037489846824646e-02	 1.041741759751765e+00	 1.797795682273918e+00
 6.148744990781054e-02	 1.042304097935081e+00	 1.757927266343107e+00
 5.262423919235730e-02	 1.042789163531287e+00	 1.727430686725034e+00
 4.378610945447717e-02	 1.043197646440356e+00	 1.715385424477811e+00
 3.497388694502088e-02	 1.043530246479419e+00	 1.730682256111499e+00
 2.618838096757769e-02	 1.043787672939991e+00	 1.782015808715240e+00
 1.743038382450298e-02	 1.043970644147982e+00	 1.877877614007247e+00
 8.700670774280966e-03	 1.044079887026780e+00	 2.026549663715531e+00
 0.000000000000000e+00	 1.044116136663715e+00	 2.236098467179054e+00
 8.896451958364093e-02	 1.049173978709135e+00	 2.190210539337853e+00
 7.995570362767078e-02	 1.049898964798739e+00	 2.165310713654011e+00
 7.096957906702160e-02	 1.050544665675257e+00	 2.129729048609033e+00
 6.200702996182567e-02	 1.051111755717484e+00	 2.093028131121494e+00
 5.306892351573909e-02	 1.051600920205261e+00	 2.064632423923021e+00
 4.415610998595575e-02	 1.052012854868362e+00	 2.053818588485302e+00
 3.526942260527619e-02	 1.052348265437516e+00	 2.069706291980677e+00
 2.640967751603239e-02	 1.052607867197901e+00	 2.121249506130502e+00
 1.757767371565926e-02	 1.052792384545428e+00	 2.217228304163814e+00
 8.774193013696993e-03	 1.052902550546138e+00	 2.366241160507492e+00
 0.000000000000000e+00	 1.052939106499000e+00	 2.576697756224751e+00
 8.970998270406449e-02	 1.057965354295048e+00	 2.431622995422659e+00
 8.062567890103961e-02	 1.058696415282561e+00	 2.412285772848502e+00
 7.156425663203246e-02	 1.059347526699940e+00	 2.382381510968612e+00
 6.252660736500382e-02	 1.059919368576835e+00	 2.350990278696226e+00
 5.351360557019239e-02	 1.060412631935287e+00	 2.327089267597620e+00
 4.452610862937462e-02	 1.060828018334836e+00	 2.319542585178254e+00
 3.556495675728077e-02	 1.061166239419777e+00	 2.337091506547735e+00
 2.663097293496578e-02	 1.061428016468911e+00	 2.388345194279521e+00
 1.772496285492486e-02	 1.061614079948116e+00	 2.481771894603237e+00
 8.847714877735490e-03	 1.061725169066050e+00	 2.625690616416677e+00
 0.000000000000000e+00	 1.061762031333285e+00	 2.828263297961327e+00
 9.045544350049811e-02	 1.066756702477279e+00	 2.594524940032696e+00
 8.129565208561859e-02	 1.067493838343746e+00	 2.580691154582072e+00
 7.215893234285591e-02	 1.068150360285121e+00	 2.557666203017671e+00
 6.304618314798945e-02	 1.068726953981891e+00	 2.533450912001188e+00
 5.395828623783116e-02	 1.069224316198276e+00	 2.515979465775099e+00
 4.489610611873081e-02	 1.069643154323555e+00	 2.513109377518222e+00
 3.586048998733932e-02	 1.069984185915565e+00	 2.532611873580585e+00
 2.685226766342604e-02	 1.070248138246710e+00	 2.582162701937856e+00
 1.787225153453801e-02	 1.070435747852810e+00	 2.669333374528863e+00
 8.921236512281874e-03	 1.070547760085116e+00	 2.801582851486595e+00
 0.000000000000000e+00	 1.070584928665779e+00	 2.986249673636820e+00
 9.120090345154194e-02	 1.075548040692294e+00	 2.680710479882516e+00
 8.196562451030721e-02	 1.076291251430839e+00	 2.672453578623335e+00
 7.275360737906883e-02	 1.076953183890108e+00	 2.657434904257344e+00
 6.356575834142709e-02	 1.077534529401412e+00	 2.641994612775455e+00
 5.440296640076939e-02	 1.078035990471137e+00	 2.632443394506694e+00
 4.526610318802121e-02	 1.078458280318292e+00	 2.635053321287542e+00
 3.615602288175654e-02	 1.078802122414245e+00	 2.656049041440281e+00
 2.707356214046134e-02	 1.079068250024988e+00	 2.701599334993577e+00
 1.801954004673697e-02	 1.079257405756275e+00	 2.777809039949783e+00
 8.994758063221591e-03	 1.079370341101936e+00	 2.890711358794080e+00
 0.000000000000000e+00	 1.079407815995689e+00	 3.046260552857609e+00
 9.194636403579609e-02	 1.084339386376554e+00	 2.691917410203521e+00
 8.263559750400498e-02	 1.085088671992387e+00	 2.689438836109387e+00
 7.334828292024807e-02	 1.085756014974210e+00	 2.683480585613740e+00
 6.408533397596120e-02	 1.086342112304158e+00	 2.678155528393540e+00
 5.484764694112109e-02	 1.086847672230783e+00	 2.677585142192153e+00
 4.563610057124283e-02	 1.087273413802824e+00	 2.685891923878882e+00
 3.645155602683708e-02	 1.087620066405180e+00	 2.707192063942979e+00
 2.729485680511988e-02	 1.087888369297435e+00	 2.745588397522017e+00
 1.816682868375999e-02	 1.088079071155274e+00	 2.805163643530443e+00
 9.068279676440062e-03	 1.088192929615108e+00	 2.889973941933974e+00
 0.000000000000000e+00	 1.088230710822225e+00	 3.004042697730974e+00
 1.088230710822225e+00	 0.000000000000000e+00	 6.840317171079352e+00
 1.088192929615107e+00	 9.068279676439462e-03	 6.537282811597009e+00
 1.088079071155274e+00	 1.816682868375948e-02	 6.225695773370002e+00
 1.087888369297435e+00	 2.729485680511945e-02	 5.903171367744587e+00
 1.087620066405180e+00	 3.645155602683674e-02	 5.567770051696863e+00
 1.087273413802824e+00	 4.563610057124259e-02	 5.218011723856829e+00
 1.086847672230783e+00	 5.484764694112092e-02	 4.852889722219652e+00
 1.086342112304158e+00	 6.408533397596111e-02	 4.471884510859919e+00
 1.085756014974210e+00	 7.334828292024807e-02	 4.074977041593981e+00
 1.085088671992387e+00	 8.263559750400509e-02	 3.662661777100051e+00
 1.084339386376554e+00	 9.194636403579613e-02	 3.235959362537006e+00
 1.097055127299335e+00	 0.000000000000000e+00	 7.672792937879864e+00
 1.097017039726013e+00	 9.141813969514469e-03	 7.284169746876490e+00
 1.096902257992762e+00	 1.831414272286017e-02	 6.877915490623645e+00
 1.096710009741660e+00	 2.751618963533152e-02	 6.455010786369786e+00
 1.096439531192658e+00	 3.674714014106653e-02	 6.017025079514393e+00
 1.096090067599097e+00	 4.600616176616928e-02	 5.566130003927805e+00
 1.095660873706773e+00	 5.529240417350908e-02	 5.105112237547104e+00
 1.095151214216240e+00	 6.460499921942921e-02	 4.637385837441333e+00
 1.094560364248029e+00	 7.394306102259096e-02	 4.167004037348004e+00
 1.093887609810434e+00	 8.330568604516959e-02	 3.698670491552151e+00
 1.093132248269526e+00	 9.269195318661062e-02	 3.237749949829366e+00
 1.105879566280446e+00	 0.000000000000000e+00	 8.348639573604180e+00
 1.105841172340124e+00	 9.215348450025041e-03	 7.870086932107238e+00
 1.105725467331068e+00	 1.846145713748255e-02	 7.371468016225402e+00
 1.105531672682705e+00	 2.773752302978262e-02	 6.856396207458369e+00
 1.105259018471340e+00	 3.704272500886424e-02	 6.329172095328953e+00
 1.104906743879326e+00	 4.637622390458419e-02	 5.794795703162233e+00
 1.104474097657828e+00	 5.573716253987651e-02	 5.258978054376445e+00
 1.103960338592844e+00	 6.512466578791759e-02	 4.728152062131983e+00
 1.103364735974160e+00	 7.453784064152361e-02	 4.209482724131325e+00
 1.102686570066909e+00	 8.397577629500011e-02	 3.710876605496735e+00
 1.101925132585359e+00	 9.343754423865204e-02	 3.240990593772564e+00
 1.114704025265223e+00	 0.000000000000000e+00	 8.877165145443255e+00
 1.114665324957197e+00	 9.288883097171774e-03	 8.308095932301967e+00
 1.114548696670210e+00	 1.860877188594414e-02	 7.722234676874183e+00
 1.114353355621034e+00	 2.795885692582726e-02	 7.125095078837448e+00
 1.114078525742313e+00	 3.733831054654514e-02	 6.522926889110686e+00
 1.113723440145404e+00	 4.674628688169091e-02	 5.922727706438694e+00
 1.113287341586830e+00	 5.618192191424676e-02	 5.332254083744397e+00
 1.112769482938021e+00	 6.564433353420504e-02	 4.760031914541797e+00
 1.112169127658013e+00	 7.513262160851973e-02	 4.215366068063612e+00
 1.111485550268765e+00	 8.464586806360869e-02	 3.708349242508322e+00
 1.110718036832733e+00	 9.418313698061842e-02	 3.249887560779584e+00
 1.123528501753334e+00	 0.000000000000000e+00	 9.249933852787843e+00
 1.123489495076986e+00	 9.362417890155253e-03	 8.593877510091447e+00
 1.123371943510211e+00	 1.875608692656248e-02	 7.929089979771521e+00
 1.123175056057113e+00	 2.818019126081997e-02	 7.262278552804535e+00
 1.122898050506667e+00	 3.763389667042450e-02	 6.600895445203228e+00
 1.122540153899225e+00	 4.711635059269311e-02	 5.953148259412627e+00
 1.122100602996660e+00	 5.662668217064334e-02	 5.328009705134953e+00
 1.121578644755825e+00	 6.616400231107049e-02	 4.735226550828139e+00
 1.120973536804998e+00	 7.572740375505296e-02	 4.185327775504282e+00
 1.120284547922956e+00	 8.531596116110746e-02	 3.689631891343005e+00
 1.119510958520333e+00	 9.492873120120816e-02	 3.260253408606452e+00
 1.132352993244445e+00	 0.000000000000000e+00	 9.472599732377352e+00
 1.132313680199246e+00	 9.435952808176076e-03	 8.736633683862038e+00
 1.132195205351089e+00	 1.890340221765512e-02	 8.003704355567546e+00
 1.131996771491405e+00	 2.840152597211526e-02	 7.281022770407212e+00
 1.131717590265489e+00	 3.792948329681762e-02	 6.576510666256770e+00
 1.131356882642683e+00	 4.748641493279446e-02	 5.898809446700717e+00
 1.130913879390200e+00	 5.707144318308978e-02	 5.257288390662701e+00
 1.130387821550311e+00	 6.668367197129281e-02	 4.662052094770659e+00
 1.129777960920524e+00	 7.632218691259703e-02	 4.123947120669149e+00
 1.129083560536432e+00	 8.598605539760849e-02	 3.654567820474422e+00
 1.128303895156839e+00	 9.567432668911932e-02	 3.266261314631426e+00
 1.141177497238223e+00	 0.000000000000000e+00	 9.555053274353693e+00
 1.141137877823732e+00	 9.509487830434836e-03	 8.749636504877891e+00
 1.141018479692866e+00	 1.905071771753957e-02	 7.961804665457029e+00
 1.140818499424374e+00	 2.862286099706764e-02	 7.198596912133189e+00
 1.140537142519870e+00	 3.822507034203977e-02	 6.467686514252175e+00
 1.140173623877672e+00	 4.785647979719859e-02	 5.777388122259911e+00
 1.139727168270332e+00	 5.751620482560961e-02	 5.136664343041193e+00
 1.139197010825530e+00	 6.720334236765083e-02	 4.555131600892705e+00
 1.138582397510003e+00	 7.691697091262552e-02	 4.043065260524797e+00
 1.137882585616146e+00	 8.665615058322386e-02	 3.611403989521270e+00
 1.137096844250934e+00	 9.641992323305025e-02	 3.271753338794012e+00
 1.150002011234334e+00	 0.000000000000000e+00	 9.506887590347052e+00
 1.149962085450197e+00	 9.583022936132122e-03	 8.645756469232575e+00
 1.149841764035561e+00	 1.919803338453339e-02	 7.818640461458624e+00
 1.149640237356486e+00	 2.884419627303163e-02	 7.031745082534560e+00
 1.149356704770895e+00	 3.852065772240622e-02	 6.291791639079318e+00
 1.148990375106086e+00	 4.822654508110917e-02	 5.606022644422012e+00
 1.148540467139938e+00	 5.796096697222636e-02	 4.982206639033850e+00
 1.148006210085537e+00	 6.772301335292341e-02	 4.428642399740615e+00
 1.147386844078842e+00	 7.751175558661223e-02	 3.954162519870803e+00
 1.146681620669051e+00	 8.732624652806566e-02	 3.568136343538701e+00
 1.145889803311299e+00	 9.716552062169910e-02	 3.280472238365964e+00
 1.158826532732445e+00	 0.000000000000000e+00	 9.337409730736780e+00
 1.158786300578399e+00	 9.656558104468534e-03	 8.437477789980939e+00
 1.158665055879196e+00	 1.934534917695411e-02	 7.589002131518303e+00
 1.158461982788203e+00	 2.906553173736174e-02	 6.796706263013172e+00
 1.158176274519656e+00	 3.881624535423227e-02	 6.065670091131204e+00
 1.157807133829818e+00	 4.859661067972984e-02	 5.401333318651352e+00
 1.157353773501899e+00	 5.840572949696354e-02	 4.809498391771595e+00
 1.156815416834384e+00	 6.824268477988943e-02	 4.296332989015310e+00
 1.156191298132452e+00	 7.810654076603075e-02	 3.868372041214741e+00
 1.155480663202100e+00	 8.799634304224592e-02	 3.532519273061377e+00
 1.154682769846619e+00	 9.791111864376412e-02	 3.296048257765415e+00
 1.167651059232224e+00	 0.000000000000000e+00	 9.055651489127984e+00
 1.167610520708092e+00	 9.730093314644661e-03	 8.136912977307290e+00
 1.167488352723790e+00	 1.949266505311926e-02	 7.287238222489540e+00
 1.167283733219993e+00	 2.928686732741249e-02	 6.509233360591818e+00
 1.166995849267240e+00	 3.911183315383319e-02	 5.805661095473873e+00
 1.166623897550763e+00	 4.896667648826426e-02	 5.179441914122956e+00
 1.166167084859096e+00	 5.885049227384472e-02	 4.633655044928174e+00
 1.165624628576125e+00	 6.876235650132773e-02	 4.171539159492371e+00
 1.164995757176244e+00	 7.870132628235484e-02	 3.796492816324886e+00
 1.164279710722243e+00	 8.866643993587678e-02	 3.512074645697989e+00
 1.163475741365573e+00	 9.865671708794350e-02	 3.322003275906825e+00
 1.176475588233336e+00	 0.000000000000000e+00	 8.670379720945585e+00
 1.176434743339030e+00	 9.803628545861098e-03	 7.755816763030851e+00
 1.176311652069365e+00	 1.963998097134639e-02	 6.927271984120456e+00
 1.176105486152319e+00	 2.950820298053838e-02	 6.184611400098079e+00
 1.175815426514735e+00	 3.940742103752425e-02	 5.527617936823467e+00
 1.175440663770814e+00	 4.933674240191608e-02	 4.955990302709929e+00
 1.174980398714412e+00	 5.929525517689338e-02	 4.469341844297350e+00
 1.174433842814813e+00	 6.928202837001721e-02	 4.067199395875910e+00
 1.173800218715625e+00	 7.929611196705813e-02	 3.749002131899714e+00
 1.173078760736435e+00	 8.933653701907034e-02	 3.514100431755466e+00
 1.172268715376846e+00	 9.940231574293547e-02	 3.361754767265348e+00
 1.084339386376554e+00	 9.194636403579613e-02	 3.235959362537006e+00
 1.083507324351631e+00	 1.012812364224699e-01	 2.835983667792563e+00
 1.082591932789227e+00	 1.106376663161409e-01	 2.499120376324834e+00
 1.081592550843088e+00	 1.200146650121027e-01	 2.219475673516986e+00
 1.080508530860630e+00	 1.294112262877406e-01	 1.991152717060846e+00
 1.079339238862790e+00	 1.388263265602434e-01	 1.808253167501619e+00
 1.078084055023988e+00	 1.482589250583530e-01	 1.664878749205241e+00
 1.076742374151761e+00	 1.577079640083017e-01	 1.555132857231463e+00
 1.075313606165639e+00	 1.671723688340671e-01	 1.473122225552620e+00
 1.073797176574809e+00	 1.766510483720674e-01	 1.412958671862890e+00
 1.072192526954103e+00	 1.861428951003989e-01	 1.368760933868562e+00
 1.093132248269526e+00	 9.269195318661062e-02	 3.237749949829366e+00
 1.092293439089185e+00	 1.021025216562378e-01	 2.821064300071455e+00
 1.091370624655715e+00	 1.115348224417167e-01	 2.476748838613704e+00
 1.090363138764083e+00	 1.209878588209781e-01	 2.197300730860122e+00
 1.089270328509909e+00	 1.304606164119928e-01	 1.975074167674542e+00
 1.088091554773214e+00	 1.399520633317617e-01	 1.802280857527385e+00
 1.086826192702272e+00	 1.494611503694586e-01	 1.670990715946477e+00
 1.085473632197129e+00	 1.589868111738753e-01	 1.573132774683751e+00
 1.084033278392373e+00	 1.685279624553000e-01	 1.500496332822562e+00
 1.082504552138659e+00	 1.780835042019535e-01	 1.444732371685324e+00
 1.080886890482565e+00	 1.876523199110862e-01	 1.397355254850699e+00
 1.101925132585359e+00	 9.343754423865204e-02	 3.240990593772562e+00
 1.101079576232330e+00	 1.029238089842890e-01	 2.829298679592251e+00
 1.100149338908817e+00	 1.124319808550753e-01	 2.493607576736893e+00
 1.099133749050991e+00	 1.219610551115601e-01	 2.225224628664169e+00
 1.098032148502666e+00	 1.315100092122798e-01	 2.015209372849257e+00
 1.096843893002933e+00	 1.410778029740275e-01	 1.854373182739880e+00
 1.095568352673903e+00	 1.506633787463890e-01	 1.733279234541839e+00
 1.094204912508127e+00	 1.602656616006945e-01	 1.642242826963765e+00
 1.092752972855232e+00	 1.698835595335220e-01	 1.571332081754967e+00
 1.091211949907333e+00	 1.795159636848740e-01	 1.510369052373888e+00
 1.089581276182744e+00	 1.891617485711329e-01	 1.448931267420690e+00
 1.110718036832733e+00	 9.418313698061842e-02	 3.249887560779585e+00
 1.109865733291667e+00	 1.037450981738555e-01	 2.859998845737235e+00
 1.108928073061242e+00	 1.133291413019369e-01	 2.544938556400368e+00
 1.107904379218823e+00	 1.229342536080121e-01	 2.295234429661925e+00
 1.106793988356403e+00	 1.325594043911656e-01	 2.101096086518497e+00
 1.105596251072132e+00	 1.422035451679651e-01	 1.952414007681388e+00
 1.104310532461951e+00	 1.518656098483895e-01	 1.838758922699377e+00
 1.102936212610899e+00	 1.615445149262890e-01	 1.749381645246433e+00
 1.101472687083637e+00	 1.712391596845126e-01	 1.673213386860034e+00
 1.099919367413728e+00	 1.809484264148249e-01	 1.598866580827447e+00
 1.098275681591209e+00	 1.906711806527213e-01	 1.514636247101286e+00
 1.119510958520333e+00	 9.492873120120816e-02	 3.260253408606452e+00
 1.118651907777798e+00	 1.045663889921698e-01	 2.906148975018183e+00
 1.117706824625701e+00	 1.142263035280213e-01	 2.621509935441339e+00
 1.116675026782588e+00	 1.239074540344973e-01	 2.396442669637933e+00
 1.115555845588620e+00	 1.336088016512145e-01	 2.220705438233274e+00
 1.114348626500999e+00	 1.433292895944985e-01	 2.083708018887045e+00
 1.113052729589483e+00	 1.530678433347055e-01	 1.974511720203617e+00
 1.111667530031593e+00	 1.628233707881889e-01	 1.881829792956328e+00
 1.110192418607010e+00	 1.725947625240513e-01	 1.794089078855919e+00
 1.108626802190737e+00	 1.823808919858028e-01	 1.699542754859928e+00
 1.106970104244528e+00	 1.921806157280337e-01	 1.585869595761398e+00
 1.128303895156839e+00	 9.567432668911932e-02	 3.266261314631427e+00
 1.127438097201324e+00	 1.053876812064641e-01	 2.956472338988942e+00
 1.126485591114902e+00	 1.151234672790487e-01	 2.707724227935487e+00
 1.125445689257293e+00	 1.248806561151792e-01	 2.510111777956026e+00
 1.124317717716819e+00	 1.346582006949903e-01	 2.353379579580142e+00
 1.123101016809721e+00	 1.444550359345519e-01	 2.226921515697616e+00
 1.121794941579570e+00	 1.542700788645822e-01	 2.119780639081503e+00
 1.120398862296355e+00	 1.641022288239236e-01	 2.020649449454123e+00
 1.118912164954772e+00	 1.739503676679175e-01	 1.917870590600021e+00
 1.117334251771257e+00	 1.838133599918037e-01	 1.799437988122668e+00
 1.115664541679271e+00	 1.936900533692525e-01	 1.652998448450931e+00
 1.137096844250934e+00	 9.641992323305025e-02	 3.271753338794012e+00
 1.136224299072845e+00	 1.062089745839706e-01	 3.010255230159737e+00
 1.135264370041556e+00	 1.160206323007391e-01	 2.798881435277026e+00
 1.134216364157948e+00	 1.258538595742210e-01	 2.628097463457475e+00
 1.133079602258502e+00	 1.357076012250574e-01	 2.488049552262085e+00
 1.131853419518487e+00	 1.455807838690494e-01	 2.368564211967775e+00
 1.130537165955278e+00	 1.554723160972651e-01	 2.259148112533393e+00
 1.129130206931329e+00	 1.653810886710231e-01	 2.148988332942379e+00
 1.127631923656345e+00	 1.753059747318906e-01	 2.026952993034046e+00
 1.126041713688183e+00	 1.852458300268237e-01	 1.881592288094076e+00
 1.124358991432006e+00	 1.951994931485598e-01	 1.701139946551522e+00
 1.145889803311299e+00	 9.716552062169910e-02	 3.280472238365963e+00
 1.145010510902963e+00	 1.070302688919216e-01	 3.066973072700783e+00
 1.144043158918370e+00	 1.169177983388124e-01	 2.890913950033685e+00
 1.142987048999564e+00	 1.268270641357863e-01	 2.743505395324271e+00
 1.141841496731169e+00	 1.367570029439797e-01	 2.615702102889781e+00
 1.140605832147483e+00	 1.467065330789150e-01	 2.498202707578127e+00
 1.139279400239678e+00	 1.566745546919998e-01	 2.381449823976826e+00
 1.137861561462665e+00	 1.666599499670174e-01	 2.255630371873864e+00
 1.136351692241150e+00	 1.766615833317499e-01	 2.110676206521672e+00
 1.134749185474410e+00	 1.866783016848592e-01	 1.936265072519825e+00
 1.133053451039304e+00	 1.967089346381378e-01	 1.721821900318788e+00
 1.154682769846619e+00	 9.791111864376412e-02	 3.296048257765415e+00
 1.153796730202278e+00	 1.078515638975493e-01	 3.126118248602530e+00
 1.152821955258055e+00	 1.178149651389887e-01	 2.979878532963046e+00
 1.151757741297147e+00	 1.278002695240381e-01	 2.849651208852322e+00
 1.150603398652322e+00	 1.378064055543212e-01	 2.727597993214317e+00
 1.149358252216897e+00	 1.478322832450730e-01	 2.605720397008015e+00
 1.148021641955836e+00	 1.578767943080314e-01	 2.475860056509609e+00
 1.146592923416506e+00	 1.679388123494360e-01	 2.329699236205515e+00
 1.145071468238608e+00	 1.780171930832749e-01	 2.158761519112613e+00
 1.143456664662833e+00	 1.881107745599064e-01	 1.954412700771048e+00
 1.141747918037733e+00	 1.982183774101689e-01	 1.707861903493850e+00
 1.163475741365573e+00	 9.865671708794350e-02	 3.322003275906825e+00
 1.162582954481391e+00	 1.086728593680860e-01	 3.187199345053707e+00
 1.161600756573321e+00	 1.187121324469881e-01	 3.061951494586509e+00
 1.160528438565709e+00	 1.287734754631399e-01	 2.940052446127633e+00
 1.159365305539462e+00	 1.388558087586461e-01	 2.815261514958236e+00
 1.158110677246916e+00	 1.489580340484473e-01	 2.681305362925790e+00
 1.156763888626824e+00	 1.590790346046053e-01	 2.531878758816160e+00
 1.155324290319000e+00	 1.692176754558090e-01	 2.360645357528910e+00
 1.153791249178141e+00	 1.793728036022450e-01	 2.161238510036872e+00
 1.152164148786348e+00	 1.895432482459615e-01	 1.927262116702643e+00
 1.150442389963861e+00	 1.997278210368353e-01	 1.652291537058600e+00
 1.172268715376846e+00	 9.940231574293547e-02	 3.361754767265349e+00
 1.171369181250904e+00	 1.094941550707639e-01	 3.249740435936042e+00
 1.170379560376876e+00	 1.196093000085306e-01	 3.133424093781799e+00
 1.169299138320258e+00	 1.297466816772552e-01	 3.008420859539662e+00
 1.168127214910092e+00	 1.399052122595186e-01	 2.870470476663528e+00
 1.166863104757728e+00	 1.500837851699623e-01	 2.715438814806776e+00
 1.165506137775708e+00	 1.602812752409670e-01	 2.539319193440969e+00
 1.164055659696292e+00	 1.704965389236660e-01	 2.338233533760674e+00
 1.162511032589170e+00	 1.807284145044398e-01	 2.108433345872551e+00
 1.160871635377850e+00	 1.909757223370206e-01	 1.846300559080083e+00
 1.159136864354258e+00	 2.012372650903192e-01	 1.548348203845070e+00
 1.072192526954103e+00	 1.861428951003989e-01	 1.368760933868563e+00
 1.070499410704053e+00	 1.956451693612012e-01	 1.348195971439797e+00
 1.068717037289555e+00	 2.051583467169502e-01	 1.362916522551172e+00
 1.066844898743585e+00	 2.146812752770183e-01	 1.413193134284186e+00
 1.064882505016370e+00	 2.242127879174378e-01	 1.499495333230960e+00
 1.062829384435084e+00	 2.337517025831922e-01	 1.622494770859628e+00
 1.060685084158954e+00	 2.432968226052727e-01	 1.783068340950594e+00
 1.058449170629273e+00	 2.528469370324876e-01	 1.982301270463209e+00
 1.056121230013807e+00	 2.624008209779921e-01	 2.221490183659862e+00
 1.053700868645081e+00	 2.719572359804877e-01	 2.502146137642684e+00
 1.051187713452026e+00	 2.815149303800232e-01	 2.825997625653881e+00
 1.080886890482565e+00	 1.876523199110862e-01	 1.397355254850698e+00
 1.079180044824954e+00	 1.972316477090707e-01	 1.367018830550490e+00
 1.077383218220314e+00	 2.068219670147026e-01	 1.368827450363087e+00
 1.075495898582547e+00	 2.164221165967264e-01	 1.404107944611409e+00
 1.073517591888097e+00	 2.260309198670193e-01	 1.474475929341589e+00
 1.071447822639375e+00	 2.356471851853353e-01	 1.581839147774053e+00
 1.069286134323551e+00	 2.452697061789316e-01	 1.728400688965433e+00
 1.067032089866219e+00	 2.548972620770691e-01	 1.916662083187717e+00
 1.064685272079408e+00	 2.645286180603516e-01	 2.149426272030197e+00
 1.062245284103420e+00	 2.741625256248553e-01	 2.429800449589414e+00
 1.059711749841981e+00	 2.837977229609758e-01	 2.761198769339164e+00
 1.089581276182744e+00	 1.891617485711329e-01	 1.448931267420690e+00
 1.087860701082651e+00	 1.988181301028490e-01	 1.399337058258933e+00
 1.086049421251115e+00	 2.084855915551455e-01	 1.382151821926056e+00
 1.084146920482950e+00	 2.181629623561129e-01	 1.399439782104083e+00
 1.082152700780804e+00	 2.278490564534478e-01	 1.453621565047765e+00
 1.080066282822310e+00	 2.375426726216475e-01	 1.547477743232680e+00
 1.077887206422568e+00	 2.472425947842087e-01	 1.684152191563442e+00
 1.075615030991461e+00	 2.569475923508174e-01	 1.867155254474935e+00
 1.073249335985267e+00	 2.666564205694989e-01	 2.100366720746987e+00
 1.070789721352055e+00	 2.763678208936757e-01	 2.388038601196214e+00
 1.068235807970332e+00	 2.860805213640624e-01	 2.734797702616441e+00
 1.098275681591209e+00	 1.906711806527213e-01	 1.514636247101286e+00
 1.096541377017587e+00	 2.004046160928794e-01	 1.438570293037230e+00
 1.094715643926478e+00	 2.101492198667576e-01	 1.398106692456689e+00
 1.092797961993595e+00	 2.199038120617696e-01	 1.395735382606762e+00
 1.090787829247780e+00	 2.296671971614080e-01	 1.434348480087998e+00
 1.088684762541872e+00	 2.394381643548901e-01	 1.517244032872924e+00
 1.086488298018892e+00	 2.492154878619281e-01	 1.648129550148901e+00
 1.084197991573000e+00	 2.589979272726092e-01	 1.831125307819735e+00
 1.081813419304712e+00	 2.687842279023556e-01	 2.070767425932229e+00
 1.079334177969853e+00	 2.785731211619117e-01	 2.372010712574266e+00
 1.076759885421701e+00	 2.883633249422864e-01	 2.740231266929159e+00
 1.106970104244528e+00	 1.921806157280337e-01	 1.585869595761399e+00
 1.105222070170204e+00	 2.019911052295054e-01	 1.478318921402903e+00
 1.103381883790923e+00	 2.118128514780181e-01	 1.412033698091051e+00
 1.101449020663285e+00	 2.216446652202883e-01	 1.389624880052360e+00
 1.099422974842311e+00	 2.314853414755846e-01	 1.414129874829717e+00
 1.097303259356043e+00	 2.413336598478243e-01	 1.489016509888808e+00
 1.095089406675410e+00	 2.511883848529137e-01	 1.618186771946376e+00
 1.092780969178836e+00	 2.610482662613206e-01	 1.805980317027036e+00
 1.090377519611071e+00	 2.709120394558432e-01	 2.057177747586224e+00
 1.087878651535683e+00	 2.807784258045261e-01	 2.377003651208388e+00
 1.085283979780712e+00	 2.906461330486506e-01	 2.771129393410379e+00
 1.115664541679271e+00	 1.936900533692525e-01	 1.652998448450932e+00
 1.113902778080947e+00	 2.035775970630707e-01	 1.511918130420461e+00
 1.112048138388968e+00	 2.134764859174058e-01	 1.419349195268808e+00
 1.110100094040817e+00	 2.233855213382608e-01	 1.377818997729271e+00
 1.108058135117686e+00	 2.333034888806627e-01	 1.390494272484717e+00
 1.105921770822807e+00	 2.432291585632111e-01	 1.460717663811425e+00
 1.103690529955006e+00	 2.531612851979896e-01	 1.592224221029289e+00
 1.101363961376972e+00	 2.630986087358285e-01	 1.789190495677023e+00
 1.098941634477672e+00	 2.730398546268836e-01	 2.056238114621383e+00
 1.096423139628413e+00	 2.829837341964819e-01	 2.398437141073467e+00
 1.093808088631989e+00	 2.929289450361586e-01	 2.821309216412651e+00
 1.124358991432006e+00	 1.951994931485598e-01	 1.701139946551521e+00
 1.122583498290258e+00	 2.051640911439185e-01	 1.527383997321059e+00
 1.120714405265136e+00	 2.151401227133998e-01	 1.411166920669718e+00
 1.118751179674995e+00	 2.251263799222787e-01	 1.354489314629427e+00
 1.116693307627193e+00	 2.351216388613269e-01	 1.359779887830918e+00
 1.114540294500143e+00	 2.451246599638118e-01	 1.429899533377574e+00
 1.112291665420569e+00	 2.551341883379800e-01	 1.568145000522289e+00
 1.109946965735407e+00	 2.651489541150091e-01	 1.778286904606679e+00
 1.107505761477841e+00	 2.751676728123982e-01	 2.064677797582009e+00
 1.104967639826910e+00	 2.851890457127417e-01	 2.431860112949657e+00
 1.102332209560157e+00	 2.952117602578134e-01	 2.884769525041186e+00
 1.133053451039304e+00	 1.967089346381378e-01	 1.721821900318786e+00
 1.131264228338580e+00	 2.067505870223924e-01	 1.517355709225226e+00
 1.129380681963944e+00	 2.168037613944789e-01	 1.380599367618925e+00
 1.127402275114619e+00	 2.268672404789337e-01	 1.312787769659977e+00
 1.125328489924120e+00	 2.369397909022619e-01	 1.315548093777161e+00
 1.123158827946038e+00	 2.470201635123877e-01	 1.390904118149680e+00
 1.120892810634984e+00	 2.571070937137088e-01	 1.541280190662427e+00
 1.118529979822143e+00	 2.671993018177391e-01	 1.769504850162920e+00
 1.116069898184907e+00	 2.772954934093091e-01	 2.078814096176892e+00
 1.113512149710043e+00	 2.873943597282683e-01	 2.472854304516989e+00
 1.110856340149837e+00	 2.974945780666181e-01	 2.955685534540540e+00
 1.141747918037733e+00	 1.982183774101689e-01	 1.707861903493850e+00
 1.139944965766357e+00	 2.083370842488358e-01	 1.476614818883158e+00
 1.138046966029914e+00	 2.184674014891222e-01	 1.323983826886601e+00
 1.136053377908490e+00	 2.286081025148177e-01	 1.250158857277500e+00
 1.133963679561754e+00	 2.387579444881526e-01	 1.255666322211783e+00
 1.131777368718472e+00	 2.489156686717000e-01	 1.341373681246870e+00
 1.129493963161138e+00	 2.590800007660000e-01	 1.508493744549418e+00
 1.127113001205179e+00	 2.692496512628949e-01	 1.758588713163258e+00
 1.124634042172197e+00	 2.794233158145375e-01	 2.093573955417002e+00
 1.122056666856679e+00	 2.895996756180249e-01	 2.515721518703729e+00
 1.119380477985655e+00	 2.997773978155760e-01	 3.027663375953693e+00
 1.150442389963861e+00	 1.997278210368353e-01	 1.652291537058600e+00
 1.148625708114031e+00	 2.099235823735922e-01	 1.400097206244868e+00
 1.146713255007565e+00	 2.201310425258087e-01	 1.237764642427202e+00
 1.144704485605409e+00	 2.303489655365222e-01	 1.164165555310189e+00
 1.142598874093383e+00	 2.405760991036838e-01	 1.178432659400680e+00
 1.140395914375427e+00	 2.508111749045097e-01	 1.279964496535902e+00
 1.138095120561916e+00	 2.610529089356778e-01	 1.468430107075850e+00
 1.135696027452518e+00	 2.713000018693528e-01	 1.743773551274240e+00
 1.133198191013039e+00	 2.815511394250055e-01	 2.106218282398211e+00
 1.130601188845688e+00	 2.918049927569740e-01	 2.556271373153677e+00
 1.127904620652233e+00	 3.020602188576901e-01	 3.094727596884108e+00
 1.159136864354258e+00	 2.012372650903192e-01	 1.548348203845069e+00
 1.157306452922046e+00	 2.115100809470052e-01	 1.282887153662732e+00
 1.155379546441417e+00	 2.217946840330171e-01	 1.118489064241683e+00
 1.153355595754176e+00	 2.320898290506393e-01	 1.052439996696346e+00
 1.151234071072297e+00	 2.423942542335403e-01	 1.082192154339836e+00
 1.149014462474888e+00	 2.527066816735781e-01	 1.205368970723941e+00
 1.146696280400205e+00	 2.630258176635662e-01	 1.419770183299441e+00
 1.144279056132160e+00	 2.733503530559895e-01	 1.723376897451179e+00
 1.141762342280760e+00	 2.836789636376347e-01	 2.114356645530147e+00
 1.139145713255937e+00	 2.940103105200784e-01	 2.591068445287902e+00
 1.136428765734195e+00	 3.043430405459637e-01	 3.152067861811327e+00
 1.051187713452026e+00	 2.815149303800232e-01	 2.825997625653881e+00
 1.048581412613244e+00	 2.910726398417731e-01	 3.160649477605587e+00
 1.045881636661798e+00	 3.006290881733392e-01	 3.472652160367269e+00
 1.043088078209732e+00	 3.101829873646860e-01	 3.762423161314384e+00
 1.040200452118341e+00	 3.197330378908551e-01	 4.030523853016034e+00
 1.037218495887461e+00	 3.292779291590120e-01	 4.277663272438646e+00
 1.034141970034960e+00	 3.388163399692082e-01	 4.504701950244390e+00
 1.030970658465916e+00	 3.483469389886462e-01	 4.712655772477514e+00
 1.027704368830951e+00	 3.578683852392130e-01	 4.902699854244721e+00
 1.024342932873230e+00	 3.673793285980262e-01	 5.076172402298855e+00
 1.020886206763610e+00	 3.768784103107179e-01	 5.243730575029849e+00
 1.059711749841981e+00	 2.837977229609758e-01	 2.761198769339164e+00
 1.057084314620796e+00	 2.934329354814531e-01	 3.109986657372075e+00
 1.054362646301285e+00	 3.030668766452962e-01	 3.439432119176925e+00
 1.051546435002888e+00	 3.126982479980471e-01	 3.748521249312084e+00
 1.048635393274711e+00	 3.223257394769500e-01	 4.036224315831164e+00
 1.045629256487975e+00	 3.319480298616244e-01	 4.301499052742104e+00
 1.042527783218591e+00	 3.415637872385635e-01	 4.543294231155721e+00
 1.039330755619318e+00	 3.511716694792438e-01	 4.760553495821831e+00
 1.036037979781014e+00	 3.607703247316135e-01	 4.952219450582670e+00
 1.032649286082447e+00	 3.703583919246967e-01	 5.117237973071438e+00
 1.029164529528158e+00	 3.799345012860394e-01	 5.275269011356263e+00
 1.068235807970332e+00	 2.860805213640624e-01	 2.734797702616441e+00
 1.065587238312894e+00	 2.957932371409369e-01	 3.103057342506835e+00
 1.062843677569518e+00	 3.055046713346897e-01	 3.450630279597462e+00
 1.060004813367034e+00	 3.152135150464138e-01	 3.775417574032500e+00
 1.057070355942356e+00	 3.249184476755314e-01	 4.075179043318435e+00
 1.054040038538092e+00	 3.346181373740901e-01	 4.347536175398078e+00
 1.050913617788186e+00	 3.443112415149979e-01	 4.589975506732005e+00
 1.047690874093082e+00	 3.539964071739803e-01	 4.799852455509521e+00
 1.044371611983876e+00	 3.636722716250192e-01	 4.974395596513324e+00
 1.040955660474934e+00	 3.733374628490190e-01	 5.112761194334372e+00
 1.037442873404483e+00	 3.829906000554127e-01	 5.243422137004215e+00
 1.076759885421701e+00	 2.883633249422864e-01	 2.740231266929159e+00
 1.074090181280135e+00	 2.981535441512704e-01	 3.131771624045146e+00
 1.071324728063283e+00	 3.079424715506127e-01	 3.497399471555840e+00
 1.068463210905362e+00	 3.177287877969357e-01	 3.834270056390811e+00
 1.065505337731094e+00	 3.275111617518153e-01	 4.139305678872419e+00
 1.062450839654468e+00	 3.372882509397047e-01	 4.409198332020904e+00
 1.059299471367465e+00	 3.470587020199035e-01	 4.640412950523258e+00
 1.056051011518212e+00	 3.568211512723621e-01	 4.829191261942789e+00
 1.052705263078036e+00	 3.665742250970736e-01	 4.971556228770453e+00
 1.049262053696909e+00	 3.763165405267977e-01	 5.071968025445532e+00
 1.045721236046741e+00	 3.860467057528314e-01	 5.160525107524041e+00
 1.085283979780712e+00	 2.906461330486506e-01	 2.771129393410379e+00
 1.082593141113114e+00	 3.005138558434994e-01	 3.188283412383776e+00
 1.079805795379363e+00	 3.103802766021593e-01	 3.571163137317637e+00
 1.076921625221063e+00	 3.202440655367617e-01	 3.916510299958781e+00
 1.073940336250740e+00	 3.301038809710174e-01	 4.220775127578069e+00
 1.070861657453763e+00	 3.399583698017635e-01	 4.480118812456700e+00
 1.067685341580148e+00	 3.498061679746717e-01	 4.690416694631951e+00
 1.064411165525704e+00	 3.596459009738958e-01	 4.847262151974691e+00
 1.061038930701994e+00	 3.694761843254195e-01	 4.945971187371740e+00
 1.057568463394589e+00	 3.792956241138375e-01	 5.001888024812499e+00
 1.053999615109085e+00	 3.891028175122886e-01	 5.038549436349910e+00
 1.093808088631989e+00	 2.929289450361586e-01	 2.821309216412651e+00
 1.091096115402428e+00	 3.028741715486697e-01	 3.264982782637260e+00
 1.088286877114546e+00	 3.128180857984232e-01	 3.663606849635774e+00
 1.085380053917330e+00	 3.227593475530421e-01	 4.013835214195240e+00
 1.082375349111109e+00	 3.326966045983535e-01	 4.312004207434146e+00
 1.079272489552634e+00	 3.426284932035625e-01	 4.554135096830003e+00
 1.076071226049955e+00	 3.525536386006939e-01	 4.735937264626069e+00
 1.072771333746560e+00	 3.624706554780879e-01	 4.852812157239195e+00
 1.069372612494248e+00	 3.723781484877003e-01	 4.900897770789379e+00
 1.065874887214190e+00	 3.822747127659428e-01	 4.909354790178885e+00
 1.062278008245671e+00	 3.921589344677780e-01	 4.889117423399776e+00
 1.102332209560157e+00	 2.952117602578134e-01	 2.884769525041186e+00
 1.099599101738671e+00	 3.052344905978273e-01	 3.354488744384479e+00
 1.096767970865613e+00	 3.152558984484984e-01	 3.766670297175463e+00
 1.093838494597351e+00	 3.252746331329259e-01	 4.118199104734794e+00
 1.090810373922018e+00	 3.352893318990401e-01	 4.405648724742910e+00
 1.087683333567742e+00	 3.452986203883973e-01	 4.625283786651165e+00
 1.084457122400605e+00	 3.553011131193616e-01	 4.773063226688920e+00
 1.081131513811779e+00	 3.652954139844449e-01	 4.844644316700546e+00
 1.077706306093297e+00	 3.752801167615593e-01	 4.841935269250264e+00
 1.074181322801931e+00	 3.852538056389181e-01	 4.801014206170780e+00
 1.070556413110653e+00	 3.952150557532932e-01	 4.723515882356632e+00
 1.110856340149837e+00	 2.974945780666181e-01	 2.955685534540539e+00
 1.108102097712440e+00	 3.075948123220183e-01	 3.449642413017858e+00
 1.105249074229351e+00	 3.176937138614783e-01	 3.872539712124848e+00
 1.102296944864320e+00	 3.277899215635631e-01	 4.221806205655113e+00
 1.099245408293281e+00	 3.378820621382923e-01	 4.494596950886325e+00
 1.096094187115743e+00	 3.479687505995634e-01	 4.687795856771475e+00
 1.092843028255819e+00	 3.580485907520670e-01	 4.798019035596967e+00
 1.089491703352362e+00	 3.681201756924732e-01	 4.821618931029791e+00
 1.086040009137640e+00	 3.781820883246395e-01	 4.771881158909435e+00
 1.082487767804028e+00	 3.882329018885685e-01	 4.683331888095498e+00
 1.078834827358186e+00	 3.982711805028277e-01	 4.552709204267900e+00
 1.119380477985655e+00	 2.997773978155760e-01	 3.027663375953693e+00
 1.116605100914329e+00	 3.099551360522884e-01	 3.543288075942074e+00
 1.113730184802543e+00	 3.201315313464569e-01	 3.973617078576052e+00
 1.110755402321427e+00	 3.303052121321027e-01	 4.317103630167694e+00
 1.107680449834716e+00	 3.404747945813266e-01	 4.571963479095025e+00
 1.104505047813296e+00	 3.506388830803566e-01	 4.736092211079547e+00
 1.101228941239316e+00	 3.607960707202009e-01	 4.807163072810816e+00
 1.097851899999308e+00	 3.709449398016796e-01	 4.782741464203025e+00
 1.094373719265776e+00	 3.810840623545844e-01	 4.693258258916163e+00
 1.090794219866699e+00	 3.912120006706980e-01	 4.562600255523678e+00
 1.087113248642424e+00	 4.013273078503746e-01	 4.387351792809034e+00
 1.127904620652233e+00	 3.020602188576901e-01	 3.094727596884108e+00
 1.125108108934936e+00	 3.123154611196834e-01	 3.628181065626944e+00
 1.122211300181975e+00	 3.225693502125279e-01	 4.062346036120211e+00
 1.119213864571863e+00	 3.328205041256945e-01	 4.396841535807408e+00
 1.116115496156136e+00	 3.430675284933584e-01	 4.631187151999585e+00
 1.112915913277059e+00	 3.533090170740725e-01	 4.764802558802185e+00
 1.109614858974815e+00	 3.635435522451554e-01	 4.796985864610536e+00
 1.106212101383617e+00	 3.737697055115701e-01	 4.730148266445711e+00
 1.102707434116205e+00	 3.839860380290369e-01	 4.608536591667113e+00
 1.099100676636162e+00	 3.941911011411116e-01	 4.444945255221613e+00
 1.095391674617524e+00	 4.043834369299280e-01	 4.237799904422858e+00
 1.136428765734195e+00	 3.043430405459637e-01	 3.152067861811326e+00
 1.133611119364855e+00	 3.146757868552493e-01	 3.698211983593561e+00
 1.130692417964432e+00	 3.250071697687851e-01	 4.131925938719693e+00
 1.127672329218821e+00	 3.353357968314881e-01	 4.454292116494500e+00
 1.124550544867360e+00	 3.456602631396041e-01	 4.666424902644707e+00
 1.121326781123693e+00	 3.559791518240068e-01	 4.769470321506042e+00
 1.118000779086037e+00	 3.662910345483221e-01	 4.764605893076144e+00
 1.114572305136289e+00	 3.765944720216516e-01	 4.664909095983096e+00
 1.111041151327425e+00	 3.868880145256406e-01	 4.520135560485008e+00
 1.107407135758632e+00	 3.971702024556138e-01	 4.336332751828876e+00
 1.103670102937638e+00	 4.074395668754809e-01	 4.114122924554842e+00
 1.020886206763610e+00	 3.768784103107179e-01	 5.243730575029849e+00
 1.017333459291891e+00	 3.863658749320800e-01	 5.386478896983314e+00
 1.013685175392733e+00	 3.958387309664232e-01	 5.459044488121588e+00
 1.009941285687257e+00	 4.052955957919373e-01	 5.462628394775982e+00
 1.006101746455231e+00	 4.147350803073234e-01	 5.398363105266639e+00
 1.002166539904589e+00	 4.241557895045043e-01	 5.267311697557665e+00
 9.981356744262321e-01	 4.335563230520150e-01	 5.070466968898388e+00
 9.940091848336720e-01	 4.429352758886505e-01	 4.808750548193907e+00
 9.897871325870814e-01	 4.522912388269316e-01	 4.483011992725475e+00
 9.854696060013458e-01	 4.616227991659320e-01	 4.094027871735073e+00
 9.810567204377049e-01	 4.709285413129863e-01	 3.642500840290784e+00
 1.029164529528158e+00	 3.799345012860394e-01	 5.275269011356262e+00
 1.025582972978587e+00	 3.894988993535164e-01	 5.398692175337068e+00
 1.021905105300711e+00	 3.990485703735404e-01	 5.441250056801407e+00
 1.018130856553068e+00	 4.085821205126956e-01	 5.405589526622911e+00
 1.014260182660907e+00	 4.180981494055361e-01	 5.294517216430954e+00
 1.010293065687895e+00	 4.275952507319402e-01	 5.110999479089735e+00
 1.006229514092981e+00	 4.370720128052312e-01	 4.858162018514794e+00
 1.002069562971986e+00	 4.465270191706388e-01	 4.539289183703769e+00
 9.978132742834664e-01	 4.559588492136598e-01	 4.157822923295643e+00
 9.934607370584578e-01	 4.653660787778533e-01	 3.717361398449286e+00
 9.890120675936659e-01	 4.747472807915894e-01	 3.221657253339207e+00
 1.037442873404483e+00	 3.829906000554127e-01	 5.243422137004215e+00
 1.033832507703591e+00	 3.926319317651642e-01	 5.330939854900599e+00
 1.030125056171560e+00	 4.022584179667251e-01	 5.333681205585966e+00
 1.026320448304341e+00	 4.118686536150448e-01	 5.255387376531548e+00
 1.022418639672665e+00	 4.214612270805012e-01	 5.100137271796674e+00
 1.018419612195926e+00	 4.310347207308974e-01	 4.872348130817774e+00
 1.014323374401121e+00	 4.405877115243154e-01	 4.576775569476852e+00
 1.010129961666376e+00	 4.501187716123899e-01	 4.218513033692853e+00
 1.005839436448636e+00	 4.596264689535636e-01	 3.802990657672422e+00
 1.001451888495083e+00	 4.691093679358495e-01	 3.335973520907524e+00
 9.969674350378889e-01	 4.785660300086246e-01	 2.823559300005724e+00
 1.045721236046741e+00	 3.860467057528314e-01	 5.160525107524041e+00
 1.042082061129215e+00	 3.957649712792321e-01	 5.200440174129522e+00
 1.038345025675969e+00	 4.054682728364353e-01	 5.157317922788851e+00
 1.034510058620366e+00	 4.151551941677294e-01	 5.035650161617558e+00
 1.030577115178610e+00	 4.248243123792884e-01	 4.840394841545198e+00
 1.026546177125825e+00	 4.344741985268150e-01	 4.576977181611720e+00
 1.022417253057053e+00	 4.441034182131226e-01	 4.251290034232260e+00
 1.018190378632725e+00	 4.537105321962240e-01	 3.869693477258687e+00
 1.013865616808171e+00	 4.632940970074801e-01	 3.439013621912085e+00
 1.009443058046719e+00	 4.728526655793323e-01	 2.966540627977832e+00
 1.004922820516011e+00	 4.823847878821361e-01	 2.460025920032904e+00
 1.053999615109085e+00	 3.891028175122886e-01	 5.038549436349910e+00
 1.050331630917773e+00	 3.988980170079295e-01	 5.023894687794606e+00
 1.046565011484631e+00	 4.086781340731296e-01	 4.932505621422035e+00
 1.042699685180430e+00	 4.184417412394937e-01	 4.769288538031596e+00
 1.038735606866850e+00	 4.281874043489683e-01	 4.539695585267868e+00
 1.034672758174738e+00	 4.379136831451326e-01	 4.249726240239083e+00
 1.030511147767179e+00	 4.476191318755069e-01	 3.905927913721985e+00
 1.026250811586913e+00	 4.573022999044600e-01	 3.515395660569689e+00
 1.021891813087648e+00	 4.669617323362465e-01	 3.085770983436767e+00
 1.017434243448865e+00	 4.765959706477123e-01	 2.625239719513433e+00
 1.012878221773671e+00	 4.862035533301683e-01	 2.142529002607795e+00
 1.062278008245671e+00	 3.921589344677780e-01	 4.889117423399776e+00
 1.058581214731576e+00	 4.020310680634651e-01	 4.817508608748353e+00
 1.054785011268236e+00	 4.118880007672663e-01	 4.678980022577009e+00
 1.050889325663823e+00	 4.217282938990814e-01	 4.478523664008248e+00
 1.046894112425490e+00	 4.315505020366112e-01	 4.221709143355416e+00
 1.042799353039807e+00	 4.413531736112888e-01	 3.914685375405374e+00
 1.038605056237903e+00	 4.511348515153236e-01	 3.564181339039995e+00
 1.034311258244820e+00	 4.608940737194175e-01	 3.177505886791721e+00
 1.029918023012649e+00	 4.706293739006999e-01	 2.762546590576461e+00
 1.025425442437019e+00	 4.803392820804009e-01	 2.327767612581057e+00
 1.020833636556505e+00	 4.900223252707657e-01	 1.882206593088871e+00
 1.070556413110653e+00	 3.952150557532932e-01	 4.723515882356632e+00
 1.066830810232940e+00	 4.051641235580484e-01	 4.597010172639794e+00
 1.063005022697474e+00	 4.150978720093037e-01	 4.415890849578617e+00
 1.059078977749833e+00	 4.250148512152375e-01	 4.184913924626623e+00
 1.055052629542636e+00	 4.349136044892867e-01	 3.909397603662911e+00
 1.050925959418177e+00	 4.447926689507231e-01	 3.595224046721216e+00
 1.046698976175627e+00	 4.546505761364262e-01	 3.248840201173996e+00
 1.042371716322328e+00	 4.644858526234160e-01	 2.877257692121633e+00
 1.037944244308755e+00	 4.742970206616781e-01	 2.488051756436982e+00
 1.033416652746681e+00	 4.840825988168092e-01	 2.089359209700935e+00
 1.028789062610151e+00	 4.938411026219722e-01	 1.689875438123460e+00
 1.078834827358186e+00	 3.982711805028277e-01	 4.552709204267899e+00
 1.075080415084176e+00	 4.082971826038884e-01	 4.377669078012683e+00
 1.071225043443037e+00	 4.183077468896999e-01	 4.161824396734358e+00
 1.067268639117747e+00	 4.283014122567055e-01	 3.909380390105670e+00
 1.063211155906394e+00	 4.382767107540651e-01	 3.625042619912076e+00
 1.059052575006993e+00	 4.482321681888744e-01	 3.314018664365199e+00
 1.054792905286752e+00	 4.581663047426702e-01	 2.982018944602701e+00
 1.050432183535317e+00	 4.680776355987747e-01	 2.635256678443127e+00
 1.045970474701542e+00	 4.779646715800179e-01	 2.280446949118214e+00
 1.041407872113348e+00	 4.878259197963483e-01	 1.924804879440163e+00
 1.036744497680246e+00	 4.976598843018319e-01	 1.576042904665314e+00
 1.087113248642424e+00	 4.013273078503746e-01	 4.387351792809034e+00
 1.083330026947597e+00	 4.114302443131942e-01	 4.174314051031081e+00
 1.079445071175615e+00	 4.215176244989133e-01	 3.934825032617074e+00
 1.075458307446855e+00	 4.315879760922303e-01	 3.672231075085421e+00
 1.071369689204871e+00	 4.416398198780166e-01	 3.390271253639564e+00
 1.067179197503398e+00	 4.516716703511819e-01	 3.093078850478571e+00
 1.062886841277681e+00	 4.616820363379091e-01	 2.785182095913608e+00
 1.058492657599668e+00	 4.716694216278132e-01	 2.471504168828395e+00
 1.053996711916591e+00	 4.816323256165564e-01	 2.157362446532188e+00
 1.049399098272520e+00	 4.915692439584290e-01	 1.848466996637927e+00
 1.044699939512429e+00	 5.014786692283897e-01	 1.550918306241007e+00
 1.095391674617524e+00	 4.043834369299280e-01	 4.237799904422858e+00
 1.091579643485516e+00	 4.145633077981749e-01	 4.001349581101721e+00
 1.087665103565899e+00	 4.247275039274023e-01	 3.752415694199142e+00
 1.083647980416445e+00	 4.348745417905558e-01	 3.493184062271684e+00
 1.079528227126172e+00	 4.450029309082112e-01	 3.226080607162122e+00
 1.075305824604536e+00	 4.551111744630849e-01	 2.953772470916256e+00
 1.070980781854817e+00	 4.651977699259983e-01	 2.679168594306546e+00
 1.066553136231262e+00	 4.752612096928513e-01	 2.405419748109136e+00
 1.062022953679483e+00	 4.852999817321313e-01	 2.135918010552063e+00
 1.057390328959694e+00	 4.953125702424627e-01	 1.874295686685135e+00
 1.052655385852337e+00	 5.052974563196895e-01	 1.624423667800084e+00
 1.103670102937638e+00	 4.074395668754809e-01	 4.114122924554842e+00
 1.099829262360247e+00	 4.176963721710397e-01	 3.872771870888998e+00
 1.095885138284579e+00	 4.279373842656255e-01	 3.631617424779682e+00
 1.091837655705804e+00	 4.381611084204264e-01	 3.391389550021817e+00
 1.087686767358405e+00	 4.483660428917192e-01	 3.152861310984760e+00
 1.083432454007551e+00	 4.585506795500225e-01	 2.916849501864690e+00
 1.079074724724561e+00	 4.687135045107917e-01	 2.684214986839855e+00
 1.074613617145979e+00	 4.788529987762081e-01	 2.455862747010365e+00
 1.070049197715797e+00	 4.889676388875796e-01	 2.232741631942485e+00
 1.065381561910370e+00	 4.990558975878605e-01	 2.015843815618595e+00
 1.060610834445606e+00	 5.091162444937753e-01	 1.806203958605415e+00
 9.810567204377049e-01	 4.709285413129863e-01	 3.642500840290784e+00
 9.765493927391889e-01	 4.802054725542235e-01	 3.182000162938051e+00
 9.719470501989695e-01	 4.894537577567515e-01	 2.764755016751443e+00
 9.672498895077370e-01	 4.986719766757557e-01	 2.389625099343172e+00
 9.624581349827819e-01	 5.078587087228539e-01	 2.055439944158347e+00
 9.575720386728110e-01	 5.170125336241197e-01	 1.760999368626108e+00
 9.525918804443397e-01	 5.261320320837842e-01	 1.505073866935189e+00
 9.475179680493709e-01	 5.352157864530170e-01	 1.286404953817750e+00
 9.423506371741205e-01	 5.442623814031888e-01	 1.103705466568299e+00
 9.370902514685465e-01	 5.532704046029900e-01	 9.556598333145461e-01
 9.317372025564836e-01	 5.622384473987843e-01	 8.409243162860438e-01
 9.890120675936659e-01	 4.747472807915894e-01	 3.221657253339207e+00
 9.844681901667695e-01	 4.840994382732193e-01	 2.726355857549666e+00
 9.798285274268862e-01	 4.934227174267359e-01	 2.283444300295891e+00
 9.750932776596671e-01	 5.027156864906005e-01	 1.891489056523044e+00
 9.702626670013819e-01	 5.119769133569180e-01	 1.548950714049893e+00
 9.653369495445935e-01	 5.212049662348005e-01	 1.254184331619147e+00
 9.603164074252435e-01	 5.303984143194491e-01	 1.005439840540126e+00
 9.552013508908868e-01	 5.395558284663584e-01	 8.008624980376227e-01
 9.499921183498045e-01	 5.486757818700373e-01	 6.384934011255783e-01
 9.446890764007800e-01	 5.577568507466210e-01	 5.162700704664678e-01
 9.392926198433109e-01	 5.667976150197382e-01	 4.320271142510365e-01
 9.969674350378889e-01	 4.785660300086246e-01	 2.823559300005724e+00
 9.923870077893991e-01	 4.879934139223986e-01	 2.320107583931827e+00
 9.877100247546671e-01	 4.973916872180565e-01	 1.874575055136494e+00
 9.829366858143073e-01	 5.067594066173066e-01	 1.485354159401011e+00
 9.780672189235764e-01	 5.160951284927164e-01	 1.150676928134250e+00
 9.731018802188975e-01	 5.253974095364095e-01	 8.686152235827602e-01
 9.680409541056478e-01	 5.346648074345296e-01	 6.370810968035464e-01
 9.628847533269373e-01	 5.438958815468701e-01	 4.538272679951335e-01
 9.576336190131246e-01	 5.530891935910521e-01	 3.164477394054034e-01
 9.522879207118242e-01	 5.622433083306284e-01	 2.223785515878952e-01
 9.468480563982066e-01	 5.713567942664680e-01	 1.688986942555164e-01
 1.004922820516011e+00	 4.823847878821361e-01	 2.460025920032904e+00
 1.000305843363073e+00	 4.918873983985056e-01	 1.969936083914481e+00
 9.955915399488828e-01	 5.013606660062216e-01	 1.540149881243741e+00
 9.907801117490235e-01	 5.108031359102169e-01	 1.169000916361049e+00
 9.858717885377440e-01	 5.202133529634974e-01	 8.546287072643678e-01
 9.808668284953328e-01	 5.295898623411743e-01	 5.949787952875008e-01
 9.757655182966073e-01	 5.389312102203117e-01	 3.878030072610612e-01
 9.705681731802422e-01	 5.482359444649770e-01	 2.306598809898756e-01
 9.652751369986770e-01	 5.575026153158812e-01	 1.209152654774004e-01
 9.598867822483672e-01	 5.667297760839710e-01	 5.574310785014069e-02
 9.544035100801627e-01	 5.759159838473319e-01	 3.212643937337178e-02
 1.012878221773671e+00	 4.862035533301683e-01	 2.142529002607795e+00
 1.008224694643785e+00	 4.957813905982835e-01	 1.682336150543857e+00
 1.003473070776104e+00	 5.053296526667397e-01	 1.282132025583822e+00
 9.986235532411808e-01	 5.148468732236733e-01	 9.403027031900232e-01
 9.936763736322627e-01	 5.243315856025080e-01	 6.550270262620357e-01
 9.886317921735073e-01	 5.337823234613228e-01	 4.242765566172017e-01
 9.834900978091781e-01	 5.431976214680809e-01	 2.458156895595145e-01
 9.782516082735184e-01	 5.525760159911044e-01	 1.172019433686533e-01
 9.729166701410578e-01	 5.619160457941728e-01	 3.578643616913091e-02
 9.674856588570963e-01	 5.712162527356066e-01	-1.285436813113772e-03
 9.619589787481722e-01	 5.804751824706879e-01	 2.926887859199478e-03
 1.020833636556505e+00	 4.900223252707657e-01	 1.882206593088871e+00
 1.016143559387530e+00	 4.996753894184763e-01	 1.463623492799802e+00
 1.011354615002900e+00	 5.092986460751195e-01	 1.102446469020252e+00
 1.006467008068146e+00	 5.188906174120183e-01	 7.972216314597692e-01
 1.001480971995511e+00	 5.284498252429963e-01	 5.462949177585206e-01
 9.963967690530297e-01	 5.379747917090832e-01	 3.478118641089983e-01
 9.912146904544151e-01	 5.474640399691240e-01	 1.997175207807061e-01
 9.859350564294850e-01	 5.569160948956771e-01	 9.975652514334155e-02
 9.805582162748619e-01	 5.663294837755743e-01	 4.547334549809556e-02
 9.750845483846996e-01	 5.757027370144935e-01	 3.421270965642231e-02
 9.695144602612272e-01	 5.850343888448946e-01	 6.312023274121470e-02
 1.028789062610151e+00	 4.938411026219722e-01	 1.689875438123459e+00
 1.024062435350302e+00	 5.035693937558273e-01	 1.319941230960135e+00
 1.019236170395844e+00	 5.132676451068693e-01	 1.002980909967464e+00
 1.014310474007282e+00	 5.229343673295935e-01	 7.378045538440378e-01
 1.009285581415867e+00	 5.325680707182097e-01	 5.230490274809173e-01
 1.004161756933508e+00	 5.421672658966828e-01	 3.571775490463980e-01
 9.989392940433742e-01	 5.517304645147258e-01	 2.384793553106483e-01
 9.936185154708608e-01	 5.612561799491205e-01	 1.650694783391505e-01
 9.881997732346863e-01	 5.707429280097348e-01	 1.348886475390019e-01
 9.826834486778641e-01	 5.801892276495898e-01	 1.457033318099388e-01
 9.770699524783206e-01	 5.895936016783100e-01	 1.951059372222699e-01
 1.036744497680246e+00	 4.976598843018319e-01	 1.576042904665313e+00
 1.031981320288096e+00	 5.074634025070800e-01	 1.257266042437259e+00
 1.027117734721504e+00	 5.172366486374980e-01	 9.855866503404509e-01
 1.022153948835957e+00	 5.269781218307419e-01	 7.601791990250325e-01
 1.017090199681709e+00	 5.366863208613959e-01	 5.800915021269231e-01
 1.011926753614553e+00	 5.463597448363501e-01	 4.442440570995692e-01
 1.006663906387111e+00	 5.559968938961732e-01	 3.514294094475131e-01
 1.001301983220362e+00	 5.655962699218591e-01	 3.003115537975275e-01
 9.958413388551272e-01	 5.751563772463020e-01	 2.894253862949611e-01
 9.902823575832775e-01	 5.846757233698533e-01	 3.171762237741167e-01
 9.846254532584435e-01	 5.941528196792929e-01	 3.818394060124434e-01
 1.044699939512429e+00	 5.014786692283897e-01	 1.550918306241007e+00
 1.039900211956906e+00	 5.113574145689785e-01	 1.281413976705919e+00
 1.034999305746452e+00	 5.212056555425141e-01	 1.052079389007949e+00
 1.029997430331535e+00	 5.310218797698053e-01	 8.625504292916367e-01
 1.024894824581416e+00	 5.408045745058023e-01	 7.124021921188177e-01
 1.019691756895771e+00	 5.505522273403123e-01	 6.011480722729319e-01
 1.014388525296681e+00	 5.602633269047520e-01	 5.282387772437189e-01
 1.008985457500709e+00	 5.699363635843182e-01	 4.930612739140293e-01
 1.003482910970780e+00	 5.795698302349235e-01	 4.949376842721845e-01
 9.978812729476279e-01	 5.891622229042426e-01	 5.331241461834089e-01
 9.921809604605897e-01	 5.987120415562009e-01	 6.068096563622901e-01
 1.052655385852337e+00	 5.052974563196895e-01	 1.624423667800085e+00
 1.047819108112727e+00	 5.152514288382660e-01	 1.398045956817235e+00
 1.042880881237259e+00	 5.251746646974262e-01	 1.204239927642677e+00
 1.037840916271382e+00	 5.350656400011260e-01	 1.043196614349013e+00
 1.032699453903367e+00	 5.449228304846773e-01	 9.151311525985937e-01
 1.027456764576772e+00	 5.547447122207979e-01	 8.202815995666568e-01
 1.022113148583140e+00	 5.645297623317480e-01	 7.589075442228244e-01
 1.016668936134619e+00	 5.742764597069229e-01	 7.312885213614838e-01
 1.011124487416240e+00	 5.839832857252477e-01	 7.377222443767236e-01
 1.005480192617603e+00	 5.936487249817158e-01	 7.785226732917084e-01
 9.997364719437505e-01	 6.032712660173928e-01	 8.540179359633285e-01
 1.060610834445606e+00	 5.091162444937753e-01	 1.806203958605415e+00
 1.055738006511554e+00	 5.191454442116863e-01	 1.612672983945277e+00
 1.050762458960495e+00	 5.291436749777426e-01	 1.443814793569208e+00
 1.045684404432864e+00	 5.391094013790461e-01	 1.300466115248403e+00
 1.040504085435939e+00	 5.490410876312676e-01	 1.183591427023592e+00
 1.035221774457164e+00	 5.589371982900342e-01	 1.094281482293610e+00
 1.029837774057543e+00	 5.687961989684474e-01	 1.033751467612861e+00
 1.024352416944811e+00	 5.786165570600982e-01	 1.003338806243850e+00
 1.018766066026104e+00	 5.883967424669228e-01	 1.004500622473109e+00
 1.013079114439890e+00	 5.981352283312306e-01	 1.038810883571807e+00
 1.007291985566919e+00	 6.078304917712264e-01	 1.107957238050812e+00
 9.317372025564836e-01	 5.622384473987843e-01	 8.409243162860439e-01
 9.262919102513079e-01	 5.711651056755117e-01	 7.682342437830983e-01
 9.207548231981949e-01	 5.800489810864823e-01	 7.456196410690941e-01
 9.151264181422006e-01	 5.888886812246268e-01	 7.706083791847052e-01
 9.094071996317424e-01	 5.976828201333920e-01	 8.406636136906636e-01
 9.035976999280246e-01	 6.064300189927078e-01	 9.531853794019731e-01
 8.976984788943334e-01	 6.151289068041607e-01	 1.105512281075616e+00
 8.917101238651709e-01	 6.237781210747034e-01	 1.294923289833902e+00
 8.856332494952078e-01	 6.323763084981971e-01	 1.518639655007174e+00
 8.794684975880961e-01	 6.409221256341138e-01	 1.773826940879186e+00
 8.732165369051681e-01	 6.494142395826942e-01	 2.057597197515062e+00
 9.392926198433109e-01	 5.667976150197382e-01	 4.320271142510365e-01
 9.338031718950223e-01	 5.757966591884043e-01	 3.931609824234482e-01
 9.282211848391264e-01	 5.847525735667986e-01	 4.068948728270409e-01
 9.225471392865777e-01	 5.936639544568921e-01	 4.705847416572155e-01
 9.167815438771442e-01	 6.025294046634778e-01	 5.813977593243416e-01
 9.109249351881055e-01	 6.113475341857021e-01	 7.363132619951022e-01
 9.049778776226468e-01	 6.201169609077936e-01	 9.321239702741526e-01
 8.989409632779298e-01	 6.288363112883151e-01	 1.165437487878062e+00
 8.928148117928265e-01	 6.375042210472364e-01	 1.432678092738774e+00
 8.866000701753368e-01	 6.461193358501363e-01	 1.730088832442093e+00
 8.802974126097415e-01	 6.546803119888378e-01	 2.053733935259350e+00
 9.468480563982066e-01	 5.713567942664680e-01	 1.688986942555156e-01
 9.413144526941549e-01	 5.804282245116329e-01	 1.617510993011166e-01
 9.356875655209295e-01	 5.894561780411436e-01	 2.068655076905077e-01
 9.299678793553906e-01	 5.984392398659800e-01	 3.014672380569204e-01
 9.241559069286706e-01	 6.073760015522522e-01	 4.424927032129585e-01
 9.182521891341346e-01	 6.162650619182919e-01	 6.265898135653427e-01
 9.122572949148786e-01	 6.251050277309402e-01	 8.501187864382892e-01
 9.061718211307390e-01	 6.338945144003422e-01	 1.109153376874852e+00
 8.999963924047992e-01	 6.426321466725445e-01	 1.399482544814915e+00
 8.937316609494236e-01	 6.513165593192054e-01	 1.716612572748288e+00
 8.873783063718548e-01	 6.599463978237008e-01	 2.055769647012604e+00
 9.544035100801627e-01	 5.759159838473319e-01	 3.212643937337178e-02
 9.488257505202146e-01	 5.850598003330492e-01	 5.389077155650368e-02
 9.431539631278391e-01	 5.941597931769582e-01	 1.252408134707088e-01
 9.373886362458128e-01	 6.032145360990208e-01	 2.433120814964222e-01
 9.315302866966412e-01	 6.122226094266370e-01	 4.048746248785733e-01
 9.255794596897862e-01	 6.211826007972977e-01	 6.063329739680060e-01
 9.195367287082652e-01	 6.300931058604298e-01	 8.437266011266285e-01
 9.134026953745993e-01	 6.389527289777324e-01	 1.112730912237052e+00
 9.071779892960974e-01	 6.477600839213058e-01	 1.408658785891808e+00
 9.008632678894988e-01	 6.565137945688587e-01	 1.726462676329390e+00
 8.944592161850218e-01	 6.652124955952957e-01	 2.060737295036905e+00
 9.619589787481722e-01	 5.804751824706879e-01	 2.926887859199589e-03
 9.563370632447112e-01	 5.896913853405049e-01	 5.011674818642264e-02
 9.506203755440933e-01	 5.988634176416837e-01	 1.423855767622573e-01
 9.448094078550190e-01	 6.079898418031447e-01	 2.768195004747863e-01
 9.389046810913775e-01	 6.170692269135547e-01	 4.500857972191408e-01
 9.329067447787349e-01	 6.261001494295396e-01	 6.584324798475011e-01
 9.268161769400405e-01	 6.350811938830888e-01	 8.976884679167847e-01
 9.206335839605109e-01	 6.440109535874334e-01	 1.163264367207949e+00
 9.143596004316896e-01	 6.528880313407018e-01	 1.450153875988913e+00
 9.079948889747038e-01	 6.617110401266333e-01	 1.752935835838918e+00
 9.015401400427564e-01	 6.704786038116352e-01	 2.065776943547620e+00
 9.695144602612272e-01	 5.850343888448946e-01	 6.312023274121470e-02
 9.638483887391534e-01	 5.943229782218515e-01	 1.315899492451889e-01
 9.580868006539277e-01	 6.035670501027610e-01	 2.392934444880784e-01
 9.522301920801836e-01	 6.127651556254826e-01	 3.833074649429388e-01
 9.462790880231997e-01	 6.219158526399278e-01	 5.602593382328880e-01
 9.402340423246559e-01	 6.310177064218385e-01	 7.663262816390601e-01
 9.340956375474405e-01	 6.400692903857459e-01	 9.972353422997602e-01
 9.278644848394750e-01	 6.490691867963930e-01	 1.248263990775644e+00
 9.215412237765471e-01	 6.580159874779166e-01	 1.514241388577042e+00
 9.151265221841793e-01	 6.669082945200655e-01	 1.789550349009103e+00
 9.086210759385727e-01	 6.757447209807316e-01	 2.068130009289526e+00
 9.770699524783206e-01	 5.895936016783100e-01	 1.951059372222699e-01
 9.713597248750498e-01	 5.989545776649403e-01	 2.800702210123737e-01
 9.655532363415797e-01	 6.082706892276318e-01	 3.975614318063001e-01
 9.596509868184813e-01	 6.175404762131644e-01	 5.446865593922317e-01
 9.536535054024289e-01	 6.267624852326784e-01	 7.180950607436924e-01
 9.475613502512236e-01	 6.359352703810148e-01	 9.139779799396184e-01
 9.413751084677006e-01	 6.450573939552287e-01	 1.128067712797164e+00
 9.350953959624921e-01	 6.541274271715577e-01	 1.355638439267441e+00
 9.287228572956394e-01	 6.631439508801323e-01	 1.591507245547944e+00
 9.222581654970682e-01	 6.721055562766924e-01	 1.830035956597579e+00
 9.157020218659846e-01	 6.810108456105990e-01	 2.065133698303462e+00
 9.846254532584435e-01	 5.941528196792929e-01	 3.818394060124434e-01
 9.788710695239099e-01	 6.035861823576232e-01	 4.778921850958373e-01
 9.730196804912862e-01	 6.129743336837368e-01	 5.993655337905984e-01
 9.670717899670859e-01	 6.223158022133204e-01	 7.434359414160580e-01
 9.610279311393856e-01	 6.316091233187291e-01	 9.068363612089442e-01
 9.548886664821129e-01	 6.408528399138887e-01	 1.085855226549564e+00
 9.486545876380552e-01	 6.500455031783643e-01	 1.276336094407280e+00
 9.423263152805632e-01	 6.591856732798763e-01	 1.473677940112555e+00
 9.359044989539360e-01	 6.682719200945320e-01	 1.672836126505927e+00
 9.293898168925112e-01	 6.773028239240513e-01	 1.868324069278112e+00
 9.227829758185061e-01	 6.862769762092492e-01	 2.054215618902861e+00
 9.921809604605897e-01	 5.987120415562009e-01	 6.068096563622900e-01
 9.863824205572431e-01	 6.082177909877514e-01	 7.079421232157029e-01
 9.804861309872833e-01	 6.176779821385172e-01	 8.274373821059521e-01
 9.744925994231712e-01	 6.270911322730811e-01	 9.625803279415485e-01
 9.684023631443909e-01	 6.364557655250026e-01	 1.110248092278127e+00
 9.622159889409980e-01	 6.457704136272805e-01	 1.266909038817364e+00
 9.559340729957395e-01	 6.550336166419815e-01	 1.428622338463437e+00
 9.495572407446884e-01	 6.642439236882957e-01	 1.591038148789318e+00
 9.430861467164074e-01	 6.733998936682984e-01	 1.749398421804787e+00
 9.365214743496496e-01	 6.825000959896784e-01	 1.898538362772405e+00
 9.298639357896512e-01	 6.915431112846954e-01	 2.032888561487677e+00
 9.997364719437505e-01	 6.032712660173928e-01	 8.540179359633290e-01
 9.938937758465578e-01	 6.128494022431766e-01	 9.536358429343692e-01
 9.879525857138084e-01	 6.223816332594143e-01	 1.065041891453272e+00
 9.819134130839129e-01	 6.318664650395769e-01	 1.185667954821332e+00
 9.757767993277645e-01	 6.413024104784206e-01	 1.312595367114002e+00
 9.695433155515549e-01	 6.506879901280113e-01	 1.442553979023092e+00
 9.632135624779894e-01	 6.600217329329074e-01	 1.571921715762448e+00
 9.567881703058686e-01	 6.693021769637632e-01	 1.696724662328678e+00
 9.502677985480233e-01	 6.785278701486148e-01	 1.812637700601647e+00
 9.436531358476259e-01	 6.876973710011113e-01	 1.914985721771542e+00
 9.369448997729339e-01	 6.968092493449503e-01	 1.998745436390545e+00
 1.007291985566919e+00	 6.078304917712264e-01	 1.107957238050813e+00
 1.001405133263364e+00	 6.174810148117503e-01	 1.198897472880537e+00
 9.954190425550976e-01	 6.270852857138690e-01	 1.295955843868462e+00
 9.893342288464844e-01	 6.366417991599383e-01	 1.396749458732006e+00
 9.831512375998286e-01	 6.461490568059063e-01	 1.498623246605973e+00
 9.768706442374566e-01	 6.556055680229007e-01	 1.598649153431553e+00
 9.704930540220390e-01	 6.650098506379701e-01	 1.693625732408660e+00
 9.640191019151049e-01	 6.743604316732268e-01	 1.780078154943032e+00
 9.574494524137537e-01	 6.836558480826636e-01	 1.854258666922371e+00
 9.507847993655814e-01	 6.928946474858871e-01	 1.912147514363002e+00
 9.440258657618684e-01	 7.020753888980267e-01	 1.949454361478929e+00
 8.732165369051681e-01	 6.494142395826942e-01	 2.057597197515062e+00
 8.668769786295907e-01	 6.578527574936988e-01	 2.324220628328586e+00
 8.604516036405305e-01	 6.662349165277870e-01	 2.532811372109747e+00
 8.539411642097845e-01	 6.745594139185001e-01	 2.687784326955530e+00
 8.473464386377192e-01	 6.828249600784643e-01	 2.793447521634453e+00
 8.406682309615092e-01	 6.910302792495726e-01	 2.853995086532513e+00
 8.339073706440876e-01	 6.991741101455530e-01	 2.873500480943112e+00
 8.270647122440257e-01	 7.072552065862484e-01	 2.855909997548809e+00
 8.201411350666138e-01	 7.152723381229559e-01	 2.805036563759142e+00
 8.131375427964318e-01	 7.232242906541624e-01	 2.724553858271118e+00
 8.060548631117155e-01	 7.311098670310472e-01	 2.617990759815550e+00
 8.802974126097415e-01	 6.546803119888378e-01	 2.053733935259350e+00
 8.739064471263016e-01	 6.631872574819838e-01	 2.357275857341770e+00
 8.674289690452558e-01	 6.716373870864926e-01	 2.599031713984517e+00
 8.608657367385442e-01	 6.800293874718312e-01	 2.782140668780394e+00
 8.542175348177374e-01	 6.883619585934222e-01	 2.909810384739872e+00
 8.474851738399164e-01	 6.966338143480947e-01	 2.985312013673903e+00
 8.406694899940959e-01	 7.048436832218645e-01	 3.011975208584695e+00
 8.337713447684271e-01	 7.129903089293578e-01	 2.993183176503486e+00
 8.267916245984525e-01	 7.210724510442200e-01	 2.932367788438672e+00
 8.197312404966919e-01	 7.290888856198445e-01	 2.833004762214521e+00
 8.125911276638866e-01	 7.370384057997872e-01	 2.698608932996660e+00
 8.873783063718548e-01	 6.599463978237008e-01	 2.055769647012605e+00
 8.809359335494392e-01	 6.685217710735557e-01	 2.373085427461861e+00
 8.744063522435255e-01	 6.770398714218879e-01	 2.629156935520198e+00
 8.677903269262099e-01	 6.854993749740654e-01	 2.826035959408103e+00
 8.610886485202849e-01	 6.938989712282767e-01	 2.965982541533455e+00
 8.543021341027531e-01	 7.022373637362607e-01	 3.051461658989198e+00
 8.474316265887262e-01	 7.105132707562937e-01	 3.085139742421051e+00
 8.404779943959537e-01	 7.187254258977580e-01	 3.069881047999917e+00
 8.334421310902458e-01	 7.268725787566198e-01	 3.008743896771636e+00
 8.263249550120824e-01	 7.349534955411549e-01	 2.904976795090142e+00
 8.191274088847291e-01	 7.429669596872678e-01	 2.761870671927930e+00
 8.944592161850218e-01	 6.652124955952957e-01	 2.060737295036905e+00
 8.879654359070920e-01	 6.738562967570239e-01	 2.372517887327257e+00
 8.813837512581991e-01	 6.824423680033102e-01	 2.627113925358516e+00
 8.747149328106094e-01	 6.909693748753963e-01	 2.825674526028737e+00
 8.679597777983509e-01	 6.994359964142149e-01	 2.969661773306296e+00
 8.611191098183604e-01	 7.078409258263885e-01	 3.060848766646742e+00
 8.541937785118618e-01	 7.161828711424306e-01	 3.101317371261329e+00
 8.471846592262180e-01	 7.244605558664553e-01	 3.093455682966802e+00
 8.400926526575229e-01	 7.326727196167279e-01	 3.039955220102667e+00
 8.329186844742319e-01	 7.408181187563810e-01	 2.943807487003732e+00
 8.256637049221497e-01	 7.488955270136476e-01	 2.806320930723425e+00
 9.015401400427564e-01	 6.704786038116352e-01	 2.065776943547620e+00
 8.949949522073473e-01	 6.791908330209985e-01	 2.356428034438500e+00
 8.883611641121361e-01	 6.878448753000952e-01	 2.596719439907887e+00
 8.816395524295698e-01	 6.964393856260184e-01	 2.787078773483547e+00
 8.748309207049226e-01	 7.049730325824228e-01	 2.928316840552615e+00
 8.679360990550784e-01	 7.134444990307952e-01	 3.021626735478251e+00
 8.609559438473861e-01	 7.218524827738645e-01	 3.068582551611175e+00
 8.538913373588338e-01	 7.301956972104570e-01	 3.071137715613356e+00
 8.467431874158123e-01	 7.384728719811159e-01	 3.031622957392600e+00
 8.395124270147665e-01	 7.466827536038118e-01	 2.951622514007793e+00
 8.322000139240548e-01	 7.548241060990848e-01	 2.831406471137470e+00
 9.086210759385727e-01	 6.757447209807316e-01	 2.068130009289525e+00
 9.020244804582942e-01	 6.845253783540910e-01	 2.325655827631703e+00
 8.953385888281969e-01	 6.932473917815792e-01	 2.541682727310656e+00
 8.885641838209184e-01	 7.019094056761254e-01	 2.716094564843513e+00
 8.817020752929885e-01	 7.105100781640873e-01	 2.849194661499966e+00
 8.747530998812489e-01	 7.190480817617987e-01	 2.941705633732071e+00
 8.677181206791826e-01	 7.275221040441857e-01	 2.994768794563729e+00
 8.605980268934147e-01	 7.359308483047705e-01	 3.009943136731841e+00
 8.533937334806440e-01	 7.442730342063565e-01	 2.988781636159666e+00
 8.461061807653150e-01	 7.525473984217358e-01	 2.930337615537740e+00
 8.387363340383519e-01	 7.607526952637379e-01	 2.836935077652608e+00
 9.157020218659846e-01	 6.810108456105990e-01	 2.065133698303462e+00
 9.090540186680200e-01	 6.898599312449109e-01	 2.281025268496158e+00
 9.023160234292411e-01	 6.986499159170990e-01	 2.465607947224325e+00
 8.954888250224818e-01	 7.073794334759109e-01	 2.618396268997272e+00
 8.885732396155370e-01	 7.160471315903951e-01	 2.739327073347436e+00
 8.815701103652125e-01	 7.246516724317157e-01	 2.828759756880253e+00
 8.744803070911354e-01	 7.331917333469848e-01	 2.887476100848261e+00
 8.673047259295744e-01	 7.416660075244027e-01	 2.916647556852385e+00
 8.600442889675458e-01	 7.500732046490217e-01	 2.914955775358115e+00
 8.526999438575039e-01	 7.584120515484403e-01	 2.882721302247920e+00
 8.452726634129473e-01	 7.666812928277663e-01	 2.822714976658615e+00
 9.227829758185061e-01	 6.862769762092492e-01	 2.054215618902861e+00
 9.160835648446138e-01	 6.951944901820696e-01	 2.223343253414971e+00
 9.092934659381288e-01	 7.040524461759905e-01	 2.371996397387387e+00
 9.024134740720878e-01	 7.128494674755695e-01	 2.499491493132344e+00
 8.954444117255564e-01	 7.215841912925324e-01	 2.605537198620286e+00
 8.883871285753105e-01	 7.302552694528643e-01	 2.690234753016204e+00
 8.812425011671274e-01	 7.388613690758504e-01	 2.754077968299924e+00
 8.740114325669264e-01	 7.474011732443607e-01	 2.796322291557966e+00
 8.666948519920474e-01	 7.558733816656835e-01	 2.814836975549629e+00
 8.592937144229610e-01	 7.642767113222140e-01	 2.811451636951571e+00
 8.518090001957481e-01	 7.726098971113272e-01	 2.788554911369486e+00
 9.298639357896512e-01	 6.915431112846954e-01	 2.032888561487677e+00
 9.231131169961629e-01	 7.005290536541761e-01	 2.153398397806356e+00
 9.162709143777190e-01	 7.094549810275903e-01	 2.264248557273886e+00
 9.093381290075637e-01	 7.183195061252947e-01	 2.364725516905918e+00
 9.023155896760346e-01	 7.271212557016860e-01	 2.454445437686551e+00
 8.952041525798842e-01	 7.358588712375621e-01	 2.533354338887497e+00
 8.880047009910419e-01	 7.445310096243730e-01	 2.601171543951399e+00
 8.807181449050837e-01	 7.531363438396513e-01	 2.654329116305280e+00
 8.733454206696770e-01	 7.616735636129135e-01	 2.693122384267835e+00
 8.658874905933135e-01	 7.701413760813454e-01	 2.719119775726351e+00
 8.583453425346611e-01	 7.785385064345802e-01	 2.734264232262554e+00
 9.369448997729339e-01	 6.968092493449503e-01	 1.998745436390545e+00
 9.301426731307558e-01	 7.058636201498422e-01	 2.071959834048745e+00
 9.232483667708727e-01	 7.148575189412348e-01	 2.145665958519121e+00
 9.162627878667365e-01	 7.237895478752813e-01	 2.219285444087812e+00
 9.091867715199606e-01	 7.326583232490428e-01	 2.292475107210901e+00
 9.020211804472744e-01	 7.414624761981263e-01	 2.365104024526059e+00
 8.947669046467629e-01	 7.502006533861424e-01	 2.433808834765820e+00
 8.874248610436600e-01	 7.588715176852815e-01	 2.496604373362679e+00
 8.799959931159638e-01	 7.674737488472848e-01	 2.554361846875811e+00
 8.724812705001891e-01	 7.760060441641221e-01	 2.608233367092736e+00
 8.648816885775930e-01	 7.844671191176835e-01	 2.659653002218445e+00
 9.440258657618684e-01	 7.020753888980267e-01	 1.949454361478929e+00
 9.371722312564811e-01	 7.111981881576777e-01	 1.979775984485229e+00
 9.302258211404490e-01	 7.202600583862604e-01	 2.019452891219624e+00
 9.231874486874327e-01	 7.292595911757217e-01	 2.068204086513117e+00
 9.160579553103223e-01	 7.381953923657890e-01	 2.125857743136315e+00
 9.088382102458218e-01	 7.470660827468745e-01	 2.190691121932070e+00
 9.015291102181738e-01	 7.558702987547489e-01	 2.258326794100959e+00
 8.941315790822691e-01	 7.646066931562584e-01	 2.328901001118548e+00
 8.866465674464368e-01	 7.732739357253688e-01	 2.402963550379191e+00
 8.790750522752150e-01	 7.818707139088330e-01	 2.481219816710014e+00
 8.714180364724508e-01	 7.903957334807954e-01	 2.564532115589365e+00
 8.060548631117155e-01	 7.311098670310472e-01	 2.617990759815550e+00
 7.988952689469325e-01	 7.389265666650634e-01	 2.530553759839199e+00
 7.916585263910276e-01	 7.466745853711559e-01	 2.498522430346267e+00
 7.843456193492238e-01	 7.543527937070280e-01	 2.511679603862933e+00
 7.769575539880575e-01	 7.619600814770303e-01	 2.562169838736992e+00
 7.694953582707912e-01	 7.694953582707911e-01	 2.642562415375609e+00
 7.619600814770304e-01	 7.769575539880578e-01	 2.745782839443114e+00
 7.543527937070278e-01	 7.843456193492236e-01	 2.865122940947651e+00
 7.466745853711558e-01	 7.916585263910276e-01	 2.994250384619479e+00
 7.389265666650633e-01	 7.988952689469326e-01	 3.127148248169801e+00
 7.311098670310470e-01	 8.060548631117156e-01	 3.256490544252284e+00
 8.125911276638866e-01	 7.370384057997872e-01	 2.698608932996660e+00
 8.053734766547415e-01	 7.449184907183373e-01	 2.577609598668258e+00
 7.980780516614322e-01	 7.527293377782888e-01	 2.509945115983131e+00
 7.907058445676367e-01	 7.604698083787359e-01	 2.489317778014043e+00
 7.832578696988616e-01	 7.681387833214931e-01	 2.509954389334890e+00
 7.757351633540875e-01	 7.757351633540879e-01	 2.566254142074361e+00
 7.681387833214931e-01	 7.832578696988619e-01	 2.652796833005634e+00
 7.604698083787358e-01	 7.907058445676368e-01	 2.764350762469610e+00
 7.527293377782883e-01	 7.980780516614322e-01	 2.895880296160774e+00
 7.449184907183369e-01	 8.053734766547417e-01	 3.042553071771800e+00
 7.370384057997871e-01	 8.125911276638867e-01	 3.199448942813218e+00
 8.191274088847291e-01	 7.429669596872678e-01	 2.761870671927930e+00
 8.118517008831698e-01	 7.509104300520323e-01	 2.626003652262969e+00
 8.044975933028083e-01	 7.587841056260951e-01	 2.540329867817392e+00
 7.970660860057953e-01	 7.665868386499206e-01	 2.500688401285572e+00
 7.895582014766284e-01	 7.743175009227624e-01	 2.502940246858296e+00
 7.819749843500270e-01	 7.819749843500269e-01	 2.542974630481084e+00
 7.743175009227623e-01	 7.895582014766283e-01	 2.616715235404677e+00
 7.665868386499205e-01	 7.970660860057954e-01	 2.720126316273456e+00
 7.587841056260950e-01	 8.044975933028085e-01	 2.849218685484558e+00
 7.509104300520321e-01	 8.118517008831699e-01	 3.000055556109147e+00
 7.429669596872678e-01	 8.191274088847291e-01	 3.168758226295821e+00
 8.256637049221497e-01	 7.488955270136476e-01	 2.806320930723425e+00
 8.183299397965803e-01	 7.569023829683370e-01	 2.672119164383846e+00
 8.109171494961495e-01	 7.648388871989545e-01	 2.583411163138313e+00
 8.034263418614996e-01	 7.727038827873124e-01	 2.537423223375731e+00
 7.958585475361363e-01	 7.804962325300847e-01	 2.531289635391086e+00
 7.882148194905371e-01	 7.882148194905371e-01	 2.562057299334462e+00
 7.804962325300848e-01	 7.958585475361365e-01	 2.626690409901215e+00
 7.727038827873124e-01	 8.034263418614997e-01	 2.722075195332687e+00
 7.648388871989543e-01	 8.109171494961497e-01	 2.845024696463288e+00
 7.569023829683370e-01	 8.183299397965804e-01	 2.992283571784991e+00
 7.488955270136475e-01	 8.256637049221496e-01	 3.160532914802060e+00
 8.322000139240548e-01	 7.548241060990848e-01	 2.831406471137470e+00
 8.248081915593343e-01	 7.628943477694412e-01	 2.712524024140752e+00
 8.173367184224497e-01	 7.708936807812456e-01	 2.633114722182488e+00
 8.097866103325501e-01	 7.788209390576423e-01	 2.591411347533012e+00
 8.021589060921652e-01	 7.866749763927070e-01	 2.585468340936873e+00
 7.944546670075465e-01	 7.944546670075465e-01	 2.613165197677016e+00
 7.866749763927070e-01	 8.021589060921653e-01	 2.672210056178209e+00
 7.788209390576420e-01	 8.097866103325502e-01	 2.760143466268083e+00
 7.708936807812454e-01	 8.173367184224500e-01	 2.874342324141653e+00
 7.628943477694410e-01	 8.248081915593346e-01	 3.012023961069863e+00
 7.548241060990847e-01	 8.322000139240550e-01	 3.170250372953433e+00
 8.387363340383519e-01	 7.607526952637379e-01	 2.836935077652607e+00
 8.312864543357945e-01	 7.688863227575329e-01	 2.743887560327610e+00
 8.237562982627029e-01	 7.769484846573474e-01	 2.683550134514593e+00
 8.161468896167464e-01	 7.849380057276407e-01	 2.654789291621527e+00
 8.084592753594937e-01	 7.928537307598756e-01	 2.656233981816293e+00
 8.006945251329849e-01	 8.006945251329849e-01	 2.686278268434878e+00
 7.928537307598753e-01	 8.084592753594936e-01	 2.743084259558182e+00
 7.849380057276407e-01	 8.161468896167464e-01	 2.824585304657905e+00
 7.769484846573469e-01	 8.237562982627030e-01	 2.928489443981539e+00
 7.688863227575328e-01	 8.312864543357947e-01	 3.052283098182957e+00
 7.607526952637380e-01	 8.387363340383518e-01	 3.193234985608681e+00
 8.452726634129473e-01	 7.666812928277663e-01	 2.822714976658615e+00
 8.377647262903229e-01	 7.748783062348019e-01	 2.762976704931560e+00
 8.301758871979027e-01	 7.830032971116390e-01	 2.729003847010897e+00
 8.225071779118891e-01	 7.910550810640383e-01	 2.719931529960044e+00
 8.147596535529009e-01	 7.990324938808365e-01	 2.734624843082354e+00
 8.069343920987798e-01	 8.069343920987799e-01	 2.771681222906397e+00
 7.990324938808367e-01	 8.147596535529011e-01	 2.829433161267275e+00
 7.910550810640383e-01	 8.225071779118890e-01	 2.905951224407472e+00
 7.830032971116386e-01	 8.301758871979027e-01	 2.999047370712073e+00
 7.748783062348014e-01	 8.377647262903228e-01	 3.106278554453480e+00
 7.666812928277663e-01	 8.452726634129474e-01	 3.224950602749827e+00
 8.518090001957481e-01	 7.726098971113272e-01	 2.788554911369486e+00
 8.442430055872812e-01	 7.808702965034366e-01	 2.766652352494087e+00
 8.365954834090430e-01	 7.890581164284990e-01	 2.763932494038161e+00
 8.288674734157780e-01	 7.971721633335661e-01	 2.779441490131707e+00
 8.210600388871664e-01	 8.052112640048374e-01	 2.811949244683321e+00
 8.131742661368601e-01	 8.131742661368601e-01	 2.859951993372297e+00
 8.052112640048373e-01	 8.210600388871666e-01	 2.921675216414212e+00
 7.971721633335662e-01	 8.288674734157782e-01	 2.995076869295100e+00
 7.890581164284987e-01	 8.365954834090429e-01	 3.077850918360828e+00
 7.808702965034362e-01	 8.442430055872814e-01	 3.167431167914016e+00
 7.726098971113273e-01	 8.518090001957482e-01	 3.260995365307174e+00
 8.583453425346611e-01	 7.785385064345802e-01	 2.734264232262554e+00
 8.507212903910316e-01	 7.868622918656261e-01	 2.751865904892295e+00
 8.430150850771172e-01	 7.951129408923064e-01	 2.782956551601841e+00
 8.352277743262138e-01	 8.032892508029551e-01	 2.826142980531781e+00
 8.273604295770690e-01	 8.113900393811238e-01	 2.879775414944695e+00
 8.194141454791547e-01	 8.194141454791545e-01	 2.941950733035589e+00
 8.113900393811235e-01	 8.273604295770690e-01	 3.010516008381492e+00
 8.032892508029549e-01	 8.352277743262141e-01	 3.083072336751758e+00
 7.951129408923062e-01	 8.430150850771174e-01	 3.156978934772090e+00
 7.868622918656258e-01	 8.507212903910317e-01	 3.229357495784643e+00
 7.785385064345803e-01	 8.583453425346611e-01	 3.297096788173330e+00
 8.648816885775930e-01	 7.844671191176835e-01	 2.659653002218445e+00
 8.571995788659357e-01	 7.928542906235593e-01	 2.715655991738414e+00
 8.494346903831198e-01	 8.011677687874404e-01	 2.780854298338113e+00
 8.415880788409963e-01	 8.094063417389350e-01	 2.853072025884338e+00
 8.336608238373878e-01	 8.175688182589426e-01	 2.929921842658930e+00
 8.256540283575917e-01	 8.256540283575919e-01	 3.008809334359407e+00
 8.175688182589423e-01	 8.336608238373877e-01	 3.086937590216665e+00
 8.094063417389347e-01	 8.415880788409962e-01	 3.161312005740340e+00
 8.011677687874402e-01	 8.494346903831200e-01	 3.228745285530437e+00
 7.928542906235592e-01	 8.571995788659362e-01	 3.285862629607537e+00
 7.844671191176832e-01	 8.648816885775930e-01	 3.329107086810331e+00
 8.714180364724508e-01	 7.903957334807954e-01	 2.564532115589365e+00
 8.636778691763565e-01	 7.988462910794256e-01	 2.655145357183071e+00
 8.558542975080441e-01	 8.072225983982798e-01	 2.752556067250984e+00
 8.479483851579257e-01	 8.155234344082373e-01	 2.853469089323946e+00
 8.399612198829021e-01	 8.237475988875402e-01	 2.954448082673163e+00
 8.318939130041005e-01	 8.318939130041005e-01	 3.051921438605140e+00
 8.237475988875400e-01	 8.399612198829022e-01	 3.142188325375068e+00
 8.155234344082370e-01	 8.479483851579258e-01	 3.221424842287059e+00
 8.072225983982796e-01	 8.558542975080441e-01	 3.285690263711438e+00
 7.988462910794255e-01	 8.636778691763568e-01	 3.330933354005209e+00
 7.903957334807953e-01	 8.714180364724509e-01	 3.352998734668936e+00
 7.311098670310470e-01	 8.060548631117156e-01	 3.256490544252284e+00
 7.232242906541625e-01	 8.131375427964316e-01	 3.359403597342143e+00
 7.152723381229562e-01	 8.201411350666139e-01	 3.422333348905275e+00
 7.072552065862487e-01	 8.270647122440252e-01	 3.452780879648687e+00
 6.991741101455531e-01	 8.339073706440872e-01	 3.458008850481372e+00
 6.910302792495729e-01	 8.406682309615087e-01	 3.445029688515927e+00
 6.828249600784644e-01	 8.473464386377187e-01	 3.420594122727497e+00
 6.745594139185006e-01	 8.539411642097847e-01	 3.391180104451302e+00
 6.662349165277873e-01	 8.604516036405299e-01	 3.362982146903712e+00
 6.578527574936991e-01	 8.668769786295902e-01	 3.341901116752761e+00
 6.494142395826941e-01	 8.732165369051680e-01	 3.333534509448114e+00
 7.370384057997871e-01	 8.125911276638867e-01	 3.199448942813218e+00
 7.290888856198445e-01	 8.197312404966914e-01	 3.337183944506929e+00
 7.210724510442204e-01	 8.267916245984521e-01	 3.434704455432162e+00
 7.129903089293581e-01	 8.337713447684270e-01	 3.497532516994347e+00
 7.048436832218647e-01	 8.406694899940956e-01	 3.531053310578423e+00
 6.966338143480950e-01	 8.474851738399161e-01	 3.540505248919497e+00
 6.883619585934224e-01	 8.542175348177372e-01	 3.530970265691590e+00
 6.800293874718317e-01	 8.608657367385442e-01	 3.507364337115478e+00
 6.716373870864928e-01	 8.674289690452557e-01	 3.474428268688659e+00
 6.631872574819845e-01	 8.739064471263016e-01	 3.436718779277713e+00
 6.546803119888379e-01	 8.802974126097414e-01	 3.398599913789632e+00
 7.429669596872678e-01	 8.191274088847291e-01	 3.168758226295821e+00
 7.349534955411552e-01	 8.263249550120821e-01	 3.324709086249760e+00
 7.268725787566203e-01	 8.334421310902453e-01	 3.441152024314234e+00
 7.187254258977582e-01	 8.404779943959533e-01	 3.521933829271565e+00
 7.105132707562940e-01	 8.474316265887258e-01	 3.570968993169768e+00
 7.022373637362609e-01	 8.543021341027530e-01	 3.592115179029276e+00
 6.938989712282770e-01	 8.610886485202850e-01	 3.589164785675144e+00
 6.854993749740658e-01	 8.677903269262097e-01	 3.565836612568764e+00
 6.770398714218884e-01	 8.744063522435251e-01	 3.525767657354174e+00
 6.685217710735558e-01	 8.809359335494390e-01	 3.472505078221670e+00
 6.599463978237010e-01	 8.873783063718549e-01	 3.409498352412868e+00
 7.488955270136475e-01	 8.256637049221496e-01	 3.160532914802060e+00
 7.408181187563816e-01	 8.329186844742316e-01	 3.319556090047965e+00
 7.326727196167282e-01	 8.400926526575224e-01	 3.441658320204631e+00
 7.244605558664557e-01	 8.471846592262179e-01	 3.528094117847744e+00
 7.161828711424310e-01	 8.541937785118615e-01	 3.581705111174379e+00
 7.078409258263892e-01	 8.611191098183603e-01	 3.605353021984656e+00
 6.994359964142151e-01	 8.679597777983505e-01	 3.601911753975588e+00
 6.909693748753966e-01	 8.747149328106090e-01	 3.574259748444796e+00
 6.824423680033107e-01	 8.813837512581987e-01	 3.525272361524484e+00
 6.738562967570241e-01	 8.879654359070915e-01	 3.457814295553810e+00
 6.652124955952956e-01	 8.944592161850218e-01	 3.374732116618134e+00
 7.548241060990847e-01	 8.322000139240550e-01	 3.170250372953433e+00
 7.466827536038124e-01	 8.395124270147665e-01	 3.320214392234681e+00
 7.384728719811161e-01	 8.467431874158121e-01	 3.436213593745501e+00
 7.301956972104575e-01	 8.538913373588336e-01	 3.518063180921910e+00
 7.218524827738650e-01	 8.609559438473855e-01	 3.567092884325532e+00
 7.134444990307955e-01	 8.679360990550783e-01	 3.585545107055904e+00
 7.049730325824233e-01	 8.748309207049224e-01	 3.575738339468324e+00
 6.964393856260189e-01	 8.816395524295694e-01	 3.540059758738473e+00
 6.878448753000955e-01	 8.883611641121356e-01	 3.480957759734557e+00
 6.791908330209988e-01	 8.949949522073469e-01	 3.400934450948313e+00
 6.704786038116349e-01	 9.015401400427563e-01	 3.302538148810185e+00
 7.607526952637380e-01	 8.387363340383518e-01	 3.193234985608681e+00
 7.525473984217361e-01	 8.461061807653149e-01	 3.325255861348295e+00
 7.442730342063568e-01	 8.533937334806437e-01	 3.425109266963363e+00
 7.359308483047710e-01	 8.605980268934145e-01	 3.493834298775405e+00
 7.275221040441863e-01	 8.677181206791824e-01	 3.530850770030372e+00
 7.190480817617986e-01	 8.747530998812484e-01	 3.537857664580474e+00
 7.105100781640874e-01	 8.817020752929882e-01	 3.516973435980030e+00
 7.019094056761256e-01	 8.885641838209178e-01	 3.470435612163673e+00
 6.932473917815797e-01	 8.953385888281963e-01	 3.400593058808073e+00
 6.845253783540911e-01	 9.020244804582935e-01	 3.309898140014643e+00
 6.757447209807317e-01	 9.086210759385727e-01	 3.200898811522878e+00
 7.666812928277663e-01	 8.452726634129474e-01	 3.224950602749827e+00
 7.584120515484405e-01	 8.526999438575036e-01	 3.332577838561658e+00
 7.500732046490222e-01	 8.600442889675458e-01	 3.409525405020289e+00
 7.416660075244033e-01	 8.673047259295743e-01	 3.457367960037650e+00
 7.331917333469850e-01	 8.744803070911350e-01	 3.476589466863937e+00
 7.246516724317160e-01	 8.815701103652124e-01	 3.467303625609684e+00
 7.160471315903953e-01	 8.885732396155367e-01	 3.431755903672055e+00
 7.073794334759114e-01	 8.954888250224813e-01	 3.372368551500582e+00
 6.986499159170994e-01	 9.023160234292408e-01	 3.291711318326676e+00
 6.898599312449114e-01	 9.090540186680197e-01	 3.192492882270694e+00
 6.810108456105990e-01	 9.157020218659847e-01	 3.077552168801672e+00
 7.726098971113273e-01	 8.518090001957482e-01	 3.260995365307174e+00
 7.642767113222145e-01	 8.592937144229608e-01	 3.340137213995947e+00
 7.558733816656837e-01	 8.666948519920472e-01	 3.389653349010260e+00
 7.474011732443611e-01	 8.740114325669259e-01	 3.411520093996405e+00
 7.388613690758508e-01	 8.812425011671269e-01	 3.407816702895563e+00
 7.302552694528648e-01	 8.883871285753102e-01	 3.378749123182751e+00
 7.215841912925328e-01	 8.954444117255559e-01	 3.326042445145341e+00
 7.128494674755699e-01	 9.024134740720874e-01	 3.252630997489847e+00
 7.040524461759912e-01	 9.092934659381283e-01	 3.161619026620709e+00
 6.951944901820696e-01	 9.160835648446135e-01	 3.056271005166705e+00
 6.862769762092491e-01	 9.227829758185060e-01	 2.940001806112051e+00
 7.785385064345803e-01	 8.583453425346611e-01	 3.297096788173330e+00
 7.701413760813457e-01	 8.658874905933132e-01	 3.345948358760621e+00
 7.616735636129139e-01	 8.733454206696766e-01	 3.365564212220784e+00
 7.531363438396516e-01	 8.807181449050833e-01	 3.358691502074634e+00
 7.445310096243735e-01	 8.880047009910416e-01	 3.328270372912291e+00
 7.358588712375627e-01	 8.952041525798839e-01	 3.276919711115134e+00
 7.271212557016866e-01	 9.023155896760349e-01	 3.205615135717641e+00
 7.183195061252952e-01	 9.093381290075632e-01	 3.117795059396850e+00
 7.094549810275907e-01	 9.162709143777187e-01	 3.017405252164139e+00
 7.005290536541765e-01	 9.231131169961628e-01	 2.908559088866924e+00
 6.915431112846953e-01	 9.298639357896511e-01	 2.795526213348802e+00
 7.844671191176832e-01	 8.648816885775930e-01	 3.329107086810331e+00
 7.760060441641224e-01	 8.724812705001884e-01	 3.348081171610788e+00
 7.674737488472851e-01	 8.799959931159634e-01	 3.337322397253392e+00
 7.588715176852819e-01	 8.874248610436598e-01	 3.300710475970082e+00
 7.502006533861428e-01	 8.947669046467623e-01	 3.242320703567216e+00
 7.414624761981264e-01	 9.020211804472739e-01	 3.166418781528557e+00
 7.326583232490430e-01	 9.091867715199604e-01	 3.076088626148533e+00
 7.237895478752813e-01	 9.162627878667361e-01	 2.974240673032794e+00
 7.148575189412353e-01	 9.232483667708724e-01	 2.865950392813118e+00
 7.058636201498424e-01	 9.301426731307557e-01	 2.756466995002771e+00
 6.968092493449500e-01	 9.369448997729340e-01	 2.651187754036835e+00
 7.903957334807953e-01	 8.714180364724509e-01	 3.352998734668936e+00
 7.818707139088333e-01	 8.790750522752145e-01	 3.344659234207138e+00
 7.732739357253692e-01	 8.866465674464368e-01	 3.304986088006284e+00
 7.646066931562587e-01	 8.941315790822688e-01	 3.239346083871178e+00
 7.558702987547491e-01	 9.015291102181732e-01	 3.153292771061426e+00
 7.470660827468745e-01	 9.088382102458219e-01	 3.052559262643498e+00
 7.381953923657893e-01	 9.160579553103224e-01	 2.942917034991940e+00
 7.292595911757221e-01	 9.231874486874327e-01	 2.828163385772760e+00
 7.202600583862604e-01	 9.302258211404485e-01	 2.713934543982343e+00
 7.111981881576781e-01	 9.371722312564811e-01	 2.606896501219840e+00
 7.020753888980266e-01	 9.440258657618683e-01	 2.513841242429310e+00
 6.494142395826941e-01	 8.732165369051680e-01	 3.333534509448114e+00
 6.409221256341137e-01	 8.794684975880961e-01	 3.325512695942060e+00
 6.323763084981971e-01	 8.856332494952077e-01	 3.303412721145935e+00
 6.237781210747034e-01	 8.917101238651706e-01	 3.269649604913735e+00
 6.151289068041612e-01	 8.976984788943336e-01	 3.226806115721210e+00
 6.064300189927078e-01	 9.035976999280244e-01	 3.177624879577652e+00
 5.976828201333925e-01	 9.094071996317421e-01	 3.125000438128512e+00
 5.888886812246272e-01	 9.151264181422003e-01	 3.071971282681476e+00
 5.800489810864830e-01	 9.207548231981942e-01	 3.021711889896490e+00
 5.711651056755123e-01	 9.262919102513077e-01	 2.977524783785529e+00
 5.622384473987841e-01	 9.317372025564835e-01	 2.942832647481207e+00
 6.546803119888379e-01	 8.802974126097414e-01	 3.398599913789632e+00
 6.461193358501361e-01	 8.866000701753367e-01	 3.351920058965907e+00
 6.375042210472364e-01	 8.928148117928264e-01	 3.288804823111107e+00
 6.288363112883149e-01	 8.989409632779295e-01	 3.214045422365134e+00
 6.201169609077938e-01	 9.049778776226468e-01	 3.132613251462354e+00
 6.113475341857024e-01	 9.109249351881052e-01	 3.049648399928985e+00
 6.025294046634784e-01	 9.167815438771442e-01	 2.970448135094835e+00
 5.936639544568926e-01	 9.225471392865776e-01	 2.900455385039598e+00
 5.847525735667993e-01	 9.282211848391264e-01	 2.845247253460465e+00
 5.757966591884045e-01	 9.338031718950218e-01	 2.810523597196981e+00
 5.667976150197382e-01	 9.392926198433107e-01	 2.802095695790721e+00
 6.599463978237010e-01	 8.873783063718549e-01	 3.409498352412868e+00
 6.513165593192055e-01	 8.937316609494235e-01	 3.332106028735269e+00
 6.426321466725446e-01	 8.999963924047993e-01	 3.237690031260838e+00
 6.338945144003423e-01	 9.061718211307391e-01	 3.132808972719411e+00
 6.251050277309407e-01	 9.122572949148787e-01	 3.024207303956147e+00
 6.162650619182922e-01	 9.182521891341345e-01	 2.918801096724090e+00
 6.073760015522525e-01	 9.241559069286699e-01	 2.823663813743298e+00
 5.984392398659804e-01	 9.299678793553903e-01	 2.746012104136813e+00
 5.894561780411440e-01	 9.356875655209290e-01	 2.693191661087158e+00
 5.804282245116336e-01	 9.413144526941547e-01	 2.672663177159898e+00
 5.713567942664680e-01	 9.468480563982064e-01	 2.691988431224648e+00
 6.652124955952956e-01	 8.944592161850218e-01	 3.374732116618133e+00
 6.565137945688587e-01	 9.008632678894991e-01	 3.274247484023948e+00
 6.477600839213060e-01	 9.071779892960974e-01	 3.157721389009808e+00
 6.389527289777324e-01	 9.134026953745989e-01	 3.032885496054154e+00
 6.300931058604299e-01	 9.195367287082650e-01	 2.907656291631454e+00
 6.211826007972980e-01	 9.255794596897858e-01	 2.790118980801144e+00
 6.122226094266374e-01	 9.315302866966412e-01	 2.688511394336563e+00
 6.032145360990211e-01	 9.373886362458119e-01	 2.611207948114715e+00
 5.941597931769588e-01	 9.431539631278388e-01	 2.566703695094889e+00
 5.850598003330498e-01	 9.488257505202145e-01	 2.563598508681282e+00
 5.759159838473318e-01	 9.544035100801623e-01	 2.610581434603666e+00
 6.704786038116349e-01	 9.015401400427563e-01	 3.302538148810185e+00
 6.617110401266332e-01	 9.079948889747035e-01	 3.186265467780642e+00
 6.528880313407022e-01	 9.143596004316898e-01	 3.056311863621553e+00
 6.440109535874335e-01	 9.206335839605108e-01	 2.921001711311387e+00
 6.350811938830891e-01	 9.268161769400405e-01	 2.788836607761032e+00
 6.261001494295401e-01	 9.329067447787348e-01	 2.668478217658225e+00
 6.170692269135550e-01	 9.389046810913773e-01	 2.568731155939980e+00
 6.079898418031454e-01	 9.448094078550191e-01	 2.498525950862205e+00
 5.988634176416842e-01	 9.506203755440931e-01	 2.466902130123366e+00
 5.896913853405055e-01	 9.563370632447107e-01	 2.482991470840056e+00
 5.804751824706880e-01	 9.619589787481722e-01	 2.556001452380247e+00
 6.757447209807317e-01	 9.086210759385727e-01	 3.200898811522878e+00
 6.669082945200654e-01	 9.151265221841794e-01	 3.075835552245782e+00
 6.580159874779168e-01	 9.215412237765472e-01	 2.940644064440308e+00
 6.490691867963929e-01	 9.278644848394750e-01	 2.803674662307920e+00
 6.400692903857462e-01	 9.340956375474406e-01	 2.673440786673154e+00
 6.310177064218390e-01	 9.402340423246556e-01	 2.558601624151547e+00
 6.219158526399281e-01	 9.462790880231998e-01	 2.467944791843251e+00
 6.127651556254828e-01	 9.522301920801834e-01	 2.410369132423625e+00
 6.035670501027616e-01	 9.580868006539273e-01	 2.394867662877119e+00
 5.943229782218520e-01	 9.638483887391527e-01	 2.430510718346372e+00
 5.850343888448946e-01	 9.695144602612272e-01	 2.526429330656225e+00
 6.810108456105990e-01	 9.157020218659847e-01	 3.077552168801672e+00
 6.721055562766927e-01	 9.222581654970681e-01	 2.950397734559236e+00
 6.631439508801326e-01	 9.287228572956394e-01	 2.817679521013355e+00
 6.541274271715580e-01	 9.350953959624919e-01	 2.687220163486533e+00
 6.450573939552288e-01	 9.413751084677004e-01	 2.566984919182460e+00
 6.359352703810152e-01	 9.475613502512236e-01	 2.465064872692636e+00
 6.267624852326787e-01	 9.536535054024289e-01	 2.389660238731204e+00
 6.175404762131650e-01	 9.596509868184810e-01	 2.349063806541624e+00
 6.082706892276323e-01	 9.655532363415797e-01	 2.351644568687997e+00
 5.989545776649410e-01	 9.713597248750493e-01	 2.405831575062670e+00
 5.895936016783102e-01	 9.770699524783206e-01	 2.520098050923151e+00
 6.862769762092491e-01	 9.227829758185060e-01	 2.940001806112051e+00
 6.773028239240513e-01	 9.293898168925111e-01	 2.817165888053771e+00
 6.682719200945323e-01	 9.359044989539361e-01	 2.694167544721547e+00
 6.591856732798765e-01	 9.423263152805633e-01	 2.577760866886940e+00
 6.500455031783646e-01	 9.486545876380549e-01	 2.474815736063951e+00
 6.408528399138891e-01	 9.548886664821129e-01	 2.392302418641000e+00
 6.316091233187295e-01	 9.610279311393857e-01	 2.337276291744767e+00
 6.223158022133211e-01	 9.670717899670854e-01	 2.316862743538118e+00
 6.129743336837374e-01	 9.730196804912860e-01	 2.338242288823397e+00
 6.035861823576238e-01	 9.788710695239099e-01	 2.408635938844171e+00
 5.941528196792930e-01	 9.846254532584438e-01	 2.535290862065336e+00
 6.915431112846953e-01	 9.298639357896511e-01	 2.795526213348803e+00
 6.825000959896785e-01	 9.365214743496496e-01	 2.683136792895835e+00
 6.733998936682988e-01	 9.430861467164073e-01	 2.576653696097804e+00
 6.642439236882958e-01	 9.495572407446882e-01	 2.481233970508278e+00
 6.550336166419817e-01	 9.559340729957396e-01	 2.402117377248256e+00
 6.457704136272808e-01	 9.622159889409981e-01	 2.344613165633159e+00
 6.364557655250028e-01	 9.684023631443908e-01	 2.314087016834297e+00
 6.270911322730816e-01	 9.744925994231711e-01	 2.315948196236215e+00
 6.176779821385179e-01	 9.804861309872830e-01	 2.355636952227384e+00
 6.082177909877524e-01	 9.863824205572429e-01	 2.438612197094862e+00
 5.987120415562011e-01	 9.921809604605897e-01	 2.570339503498262e+00
 6.968092493449500e-01	 9.369448997729340e-01	 2.651187754036835e+00
 6.876973710011114e-01	 9.436531358476259e-01	 2.555098768305641e+00
 6.785278701486148e-01	 9.502677985480235e-01	 2.471487878673514e+00
 6.693021769637635e-01	 9.567881703058687e-01	 2.403398587016071e+00
 6.600217329329079e-01	 9.632135624779891e-01	 2.353917863348046e+00
 6.506879901280118e-01	 9.695433155515548e-01	 2.326165882698215e+00
 6.413024104784212e-01	 9.757767993277645e-01	 2.323285971118145e+00
 6.318664650395774e-01	 9.819134130839124e-01	 2.348434796161538e+00
 6.223816332594149e-01	 9.879525857138078e-01	 2.404772835159630e+00
 6.128494022431772e-01	 9.938937758465576e-01	 2.495455152471815e+00
 6.032712660173928e-01	 9.997364719437507e-01	 2.623622514624332e+00
 7.020753888980266e-01	 9.440258657618683e-01	 2.513841242429311e+00
 6.928946474858869e-01	 9.507847993655812e-01	 2.439639927255424e+00
 6.836558480826637e-01	 9.574494524137538e-01	 2.384832078943274e+00
 6.743604316732270e-01	 9.640191019151049e-01	 2.349842790610154e+00
 6.650098506379702e-01	 9.704930540220392e-01	 2.335095285129918e+00
 6.556055680229015e-01	 9.768706442374568e-01	 2.341004386180012e+00
 6.461490568059066e-01	 9.831512375998281e-01	 2.367970241317486e+00
 6.366417991599389e-01	 9.893342288464843e-01	 2.416372326826776e+00
 6.270852857138696e-01	 9.954190425550969e-01	 2.486563761988882e+00
 6.174810148117510e-01	 1.001405133263363e+00	 2.578865958204316e+00
 6.078304917712264e-01	 1.007291985566919e+00	 2.693563626076763e+00
 5.622384473987841e-01	 9.317372025564835e-01	 2.942832647481207e+00
 5.532704046029903e-01	 9.370902514685463e-01	 2.924521500437630e+00
 5.442623814031892e-01	 9.423506371741205e-01	 2.923720707181069e+00
 5.352157864530174e-01	 9.475179680493709e-01	 2.935187047684390e+00
 5.261320320837845e-01	 9.525918804443393e-01	 2.953528447109770e+00
 5.170125336241201e-01	 9.575720386728107e-01	 2.973212079781274e+00
 5.078587087228544e-01	 9.624581349827813e-01	 2.988572786235828e+00
 4.986719766757564e-01	 9.672498895077365e-01	 2.993821789629703e+00
 4.894537577567521e-01	 9.719470501989690e-01	 2.983055696321447e+00
 4.802054725542244e-01	 9.765493927391885e-01	 2.950265764056547e+00
 4.709285413129862e-01	 9.810567204377044e-01	 2.889347419852394e+00
 5.667976150197382e-01	 9.392926198433107e-01	 2.802095695790721e+00
 5.577568507466210e-01	 9.446890764007799e-01	 2.824540171386579e+00
 5.486757818700376e-01	 9.499921183498042e-01	 2.872987300559060e+00
 5.395558284663587e-01	 9.552013508908862e-01	 2.938999007875690e+00
 5.303984143194497e-01	 9.603164074252436e-01	 3.013938625851706e+00
 5.212049662348012e-01	 9.653369495445931e-01	 3.088984052809229e+00
 5.119769133569183e-01	 9.702626670013813e-01	 3.155141243585824e+00
 5.027156864906011e-01	 9.750932776596664e-01	 3.203258011063824e+00
 4.934227174267368e-01	 9.798285274268859e-01	 3.224038115069344e+00
 4.840994382732201e-01	 9.844681901667690e-01	 3.208055613847642e+00
 4.747472807915894e-01	 9.890120675936659e-01	 3.145769452065924e+00
 5.713567942664680e-01	 9.468480563982064e-01	 2.691988431224648e+00
 5.622433083306285e-01	 9.522879207118241e-01	 2.752418740601619e+00
 5.530891935910524e-01	 9.576336190131246e-01	 2.843102214940658e+00
 5.438958815468704e-01	 9.628847533269371e-01	 2.953327924793435e+00
 5.346648074345299e-01	 9.680409541056474e-01	 3.072150882605583e+00
 5.253974095364100e-01	 9.731018802188972e-01	 3.188408853304839e+00
 5.160951284927170e-01	 9.780672189235762e-01	 3.290739514985594e+00
 5.067594066173073e-01	 9.829366858143070e-01	 3.367597941650592e+00
 4.973916872180574e-01	 9.877100247546671e-01	 3.407274378550812e+00
 4.879934139223994e-01	 9.923870077893987e-01	 3.397912279338983e+00
 4.785660300086246e-01	 9.969674350378890e-01	 3.327526573028618e+00
 5.759159838473318e-01	 9.544035100801623e-01	 2.610581434603666e+00
 5.667297760839711e-01	 9.598867822483672e-01	 2.704834309985646e+00
 5.575026153158813e-01	 9.652751369986767e-01	 2.829786880924565e+00
 5.482359444649775e-01	 9.705681731802419e-01	 2.973354797477829e+00
 5.389312102203119e-01	 9.757655182966071e-01	 3.123198248681475e+00
 5.295898623411749e-01	 9.808668284953329e-01	 3.266741043763311e+00
 5.202133529634978e-01	 9.858717885377437e-01	 3.391190058216779e+00
 5.108031359102176e-01	 9.907801117490229e-01	 3.483555012954244e+00
 5.013606660062222e-01	 9.955915399488822e-01	 3.530668553310674e+00
 4.918873983985063e-01	 1.000305843363072e+00	 3.519206593324841e+00
 4.823847878821362e-01	 1.004922820516011e+00	 3.435708889491795e+00
 5.804751824706880e-01	 9.619589787481722e-01	 2.556001452380247e+00
 5.712162527356068e-01	 9.674856588570964e-01	 2.678563453198975e+00
 5.619160457941728e-01	 9.729166701410574e-01	 2.828891788114665e+00
 5.525760159911045e-01	 9.782516082735183e-01	 2.994406264307073e+00
 5.431976214680816e-01	 9.834900978091780e-01	 3.162263686420830e+00
 5.337823234613233e-01	 9.886317921735067e-01	 3.319377844746848e+00
 5.243315856025086e-01	 9.936763736322622e-01	 3.452439880586797e+00
 5.148468732236742e-01	 9.986235532411809e-01	 3.547938995520639e+00
 5.053296526667403e-01	 1.003473070776103e+00	 3.592183469791109e+00
 4.957813905982844e-01	 1.008224694643784e+00	 3.571321953620632e+00
 4.862035533301683e-01	 1.012878221773671e+00	 3.471364993994993e+00
 5.850343888448946e-01	 9.695144602612272e-01	 2.526429330656225e+00
 5.757027370144936e-01	 9.750845483846995e-01	 2.670478435348992e+00
 5.663294837755748e-01	 9.805582162748622e-01	 2.836391525866275e+00
 5.569160948956775e-01	 9.859350564294853e-01	 3.011948972560238e+00
 5.474640399691242e-01	 9.912146904544148e-01	 3.184674267461150e+00
 5.379747917090835e-01	 9.963967690530293e-01	 3.341853573634404e+00
 5.284498252429969e-01	 1.001480971995510e+00	 3.470555661641638e+00
 5.188906174120189e-01	 1.006467008068145e+00	 3.557652200545968e+00
 5.092986460751201e-01	 1.011354615002900e+00	 3.589838369306366e+00
 4.996753894184770e-01	 1.016143559387529e+00	 3.553653752918841e+00
 4.900223252707658e-01	 1.020833636556505e+00	 3.435503486292360e+00
 5.895936016783102e-01	 9.770699524783206e-01	 2.520098050923151e+00
 5.801892276495898e-01	 9.826834486778639e-01	 2.677543613364801e+00
 5.707429280097351e-01	 9.881997732346868e-01	 2.848380058874600e+00
 5.612561799491207e-01	 9.936185154708602e-01	 3.021584213455877e+00
 5.517304645147261e-01	 9.989392940433741e-01	 3.185895624879041e+00
 5.421672658966834e-01	 1.004161756933508e+00	 3.329834344725083e+00
 5.325680707182103e-01	 1.009285581415867e+00	 3.441719105092879e+00
 5.229343673295942e-01	 1.014310474007282e+00	 3.509685860325995e+00
 5.132676451068702e-01	 1.019236170395843e+00	 3.521706662399543e+00
 5.035693937558281e-01	 1.024062435350301e+00	 3.465608836997097e+00
 4.938411026219721e-01	 1.028789062610151e+00	 3.329094425809862e+00
 5.941528196792930e-01	 9.846254532584438e-01	 2.535290862065336e+00
 5.846757233698534e-01	 9.902823575832775e-01	 2.696812007359541e+00
 5.751563772463021e-01	 9.958413388551269e-01	 2.861066225001916e+00
 5.655962699218595e-01	 1.001301983220362e+00	 3.019042808418817e+00
 5.559968938961736e-01	 1.006663906387111e+00	 3.161526664513230e+00
 5.463597448363504e-01	 1.011926753614553e+00	 3.279113016668830e+00
 5.366863208613966e-01	 1.017090199681709e+00	 3.362222507657306e+00
 5.269781218307426e-01	 1.022153948835957e+00	 3.401116677891691e+00
 5.172366486374987e-01	 1.027117734721504e+00	 3.385913792604167e+00
 5.074634025070810e-01	 1.031981320288095e+00	 3.306604989757535e+00
 4.976598843018319e-01	 1.036744497680246e+00	 3.153070718835500e+00
 5.987120415562011e-01	 9.921809604605897e-01	 2.570339503498262e+00
 5.891622229042429e-01	 9.978812729476279e-01	 2.725422033873127e+00
 5.795698302349237e-01	 1.003482910970779e+00	 2.870769443506352e+00
 5.699363635843187e-01	 1.008985457500709e+00	 3.000180233194573e+00
 5.602633269047524e-01	 1.014388525296681e+00	 3.107294521663664e+00
 5.505522273403126e-01	 1.019691756895771e+00	 3.185604374052164e+00
 5.408045745058032e-01	 1.024894824581416e+00	 3.228464533256945e+00
 5.310218797698059e-01	 1.029997430331535e+00	 3.229103536820703e+00
 5.212056555425149e-01	 1.034999305746452e+00	 3.180635199997335e+00
 5.113574145689793e-01	 1.039900211956906e+00	 3.076070443668971e+00
 5.014786692283897e-01	 1.044699939512429e+00	 2.908329443919299e+00
 6.032712660173928e-01	 9.997364719437507e-01	 2.623622514624332e+00
 5.936487249817157e-01	 1.005480192617603e+00	 2.760594392438207e+00
 5.839832857252478e-01	 1.011124487416240e+00	 2.873915622551046e+00
 5.742764597069232e-01	 1.016668936134619e+00	 2.960971967239059e+00
 5.645297623317486e-01	 1.022113148583140e+00	 3.019049750196559e+00
 5.547447122207984e-01	 1.027456764576772e+00	 3.045340530761921e+00
 5.449228304846778e-01	 1.032699453903367e+00	 3.036946181724763e+00
 5.350656400011267e-01	 1.037840916271382e+00	 2.990884362758510e+00
 5.251746646974269e-01	 1.042880881237259e+00	 2.904094379270120e+00
 5.152514288382668e-01	 1.047819108112727e+00	 2.773443414269821e+00
 5.052974563196894e-01	 1.052655385852336e+00	 2.595733118750018e+00
 6.078304917712264e-01	 1.007291985566919e+00	 2.693563626076763e+00
 5.981352283312307e-01	 1.013079114439890e+00	 2.799629097425229e+00
 5.883967424669230e-01	 1.018766066026104e+00	 2.867033255538313e+00
 5.786165570600984e-01	 1.024352416944811e+00	 2.897509056565176e+00
 5.687961989684477e-01	 1.029837774057543e+00	 2.892761731863062e+00
 5.589371982900345e-01	 1.035221774457163e+00	 2.854466543492470e+00
 5.490410876312684e-01	 1.040504085435938e+00	 2.784266941812278e+00
 5.391094013790468e-01	 1.045684404432863e+00	 2.683773128690702e+00
 5.291436749777435e-01	 1.050762458960495e+00	 2.554561027357191e+00
 5.191454442116871e-01	 1.055738006511553e+00	 2.398171657470032e+00
 5.091162444937753e-01	 1.060610834445606e+00	 2.216110911579285e+00
 4.709285413129862e-01	 9.810567204377044e-01	 2.889347419852394e+00
 4.616227991659323e-01	 9.854696060013456e-01	 2.803801726213758e+00
 4.522912388269320e-01	 9.897871325870814e-01	 2.704006064206579e+00
 4.429352758886508e-01	 9.940091848336716e-01	 2.594105060087137e+00
 4.335563230520154e-01	 9.981356744262322e-01	 2.478291912787056e+00
 4.241557895045047e-01	 1.002166539904589e+00	 2.360802525469437e+00
 4.147350803073237e-01	 1.006101746455231e+00	 2.245909855703700e+00
 4.052955957919376e-01	 1.009941285687257e+00	 2.137918484115414e+00
 3.958387309664236e-01	 1.013685175392733e+00	 2.041159400163318e+00
 3.863658749320805e-01	 1.017333459291891e+00	 1.959985002563573e+00
 3.768784103107179e-01	 1.020886206763610e+00	 1.898764310825681e+00
 4.747472807915894e-01	 9.890120675936659e-01	 3.145769452065924e+00
 4.653660787778535e-01	 9.934607370584575e-01	 3.041195763638956e+00
 4.559588492136603e-01	 9.978132742834666e-01	 2.909476784532190e+00
 4.465270191706391e-01	 1.002069562971986e+00	 2.757703192355581e+00
 4.370720128052314e-01	 1.006229514092981e+00	 2.593044202624730e+00
 4.275952507319404e-01	 1.010293065687895e+00	 2.422737173414396e+00
 4.180981494055364e-01	 1.014260182660907e+00	 2.254077468759270e+00
 4.085821205126959e-01	 1.018130856553068e+00	 2.094408586926447e+00
 3.990485703735407e-01	 1.021905105300711e+00	 1.951112558244637e+00
 3.894988993535169e-01	 1.025582972978587e+00	 1.831600615800907e+00
 3.799345012860394e-01	 1.029164529528158e+00	 1.743304141011508e+00
 4.785660300086246e-01	 9.969674350378890e-01	 3.327526573028618e+00
 4.691093679358498e-01	 1.001451888495082e+00	 3.202172734402029e+00
 4.596264689535641e-01	 1.005839436448636e+00	 3.042033190754814e+00
 4.501187716123904e-01	 1.010129961666376e+00	 2.856255106316243e+00
 4.405877115243157e-01	 1.014323374401120e+00	 2.654082133032603e+00
 4.310347207308977e-01	 1.018419612195926e+00	 2.444840837590422e+00
 4.214612270805013e-01	 1.022418639672665e+00	 2.237927423190479e+00
 4.118686536150452e-01	 1.026320448304341e+00	 2.042794756392171e+00
 4.022584179667253e-01	 1.030125056171559e+00	 1.868939707718997e+00
 3.926319317651646e-01	 1.033832507703590e+00	 1.725890813148550e+00
 3.829906000554127e-01	 1.037442873404484e+00	 1.623196262110901e+00
 4.823847878821362e-01	 1.004922820516011e+00	 3.435708889491795e+00
 4.728526655793324e-01	 1.009443058046719e+00	 3.289443880357363e+00
 4.632940970074804e-01	 1.013865616808170e+00	 3.105588569532299e+00
 4.537105321962244e-01	 1.018190378632725e+00	 2.894478961188921e+00
 4.441034182131228e-01	 1.022417253057053e+00	 2.666553627730689e+00
 4.344741985268155e-01	 1.026546177125825e+00	 2.432338290240970e+00
 4.248243123792888e-01	 1.030577115178610e+00	 2.202430725662287e+00
 4.151551941677298e-01	 1.034510058620366e+00	 1.987486013170443e+00
 4.054682728364357e-01	 1.038345025675969e+00	 1.798202130434457e+00
 3.957649712792327e-01	 1.042082061129215e+00	 1.645305908741798e+00
 3.860467057528313e-01	 1.045721236046741e+00	 1.539539354325540e+00
 4.862035533301683e-01	 1.012878221773671e+00	 3.471364993994993e+00
 4.765959706477127e-01	 1.017434243448864e+00	 3.305627986369093e+00
 4.669617323362469e-01	 1.021891813087648e+00	 3.103926026226774e+00
 4.573022999044603e-01	 1.026250811586913e+00	 2.876937538508118e+00
 4.476191318755074e-01	 1.030511147767179e+00	 2.635437868860201e+00
 4.379136831451330e-01	 1.034672758174737e+00	 2.390283330929353e+00
 4.281874043489687e-01	 1.038735606866850e+00	 2.152395608438854e+00
 4.184417412394940e-01	 1.042699685180430e+00	 1.932746524632609e+00
 4.086781340731299e-01	 1.046565011484631e+00	 1.742343189791685e+00
 3.988980170079298e-01	 1.050331630917772e+00	 1.592213535723144e+00
 3.891028175122886e-01	 1.053999615109086e+00	 1.493392244386067e+00
 4.900223252707658e-01	 1.020833636556505e+00	 3.435503486292360e+00
 4.803392820804012e-01	 1.025425442437019e+00	 3.253254872841161e+00
 4.706293739007002e-01	 1.029918023012649e+00	 3.040703435256132e+00
 4.608940737194178e-01	 1.034311258244820e+00	 2.808044163862154e+00
 4.511348515153240e-01	 1.038605056237903e+00	 2.565551730707821e+00
 4.413531736112893e-01	 1.042799353039807e+00	 2.323565300037633e+00
 4.315505020366115e-01	 1.046894112425490e+00	 2.092473717776624e+00
 4.217282938990817e-01	 1.050889325663823e+00	 1.882701090716666e+00
 4.118880007672668e-01	 1.054785011268236e+00	 1.704692764163483e+00
 4.020310680634656e-01	 1.058581214731576e+00	 1.568901704947268e+00
 3.921589344677779e-01	 1.062278008245671e+00	 1.485775294925168e+00
 4.938411026219721e-01	 1.028789062610151e+00	 3.329094425809862e+00
 4.840825988168095e-01	 1.033416652746681e+00	 3.134768727559647e+00
 4.742970206616783e-01	 1.037944244308754e+00	 2.919458161852269e+00
 4.644858526234161e-01	 1.042371716322328e+00	 2.692068354701993e+00
 4.546505761364266e-01	 1.046698976175627e+00	 2.461555915478172e+00
 4.447926689507233e-01	 1.050925959418177e+00	 2.236915290347171e+00
 4.349136044892870e-01	 1.055052629542636e+00	 2.027166015220651e+00
 4.250148512152379e-01	 1.059078977749833e+00	 1.841340375021028e+00
 4.150978720093040e-01	 1.063005022697474e+00	 1.688471474131159e+00
 4.051641235580489e-01	 1.066830810232940e+00	 1.577581721037830e+00
 3.952150557532931e-01	 1.070556413110653e+00	 1.517671728413482e+00
 4.976598843018319e-01	 1.036744497680246e+00	 3.153070718835499e+00
 4.878259197963485e-01	 1.041407872113348e+00	 2.952531285472141e+00
 4.779646715800181e-01	 1.045970474701542e+00	 2.743611567495210e+00
 4.680776355987750e-01	 1.050432183535317e+00	 2.533141208922071e+00
 4.581663047426705e-01	 1.054792905286752e+00	 2.327960807105963e+00
 4.482321681888748e-01	 1.059052575006993e+00	 2.134912072905317e+00
 4.382767107540655e-01	 1.063211155906394e+00	 1.960828407213315e+00
 4.283014122567060e-01	 1.067268639117747e+00	 1.812525894812429e+00
 4.183077468897003e-01	 1.071225043443037e+00	 1.696794714604363e+00
 4.082971826038889e-01	 1.075080415084176e+00	 1.620390963452790e+00
 3.982711805028276e-01	 1.078834827358185e+00	 1.590028889171173e+00
 5.014786692283897e-01	 1.044699939512429e+00	 2.908329443919299e+00
 4.915692439584294e-01	 1.049399098272520e+00	 2.708824864503695e+00
 4.816323256165569e-01	 1.053996711916592e+00	 2.516473310545325e+00
 4.716694216278137e-01	 1.058492657599668e+00	 2.335260548020531e+00
 4.616820363379095e-01	 1.062886841277681e+00	 2.169132058126033e+00
 4.516716703511823e-01	 1.067179197503398e+00	 2.021987752396366e+00
 4.416398198780169e-01	 1.071369689204871e+00	 1.897677117486443e+00
 4.315879760922307e-01	 1.075458307446854e+00	 1.799994782789436e+00
 4.215176244989138e-01	 1.079445071175615e+00	 1.732676502217372e+00
 4.114302443131947e-01	 1.083330026947597e+00	 1.699395539749141e+00
 4.013273078503746e-01	 1.087113248642424e+00	 1.703759446754654e+00
 5.052974563196894e-01	 1.052655385852336e+00	 2.595733118750018e+00
 4.953125702424631e-01	 1.057390328959694e+00	 2.405855265019831e+00
 4.852999817321316e-01	 1.062022953679483e+00	 2.241245452899987e+00
 4.752612096928517e-01	 1.066553136231262e+00	 2.102295827812256e+00
 4.651977699259986e-01	 1.070980781854817e+00	 1.989295923712314e+00
 4.551111744630852e-01	 1.075305824604536e+00	 1.902433166315706e+00
 4.450029309082117e-01	 1.079528227126172e+00	 1.841793815834002e+00
 4.348745417905561e-01	 1.083647980416444e+00	 1.807364332667080e+00
 4.247275039274028e-01	 1.087665103565898e+00	 1.799033147767120e+00
 4.145633077981754e-01	 1.091579643485516e+00	 1.816592817803403e+00
 4.043834369299279e-01	 1.095391674617524e+00	 1.859742543818180e+00
 5.091162444937753e-01	 1.060610834445606e+00	 2.216110911579285e+00
 4.990558975878610e-01	 1.065381561910370e+00	 2.045754540090615e+00
 4.889676388875799e-01	 1.070049197715796e+00	 1.921026382851727e+00
 4.788529987762085e-01	 1.074613617145979e+00	 1.837992828890118e+00
 4.687135045107921e-01	 1.079074724724561e+00	 1.792544356150592e+00
 4.585506795500227e-01	 1.083432454007551e+00	 1.780403041388622e+00
 4.483660428917197e-01	 1.087686767358405e+00	 1.797130516046975e+00
 4.381611084204268e-01	 1.091837655705804e+00	 1.838136339924846e+00
 4.279373842656258e-01	 1.095885138284579e+00	 1.898686762872686e+00
 4.176963721710401e-01	 1.099829262360247e+00	 1.973913843339250e+00
 4.074395668754807e-01	 1.103670102937638e+00	 2.058824891364608e+00
 3.768784103107179e-01	 1.020886206763610e+00	 1.898764310825681e+00
 3.673793285980262e-01	 1.024342932873229e+00	 1.866687791022890e+00
 3.578683852392132e-01	 1.027704368830951e+00	 1.868314647316016e+00
 3.483469389886465e-01	 1.030970658465916e+00	 1.898851814583664e+00
 3.388163399692086e-01	 1.034141970034960e+00	 1.952861794191743e+00
 3.292779291590125e-01	 1.037218495887461e+00	 2.024919936998223e+00
 3.197330378908556e-01	 1.040200452118341e+00	 2.109620947981703e+00
 3.101829873646866e-01	 1.043088078209732e+00	 2.201584935411684e+00
 3.006290881733399e-01	 1.045881636661798e+00	 2.295463012721083e+00
 2.910726398417740e-01	 1.048581412613244e+00	 2.385942463050003e+00
 2.815149303800232e-01	 1.051187713452026e+00	 2.467751478092841e+00
 3.799345012860394e-01	 1.029164529528158e+00	 1.743304141011508e+00
 3.703583919246967e-01	 1.032649286082447e+00	 1.695648690551023e+00
 3.607703247316137e-01	 1.036037979781014e+00	 1.690113019274008e+00
 3.511716694792442e-01	 1.039330755619317e+00	 1.721287473609843e+00
 3.415637872385637e-01	 1.042527783218591e+00	 1.782358635167237e+00
 3.319480298616250e-01	 1.045629256487976e+00	 1.866511410520676e+00
 3.223257394769506e-01	 1.048635393274710e+00	 1.966937692073250e+00
 3.126982479980479e-01	 1.051546435002888e+00	 2.076844524260659e+00
 3.030668766452971e-01	 1.054362646301285e+00	 2.189461781197798e+00
 2.934329354814539e-01	 1.057084314620796e+00	 2.298049363853435e+00
 2.837977229609758e-01	 1.059711749841981e+00	 2.395903926673467e+00
 3.829906000554127e-01	 1.037442873404484e+00	 1.623196262110901e+00
 3.733374628490192e-01	 1.040955660474934e+00	 1.569386995027367e+00
 3.636722716250195e-01	 1.044371611983876e+00	 1.562367996787824e+00
 3.539964071739805e-01	 1.047690874093082e+00	 1.596450919105373e+00
 3.443112415149984e-01	 1.050913617788185e+00	 1.664028789917273e+00
 3.346181373740906e-01	 1.054040038538092e+00	 1.757361257028726e+00
 3.249184476755320e-01	 1.057070355942356e+00	 1.868708442631650e+00
 3.152135150464144e-01	 1.060004813367034e+00	 1.990340520965105e+00
 3.055046713346904e-01	 1.062843677569518e+00	 2.114546771342128e+00
 2.957932371409377e-01	 1.065587238312894e+00	 2.233644113743465e+00
 2.860805213640624e-01	 1.068235807970332e+00	 2.339985136154488e+00
 3.860467057528313e-01	 1.045721236046741e+00	 1.539539354325540e+00
 3.763165405267979e-01	 1.049262053696909e+00	 1.487537666011914e+00
 3.665742250970738e-01	 1.052705263078036e+00	 1.483779182208055e+00
 3.568211512723624e-01	 1.056051011518212e+00	 1.522231102572472e+00
 3.470587020199041e-01	 1.059299471367465e+00	 1.595186666885053e+00
 3.372882509397052e-01	 1.062450839654468e+00	 1.694433878971115e+00
 3.275111617518158e-01	 1.065505337731094e+00	 1.811760505238862e+00
 3.177287877969363e-01	 1.068463210905362e+00	 1.938964367489590e+00
 3.079424715506134e-01	 1.071324728063283e+00	 2.067863080085985e+00
 2.981535441512712e-01	 1.074090181280135e+00	 2.190303238783262e+00
 2.883633249422863e-01	 1.076759885421701e+00	 2.298169070613922e+00
 3.891028175122886e-01	 1.053999615109086e+00	 1.493392244386066e+00
 3.792956241138376e-01	 1.057568463394589e+00	 1.449871731613345e+00
 3.694761843254197e-01	 1.061038930701994e+00	 1.453077944068928e+00
 3.596459009738961e-01	 1.064411165525704e+00	 1.496575732927879e+00
 3.498061679746720e-01	 1.067685341580148e+00	 1.573224896807089e+00
 3.399583698017640e-01	 1.070861657453763e+00	 1.674784203658268e+00
 3.301038809710178e-01	 1.073940336250739e+00	 1.793017216894491e+00
 3.202440655367624e-01	 1.076921625221063e+00	 1.919702616012316e+00
 3.103802766021601e-01	 1.079805795379364e+00	 2.046643935517745e+00
 3.005138558435000e-01	 1.082593141113114e+00	 2.165678730545930e+00
 2.906461330486507e-01	 1.085283979780712e+00	 2.268687179730428e+00
 3.921589344677779e-01	 1.062278008245671e+00	 1.485775294925168e+00
 3.822747127659429e-01	 1.065874887214190e+00	 1.456162310857336e+00
 3.723781484877006e-01	 1.069372612494248e+00	 1.468974880284269e+00
 3.624706554780882e-01	 1.072771333746560e+00	 1.517488495961421e+00
 3.525536386006943e-01	 1.076071226049955e+00	 1.595610844383891e+00
 3.426284932035629e-01	 1.079272489552634e+00	 1.695553763224368e+00
 3.326966045983542e-01	 1.082375349111109e+00	 1.809493856110799e+00
 3.227593475530428e-01	 1.085380053917329e+00	 1.929632916690315e+00
 3.128180857984240e-01	 1.088286877114545e+00	 2.048206995495653e+00
 3.028741715486706e-01	 1.091096115402428e+00	 2.157494874351503e+00
 2.929289450361587e-01	 1.093808088631989e+00	 2.249825960983861e+00
 3.952150557532931e-01	 1.070556413110653e+00	 1.517671728413482e+00
 3.852538056389183e-01	 1.074181322801931e+00	 1.506184344558808e+00
 3.752801167615595e-01	 1.077706306093297e+00	 1.530110547296089e+00
 3.652954139844452e-01	 1.081131513811779e+00	 1.583026392640240e+00
 3.553011131193620e-01	 1.084457122400605e+00	 1.659883272372798e+00
 3.452986203883977e-01	 1.087683333567741e+00	 1.753966947755526e+00
 3.352893318990406e-01	 1.090810373922017e+00	 1.858293734744790e+00
 3.252746331329267e-01	 1.093838494597351e+00	 1.965920184222994e+00
 3.152558984484991e-01	 1.096767970865613e+00	 2.069950811277139e+00
 3.052344905978284e-01	 1.099599101738671e+00	 2.163545218561365e+00
 2.952117602578134e-01	 1.102332209560156e+00	 2.239924629448543e+00
 3.982711805028276e-01	 1.078834827358185e+00	 1.590028889171172e+00
 3.882329018885686e-01	 1.082487767804028e+00	 1.599714362477451e+00
 3.781820883246397e-01	 1.086040009137640e+00	 1.635309381044479e+00
 3.681201756924736e-01	 1.089491703352362e+00	 1.691297189883294e+00
 3.580485907520672e-01	 1.092843028255819e+00	 1.763649149925534e+00
 3.479687505995637e-01	 1.096094187115742e+00	 1.847327422292872e+00
 3.378820621382930e-01	 1.099245408293281e+00	 1.936604461815959e+00
 3.277899215635637e-01	 1.102296944864320e+00	 2.025812933620183e+00
 3.176937138614790e-01	 1.105249074229350e+00	 2.109351447309510e+00
 3.075948123220192e-01	 1.108102097712440e+00	 2.181689677361212e+00
 2.974945780666181e-01	 1.110856340149837e+00	 2.237372889405934e+00
 4.013273078503746e-01	 1.087113248642424e+00	 1.703759446754654e+00
 3.912120006706981e-01	 1.090794219866700e+00	 1.736530259937351e+00
 3.810840623545846e-01	 1.094373719265776e+00	 1.783437578602772e+00
 3.709449398016797e-01	 1.097851899999308e+00	 1.840453542927106e+00
 3.607960707202014e-01	 1.101228941239315e+00	 1.904580597490465e+00
 3.506388830803571e-01	 1.104505047813296e+00	 1.973014698984760e+00
 3.404747945813272e-01	 1.107680449834715e+00	 2.041694370151695e+00
 3.303052121321033e-01	 1.110755402321427e+00	 2.106639776164543e+00
 3.201315313464578e-01	 1.113730184802543e+00	 2.163833336235701e+00
 3.099551360522893e-01	 1.116605100914329e+00	 2.209333524032532e+00
 2.997773978155759e-01	 1.119380477985654e+00	 2.239522346311904e+00
 4.043834369299279e-01	 1.095391674617524e+00	 1.859742543818180e+00
 3.941911011411117e-01	 1.099100676636162e+00	 1.916411083411509e+00
 3.839860380290372e-01	 1.102707434116205e+00	 1.973390449495163e+00
 3.737697055115706e-01	 1.106212101383617e+00	 2.028580727633194e+00
 3.635435522451559e-01	 1.109614858974815e+00	 2.080411961063795e+00
 3.533090170740730e-01	 1.112915913277060e+00	 2.128411687242038e+00
 3.430675284933590e-01	 1.116115496156136e+00	 2.170395356416250e+00
 3.328205041256952e-01	 1.119213864571864e+00	 2.204514019143779e+00
 3.225693502125287e-01	 1.122211300181975e+00	 2.229092542618097e+00
 3.123154611196843e-01	 1.125108108934936e+00	 2.242575074351559e+00
 3.020602188576900e-01	 1.127904620652233e+00	 2.243518540720705e+00
 4.074395668754807e-01	 1.103670102937638e+00	 2.058824891364608e+00
 3.971702024556140e-01	 1.107407135758633e+00	 2.139136824602097e+00
 3.868880145256408e-01	 1.111041151327425e+00	 2.204091161536849e+00
 3.765944720216519e-01	 1.114572305136289e+00	 2.253619514475857e+00
 3.662910345483225e-01	 1.118000779086037e+00	 2.287901032794141e+00
 3.559791518240072e-01	 1.121326781123692e+00	 2.309012149293356e+00
 3.456602631396047e-01	 1.124550544867359e+00	 2.317908591819500e+00
 3.353357968314888e-01	 1.127672329218821e+00	 2.315297177089893e+00
 3.250071697687858e-01	 1.130692417964432e+00	 2.302037044904044e+00
 3.146757868552502e-01	 1.133611119364855e+00	 2.279129047671335e+00
 3.043430405459638e-01	 1.136428765734195e+00	 2.247705350081417e+00
 2.815149303800232e-01	 1.051187713452026e+00	 2.467751478092841e+00
 2.719572359804875e-01	 1.053700868645081e+00	 2.534241952789441e+00
 2.624008209779921e-01	 1.056121230013807e+00	 2.583762521975929e+00
 2.528469370324877e-01	 1.058449170629273e+00	 2.618609586410552e+00
 2.432968226052729e-01	 1.060685084158954e+00	 2.641128844394509e+00
 2.337517025831925e-01	 1.062829384435084e+00	 2.653710446867906e+00
 2.242127879174382e-01	 1.064882505016369e+00	 2.658783978696109e+00
 2.146812752770187e-01	 1.066844898743585e+00	 2.658813292888460e+00
 2.051583467169507e-01	 1.068717037289555e+00	 2.656291224493661e+00
 1.956451693612018e-01	 1.070499410704053e+00	 2.653734210776117e+00
 1.861428951003990e-01	 1.072192526954103e+00	 2.653676844001420e+00
 2.837977229609758e-01	 1.059711749841981e+00	 2.395903926673467e+00
 2.741625256248551e-01	 1.062245284103420e+00	 2.476289826384716e+00
 2.645286180603517e-01	 1.064685272079408e+00	 2.538381962684919e+00
 2.548972620770692e-01	 1.067032089866219e+00	 2.584427997858616e+00
 2.452697061789318e-01	 1.069286134323551e+00	 2.616743270222746e+00
 2.356471851853356e-01	 1.071447822639375e+00	 2.637705498635653e+00
 2.260309198670197e-01	 1.073517591888097e+00	 2.649749288336698e+00
 2.164221165967268e-01	 1.075495898582547e+00	 2.655360466940389e+00
 2.068219670147032e-01	 1.077383218220314e+00	 2.657070279418784e+00
 1.972316477090714e-01	 1.079180044824955e+00	 2.657449470764777e+00
 1.876523199110862e-01	 1.080886890482565e+00	 2.659102284743186e+00
 2.860805213640624e-01	 1.068235807970332e+00	 2.339985136154488e+00
 2.763678208936756e-01	 1.070789721352055e+00	 2.427484253937914e+00
 2.666564205694990e-01	 1.073249335985267e+00	 2.496525908193887e+00
 2.569475923508175e-01	 1.075615030991461e+00	 2.549264127960009e+00
 2.472425947842089e-01	 1.077887206422568e+00	 2.587935392004526e+00
 2.375426726216478e-01	 1.080066282822310e+00	 2.614853009737490e+00
 2.278490564534482e-01	 1.082152700780805e+00	 2.632401279917256e+00
 2.181629623561134e-01	 1.084146920482950e+00	 2.643029457868335e+00
 2.084855915551461e-01	 1.086049421251115e+00	 2.649245561947233e+00
 1.988181301028497e-01	 1.087860701082651e+00	 2.653610049854173e+00
 1.891617485711329e-01	 1.089581276182744e+00	 2.658729395096788e+00
 2.883633249422863e-01	 1.076759885421701e+00	 2.298169070613922e+00
 2.785731211619116e-01	 1.079334177969854e+00	 2.386622494871621e+00
 2.687842279023556e-01	 1.081813419304712e+00	 2.457509442148197e+00
 2.589979272726093e-01	 1.084197991573000e+00	 2.512846918706072e+00
 2.492154878619283e-01	 1.086488298018892e+00	 2.554745609349473e+00
 2.394381643548905e-01	 1.088684762541873e+00	 2.585404059496478e+00
 2.296671971614083e-01	 1.090787829247780e+00	 2.607102612804157e+00
 2.199038120617701e-01	 1.092797961993595e+00	 2.622197136769378e+00
 2.101492198667583e-01	 1.094715643926478e+00	 2.633112568762986e+00
 2.004046160928801e-01	 1.096541377017587e+00	 2.642336314821760e+00
 1.906711806527213e-01	 1.098275681591209e+00	 2.652411533228515e+00
 2.906461330486507e-01	 1.085283979780712e+00	 2.268687179730428e+00
 2.807784258045261e-01	 1.087878651535683e+00	 2.352540406127458e+00
 2.709120394558433e-01	 1.090377519611071e+00	 2.420670578251267e+00
 2.610482662613208e-01	 1.092780969178836e+00	 2.474915751114657e+00
 2.511883848529139e-01	 1.095089406675410e+00	 2.517215400550445e+00
 2.413336598478245e-01	 1.097303259356043e+00	 2.549604529024397e+00
 2.314853414755851e-01	 1.099422974842311e+00	 2.574207506020417e+00
 2.216446652202888e-01	 1.101449020663285e+00	 2.593231676946654e+00
 2.118128514780187e-01	 1.103381883790922e+00	 2.608960774563465e+00
 2.019911052295061e-01	 1.105222070170204e+00	 2.623748166810183e+00
 1.921806157280338e-01	 1.106970104244528e+00	 2.640009974614427e+00
 2.929289450361587e-01	 1.093808088631989e+00	 2.249825960983861e+00
 2.829837341964819e-01	 1.096423139628413e+00	 2.324110771085802e+00
 2.730398546268836e-01	 1.098941634477672e+00	 2.385369227863576e+00
 2.630986087358285e-01	 1.101363961376972e+00	 2.435219925251608e+00
 2.531612851979899e-01	 1.103690529955006e+00	 2.475387190621409e+00
 2.432291585632114e-01	 1.105921770822807e+00	 2.507695234785552e+00
 2.333034888806631e-01	 1.108058135117686e+00	 2.534062016823628e+00
 2.233855213382613e-01	 1.110100094040817e+00	 2.556492859028414e+00
 2.134764859174065e-01	 1.112048138388968e+00	 2.577071969693680e+00
 2.035775970630714e-01	 1.113902778080947e+00	 2.597960940323221e+00
 1.936900533692525e-01	 1.115664541679271e+00	 2.621414790318056e+00
 2.952117602578134e-01	 1.102332209560156e+00	 2.239924629448543e+00
 2.851890457127416e-01	 1.104967639826909e+00	 2.300241701061371e+00
 2.751676728123982e-01	 1.107505761477841e+00	 2.350986211063438e+00
 2.651489541150092e-01	 1.109946965735407e+00	 2.393518160420540e+00
 2.551341883379802e-01	 1.112291665420569e+00	 2.429291529768804e+00
 2.451246599638122e-01	 1.114540294500143e+00	 2.459824772466419e+00
 2.351216388613272e-01	 1.116693307627193e+00	 2.486824627234852e+00
 2.251263799222792e-01	 1.118751179674995e+00	 2.512092328297141e+00
 2.151401227134003e-01	 1.120714405265136e+00	 2.537501940723415e+00
 2.051640911439192e-01	 1.122583498290258e+00	 2.564993121383385e+00
 1.951994931485598e-01	 1.124358991432006e+00	 2.596564066141519e+00
 2.974945780666181e-01	 1.110856340149837e+00	 2.237372889405934e+00
 2.873943597282683e-01	 1.113512149710043e+00	 2.279793709613675e+00
 2.772954934093091e-01	 1.116069898184907e+00	 2.316612170163471e+00
 2.671993018177392e-01	 1.118529979822142e+00	 2.348969366286658e+00
 2.571070937137090e-01	 1.120892810634984e+00	 2.378105449079947e+00
 2.470201635123880e-01	 1.123158827946038e+00	 2.405351120486667e+00
 2.369397909022623e-01	 1.125328489924120e+00	 2.432120266850991e+00
 2.268672404789342e-01	 1.127402275114618e+00	 2.459902776034593e+00
 2.168037613944795e-01	 1.129380681963944e+00	 2.490257540700257e+00
 2.067505870223931e-01	 1.131264228338580e+00	 2.524805649351783e+00
 1.967089346381378e-01	 1.133053451039304e+00	 2.565223765795460e+00
 2.997773978155759e-01	 1.119380477985654e+00	 2.239522346311904e+00
 2.895996756180249e-01	 1.122056666856680e+00	 2.260247444118738e+00
 2.794233158145376e-01	 1.124634042172197e+00	 2.280214067696231e+00
 2.692496512628950e-01	 1.127113001205179e+00	 2.300234876412724e+00
 2.590800007660003e-01	 1.129493963161138e+00	 2.321211608185698e+00
 2.489156686717003e-01	 1.131777368718472e+00	 2.344128070313248e+00
 2.387579444881531e-01	 1.133963679561754e+00	 2.370043319239782e+00
 2.286081025148181e-01	 1.136053377908490e+00	 2.400085031517693e+00
 2.184674014891227e-01	 1.138046966029914e+00	 2.435443067113443e+00
 2.083370842488365e-01	 1.139944965766357e+00	 2.477363225190492e+00
 1.982183774101689e-01	 1.141747918037733e+00	 2.527141191582787e+00
 3.020602188576900e-01	 1.127904620652233e+00	 2.243518540720705e+00
 2.918049927569739e-01	 1.130601188845688e+00	 2.239904693865277e+00
 2.815511394250055e-01	 1.133198191013039e+00	 2.240880522780912e+00
 2.713000018693529e-01	 1.135696027452518e+00	 2.246892916960093e+00
 2.610529089356780e-01	 1.138095120561916e+00	 2.258465348141925e+00
 2.508111749045100e-01	 1.140395914375427e+00	 2.276191524573954e+00
 2.405760991036842e-01	 1.142598874093383e+00	 2.300729245435140e+00
 2.303489655365227e-01	 1.144704485605409e+00	 2.332794455967114e+00
 2.201310425258092e-01	 1.146713255007565e+00	 2.373155502741836e+00
 2.099235823735930e-01	 1.148625708114031e+00	 2.422627587479430e+00
 1.997278210368353e-01	 1.150442389963861e+00	 2.482067416920132e+00
 3.043430405459638e-01	 1.136428765734195e+00	 2.247705350081417e+00
 2.940103105200784e-01	 1.139145713255937e+00	 2.217611857972199e+00
 2.836789636376346e-01	 1.141762342280760e+00	 2.197876113416159e+00
 2.733503530559896e-01	 1.144279056132160e+00	 2.188544016826023e+00
 2.630258176635664e-01	 1.146696280400205e+00	 2.189722115489078e+00
 2.527066816735784e-01	 1.149014462474888e+00	 2.201572046238920e+00
 2.423942542335408e-01	 1.151234071072297e+00	 2.224305191662539e+00
 2.320898290506398e-01	 1.153355595754177e+00	 2.258177548409789e+00
 2.217946840330177e-01	 1.155379546441417e+00	 2.303484805049164e+00
 2.115100809470059e-01	 1.157306452922045e+00	 2.360557625903978e+00
 2.012372650903192e-01	 1.159136864354258e+00	 2.429757136405603e+00
 1.861428951003990e-01	 1.072192526954103e+00	 2.653676844001420e+00
 1.766510483720675e-01	 1.073797176574809e+00	 2.656273226507490e+00
 1.671723688340672e-01	 1.075313606165639e+00	 2.659836805497060e+00
 1.577079640083019e-01	 1.076742374151761e+00	 2.664140888579331e+00
 1.482589250583532e-01	 1.078084055023988e+00	 2.668941737680271e+00
 1.388263265602436e-01	 1.079339238862790e+00	 2.673976706754722e+00
 1.294112262877410e-01	 1.080508530860630e+00	 2.678962392766618e+00
 1.200146650121030e-01	 1.081592550843088e+00	 2.683592817688033e+00
 1.106376663161413e-01	 1.082591932789227e+00	 2.687537658390891e+00
 1.012812364224704e-01	 1.083507324351631e+00	 2.690440540365295e+00
 9.194636403579609e-02	 1.084339386376554e+00	 2.691917410203521e+00
 1.876523199110862e-01	 1.080886890482565e+00	 2.659102284743186e+00
 1.780835042019536e-01	 1.082504552138659e+00	 2.661543788258292e+00
 1.685279624553002e-01	 1.084033278392373e+00	 2.662800603805527e+00
 1.589868111738754e-01	 1.085473632197129e+00	 2.663245487255399e+00
 1.494611503694588e-01	 1.086826192702271e+00	 2.663219972287292e+00
 1.399520633317619e-01	 1.088091554773214e+00	 2.663031912577440e+00
 1.304606164119931e-01	 1.089270328509909e+00	 2.662953066830288e+00
 1.209878588209785e-01	 1.090363138764082e+00	 2.663216745278294e+00
 1.115348224417171e-01	 1.091370624655714e+00	 2.664015535303970e+00
 1.021025216562383e-01	 1.092293439089185e+00	 2.665499122802324e+00
 9.269195318661062e-02	 1.093132248269526e+00	 2.667772224810450e+00
 1.891617485711329e-01	 1.089581276182744e+00	 2.658729395096787e+00
 1.795159636848741e-01	 1.091211949907333e+00	 2.663165796918929e+00
 1.698835595335222e-01	 1.092752972855232e+00	 2.664305719862215e+00
 1.602656616006947e-01	 1.094204912508127e+00	 2.662996836073888e+00
 1.506633787463893e-01	 1.095568352673903e+00	 2.660045619136175e+00
 1.410778029740277e-01	 1.096843893002933e+00	 2.656214339130817e+00
 1.315100092122801e-01	 1.098032148502666e+00	 2.652218123596680e+00
 1.219610551115605e-01	 1.099133749050992e+00	 2.648722104015126e+00
 1.124319808550757e-01	 1.100149338908817e+00	 2.646338666399001e+00
 1.029238089842894e-01	 1.101079576232330e+00	 2.645624823435846e+00
 9.343754423865198e-02	 1.101925132585359e+00	 2.647079724453539e+00
 1.906711806527213e-01	 1.098275681591209e+00	 2.652411533228515e+00
 1.809484264148250e-01	 1.099919367413728e+00	 2.660713227896861e+00
 1.712391596845128e-01	 1.101472687083637e+00	 2.663714640773548e+00
 1.615445149262892e-01	 1.102936212610899e+00	 2.662616673856942e+00
 1.518656098483897e-01	 1.104310532461951e+00	 2.658573185132202e+00
 1.422035451679654e-01	 1.105596251072132e+00	 2.652687483817727e+00
 1.325594043911660e-01	 1.106793988356403e+00	 2.646008908113793e+00
 1.229342536080124e-01	 1.107904379218823e+00	 2.639529506233249e+00
 1.133291413019373e-01	 1.108928073061243e+00	 2.634180840354348e+00
 1.037450981738560e-01	 1.109865733291667e+00	 2.630830931926983e+00
 9.418313698061839e-02	 1.110718036832734e+00	 2.630281365495724e+00
 1.921806157280338e-01	 1.106970104244528e+00	 2.640009974614427e+00
 1.823808919858028e-01	 1.108626802190737e+00	 2.653776690843765e+00
 1.725947625240515e-01	 1.110192418607010e+00	 2.660413022353980e+00
 1.628233707881890e-01	 1.111667530031593e+00	 2.661355902109206e+00
 1.530678433347056e-01	 1.113052729589483e+00	 2.658011790982629e+00
 1.433292895944988e-01	 1.114348626500999e+00	 2.651725126090787e+00
 1.336088016512149e-01	 1.115555845588621e+00	 2.643774799030522e+00
 1.239074540344977e-01	 1.116675026782587e+00	 2.635374614761263e+00
 1.142263035280217e-01	 1.117706824625701e+00	 2.627670489658341e+00
 1.045663889921703e-01	 1.118651907777798e+00	 2.621737856010441e+00
 9.492873120120811e-02	 1.119510958520333e+00	 2.618579265867508e+00
 1.936900533692525e-01	 1.115664541679271e+00	 2.621414790318056e+00
 1.838133599918037e-01	 1.117334251771257e+00	 2.642060032545732e+00
 1.739503676679177e-01	 1.118912164954772e+00	 2.654047768856665e+00
 1.641022288239238e-01	 1.120398862296354e+00	 2.658938230900161e+00
 1.542700788645824e-01	 1.121794941579569e+00	 2.658237663417626e+00
 1.444550359345522e-01	 1.123101016809721e+00	 2.653394692231892e+00
 1.346582006949907e-01	 1.124317717716819e+00	 2.645796925218593e+00
 1.248806561151796e-01	 1.125445689257293e+00	 2.636767779371796e+00
 1.151234672790491e-01	 1.126485591114903e+00	 2.627563526810601e+00
 1.053876812064646e-01	 1.127438097201324e+00	 2.619370552377931e+00
 9.567432668911931e-02	 1.128303895156839e+00	 2.613302815353674e+00
 1.951994931485598e-01	 1.124358991432006e+00	 2.596564066141519e+00
 1.852458300268238e-01	 1.126041713688183e+00	 2.625390734129088e+00
 1.753059747318907e-01	 1.127631923656345e+00	 2.644334290647006e+00
 1.653810886710233e-01	 1.129130206931330e+00	 2.654943805575210e+00
 1.554723160972654e-01	 1.130537165955279e+00	 2.658719609783195e+00
 1.455807838690497e-01	 1.131853419518487e+00	 2.657109554639175e+00
 1.357076012250577e-01	 1.133079602258502e+00	 2.651505504633590e+00
 1.258538595742214e-01	 1.134216364157949e+00	 2.643240055879152e+00
 1.160206323007395e-01	 1.135264370041556e+00	 2.633583472996242e+00
 1.062089745839710e-01	 1.136224299072846e+00	 2.623740836712725e+00
 9.641992323305024e-02	 1.137096844250934e+00	 2.614849394395855e+00
 1.967089346381378e-01	 1.133053451039304e+00	 2.565223765795460e+00
 1.866783016848593e-01	 1.134749185474410e+00	 2.603294532306411e+00
 1.766615833317499e-01	 1.136351692241150e+00	 2.630610310381515e+00
 1.666599499670176e-01	 1.137861561462664e+00	 2.648595167233698e+00
 1.566745546920000e-01	 1.139279400239678e+00	 2.658633475304157e+00
 1.467065330789153e-01	 1.140605832147483e+00	 2.662066124342079e+00
 1.367570029439800e-01	 1.141841496731169e+00	 2.660186960594816e+00
 1.268270641357866e-01	 1.142987048999564e+00	 2.654239445570132e+00
 1.169177983388128e-01	 1.144043158918370e+00	 2.645413526600979e+00
 1.070302688919220e-01	 1.145010510902963e+00	 2.634842711288004e+00
 9.716552062169906e-02	 1.145889803311299e+00	 2.623601337810394e+00
 1.982183774101689e-01	 1.141747918037733e+00	 2.527141191582787e+00
 1.881107745599065e-01	 1.143456664662833e+00	 2.575291358141279e+00
 1.780171930832751e-01	 1.145071468238607e+00	 2.612226888711758e+00
 1.679388123494363e-01	 1.146592923416506e+00	 2.639135311647255e+00
 1.578767943080316e-01	 1.148021641955837e+00	 2.657177238142383e+00
 1.478322832450733e-01	 1.149358252216897e+00	 2.667482587620492e+00
 1.378064055543216e-01	 1.150603398652322e+00	 2.671147028162816e+00
 1.278002695240385e-01	 1.151757741297148e+00	 2.669228624188154e+00
 1.178149651389892e-01	 1.152821955258056e+00	 2.662744683392092e+00
 1.078515638975497e-01	 1.153796730202278e+00	 2.652668794833265e+00
 9.791111864376409e-02	 1.154682769846619e+00	 2.639928050005378e+00
 1.997278210368353e-01	 1.150442389963861e+00	 2.482067416920132e+00
 1.895432482459616e-01	 1.152164148786348e+00	 2.540911975326968e+00
 1.793728036022452e-01	 1.153791249178140e+00	 2.588551235566549e+00
 1.692176754558092e-01	 1.155324290318999e+00	 2.625826882915848e+00
 1.590790346046055e-01	 1.156763888626824e+00	 2.653570135287691e+00
 1.489580340484477e-01	 1.158110677246916e+00	 2.672598042373836e+00
 1.388558087586465e-01	 1.159365305539463e+00	 2.683709981766657e+00
 1.287734754631403e-01	 1.160528438565709e+00	 2.687684344060159e+00
 1.187121324469886e-01	 1.161600756573321e+00	 2.685275398772493e+00
 1.086728593680864e-01	 1.162582954481391e+00	 2.677210332853717e+00
 9.865671708794346e-02	 1.163475741365573e+00	 2.664186453538233e+00
 2.012372650903192e-01	 1.159136864354258e+00	 2.429757136405603e+00
 1.909757223370208e-01	 1.160871635377850e+00	 2.499697556240916e+00
 1.807284145044399e-01	 1.162511032589169e+00	 2.558966079255501e+00
 1.704965389236662e-01	 1.164055659696293e+00	 2.607951405316362e+00
 1.602812752409672e-01	 1.165506137775708e+00	 2.647051829410733e+00
 1.500837851699626e-01	 1.166863104757728e+00	 2.676671674730098e+00
 1.399052122595189e-01	 1.168127214910092e+00	 2.697217898742206e+00
 1.297466816772556e-01	 1.169299138320258e+00	 2.709096864086887e+00
 1.196093000085310e-01	 1.170379560376875e+00	 2.712711266023452e+00
 1.094941550707644e-01	 1.171369181250904e+00	 2.708457208131133e+00
 9.940231574293544e-02	 1.172268715376846e+00	 2.696721418013245e+00
 9.194636403579609e-02	 1.084339386376554e+00	 2.691917410203521e+00
 8.263559750400498e-02	 1.085088671992387e+00	 2.689438836109387e+00
 7.334828292024807e-02	 1.085756014974210e+00	 2.683480585613740e+00
 6.408533397596120e-02	 1.086342112304158e+00	 2.678155528393540e+00
 5.484764694112109e-02	 1.086847672230783e+00	 2.677585142192153e+00
 4.563610057124283e-02	 1.087273413802824e+00	 2.685891923878883e+00
 3.645155602683708e-02	 1.087620066405180e+00	 2.707192063942979e+00
 2.729485680511988e-02	 1.087888369297435e+00	 2.745588397522017e+00
 1.816682868375999e-02	 1.088079071155274e+00	 2.805163643530443e+00
 9.068279676440062e-03	 1.088192929615108e+00	 2.889973941933974e+00
 0.000000000000000e+00	 1.088230710822225e+00	 3.004042697730974e+00
 9.269195318661062e-02	 1.093132248269526e+00	 2.667772224810450e+00
 8.330568604516947e-02	 1.093887609810434e+00	 2.669908777352255e+00
 7.394306102259096e-02	 1.094560364248029e+00	 2.672128760296632e+00
 6.460499921942929e-02	 1.095151214216240e+00	 2.676254903430479e+00
 5.529240417350925e-02	 1.095660873706773e+00	 2.684152138044988e+00
 4.600616176616953e-02	 1.096090067599097e+00	 2.697721779950644e+00
 3.674714014106687e-02	 1.096439531192658e+00	 2.718895891505663e+00
 2.751618963533194e-02	 1.096710009741660e+00	 2.749631836139699e+00
 1.831414272286069e-02	 1.096902257992762e+00	 2.791907037423483e+00
 9.141813969515078e-03	 1.097017039726013e+00	 2.847713953312732e+00
 0.000000000000000e+00	 1.097055127299335e+00	 2.919055274817696e+00
 9.343754423865198e-02	 1.101925132585359e+00	 2.647079724453539e+00
 8.397577629499998e-02	 1.102686570066909e+00	 2.651506553637110e+00
 7.453784064152362e-02	 1.103364735974160e+00	 2.659343884956579e+00
 6.512466578791765e-02	 1.103960338592843e+00	 2.670549953733036e+00
 5.573716253987668e-02	 1.104474097657828e+00	 2.685149066768767e+00
 4.637622390458444e-02	 1.104906743879326e+00	 2.703227293063189e+00
 3.704272500886458e-02	 1.105259018471340e+00	 2.724928268036988e+00
 2.773752302978304e-02	 1.105531672682705e+00	 2.750449124983058e+00
 1.846145713748307e-02	 1.105725467331067e+00	 2.780036566105403e+00
 9.215348450025656e-03	 1.105841172340124e+00	 2.813983084154482e+00
 0.000000000000000e+00	 1.105879566280446e+00	 2.852623344371882e+00
 9.418313698061839e-02	 1.110718036832734e+00	 2.630281365495724e+00
 8.464586806360859e-02	 1.111485550268766e+00	 2.635096884342664e+00
 7.513262160851970e-02	 1.112169127658013e+00	 2.646313687710848e+00
 6.564433353420512e-02	 1.112769482938021e+00	 2.662438721377874e+00
 5.618192191424692e-02	 1.113287341586829e+00	 2.682057545414805e+00
 4.674628688169116e-02	 1.113723440145404e+00	 2.703833429530734e+00
 3.733831054654548e-02	 1.114078525742313e+00	 2.726504785311469e+00
 2.795885692582769e-02	 1.114353355621034e+00	 2.748882581422815e+00
 1.860877188594467e-02	 1.114548696670210e+00	 2.769847742222098e+00
 9.288883097172389e-03	 1.114665324957197e+00	 2.788348530510664e+00
 0.000000000000000e+00	 1.114704025265223e+00	 2.803397915512561e+00
 9.492873120120811e-02	 1.119510958520333e+00	 2.618579265867508e+00
 8.531596116110735e-02	 1.120284547922956e+00	 2.622443382801120e+00
 7.572740375505296e-02	 1.120973536804998e+00	 2.635207350656086e+00
 6.616400231107059e-02	 1.121578644755825e+00	 2.654326913183013e+00
 5.662668217064351e-02	 1.122100602996660e+00	 2.677344382743204e+00
 4.711635059269338e-02	 1.122540153899225e+00	 2.701887254428561e+00
 3.763389667042485e-02	 1.122898050506667e+00	 2.725666763398683e+00
 2.818019126082040e-02	 1.123175056057113e+00	 2.746476384708667e+00
 1.875608692656302e-02	 1.123371943510211e+00	 2.762190275300779e+00
 9.362417890155872e-03	 1.123489495076986e+00	 2.770761658237362e+00
 0.000000000000000e+00	 1.123528501753334e+00	 2.770221149732469e+00
 9.567432668911931e-02	 1.128303895156839e+00	 2.613302815353674e+00
 8.598605539760837e-02	 1.129083560536432e+00	 2.615143760277292e+00
 7.632218691259701e-02	 1.129777960920525e+00	 2.627795669441146e+00
 6.668367197129288e-02	 1.130387821550310e+00	 2.648060432587228e+00
 5.707144318308994e-02	 1.130913879390200e+00	 2.672823679384878e+00
 4.748641493279472e-02	 1.131356882642683e+00	 2.699054315792931e+00
 3.792948329681797e-02	 1.131717590265490e+00	 2.723803981667483e+00
 2.840152597211570e-02	 1.131996771491404e+00	 2.744206427825498e+00
 1.890340221765566e-02	 1.132195205351089e+00	 2.757476811266389e+00
 9.435952808176700e-03	 1.132313680199245e+00	 2.760910907749747e+00
 0.000000000000000e+00	 1.132352993244445e+00	 2.751884241513036e+00
 9.641992323305024e-02	 1.137096844250934e+00	 2.614849394395855e+00
 8.665615058322375e-02	 1.137882585616146e+00	 2.613987396280497e+00
 7.691697091262550e-02	 1.138582397510003e+00	 2.625161238070711e+00
 6.720334236765091e-02	 1.139197010825530e+00	 2.644905904103005e+00
 5.751620482560978e-02	 1.139727168270332e+00	 2.669828311975107e+00
 4.785647979719885e-02	 1.140173623877673e+00	 2.696607531923368e+00
 3.822507034204013e-02	 1.140537142519870e+00	 2.721994922864849e+00
 2.862286099706809e-02	 1.140818499424373e+00	 2.742814182075811e+00
 1.905071771754012e-02	 1.141018479692866e+00	 2.755961306038666e+00
 9.509487830435464e-03	 1.141137877823731e+00	 2.758404460554658e+00
 0.000000000000000e+00	 1.141177497238223e+00	 2.747183758888820e+00
 9.716552062169906e-02	 1.145889803311299e+00	 2.623601337810394e+00
 8.732624652806553e-02	 1.146681620669051e+00	 2.619738461434437e+00
 7.751175558661223e-02	 1.147386844078842e+00	 2.628352703682010e+00
 6.772301335292351e-02	 1.148006210085537e+00	 2.646090604466694e+00
 5.796096697222652e-02	 1.148540467139938e+00	 2.669650006543157e+00
 4.822654508110944e-02	 1.148990375106087e+00	 2.695780721803687e+00
 3.852065772240658e-02	 1.149356704770896e+00	 2.721285126830684e+00
 2.884419627303208e-02	 1.149640237356485e+00	 2.743018683264262e+00
 1.919803338453394e-02	 1.149841764035561e+00	 2.757890379149402e+00
 9.583022936132756e-03	 1.149962085450197e+00	 2.762863088039350e+00
 0.000000000000000e+00	 1.150002011234334e+00	 2.754953843363178e+00
 9.791111864376409e-02	 1.154682769846619e+00	 2.639928050005378e+00
 8.799634304224582e-02	 1.155480663202100e+00	 2.633136839111978e+00
 7.810654076603075e-02	 1.156191298132453e+00	 2.638386024133335e+00
 6.824268477988950e-02	 1.156815416834384e+00	 2.652803929600130e+00
 5.840572949696372e-02	 1.157353773501898e+00	 2.673540878244887e+00
 4.859661067973010e-02	 1.157807133829818e+00	 2.697770071170695e+00
 3.881624535423264e-02	 1.158176274519656e+00	 2.722688426826804e+00
 2.906553173736219e-02	 1.158461982788204e+00	 2.745517372765118e+00
 1.934534917695466e-02	 1.158665055879196e+00	 2.763503584778293e+00
 9.656558104469172e-03	 1.158786300578399e+00	 2.773919668657766e+00
 0.000000000000000e+00	 1.158826532732445e+00	 2.774064780581619e+00
 9.865671708794346e-02	 1.163475741365573e+00	 2.664186453538233e+00
 8.866643993587668e-02	 1.164279710722243e+00	 2.654899005710786e+00
 7.870132628235482e-02	 1.164995757176243e+00	 2.656245668914027e+00
 6.876235650132782e-02	 1.165624628576125e+00	 2.666198795325800e+00
 5.885049227384490e-02	 1.166167084859096e+00	 2.682714901485394e+00
 4.896667648826453e-02	 1.166623897550763e+00	 2.703735532257868e+00
 3.911183315383355e-02	 1.166995849267240e+00	 2.727188129909708e+00
 2.928686732741294e-02	 1.167283733219994e+00	 2.750986900512806e+00
 1.949266505311982e-02	 1.167488352723791e+00	 2.773033670519340e+00
 9.730093314645305e-03	 1.167610520708092e+00	 2.791218726991410e+00
 0.000000000000000e+00	 1.167651059232224e+00	 2.803421635760023e+00
 9.940231574293544e-02	 1.172268715376846e+00	 2.696721418013245e+00
 8.933653701907020e-02	 1.173078760736435e+00	 2.685718871740050e+00
 7.929611196705814e-02	 1.173800218715625e+00	 2.682885766349601e+00
 6.928202837001728e-02	 1.174433842814812e+00	 2.687392975311289e+00
 5.929525517689356e-02	 1.174980398714412e+00	 2.698349314083816e+00
 4.933674240191636e-02	 1.175440663770815e+00	 2.714802160693797e+00
 3.940742103752461e-02	 1.175815426514736e+00	 2.735738144282968e+00
 2.950820298053884e-02	 1.176105486152319e+00	 2.760083891913323e+00
 1.963998097134695e-02	 1.176311652069365e+00	 2.786706824521523e+00
 9.803628545861746e-03	 1.176434743339030e+00	 2.814415993537373e+00
 0.000000000000000e+00	 1.176475588233336e+00	 2.841962950470548e+00
 1.176475588233336e+00	 0.000000000000000e+00	 8.670379720945583e+00
 1.176434743339030e+00	 9.803628545861098e-03	 7.755816763030848e+00
 1.176311652069365e+00	 1.963998097134639e-02	 6.927271984120459e+00
 1.176105486152319e+00	 2.950820298053838e-02	 6.184611400098073e+00
 1.175815426514735e+00	 3.940742103752425e-02	 5.527617936823466e+00
 1.175440663770814e+00	 4.933674240191608e-02	 4.955990302709928e+00
 1.174980398714412e+00	 5.929525517689338e-02	 4.469341844297350e+00
 1.174433842814813e+00	 6.928202837001721e-02	 4.067199395875910e+00
 1.173800218715625e+00	 7.929611196705813e-02	 3.749002131899715e+00
 1.173078760736435e+00	 8.933653701907034e-02	 3.514100431755466e+00
 1.172268715376846e+00	 9.940231574293547e-02	 3.361754767265346e+00
 1.185298617647136e+00	 0.000000000000000e+00	 8.211953107419607e+00
 1.185257466434718e+00	 9.877151281161975e-03	 7.336993975587231e+00
 1.185133452036587e+00	 1.978727185593458e-02	 6.558300843655521e+00
 1.184925739969079e+00	 2.972950102159615e-02	 5.873195202028365e+00
 1.184633505016388e+00	 3.970295869113886e-02	 5.278688331742816e+00
 1.184255931722710e+00	 4.970674542905543e-02	 4.771477883538597e+00
 1.183792214888245e+00	 5.973994249974178e-02	 4.347944666088435e+00
 1.183241560068681e+00	 6.980161192876748e-02	 4.004149664628514e+00
 1.182603184077831e+00	 7.989079657725708e-02	 3.735831308715793e+00
 1.181876315493052e+00	 9.000652022961739e-02	 3.538403008562353e+00
 1.181060195163063e+00	 1.001477876948355e-01	 3.406950980085056e+00
 1.194121647061736e+00	 0.000000000000000e+00	 7.710440809838747e+00
 1.194080189531207e+00	 9.950674016655510e-03	 6.916258288779326e+00
 1.193955252004609e+00	 1.993456274082628e-02	 6.217286513829142e+00
 1.193745993786640e+00	 2.995079906299752e-02	 5.609293552497835e+00
 1.193451583518840e+00	 3.999849634507768e-02	 5.087573884149541e+00
 1.193071199675406e+00	 5.007674845645151e-02	 4.646942938208880e+00
 1.192604031062879e+00	 6.018462982274300e-02	 4.281731994189768e+00
 1.192049277323350e+00	 7.032119548754176e-02	 3.985783472595708e+00
 1.191406149440836e+00	 8.048548118733836e-02	 3.752446643089531e+00
 1.190673870250469e+00	 9.067650343990434e-02	 3.574573777018481e+00
 1.189851674950080e+00	 1.008932596463443e-01	 3.444516772019336e+00
 1.202944676476936e+00	 0.000000000000000e+00	 7.174024575653108e+00
 1.202902912628295e+00	 1.002419675229353e-02	 6.494807642667988e+00
 1.202777051973230e+00	 2.008185362594559e-02	 5.899789153346225e+00
 1.202566247604800e+00	 3.017209710465659e-02	 5.384154941018058e+00
 1.202269662021893e+00	 4.029403399925969e-02	 4.942516620205496e+00
 1.201886467628702e+00	 5.044675148404016e-02	 4.568904331291072e+00
 1.201415847238112e+00	 6.062931714585874e-02	 4.256759926990348e+00
 1.200856994578618e+00	 7.084077904633405e-02	 3.998930635137065e+00
 1.200209114804443e+00	 8.108016579733142e-02	 3.787663229560358e+00
 1.199471425008485e+00	 9.134648664999623e-02	 3.614598741554879e+00
 1.198643154737697e+00	 1.016387315975597e-01	 3.470767745106765e+00
 1.211767705892536e+00	 0.000000000000000e+00	 6.610653807756814e+00
 1.211725635725783e+00	 1.009771948802787e-02	 6.073810603633532e+00
 1.211598851942252e+00	 2.022914451121664e-02	 5.601503286977744e+00
 1.211386501423361e+00	 3.039339514648746e-02	 5.189287315447594e+00
 1.211087740525344e+00	 4.058957165360378e-02	 4.832105081887954e+00
 1.210701735582398e+00	 5.081675451175718e-02	 4.524277107617456e+00
 1.210227663413746e+00	 6.107400446905088e-02	 4.259493685614095e+00
 1.209664711834286e+00	 7.136036260513832e-02	 4.030807011247343e+00
 1.209012080168449e+00	 8.167485040726569e-02	 3.830623835454462e+00
 1.208268979766902e+00	 9.201646985995805e-02	 3.650698676081783e+00
 1.207434634525714e+00	 1.023842035485794e-01	 3.482127623869054e+00
 1.220590735308335e+00	 0.000000000000000e+00	 6.028053962486849e+00
 1.220548358823472e+00	 1.017124222381038e-02	 5.654407415759886e+00
 1.220420651911474e+00	 2.037643539656356e-02	 5.318252928218250e+00
 1.220206755242121e+00	 3.061469318840423e-02	 5.016448672793796e+00
 1.219905819028996e+00	 4.088510930802895e-02	 4.745261760744170e+00
 1.219517003536293e+00	 5.118675753953839e-02	 4.500358120682231e+00
 1.219039479589579e+00	 6.151869179228121e-02	 4.276792764484737e+00
 1.218472429090154e+00	 7.187994616394859e-02	 4.069000478572675e+00
 1.217815045532654e+00	 8.226953501717052e-02	 3.870786976342154e+00
 1.217066534525519e+00	 9.268645306985483e-02	 3.675320548515957e+00
 1.216226114313930e+00	 1.031296754995015e-01	 3.475124249110569e+00
 1.229413764724135e+00	 0.000000000000000e+00	 5.433734585998909e+00
 1.229371081921160e+00	 1.024476495959287e-02	 5.237711006937758e+00
 1.229242451880695e+00	 2.052372628191047e-02	 5.045986911954747e+00
 1.229027009060881e+00	 3.083599123032097e-02	 4.857638055174003e+00
 1.228723897532648e+00	 4.118064696245408e-02	 4.671231072758394e+00
 1.228332271490189e+00	 5.155676056731959e-02	 4.484812279907702e+00
 1.227851295765413e+00	 6.196337911551154e-02	 4.295896721353434e+00
 1.227280146346022e+00	 7.239952972275890e-02	 4.101457512416241e+00
 1.226618010896860e+00	 8.286421962707538e-02	 3.897915505075002e+00
 1.225864089284136e+00	 9.335643627975165e-02	 3.681129314719920e+00
 1.225017594102147e+00	 1.038751474504235e-01	 3.446385744428155e+00
 1.238236794139735e+00	 0.000000000000000e+00	 4.834997007057212e+00
 1.238193805018648e+00	 1.031828769532718e-02	 4.824807951946539e+00
 1.238064251849717e+00	 2.067101716718147e-02	 4.780774426672526e+00
 1.237847262879441e+00	 3.105728927215179e-02	 4.705086930726937e+00
 1.237541976036100e+00	 4.147618461679812e-02	 4.599567847340309e+00
 1.237147539443884e+00	 5.192676359503657e-02	 4.465659385908017e+00
 1.236663111941046e+00	 6.240806643870367e-02	 4.304411574894183e+00
 1.236087863601690e+00	 7.291911328156318e-02	 4.116470338608485e+00
 1.235420976260865e+00	 8.345890423700963e-02	 3.902065688786772e+00
 1.234661644042553e+00	 9.402641948971353e-02	 3.661000063427703e+00
 1.233809073890164e+00	 1.046206194014434e-01	 3.392636846817263e+00
 1.247059823554935e+00	 0.000000000000000e+00	 4.238941703253953e+00
 1.247016528115735e+00	 1.039181043096515e-02	 4.416759394644343e+00
 1.246886051818338e+00	 2.081830805230071e-02	 4.518800736315526e+00
 1.246667516697602e+00	 3.127858731381077e-02	 4.551250940409808e+00
 1.246360054539152e+00	 4.177172227098004e-02	 4.520126304974181e+00
 1.245962807397180e+00	 5.229676662262516e-02	 4.431261524630683e+00
 1.245474928116279e+00	 6.285275376181938e-02	 4.290296779777211e+00
 1.244895580856958e+00	 7.343869684035545e-02	 4.102664631820613e+00
 1.244223941624471e+00	 8.405358884700274e-02	 3.873576749691650e+00
 1.243459198800570e+00	 9.469640269980548e-02	 3.608010494774585e+00
 1.242600553677780e+00	 1.053660913526588e-01	 3.310695393247773e+00
 1.255882852969535e+00	 0.000000000000000e+00	 3.652475356718999e+00
 1.255839251212224e+00	 1.046533316645861e-02	 4.014601931277628e+00
 1.255707851786360e+00	 2.096559893719228e-02	 4.256363082474626e+00
 1.255487770515162e+00	 3.149988535521200e-02	 4.388801992687773e+00
 1.255178133041604e+00	 4.206725992491875e-02	 4.423049499496537e+00
 1.254778075349876e+00	 5.266676965002115e-02	 4.370310992891033e+00
 1.254286744290912e+00	 6.329744108482051e-02	 4.241852750821362e+00
 1.253703298111626e+00	 7.395828039912969e-02	 4.048987732498163e+00
 1.253026906987477e+00	 8.464827345708408e-02	 3.803060846871641e+00
 1.252256753557986e+00	 9.536638591009251e-02	 3.515433716025234e+00
 1.251392033464797e+00	 1.061115633041678e-01	 3.197468955539355e+00
 1.264705882383334e+00	 0.000000000000000e+00	 3.082317614482875e+00
 1.264661974307912e+00	 1.053885590175940e-02	 3.619348456809550e+00
 1.264529651753582e+00	 2.111288982178033e-02	 3.989866758097858e+00
 1.264308024331922e+00	 3.172118339626960e-02	 4.210620689126769e+00
 1.263996211543256e+00	 4.236279757853321e-02	 4.298759202313490e+00
 1.263593343301772e+00	 5.303677267716038e-02	 4.271818729349680e+00
 1.263098560464746e+00	 6.374212840766885e-02	 4.147708909411376e+00
 1.262511015365494e+00	 7.447786395787998e-02	 3.944697357088056e+00
 1.261829872349682e+00	 8.524295806728308e-02	 3.681393477517483e+00
 1.261054308314603e+00	 9.603636912063970e-02	 3.376731339010232e+00
 1.260183513251014e+00	 1.068570352560680e-01	 3.049951616294679e+00
 1.172268715376846e+00	 9.940231574293547e-02	 3.361754767265348e+00
 1.171369181250904e+00	 1.094941550707639e-01	 3.249740435936043e+00
 1.170379560376876e+00	 1.196093000085306e-01	 3.133424093781798e+00
 1.169299138320258e+00	 1.297466816772552e-01	 3.008420859539662e+00
 1.168127214910092e+00	 1.399052122595186e-01	 2.870470476663528e+00
 1.166863104757728e+00	 1.500837851699623e-01	 2.715438814806777e+00
 1.165506137775708e+00	 1.602812752409670e-01	 2.539319193440969e+00
 1.164055659696292e+00	 1.704965389236660e-01	 2.338233533760675e+00
 1.162511032589170e+00	 1.807284145044398e-01	 2.108433345872551e+00
 1.160871635377850e+00	 1.909757223370206e-01	 1.846300559080084e+00
 1.159136864354258e+00	 2.012372650903192e-01	 1.548348203845070e+00
 1.181060195163063e+00	 1.001477876948355e-01	 3.406950980085055e+00
 1.180153914941946e+00	 1.103153112067115e-01	 3.300523887640339e+00
 1.179156872363373e+00	 1.205063151100233e-01	 3.179691746835722e+00
 1.178068347634899e+00	 1.307197225096803e-01	 3.041731716279319e+00
 1.176887635334594e+00	 1.409544374301230e-01	 2.884198465815832e+00
 1.175614044933695e+00	 1.512093449871018e-01	 2.704926502215838e+00
 1.174246901319383e+00	 1.614833115747477e-01	 2.502032139309507e+00
 1.172785545317201e+00	 1.717751850680931e-01	 2.273915113620439e+00
 1.171229334212640e+00	 1.820837950411903e-01	 2.019259847599800e+00
 1.169577642271410e+00	 1.924079530009565e-01	 1.737036363583317e+00
 1.167829861257889e+00	 2.027464526368590e-01	 1.426500852588962e+00
 1.189851674950080e+00	 1.008932596463443e-01	 3.444516772019337e+00
 1.188938648633787e+00	 1.111364673421580e-01	 3.327208838428924e+00
 1.187934184350669e+00	 1.214033302109266e-01	 3.191631120976412e+00
 1.186837556950337e+00	 1.316927633414465e-01	 3.036065121243035e+00
 1.185648055759887e+00	 1.420036626000158e-01	 2.859182184650038e+00
 1.184364985110446e+00	 1.523349048034913e-01	 2.660046633886094e+00
 1.182987664863831e+00	 1.626853479077516e-01	 2.438118420214971e+00
 1.181515430938867e+00	 1.730538312117260e-01	 2.193255289957083e+00
 1.179947635836845e+00	 1.834391755771360e-01	 1.925714464621967e+00
 1.178283649165677e+00	 1.938401836640810e-01	 1.636153834343431e+00
 1.176522858162191e+00	 2.042556401825827e-01	 1.325632665424438e+00
 1.198643154737697e+00	 1.016387315975597e-01	 3.470767745106766e+00
 1.197723382326229e+00	 1.119576234772288e-01	 3.330595800975764e+00
 1.196711496338564e+00	 1.223003453113876e-01	 3.173705235409606e+00
 1.195606766266373e+00	 1.326658041727180e-01	 2.998737948698358e+00
 1.194408476185774e+00	 1.430528877693737e-01	 2.804798090134518e+00
 1.193115925287784e+00	 1.534604646193159e-01	 2.591455983649915e+00
 1.191728428408858e+00	 1.638873842401688e-01	 2.358751495319465e+00
 1.190245316561099e+00	 1.743324773547565e-01	 2.107196837579117e+00
 1.188665937461600e+00	 1.847945561124677e-01	 1.837778806276298e+00
 1.186989656060471e+00	 1.952724143265822e-01	 1.551960447937189e+00
 1.185215855066995e+00	 2.057648277276741e-01	 1.251682155887957e+00
 1.207434634525714e+00	 1.023842035485794e-01	 3.482127623869054e+00
 1.206508116019070e+00	 1.127787796120490e-01	 3.311462246518400e+00
 1.205488808326859e+00	 1.231973604115535e-01	 3.130246866748121e+00
 1.204375975582806e+00	 1.336388450036591e-01	 2.936853195452158e+00
 1.203168896612058e+00	 1.441021129383733e-01	 2.730148278448636e+00
 1.201866865465514e+00	 1.545860244347604e-01	 2.509499199697525e+00
 1.200469191954271e+00	 1.650894205721890e-01	 2.274777200360229e+00
 1.198975202183708e+00	 1.756111234973761e-01	 2.026361207406716e+00
 1.197384239086723e+00	 1.861499366473764e-01	 1.765140766779549e+00
 1.195695662955618e+00	 1.967046449886485e-01	 1.492518377423534e+00
 1.193908851972134e+00	 2.072740152723169e-01	 1.210411223777796e+00
 1.216226114313930e+00	 1.031296754995015e-01	 3.475124249110569e+00
 1.215292849712111e+00	 1.135999357467439e-01	 3.270563331884216e+00
 1.214266120315354e+00	 1.240943755115717e-01	 3.065463143976028e+00
 1.213145184899439e+00	 1.346118858344340e-01	 2.857307592873579e+00
 1.211929317038539e+00	 1.451513381071913e-01	 2.644070278255093e+00
 1.210617805643441e+00	 1.557115842500100e-01	 2.424219959018666e+00
 1.209209955499877e+00	 1.662914569040019e-01	 2.196725459572320e+00
 1.207705087806507e+00	 1.768897696397766e-01	 1.961060009239622e+00
 1.206102540712028e+00	 1.875053171820530e-01	 1.717205009918477e+00
 1.204401669850942e+00	 1.981368756504678e-01	 1.465653228407171e+00
 1.202601848877440e+00	 2.087832028166949e-01	 1.207411411071519e+00
 1.225017594102147e+00	 1.038751474504235e-01	 3.446385744428152e+00
 1.224077583405152e+00	 1.144210918814387e-01	 3.208632595474699e+00
 1.223043432303848e+00	 1.249913906115893e-01	 2.983439945887450e+00
 1.221914394216071e+00	 1.355849266652067e-01	 2.766798891557469e+00
 1.220689737465020e+00	 1.462005632760042e-01	 2.555146422778686e+00
 1.219368745821367e+00	 1.568371440652496e-01	 2.345371642141005e+00
 1.217950719045483e+00	 1.674934932357977e-01	 2.134821494017104e+00
 1.216434973429306e+00	 1.781684157821495e-01	 1.921306000924806e+00
 1.214820842337333e+00	 1.888606977166884e-01	 1.703103003257385e+00
 1.213107676746267e+00	 1.995691063122281e-01	 1.478962400068855e+00
 1.211294845782747e+00	 2.102923903609917e-01	 1.248109889773104e+00
 1.233809073890164e+00	 1.046206194014434e-01	 3.392636846817261e+00
 1.232862317097992e+00	 1.152422480162587e-01	 3.126382623756804e+00
 1.231820744292143e+00	 1.258884057117535e-01	 2.888146110852992e+00
 1.230683603532504e+00	 1.365579674961415e-01	 2.671832834956623e+00
 1.229450157891303e+00	 1.472497884449886e-01	 2.471712821700516e+00
 1.228119685999097e+00	 1.579627038806643e-01	 2.282427552092727e+00
 1.226691482590897e+00	 1.686955295677660e-01	 2.098996551435351e+00
 1.225164859051915e+00	 1.794470619246865e-01	 1.916823608544612e+00
 1.223539143962455e+00	 1.902160782514733e-01	 1.731702624332530e+00
 1.221813683641414e+00	 2.010013369741175e-01	 1.539823089868446e+00
 1.219987842687886e+00	 2.118015779053913e-01	 1.337775195060602e+00
 1.242600553677780e+00	 1.053660913526588e-01	 3.310695393247773e+00
 1.241647050790434e+00	 1.160634041513292e-01	 3.024505689722115e+00
 1.240598056280037e+00	 1.267854208122115e-01	 2.783437468208286e+00
 1.239452812848539e+00	 1.375310083274024e-01	 2.578729837387240e+00
 1.238210578317190e+00	 1.482990136143212e-01	 2.401867952687420e+00
 1.236870626176436e+00	 1.590882636964390e-01	 2.244590700161909e+00
 1.235432246135923e+00	 1.698975659000967e-01	 2.098898181322323e+00
 1.233894744674147e+00	 1.807257080675793e-01	 1.957059000852131e+00
 1.232257445587210e+00	 1.915714587865987e-01	 1.811617360031401e+00
 1.230519690536209e+00	 2.024335676363241e-01	 1.655399959568834e+00
 1.228680839592690e+00	 2.133107654500772e-01	 1.481522716349242e+00
 1.251392033464797e+00	 1.061115633041678e-01	 3.197468955539354e+00
 1.250431784482275e+00	 1.168845602867754e-01	 2.903674364692600e+00
 1.249375368267333e+00	 1.276824359131106e-01	 2.673060700037485e+00
 1.248222022163977e+00	 1.385040491591539e-01	 2.493631380946316e+00
 1.246970998742484e+00	 1.493482387841786e-01	 2.353480891262239e+00
 1.245621566353186e+00	 1.602138235127588e-01	 2.240803179757345e+00
 1.244173009680370e+00	 1.710996022329797e-01	 2.143900077589964e+00
 1.242624630295811e+00	 1.820043542110194e-01	 2.051189739875240e+00
 1.240975747211415e+00	 1.929268393222557e-01	 1.951215119163360e+00
 1.239225697430475e+00	 2.038657982990361e-01	 1.832652479236327e+00
 1.237373836496991e+00	 2.148199529952334e-01	 1.684319958175636e+00
 1.260183513251014e+00	 1.068570352560680e-01	 3.049951616294680e+00
 1.259216518173316e+00	 1.177057164227225e-01	 2.764542104775158e+00
 1.258152680253831e+00	 1.285794510145979e-01	 2.560657041634511e+00
 1.256991231478618e+00	 1.394770899915600e-01	 2.422506145067644e+00
 1.255731419166985e+00	 1.503974639547374e-01	 2.334199196676837e+00
 1.254372506529152e+00	 1.613393833298087e-01	 2.279755148485627e+00
 1.252913773224046e+00	 1.723016385666049e-01	 2.243111509933349e+00
 1.251354515916720e+00	 1.832830003551986e-01	 2.208134028387396e+00
 1.249694048834886e+00	 1.942822198586347e-01	 2.158626677111908e+00
 1.247931704324034e+00	 2.052980289624415e-01	 2.078341964944168e+00
 1.246066833400622e+00	 2.163291405410434e-01	 1.950991582143793e+00
 1.159136864354258e+00	 2.012372650903192e-01	 1.548348203845070e+00
 1.157306452922046e+00	 2.115100809470052e-01	 1.282887153662732e+00
 1.155379546441417e+00	 2.217946840330171e-01	 1.118489064241684e+00
 1.153355595754176e+00	 2.320898290506393e-01	 1.052439996696344e+00
 1.151234071072297e+00	 2.423942542335403e-01	 1.082192154339836e+00
 1.149014462474888e+00	 2.527066816735781e-01	 1.205368970723941e+00
 1.146696280400205e+00	 2.630258176635662e-01	 1.419770183299441e+00
 1.144279056132160e+00	 2.733503530559895e-01	 1.723376897451178e+00
 1.141762342280760e+00	 2.836789636376347e-01	 2.114356645530147e+00
 1.139145713255937e+00	 2.940103105200784e-01	 2.591068445287902e+00
 1.136428765734195e+00	 3.043430405459637e-01	 3.152067861811327e+00
 1.167829861257889e+00	 2.027464526368590e-01	 1.426500852588962e+00
 1.165985722576369e+00	 2.130963099192848e-01	 1.157889027828206e+00
 1.164044365177641e+00	 2.234580428298795e-01	 9.988691808329134e-01
 1.162005235785069e+00	 2.338303967317619e-01	 9.452800669435194e-01
 1.159867800637453e+00	 2.442121003959282e-01	 9.930355491447810e-01
 1.157631545989724e+00	 2.546018663305070e-01	 1.138129848412492e+00
 1.155295978608647e+00	 2.649983911260979e-01	 1.376642910302679e+00
 1.152860626262969e+00	 2.754003558171758e-01	 1.704745895824139e+00
 1.150325038207474e+00	 2.858064262595311e-01	 2.118706804327899e+00
 1.147688785660359e+00	 2.962152535236883e-01	 2.614896235738166e+00
 1.144951462273380e+00	 3.066254743042259e-01	 3.189793298935931e+00
 1.176522858162191e+00	 2.042556401825827e-01	 1.325632665424439e+00
 1.174664992231320e+00	 2.146825388907432e-01	 1.063540082656983e+00
 1.172709183914441e+00	 2.251214016259154e-01	 9.148616127163889e-01
 1.170654875816480e+00	 2.355709644120536e-01	 8.745207361173678e-01
 1.168501530203065e+00	 2.460299465574824e-01	 9.374515410734352e-01
 1.166248629504951e+00	 2.564970509866029e-01	 1.098603922995391e+00
 1.163895676817407e+00	 2.669709645878008e-01	 1.352948992241823e+00
 1.161442196394021e+00	 2.774503585775422e-01	 1.695484700954268e+00
 1.158887734134355e+00	 2.879338888806232e-01	 2.121241699387186e+00
 1.156231858064868e+00	 2.984201965265156e-01	 2.625289431602659e+00
 1.153474158812572e+00	 3.089079080617355e-01	 3.202742479746416e+00
 1.185215855066995e+00	 2.057648277276741e-01	 1.251682155887959e+00
 1.183344261886740e+00	 2.162687678615585e-01	 1.003321504873091e+00
 1.181374002651673e+00	 2.267847604212964e-01	 8.679876768033081e-01
 1.179304515848281e+00	 2.373115320916787e-01	 8.402096137566851e-01
 1.177135259769021e+00	 2.478477927183592e-01	 9.144884868290242e-01
 1.174865713020469e+00	 2.583922356420124e-01	 1.085302633349725e+00
 1.172495375026404e+00	 2.689435380488110e-01	 1.347112756191509e+00
 1.170023766525256e+00	 2.795003613372139e-01	 1.694367398313460e+00
 1.167450430061359e+00	 2.900613515010231e-01	 2.121508705193886e+00
 1.164774930469440e+00	 3.006251395286592e-01	 2.622978487203763e+00
 1.161996855351768e+00	 3.111903418185773e-01	 3.193224593236632e+00
 1.193908851972134e+00	 2.072740152723169e-01	 1.210411223777797e+00
 1.192023531542475e+00	 2.178549968319091e-01	 9.806091758783823e-01
 1.190038821389194e+00	 2.284481192161947e-01	 8.597202532540922e-01
 1.187954155880343e+00	 2.390520997708019e-01	 8.423886334771971e-01
 1.185768989335205e+00	 2.496656388787149e-01	 9.232180642486132e-01
 1.183482796536182e+00	 2.602874202968821e-01	 1.096776328552936e+00
 1.181095073235562e+00	 2.709161115092651e-01	 1.357599988016153e+00
 1.178605336656612e+00	 2.815503640963158e-01	 1.700199419431272e+00
 1.176013125988446e+00	 2.921888141208432e-01	 2.119064158935962e+00
 1.173318002874057e+00	 3.028300825302183e-01	 2.608668567709901e+00
 1.170519551890967e+00	 3.134727755748353e-01	 3.163477832311957e+00
 1.202601848877440e+00	 2.087832028166949e-01	 1.207411411071519e+00
 1.200702801198366e+00	 2.194412258019734e-01	 9.986773543280764e-01
 1.198703640126859e+00	 2.301114780107821e-01	 8.914854181139655e-01
 1.196603795912534e+00	 2.407926674495875e-01	 8.810941471251146e-01
 1.194402718901504e+00	 2.514834850387053e-01	 9.627343270555674e-01
 1.192099880051993e+00	 2.621826049513587e-01	 1.131612769508856e+00
 1.189694771444798e+00	 2.728886849692991e-01	 1.382916353908168e+00
 1.187186906788029e+00	 2.836003668549724e-01	 1.711816342725271e+00
 1.184575821915574e+00	 2.943162767401958e-01	 2.113472985922753e+00
 1.181861075278695e+00	 3.050350255312918e-01	 2.583040429942626e+00
 1.179042248430169e+00	 3.157552093305945e-01	 3.115671945870270e+00
 1.211294845782747e+00	 2.102923903609917e-01	 1.248109889773104e+00
 1.209382070854257e+00	 2.210274547719297e-01	 1.060702201626890e+00
 1.207368458864525e+00	 2.317748368052306e-01	 9.646640073376930e-01
 1.205253435944724e+00	 2.425332351282001e-01	 9.563570167812485e-01
 1.203036448467802e+00	 2.533013311984865e-01	 1.032152802450722e+00
 1.200716963567804e+00	 2.640777896055888e-01	 1.188435697477616e+00
 1.198294469654035e+00	 2.748612584290493e-01	 1.421605892544830e+00
 1.195768476919446e+00	 2.856503696133086e-01	 1.728082748899844e+00
 1.193138517842703e+00	 2.964437393591937e-01	 2.104308344367346e+00
 1.190404147683332e+00	 3.072399685319787e-01	 2.546751268808569e+00
 1.187564944969370e+00	 3.180376430859392e-01	 3.051910684879684e+00
 1.219987842687886e+00	 2.118015779053913e-01	 1.337775195060602e+00
 1.218061340509991e+00	 2.226136837419563e-01	 1.169765158180315e+00
 1.216033277602045e+00	 2.334381955997120e-01	 1.080593115626067e+00
 1.213903075976785e+00	 2.442738028068044e-01	 1.068202704723496e+00
 1.211670178033985e+00	 2.551191773582147e-01	 1.130609629405263e+00
 1.209334047083517e+00	 2.659729742597194e-01	 1.265903466173315e+00
 1.206894167863191e+00	 2.768338318886519e-01	 1.472249574340617e+00
 1.204350047050801e+00	 2.877003723714494e-01	 1.747891128192340e+00
 1.201701213769790e+00	 2.985712019779490e-01	 2.091151288565990e+00
 1.198947220087949e+00	 3.094449115323776e-01	 2.500435531070998e+00
 1.196087641508569e+00	 3.203200768409540e-01	 2.974234147741281e+00
 1.228680839592690e+00	 2.133107654500772e-01	 1.481522716349243e+00
 1.226740610165411e+00	 2.241999127122316e-01	 1.328856177793861e+00
 1.224698096339278e+00	 2.351015543943984e-01	 1.240567533303163e+00
 1.222552716008586e+00	 2.460143704855646e-01	 1.216651361449372e+00
 1.220303907599941e+00	 2.569370235180458e-01	 1.257260735641069e+00
 1.217951130599036e+00	 2.678681589138968e-01	 1.362707734281114e+00
 1.215493866072189e+00	 2.788064053482432e-01	 1.533463924473716e+00
 1.212931617182036e+00	 2.897503751295194e-01	 1.770160836899443e+00
 1.210263909696794e+00	 3.006986645965739e-01	 2.073590449564522e+00
 1.207490292492523e+00	 3.116498545325880e-01	 2.444705698079361e+00
 1.204610338047766e+00	 3.226025105957234e-01	 2.884621029924862e+00
 1.237373836496991e+00	 2.148199529952334e-01	 1.684319958175636e+00
 1.235419879820361e+00	 2.257861416829341e-01	 1.540876827195913e+00
 1.233362915076078e+00	 2.367649131894615e-01	 1.445841124281874e+00
 1.231202356039998e+00	 2.477549381646454e-01	 1.401717911854464e+00
 1.228937637165553e+00	 2.587548696781362e-01	 1.411281051395326e+00
 1.226568214114262e+00	 2.697633435682678e-01	 1.477572215423774e+00
 1.224093564280949e+00	 2.807789788079594e-01	 1.603899706550347e+00
 1.221513187313088e+00	 2.918003778876436e-01	 1.793837100760605e+00
 1.218826605623674e+00	 3.028261272151813e-01	 2.051221732452161e+00
 1.216033364897031e+00	 3.138547975327083e-01	 2.380153038983428e+00
 1.213133034586957e+00	 3.248849443503319e-01	 2.784990782586228e+00
 1.246066833400622e+00	 2.163291405410434e-01	 1.950991582143793e+00
 1.244099149474685e+00	 2.273723706542418e-01	 1.808643257271852e+00
 1.242027733812302e+00	 2.384282719850735e-01	 1.697628147995281e+00
 1.239851996070890e+00	 2.494955058442114e-01	 1.623412139657474e+00
 1.237571366730709e+00	 2.605727158386419e-01	 1.591863758174817e+00
 1.235185297629098e+00	 2.716585282229791e-01	 1.609251482772069e+00
 1.232693262489390e+00	 2.827515522679369e-01	 1.682240663946570e+00
 1.230094757443897e+00	 2.938503806459467e-01	 1.817890062910915e+00
 1.227389301550388e+00	 3.049535898338829e-01	 2.023648029470964e+00
 1.224576437301453e+00	 3.160597405328378e-01	 2.307348335874607e+00
 1.221655731126142e+00	 3.271673781048639e-01	 2.677205684610830e+00
 1.136428765734195e+00	 3.043430405459637e-01	 3.152067861811326e+00
 1.133611119364855e+00	 3.146757868552493e-01	 3.698211983593561e+00
 1.130692417964432e+00	 3.250071697687851e-01	 4.131925938719693e+00
 1.127672329218821e+00	 3.353357968314881e-01	 4.454292116494499e+00
 1.124550544867360e+00	 3.456602631396041e-01	 4.666424902644708e+00
 1.121326781123693e+00	 3.559791518240068e-01	 4.769470321506042e+00
 1.118000779086037e+00	 3.662910345483221e-01	 4.764605893076146e+00
 1.114572305136289e+00	 3.765944720216516e-01	 4.664909095983096e+00
 1.111041151327425e+00	 3.868880145256406e-01	 4.520135560485008e+00
 1.107407135758632e+00	 3.971702024556138e-01	 4.336332751828877e+00
 1.103670102937638e+00	 4.074395668754809e-01	 4.114122924554843e+00
 1.144951462273380e+00	 3.066254743042259e-01	 3.189793298935931e+00
 1.142112684843400e+00	 3.170357114902753e-01	 3.740810373129652e+00
 1.139172094515728e+00	 3.274445750557203e-01	 4.169239914516536e+00
 1.136129356484066e+00	 3.378506621026978e-01	 4.477588884239156e+00
 1.132984160175947e+00	 3.482525571913147e-01	 4.668527700101403e+00
 1.129736219676757e+00	 3.586488328265700e-01	 4.744890038186955e+00
 1.126385274143080e+00	 3.690380499602166e-01	 4.709672688638766e+00
 1.122931088204792e+00	 3.794187585073285e-01	 4.591849068171647e+00
 1.119373452355374e+00	 3.897894978773229e-01	 4.436662704686061e+00
 1.115712183329848e+00	 4.001487975191529e-01	 4.247962963887836e+00
 1.111947124469834e+00	 4.104951774803757e-01	 4.029041913423751e+00
 1.153474158812572e+00	 3.089079080617355e-01	 3.202742479746414e+00
 1.150614250321872e+00	 3.193956361245875e-01	 3.749941890131879e+00
 1.147651771066873e+00	 3.298819803419887e-01	 4.168704866106137e+00
 1.144586383749081e+00	 3.403655273732951e-01	 4.462596952524090e+00
 1.141417775484229e+00	 3.508448512424738e-01	 4.635448972751491e+00
 1.138145658229444e+00	 3.613185138286488e-01	 4.691357000537415e+00
 1.134769769199677e+00	 3.717850653716985e-01	 4.635305007372608e+00
 1.131289871272786e+00	 3.822430449926694e-01	 4.515660124432582e+00
 1.127705753382754e+00	 3.926909812287492e-01	 4.364002725154527e+00
 1.124017230900445e+00	 4.031273925825186e-01	 4.185257191332671e+00
 1.120224146001366e+00	 4.135507880851814e-01	 3.984481387267793e+00
 1.161996855351768e+00	 3.111903418185773e-01	 3.193224593236632e+00
 1.159115815800289e+00	 3.217555607582549e-01	 3.729389961338874e+00
 1.156131447617902e+00	 3.323193856276428e-01	 4.134988067512114e+00
 1.153043411013923e+00	 3.428803926433160e-01	 4.414284341139548e+00
 1.149851390792280e+00	 3.534371452931002e-01	 4.571882116825652e+00
 1.146555096781848e+00	 3.639881948302445e-01	 4.612722787590227e+00
 1.143154264255939e+00	 3.745320807827520e-01	 4.547762247718274e+00
 1.139648654340397e+00	 3.850673314776409e-01	 4.437177252981653e+00
 1.136038054409709e+00	 3.955924645798689e-01	 4.300480869905541e+00
 1.132322278470577e+00	 4.061059876456440e-01	 4.143729540719068e+00
 1.128501167532400e+00	 4.166063986898156e-01	 3.973186296398811e+00
 1.170519551890967e+00	 3.134727755748353e-01	 3.163477832311959e+00
 1.167617381278668e+00	 3.241154853913467e-01	 3.682824423519829e+00
 1.164611124168855e+00	 3.347567909127361e-01	 4.072617874568219e+00
 1.161500438278651e+00	 3.453952579127965e-01	 4.337471877773948e+00
 1.158285006100180e+00	 3.560294393432130e-01	 4.482381892308792e+00
 1.154964535334063e+00	 3.666578758313583e-01	 4.512725490012367e+00
 1.151538759311978e+00	 3.772790961933608e-01	 4.450345033387083e+00
 1.148007437407754e+00	 3.878916179622096e-01	 4.357200018180847e+00
 1.144370355436380e+00	 3.984939479306318e-01	 4.244459552634457e+00
 1.140627326040400e+00	 4.090845827084624e-01	 4.118789549736520e+00
 1.136778189063103e+00	 4.196620092941962e-01	 3.987107671967657e+00
 1.179042248430169e+00	 3.157552093305945e-01	 3.115671945870270e+00
 1.176118946757030e+00	 3.264754100239322e-01	 3.613805636211966e+00
 1.173090800719770e+00	 3.371941961973210e-01	 3.985988776204732e+00
 1.169957465543320e+00	 3.479101231817727e-01	 4.236838573394620e+00
 1.166718621408004e+00	 3.586217333928308e-01	 4.371369516084485e+00
 1.163373973886183e+00	 3.693275568319918e-01	 4.394993923278355e+00
 1.159923254367905e+00	 3.800261116035090e-01	 4.345675491446711e+00
 1.156366220474983e+00	 3.907159044463420e-01	 4.276493627355627e+00
 1.152702656462909e+00	 4.013954312809876e-01	 4.194336880759580e+00
 1.148932373610068e+00	 4.120631777709072e-01	 4.105967429971577e+00
 1.145055210593639e+00	 4.227176198982410e-01	 4.018416835101297e+00
 1.187564944969370e+00	 3.180376430859392e-01	 3.051910684879684e+00
 1.184620512235391e+00	 3.288353346560799e-01	 3.525788421608619e+00
 1.181570477270685e+00	 3.396316014814507e-01	 3.879366232845482e+00
 1.178414492807989e+00	 3.504249884502805e-01	 4.116926771175927e+00
 1.175152236715827e+00	 3.612140274419724e-01	 4.243137541190592e+00
 1.171783412438303e+00	 3.719972378321463e-01	 4.263952842250812e+00
 1.168307749423834e+00	 3.827731270131802e-01	 4.236289538033449e+00
 1.164725003542212e+00	 3.935401909300046e-01	 4.195789974399441e+00
 1.161034957489440e+00	 4.042969146308856e-01	 4.148545211551961e+00
 1.157237421179736e+00	 4.150417728329116e-01	 4.100909600976099e+00
 1.153332232124176e+00	 4.257732305018673e-01	 4.059497384761095e+00
 1.196087641508569e+00	 3.203200768409540e-01	 2.974234147741279e+00
 1.193122077713771e+00	 3.311952592878596e-01	 3.422125840220235e+00
 1.190050153821638e+00	 3.420690067651778e-01	 3.756891312534911e+00
 1.186871520072717e+00	 3.529398537183563e-01	 3.982147080270499e+00
 1.183585852023727e+00	 3.638063214906566e-01	 4.101854532854730e+00
 1.180192850990518e+00	 3.746669188318231e-01	 4.126878295783448e+00
 1.176692244479873e+00	 3.855201424223584e-01	 4.124639758577004e+00
 1.173083786609569e+00	 3.963644774131641e-01	 4.115788661324068e+00
 1.169367258516111e+00	 4.071983979802760e-01	 4.105549793733132e+00
 1.165542468749559e+00	 4.180203678944087e-01	 4.099374440197785e+00
 1.161609253654879e+00	 4.288288411049933e-01	 4.102937554281661e+00
 1.204610338047766e+00	 3.226025105957234e-01	 2.884621029924866e+00
 1.201623643192187e+00	 3.335551839193402e-01	 3.306072810441837e+00
 1.198529830372667e+00	 3.445064120485555e-01	 3.622585134812768e+00
 1.195328547337559e+00	 3.554547189860359e-01	 3.836783105079517e+00
 1.192019467331779e+00	 3.663986155389025e-01	 3.951569551374760e+00
 1.188602289542922e+00	 3.773365998310234e-01	 3.987769618664068e+00
 1.185076739536135e+00	 3.882671578310274e-01	 4.013098187014568e+00
 1.181442569677181e+00	 3.991887638957868e-01	 4.037157998849204e+00
 1.177699559543066e+00	 4.100998813291077e-01	 4.063847490309060e+00
 1.173847516319692e+00	 4.209989629553322e-01	 4.097228238083150e+00
 1.169886275185913e+00	 4.318844517075364e-01	 4.141522918332296e+00
 1.213133034586957e+00	 3.248849443503319e-01	 2.784990782586228e+00
 1.210125208670659e+00	 3.359151085505906e-01	 3.180789579703970e+00
 1.207009506923811e+00	 3.469438173316365e-01	 3.480353131791561e+00
 1.203785574602574e+00	 3.579695842533556e-01	 3.684995980079798e+00
 1.200453082640061e+00	 3.689909095867285e-01	 3.796216451343606e+00
 1.197011728095609e+00	 3.800062808297490e-01	 3.850114601230683e+00
 1.193461234592732e+00	 3.910141732391713e-01	 3.903958988962198e+00
 1.189801352745175e+00	 4.020130503778395e-01	 3.960535987062660e+00
 1.186031860570447e+00	 4.130013646773308e-01	 4.021965578645898e+00
 1.182152563890289e+00	 4.239775580156149e-01	 4.090441348263882e+00
 1.178163296717446e+00	 4.349400623094145e-01	 4.168229433068793e+00
 1.221655731126142e+00	 3.271673781048639e-01	 2.677205684610830e+00
 1.218626774149205e+00	 3.382750331816800e-01	 3.049345054455242e+00
 1.215489183475108e+00	 3.493812226144739e-01	 3.333989135364125e+00
 1.212242601867819e+00	 3.604844495203512e-01	 3.530828719702953e+00
 1.208886697948648e+00	 3.715832036341537e-01	 3.640147306539729e+00
 1.205421166648673e+00	 3.826759618280010e-01	 3.717292763513869e+00
 1.201845729649776e+00	 3.937611886467735e-01	 3.799441053534822e+00
 1.198160135813678e+00	 4.048373368592888e-01	 3.886531277125409e+00
 1.194364161598396e+00	 4.159028480248947e-01	 3.978460624016308e+00
 1.190457611461505e+00	 4.269561530751902e-01	 4.075084523300514e+00
 1.186440318249641e+00	 4.379956729105452e-01	 4.176216793204886e+00
 1.103670102937638e+00	 4.074395668754809e-01	 4.114122924554842e+00
 1.099829262360247e+00	 4.176963721710397e-01	 3.872771870888997e+00
 1.095885138284579e+00	 4.279373842656255e-01	 3.631617424779682e+00
 1.091837655705804e+00	 4.381611084204264e-01	 3.391389550021817e+00
 1.087686767358405e+00	 4.483660428917192e-01	 3.152861310984761e+00
 1.083432454007551e+00	 4.585506795500225e-01	 2.916849501864691e+00
 1.079074724724561e+00	 4.687135045107917e-01	 2.684214986839855e+00
 1.074613617145979e+00	 4.788529987762081e-01	 2.455862747010365e+00
 1.070049197715797e+00	 4.889676388875796e-01	 2.232741631942485e+00
 1.065381561910370e+00	 4.990558975878605e-01	 2.015843815618595e+00
 1.060610834445606e+00	 5.091162444937753e-01	 1.806203958605415e+00
 1.111947124469834e+00	 4.104951774803757e-01	 4.029041913423752e+00
 1.108077479342722e+00	 4.208289041295597e-01	 3.800845642065771e+00
 1.104103776138325e+00	 4.311467191359472e-01	 3.581595645758816e+00
 1.100025939289305e+00	 4.414471165508733e-01	 3.370570168156163e+00
 1.095843921175665e+00	 4.517285833682289e-01	 3.166906059041872e+00
 1.091557702418317e+00	 4.619896001482553e-01	 2.969585583252594e+00
 1.087167292156603e+00	 4.722286416529718e-01	 2.777436501184424e+00
 1.082672728309315e+00	 4.824441774927753e-01	 2.589132111421780e+00
 1.078074077818739e+00	 4.926346727837354e-01	 2.403191257785835e+00
 1.073371436877250e+00	 5.027985888150822e-01	 2.217978304731467e+00
 1.068564931136062e+00	 5.129343837263703e-01	 2.031703086666168e+00
 1.120224146001366e+00	 4.135507880851814e-01	 3.984481387267793e+00
 1.116325696324497e+00	 4.239614360880763e-01	 3.781215715967214e+00
 1.112322413991342e+00	 4.343560540063507e-01	 3.590697642349430e+00
 1.108214222872052e+00	 4.447331246814866e-01	 3.411085051184266e+00
 1.104001074992155e+00	 4.550911238449870e-01	 3.239782687772519e+00
 1.099682950828301e+00	 4.654285207468165e-01	 3.074311390204290e+00
 1.095259859587853e+00	 4.757437787955558e-01	 2.911912604914360e+00
 1.090731839471855e+00	 4.860353562098174e-01	 2.749516656014385e+00
 1.086098957920882e+00	 4.963017066804309e-01	 2.583742924251461e+00
 1.081361311843331e+00	 5.065412800429014e-01	 2.410900199588753e+00
 1.076519027825718e+00	 5.167525229596125e-01	 2.226987216079360e+00
 1.128501167532400e+00	 4.166063986898156e-01	 3.973186296398811e+00
 1.124573913305746e+00	 4.270939680464921e-01	 3.804198908641915e+00
 1.120541051843811e+00	 4.375653888767255e-01	 3.646499702834727e+00
 1.116402506454235e+00	 4.480191328121430e-01	 3.497655441850533e+00
 1.112158228808068e+00	 4.584536643218595e-01	 3.354782980007900e+00
 1.107808199237697e+00	 4.688674413455605e-01	 3.214292255407140e+00
 1.103352427018511e+00	 4.792589159383890e-01	 3.071727824420632e+00
 1.098790950633799e+00	 4.896265349271706e-01	 2.922731233722307e+00
 1.094123838022425e+00	 4.999687405774948e-01	 2.762543241399369e+00
 1.089351186808811e+00	 5.102839712711402e-01	 2.585978966273176e+00
 1.084473124514775e+00	 5.205706621933194e-01	 2.387428807995668e+00
 1.136778189063103e+00	 4.196620092941962e-01	 3.987107671967657e+00
 1.132822130286645e+00	 4.302265000047105e-01	 3.858638249361262e+00
 1.128759689695915e+00	 4.407747237469610e-01	 3.736241910270726e+00
 1.124590790036041e+00	 4.513051409427194e-01	 3.617016790368253e+00
 1.120315382623595e+00	 4.618162047987112e-01	 3.497535371382796e+00
 1.115933447646702e+00	 4.723063619443426e-01	 3.373842427198221e+00
 1.111444994448772e+00	 4.827740530813165e-01	 3.241453572577891e+00
 1.106850061795343e+00	 4.932177136446720e-01	 3.094926667087103e+00
 1.102148718123570e+00	 5.036357744747566e-01	 2.928103159309102e+00
 1.097341061773892e+00	 5.140266624996217e-01	 2.734853670777425e+00
 1.092427221203431e+00	 5.243888014273070e-01	 2.508552397399535e+00
 1.145055210593639e+00	 4.227176198982410e-01	 4.018416835101298e+00
 1.141070347267370e+00	 4.333590319626346e-01	 3.933506851436637e+00
 1.136978327547836e+00	 4.439840586169468e-01	 3.846502168563319e+00
 1.132779073617660e+00	 4.545911490730927e-01	 3.754335551794158e+00
 1.128472536438929e+00	 4.651787452754078e-01	 3.653378205450483e+00
 1.124058696055512e+00	 4.757452825430175e-01	 3.539437539924418e+00
 1.119537561878837e+00	 4.862891902241840e-01	 3.407755590694997e+00
 1.114909172956689e+00	 4.968088923621582e-01	 3.253008097077150e+00
 1.110173598224515e+00	 5.073028083720453e-01	 3.069284195863944e+00
 1.105330936738772e+00	 5.177693537281682e-01	 2.849422555337419e+00
 1.100381317891887e+00	 5.282069406613931e-01	 2.586028340429494e+00
 1.153332232124176e+00	 4.257732305018673e-01	 4.059497384761096e+00
 1.149318564248094e+00	 4.364915639201673e-01	 4.018081578390994e+00
 1.145196965399759e+00	 4.471933934865727e-01	 3.964230566194599e+00
 1.140967357199277e+00	 4.578771572031403e-01	 3.895008962593485e+00
 1.136629690254264e+00	 4.685412857518146e-01	 3.806923171007126e+00
 1.132183944464321e+00	 4.791842031414399e-01	 3.695919056862656e+00
 1.127630129308901e+00	 4.898043273668362e-01	 3.557380269262679e+00
 1.122968284118035e+00	 5.004000710794656e-01	 3.386127218809284e+00
 1.118198478325460e+00	 5.109698422691897e-01	 3.176416717733220e+00
 1.113320811703653e+00	 5.215120449566023e-01	 2.921942287131326e+00
 1.108335414580344e+00	 5.320250798953942e-01	 2.615666785213791e+00
 1.161609253654879e+00	 4.288288411049933e-01	 4.102937554281660e+00
 1.157566781228993e+00	 4.396240958772121e-01	 4.101932171849659e+00
 1.153415603251863e+00	 4.504027283557278e-01	 4.076736097088030e+00
 1.149155640781084e+00	 4.611631653327386e-01	 4.024837145521168e+00
 1.144786844069792e+00	 4.719038262277970e-01	 3.943206963855713e+00
 1.140309192873327e+00	 4.826231237394645e-01	 3.828298692601012e+00
 1.135722696739162e+00	 4.933194645091186e-01	 3.676045222001912e+00
 1.131027395279580e+00	 5.039912497964312e-01	 3.481858047566379e+00
 1.126223358426605e+00	 5.146368761660195e-01	 3.240626730182054e+00
 1.121310686668735e+00	 5.252547361847464e-01	 2.946718964537539e+00
 1.116289511269000e+00	 5.358432191291277e-01	 2.593981258302995e+00
 1.169886275185913e+00	 4.318844517075364e-01	 4.141522918332296e+00
 1.165814998210243e+00	 4.427566278336720e-01	 4.174910868123791e+00
 1.161634241104332e+00	 4.536120632243018e-01	 4.171673973570392e+00
 1.157343924363267e+00	 4.644491734617650e-01	 4.130008899599373e+00
 1.152943997885704e+00	 4.752663667032204e-01	 4.047676327732013e+00
 1.148434441282723e+00	 4.860620443369463e-01	 3.921998690705959e+00
 1.143815264169820e+00	 4.968346016508763e-01	 3.749858393573262e+00
 1.139086506441523e+00	 5.075824285128914e-01	 3.527696525414102e+00
 1.134248238528149e+00	 5.183039100623631e-01	 3.251512064662520e+00
 1.129300561634215e+00	 5.289974274124229e-01	 2.916861579916124e+00
 1.124243607958056e+00	 5.396613583624100e-01	 2.518859427005180e+00
 1.178163296717446e+00	 4.349400623094145e-01	 4.168229433068793e+00
 1.174063215192018e+00	 4.458891597894502e-01	 4.227142479454820e+00
 1.169852878957349e+00	 4.568213980921843e-01	 4.237033502313079e+00
 1.165532207946015e+00	 4.677351815900962e-01	 4.197088118497500e+00
 1.161101151702194e+00	 4.786289071779501e-01	 4.106173756440766e+00
 1.156559689692707e+00	 4.895009649337401e-01	 3.962837543945513e+00
 1.151907831601071e+00	 5.003497387919548e-01	 3.765304524667204e+00
 1.147145617604063e+00	 5.111736072286830e-01	 3.511476204367911e+00
 1.142273118630292e+00	 5.219709439580501e-01	 3.198929427103508e+00
 1.137290436600296e+00	 5.327401186394548e-01	 2.824915580623715e+00
 1.132197704647713e+00	 5.434794975950584e-01	 2.386360129420602e+00
 1.186440318249641e+00	 4.379956729105452e-01	 4.176216793204887e+00
 1.182311432174493e+00	 4.490216917444495e-01	 4.249014917228736e+00
 1.178071516811096e+00	 4.600307329592652e-01	 4.261126495760726e+00
 1.173720491529515e+00	 4.710211897176092e-01	 4.213000806627409e+00
 1.169258305519455e+00	 4.819914476518518e-01	 4.104923824912738e+00
 1.164684938103474e+00	 4.929398855297004e-01	 3.937016343907057e+00
 1.160000399033113e+00	 5.038648759321990e-01	 3.709232216545421e+00
 1.155204728767399e+00	 5.147647859436427e-01	 3.421356714443544e+00
 1.150297998733234e+00	 5.256379778529094e-01	 3.073005001031874e+00
 1.145280311567176e+00	 5.364828098656644e-01	 2.663620714731097e+00
 1.140151801338169e+00	 5.472976368268900e-01	 2.192474657611626e+00
 1.060610834445606e+00	 5.091162444937753e-01	 1.806203958605415e+00
 1.055738006511554e+00	 5.191454442116863e-01	 1.612672983945277e+00
 1.050762458960495e+00	 5.291436749777426e-01	 1.443814793569208e+00
 1.045684404432864e+00	 5.391094013790461e-01	 1.300466115248404e+00
 1.040504085435939e+00	 5.490410876312676e-01	 1.183591427023591e+00
 1.035221774457164e+00	 5.589371982900342e-01	 1.094281482293610e+00
 1.029837774057543e+00	 5.687961989684474e-01	 1.033751467612861e+00
 1.024352416944811e+00	 5.786165570600982e-01	 1.003338806243850e+00
 1.018766066026104e+00	 5.883967424669228e-01	 1.004500622473110e+00
 1.013079114439890e+00	 5.981352283312306e-01	 1.038810883571807e+00
 1.007291985566919e+00	 6.078304917712264e-01	 1.107957238050812e+00
 1.068564931136062e+00	 5.129343837263703e-01	 2.031703086666169e+00
 1.063655559218690e+00	 5.230387978599927e-01	 1.853281116129958e+00
 1.058642697334096e+00	 5.331120107887881e-01	 1.693659160944157e+00
 1.053526559717424e+00	 5.431524755849616e-01	 1.554245262317208e+00
 1.048307390694655e+00	 5.531586449465021e-01	 1.436675336523315e+00
 1.042985464796769e+00	 5.631289719139037e-01	 1.342811448917338e+00
 1.037561086853845e+00	 5.730619105930658e-01	 1.274739567477825e+00
 1.032034592068782e+00	 5.829559168837306e-01	 1.234766808600180e+00
 1.026406346070359e+00	 5.928094492127962e-01	 1.225418190175243e+00
 1.020676744945409e+00	 6.026209692718354e-01	 1.249432909212877e+00
 1.014846215249852e+00	 6.123889427581338e-01	 1.309760163390496e+00
 1.076519027825718e+00	 5.167525229596125e-01	 2.226987216079360e+00
 1.071573111925027e+00	 5.269321515089876e-01	 2.044000501197264e+00
 1.066522935706896e+00	 5.370803466005551e-01	 1.877706360638979e+00
 1.061368715001185e+00	 5.471955497916245e-01	 1.729851203051707e+00
 1.056110695952571e+00	 5.572762022625033e-01	 1.602484114471927e+00
 1.050749155135574e+00	 5.673207455385539e-01	 1.497954990453493e+00
 1.045284399649348e+00	 5.773276222184746e-01	 1.418912030275461e+00
 1.039716767191954e+00	 5.872952767081590e-01	 1.368298605877428e+00
 1.034046626113814e+00	 5.972221559594681e-01	 1.349349520769481e+00
 1.028274375450128e+00	 6.071067102132397e-01	 1.365586676673471e+00
 1.022400444931984e+00	 6.169473937458408e-01	 1.420814168055708e+00
 1.084473124514775e+00	 5.205706621933194e-01	 2.387428807995668e+00
 1.079490664630763e+00	 5.308255051584834e-01	 2.184337650963754e+00
 1.074403174079098e+00	 5.410486824128525e-01	 1.999091810133901e+00
 1.069210870284345e+00	 5.512386239988405e-01	 1.833549064416199e+00
 1.063914001209887e+00	 5.613937595790750e-01	 1.689919739049716e+00
 1.058512845473778e+00	 5.715125191637869e-01	 1.570764803163764e+00
 1.053007712444251e+00	 5.815933338444743e-01	 1.478993247266033e+00
 1.047398942314525e+00	 5.916346365331834e-01	 1.417858753480594e+00
 1.041686906156670e+00	 6.016348627067389e-01	 1.390955674180029e+00
 1.035872005954248e+00	 6.115924511552439e-01	 1.402214337384914e+00
 1.029954674613517e+00	 6.215058447341478e-01	 1.455895699923556e+00
 1.092427221203431e+00	 5.243888014273070e-01	 2.508552397399535e+00
 1.087408217336101e+00	 5.347188588082925e-01	 2.273829749068709e+00
 1.082283412450898e+00	 5.450170182254889e-01	 2.060874855535192e+00
 1.077053025567106e+00	 5.552816982064155e-01	 1.871435650481016e+00
 1.071717306466803e+00	 5.655113168960207e-01	 1.707637927440483e+00
 1.066276535811584e+00	 5.757042927894047e-01	 1.571983508277811e+00
 1.060731025238754e+00	 5.858590454708664e-01	 1.467347644309194e+00
 1.055081117436697e+00	 5.959739963586046e-01	 1.396975663316655e+00
 1.049327186199125e+00	 6.060475694544086e-01	 1.364478878680616e+00
 1.043469636457968e+00	 6.160781920976479e-01	 1.373829779741873e+00
 1.037508904294649e+00	 6.260642957228550e-01	 1.429356525272635e+00
 1.100381317891887e+00	 5.282069406613931e-01	 2.586028340429494e+00
 1.095325770041238e+00	 5.386122124582273e-01	 2.312042708466101e+00
 1.090163650822499e+00	 5.489853540382726e-01	 2.066040608712266e+00
 1.084895180849667e+00	 5.593247724141557e-01	 1.849444534916553e+00
 1.079520611723520e+00	 5.696288742131441e-01	 1.664055966038583e+00
 1.074040226149189e+00	 5.798960664152100e-01	 1.512053709317748e+00
 1.068454338033057e+00	 5.901247570974516e-01	 1.395991463160801e+00
 1.062763292558668e+00	 6.003133561842228e-01	 1.318794613768402e+00
 1.056967466241380e+00	 6.104602762022775e-01	 1.283756282496680e+00
 1.051067266961487e+00	 6.205639330402516e-01	 1.294532643923467e+00
 1.045063133975582e+00	 6.306227467117621e-01	 1.355137537442434e+00
 1.108335414580344e+00	 5.320250798953942e-01	 2.615666785213791e+00
 1.103243322746374e+00	 5.425055661080999e-01	 2.298569265221596e+00
 1.098043889194100e+00	 5.529536898510131e-01	 2.017501656375953e+00
 1.092737336132228e+00	 5.633678466218662e-01	 1.773350883645336e+00
 1.087323916980236e+00	 5.737464315302493e-01	 1.567360151328000e+00
 1.081803916486794e+00	 5.840878400410043e-01	 1.401127562605195e+00
 1.076177650827359e+00	 5.943904687240315e-01	 1.276603980141193e+00
 1.070445467680639e+00	 6.046527160098385e-01	 1.196090142572036e+00
 1.064607746283636e+00	 6.148729829501458e-01	 1.162233054834306e+00
 1.058664897465007e+00	 6.250496739828550e-01	 1.178021673286110e+00
 1.052617363656515e+00	 6.351811977006688e-01	 1.246781909445190e+00
 1.116289511269000e+00	 5.358432191291277e-01	 2.593981258302995e+00
 1.111160875451712e+00	 5.463989197577231e-01	 2.233027170182072e+00
 1.105924127565902e+00	 5.569220256635186e-01	 1.918099647483490e+00
 1.100579491414989e+00	 5.674109208293535e-01	 1.648776021109303e+00
 1.095127222237152e+00	 5.778639888471396e-01	 1.425512860850423e+00
 1.089567606824600e+00	 5.882796136665901e-01	 1.249075885230293e+00
 1.083900963621862e+00	 5.986561803504070e-01	 1.120538190235742e+00
 1.078127642802811e+00	 6.089920758352523e-01	 1.041277853375921e+00
 1.072248026326091e+00	 6.192856896978132e-01	 1.012974868783400e+00
 1.066262527968726e+00	 6.295354149252588e-01	 1.037607435416541e+00
 1.060171593337648e+00	 6.397396486893756e-01	 1.117447623250355e+00
 1.124243607958056e+00	 5.396613583624100e-01	 2.518859427005180e+00
 1.119078428157448e+00	 5.502922734069091e-01	 2.116320850577917e+00
 1.113804365938102e+00	 5.608903614755977e-01	 1.770747134563504e+00
 1.108421646698150e+00	 5.714539950364231e-01	 1.481191752848005e+00
 1.102930527494469e+00	 5.819815461636191e-01	 1.246259272580167e+00
 1.097331297162805e+00	 5.924713872917693e-01	 1.065496823388107e+00
 1.091624276416765e+00	 6.029218919763792e-01	 9.388309831002204e-01
 1.085809817925383e+00	 6.133314356602649e-01	 8.664256650159905e-01
 1.079888306368947e+00	 6.236983964450802e-01	 8.486797967054593e-01
 1.073860158472846e+00	 6.340211558672622e-01	 8.862244440604665e-01
 1.067725823019181e+00	 6.442980996776826e-01	 9.799194066097849e-01
 1.132197704647713e+00	 5.434794975950584e-01	 2.386360129420602e+00
 1.126995980863785e+00	 5.541856270554704e-01	 1.949126727669495e+00
 1.121684604310903e+00	 5.648586972870597e-01	 1.579783654791149e+00
 1.116263801981911e+00	 5.754970692428815e-01	 1.276394169230071e+00
 1.110733832752385e+00	 5.860991034794907e-01	 1.037133749994407e+00
 1.105094987501610e+00	 5.966631609163446e-01	 8.597241027000315e-01
 1.099347589212268e+00	 6.071876036017492e-01	 7.422128359554849e-01
 1.093491993048554e+00	 6.176707954846768e-01	 6.832645309112582e-01
 1.087528586412402e+00	 6.281111031917473e-01	 6.816896469962297e-01
 1.081457788977566e+00	 6.385068968086658e-01	 7.364427113877293e-01
 1.075280052701313e+00	 6.488565506653895e-01	 8.466201065568000e-01
 1.140151801338169e+00	 5.472976368268900e-01	 2.192474657611626e+00
 1.134913533570922e+00	 5.580789807032194e-01	 1.730795413143336e+00
 1.129564842684505e+00	 5.688270330977130e-01	 1.348048177246600e+00
 1.124105957266472e+00	 5.795401434485337e-01	 1.040981706678030e+00
 1.118537138011102e+00	 5.902166607945590e-01	 8.063432396535533e-01
 1.112858677841215e+00	 6.008549345401176e-01	 6.408810466409272e-01
 1.107070902008571e+00	 6.114533152263181e-01	 5.411170469615650e-01
 1.101174168172526e+00	 6.220101553082881e-01	 5.031986544533433e-01
 1.095168866456658e+00	 6.325238099376140e-01	 5.240007695009314e-01
 1.089055419483085e+00	 6.429926377492694e-01	 6.004787584108198e-01
 1.082834282384246e+00	 6.534150016522964e-01	 7.296215270863354e-01
 1.007291985566919e+00	 6.078304917712264e-01	 1.107957238050812e+00
 1.001405133263364e+00	 6.174810148117503e-01	 1.198897472880537e+00
 9.954190425550976e-01	 6.270852857138690e-01	 1.295955843868462e+00
 9.893342288464844e-01	 6.366417991599383e-01	 1.396749458732006e+00
 9.831512375998286e-01	 6.461490568059063e-01	 1.498623246605973e+00
 9.768706442374566e-01	 6.556055680229007e-01	 1.598649153431553e+00
 9.704930540220390e-01	 6.650098506379701e-01	 1.693625732408660e+00
 9.640191019151049e-01	 6.743604316732268e-01	 1.780078154943032e+00
 9.574494524137537e-01	 6.836558480826636e-01	 1.854258666922371e+00
 9.507847993655814e-01	 6.928946474858871e-01	 1.912147514363002e+00
 9.440258657618684e-01	 7.020753888980267e-01	 1.949454361478929e+00
 1.014846215249852e+00	 6.123889427581338e-01	 1.309760163390495e+00
 1.008915214243577e+00	 6.221118403124096e-01	 1.390724162306152e+00
 1.002884230589933e+00	 6.317881388583758e-01	 1.473263489945315e+00
 9.967537835585789e-01	 6.414163217891901e-01	 1.555262773246083e+00
 9.905244227025363e-01	 6.509948795239019e-01	 1.634417980322931e+00
 9.841967277595369e-01	 6.605223102546007e-01	 1.708235656224294e+00
 9.777713085314413e-01	 6.699971206927113e-01	 1.774032438480608e+00
 9.712488047417002e-01	 6.794178268136822e-01	 1.828934878168243e+00
 9.646298858708372e-01	 6.887829545993260e-01	 1.869879591844983e+00
 9.579152509699865e-01	 6.980910407770571e-01	 1.893613769142089e+00
 9.511056284525322e-01	 7.073406335552738e-01	 1.896696060023952e+00
 1.022400444931984e+00	 6.169473937458408e-01	 1.420814168055708e+00
 1.016425295222991e+00	 6.267426658138692e-01	 1.496396171916298e+00
 1.010349418623969e+00	 6.364909920036813e-01	 1.569930262501525e+00
 1.004173338269877e+00	 6.461908444192387e-01	 1.639693021206029e+00
 9.978976078044521e-01	 6.558407022426891e-01	 1.703845416452536e+00
 9.915228112808313e-01	 6.654390524870845e-01	 1.760431805521904e+00
 9.850495630400686e-01	 6.749843907482238e-01	 1.807379113507331e+00
 9.784785075675356e-01	 6.844752219548921e-01	 1.842496216012788e+00
 9.718103193271798e-01	 6.939100611167204e-01	 1.863473552053630e+00
 9.650457025736762e-01	 7.032874340689307e-01	 1.867882993246072e+00
 9.581853911425121e-01	 7.126058782131882e-01	 1.853177994790557e+00
 1.029954674613517e+00	 6.215058447341478e-01	 1.455895699923556e+00
 1.023935376201805e+00	 6.313734913159278e-01	 1.530192121367166e+00
 1.017814606657407e+00	 6.411938451495862e-01	 1.599511390666073e+00
 1.011592892980577e+00	 6.509653670498839e-01	 1.662643328729260e+00
 1.005270792905772e+00	 6.606865249620703e-01	 1.718324875251797e+00
 9.988488948015339e-01	 6.703557947201551e-01	 1.765238585193990e+00
 9.923278175481102e-01	 6.799716608043150e-01	 1.802011212176788e+00
 9.857082103927933e-01	 6.895326170966674e-01	 1.827212406906348e+00
 9.789907527829566e-01	 6.990371676346639e-01	 1.839353558765032e+00
 9.721761541768139e-01	 7.084838273613314e-01	 1.836886808513416e+00
 9.652651538319589e-01	 7.178711228716030e-01	 1.818204259633796e+00
 1.037508904294649e+00	 6.260642957228550e-01	 1.429356525272635e+00
 1.031445457180219e+00	 6.360043168183867e-01	 1.505979210336517e+00
 1.025279794690444e+00	 6.458966982958904e-01	 1.575170528885390e+00
 1.019012447690877e+00	 6.557398896809278e-01	 1.636351775002446e+00
 1.012643978006694e+00	 6.655323476818468e-01	 1.688943934315548e+00
 1.006174978321839e+00	 6.752725369536177e-01	 1.732365406461339e+00
 9.996060720557555e-01	 6.849589308607914e-01	 1.766029736573109e+00
 9.929379132176571e-01	 6.945900122388203e-01	 1.789343385992452e+00
 9.861711862383420e-01	 7.041642741529737e-01	 1.801703572596607e+00
 9.793066057795643e-01	 7.136802206540840e-01	 1.802496211096625e+00
 9.723449165210218e-01	 7.231363675303518e-01	 1.791093983392257e+00
 1.045063133975582e+00	 6.306227467117621e-01	 1.355137537442434e+00
 1.038955538158433e+00	 6.406351423210455e-01	 1.437226472302321e+00
 1.032744982723282e+00	 6.505995514423945e-01	 1.509692219227718e+00
 1.026432002400977e+00	 6.605144123121706e-01	 1.572702823156694e+00
 1.020017163107413e+00	 6.703781704018210e-01	 1.626468584873860e+00
 1.013501061841940e+00	 6.801892791872760e-01	 1.671238743445117e+00
 1.006884326563193e+00	 6.899462009174608e-01	 1.707298101959634e+00
 1.000167616042309e+00	 6.996474073811618e-01	 1.734963629458291e+00
 9.933516196935103e-01	 7.092913806714665e-01	 1.754581072267354e+00
 9.864370573820904e-01	 7.188766139470123e-01	 1.766521608053721e+00
 9.794246792098521e-01	 7.284016121892672e-01	 1.771178575770711e+00
 1.052617363656515e+00	 6.351811977006688e-01	 1.246781909445190e+00
 1.046465619136647e+00	 6.452659678237042e-01	 1.337017394697257e+00
 1.040210170756118e+00	 6.553024045888980e-01	 1.415493752704508e+00
 1.033851557111074e+00	 6.652889349434135e-01	 1.483238193165674e+00
 1.027390348208127e+00	 6.752239931217954e-01	 1.541352883623562e+00
 1.020827145362030e+00	 6.851060214209344e-01	 1.591010328399074e+00
 1.014162581070614e+00	 6.949334709741305e-01	 1.633448637157171e+00
 1.007397318866934e+00	 7.047048025235035e-01	 1.669966719252427e+00
 1.000532053148636e+00	 7.144184871899589e-01	 1.701919440469479e+00
 9.935675089845566e-01	 7.240730072399407e-01	 1.730712778984996e+00
 9.865044418985992e-01	 7.336668568481826e-01	 1.757799017328117e+00
 1.060171593337648e+00	 6.397396486893756e-01	 1.117447623250356e+00
 1.053975700115061e+00	 6.498967933261628e-01	 1.218061937040889e+00
 1.047675358789154e+00	 6.600052577352021e-01	 1.304636459582220e+00
 1.041271111821368e+00	 6.700634575744565e-01	 1.379167204595124e+00
 1.034763533309033e+00	 6.800698158415720e-01	 1.443748125253148e+00
 1.028153228882305e+00	 6.900227636543970e-01	 1.500564928584530e+00
 1.021440835578206e+00	 6.999207410306072e-01	 1.551888737740642e+00
 1.014627021691712e+00	 7.097621976656561e-01	 1.600069642134269e+00
 1.007712486603895e+00	 7.195455937082684e-01	 1.647530176027314e+00
 1.000697960587126e+00	 7.292694005326930e-01	 1.696758766451111e+00
 9.935842045874139e-01	 7.389321015069312e-01	 1.750303191368452e+00
 1.067725823019181e+00	 6.442980996776826e-01	 9.799194066097858e-01
 1.061485781093874e+00	 6.545276188282213e-01	 1.092707976862405e+00
 1.055140546822588e+00	 6.647081108811067e-01	 1.188836456961707e+00
 1.048690666532057e+00	 6.748379802051019e-01	 1.271376615456969e+00
 1.042136718410326e+00	 6.849156385609526e-01	 1.343511559396431e+00
 1.035479312402956e+00	 6.949395058874676e-01	 1.408527725504960e+00
 1.028719090086158e+00	 7.049080110866980e-01	 1.469806689245847e+00
 1.021856724516829e+00	 7.148195928074316e-01	 1.530816836210295e+00
 1.014892920059460e+00	 7.246727002262118e-01	 1.595104940944257e+00
 1.007828412189962e+00	 7.344657938250938e-01	 1.666287698697257e+00
 1.000663967276446e+00	 7.441973461653458e-01	 1.747430915377312e+00
 1.075280052701313e+00	 6.488565506653895e-01	 8.466201065567998e-01
 1.068995862073288e+00	 6.591584443296803e-01	 9.729522115511458e-01
 1.062605734856620e+00	 6.694109640264118e-01	 1.079474880312677e+00
 1.056110221243340e+00	 6.796125028351502e-01	 1.170439981945942e+00
 1.049509903512206e+00	 6.897614612797396e-01	 1.250214674416164e+00
 1.042805395924178e+00	 6.998562481199506e-01	 1.323271316052382e+00
 1.035997344594661e+00	 7.098952811422102e-01	 1.394177176611846e+00
 1.029086427342466e+00	 7.198769879486409e-01	 1.467583997372146e+00
 1.022073353515506e+00	 7.297998067436061e-01	 1.548217450454764e+00
 1.014958863793230e+00	 7.396621871169671e-01	 1.640866548009540e+00
 1.007743729965846e+00	 7.494625908232602e-01	 1.746447528730174e+00
 1.082834282384246e+00	 6.534150016522964e-01	 7.296215270863351e-01
 1.076505943053501e+00	 6.637892698303393e-01	 8.704505427019591e-01
 1.070070922891450e+00	 6.741138171709183e-01	 9.876076241614825e-01
 1.063529775955415e+00	 6.843870254644014e-01	 1.086626562453298e+00
 1.056883088614866e+00	 6.946072839977351e-01	 1.173151069168556e+00
 1.050131479446166e+00	 7.047729903516500e-01	 1.252922354026682e+00
 1.043275599103903e+00	 7.148825511969510e-01	 1.331766495178711e+00
 1.036316130168806e+00	 7.249343830890960e-01	 1.415581657359047e+00
 1.029253786972209e+00	 7.349269132602679e-01	 1.510325213745602e+00
 1.022089315397092e+00	 7.448585804081368e-01	 1.621109810123897e+00
 1.014823492655765e+00	 7.547278354805068e-01	 1.746406140518991e+00
 9.440258657618684e-01	 7.020753888980267e-01	 1.949454361478929e+00
 9.371722312564811e-01	 7.111981881576777e-01	 1.979775984485229e+00
 9.302258211404490e-01	 7.202600583862604e-01	 2.019452891219625e+00
 9.231874486874327e-01	 7.292595911757217e-01	 2.068204086513118e+00
 9.160579553103223e-01	 7.381953923657890e-01	 2.125857743136315e+00
 9.088382102458218e-01	 7.470660827468745e-01	 2.190691121932070e+00
 9.015291102181738e-01	 7.558702987547489e-01	 2.258326794100958e+00
 8.941315790822691e-01	 7.646066931562584e-01	 2.328901001118547e+00
 8.866465674464368e-01	 7.732739357253688e-01	 2.402963550379191e+00
 8.790750522752150e-01	 7.818707139088330e-01	 2.481219816710014e+00
 8.714180364724508e-01	 7.903957334807954e-01	 2.564532115589365e+00
 9.511056284525322e-01	 7.073406335552738e-01	 1.896696060023952e+00
 9.442005948199346e-01	 7.165318496413063e-01	 1.896273689926748e+00
 9.372020898020160e-01	 7.256616797563571e-01	 1.911879845411698e+00
 9.301109327716072e-01	 7.347287049299641e-01	 1.943492984787469e+00
 9.229279714517997e-01	 7.437315205462982e-01	 1.990682490778769e+00
 9.156540815981642e-01	 7.526687370523376e-01	 2.048483268173936e+00
 9.082901666599540e-01	 7.615389806577543e-01	 2.115498982669697e+00
 9.008371574205393e-01	 7.703408940257686e-01	 2.191876861436976e+00
 8.932960116173648e-01	 7.790731369542668e-01	 2.277789282704779e+00
 8.856677135417462e-01	 7.877343870464623e-01	 2.373435595820164e+00
 8.779532736188399e-01	 7.963233403704034e-01	 2.479043896178796e+00
 9.581853911425121e-01	 7.126058782131882e-01	 1.853177994790557e+00
 9.512289583827420e-01	 7.218655111255589e-01	 1.838174818411734e+00
 9.441783584629813e-01	 7.310633011270273e-01	 1.843520690185047e+00
 9.370344168552288e-01	 7.401978186847248e-01	 1.869220698442958e+00
 9.297979875927751e-01	 7.492676487272668e-01	 1.911942532506919e+00
 9.224699529500577e-01	 7.582713913582004e-01	 1.967570681349151e+00
 9.150512231013397e-01	 7.672076625610975e-01	 2.035936356875556e+00
 9.075427357584669e-01	 7.760750948955559e-01	 2.116801330213982e+00
 8.999454557880022e-01	 7.848723381833849e-01	 2.209848723119426e+00
 8.922603748080340e-01	 7.935980601842565e-01	 2.314685299699519e+00
 8.844885107650281e-01	 8.022509472601288e-01	 2.430843859630223e+00
 9.652651538319589e-01	 7.178711228716030e-01	 1.818204259633796e+00
 9.582573219450380e-01	 7.271991726102791e-01	 1.802272541073210e+00
 9.511546271234597e-01	 7.364649224981273e-01	 1.809142501274212e+00
 9.439579009383914e-01	 7.456669324398738e-01	 1.837508022329709e+00
 9.366680037333223e-01	 7.548037769085791e-01	 1.881326138345859e+00
 9.292858243015548e-01	 7.638740456643593e-01	 1.939351999662446e+00
 9.218122795423613e-01	 7.728763444646892e-01	 2.010988810178429e+00
 9.142483140960651e-01	 7.818092957655439e-01	 2.095479188286776e+00
 9.065948999583420e-01	 7.906715394126563e-01	 2.191907947025597e+00
 8.988530360740573e-01	 7.994617333221602e-01	 2.299205105353371e+00
 8.910237479109830e-01	 8.081785541499212e-01	 2.416149113715349e+00
 9.723449165210218e-01	 7.231363675303518e-01	 1.791093983392257e+00
 9.652856855069558e-01	 7.325328340953110e-01	 1.785447401296790e+00
 9.581308957835671e-01	 7.418665438695140e-01	 1.803595824697213e+00
 9.508813850211906e-01	 7.511360461952811e-01	 1.840061659670428e+00
 9.435380198735148e-01	 7.603399050901185e-01	 1.891010601798699e+00
 9.361016956527080e-01	 7.694766999707124e-01	 1.955471490650317e+00
 9.285733359830514e-01	 7.785450263684408e-01	 2.032253490824197e+00
 9.209538924333449e-01	 7.875434966356567e-01	 2.119949425065840e+00
 9.132443441283795e-01	 7.964707406420167e-01	 2.216939437784466e+00
 9.054456973397951e-01	 8.053254064601162e-01	 2.321394970960567e+00
 8.975589850566711e-01	 8.141061610397301e-01	 2.431283033703388e+00
 9.794246792098521e-01	 7.284016121892672e-01	 1.771178575770711e+00
 9.723140490686299e-01	 7.378664955804988e-01	 1.784661893090831e+00
 9.651071644434184e-01	 7.472681652410436e-01	 1.820074381814864e+00
 9.578048691037211e-01	 7.566051599508157e-01	 1.870254732644473e+00
 9.504080360134270e-01	 7.658760332717687e-01	 1.933394492725832e+00
 9.429175670035700e-01	 7.750793542771577e-01	 2.007810332206466e+00
 9.353343924234413e-01	 7.842137082722636e-01	 2.091566039846813e+00
 9.276594707703180e-01	 7.932776975058171e-01	 2.182476963332512e+00
 9.198937882981078e-01	 8.022699418713994e-01	 2.278114831063593e+00
 9.120383586052256e-01	 8.111890795980683e-01	 2.375812935066357e+00
 9.040942222020594e-01	 8.200337679295063e-01	 2.472671653837200e+00
 9.865044418985992e-01	 7.336668568481826e-01	 1.757799017328117e+00
 9.793424126301939e-01	 7.432001570656864e-01	 1.796654110438222e+00
 9.720834331031291e-01	 7.526697866125723e-01	 1.852745400011147e+00
 9.647283531860783e-01	 7.620742737063482e-01	 1.921656700588632e+00
 9.572780521531328e-01	 7.714121614534136e-01	 2.001089874785280e+00
 9.497334383541932e-01	 7.806820085835927e-01	 2.088478285364065e+00
 9.420954488635623e-01	 7.898823901760680e-01	 2.180992223003062e+00
 9.343650491069970e-01	 7.990118983759491e-01	 2.275544757320316e+00
 9.265432324675217e-01	 8.080691431007399e-01	 2.368797988867579e+00
 9.186310198703277e-01	 8.170527527359595e-01	 2.457169678795657e+00
 9.106294593471145e-01	 8.259613748191990e-01	 2.536840232012236e+00
 9.935842045874139e-01	 7.389321015069312e-01	 1.750303191368452e+00
 9.863707761917819e-01	 7.485338185507181e-01	 1.816404330359955e+00
 9.790597017628141e-01	 7.580714079839570e-01	 1.896725389580509e+00
 9.716518372683572e-01	 7.675433874617485e-01	 1.988015542579781e+00
 9.641480682927054e-01	 7.769482896349368e-01	 2.086914871473465e+00
 9.565493097046298e-01	 7.862846628899146e-01	 2.189805739295231e+00
 9.488565053034465e-01	 7.955510720797655e-01	 2.292819936991812e+00
 9.410706274433931e-01	 8.047460992459757e-01	 2.391846245461880e+00
 9.331926766366142e-01	 8.138683443299721e-01	 2.482538386808256e+00
 9.252236811350806e-01	 8.229164258737331e-01	 2.560323337968223e+00
 9.171646964918033e-01	 8.318889817087582e-01	 2.620409979020178e+00
 1.000663967276446e+00	 7.441973461653458e-01	 1.747430915377312e+00
 9.933991397535278e-01	 7.538674800354376e-01	 1.840532535228641e+00
 9.860359704225894e-01	 7.634730293550537e-01	 1.947264238442978e+00
 9.785753213506526e-01	 7.730125012168860e-01	 2.063251611927698e+00
 9.710180844322190e-01	 7.824844178162224e-01	 2.183886563502196e+00
 9.633651810549324e-01	 7.918873171960218e-01	 2.304336110093845e+00
 9.556175617431246e-01	 8.012197539832674e-01	 2.419551571421577e+00
 9.477762057795182e-01	 8.104803001158215e-01	 2.524278140236815e+00
 9.398421208053800e-01	 8.196675455590305e-01	 2.613064799101570e+00
 9.318163423994631e-01	 8.287800990113333e-01	 2.680274552739877e+00
 9.236999336360932e-01	 8.378165885981341e-01	 2.720094944207303e+00
 1.007743729965846e+00	 7.494625908232602e-01	 1.746447528730174e+00
 1.000427503315565e+00	 7.592011415196893e-01	 1.866120092575094e+00
 9.930122390825695e-01	 7.688746507257190e-01	 1.999740693177576e+00
 9.854988054330599e-01	 7.784816149716307e-01	 2.141451765030081e+00
 9.778881005717478e-01	 7.880205459971537e-01	 2.285214201218067e+00
 9.701810524051532e-01	 7.974899715018113e-01	 2.424818575944140e+00
 9.623786181826289e-01	 8.068884358864846e-01	 2.553896709032158e+00
 9.544817841153842e-01	 8.162145009854088e-01	 2.665933538543411e+00
 9.464915649738130e-01	 8.254667467878500e-01	 2.754279266650364e+00
 9.384090036634535e-01	 8.346437721487031e-01	 2.812161743089326e+00
 9.302351707799503e-01	 8.437441954872766e-01	 2.832699049856431e+00
 1.014823492655765e+00	 7.547278354805068e-01	 1.746406140518991e+00
 1.007455866878029e+00	 7.645348030033171e-01	 1.890325105451472e+00
 9.999885077428706e-01	 7.742762720958096e-01	 2.049658044078577e+00
 9.924222895156739e-01	 7.839507287258528e-01	 2.216863751191933e+00
 9.847581167113650e-01	 7.935566741776144e-01	 2.384292716679935e+00
 9.769969237553450e-01	 8.030926258071813e-01	 2.544201132248242e+00
 9.691396746219908e-01	 8.125571177893284e-01	 2.688765147652420e+00
 9.611873624510034e-01	 8.219487018546621e-01	 2.810095336942223e+00
 9.531410091419071e-01	 8.312659480163649e-01	 2.900251334389270e+00
 9.450016649270306e-01	 8.405074452857859e-01	 2.951256599122279e+00
 9.367704079233418e-01	 8.496718023761349e-01	 2.955113267030185e+00
 8.714180364724508e-01	 7.903957334807954e-01	 2.564532115589365e+00
 8.636778691763565e-01	 7.988462910794256e-01	 2.655145357183070e+00
 8.558542975080441e-01	 8.072225983982798e-01	 2.752556067250984e+00
 8.479483851579257e-01	 8.155234344082373e-01	 2.853469089323946e+00
 8.399612198829021e-01	 8.237475988875402e-01	 2.954448082673163e+00
 8.318939130041005e-01	 8.318939130041005e-01	 3.051921438605139e+00
 8.237475988875400e-01	 8.399612198829022e-01	 3.142188325375068e+00
 8.155234344082370e-01	 8.479483851579258e-01	 3.221424842287059e+00
 8.072225983982796e-01	 8.558542975080441e-01	 3.285690263711439e+00
 7.988462910794255e-01	 8.636778691763568e-01	 3.330933354005209e+00
 7.903957334807953e-01	 8.714180364724509e-01	 3.352998734668936e+00
 8.779532736188399e-01	 7.963233403704034e-01	 2.479043896178796e+00
 8.701550586043140e-01	 8.048372732902872e-01	 2.594034671486488e+00
 8.622728137228147e-01	 8.132763990872637e-01	 2.714821731287572e+00
 8.543076106419603e-01	 8.216394875750371e-01	 2.837036274481580e+00
 8.462605452763456e-01	 8.299253295307218e-01	 2.956244701720812e+00
 8.381327372815127e-01	 8.381327372815127e-01	 3.067956042639932e+00
 8.299253295307216e-01	 8.462605452763458e-01	 3.167629397840876e+00
 8.216394875750371e-01	 8.543076106419605e-01	 3.250681373335869e+00
 8.132763990872635e-01	 8.622728137228151e-01	 3.312493485566581e+00
 8.048372732902869e-01	 8.701550586043140e-01	 3.348419515635642e+00
 7.963233403704033e-01	 8.779532736188399e-01	 3.353792792003358e+00
 8.844885107650281e-01	 8.022509472601288e-01	 2.430843859630223e+00
 8.766322480321082e-01	 8.108282555012237e-01	 2.556742363833189e+00
 8.686913299374546e-01	 8.193301997762862e-01	 2.687841166048046e+00
 8.606668361258938e-01	 8.277555407418445e-01	 2.819114937648982e+00
 8.525598706697153e-01	 8.361030601738820e-01	 2.945537514935337e+00
 8.443715615588773e-01	 8.443715615588772e-01	 3.062090291227463e+00
 8.361030601738819e-01	 8.525598706697151e-01	 3.163770527643195e+00
 8.277555407418448e-01	 8.606668361258942e-01	 3.245599558263792e+00
 8.193301997762860e-01	 8.686913299374550e-01	 3.302630866030992e+00
 8.108282555012236e-01	 8.766322480321086e-01	 3.329958006458274e+00
 8.022509472601289e-01	 8.844885107650282e-01	 3.322722357086308e+00
 8.910237479109830e-01	 8.081785541499212e-01	 2.416149113715349e+00
 8.831094374596983e-01	 8.168192377121896e-01	 2.541601126913904e+00
 8.751098461519181e-01	 8.253840004653031e-01	 2.671814960896755e+00
 8.670260616096777e-01	 8.338715939086144e-01	 2.801517364351883e+00
 8.588591960629617e-01	 8.422807908169750e-01	 2.925485986236686e+00
 8.506103858361458e-01	 8.506103858361459e-01	 3.038558193601082e+00
 8.422807908169753e-01	 8.588591960629618e-01	 3.135639729585108e+00
 8.338715939086142e-01	 8.670260616096778e-01	 3.211713186167534e+00
 8.253840004653029e-01	 8.751098461519182e-01	 3.261846267056123e+00
 8.168192377121891e-01	 8.831094374596986e-01	 3.281199817038224e+00
 8.081785541499210e-01	 8.910237479109830e-01	 3.265035595146381e+00
 8.975589850566711e-01	 8.141061610397301e-01	 2.431283033703388e+00
 8.895866268870420e-01	 8.228102199231370e-01	 2.546988474458719e+00
 8.815283623661589e-01	 8.314378011542688e-01	 2.666934280854638e+00
 8.733852870932630e-01	 8.399876470753004e-01	 2.785999617754816e+00
 8.651585214560367e-01	 8.484585214599543e-01	 2.899154247225058e+00
 8.568492101132708e-01	 8.568492101132706e-01	 3.001467239680779e+00
 8.484585214599538e-01	 8.651585214560364e-01	 3.088115464057359e+00
 8.399876470753004e-01	 8.733852870932631e-01	 3.154391831299420e+00
 8.314378011542687e-01	 8.815283623661589e-01	 3.195713266425077e+00
 8.228102199231370e-01	 8.895866268870424e-01	 3.207628385497769e+00
 8.141061610397300e-01	 8.975589850566711e-01	 3.185824855025595e+00
 9.040942222020594e-01	 8.200337679295063e-01	 2.472671653837200e+00
 8.960638163140994e-01	 8.288012021340211e-01	 2.571325366473709e+00
 8.879468785801301e-01	 8.374916018431384e-01	 2.673381464623026e+00
 8.797445125766020e-01	 8.461037002418582e-01	 2.774263839551124e+00
 8.714578468488909e-01	 8.546362521027719e-01	 2.869514822273171e+00
 8.630880343902038e-01	 8.630880343902039e-01	 2.954803262172228e+00
 8.546362521027719e-01	 8.714578468488910e-01	 3.025932340635802e+00
 8.461037002418583e-01	 8.797445125766024e-01	 3.078847094567718e+00
 8.374916018431383e-01	 8.879468785801308e-01	 3.109641625703941e+00
 8.288012021340210e-01	 8.960638163140997e-01	 3.114565972849062e+00
 8.200337679295063e-01	 9.040942222020595e-01	 3.090032625449855e+00
 9.106294593471145e-01	 8.259613748191990e-01	 2.536840232012237e+00
 9.025410057408281e-01	 8.347921843447945e-01	 2.613074911757645e+00
 8.943653947937867e-01	 8.435454025318672e-01	 2.691330615187898e+00
 8.861037380596460e-01	 8.522197534082422e-01	 2.767960470341877e+00
 8.777571722414761e-01	 8.608139827453826e-01	 2.839452211999751e+00
 8.693268586668979e-01	 8.693268586668977e-01	 2.902435108290299e+00
 8.608139827453825e-01	 8.777571722414760e-01	 2.953686595254925e+00
 8.522197534082420e-01	 8.861037380596462e-01	 2.990138595620188e+00
 8.435454025318668e-01	 8.943653947937871e-01	 3.008883499177730e+00
 8.347921843447942e-01	 9.025410057408284e-01	 3.007179783434389e+00
 8.259613748191990e-01	 9.106294593471145e-01	 2.982457254568435e+00
 9.171646964918033e-01	 8.318889817087582e-01	 2.620409979020178e+00
 9.090181951671872e-01	 8.407831665554112e-01	 2.670741143844675e+00
 9.007839110070821e-01	 8.495992032204092e-01	 2.720948183375274e+00
 8.924629635423469e-01	 8.583358065744062e-01	 2.768690393520079e+00
 8.840564976337426e-01	 8.669917133877393e-01	 2.811766342188727e+00
 8.755656829433037e-01	 8.755656829433036e-01	 2.848119130603281e+00
 8.669917133877394e-01	 8.840564976337428e-01	 2.875841352251544e+00
 8.583358065744061e-01	 8.924629635423469e-01	 2.893179727952258e+00
 8.495992032204090e-01	 9.007839110070822e-01	 2.898539396690962e+00
 8.407831665554110e-01	 9.090181951671874e-01	 2.890487843188164e+00
 8.318889817087582e-01	 9.171646964918035e-01	 2.867758444570955e+00
 9.236999336360932e-01	 8.378165885981341e-01	 2.720094944207303e+00
 9.154953845931353e-01	 8.467741487658239e-01	 2.742867866737223e+00
 9.072024272199697e-01	 8.556530039087195e-01	 2.762393544707469e+00
 8.988221890246559e-01	 8.644518597403058e-01	 2.778007006449248e+00
 8.903558230256432e-01	 8.731694440297960e-01	 2.789175884818591e+00
 8.818045072193750e-01	 8.818045072193749e-01	 2.795503505956767e+00
 8.731694440297960e-01	 8.903558230256429e-01	 2.796731681933803e+00
 8.644518597403055e-01	 8.988221890246559e-01	 2.792743188776682e+00
 8.556530039087191e-01	 9.072024272199695e-01	 2.783563912581573e+00
 8.467741487658237e-01	 9.154953845931353e-01	 2.769364647715582e+00
 8.378165885981341e-01	 9.236999336360933e-01	 2.750462532522092e+00
 9.302351707799503e-01	 8.437441954872766e-01	 2.832699049856431e+00
 9.219725740186306e-01	 8.527651309759867e-01	 2.828037566997683e+00
 9.136209434324032e-01	 8.617068045967529e-01	 2.815819569890411e+00
 9.051814145065243e-01	 8.705679129058951e-01	 2.797418222512648e+00
 8.966551484171277e-01	 8.793471746715056e-01	 2.774321457492045e+00
 8.880433314950628e-01	 8.880433314950626e-01	 2.748132390932408e+00
 8.793471746715055e-01	 8.966551484171278e-01	 2.720569463731853e+00
 8.705679129058945e-01	 9.051814145065242e-01	 2.693466294732247e+00
 8.617068045967528e-01	 9.136209434324036e-01	 2.668771232211909e+00
 8.527651309759866e-01	 9.219725740186312e-01	 2.648546591508377e+00
 8.437441954872763e-01	 9.302351707799503e-01	 2.634967567927975e+00
 9.367704079233418e-01	 8.496718023761349e-01	 2.955113267030185e+00
 9.284497634436332e-01	 8.587561131858535e-01	 2.924870388958894e+00
 9.200394596443375e-01	 8.677606052844652e-01	 2.881373189243640e+00
 9.115406399879045e-01	 8.766839660711286e-01	 2.828388407409600e+00
 9.029544738081481e-01	 8.855249053128216e-01	 2.769768707204794e+00
 8.942821557703193e-01	 8.942821557703196e-01	 2.709449921825132e+00
 8.855249053128216e-01	 9.029544738081482e-01	 2.651448064425320e+00
 8.766839660711283e-01	 9.115406399879040e-01	 2.599856093890637e+00
 8.677606052844652e-01	 9.200394596443375e-01	 2.558840426958453e+00
 8.587561131858534e-01	 9.284497634436334e-01	 2.532637188986734e+00
 8.496718023761349e-01	 9.367704079233418e-01	 2.525548196961698e+00
 7.903957334807953e-01	 8.714180364724509e-01	 3.352998734668936e+00
 7.818707139088333e-01	 8.790750522752145e-01	 3.344659234207138e+00
 7.732739357253692e-01	 8.866465674464368e-01	 3.304986088006284e+00
 7.646066931562587e-01	 8.941315790822688e-01	 3.239346083871178e+00
 7.558702987547491e-01	 9.015291102181732e-01	 3.153292771061426e+00
 7.470660827468745e-01	 9.088382102458219e-01	 3.052559262643498e+00
 7.381953923657893e-01	 9.160579553103224e-01	 2.942917034991940e+00
 7.292595911757221e-01	 9.231874486874327e-01	 2.828163385772760e+00
 7.202600583862604e-01	 9.302258211404485e-01	 2.713934543982343e+00
 7.111981881576781e-01	 9.371722312564811e-01	 2.606896501219840e+00
 7.020753888980266e-01	 9.440258657618683e-01	 2.513841242429310e+00
 7.963233403704033e-01	 8.779532736188399e-01	 3.353792792003358e+00
 7.877343870464625e-01	 8.856677135417456e-01	 3.323702576328452e+00
 7.790731369542674e-01	 8.932960116173644e-01	 3.260791641704124e+00
 7.703408940257687e-01	 9.008371574205389e-01	 3.171840025356202e+00
 7.615389806577547e-01	 9.082901666599538e-01	 3.063798465317613e+00
 7.526687370523381e-01	 9.156540815981640e-01	 2.943779308464612e+00
 7.437315205462984e-01	 9.229279714517993e-01	 2.819047070554520e+00
 7.347287049299646e-01	 9.301109327716072e-01	 2.696278672031673e+00
 7.256616797563574e-01	 9.372020898020157e-01	 2.580757289142041e+00
 7.165318496413067e-01	 9.442005948199340e-01	 2.480257648286840e+00
 7.073406335552739e-01	 9.511056284525322e-01	 2.402846040463042e+00
 8.022509472601289e-01	 8.844885107650282e-01	 3.322722357086308e+00
 7.935980601842570e-01	 8.922603748080338e-01	 3.277621110152390e+00
 7.848723381833853e-01	 8.999454557880018e-01	 3.199628426834218e+00
 7.760750948955564e-01	 9.075427357584666e-01	 3.096447861521636e+00
 7.672076625610978e-01	 9.150512231013392e-01	 2.975934450571622e+00
 7.582713913582009e-01	 9.224699529500576e-01	 2.846084407809208e+00
 7.492676487272671e-01	 9.297979875927751e-01	 2.715024496811099e+00
 7.401978186847253e-01	 9.370344168552285e-01	 2.590995793016794e+00
 7.310633011270277e-01	 9.441783584629808e-01	 2.480544353248912e+00
 7.218655111255592e-01	 9.512289583827419e-01	 2.390888924930849e+00
 7.126058782131883e-01	 9.581853911425123e-01	 2.330873787701671e+00
 8.081785541499210e-01	 8.910237479109830e-01	 3.265035595146381e+00
 7.994617333221604e-01	 8.988530360740570e-01	 3.211058934938141e+00
 7.906715394126566e-01	 9.065948999583416e-01	 3.125455685020751e+00
 7.818092957655444e-01	 9.142483140960648e-01	 3.016373705979646e+00
 7.728763444646894e-01	 9.218122795423608e-01	 2.892090003441969e+00
 7.638740456643596e-01	 9.292858243015544e-01	 2.760999884507836e+00
 7.548037769085794e-01	 9.366680037333217e-01	 2.631605816840783e+00
 7.456669324398739e-01	 9.439579009383908e-01	 2.512506005021638e+00
 7.364649224981278e-01	 9.511546271234597e-01	 2.412030640385705e+00
 7.271991726102796e-01	 9.582573219450375e-01	 2.336563501111163e+00
 7.178711228716032e-01	 9.652651538319588e-01	 2.294740219824325e+00
 8.141061610397300e-01	 8.975589850566711e-01	 3.185824855025595e+00
 8.053254064601169e-01	 9.054456973397945e-01	 3.128521906981094e+00
 7.964707406420168e-01	 9.132443441283792e-01	 3.042114317095946e+00
 7.875434966356573e-01	 9.209538924333449e-01	 2.934725255588394e+00
 7.785450263684411e-01	 9.285733359830510e-01	 2.814581621794073e+00
 7.694766999707131e-01	 9.361016956527077e-01	 2.690003326923994e+00
 7.603399050901186e-01	 9.435380198735145e-01	 2.569392306431825e+00
 7.511360461952813e-01	 9.508813850211900e-01	 2.461221276056675e+00
 7.418665438695143e-01	 9.581308957835668e-01	 2.374022246944765e+00
 7.325328340953113e-01	 9.652856855069557e-01	 2.315126575878137e+00
 7.231363675303516e-01	 9.723449165210217e-01	 2.291359975133129e+00
 8.200337679295063e-01	 9.040942222020595e-01	 3.090032625449855e+00
 8.111890795980690e-01	 9.120383586052254e-01	 3.034382964816041e+00
 8.022699418713997e-01	 9.198937882981073e-01	 2.953331492019834e+00
 7.932776975058174e-01	 9.276594707703176e-01	 2.854517608946811e+00
 7.842137082722636e-01	 9.353343924234409e-01	 2.745655989783604e+00
 7.750793542771580e-01	 9.429175670035697e-01	 2.634526647666214e+00
 7.658760332717690e-01	 9.504080360134268e-01	 2.528964758940004e+00
 7.566051599508160e-01	 9.578048691037208e-01	 2.436850257467541e+00
 7.472681652410438e-01	 9.651071644434180e-01	 2.366097212752580e+00
 7.378664955804992e-01	 9.723140490686297e-01	 2.324493319502723e+00
 7.284016121892671e-01	 9.794246792098519e-01	 2.317743528460672e+00
 8.259613748191990e-01	 9.106294593471145e-01	 2.982457254568435e+00
 8.170527527359598e-01	 9.186310198703275e-01	 2.932887244961690e+00
 8.080691431007402e-01	 9.265432324675211e-01	 2.862725077264601e+00
 7.990118983759492e-01	 9.343650491069969e-01	 2.778676940451091e+00
 7.898823901760681e-01	 9.420954488635621e-01	 2.687492835253678e+00
 7.806820085835928e-01	 9.497334383541928e-01	 2.595958074661146e+00
 7.714121614534138e-01	 9.572780521531322e-01	 2.510884571061154e+00
 7.620742737063489e-01	 9.647283531860780e-01	 2.439101919752114e+00
 7.526697866125729e-01	 9.720834331031289e-01	 2.387448289881915e+00
 7.432001570656870e-01	 9.793424126301941e-01	 2.362761135190123e+00
 7.336668568481827e-01	 9.865044418985993e-01	 2.370994267857613e+00
 8.318889817087582e-01	 9.171646964918035e-01	 2.867758444570955e+00
 8.229164258737339e-01	 9.252236811350806e-01	 2.828156998654707e+00
 8.138683443299718e-01	 9.331926766366134e-01	 2.773807899569328e+00
 8.047460992459763e-01	 9.410706274433928e-01	 2.710044037118000e+00
 7.955510720797658e-01	 9.488565053034462e-01	 2.642207684855937e+00
 7.862846628899151e-01	 9.565493097046294e-01	 2.575644077012023e+00
 7.769482896349370e-01	 9.641480682927049e-01	 2.515694802097953e+00
 7.675433874617488e-01	 9.716518372683567e-01	 2.467691019145850e+00
 7.580714079839574e-01	 9.790597017628141e-01	 2.436946503855354e+00
 7.485338185507183e-01	 9.863707761917819e-01	 2.428750533267103e+00
 7.389321015069312e-01	 9.935842045874137e-01	 2.448305706940018e+00
 8.378165885981341e-01	 9.236999336360933e-01	 2.750462532522092e+00
 8.287800990113339e-01	 9.318163423994625e-01	 2.724196319430183e+00
 8.196675455590310e-01	 9.398421208053795e-01	 2.689991844466832e+00
 8.104803001158217e-01	 9.477762057795178e-01	 2.651377704972224e+00
 8.012197539832677e-01	 9.556175617431245e-01	 2.611854521961502e+00
 7.918873171960218e-01	 9.633651810549317e-01	 2.574891228873017e+00
 7.824844178162226e-01	 9.710180844322188e-01	 2.543921208034509e+00
 7.730125012168866e-01	 9.785753213506524e-01	 2.522338275942642e+00
 7.634730293550539e-01	 9.860359704225892e-01	 2.513492519804751e+00
 7.538674800354382e-01	 9.933991397535278e-01	 2.520685989152445e+00
 7.441973461653459e-01	 1.000663967276446e+00	 2.547168247694434e+00
 8.437441954872763e-01	 9.302351707799503e-01	 2.634967567927975e+00
 8.346437721487034e-01	 9.384090036634529e-01	 2.624895690851275e+00
 8.254667467878506e-01	 9.464915649738127e-01	 2.614591802512285e+00
 8.162145009854095e-01	 9.544817841153842e-01	 2.605358051413238e+00
 8.068884358864848e-01	 9.623786181826288e-01	 2.598428352143170e+00
 7.974899715018117e-01	 9.701810524051531e-01	 2.594968014388594e+00
 7.880205459971542e-01	 9.778881005717474e-01	 2.596073251658393e+00
 7.784816149716313e-01	 9.854988054330598e-01	 2.602770564920852e+00
 7.688746507257196e-01	 9.930122390825695e-01	 2.616015997722907e+00
 7.592011415196898e-01	 1.000427503315565e+00	 2.636694260756060e+00
 7.494625908232601e-01	 1.007743729965846e+00	 2.665617725239209e+00
 8.496718023761349e-01	 9.367704079233418e-01	 2.525548196961698e+00
 8.405074452857861e-01	 9.450016649270302e-01	 2.534036363171984e+00
 8.312659480163652e-01	 9.531410091419068e-01	 2.550829469700579e+00
 8.219487018546624e-01	 9.611873624510029e-01	 2.574589649618781e+00
 8.125571177893285e-01	 9.691396746219902e-01	 2.603867680743427e+00
 8.030926258071817e-01	 9.769969237553447e-01	 2.637106576576639e+00
 7.935566741776152e-01	 9.847581167113648e-01	 2.672645089900611e+00
 7.839507287258533e-01	 9.924222895156736e-01	 2.708721117284298e+00
 7.742762720958096e-01	 9.999885077428703e-01	 2.743474994156339e+00
 7.645348030033176e-01	 1.007455866878029e+00	 2.774952671535028e+00
 7.547278354805067e-01	 1.014823492655765e+00	 2.801108766970485e+00
 7.020753888980266e-01	 9.440258657618683e-01	 2.513841242429311e+00
 6.928946474858869e-01	 9.507847993655812e-01	 2.439639927255425e+00
 6.836558480826637e-01	 9.574494524137538e-01	 2.384832078943274e+00
 6.743604316732270e-01	 9.640191019151049e-01	 2.349842790610154e+00
 6.650098506379702e-01	 9.704930540220392e-01	 2.335095285129918e+00
 6.556055680229015e-01	 9.768706442374568e-01	 2.341004386180011e+00
 6.461490568059066e-01	 9.831512375998281e-01	 2.367970241317486e+00
 6.366417991599389e-01	 9.893342288464843e-01	 2.416372326826777e+00
 6.270852857138696e-01	 9.954190425550969e-01	 2.486563761988882e+00
 6.174810148117510e-01	 1.001405133263363e+00	 2.578865958204317e+00
 6.078304917712264e-01	 1.007291985566919e+00	 2.693563626076763e+00
 7.073406335552739e-01	 9.511056284525322e-01	 2.402846040463042e+00
 6.980910407770571e-01	 9.579152509699864e-01	 2.352853521535750e+00
 6.887829545993261e-01	 9.646298858708370e-01	 2.327773849380348e+00
 6.794178268136825e-01	 9.712488047417003e-01	 2.325481318841421e+00
 6.699971206927116e-01	 9.777713085314411e-01	 2.343806570557925e+00
 6.605223102546014e-01	 9.841967277595369e-01	 2.380533697804156e+00
 6.509948795239024e-01	 9.905244227025363e-01	 2.433397644641737e+00
 6.414163217891905e-01	 9.967537835585785e-01	 2.500081919745827e+00
 6.317881388583765e-01	 1.002884230589933e+00	 2.578216648097132e+00
 6.221118403124105e-01	 1.008915214243577e+00	 2.665376980445123e+00
 6.123889427581338e-01	 1.014846215249852e+00	 2.759081878064453e+00
 7.126058782131883e-01	 9.581853911425123e-01	 2.330873787701671e+00
 7.032874340689306e-01	 9.650457025736758e-01	 2.303789157407847e+00
 6.939100611167207e-01	 9.718103193271801e-01	 2.304320391466211e+00
 6.844752219548920e-01	 9.784785075675352e-01	 2.328413004511976e+00
 6.749843907482240e-01	 9.850495630400683e-01	 2.371940083246385e+00
 6.654390524870848e-01	 9.915228112808311e-01	 2.430702076146687e+00
 6.558407022426896e-01	 9.978976078044520e-01	 2.500426903848470e+00
 6.461908444192391e-01	 1.004173338269877e+00	 2.576770410860638e+00
 6.364909920036818e-01	 1.010349418623969e+00	 2.655317177022303e+00
 6.267426658138696e-01	 1.016425295222990e+00	 2.731581704752627e+00
 6.169473937458410e-01	 1.022400444931984e+00	 2.801009995694648e+00
 7.178711228716032e-01	 9.652651538319588e-01	 2.294740219824325e+00
 7.084838273613315e-01	 9.721761541768139e-01	 2.288471802967555e+00
 6.990371676346641e-01	 9.789907527829564e-01	 2.310018299455603e+00
 6.895326170966677e-01	 9.857082103927935e-01	 2.354004521578137e+00
 6.799716608043151e-01	 9.923278175481099e-01	 2.414966905059772e+00
 6.703557947201557e-01	 9.988488948015339e-01	 2.487355040353489e+00
 6.606865249620707e-01	 1.005270792905772e+00	 2.565533544174900e+00
 6.509653670498845e-01	 1.011592892980576e+00	 2.643784289894462e+00
 6.411938451495870e-01	 1.017814606657407e+00	 2.716309013075173e+00
 6.313734913159285e-01	 1.023935376201804e+00	 2.777232306007620e+00
 6.215058447341479e-01	 1.029954674613517e+00	 2.820605012570560e+00
 7.231363675303516e-01	 9.723449165210217e-01	 2.291359975133130e+00
 7.136802206540841e-01	 9.793066057795643e-01	 2.303047357067341e+00
 7.041642741529737e-01	 9.861711862383419e-01	 2.340548041160818e+00
 6.945900122388207e-01	 9.929379132176569e-01	 2.397760685359062e+00
 6.849589308607916e-01	 9.996060720557549e-01	 2.468492267617697e+00
 6.752725369536181e-01	 1.006174978321839e+00	 2.546460428776916e+00
 6.655323476818472e-01	 1.012643978006694e+00	 2.625296165576728e+00
 6.557398896809283e-01	 1.019012447690877e+00	 2.698546892031896e+00
 6.458966982958908e-01	 1.025279794690444e+00	 2.759679884976129e+00
 6.360043168183873e-01	 1.031445457180219e+00	 2.802086127068597e+00
 6.260642957228550e-01	 1.037508904294649e+00	 2.819084557949592e+00
 7.284016121892671e-01	 9.794246792098519e-01	 2.317743528460672e+00
 7.188766139470122e-01	 9.864370573820908e-01	 2.343778750334864e+00
 7.092913806714666e-01	 9.933516196935105e-01	 2.391719554754565e+00
 6.996474073811622e-01	 1.000167616042309e+00	 2.455319859068280e+00
 6.899462009174613e-01	 1.006884326563193e+00	 2.528251067578335e+00
 6.801892791872765e-01	 1.013501061841939e+00	 2.604104306933008e+00
 6.703781704018215e-01	 1.020017163107412e+00	 2.676393012012887e+00
 6.605144123121709e-01	 1.026432002400976e+00	 2.738555881761616e+00
 6.505995514423948e-01	 1.032744982723281e+00	 2.783960221921777e+00
 6.406351423210458e-01	 1.038955538158433e+00	 2.805905689034673e+00
 6.306227467117619e-01	 1.045063133975582e+00	 2.797628447365741e+00
 7.336668568481827e-01	 9.865044418985993e-01	 2.370994267857613e+00
 7.240730072399407e-01	 9.935675089845567e-01	 2.407042224284313e+00
 7.144184871899589e-01	 1.000532053148636e+00	 2.459468044828546e+00
 7.047048025235035e-01	 1.007397318866933e+00	 2.522449567249667e+00
 6.949334709741307e-01	 1.014162581070613e+00	 2.590103583604458e+00
 6.851060214209347e-01	 1.020827145362030e+00	 2.656487059700475e+00
 6.752239931217958e-01	 1.027390348208127e+00	 2.715598695970183e+00
 6.652889349434135e-01	 1.033851557111074e+00	 2.761380852061627e+00
 6.553024045888988e-01	 1.040210170756118e+00	 2.787721854872228e+00
 6.452659678237050e-01	 1.046465619136647e+00	 2.788458707059494e+00
 6.351811977006688e-01	 1.052617363656515e+00	 2.757380210267321e+00
 7.389321015069312e-01	 9.935842045874137e-01	 2.448305706940018e+00
 7.292694005326930e-01	 1.000697960587126e+00	 2.489323779638370e+00
 7.195455937082688e-01	 1.007712486603895e+00	 2.539849967769877e+00
 7.097621976656562e-01	 1.014627021691712e+00	 2.595042305798643e+00
 6.999207410306076e-01	 1.021440835578206e+00	 2.650031384953344e+00
 6.900227636543973e-01	 1.028153228882304e+00	 2.699919658572322e+00
 6.800698158415723e-01	 1.034763533309032e+00	 2.739781070485368e+00
 6.700634575744570e-01	 1.041271111821368e+00	 2.764661033174618e+00
 6.600052577352026e-01	 1.047675358789153e+00	 2.769576779806580e+00
 6.498967933261636e-01	 1.053975700115061e+00	 2.749518111440086e+00
 6.397396486893757e-01	 1.060171593337648e+00	 2.699448557812115e+00
 7.441973461653459e-01	 1.000663967276446e+00	 2.547168247694434e+00
 7.344657938250939e-01	 1.007828412189962e+00	 2.587215785481606e+00
 7.246727002262116e-01	 1.014892920059460e+00	 2.629039197080532e+00
 7.148195928074318e-01	 1.021856724516829e+00	 2.669111538833427e+00
 7.049080110866982e-01	 1.028719090086158e+00	 2.704133422201066e+00
 6.949395058874678e-01	 1.035479312402956e+00	 2.730820095291430e+00
 6.849156385609531e-01	 1.042136718410326e+00	 2.745898241360649e+00
 6.748379802051023e-01	 1.048690666532056e+00	 2.746103105546543e+00
 6.647081108811073e-01	 1.055140546822587e+00	 2.728175979878339e+00
 6.545276188282223e-01	 1.061485781093874e+00	 2.688862073719812e+00
 6.442980996776826e-01	 1.067725823019180e+00	 2.624908793784361e+00
 7.494625908232601e-01	 1.007743729965846e+00	 2.665617725239209e+00
 7.396621871169671e-01	 1.014958863793230e+00	 2.697413741336819e+00
 7.297998067436061e-01	 1.022073353515506e+00	 2.723323359791248e+00
 7.198769879486411e-01	 1.029086427342466e+00	 2.740787873228528e+00
 7.098952811422103e-01	 1.035997344594660e+00	 2.748622291145190e+00
 6.998562481199507e-01	 1.042805395924178e+00	 2.745709973688581e+00
 6.897614612797399e-01	 1.049509903512205e+00	 2.730995712678942e+00
 6.796125028351504e-01	 1.056110221243339e+00	 2.703479111806919e+00
 6.694109640264124e-01	 1.062605734856620e+00	 2.662208303574864e+00
 6.591584443296810e-01	 1.068995862073288e+00	 2.606274037559650e+00
 6.488565506653894e-01	 1.075280052701313e+00	 2.534804171431257e+00
 7.547278354805067e-01	 1.014823492655765e+00	 2.801108766970485e+00
 7.448585804081368e-01	 1.022089315397092e+00	 2.816988064473759e+00
 7.349269132602683e-01	 1.029253786972208e+00	 2.819100335615737e+00
 7.249343830890960e-01	 1.036316130168806e+00	 2.806315402135241e+00
 7.148825511969510e-01	 1.043275599103902e+00	 2.779820661429548e+00
 7.047729903516504e-01	 1.050131479446166e+00	 2.741211251998016e+00
 6.946072839977357e-01	 1.056883088614866e+00	 2.692203659110119e+00
 6.843870254644020e-01	 1.063529775955414e+00	 2.634624462954665e+00
 6.741138171709191e-01	 1.070070922891449e+00	 2.570399396146750e+00
 6.637892698303400e-01	 1.076505943053501e+00	 2.501542754145688e+00
 6.534150016522964e-01	 1.082834282384246e+00	 2.430147198860671e+00
 6.078304917712264e-01	 1.007291985566919e+00	 2.693563626076763e+00
 5.981352283312307e-01	 1.013079114439890e+00	 2.799629097425229e+00
 5.883967424669230e-01	 1.018766066026104e+00	 2.867033255538314e+00
 5.786165570600984e-01	 1.024352416944811e+00	 2.897509056565176e+00
 5.687961989684477e-01	 1.029837774057543e+00	 2.892761731863062e+00
 5.589371982900345e-01	 1.035221774457163e+00	 2.854466543492470e+00
 5.490410876312684e-01	 1.040504085435938e+00	 2.784266941812279e+00
 5.391094013790468e-01	 1.045684404432863e+00	 2.683773128690701e+00
 5.291436749777435e-01	 1.050762458960495e+00	 2.554561027357190e+00
 5.191454442116871e-01	 1.055738006511553e+00	 2.398171657470032e+00
 5.091162444937753e-01	 1.060610834445606e+00	 2.216110911579285e+00
 6.123889427581338e-01	 1.014846215249852e+00	 2.759081878064453e+00
 6.026209692718355e-01	 1.020676744945409e+00	 2.827391113009122e+00
 5.928094492127964e-01	 1.026406346070359e+00	 2.844020309666768e+00
 5.829559168837308e-01	 1.032034592068782e+00	 2.814966451635916e+00
 5.730619105930663e-01	 1.037561086853845e+00	 2.746268216481436e+00
 5.631289719139041e-01	 1.042985464796768e+00	 2.643996882280179e+00
 5.531586449465027e-01	 1.048307390694655e+00	 2.514247637554960e+00
 5.431524755849623e-01	 1.053526559717424e+00	 2.363131309467567e+00
 5.331120107887890e-01	 1.058642697334095e+00	 2.196766522405953e+00
 5.230387978599937e-01	 1.063655559218690e+00	 2.021272296383379e+00
 5.129343837263705e-01	 1.068564931136062e+00	 1.842761091984853e+00
 6.169473937458410e-01	 1.022400444931984e+00	 2.801009995694648e+00
 6.071067102132399e-01	 1.028274375450128e+00	 2.832308493865543e+00
 5.972221559594684e-01	 1.034046626113814e+00	 2.803441594701440e+00
 5.872952767081590e-01	 1.039716767191953e+00	 2.723771460825073e+00
 5.773276222184750e-01	 1.045284399649348e+00	 2.602754296458393e+00
 5.673207455385545e-01	 1.050749155135573e+00	 2.449925784353559e+00
 5.572762022625037e-01	 1.056110695952570e+00	 2.274886935087377e+00
 5.471955497916253e-01	 1.061368715001184e+00	 2.087290372639023e+00
 5.370803466005560e-01	 1.066522935706896e+00	 1.896827077206926e+00
 5.269321515089886e-01	 1.071573111925027e+00	 1.713213603258554e+00
 5.167525229596127e-01	 1.076519027825718e+00	 1.546179787862979e+00
 6.215058447341479e-01	 1.029954674613517e+00	 2.820605012570560e+00
 6.115924511552441e-01	 1.035872005954248e+00	 2.817001490856498e+00
 6.016348627067392e-01	 1.041686906156670e+00	 2.748824569779729e+00
 5.916346365331837e-01	 1.047398942314525e+00	 2.627923288365634e+00
 5.815933338444745e-01	 1.053007712444251e+00	 2.466276227443015e+00
 5.715125191637872e-01	 1.058512845473778e+00	 2.275972838401529e+00
 5.613937595790757e-01	 1.063914001209887e+00	 2.069195200938997e+00
 5.512386239988413e-01	 1.069210870284345e+00	 1.858200240486579e+00
 5.410486824128533e-01	 1.074403174079097e+00	 1.655302432824328e+00
 5.308255051584843e-01	 1.079490664630763e+00	 1.472857020213277e+00
 5.205706621933194e-01	 1.084473124514775e+00	 1.323243760192099e+00
 6.260642957228550e-01	 1.037508904294649e+00	 2.819084557949592e+00
 6.160781920976480e-01	 1.043469636457968e+00	 2.784010548784533e+00
 6.060475694544087e-01	 1.049327186199125e+00	 2.683589815135720e+00
 5.959739963586048e-01	 1.055081117436697e+00	 2.531299919424632e+00
 5.858590454708666e-01	 1.060731025238754e+00	 2.340766835555677e+00
 5.757042927894054e-01	 1.066276535811583e+00	 2.125743513561768e+00
 5.655113168960212e-01	 1.071717306466803e+00	 1.900088897483967e+00
 5.552816982064163e-01	 1.077053025567106e+00	 1.677747431685084e+00
 5.450170182254896e-01	 1.082283412450898e+00	 1.472729087425867e+00
 5.347188588082935e-01	 1.087408217336100e+00	 1.299089938142723e+00
 5.243888014273070e-01	 1.092427221203431e+00	 1.170913308479984e+00
 6.306227467117619e-01	 1.045063133975582e+00	 2.797628447365741e+00
 6.205639330402520e-01	 1.051067266961488e+00	 2.735799327731233e+00
 6.104602762022779e-01	 1.056967466241380e+00	 2.611055003574732e+00
 6.003133561842231e-01	 1.062763292558668e+00	 2.437662582740804e+00
 5.901247570974519e-01	 1.068454338033056e+00	 2.230040034063402e+00
 5.798960664152104e-01	 1.074040226149189e+00	 2.002733315076999e+00
 5.696288742131447e-01	 1.079520611723519e+00	 1.770393984792924e+00
 5.593247724141563e-01	 1.084895180849667e+00	 1.547757339019482e+00
 5.489853540382736e-01	 1.090163650822499e+00	 1.349621102153622e+00
 5.386122124582282e-01	 1.095325770041237e+00	 1.190824705799723e+00
 5.282069406613931e-01	 1.100381317891887e+00	 1.086229181001352e+00
 6.351811977006688e-01	 1.052617363656515e+00	 2.757380210267321e+00
 6.250496739828554e-01	 1.058664897465007e+00	 2.674757599331054e+00
 6.148729829501459e-01	 1.064607746283636e+00	 2.534438705509288e+00
 6.046527160098388e-01	 1.070445467680639e+00	 2.350660025226696e+00
 5.943904687240321e-01	 1.076177650827360e+00	 2.137795149259231e+00
 5.840878400410048e-01	 1.081803916486794e+00	 1.910331764282028e+00
 5.737464315302498e-01	 1.087323916980236e+00	 1.682849178870690e+00
 5.633678466218669e-01	 1.092737336132228e+00	 1.469996411504732e+00
 5.529536898510138e-01	 1.098043889194100e+00	 1.286470874404342e+00
 5.425055661081007e-01	 1.103243322746374e+00	 1.146997683299155e+00
 5.320250798953944e-01	 1.108335414580344e+00	 1.066309619498293e+00
 6.397396486893757e-01	 1.060171593337648e+00	 2.699448557812115e+00
 6.295354149252589e-01	 1.066262527968727e+00	 2.603204024218656e+00
 6.192856896978135e-01	 1.072248026326091e+00	 2.456864035858590e+00
 6.089920758352526e-01	 1.078127642802811e+00	 2.273832607914322e+00
 5.986561803504076e-01	 1.083900963621862e+00	 2.067621065062605e+00
 5.882796136665905e-01	 1.089567606824599e+00	 1.851826211683740e+00
 5.778639888471403e-01	 1.095127222237152e+00	 1.640109073443416e+00
 5.674109208293543e-01	 1.100579491414989e+00	 1.446174245677814e+00
 5.569220256635192e-01	 1.105924127565901e+00	 1.283749880145050e+00
 5.463989197577240e-01	 1.111160875451711e+00	 1.166568332168315e+00
 5.358432191291275e-01	 1.116289511269000e+00	 1.108238075219255e+00
 6.442980996776826e-01	 1.067725823019180e+00	 2.624908793784361e+00
 6.340211558672625e-01	 1.073860158472846e+00	 2.523388816535581e+00
 6.236983964450806e-01	 1.079888306368947e+00	 2.381362150643856e+00
 6.133314356602655e-01	 1.085809817925383e+00	 2.210616232093189e+00
 6.029218919763797e-01	 1.091624276416765e+00	 2.023000195318990e+00
 5.924713872917698e-01	 1.097331297162804e+00	 1.830405491400908e+00
 5.819815461636195e-01	 1.102930527494469e+00	 1.644747132053304e+00
 5.714539950364240e-01	 1.108421646698149e+00	 1.477945590560046e+00
 5.608903614755986e-01	 1.113804365938102e+00	 1.341917963522279e+00
 5.502922734069102e-01	 1.119078428157448e+00	 1.248446202806418e+00
 5.396613583624100e-01	 1.124243607958056e+00	 1.209020239185230e+00
 6.488565506653894e-01	 1.075280052701313e+00	 2.534804171431257e+00
 6.385068968086663e-01	 1.081457788977566e+00	 2.437496301050799e+00
 6.281111031917473e-01	 1.087528586412402e+00	 2.310875600671698e+00
 6.176707954846771e-01	 1.093491993048554e+00	 2.164346103991701e+00
 6.071876036017496e-01	 1.099347589212268e+00	 2.007312292272744e+00
 5.966631609163449e-01	 1.105094987501609e+00	 1.849163424765458e+00
 5.860991034794915e-01	 1.110733832752385e+00	 1.699258556839219e+00
 5.754970692428820e-01	 1.116263801981910e+00	 1.567027556528739e+00
 5.648586972870605e-01	 1.121684604310903e+00	 1.461599234276849e+00
 5.541856270554715e-01	 1.126995980863785e+00	 1.391748254669386e+00
 5.434794975950584e-01	 1.132197704647713e+00	 1.366214334667788e+00
 6.534150016522964e-01	 1.082834282384246e+00	 2.430147198860671e+00
 6.429926377492695e-01	 1.089055419483085e+00	 2.347647368139981e+00
 6.325238099376145e-01	 1.095168866456658e+00	 2.248261549285005e+00
 6.220101553082884e-01	 1.101174168172526e+00	 2.138260345887152e+00
 6.114533152263187e-01	 1.107070902008571e+00	 2.023838099213915e+00
 6.008549345401182e-01	 1.112858677841215e+00	 1.911132991936515e+00
 5.902166607945597e-01	 1.118537138011101e+00	 1.806482245621798e+00
 5.795401434485343e-01	 1.124105957266471e+00	 1.715496343996498e+00
 5.688270330977138e-01	 1.129564842684504e+00	 1.643509212622928e+00
 5.580789807032205e-01	 1.134913533570922e+00	 1.595780037309634e+00
 5.472976368268903e-01	 1.140151801338169e+00	 1.577492435703945e+00
 5.091162444937753e-01	 1.060610834445606e+00	 2.216110911579285e+00
 4.990558975878610e-01	 1.065381561910370e+00	 2.045754540090615e+00
 4.889676388875799e-01	 1.070049197715796e+00	 1.921026382851727e+00
 4.788529987762085e-01	 1.074613617145979e+00	 1.837992828890118e+00
 4.687135045107921e-01	 1.079074724724561e+00	 1.792544356150592e+00
 4.585506795500227e-01	 1.083432454007551e+00	 1.780403041388622e+00
 4.483660428917197e-01	 1.087686767358405e+00	 1.797130516046975e+00
 4.381611084204268e-01	 1.091837655705804e+00	 1.838136339924846e+00
 4.279373842656258e-01	 1.095885138284579e+00	 1.898686762872686e+00
 4.176963721710401e-01	 1.099829262360247e+00	 1.973913843339250e+00
 4.074395668754807e-01	 1.103670102937638e+00	 2.058824891364608e+00
 5.129343837263705e-01	 1.068564931136062e+00	 1.842761091984853e+00
 5.027985888150827e-01	 1.073371436877250e+00	 1.699319176541438e+00
 4.926346727837358e-01	 1.078074077818739e+00	 1.619744296639347e+00
 4.824441774927757e-01	 1.082672728309315e+00	 1.595923263126874e+00
 4.722286416529720e-01	 1.087167292156603e+00	 1.619496406964552e+00
 4.619896001482556e-01	 1.091557702418317e+00	 1.681871922152498e+00
 4.517285833682293e-01	 1.095843921175665e+00	 1.774240660663179e+00
 4.414471165508738e-01	 1.100025939289304e+00	 1.887591339802313e+00
 4.311467191359477e-01	 1.104103776138325e+00	 2.012726120992784e+00
 4.208289041295602e-01	 1.108077479342722e+00	 2.140276517744154e+00
 4.104951774803756e-01	 1.111947124469834e+00	 2.260704553449603e+00
 5.167525229596127e-01	 1.076519027825718e+00	 1.546179787862979e+00
 5.065412800429018e-01	 1.081361311843331e+00	 1.432434531182477e+00
 4.963017066804311e-01	 1.086098957920881e+00	 1.394877942744125e+00
 4.860353562098177e-01	 1.090731839471855e+00	 1.422213025567824e+00
 4.757437787955561e-01	 1.095259859587853e+00	 1.502841922741039e+00
 4.654285207468167e-01	 1.099682950828301e+00	 1.624885553127436e+00
 4.550911238449873e-01	 1.104001074992155e+00	 1.776203707501802e+00
 4.447331246814870e-01	 1.108214222872052e+00	 1.944415556524957e+00
 4.343560540063511e-01	 1.112322413991341e+00	 2.116891589086543e+00
 4.239614360880767e-01	 1.116325696324497e+00	 2.280361786852352e+00
 4.135507880851813e-01	 1.120224146001366e+00	 2.421672019867980e+00
 5.205706621933194e-01	 1.084473124514775e+00	 1.323243760192099e+00
 5.102839712711407e-01	 1.089351186808811e+00	 1.240116432526898e+00
 4.999687405774952e-01	 1.094123838022425e+00	 1.240087077733562e+00
 4.896265349271711e-01	 1.098790950633798e+00	 1.309647693100597e+00
 4.792589159383892e-01	 1.103352427018510e+00	 1.434951013507441e+00
 4.688674413455609e-01	 1.107808199237697e+00	 1.601833919431727e+00
 4.584536643218597e-01	 1.112158228808068e+00	 1.795822546051137e+00
 4.480191328121434e-01	 1.116402506454235e+00	 2.001738654701197e+00
 4.375653888767260e-01	 1.120541051843811e+00	 2.204369240218798e+00
 4.270939680464926e-01	 1.124573913305746e+00	 2.388496561284014e+00
 4.166063986898157e-01	 1.128501167532400e+00	 2.538754144033661e+00
 5.243888014273070e-01	 1.092427221203431e+00	 1.170913308479984e+00
 5.140266624996221e-01	 1.097341061773892e+00	 1.117518290422521e+00
 5.036357744747570e-01	 1.102148718123570e+00	 1.149208435271791e+00
 4.932177136446722e-01	 1.106850061795343e+00	 1.251215236619325e+00
 4.827740530813169e-01	 1.111444994448772e+00	 1.408406736538946e+00
 4.723063619443430e-01	 1.115933447646702e+00	 1.604967729545332e+00
 4.618162047987116e-01	 1.120315382623595e+00	 1.824763941708223e+00
 4.513051409427196e-01	 1.124590790036041e+00	 2.051639055674200e+00
 4.407747237469615e-01	 1.128759689695915e+00	 2.269228397820195e+00
 4.302265000047110e-01	 1.132822130286645e+00	 2.460985852038948e+00
 4.196620092941962e-01	 1.136778189063103e+00	 2.610210492574957e+00
 5.282069406613931e-01	 1.100381317891887e+00	 1.086229181001352e+00
 5.177693537281687e-01	 1.105330936738773e+00	 1.059926037128318e+00
 5.073028083720457e-01	 1.110173598224515e+00	 1.116249228910665e+00
 4.968088923621584e-01	 1.114909172956688e+00	 1.239934842213957e+00
 4.862891902241845e-01	 1.119537561878837e+00	 1.415072510921880e+00
 4.757452825430177e-01	 1.124058696055511e+00	 1.625673869918162e+00
 4.651787452754081e-01	 1.128472536438929e+00	 1.855493898828142e+00
 4.545911490730932e-01	 1.132779073617659e+00	 2.088050833301245e+00
 4.439840586169475e-01	 1.136978327547836e+00	 2.306654038109571e+00
 4.333590319626351e-01	 1.141070347267370e+00	 2.494431618795815e+00
 4.227176198982409e-01	 1.145055210593639e+00	 2.634357732468287e+00
 5.320250798953944e-01	 1.108335414580344e+00	 1.066309619498293e+00
 5.215120449566026e-01	 1.113320811703653e+00	 1.062719712562737e+00
 5.109698422691901e-01	 1.118198478325459e+00	 1.134934134000748e+00
 5.004000710794660e-01	 1.122968284118035e+00	 1.268144067506263e+00
 4.898043273668365e-01	 1.127630129308900e+00	 1.447267586034602e+00
 4.791842031414403e-01	 1.132183944464322e+00	 1.656941073851493e+00
 4.685412857518150e-01	 1.136629690254264e+00	 1.881546781594154e+00
 4.578771572031405e-01	 1.140967357199278e+00	 2.105240191426879e+00
 4.471933934865731e-01	 1.145196965399758e+00	 2.311977149679879e+00
 4.364915639201679e-01	 1.149318564248094e+00	 2.485540726665575e+00
 4.257732305018673e-01	 1.153332232124176e+00	 2.609567765686406e+00
 5.358432191291275e-01	 1.116289511269000e+00	 1.108238075219256e+00
 5.252547361847466e-01	 1.121310686668734e+00	 1.120887248523198e+00
 5.146368761660197e-01	 1.126223358426604e+00	 1.199030301867923e+00
 5.039912497964316e-01	 1.131027395279580e+00	 1.329376394658659e+00
 4.933194645091190e-01	 1.135722696739162e+00	 1.498352836936580e+00
 4.826231237394649e-01	 1.140309192873327e+00	 1.692130641368909e+00
 4.719038262277974e-01	 1.144786844069791e+00	 1.896649915818414e+00
 4.611631653327389e-01	 1.149155640781084e+00	 2.097645055149594e+00
 4.504027283557281e-01	 1.153415603251863e+00	 2.280669693224151e+00
 4.396240958772127e-01	 1.157566781228993e+00	 2.431121378351585e+00
 4.288288411049933e-01	 1.161609253654879e+00	 2.534265937778232e+00
 5.396613583624100e-01	 1.124243607958056e+00	 1.209020239185230e+00
 5.289974274124233e-01	 1.129300561634215e+00	 1.230072514917694e+00
 5.183039100623634e-01	 1.134248238528148e+00	 1.303234364504276e+00
 5.075824285128918e-01	 1.139086506441523e+00	 1.417565470053420e+00
 4.968346016508768e-01	 1.143815264169820e+00	 1.561886453598653e+00
 4.860620443369466e-01	 1.148434441282723e+00	 1.724800848316682e+00
 4.752663667032207e-01	 1.152943997885704e+00	 1.894716896760311e+00
 4.644491734617653e-01	 1.157343924363267e+00	 2.059869140583130e+00
 4.536120632243023e-01	 1.161634241104332e+00	 2.208339768503246e+00
 4.427566278336725e-01	 1.165814998210243e+00	 2.328079691527023e+00
 4.318844517075363e-01	 1.169886275185913e+00	 2.406929316718283e+00
 5.434794975950584e-01	 1.132197704647713e+00	 1.366214334667789e+00
 5.327401186394553e-01	 1.137290436600296e+00	 1.386292929997321e+00
 5.219709439580504e-01	 1.142273118630292e+00	 1.442409956264873e+00
 5.111736072286834e-01	 1.147145617604063e+00	 1.526825163037022e+00
 5.003497387919552e-01	 1.151907831601071e+00	 1.631617109823656e+00
 4.895009649337404e-01	 1.156559689692707e+00	 1.748700140398350e+00
 4.786289071779504e-01	 1.161101151702194e+00	 1.869841171350959e+00
 4.677351815900966e-01	 1.165532207946015e+00	 1.986676267420912e+00
 4.568213980921848e-01	 1.169852878957349e+00	 2.090726978363388e+00
 4.458891597894507e-01	 1.174063215192018e+00	 2.173416414287787e+00
 4.349400623094145e-01	 1.178163296717446e+00	 2.226085038569317e+00
 5.472976368268903e-01	 1.140151801338169e+00	 1.577492435703945e+00
 5.364828098656651e-01	 1.145280311567177e+00	 1.585687285450731e+00
 5.256379778529098e-01	 1.150297998733234e+00	 1.611574052360854e+00
 5.147647859436432e-01	 1.155204728767399e+00	 1.651443355250742e+00
 5.038648759321993e-01	 1.160000399033112e+00	 1.701477409397447e+00
 4.929398855297008e-01	 1.164684938103473e+00	 1.757760603934620e+00
 4.819914476518521e-01	 1.169258305519455e+00	 1.816289881422791e+00
 4.710211897176096e-01	 1.173720491529516e+00	 1.872984902445870e+00
 4.600307329592656e-01	 1.178071516811095e+00	 1.923697980179965e+00
 4.490216917444500e-01	 1.182311432174493e+00	 1.964223771937313e+00
 4.379956729105452e-01	 1.186440318249641e+00	 1.990308716694872e+00
 4.074395668754807e-01	 1.103670102937638e+00	 2.058824891364608e+00
 3.971702024556140e-01	 1.107407135758633e+00	 2.139136824602097e+00
 3.868880145256408e-01	 1.111041151327425e+00	 2.204091161536848e+00
 3.765944720216519e-01	 1.114572305136289e+00	 2.253619514475857e+00
 3.662910345483225e-01	 1.118000779086037e+00	 2.287901032794141e+00
 3.559791518240072e-01	 1.121326781123692e+00	 2.309012149293356e+00
 3.456602631396047e-01	 1.124550544867359e+00	 2.317908591819500e+00
 3.353357968314888e-01	 1.127672329218821e+00	 2.315297177089893e+00
 3.250071697687858e-01	 1.130692417964432e+00	 2.302037044904045e+00
 3.146757868552502e-01	 1.133611119364855e+00	 2.279129047671336e+00
 3.043430405459638e-01	 1.136428765734195e+00	 2.247705350081417e+00
 4.104951774803756e-01	 1.111947124469834e+00	 2.260704553449603e+00
 4.001487975191530e-01	 1.115712183329848e+00	 2.358528345055592e+00
 3.897894978773230e-01	 1.119373452355373e+00	 2.426479837657397e+00
 3.794187585073288e-01	 1.122931088204793e+00	 2.466940235920481e+00
 3.690380499602168e-01	 1.126385274143079e+00	 2.482426443998887e+00
 3.586488328265704e-01	 1.129736219676757e+00	 2.476937529694004e+00
 3.482525571913153e-01	 1.132984160175946e+00	 2.454161104035265e+00
 3.378506621026985e-01	 1.136129356484066e+00	 2.417145016216633e+00
 3.274445750557212e-01	 1.139172094515729e+00	 2.369115020274244e+00
 3.170357114902763e-01	 1.142112684843400e+00	 2.313460409407341e+00
 3.066254743042259e-01	 1.144951462273381e+00	 2.253719913916054e+00
 4.135507880851813e-01	 1.120224146001366e+00	 2.421672019867980e+00
 4.031273925825187e-01	 1.124017230900445e+00	 2.526856986683904e+00
 3.926909812287495e-01	 1.127705753382754e+00	 2.593223524128605e+00
 3.822430449926698e-01	 1.131289871272786e+00	 2.624640097788612e+00
 3.717850653716988e-01	 1.134769769199676e+00	 2.625120955833765e+00
 3.613185138286493e-01	 1.138145658229445e+00	 2.599650962889684e+00
 3.508448512424743e-01	 1.141417775484228e+00	 2.553995991101624e+00
 3.403655273732957e-01	 1.144586383749080e+00	 2.492855145835407e+00
 3.298819803419893e-01	 1.147651771066872e+00	 2.421106763849597e+00
 3.193956361245884e-01	 1.150614250321871e+00	 2.343810163117601e+00
 3.089079080617355e-01	 1.153474158812572e+00	 2.266188834559135e+00
 4.166063986898157e-01	 1.128501167532400e+00	 2.538754144033661e+00
 4.061059876456443e-01	 1.132322278470578e+00	 2.643820593499215e+00
 3.955924645798691e-01	 1.136038054409710e+00	 2.705769856375151e+00
 3.850673314776412e-01	 1.139648654340397e+00	 2.729295660990928e+00
 3.745320807827524e-01	 1.143154264255938e+00	 2.719257436630412e+00
 3.639881948302449e-01	 1.146555096781847e+00	 2.681068401083381e+00
 3.534371452931008e-01	 1.149851390792280e+00	 2.621593230301102e+00
 3.428803926433168e-01	 1.153043411013923e+00	 2.546611359013331e+00
 3.323193856276437e-01	 1.156131447617902e+00	 2.461955910948678e+00
 3.217555607582559e-01	 1.159115815800288e+00	 2.373654082871296e+00
 3.111903418185772e-01	 1.161996855351768e+00	 2.287908613245596e+00
 4.196620092941962e-01	 1.136778189063103e+00	 2.610210492574957e+00
 4.090845827084626e-01	 1.140627326040400e+00	 2.709419816434249e+00
 3.984939479306320e-01	 1.144370355436380e+00	 2.765530058049748e+00
 3.878916179622100e-01	 1.148007437407754e+00	 2.783413602483662e+00
 3.772790961933614e-01	 1.151538759311978e+00	 2.768119231446196e+00
 3.666578758313588e-01	 1.154964535334063e+00	 2.724991237936922e+00
 3.560294393432137e-01	 1.158285006100180e+00	 2.661009993185129e+00
 3.453952579127971e-01	 1.161500438278650e+00	 2.582474023933242e+00
 3.347567909127369e-01	 1.164611124168855e+00	 2.495489208886251e+00
 3.241154853913476e-01	 1.167617381278668e+00	 2.406364274300433e+00
 3.134727755748354e-01	 1.170519551890967e+00	 2.321591510701258e+00
 4.227176198982409e-01	 1.145055210593639e+00	 2.634357732468287e+00
 4.120631777709073e-01	 1.148932373610068e+00	 2.723661593331693e+00
 4.013954312809877e-01	 1.152702656462910e+00	 2.773880368854891e+00
 3.907159044463422e-01	 1.156366220474983e+00	 2.789433443247548e+00
 3.800261116035095e-01	 1.159923254367906e+00	 2.774918171615039e+00
 3.693275568319923e-01	 1.163373973886183e+00	 2.735110861361684e+00
 3.586217333928314e-01	 1.166718621408003e+00	 2.676185453672575e+00
 3.479101231817733e-01	 1.169957465543320e+00	 2.604384873892295e+00
 3.371941961973218e-01	 1.173090800719770e+00	 2.525421032537253e+00
 3.264754100239330e-01	 1.176118946757029e+00	 2.445213176507390e+00
 3.157552093305945e-01	 1.179042248430168e+00	 2.369868813311781e+00
 4.257732305018673e-01	 1.153332232124176e+00	 2.609567765686406e+00
 4.150417728329115e-01	 1.157237421179736e+00	 2.686559112212420e+00
 4.042969146308859e-01	 1.161034957489440e+00	 2.732163492929955e+00
 3.935401909300050e-01	 1.164725003542213e+00	 2.749730154229627e+00
 3.827731270131807e-01	 1.168307749423834e+00	 2.742778864696612e+00
 3.719972378321467e-01	 1.171783412438303e+00	 2.714992371644015e+00
 3.612140274419730e-01	 1.175152236715827e+00	 2.670945400223431e+00
 3.504249884502812e-01	 1.178414492807989e+00	 2.616171601333813e+00
 3.396316014814514e-01	 1.181570477270684e+00	 2.555357714965502e+00
 3.288353346560809e-01	 1.184620512235391e+00	 2.493377400405264e+00
 3.180376430859393e-01	 1.187564944969370e+00	 2.435293966691075e+00
 4.288288411049933e-01	 1.161609253654879e+00	 2.534265937778232e+00
 4.180203678944087e-01	 1.165542468749559e+00	 2.598131770742241e+00
 4.071983979802761e-01	 1.169367258516111e+00	 2.641689980369826e+00
 3.963644774131643e-01	 1.173083786609569e+00	 2.666616646334103e+00
 3.855201424223589e-01	 1.176692244479873e+00	 2.674741994717303e+00
 3.746669188318235e-01	 1.180192850990518e+00	 2.668045288088656e+00
 3.638063214906573e-01	 1.183585852023727e+00	 2.649006661859275e+00
 3.529398537183571e-01	 1.186871520072716e+00	 2.621552265686099e+00
 3.420690067651786e-01	 1.190050153821637e+00	 2.588801702340717e+00
 3.311952592878606e-01	 1.193122077713771e+00	 2.553941411648897e+00
 3.203200768409540e-01	 1.196087641508569e+00	 2.520345583262519e+00
 4.318844517075363e-01	 1.169886275185913e+00	 2.406929316718283e+00
 4.209989629553321e-01	 1.173847516319692e+00	 2.458405132084846e+00
 4.100998813291079e-01	 1.177699559543065e+00	 2.503739545186191e+00
 3.991887638957872e-01	 1.181442569677181e+00	 2.542346150204231e+00
 3.882671578310279e-01	 1.185076739536136e+00	 2.573767478190694e+00
 3.773365998310240e-01	 1.188602289542922e+00	 2.597673291272939e+00
 3.663986155389030e-01	 1.192019467331779e+00	 2.613981357248829e+00
 3.554547189860368e-01	 1.195328547337558e+00	 2.624139524228713e+00
 3.445064120485563e-01	 1.198529830372667e+00	 2.629155541845290e+00
 3.335551839193410e-01	 1.201623643192187e+00	 2.629901065852669e+00
 3.226025105957234e-01	 1.204610338047766e+00	 2.627430330092061e+00
 4.349400623094145e-01	 1.178163296717446e+00	 2.226085038569317e+00
 4.239775580156150e-01	 1.182152563890288e+00	 2.267410877318087e+00
 4.130013646773309e-01	 1.186031860570447e+00	 2.319562322836199e+00
 4.020130503778399e-01	 1.189801352745175e+00	 2.379114491214260e+00
 3.910141732391717e-01	 1.193461234592733e+00	 2.442737483009120e+00
 3.800062808297496e-01	 1.197011728095609e+00	 2.507199040982711e+00
 3.689909095867292e-01	 1.200453082640061e+00	 2.569380975559080e+00
 3.579695842533565e-01	 1.203785574602574e+00	 2.627444694688458e+00
 3.469438173316374e-01	 1.207009506923811e+00	 2.679725710783306e+00
 3.359151085505915e-01	 1.210125208670659e+00	 2.724167003358545e+00
 3.248849443503319e-01	 1.213133034586957e+00	 2.758885702861411e+00
 4.379956729105452e-01	 1.186440318249641e+00	 1.990308716694872e+00
 4.269561530751904e-01	 1.190457611461505e+00	 2.025186754580687e+00
 4.159028480248949e-01	 1.194364161598395e+00	 2.090380070269348e+00
 4.048373368592890e-01	 1.198160135813678e+00	 2.179062264788254e+00
 3.937611886467740e-01	 1.201845729649776e+00	 2.284459316902466e+00
 3.826759618280015e-01	 1.205421166648674e+00	 2.399857552918039e+00
 3.715832036341543e-01	 1.208886697948648e+00	 2.518611253518567e+00
 3.604844495203520e-01	 1.212242601867819e+00	 2.634881657781609e+00
 3.493812226144747e-01	 1.215489183475108e+00	 2.743726294645751e+00
 3.382750331816809e-01	 1.218626774149204e+00	 2.839567910412445e+00
 3.271673781048640e-01	 1.221655731126142e+00	 2.916982691541103e+00
 3.043430405459638e-01	 1.136428765734195e+00	 2.247705350081417e+00
 2.940103105200784e-01	 1.139145713255937e+00	 2.217611857972199e+00
 2.836789636376346e-01	 1.141762342280760e+00	 2.197876113416159e+00
 2.733503530559896e-01	 1.144279056132160e+00	 2.188544016826023e+00
 2.630258176635664e-01	 1.146696280400205e+00	 2.189722115489078e+00
 2.527066816735784e-01	 1.149014462474888e+00	 2.201572046238920e+00
 2.423942542335408e-01	 1.151234071072297e+00	 2.224305191662539e+00
 2.320898290506398e-01	 1.153355595754177e+00	 2.258177548409789e+00
 2.217946840330177e-01	 1.155379546441417e+00	 2.303484805049164e+00
 2.115100809470059e-01	 1.157306452922045e+00	 2.360557625903978e+00
 2.012372650903192e-01	 1.159136864354258e+00	 2.429757136405603e+00
 3.066254743042259e-01	 1.144951462273381e+00	 2.253719913916054e+00
 2.962152535236881e-01	 1.147688785660359e+00	 2.200816541516911e+00
 2.858064262595311e-01	 1.150325038207474e+00	 2.163036849925841e+00
 2.754003558171759e-01	 1.152860626262969e+00	 2.140105101622141e+00
 2.649983911260981e-01	 1.155295978608647e+00	 2.131790118229672e+00
 2.546018663305073e-01	 1.157631545989724e+00	 2.137900420657596e+00
 2.442121003959286e-01	 1.159867800637453e+00	 2.158279598869291e+00
 2.338303967317625e-01	 1.162005235785069e+00	 2.192801907911415e+00
 2.234580428298802e-01	 1.164044365177641e+00	 2.241368085701068e+00
 2.130963099192855e-01	 1.165985722576369e+00	 2.303901387056368e+00
 2.027464526368590e-01	 1.167829861257889e+00	 2.380343827564276e+00
 3.089079080617355e-01	 1.153474158812572e+00	 2.266188834559135e+00
 2.984201965265155e-01	 1.156231858064867e+00	 2.199129296133453e+00
 2.879338888806232e-01	 1.158887734134355e+00	 2.149671013917668e+00
 2.774503585775424e-01	 1.161442196394022e+00	 2.117406574694367e+00
 2.669709645878010e-01	 1.163895676817406e+00	 2.101960114496295e+00
 2.564970509866032e-01	 1.166248629504951e+00	 2.102982853190062e+00
 2.460299465574828e-01	 1.168501530203065e+00	 2.120148878059659e+00
 2.355709644120541e-01	 1.170654875816480e+00	 2.153151171438295e+00
 2.251214016259160e-01	 1.172709183914441e+00	 2.201697876275210e+00
 2.146825388907438e-01	 1.174664992231320e+00	 2.265508792492649e+00
 2.042556401825828e-01	 1.176522858162191e+00	 2.344312096085654e+00
 3.111903418185772e-01	 1.161996855351768e+00	 2.287908613245596e+00
 3.006251395286592e-01	 1.164774930469441e+00	 2.214626899740982e+00
 2.900613515010231e-01	 1.167450430061359e+00	 2.159252326603448e+00
 2.795003613372141e-01	 1.170023766525256e+00	 2.121431271537802e+00
 2.689435380488112e-01	 1.172495375026404e+00	 2.100831691825189e+00
 2.583922356420127e-01	 1.174865713020469e+00	 2.097138754280671e+00
 2.478477927183597e-01	 1.177135259769021e+00	 2.110050736841419e+00
 2.373115320916792e-01	 1.179304515848281e+00	 2.139275195596220e+00
 2.267847604212971e-01	 1.181374002651673e+00	 2.184525389861462e+00
 2.162687678615592e-01	 1.183344261886740e+00	 2.245516956841640e+00
 2.057648277276742e-01	 1.185215855066995e+00	 2.321964826482684e+00
 3.134727755748354e-01	 1.170519551890967e+00	 2.321591510701258e+00
 3.028300825302183e-01	 1.173318002874057e+00	 2.249322546720601e+00
 2.921888141208432e-01	 1.176013125988446e+00	 2.193208235229283e+00
 2.815503640963159e-01	 1.178605336656612e+00	 2.153129845988603e+00
 2.709161115092655e-01	 1.181095073235562e+00	 2.128983262061496e+00
 2.602874202968823e-01	 1.183482796536182e+00	 2.120674409928654e+00
 2.496656388787153e-01	 1.185768989335205e+00	 2.128114987106851e+00
 2.390520997708024e-01	 1.187954155880343e+00	 2.151218480182722e+00
 2.284481192161953e-01	 1.190038821389194e+00	 2.189896464909980e+00
 2.178549968319098e-01	 1.192023531542475e+00	 2.244055178898932e+00
 2.072740152723170e-01	 1.193908851972134e+00	 2.313592356453735e+00
 3.157552093305945e-01	 1.179042248430168e+00	 2.369868813311781e+00
 3.050350255312917e-01	 1.181861075278695e+00	 2.305168336216555e+00
 2.943162767401960e-01	 1.184575821915574e+00	 2.252921746763718e+00
 2.836003668549725e-01	 1.187186906788029e+00	 2.213422067822814e+00
 2.728886849692993e-01	 1.189694771444798e+00	 2.186972936625144e+00
 2.621826049513589e-01	 1.192099880051993e+00	 2.173883543577818e+00
 2.514834850387057e-01	 1.194402718901503e+00	 2.174463897675265e+00
 2.407926674495880e-01	 1.196603795912533e+00	 2.189020410859380e+00
 2.301114780107828e-01	 1.198703640126860e+00	 2.217851792337825e+00
 2.194412258019741e-01	 1.200702801198366e+00	 2.261245242683208e+00
 2.087832028166949e-01	 1.202601848877441e+00	 2.319472936502431e+00
 3.180376430859393e-01	 1.187564944969370e+00	 2.435293966691075e+00
 3.072399685319786e-01	 1.190404147683333e+00	 2.384057660653184e+00
 2.964437393591938e-01	 1.193138517842703e+00	 2.339733189346179e+00
 2.856503696133087e-01	 1.195768476919445e+00	 2.303198070591341e+00
 2.748612584290495e-01	 1.198294469654034e+00	 2.275339369625104e+00
 2.640777896055892e-01	 1.200716963567804e+00	 2.257047858809440e+00
 2.533013311984869e-01	 1.203036448467802e+00	 2.249212536243488e+00
 2.425332351282008e-01	 1.205253435944724e+00	 2.252715495394981e+00
 2.317748368052311e-01	 1.207368458864524e+00	 2.268427136436496e+00
 2.210274547719304e-01	 1.209382070854256e+00	 2.297201708700780e+00
 2.102923903609918e-01	 1.211294845782747e+00	 2.339873172560182e+00
 3.203200768409540e-01	 1.196087641508569e+00	 2.520345583262519e+00
 3.094449115323776e-01	 1.198947220087949e+00	 2.487827499444332e+00
 2.985712019779490e-01	 1.201701213769790e+00	 2.454941905098300e+00
 2.877003723714495e-01	 1.204350047050801e+00	 2.423319552172831e+00
 2.768338318886523e-01	 1.206894167863191e+00	 2.394602570425434e+00
 2.659729742597197e-01	 1.209334047083517e+00	 2.370437563795701e+00
 2.551191773582150e-01	 1.211670178033985e+00	 2.352469101177366e+00
 2.442738028068050e-01	 1.213903075976785e+00	 2.342333593800030e+00
 2.334381955997127e-01	 1.216033277602045e+00	 2.341653549889659e+00
 2.226136837419571e-01	 1.218061340509991e+00	 2.352032195906684e+00
 2.118015779053913e-01	 1.219987842687886e+00	 2.375048452459124e+00
 3.226025105957234e-01	 1.204610338047766e+00	 2.627430330092061e+00
 3.116498545325878e-01	 1.207490292492523e+00	 2.618260622589986e+00
 3.006986645965741e-01	 1.210263909696794e+00	 2.599807877697235e+00
 2.897503751295196e-01	 1.212931617182036e+00	 2.574620930385736e+00
 2.788064053482435e-01	 1.215493866072189e+00	 2.545264687175666e+00
 2.678681589138971e-01	 1.217951130599036e+00	 2.514311878416645e+00
 2.569370235180463e-01	 1.220303907599940e+00	 2.484335243647321e+00
 2.460143704855653e-01	 1.222552716008587e+00	 2.457900142655022e+00
 2.351015543943990e-01	 1.224698096339278e+00	 2.437557583192538e+00
 2.241999127122325e-01	 1.226740610165411e+00	 2.425837654823020e+00
 2.133107654500772e-01	 1.228680839592689e+00	 2.425243357055360e+00
 3.248849443503319e-01	 1.213133034586957e+00	 2.758885702861411e+00
 3.138547975327082e-01	 1.216033364897031e+00	 2.777087708591244e+00
 3.028261272151812e-01	 1.218826605623674e+00	 2.775553297918515e+00
 2.918003778876437e-01	 1.221513187313088e+00	 2.757910455869342e+00
 2.807789788079597e-01	 1.224093564280949e+00	 2.727810762733221e+00
 2.697633435682682e-01	 1.226568214114262e+00	 2.688919524893040e+00
 2.587548696781368e-01	 1.228937637165553e+00	 2.644906380582470e+00
 2.477549381646460e-01	 1.231202356039998e+00	 2.599436373917871e+00
 2.367649131894622e-01	 1.233362915076078e+00	 2.556161488748205e+00
 2.257861416829349e-01	 1.235419879820361e+00	 2.518712632249348e+00
 2.148199529952333e-01	 1.237373836496991e+00	 2.490692056757188e+00
 3.271673781048640e-01	 1.221655731126142e+00	 2.916982691541103e+00
 3.160597405328376e-01	 1.224576437301452e+00	 2.965989380867205e+00
 3.049535898338829e-01	 1.227389301550389e+00	 2.983364070177372e+00
 2.938503806459468e-01	 1.230094757443897e+00	 2.973971284319977e+00
 2.827515522679372e-01	 1.232693262489390e+00	 2.942709464325604e+00
 2.716585282229795e-01	 1.235185297629098e+00	 2.894499202739790e+00
 2.605727158386424e-01	 1.237571366730709e+00	 2.834271998891618e+00
 2.494955058442119e-01	 1.239851996070890e+00	 2.766959528479906e+00
 2.384282719850742e-01	 1.242027733812301e+00	 2.697483419900658e+00
 2.273723706542426e-01	 1.244099149474684e+00	 2.630745527975594e+00
 2.163291405410435e-01	 1.246066833400622e+00	 2.571618694171140e+00
 2.012372650903192e-01	 1.159136864354258e+00	 2.429757136405603e+00
 1.909757223370208e-01	 1.160871635377850e+00	 2.499697556240916e+00
 1.807284145044399e-01	 1.162511032589169e+00	 2.558966079255501e+00
 1.704965389236662e-01	 1.164055659696293e+00	 2.607951405316362e+00
 1.602812752409672e-01	 1.165506137775708e+00	 2.647051829410733e+00
 1.500837851699626e-01	 1.166863104757728e+00	 2.676671674730098e+00
 1.399052122595189e-01	 1.168127214910092e+00	 2.697217898742206e+00
 1.297466816772556e-01	 1.169299138320258e+00	 2.709096864086887e+00
 1.196093000085310e-01	 1.170379560376875e+00	 2.712711266023452e+00
 1.094941550707644e-01	 1.171369181250904e+00	 2.708457208131133e+00
 9.940231574293544e-02	 1.172268715376846e+00	 2.696721418013245e+00
 2.027464526368590e-01	 1.167829861257889e+00	 2.380343827564276e+00
 1.924079530009566e-01	 1.169577642271411e+00	 2.458912035572377e+00
 1.820837950411904e-01	 1.171229334212641e+00	 2.527772002989696e+00
 1.717751850680933e-01	 1.172785545317202e+00	 2.586868384598015e+00
 1.614833115747479e-01	 1.174246901319383e+00	 2.636175184313827e+00
 1.512093449871021e-01	 1.175614044933695e+00	 2.675692325528245e+00
 1.409544374301233e-01	 1.176887635334593e+00	 2.705442370840013e+00
 1.307197225096806e-01	 1.178068347634899e+00	 2.725467382809190e+00
 1.205063151100237e-01	 1.179156872363373e+00	 2.735825917302766e+00
 1.103153112067120e-01	 1.180153914941946e+00	 2.736590141030183e+00
 1.001477876948355e-01	 1.181060195163063e+00	 2.727843064970572e+00
 2.042556401825828e-01	 1.176522858162191e+00	 2.344312096085654e+00
 1.938401836640811e-01	 1.178283649165676e+00	 2.426431159078299e+00
 1.834391755771361e-01	 1.179947635836845e+00	 2.500062669035582e+00
 1.730538312117262e-01	 1.181515430938867e+00	 2.564828965379722e+00
 1.626853479077519e-01	 1.182987664863832e+00	 2.620397350290137e+00
 1.523349048034916e-01	 1.184364985110445e+00	 2.666476743571166e+00
 1.420036626000162e-01	 1.185648055759887e+00	 2.702814469933892e+00
 1.316927633414469e-01	 1.186837556950337e+00	 2.729193169983587e+00
 1.214033302109270e-01	 1.187934184350669e+00	 2.745427826191876e+00
 1.111364673421585e-01	 1.188938648633787e+00	 2.751362895205598e+00
 1.008932596463443e-01	 1.189851674950080e+00	 2.746869537996710e+00
 2.057648277276742e-01	 1.185215855066995e+00	 2.321964826482684e+00
 1.952724143265823e-01	 1.186989656060471e+00	 2.402730737102320e+00
 1.847945561124680e-01	 1.188665937461601e+00	 2.476422602141640e+00
 1.743324773547567e-01	 1.190245316561098e+00	 2.542459658507189e+00
 1.638873842401690e-01	 1.191728428408858e+00	 2.600317642023162e+00
 1.534604646193161e-01	 1.193115925287784e+00	 2.649525475003396e+00
 1.430528877693740e-01	 1.194408476185774e+00	 2.689662075802192e+00
 1.326658041727185e-01	 1.195606766266372e+00	 2.720353281171182e+00
 1.223003453113881e-01	 1.196711496338564e+00	 2.741268872273318e+00
 1.119576234772293e-01	 1.197723382326228e+00	 2.752119695317532e+00
 1.016387315975596e-01	 1.198643154737697e+00	 2.752654867972061e+00
 2.072740152723170e-01	 1.193908851972134e+00	 2.313592356453735e+00
 1.967046449886486e-01	 1.195695662955619e+00	 2.388269127306257e+00
 1.861499366473765e-01	 1.197384239086723e+00	 2.457415869124677e+00
 1.756111234973764e-01	 1.198975202183708e+00	 2.520365482374347e+00
 1.650894205721892e-01	 1.200469191954271e+00	 2.576514886082155e+00
 1.545860244347607e-01	 1.201866865465514e+00	 2.625321687184578e+00
 1.441021129383737e-01	 1.203168896612058e+00	 2.666300967893236e+00
 1.336388450036595e-01	 1.204375975582805e+00	 2.699022181311829e+00
 1.231973604115540e-01	 1.205488808326859e+00	 2.723106145591557e+00
 1.127787796120495e-01	 1.206508116019070e+00	 2.738222127057448e+00
 1.023842035485794e-01	 1.207434634525714e+00	 2.744085002968459e+00
 2.087832028166949e-01	 1.202601848877441e+00	 2.319472936502431e+00
 1.981368756504679e-01	 1.204401669850942e+00	 2.383487860948573e+00
 1.875053171820532e-01	 1.206102540712028e+00	 2.443586804806364e+00
 1.768897696397768e-01	 1.207705087806507e+00	 2.499130718894866e+00
 1.662914569040022e-01	 1.209209955499877e+00	 2.549548134750426e+00
 1.557115842500103e-01	 1.210617805643440e+00	 2.594331765709867e+00
 1.451513381071916e-01	 1.211929317038539e+00	 2.633035228455565e+00
 1.346118858344344e-01	 1.213145184899439e+00	 2.665269874533990e+00
 1.240943755115722e-01	 1.214266120315354e+00	 2.690701721434290e+00
 1.135999357467444e-01	 1.215292849712110e+00	 2.709048472985296e+00
 1.031296754995014e-01	 1.216226114313930e+00	 2.720076619089899e+00
 2.102923903609918e-01	 1.211294845782747e+00	 2.339873172560182e+00
 1.995691063122282e-01	 1.213107676746267e+00	 2.388812244641159e+00
 1.888606977166885e-01	 1.214820842337333e+00	 2.435460708817641e+00
 1.781684157821497e-01	 1.216434973429306e+00	 2.479319638756753e+00
 1.674934932357980e-01	 1.217950719045483e+00	 2.519957350686900e+00
 1.568371440652499e-01	 1.219368745821367e+00	 2.557005887054468e+00
 1.462005632760045e-01	 1.220689737465020e+00	 2.590157629426902e+00
 1.355849266652071e-01	 1.221914394216071e+00	 2.619162029301519e+00
 1.249913906115898e-01	 1.223043432303848e+00	 2.643822445569390e+00
 1.144210918814393e-01	 1.224077583405152e+00	 2.663993077575356e+00
 1.038751474504234e-01	 1.225017594102147e+00	 2.679575983000254e+00
 2.118015779053913e-01	 1.219987842687886e+00	 2.375048452459124e+00
 2.010013369741176e-01	 1.221813683641414e+00	 2.404651938807522e+00
 1.902160782514735e-01	 1.223539143962455e+00	 2.433544514723993e+00
 1.794470619246867e-01	 1.225164859051915e+00	 2.461477197492324e+00
 1.686955295677663e-01	 1.226691482590897e+00	 2.488264063875782e+00
 1.579627038806646e-01	 1.228119685999097e+00	 2.513778568058184e+00
 1.472497884449890e-01	 1.229450157891303e+00	 2.537950003891965e+00
 1.365579674961419e-01	 1.230683603532504e+00	 2.560760099130018e+00
 1.258884057117540e-01	 1.231820744292142e+00	 2.582239729416133e+00
 1.152422480162592e-01	 1.232862317097992e+00	 2.602465740014157e+00
 1.046206194014433e-01	 1.233809073890164e+00	 2.621557863560003e+00
 2.133107654500772e-01	 1.228680839592689e+00	 2.425243357055360e+00
 2.024335676363242e-01	 1.230519690536209e+00	 2.431401513996266e+00
 1.915714587865989e-01	 1.232257445587211e+00	 2.438327432842541e+00
 1.807257080675794e-01	 1.233894744674147e+00	 2.446129703808899e+00
 1.698975659000969e-01	 1.235432246135923e+00	 2.454972002236880e+00
 1.590882636964393e-01	 1.236870626176435e+00	 2.465069193397114e+00
 1.482990136143216e-01	 1.238210578317190e+00	 2.476683602873516e+00
 1.375310083274029e-01	 1.239452812848540e+00	 2.490121439092359e+00
 1.267854208122119e-01	 1.240598056280037e+00	 2.505729354658771e+00
 1.160634041513297e-01	 1.241647050790434e+00	 2.523891133375999e+00
 1.053660913526588e-01	 1.242600553677780e+00	 2.545024490139919e+00
 2.148199529952333e-01	 1.237373836496991e+00	 2.490692056757188e+00
 2.038657982990362e-01	 1.239225697430475e+00	 2.469440986138901e+00
 1.929268393222558e-01	 1.240975747211415e+00	 2.450281568044684e+00
 1.820043542110196e-01	 1.242624630295811e+00	 2.433785461544480e+00
 1.710996022329800e-01	 1.244173009680370e+00	 2.420567697191921e+00
 1.602138235127591e-01	 1.245621566353186e+00	 2.411282522125071e+00
 1.493482387841790e-01	 1.246970998742483e+00	 2.406619438177951e+00
 1.385040491591543e-01	 1.248222022163977e+00	 2.407299418320427e+00
 1.276824359131110e-01	 1.249375368267334e+00	 2.414071286838213e+00
 1.168845602867759e-01	 1.250431784482275e+00	 2.427708248879061e+00
 1.061115633041677e-01	 1.251392033464797e+00	 2.449004555316344e+00
 2.163291405410435e-01	 1.246066833400622e+00	 2.571618694171140e+00
 2.052980289624416e-01	 1.247931704324035e+00	 2.519136331780162e+00
 1.942822198586349e-01	 1.249694048834886e+00	 2.469862513765892e+00
 1.832830003551988e-01	 1.251354515916720e+00	 2.424935386536359e+00
 1.723016385666052e-01	 1.252913773224046e+00	 2.385521065409937e+00
 1.613393833298090e-01	 1.254372506529152e+00	 2.352809174306928e+00
 1.503974639547379e-01	 1.255731419166985e+00	 2.328008611976542e+00
 1.394770899915604e-01	 1.256991231478618e+00	 2.312343528698821e+00
 1.285794510145984e-01	 1.258152680253831e+00	 2.307049497483443e+00
 1.177057164227230e-01	 1.259216518173316e+00	 2.313369863997341e+00
 1.068570352560679e-01	 1.260183513251014e+00	 2.332552259780792e+00
 9.940231574293544e-02	 1.172268715376846e+00	 2.696721418013245e+00
 8.933653701907020e-02	 1.173078760736435e+00	 2.685718871740050e+00
 7.929611196705814e-02	 1.173800218715625e+00	 2.682885766349601e+00
 6.928202837001728e-02	 1.174433842814812e+00	 2.687392975311289e+00
 5.929525517689356e-02	 1.174980398714412e+00	 2.698349314083816e+00
 4.933674240191636e-02	 1.175440663770815e+00	 2.714802160693797e+00
 3.940742103752461e-02	 1.175815426514736e+00	 2.735738144282968e+00
 2.950820298053884e-02	 1.176105486152319e+00	 2.760083891913323e+00
 1.963998097134695e-02	 1.176311652069365e+00	 2.786706824521523e+00
 9.803628545861746e-03	 1.176434743339030e+00	 2.814415993537373e+00
 0.000000000000000e+00	 1.176475588233336e+00	 2.841962950470548e+00
 1.001477876948355e-01	 1.181060195163063e+00	 2.727843064970572e+00
 9.000652022961728e-02	 1.181876315493052e+00	 2.716737607040234e+00
 7.989079657725708e-02	 1.182603184077831e+00	 2.710695152732014e+00
 6.980161192876753e-02	 1.183241560068681e+00	 2.710134611964008e+00
 5.973994249974197e-02	 1.183792214888246e+00	 2.715368085985087e+00
 4.970674542905570e-02	 1.184255931722710e+00	 2.726601142555384e+00
 3.970295869113922e-02	 1.184633505016388e+00	 2.743933222948062e+00
 2.972950102159660e-02	 1.184925739969079e+00	 2.767358169232539e+00
 1.978727185593514e-02	 1.185133452036587e+00	 2.796764860873432e+00
 9.877151281162630e-03	 1.185257466434719e+00	 2.831937950281616e+00
 0.000000000000000e+00	 1.185298617647136e+00	 2.872558687736613e+00
 1.008932596463443e-01	 1.189851674950080e+00	 2.746869537996710e+00
 9.067650343990423e-02	 1.190673870250469e+00	 2.737581282038210e+00
 8.048548118733835e-02	 1.191406149440837e+00	 2.730218881159798e+00
 7.032119548754186e-02	 1.192049277323350e+00	 2.726202500344304e+00
 6.018462982274317e-02	 1.192604031062879e+00	 2.726811848510350e+00
 5.007674845645180e-02	 1.193071199675406e+00	 2.733186129704938e+00
 3.999849634507806e-02	 1.193451583518840e+00	 2.746324175668172e+00
 2.995079906299798e-02	 1.193745993786640e+00	 2.767084746763444e+00
 1.993456274082684e-02	 1.193955252004609e+00	 2.796186988827279e+00
 9.950674016656167e-03	 1.194080189531207e+00	 2.834211034086496e+00
 0.000000000000000e+00	 1.194121647061736e+00	 2.881598735078093e+00
 1.016387315975596e-01	 1.198643154737697e+00	 2.752654867972061e+00
 9.134648664999610e-02	 1.199471425008485e+00	 2.746671205610383e+00
 8.108016579733142e-02	 1.200209114804443e+00	 2.739647359528171e+00
 7.084077904633415e-02	 1.200856994578618e+00	 2.733762606419448e+00
 6.062931714585892e-02	 1.201415847238113e+00	 2.731033046901401e+00
 5.044675148404044e-02	 1.201886467628702e+00	 2.733311254534510e+00
 4.029403399926004e-02	 1.202269662021892e+00	 2.742286141617293e+00
 3.017209710465706e-02	 1.202566247604800e+00	 2.759483027639443e+00
 2.008185362594616e-02	 1.202777051973230e+00	 2.786263896838996e+00
 1.002419675229419e-02	 1.202902912628295e+00	 2.823827831906931e+00
 0.000000000000000e+00	 1.202944676476936e+00	 2.873211611686629e+00
 1.023842035485794e-01	 1.207434634525714e+00	 2.744085002968459e+00
 9.201646985995794e-02	 1.208268979766902e+00	 2.742473483869554e+00
 8.167485040726566e-02	 1.209012080168448e+00	 2.737222788914394e+00
 7.136036260513841e-02	 1.209664711834286e+00	 2.731033662172570e+00
 6.107400446905107e-02	 1.210227663413746e+00	 2.726431708264474e+00
 5.081675451175748e-02	 1.210701735582398e+00	 2.725766761433001e+00
 4.058957165360418e-02	 1.211087740525344e+00	 2.731212492792588e+00
 3.039339514648793e-02	 1.211386501423361e+00	 2.744766240881946e+00
 2.022914451121722e-02	 1.211598851942252e+00	 2.768249051223874e+00
 1.009771948802854e-02	 1.211725635725784e+00	 2.803305911210729e+00
 0.000000000000000e+00	 1.211767705892536e+00	 2.851406167465385e+00
 1.031296754995014e-01	 1.216226114313930e+00	 2.720076619089899e+00
 9.268645306985471e-02	 1.217066534525519e+00	 2.723497367369340e+00
 8.226953501717052e-02	 1.217815045532654e+00	 2.721237260481940e+00
 7.187994616394870e-02	 1.218472429090154e+00	 2.716285230455237e+00
 6.151869179228140e-02	 1.219039479589579e+00	 2.711453697346481e+00
 5.118675753953868e-02	 1.219517003536293e+00	 2.709377681002207e+00
 4.088510930802933e-02	 1.219905819028996e+00	 2.712514158541832e+00
 3.061469318840470e-02	 1.220206755242121e+00	 2.723141652281411e+00
 2.037643539656413e-02	 1.220420651911474e+00	 2.743360033419934e+00
 1.017124222381105e-02	 1.220548358823471e+00	 2.775090527456209e+00
 0.000000000000000e+00	 1.220590735308335e+00	 2.820075908174001e+00
 1.038751474504234e-01	 1.225017594102147e+00	 2.679575983000254e+00
 9.335643627975154e-02	 1.225864089284136e+00	 2.688293669850093e+00
 8.286421962707537e-02	 1.226618010896860e+00	 2.690030934611595e+00
 7.239952972275898e-02	 1.227280146346022e+00	 2.687835853370437e+00
 6.196337911551174e-02	 1.227851295765412e+00	 2.684589047558410e+00
 5.155676056731988e-02	 1.228332271490189e+00	 2.683002561453145e+00
 4.118064696245446e-02	 1.228723897532648e+00	 2.685618979231798e+00
 3.083599123032144e-02	 1.229027009060881e+00	 2.694810766226668e+00
 2.052372628191104e-02	 1.229242451880695e+00	 2.712779819680600e+00
 1.024476495959354e-02	 1.229371081921160e+00	 2.741557214988890e+00
 0.000000000000000e+00	 1.229413764724135e+00	 2.783003134333781e+00
 1.046206194014433e-01	 1.233809073890164e+00	 2.621557863560003e+00
 9.402641948971339e-02	 1.234661644042552e+00	 2.635453254958028e+00
 8.345890423700963e-02	 1.235420976260865e+00	 2.641990298158181e+00
 7.291911328156325e-02	 1.236087863601690e+00	 2.644051280019706e+00
 6.240806643870384e-02	 1.236663111941046e+00	 2.644370363492742e+00
 5.192676359503685e-02	 1.237147539443885e+00	 2.645532254330675e+00
 4.147618461679851e-02	 1.237541976036100e+00	 2.649971087604137e+00
 3.105728927215226e-02	 1.237847262879441e+00	 2.659969518934023e+00
 2.067101716718206e-02	 1.238064251849717e+00	 2.677658006068227e+00
 1.031828769532786e-02	 1.238193805018648e+00	 2.705014267172054e+00
 0.000000000000000e+00	 1.238236794139735e+00	 2.743862903182355e+00
 1.053660913526588e-01	 1.242600553677780e+00	 2.545024490139920e+00
 9.469640269980534e-02	 1.243459198800570e+00	 2.563605587571220e+00
 8.405358884700272e-02	 1.244223941624471e+00	 2.575546495963830e+00
 7.343869684035552e-02	 1.244895580856958e+00	 2.583342769683888e+00
 6.285275376181958e-02	 1.245474928116279e+00	 2.589371291394162e+00
 5.229676662262545e-02	 1.245962807397180e+00	 2.595888751875798e+00
 4.177172227098042e-02	 1.246360054539152e+00	 2.605030316447559e+00
 3.127858731381124e-02	 1.246667516697602e+00	 2.618808463502100e+00
 2.081830805230130e-02	 1.246886051818339e+00	 2.639111981457477e+00
 1.039181043096584e-02	 1.247016528115736e+00	 2.667705111236891e+00
 0.000000000000000e+00	 1.247059823554935e+00	 2.706226822441433e+00
 1.061115633041677e-01	 1.251392033464797e+00	 2.449004555316344e+00
 9.536638591009239e-02	 1.252256753557986e+00	 2.471417346555378e+00
 8.464827345708406e-02	 1.253026906987477e+00	 2.489173732976086e+00
 7.395828039912980e-02	 1.253703298111626e+00	 2.504165466728000e+00
 6.329744108482070e-02	 1.254286744290912e+00	 2.518205054241855e+00
 5.266676965002144e-02	 1.254778075349876e+00	 2.533024073486273e+00
 4.206725992491914e-02	 1.255178133041604e+00	 2.550271631292161e+00
 3.149988535521250e-02	 1.255487770515162e+00	 2.571512947194467e+00
 2.096559893719288e-02	 1.255707851786360e+00	 2.598228051105370e+00
 1.046533316645931e-02	 1.255839251212224e+00	 2.631810583029699e+00
 0.000000000000000e+00	 1.255882852969535e+00	 2.673566684168555e+00
 1.068570352560679e-01	 1.260183513251014e+00	 2.332552259780792e+00
 9.603636912063959e-02	 1.261054308314603e+00	 2.357591095949546e+00
 8.524295806728306e-02	 1.261829872349682e+00	 2.381387743522965e+00
 7.447786395788004e-02	 1.262511015365494e+00	 2.405016843727607e+00
 6.374212840766905e-02	 1.263098560464746e+00	 2.429523048288164e+00
 5.303677267716066e-02	 1.263593343301771e+00	 2.455919198877981e+00
 4.236279757853359e-02	 1.263996211543256e+00	 2.485184586904040e+00
 3.172118339627010e-02	 1.264308024331922e+00	 2.518263281329600e+00
 2.111288982178093e-02	 1.264529651753582e+00	 2.556062513201973e+00
 1.053885590176010e-02	 1.264661974307913e+00	 2.599451106544618e+00
 0.000000000000000e+00	 1.264705882383334e+00	 2.649257946502321e+00
 1.264705882383334e+00	 0.000000000000000e+00	 3.082317614482875e+00
 1.264661974307912e+00	 1.053885590175940e-02	 3.619348456809557e+00
 1.264529651753582e+00	 2.111288982178033e-02	 3.989866758097858e+00
 1.264308024331922e+00	 3.172118339626960e-02	 4.210620689126768e+00
 1.263996211543256e+00	 4.236279757853321e-02	 4.298759202313496e+00
 1.263593343301772e+00	 5.303677267716038e-02	 4.271818729349678e+00
 1.263098560464746e+00	 6.374212840766885e-02	 4.147708909411376e+00
 1.262511015365494e+00	 7.447786395787998e-02	 3.944697357088056e+00
 1.261829872349682e+00	 8.524295806728308e-02	 3.681393477517482e+00
 1.261054308314603e+00	 9.603636912063970e-02	 3.376731339010234e+00
 1.260183513251014e+00	 1.068570352560680e-01	 3.049951616294678e+00
 1.273528911796184e+00	 0.000000000000000e+00	 2.582551634094411e+00
 1.273484697402651e+00	 1.061237863683563e-02	 3.264294362004392e+00
 1.273351451719854e+00	 2.126018070601511e-02	 3.738008415418536e+00
 1.273128278147735e+00	 3.194248143692809e-02	 4.026210159088442e+00
 1.272814290043961e+00	 4.265833523177232e-02	 4.152127846480345e+00
 1.272408611252722e+00	 5.340677570400430e-02	 4.139687938860597e+00
 1.271910376637635e+00	 6.418681573034457e-02	 4.013500043659851e+00
 1.271318732618420e+00	 7.499744751660918e-02	 3.798840471171266e+00
 1.270632837710947e+00	 8.583764267762742e-02	 3.521634407317819e+00
 1.269851863070280e+00	 9.670635233149950e-02	 3.208436703522186e+00
 1.268974993036293e+00	 1.076025072084343e-01	 2.886411288101469e+00
 1.282351941208134e+00	 0.000000000000000e+00	 2.193485279768820e+00
 1.282307420496490e+00	 1.068590137172055e-02	 2.977415386040338e+00
 1.282173251685232e+00	 2.140747158995149e-02	 3.521045622858939e+00
 1.281948531962658e+00	 3.216377947725368e-02	 3.851959165572466e+00
 1.281632368543785e+00	 4.295387288470495e-02	 3.998702709575825e+00
 1.281223879202800e+00	 5.377677873061699e-02	 3.990771847051757e+00
 1.280722192809662e+00	 6.463150305290123e-02	 3.858594711327411e+00
 1.280126449870493e+00	 7.551703107535598e-02	 3.633513880308498e+00
 1.279435803071370e+00	 8.643232728813821e-02	 3.347766529436736e+00
 1.278649417825125e+00	 9.737633554267387e-02	 3.034462828384033e+00
 1.277766472820747e+00	 1.083479791612502e-01	 2.727562579579880e+00
 1.291174970619284e+00	 0.000000000000000e+00	 1.901331717171337e+00
 1.291130143589533e+00	 1.075942410646369e-02	 2.751874645181513e+00
 1.290995051649821e+00	 2.155476247367047e-02	 3.337831314095320e+00
 1.290768785776804e+00	 3.238507751734306e-02	 3.691163003307523e+00
 1.290450447042847e+00	 4.324941053742991e-02	 3.844987536934150e+00
 1.290039147152133e+00	 5.414678175708833e-02	 3.833563161998534e+00
 1.289534008980963e+00	 6.507619037541079e-02	 3.692270401542507e+00
 1.288934167121860e+00	 7.603661463416801e-02	 3.457591868997641e+00
 1.288238768431106e+00	 8.702701189883462e-02	 3.167090029413297e+00
 1.287446972579301e+00	 9.804631875415229e-02	 2.859382897337356e+00
 1.286557952604549e+00	 1.090934511144762e-01	 2.574117665481306e+00
 1.299998000029734e+00	 0.000000000000000e+00	 1.692683940011660e+00
 1.299952866681880e+00	 1.083294684111459e-02	 2.581025906935094e+00
 1.299816851613724e+00	 2.170205335725304e-02	 3.187254080210182e+00
 1.299589039590283e+00	 3.260637555729292e-02	 3.547031473594472e+00
 1.299268525541265e+00	 4.354494819004602e-02	 3.697312909165928e+00
 1.298854415100850e+00	 5.451678478350810e-02	 3.676326848114053e+00
 1.298345825151676e+00	 6.552087769794512e-02	 3.523554962090830e+00
 1.297741884372669e+00	 7.655619819309291e-02	 3.279709428774233e+00
 1.297041733790313e+00	 8.762169650973599e-02	 2.986707934807567e+00
 1.296244527332977e+00	 9.871630196592412e-02	 2.687646373870114e+00
 1.295349432387875e+00	 1.098389230680726e-01	 2.426769232383938e+00
 1.308821029439584e+00	 0.000000000000000e+00	 1.554501967929161e+00
 1.308775589773633e+00	 1.090646957572278e-02	 2.458407154316153e+00
 1.308638651577050e+00	 2.184934424078023e-02	 3.068236948172443e+00
 1.308409293403207e+00	 3.282767359719992e-02	 3.422691736374061e+00
 1.308086604039158e+00	 4.384048584265215e-02	 3.561842039517958e+00
 1.307669683049076e+00	 5.488678780996606e-02	 3.527107753636411e+00
 1.307157641321937e+00	 6.596556502057621e-02	 3.361234955803446e+00
 1.306549601623067e+00	 7.707578175217830e-02	 3.108270257025366e+00
 1.305844699149148e+00	 8.821638112086166e-02	 2.813532685534153e+00
 1.305042082086316e+00	 9.938628517797886e-02	 2.523583088554645e+00
 1.304140912170899e+00	 1.105843950219999e-01	 2.286191045737978e+00
 1.317644058848934e+00	 0.000000000000000e+00	 1.474100558714332e+00
 1.317598312864892e+00	 1.097999231033778e-02	 2.377734408671144e+00
 1.317460451539901e+00	 2.199663512433303e-02	 2.979736208389747e+00
 1.317229547215688e+00	 3.304897163716073e-02	 3.321191047711249e+00
 1.316904682536645e+00	 4.413602349534710e-02	 3.444576338328866e+00
 1.316484950996940e+00	 5.525679083655199e-02	 3.393737931698960e+00
 1.315969457491885e+00	 6.641025234337597e-02	 3.213863681264287e+00
 1.315357318873199e+00	 7.759536531147178e-02	 2.951454434515186e+00
 1.314647664507767e+00	 8.881106573223085e-02	 2.654292440330378e+00
 1.313839636839487e+00	 1.000562683903058e-01	 2.371407162317428e+00
 1.312932391953795e+00	 1.113298669762187e-01	 2.153038494322673e+00
 1.326467088257884e+00	 0.000000000000000e+00	 1.439137410918281e+00
 1.326421035955760e+00	 1.105351504500914e-02	 2.332895799019402e+00
 1.326282251502385e+00	 2.214392600799244e-02	 2.920740289048144e+00
 1.326049801027835e+00	 3.327026967727203e-02	 3.245499388032123e+00
 1.325722761033845e+00	 4.443156114822970e-02	 3.351360755425433e+00
 1.325300218944570e+00	 5.562679386335576e-02	 3.283843669251342e+00
 1.324781273661655e+00	 6.685493966641630e-02	 3.089768873466303e+00
 1.324165036123214e+00	 7.811494887102097e-02	 2.817225796580852e+00
 1.323450629866328e+00	 8.940575034386299e-02	 2.515537131645450e+00
 1.322637191592656e+00	 1.007262516028946e-01	 2.235220773280332e+00
 1.321723871736737e+00	 1.120753389306894e-01	 2.027949113166775e+00
 1.335290117666534e+00	 0.000000000000000e+00	 1.437601834167420e+00
 1.335243759046337e+00	 1.112703777978639e-02	 2.317945866511538e+00
 1.335104051464604e+00	 2.229121689183949e-02	 2.890268675075280e+00
 1.334870054839761e+00	 3.349156771763051e-02	 3.198511986164562e+00
 1.334540839530876e+00	 4.472709880139877e-02	 3.287888910729929e+00
 1.334115486892093e+00	 5.599679689046708e-02	 3.204852237343778e+00
 1.333593089831385e+00	 6.729962698976914e-02	 2.997060099219856e+00
 1.332972753373260e+00	 7.863453243087351e-02	 2.713339012168507e+00
 1.332253595224988e+00	 9.000043495577721e-02	 2.403644280586909e+00
 1.331434746345987e+00	 1.013962348157344e-01	 2.119017774408859e+00
 1.330515351519901e+00	 1.128208108853725e-01	 1.911543085929111e+00
 1.344113147074984e+00	 0.000000000000000e+00	 1.457803865694028e+00
 1.344066482136726e+00	 1.120056051471905e-02	 2.327100093200806e+00
 1.343925851426666e+00	 2.243850777595517e-02	 2.887370869675681e+00
 1.343690308651576e+00	 3.371286575833281e-02	 3.183051743972426e+00
 1.343358918027857e+00	 4.502263645495318e-02	 3.259708022810916e+00
 1.342930754839637e+00	 5.636679991797579e-02	 3.163998375578447e+00
 1.342404906001214e+00	 6.774431431350644e-02	 2.943635861339590e+00
 1.341780470623482e+00	 7.915411599107704e-02	 2.647346384133383e+00
 1.341056560583903e+00	 9.059511956799296e-02	 2.324824582949415e+00
 1.340232301099649e+00	 1.020662180288148e-01	 2.026687168822402e+00
 1.339306831303461e+00	 1.135662828402284e-01	 1.804423727683306e+00
 1.352936176483334e+00	 0.000000000000000e+00	 1.488363812711695e+00
 1.352889205227027e+00	 1.127408324985666e-02	 2.354729644888035e+00
 1.352747651388675e+00	 2.258579866042048e-02	 2.911125396496785e+00
 1.352510562463392e+00	 3.393416379947564e-02	 3.201871566120262e+00
 1.352176996524908e+00	 4.531817410899172e-02	 3.272223644600296e+00
 1.351746022787329e+00	 5.673680294597166e-02	 3.168330522862058e+00
 1.351216722171277e+00	 6.818900163770010e-02	 2.937190424904097e+00
 1.350588187874028e+00	 7.967369955167911e-02	 2.626604383528883e+00
 1.349859525943230e+00	 9.118980418052945e-02	 2.285127276776945e+00
 1.349029855853806e+00	 1.027362012421251e-01	 1.962016449265386e+00
 1.348098311087590e+00	 1.143117547952177e-01	 1.707177949001385e+00
 1.260183513251014e+00	 1.068570352560680e-01	 3.049951616294681e+00
 1.259216518173316e+00	 1.177057164227225e-01	 2.764542104775159e+00
 1.258152680253831e+00	 1.285794510145979e-01	 2.560657041634512e+00
 1.256991231478618e+00	 1.394770899915600e-01	 2.422506145067643e+00
 1.255731419166985e+00	 1.503974639547374e-01	 2.334199196676837e+00
 1.254372506529152e+00	 1.613393833298087e-01	 2.279755148485627e+00
 1.252913773224046e+00	 1.723016385666049e-01	 2.243111509933349e+00
 1.251354515916720e+00	 1.832830003551986e-01	 2.208134028387395e+00
 1.249694048834886e+00	 1.942822198586347e-01	 2.158626677111910e+00
 1.247931704324034e+00	 2.052980289624415e-01	 2.078341964944168e+00
 1.246066833400622e+00	 2.163291405410434e-01	 1.950991582143793e+00
 1.268974993036293e+00	 1.076025072084343e-01	 2.886411288101468e+00
 1.268001251863421e+00	 1.185268725592640e-01	 2.623945777936849e+00
 1.266929992239393e+00	 1.294764661167815e-01	 2.458267774354938e+00
 1.265760440792328e+00	 1.404501308247396e-01	 2.369863289533743e+00
 1.264491839590562e+00	 1.514466891261245e-01	 2.338932736126786e+00
 1.263123446704203e+00	 1.624649431477207e-01	 2.345400797305962e+00
 1.261654536766819e+00	 1.735036749011069e-01	 2.368926835263935e+00
 1.260084401536747e+00	 1.845616465002523e-01	 2.388915857968406e+00
 1.258412350457498e+00	 1.956376003958709e-01	 2.384530064088266e+00
 1.256637711216769e+00	 2.067302596266734e-01	 2.334700986024925e+00
 1.254759830303468e+00	 2.178383280876382e-01	 2.218142250870630e+00
 1.277766472820747e+00	 1.083479791612502e-01	 2.727562579579882e+00
 1.276785985552708e+00	 1.193480286963663e-01	 2.496074726270873e+00
 1.275707304224143e+00	 1.303734812196127e-01	 2.371232506552263e+00
 1.274529650105232e+00	 1.414231716586314e-01	 2.330480374759064e+00
 1.273252260013340e+00	 1.524959142982677e-01	 2.350837436482362e+00
 1.271874386878465e+00	 1.635905029664143e-01	 2.408908202258223e+00
 1.270395300308816e+00	 1.747057112363996e-01	 2.480894082946781e+00
 1.268814287156011e+00	 1.858402926460913e-01	 2.542605651303813e+00
 1.267130652079369e+00	 1.969929809338748e-01	 2.569475694156676e+00
 1.265343718108786e+00	 2.081624902916448e-01	 2.536573079372721e+00
 1.263452827205628e+00	 2.193475156349365e-01	 2.418617461439679e+00
 1.286557952604549e+00	 1.090934511144762e-01	 2.574117665481306e+00
 1.285570719241357e+00	 1.201691848339639e-01	 2.377664932461568e+00
 1.284484616208268e+00	 1.312704963230037e-01	 2.293195124066502e+00
 1.283298859417521e+00	 1.423962124931286e-01	 2.295780795745351e+00
 1.282012680435511e+00	 1.535451394710451e-01	 2.359974661150401e+00
 1.280625327052128e+00	 1.647160627857561e-01	 2.459821347256055e+00
 1.279136063850222e+00	 1.759077475723417e-01	 2.568870039722614e+00
 1.277544172774695e+00	 1.871189387925704e-01	 2.660188046187710e+00
 1.275848953700673e+00	 1.983483614725007e-01	 2.706375304917652e+00
 1.274049725000251e+00	 2.095947209572144e-01	 2.679579865851053e+00
 1.272145824107253e+00	 2.208567031828042e-01	 2.551514370507432e+00
 1.295349432387875e+00	 1.098389230680726e-01	 2.426769232383937e+00
 1.294355452929551e+00	 1.209903409719913e-01	 2.265540263095966e+00
 1.293261928191953e+00	 1.321675114268666e-01	 2.217970785169771e+00
 1.292068068729384e+00	 1.433692533281246e-01	 2.257418968532565e+00
 1.290773100857267e+00	 1.545943646443348e-01	 2.356673264695984e+00
 1.289376267225383e+00	 1.658416226056126e-01	 2.487965278319000e+00
 1.287876827391227e+00	 1.771097839087920e-01	 2.622983623449257e+00
 1.286274058392983e+00	 1.883975849395443e-01	 2.732888793794737e+00
 1.284567255321584e+00	 1.997037420116034e-01	 2.788329076022821e+00
 1.282755731891327e+00	 2.110269516232397e-01	 2.759457534569089e+00
 1.280838821008495e+00	 2.223658907311072e-01	 2.615950095754328e+00
 1.304140912170899e+00	 1.105843950219999e-01	 2.286191045737980e+00
 1.303140186617469e+00	 1.218114971103832e-01	 2.156609410318581e+00
 1.302039240175386e+00	 1.330645265311138e-01	 2.139540046042399e+00
 1.300837278041010e+00	 1.443422941635125e-01	 2.207272437206836e+00
 1.299533521278798e+00	 1.556435898180148e-01	 2.331520466990139e+00
 1.298127207398422e+00	 1.669671824258504e-01	 2.483436517761251e+00
 1.296617590932019e+00	 1.783118202456092e-01	 2.633626596920913e+00
 1.295003944011058e+00	 1.896762310868675e-01	 2.752166517800263e+00
 1.293285556942278e+00	 2.010591225510373e-01	 2.808619164739502e+00
 1.291461738782179e+00	 2.124591822895795e-01	 2.772052870900530e+00
 1.289531817909503e+00	 2.238750782797112e-01	 2.611060936624996e+00
 1.312932391953795e+00	 1.113298669762187e-01	 2.153038494322672e+00
 1.311924920305294e+00	 1.226326532490740e-01	 2.047862956608305e+00
 1.310816552158751e+00	 1.339615416356570e-01	 2.052043222579488e+00
 1.309606487352589e+00	 1.453153349991858e-01	 2.137434298407624e+00
 1.308293941700296e+00	 1.566928149919633e-01	 2.275353094472948e+00
 1.306878147571434e+00	 1.680927422463360e-01	 2.436593864070691e+00
 1.305358354472785e+00	 1.795138565826521e-01	 2.591444655446224e+00
 1.303733829629101e+00	 1.909548772343950e-01	 2.709704805381312e+00
 1.302003858562929e+00	 2.024145030906567e-01	 2.760703502155998e+00
 1.300167745672973e+00	 2.138914129560916e-01	 2.713319445148711e+00
 1.298224814810431e+00	 2.253842658284821e-01	 2.536001627600496e+00
 1.321723871736737e+00	 1.120753389306894e-01	 2.027949113166774e+00
 1.320709653993206e+00	 1.234538093879985e-01	 1.936370556945316e+00
 1.319593864142237e+00	 1.348585567404087e-01	 1.949774977524618e+00
 1.318375696664313e+00	 1.462883758350378e-01	 2.040205928551760e+00
 1.317054362121952e+00	 1.577420401660584e-01	 2.179249171439667e+00
 1.315629087744610e+00	 1.692183020669360e-01	 2.338049559520519e+00
 1.314099118013713e+00	 1.807158929197792e-01	 2.487328870782832e+00
 1.312463715247296e+00	 1.922335233819813e-01	 2.597404614646066e+00
 1.310722160183713e+00	 2.037698836303163e-01	 2.638209837892467e+00
 1.308873752563872e+00	 2.153236436226345e-01	 2.579313954379359e+00
 1.306917811711429e+00	 2.268934533772858e-01	 2.389944622488412e+00
 1.330515351519901e+00	 1.128208108853725e-01	 1.911543085929109e+00
 1.329494387681388e+00	 1.242749655270910e-01	 1.819278232938099e+00
 1.328371176126029e+00	 1.357555718452810e-01	 1.827179122508874e+00
 1.327144905976369e+00	 1.472614166709617e-01	 1.908089999772918e+00
 1.325814782543958e+00	 1.587912653401782e-01	 2.034519845160104e+00
 1.324380027918142e+00	 1.703438618875169e-01	 2.178660808505199e+00
 1.322839881554991e+00	 1.819179292568495e-01	 2.312407474946657e+00
 1.321193600865825e+00	 1.935121695294811e-01	 2.407376983856598e+00
 1.319440461804804e+00	 2.051252641698705e-01	 2.434930021823213e+00
 1.317579759455040e+00	 2.167558742890663e-01	 2.366192710336597e+00
 1.315610808612648e+00	 2.284026409259881e-01	 2.172079408296368e+00
 1.339306831303461e+00	 1.135662828402284e-01	 1.804423727683306e+00
 1.338279121370020e+00	 1.250961216662862e-01	 1.693805773767035e+00
 1.337148488110314e+00	 1.366525869501860e-01	 1.678843625120731e+00
 1.335914115288949e+00	 1.482344575068510e-01	 1.733783771310596e+00
 1.334575202966505e+00	 1.598404905142007e-01	 1.832701629492781e+00
 1.333130968092220e+00	 1.714694217079452e-01	 1.949521630485277e+00
 1.331580645096808e+00	 1.831199655937215e-01	 2.058037968278732e+00
 1.329923486484871e+00	 1.947908156767491e-01	 2.131936028578108e+00
 1.328158763426378e+00	 2.064806447091739e-01	 2.144814511920734e+00
 1.326285766346644e+00	 2.181881049552449e-01	 2.070208266730121e+00
 1.324303805514240e+00	 2.299118284744549e-01	 1.881611847330411e+00
 1.348098311087590e+00	 1.143117547952177e-01	 1.707177949001383e+00
 1.347063855059284e+00	 1.259172778055186e-01	 1.557244239068029e+00
 1.345925800095279e+00	 1.375496020550358e-01	 1.499495811647718e+00
 1.344683324602242e+00	 1.492074983425989e-01	 1.510172643774717e+00
 1.343335623389784e+00	 1.608897156880040e-01	 1.565548952454379e+00
 1.341881908267035e+00	 1.725949815280876e-01	 1.641955032267088e+00
 1.340321408639350e+00	 1.843220019302541e-01	 1.715799536968176e+00
 1.338653372104616e+00	 1.960694618236400e-01	 1.763592213611007e+00
 1.336877065048610e+00	 2.078360252480808e-01	 1.761967097899298e+00
 1.334991773238847e+00	 2.196203356210290e-01	 1.687706179531876e+00
 1.332996802416356e+00	 2.314210160225521e-01	 1.517763546229709e+00
 1.246066833400622e+00	 2.163291405410434e-01	 1.950991582143793e+00
 1.244099149474685e+00	 2.273723706542418e-01	 1.808643257271850e+00
 1.242027733812302e+00	 2.384282719850735e-01	 1.697628147995281e+00
 1.239851996070890e+00	 2.494955058442114e-01	 1.623412139657474e+00
 1.237571366730709e+00	 2.605727158386419e-01	 1.591863758174817e+00
 1.235185297629098e+00	 2.716585282229791e-01	 1.609251482772069e+00
 1.232693262489390e+00	 2.827515522679369e-01	 1.682240663946572e+00
 1.230094757443897e+00	 2.938503806459467e-01	 1.817890062910915e+00
 1.227389301550388e+00	 3.049535898338829e-01	 2.023648029470964e+00
 1.224576437301453e+00	 3.160597405328378e-01	 2.307348335874607e+00
 1.221655731126142e+00	 3.271673781048639e-01	 2.677205684610830e+00
 1.254759830303468e+00	 2.178383280876382e-01	 2.218142250870630e+00
 1.252778419128273e+00	 2.289585996262831e-01	 2.066915554745930e+00
 1.250692552547848e+00	 2.400916307813596e-01	 1.932587439983226e+00
 1.248501636101170e+00	 2.512360735243844e-01	 1.823451069307142e+00
 1.246205096295324e+00	 2.623905619996813e-01	 1.748326631711928e+00
 1.243802381143473e+00	 2.735537128781450e-01	 1.716556920426978e+00
 1.241292960697452e+00	 2.847241257282849e-01	 1.738002325689613e+00
 1.238676327574413e+00	 2.959003834045325e-01	 1.823035258008755e+00
 1.235951997476899e+00	 3.070810524527766e-01	 1.982534018634623e+00
 1.233119509705762e+00	 3.182646835330661e-01	 2.227876134857478e+00
 1.230178427665308e+00	 3.294498118594008e-01	 2.570931178536661e+00
 1.263452827205628e+00	 2.193475156349365e-01	 2.418617461439679e+00
 1.261457688781213e+00	 2.305448285989857e-01	 2.250369091233482e+00
 1.259357371282790e+00	 2.417549895782588e-01	 2.090191423994731e+00
 1.257151276130895e+00	 2.529766412051173e-01	 1.948502881157264e+00
 1.254838825859441e+00	 2.642084081612222e-01	 1.836331469614170e+00
 1.252419464657410e+00	 2.754488975337499e-01	 1.765308753211328e+00
 1.249892658905143e+00	 2.866966991890051e-01	 1.747663106211760e+00
 1.247257897704627e+00	 2.979503861634202e-01	 1.796212264951319e+00
 1.244514693403182e+00	 3.092085150718983e-01	 1.924355195181202e+00
 1.241662582109921e+00	 3.204696265334467e-01	 2.146063293745847e+00
 1.238701124204402e+00	 3.317322456140109e-01	 2.475870944265536e+00
 1.272145824107253e+00	 2.208567031828042e-01	 2.551514370507432e+00
 1.270136958433639e+00	 2.321310575722266e-01	 2.361573233887648e+00
 1.268022190017244e+00	 2.434183483756634e-01	 2.175731357237090e+00
 1.265800916160163e+00	 2.547172088863202e-01	 2.005844224292541e+00
 1.263472555423135e+00	 2.660262543231952e-01	 1.864418226314423e+00
 1.261036548170961e+00	 2.773440821897458e-01	 1.764603154142445e+00
 1.258492357112488e+00	 2.886692726500726e-01	 1.720183896375884e+00
 1.255839467834543e+00	 3.000003889226081e-01	 1.745571361530480e+00
 1.253077389329214e+00	 3.113359776912703e-01	 1.855792643461475e+00
 1.250205654513883e+00	 3.226745695340228e-01	 2.066480450656003e+00
 1.247223820743357e+00	 3.340146793687591e-01	 2.393861821172459e+00
 1.280838821008495e+00	 2.223658907311072e-01	 2.615950095754330e+00
 1.278816228085687e+00	 2.337172865458834e-01	 2.403022850199064e+00
 1.276687008751327e+00	 2.450817071734658e-01	 2.194349966035964e+00
 1.274450556189068e+00	 2.564577765679031e-01	 2.002549243430888e+00
 1.272106284986476e+00	 2.678441004855303e-01	 1.840890048205353e+00
 1.269653631684175e+00	 2.792392668460848e-01	 1.723284450242182e+00
 1.267092055319515e+00	 2.906418461114625e-01	 1.664277548584427e+00
 1.264421037964160e+00	 3.020503916820947e-01	 1.679037003793670e+00
 1.261640085254977e+00	 3.134634403109134e-01	 1.783341799657863e+00
 1.258748726917606e+00	 3.248795125348388e-01	 1.993570257726841e+00
 1.255746517282108e+00	 3.362971131237101e-01	 2.326687329396157e+00
 1.289531817909503e+00	 2.238750782797112e-01	 2.611060936624996e+00
 1.287495497737492e+00	 2.353035155198335e-01	 2.377140718009601e+00
 1.285351827485155e+00	 2.467450659715584e-01	 2.151046358080594e+00
 1.283100196217707e+00	 2.581983442497764e-01	 1.945496318947948e+00
 1.280740014549541e+00	 2.696619466481580e-01	 1.773821180120787e+00
 1.278270715197102e+00	 2.811344515027192e-01	 1.649953547825589e+00
 1.275691753526249e+00	 2.926144195731493e-01	 1.588417187437890e+00
 1.273002608093484e+00	 3.041003944418779e-01	 1.604315403384961e+00
 1.270202781180447e+00	 3.155909029308493e-01	 1.713318692405652e+00
 1.267291799321045e+00	 3.270844555359385e-01	 1.931651697436129e+00
 1.264269213820593e+00	 3.385795468789295e-01	 2.276079490610655e+00
 1.298224814810431e+00	 2.253842658284821e-01	 2.536001627600496e+00
 1.296174767389189e+00	 2.368897444939545e-01	 2.286279840096123e+00
 1.294016646218845e+00	 2.484084247698334e-01	 2.050680738894595e+00
 1.291749836246175e+00	 2.599389119318503e-01	 1.841374537893341e+00
 1.289373744112402e+00	 2.714797928110083e-01	 1.671064556160844e+00
 1.286887798709794e+00	 2.830296361596007e-01	 1.552976021521016e+00
 1.284291451732717e+00	 2.945869930351080e-01	 1.500844188978022e+00
 1.281584178222514e+00	 3.061503972019562e-01	 1.528901803196447e+00
 1.278765477105603e+00	 3.177183655510993e-01	 1.651865935709626e+00
 1.275834871724156e+00	 3.292893985373658e-01	 1.884924228821024e+00
 1.272791910358743e+00	 3.408619806344818e-01	 2.243720579277586e+00
 1.306917811711429e+00	 2.268934533772858e-01	 2.389944622488412e+00
 1.304854037040913e+00	 2.384759734681233e-01	 2.132725667767697e+00
 1.302681464952513e+00	 2.500717835681833e-01	 1.897978941647231e+00
 1.300399476274568e+00	 2.616794796140349e-01	 1.696689908524771e+00
 1.298007473675132e+00	 2.732976389740117e-01	 1.540259089558500e+00
 1.295504882222299e+00	 2.849248208166815e-01	 1.440489882679369e+00
 1.292891149938944e+00	 2.965595664973139e-01	 1.409575843946738e+00
 1.290165748351254e+00	 3.082003999623277e-01	 1.460087465377500e+00
 1.287328173030424e+00	 3.198458281716852e-01	 1.604958485689864e+00
 1.284377944126897e+00	 3.314943415391647e-01	 1.857471771523152e+00
 1.281314606896496e+00	 3.431444143904320e-01	 2.231244807616196e+00
 1.315610808612648e+00	 2.284026409259881e-01	 2.172079408296369e+00
 1.313533306692800e+00	 2.400622024422176e-01	 1.918698237685426e+00
 1.311346283686275e+00	 2.517351423665004e-01	 1.697536778939495e+00
 1.309049116302981e+00	 2.634200472962404e-01	 1.517771330223126e+00
 1.306641203237805e+00	 2.751154851370984e-01	 1.388836675508200e+00
 1.304121965734667e+00	 2.868200054739138e-01	 1.320413042001618e+00
 1.301490848144957e+00	 2.985321399597414e-01	 1.322412719676752e+00
 1.298747318479706e+00	 3.102504027229908e-01	 1.404966385006547e+00
 1.295890868954890e+00	 3.219732907926282e-01	 1.578409172080749e+00
 1.292921016529221e+00	 3.336992845413789e-01	 1.853266535159608e+00
 1.289837303433786e+00	 3.454268481468455e-01	 2.240239947357220e+00
 1.324303805514240e+00	 2.299118284744549e-01	 1.881611847330413e+00
 1.322212576344983e+00	 2.416484314161148e-01	 1.646354225892259e+00
 1.320011102420249e+00	 2.533985011646773e-01	 1.453824224745738e+00
 1.317698756331511e+00	 2.651606149783770e-01	 1.310776330029207e+00
 1.315274932800494e+00	 2.769333313001989e-01	 1.224028920146413e+00
 1.312739049246950e+00	 2.887151901312495e-01	 1.200450480435978e+00
 1.310090546350782e+00	 3.005047134223657e-01	 1.246945734461757e+00
 1.307328888607871e+00	 3.123004054839436e-01	 1.370441742031140e+00
 1.304453564878978e+00	 3.241007534139495e-01	 1.577874014833467e+00
 1.301464088931087e+00	 3.359042275440524e-01	 1.876172701127516e+00
 1.298359999970548e+00	 3.477092819037867e-01	 2.272248891185668e+00
 1.332996802416356e+00	 2.314210160225521e-01	 1.517763546229710e+00
 1.330891845997599e+00	 2.432346603896922e-01	 1.317788922833016e+00
 1.328675921154549e+00	 2.550618599626060e-01	 1.171189434264157e+00
 1.326348396360253e+00	 2.669011826603550e-01	 1.081696576456328e+00
 1.323908662363273e+00	 2.787511774632431e-01	 1.052873608185211e+00
 1.321356132759197e+00	 2.906103747886408e-01	 1.088101141662228e+00
 1.318690244556446e+00	 3.024772868851618e-01	 1.190562957531820e+00
 1.315910458735754e+00	 3.143504082451844e-01	 1.363232103425235e+00
 1.313016260802667e+00	 3.262282160356711e-01	 1.608857335632363e+00
 1.310007161332449e+00	 3.381091705472291e-01	 1.929949963578825e+00
 1.306882696506716e+00	 3.499917156613212e-01	 2.328771156626020e+00
 1.221655731126142e+00	 3.271673781048639e-01	 2.677205684610830e+00
 1.218626774149205e+00	 3.382750331816800e-01	 3.049345054455244e+00
 1.215489183475108e+00	 3.493812226144739e-01	 3.333989135364126e+00
 1.212242601867819e+00	 3.604844495203512e-01	 3.530828719702953e+00
 1.208886697948648e+00	 3.715832036341537e-01	 3.640147306539729e+00
 1.205421166648673e+00	 3.826759618280010e-01	 3.717292763513870e+00
 1.201845729649776e+00	 3.937611886467735e-01	 3.799441053534822e+00
 1.198160135813678e+00	 4.048373368592888e-01	 3.886531277125409e+00
 1.194364161598396e+00	 4.159028480248947e-01	 3.978460624016308e+00
 1.190457611461505e+00	 4.269561530751902e-01	 4.075084523300514e+00
 1.186440318249641e+00	 4.379956729105452e-01	 4.176216793204887e+00
 1.230178427665308e+00	 3.294498118594008e-01	 2.570931178536663e+00
 1.227128339627824e+00	 3.406349578126802e-01	 2.926789231186472e+00
 1.223968860026572e+00	 3.518186278971284e-01	 3.201170164633356e+00
 1.220699629133324e+00	 3.629993147870726e-01	 3.392211965318243e+00
 1.217320313257583e+00	 3.741754976812158e-01	 3.503477679958314e+00
 1.213830605202171e+00	 3.853456428258042e-01	 3.602532359058640e+00
 1.210230224707332e+00	 3.965082040538466e-01	 3.708491306560654e+00
 1.206518918882770e+00	 4.076616233401334e-01	 3.819273852378049e+00
 1.202696462627001e+00	 4.188043313717861e-01	 3.932644941243591e+00
 1.198762659033439e+00	 4.299347481340324e-01	 4.046216259006041e+00
 1.194717339782609e+00	 4.410512835108906e-01	 4.157447529960637e+00
 1.238701124204402e+00	 3.317322456140109e-01	 2.475870944265536e+00
 1.235629905106451e+00	 3.429948824436725e-01	 2.825567511063859e+00
 1.232448536578126e+00	 3.542560331796937e-01	 3.095064157987118e+00
 1.229156656398998e+00	 3.655141800536230e-01	 3.281391317643923e+00
 1.225753928566769e+00	 3.767677917280263e-01	 3.397258159624956e+00
 1.222240043755998e+00	 3.880153238232781e-01	 3.513151230744142e+00
 1.218614719765293e+00	 3.992552194605155e-01	 3.635090765062369e+00
 1.214877701952336e+00	 4.104859098205040e-01	 3.759555872706918e+00
 1.211028763656146e+00	 4.217058147181386e-01	 3.882792053869136e+00
 1.207067706605971e+00	 4.329133431922778e-01	 4.000813044221216e+00
 1.202994361316223e+00	 4.441068941105893e-01	 4.109402954284551e+00
 1.247223820743357e+00	 3.340146793687591e-01	 2.393861821172461e+00
 1.244131470585002e+00	 3.453548070747416e-01	 2.744791644721056e+00
 1.240928213129666e+00	 3.566934384622711e-01	 3.012680763963786e+00
 1.237613683664728e+00	 3.680290453201193e-01	 3.193888595390401e+00
 1.234187543876076e+00	 3.793600857747162e-01	 3.316339007603765e+00
 1.230649482310011e+00	 3.906850048205653e-01	 3.443690051540496e+00
 1.226999214823504e+00	 4.020022348669338e-01	 3.574054390473486e+00
 1.223236485022214e+00	 4.133101963005631e-01	 3.703039812720488e+00
 1.219361064685659e+00	 4.246072980641230e-01	 3.825974046142426e+00
 1.215372754178922e+00	 4.358919382501040e-01	 3.937907068104086e+00
 1.211271382850301e+00	 4.471625047098242e-01	 4.033613784336561e+00
 1.255746517282108e+00	 3.362971131237101e-01	 2.326687329396159e+00
 1.252633036063392e+00	 3.477147317059714e-01	 2.683594577330275e+00
 1.249407889681094e+00	 3.591308437449620e-01	 2.951108511486134e+00
 1.246070710930393e+00	 3.705439105866788e-01	 3.125353778075963e+00
 1.242621159185372e+00	 3.819523798214166e-01	 3.255699469001450e+00
 1.239058920864069e+00	 3.933546858178091e-01	 3.388826660575563e+00
 1.235383709881812e+00	 4.047492502732552e-01	 3.520326675425989e+00
 1.231595268092240e+00	 4.161344827804735e-01	 3.645494512548038e+00
 1.227693365715369e+00	 4.275087814099098e-01	 3.759330971512153e+00
 1.223677801752115e+00	 4.388705333076881e-01	 3.856545174780238e+00
 1.219548404384659e+00	 4.502181153087785e-01	 3.931557486423559e+00
 1.264269213820593e+00	 3.385795468789295e-01	 2.276079490610655e+00
 1.261134601541538e+00	 3.500746563374462e-01	 2.641129780926113e+00
 1.257887566232307e+00	 3.615682490278681e-01	 2.907512222899567e+00
 1.254527738195880e+00	 3.730587758534182e-01	 3.074383884553006e+00
 1.251054774494528e+00	 3.845446738682577e-01	 3.210443343276641e+00
 1.247468359418027e+00	 3.960243668151525e-01	 3.343371389031881e+00
 1.243768204940064e+00	 4.074962656796332e-01	 3.468977258879504e+00
 1.239954051162253e+00	 4.189587692603978e-01	 3.582791607072998e+00
 1.236025666745107e+00	 4.304102647556698e-01	 3.680068610628795e+00
 1.231982849325372e+00	 4.418491283652077e-01	 3.755788454141082e+00
 1.227825425919116e+00	 4.532737259076350e-01	 3.804660191552363e+00
 1.272791910358743e+00	 3.408619806344818e-01	 2.243720579277586e+00
 1.269636167019354e+00	 3.524345809692498e-01	 2.616570617517989e+00
 1.266367242783203e+00	 3.640056543110907e-01	 2.879130535257395e+00
 1.262984765461068e+00	 3.755736411204544e-01	 3.039259061225208e+00
 1.259488389803411e+00	 3.871369679153703e-01	 3.175794751485078e+00
 1.255877797971742e+00	 3.986940478127378e-01	 3.302262592886721e+00
 1.252152699998105e+00	 4.102432810862211e-01	 3.415196737540968e+00
 1.248312834232089e+00	 4.217830557404990e-01	 3.510902119835556e+00
 1.244357967774700e+00	 4.333117481015735e-01	 3.585456341735525e+00
 1.240287896898517e+00	 4.448277234228399e-01	 3.634711872515861e+00
 1.236102447453487e+00	 4.563293365065765e-01	 3.654298559550298e+00
 1.281314606896496e+00	 3.431444143904320e-01	 2.231244807616196e+00
 1.278137732496757e+00	 3.547945056014667e-01	 2.609109731558008e+00
 1.274846919333681e+00	 3.664430595947313e-01	 2.863273524813698e+00
 1.271441792725843e+00	 3.780885063879045e-01	 3.016130850779241e+00
 1.267922005111894e+00	 3.897292619628857e-01	 3.147094090338519e+00
 1.264287236525072e+00	 4.013637288107079e-01	 3.260562382864784e+00
 1.260537195055783e+00	 4.129902964931727e-01	 3.354292664435556e+00
 1.256671617301585e+00	 4.246073422209395e-01	 3.425893213937884e+00
 1.252690268803980e+00	 4.362132314477918e-01	 3.472825118215022e+00
 1.248592944471371e+00	 4.478063184807623e-01	 3.492403941360516e+00
 1.244379468987590e+00	 4.593849471057861e-01	 3.481801593195028e+00
 1.289837303433786e+00	 3.454268481468455e-01	 2.240239947357220e+00
 1.286639297973662e+00	 3.571544302341815e-01	 2.617958470406992e+00
 1.283326595883640e+00	 3.688804648788916e-01	 2.857320429949948e+00
 1.279898819990088e+00	 3.806033716558857e-01	 3.001241895157444e+00
 1.276355620419842e+00	 3.923215560109339e-01	 3.119794164436855e+00
 1.272696675077875e+00	 4.040334098092062e-01	 3.213452542482269e+00
 1.268921690112943e+00	 4.157373119006413e-01	 3.281685725973020e+00
 1.265030400370579e+00	 4.274316287018824e-01	 3.323925092690104e+00
 1.261022569832773e+00	 4.391147147944949e-01	 3.339565548335683e+00
 1.256897992043759e+00	 4.507849135391521e-01	 3.327966422205628e+00
 1.252656490521242e+00	 4.624405577054467e-01	 3.288452404665699e+00
 1.298359999970548e+00	 3.477092819037867e-01	 2.272248891185668e+00
 1.295140863449987e+00	 3.595143548674776e-01	 2.642346331512253e+00
 1.291806272432977e+00	 3.713178701636730e-01	 2.859073318055570e+00
 1.288355847253684e+00	 3.831182369245146e-01	 2.990922905037880e+00
 1.284789235727127e+00	 3.949138500596459e-01	 3.089456488486937e+00
 1.281106113630006e+00	 4.067030908083754e-01	 3.156230625539949e+00
 1.277306185169434e+00	 4.184843273087805e-01	 3.192906089307646e+00
 1.273389183438908e+00	 4.302559151834902e-01	 3.201248043116843e+00
 1.269354870860911e+00	 4.420161981418542e-01	 3.183126072501751e+00
 1.265203039615501e+00	 4.537635085981866e-01	 3.140514066196925e+00
 1.260933512054261e+00	 4.654961683057414e-01	 3.075489936506150e+00
 1.306882696506716e+00	 3.499917156613212e-01	 2.328771156626020e+00
 1.303642428925645e+00	 3.618742795014395e-01	 2.681520435077987e+00
 1.300285948981592e+00	 3.737552754491766e-01	 2.869784203013450e+00
 1.296812874516516e+00	 3.856331021939083e-01	 2.981589764434127e+00
 1.293222851033617e+00	 3.975061441091527e-01	 3.051747751748363e+00
 1.289515552181324e+00	 4.093727718083583e-01	 3.084306224873479e+00
 1.285690680225100e+00	 4.212313427177439e-01	 3.083589912218367e+00
 1.281747966506409e+00	 4.330802016659257e-01	 3.054199615802805e+00
 1.277687171888223e+00	 4.449176814900397e-01	 3.001011233555913e+00
 1.273508087186421e+00	 4.567421036580434e-01	 2.929174386649450e+00
 1.269210533586462e+00	 4.685517789068530e-01	 2.844110639176705e+00
 1.186440318249641e+00	 4.379956729105452e-01	 4.176216793204888e+00
 1.182311432174493e+00	 4.490216917444495e-01	 4.249014917228736e+00
 1.178071516811096e+00	 4.600307329592652e-01	 4.261126495760725e+00
 1.173720491529515e+00	 4.710211897176092e-01	 4.213000806627409e+00
 1.169258305519455e+00	 4.819914476518518e-01	 4.104923824912738e+00
 1.164684938103474e+00	 4.929398855297004e-01	 3.937016343907057e+00
 1.160000399033113e+00	 5.038648759321990e-01	 3.709232216545420e+00
 1.155204728767399e+00	 5.147647859436427e-01	 3.421356714443544e+00
 1.150297998733234e+00	 5.256379778529094e-01	 3.073005001031873e+00
 1.145280311567176e+00	 5.364828098656644e-01	 2.663620714731097e+00
 1.140151801338169e+00	 5.472976368268900e-01	 2.192474657611627e+00
 1.194717339782609e+00	 4.410512835108906e-01	 4.157447529960637e+00
 1.190559649157784e+00	 4.521542236986208e-01	 4.231386952994582e+00
 1.186290154665692e+00	 4.632400678254837e-01	 4.235942831952976e+00
 1.181908775113894e+00	 4.743071978442341e-01	 4.172804923350037e+00
 1.177415459337614e+00	 4.853539881248453e-01	 4.043658183823085e+00
 1.172810186515153e+00	 4.963788061247397e-01	 3.850181197918107e+00
 1.168092966466078e+00	 5.073800130715131e-01	 3.594044513626359e+00
 1.163263839931666e+00	 5.183559646576676e-01	 3.276908878594297e+00
 1.158322878837110e+00	 5.293050117468320e-01	 2.900423369635060e+00
 1.153270186534992e+00	 5.402255010909370e-01	 2.466223407942832e+00
 1.148105898029562e+00	 5.511157760577856e-01	 1.975928652259468e+00
 1.202994361316223e+00	 4.441068941105893e-01	 4.109402954284551e+00
 1.198807866141762e+00	 4.552867556521041e-01	 4.174139471209452e+00
 1.194508792521010e+00	 4.664494026909810e-01	 4.165171912231258e+00
 1.190097058699019e+00	 4.775932059701119e-01	 4.085117218660889e+00
 1.185572613156540e+00	 4.887165285970725e-01	 3.936716799940607e+00
 1.180935434927616e+00	 4.998177267189982e-01	 3.722835336294635e+00
 1.176185533899837e+00	 5.108951502100374e-01	 3.446459317106370e+00
 1.171322951096734e+00	 5.219471433708966e-01	 3.110695304229456e+00
 1.166347758941792e+00	 5.329720456399558e-01	 2.718767909386919e+00
 1.161260061503619e+00	 5.439681923154100e-01	 2.274017474842025e+00
 1.156059994721770e+00	 5.549339152878812e-01	 1.779897446644204e+00
 1.211271382850301e+00	 4.471625047098242e-01	 4.033613784336561e+00
 1.207056083126241e+00	 4.584192876050872e-01	 4.081292129817261e+00
 1.202727430376858e+00	 4.696587375559486e-01	 4.054776034993664e+00
 1.198285342284700e+00	 4.808792140954367e-01	 3.957302586150348e+00
 1.193729766976039e+00	 4.920790690687295e-01	 3.792333786150172e+00
 1.189060683340665e+00	 5.032566473126742e-01	 3.563555799836800e+00
 1.184278101334194e+00	 5.144102873479705e-01	 3.274877803432344e+00
 1.179382062262408e+00	 5.255383220835296e-01	 2.930430423887139e+00
 1.174372639047090e+00	 5.366390795324807e-01	 2.534563754254520e+00
 1.169249936472870e+00	 5.477108835392831e-01	 2.091844931375273e+00
 1.164014091414612e+00	 5.587520545173768e-01	 1.607055262471694e+00
 1.219548404384659e+00	 4.502181153087785e-01	 3.931557486423559e+00
 1.215304300111032e+00	 4.615518195577570e-01	 3.956743710313870e+00
 1.210946068233046e+00	 4.728680724205773e-01	 3.910543847647583e+00
 1.206473625870739e+00	 4.841652222204024e-01	 3.796514171302802e+00
 1.201886920795915e+00	 4.954416095400124e-01	 3.618507903515200e+00
 1.197185931754106e+00	 5.066955679059651e-01	 3.380674971793892e+00
 1.192370668768954e+00	 5.179254244855110e-01	 3.087461276986093e+00
 1.187441173428497e+00	 5.291295007957657e-01	 2.743607456654969e+00
 1.182397519152813e+00	 5.403061134246067e-01	 2.354147127149355e+00
 1.177239811442557e+00	 5.514535747627561e-01	 1.924404588064341e+00
 1.171968188107903e+00	 5.625701937464722e-01	 1.459991973228009e+00
 1.227825425919116e+00	 4.532737259076350e-01	 3.804660191552363e+00
 1.223552517095950e+00	 4.646843515103017e-01	 3.804276351541958e+00
 1.219164706089381e+00	 4.760774072850587e-01	 3.738096397992650e+00
 1.214661909456945e+00	 4.874512303452038e-01	 3.609700746516678e+00
 1.210044074615973e+00	 4.988041500111174e-01	 3.423010772066481e+00
 1.205311180167741e+00	 5.101344884990687e-01	 3.182289143017350e+00
 1.200463236203922e+00	 5.214405616228586e-01	 2.892139615040154e+00
 1.195500284594805e+00	 5.327206795078044e-01	 2.557506265588795e+00
 1.190422399258768e+00	 5.439731473165332e-01	 2.183672150067436e+00
 1.185229686412492e+00	 5.551962659860294e-01	 1.776257361100230e+00
 1.179922284801460e+00	 5.663883329753678e-01	 1.341216472806872e+00
 1.236102447453487e+00	 4.563293365065765e-01	 3.654298559550298e+00
 1.231800734080805e+00	 4.678168834629083e-01	 3.627559639102803e+00
 1.227383343945674e+00	 4.792867421495839e-01	 3.542892969355181e+00
 1.222850193043124e+00	 4.907372384700341e-01	 3.403613817864634e+00
 1.218201228436018e+00	 5.021666904822411e-01	 3.213394780928794e+00
 1.213436428581376e+00	 5.135734090921832e-01	 2.976266763395912e+00
 1.208555803638901e+00	 5.249556987602113e-01	 2.696619405009779e+00
 1.203559395761140e+00	 5.363118582198457e-01	 2.379200932219114e+00
 1.198447279364764e+00	 5.476401812084607e-01	 2.029117414579669e+00
 1.193219561382486e+00	 5.589389572093026e-01	 1.651831405198272e+00
 1.187876381495098e+00	 5.702064722042632e-01	 1.253159945119942e+00
 1.244379468987590e+00	 4.593849471057861e-01	 3.481801593195028e+00
 1.240048951065411e+00	 4.709494154157650e-01	 3.430154557107608e+00
 1.235601981801731e+00	 4.824960770143439e-01	 3.330236709542668e+00
 1.231038476629083e+00	 4.940232465950880e-01	 3.184814476084800e+00
 1.226358382255854e+00	 5.055292309535793e-01	 2.997000711784141e+00
 1.221561676994814e+00	 5.170123296855063e-01	 2.770256394179168e+00
 1.216648371073698e+00	 5.284708358977686e-01	 2.508391788327140e+00
 1.211618506927306e+00	 5.399030369320887e-01	 2.215567061317517e+00
 1.206472159470610e+00	 5.513072151005886e-01	 1.896292323830248e+00
 1.201209436352352e+00	 5.626816484327760e-01	 1.555427076512729e+00
 1.195830478188635e+00	 5.740246114333587e-01	 1.198179039299692e+00
 1.252656490521242e+00	 4.624405577054467e-01	 3.288452404665699e+00
 1.248297168049579e+00	 4.740819473690587e-01	 3.215517308635499e+00
 1.243820619657364e+00	 4.857054118795300e-01	 3.105280063154822e+00
 1.239226760214626e+00	 4.973092547205594e-01	 2.959680003632494e+00
 1.234515536075286e+00	 5.088917714253288e-01	 2.780965088930588e+00
 1.229686925407861e+00	 5.204512502792356e-01	 2.571694375024260e+00
 1.224740938508116e+00	 5.319859730357289e-01	 2.334740024507285e+00
 1.219677618093109e+00	 5.434942156447331e-01	 2.073288828398886e+00
 1.214497039576115e+00	 5.549742489931168e-01	 1.790843216611153e+00
 1.209199311321902e+00	 5.664243396566493e-01	 1.491221733470543e+00
 1.203784574881888e+00	 5.778427506628541e-01	 1.178558954860769e+00
 1.260933512054261e+00	 4.654961683057414e-01	 3.075489936506149e+00
 1.256545385033123e+00	 4.772144793229773e-01	 2.987003010931008e+00
 1.252039257512380e+00	 4.889147467453337e-01	 2.873030016286375e+00
 1.247415043799562e+00	 5.005952628466426e-01	 2.734410249001316e+00
 1.242672689894119e+00	 5.122543118976854e-01	 2.572227268498955e+00
 1.237812173820320e+00	 5.238901708735690e-01	 2.387812218873413e+00
 1.232833505941960e+00	 5.355011101742917e-01	 2.182746788262486e+00
 1.227736729258357e+00	 5.470853943579782e-01	 1.958865781779993e+00
 1.222521919681086e+00	 5.586412828862450e-01	 1.718259283525297e+00
 1.217189186290948e+00	 5.701670308811225e-01	 1.463274382971082e+00
 1.211738671574672e+00	 5.816608898929493e-01	 1.196516440956451e+00
 1.269210533586462e+00	 4.685517789068530e-01	 2.844110639176705e+00
 1.264793602015855e+00	 4.803470112777081e-01	 2.747869271058846e+00
 1.260257895366589e+00	 4.921240816119458e-01	 2.638353162185989e+00
 1.255603327383696e+00	 5.038812709735316e-01	 2.515033778937215e+00
 1.250829843712159e+00	 5.156168523708458e-01	 2.377536278734322e+00
 1.245937422231995e+00	 5.273290914687045e-01	 2.225643747086560e+00
 1.240926073375035e+00	 5.390162473136549e-01	 2.059301211850256e+00
 1.235795840422856e+00	 5.506765730720238e-01	 1.878619410398233e+00
 1.230546799785333e+00	 5.623083167801735e-01	 1.683878284729115e+00
 1.225179061259301e+00	 5.739097221063956e-01	 1.475530179010038e+00
 1.219692768266804e+00	 5.854790291238445e-01	 1.254202713650902e+00
 1.140151801338169e+00	 5.472976368268900e-01	 2.192474657611627e+00
 1.134913533570922e+00	 5.580789807032194e-01	 1.730795413143335e+00
 1.129564842684505e+00	 5.688270330977130e-01	 1.348048177246601e+00
 1.124105957266472e+00	 5.795401434485337e-01	 1.040981706678030e+00
 1.118537138011102e+00	 5.902166607945590e-01	 8.063432396535523e-01
 1.112858677841215e+00	 6.008549345401176e-01	 6.408810466409272e-01
 1.107070902008571e+00	 6.114533152263181e-01	 5.411170469615640e-01
 1.101174168172526e+00	 6.220101553082881e-01	 5.031986544533438e-01
 1.095168866456658e+00	 6.325238099376140e-01	 5.240007695009317e-01
 1.089055419483085e+00	 6.429926377492694e-01	 6.004787584108198e-01
 1.082834282384246e+00	 6.534150016522964e-01	 7.296215270863354e-01
 1.148105898029562e+00	 5.511157760577856e-01	 1.975928652259468e+00
 1.142831086278996e+00	 5.619723343500329e-01	 1.503670183311952e+00
 1.137445081059043e+00	 5.727953689074317e-01	 1.119408670652462e+00
 1.131948112551971e+00	 5.835832176532515e-01	 8.186674334776504e-01
 1.126340443270758e+00	 5.943342181086932e-01	 5.968502940743398e-01
 1.120622368181761e+00	 6.050467081629568e-01	 4.492449165459358e-01
 1.114794214805816e+00	 6.157190268499535e-01	 3.710261353087571e-01
 1.108856343297441e+00	 6.263495151309660e-01	 3.571979742582987e-01
 1.102809146501857e+00	 6.369365166825475e-01	 4.021372598143699e-01
 1.096653049989549e+00	 6.474783786889398e-01	 5.006994263438508e-01
 1.090388512068123e+00	 6.579734526382700e-01	 6.478404435064126e-01
 1.156059994721770e+00	 5.549339152878812e-01	 1.779897446644204e+00
 1.150748638987892e+00	 5.658656879960468e-01	 1.310825760486505e+00
 1.145325319434410e+00	 5.767637047163499e-01	 9.352363788728948e-01
 1.139790267838306e+00	 5.876262918571695e-01	 6.477873208581693e-01
 1.134143748531256e+00	 5.984517754220279e-01	 4.429175203103707e-01
 1.128386058523156e+00	 6.092384817849962e-01	 3.148506221299185e-01
 1.122517527603915e+00	 6.199847384727891e-01	 2.575989075361437e-01
 1.116538518423214e+00	 6.306888749528436e-01	 2.649673340977156e-01
 1.110449426547919e+00	 6.413492234266810e-01	 3.305533418410436e-01
 1.104250680496879e+00	 6.519641196278099e-01	 4.473469625354601e-01
 1.097942741752867e+00	 6.625319036234437e-01	 6.084269583963312e-01
 1.164014091414612e+00	 5.587520545173768e-01	 1.607055262471695e+00
 1.158666191697431e+00	 5.697590416414604e-01	 1.152694796419863e+00
 1.153205557810433e+00	 5.807320405246689e-01	 7.940473811539650e-01
 1.147632423125309e+00	 5.916693660604879e-01	 5.252581561886335e-01
 1.141947053792436e+00	 6.025693327347621e-01	 3.401717129439226e-01
 1.136149748865245e+00	 6.134302554064358e-01	 2.323360221342443e-01
 1.130240840402720e+00	 6.242504500950247e-01	 1.950066010901360e-01
 1.124220693549705e+00	 6.350282347741220e-01	 2.211509069266209e-01
 1.118089706594707e+00	 6.457619301702145e-01	 3.034529412598702e-01
 1.111848311004940e+00	 6.564498605660801e-01	 4.343180520942077e-01
 1.105496971438344e+00	 6.670903546080174e-01	 6.056577464943350e-01
 1.171968188107903e+00	 5.625701937464722e-01	 1.459991973228008e+00
 1.166583744407436e+00	 5.736523952864742e-01	 1.029686444904889e+00
 1.161085796186939e+00	 5.847003763325871e-01	 6.943862728033590e-01
 1.155474578412816e+00	 5.957124402634059e-01	 4.480686267177170e-01
 1.149750359054139e+00	 6.066868900470965e-01	 2.843465333011999e-01
 1.143913439207876e+00	 6.176220290274752e-01	 1.964726123264768e-01
 1.137964153202087e+00	 6.285161617168603e-01	 1.773431356181877e-01
 1.131902868676772e+00	 6.393675945949999e-01	 2.195023949905098e-01
 1.125729986642083e+00	 6.501746369133482e-01	 3.151473651561986e-01
 1.119445941513597e+00	 6.609356015039503e-01	 4.561326473421650e-01
 1.113051201124420e+00	 6.716488055921910e-01	 6.339756792523895e-01
 1.179922284801460e+00	 5.663883329753678e-01	 1.341216472806872e+00
 1.174501297117727e+00	 5.775457489312879e-01	 9.421877204801532e-01
 1.168966034563758e+00	 5.886687121403056e-01	 6.348258114007650e-01
 1.163316733700660e+00	 5.997555144661237e-01	 4.132775436325189e-01
 1.157553664316206e+00	 6.108044473592312e-01	 2.712795943773496e-01
 1.151677129550899e+00	 6.218138026483148e-01	 2.021617467435473e-01
 1.145687466001867e+00	 6.327818733384957e-01	 1.988504940971181e-01
 1.139585043804274e+00	 6.437069544156779e-01	 2.538730089265538e-01
 1.133370266689911e+00	 6.545873436562815e-01	 3.593614626869321e-01
 1.127043572022716e+00	 6.654213424416205e-01	 5.070576827623361e-01
 1.120605430810964e+00	 6.762072565761650e-01	 6.883181324999689e-01
 1.187876381495098e+00	 5.702064722042632e-01	 1.253159945119942e+00
 1.182418849828129e+00	 5.814391025761014e-01	 8.905648400440376e-01
 1.176846272940716e+00	 5.926370479480242e-01	 6.139666158846240e-01
 1.171158888988677e+00	 6.037985886688417e-01	 4.180121772864140e-01
 1.165356969578480e+00	 6.149220046713653e-01	 2.969097038403252e-01
 1.159440819894159e+00	 6.260055762691541e-01	 2.444310528429455e-01
 1.153410778801916e+00	 6.370475849601311e-01	 2.539145670127959e-01
 1.147267218932070e+00	 6.480463142363558e-01	 3.182682748648230e-01
 1.141010546738053e+00	 6.590000503992147e-01	 4.299734709391250e-01
 1.134641202532164e+00	 6.699070833792907e-01	 5.810886627136088e-01
 1.128159660497840e+00	 6.807657075601384e-01	 7.632538708096834e-01
 1.195830478188635e+00	 5.740246114333587e-01	 1.198179039299693e+00
 1.190336402538461e+00	 5.853324562211150e-01	 8.751645481723407e-01
 1.184726511317642e+00	 5.966053837559427e-01	 6.304369160523781e-01
 1.179001044276700e+00	 6.078416628717598e-01	 4.594666984191690e-01
 1.173160274840800e+00	 6.190395619836996e-01	 3.572742577527319e-01
 1.167204510237504e+00	 6.301973498901932e-01	 3.184310315325062e-01
 1.161134091602085e+00	 6.413132965819665e-01	 3.370612053111282e-01
 1.154949394060018e+00	 6.523856740572336e-01	 4.068437795072271e-01
 1.148650826786372e+00	 6.634127571423485e-01	 5.210150180692297e-01
 1.142238833041805e+00	 6.743928243171609e-01	 6.723712668129705e-01
 1.135713890184916e+00	 6.853241585443121e-01	 8.532721290358785e-01
 1.203784574881888e+00	 5.778427506628541e-01	 1.178558954860769e+00
 1.198253955248546e+00	 5.892258098665284e-01	 8.963154268925194e-01
 1.192606749694363e+00	 6.005737195642609e-01	 6.828923501419807e-01
 1.186843199564566e+00	 6.118847370750775e-01	 5.349007204658565e-01
 1.180963580103007e+00	 6.231571192964340e-01	 4.485067780394625e-01
 1.174968200580783e+00	 6.343891235116323e-01	 4.194318335266444e-01
 1.168857404402229e+00	 6.455790082042018e-01	 4.429524724629291e-01
 1.162631569187978e+00	 6.567250338785113e-01	 5.139011276063180e-01
 1.156291106834732e+00	 6.678254638858818e-01	 6.266670085854851e-01
 1.149836463551505e+00	 6.788785652554309e-01	 7.751973778988058e-01
 1.143268119872058e+00	 6.898826095288855e-01	 9.529991621939604e-01
 1.211738671574672e+00	 5.816608898929493e-01	 1.196516440956451e+00
 1.206171507958207e+00	 5.931191635125417e-01	 9.543291906278120e-01
 1.200486988070708e+00	 6.045420553731793e-01	 7.700158082839836e-01
 1.194685354852107e+00	 6.159278112789953e-01	 6.416379383086823e-01
 1.188766885364944e+00	 6.272746766097681e-01	 5.668345870951741e-01
 1.182731890923842e+00	 6.385808971336716e-01	 5.428202039259284e-01
 1.176580717202202e+00	 6.498447198270372e-01	 5.663830864924253e-01
 1.170313744315808e+00	 6.610643937003891e-01	 6.338841020831323e-01
 1.163931386882993e+00	 6.722381706300147e-01	 7.412557151659114e-01
 1.157434094061130e+00	 6.833643061943009e-01	 8.840013119415372e-01
 1.150822349559133e+00	 6.944410605140587e-01	 1.057194812453128e+00
 1.219692768266804e+00	 5.854790291238445e-01	 1.254202713650902e+00
 1.214089060667263e+00	 5.970125171593550e-01	 1.049501966987419e+00
 1.208367226446505e+00	 6.085103911828973e-01	 8.905173197297929e-01
 1.202527510139158e+00	 6.199708854837129e-01	 7.770648590682601e-01
 1.196570190626451e+00	 6.313922339239018e-01	 7.085766132698887e-01
 1.190495581266530e+00	 6.427726707565107e-01	 6.840965873393502e-01
 1.184304030001858e+00	 6.541104314506720e-01	 7.022770432963821e-01
 1.177995919443366e+00	 6.654037535230667e-01	 7.613750175323563e-01
 1.171571666931022e+00	 6.766508773749481e-01	 8.592490675823869e-01
 1.165031724570545e+00	 6.878500471339707e-01	 9.933562406815104e-01
 1.158376579246009e+00	 6.989995115000320e-01	 1.160749256667664e+00
 1.082834282384246e+00	 6.534150016522964e-01	 7.296215270863351e-01
 1.076505943053501e+00	 6.637892698303393e-01	 8.704505427019595e-01
 1.070070922891450e+00	 6.741138171709183e-01	 9.876076241614832e-01
 1.063529775955415e+00	 6.843870254644014e-01	 1.086626562453298e+00
 1.056883088614866e+00	 6.946072839977351e-01	 1.173151069168556e+00
 1.050131479446166e+00	 7.047729903516500e-01	 1.252922354026683e+00
 1.043275599103903e+00	 7.148825511969510e-01	 1.331766495178710e+00
 1.036316130168806e+00	 7.249343830890960e-01	 1.415581657359047e+00
 1.029253786972209e+00	 7.349269132602679e-01	 1.510325213745602e+00
 1.022089315397092e+00	 7.448585804081368e-01	 1.621109810123896e+00
 1.014823492655765e+00	 7.547278354805068e-01	 1.746406140518990e+00
 1.090388512068123e+00	 6.579734526382700e-01	 6.478404435064120e-01
 1.084016024034659e+00	 6.684200953300652e-01	 8.017401784088709e-01
 1.077536110927221e+00	 6.788166703144929e-01	 9.283365026330610e-01
 1.070949330668425e+00	 6.891615480927239e-01	 1.034248223747884e+00
 1.064256273718450e+00	 6.994531067148073e-01	 1.126194038920169e+00
 1.057457562969055e+00	 7.096897325824356e-01	 1.210977989865031e+00
 1.050553853614018e+00	 7.198698212507918e-01	 1.295474711944032e+00
 1.043545832995979e+00	 7.299917782286703e-01	 1.386614537870617e+00
 1.036434220429690e+00	 7.400540197760759e-01	 1.491368517306008e+00
 1.029219767001664e+00	 7.500549736984856e-01	 1.612147737975125e+00
 1.021903255346308e+00	 7.599930801369752e-01	 1.750038727343740e+00
 1.097942741752867e+00	 6.625319036234437e-01	 6.084269583963312e-01
 1.091526105016681e+00	 6.730509208289913e-01	 7.722194810125198e-01
 1.085001298963854e+00	 6.835195234572684e-01	 9.063928411298017e-01
 1.078368885382286e+00	 6.939360707202499e-01	 1.018163980151780e+00
 1.071629458822871e+00	 7.042989294310876e-01	 1.114839608207174e+00
 1.064783646492761e+00	 7.146064748124378e-01	 1.203800206319445e+00
 1.057832108124917e+00	 7.248570913038612e-01	 1.292483828904775e+00
 1.050775535823896e+00	 7.350491733674904e-01	 1.388369771446260e+00
 1.043614653887864e+00	 7.451811262911517e-01	 1.497907413765793e+00
 1.036350218606865e+00	 7.552513669881316e-01	 1.620522633810535e+00
 1.028983018037402e+00	 7.652583247927758e-01	 1.761965940669179e+00
 1.105496971438344e+00	 6.670903546080174e-01	 6.056577464943350e-01
 1.099036185999435e+00	 6.776817463273176e-01	 7.766860502501686e-01
 1.092466487001211e+00	 6.882223765994447e-01	 9.171251185243969e-01
 1.085788440096861e+00	 6.987105933471784e-01	 1.034313590035285e+00
 1.079002643927987e+00	 7.091447521467743e-01	 1.135669664158210e+00
 1.072109730017137e+00	 7.195232170418521e-01	 1.228674311372459e+00
 1.065110362636457e+00	 7.298443613563518e-01	 1.320854294977237e+00
 1.058005238652415e+00	 7.401065685057445e-01	 1.419765072326073e+00
 1.050795087346593e+00	 7.503082328056783e-01	 1.528061419373710e+00
 1.043480670212565e+00	 7.604477602772499e-01	 1.647066413843240e+00
 1.036062780728931e+00	 7.705235694480761e-01	 1.784196763682055e+00
 1.113051201124420e+00	 6.716488055921910e-01	 6.339756792523895e-01
 1.106546266982786e+00	 6.823125718252437e-01	 8.100650056629657e-01
 1.099931675039156e+00	 6.929252297412211e-01	 9.559924801500148e-01
 1.093207994812010e+00	 7.034851159737091e-01	 1.078729564062018e+00
 1.086375829033657e+00	 7.139905748620659e-01	 1.185339596082935e+00
 1.079435813542042e+00	 7.244399592708750e-01	 1.282938254053913e+00
 1.072388617148494e+00	 7.348316314084572e-01	 1.378676453143235e+00
 1.065234941481394e+00	 7.451639636436211e-01	 1.478666288338761e+00
 1.057975520805739e+00	 7.554353393198385e-01	 1.581576844651781e+00
 1.050611121818636e+00	 7.656441535660167e-01	 1.692583888517868e+00
 1.043142543420778e+00	 7.757888141030427e-01	 1.818681470604476e+00
 1.120605430810964e+00	 6.762072565761650e-01	 6.883181324999683e-01
 1.114056347966599e+00	 6.869433973229701e-01	 8.674373488010789e-01
 1.107396863077554e+00	 6.976280828827985e-01	 1.018558826777890e+00
 1.100627549527593e+00	 7.082596386000406e-01	 1.147531777010207e+00
 1.093749014139739e+00	 7.188363975771588e-01	 1.260573477149878e+00
 1.086761897067330e+00	 7.293567014997019e-01	 1.363978432473854e+00
 1.079666871660883e+00	 7.398189014603694e-01	 1.464067040809815e+00
 1.072464644310690e+00	 7.502213587813089e-01	 1.562317499379781e+00
 1.065155954265166e+00	 7.605624458338158e-01	 1.658223793082781e+00
 1.057741573424948e+00	 7.708405468546072e-01	 1.757853863580889e+00
 1.050222306112825e+00	 7.810540587578422e-01	 1.867313812563153e+00
 1.128159660497840e+00	 6.807657075601384e-01	 7.632538708096830e-01
 1.121566428950742e+00	 6.915742228206959e-01	 9.441919120088598e-01
 1.114862051116267e+00	 7.023309360243754e-01	 1.100516751227850e+00
 1.108047104243473e+00	 7.130341612263716e-01	 1.236922234681678e+00
 1.101122199246091e+00	 7.236822202922523e-01	 1.358159376977092e+00
 1.094087980592859e+00	 7.342734437285288e-01	 1.469225606358878e+00
 1.086945126173480e+00	 7.448061715122818e-01	 1.574272003765291e+00
 1.079694347140162e+00	 7.552787539189969e-01	 1.669583500642846e+00
 1.072336387724735e+00	 7.656895523477931e-01	 1.757774072982275e+00
 1.064872025031371e+00	 7.760369401431979e-01	 1.843630210160910e+00
 1.057302068804957e+00	 7.863193034126421e-01	 1.931933129233679e+00
 1.135713890184916e+00	 6.853241585443121e-01	 8.532721290358785e-01
 1.129076509935079e+00	 6.962050483186220e-01	 1.035386834633307e+00
 1.122327239155160e+00	 7.070337891661519e-01	 1.197685762893474e+00
 1.115466658959509e+00	 7.178086838529022e-01	 1.343186453027564e+00
 1.108495384352572e+00	 7.285280430075431e-01	 1.474944799037333e+00
 1.101414064118486e+00	 7.391901859575513e-01	 1.596150909223166e+00
 1.094223380686142e+00	 7.497934415643868e-01	 1.705727000031020e+00
 1.086924049969666e+00	 7.603361490568736e-01	 1.799373208222444e+00
 1.079516821184309e+00	 7.708166588619533e-01	 1.880001331945333e+00
 1.072002476637777e+00	 7.812333334319643e-01	 1.950642905302405e+00
 1.064381831497056e+00	 7.915845480676086e-01	 2.014326389716320e+00
 1.143268119872058e+00	 6.898826095288855e-01	 9.529991621939604e-01
 1.136586590919476e+00	 7.008358738169480e-01	 1.136101352417674e+00
 1.129792427194096e+00	 7.117366423083283e-01	 1.305665190738223e+00
 1.122886213675563e+00	 7.225832064798309e-01	 1.462590511721567e+00
 1.115868569459039e+00	 7.333738657232296e-01	 1.607803639331465e+00
 1.108740147644065e+00	 7.441069281869657e-01	 1.741653805976502e+00
 1.101501635198725e+00	 7.547807116168771e-01	 1.856561622305778e+00
 1.094153752799062e+00	 7.653935441951275e-01	 1.950619971634470e+00
 1.086697254643750e+00	 7.759437653764797e-01	 2.024681198687068e+00
 1.079132928244035e+00	 7.864297267210824e-01	 2.079599044319990e+00
 1.071461594189006e+00	 7.968497927229087e-01	 2.116230165917253e+00
 1.150822349559133e+00	 6.944410605140587e-01	 1.057194812453128e+00
 1.144096671903800e+00	 7.054666993158739e-01	 1.241536279400555e+00
 1.137257615232939e+00	 7.164394954511032e-01	 1.420121523453490e+00
 1.130305768391496e+00	 7.273577291073564e-01	 1.591311182117077e+00
 1.123241754565352e+00	 7.382196884395098e-01	 1.753483978708440e+00
 1.116066231169455e+00	 7.490236704169675e-01	 1.901400547394279e+00
 1.108779889711084e+00	 7.597679816699466e-01	 2.024990688283001e+00
 1.101383455628205e+00	 7.704509393339470e-01	 2.122280965196500e+00
 1.093877688102920e+00	 7.810708718915549e-01	 2.191591431937820e+00
 1.086263379850017e+00	 7.916261200107276e-01	 2.231183826268770e+00
 1.078541356880689e+00	 8.021150373787092e-01	 2.239332541537050e+00
 1.158376579246009e+00	 6.989995115000320e-01	 1.160749256667664e+00
 1.151606752887915e+00	 7.100975248155994e-01	 1.347011181783432e+00
 1.144722803271552e+00	 7.211423485946773e-01	 1.536827721824265e+00
 1.137725323107168e+00	 7.321322517356784e-01	 1.725607328236531e+00
 1.130614939671369e+00	 7.430655111565818e-01	 1.908482063017699e+00
 1.123392314694512e+00	 7.539404126477526e-01	 2.072574460425978e+00
 1.116058144223075e+00	 7.647552517237869e-01	 2.209176338344576e+00
 1.108613158456955e+00	 7.755083344735211e-01	 2.313336615432565e+00
 1.101058121561683e+00	 7.861979784073621e-01	 2.380512076071534e+00
 1.093393831455592e+00	 7.968225133010768e-01	 2.406061513758510e+00
 1.085621119571988e+00	 8.073802820351770e-01	 2.385274959606758e+00
 1.014823492655765e+00	 7.547278354805068e-01	 1.746406140518990e+00
 1.007455866878029e+00	 7.645348030033171e-01	 1.890325105451472e+00
 9.999885077428706e-01	 7.742762720958096e-01	 2.049658044078577e+00
 9.924222895156739e-01	 7.839507287258528e-01	 2.216863751191934e+00
 9.847581167113650e-01	 7.935566741776144e-01	 2.384292716679935e+00
 9.769969237553450e-01	 8.030926258071813e-01	 2.544201132248242e+00
 9.691396746219908e-01	 8.125571177893284e-01	 2.688765147652419e+00
 9.611873624510034e-01	 8.219487018546621e-01	 2.810095336942223e+00
 9.531410091419071e-01	 8.312659480163649e-01	 2.900251334389270e+00
 9.450016649270306e-01	 8.405074452857859e-01	 2.951256599122280e+00
 9.367704079233418e-01	 8.496718023761349e-01	 2.955113267030185e+00
 1.021903255346308e+00	 7.599930801369752e-01	 1.750038727343740e+00
 1.014484230441013e+00	 7.698684644862169e-01	 1.910494622819973e+00
 1.006964776403574e+00	 7.796778934652291e-01	 2.088320434939583e+00
 9.993457735985644e-01	 7.894198424794652e-01	 2.274524597128245e+00
 9.916281328511281e-01	 7.990928023575281e-01	 2.460086997217029e+00
 9.838127951055509e-01	 8.086952801120634e-01	 2.635975478162518e+00
 9.759007310612396e-01	 8.182257996917395e-01	 2.793162485442368e+00
 9.678929407863931e-01	 8.276829027235307e-01	 2.922641816406823e+00
 9.597904533096691e-01	 8.370651492445328e-01	 3.015445426219615e+00
 9.515943261901918e-01	 8.463711184225460e-01	 3.062660244571424e+00
 9.433056450662566e-01	 8.555994092646793e-01	 3.055444957099001e+00
 1.028983018037402e+00	 7.652583247927758e-01	 1.761965940669179e+00
 1.021512594004457e+00	 7.752021259684926e-01	 1.927989694381737e+00
 1.013941045064636e+00	 7.850795148340746e-01	 2.112798357286557e+00
 1.006269257681702e+00	 7.948889562325552e-01	 2.306605597656368e+00
 9.984981489910247e-01	 8.046289305369722e-01	 2.499668511347571e+00
 9.906286664557780e-01	 8.142979344165282e-01	 2.682305695969446e+00
 9.826617875004017e-01	 8.238944815937811e-01	 2.844915376859678e+00
 9.745985191215946e-01	 8.334171035920709e-01	 2.977993536435364e+00
 9.664398974771549e-01	 8.428643504724043e-01	 3.072151998011078e+00
 9.581869874530051e-01	 8.522347915590314e-01	 3.118136414908245e+00
 9.498408822087722e-01	 8.615270161529561e-01	 3.106844115625402e+00
 1.036062780728931e+00	 7.705235694480761e-01	 1.784196763682055e+00
 1.028540957568261e+00	 7.805357874503007e-01	 1.945976144786111e+00
 1.020917313725976e+00	 7.904811362024879e-01	 2.127245796014728e+00
 1.013192741765033e+00	 8.003580699852531e-01	 2.318066983760089e+00
 1.005368165131026e+00	 8.101650587160644e-01	 2.508608701794651e+00
 9.974445378060230e-01	 8.199005887206797e-01	 2.689166409244746e+00
 9.894228439394991e-01	 8.295631634955454e-01	 2.850180733381093e+00
 9.813040974566558e-01	 8.391513044603643e-01	 2.982256086575549e+00
 9.730893416444341e-01	 8.486635517000538e-01	 3.076179146454410e+00
 9.647796487155581e-01	 8.580984646953105e-01	 3.122937148179521e+00
 9.563761193509887e-01	 8.674546230410330e-01	 3.113735937911461e+00
 1.043142543420778e+00	 7.757888141030427e-01	 1.818681470604476e+00
 1.035569321132326e+00	 7.858694489317968e-01	 1.967530041897190e+00
 1.027893582387516e+00	 7.958827575706146e-01	 2.135700514602920e+00
 1.020116225848501e+00	 8.058271837376898e-01	 2.313731240414197e+00
 1.012238181271103e+00	 8.157011868949218e-01	 2.492325034498136e+00
 1.004260409156283e+00	 8.255032430246221e-01	 2.662367678250867e+00
 9.961839003785548e-01	 8.352318453971241e-01	 2.814946307673846e+00
 9.880096757916245e-01	 8.448855053284937e-01	 2.941367635977175e+00
 9.797387858115763e-01	 8.544627529275555e-01	 3.033175958843892e+00
 9.713723099779371e-01	 8.639621378314525e-01	 3.082170890844231e+00
 9.629113564930061e-01	 8.733822299289763e-01	 3.080424781771610e+00
 1.050222306112825e+00	 7.810540587578422e-01	 1.867313812563153e+00
 1.042597684696553e+00	 7.912031104131366e-01	 1.995640948584274e+00
 1.034869851049178e+00	 8.012843789385971e-01	 2.142088218121219e+00
 1.027039709932053e+00	 8.112962974899961e-01	 2.298288014016375e+00
 1.019108197411227e+00	 8.212373150736622e-01	 2.456086471692551e+00
 1.011076280506557e+00	 8.311058973284604e-01	 2.607560848011054e+00
 1.002944956817593e+00	 8.409005272986109e-01	 2.745036714267704e+00
 9.947152541265479e-01	 8.506197061965409e-01	 2.861104912648335e+00
 9.863882299786499e-01	 8.602619541549832e-01	 2.948638225431012e+00
 9.779649712402301e-01	 8.698258109675258e-01	 3.000807706416982e+00
 9.694465936349229e-01	 8.793098368168527e-01	 3.011098624497902e+00
 1.057302068804957e+00	 7.863193034126421e-01	 1.931933129233679e+00
 1.049626048260840e+00	 7.965367718944765e-01	 2.033215057804814e+00
 1.041846119710883e+00	 8.066860003065802e-01	 2.150226563257458e+00
 1.033963194015633e+00	 8.167654112423022e-01	 2.276298837257994e+00
 1.025978213551370e+00	 8.267734432524022e-01	 2.405018740018543e+00
 1.017892151856842e+00	 8.367085516322990e-01	 2.530244176662319e+00
 1.009706013256637e+00	 8.465692092000973e-01	 2.646119223873293e+00
 1.001420832461473e+00	 8.563539070645878e-01	 2.747088958313653e+00
 9.930376741457240e-01	 8.660611553824104e-01	 2.827913938384307e+00
 9.845576325025225e-01	 8.756894841035987e-01	 2.883684291224223e+00
 9.759818307768401e-01	 8.852374437047291e-01	 2.909833357395149e+00
 1.064381831497056e+00	 7.915845480676086e-01	 2.014326389716320e+00
 1.056654411825089e+00	 8.018704333759725e-01	 2.083078216414587e+00
 1.048822388372552e+00	 8.120876216747063e-01	 2.163829022486171e+00
 1.040886678099189e+00	 8.222345249947390e-01	 2.252201679934649e+00
 1.032848229691502e+00	 8.323095714312597e-01	 2.344109403211806e+00
 1.024708023207134e+00	 8.423112059362412e-01	 2.435768254318298e+00
 1.016467069695709e+00	 8.522378911016759e-01	 2.523709341886720e+00
 1.008126410796449e+00	 8.620881079327173e-01	 2.604790669323312e+00
 9.996871183128678e-01	 8.718603566099119e-01	 2.676208587291733e+00
 9.911502937649018e-01	 8.815531572397404e-01	 2.735508806254955e+00
 9.825170679188570e-01	 8.911650505926724e-01	 2.780596925449625e+00
 1.071461594189006e+00	 7.968497927229087e-01	 2.116230165917253e+00
 1.063682775389200e+00	 8.072040948577802e-01	 2.147978842852268e+00
 1.055798657034108e+00	 8.174892430431202e-01	 2.186508609126911e+00
 1.047810162182663e+00	 8.277036387474366e-01	 2.230315333747916e+00
 1.039718245831595e+00	 8.378456996103520e-01	 2.278212748409167e+00
 1.031523894557432e+00	 8.479138602403927e-01	 2.329341222132338e+00
 1.023228126134833e+00	 8.579065730034401e-01	 2.383176181063293e+00
 1.014831989131521e+00	 8.678223088010109e-01	 2.439536133509615e+00
 1.006336562480151e+00	 8.776595578375613e-01	 2.498590260617038e+00
 9.977429550274552e-01	 8.874168303760197e-01	 2.560865533613022e+00
 9.890523050610736e-01	 8.970926574807490e-01	 2.627253319295319e+00
 1.078541356880689e+00	 8.021150373787092e-01	 2.239332541537050e+00
 1.070711138953074e+00	 8.125377563400561e-01	 2.230590743575604e+00
 1.062774925695471e+00	 8.228908644119648e-01	 2.221781469684767e+00
 1.054733646266003e+00	 8.331727525005264e-01	 2.214843638727074e+00
 1.046588261971619e+00	 8.433818277897960e-01	 2.212054494636731e+00
 1.038339765907732e+00	 8.535165145448569e-01	 2.216033800742260e+00
 1.029989182574033e+00	 8.635752549054815e-01	 2.229747637818889e+00
 1.021537567466739e+00	 8.735565096695507e-01	 2.256511772367942e+00
 1.012986006647641e+00	 8.834587590654330e-01	 2.299994562027210e+00
 1.004335616290269e+00	 8.932805035125048e-01	 2.364219365631421e+00
 9.955875422035889e-01	 9.030202643690258e-01	 2.453566426265454e+00
 1.085621119571988e+00	 8.073802820351770e-01	 2.385274959606757e+00
 1.077739502516610e+00	 8.178714178229555e-01	 2.333515832871726e+00
 1.069751194356563e+00	 8.282924857813846e-01	 2.273070349532237e+00
 1.061657130349154e+00	 8.386418662541383e-01	 2.209879558501486e+00
 1.053458278111545e+00	 8.489179559697088e-01	 2.150236331598207e+00
 1.045155637258033e+00	 8.591191688497392e-01	 2.100784136799265e+00
 1.036750239013331e+00	 8.692439368078929e-01	 2.068515381124225e+00
 1.028243145802149e+00	 8.792907105384193e-01	 2.060769297449813e+00
 1.019635450815409e+00	 8.892579602936008e-01	 2.085229350043093e+00
 1.010928277553431e+00	 8.991441766492650e-01	 2.149920134288283e+00
 1.002122779346504e+00	 9.089478712575699e-01	 2.263203746962938e+00
 9.367704079233418e-01	 8.496718023761349e-01	 2.955113267030185e+00
 9.284497634436332e-01	 8.587561131858535e-01	 2.924870388958894e+00
 9.200394596443375e-01	 8.677606052844652e-01	 2.881373189243640e+00
 9.115406399879045e-01	 8.766839660711286e-01	 2.828388407409600e+00
 9.029544738081481e-01	 8.855249053128216e-01	 2.769768707204794e+00
 8.942821557703193e-01	 8.942821557703196e-01	 2.709449921825132e+00
 8.855249053128216e-01	 9.029544738081482e-01	 2.651448064425320e+00
 8.766839660711283e-01	 9.115406399879040e-01	 2.599856093890637e+00
 8.677606052844652e-01	 9.200394596443375e-01	 2.558840426958453e+00
 8.587561131858534e-01	 9.284497634436334e-01	 2.532637188986734e+00
 8.496718023761349e-01	 9.367704079233418e-01	 2.525548196961698e+00
 9.433056450662566e-01	 8.555994092646793e-01	 3.055444957099001e+00
 9.349269528681248e-01	 8.647470953953964e-01	 3.006774399282972e+00
 9.264579758557512e-01	 8.738144059718300e-01	 2.939409724302147e+00
 9.178998654687733e-01	 8.828000192359826e-01	 2.859312269952132e+00
 9.092537991986805e-01	 8.917026359537202e-01	 2.772492670994800e+00
 9.005209800451207e-01	 9.005209800451206e-01	 2.685005201523758e+00
 8.917026359537202e-01	 9.092537991986804e-01	 2.602941932319788e+00
 8.828000192359825e-01	 9.178998654687734e-01	 2.532426697334257e+00
 8.738144059718299e-01	 9.264579758557512e-01	 2.479608864473338e+00
 8.647470953953961e-01	 9.349269528681250e-01	 2.450656906978580e+00
 8.555994092646789e-01	 9.433056450662566e-01	 2.451751772901892e+00
 9.498408822087722e-01	 8.615270161529561e-01	 3.106844115625402e+00
 9.414041422921891e-01	 8.707380776046652e-01	 3.050382320346658e+00
 9.328764920667283e-01	 8.798682066589015e-01	 2.971766909771532e+00
 9.242590909492125e-01	 8.889160724005157e-01	 2.878414959536589e+00
 9.155531245888028e-01	 8.978803665942670e-01	 2.777751591403371e+00
 9.067598043195394e-01	 9.067598043195393e-01	 2.677202430310159e+00
 8.978803665942670e-01	 9.155531245888026e-01	 2.584185931828825e+00
 8.889160724005154e-01	 9.242590909492127e-01	 2.506105576601671e+00
 8.798682066589014e-01	 9.328764920667287e-01	 2.450341929281654e+00
 8.707380776046647e-01	 9.414041422921891e-01	 2.424244560532379e+00
 8.615270161529561e-01	 9.498408822087723e-01	 2.435123831755083e+00
 9.563761193509887e-01	 8.674546230410330e-01	 3.113735937911461e+00
 9.478813317159320e-01	 8.767290598137282e-01	 3.059106954938064e+00
 9.392950082773779e-01	 8.859220073457531e-01	 2.980762315018401e+00
 9.306183164293290e-01	 8.950321255648077e-01	 2.886850644653545e+00
 9.218524499786171e-01	 9.040580972345493e-01	 2.785482797811431e+00
 9.129986285936698e-01	 9.129986285936695e-01	 2.684723433654772e+00
 9.040580972345493e-01	 9.218524499786170e-01	 2.592582525737495e+00
 8.950321255648074e-01	 9.306183164293292e-01	 2.517006799971699e+00
 8.859220073457528e-01	 9.392950082773779e-01	 2.465871099521083e+00
 8.767290598137280e-01	 9.478813317159325e-01	 2.446969675717110e+00
 8.674546230410328e-01	 9.563761193509887e-01	 2.468007405113414e+00
 9.629113564930061e-01	 8.733822299289763e-01	 3.080424781771609e+00
 9.543585211394608e-01	 8.827200420226536e-01	 3.036268042628975e+00
 9.457135244878090e-01	 8.919758080324571e-01	 2.968650450303326e+00
 9.369775419092313e-01	 9.011481787289394e-01	 2.885742268312034e+00
 9.281517753682257e-01	 9.102358278746556e-01	 2.795625655519346e+00
 9.192374528676087e-01	 9.192374528676086e-01	 2.706286359297474e+00
 9.102358278746558e-01	 9.281517753682260e-01	 2.625605406806748e+00
 9.011481787289390e-01	 9.369775419092313e-01	 2.561350790729429e+00
 8.919758080324569e-01	 9.457135244878091e-01	 2.521169146543313e+00
 8.827200420226536e-01	 9.543585211394611e-01	 2.512577419265539e+00
 8.733822299289763e-01	 9.629113564930061e-01	 2.542954518525422e+00
 9.694465936349229e-01	 8.793098368168527e-01	 3.011098624497903e+00
 9.608357105628825e-01	 8.887110242315107e-01	 2.985095795106172e+00
 9.521320406981307e-01	 8.980296087190884e-01	 2.937625304525392e+00
 9.433367673890262e-01	 9.072642318929911e-01	 2.876183025689584e+00
 9.344511007577324e-01	 9.164135585146743e-01	 2.808121934289668e+00
 9.254762771414523e-01	 9.254762771414523e-01	 2.740644901204582e+00
 9.164135585146742e-01	 9.344511007577320e-01	 2.680797555228971e+00
 9.072642318929910e-01	 9.433367673890262e-01	 2.635461209785165e+00
 8.980296087190881e-01	 9.521320406981308e-01	 2.611345847948531e+00
 8.887110242315106e-01	 9.608357105628831e-01	 2.614983160859732e+00
 8.793098368168526e-01	 9.694465936349231e-01	 2.652719635436807e+00
 9.759818307768401e-01	 8.852374437047291e-01	 2.909833357395149e+00
 9.673128999863048e-01	 8.947020064403680e-01	 2.908734306345206e+00
 9.585505569084526e-01	 9.040834094057193e-01	 2.889822798120349e+00
 9.496959928688209e-01	 9.133802850570429e-01	 2.859237799744506e+00
 9.407504261472385e-01	 9.225912891546927e-01	 2.822916179615750e+00
 9.317151014152957e-01	 9.317151014152956e-01	 2.786587572425951e+00
 9.225912891546927e-01	 9.407504261472386e-01	 2.755769392023205e+00
 9.133802850570429e-01	 9.496959928688209e-01	 2.735761981591939e+00
 9.040834094057193e-01	 9.585505569084530e-01	 2.731643891050326e+00
 8.947020064403676e-01	 9.673128999863054e-01	 2.748267272205846e+00
 8.852374437047289e-01	 9.759818307768400e-01	 2.790253382960484e+00
 9.825170679188570e-01	 8.911650505926724e-01	 2.780596925449625e+00
 9.737900894098337e-01	 9.006929886492934e-01	 2.810244843455179e+00
 9.649690731188835e-01	 9.101372100924239e-01	 2.827323155063723e+00
 9.560552183487234e-01	 9.194963382211753e-01	 2.835944556748689e+00
 9.470497515368475e-01	 9.287690197947991e-01	 2.839956086590191e+00
 9.379539256892346e-01	 9.379539256892346e-01	 2.842937024576383e+00
 9.287690197947989e-01	 9.470497515368473e-01	 2.848197023904199e+00
 9.194963382211746e-01	 9.560552183487231e-01	 2.858774456690526e+00
 9.101372100924237e-01	 9.649690731188838e-01	 2.877434957905459e+00
 9.006929886492934e-01	 9.737900894098341e-01	 2.906670151873878e+00
 8.911650505926724e-01	 9.825170679188571e-01	 2.948696546354685e+00
 9.890523050610736e-01	 8.970926574807490e-01	 2.627253319295319e+00
 9.802672788335767e-01	 9.066839708583566e-01	 2.692609023714505e+00
 9.713875893295331e-01	 9.161910107792749e-01	 2.752153197721607e+00
 9.624144438288397e-01	 9.256123913854671e-01	 2.807315703595639e+00
 9.533490769266617e-01	 9.349467504350817e-01	 2.859192876253982e+00
 9.441927499633654e-01	 9.441927499633652e-01	 2.908549411785785e+00
 9.349467504350812e-01	 9.533490769266614e-01	 2.955820575395061e+00
 9.256123913854669e-01	 9.624144438288401e-01	 3.001114704563542e+00
 9.161910107792747e-01	 9.713875893295333e-01	 3.044215983511583e+00
 9.066839708583559e-01	 9.802672788335772e-01	 3.084587465461263e+00
 8.970926574807490e-01	 9.890523050610733e-01	 3.121374319781707e+00
 9.955875422035889e-01	 9.030202643690258e-01	 2.453566426265454e+00
 9.867444682576400e-01	 9.126749530676246e-01	 2.558731883028261e+00
 9.778061055405098e-01	 9.222448114663463e-01	 2.666288568095013e+00
 9.687736693092788e-01	 9.317284445499999e-01	 2.774339408641140e+00
 9.596484023167835e-01	 9.411244810756280e-01	 2.880581674313264e+00
 9.504315742377832e-01	 9.504315742377832e-01	 2.982313797075799e+00
 9.411244810756282e-01	 9.596484023167835e-01	 3.076442604176057e+00
 9.317284445499999e-01	 9.687736693092789e-01	 3.159490930812063e+00
 9.222448114663458e-01	 9.778061055405101e-01	 3.227605579216988e+00
 9.126749530676247e-01	 9.867444682576409e-01	 3.276565591187322e+00
 9.030202643690258e-01	 9.955875422035888e-01	 3.301790801572333e+00
 1.002122779346504e+00	 9.089478712575699e-01	 2.263203746962939e+00
 9.932216576821324e-01	 9.186659352771679e-01	 2.411444840764558e+00
 9.842246217519234e-01	 9.282986121537109e-01	 2.571655878819072e+00
 9.751328947901475e-01	 9.378444977148536e-01	 2.737980887742381e+00
 9.659477277073155e-01	 9.473022117165263e-01	 2.904081892116639e+00
 9.566703985125847e-01	 9.566703985125846e-01	 3.063151599227198e+00
 9.473022117165264e-01	 9.659477277073159e-01	 3.207926595870637e+00
 9.378444977148535e-01	 9.751328947901475e-01	 3.330701012980501e+00
 9.282986121537108e-01	 9.842246217519237e-01	 3.423340613801613e+00
 9.186659352771674e-01	 9.932216576821324e-01	 3.477297261541799e+00
 9.089478712575698e-01	 1.002122779346504e+00	 3.483623722835476e+00
 8.496718023761349e-01	 9.367704079233418e-01	 2.525548196961698e+00
 8.405074452857861e-01	 9.450016649270302e-01	 2.534036363171983e+00
 8.312659480163652e-01	 9.531410091419068e-01	 2.550829469700580e+00
 8.219487018546624e-01	 9.611873624510029e-01	 2.574589649618781e+00
 8.125571177893285e-01	 9.691396746219902e-01	 2.603867680743427e+00
 8.030926258071817e-01	 9.769969237553447e-01	 2.637106576576639e+00
 7.935566741776152e-01	 9.847581167113648e-01	 2.672645089900611e+00
 7.839507287258533e-01	 9.924222895156736e-01	 2.708721117284298e+00
 7.742762720958096e-01	 9.999885077428703e-01	 2.743474994156339e+00
 7.645348030033176e-01	 1.007455866878029e+00	 2.774952671535028e+00
 7.547278354805067e-01	 1.014823492655765e+00	 2.801108766970485e+00
 8.555994092646789e-01	 9.433056450662566e-01	 2.451751772901892e+00
 8.463711184225464e-01	 9.515943261901914e-01	 2.478812919116217e+00
 8.370651492445332e-01	 9.597904533096687e-01	 2.521155085661767e+00
 8.276829027235312e-01	 9.678929407863927e-01	 2.574953970851752e+00
 8.182257996917399e-01	 9.759007310612396e-01	 2.636240869429434e+00
 8.086952801120642e-01	 9.838127951055508e-01	 2.700909997698734e+00
 7.990928023575288e-01	 9.916281328511279e-01	 2.764725750934396e+00
 7.894198424794654e-01	 9.993457735985641e-01	 2.823329874811032e+00
 7.796778934652294e-01	 1.006964776403574e+00	 2.872248534038212e+00
 7.698684644862173e-01	 1.014484230441013e+00	 2.906899262891482e+00
 7.599930801369751e-01	 1.021903255346308e+00	 2.922597783874759e+00
 8.615270161529561e-01	 9.498408822087723e-01	 2.435123831755083e+00
 8.522347915590320e-01	 9.581869874530049e-01	 2.478073479624578e+00
 8.428643504724047e-01	 9.664398974771545e-01	 2.539670016994401e+00
 8.334171035920713e-01	 9.745985191215947e-01	 2.614307757411558e+00
 8.238944815937815e-01	 9.826617875004013e-01	 2.696226349656640e+00
 8.142979344165284e-01	 9.906286664557773e-01	 2.779520772881391e+00
 8.046289305369726e-01	 9.984981489910245e-01	 2.858151256261357e+00
 7.948889562325555e-01	 1.006269257681702e+00	 2.925953100256463e+00
 7.850795148340747e-01	 1.013941045064636e+00	 2.976646378114821e+00
 7.752021259684930e-01	 1.021512594004457e+00	 3.003845497863584e+00
 7.652583247927758e-01	 1.028983018037402e+00	 3.001068606692360e+00
 8.674546230410328e-01	 9.563761193509887e-01	 2.468007405113414e+00
 8.580984646953110e-01	 9.647796487155580e-01	 2.523181563257287e+00
 8.486635517000543e-01	 9.730893416444338e-01	 2.597197602779030e+00
 8.391513044603649e-01	 9.813040974566558e-01	 2.683358704386418e+00
 8.295631634955454e-01	 9.894228439394983e-01	 2.774825615386304e+00
 8.199005887206799e-01	 9.974445378060225e-01	 2.864628263199915e+00
 8.101650587160646e-01	 1.005368165131026e+00	 2.945677258493422e+00
 8.003580699852534e-01	 1.013192741765032e+00	 3.010775262222545e+00
 7.904811362024884e-01	 1.020917313725975e+00	 3.052628192571121e+00
 7.805357874503013e-01	 1.028540957568261e+00	 3.063856249516663e+00
 7.705235694480760e-01	 1.036062780728931e+00	 3.037004736569047e+00
 8.733822299289763e-01	 9.629113564930061e-01	 2.542954518525422e+00
 8.639621378314527e-01	 9.713723099779367e-01	 2.605736298331226e+00
 8.544627529275558e-01	 9.797387858115761e-01	 2.684811447445591e+00
 8.448855053284938e-01	 9.880096757916240e-01	 2.773067868741204e+00
 8.352318453971246e-01	 9.961839003785545e-01	 2.863285469229684e+00
 8.255032430246227e-01	 1.004260409156283e+00	 2.948148352542915e+00
 8.157011868949223e-01	 1.012238181271103e+00	 3.020256839240586e+00
 8.058271837376902e-01	 1.020116225848501e+00	 3.072139288282985e+00
 7.958827575706149e-01	 1.027893582387516e+00	 3.096263694871183e+00
 7.858694489317971e-01	 1.035569321132326e+00	 3.085049041793940e+00
 7.757888141030426e-01	 1.043142543420778e+00	 3.030876383418928e+00
 8.793098368168526e-01	 9.694465936349231e-01	 2.652719635436808e+00
 8.698258109675260e-01	 9.779649712402294e-01	 2.717564974480581e+00
 8.602619541549834e-01	 9.863882299786495e-01	 2.793827481932883e+00
 8.506197061965413e-01	 9.947152541265475e-01	 2.874641628515861e+00
 8.409005272986111e-01	 1.002944956817593e+00	 2.953090254315113e+00
 8.311058973284610e-01	 1.011076280506557e+00	 3.022216312707117e+00
 8.212373150736625e-01	 1.019108197411227e+00	 3.075034353673463e+00
 8.112962974899967e-01	 1.027039709932052e+00	 3.104541720697584e+00
 8.012843789385975e-01	 1.034869851049177e+00	 3.103729437528054e+00
 7.912031104131372e-01	 1.042597684696552e+00	 3.065592763252795e+00
 7.810540587578422e-01	 1.050222306112825e+00	 2.983141396345822e+00
 8.852374437047289e-01	 9.759818307768400e-01	 2.790253382960484e+00
 8.756894841035990e-01	 9.845576325025219e-01	 2.850715911991474e+00
 8.660611553824107e-01	 9.930376741457235e-01	 2.915796362399398e+00
 8.563539070645882e-01	 1.001420832461473e+00	 2.979523983729087e+00
 8.465692092000975e-01	 1.009706013256636e+00	 3.035954416945435e+00
 8.367085516322992e-01	 1.017892151856841e+00	 3.079179973864011e+00
 8.267734432524030e-01	 1.025978213551370e+00	 3.103339541110579e+00
 8.167654112423023e-01	 1.033963194015633e+00	 3.102628085460524e+00
 8.066860003065806e-01	 1.041846119710883e+00	 3.071305739766775e+00
 7.965367718944770e-01	 1.049626048260839e+00	 3.003706451106066e+00
 7.863193034126421e-01	 1.057302068804957e+00	 2.894246175244230e+00
 8.911650505926724e-01	 9.825170679188571e-01	 2.948696546354685e+00
 8.815531572397407e-01	 9.911502937649013e-01	 2.997451634115736e+00
 8.718603566099122e-01	 9.996871183128673e-01	 3.042496190769933e+00
 8.620881079327176e-01	 1.008126410796448e+00	 3.079389183078360e+00
 8.522378911016765e-01	 1.016467069695709e+00	 3.103815384645039e+00
 8.423112059362416e-01	 1.024708023207134e+00	 3.111593186181016e+00
 8.323095714312596e-01	 1.032848229691502e+00	 3.098681889245137e+00
 8.222345249947395e-01	 1.040886678099188e+00	 3.061188464750713e+00
 8.120876216747067e-01	 1.048822388372552e+00	 2.995373760195750e+00
 8.018704333759732e-01	 1.056654411825089e+00	 2.897658142295928e+00
 7.915845480676086e-01	 1.064381831497056e+00	 2.764626564457205e+00
 8.970926574807490e-01	 9.890523050610733e-01	 3.121374319781707e+00
 8.874168303760203e-01	 9.977429550274547e-01	 3.150242328351264e+00
 8.776595578375619e-01	 1.006336562480150e+00	 3.165925542233253e+00
 8.678223088010112e-01	 1.014831989131521e+00	 3.166134661368245e+00
 8.579065730034405e-01	 1.023228126134833e+00	 3.148826745009911e+00
 8.479138602403929e-01	 1.031523894557431e+00	 3.112209559131436e+00
 8.378456996103520e-01	 1.039718245831594e+00	 3.054745240280725e+00
 8.277036387474371e-01	 1.047810162182663e+00	 2.975153263377142e+00
 8.174892430431208e-01	 1.055798657034108e+00	 2.872412703965281e+00
 8.072040948577810e-01	 1.063682775389200e+00	 2.745763788500851e+00
 7.968497927229088e-01	 1.071461594189006e+00	 2.594708729322013e+00
 9.030202643690258e-01	 9.955875422035888e-01	 3.301790801572333e+00
 8.932805035125053e-01	 1.004335616290269e+00	 3.301759583412245e+00
 8.834587590654333e-01	 1.012986006647641e+00	 3.278296785587562e+00
 8.735565096695510e-01	 1.021537567466739e+00	 3.231874273390380e+00
 8.635752549054820e-01	 1.029989182574032e+00	 3.163351711539888e+00
 8.535165145448574e-01	 1.038339765907732e+00	 3.073976465734693e+00
 8.433818277897962e-01	 1.046588261971618e+00	 2.965382627861548e+00
 8.331727525005270e-01	 1.054733646266004e+00	 2.839589160306589e+00
 8.228908644119652e-01	 1.062774925695471e+00	 2.698997158234874e+00
 8.125377563400564e-01	 1.070711138953073e+00	 2.546386232139062e+00
 8.021150373787090e-01	 1.078541356880688e+00	 2.384910016390942e+00
 9.089478712575698e-01	 1.002122779346504e+00	 3.483623722835476e+00
 8.991441766492652e-01	 1.010928277553431e+00	 3.444870389305025e+00
 8.892579602936015e-01	 1.019635450815408e+00	 3.372029683066561e+00
 8.792907105384193e-01	 1.028243145802148e+00	 3.268931810723220e+00
 8.692439368078930e-01	 1.036750239013330e+00	 3.139956863353769e+00
 8.591191688497395e-01	 1.045155637258033e+00	 2.990029299633940e+00
 8.489179559697093e-01	 1.053458278111545e+00	 2.824611334262436e+00
 8.386418662541389e-01	 1.061657130349154e+00	 2.649695236825628e+00
 8.282924857813851e-01	 1.069751194356563e+00	 2.471794550093062e+00
 8.178714178229560e-01	 1.077739502516610e+00	 2.297934240585064e+00
 8.073802820351771e-01	 1.085621119571988e+00	 2.135639798073533e+00
 7.547278354805067e-01	 1.014823492655765e+00	 2.801108766970485e+00
 7.448585804081368e-01	 1.022089315397092e+00	 2.816988064473759e+00
 7.349269132602683e-01	 1.029253786972208e+00	 2.819100335615737e+00
 7.249343830890960e-01	 1.036316130168806e+00	 2.806315402135241e+00
 7.148825511969510e-01	 1.043275599103902e+00	 2.779820661429548e+00
 7.047729903516504e-01	 1.050131479446166e+00	 2.741211251998016e+00
 6.946072839977357e-01	 1.056883088614866e+00	 2.692203659110119e+00
 6.843870254644020e-01	 1.063529775955414e+00	 2.634624462954665e+00
 6.741138171709191e-01	 1.070070922891449e+00	 2.570399396146750e+00
 6.637892698303400e-01	 1.076505943053501e+00	 2.501542754145688e+00
 6.534150016522964e-01	 1.082834282384246e+00	 2.430147198860671e+00
 7.599930801369751e-01	 1.021903255346308e+00	 2.922597783874759e+00
 7.500549736984857e-01	 1.029219767001664e+00	 2.915937910911212e+00
 7.400540197760755e-01	 1.036434220429689e+00	 2.888870283780792e+00
 7.299917782286705e-01	 1.043545832995979e+00	 2.843252881661399e+00
 7.198698212507919e-01	 1.050553853614017e+00	 2.781756910450838e+00
 7.096897325824361e-01	 1.057457562969055e+00	 2.708610879582545e+00
 6.994531067148078e-01	 1.064256273718450e+00	 2.628217757778952e+00
 6.891615480927246e-01	 1.070949330668424e+00	 2.545139210596962e+00
 6.788166703144934e-01	 1.077536110927221e+00	 2.464080128663336e+00
 6.684200953300659e-01	 1.084016024034658e+00	 2.389873498892638e+00
 6.579734526382700e-01	 1.090388512068123e+00	 2.327465667553728e+00
 7.652583247927758e-01	 1.028983018037402e+00	 3.001068606692360e+00
 7.552513669881317e-01	 1.036350218606865e+00	 2.967708070290114e+00
 7.451811262911519e-01	 1.043614653887863e+00	 2.910925302735961e+00
 7.350491733674905e-01	 1.050775535823896e+00	 2.835628870043020e+00
 7.248570913038613e-01	 1.057832108124917e+00	 2.745418773009867e+00
 7.146064748124382e-01	 1.064783646492761e+00	 2.646179883471721e+00
 7.042989294310881e-01	 1.071629458822871e+00	 2.544295619996932e+00
 6.939360707202505e-01	 1.078368885382286e+00	 2.446334581386289e+00
 6.835195234572690e-01	 1.085001298963853e+00	 2.359031681528941e+00
 6.730509208289919e-01	 1.091526105016681e+00	 2.289269638407229e+00
 6.625319036234436e-01	 1.097942741752867e+00	 2.244060872676212e+00
 7.705235694480760e-01	 1.036062780728931e+00	 3.037004736569047e+00
 7.604477602772499e-01	 1.043480670212565e+00	 2.975089070946394e+00
 7.503082328056780e-01	 1.050795087346593e+00	 2.890340149693961e+00
 7.401065685057446e-01	 1.058005238652415e+00	 2.789356614274129e+00
 7.298443613563523e-01	 1.065110362636457e+00	 2.677512366634141e+00
 7.195232170418527e-01	 1.072109730017137e+00	 2.560945998827977e+00
 7.091447521467750e-01	 1.079002643927987e+00	 2.447330455355002e+00
 6.987105933471792e-01	 1.085788440096860e+00	 2.344528513582557e+00
 6.882223765994452e-01	 1.092466487001210e+00	 2.260571647160169e+00
 6.776817463273181e-01	 1.099036185999434e+00	 2.203639275667075e+00
 6.670903546080175e-01	 1.105496971438344e+00	 2.182038460470456e+00
 7.757888141030426e-01	 1.043142543420778e+00	 3.030876383418928e+00
 7.656441535660167e-01	 1.050611121818636e+00	 2.940795205501160e+00
 7.554353393198389e-01	 1.057975520805739e+00	 2.831578207158323e+00
 7.451639636436213e-01	 1.065234941481394e+00	 2.710463852830530e+00
 7.348316314084578e-01	 1.072388617148494e+00	 2.584567627671861e+00
 7.244399592708751e-01	 1.079435813542041e+00	 2.459750835500367e+00
 7.139905748620663e-01	 1.086375829033657e+00	 2.344031821518572e+00
 7.034851159737097e-01	 1.093207994812009e+00	 2.245869770695388e+00
 6.929252297412218e-01	 1.099931675039156e+00	 2.173874502780990e+00
 6.823125718252444e-01	 1.106546266982785e+00	 2.136784611689642e+00
 6.716488055921910e-01	 1.113051201124420e+00	 2.143543440817323e+00
 7.810540587578422e-01	 1.050222306112825e+00	 2.983141396345822e+00
 7.708405468546071e-01	 1.057741573424948e+00	 2.867467575754707e+00
 7.605624458338160e-01	 1.065155954265166e+00	 2.738975912290055e+00
 7.502213587813091e-01	 1.072464644310690e+00	 2.604946282743764e+00
 7.398189014603694e-01	 1.079666871660882e+00	 2.472944669477597e+00
 7.293567014997020e-01	 1.086761897067330e+00	 2.349256533825600e+00
 7.188363975771592e-01	 1.093749014139738e+00	 2.240932159816801e+00
 7.082596386000413e-01	 1.100627549527593e+00	 2.156343953071636e+00
 6.976280828827991e-01	 1.107396863077553e+00	 2.103976708509734e+00
 6.869433973229708e-01	 1.114056347966599e+00	 2.092657187690582e+00
 6.762072565761650e-01	 1.120605430810964e+00	 2.132685760481759e+00
 7.863193034126421e-01	 1.057302068804957e+00	 2.894246175244230e+00
 7.760369401431978e-01	 1.064872025031372e+00	 2.757677033723492e+00
 7.656895523477931e-01	 1.072336387724735e+00	 2.616753687386714e+00
 7.552787539189970e-01	 1.079694347140162e+00	 2.478216997505995e+00
 7.448061715122820e-01	 1.086945126173480e+00	 2.349047723107347e+00
 7.342734437285291e-01	 1.094087980592859e+00	 2.235952160532592e+00
 7.236822202922524e-01	 1.101122199246091e+00	 2.144393075274551e+00
 7.130341612263726e-01	 1.108047104243473e+00	 2.081779274495462e+00
 7.023309360243760e-01	 1.114862051116267e+00	 2.056231927124206e+00
 6.915742228206970e-01	 1.121566428950742e+00	 2.077372444648236e+00
 6.807657075601384e-01	 1.128159660497840e+00	 2.152521467037207e+00
 7.915845480676086e-01	 1.064381831497056e+00	 2.764626564457205e+00
 7.812333334319643e-01	 1.072002476637777e+00	 2.613927023656785e+00
 7.708166588619533e-01	 1.079516821184309e+00	 2.469020295549892e+00
 7.603361490568736e-01	 1.086924049969666e+00	 2.335540440823204e+00
 7.497934415643868e-01	 1.094223380686142e+00	 2.219281571714355e+00
 7.391901859575517e-01	 1.101414064118486e+00	 2.126159856852358e+00
 7.285280430075435e-01	 1.108495384352571e+00	 2.060611372987103e+00
 7.178086838529029e-01	 1.115466658959509e+00	 2.028513659801528e+00
 7.070337891661529e-01	 1.122327239155159e+00	 2.038205187540137e+00
 6.962050483186232e-01	 1.129076509935079e+00	 2.095350811258367e+00
 6.853241585443119e-01	 1.135713890184916e+00	 2.205277728776988e+00
 7.968497927229088e-01	 1.071461594189006e+00	 2.594708729322013e+00
 7.864297267210824e-01	 1.079132928244035e+00	 2.438656329613920e+00
 7.759437653764797e-01	 1.086697254643750e+00	 2.299777041802833e+00
 7.653935441951274e-01	 1.094153752799061e+00	 2.182042650840200e+00
 7.547807116168773e-01	 1.101501635198725e+00	 2.089481855219578e+00
 7.441069281869658e-01	 1.108740147644065e+00	 2.026172493387669e+00
 7.333738657232303e-01	 1.115868569459039e+00	 1.996474499302693e+00
 7.225832064798315e-01	 1.122886213675563e+00	 2.005051036263159e+00
 7.117366423083287e-01	 1.129792427194095e+00	 2.055297032386948e+00
 7.008358738169486e-01	 1.136586590919476e+00	 2.150340340013172e+00
 6.898826095288855e-01	 1.143268119872059e+00	 2.293131827838618e+00
 8.021150373787090e-01	 1.078541356880688e+00	 2.384910016390942e+00
 7.916261200107274e-01	 1.086263379850017e+00	 2.234241732942576e+00
 7.810708718915552e-01	 1.093877688102920e+00	 2.112921826760961e+00
 7.704509393339471e-01	 1.101383455628205e+00	 2.022716319884262e+00
 7.597679816699467e-01	 1.108779889711083e+00	 1.965322004154211e+00
 7.490236704169676e-01	 1.116066231169455e+00	 1.943344176156712e+00
 7.382196884395104e-01	 1.123241754565352e+00	 1.960967945329667e+00
 7.273577291073572e-01	 1.130305768391495e+00	 2.017406713615838e+00
 7.164394954511041e-01	 1.137257615232938e+00	 2.112360122527429e+00
 7.054666993158746e-01	 1.144096671903799e+00	 2.245999093198204e+00
 6.944410605140588e-01	 1.150822349559133e+00	 2.418212464052077e+00
 8.073802820351771e-01	 1.085621119571988e+00	 2.135639798073533e+00
 7.968225133010767e-01	 1.093393831455592e+00	 2.003000583772323e+00
 7.861979784073625e-01	 1.101058121561683e+00	 1.912253059586984e+00
 7.755083344735213e-01	 1.108613158456955e+00	 1.862425674010825e+00
 7.647552517237872e-01	 1.116058144223075e+00	 1.853360079184897e+00
 7.539404126477530e-01	 1.123392314694512e+00	 1.886706372435389e+00
 7.430655111565820e-01	 1.130614939671368e+00	 1.960429049362442e+00
 7.321322517356790e-01	 1.137725323107168e+00	 2.071138493593290e+00
 7.211423485946780e-01	 1.144722803271552e+00	 2.214128330187926e+00
 7.100975248156002e-01	 1.151606752887915e+00	 2.385897699564342e+00
 6.989995115000320e-01	 1.158376579246008e+00	 2.582600991147301e+00
 6.534150016522964e-01	 1.082834282384246e+00	 2.430147198860671e+00
 6.429926377492695e-01	 1.089055419483085e+00	 2.347647368139981e+00
 6.325238099376145e-01	 1.095168866456658e+00	 2.248261549285005e+00
 6.220101553082884e-01	 1.101174168172526e+00	 2.138260345887151e+00
 6.114533152263187e-01	 1.107070902008571e+00	 2.023838099213915e+00
 6.008549345401182e-01	 1.112858677841215e+00	 1.911132991936515e+00
 5.902166607945597e-01	 1.118537138011101e+00	 1.806482245621798e+00
 5.795401434485343e-01	 1.124105957266471e+00	 1.715496343996497e+00
 5.688270330977138e-01	 1.129564842684504e+00	 1.643509212622928e+00
 5.580789807032205e-01	 1.134913533570922e+00	 1.595780037309634e+00
 5.472976368268903e-01	 1.140151801338169e+00	 1.577492435703945e+00
 6.579734526382700e-01	 1.090388512068123e+00	 2.327465667553728e+00
 6.474783786889399e-01	 1.096653049989549e+00	 2.268516274626226e+00
 6.369365166825477e-01	 1.102809146501857e+00	 2.203468736288964e+00
 6.263495151309662e-01	 1.108856343297441e+00	 2.135411403947360e+00
 6.157190268499539e-01	 1.114794214805816e+00	 2.067462761806557e+00
 6.050467081629576e-01	 1.120622368181762e+00	 2.002845445997547e+00
 5.943342181086939e-01	 1.126340443270758e+00	 1.943717299076582e+00
 5.835832176532523e-01	 1.131948112551971e+00	 1.892027060070888e+00
 5.727953689074324e-01	 1.137445081059043e+00	 1.849598957903709e+00
 5.619723343500340e-01	 1.142831086278996e+00	 1.818137404211296e+00
 5.511157760577856e-01	 1.148105898029562e+00	 1.799231644010609e+00
 6.625319036234436e-01	 1.097942741752867e+00	 2.244060872676212e+00
 6.519641196278100e-01	 1.104250680496879e+00	 2.213614011711154e+00
 6.413492234266811e-01	 1.110449426547919e+00	 2.183867685641166e+00
 6.306888749528441e-01	 1.116538518423214e+00	 2.155854249981210e+00
 6.199847384727896e-01	 1.122517527603914e+00	 2.130282299717368e+00
 6.092384817849968e-01	 1.128386058523155e+00	 2.106695646732491e+00
 5.984517754220283e-01	 1.134143748531256e+00	 2.084450044455175e+00
 5.876262918571703e-01	 1.139790267838305e+00	 2.062730558686683e+00
 5.767637047163509e-01	 1.145325319434410e+00	 2.040560702993173e+00
 5.658656879960478e-01	 1.150748638987891e+00	 2.016811545420718e+00
 5.549339152878812e-01	 1.156059994721770e+00	 1.990210757197830e+00
 6.670903546080175e-01	 1.105496971438344e+00	 2.182038460470456e+00
 6.564498605660802e-01	 1.111848311004940e+00	 2.183274615873465e+00
 6.457619301702147e-01	 1.118089706594706e+00	 2.189386956294030e+00
 6.350282347741222e-01	 1.124220693549705e+00	 2.199121100355030e+00
 6.242504500950249e-01	 1.130240840402720e+00	 2.210209919374285e+00
 6.134302554064364e-01	 1.136149748865244e+00	 2.220163556822513e+00
 6.025693327347629e-01	 1.141947053792436e+00	 2.226281903679383e+00
 5.916693660604884e-01	 1.147632423125309e+00	 2.225667106676079e+00
 5.807320405246695e-01	 1.153205557810433e+00	 2.215236069992065e+00
 5.697590416414613e-01	 1.158666191697431e+00	 2.191732913073191e+00
 5.587520545173768e-01	 1.164014091414612e+00	 2.151741349441355e+00
 6.716488055921910e-01	 1.113051201124420e+00	 2.143543440817323e+00
 6.609356015039505e-01	 1.119445941513596e+00	 2.179402812900950e+00
 6.501746369133485e-01	 1.125729986642083e+00	 2.220568043597443e+00
 6.393675945950001e-01	 1.131902868676772e+00	 2.263656079130647e+00
 6.285161617168606e-01	 1.137964153202086e+00	 2.305028847830517e+00
 6.176220290274759e-01	 1.143913439207876e+00	 2.340808024600374e+00
 6.066868900470973e-01	 1.149750359054139e+00	 2.366889860741519e+00
 5.957124402634065e-01	 1.155474578412815e+00	 2.378960033187079e+00
 5.847003763325881e-01	 1.161085796186939e+00	 2.372508469330644e+00
 5.736523952864750e-01	 1.166583744407435e+00	 2.342844105902181e+00
 5.625701937464723e-01	 1.171968188107903e+00	 2.285109542720958e+00
 6.762072565761650e-01	 1.120605430810964e+00	 2.132685760481759e+00
 6.654213424416208e-01	 1.127043572022716e+00	 2.203651687576675e+00
 6.545873436562818e-01	 1.133370266689911e+00	 2.276763643173190e+00
 6.437069544156783e-01	 1.139585043804274e+00	 2.347877755913304e+00
 6.327818733384960e-01	 1.145687466001867e+00	 2.412592331767917e+00
 6.218138026483151e-01	 1.151677129550898e+00	 2.466263982131842e+00
 6.108044473592317e-01	 1.157553664316206e+00	 2.504023796251459e+00
 5.997555144661247e-01	 1.163316733700660e+00	 2.520793509247885e+00
 5.886687121403065e-01	 1.168966034563758e+00	 2.511301619289132e+00
 5.775457489312886e-01	 1.174501297117728e+00	 2.470099409892572e+00
 5.663883329753677e-01	 1.179922284801459e+00	 2.391576835885438e+00
 6.807657075601384e-01	 1.128159660497840e+00	 2.152521467037207e+00
 6.699070833792907e-01	 1.134641202532164e+00	 2.256658055763303e+00
 6.590000503992155e-01	 1.141010546738053e+00	 2.357345648756249e+00
 6.480463142363562e-01	 1.147267218932070e+00	 2.450256999672568e+00
 6.370475849601315e-01	 1.153410778801915e+00	 2.530821111854942e+00
 6.260055762691543e-01	 1.159440819894158e+00	 2.594239742143572e+00
 6.149220046713660e-01	 1.165356969578479e+00	 2.635503915992501e+00
 6.037985886688425e-01	 1.171158888988676e+00	 2.649410404096173e+00
 5.926370479480252e-01	 1.176846272940715e+00	 2.630578113178067e+00
 5.814391025761023e-01	 1.182418849828129e+00	 2.573464346180355e+00
 5.702064722042633e-01	 1.187876381495098e+00	 2.472380889798852e+00
 6.853241585443119e-01	 1.135713890184916e+00	 2.205277728776988e+00
 6.743928243171610e-01	 1.142238833041805e+00	 2.339051254659353e+00
 6.634127571423486e-01	 1.148650826786372e+00	 2.461712229511538e+00
 6.523856740572339e-01	 1.154949394060018e+00	 2.569315018267014e+00
 6.413132965819671e-01	 1.161134091602085e+00	 2.657700983617264e+00
 6.301973498901938e-01	 1.167204510237504e+00	 2.722514389194798e+00
 6.190395619837005e-01	 1.173160274840799e+00	 2.759218269109387e+00
 6.078416628717603e-01	 1.179001044276700e+00	 2.763110214698999e+00
 5.966053837559435e-01	 1.184726511317641e+00	 2.729338031959700e+00
 5.853324562211158e-01	 1.190336402538461e+00	 2.652915225861322e+00
 5.740246114333589e-01	 1.195830478188636e+00	 2.528736270613324e+00
 6.898826095288855e-01	 1.143268119872059e+00	 2.293131827838618e+00
 6.788785652554312e-01	 1.149836463551505e+00	 2.451453099547533e+00
 6.678254638858820e-01	 1.156291106834731e+00	 2.589286699754669e+00
 6.567250338785118e-01	 1.162631569187978e+00	 2.703621460849678e+00
 6.455790082042023e-01	 1.168857404402230e+00	 2.791280440819921e+00
 6.343891235116330e-01	 1.174968200580782e+00	 2.848935260734606e+00
 6.231571192964345e-01	 1.180963580103007e+00	 2.873120351782805e+00
 6.118847370750783e-01	 1.186843199564566e+00	 2.860247065078674e+00
 6.005737195642621e-01	 1.192606749694363e+00	 2.806617600208755e+00
 5.892258098665293e-01	 1.198253955248546e+00	 2.708438711389322e+00
 5.778427506628540e-01	 1.203784574881888e+00	 2.561835153104974e+00
 6.944410605140588e-01	 1.150822349559133e+00	 2.418212464052077e+00
 6.833643061943010e-01	 1.157434094061130e+00	 2.594477826181275e+00
 6.722381706300153e-01	 1.163931386882994e+00	 2.739516417786909e+00
 6.610643937003894e-01	 1.170313744315807e+00	 2.851792580265773e+00
 6.498447198270376e-01	 1.176580717202203e+00	 2.929668397570130e+00
 6.385808971336721e-01	 1.182731890923841e+00	 2.971415513914698e+00
 6.272746766097687e-01	 1.188766885364944e+00	 2.975226792462666e+00
 6.159278112789961e-01	 1.194685354852107e+00	 2.939227772236909e+00
 6.045420553731801e-01	 1.200486988070708e+00	 2.861487883421534e+00
 5.931191635125428e-01	 1.206171507958206e+00	 2.740031384261463e+00
 5.816608898929495e-01	 1.211738671574672e+00	 2.572847985908422e+00
 6.989995115000320e-01	 1.158376579246008e+00	 2.582600991147301e+00
 6.878500471339709e-01	 1.165031724570546e+00	 2.768732019465840e+00
 6.766508773749484e-01	 1.171571666931022e+00	 2.911871712515675e+00
 6.654037535230670e-01	 1.177995919443366e+00	 3.012489452704060e+00
 6.541104314506725e-01	 1.184304030001858e+00	 3.071031985547704e+00
 6.427726707565111e-01	 1.190495581266529e+00	 3.087931774243399e+00
 6.313922339239028e-01	 1.196570190626451e+00	 3.063615114937547e+00
 6.199708854837138e-01	 1.202527510139157e+00	 2.998509975637599e+00
 6.085103911828983e-01	 1.208367226446504e+00	 2.893053524785723e+00
 5.970125171593559e-01	 1.214089060667263e+00	 2.747699318703555e+00
 5.854790291238445e-01	 1.219692768266804e+00	 2.562924120389106e+00
 5.472976368268903e-01	 1.140151801338169e+00	 1.577492435703945e+00
 5.364828098656651e-01	 1.145280311567177e+00	 1.585687285450731e+00
 5.256379778529098e-01	 1.150297998733234e+00	 1.611574052360854e+00
 5.147647859436432e-01	 1.155204728767399e+00	 1.651443355250743e+00
 5.038648759321993e-01	 1.160000399033112e+00	 1.701477409397448e+00
 4.929398855297008e-01	 1.164684938103473e+00	 1.757760603934619e+00
 4.819914476518521e-01	 1.169258305519455e+00	 1.816289881422791e+00
 4.710211897176096e-01	 1.173720491529516e+00	 1.872984902445870e+00
 4.600307329592656e-01	 1.178071516811095e+00	 1.923697980179965e+00
 4.490216917444500e-01	 1.182311432174493e+00	 1.964223771937313e+00
 4.379956729105452e-01	 1.186440318249641e+00	 1.990308716694872e+00
 5.511157760577856e-01	 1.148105898029562e+00	 1.799231644010609e+00
 5.402255010909374e-01	 1.153270186534992e+00	 1.787294707398819e+00
 5.293050117468323e-01	 1.158322878837109e+00	 1.775995916719395e+00
 5.183559646576681e-01	 1.163263839931666e+00	 1.765690609432733e+00
 5.073800130715136e-01	 1.168092966466078e+00	 1.756699447999164e+00
 4.963788061247401e-01	 1.172810186515153e+00	 1.749312485562002e+00
 4.853539881248457e-01	 1.177415459337614e+00	 1.743793021656941e+00
 4.743071978442345e-01	 1.181908775113894e+00	 1.740381241305443e+00
 4.632400678254841e-01	 1.186290154665692e+00	 1.739297632833931e+00
 4.521542236986212e-01	 1.190559649157783e+00	 1.740746181683710e+00
 4.410512835108905e-01	 1.194717339782609e+00	 1.744917339326719e+00
 5.549339152878812e-01	 1.156059994721770e+00	 1.990210757197829e+00
 5.439681923154103e-01	 1.161260061503619e+00	 1.954464691437601e+00
 5.329720456399563e-01	 1.166347758941792e+00	 1.906645500054612e+00
 5.219471433708970e-01	 1.171322951096733e+00	 1.850433208643540e+00
 5.108951502100378e-01	 1.176185533899837e+00	 1.789534079898190e+00
 4.998177267189987e-01	 1.180935434927616e+00	 1.727679318163548e+00
 4.887165285970730e-01	 1.185572613156541e+00	 1.668623550997064e+00
 4.775932059701123e-01	 1.190097058699019e+00	 1.616143089802916e+00
 4.664494026909816e-01	 1.194508792521009e+00	 1.574033973514583e+00
 4.552867556521047e-01	 1.198807866141762e+00	 1.546109801132131e+00
 4.441068941105891e-01	 1.202994361316223e+00	 1.536199360658408e+00
 5.587520545173768e-01	 1.164014091414612e+00	 2.151741349441355e+00
 5.477108835392834e-01	 1.169249936472870e+00	 2.089842461955136e+00
 5.366390795324810e-01	 1.174372639047090e+00	 2.007134644042980e+00
 5.255383220835299e-01	 1.179382062262408e+00	 1.909898502507922e+00
 5.144102873479709e-01	 1.184278101334194e+00	 1.804489137113173e+00
 5.032566473126745e-01	 1.189060683340665e+00	 1.697330620836951e+00
 4.920790690687298e-01	 1.193729766976039e+00	 1.594910243247109e+00
 4.808792140954370e-01	 1.198285342284699e+00	 1.503772525983936e+00
 4.696587375559491e-01	 1.202727430376858e+00	 1.430513021216523e+00
 4.584192876050875e-01	 1.207056083126241e+00	 1.381771905717277e+00
 4.471625047098243e-01	 1.211271382850301e+00	 1.364227384869593e+00
 5.625701937464723e-01	 1.171968188107903e+00	 2.285109542720958e+00
 5.514535747627566e-01	 1.177239811442557e+00	 2.196011457824012e+00
 5.403061134246070e-01	 1.182397519152813e+00	 2.080987011329285e+00
 5.291295007957659e-01	 1.187441173428498e+00	 1.948208774757217e+00
 5.179254244855115e-01	 1.192370668768955e+00	 1.805959568285758e+00
 5.066955679059654e-01	 1.197185931754105e+00	 1.662623840169029e+00
 4.954416095400128e-01	 1.201886920795915e+00	 1.526678794510217e+00
 4.841652222204029e-01	 1.206473625870738e+00	 1.406685281537680e+00
 4.728680724205780e-01	 1.210946068233045e+00	 1.311278466413702e+00
 4.615518195577575e-01	 1.215304300111032e+00	 1.249158294373953e+00
 4.502181153087785e-01	 1.219548404384660e+00	 1.229079771641012e+00
 5.663883329753677e-01	 1.179922284801459e+00	 2.391576835885438e+00
 5.551962659860299e-01	 1.185229686412492e+00	 2.275495406253626e+00
 5.439731473165337e-01	 1.190422399258768e+00	 2.131641068115410e+00
 5.327206795078050e-01	 1.195500284594805e+00	 1.969384813063061e+00
 5.214405616228590e-01	 1.200463236203922e+00	 1.798231288970912e+00
 5.101344884990692e-01	 1.205311180167740e+00	 1.627808189029813e+00
 4.988041500111179e-01	 1.210044074615973e+00	 1.467855373488308e+00
 4.874512303452040e-01	 1.214661909456945e+00	 1.328213741664424e+00
 4.760774072850592e-01	 1.219164706089380e+00	 1.218813873713115e+00
 4.646843515103022e-01	 1.223552517095950e+00	 1.149664463431820e+00
 4.532737259076349e-01	 1.227825425919116e+00	 1.130840565051688e+00
 5.702064722042633e-01	 1.187876381495098e+00	 2.472380889798851e+00
 5.589389572093032e-01	 1.193219561382486e+00	 2.330760303298147e+00
 5.476401812084610e-01	 1.198447279364764e+00	 2.162452937466104e+00
 5.363118582198462e-01	 1.203559395761140e+00	 1.977349326550406e+00
 5.249556987602118e-01	 1.208555803638902e+00	 1.785484868879137e+00
 5.135734090921836e-01	 1.213436428581375e+00	 1.597028323304348e+00
 5.021666904822414e-01	 1.218201228436018e+00	 1.422270021816994e+00
 4.907372384700345e-01	 1.222850193043124e+00	 1.271609817583277e+00
 4.792867421495842e-01	 1.227383343945673e+00	 1.155544789650611e+00
 4.678168834629091e-01	 1.231800734080805e+00	 1.084656727439139e+00
 4.563293365065764e-01	 1.236102447453487e+00	 1.069599419861429e+00
 5.740246114333589e-01	 1.195830478188636e+00	 2.528736270613324e+00
 5.626816484327765e-01	 1.201209436352352e+00	 2.364216305366392e+00
 5.513072151005890e-01	 1.206472159470611e+00	 2.176699129351022e+00
 5.399030369320893e-01	 1.211618506927306e+00	 1.975930218082010e+00
 5.284708358977690e-01	 1.216648371073698e+00	 1.771799063661873e+00
 5.170123296855066e-01	 1.221561676994815e+00	 1.574327864107614e+00
 5.055292309535798e-01	 1.226358382255854e+00	 1.393659911418696e+00
 4.940232465950885e-01	 1.231038476629083e+00	 1.240047697609897e+00
 4.824960770143443e-01	 1.235601981801731e+00	 1.123840760045125e+00
 4.709494154157655e-01	 1.240048951065411e+00	 1.055473289386003e+00
 4.593849471057860e-01	 1.244379468987590e+00	 1.045451525299903e+00
 5.778427506628540e-01	 1.203784574881888e+00	 2.561835153104975e+00
 5.664243396566497e-01	 1.209199311321903e+00	 2.378219535850099e+00
 5.549742489931171e-01	 1.214497039576115e+00	 2.177579153124343e+00
 5.434942156447334e-01	 1.219677618093109e+00	 1.968863718031399e+00
 5.319859730357294e-01	 1.224740938508116e+00	 1.761154198430452e+00
 5.204512502792359e-01	 1.229686925407861e+00	 1.563652772629475e+00
 5.088917714253292e-01	 1.234515536075286e+00	 1.385672465486542e+00
 4.973092547205598e-01	 1.239226760214626e+00	 1.236626482420309e+00
 4.857054118795305e-01	 1.243820619657364e+00	 1.126017261094433e+00
 4.740819473690592e-01	 1.248297168049579e+00	 1.063425262667362e+00
 4.624405577054466e-01	 1.252656490521242e+00	 1.058497526477534e+00
 5.816608898929495e-01	 1.211738671574672e+00	 2.572847985908422e+00
 5.701670308811227e-01	 1.217189186290947e+00	 2.375073810770724e+00
 5.586412828862454e-01	 1.222521919681086e+00	 2.168218017844002e+00
 5.470853943579786e-01	 1.227736729258357e+00	 1.959797385908959e+00
 5.355011101742919e-01	 1.232833505941960e+00	 1.757435409821203e+00
 5.238901708735695e-01	 1.237812173820320e+00	 1.568854584380915e+00
 5.122543118976859e-01	 1.242672689894119e+00	 1.401868349365292e+00
 5.005952628466430e-01	 1.247415043799562e+00	 1.264372709822382e+00
 4.889147467453342e-01	 1.252039257512381e+00	 1.164337548175427e+00
 4.772144793229778e-01	 1.256545385033123e+00	 1.109797647002873e+00
 4.654961683057414e-01	 1.260933512054261e+00	 1.108843443526905e+00
 5.854790291238445e-01	 1.219692768266804e+00	 2.562924120389106e+00
 5.739097221063959e-01	 1.225179061259301e+00	 2.357032287141926e+00
 5.623083167801739e-01	 1.230546799785333e+00	 2.151668625550613e+00
 5.506765730720242e-01	 1.235795840422856e+00	 1.952292985873587e+00
 5.390162473136554e-01	 1.240926073375034e+00	 1.764435753064102e+00
 5.273290914687052e-01	 1.245937422231995e+00	 1.593693509259833e+00
 5.156168523708461e-01	 1.250829843712159e+00	 1.445724337268236e+00
 5.038812709735320e-01	 1.255603327383696e+00	 1.326242774078541e+00
 4.921240816119464e-01	 1.260257895366589e+00	 1.241014426105740e+00
 4.803470112777085e-01	 1.264793602015854e+00	 1.195850260415398e+00
 4.685517789068528e-01	 1.269210533586462e+00	 1.196600588578099e+00
 4.379956729105452e-01	 1.186440318249641e+00	 1.990308716694872e+00
 4.269561530751904e-01	 1.190457611461505e+00	 2.025186754580687e+00
 4.159028480248949e-01	 1.194364161598395e+00	 2.090380070269348e+00
 4.048373368592890e-01	 1.198160135813678e+00	 2.179062264788254e+00
 3.937611886467740e-01	 1.201845729649776e+00	 2.284459316902466e+00
 3.826759618280015e-01	 1.205421166648674e+00	 2.399857552918038e+00
 3.715832036341543e-01	 1.208886697948648e+00	 2.518611253518567e+00
 3.604844495203520e-01	 1.212242601867819e+00	 2.634881657781610e+00
 3.493812226144747e-01	 1.215489183475108e+00	 2.743726294645751e+00
 3.382750331816809e-01	 1.218626774149204e+00	 2.839567910412445e+00
 3.271673781048640e-01	 1.221655731126142e+00	 2.916982691541103e+00
 4.410512835108905e-01	 1.194717339782609e+00	 1.744917339326719e+00
 4.299347481340324e-01	 1.198762659033439e+00	 1.778204861034531e+00
 4.188043313717864e-01	 1.202696462627001e+00	 1.860122204597413e+00
 4.076616233401339e-01	 1.206518918882770e+00	 1.980526951548258e+00
 3.965082040538469e-01	 1.210230224707332e+00	 2.129286080237293e+00
 3.853456428258048e-01	 1.213830605202171e+00	 2.296289186836278e+00
 3.741754976812163e-01	 1.217320313257583e+00	 2.471461291653236e+00
 3.629993147870733e-01	 1.220699629133323e+00	 2.645151605715311e+00
 3.518186278971292e-01	 1.223968860026572e+00	 2.809012601468043e+00
 3.406349578126811e-01	 1.227128339627824e+00	 2.954094423479294e+00
 3.294498118594009e-01	 1.230178427665308e+00	 3.071514051708118e+00
 4.441068941105891e-01	 1.202994361316223e+00	 1.536199360658408e+00
 4.329133431922779e-01	 1.207067706605971e+00	 1.572039054831171e+00
 4.217058147181388e-01	 1.211028763656146e+00	 1.670330800208510e+00
 4.104859098205044e-01	 1.214877701952336e+00	 1.818331320380446e+00
 3.992552194605159e-01	 1.218614719765293e+00	 2.003271552568575e+00
 3.880153238232784e-01	 1.222240043755997e+00	 2.212374065022805e+00
 3.767677917280269e-01	 1.225753928566769e+00	 2.432870016906103e+00
 3.655141800536237e-01	 1.229156656398998e+00	 2.652165462049810e+00
 3.542560331796946e-01	 1.232448536578125e+00	 2.859044232240856e+00
 3.429948824436736e-01	 1.235629905106451e+00	 3.041982895254880e+00
 3.317322456140108e-01	 1.238701124204401e+00	 3.189387234059409e+00
 4.471625047098243e-01	 1.211271382850301e+00	 1.364227384869593e+00
 4.358919382501041e-01	 1.215372754178922e+00	 1.405416461031536e+00
 4.246072980641233e-01	 1.219361064685659e+00	 1.518679947594356e+00
 4.133101963005635e-01	 1.223236485022213e+00	 1.689373578502285e+00
 4.020022348669342e-01	 1.226999214823503e+00	 1.902799842093416e+00
 3.906850048205658e-01	 1.230649482310011e+00	 2.144228552343023e+00
 3.793600857747169e-01	 1.234187543876076e+00	 2.398916928539035e+00
 3.680290453201201e-01	 1.237613683664727e+00	 2.652160975066063e+00
 3.566934384622720e-01	 1.240928213129667e+00	 2.890445931858758e+00
 3.453548070747426e-01	 1.244131470585002e+00	 3.100429873848126e+00
 3.340146793687590e-01	 1.247223820743356e+00	 3.268539792689310e+00
 4.502181153087785e-01	 1.219548404384660e+00	 1.229079771641012e+00
 4.388705333076882e-01	 1.223677801752115e+00	 1.277106104263766e+00
 4.275087814099100e-01	 1.227693365715369e+00	 1.402913818768428e+00
 4.161344827804738e-01	 1.231595268092240e+00	 1.590642651015815e+00
 4.047492502732557e-01	 1.235383709881812e+00	 1.824359284387895e+00
 3.933546858178097e-01	 1.239058920864068e+00	 2.088080044253845e+00
 3.819523798214172e-01	 1.242621159185372e+00	 2.365793075448853e+00
 3.705439105866795e-01	 1.246070710930393e+00	 2.641479988255771e+00
 3.591308437449630e-01	 1.249407889681094e+00	 2.899935318383297e+00
 3.477147317059725e-01	 1.252633036063392e+00	 3.126708509586555e+00
 3.362971131237101e-01	 1.255746517282108e+00	 3.306965090261357e+00
 4.532737259076349e-01	 1.227825425919116e+00	 1.130840565051688e+00
 4.418491283652077e-01	 1.231982849325372e+00	 1.185917628098534e+00
 4.304102647556700e-01	 1.236025666745106e+00	 1.320844444305505e+00
 4.189587692603980e-01	 1.239954051162252e+00	 1.519215268770670e+00
 4.074962656796337e-01	 1.243768204940064e+00	 1.764539080156501e+00
 3.960243668151529e-01	 1.247468359418026e+00	 2.040263379348324e+00
 3.845446738682584e-01	 1.251054774494528e+00	 2.329797454214893e+00
 3.730587758534189e-01	 1.254527738195879e+00	 2.616535095097931e+00
 3.615682490278689e-01	 1.257887566232307e+00	 2.884320113223009e+00
 3.500746563374471e-01	 1.261134601541538e+00	 3.118166293135191e+00
 3.385795468789294e-01	 1.264269213820592e+00	 3.302710698992266e+00
 4.563293365065764e-01	 1.236102447453487e+00	 1.069599419861428e+00
 4.448277234228400e-01	 1.240287896898517e+00	 1.130700060822569e+00
 4.333117481015738e-01	 1.244357967774700e+00	 1.270349575039215e+00
 4.217830557404992e-01	 1.248312834232088e+00	 1.472253168955388e+00
 4.102432810862217e-01	 1.252152699998105e+00	 1.720026064156980e+00
 3.986940478127382e-01	 1.255877797971742e+00	 1.997217392468348e+00
 3.871369679153711e-01	 1.259488389803412e+00	 2.287333548623511e+00
 3.755736411204552e-01	 1.262984765461068e+00	 2.573860985691476e+00
 3.640056543110916e-01	 1.266367242783203e+00	 2.840495491454067e+00
 3.524345809692508e-01	 1.269636167019354e+00	 3.072222892650203e+00
 3.408619806344817e-01	 1.272791910358743e+00	 3.253876873373603e+00
 4.593849471057860e-01	 1.244379468987590e+00	 1.045451525299903e+00
 4.478063184807623e-01	 1.248592944471371e+00	 1.110340625449331e+00
 4.362132314477919e-01	 1.252690268803979e+00	 1.249370624475366e+00
 4.246073422209399e-01	 1.256671617301585e+00	 1.447000403167899e+00
 4.129902964931731e-01	 1.260537195055783e+00	 1.687601599192696e+00
 4.013637288107085e-01	 1.264287236525072e+00	 1.955481601840122e+00
 3.897292619628863e-01	 1.267922005111894e+00	 2.234906004081805e+00
 3.780885063879053e-01	 1.271441792725844e+00	 2.510120499071180e+00
 3.664430595947322e-01	 1.274846919333681e+00	 2.765441546686806e+00
 3.547945056014679e-01	 1.278137732496757e+00	 2.986368085355288e+00
 3.431444143904321e-01	 1.281314606896496e+00	 3.158615091290343e+00
 4.624405577054466e-01	 1.252656490521242e+00	 1.058497526477534e+00
 4.507849135391522e-01	 1.256897992043758e+00	 1.123763591920836e+00
 4.391147147944954e-01	 1.261022569832773e+00	 1.255910688187358e+00
 4.274316287018828e-01	 1.265030400370579e+00	 1.440780747993564e+00
 4.157373119006417e-01	 1.268921690112944e+00	 1.664138589387152e+00
 4.040334098092068e-01	 1.272696675077875e+00	 1.911693024033020e+00
 3.923215560109345e-01	 1.276355620419842e+00	 2.169117430680997e+00
 3.806033716558865e-01	 1.279898819990087e+00	 2.422069784300931e+00
 3.688804648788925e-01	 1.283326595883639e+00	 2.656220865179078e+00
 3.571544302341825e-01	 1.286639297973663e+00	 2.858159779172557e+00
 3.454268481468454e-01	 1.289837303433786e+00	 3.015126660371836e+00
 4.654961683057414e-01	 1.260933512054261e+00	 1.108843443526905e+00
 4.537635085981868e-01	 1.265203039615501e+00	 1.169929169561263e+00
 4.420161981418543e-01	 1.269354870860911e+00	 1.288032636656006e+00
 4.302559151834904e-01	 1.273389183438908e+00	 1.450995213380113e+00
 4.184843273087810e-01	 1.277306185169434e+00	 1.646598607259409e+00
 4.067030908083760e-01	 1.281106113630006e+00	 1.862583110867798e+00
 3.949138500596467e-01	 1.284789235727127e+00	 2.086665328997690e+00
 3.831182369245153e-01	 1.288355847253684e+00	 2.306555382125566e+00
 3.713178701636737e-01	 1.291806272432977e+00	 2.509973583648580e+00
 3.595143548674786e-01	 1.295140863449986e+00	 2.685222120269095e+00
 3.477092819037867e-01	 1.298359999970547e+00	 2.821661386577073e+00
 4.685517789068528e-01	 1.269210533586462e+00	 1.196600588578099e+00
 4.567421036580435e-01	 1.273508087186421e+00	 1.247832437944635e+00
 4.449176814900399e-01	 1.277687171888223e+00	 1.343857278200636e+00
 4.330802016659260e-01	 1.281747966506409e+00	 1.475119644344873e+00
 4.212313427177444e-01	 1.285690680225100e+00	 1.632029129404937e+00
 4.093727718083590e-01	 1.289515552181324e+00	 1.804974802707053e+00
 3.975061441091533e-01	 1.293222851033616e+00	 1.984339133029623e+00
 3.856331021939091e-01	 1.296812874516516e+00	 2.160511417958932e+00
 3.737552754491775e-01	 1.300285948981592e+00	 2.323900722894371e+00
 3.618742795014405e-01	 1.303642428925645e+00	 2.465243682596244e+00
 3.499917156613211e-01	 1.306882696506716e+00	 2.576516302172358e+00
 3.271673781048640e-01	 1.221655731126142e+00	 2.916982691541103e+00
 3.160597405328376e-01	 1.224576437301452e+00	 2.965989380867205e+00
 3.049535898338829e-01	 1.227389301550389e+00	 2.983364070177372e+00
 2.938503806459468e-01	 1.230094757443897e+00	 2.973971284319977e+00
 2.827515522679372e-01	 1.232693262489390e+00	 2.942709464325604e+00
 2.716585282229795e-01	 1.235185297629098e+00	 2.894499202739790e+00
 2.605727158386424e-01	 1.237571366730709e+00	 2.834271998891618e+00
 2.494955058442119e-01	 1.239851996070890e+00	 2.766959528479906e+00
 2.384282719850742e-01	 1.242027733812301e+00	 2.697483419900658e+00
 2.273723706542426e-01	 1.244099149474684e+00	 2.630745527975594e+00
 2.163291405410435e-01	 1.246066833400622e+00	 2.571618694171140e+00
 3.294498118594009e-01	 1.230178427665308e+00	 3.071514051708118e+00
 3.182646835330660e-01	 1.233119509705763e+00	 3.148839924467181e+00
 3.070810524527766e-01	 1.235951997476899e+00	 3.183470358305140e+00
 2.959003834045326e-01	 1.238676327574413e+00	 3.181421633648701e+00
 2.847241257282851e-01	 1.241292960697452e+00	 3.148754119121056e+00
 2.735537128781454e-01	 1.243802381143473e+00	 3.091558710324910e+00
 2.623905619996818e-01	 1.246205096295324e+00	 3.015943832289648e+00
 2.512360735243849e-01	 1.248501636101169e+00	 2.928023000850458e+00
 2.400916307813604e-01	 1.250692552547848e+00	 2.833902936119316e+00
 2.289585996262840e-01	 1.252778419128273e+00	 2.739672219302346e+00
 2.178383280876382e-01	 1.254759830303468e+00	 2.651390482414611e+00
 3.317322456140108e-01	 1.238701124204401e+00	 3.189387234059409e+00
 3.204696265334466e-01	 1.241662582109921e+00	 3.287526279063860e+00
 3.092085150718984e-01	 1.244514693403182e+00	 3.334860921092706e+00
 2.979503861634202e-01	 1.247257897704627e+00	 3.338239316380256e+00
 2.866966991890053e-01	 1.249892658905143e+00	 3.304560817395804e+00
 2.754488975337502e-01	 1.252419464657410e+00	 3.240761081414883e+00
 2.642084081612228e-01	 1.254838825859441e+00	 3.153797780836385e+00
 2.529766412051179e-01	 1.257151276130895e+00	 3.050636910798700e+00
 2.417549895782596e-01	 1.259357371282790e+00	 2.938239687414871e+00
 2.305448285989865e-01	 1.261457688781213e+00	 2.823550027925368e+00
 2.193475156349365e-01	 1.263452827205628e+00	 2.713482602256541e+00
 3.340146793687590e-01	 1.247223820743356e+00	 3.268539792689310e+00
 3.226745695340228e-01	 1.250205654513883e+00	 3.380738352878514e+00
 3.113359776912703e-01	 1.253077389329215e+00	 3.436846490973708e+00
 3.000003889226082e-01	 1.255839467834543e+00	 3.444231231362389e+00
 2.886692726500729e-01	 1.258492357112488e+00	 3.410314852387871e+00
 2.773440821897460e-01	 1.261036548170960e+00	 3.342559126011987e+00
 2.660262543231956e-01	 1.263472555423134e+00	 3.248450191758178e+00
 2.547172088863207e-01	 1.265800916160163e+00	 3.135484060175719e+00
 2.434183483756641e-01	 1.268022190017244e+00	 3.011152738732072e+00
 2.321310575722274e-01	 1.270136958433638e+00	 2.882930970927934e+00
 2.208567031828043e-01	 1.272145824107253e+00	 2.758263577537948e+00
 3.362971131237101e-01	 1.255746517282108e+00	 3.306965090261357e+00
 3.248795125348387e-01	 1.258748726917606e+00	 3.427200831492143e+00
 3.134634403109134e-01	 1.261640085254977e+00	 3.488755187150222e+00
 3.020503916820948e-01	 1.264421037964160e+00	 3.499207726655897e+00
 2.906418461114627e-01	 1.267092055319514e+00	 3.466194293719548e+00
 2.792392668460852e-01	 1.269653631684175e+00	 3.397390833515224e+00
 2.678441004855307e-01	 1.272106284986477e+00	 3.300497881219377e+00
 2.564577765679037e-01	 1.274450556189068e+00	 3.183225706248491e+00
 2.450817071734665e-01	 1.276687008751327e+00	 3.053280104119103e+00
 2.337172865458843e-01	 1.278816228085687e+00	 2.918348825675277e+00
 2.223658907311072e-01	 1.280838821008494e+00	 2.786088631481400e+00
 3.385795468789294e-01	 1.264269213820592e+00	 3.302710698992266e+00
 3.270844555359385e-01	 1.267291799321045e+00	 3.425672252173111e+00
 3.155909029308493e-01	 1.270202781180447e+00	 3.489932143004033e+00
 3.041003944418780e-01	 1.273002608093483e+00	 3.502982666063191e+00
 2.926144195731495e-01	 1.275691753526249e+00	 3.472370385387446e+00
 2.811344515027196e-01	 1.278270715197102e+00	 3.405680000838417e+00
 2.696619466481583e-01	 1.280740014549541e+00	 3.310518897564553e+00
 2.581983442497768e-01	 1.283100196217706e+00	 3.194502371394325e+00
 2.467450659715589e-01	 1.285351827485155e+00	 3.065239520532467e+00
 2.353035155198344e-01	 1.287495497737492e+00	 2.930319791711737e+00
 2.238750782797112e-01	 1.289531817909503e+00	 2.797300166975057e+00
 3.408619806344817e-01	 1.272791910358743e+00	 3.253876873373603e+00
 3.292893985373657e-01	 1.275834871724156e+00	 3.374944122257773e+00
 3.177183655510993e-01	 1.278765477105603e+00	 3.439739154740656e+00
 3.061503972019563e-01	 1.281584178222514e+00	 3.455373498680957e+00
 2.945869930351083e-01	 1.284291451732716e+00	 3.429007932925527e+00
 2.830296361596010e-01	 1.286887798709794e+00	 3.367836839953181e+00
 2.714797928110087e-01	 1.289373744112402e+00	 3.279073258085770e+00
 2.599389119318509e-01	 1.291749836246175e+00	 3.169934624013862e+00
 2.484084247698341e-01	 1.294016646218845e+00	 3.047629193892210e+00
 2.368897444939551e-01	 1.296174767389189e+00	 2.919343129023532e+00
 2.253842658284822e-01	 1.298224814810431e+00	 2.792228230166683e+00
 3.431444143904321e-01	 1.281314606896496e+00	 3.158615091290343e+00
 3.314943415391646e-01	 1.284377944126897e+00	 3.273840079532251e+00
 3.198458281716852e-01	 1.287328173030424e+00	 3.337554350277048e+00
 3.082003999623278e-01	 1.290165748351254e+00	 3.356201331335602e+00
 2.965595664973141e-01	 1.292891149938944e+00	 3.336265680244691e+00
 2.849248208166819e-01	 1.295504882222298e+00	 3.284258565814407e+00
 2.732976389740122e-01	 1.298007473675132e+00	 3.206703660547301e+00
 2.616794796140355e-01	 1.300399476274568e+00	 3.110123832002419e+00
 2.500717835681840e-01	 1.302681464952513e+00	 3.001028518679270e+00
 2.384759734681241e-01	 1.304854037040913e+00	 2.885901773767393e+00
 2.268934533772859e-01	 1.306917811711429e+00	 2.771190958144643e+00
 3.454268481468454e-01	 1.289837303433786e+00	 3.015126660371836e+00
 3.336992845413788e-01	 1.292921016529221e+00	 3.121215092671995e+00
 3.219732907926282e-01	 1.295890868954890e+00	 3.182771877435882e+00
 3.102504027229908e-01	 1.298747318479706e+00	 3.205291003767607e+00
 2.985321399597416e-01	 1.301490848144957e+00	 3.194296676626065e+00
 2.868200054739142e-01	 1.304121965734667e+00	 3.155329965575166e+00
 2.751154851370989e-01	 1.306641203237804e+00	 3.093936170635021e+00
 2.634200472962410e-01	 1.309049116302981e+00	 3.015652890048723e+00
 2.517351423665012e-01	 1.311346283686275e+00	 2.925998772298524e+00
 2.400622024422184e-01	 1.313533306692799e+00	 2.830462932507153e+00
 2.284026409259882e-01	 1.315610808612648e+00	 2.734495011441780e+00
 3.477092819037867e-01	 1.298359999970547e+00	 2.821661386577073e+00
 3.359042275440521e-01	 1.301464088931087e+00	 2.915954699897747e+00
 3.241007534139496e-01	 1.304453564878978e+00	 2.974801610558762e+00
 3.123004054839438e-01	 1.307328888607872e+00	 3.002471166437910e+00
 3.005047134223661e-01	 1.310090546350782e+00	 3.003248634319803e+00
 2.887151901312500e-01	 1.312739049246950e+00	 2.981423949950389e+00
 2.769333313001993e-01	 1.315274932800494e+00	 2.941280886436316e+00
 2.651606149783776e-01	 1.317698756331511e+00	 2.887086921963278e+00
 2.533985011646780e-01	 1.320011102420249e+00	 2.823083785366808e+00
 2.416484314161156e-01	 1.322212576344983e+00	 2.753478655945738e+00
 2.299118284744549e-01	 1.324303805514240e+00	 2.682435992059433e+00
 3.499917156613211e-01	 1.306882696506716e+00	 2.576516302172358e+00
 3.381091705472289e-01	 1.310007161332449e+00	 2.656974284102612e+00
 3.262282160356712e-01	 1.313016260802667e+00	 2.713068874696815e+00
 3.143504082451845e-01	 1.315910458735754e+00	 2.747574360836024e+00
 3.024772868851621e-01	 1.318690244556447e+00	 2.763264277177874e+00
 2.906103747886412e-01	 1.321356132759197e+00	 2.762902087543855e+00
 2.787511774632436e-01	 1.323908662363273e+00	 2.749232580998775e+00
 2.669011826603555e-01	 1.326348396360253e+00	 2.724973959176071e+00
 2.550618599626067e-01	 1.328675921154549e+00	 2.692810589024651e+00
 2.432346603896930e-01	 1.330891845997599e+00	 2.655386393088289e+00
 2.314210160225521e-01	 1.332996802416356e+00	 2.615298847672440e+00
 2.163291405410435e-01	 1.246066833400622e+00	 2.571618694171140e+00
 2.052980289624416e-01	 1.247931704324035e+00	 2.519136331780162e+00
 1.942822198586349e-01	 1.249694048834886e+00	 2.469862513765892e+00
 1.832830003551988e-01	 1.251354515916720e+00	 2.424935386536359e+00
 1.723016385666052e-01	 1.252913773224046e+00	 2.385521065409937e+00
 1.613393833298090e-01	 1.254372506529152e+00	 2.352809174306928e+00
 1.503974639547379e-01	 1.255731419166985e+00	 2.328008611976542e+00
 1.394770899915604e-01	 1.256991231478618e+00	 2.312343528698821e+00
 1.285794510145984e-01	 1.258152680253831e+00	 2.307049497483443e+00
 1.177057164227230e-01	 1.259216518173316e+00	 2.313369863997341e+00
 1.068570352560679e-01	 1.260183513251014e+00	 2.332552259780792e+00
 2.178383280876382e-01	 1.254759830303468e+00	 2.651390482414611e+00
 2.067302596266735e-01	 1.256637711216769e+00	 2.569493749056115e+00
 1.956376003958711e-01	 1.258412350457499e+00	 2.491545624487741e+00
 1.845616465002525e-01	 1.260084401536747e+00	 2.419239107184871e+00
 1.735036749011071e-01	 1.261654536766819e+00	 2.354279765683011e+00
 1.624649431477210e-01	 1.263123446704203e+00	 2.298380989491748e+00
 1.514466891261248e-01	 1.264491839590562e+00	 2.253259500040046e+00
 1.404501308247401e-01	 1.265760440792328e+00	 2.220631104151894e+00
 1.294764661167819e-01	 1.266929992239393e+00	 2.202206672624277e+00
 1.185268725592645e-01	 1.268001251863421e+00	 2.199688326687319e+00
 1.076025072084343e-01	 1.268974993036293e+00	 2.214765815459502e+00
 2.193475156349365e-01	 1.263452827205628e+00	 2.713482602256541e+00
 2.081624902916449e-01	 1.265343718108786e+00	 2.609401505712975e+00
 1.969929809338750e-01	 1.267130652079369e+00	 2.509529700477737e+00
 1.858402926460915e-01	 1.268814287156010e+00	 2.415991269257610e+00
 1.747057112363997e-01	 1.270395300308815e+00	 2.330911090944170e+00
 1.635905029664146e-01	 1.271874386878464e+00	 2.256409880920283e+00
 1.524959142982680e-01	 1.273252260013340e+00	 2.194599518825060e+00
 1.414231716586319e-01	 1.274529650105232e+00	 2.147578644842625e+00
 1.303734812196132e-01	 1.275707304224143e+00	 2.117428505653840e+00
 1.193480286963668e-01	 1.276785985552708e+00	 2.106209031406888e+00
 1.083479791612502e-01	 1.277766472820746e+00	 2.115955125411066e+00
 2.208567031828043e-01	 1.272145824107253e+00	 2.758263577537948e+00
 2.095947209572145e-01	 1.274049725000251e+00	 2.639032292286493e+00
 1.983483614725010e-01	 1.275848953700673e+00	 2.523840428767102e+00
 1.871189387925707e-01	 1.277544172774695e+00	 2.415121680234249e+00
 1.759077475723419e-01	 1.279136063850222e+00	 2.315302330353846e+00
 1.647160627857564e-01	 1.280625327052128e+00	 2.226796160745049e+00
 1.535451394710454e-01	 1.282012680435511e+00	 2.151999667407295e+00
 1.423962124931290e-01	 1.283298859417521e+00	 2.093287565668126e+00
 1.312704963230042e-01	 1.284484616208267e+00	 2.053008563373301e+00
 1.201691848339644e-01	 1.285570719241357e+00	 2.033481382276393e+00
 1.090934511144761e-01	 1.286557952604549e+00	 2.036991007959791e+00
 2.223658907311072e-01	 1.280838821008494e+00	 2.786088631481400e+00
 2.110269516232398e-01	 1.282755731891327e+00	 2.658550821975626e+00
 1.997037420116036e-01	 1.284567255321584e+00	 2.534499562249905e+00
 1.883975849395445e-01	 1.286274058392983e+00	 2.416558910445366e+00
 1.771097839087924e-01	 1.287876827391228e+00	 2.307340821932470e+00
 1.658416226056129e-01	 1.289376267225383e+00	 2.209440001632542e+00
 1.545943646443351e-01	 1.290773100857267e+00	 2.125429080717199e+00
 1.433692533281250e-01	 1.292068068729384e+00	 2.057854095893259e+00
 1.321675114268671e-01	 1.293261928191953e+00	 2.009230249589212e+00
 1.209903409719918e-01	 1.294355452929550e+00	 1.982037929625095e+00
 1.098389230680726e-01	 1.295349432387875e+00	 1.978718967358130e+00
 2.238750782797112e-01	 1.289531817909503e+00	 2.797300166975057e+00
 2.124591822895797e-01	 1.291461738782180e+00	 2.668114118298139e+00
 2.010591225510374e-01	 1.293285556942277e+00	 2.541525059706004e+00
 1.896762310868678e-01	 1.295003944011057e+00	 2.420230332595388e+00
 1.783118202456095e-01	 1.296617590932019e+00	 2.306913940802934e+00
 1.669671824258507e-01	 1.298127207398421e+00	 2.204241424980635e+00
 1.556435898180152e-01	 1.299533521278798e+00	 2.114855070972601e+00
 1.443422941635130e-01	 1.300837278041010e+00	 2.041369428971803e+00
 1.330645265311142e-01	 1.302039240175386e+00	 1.986367120377670e+00
 1.218114971103837e-01	 1.303140186617469e+00	 1.952394909581183e+00
 1.105843950219999e-01	 1.304140912170899e+00	 1.941960018361446e+00
 2.253842658284822e-01	 1.298224814810431e+00	 2.792228230166683e+00
 2.138914129560918e-01	 1.300167745672973e+00	 2.667871793470836e+00
 2.024145030906569e-01	 1.302003858562929e+00	 2.544931222182410e+00
 1.909548772343953e-01	 1.303733829629101e+00	 2.426062161410120e+00
 1.795138565826523e-01	 1.305358354472785e+00	 2.313909089371192e+00
 1.680927422463364e-01	 1.306878147571434e+00	 2.211100290852460e+00
 1.566928149919637e-01	 1.308293941700295e+00	 2.120243168489969e+00
 1.453153349991863e-01	 1.309606487352589e+00	 2.043919867213667e+00
 1.339615416356575e-01	 1.310816552158751e+00	 1.984683187390167e+00
 1.226326532490746e-01	 1.311924920305294e+00	 1.945052762553100e+00
 1.113298669762187e-01	 1.312932391953795e+00	 1.927511478125023e+00
 2.268934533772859e-01	 1.306917811711429e+00	 2.771190958144643e+00
 2.153236436226346e-01	 1.308873752563872e+00	 2.657966317946281e+00
 2.037698836303164e-01	 1.310722160183712e+00	 2.544728825902595e+00
 1.922335233819814e-01	 1.312463715247295e+00	 2.433979493402950e+00
 1.807158929197795e-01	 1.314099118013713e+00	 2.328213689354779e+00
 1.692183020669363e-01	 1.315629087744610e+00	 2.229916289546820e+00
 1.577420401660588e-01	 1.317054362121952e+00	 2.141557161903310e+00
 1.462883758350382e-01	 1.318375696664313e+00	 2.065586961538034e+00
 1.348585567404092e-01	 1.319593864142237e+00	 2.004433209758050e+00
 1.234538093879990e-01	 1.320709653993206e+00	 1.960496631585190e+00
 1.120753389306894e-01	 1.321723871736737e+00	 1.936147726944880e+00
 2.284026409259882e-01	 1.315610808612648e+00	 2.734495011441780e+00
 2.167558742890663e-01	 1.317579759455040e+00	 2.638533281514893e+00
 2.051252641698707e-01	 1.319440461804804e+00	 2.540925251864314e+00
 1.935121695294813e-01	 1.321193600865824e+00	 2.443906346754304e+00
 1.819179292568498e-01	 1.322839881554992e+00	 2.349715175573774e+00
 1.703438618875172e-01	 1.324380027918142e+00	 2.260588934729494e+00
 1.587912653401786e-01	 1.325814782543958e+00	 2.178759137818130e+00
 1.472614166709622e-01	 1.327144905976369e+00	 2.106447646539892e+00
 1.357555718452815e-01	 1.328371176126029e+00	 2.045862975122983e+00
 1.242749655270916e-01	 1.329494387681388e+00	 1.999196841518417e+00
 1.128208108853724e-01	 1.330515351519901e+00	 1.968620939283561e+00
 2.299118284744549e-01	 1.324303805514240e+00	 2.682435992059433e+00
 2.181881049552451e-01	 1.326285766346644e+00	 2.609701646359934e+00
 2.064806447091740e-01	 1.328158763426378e+00	 2.533524612277978e+00
 1.947908156767493e-01	 1.329923486484871e+00	 2.455765701299066e+00
 1.831199655937218e-01	 1.331580645096808e+00	 2.378300991423244e+00
 1.714694217079456e-01	 1.333130968092220e+00	 2.303017558053772e+00
 1.598404905142011e-01	 1.334575202966505e+00	 2.231809519926446e+00
 1.482344575068515e-01	 1.335914115288949e+00	 2.166574371085285e+00
 1.366525869501864e-01	 1.337148488110314e+00	 2.109209570293136e+00
 1.250961216662868e-01	 1.338279121370020e+00	 2.061609359838431e+00
 1.135662828402284e-01	 1.339306831303460e+00	 2.025661786446306e+00
 2.314210160225521e-01	 1.332996802416356e+00	 2.615298847672440e+00
 2.196203356210291e-01	 1.334991773238847e+00	 2.571593992432619e+00
 2.078360252480811e-01	 1.336877065048610e+00	 2.522527873989828e+00
 1.960694618236402e-01	 1.338653372104617e+00	 2.469479538617055e+00
 1.843220019302544e-01	 1.340321408639350e+00	 2.413858585950404e+00
 1.725949815280879e-01	 1.341881908267035e+00	 2.357101305202187e+00
 1.608897156880044e-01	 1.343335623389784e+00	 2.300667107607500e+00
 1.492074983425993e-01	 1.344683324602242e+00	 2.246035224639511e+00
 1.375496020550363e-01	 1.345925800095279e+00	 2.194701641998708e+00
 1.259172778055192e-01	 1.347063855059284e+00	 2.148176240046852e+00
 1.143117547952176e-01	 1.348098311087590e+00	 2.107980112201866e+00
 1.068570352560679e-01	 1.260183513251014e+00	 2.332552259780792e+00
 9.603636912063959e-02	 1.261054308314603e+00	 2.357591095949546e+00
 8.524295806728306e-02	 1.261829872349682e+00	 2.381387743522965e+00
 7.447786395788004e-02	 1.262511015365494e+00	 2.405016843727607e+00
 6.374212840766905e-02	 1.263098560464746e+00	 2.429523048288164e+00
 5.303677267716066e-02	 1.263593343301771e+00	 2.455919198877981e+00
 4.236279757853359e-02	 1.263996211543256e+00	 2.485184586904040e+00
 3.172118339627010e-02	 1.264308024331922e+00	 2.518263281329600e+00
 2.111288982178093e-02	 1.264529651753582e+00	 2.556062513201973e+00
 1.053885590176010e-02	 1.264661974307913e+00	 2.599451106544618e+00
 0.000000000000000e+00	 1.264705882383334e+00	 2.649257946502321e+00
 1.076025072084343e-01	 1.268974993036293e+00	 2.214765815459502e+00
 9.670635233149935e-02	 1.269851863070280e+00	 2.240568160738828e+00
 8.583764267762742e-02	 1.270632837710947e+00	 2.269282426653372e+00
 7.499744751660925e-02	 1.271318732618420e+00	 2.301176831742982e+00
 6.418681573034478e-02	 1.271910376637635e+00	 2.336538324102591e+00
 5.340677570400457e-02	 1.272408611252722e+00	 2.375670634931829e+00
 4.265833523177270e-02	 1.272814290043961e+00	 2.418892352778032e+00
 3.194248143692859e-02	 1.273128278147734e+00	 2.466535007383619e+00
 2.126018070601572e-02	 1.273351451719854e+00	 2.518941153115390e+00
 1.061237863683633e-02	 1.273484697402651e+00	 2.576462443042994e+00
 0.000000000000000e+00	 1.273528911796184e+00	 2.639457686059817e+00
 1.083479791612502e-01	 1.277766472820746e+00	 2.115955125411066e+00
 9.737633554267376e-02	 1.278649417825125e+00	 2.140409445218957e+00
 8.643232728813821e-02	 1.279435803071370e+00	 2.171744031036785e+00
 7.551703107535605e-02	 1.280126449870493e+00	 2.209650101293118e+00
 6.463150305290143e-02	 1.280722192809661e+00	 2.253875621884545e+00
 5.377677873061730e-02	 1.281223879202800e+00	 2.304223232623464e+00
 4.295387288470533e-02	 1.281632368543785e+00	 2.360548147940569e+00
 3.216377947725417e-02	 1.281948531962658e+00	 2.422756021550459e+00
 2.140747158995209e-02	 1.282173251685232e+00	 2.490800765949537e+00
 1.068590137172126e-02	 1.282307420496491e+00	 2.564682318795442e+00
 0.000000000000000e+00	 1.282351941208134e+00	 2.644444349633268e+00
 1.090934511144761e-01	 1.286557952604549e+00	 2.036991007959791e+00
 9.804631875415215e-02	 1.287446972579301e+00	 2.058248244993783e+00
 8.702701189883458e-02	 1.288238768431105e+00	 2.089980932111063e+00
 7.603661463416812e-02	 1.288934167121860e+00	 2.131528578083787e+00
 6.507619037541097e-02	 1.289534008980963e+00	 2.182314917137883e+00
 5.414678175708864e-02	 1.290039147152133e+00	 2.241845707168414e+00
 4.324941053743030e-02	 1.290450447042847e+00	 2.309706468816609e+00
 3.238507751734357e-02	 1.290768785776804e+00	 2.385560155507563e+00
 2.155476247367107e-02	 1.290995051649820e+00	 2.469144745793904e+00
 1.075942410646440e-02	 1.291130143589533e+00	 2.560270750614503e+00
 0.000000000000000e+00	 1.291174970619284e+00	 2.658818629576708e+00
 1.098389230680726e-01	 1.295349432387875e+00	 1.978718967358129e+00
 9.871630196592401e-02	 1.296244527332976e+00	 1.995185687319416e+00
 8.762169650973596e-02	 1.297041733790313e+00	 2.025167571398933e+00
 7.655619819309299e-02	 1.297741884372669e+00	 2.067873684455156e+00
 6.552087769794535e-02	 1.298345825151676e+00	 2.122614411712025e+00
 5.451678478350840e-02	 1.298854415100849e+00	 2.188799127697189e+00
 4.354494819004644e-02	 1.299268525541265e+00	 2.265933785541711e+00
 3.260637555729342e-02	 1.299589039590283e+00	 2.353618416726794e+00
 2.170205335725366e-02	 1.299816851613725e+00	 2.451544532687055e+00
 1.083294684111531e-02	 1.299952866681880e+00	 2.559492421020191e+00
 0.000000000000000e+00	 1.299998000029734e+00	 2.677328330629563e+00
 1.105843950219999e-01	 1.304140912170899e+00	 1.941960018361446e+00
 9.938628517797872e-02	 1.305042082086316e+00	 1.952291787433416e+00
 8.821638112086165e-02	 1.305844699149148e+00	 1.978445573857245e+00
 7.707578175217837e-02	 1.306549601623066e+00	 2.019717343280166e+00
 6.596556502057642e-02	 1.307157641321937e+00	 2.075511246188575e+00
 5.488678780996634e-02	 1.307669683049075e+00	 2.145337156625923e+00
 4.384048584265256e-02	 1.308086604039157e+00	 2.228808123515309e+00
 3.282767359720042e-02	 1.308409293403207e+00	 2.325637724257847e+00
 2.184934424078084e-02	 1.308638651577050e+00	 2.435637311671691e+00
 1.090646957572350e-02	 1.308775589773633e+00	 2.558713146746740e+00
 0.000000000000000e+00	 1.308821029439584e+00	 2.694863411337656e+00
 1.113298669762187e-01	 1.312932391953795e+00	 1.927511478125023e+00
 1.000562683903057e-01	 1.313839636839487e+00	 1.930606462792830e+00
 8.881106573223085e-02	 1.314647664507767e+00	 1.950924820597275e+00
 7.759536531147186e-02	 1.315357318873199e+00	 1.988062941720452e+00
 6.641025234337615e-02	 1.315969457491884e+00	 2.041722183779298e+00
 5.525679083655230e-02	 1.316484950996940e+00	 2.111706279496630e+00
 4.413602349534752e-02	 1.316904682536645e+00	 2.197918661817661e+00
 3.304897163716124e-02	 1.317229547215688e+00	 2.300359695330412e+00
 2.199663512433365e-02	 1.317460451539901e+00	 2.419123804304246e+00
 1.097999231033851e-02	 1.317598312864892e+00	 2.554396489134207e+00
 0.000000000000000e+00	 1.317644058848934e+00	 2.706451224691762e+00
 1.120753389306894e-01	 1.321723871736737e+00	 1.936147726944880e+00
 1.007262516028944e-01	 1.322637191592656e+00	 1.931140507181077e+00
 8.940575034386296e-02	 1.323450629866328e+00	 1.943684479054113e+00
 7.811494887102105e-02	 1.324165036123214e+00	 1.973886256708927e+00
 6.685493966641651e-02	 1.324781273661655e+00	 2.021944267061977e+00
 5.562679386335605e-02	 1.325300218944569e+00	 2.088146025730900e+00
 4.443156114823011e-02	 1.325722761033844e+00	 2.172865347705312e+00
 3.327026967727255e-02	 1.326049801027835e+00	 2.276559480409052e+00
 2.214392600799307e-02	 1.326282251502384e+00	 2.399766148314316e+00
 1.105351504500987e-02	 1.326421035955760e+00	 2.543100499798636e+00
 0.000000000000000e+00	 1.326467088257884e+00	 2.707251948708012e+00
 1.128208108853724e-01	 1.330515351519901e+00	 1.968620939283561e+00
 1.013962348157342e-01	 1.331434746345987e+00	 1.954876526539878e+00
 9.000043495577721e-02	 1.332253595224988e+00	 1.957773992573326e+00
 7.863453243087361e-02	 1.332972753373260e+00	 1.978136343929316e+00
 6.729962698976935e-02	 1.333593089831386e+00	 2.016855448810475e+00
 5.599679689046736e-02	 1.334115486892093e+00	 2.074889180717324e+00
 4.472709880139920e-02	 1.334540839530876e+00	 2.153258526441367e+00
 3.349156771763102e-02	 1.334870054839761e+00	 2.253044644459568e+00
 2.229121689184013e-02	 1.335104051464604e+00	 2.375385861336762e+00
 1.112703777978712e-02	 1.335243759046337e+00	 2.521474595323747e+00
 0.000000000000000e+00	 1.335290117666534e+00	 2.692554198164713e+00
 1.135662828402284e-01	 1.339306831303460e+00	 2.025661786446306e+00
 1.020662180288146e-01	 1.340232301099649e+00	 2.002769838285016e+00
 9.059511956799295e-02	 1.341056560583903e+00	 1.994214031279672e+00
 7.915411599107712e-02	 1.341780470623482e+00	 2.001736391970028e+00
 6.774431431350665e-02	 1.342404906001215e+00	 2.027115198109437e+00
 5.636679991797610e-02	 1.342930754839637e+00	 2.072161989630958e+00
 4.502263645495359e-02	 1.343358918027858e+00	 2.138718585756085e+00
 3.371286575833333e-02	 1.343690308651576e+00	 2.228654092303612e+00
 2.243850777595580e-02	 1.343925851426666e+00	 2.343861884853380e+00
 1.120056051471979e-02	 1.344066482136725e+00	 2.486256555045683e+00
 0.000000000000000e+00	 1.344113147074984e+00	 2.657770809171516e+00
 1.143117547952176e-01	 1.348098311087590e+00	 2.107980112201866e+00
 1.027362012421250e-01	 1.349029855853806e+00	 2.075749335772948e+00
 9.118980418052944e-02	 1.349859525943230e+00	 2.053997405995460e+00
 7.967369955167920e-02	 1.350588187874028e+00	 2.045584543242186e+00
 6.818900163770034e-02	 1.351216722171277e+00	 2.053365082881993e+00
 5.673680294597199e-02	 1.351746022787329e+00	 2.080184353362219e+00
 4.531817410899213e-02	 1.352176996524908e+00	 2.128875614269839e+00
 3.393416379947616e-02	 1.352510562463393e+00	 2.202257036048950e+00
 2.258579866042112e-02	 1.352747651388675e+00	 2.303128704682593e+00
 1.127408324985740e-02	 1.352889205227027e+00	 2.434269636311659e+00
 0.000000000000000e+00	 1.352936176483334e+00	 2.598434788681213e+00
 1.352936176483334e+00	 0.000000000000000e+00	 1.488363812711695e+00
 1.352889205227027e+00	 1.127408324985666e-02	 2.354729644888035e+00
 1.352747651388675e+00	 2.258579866042048e-02	 2.911125396496779e+00
 1.352510562463392e+00	 3.393416379947564e-02	 3.201871566120261e+00
 1.352176996524908e+00	 4.531817410899172e-02	 3.272223644600296e+00
 1.351746022787329e+00	 5.673680294597166e-02	 3.168330522862054e+00
 1.351216722171277e+00	 6.818900163770010e-02	 2.937190424904095e+00
 1.350588187874028e+00	 7.967369955167911e-02	 2.626604383528883e+00
 1.349859525943230e+00	 9.118980418052945e-02	 2.285127276776945e+00
 1.349029855853806e+00	 1.027362012421251e-01	 1.962016449265386e+00
 1.348098311087590e+00	 1.143117547952177e-01	 1.707177949001385e+00
 1.361760705896667e+00	 0.000000000000000e+00	 1.504475353108893e+00
 1.361713428270247e+00	 1.134761848484702e-02	 2.379583012211810e+00
 1.361570951146700e+00	 2.273311458624149e-02	 2.944016493432800e+00
 1.361332315808420e+00	 3.415549946404613e-02	 3.241219620802347e+00
 1.360996574185418e+00	 4.561376200799330e-02	 3.315369553103758e+00
 1.360562789420742e+00	 5.710686887879947e-02	 3.211330767302136e+00
 1.360030036440317e+00	 6.863376456377379e-02	 2.974606698712528e+00
 1.359397402526789e+00	 8.019337144721007e-02	 2.651289066655832e+00
 1.358663987896998e+00	 9.178458989584184e-02	 2.288004914753850e+00
 1.357828906282633e+00	 1.034062983596298e-01	 1.931861401385185e+00
 1.356891285513662e+00	 1.150573534881408e-01	 1.630388382297096e+00
 1.370585235310001e+00	 0.000000000000000e+00	 1.497649974288220e+00
 1.370537651313480e+00	 1.142115372004104e-02	 2.388334727029340e+00
 1.370394250904771e+00	 2.288043051240713e-02	 2.969544476733050e+00
 1.370154069153548e+00	 3.437683512904651e-02	 3.282939095846022e+00
 1.369816151846095e+00	 4.590934990746143e-02	 3.370748767497973e+00
 1.369379556054403e+00	 5.747693481208903e-02	 3.275725580292836e+00
 1.368843350709689e+00	 6.907852749027030e-02	 3.041092914118371e+00
 1.368206617179968e+00	 8.071304334309815e-02	 2.710492653974354e+00
 1.367468449851268e+00	 9.237937561142637e-02	 2.327930269145214e+00
 1.366627956712044e+00	 1.040763954773102e-01	 1.937717801452817e+00
 1.365684259940387e+00	 1.158029521811391e-01	 1.584414812824488e+00
 1.379409764723334e+00	 0.000000000000000e+00	 1.480975566072992e+00
 1.379361874356723e+00	 1.149468895538780e-02	 2.387257427601595e+00
 1.379217550662885e+00	 2.302774643883125e-02	 2.988342666530985e+00
 1.378975822498765e+00	 3.459817079436932e-02	 3.323220289114762e+00
 1.378635729506922e+00	 4.620493780727946e-02	 3.431324742110434e+00
 1.378196322688281e+00	 5.784700074572489e-02	 3.352487131125245e+00
 1.377656664979350e+00	 6.952329041708381e-02	 3.126884366895968e+00
 1.377015831833514e+00	 8.123271523925400e-02	 2.794986281856995e+00
 1.376272911805979e+00	 9.297416132721503e-02	 2.397500759510468e+00
 1.375427007141962e+00	 1.047464925951222e-01	 1.975316925476654e+00
 1.374477234367676e+00	 1.165485508741936e-01	 1.569446455541224e+00
 1.388234294136667e+00	 0.000000000000000e+00	 1.467212437157672e+00
 1.388186097399976e+00	 1.156822419083639e-02	 2.382468896175431e+00
 1.388040850421034e+00	 2.317506236542768e-02	 3.001032327012541e+00
 1.387797575844059e+00	 3.481950645990708e-02	 3.358353804486825e+00
 1.387455307167877e+00	 4.650052570733075e-02	 3.490242660374884e+00
 1.387013089322345e+00	 5.821706667959157e-02	 3.432819314529992e+00
 1.386469979249262e+00	 6.996805334410877e-02	 3.222466173413185e+00
 1.385825046487373e+00	 8.175238713558843e-02	 2.895776640877467e+00
 1.385077373761063e+00	 9.356894704313973e-02	 2.489502285950261e+00
 1.384226057572308e+00	 1.054165897130219e-01	 2.040498218589688e+00
 1.383270208795438e+00	 1.172941495672857e-01	 1.585666730685684e+00
 1.397058823550000e+00	 0.000000000000000e+00	 1.468803661219807e+00
 1.397010320443238e+00	 1.164175942633589e-02	 2.379936940614951e+00
 1.396864150179216e+00	 2.332237829211027e-02	 3.008223028708021e+00
 1.396619329189418e+00	 3.504084212555231e-02	 3.384727356231378e+00
 1.396274884828940e+00	 4.679611360749868e-02	 3.540823658612601e+00
 1.395829855956568e+00	 5.858713261357373e-02	 3.508150386674457e+00
 1.395283293519384e+00	 7.041281627123945e-02	 3.318565326720280e+00
 1.394634261141493e+00	 8.227205903201212e-02	 3.004098474490764e+00
 1.393881835716456e+00	 9.416373275913247e-02	 2.596903207037244e+00
 1.393025108003004e+00	 1.060866868309656e-01	 2.129205802569424e+00
 1.392063183223582e+00	 1.180397482603965e-01	 1.633253364405142e+00
 1.405883352963333e+00	 0.000000000000000e+00	 1.497885033379140e+00
 1.405834543486506e+00	 1.171529466183539e-02	 2.385484092179261e+00
 1.405687449937423e+00	 2.346969421879286e-02	 3.010512997136639e+00
 1.405441082534831e+00	 3.526217779119753e-02	 3.398822693739053e+00
 1.405094462490091e+00	 4.709170150766660e-02	 3.576559267366195e+00
 1.404646622590918e+00	 5.895719854755587e-02	 3.570125878523982e+00
 1.404096607789674e+00	 7.085757919837009e-02	 3.406143051862498e+00
 1.403443475795821e+00	 8.279173092843582e-02	 3.111407360293021e+00
 1.402686297672092e+00	 9.475851847512520e-02	 2.712848544646778e+00
 1.401824158433973e+00	 1.067567839489093e-01	 2.237485115028341e+00
 1.400856157652018e+00	 1.187853469535073e-01	 1.712378485777787e+00
 1.414707882376666e+00	 0.000000000000000e+00	 1.566294654017307e+00
 1.414658766529780e+00	 1.178882989728398e-02	 2.404792127472478e+00
 1.414510749695649e+00	 2.361701014538929e-02	 3.008489448398550e+00
 1.414262835880286e+00	 3.548351345673529e-02	 3.397212641351139e+00
 1.413914040151312e+00	 4.738728940771791e-02	 3.591106060786053e+00
 1.413463389225367e+00	 5.932726448142257e-02	 3.610601774456921e+00
 1.412909922060092e+00	 7.130234212539499e-02	 3.476387447351420e+00
 1.412252690450304e+00	 8.331140282477023e-02	 3.209372761523105e+00
 1.411490759627908e+00	 9.535330419104993e-02	 2.830654405781287e+00
 1.410623208865135e+00	 1.074268810668091e-01	 2.361479674525647e+00
 1.409649132080654e+00	 1.195309456465994e-01	 1.823208720387041e+00
 1.423532411789999e+00	 0.000000000000000e+00	 1.685582156128009e+00
 1.423482989573057e+00	 1.186236513263074e-02	 2.443406422197942e+00
 1.423334049453891e+00	 2.376432607181340e-02	 3.002728912281913e+00
 1.423084589225772e+00	 3.570484912205811e-02	 3.376558248292540e+00
 1.422733617812583e+00	 4.768287730753594e-02	 3.578280505041831e+00
 1.422280155859884e+00	 5.969733041505841e-02	 3.621637944623046e+00
 1.421723236330597e+00	 7.174710505220856e-02	 3.520706400377410e+00
 1.421061905104891e+00	 8.383107472092610e-02	 3.289871337079348e+00
 1.420295221583836e+00	 9.594808990683856e-02	 2.943802611971613e+00
 1.419422259296415e+00	 1.080969781846211e-01	 2.497427966136238e+00
 1.418442106509400e+00	 1.202765443396539e-01	 1.965905280596925e+00
 1.432356941203333e+00	 0.000000000000000e+00	 1.867017591571316e+00
 1.432307212616338e+00	 1.193590036782476e-02	 2.506740143968700e+00
 1.432157349212142e+00	 2.391164199797905e-02	 2.993797543422630e+00
 1.431906342571277e+00	 3.592618478705849e-02	 3.333606043961172e+00
 1.431553195473883e+00	 4.797846520700406e-02	 3.532053997176114e+00
 1.431096922494441e+00	 6.006739634834795e-02	 3.595491820102952e+00
 1.430536550601150e+00	 7.219186797870504e-02	 3.530720763958265e+00
 1.429871119759527e+00	 8.435074661681413e-02	 3.344980498902431e+00
 1.429099683539813e+00	 9.654287562242309e-02	 3.045935527303975e+00
 1.428221309727733e+00	 1.087670753023014e-01	 2.641660442282553e+00
 1.427235080938167e+00	 1.210221430326522e-01	 2.140624052672123e+00
 1.441181470616666e+00	 0.000000000000000e+00	 2.121599990851126e+00
 1.441131435659620e+00	 1.200943560281512e-02	 2.600078291072776e+00
 1.440980648970397e+00	 2.405895792380007e-02	 2.982251421029515e+00
 1.440728095916789e+00	 3.614752045162897e-02	 3.265185394057417e+00
 1.440372773135193e+00	 4.827405310600565e-02	 3.446548086236735e+00
 1.439913689129008e+00	 6.043746228117578e-02	 3.524612300461051e+00
 1.439349864871708e+00	 7.263663090477876e-02	 3.498257784797181e+00
 1.438680334414161e+00	 8.487041851234511e-02	 3.366972206122610e+00
 1.437904145495773e+00	 9.713766133773551e-02	 3.130851076559210e+00
 1.437020360159012e+00	 1.094371724198062e-01	 2.790596633888895e+00
 1.436028055366862e+00	 1.217677417255753e-01	 2.347515680877437e+00
 1.348098311087590e+00	 1.143117547952177e-01	 1.707177949001383e+00
 1.347063855059284e+00	 1.259172778055186e-01	 1.557244239068028e+00
 1.345925800095279e+00	 1.375496020550358e-01	 1.499495811647719e+00
 1.344683324602242e+00	 1.492074983425989e-01	 1.510172643774719e+00
 1.343335623389784e+00	 1.608897156880040e-01	 1.565548952454379e+00
 1.341881908267035e+00	 1.725949815280876e-01	 1.641955032267088e+00
 1.340321408639350e+00	 1.843220019302541e-01	 1.715799536968176e+00
 1.338653372104616e+00	 1.960694618236400e-01	 1.763592213611007e+00
 1.336877065048610e+00	 2.078360252480808e-01	 1.761967097899298e+00
 1.334991773238847e+00	 2.196203356210290e-01	 1.687706179531876e+00
 1.332996802416356e+00	 2.314210160225521e-01	 1.517763546229711e+00
 1.356891285513662e+00	 1.150573534881408e-01	 1.630388382297094e+00
 1.355850082243650e+00	 1.267385735496547e-01	 1.424868789555222e+00
 1.354704604313630e+00	 1.384467696614800e-01	 1.310373534611637e+00
 1.353454024771420e+00	 1.501807046049924e-01	 1.265428283315195e+00
 1.352097533174766e+00	 1.619391192404801e-01	 1.268795795802656e+00
 1.350634336191817e+00	 1.737207327044974e-01	 1.299499070303964e+00
 1.349063658201715e+00	 1.855242426247840e-01	 1.336844703635072e+00
 1.347384741894797e+00	 1.973483253529379e-01	 1.360446470336520e+00
 1.345596848871830e+00	 2.091916362150056e-01	 1.350249122847299e+00
 1.343699260241742e+00	 2.210528097801407e-01	 1.286552415433562e+00
 1.341691277217250e+00	 2.329304601474621e-01	 1.150035354807148e+00
 1.365684259940387e+00	 1.158029521811391e-01	 1.584414812824488e+00
 1.364636309428726e+00	 1.275598692937682e-01	 1.317052803069248e+00
 1.363483408532734e+00	 1.393439372678097e-01	 1.141984577900440e+00
 1.362224724941377e+00	 1.511539108671872e-01	 1.040019564252425e+00
 1.360859442960541e+00	 1.629885227926834e-01	 9.923617801660751e-01
 1.359386764117389e+00	 1.748464838805716e-01	 9.806333029922176e-01
 1.357805907764853e+00	 1.867264833189294e-01	 9.868977618809265e-01
 1.356116111685718e+00	 1.986271888818178e-01	 9.936838523304040e-01
 1.354316632695745e+00	 2.105472471814965e-01	 9.840088712589481e-01
 1.352406747245272e+00	 2.224852839388230e-01	 9.414022716638645e-01
 1.350385752018702e+00	 2.344399042719690e-01	 8.499292364290026e-01
 1.374477234367676e+00	 1.165485508741936e-01	 1.569446455541223e+00
 1.373422536614409e+00	 1.283811650378647e-01	 1.238618225328793e+00
 1.372262212752476e+00	 1.402411048740537e-01	 1.002795377133630e+00
 1.370995425111989e+00	 1.521271171292333e-01	 8.450676353560622e-01
 1.369621352746975e+00	 1.640379263446819e-01	 7.490320424351924e-01
 1.368139192043613e+00	 1.759722350563939e-01	 6.988157805709463e-01
 1.366548157328623e+00	 1.879287240127860e-01	 6.790988598978758e-01
 1.364847481477240e+00	 1.999060524103841e-01	 6.751366690660088e-01
 1.363036416520218e+00	 2.119028581476623e-01	 6.727823851349776e-01
 1.361114234249305e+00	 2.239177580971832e-01	 6.585092405574211e-01
 1.359080226820593e+00	 2.359493483961734e-01	 6.194326458017442e-01
 1.383270208795438e+00	 1.172941495672857e-01	 1.585666730685685e+00
 1.382208763800598e+00	 1.292024607819500e-01	 1.194262818658180e+00
 1.381041016972741e+00	 1.411382724802404e-01	 9.010549482340457e-01
 1.379766125283133e+00	 1.531003233911800e-01	 6.914081858921381e-01
 1.378383262533936e+00	 1.650873298965438e-01	 5.512634458231460e-01
 1.376891619970350e+00	 1.770979862320484e-01	 4.671587049188020e-01
 1.375290406892884e+00	 1.891309647064503e-01	 4.262499606177697e-01
 1.373578851269221e+00	 2.011849159387414e-01	 4.163319280898232e-01
 1.371756200345110e+00	 2.132584691136113e-01	 4.258584744564774e-01
 1.369821721253712e+00	 2.253502322553288e-01	 4.439627888841231e-01
 1.367774701622807e+00	 2.374587925201763e-01	 4.604772884294843e-01
 1.392063183223582e+00	 1.180397482603965e-01	 1.633253364405142e+00
 1.390994990987188e+00	 1.300237565260295e-01	 1.188563996242927e+00
 1.389819821193415e+00	 1.420354400863985e-01	 8.448016617904073e-01
 1.388536825454683e+00	 1.540735296530771e-01	 5.896003652610045e-01
 1.387145172321294e+00	 1.661367334483376e-01	 4.111948491070860e-01
 1.385644047897464e+00	 1.782237374076190e-01	 2.984392523689339e-01
 1.384032656457494e+00	 1.903332054000184e-01	 2.408254222023773e-01
 1.382310221061520e+00	 2.024637794669941e-01	 2.285008779190658e-01
 1.380475984170284e+00	 2.146140800794518e-01	 2.522864283588548e-01
 1.378529208258362e+00	 2.267827064133670e-01	 3.036934448195933e-01
 1.376469176425223e+00	 2.389682366440784e-01	 3.749407930754330e-01
 1.400856157652018e+00	 1.187853469535073e-01	 1.712378485777788e+00
 1.399781218174077e+00	 1.308450522701092e-01	 1.225982512218653e+00
 1.398598625414386e+00	 1.429326076925566e-01	 8.418697625864109e-01
 1.397307525626517e+00	 1.550467359149742e-01	 5.499353670776266e-01
 1.395907082108914e+00	 1.671861370001314e-01	 3.406569895637834e-01
 1.394396475824816e+00	 1.793494885831896e-01	 2.051099894595898e-01
 1.392774906022312e+00	 1.915354460935865e-01	 1.349821806959055e-01
 1.391041590853995e+00	 2.037426429952470e-01	 1.225881922896910e-01
 1.389195767995604e+00	 2.159696910452924e-01	 1.608834367638352e-01
 1.387236695263126e+00	 2.282151805714052e-01	 2.434776943396395e-01
 1.385163651227726e+00	 2.404776807679804e-01	 3.646483223891407e-01
 1.409649132080654e+00	 1.195309456465994e-01	 1.823208720387041e+00
 1.408567445361161e+00	 1.316663480141944e-01	 1.310866013888791e+00
 1.407377429635538e+00	 1.438297752987433e-01	 8.998956454234843e-01
 1.406078225798511e+00	 1.560199421769210e-01	 5.824446923468503e-01
 1.404668991896667e+00	 1.682355405519934e-01	 3.511819964677729e-01
 1.403148903752267e+00	 1.804752397588441e-01	 1.993088993947736e-01
 1.401517155587198e+00	 1.927376867872509e-01	 1.205695522106141e-01
 1.399772960646505e+00	 2.050215065236042e-01	 1.092608114148463e-01
 1.397915551820929e+00	 2.173253020112413e-01	 1.602417351122687e-01
 1.395944182267874e+00	 2.296476547295507e-01	 2.689426953597678e-01
 1.393858126030195e+00	 2.419871248919833e-01	 4.313741243995804e-01
 1.418442106509400e+00	 1.202765443396539e-01	 1.965905280596926e+00
 1.417353672548340e+00	 1.324876437582909e-01	 1.447452462054142e+00
 1.416156233856758e+00	 1.447269429049873e-01	 1.026323897812967e+00
 1.414848925970540e+00	 1.569931484389670e-01	 6.969081056585766e-01
 1.413430901684418e+00	 1.692849441039919e-01	 4.540125511829900e-01
 1.411901331679679e+00	 1.816009909346664e-01	 2.928690361075201e-01
 1.410259405152009e+00	 1.939399274811075e-01	 2.091386711561734e-01
 1.408504330438909e+00	 2.063003700521705e-01	 1.989164551377081e-01
 1.406635335646124e+00	 2.186809129774071e-01	 2.587354842137140e-01
 1.404651669272474e+00	 2.310801288879110e-01	 3.855708175289814e-01
 1.402552600832516e+00	 2.434965690161877e-01	 5.768430274405875e-01
 1.427235080938167e+00	 1.210221430326522e-01	 2.140624052672124e+00
 1.426139899735509e+00	 1.333089395024044e-01	 1.639873425142178e+00
 1.424935038077931e+00	 1.456241105113170e-01	 1.228413119591818e+00
 1.423619626142480e+00	 1.579663547011619e-01	 9.028612976424475e-01
 1.422192811472035e+00	 1.703343476561950e-01	 6.601107090895939e-01
 1.420653759606916e+00	 1.827267421107406e-01	 4.973278219864790e-01
 1.419001654716606e+00	 1.951421681752528e-01	 4.119515802086535e-01
 1.417235700231067e+00	 2.075792335810503e-01	 4.016918221289245e-01
 1.415355119471049e+00	 2.200365239438981e-01	 4.645273966365289e-01
 1.413359156276798e+00	 2.325126030465932e-01	 5.987040151970792e-01
 1.411247075634568e+00	 2.450060131406946e-01	 8.027318809484174e-01
 1.436028055366862e+00	 1.217677417255753e-01	 2.347515680877438e+00
 1.434926126922566e+00	 1.341302352465405e-01	 1.892157252545421e+00
 1.433713842298945e+00	 1.465212781177613e-01	 1.513241529023601e+00
 1.432390326314207e+00	 1.589395609635554e-01	 1.209603266272044e+00
 1.430954721259390e+00	 1.713837512086713e-01	 9.801663978403143e-01
 1.429406187533840e+00	 1.838524932871505e-01	 8.239360045391850e-01
 1.427743904280846e+00	 1.963444088697827e-01	 7.399899869467306e-01
 1.425967070022837e+00	 2.088580971103483e-01	 7.274704885856285e-01
 1.424074903295569e+00	 2.213921349108228e-01	 7.855751205025234e-01
 1.422066643280715e+00	 2.339450772057049e-01	 9.135480407061954e-01
 1.419941550436235e+00	 2.465154572656048e-01	 1.110670944451925e+00
 1.332996802416356e+00	 2.314210160225521e-01	 1.517763546229710e+00
 1.330891845997599e+00	 2.432346603896922e-01	 1.317788922833016e+00
 1.328675921154549e+00	 2.550618599626060e-01	 1.171189434264157e+00
 1.326348396360253e+00	 2.669011826603550e-01	 1.081696576456328e+00
 1.323908662363273e+00	 2.787511774632431e-01	 1.052873608185211e+00
 1.321356132759197e+00	 2.906103747886408e-01	 1.088101141662230e+00
 1.318690244556446e+00	 3.024772868851618e-01	 1.190562957531819e+00
 1.315910458735754e+00	 3.143504082451844e-01	 1.363232103425233e+00
 1.313016260802667e+00	 3.262282160356711e-01	 1.608857335632365e+00
 1.310007161332449e+00	 3.381091705472291e-01	 1.929949963578822e+00
 1.306882696506716e+00	 3.499917156613212e-01	 2.328771156626018e+00
 1.341691277217250e+00	 2.329304601474621e-01	 1.150035354807148e+00
 1.339572591215119e+00	 2.448211590379683e-01	 1.000953226051244e+00
 1.337342212996833e+00	 2.567255015481719e-01	 9.127949447663569e-01
 1.334999506916314e+00	 2.686420462563683e-01	 8.861933448563880e-01
 1.332543859748294e+00	 2.805693326785685e-01	 9.213862381107299e-01
 1.329974681263546e+00	 2.925058816467714e-01	 1.018201596506473e+00
 1.327291404798392e+00	 3.044501957057145e-01	 1.176043265428229e+00
 1.324493487817822e+00	 3.164007595280839e-01	 1.393877275686427e+00
 1.321580412471606e+00	 3.283560403481451e-01	 1.670218822242022e+00
 1.318551686142743e+00	 3.403144884137317e-01	 2.003119977253837e+00
 1.315406841987608e+00	 3.522745374565047e-01	 2.390158204442358e+00
 1.350385752018702e+00	 2.344399042719690e-01	 8.499292364290045e-01
 1.348253336433106e+00	 2.464076576858904e-01	 7.609783740655475e-01
 1.346008504839481e+00	 2.583891431334531e-01	 7.351724193078636e-01
 1.343650617472627e+00	 2.703829098521834e-01	 7.704840603957486e-01
 1.341179057133447e+00	 2.823874878937942e-01	 8.643117362282199e-01
 1.338593229767909e+00	 2.944013885049102e-01	 1.013464721024696e+00
 1.335892565040231e+00	 3.064231045263880e-01	 1.214148991195317e+00
 1.333076516899666e+00	 3.184511108112181e-01	 1.461953949375259e+00
 1.330144564140208e+00	 3.304838646609647e-01	 1.751840080284272e+00
 1.327096210952599e+00	 3.425198062806841e-01	 2.078127612430656e+00
 1.323930987467973e+00	 3.545573592522309e-01	 2.434486258675121e+00
 1.359080226820593e+00	 2.359493483961734e-01	 6.194326458017461e-01
 1.356934081651459e+00	 2.479941563335470e-01	 5.955450332454824e-01
 1.354674796682413e+00	 2.600527847185212e-01	 6.325893800835637e-01
 1.352301728029138e+00	 2.721237734478502e-01	 7.263094662536286e-01
 1.349814254518708e+00	 2.842056431089465e-01	 8.717425137272856e-01
 1.347211778272284e+00	 2.962968953630575e-01	 1.063204479478133e+00
 1.344493725281991e+00	 3.083960133471566e-01	 1.294276327285516e+00
 1.341659545981341e+00	 3.205014620945352e-01	 1.557791358766488e+00
 1.338708715808558e+00	 3.326116889740540e-01	 1.845823683475861e+00
 1.335640735762127e+00	 3.447251241479888e-01	 2.149677906987123e+00
 1.332455132947942e+00	 3.568401810483847e-01	 2.459880114554038e+00
 1.367774701622807e+00	 2.374587925201763e-01	 4.604772884294863e-01
 1.365614826870076e+00	 2.495806549810267e-01	 5.023875006598625e-01
 1.363341088525549e+00	 2.617164263034472e-01	 5.994537089428246e-01
 1.360952838585789e+00	 2.738646370434186e-01	 7.456149322212047e-01
 1.358449451904044e+00	 2.860237983240513e-01	 9.340176183565300e-01
 1.355830326776671e+00	 2.981924022212138e-01	 1.157001446752725e+00
 1.353094885523699e+00	 3.103689221679942e-01	 1.406086252320778e+00
 1.350242575062906e+00	 3.225518133779834e-01	 1.671960154996023e+00
 1.347272867476741e+00	 3.347395132873366e-01	 1.944468978268487e+00
 1.344185260571436e+00	 3.469304420155475e-01	 2.212607039041201e+00
 1.340979278427648e+00	 3.591230028448507e-01	 2.464509389578759e+00
 1.376469176425223e+00	 2.389682366440784e-01	 3.749407930754332e-01
 1.374295572088858e+00	 2.511671536284180e-01	 4.792919287066320e-01
 1.372007380368809e+00	 2.633800678883028e-01	 6.303091411555075e-01
 1.369603949142525e+00	 2.756055006389392e-01	 8.205439286636153e-01
 1.367084649289429e+00	 2.878419535391354e-01	 1.041714893223146e+00
 1.364448875281071e+00	 3.000879090793797e-01	 1.284694349706237e+00
 1.361696045765385e+00	 3.123418309888749e-01	 1.539496145249198e+00
 1.358825604144416e+00	 3.246021646615113e-01	 1.795264775321078e+00
 1.355837019144840e+00	 3.368673376007368e-01	 2.040265882017491e+00
 1.352729785380635e+00	 3.491357598832633e-01	 2.261878218820756e+00
 1.349503423907224e+00	 3.614058246415133e-01	 2.446587164345946e+00
 1.385163651227726e+00	 2.404776807679804e-01	 3.646483223891407e-01
 1.382976317307702e+00	 2.527536522758093e-01	 5.240946179182993e-01
 1.380673672212114e+00	 2.650437094731589e-01	 7.198309303750656e-01
 1.378255059699290e+00	 2.773463642344620e-01	 9.434317479351454e-01
 1.375719846674832e+00	 2.896601087542244e-01	 1.185643432778687e+00
 1.373067423785480e+00	 3.019834159375556e-01	 1.436371929172992e+00
 1.370297206007076e+00	 3.143147398097730e-01	 1.684671717649174e+00
 1.367408633225929e+00	 3.266525159450666e-01	 1.918736102337211e+00
 1.364401170812940e+00	 3.389951619141786e-01	 2.125888917555931e+00
 1.361274310189836e+00	 3.513410777510383e-01	 2.292577738366314e+00
 1.358027569386798e+00	 3.636886464382575e-01	 2.404368677975012e+00
 1.393858126030195e+00	 2.419871248919833e-01	 4.313741243995766e-01
 1.391657062526507e+00	 2.543401509232892e-01	 6.346803749666732e-01
 1.389339964055382e+00	 2.667073510580869e-01	 8.628216773243284e-01
 1.386906170256031e+00	 2.790872278300369e-01	 1.106799462443604e+00
 1.384355044060224e+00	 2.914782639693448e-01	 1.356836323015465e+00
 1.381685972289901e+00	 3.038789227957421e-01	 1.602365108625136e+00
 1.378898366248802e+00	 3.162876486306630e-01	 1.832019250289805e+00
 1.375991662307500e+00	 3.287028672285981e-01	 2.033624400491846e+00
 1.372965322481124e+00	 3.411229862275858e-01	 2.194191473852119e+00
 1.369818834999145e+00	 3.535463956187748e-01	 2.299911172175649e+00
 1.366551714866505e+00	 3.659714682349678e-01	 2.336150075749162e+00
 1.402552600832516e+00	 2.434965690161877e-01	 5.768430274405875e-01
 1.400337807745173e+00	 2.559266495709461e-01	 8.089809330377574e-01
 1.398006255898535e+00	 2.683709926431582e-01	 1.054207315099381e+00
 1.395557280812689e+00	 2.808280914257144e-01	 1.303348109095062e+00
 1.392990241445578e+00	 2.932964191845226e-01	 1.546543653540779e+00
 1.390304520794330e+00	 3.057744296539397e-01	 1.773239456184166e+00
 1.387499526490589e+00	 3.182605574515185e-01	 1.972178120745353e+00
 1.384574691389187e+00	 3.307532185120538e-01	 2.131392517862023e+00
 1.381529474149479e+00	 3.432508105408824e-01	 2.238200282940510e+00
 1.378363359808673e+00	 3.557517134863754e-01	 2.279199722240429e+00
 1.375075860346475e+00	 3.682542900315289e-01	 2.240267206705649e+00
 1.411247075634568e+00	 2.450060131406946e-01	 8.027318809484172e-01
 1.409018552963599e+00	 2.575131482188688e-01	 1.044973431887622e+00
 1.406672547741491e+00	 2.700346342284438e-01	 1.289033244338055e+00
 1.404208391369210e+00	 2.825689550215446e-01	 1.525953090356506e+00
 1.401625438830864e+00	 2.951145743997843e-01	 1.746225789804406e+00
 1.398923069298769e+00	 3.076699365121487e-01	 1.939787927331853e+00
 1.396100686732467e+00	 3.202334662723139e-01	 2.096013609511784e+00
 1.393157720471047e+00	 3.328035697953820e-01	 2.203709341756512e+00
 1.390093625818086e+00	 3.453786348539923e-01	 2.251110103798911e+00
 1.386907884618530e+00	 3.579570313537424e-01	 2.225876701248303e+00
 1.383600005826839e+00	 3.705371118278250e-01	 2.115102931856763e+00
 1.419941550436235e+00	 2.465154572656048e-01	 1.110670944451925e+00
 1.417699298181683e+00	 2.590996468671456e-01	 1.340678955021341e+00
 1.415338839584173e+00	 2.716982758140153e-01	 1.562460611829556e+00
 1.412859501925539e+00	 2.843098186175775e-01	 1.767658782651973e+00
 1.410260636216053e+00	 2.969327296151559e-01	 1.947546894329304e+00
 1.407541617803216e+00	 3.095654433703699e-01	 2.093023876289718e+00
 1.404701846974463e+00	 3.222063750930234e-01	 2.194609972688825e+00
 1.401740749553137e+00	 3.348539210785311e-01	 2.242443497263468e+00
 1.398657777487031e+00	 3.475064591668399e-01	 2.226278604302458e+00
 1.395452409428825e+00	 3.601623492207781e-01	 2.135484148028286e+00
 1.392124151307731e+00	 3.728199336237416e-01	 1.961728565513737e+00
 1.306882696506716e+00	 3.499917156613212e-01	 2.328771156626018e+00
 1.303642428925645e+00	 3.618742795014395e-01	 2.681520435077987e+00
 1.300285948981592e+00	 3.737552754491766e-01	 2.869784203013450e+00
 1.296812874516516e+00	 3.856331021939083e-01	 2.981589764434128e+00
 1.293222851033617e+00	 3.975061441091527e-01	 3.051747751748363e+00
 1.289515552181324e+00	 4.093727718083583e-01	 3.084306224873479e+00
 1.285690680225100e+00	 4.212313427177439e-01	 3.083589912218368e+00
 1.281747966506409e+00	 4.330802016659257e-01	 3.054199615802805e+00
 1.277687171888223e+00	 4.449176814900397e-01	 3.001011233555912e+00
 1.273508087186421e+00	 4.567421036580434e-01	 2.929174386649450e+00
 1.269210533586462e+00	 4.685517789068530e-01	 2.844110639176705e+00
 1.315406841987608e+00	 3.522745374565047e-01	 2.390158204442358e+00
 1.312145439753444e+00	 3.642346053473769e-01	 2.710777554527915e+00
 1.308767067160938e+00	 3.761930951192264e-01	 2.864033988256655e+00
 1.305271339559416e+00	 3.881483950168897e-01	 2.947813427713104e+00
 1.301657900139864e+00	 4.000988788759703e-01	 2.984544639760199e+00
 1.297926420422076e+00	 4.120429066822527e-01	 2.980718592663633e+00
 1.294076600729533e+00	 4.239788251482766e-01	 2.943271651832960e+00
 1.290108170651366e+00	 4.359049683068131e-01	 2.879584209718821e+00
 1.286020889490769e+00	 4.478196581209375e-01	 2.797478696931669e+00
 1.281814546699208e+00	 4.597212051103917e-01	 2.705216959115867e+00
 1.277488962295819e+00	 4.716079089938833e-01	 2.611496983894584e+00
 1.323930987467973e+00	 3.545573592522309e-01	 2.434486258675124e+00
 1.320648450580642e+00	 3.665949311939358e-01	 2.706995961422586e+00
 1.317248185339625e+00	 3.786309147899633e-01	 2.820085818353584e+00
 1.313729804601611e+00	 3.906636878406111e-01	 2.871127285815637e+00
 1.310092949245371e+00	 4.026916136435698e-01	 2.874244301546246e+00
 1.306337288662063e+00	 4.147130415569600e-01	 2.837842565183541e+00
 1.302462521233183e+00	 4.267263075796452e-01	 2.770904857989852e+00
 1.298468374795530e+00	 4.387297349485515e-01	 2.682989035588931e+00
 1.294354607092516e+00	 4.507216347526958e-01	 2.584225218216154e+00
 1.290121006211195e+00	 4.627003065636054e-01	 2.485312160398333e+00
 1.285767391004374e+00	 4.746640390817800e-01	 2.397512781997252e+00
 1.332455132947942e+00	 3.568401810483847e-01	 2.459880114554036e+00
 1.329151461407391e+00	 3.689552570409886e-01	 2.671798129011004e+00
 1.325729303517818e+00	 3.810687344612502e-01	 2.742528766471919e+00
 1.322188269643277e+00	 3.931789806649302e-01	 2.758307498906664e+00
 1.318527998350322e+00	 4.052843484118061e-01	 2.729178246182354e+00
 1.314748156901475e+00	 4.173831764323361e-01	 2.664942722071807e+00
 1.310848441736247e+00	 4.294737900117074e-01	 2.576074851678444e+00
 1.306828578939100e+00	 4.415545015910020e-01	 2.473718264275682e+00
 1.302688324693665e+00	 4.536236113851781e-01	 2.369682851709371e+00
 1.298427465722582e+00	 4.656794080175501e-01	 2.276440372358116e+00
 1.294045819712330e+00	 4.777201691704104e-01	 2.207119080813480e+00
 1.340979278427648e+00	 3.591230028448507e-01	 2.464509389578758e+00
 1.337654472233839e+00	 3.713155828884063e-01	 2.607132705538219e+00
 1.334210421695680e+00	 3.835065541329500e-01	 2.635824982933832e+00
 1.330646734684588e+00	 3.956942734897049e-01	 2.615947719815042e+00
 1.326963047454904e+00	 4.078770831805354e-01	 2.557456004087921e+00
 1.323159025140505e+00	 4.200533113082371e-01	 2.471038063501748e+00
 1.319234362238919e+00	 4.322212724443209e-01	 2.368113388779008e+00
 1.315188783082273e+00	 4.443792682340243e-01	 2.260829863046621e+00
 1.311022042294415e+00	 4.565255880182477e-01	 2.162059876161193e+00
 1.306733925233569e+00	 4.686585094720913e-01	 2.085395402690140e+00
 1.302324248419886e+00	 4.807762992596409e-01	 2.045142022539705e+00
 1.349503423907224e+00	 3.614058246415133e-01	 2.446587164345946e+00
 1.346157483060137e+00	 3.736759087360607e-01	 2.518201216293019e+00
 1.342691539873378e+00	 3.859443738049259e-01	 2.504313725940273e+00
 1.339105199725725e+00	 3.982095663147932e-01	 2.450464915228638e+00
 1.335398096559300e+00	 4.104698179496136e-01	 2.366972231550117e+00
 1.331569893379343e+00	 4.227234461845191e-01	 2.264909898473850e+00
 1.327620282741396e+00	 4.349687548773435e-01	 2.156106840537646e+00
 1.323548987225249e+00	 4.472040348774795e-01	 2.053143585015187e+00
 1.319355759894965e+00	 4.594275646517680e-01	 1.969348118724514e+00
 1.315040384744357e+00	 4.716376109270947e-01	 1.918790678088012e+00
 1.310602677127242e+00	 4.838324293493378e-01	 1.916277450860013e+00
 1.358027569386798e+00	 3.636886464382575e-01	 2.404368677975012e+00
 1.354660493886436e+00	 3.760362345838234e-01	 2.407521090772652e+00
 1.351172658051076e+00	 3.883821934770403e-01	 2.352215255488367e+00
 1.347563664766861e+00	 4.007248591400526e-01	 2.268104983591284e+00
 1.343833145663696e+00	 4.130625527188962e-01	 2.165413564579953e+00
 1.339980761618180e+00	 4.253935810610378e-01	 2.055109453904035e+00
 1.336006203243873e+00	 4.377162373106330e-01	 1.948904084833957e+00
 1.331909191368224e+00	 4.500288015212276e-01	 1.859248677588046e+00
 1.327689477495516e+00	 4.623295412856020e-01	 1.799330024012943e+00
 1.323346844255144e+00	 4.746167123824256e-01	 1.783065226150805e+00
 1.318881105834598e+00	 4.868885594393678e-01	 1.825095367122943e+00
 1.366551714866505e+00	 3.659714682349678e-01	 2.336150075749161e+00
 1.363163504712884e+00	 3.783965604315659e-01	 2.276643780216288e+00
 1.359653776228939e+00	 3.908200131491567e-01	 2.183634596455571e+00
 1.356022129808173e+00	 4.032401519653414e-01	 2.074948178578279e+00
 1.352268194768276e+00	 4.156552874882393e-01	 1.960265233044688e+00
 1.348391629857210e+00	 4.280637159376496e-01	 1.849965216698811e+00
 1.344392123746545e+00	 4.404637197440472e-01	 1.755124120869536e+00
 1.340269395511398e+00	 4.528535681651291e-01	 1.687511322187572e+00
 1.336023195096266e+00	 4.652315179196131e-01	 1.659585479392488e+00
 1.331653303766132e+00	 4.775958138379501e-01	 1.684489455255385e+00
 1.327159534542153e+00	 4.899446895295974e-01	 1.776044242643186e+00
 1.375075860346475e+00	 3.682542900315289e-01	 2.240267206705649e+00
 1.371666515539633e+00	 3.807568862791604e-01	 2.127072347588181e+00
 1.368134894407131e+00	 3.932578328211374e-01	 2.002565176527743e+00
 1.364480594849838e+00	 4.057554447905173e-01	 1.876914346587024e+00
 1.360703243873228e+00	 4.182480222574983e-01	 1.758817445479608e+00
 1.356802498096622e+00	 4.307338508142103e-01	 1.657590020403568e+00
 1.352778044249608e+00	 4.432112021774436e-01	 1.583163419278268e+00
 1.348629599654967e+00	 4.556783348090447e-01	 1.546081816910178e+00
 1.344356912697415e+00	 4.681334945536647e-01	 1.557498407084605e+00
 1.339959763277518e+00	 4.805749152935332e-01	 1.629170741160732e+00
 1.335437963250109e+00	 4.930008196198934e-01	 1.773455193370820e+00
 1.383600005826839e+00	 3.705371118278250e-01	 2.115102931856762e+00
 1.380169526366831e+00	 3.831172121264778e-01	 1.960263002719705e+00
 1.376616012585818e+00	 3.956956524928459e-01	 1.812892344368738e+00
 1.372939059892033e+00	 4.082707376154379e-01	 1.679767986263341e+00
 1.369138292978735e+00	 4.208407570265293e-01	 1.568171554467652e+00
 1.365213366336608e+00	 4.334039856905756e-01	 1.485887887439311e+00
 1.361163964753259e+00	 4.459586846106806e-01	 1.441203019068452e+00
 1.356989803799132e+00	 4.585031014528347e-01	 1.442901513206049e+00
 1.352690630299162e+00	 4.710354711876198e-01	 1.500263133136306e+00
 1.348266222789505e+00	 4.835540167490409e-01	 1.623058828678396e+00
 1.343716391958665e+00	 4.960569497101225e-01	 1.821546022862807e+00
 1.392124151307731e+00	 3.728199336237416e-01	 1.961728565513737e+00
 1.388672537194630e+00	 3.854775379733900e-01	 1.777626594785191e+00
 1.385097130765164e+00	 3.981334721641446e-01	 1.618396773164254e+00
 1.381397524934934e+00	 4.107860304399616e-01	 1.489123137691319e+00
 1.377573342084982e+00	 4.234334917951880e-01	 1.395246011992925e+00
 1.373624234577360e+00	 4.360741205666020e-01	 1.342560637403437e+00
 1.369549885257692e+00	 4.487061670436154e-01	 1.337215382247627e+00
 1.365350007944089e+00	 4.613278680963596e-01	 1.385709517122736e+00
 1.361024347901708e+00	 4.739374478213423e-01	 1.494890542820972e+00
 1.356572682302292e+00	 4.865331182043387e-01	 1.671951056334939e+00
 1.351994820668021e+00	 4.991130798001510e-01	 1.924425139200868e+00
 1.269210533586462e+00	 4.685517789068530e-01	 2.844110639176705e+00
 1.264793602015855e+00	 4.803470112777081e-01	 2.747869271058846e+00
 1.260257895366589e+00	 4.921240816119458e-01	 2.638353162185989e+00
 1.255603327383696e+00	 5.038812709735316e-01	 2.515033778937215e+00
 1.250829843712159e+00	 5.156168523708458e-01	 2.377536278734323e+00
 1.245937422231995e+00	 5.273290914687045e-01	 2.225643747086560e+00
 1.240926073375035e+00	 5.390162473136549e-01	 2.059301211850256e+00
 1.235795840422856e+00	 5.506765730720238e-01	 1.878619410398233e+00
 1.230546799785333e+00	 5.623083167801735e-01	 1.683878284729115e+00
 1.225179061259301e+00	 5.739097221063956e-01	 1.475530179010038e+00
 1.219692768266804e+00	 5.854790291238445e-01	 1.254202713650902e+00
 1.277488962295819e+00	 4.716079089938833e-01	 2.611496983894584e+00
 1.273043221278675e+00	 4.834800757957715e-01	 2.519289936153605e+00
 1.268477930472135e+00	 4.953339620991682e-01	 2.424297618402090e+00
 1.263793003058634e+00	 5.071678377562655e-01	 2.324632550326126e+00
 1.258988384328630e+00	 5.189799645111296e-01	 2.218465230881164e+00
 1.254064052017868e+00	 5.307685967163623e-01	 2.104029227607050e+00
 1.249020016626222e+00	 5.425319820631296e-01	 1.979626189596412e+00
 1.243856321717579e+00	 5.542683623240222e-01	 1.843630759818679e+00
 1.238573044200203e+00	 5.659759741082082e-01	 1.694495361505042e+00
 1.233170294587080e+00	 5.776530496282919e-01	 1.530754832429638e+00
 1.227648217235732e+00	 5.892978174782922e-01	 1.351030880193041e+00
 1.285767391004374e+00	 4.746640390817800e-01	 2.397512781997252e+00
 1.281292840540695e+00	 4.866131403147009e-01	 2.322300448670016e+00
 1.276697965576881e+00	 4.985438425872536e-01	 2.251421458466064e+00
 1.271982678732776e+00	 5.104544045398592e-01	 2.181908167907441e+00
 1.267146924944311e+00	 5.223430766522678e-01	 2.110770798667443e+00
 1.262190681802957e+00	 5.342081019648687e-01	 2.035003186929476e+00
 1.257113959876638e+00	 5.460477168134459e-01	 1.951588579355798e+00
 1.251916803011547e+00	 5.578601515768560e-01	 1.857505451307431e+00
 1.246599288614339e+00	 5.696436314370714e-01	 1.749733321669956e+00
 1.241161527914155e+00	 5.813963771510109e-01	 1.625258537479675e+00
 1.235603666203993e+00	 5.931166058335577e-01	 1.481080000524663e+00
 1.294045819712330e+00	 4.777201691704104e-01	 2.207119080813480e+00
 1.289542459802115e+00	 4.897462048343620e-01	 2.159694270131964e+00
 1.284918000681028e+00	 5.017537230760660e-01	 2.120610595914485e+00
 1.280172354406320e+00	 5.137409713241714e-01	 2.086093272666677e+00
 1.275305465559397e+00	 5.257061887941143e-01	 2.052280649669994e+00
 1.270317311587458e+00	 5.376476072140717e-01	 2.015230430568491e+00
 1.265207903126474e+00	 5.495634515644462e-01	 1.970926039301658e+00
 1.259977284304949e+00	 5.614519408303607e-01	 1.915283107894725e+00
 1.254625533027926e+00	 5.733112887665924e-01	 1.844156060083768e+00
 1.249152761240702e+00	 5.851397046743750e-01	 1.753344763344283e+00
 1.243559115171751e+00	 5.969353941894570e-01	 1.638601220625575e+00
 1.302324248419886e+00	 4.807762992596409e-01	 2.045142022539705e+00
 1.297792079063135e+00	 4.928792693546206e-01	 2.034185426006004e+00
 1.293138035784776e+00	 5.049636035654682e-01	 2.032720392218450e+00
 1.288362030079466e+00	 5.170275381090620e-01	 2.036432395120817e+00
 1.283464006174087e+00	 5.290693009365243e-01	 2.040870488167746e+00
 1.278443941371567e+00	 5.410871124638198e-01	 2.041453806688043e+00
 1.273301846375924e+00	 5.530791863159725e-01	 2.033478293365810e+00
 1.268037765597974e+00	 5.650437300843711e-01	 2.012123622151344e+00
 1.262651777441146e+00	 5.769789460965996e-01	 1.972460294173424e+00
 1.257143994566896e+00	 5.888830321982061e-01	 1.909456877610051e+00
 1.251514564139175e+00	 6.007541825458070e-01	 1.817987362003913e+00
 1.310602677127242e+00	 4.838324293493378e-01	 1.916277450860013e+00
 1.306041698323956e+00	 4.960123338753425e-01	 1.948411406821613e+00
 1.301358070888324e+00	 5.081734840553237e-01	 1.988577061309269e+00
 1.296551705752413e+00	 5.203141048943898e-01	 2.032182067523010e+00
 1.291622546788580e+00	 5.324324130793512e-01	 2.074463074496462e+00
 1.286570571155480e+00	 5.445266177139613e-01	 2.110492327105849e+00
 1.281395789625182e+00	 5.565949210678663e-01	 2.135184543254000e+00
 1.276098246890808e+00	 5.686355193387226e-01	 2.143304043272351e+00
 1.270678021854183e+00	 5.806466034269213e-01	 2.129472104677016e+00
 1.265135227892915e+00	 5.926263597223278e-01	 2.088174513636514e+00
 1.259470013106432e+00	 6.045729709024250e-01	 2.013769282875995e+00
 1.318881105834598e+00	 4.868885594393678e-01	 1.825095367122943e+00
 1.314291317584775e+00	 4.991453983963934e-01	 1.904935984155064e+00
 1.309578105991872e+00	 5.113833645454955e-01	 1.988979046417513e+00
 1.304741381425359e+00	 5.236006716800142e-01	 2.072610958145812e+00
 1.299781087403072e+00	 5.357955252224491e-01	 2.151027308742151e+00
 1.294697200939394e+00	 5.479661229643449e-01	 2.219239387576740e+00
 1.289489732874439e+00	 5.601106558199700e-01	 2.272081007552289e+00
 1.284158728183644e+00	 5.722273085932503e-01	 2.304215612134226e+00
 1.278704266267219e+00	 5.843142607573861e-01	 2.310143638517277e+00
 1.273126461218933e+00	 5.963696872465615e-01	 2.284210107696007e+00
 1.267425462073689e+00	 6.083917592591278e-01	 2.220612410455681e+00
 1.327159534542153e+00	 4.899446895295974e-01	 1.776044242643186e+00
 1.322540936845796e+00	 5.022784629176393e-01	 1.906251945193778e+00
 1.317798141095619e+00	 5.145932450358471e-01	 2.034698370433616e+00
 1.312931057098506e+00	 5.268872384657945e-01	 2.157000026678343e+00
 1.307939628017762e+00	 5.391586373656728e-01	 2.268577375962908e+00
 1.302823830723504e+00	 5.514056282148184e-01	 2.364661083019079e+00
 1.297583676123889e+00	 5.636263905721249e-01	 2.440298582374183e+00
 1.292219209476668e+00	 5.758190978477895e-01	 2.490360937862885e+00
 1.286730510680439e+00	 5.879819180878233e-01	 2.509549966723895e+00
 1.281117694545127e+00	 6.001130147707301e-01	 2.492405598468781e+00
 1.275380911041114e+00	 6.122105476157323e-01	 2.433313436880128e+00
 1.335437963250109e+00	 4.930008196198934e-01	 1.773455193370818e+00
 1.330790556107215e+00	 5.054115274389456e-01	 1.954783749413090e+00
 1.326018176199766e+00	 5.178031255262414e-01	 2.126481960938027e+00
 1.321120732772049e+00	 5.301738052515904e-01	 2.284642699819907e+00
 1.316098168632849e+00	 5.425217495088762e-01	 2.425171950268345e+00
 1.310950460508004e+00	 5.548451334652303e-01	 2.543794613562982e+00
 1.305677619373726e+00	 5.671421253241734e-01	 2.636060618273253e+00
 1.300279690770070e+00	 5.794108871021756e-01	 2.697351309770777e+00
 1.294756755094026e+00	 5.916495754180610e-01	 2.722886090675232e+00
 1.289108927871674e+00	 6.038563422946560e-01	 2.707729281846610e+00
 1.283336360008872e+00	 6.160293359720556e-01	 2.646797171669751e+00
 1.343716391958665e+00	 4.960569497101225e-01	 1.821546022862807e+00
 1.339040175369236e+00	 5.085445919601784e-01	 2.052890110723978e+00
 1.334238211304513e+00	 5.210130060165420e-01	 2.265052950992570e+00
 1.329310408446192e+00	 5.334603720372607e-01	 2.454845066198396e+00
 1.324256709248529e+00	 5.458848616519133e-01	 2.618913455216939e+00
 1.319077090293094e+00	 5.582846387154288e-01	 2.753746777502620e+00
 1.313771562624141e+00	 5.706578600759569e-01	 2.855680808405654e+00
 1.308340172064038e+00	 5.830026763562437e-01	 2.920904138823512e+00
 1.302782999508162e+00	 5.953172327479281e-01	 2.945464090261342e+00
 1.297100161198749e+00	 6.075996698181616e-01	 2.925272814345509e+00
 1.291291808977132e+00	 6.198481243279141e-01	 2.856113543970124e+00
 1.351994820668021e+00	 4.991130798001510e-01	 1.924425139200868e+00
 1.347289794632056e+00	 5.116776564812034e-01	 2.202866508285040e+00
 1.342458246410059e+00	 5.242228865066122e-01	 2.451111956730862e+00
 1.337500084121130e+00	 5.367469388226648e-01	 2.666926089783705e+00
 1.332415249865001e+00	 5.492479737946389e-01	 2.847947378116492e+00
 1.327203720078967e+00	 5.617241439652626e-01	 2.991692547426145e+00
 1.321865505875329e+00	 5.741735948273180e-01	 3.095561183173029e+00
 1.316400653358761e+00	 5.865944656098289e-01	 3.156840523082904e+00
 1.310809243923032e+00	 5.989848900772532e-01	 3.172710407883818e+00
 1.305091394526529e+00	 6.113429973410692e-01	 3.140248358756291e+00
 1.299247257946061e+00	 6.236669126831257e-01	 3.056434748153751e+00
 1.219692768266804e+00	 5.854790291238445e-01	 1.254202713650902e+00
 1.214089060667263e+00	 5.970125171593550e-01	 1.049501966987419e+00
 1.208367226446505e+00	 6.085103911828973e-01	 8.905173197297929e-01
 1.202527510139158e+00	 6.199708854837129e-01	 7.770648590682605e-01
 1.196570190626451e+00	 6.313922339239018e-01	 7.085766132698884e-01
 1.190495581266530e+00	 6.427726707565107e-01	 6.840965873393502e-01
 1.184304030001858e+00	 6.541104314506720e-01	 7.022770432963821e-01
 1.177995919443366e+00	 6.654037535230667e-01	 7.613750175323558e-01
 1.171571666931022e+00	 6.766508773749481e-01	 8.592490675823865e-01
 1.165031724570545e+00	 6.878500471339707e-01	 9.933562406815105e-01
 1.158376579246009e+00	 6.989995115000320e-01	 1.160749256667664e+00
 1.227648217235732e+00	 5.892978174782922e-01	 1.351030880193042e+00
 1.222007959440318e+00	 6.009065327169382e-01	 1.179145412784628e+00
 1.216248804542540e+00	 6.124794016511175e-01	 1.040942583866640e+00
 1.210370998671997e+00	 6.240146470532215e-01	 9.379926134549563e-01
 1.204374822528908e+00	 6.355104912657149e-01	 8.715294923559633e-01
 1.198260591515288e+00	 6.469651570245579e-01	 8.424450395608792e-01
 1.192028655843047e+00	 6.583768682897299e-01	 8.512831116677513e-01
 1.185679400618684e+00	 6.697438510821117e-01	 8.982339579397590e-01
 1.179213245904258e+00	 6.810643343259736e-01	 9.831287146793166e-01
 1.172630646754338e+00	 6.923365506962912e-01	 1.105434032833761e+00
 1.165932093228688e+00	 7.035587374701054e-01	 1.264246833151798e+00
 1.235603666203993e+00	 5.931166058335577e-01	 1.481080000524663e+00
 1.229926858212748e+00	 6.048005482753342e-01	 1.336489170975358e+00
 1.224130382638001e+00	 6.164484121201466e-01	 1.214875391783139e+00
 1.218214487204311e+00	 6.280584086235363e-01	 1.119266099267640e+00
 1.212179454430893e+00	 6.396287486083320e-01	 1.052402485694794e+00
 1.206025601763627e+00	 6.511576432934074e-01	 1.016732007746990e+00
 1.199753281683865e+00	 6.626433051295887e-01	 1.014400955596550e+00
 1.193362881793672e+00	 6.740839486419573e-01	 1.047247076604938e+00
 1.186854824877197e+00	 6.854777912777997e-01	 1.116792247927645e+00
 1.180229568937855e+00	 6.968230542594114e-01	 1.224235192735004e+00
 1.173487607211099e+00	 7.081179634409790e-01	 1.370444235364572e+00
 1.243559115171751e+00	 5.969353941894570e-01	 1.638601220625575e+00
 1.237845756984708e+00	 6.086945638343547e-01	 1.515860823097355e+00
 1.232011960733027e+00	 6.204174225897930e-01	 1.406777968213411e+00
 1.226057975736233e+00	 6.321021701944629e-01	 1.315546201140543e+00
 1.219984086332526e+00	 6.437470059515563e-01	 1.246124946381799e+00
 1.213790612011652e+00	 6.553501295628618e-01	 1.202230892387611e+00
 1.207477907524403e+00	 6.669097419700498e-01	 1.187329346487605e+00
 1.201046362968413e+00	 6.784240462024042e-01	 1.204625553852063e+00
 1.194496403849912e+00	 6.898912482302257e-01	 1.257055974624580e+00
 1.187828491121165e+00	 7.013095578231323e-01	 1.347279513982034e+00
 1.181043121193310e+00	 7.126771894124521e-01	 1.477668700678952e+00
 1.251514564139175e+00	 6.007541825458070e-01	 1.817987362003912e+00
 1.245764655756356e+00	 6.125885793938126e-01	 1.711728117377501e+00
 1.239893538827766e+00	 6.243864330598659e-01	 1.611249699092098e+00
 1.233901464267892e+00	 6.361459317658068e-01	 1.521626310432127e+00
 1.227788718233922e+00	 6.478652632951917e-01	 1.447752278898936e+00
 1.221555622259467e+00	 6.595426158327222e-01	 1.394332737880239e+00
 1.215202533364756e+00	 6.711761788109144e-01	 1.365874189478161e+00
 1.208729844142988e+00	 6.827641437632522e-01	 1.366674941167726e+00
 1.202137982822479e+00	 6.943047051830522e-01	 1.400815409553793e+00
 1.195427413304337e+00	 7.057960613872530e-01	 1.472148285284947e+00
 1.188598635175388e+00	 7.172364153843258e-01	 1.584288554170569e+00
 1.259470013106432e+00	 6.045729709024250e-01	 2.013769282875995e+00
 1.253683554527847e+00	 6.164825949535203e-01	 1.918695427180952e+00
 1.247775116922360e+00	 6.283554435301736e-01	 1.823023734081339e+00
 1.241744952799420e+00	 6.401896933373744e-01	 1.732429123301326e+00
 1.235593350135202e+00	 6.519835206390420e-01	 1.652462988859071e+00
 1.229320632507176e+00	 6.637351021027911e-01	 1.588543594690795e+00
 1.222927159205015e+00	 6.754426156519830e-01	 1.545946263370997e+00
 1.216413325317481e+00	 6.871042413243023e-01	 1.529793348843544e+00
 1.209779561794972e+00	 6.987181621360791e-01	 1.545043984827402e+00
 1.203026335487441e+00	 7.102825649515739e-01	 1.596483601517276e+00
 1.196154149157399e+00	 7.217956413563996e-01	 1.688713204367430e+00
 1.267425462073689e+00	 6.083917592591278e-01	 2.220612410455681e+00
 1.261602453299338e+00	 6.203766105132895e-01	 2.131500378007186e+00
 1.255656695016955e+00	 6.323244540005248e-01	 2.036963753311998e+00
 1.249588441330948e+00	 6.442334549089713e-01	 1.943003596717062e+00
 1.243397982036480e+00	 6.561017779829106e-01	 1.855555882277837e+00
 1.237085642754886e+00	 6.679275883728708e-01	 1.780482020334982e+00
 1.230651785045276e+00	 6.797090524930577e-01	 1.723559086204279e+00
 1.224096806491974e+00	 6.914443388853547e-01	 1.690469743421022e+00
 1.217421140767466e+00	 7.031316190891076e-01	 1.686791850870965e+00
 1.210625257670545e+00	 7.147690685158951e-01	 1.717987744253656e+00
 1.203709663139410e+00	 7.263548673284732e-01	 1.789393183664497e+00
 1.275380911041114e+00	 6.122105476157323e-01	 2.433313436880128e+00
 1.269521352070985e+00	 6.242706260729334e-01	 2.345010635671990e+00
 1.263538273111693e+00	 6.362934644707280e-01	 2.248060891167011e+00
 1.257431929862607e+00	 6.482772164804029e-01	 2.148522055503295e+00
 1.251202613937877e+00	 6.602200353266016e-01	 2.052447407842195e+00
 1.244850653002701e+00	 6.721200746427631e-01	 1.965876713116797e+00
 1.238376410885629e+00	 6.839754893339386e-01	 1.894826900970719e+00
 1.231780287666549e+00	 6.957844364462097e-01	 1.845282350142198e+00
 1.225062719740032e+00	 7.075450760419362e-01	 1.823184764569864e+00
 1.218224179853717e+00	 7.192555720800158e-01	 1.834422628758787e+00
 1.211265177121488e+00	 7.309140933003470e-01	 1.884820231450691e+00
 1.283336360008872e+00	 6.160293359720556e-01	 2.646797171669751e+00
 1.277440250842946e+00	 6.281646416322637e-01	 2.554220848679429e+00
 1.271419851206720e+00	 6.402624749405923e-01	 2.451430810290588e+00
 1.265275418394528e+00	 6.523209780514754e-01	 2.344277443863728e+00
 1.259007245839510e+00	 6.643382926699181e-01	 2.238669135968660e+00
 1.252615663250726e+00	 6.763125609122710e-01	 2.140564272861419e+00
 1.246101036726167e+00	 6.882419261744271e-01	 2.055962776269949e+00
 1.239463768841290e+00	 7.001245340066681e-01	 1.990897155847258e+00
 1.232704298712748e+00	 7.119585329943660e-01	 1.951423060792574e+00
 1.225823102037028e+00	 7.237420756437369e-01	 1.943609314541830e+00
 1.218820691103700e+00	 7.354733192718207e-01	 1.973527418092513e+00
 1.291291808977132e+00	 6.198481243279141e-01	 2.856113543970124e+00
 1.285359149615375e+00	 6.320586571910932e-01	 2.754249738132165e+00
 1.279301429302179e+00	 6.442314854099265e-01	 2.642310919342789e+00
 1.273118906926843e+00	 6.563647396219948e-01	 2.525680715153584e+00
 1.266811877741495e+00	 6.684565500126637e-01	 2.409865368749907e+00
 1.260380673499065e+00	 6.805050471811952e-01	 2.300487083163522e+00
 1.253825662566985e+00	 6.925083630143244e-01	 2.203276816935443e+00
 1.247147250016277e+00	 7.044646315665298e-01	 2.124066507985125e+00
 1.240345877685687e+00	 7.163719899461964e-01	 2.068780703692719e+00
 1.233422024220544e+00	 7.282285792068580e-01	 2.043427576732560e+00
 1.226376205086111e+00	 7.400325452426939e-01	 2.054089308009861e+00
 1.299247257946061e+00	 6.236669126831257e-01	 3.056434748153751e+00
 1.293278048388431e+00	 6.359526727492338e-01	 2.940337328854690e+00
 1.287183007398215e+00	 6.482004958785387e-01	 2.816057728336197e+00
 1.280962395459681e+00	 6.604085011917664e-01	 2.688258353970588e+00
 1.274616509643952e+00	 6.725748073546428e-01	 2.561790875177538e+00
 1.268145683747824e+00	 6.846975334493388e-01	 2.441691309940437e+00
 1.261550288408174e+00	 6.967747998534314e-01	 2.333174479920022e+00
 1.254830731191596e+00	 7.088047291255957e-01	 2.241627805614934e+00
 1.247987456658923e+00	 7.207854468972283e-01	 2.172604414368123e+00
 1.241020946404337e+00	 7.327150827691791e-01	 2.131815535669791e+00
 1.233931719068790e+00	 7.445917712127675e-01	 2.124507237557765e+00
 1.158376579246009e+00	 6.989995115000320e-01	 1.160749256667664e+00
 1.151606752887915e+00	 7.100975248155994e-01	 1.347011181783432e+00
 1.144722803271552e+00	 7.211423485946773e-01	 1.536827721824265e+00
 1.137725323107168e+00	 7.321322517356784e-01	 1.725607328236531e+00
 1.130614939671369e+00	 7.430655111565818e-01	 1.908482063017699e+00
 1.123392314694512e+00	 7.539404126477526e-01	 2.072574460425978e+00
 1.116058144223075e+00	 7.647552517237869e-01	 2.209176338344576e+00
 1.108613158456955e+00	 7.755083344735211e-01	 2.313336615432565e+00
 1.101058121561683e+00	 7.861979784073621e-01	 2.380512076071534e+00
 1.093393831455592e+00	 7.968225133010768e-01	 2.406061513758510e+00
 1.085621119571988e+00	 8.073802820351770e-01	 2.385274959606758e+00
 1.165932093228688e+00	 7.035587374701054e-01	 1.264246833151798e+00
 1.159118110662097e+00	 7.147291376038305e-01	 1.449947516367794e+00
 1.152189260467951e+00	 7.258460012721898e-01	 1.648736700765145e+00
 1.145146139222464e+00	 7.369075860824796e-01	 1.853158831386065e+00
 1.137989378293664e+00	 7.479121577138692e-01	 2.053105235905441e+00
 1.130719643728060e+00	 7.588579907757849e-01	 2.231942271264075e+00
 1.123337636112105e+00	 7.697433696653098e-01	 2.381035212774994e+00
 1.115844090408439e+00	 7.805665894227380e-01	 2.492482804847469e+00
 1.108239775766874e+00	 7.913259565844316e-01	 2.558447967975730e+00
 1.100525495310181e+00	 8.020197900321118e-01	 2.571602686047926e+00
 1.092702085894701e+00	 8.126464218377238e-01	 2.524442214570055e+00
 1.173487607211099e+00	 7.081179634409790e-01	 1.370444235364571e+00
 1.166629468436006e+00	 7.193607503928615e-01	 1.550226916818743e+00
 1.159655717664057e+00	 7.305496539505018e-01	 1.751493143054580e+00
 1.152566955337439e+00	 7.416829204300776e-01	 1.964453483562748e+00
 1.145363816915610e+00	 7.527588042719483e-01	 2.172133863433340e+00
 1.138046972761229e+00	 7.637755689046011e-01	 2.359240151216238e+00
 1.130617128000730e+00	 7.747314876076042e-01	 2.515511218585259e+00
 1.123075022359500e+00	 7.856248443727101e-01	 2.630690138869096e+00
 1.115421429971638e+00	 7.964539347622329e-01	 2.694539565893886e+00
 1.107657159164353e+00	 8.072170667638509e-01	 2.696930563175629e+00
 1.099783052217030e+00	 8.179125616409383e-01	 2.628332112389228e+00
 1.181043121193310e+00	 7.126771894124521e-01	 1.477668700678952e+00
 1.174140826209707e+00	 7.239923631824924e-01	 1.647014168239123e+00
 1.167122174859945e+00	 7.352533066294128e-01	 1.845044698333433e+00
 1.159987771452176e+00	 7.464582547782729e-01	 2.058669634876914e+00
 1.152738255537295e+00	 7.576054508306215e-01	 2.266955940104473e+00
 1.145374301794115e+00	 7.686931470340049e-01	 2.456434151317298e+00
 1.137896619889056e+00	 7.797196055504780e-01	 2.615051296685035e+00
 1.130305954310250e+00	 7.906830993232478e-01	 2.730751058743578e+00
 1.122603084176091e+00	 8.015819129405842e-01	 2.791491825440101e+00
 1.114788823018229e+00	 8.124143434961176e-01	 2.785265194602196e+00
 1.106864018539093e+00	 8.231787014446537e-01	 2.700236580462221e+00
 1.188598635175388e+00	 7.172364153843258e-01	 1.584288554170569e+00
 1.181652183983273e+00	 7.286239759725235e-01	 1.739493915009790e+00
 1.174588632055685e+00	 7.399569593087233e-01	 1.929338978306829e+00
 1.167408587566755e+00	 7.512335891268664e-01	 2.135808672565325e+00
 1.160112694158807e+00	 7.624520973896903e-01	 2.338945723742931e+00
 1.152701630826816e+00	 7.736107251638005e-01	 2.525461824219766e+00
 1.145176111777187e+00	 7.847077234937369e-01	 2.682061614997653e+00
 1.137536886260803e+00	 7.957413542741626e-01	 2.795435263559698e+00
 1.129784738380351e+00	 8.067098911193008e-01	 2.852278420629693e+00
 1.121920486871926e+00	 8.176116202287359e-01	 2.839312673795458e+00
 1.113944984861004e+00	 8.284448412487024e-01	 2.743306468729442e+00
 1.196154149157399e+00	 7.217956413563996e-01	 1.688713204367430e+00
 1.189163541756770e+00	 7.332555887627544e-01	 1.826871365407855e+00
 1.182055089251353e+00	 7.446606119882333e-01	 2.003590622854635e+00
 1.174829403681256e+00	 7.560089234756590e-01	 2.196600309482562e+00
 1.167487132780236e+00	 7.672987439489568e-01	 2.389464006523765e+00
 1.160028959859431e+00	 7.785283032937919e-01	 2.568232941642605e+00
 1.152455603665230e+00	 7.896958414371891e-01	 2.718908655297266e+00
 1.144767818211272e+00	 8.007996092252666e-01	 2.827463536108668e+00
 1.136966392584535e+00	 8.118378692982010e-01	 2.879861924847349e+00
 1.129052150725564e+00	 8.228088969615299e-01	 2.862081759855877e+00
 1.121025951182882e+00	 8.337109810529183e-01	 2.760136733240468e+00
 1.203709663139410e+00	 7.263548673284732e-01	 1.789393183664497e+00
 1.196674899530268e+00	 7.378872015529856e-01	 1.908373015132364e+00
 1.189521546447022e+00	 7.493642646677441e-01	 2.066490021770285e+00
 1.182250219795759e+00	 7.607842578244517e-01	 2.241776980923405e+00
 1.174861571401671e+00	 7.721453905082239e-01	 2.419858338673825e+00
 1.167356288892055e+00	 7.834458814237835e-01	 2.586630147204641e+00
 1.159735095553291e+00	 7.946839593806407e-01	 2.727920221076137e+00
 1.151998750161769e+00	 8.058578641763703e-01	 2.829509023435989e+00
 1.144148046788762e+00	 8.169658474771009e-01	 2.877151166537816e+00
 1.136183814579263e+00	 8.280061736943243e-01	 2.856597499426853e+00
 1.128106917504843e+00	 8.389771208571345e-01	 2.753617751986162e+00
 1.211265177121488e+00	 7.309140933003470e-01	 1.884820231450691e+00
 1.204186257303834e+00	 7.425188143430166e-01	 1.983101563399525e+00
 1.196988003642765e+00	 7.540679173470547e-01	 2.118077229003238e+00
 1.189671035910344e+00	 7.655595921730454e-01	 2.272073547130586e+00
 1.182236010023199e+00	 7.769920370672927e-01	 2.431463206909643e+00
 1.174683617924788e+00	 7.883634595535789e-01	 2.582509547463582e+00
 1.167014587441475e+00	 7.996720773239000e-01	 2.711386369889657e+00
 1.159229682112407e+00	 8.109161191272857e-01	 2.804198431256666e+00
 1.151329700993149e+00	 8.220938256558181e-01	 2.847002598546028e+00
 1.143315478433141e+00	 8.332034504269424e-01	 2.825829636680735e+00
 1.135187883827004e+00	 8.442432606611832e-01	 2.726706600944742e+00
 1.218820691103700e+00	 7.354733192718207e-01	 1.973527418092513e+00
 1.211697615077536e+00	 7.471504271326477e-01	 2.048957395748353e+00
 1.204454460838656e+00	 7.587715700259655e-01	 2.158437998777306e+00
 1.197091852025092e+00	 7.703349265212405e-01	 2.288226970702295e+00
 1.189610448644911e+00	 7.818386836259658e-01	 2.425600169576047e+00
 1.182010946957726e+00	 7.932810376829830e-01	 2.557701243841626e+00
 1.174294079329890e+00	 8.046601952667729e-01	 2.671560273455990e+00
 1.166460614063299e+00	 8.159743740778236e-01	 2.754113135971064e+00
 1.158511355197814e+00	 8.272218038341690e-01	 2.792221578177162e+00
 1.150447142287318e+00	 8.384007271592092e-01	 2.772693969973266e+00
 1.142268850149480e+00	 8.495094004648984e-01	 2.682306713115984e+00
 1.226376205086111e+00	 7.400325452426939e-01	 2.054089308009861e+00
 1.219208972851445e+00	 7.517820399216786e-01	 2.104993486169744e+00
 1.211920918034766e+00	 7.634752227042773e-01	 2.187676091337221e+00
 1.204512668140084e+00	 7.751102608688384e-01	 2.290975969981607e+00
 1.196984887266893e+00	 7.866853301840449e-01	 2.403577950352668e+00
 1.189338275990966e+00	 7.981986158117989e-01	 2.514009807986779e+00
 1.181573571218639e+00	 8.096483132090674e-01	 2.610659008625490e+00
 1.173691546014558e+00	 8.210326290277947e-01	 2.681790217834677e+00
 1.165693009402874e+00	 8.323497820119703e-01	 2.715563561826751e+00
 1.157578806141913e+00	 8.435980038909480e-01	 2.700053619896791e+00
 1.149349816472390e+00	 8.547755402681128e-01	 2.623269124704354e+00
 1.233931719068790e+00	 7.445917712127675e-01	 2.124507237557766e+00
 1.226720330625627e+00	 7.564136527099095e-01	 2.150657223145776e+00
 1.219387375231171e+00	 7.681788753817900e-01	 2.205912430350894e+00
 1.211933484255399e+00	 7.798855952156397e-01	 2.281060649457141e+00
 1.204359325889236e+00	 7.915319767413326e-01	 2.366692492303810e+00
 1.196665605024608e+00	 8.031161939398310e-01	 2.453214702993985e+00
 1.188853063107831e+00	 8.146364311505905e-01	 2.530864282182810e+00
 1.180922477966298e+00	 8.260908839770120e-01	 2.589723418660828e+00
 1.172874663608447e+00	 8.374777601890396e-01	 2.619735217841814e+00
 1.164710469997046e+00	 8.487952806219833e-01	 2.610720212529482e+00
 1.156430782795849e+00	 8.600416800706597e-01	 2.552393636996787e+00
 1.085621119571988e+00	 8.073802820351770e-01	 2.385274959606758e+00
 1.077739502516610e+00	 8.178714178229555e-01	 2.333515832871726e+00
 1.069751194356563e+00	 8.282924857813846e-01	 2.273070349532237e+00
 1.061657130349154e+00	 8.386418662541383e-01	 2.209879558501486e+00
 1.053458278111545e+00	 8.489179559697088e-01	 2.150236331598206e+00
 1.045155637258033e+00	 8.591191688497392e-01	 2.100784136799265e+00
 1.036750239013331e+00	 8.692439368078929e-01	 2.068515381124225e+00
 1.028243145802149e+00	 8.792907105384193e-01	 2.060769297449813e+00
 1.019635450815409e+00	 8.892579602936008e-01	 2.085229350043093e+00
 1.010928277553431e+00	 8.991441766492650e-01	 2.149920134288283e+00
 1.002122779346504e+00	 9.089478712575699e-01	 2.263203746962939e+00
 1.092702085894701e+00	 8.126464218377238e-01	 2.524442214570055e+00
 1.084769060973243e+00	 8.232059860834416e-01	 2.432979719105198e+00
 1.076728649054170e+00	 8.336950254822073e-01	 2.324645392961243e+00
 1.068581791495002e+00	 8.441119098134868e-01	 2.209216701719543e+00
 1.060329462224184e+00	 8.544550253484324e-01	 2.096825527997187e+00
 1.051972667375996e+00	 8.647227756634913e-01	 1.997951685264581e+00
 1.043512444901313e+00	 8.749135824444839e-01	 1.923415983068432e+00
 1.034949864154511e+00	 8.850258862803126e-01	 1.884372825524960e+00
 1.026286025456847e+00	 8.950581474454797e-01	 1.892302325491016e+00
 1.017522059636673e+00	 9.050088466705939e-01	 1.959001917546492e+00
 1.008659127546873e+00	 9.148764859000650e-01	 2.096577453828378e+00
 1.099783052217030e+00	 8.179125616409383e-01	 2.628332112389228e+00
 1.091798619429549e+00	 8.285405543445518e-01	 2.505567317574418e+00
 1.083706103751525e+00	 8.390975651836055e-01	 2.360323359629417e+00
 1.075506452640689e+00	 8.495819533733578e-01	 2.205340485054547e+00
 1.067200646336763e+00	 8.599920947276259e-01	 2.053701170783177e+00
 1.058789697494005e+00	 8.703263824776633e-01	 1.918819530346460e+00
 1.050274650789446e+00	 8.805832280814486e-01	 1.814430277531182e+00
 1.041656582507124e+00	 8.907610620225399e-01	 1.754577235122408e+00
 1.032936600098626e+00	 9.008583345976631e-01	 1.753601376864165e+00
 1.024115841720328e+00	 9.108735166922100e-01	 1.826128391486645e+00
 1.015195475747708e+00	 9.208051005428431e-01	 1.987055758537413e+00
 1.106864018539093e+00	 8.231787014446537e-01	 2.700236580462221e+00
 1.098828177885637e+00	 8.338751226061306e-01	 2.554364051551988e+00
 1.090683558448726e+00	 8.445001048854348e-01	 2.382757331135479e+00
 1.082431113786299e+00	 8.550519969336218e-01	 2.200262216454759e+00
 1.074071830449349e+00	 8.655291641071742e-01	 2.022039953987105e+00
 1.065606727612108e+00	 8.759299892921527e-01	 1.863553677585667e+00
 1.057036856677760e+00	 8.862528737186978e-01	 1.740554434283397e+00
 1.048363300859998e+00	 8.964962377650252e-01	 1.669066789254389e+00
 1.039587174740738e+00	 9.066585217500860e-01	 1.665374001913240e+00
 1.030709623804376e+00	 9.167381867140567e-01	 1.746002765789278e+00
 1.021731823948975e+00	 9.267337151858555e-01	 1.927707505638921e+00
 1.113944984861004e+00	 8.284448412487024e-01	 2.743306468729442e+00
 1.105857736341615e+00	 8.392096908680210e-01	 2.582376052972661e+00
 1.097661013145873e+00	 8.499026445875523e-01	 2.394532625233990e+00
 1.089355774931916e+00	 8.605220404941488e-01	 2.195942291045480e+00
 1.080943014562009e+00	 8.710662334869599e-01	 2.002989408637306e+00
 1.072423757730353e+00	 8.815335961068571e-01	 1.832317188995811e+00
 1.063799062566284e+00	 8.919225193561429e-01	 1.700811935467527e+00
 1.055070019213145e+00	 9.022314135076923e-01	 1.625586918640028e+00
 1.046237749383177e+00	 9.124587089026823e-01	 1.623965880465008e+00
 1.037303405888794e+00	 9.226028567360767e-01	 1.713466162137608e+00
 1.028268172150642e+00	 9.326623298290513e-01	 1.911781450965632e+00
 1.121025951182882e+00	 8.337109810529183e-01	 2.760136733240468e+00
 1.112887294797594e+00	 8.445442591300674e-01	 2.592509660569242e+00
 1.104638467843062e+00	 8.553051842898136e-01	 2.398169301087067e+00
 1.096280436077623e+00	 8.659920840548078e-01	 2.194292185019590e+00
 1.087814198674808e+00	 8.766033028668675e-01	 1.997669230172512e+00
 1.079240787848789e+00	 8.871372029216741e-01	 1.825270702373019e+00
 1.070561268455048e+00	 8.975921649936949e-01	 1.694253158798406e+00
 1.061776737566577e+00	 9.079665892504643e-01	 1.621942754531901e+00
 1.052888324025938e+00	 9.182588960553872e-01	 1.625818256458248e+00
 1.043897187973562e+00	 9.284675267582144e-01	 1.723493758994247e+00
 1.034804520352675e+00	 9.385909444723801e-01	 1.932701096718473e+00
 1.128106917504843e+00	 8.389771208571345e-01	 2.753617751986163e+00
 1.119916853253684e+00	 8.498788273921142e-01	 2.587114311353785e+00
 1.111615922540391e+00	 8.607077239920758e-01	 2.396122591078133e+00
 1.103205097223503e+00	 8.714621276154693e-01	 2.197176388142461e+00
 1.094685382787814e+00	 8.821403722467804e-01	 2.007172569870295e+00
 1.086057817967464e+00	 8.927408097365023e-01	 1.842572945347543e+00
 1.077323474344080e+00	 9.032618106312649e-01	 1.719954991044495e+00
 1.068483455920302e+00	 9.137017649932652e-01	 1.655997731655323e+00
 1.059538898669014e+00	 9.240590832081345e-01	 1.667465433696435e+00
 1.050490970058658e+00	 9.343321967804127e-01	 1.771191096944392e+00
 1.041340868555041e+00	 9.445195591157927e-01	 1.984059736683645e+00
 1.135187883827004e+00	 8.442432606611832e-01	 2.726706600944742e+00
 1.126946411709993e+00	 8.552133956540047e-01	 2.568761689194225e+00
 1.118593377237960e+00	 8.661102636941952e-01	 2.390366032969657e+00
 1.110129758369640e+00	 8.769321711760028e-01	 2.206414277552564e+00
 1.101556566901094e+00	 8.876774416265821e-01	 2.032567291863051e+00
 1.092874848086427e+00	 8.983444165512375e-01	 1.884381244407857e+00
 1.084085680233411e+00	 9.089314562687643e-01	 1.777020470468389e+00
 1.075190174274334e+00	 9.194369407360174e-01	 1.725672258199993e+00
 1.066189473312398e+00	 9.298592703608585e-01	 1.745532380352820e+00
 1.057084752144061e+00	 9.401968668026147e-01	 1.851790537595536e+00
 1.047877216757708e+00	 9.504481737592384e-01	 2.059615702408290e+00
 1.142268850149480e+00	 8.495094004648984e-01	 2.682306713115984e+00
 1.133975970166631e+00	 8.605479639155836e-01	 2.540174077350147e+00
 1.125570831935865e+00	 8.715128033960280e-01	 2.382923407023369e+00
 1.117054419516118e+00	 8.824022147362781e-01	 2.223506291202263e+00
 1.108427751014714e+00	 8.932145110061565e-01	 2.074897197235838e+00
 1.099691878205725e+00	 9.039480233657788e-01	 1.950852029116449e+00
 1.090847886123069e+00	 9.146011019061032e-01	 1.864578456970999e+00
 1.081896892628682e+00	 9.251721164786458e-01	 1.828942449955472e+00
 1.072840047956085e+00	 9.356594575134944e-01	 1.856732437509915e+00
 1.063678534229750e+00	 9.460615368247648e-01	 1.960647869371467e+00
 1.054413564960641e+00	 9.563767884026672e-01	 2.153287801615683e+00
 1.149349816472390e+00	 8.547755402681128e-01	 2.623269124704354e+00
 1.141005528623706e+00	 8.658825321766943e-01	 2.504025835409983e+00
 1.132548286634205e+00	 8.769153430974306e-01	 2.376098330197205e+00
 1.123979080663019e+00	 8.878722582961649e-01	 2.249736682153589e+00
 1.115298935128740e+00	 8.987515803853878e-01	 2.135045275825205e+00
 1.106508908325406e+00	 9.095516301800235e-01	 2.042141331725587e+00
 1.097610092013084e+00	 9.202707475431937e-01	 1.981783328745665e+00
 1.088603610983357e+00	 9.309072922210734e-01	 1.963838925825215e+00
 1.079490622600068e+00	 9.414596446659764e-01	 1.997865127247887e+00
 1.070272316315703e+00	 9.519262068468061e-01	 2.093239053866780e+00
 1.060949913163808e+00	 9.623054030460286e-01	 2.259150940570515e+00
 1.156430782795849e+00	 8.600416800706597e-01	 2.552393636996787e+00
 1.148035087081331e+00	 8.712171004371816e-01	 2.462944413351309e+00
 1.139525741333079e+00	 8.823178827982596e-01	 2.372156623778960e+00
 1.130903741810428e+00	 8.933423018555334e-01	 2.286826694480525e+00
 1.122170119243239e+00	 9.042886497641590e-01	 2.213480303859693e+00
 1.113325938445521e+00	 9.151552369938694e-01	 2.158366651703223e+00
 1.104372297903486e+00	 9.259403931799466e-01	 2.127814704306998e+00
 1.095310329338370e+00	 9.366424679632234e-01	 2.128445662089576e+00
 1.086141197244342e+00	 9.472598318182393e-01	 2.165814056016156e+00
 1.076866098401900e+00	 9.577908768686814e-01	 2.245157106738427e+00
 1.067486261367175e+00	 9.682340176892731e-01	 2.371431922511116e+00
 1.002122779346504e+00	 9.089478712575699e-01	 2.263203746962939e+00
 9.932216576821324e-01	 9.186659352771679e-01	 2.411444840764557e+00
 9.842246217519234e-01	 9.282986121537109e-01	 2.571655878819072e+00
 9.751328947901475e-01	 9.378444977148536e-01	 2.737980887742381e+00
 9.659477277073155e-01	 9.473022117165263e-01	 2.904081892116639e+00
 9.566703985125847e-01	 9.566703985125846e-01	 3.063151599227198e+00
 9.473022117165264e-01	 9.659477277073159e-01	 3.207926595870637e+00
 9.378444977148535e-01	 9.751328947901475e-01	 3.330701012980501e+00
 9.282986121537108e-01	 9.842246217519237e-01	 3.423340613801612e+00
 9.186659352771674e-01	 9.932216576821324e-01	 3.477297261541799e+00
 9.089478712575698e-01	 1.002122779346504e+00	 3.483623722835476e+00
 1.008659127546873e+00	 9.148764859000650e-01	 2.096577453828378e+00
 9.996999482954076e-01	 9.246579360151217e-01	 2.286552135298728e+00
 9.906442291770862e-01	 9.343534420492922e-01	 2.496174574548879e+00
 9.814932014047273e-01	 9.439615906715130e-01	 2.715858737083208e+00
 9.722481240479092e-01	 9.534809926350680e-01	 2.935478927196593e+00
 9.629102834516077e-01	 9.629102834516078e-01	 3.144388047943836e+00
 9.534809926350680e-01	 9.722481240479094e-01	 3.331436445490724e+00
 9.439615906715128e-01	 9.814932014047274e-01	 3.484991283228165e+00
 9.343534420492920e-01	 9.906442291770864e-01	 3.592956390923576e+00
 9.246579360151211e-01	 9.996999482954079e-01	 3.642792534319364e+00
 9.148764859000647e-01	 1.008659127546873e+00	 3.621538050961249e+00
 1.015195475747708e+00	 9.208051005428431e-01	 1.987055758537413e+00
 1.006178238909177e+00	 9.306499367533715e-01	 2.212451058395935e+00
 9.970638366027488e-01	 9.404082719451956e-01	 2.460513183644778e+00
 9.878535080197955e-01	 9.500786836285274e-01	 2.718995105604777e+00
 9.785485203889676e-01	 9.596597735540032e-01	 2.975093700731278e+00
 9.691501683910624e-01	 9.691501683910624e-01	 3.215472088411718e+00
 9.596597735540031e-01	 9.785485203889677e-01	 3.426282567304701e+00
 9.500786836285269e-01	 9.878535080197955e-01	 3.593190087771355e+00
 9.404082719451952e-01	 9.970638366027489e-01	 3.701396197865651e+00
 9.306499367533715e-01	 1.006178238909177e+00	 3.735663400532308e+00
 9.208051005428434e-01	 1.015195475747708e+00	 3.680339860103024e+00
 1.021731823948975e+00	 9.267337151858555e-01	 1.927707505638921e+00
 1.012656529523399e+00	 9.366419374918723e-01	 2.180895247699485e+00
 1.003483444028865e+00	 9.464631018413752e-01	 2.455812719891700e+00
 9.942138146353041e-01	 9.561957765858524e-01	 2.738600222357821e+00
 9.848489167304412e-01	 9.658385544732850e-01	 3.014866229368542e+00
 9.753900533308997e-01	 9.753900533308998e-01	 3.269712324373833e+00
 9.658385544732850e-01	 9.848489167304412e-01	 3.487758690156272e+00
 9.561957765858522e-01	 9.942138146353041e-01	 3.653170086316390e+00
 9.464631018413751e-01	 1.003483444028866e+00	 3.749682246372397e+00
 9.366419374918719e-01	 1.012656529523399e+00	 3.760628627092682e+00
 9.267337151858556e-01	 1.021731823948975e+00	 3.668967443291807e+00
 1.028268172150642e+00	 9.326623298290513e-01	 1.911781450965632e+00
 1.019134820138031e+00	 9.426339382305761e-01	 2.183852112697221e+00
 1.009903051455389e+00	 9.525179317377864e-01	 2.473443939201099e+00
 1.000574121251205e+00	 9.623128695434424e-01	 2.766112663643038e+00
 9.911493130722817e-01	 9.720173353928681e-01	 3.046946655504178e+00
 9.816299382710727e-01	 9.816299382710726e-01	 3.300592988722518e+00
 9.720173353928683e-01	 9.911493130722820e-01	 3.511283964436224e+00
 9.623128695434424e-01	 1.000574121251205e+00	 3.662864017721907e+00
 9.525179317377862e-01	 1.009903051455389e+00	 3.738816938023903e+00
 9.426339382305754e-01	 1.019134820138031e+00	 3.722293333567457e+00
 9.326623298290513e-01	 1.028268172150642e+00	 3.596138270931513e+00
 1.034804520352675e+00	 9.385909444723801e-01	 1.932701096718473e+00
 1.025613110753034e+00	 9.486259389694366e-01	 2.213496616336093e+00
 1.016322658882274e+00	 9.585727616343844e-01	 2.505000631907162e+00
 1.006934427867449e+00	 9.684299625012517e-01	 2.793192703505277e+00
 9.974497094144402e-01	 9.781961163127045e-01	 3.063689186434279e+00
 9.878698232115333e-01	 9.878698232115332e-01	 3.301768984306164e+00
 9.781961163127043e-01	 9.974497094144402e-01	 3.492399599681604e+00
 9.684299625012516e-01	 1.006934427867449e+00	 3.620263411290943e+00
 9.585727616343842e-01	 1.016322658882275e+00	 3.669784107518547e+00
 9.486259389694363e-01	 1.025613110753034e+00	 3.625153206796914e+00
 9.385909444723801e-01	 1.034804520352675e+00	 3.470356596810325e+00
 1.041340868555041e+00	 9.445195591157927e-01	 1.984059736683645e+00
 1.032091401368364e+00	 9.546179397084080e-01	 2.262205306674097e+00
 1.022742266309475e+00	 9.646275915311237e-01	 2.542293183746170e+00
 1.013294734483988e+00	 9.745470554592351e-01	 2.811715930923735e+00
 1.003750105756869e+00	 9.843748972327480e-01	 3.057646278225258e+00
 9.941097081522333e-01	 9.941097081522332e-01	 3.267061128141322e+00
 9.843748972327480e-01	 1.003750105756869e+00	 3.426765645606430e+00
 9.745470554592351e-01	 1.013294734483988e+00	 3.523417363545571e+00
 9.646275915311233e-01	 1.022742266309476e+00	 3.543550236214158e+00
 9.546179397084076e-01	 1.032091401368365e+00	 3.473598573985631e+00
 9.445195591157927e-01	 1.041340868555041e+00	 3.299920794963370e+00
 1.047877216757708e+00	 9.504481737592384e-01	 2.059615702408290e+00
 1.038569691983982e+00	 9.606099404474433e-01	 2.322550587653267e+00
 1.029161873736945e+00	 9.706824214279591e-01	 2.577342393788566e+00
 1.019655041100774e+00	 9.806641484173471e-01	 2.813767122054387e+00
 1.010050502099517e+00	 9.905536781529529e-01	 3.021563053617513e+00
 1.000349593093125e+00	 1.000349593093125e+00	 3.190451590150274e+00
 9.905536781529527e-01	 1.010050502099517e+00	 3.310157910302745e+00
 9.806641484173469e-01	 1.019655041100774e+00	 3.370431377626181e+00
 9.706824214279587e-01	 1.029161873736945e+00	 3.361065637227544e+00
 9.606099404474431e-01	 1.038569691983983e+00	 3.271918340447009e+00
 9.504481737592383e-01	 1.047877216757708e+00	 3.092930439139889e+00
 1.054413564960641e+00	 9.563767884026672e-01	 2.153287801615684e+00
 1.045047982599846e+00	 9.666019411864963e-01	 2.387295218618565e+00
 1.035581481164638e+00	 9.767372513248455e-01	 2.602373538174782e+00
 1.026015347717758e+00	 9.867812413755426e-01	 2.791634356458271e+00
 1.016350898442337e+00	 9.967324590732713e-01	 2.948371943808374e+00
 1.006589478034160e+00	 1.006589478034160e+00	 3.066079517983988e+00
 9.967324590732715e-01	 1.016350898442337e+00	 3.138465009660704e+00
 9.867812413755424e-01	 1.026015347717758e+00	 3.159466262599131e+00
 9.767372513248452e-01	 1.035581481164638e+00	 3.123265613327714e+00
 9.666019411864960e-01	 1.045047982599847e+00	 3.024303797875661e+00
 9.563767884026670e-01	 1.054413564960641e+00	 2.857293136045648e+00
 1.060949913163808e+00	 9.623054030460286e-01	 2.259150940570515e+00
 1.051526273215915e+00	 9.725939419255205e-01	 2.449387032718918e+00
 1.042001088592507e+00	 9.827920812217376e-01	 2.609810669055556e+00
 1.032375654334891e+00	 9.928983343337757e-01	 2.737803366794799e+00
 1.022651294785281e+00	 1.002911239993658e+00	 2.831187544460671e+00
 1.012829362975292e+00	 1.012829362975292e+00	 2.888236839906713e+00
 1.002911239993658e+00	 1.022651294785281e+00	 2.907685542350231e+00
 9.928983343337756e-01	 1.032375654334891e+00	 2.888737090090526e+00
 9.827920812217376e-01	 1.042001088592508e+00	 2.831071588797486e+00
 9.725939419255204e-01	 1.051526273215915e+00	 2.734852308732695e+00
 9.623054030460286e-01	 1.060949913163808e+00	 2.600731122980352e+00
 1.067486261367175e+00	 9.682340176892731e-01	 2.371431922511116e+00
 1.058004563832146e+00	 9.785859426644694e-01	 2.501953864810075e+00
 1.048420696020508e+00	 9.888469111185910e-01	 2.592271138656718e+00
 1.038735960952127e+00	 9.990154272920019e-01	 2.644952111974500e+00
 1.028951691128298e+00	 1.009090020914066e+00	 2.663301676756037e+00
 1.019069247916471e+00	 1.019069247916471e+00	 2.651364238111474e+00
 1.009090020914065e+00	 1.028951691128298e+00	 2.613925384983642e+00
 9.990154272920018e-01	 1.038735960952127e+00	 2.556512205790224e+00
 9.888469111185908e-01	 1.048420696020508e+00	 2.485392216380534e+00
 9.785859426644695e-01	 1.058004563832147e+00	 2.407570872055191e+00
 9.682340176892732e-01	 1.067486261367175e+00	 2.330787639970064e+00
 9.089478712575698e-01	 1.002122779346504e+00	 3.483623722835476e+00
 8.991441766492652e-01	 1.010928277553431e+00	 3.444870389305025e+00
 8.892579602936015e-01	 1.019635450815408e+00	 3.372029683066561e+00
 8.792907105384193e-01	 1.028243145802148e+00	 3.268931810723221e+00
 8.692439368078930e-01	 1.036750239013330e+00	 3.139956863353769e+00
 8.591191688497395e-01	 1.045155637258033e+00	 2.990029299633940e+00
 8.489179559697093e-01	 1.053458278111545e+00	 2.824611334262436e+00
 8.386418662541389e-01	 1.061657130349154e+00	 2.649695236825628e+00
 8.282924857813851e-01	 1.069751194356563e+00	 2.471794550093062e+00
 8.178714178229560e-01	 1.077739502516610e+00	 2.297934240585064e+00
 8.073802820351771e-01	 1.085621119571988e+00	 2.135639798073533e+00
 9.148764859000647e-01	 1.008659127546873e+00	 3.621538050961249e+00
 9.050088466705943e-01	 1.017522059636672e+00	 3.537767000335219e+00
 8.950581474454802e-01	 1.026286025456847e+00	 3.413152260937535e+00
 8.850258862803128e-01	 1.034949864154510e+00	 3.254568137362178e+00
 8.749135824444843e-01	 1.043512444901312e+00	 3.069579112723131e+00
 8.647227756634916e-01	 1.051972667375995e+00	 2.866429421293260e+00
 8.544550253484329e-01	 1.060329462224184e+00	 2.654031335338788e+00
 8.441119098134873e-01	 1.068581791495002e+00	 2.441952179997608e+00
 8.336950254822076e-01	 1.076728649054170e+00	 2.240400094300764e+00
 8.232059860834420e-01	 1.084769060973243e+00	 2.060208560657211e+00
 8.126464218377240e-01	 1.092702085894701e+00	 1.912819729289173e+00
 9.208051005428434e-01	 1.015195475747708e+00	 3.680339860103024e+00
 9.108735166922103e-01	 1.024115841720328e+00	 3.551978099644386e+00
 9.008583345976640e-01	 1.032936600098625e+00	 3.383220686426375e+00
 8.907610620225402e-01	 1.041656582507123e+00	 3.182783778779290e+00
 8.805832280814487e-01	 1.050274650789446e+00	 2.960150426011508e+00
 8.703263824776638e-01	 1.058789697494004e+00	 2.725557199652271e+00
 8.599920947276266e-01	 1.067200646336762e+00	 2.489979427238140e+00
 8.495819533733584e-01	 1.075506452640689e+00	 2.265115047552431e+00
 8.390975651836059e-01	 1.083706103751524e+00	 2.063367110740375e+00
 8.285405543445524e-01	 1.091798619429549e+00	 1.897824951191549e+00
 8.179125616409386e-01	 1.099783052217030e+00	 1.782244065484125e+00
 9.267337151858556e-01	 1.021731823948975e+00	 3.668967443291807e+00
 9.167381867140570e-01	 1.030709623804375e+00	 3.500341484246962e+00
 9.066585217500864e-01	 1.039587174740737e+00	 3.297839864711827e+00
 8.964962377650260e-01	 1.048363300859998e+00	 3.070842846334572e+00
 8.862528737186982e-01	 1.057036856677760e+00	 2.829511515169790e+00
 8.759299892921532e-01	 1.065606727612107e+00	 2.584773419161742e+00
 8.655291641071746e-01	 1.074071830449349e+00	 2.348306775192476e+00
 8.550519969336224e-01	 1.082431113786299e+00	 2.132523266045959e+00
 8.445001048854353e-01	 1.090683558448726e+00	 1.950549452283555e+00
 8.338751226061308e-01	 1.098828177885637e+00	 1.816206828622869e+00
 8.231787014446538e-01	 1.106864018539093e+00	 1.743990558938665e+00
 9.326623298290513e-01	 1.028268172150642e+00	 3.596138270931512e+00
 9.226028567360773e-01	 1.037303405888794e+00	 3.395375048513542e+00
 9.124587089026830e-01	 1.046237749383177e+00	 3.172224468551609e+00
 9.022314135076929e-01	 1.055070019213145e+00	 2.935577015899819e+00
 8.919225193561432e-01	 1.063799062566284e+00	 2.695055936566310e+00
 8.815335961068574e-01	 1.072423757730353e+00	 2.461003808172882e+00
 8.710662334869606e-01	 1.080943014562008e+00	 2.244467724909624e+00
 8.605220404941492e-01	 1.089355774931916e+00	 2.057183115189874e+00
 8.499026445875526e-01	 1.097661013145872e+00	 1.911556214856494e+00
 8.392096908680213e-01	 1.105857736341615e+00	 1.820645223394741e+00
 8.284448412487024e-01	 1.113944984861005e+00	 1.798527425848415e+00
 9.385909444723801e-01	 1.034804520352675e+00	 3.470356596810325e+00
 9.284675267582145e-01	 1.043897187973561e+00	 3.249287524687502e+00
 9.182588960553877e-01	 1.052888324025938e+00	 3.021211904056011e+00
 9.079665892504648e-01	 1.061776737566576e+00	 2.793399829315168e+00
 8.975921649936953e-01	 1.070561268455048e+00	 2.573744858868129e+00
 8.871372029216748e-01	 1.079240787848789e+00	 2.370753424925863e+00
 8.766033028668681e-01	 1.087814198674808e+00	 2.193532979898975e+00
 8.659920840548084e-01	 1.096280436077622e+00	 2.051778891880877e+00
 8.553051842898138e-01	 1.104638467843061e+00	 1.955760106244040e+00
 8.445442591300677e-01	 1.112887294797594e+00	 1.916458684399410e+00
 8.337109810529183e-01	 1.121025951182882e+00	 1.949558697602452e+00
 9.445195591157927e-01	 1.041340868555041e+00	 3.299920794963370e+00
 9.343321967804130e-01	 1.050490970058658e+00	 3.073988836289980e+00
 9.240590832081343e-01	 1.059538898669013e+00	 2.859274805614646e+00
 9.137017649932655e-01	 1.068483455920302e+00	 2.660320474749321e+00
 9.032618106312653e-01	 1.077323474344080e+00	 2.482121292297286e+00
 8.927408097365024e-01	 1.086057817967464e+00	 2.330120519316592e+00
 8.821403722467805e-01	 1.094685382787814e+00	 2.210202300099409e+00
 8.714621276154698e-01	 1.103205097223502e+00	 2.128683671342407e+00
 8.607077239920764e-01	 1.111615922540391e+00	 2.092318385910024e+00
 8.498788273921146e-01	 1.119916853253683e+00	 2.112052312611918e+00
 8.389771208571342e-01	 1.128106917504843e+00	 2.198186992413515e+00
 9.504481737592383e-01	 1.047877216757708e+00	 3.092930439139889e+00
 9.401968668026153e-01	 1.057084752144061e+00	 2.881100081317742e+00
 9.298592703608588e-01	 1.066189473312398e+00	 2.700533080536509e+00
 9.194369407360182e-01	 1.075190174274333e+00	 2.551957068717771e+00
 9.089314562687643e-01	 1.084085680233410e+00	 2.436323802781718e+00
 8.983444165512381e-01	 1.092874848086426e+00	 2.354809893332654e+00
 8.876774416265826e-01	 1.101556566901094e+00	 2.308816742712285e+00
 8.769321711760032e-01	 1.110129758369640e+00	 2.299969682971765e+00
 8.661102636941956e-01	 1.118593377237960e+00	 2.332908622331415e+00
 8.552133956540052e-01	 1.126946411709992e+00	 2.413815995933812e+00
 8.442432606611833e-01	 1.135187883827004e+00	 2.544653373561277e+00
 9.563767884026670e-01	 1.054413564960641e+00	 2.857293136045648e+00
 9.460615368247652e-01	 1.063678534229749e+00	 2.681963161299336e+00
 9.356594575134948e-01	 1.072840047956085e+00	 2.558765522944250e+00
 9.251721164786462e-01	 1.081896892628681e+00	 2.483549461385083e+00
 9.146011019061038e-01	 1.090847886123069e+00	 2.452099733354464e+00
 9.039480233657795e-01	 1.099691878205725e+00	 2.460145781914125e+00
 8.932145110061570e-01	 1.108427751014714e+00	 2.503370465106120e+00
 8.824022147362783e-01	 1.117054419516117e+00	 2.579187933523047e+00
 8.715128033960283e-01	 1.125570831935865e+00	 2.688402628708018e+00
 8.605479639155839e-01	 1.133975970166630e+00	 2.826680576298145e+00
 8.495094004648983e-01	 1.142268850149480e+00	 2.989191181376641e+00
 9.623054030460286e-01	 1.060949913163808e+00	 2.600731122980352e+00
 9.519262068468063e-01	 1.070272316315703e+00	 2.487650071483896e+00
 9.414596446659769e-01	 1.079490622600068e+00	 2.447421015500178e+00
 9.309072922210736e-01	 1.088603610983356e+00	 2.469971585711424e+00
 9.202707475431936e-01	 1.097610092013084e+00	 2.544817954052621e+00
 9.095516301800242e-01	 1.106508908325406e+00	 2.661084274922725e+00
 8.987515803853882e-01	 1.115298935128739e+00	 2.808400218544032e+00
 8.878722582961653e-01	 1.123979080663019e+00	 2.980865379081964e+00
 8.769153430974311e-01	 1.132548286634205e+00	 3.167403807898014e+00
 8.658825321766948e-01	 1.141005528623706e+00	 3.355453196437594e+00
 8.547755402681128e-01	 1.149349816472390e+00	 3.532025971149086e+00
 9.682340176892732e-01	 1.067486261367175e+00	 2.330787639970064e+00
 9.577908768686817e-01	 1.076866098401900e+00	 2.308971866688224e+00
 9.472598318182397e-01	 1.086141197244342e+00	 2.379629336631697e+00
 9.366424679632236e-01	 1.095310329338370e+00	 2.525743369996302e+00
 9.259403931799469e-01	 1.104372297903486e+00	 2.729481160527067e+00
 9.151552369938699e-01	 1.113325938445520e+00	 2.972469841831702e+00
 9.042886497641597e-01	 1.122170119243239e+00	 3.240744597963056e+00
 8.933423018555336e-01	 1.130903741810428e+00	 3.516351662379086e+00
 8.823178827982596e-01	 1.139525741333079e+00	 3.778302235387408e+00
 8.712171004371820e-01	 1.148035087081330e+00	 4.004820785037635e+00
 8.600416800706600e-01	 1.156430782795849e+00	 4.173375449031591e+00
 8.073802820351771e-01	 1.085621119571988e+00	 2.135639798073533e+00
 7.968225133010767e-01	 1.093393831455592e+00	 2.003000583772323e+00
 7.861979784073625e-01	 1.101058121561683e+00	 1.912253059586984e+00
 7.755083344735213e-01	 1.108613158456955e+00	 1.862425674010825e+00
 7.647552517237872e-01	 1.116058144223075e+00	 1.853360079184897e+00
 7.539404126477530e-01	 1.123392314694512e+00	 1.886706372435389e+00
 7.430655111565820e-01	 1.130614939671368e+00	 1.960429049362441e+00
 7.321322517356790e-01	 1.137725323107168e+00	 2.071138493593290e+00
 7.211423485946780e-01	 1.144722803271552e+00	 2.214128330187926e+00
 7.100975248156002e-01	 1.151606752887915e+00	 2.385897699564343e+00
 6.989995115000320e-01	 1.158376579246008e+00	 2.582600991147301e+00
 8.126464218377240e-01	 1.092702085894701e+00	 1.912819729289173e+00
 8.020197900321115e-01	 1.100525495310181e+00	 1.811904573536840e+00
 7.913259565844319e-01	 1.108239775766875e+00	 1.761054945156017e+00
 7.805665894227382e-01	 1.115844090408439e+00	 1.757826058020664e+00
 7.697433696653099e-01	 1.123337636112106e+00	 1.801888421313617e+00
 7.588579907757853e-01	 1.130719643728060e+00	 1.888842547839245e+00
 7.479121577138694e-01	 1.137989378293664e+00	 2.013493775550844e+00
 7.369075860824801e-01	 1.145146139222463e+00	 2.170079182375615e+00
 7.258460012721907e-01	 1.152189260467951e+00	 2.350680044949212e+00
 7.147291376038313e-01	 1.159118110662096e+00	 2.548081507264525e+00
 7.035587374701054e-01	 1.165932093228688e+00	 2.755089865441167e+00
 8.179125616409386e-01	 1.099783052217030e+00	 1.782244065484125e+00
 8.072170667638509e-01	 1.107657159164353e+00	 1.722970604181959e+00
 7.964539347622335e-01	 1.115421429971638e+00	 1.714673039959430e+00
 7.856248443727102e-01	 1.123075022359500e+00	 1.756381121010343e+00
 7.747314876076047e-01	 1.130617128000730e+00	 1.842797770124986e+00
 7.637755689046014e-01	 1.138046972761229e+00	 1.967565300091415e+00
 7.527588042719486e-01	 1.145363816915609e+00	 2.123826676350775e+00
 7.416829204300779e-01	 1.152566955337439e+00	 2.304236940648495e+00
 7.305496539505022e-01	 1.159655717664057e+00	 2.499909600544239e+00
 7.193607503928622e-01	 1.166629468436005e+00	 2.700890321225053e+00
 7.081179634409789e-01	 1.173487607211099e+00	 2.898047032308228e+00
 8.231787014446538e-01	 1.106864018539093e+00	 1.743990558938665e+00
 8.124143434961176e-01	 1.114788823018229e+00	 1.731657837170600e+00
 8.015819129405842e-01	 1.122603084176091e+00	 1.767302036420791e+00
 7.906830993232478e-01	 1.130305954310250e+00	 1.846053954827675e+00
 7.797196055504780e-01	 1.137896619889056e+00	 1.961648693551337e+00
 7.686931470340052e-01	 1.145374301794115e+00	 2.107290216272015e+00
 7.576054508306217e-01	 1.152738255537294e+00	 2.275662836601188e+00
 7.464582547782734e-01	 1.159987771452176e+00	 2.458943504758156e+00
 7.352533066294134e-01	 1.167122174859944e+00	 2.648516891899743e+00
 7.239923631824934e-01	 1.174140826209707e+00	 2.833571000651253e+00
 7.126771894124521e-01	 1.181043121193310e+00	 3.004125478744264e+00
 8.284448412487024e-01	 1.113944984861005e+00	 1.798527425848415e+00
 8.176116202287358e-01	 1.121920486871926e+00	 1.836577352248642e+00
 8.067098911193010e-01	 1.129784738380351e+00	 1.910385629330763e+00
 7.957413542741629e-01	 1.137536886260803e+00	 2.014852238654040e+00
 7.847077234937372e-01	 1.145176111777187e+00	 2.144369085565752e+00
 7.736107251638008e-01	 1.152701630826816e+00	 2.292829552330443e+00
 7.624520973896907e-01	 1.160112694158807e+00	 2.453638843145375e+00
 7.512335891268671e-01	 1.167408587566755e+00	 2.619725102618716e+00
 7.399569593087237e-01	 1.174588632055685e+00	 2.783545828443243e+00
 7.286239759725242e-01	 1.181652183983273e+00	 2.935649970237723e+00
 7.172364153843257e-01	 1.188598635175388e+00	 3.066171461705932e+00
 8.337109810529183e-01	 1.121025951182882e+00	 1.949558697602452e+00
 8.228088969615299e-01	 1.129052150725564e+00	 2.033554657972644e+00
 8.118378692982010e-01	 1.136966392584536e+00	 2.135223934121396e+00
 8.007996092252667e-01	 1.144767818211272e+00	 2.251086327518721e+00
 7.896958414371892e-01	 1.152455603665230e+00	 2.377242280343569e+00
 7.785283032937923e-01	 1.160028959859430e+00	 2.509379423167859e+00
 7.672987439489576e-01	 1.167487132780236e+00	 2.642779825460821e+00
 7.560089234756597e-01	 1.174829403681255e+00	 2.772327936383689e+00
 7.446606119882341e-01	 1.182055089251353e+00	 2.892519201017021e+00
 7.332555887627554e-01	 1.189163541756770e+00	 2.996923940976481e+00
 7.217956413563998e-01	 1.196154149157399e+00	 3.077217986390688e+00
 8.389771208571342e-01	 1.128106917504843e+00	 2.198186992413515e+00
 8.280061736943244e-01	 1.136183814579263e+00	 2.317982293471879e+00
 8.169658474771012e-01	 1.144148046788762e+00	 2.433334686088316e+00
 8.058578641763705e-01	 1.151998750161769e+00	 2.543359463370545e+00
 7.946839593806412e-01	 1.159735095553291e+00	 2.646895609383646e+00
 7.834458814237838e-01	 1.167356288892055e+00	 2.742507470428425e+00
 7.721453905082244e-01	 1.174861571401670e+00	 2.828486979581069e+00
 7.607842578244524e-01	 1.182250219795758e+00	 2.902856431511196e+00
 7.493642646677448e-01	 1.189521546447022e+00	 2.963371802415387e+00
 7.378872015529861e-01	 1.196674899530267e+00	 3.007450963779004e+00
 7.263548673284734e-01	 1.203709663139410e+00	 3.030478514123619e+00
 8.442432606611833e-01	 1.135187883827004e+00	 2.544653373561276e+00
 8.332034504269425e-01	 1.143315478433141e+00	 2.685366471000404e+00
 8.220938256558182e-01	 1.151329700993149e+00	 2.796446159309907e+00
 8.109161191272857e-01	 1.159229682112406e+00	 2.880558347926820e+00
 7.996720773238999e-01	 1.167014587441475e+00	 2.940289382248462e+00
 7.883634595535792e-01	 1.174683617924787e+00	 2.978140987141313e+00
 7.769920370672930e-01	 1.182236010023199e+00	 2.996525554207675e+00
 7.655595921730458e-01	 1.189671035910344e+00	 2.997761782996110e+00
 7.540679173470552e-01	 1.196988003642765e+00	 2.984070684388354e+00
 7.425188143430175e-01	 1.204186257303833e+00	 2.957571952435652e+00
 7.309140933003472e-01	 1.211265177121489e+00	 2.919340889827039e+00
 8.495094004648983e-01	 1.142268850149480e+00	 2.989191181376641e+00
 8.384007271592091e-01	 1.150447142287318e+00	 3.131323255335945e+00
 8.272218038341691e-01	 1.158511355197814e+00	 3.216490344451474e+00
 8.159743740778236e-01	 1.166460614063299e+00	 3.251844061601274e+00
 8.046601952667733e-01	 1.174294079329889e+00	 3.244706272541290e+00
 7.932810376829832e-01	 1.182010946957725e+00	 3.202555479389725e+00
 7.818386836259662e-01	 1.189610448644910e+00	 3.133013278956803e+00
 7.703349265212415e-01	 1.197091852025092e+00	 3.043830922866122e+00
 7.587715700259661e-01	 1.204454460838655e+00	 2.942876004764750e+00
 7.471504271326483e-01	 1.211697615077536e+00	 2.838119298220561e+00
 7.354733192718205e-01	 1.218820691103700e+00	 2.737361479545437e+00
 8.547755402681128e-01	 1.149349816472390e+00	 3.532025971149086e+00
 8.435980038909481e-01	 1.157578806141913e+00	 3.651574880017961e+00
 8.323497820119703e-01	 1.165693009402874e+00	 3.685596374290191e+00
 8.210326290277951e-01	 1.173691546014558e+00	 3.646643313586671e+00
 8.096483132090680e-01	 1.181573571218639e+00	 3.547741091644903e+00
 7.981986158117992e-01	 1.189338275990966e+00	 3.402363646160168e+00
 7.866853301840454e-01	 1.196984887266893e+00	 3.224409215673632e+00
 7.751102608688389e-01	 1.204512668140084e+00	 3.028175890774956e+00
 7.634752227042780e-01	 1.211920918034767e+00	 2.828337005619624e+00
 7.517820399216792e-01	 1.219208972851444e+00	 2.639916414391590e+00
 7.400325452426939e-01	 1.226376205086111e+00	 2.478259508968108e+00
 8.600416800706600e-01	 1.156430782795849e+00	 4.173375449031591e+00
 8.487952806219835e-01	 1.164710469997046e+00	 4.241946194560084e+00
 8.374777601890396e-01	 1.172874663608447e+00	 4.196084186343587e+00
 8.260908839770124e-01	 1.180922477966298e+00	 4.054640008898581e+00
 8.146364311505910e-01	 1.188853063107831e+00	 3.837290933601965e+00
 8.031161939398316e-01	 1.196665605024608e+00	 3.564504759448624e+00
 7.915319767413330e-01	 1.204359325889236e+00	 3.257503014681491e+00
 7.798855952156404e-01	 1.211933484255399e+00	 2.938223590415490e+00
 7.681788753817906e-01	 1.219387375231171e+00	 2.629282876567646e+00
 7.564136527099106e-01	 1.226720330625627e+00	 2.353937469431384e+00
 7.445917712127673e-01	 1.233931719068790e+00	 2.136045519106032e+00
 6.989995115000320e-01	 1.158376579246008e+00	 2.582600991147301e+00
 6.878500471339709e-01	 1.165031724570546e+00	 2.768732019465840e+00
 6.766508773749484e-01	 1.171571666931022e+00	 2.911871712515675e+00
 6.654037535230670e-01	 1.177995919443366e+00	 3.012489452704059e+00
 6.541104314506725e-01	 1.184304030001858e+00	 3.071031985547704e+00
 6.427726707565111e-01	 1.190495581266529e+00	 3.087931774243398e+00
 6.313922339239028e-01	 1.196570190626451e+00	 3.063615114937547e+00
 6.199708854837138e-01	 1.202527510139157e+00	 2.998509975637599e+00
 6.085103911828983e-01	 1.208367226446504e+00	 2.893053524785723e+00
 5.970125171593559e-01	 1.214089060667263e+00	 2.747699318703555e+00
 5.854790291238445e-01	 1.219692768266804e+00	 2.562924120389106e+00
 7.035587374701054e-01	 1.165932093228688e+00	 2.755089865441167e+00
 6.923365506962912e-01	 1.172630646754337e+00	 2.937494452508629e+00
 6.810643343259738e-01	 1.179213245904258e+00	 3.067715014105958e+00
 6.697438510821119e-01	 1.185679400618684e+00	 3.148167445236870e+00
 6.583768682897304e-01	 1.192028655843047e+00	 3.181318205126948e+00
 6.469651570245585e-01	 1.198260591515288e+00	 3.169689352199912e+00
 6.355104912657158e-01	 1.204374822528908e+00	 3.115863265684485e+00
 6.240146470532223e-01	 1.210370998671996e+00	 3.022487022154928e+00
 6.124794016511185e-01	 1.216248804542540e+00	 2.892276398541389e+00
 6.009065327169392e-01	 1.222007959440318e+00	 2.728019476476802e+00
 5.892978174782924e-01	 1.227648217235732e+00	 2.532579826249315e+00
 7.081179634409789e-01	 1.173487607211099e+00	 2.898047032308228e+00
 6.968230542594117e-01	 1.180229568937854e+00	 3.060985690102903e+00
 6.854777912777998e-01	 1.186854824877196e+00	 3.168112879319361e+00
 6.740839486419578e-01	 1.193362881793672e+00	 3.223160514933374e+00
 6.626433051295890e-01	 1.199753281683864e+00	 3.229955660847037e+00
 6.511576432934081e-01	 1.206025601763627e+00	 3.192423461074064e+00
 6.396287486083325e-01	 1.212179454430894e+00	 3.114589707433490e+00
 6.280584086235375e-01	 1.218214487204311e+00	 3.000583015100882e+00
 6.164484121201476e-01	 1.224130382638000e+00	 2.854636580746178e+00
 6.048005482753354e-01	 1.229926858212747e+00	 2.681089501457464e+00
 5.931166058335577e-01	 1.235603666203992e+00	 2.484387636184257e+00
 7.126771894124521e-01	 1.181043121193310e+00	 3.004125478744264e+00
 7.013095578231324e-01	 1.187828491121165e+00	 3.135396140892802e+00
 6.898912482302260e-01	 1.194496403849912e+00	 3.212223996956778e+00
 6.784240462024044e-01	 1.201046362968413e+00	 3.239040231115727e+00
 6.669097419700504e-01	 1.207477907524403e+00	 3.220387490157288e+00
 6.553501295628622e-01	 1.213790612011651e+00	 3.160921913497924e+00
 6.437470059515569e-01	 1.219984086332526e+00	 3.065414773290995e+00
 6.321021701944637e-01	 1.226057975736232e+00	 2.938753696723306e+00
 6.204174225897942e-01	 1.232011960733026e+00	 2.785943446119779e+00
 6.086945638343557e-01	 1.237845756984707e+00	 2.612106236082850e+00
 5.969353941894570e-01	 1.243559115171751e+00	 2.422481570562379e+00
 7.172364153843257e-01	 1.188598635175388e+00	 3.066171461705932e+00
 7.057960613872531e-01	 1.195427413304337e+00	 3.157019845036186e+00
 6.943047051830527e-01	 1.202137982822479e+00	 3.199235512136529e+00
 6.827641437632525e-01	 1.208729844142988e+00	 3.197345554679579e+00
 6.711761788109148e-01	 1.215202533364756e+00	 3.155976906373668e+00
 6.595426158327228e-01	 1.221555622259466e+00	 3.079858661618432e+00
 6.478652632951922e-01	 1.227788718233922e+00	 2.973824001287390e+00
 6.361459317658077e-01	 1.233901464267892e+00	 2.842811696217035e+00
 6.243864330598669e-01	 1.239893538827765e+00	 2.691867162629442e+00
 6.125885793938138e-01	 1.245764655756356e+00	 2.526143047457268e+00
 6.007541825458069e-01	 1.251514564139175e+00	 2.350899325346377e+00
 7.217956413563998e-01	 1.196154149157399e+00	 3.077217986390688e+00
 7.102825649515742e-01	 1.203026335487442e+00	 3.122250815252450e+00
 6.987181621360801e-01	 1.209779561794972e+00	 3.128361772948205e+00
 6.871042413243027e-01	 1.216413325317481e+00	 3.099583544242809e+00
 6.754426156519835e-01	 1.222927159205015e+00	 3.040009429538785e+00
 6.637351021027919e-01	 1.229320632507176e+00	 2.953797129476882e+00
 6.519835206390427e-01	 1.235593350135202e+00	 2.845172156930578e+00
 6.401896933373754e-01	 1.241744952799419e+00	 2.718430843195308e+00
 6.283554435301745e-01	 1.247775116922360e+00	 2.577942908944214e+00
 6.164825949535212e-01	 1.253683554527846e+00	 2.428153574395346e+00
 6.045729709024250e-01	 1.259470013106432e+00	 2.273585187081904e+00
 7.263548673284734e-01	 1.203709663139410e+00	 3.030478514123619e+00
 7.147690685158953e-01	 1.210625257670545e+00	 3.027579500301329e+00
 7.031316190891078e-01	 1.217421140767465e+00	 2.998843109573609e+00
 6.914443388853548e-01	 1.224096806491974e+00	 2.947230021593261e+00
 6.797090524930580e-01	 1.230651785045275e+00	 2.875695019779799e+00
 6.679275883728715e-01	 1.237085642754886e+00	 2.787193407015573e+00
 6.561017779829115e-01	 1.243397982036480e+00	 2.684687091998911e+00
 6.442334549089721e-01	 1.249588441330948e+00	 2.571150307039618e+00
 6.323244540005256e-01	 1.255656695016954e+00	 2.449574921968468e+00
 6.203766105132907e-01	 1.261602453299338e+00	 2.322975322834223e+00
 6.083917592591278e-01	 1.267425462073689e+00	 2.194392828152802e+00
 7.309140933003472e-01	 1.211265177121489e+00	 2.919340889827039e+00
 7.192555720800161e-01	 1.218224179853718e+00	 2.869589365547654e+00
 7.075450760419366e-01	 1.225062719740032e+00	 2.809944644458308e+00
 6.957844364462100e-01	 1.231780287666549e+00	 2.741730198213080e+00
 6.839754893339389e-01	 1.238376410885629e+00	 2.666170117422551e+00
 6.721200746427641e-01	 1.244850653002701e+00	 2.584399311754406e+00
 6.602200353266021e-01	 1.251202613937876e+00	 2.497473446724717e+00
 6.482772164804037e-01	 1.257431929862607e+00	 2.406378569731571e+00
 6.362934644707289e-01	 1.263538273111692e+00	 2.312040381874835e+00
 6.242706260729346e-01	 1.269521352070985e+00	 2.215333116236216e+00
 6.122105476157323e-01	 1.275380911041113e+00	 2.117087987531168e+00
 7.354733192718205e-01	 1.218820691103700e+00	 2.737361479545437e+00
 7.237420756437370e-01	 1.225823102037027e+00	 2.644953585532808e+00
 7.119585329943662e-01	 1.232704298712748e+00	 2.560955132187444e+00
 7.001245340066686e-01	 1.239463768841290e+00	 2.484499264570053e+00
 6.882419261744276e-01	 1.246101036726167e+00	 2.414499593908883e+00
 6.763125609122714e-01	 1.252615663250725e+00	 2.349665323880407e+00
 6.643382926699184e-01	 1.259007245839509e+00	 2.288516202165009e+00
 6.523209780514763e-01	 1.265275418394528e+00	 2.229397239392992e+00
 6.402624749405932e-01	 1.271419851206719e+00	 2.170493141688487e+00
 6.281646416322649e-01	 1.277440250842945e+00	 2.109842407274729e+00
 6.160293359720557e-01	 1.283336360008872e+00	 2.045351041991771e+00
 7.400325452426939e-01	 1.226376205086111e+00	 2.478259508968108e+00
 7.282285792068580e-01	 1.233422024220544e+00	 2.350431843723216e+00
 7.163719899461964e-01	 1.240345877685686e+00	 2.251185827785631e+00
 7.044646315665303e-01	 1.247147250016277e+00	 2.176922943782486e+00
 6.925083630143247e-01	 1.253825662566985e+00	 2.123678617364682e+00
 6.805050471811960e-01	 1.260380673499065e+00	 2.087143400210331e+00
 6.684565500126647e-01	 1.266811877741495e+00	 2.062684089220932e+00
 6.563647396219955e-01	 1.273118906926842e+00	 2.045364711404908e+00
 6.442314854099271e-01	 1.279301429302179e+00	 2.029967308127430e+00
 6.320586571910940e-01	 1.285359149615374e+00	 2.011012456786413e+00
 6.198481243279141e-01	 1.291291808977132e+00	 1.982779472514928e+00
 7.445917712127673e-01	 1.233931719068790e+00	 2.136045519106032e+00
 7.327150827691792e-01	 1.241020946404336e+00	 1.982867234843543e+00
 7.207854468972287e-01	 1.247987456658922e+00	 1.879969382224088e+00
 7.088047291255960e-01	 1.254830731191595e+00	 1.820358011185638e+00
 6.967747998534317e-01	 1.261550288408174e+00	 1.796634436478052e+00
 6.846975334493393e-01	 1.268145683747823e+00	 1.800889672218852e+00
 6.725748073546437e-01	 1.274616509643952e+00	 1.824732860451219e+00
 6.604085011917672e-01	 1.280962395459682e+00	 1.859319683639047e+00
 6.482004958785397e-01	 1.287183007398215e+00	 1.895380680074826e+00
 6.359526727492348e-01	 1.293278048388430e+00	 1.923249385679471e+00
 6.236669126831258e-01	 1.299247257946061e+00	 1.932890230370945e+00
 5.854790291238445e-01	 1.219692768266804e+00	 2.562924120389106e+00
 5.739097221063959e-01	 1.225179061259301e+00	 2.357032287141926e+00
 5.623083167801739e-01	 1.230546799785333e+00	 2.151668625550612e+00
 5.506765730720242e-01	 1.235795840422856e+00	 1.952292985873586e+00
 5.390162473136554e-01	 1.240926073375034e+00	 1.764435753064102e+00
 5.273290914687052e-01	 1.245937422231995e+00	 1.593693509259833e+00
 5.156168523708461e-01	 1.250829843712159e+00	 1.445724337268235e+00
 5.038812709735320e-01	 1.255603327383696e+00	 1.326242774078541e+00
 4.921240816119464e-01	 1.260257895366589e+00	 1.241014426105740e+00
 4.803470112777085e-01	 1.264793602015854e+00	 1.195850260415400e+00
 4.685517789068528e-01	 1.269210533586462e+00	 1.196600588578099e+00
 5.892978174782924e-01	 1.227648217235732e+00	 2.532579826249315e+00
 5.776530496282924e-01	 1.233170294587080e+00	 2.326178671148277e+00
 5.659759741082085e-01	 1.238573044200203e+00	 2.129333378022780e+00
 5.542683623240225e-01	 1.243856321717579e+00	 1.945328122503610e+00
 5.425319820631298e-01	 1.249020016626222e+00	 1.777480356750691e+00
 5.307685967163628e-01	 1.254064052017867e+00	 1.629140058328145e+00
 5.189799645111298e-01	 1.258988384328630e+00	 1.503688597586603e+00
 5.071678377562659e-01	 1.263793003058634e+00	 1.404537227215132e+00
 4.953339620991686e-01	 1.268477930472135e+00	 1.335125200535634e+00
 4.834800757957720e-01	 1.273043221278675e+00	 1.298917527898709e+00
 4.716079089938832e-01	 1.277488962295819e+00	 1.299402383184306e+00
 5.931166058335577e-01	 1.235603666203992e+00	 2.484387636184257e+00
 5.813963771510112e-01	 1.241161527914155e+00	 2.285138025207023e+00
 5.696436314370721e-01	 1.246599288614339e+00	 2.101986800853987e+00
 5.578601515768564e-01	 1.251916803011547e+00	 1.936415848648748e+00
 5.460477168134463e-01	 1.257113959876637e+00	 1.789912419305458e+00
 5.342081019648690e-01	 1.262190681802957e+00	 1.663971340023806e+00
 5.223430766522682e-01	 1.267146924944311e+00	 1.560096818089731e+00
 5.104544045398597e-01	 1.271982678732776e+00	 1.479803836123448e+00
 4.985438425872541e-01	 1.276697965576881e+00	 1.424619141454325e+00
 4.866131403147014e-01	 1.281292840540695e+00	 1.396081835117573e+00
 4.746640390817801e-01	 1.285767391004374e+00	 1.395743568843759e+00
 5.969353941894570e-01	 1.243559115171751e+00	 2.422481570562379e+00
 5.851397046743755e-01	 1.249152761240702e+00	 2.236874765008275e+00
 5.733112887665927e-01	 1.254625533027926e+00	 2.071645002486043e+00
 5.614519408303611e-01	 1.259977284304949e+00	 1.926837451713311e+00
 5.495634515644466e-01	 1.265207903126473e+00	 1.802483981117972e+00
 5.376476072140721e-01	 1.270317311587458e+00	 1.698607715717852e+00
 5.257061887941151e-01	 1.275305465559397e+00	 1.615227156381445e+00
 5.137409713241720e-01	 1.280172354406320e+00	 1.552359857529364e+00
 5.017537230760667e-01	 1.284918000681029e+00	 1.510025662692033e+00
 4.897462048343625e-01	 1.289542459802115e+00	 1.488249500572405e+00
 4.777201691704104e-01	 1.294045819712330e+00	 1.487063747356022e+00
 6.007541825458069e-01	 1.251514564139175e+00	 2.350899325346377e+00
 5.888830321982068e-01	 1.257143994566896e+00	 2.184286816335396e+00
 5.769789460965999e-01	 1.262651777441146e+00	 2.040281776060756e+00
 5.650437300843714e-01	 1.268037765597972e+00	 1.917850615913881e+00
 5.530791863159727e-01	 1.273301846375924e+00	 1.815936929232574e+00
 5.410871124638202e-01	 1.278443941371568e+00	 1.733467783882108e+00
 5.290693009365246e-01	 1.283464006174087e+00	 1.669359543558466e+00
 5.170275381090624e-01	 1.288362030079466e+00	 1.622523211621333e+00
 5.049636035654689e-01	 1.293138035784776e+00	 1.591869294828922e+00
 4.928792693546211e-01	 1.297792079063135e+00	 1.576312187786356e+00
 4.807762992596409e-01	 1.302324248419886e+00	 1.574774082216688e+00
 6.045729709024250e-01	 1.259470013106432e+00	 2.273585187081904e+00
 5.926263597223281e-01	 1.265135227892915e+00	 2.130207612207564e+00
 5.806466034269215e-01	 1.270678021854182e+00	 2.009829856378264e+00
 5.686355193387228e-01	 1.276098246890808e+00	 1.910690110436615e+00
 5.565949210678668e-01	 1.281395789625182e+00	 1.831003281725643e+00
 5.445266177139618e-01	 1.286570571155480e+00	 1.768968419266923e+00
 5.324324130793515e-01	 1.291622546788580e+00	 1.722775630256034e+00
 5.203141048943902e-01	 1.296551705752412e+00	 1.690612480451809e+00
 5.081734840553243e-01	 1.301358070888324e+00	 1.670669874799584e+00
 4.960123338753431e-01	 1.306041698323955e+00	 1.661147418264295e+00
 4.838324293493376e-01	 1.310602677127242e+00	 1.660258260336596e+00
 6.083917592591278e-01	 1.267425462073689e+00	 2.194392828152802e+00
 5.963696872465618e-01	 1.273126461218933e+00	 2.077408005404573e+00
 5.843142607573865e-01	 1.278704266267219e+00	 1.982182120648775e+00
 5.722273085932504e-01	 1.284158728183643e+00	 1.906568443330797e+00
 5.601106558199702e-01	 1.289489732874439e+00	 1.848405453532242e+00
 5.479661229643452e-01	 1.294697200939394e+00	 1.805524803253734e+00
 5.357955252224496e-01	 1.299781087403072e+00	 1.775758727851358e+00
 5.236006716800146e-01	 1.304741381425359e+00	 1.756946899984176e+00
 5.113833645454962e-01	 1.309578105991872e+00	 1.746942722385209e+00
 4.991453983963941e-01	 1.314291317584775e+00	 1.743619059587985e+00
 4.868885594393675e-01	 1.318881105834597e+00	 1.744873412405914e+00
 6.122105476157323e-01	 1.275380911041113e+00	 2.117087987531168e+00
 6.001130147707305e-01	 1.281117694545127e+00	 2.028598100068866e+00
 5.879819180878236e-01	 1.286730510680439e+00	 1.959192735492393e+00
 5.758190978477898e-01	 1.292219209476668e+00	 1.906676482634818e+00
 5.636263905721253e-01	 1.297583676123889e+00	 1.868856504532142e+00
 5.514056282148188e-01	 1.302823830723503e+00	 1.843550445768119e+00
 5.391586373656733e-01	 1.307939628017762e+00	 1.828593745036449e+00
 5.268872384657949e-01	 1.312931057098505e+00	 1.821846346062787e+00
 5.145932450358476e-01	 1.317798141095619e+00	 1.821198804166113e+00
 5.022784629176400e-01	 1.322540936845795e+00	 1.824577789733154e+00
 4.899446895295974e-01	 1.327159534542153e+00	 1.829950993708933e+00
 6.160293359720557e-01	 1.283336360008872e+00	 2.045351041991770e+00
 6.038563422946563e-01	 1.289108927871674e+00	 1.986429005896928e+00
 5.916495754180615e-01	 1.294756755094025e+00	 1.942678252519693e+00
 5.794108871021758e-01	 1.300279690770069e+00	 1.912184046156896e+00
 5.671421253241739e-01	 1.305677619373726e+00	 1.893060370665466e+00
 5.548451334652307e-01	 1.310950460508004e+00	 1.883457199119553e+00
 5.425217495088764e-01	 1.316098168632848e+00	 1.881567119961486e+00
 5.301738052515907e-01	 1.321120732772049e+00	 1.885631314569817e+00
 5.178031255262420e-01	 1.326018176199766e+00	 1.893944885478616e+00
 5.054115274389462e-01	 1.330790556107216e+00	 1.904861538640243e+00
 4.930008196198934e-01	 1.335437963250109e+00	 1.916797627105510e+00
 6.198481243279141e-01	 1.291291808977132e+00	 1.982779472514928e+00
 6.075996698181618e-01	 1.297100161198748e+00	 1.953494518258745e+00
 5.953172327479285e-01	 1.302782999508162e+00	 1.934418654711101e+00
 5.830026763562438e-01	 1.308340172064037e+00	 1.924240461262622e+00
 5.706578600759575e-01	 1.313771562624142e+00	 1.921712078809995e+00
 5.582846387154294e-01	 1.319077090293093e+00	 1.925655264116402e+00
 5.458848616519137e-01	 1.324256709248528e+00	 1.934966748139724e+00
 5.334603720372609e-01	 1.329310408446191e+00	 1.948622896019827e+00
 5.210130060165425e-01	 1.334238211304513e+00	 1.965683670893809e+00
 5.085445919601789e-01	 1.339040175369236e+00	 1.985295908019759e+00
 4.960569497101224e-01	 1.343716391958665e+00	 2.006695909810826e+00
 6.236669126831258e-01	 1.299247257946061e+00	 1.932890230370945e+00
 6.113429973410696e-01	 1.305091394526528e+00	 1.932332727420829e+00
 5.989848900772535e-01	 1.310809243923031e+00	 1.936158355704266e+00
 5.865944656098293e-01	 1.316400653358761e+00	 1.943975095955283e+00
 5.741735948273184e-01	 1.321865505875329e+00	 1.955497946116461e+00
 5.617241439652630e-01	 1.327203720078967e+00	 1.970553188787493e+00
 5.492479737946393e-01	 1.332415249865001e+00	 1.989081906296034e+00
 5.367469388226653e-01	 1.337500084121130e+00	 2.011142744830414e+00
 5.242228865066125e-01	 1.342458246410058e+00	 2.036913933710132e+00
 5.116776564812040e-01	 1.347289794632056e+00	 2.066694570325182e+00
 4.991130798001508e-01	 1.351994820668021e+00	 2.100905185524987e+00
 4.685517789068528e-01	 1.269210533586462e+00	 1.196600588578099e+00
 4.567421036580435e-01	 1.273508087186421e+00	 1.247832437944635e+00
 4.449176814900399e-01	 1.277687171888223e+00	 1.343857278200636e+00
 4.330802016659260e-01	 1.281747966506409e+00	 1.475119644344873e+00
 4.212313427177444e-01	 1.285690680225100e+00	 1.632029129404936e+00
 4.093727718083590e-01	 1.289515552181324e+00	 1.804974802707053e+00
 3.975061441091533e-01	 1.293222851033616e+00	 1.984339133029623e+00
 3.856331021939091e-01	 1.296812874516516e+00	 2.160511417958932e+00
 3.737552754491775e-01	 1.300285948981592e+00	 2.323900722894371e+00
 3.618742795014405e-01	 1.303642428925645e+00	 2.465243682596244e+00
 3.499917156613211e-01	 1.306882696506716e+00	 2.576516302172358e+00
 4.716079089938832e-01	 1.277488962295819e+00	 1.299402383184306e+00
 4.597212051103918e-01	 1.281814546699208e+00	 1.337983296992352e+00
 4.478196581209375e-01	 1.286020889490769e+00	 1.409168999189100e+00
 4.359049683068133e-01	 1.290108170651366e+00	 1.506097523856259e+00
 4.239788251482772e-01	 1.294076600729533e+00	 1.621897703102685e+00
 4.120429066822531e-01	 1.297926420422076e+00	 1.749699582212418e+00
 4.000988788759711e-01	 1.301657900139864e+00	 1.882644364941824e+00
 3.881483950168906e-01	 1.305271339559416e+00	 2.013893896663126e+00
 3.761930951192273e-01	 1.308767067160938e+00	 2.136639695041561e+00
 3.642346053473779e-01	 1.312145439753444e+00	 2.244241915607078e+00
 3.522745374565047e-01	 1.315406841987608e+00	 2.331264878939356e+00
 4.746640390817801e-01	 1.285767391004374e+00	 1.395743568843759e+00
 4.627003065636055e-01	 1.290121006211195e+00	 1.422839983723120e+00
 4.507216347526961e-01	 1.294354607092516e+00	 1.472515770625169e+00
 4.387297349485518e-01	 1.298468374795530e+00	 1.540192310467510e+00
 4.267263075796457e-01	 1.302462521233183e+00	 1.621302367421942e+00
 4.147130415569605e-01	 1.306337288662063e+00	 1.711297106062756e+00
 4.026916136435705e-01	 1.310092949245371e+00	 1.805652659034939e+00
 3.906636878406118e-01	 1.313729804601611e+00	 1.899876258509662e+00
 3.786309147899642e-01	 1.317248185339625e+00	 1.989511946574966e+00
 3.665949311939369e-01	 1.320648450580642e+00	 2.070186284858651e+00
 3.545573592522309e-01	 1.323930987467973e+00	 2.138542705174288e+00
 4.777201691704104e-01	 1.294045819712330e+00	 1.487063747356022e+00
 4.656794080175501e-01	 1.298427465722582e+00	 1.504360986548570e+00
 4.536236113851783e-01	 1.302688324693665e+00	 1.536201098427130e+00
 4.415545015910023e-01	 1.306828578939100e+00	 1.579886941774467e+00
 4.294737900117078e-01	 1.310848441736247e+00	 1.632748247418543e+00
 4.173831764323366e-01	 1.314748156901475e+00	 1.692145835483454e+00
 4.052843484118068e-01	 1.318527998350322e+00	 1.755475398671335e+00
 3.931789806649311e-01	 1.322188269643276e+00	 1.820170869613528e+00
 3.810687344612511e-01	 1.325729303517817e+00	 1.883707392129222e+00
 3.689552570409896e-01	 1.329151461407391e+00	 1.943608402612329e+00
 3.568401810483847e-01	 1.332455132947942e+00	 1.998142199497686e+00
 4.807762992596409e-01	 1.302324248419886e+00	 1.574774082216688e+00
 4.686585094720915e-01	 1.306733925233570e+00	 1.584462903813334e+00
 4.565255880182480e-01	 1.311022042294415e+00	 1.602477534183191e+00
 4.443792682340249e-01	 1.315188783082273e+00	 1.627608515033161e+00
 4.322212724443213e-01	 1.319234362238919e+00	 1.658683709559216e+00
 4.200533113082377e-01	 1.323159025140504e+00	 1.694570311052899e+00
 4.078770831805363e-01	 1.326963047454903e+00	 1.734176428223743e+00
 3.956942734897058e-01	 1.330646734684588e+00	 1.776452269256318e+00
 3.835065541329510e-01	 1.334210421695680e+00	 1.820390948368724e+00
 3.713155828884073e-01	 1.337654472233839e+00	 1.865028940154096e+00
 3.591230028448506e-01	 1.340979278427649e+00	 1.909863869255589e+00
 4.838324293493376e-01	 1.310602677127242e+00	 1.660258260336596e+00
 4.716376109270947e-01	 1.315040384744356e+00	 1.665021842510334e+00
 4.594275646517683e-01	 1.319355759894966e+00	 1.673548371009826e+00
 4.472040348774798e-01	 1.323548987225248e+00	 1.685730146927703e+00
 4.349687548773438e-01	 1.327620282741396e+00	 1.701502258829081e+00
 4.227234461845196e-01	 1.331569893379342e+00	 1.720842967282573e+00
 4.104698179496143e-01	 1.335398096559300e+00	 1.743773671997309e+00
 3.982095663147940e-01	 1.339105199725725e+00	 1.770358486783895e+00
 3.859443738049267e-01	 1.342691539873378e+00	 1.800703449281961e+00
 3.736759087360618e-01	 1.346157483060137e+00	 1.834955393876279e+00
 3.614058246415134e-01	 1.349503423907223e+00	 1.873516390252329e+00
 4.868885594393675e-01	 1.318881105834597e+00	 1.744873412405913e+00
 4.746167123824258e-01	 1.323346844255143e+00	 1.747874759575646e+00
 4.623295412856021e-01	 1.327689477495516e+00	 1.751569271174236e+00
 4.500288015212279e-01	 1.331909191368224e+00	 1.756572759286996e+00
 4.377162373106335e-01	 1.336006203243872e+00	 1.763544360722312e+00
 4.253935810610385e-01	 1.339980761618180e+00	 1.773185875511579e+00
 4.130625527188969e-01	 1.343833145663695e+00	 1.786240689140635e+00
 4.007248591400536e-01	 1.347563664766861e+00	 1.803492306156675e+00
 3.883821934770414e-01	 1.351172658051076e+00	 1.825762524525317e+00
 3.760362345838244e-01	 1.354660493886435e+00	 1.853909281584714e+00
 3.636886464382575e-01	 1.358027569386798e+00	 1.888916690503793e+00
 4.899446895295974e-01	 1.327159534542153e+00	 1.829950993708933e+00
 4.775958138379504e-01	 1.331653303766131e+00	 1.834820748269933e+00
 4.652315179196134e-01	 1.336023195096266e+00	 1.838649828460044e+00
 4.528535681651295e-01	 1.340269395511398e+00	 1.842406793983525e+00
 4.404637197440476e-01	 1.344392123746545e+00	 1.847099191395493e+00
 4.280637159376501e-01	 1.348391629857209e+00	 1.853772418245365e+00
 4.156552874882399e-01	 1.352268194768276e+00	 1.863508167340700e+00
 4.032401519653424e-01	 1.356022129808173e+00	 1.877422480437820e+00
 3.908200131491575e-01	 1.359653776228938e+00	 1.896663442429126e+00
 3.783965604315673e-01	 1.363163504712884e+00	 1.922408548592734e+00
 3.659714682349676e-01	 1.366551714866505e+00	 1.955890037834718e+00
 4.930008196198934e-01	 1.335437963250109e+00	 1.916797627105510e+00
 4.805749152935335e-01	 1.339959763277518e+00	 1.927622272029421e+00
 4.681334945536649e-01	 1.344356912697414e+00	 1.936855068107727e+00
 4.556783348090451e-01	 1.348629599654967e+00	 1.945453860086813e+00
 4.432112021774441e-01	 1.352778044249608e+00	 1.954406319100830e+00
 4.307338508142108e-01	 1.356802498096622e+00	 1.964728897913211e+00
 4.182480222574991e-01	 1.360703243873228e+00	 1.977465357957622e+00
 4.057554447905181e-01	 1.364480594849838e+00	 1.993684898391398e+00
 3.932578328211385e-01	 1.368134894407131e+00	 2.014479919199254e+00
 3.807568862791614e-01	 1.371666515539633e+00	 2.040963451932100e+00
 3.682542900315289e-01	 1.375075860346475e+00	 2.074270131152151e+00
 4.960569497101224e-01	 1.343716391958665e+00	 2.006695909810826e+00
 4.835540167490411e-01	 1.348266222789505e+00	 2.028006348051458e+00
 4.710354711876202e-01	 1.352690630299162e+00	 2.048206887021953e+00
 4.585031014528350e-01	 1.356989803799131e+00	 2.067888316193165e+00
 4.459586846106810e-01	 1.361163964753259e+00	 2.087657319862505e+00
 4.334039856905763e-01	 1.365213366336608e+00	 2.108136082872648e+00
 4.208407570265301e-01	 1.369138292978735e+00	 2.129961455124396e+00
 4.082707376154387e-01	 1.372939059892032e+00	 2.153783705255551e+00
 3.956956524928468e-01	 1.376616012585818e+00	 2.180264895771739e+00
 3.831172121264788e-01	 1.380169526366831e+00	 2.210076913542341e+00
 3.705371118278250e-01	 1.383600005826839e+00	 2.243899190915641e+00
 4.991130798001508e-01	 1.351994820668021e+00	 2.100905185524987e+00
 4.865331182043390e-01	 1.356572682302293e+00	 2.137665682769293e+00
 4.739374478213425e-01	 1.361024347901707e+00	 2.174685436805837e+00
 4.613278680963599e-01	 1.365350007944089e+00	 2.211838790709968e+00
 4.487061670436159e-01	 1.369549885257692e+00	 2.248997330214495e+00
 4.360741205666026e-01	 1.373624234577360e+00	 2.286030693350056e+00
 4.234334917951887e-01	 1.377573342084982e+00	 2.322806921213312e+00
 4.107860304399624e-01	 1.381397524934933e+00	 2.359192379654539e+00
 3.981334721641456e-01	 1.385097130765164e+00	 2.395051283706489e+00
 3.854775379733910e-01	 1.388672537194630e+00	 2.430244858313019e+00
 3.728199336237416e-01	 1.392124151307731e+00	 2.464630170356756e+00
 3.499917156613211e-01	 1.306882696506716e+00	 2.576516302172358e+00
 3.381091705472289e-01	 1.310007161332449e+00	 2.656974284102612e+00
 3.262282160356712e-01	 1.313016260802667e+00	 2.713068874696815e+00
 3.143504082451845e-01	 1.315910458735754e+00	 2.747574360836024e+00
 3.024772868851621e-01	 1.318690244556447e+00	 2.763264277177874e+00
 2.906103747886412e-01	 1.321356132759197e+00	 2.762902087543855e+00
 2.787511774632436e-01	 1.323908662363273e+00	 2.749232580998775e+00
 2.669011826603555e-01	 1.326348396360253e+00	 2.724973959176071e+00
 2.550618599626067e-01	 1.328675921154549e+00	 2.692810589024651e+00
 2.432346603896930e-01	 1.330891845997599e+00	 2.655386393088289e+00
 2.314210160225521e-01	 1.332996802416356e+00	 2.615298847672440e+00
 3.522745374565047e-01	 1.315406841987608e+00	 2.331264878939356e+00
 3.403144884137317e-01	 1.318551686142743e+00	 2.399079813895802e+00
 3.283560403481451e-01	 1.321580412471606e+00	 2.453342886182082e+00
 3.164007595280842e-01	 1.324493487817822e+00	 2.495333058287839e+00
 3.044501957057148e-01	 1.327291404798392e+00	 2.526312378282217e+00
 2.925058816467719e-01	 1.329974681263546e+00	 2.547518898841074e+00
 2.805693326785690e-01	 1.332543859748293e+00	 2.560160306876538e+00
 2.686420462563690e-01	 1.334999506916314e+00	 2.565408235854181e+00
 2.567255015481725e-01	 1.337342212996832e+00	 2.564393230568172e+00
 2.448211590379691e-01	 1.339572591215119e+00	 2.558200332159124e+00
 2.329304601474622e-01	 1.341691277217250e+00	 2.547865249497611e+00
 3.545573592522309e-01	 1.323930987467973e+00	 2.138542705174288e+00
 3.425198062806841e-01	 1.327096210952599e+00	 2.197257099219560e+00
 3.304838646609647e-01	 1.330144564140208e+00	 2.250859247017279e+00
 3.184511108112183e-01	 1.333076516899666e+00	 2.299394630661298e+00
 3.064231045263883e-01	 1.335892565040230e+00	 2.342880211265962e+00
 2.944013885049106e-01	 1.338593229767908e+00	 2.381299173412348e+00
 2.823874878937946e-01	 1.341179057133447e+00	 2.414596380062654e+00
 2.703829098521839e-01	 1.343650617472627e+00	 2.442674506038787e+00
 2.583891431334537e-01	 1.346008504839481e+00	 2.465390815887948e+00
 2.464076576858912e-01	 1.348253336433106e+00	 2.482554550029593e+00
 2.344399042719691e-01	 1.350385752018702e+00	 2.493924881488902e+00
 3.568401810483847e-01	 1.332455132947942e+00	 1.998142199497686e+00
 3.447251241479886e-01	 1.335640735762127e+00	 2.050586544097117e+00
 3.326116889740540e-01	 1.338708715808558e+00	 2.104136622491718e+00
 3.205014620945353e-01	 1.341659545981341e+00	 2.157860852623364e+00
 3.083960133471568e-01	 1.344493725281991e+00	 2.210792025690540e+00
 2.962968953630578e-01	 1.347211778272284e+00	 2.261923468763265e+00
 2.842056431089469e-01	 1.349814254518708e+00	 2.310205921673130e+00
 2.721237734478507e-01	 1.352301728029137e+00	 2.354545092757230e+00
 2.600527847185219e-01	 1.354674796682413e+00	 2.393799855781676e+00
 2.479941563335479e-01	 1.356934081651459e+00	 2.426781048477684e+00
 2.359493483961735e-01	 1.359080226820593e+00	 2.452250831584759e+00
 3.591230028448506e-01	 1.340979278427649e+00	 1.909863869255589e+00
 3.469304420155475e-01	 1.344185260571437e+00	 1.958173814858957e+00
 3.347395132873366e-01	 1.347272867476741e+00	 2.011732382778462e+00
 3.225518133779837e-01	 1.350242575062906e+00	 2.068882052065339e+00
 3.103689221679943e-01	 1.353094885523699e+00	 2.127927016198984e+00
 2.981924022212141e-01	 1.355830326776671e+00	 2.187130361480732e+00
 2.860237983240519e-01	 1.358449451904044e+00	 2.244711967437769e+00
 2.738646370434192e-01	 1.360952838585789e+00	 2.298847090763486e+00
 2.617164263034480e-01	 1.363341088525549e+00	 2.347665592066223e+00
 2.495806549810275e-01	 1.365614826870076e+00	 2.389251762820021e+00
 2.374587925201764e-01	 1.367774701622806e+00	 2.421644708401786e+00
 3.614058246415134e-01	 1.349503423907223e+00	 1.873516390252329e+00
 3.491357598832633e-01	 1.352729785380636e+00	 1.919149338207521e+00
 3.368673376007369e-01	 1.355837019144840e+00	 1.972241639774652e+00
 3.246021646615114e-01	 1.358825604144416e+00	 2.030655801813037e+00
 3.123418309888752e-01	 1.361696045765385e+00	 2.092217780801732e+00
 3.000879090793801e-01	 1.364448875281070e+00	 2.154714779376334e+00
 2.878419535391358e-01	 1.367084649289429e+00	 2.215893776527498e+00
 2.756055006389397e-01	 1.369603949142524e+00	 2.273460750392512e+00
 2.633800678883034e-01	 1.372007380368809e+00	 2.325080550294528e+00
 2.511671536284188e-01	 1.374295572088857e+00	 2.368377372798858e+00
 2.389682366440784e-01	 1.376469176425223e+00	 2.400935795054409e+00
 3.636886464382575e-01	 1.358027569386798e+00	 1.888916690503793e+00
 3.513410777510382e-01	 1.361274310189836e+00	 1.932667824616387e+00
 3.389951619141786e-01	 1.364401170812940e+00	 1.984296326085155e+00
 3.266525159450667e-01	 1.367408633225928e+00	 2.041425665947608e+00
 3.143147398097734e-01	 1.370297206007076e+00	 2.101648842063681e+00
 3.019834159375560e-01	 1.373067423785480e+00	 2.162526400811002e+00
 2.896601087542249e-01	 1.375719846674832e+00	 2.221585207999878e+00
 2.773463642344626e-01	 1.378255059699291e+00	 2.276317925794773e+00
 2.650437094731596e-01	 1.380673672212113e+00	 2.324183150108961e+00
 2.527536522758100e-01	 1.382976317307702e+00	 2.362606161025874e+00
 2.404776807679804e-01	 1.385163651227725e+00	 2.388980237286150e+00
 3.659714682349676e-01	 1.366551714866505e+00	 1.955890037834718e+00
 3.535463956187747e-01	 1.369818834999146e+00	 1.997907815956873e+00
 3.411229862275859e-01	 1.372965322481125e+00	 2.046564314308630e+00
 3.287028672285982e-01	 1.375991662307499e+00	 2.099479998351764e+00
 3.162876486306632e-01	 1.378898366248802e+00	 2.154255228445348e+00
 3.038789227957426e-01	 1.381685972289900e+00	 2.208468118267080e+00
 2.914782639693453e-01	 1.384355044060225e+00	 2.259673161909895e+00
 2.790872278300376e-01	 1.386906170256031e+00	 2.305400584739491e+00
 2.667073510580876e-01	 1.389339964055382e+00	 2.343156370714139e+00
 2.543401509232899e-01	 1.391657062526507e+00	 2.370422916905934e+00
 2.419871248919833e-01	 1.393858126030196e+00	 2.384660264414171e+00
 3.682542900315289e-01	 1.375075860346475e+00	 2.074270131152151e+00
 3.557517134863752e-01	 1.378363359808674e+00	 2.114071256299944e+00
 3.432508105408824e-01	 1.381529474149479e+00	 2.157748574876499e+00
 3.307532185120539e-01	 1.384574691389187e+00	 2.203150791214524e+00
 3.182605574515188e-01	 1.387499526490589e+00	 2.248121113187179e+00
 3.057744296539400e-01	 1.390304520794330e+00	 2.290494563379276e+00
 2.932964191845232e-01	 1.392990241445579e+00	 2.328096082279505e+00
 2.808280914257150e-01	 1.395557280812689e+00	 2.358739377314585e+00
 2.683709926431588e-01	 1.398006255898535e+00	 2.380226469077157e+00
 2.559266495709470e-01	 1.400337807745173e+00	 2.390347884067099e+00
 2.434965690161878e-01	 1.402552600832516e+00	 2.386883441662935e+00
 3.705371118278250e-01	 1.383600005826839e+00	 2.243899190915641e+00
 3.579570313537422e-01	 1.386907884618530e+00	 2.280383084892902e+00
 3.453786348539923e-01	 1.390093625818086e+00	 2.316586370781199e+00
 3.328035697953822e-01	 1.393157720471047e+00	 2.350812571339257e+00
 3.202334662723141e-01	 1.396100686732467e+00	 2.381378508254916e+00
 3.076699365121491e-01	 1.398923069298769e+00	 2.406610690773626e+00
 2.951145743997849e-01	 1.401625438830864e+00	 2.424842519257842e+00
 2.825689550215451e-01	 1.404208391369210e+00	 2.434412260982930e+00
 2.700346342284445e-01	 1.406672547741491e+00	 2.433661748580874e+00
 2.575131482188697e-01	 1.409018552963599e+00	 2.420935749420296e+00
 2.450060131406947e-01	 1.411247075634568e+00	 2.394581952533177e+00
 3.728199336237416e-01	 1.392124151307731e+00	 2.464630170356756e+00
 3.601623492207781e-01	 1.395452409428825e+00	 2.496090850359716e+00
 3.475064591668398e-01	 1.398657777487031e+00	 2.521848487611890e+00
 3.348539210785312e-01	 1.401740749553137e+00	 2.540881342205298e+00
 3.222063750930237e-01	 1.404701846974463e+00	 2.552206010985205e+00
 3.095654433703703e-01	 1.407541617803216e+00	 2.554870418193155e+00
 2.969327296151564e-01	 1.410260636216053e+00	 2.547949747934468e+00
 2.843098186175781e-01	 1.412859501925538e+00	 2.530543179578954e+00
 2.716982758140161e-01	 1.415338839584173e+00	 2.501771375967514e+00
 2.590996468671465e-01	 1.417699298181683e+00	 2.460774672064133e+00
 2.465154572656048e-01	 1.419941550436234e+00	 2.406711909918513e+00
 2.314210160225521e-01	 1.332996802416356e+00	 2.615298847672440e+00
 2.196203356210291e-01	 1.334991773238847e+00	 2.571593992432619e+00
 2.078360252480811e-01	 1.336877065048610e+00	 2.522527873989828e+00
 1.960694618236402e-01	 1.338653372104617e+00	 2.469479538617055e+00
 1.843220019302544e-01	 1.340321408639350e+00	 2.413858585950404e+00
 1.725949815280879e-01	 1.341881908267035e+00	 2.357101305202187e+00
 1.608897156880044e-01	 1.343335623389784e+00	 2.300667107607500e+00
 1.492074983425993e-01	 1.344683324602242e+00	 2.246035224639511e+00
 1.375496020550363e-01	 1.345925800095279e+00	 2.194701641998708e+00
 1.259172778055192e-01	 1.347063855059284e+00	 2.148176240046852e+00
 1.143117547952176e-01	 1.348098311087590e+00	 2.107980112201866e+00
 2.329304601474622e-01	 1.341691277217250e+00	 2.547865249497611e+00
 2.210528097801408e-01	 1.343699260241742e+00	 2.532011034353852e+00
 2.091916362150057e-01	 1.345596848871830e+00	 2.509181694622733e+00
 1.973483253529381e-01	 1.347384741894796e+00	 2.480285085098473e+00
 1.855242426247843e-01	 1.349063658201715e+00	 2.446273958182789e+00
 1.737207327044978e-01	 1.350634336191816e+00	 2.408142527547141e+00
 1.619391192404805e-01	 1.352097533174766e+00	 2.366923310125415e+00
 1.501807046049928e-01	 1.353454024771419e+00	 2.323684214395219e+00
 1.384467696614805e-01	 1.354704604313630e+00	 2.279525843464788e+00
 1.267385735496553e-01	 1.355850082243650e+00	 2.235578982243712e+00
 1.150573534881408e-01	 1.356891285513661e+00	 2.193002238922098e+00
 2.344399042719691e-01	 1.350385752018702e+00	 2.493924881488902e+00
 2.224852839388230e-01	 1.352406747245271e+00	 2.498168538742664e+00
 2.105472471814967e-01	 1.354316632695745e+00	 2.494482135596053e+00
 1.986271888818180e-01	 1.356116111685718e+00	 2.483428075907785e+00
 1.867264833189296e-01	 1.357805907764853e+00	 2.465622981638309e+00
 1.748464838805718e-01	 1.359386764117388e+00	 2.441734652395979e+00
 1.629885227926837e-01	 1.360859442960541e+00	 2.412479292713063e+00
 1.511539108671877e-01	 1.362224724941377e+00	 2.378618973233845e+00
 1.393439372678103e-01	 1.363483408532734e+00	 2.340959292638892e+00
 1.275598692937688e-01	 1.364636309428726e+00	 2.300347207980391e+00
 1.158029521811390e-01	 1.365684259940387e+00	 2.257669002146314e+00
 2.359493483961735e-01	 1.359080226820593e+00	 2.452250831584759e+00
 2.239177580971834e-01	 1.361114234249305e+00	 2.469298091066617e+00
 2.119028581476625e-01	 1.363036416520218e+00	 2.478050634590220e+00
 1.999060524103843e-01	 1.364847481477240e+00	 2.478848917564856e+00
 1.879287240127863e-01	 1.366548157328623e+00	 2.472091970358350e+00
 1.759722350563943e-01	 1.368139192043613e+00	 2.458234723042358e+00
 1.640379263446822e-01	 1.369621352746974e+00	 2.437785594502726e+00
 1.521271171292337e-01	 1.370995425111989e+00	 2.411304310122181e+00
 1.402411048740542e-01	 1.372262212752476e+00	 2.379399912960461e+00
 1.283811650378653e-01	 1.373422536614409e+00	 2.342728934292563e+00
 1.165485508741936e-01	 1.374477234367676e+00	 2.301993690500019e+00
 2.374587925201764e-01	 1.367774701622806e+00	 2.421644708401786e+00
 2.253502322553289e-01	 1.369821721253712e+00	 2.444648007409918e+00
 2.132584691136115e-01	 1.371756200345110e+00	 2.459515376530764e+00
 2.011849159387416e-01	 1.373578851269221e+00	 2.466486639544799e+00
 1.891309647064506e-01	 1.375290406892884e+00	 2.465859646782542e+00
 1.770979862320488e-01	 1.376891619970350e+00	 2.457987935264561e+00
 1.650873298965443e-01	 1.378383262533937e+00	 2.443278657013389e+00
 1.531003233911805e-01	 1.379766125283133e+00	 2.422190737569042e+00
 1.411382724802409e-01	 1.381041016972741e+00	 2.395233227527967e+00
 1.292024607819506e-01	 1.382208763800598e+00	 2.362963810939857e+00
 1.172941495672856e-01	 1.383270208795438e+00	 2.325987435618138e+00
 2.389682366440784e-01	 1.376469176425223e+00	 2.400935795054409e+00
 2.267827064133671e-01	 1.378529208258362e+00	 2.423482845213439e+00
 2.146140800794520e-01	 1.380475984170285e+00	 2.438511106176418e+00
 2.024637794669945e-01	 1.382310221061520e+00	 2.446278951892132e+00
 1.903332054000187e-01	 1.384032656457494e+00	 2.447097385867609e+00
 1.782237374076194e-01	 1.385644047897464e+00	 2.441328007779576e+00
 1.661367334483380e-01	 1.387145172321294e+00	 2.429381259173516e+00
 1.540735296530776e-01	 1.388536825454683e+00	 2.411714907904994e+00
 1.420354400863991e-01	 1.389819821193416e+00	 2.388832731830346e+00
 1.300237565260302e-01	 1.390994990987188e+00	 2.361283363342398e+00
 1.180397482603965e-01	 1.392063183223582e+00	 2.329659257650917e+00
 2.404776807679804e-01	 1.385163651227725e+00	 2.388980237286150e+00
 2.282151805714054e-01	 1.387236695263126e+00	 2.405082934580369e+00
 2.159696910452925e-01	 1.389195767995604e+00	 2.414678949626099e+00
 2.037426429952471e-01	 1.391041590853994e+00	 2.418162302271324e+00
 1.915354460935869e-01	 1.392774906022312e+00	 2.415969451387557e+00
 1.793494885831899e-01	 1.394396475824815e+00	 2.408577539911785e+00
 1.671861370001318e-01	 1.395907082108914e+00	 2.396502936939427e+00
 1.550467359149747e-01	 1.397307525626517e+00	 2.380300033943426e+00
 1.429326076925572e-01	 1.398598625414386e+00	 2.360560253105591e+00
 1.308450522701098e-01	 1.399781218174077e+00	 2.337911226903544e+00
 1.187853469535073e-01	 1.400856157652018e+00	 2.313016109479402e+00
 2.419871248919833e-01	 1.393858126030196e+00	 2.384660264414171e+00
 2.296476547295508e-01	 1.395944182267873e+00	 2.388743929249337e+00
 2.173253020112415e-01	 1.397915551820929e+00	 2.387666244355249e+00
 2.050215065236043e-01	 1.399772960646505e+00	 2.382071932478267e+00
 1.927376867872511e-01	 1.401517155587198e+00	 2.372633224756433e+00
 1.804752397588445e-01	 1.403148903752267e+00	 2.360048357034528e+00
 1.682355405519939e-01	 1.404668991896667e+00	 2.345040388181899e+00
 1.560199421769214e-01	 1.406078225798511e+00	 2.328356294705035e+00
 1.438297752987439e-01	 1.407377429635539e+00	 2.310766296910465e+00
 1.316663480141950e-01	 1.408567445361161e+00	 2.293063373094926e+00
 1.195309456465994e-01	 1.409649132080654e+00	 2.276062919696943e+00
 2.434965690161878e-01	 1.402552600832516e+00	 2.386883441662935e+00
 2.310801288879112e-01	 1.404651669272474e+00	 2.373776376381448e+00
 2.186809129774073e-01	 1.406635335646124e+00	 2.357126377411215e+00
 2.063003700521708e-01	 1.408504330438910e+00	 2.337941934435987e+00
 1.939399274811078e-01	 1.410259405152009e+00	 2.317239426698164e+00
 1.816009909346668e-01	 1.411901331679679e+00	 2.296041844315062e+00
 1.692849441039923e-01	 1.413430901684418e+00	 2.275377863480253e+00
 1.569931484389674e-01	 1.414848925970539e+00	 2.256281226853837e+00
 1.447269429049878e-01	 1.416156233856758e+00	 2.239790381456318e+00
 1.324876437582916e-01	 1.417353672548340e+00	 2.226948327661322e+00
 1.202765443396539e-01	 1.418442106509400e+00	 2.218802634410273e+00
 2.450060131406947e-01	 1.411247075634568e+00	 2.394581952533177e+00
 2.325126030465934e-01	 1.413359156276798e+00	 2.359505304349683e+00
 2.200365239438982e-01	 1.415355119471049e+00	 2.322718631415789e+00
 2.075792335810506e-01	 1.417235700231067e+00	 2.285705305696770e+00
 1.951421681752531e-01	 1.419001654716606e+00	 2.249932332071851e+00
 1.827267421107409e-01	 1.420653759606916e+00	 2.216849269267387e+00
 1.703343476561955e-01	 1.422192811472036e+00	 2.187887543431680e+00
 1.579663547011624e-01	 1.423619626142480e+00	 2.164460102460965e+00
 1.456241105113176e-01	 1.424935038077932e+00	 2.147961360238643e+00
 1.333089395024050e-01	 1.426139899735509e+00	 2.139767381285263e+00
 1.210221430326521e-01	 1.427235080938167e+00	 2.141236257911160e+00
 2.465154572656048e-01	 1.419941550436234e+00	 2.406711909918513e+00
 2.339450772057051e-01	 1.422066643280715e+00	 2.345269827758895e+00
 2.213921349108230e-01	 1.424074903295569e+00	 2.284108038040070e+00
 2.088580971103485e-01	 1.425967070022836e+00	 2.225294004471747e+00
 1.963444088697830e-01	 1.427743904280846e+00	 2.170849978145857e+00
 1.838524932871508e-01	 1.429406187533840e+00	 2.122752093592551e+00
 1.713837512086717e-01	 1.430954721259390e+00	 2.082929903053795e+00
 1.589395609635559e-01	 1.432390326314207e+00	 2.053266293682254e+00
 1.465212781177617e-01	 1.433713842298944e+00	 2.035597733462151e+00
 1.341302352465411e-01	 1.434926126922566e+00	 2.031714793034561e+00
 1.217677417255753e-01	 1.436028055366862e+00	 2.043362892267053e+00
 1.143117547952176e-01	 1.348098311087590e+00	 2.107980112201866e+00
 1.027362012421250e-01	 1.349029855853806e+00	 2.075749335772948e+00
 9.118980418052944e-02	 1.349859525943230e+00	 2.053997405995460e+00
 7.967369955167920e-02	 1.350588187874028e+00	 2.045584543242187e+00
 6.818900163770034e-02	 1.351216722171277e+00	 2.053365082881993e+00
 5.673680294597199e-02	 1.351746022787329e+00	 2.080184353362219e+00
 4.531817410899213e-02	 1.352176996524908e+00	 2.128875614269839e+00
 3.393416379947616e-02	 1.352510562463393e+00	 2.202257036048950e+00
 2.258579866042112e-02	 1.352747651388675e+00	 2.303128704682593e+00
 1.127408324985740e-02	 1.352889205227027e+00	 2.434269636311659e+00
 0.000000000000000e+00	 1.352936176483334e+00	 2.598434788681213e+00
 1.150573534881408e-01	 1.356891285513661e+00	 2.193002238922098e+00
 1.034062983596297e-01	 1.357828906282633e+00	 2.153193758553130e+00
 9.178458989584180e-02	 1.358663987896997e+00	 2.119389227118205e+00
 8.019337144721018e-02	 1.359397402526789e+00	 2.095510191538797e+00
 6.863376456377401e-02	 1.360030036440318e+00	 2.085430163522884e+00
 5.710686887879979e-02	 1.360562789420742e+00	 2.092971438035112e+00
 4.561376200799373e-02	 1.360996574185418e+00	 2.121902023782616e+00
 3.415549946404665e-02	 1.361332315808420e+00	 2.175932664921831e+00
 2.273311458624213e-02	 1.361570951146700e+00	 2.258713934862405e+00
 1.134761848484777e-02	 1.361713428270247e+00	 2.373833384756154e+00
 0.000000000000000e+00	 1.361760705896667e+00	 2.524812731226581e+00
 1.158029521811390e-01	 1.365684259940387e+00	 2.257669002146314e+00
 1.040763954773100e-01	 1.366627956712044e+00	 2.213706740549601e+00
 9.237937561142637e-02	 1.367468449851268e+00	 2.171774049325983e+00
 8.071304334309824e-02	 1.368206617179969e+00	 2.136546321834496e+00
 6.907852749027049e-02	 1.368843350709689e+00	 2.112618101195885e+00
 5.747693481208934e-02	 1.369379556054403e+00	 2.104499985334787e+00
 4.590934990746186e-02	 1.369816151846096e+00	 2.116615680592022e+00
 3.437683512904705e-02	 1.370154069153548e+00	 2.153299180839773e+00
 2.288043051240778e-02	 1.370394250904771e+00	 2.218792050766337e+00
 1.142115372004180e-02	 1.370537651313480e+00	 2.317240793776746e+00
 0.000000000000000e+00	 1.370585235310001e+00	 2.452694286992961e+00
 1.165485508741936e-01	 1.374477234367676e+00	 2.301993690500019e+00
 1.047464925951220e-01	 1.375427007141962e+00	 2.257081826225026e+00
 9.297416132721502e-02	 1.376272911805979e+00	 2.210845114471790e+00
 8.123271523925410e-02	 1.377015831833514e+00	 2.168410580402232e+00
 6.952329041708402e-02	 1.377656664979350e+00	 2.134800784878085e+00
 5.784700074572520e-02	 1.378196322688281e+00	 2.114930961556677e+00
 4.620493780727990e-02	 1.378635729506922e+00	 2.113606323767089e+00
 3.459817079436985e-02	 1.378975822498765e+00	 2.135519516023035e+00
 2.302774643883191e-02	 1.379217550662885e+00	 2.185248186848205e+00
 1.149468895538856e-02	 1.379361874356723e+00	 2.267252661458071e+00
 0.000000000000000e+00	 1.379409764723334e+00	 2.385873694969237e+00
 1.172941495672856e-01	 1.383270208795438e+00	 2.325987435618138e+00
 1.054165897130218e-01	 1.384226057572308e+00	 2.283116247197889e+00
 9.356894704313973e-02	 1.385077373761063e+00	 2.236302168006115e+00
 8.175238713558854e-02	 1.385825046487373e+00	 2.190826766346272e+00
 6.996805334410898e-02	 1.386469979249262e+00	 2.151852602322504e+00
 5.821706667959189e-02	 1.387013089322345e+00	 2.124420741805634e+00
 4.650052570733119e-02	 1.387455307167877e+00	 2.113448446179905e+00
 3.481950645990762e-02	 1.387797575844059e+00	 2.123727010842807e+00
 2.317506236542835e-02	 1.388040850421035e+00	 2.159919727357285e+00
 1.156822419083716e-02	 1.388186097399976e+00	 2.226559946133851e+00
 0.000000000000000e+00	 1.388234294136667e+00	 2.328049218756186e+00
 1.180397482603965e-01	 1.392063183223582e+00	 2.329659257650917e+00
 1.060866868309655e-01	 1.393025108003004e+00	 2.291610782888861e+00
 9.416373275913247e-02	 1.393881835716456e+00	 2.247851231273656e+00
 8.227205903201222e-02	 1.394634261141493e+00	 2.203524616344540e+00
 7.041281627123964e-02	 1.395283293519384e+00	 2.163650342218063e+00
 5.858713261357405e-02	 1.395829855956567e+00	 2.133121238613084e+00
 4.679611360749912e-02	 1.396274884828940e+00	 2.116701762577097e+00
 3.504084212555285e-02	 1.396619329189418e+00	 2.119026338191123e+00
 2.332237829211093e-02	 1.396864150179216e+00	 2.144597807586767e+00
 1.164175942633666e-02	 1.397010320443238e+00	 2.197785968718487e+00
 0.000000000000000e+00	 1.397058823550000e+00	 2.282826177698511e+00
 1.187853469535073e-01	 1.400856157652018e+00	 2.313016109479402e+00
 1.067567839489092e-01	 1.401824158433973e+00	 2.282369626742823e+00
 9.475851847512520e-02	 1.402686297672092e+00	 2.245204382632128e+00
 8.279173092843589e-02	 1.403443475795821e+00	 2.206239597677079e+00
 7.085757919837028e-02	 1.404096607789674e+00	 2.170073100159054e+00
 5.895719854755618e-02	 1.404646622590918e+00	 2.141180025792037e+00
 4.709170150766706e-02	 1.405094462490092e+00	 2.123911660072289e+00
 3.526217779119808e-02	 1.405441082534831e+00	 2.122494393063685e+00
 2.346969421879353e-02	 1.405687449937423e+00	 2.141028758593894e+00
 1.171529466183616e-02	 1.405834543486506e+00	 2.183488532098308e+00
 0.000000000000000e+00	 1.405883352963333e+00	 2.253719863860567e+00
 1.195309456465994e-01	 1.409649132080654e+00	 2.276062919696943e+00
 1.074268810668089e-01	 1.410623208865136e+00	 2.255200257783196e+00
 9.535330419104994e-02	 1.411490759627908e+00	 2.228079547007909e+00
 8.331140282477031e-02	 1.412252690450304e+00	 2.198712709178915e+00
 7.130234212539524e-02	 1.412909922060092e+00	 2.171002188257828e+00
 5.932726448142290e-02	 1.413463389225367e+00	 2.148740457737950e+00
 4.738728940771835e-02	 1.413914040151313e+00	 2.135609631827200e+00
 3.548351345673584e-02	 1.414262835880286e+00	 2.135181148874499e+00
 2.361701014538997e-02	 1.414510749695649e+00	 2.150915497859981e+00
 1.178882989728476e-02	 1.414658766529779e+00	 2.186161961204108e+00
 0.000000000000000e+00	 1.414707882376666e+00	 2.244158349830331e+00
 1.202765443396539e-01	 1.418442106509400e+00	 2.218802634410273e+00
 1.080969781846209e-01	 1.419422259296415e+00	 2.209913317267218e+00
 9.594808990683856e-02	 1.420295221583836e+00	 2.196200293522579e+00
 8.383107472092620e-02	 1.421061905104891e+00	 2.180690289773440e+00
 7.174710505220881e-02	 1.421723236330597e+00	 2.166321048242696e+00
 5.969733041505874e-02	 1.422280155859884e+00	 2.155941784373097e+00
 4.768287730753638e-02	 1.422733617812583e+00	 2.152313694650795e+00
 3.570484912205867e-02	 1.423084589225772e+00	 2.158110481945981e+00
 2.376432607181408e-02	 1.423334049453891e+00	 2.175918868236232e+00
 1.186236513263152e-02	 1.423482989573057e+00	 2.208239067206837e+00
 0.000000000000000e+00	 1.423532411789999e+00	 2.257485192088871e+00
 1.210221430326521e-01	 1.427235080938167e+00	 2.141236257911160e+00
 1.087670753023013e-01	 1.428221309727733e+00	 2.146322490222245e+00
 9.654287562242307e-02	 1.429099683539813e+00	 2.149295640842234e+00
 8.435074661681423e-02	 1.429871119759527e+00	 2.151923834259561e+00
 7.219186797870526e-02	 1.430536550601150e+00	 2.155915167890731e+00
 6.006739634834829e-02	 1.431096922494441e+00	 2.162919261922339e+00
 4.797846520700449e-02	 1.431553195473883e+00	 2.174528791210208e+00
 3.592618478705905e-02	 1.431906342571277e+00	 2.192280965547017e+00
 2.391164199797973e-02	 1.432157349212141e+00	 2.217658927405562e+00
 1.193590036782555e-02	 1.432307212616338e+00	 2.252093039108635e+00
 0.000000000000000e+00	 1.432356941203333e+00	 2.296962034449167e+00
 1.217677417255753e-01	 1.436028055366862e+00	 2.043362892267053e+00
 1.094371724198060e-01	 1.437020360159012e+00	 2.064244391653914e+00
 9.713766133773548e-02	 1.437904145495773e+00	 2.087099869918700e+00
 8.487041851234521e-02	 1.438680334414162e+00	 2.112169816041605e+00
 7.263663090477897e-02	 1.439349864871708e+00	 2.139672000652622e+00
 6.043746228117610e-02	 1.439913689129008e+00	 2.169804259699056e+00
 4.827405310600610e-02	 1.440372773135193e+00	 2.202747177512943e+00
 3.614752045162955e-02	 1.440728095916790e+00	 2.238666634784227e+00
 2.405895792380075e-02	 1.440980648970397e+00	 2.277716189981435e+00
 1.200943560281591e-02	 1.441131435659619e+00	 2.320039265841316e+00
 0.000000000000000e+00	 1.441181470616666e+00	 2.365771115847479e+00
 1.441181470616666e+00	 0.000000000000000e+00	 2.121599990851124e+00
 1.441131435659620e+00	 1.200943560281512e-02	 2.600078291072776e+00
 1.440980648970397e+00	 2.405895792380007e-02	 2.982251421029516e+00
 1.440728095916789e+00	 3.614752045162897e-02	 3.265185394057420e+00
 1.440372773135193e+00	 4.827405310600565e-02	 3.446548086236735e+00
 1.439913689129008e+00	 6.043746228117578e-02	 3.524612300461051e+00
 1.439349864871708e+00	 7.263663090477876e-02	 3.498257784797185e+00
 1.438680334414161e+00	 8.487041851234511e-02	 3.366972206122610e+00
 1.437904145495773e+00	 9.713766133773551e-02	 3.130851076559208e+00
 1.437020360159012e+00	 1.094371724198062e-01	 2.790596633888895e+00
 1.436028055366862e+00	 1.217677417255753e-01	 2.347515680877436e+00
 1.450004500024999e+00	 0.000000000000000e+00	 2.424680980566028e+00
 1.449954158749978e+00	 1.208295833795273e-02	 2.718585989810329e+00
 1.449802448932670e+00	 2.420624880826541e-02	 2.974359215688219e+00
 1.449548349729178e+00	 3.636881849277188e-02	 3.181455444436735e+00
 1.449190851633198e+00	 4.856959076004437e-02	 3.330058868185166e+00
 1.448728957078083e+00	 6.080746530917199e-02	 3.411098358942272e+00
 1.448161681043600e+00	 7.308131822897299e-02	 3.416261830656862e+00
 1.447488051666967e+00	 8.539000207294811e-02	 3.338009676931404e+00
 1.446707110857749e+00	 9.773234595027337e-02	 3.169587267785950e+00
 1.445817914916132e+00	 1.101071556331185e-01	 2.905036491960107e+00
 1.444819535154164e+00	 1.225132136805673e-01	 2.539206334419737e+00
 1.458827529433332e+00	 0.000000000000000e+00	 2.730015228489805e+00
 1.458776881840336e+00	 1.215648107288541e-02	 2.845906549895453e+00
 1.458624248894937e+00	 2.435353969238123e-02	 2.973316792765700e+00
 1.458368603541552e+00	 3.659011653347470e-02	 3.096282018708351e+00
 1.458008930131178e+00	 4.886512841359994e-02	 3.199656273306260e+00
 1.457544225027117e+00	 6.117746833668301e-02	 3.269135478135602e+00
 1.456973497215430e+00	 7.352600555271431e-02	 3.291280503561261e+00
 1.456295768919688e+00	 8.590958563315805e-02	 3.253539400705207e+00
 1.455510076219609e+00	 9.832703056249868e-02	 3.144268766286131e+00
 1.454615469673103e+00	 1.107771388462125e-01	 2.952754216744797e+00
 1.453611014941278e+00	 1.232586856354421e-01	 2.669229950880893e+00
 1.467650558841666e+00	 0.000000000000000e+00	 3.016253589614869e+00
 1.467599604930690e+00	 1.223000380766271e-02	 2.970114646230876e+00
 1.467446048857192e+00	 2.450083057622867e-02	 2.975145965466450e+00
 1.467188857353902e+00	 3.681141457383452e-02	 3.012114316251111e+00
 1.466827008629116e+00	 4.916066606677223e-02	 3.062654487325643e+00
 1.466359492976088e+00	 6.154747136380066e-02	 3.109298243103465e+00
 1.465785313387171e+00	 7.397069287607808e-02	 3.135502512361563e+00
 1.465103486172292e+00	 8.642916919302795e-02	 3.125676783159536e+00
 1.464313041581324e+00	 9.892171517443897e-02	 3.065209672372525e+00
 1.463413024429894e+00	 1.114471220590895e-01	 2.940494640764234e+00
 1.462402494728179e+00	 1.240041575901763e-01	 2.738954827162081e+00
 1.476473588250000e+00	 0.000000000000000e+00	 3.262562115077297e+00
 1.476422328021041e+00	 1.230352654233416e-02	 3.079574274086953e+00
 1.476267848819432e+00	 2.464812145988886e-02	 2.975967265572780e+00
 1.476009111166218e+00	 3.703271261394845e-02	 2.931345961918467e+00
 1.475645087126997e+00	 4.945620371966111e-02	 2.926195161722841e+00
 1.475174760924975e+00	 6.191747439061665e-02	 2.941910092101653e+00
 1.474597129558798e+00	 7.441538019913965e-02	 2.960826155635512e+00
 1.473911203424750e+00	 8.694875275261103e-02	 2.966247894518522e+00
 1.473116006942859e+00	 9.951639978612177e-02	 2.942477139330413e+00
 1.472210579186475e+00	 1.121171052717507e-01	 2.874840312416217e+00
 1.471193974514841e+00	 1.247496295447467e-01	 2.749714858511622e+00
 1.485296617658333e+00	 0.000000000000000e+00	 3.452529850208981e+00
 1.485245051111386e+00	 1.237704927694933e-02	 3.166490226028129e+00
 1.485089648781651e+00	 2.479541234344295e-02	 2.975042003124225e+00
 1.484829364978490e+00	 3.725401065391361e-02	 2.858750785773350e+00
 1.484463165624805e+00	 4.975174137236636e-02	 2.799040927782111e+00
 1.483990028873754e+00	 6.228747741722281e-02	 2.778220096698653e+00
 1.483408945730283e+00	 7.486006752197447e-02	 2.779503551724694e+00
 1.482718920677030e+00	 8.746833631196034e-02	 2.787038101260743e+00
 1.481918972304183e+00	 1.001110843975746e-01	 2.785925697192526e+00
 1.481008133942816e+00	 1.127870884841971e-01	 2.762216245704638e+00
 1.479985454301237e+00	 1.254951014991298e-01	 2.702810484621355e+00
 1.494119647066666e+00	 0.000000000000000e+00	 3.597349872785990e+00
 1.494067774201724e+00	 1.245057201155776e-02	 3.248681206727908e+00
 1.493911448743844e+00	 2.494270322697205e-02	 2.995460364412863e+00
 1.493649618790708e+00	 3.747530869382706e-02	 2.821267576710813e+00
 1.493281244122523e+00	 5.004727902498787e-02	 2.710471650772034e+00
 1.492805296822407e+00	 6.265748044371092e-02	 2.648249296768112e+00
 1.492220761901599e+00	 7.530475484465779e-02	 2.620604130497553e+00
 1.491526637929102e+00	 8.798791987112899e-02	 2.614385323847976e+00
 1.490721937665264e+00	 1.007057690088250e-01	 2.617305866379994e+00
 1.489805688698884e+00	 1.134570716964300e-01	 2.617960400540817e+00
 1.488776934087341e+00	 1.262405734533023e-01	 2.605842592406833e+00
 1.502942676475000e+00	 0.000000000000000e+00	 3.683533432197525e+00
 1.502890497292054e+00	 1.252409474620898e-02	 3.320913067432857e+00
 1.502733248706007e+00	 2.508999411055729e-02	 3.039158526067725e+00
 1.502469872602863e+00	 3.769660673378596e-02	 2.826849589813583e+00
 1.502099322620138e+00	 5.034281667762547e-02	 2.673247221416176e+00
 1.501620564770908e+00	 6.302748347017276e-02	 2.568304259660831e+00
 1.501032578072720e+00	 7.574944216726513e-02	 2.502675714380192e+00
 1.500334355180934e+00	 8.850750343017012e-02	 2.467728643490053e+00
 1.499524903026068e+00	 1.013004536199004e-01	 2.455551585642382e+00
 1.498603243454649e+00	 1.141270549084504e-01	 2.458963521738069e+00
 1.497568413873128e+00	 1.269860454072408e-01	 2.471522338334595e+00
 1.511765705883333e+00	 0.000000000000000e+00	 3.691203111998351e+00
 1.511713220382374e+00	 1.259761748095257e-02	 3.371692474004655e+00
 1.511555048668135e+00	 2.523728499427981e-02	 3.101719601002895e+00
 1.511290126414943e+00	 3.791790477388735e-02	 2.876810338004554e+00
 1.510917401117631e+00	 5.063835433037900e-02	 2.693027466174251e+00
 1.510435832719239e+00	 6.339748649670010e-02	 2.546969405972715e+00
 1.509844394243618e+00	 7.619412948987175e-02	 2.435768406810989e+00
 1.509142072432498e+00	 8.902708698913683e-02	 2.357088219215048e+00
 1.508327868386564e+00	 1.018951382308284e-01	 2.309121237547104e+00
 1.507400798210079e+00	 1.147970381202597e-01	 2.290585101575052e+00
 1.506359893658572e+00	 1.277315173609220e-01	 2.300718745559786e+00
 1.520588735291667e+00	 0.000000000000000e+00	 3.600925397283016e+00
 1.520535943472684e+00	 1.267114021583806e-02	 3.389777039996090e+00
 1.520376848630222e+00	 2.538457587822075e-02	 3.178815055345134e+00
 1.520110380226940e+00	 3.813920281422837e-02	 2.972420338714351e+00
 1.519735479614989e+00	 5.093389198334832e-02	 2.775329990923014e+00
 1.519251100667376e+00	 6.376748952338472e-02	 2.592620702745585e+00
 1.518656210414268e+00	 7.663881681255306e-02	 2.429691475211366e+00
 1.517949789683762e+00	 8.954667054808223e-02	 2.292245689562122e+00
 1.517130833746720e+00	 1.024898228416366e-01	 2.186272533469025e+00
 1.516198352965144e+00	 1.154670213318588e-01	 2.118027791129490e+00
 1.515151373443646e+00	 1.284769893143225e-01	 2.094014006005573e+00
 1.529411764700000e+00	 0.000000000000000e+00	 3.393697870834847e+00
 1.529358666562982e+00	 1.274466295091500e-02	 3.364168128308533e+00
 1.529198648592264e+00	 2.553186676246121e-02	 3.266202237712714e+00
 1.528930634038844e+00	 3.836050085490612e-02	 3.114908467199558e+00
 1.528553558112195e+00	 5.122942963663325e-02	 2.925534429287725e+00
 1.528066368615300e+00	 6.413749255031843e-02	 2.713431852616370e+00
 1.527468026584641e+00	 7.708350413538451e-02	 2.494020501884368e+00
 1.526757506934695e+00	 9.006625410705946e-02	 2.282751281607672e+00
 1.525933799106504e+00	 1.030845074523524e-01	 2.095068552913889e+00
 1.524995907719813e+00	 1.161370045432491e-01	 1.946371694567889e+00
 1.523942853228325e+00	 1.292224612674189e-01	 1.851975941504856e+00
 1.436028055366862e+00	 1.217677417255753e-01	 2.347515680877438e+00
 1.434926126922566e+00	 1.341302352465405e-01	 1.892157252545421e+00
 1.433713842298945e+00	 1.465212781177613e-01	 1.513241529023602e+00
 1.432390326314207e+00	 1.589395609635554e-01	 1.209603266272044e+00
 1.430954721259390e+00	 1.713837512086713e-01	 9.801663978403139e-01
 1.429406187533840e+00	 1.838524932871505e-01	 8.239360045391864e-01
 1.427743904280846e+00	 1.963444088697827e-01	 7.399899869467306e-01
 1.425967070022837e+00	 2.088580971103483e-01	 7.274704885856307e-01
 1.424074903295569e+00	 2.213921349108228e-01	 7.855751205025232e-01
 1.422066643280715e+00	 2.339450772057049e-01	 9.135480407061946e-01
 1.419941550436235e+00	 2.465154572656048e-01	 1.110670944451923e+00
 1.444819535154164e+00	 1.225132136805673e-01	 2.539206334419738e+00
 1.443710860615085e+00	 1.349513913857765e-01	 2.151161890197606e+00
 1.442491154287129e+00	 1.474182932226157e-01	 1.823671775255018e+00
 1.441159535630586e+00	 1.599126017993089e-01	 1.557477491908219e+00
 1.439715141685538e+00	 1.724329763824814e-01	 1.353227890566457e+00
 1.438157127711246e+00	 1.849780531073007e-01	 1.211464404479882e+00
 1.436484667825659e+00	 1.975464452063243e-01	 1.132606068533270e+00
 1.434696955644506e+00	 2.101367432572489e-01	 1.116934383703135e+00
 1.432793204919374e+00	 2.227475154497403e-01	 1.164578091958811e+00
 1.430772650174155e+00	 2.353773078714999e-01	 1.275497929353765e+00
 1.428634547339286e+00	 2.480246448137129e-01	 1.449471427798056e+00
 1.453611014941278e+00	 1.232586856354421e-01	 2.669229950880894e+00
 1.452495594307371e+00	 1.357725475249968e-01	 2.358238619031353e+00
 1.451268466275036e+00	 1.483153083275529e-01	 2.091938386573574e+00
 1.449928744946638e+00	 1.608856426352379e-01	 1.872381301561949e+00
 1.448475562111318e+00	 1.734822015565514e-01	 1.701392371211375e+00
 1.446908067888245e+00	 1.861036129277840e-01	 1.580549793342656e+00
 1.445225431370034e+00	 1.987484815432583e-01	 1.511165032696304e+00
 1.443426841265723e+00	 2.114153894045852e-01	 1.494262814459023e+00
 1.441511506542723e+00	 2.241028959891168e-01	 1.530561110731583e+00
 1.439478657067153e+00	 2.368095385377551e-01	 1.620451198833800e+00
 1.437327544241933e+00	 2.495338323622575e-01	 1.763977873261900e+00
 1.462402494728179e+00	 1.240041575901763e-01	 2.738954827162079e+00
 1.461280327999410e+00	 1.365937036641575e-01	 2.509014236852099e+00
 1.460045778262658e+00	 1.492123234325125e-01	 2.309040995490033e+00
 1.458697954262377e+00	 1.618586834712698e-01	 2.141814576397005e+00
 1.457235982536756e+00	 1.745314267308000e-01	 2.009799902989756e+00
 1.455659008064882e+00	 1.872291727485144e-01	 1.915124289336408e+00
 1.453966194914036e+00	 1.999505178804970e-01	 1.859554266161519e+00
 1.452156726886562e+00	 2.126940355522700e-01	 1.844472372345103e+00
 1.450229808165704e+00	 2.254582765288694e-01	 1.870853995522147e+00
 1.448184663959808e+00	 2.382417692043941e-01	 1.939244348714311e+00
 1.446020541144276e+00	 2.510430199111707e-01	 2.049735672986303e+00
 1.471193974514841e+00	 1.247496295447467e-01	 2.749714858511622e+00
 1.470065061691183e+00	 1.374148598032147e-01	 2.599217771985255e+00
 1.468823090249994e+00	 1.501093385374342e-01	 2.466191493002750e+00
 1.467467163577812e+00	 1.628317243073319e-01	 2.353572572733871e+00
 1.465996402961881e+00	 1.755806519051462e-01	 2.263941835900518e+00
 1.464409948241202e+00	 1.883547325694054e-01	 2.199499724088552e+00
 1.462706958457724e+00	 2.011525542179523e-01	 2.162041544991021e+00
 1.460886612507100e+00	 2.139726817002169e-01	 2.152932712330701e+00
 1.458948109788406e+00	 2.268136570689153e-01	 2.173084064902581e+00
 1.456890670852216e+00	 2.396739998713407e-01	 2.222927356621028e+00
 1.454713538046414e+00	 2.525522074603852e-01	 2.302391012622824e+00
 1.479985454301237e+00	 1.254951014991298e-01	 2.702810484621354e+00
 1.478849795382674e+00	 1.382360159421242e-01	 2.624677366662381e+00
 1.477600402237040e+00	 1.510063536422580e-01	 2.554807640335036e+00
 1.476236372892955e+00	 1.638047651433517e-01	 2.495737062402557e+00
 1.474756823386720e+00	 1.766298770795088e-01	 2.449650284765044e+00
 1.473160888417249e+00	 1.894802923903707e-01	 2.418356275833113e+00
 1.471447722001160e+00	 2.023545905555362e-01	 2.403263648356625e+00
 1.469616498127414e+00	 2.152513278483388e-01	 2.405355980188955e+00
 1.467666411410917e+00	 2.281690376091719e-01	 2.425167218246055e+00
 1.465596677744474e+00	 2.411062305385187e-01	 2.462757259442752e+00
 1.463406534948448e+00	 2.540613950098333e-01	 2.517687805626900e+00
 1.488776934087341e+00	 1.262405734533023e-01	 2.605842592406832e+00
 1.487634529073866e+00	 1.390571720808424e-01	 2.585396606901723e+00
 1.486377714223790e+00	 1.519033687469234e-01	 2.568834487944984e+00
 1.485005582207817e+00	 1.647778059792566e-01	 2.557748058402175e+00
 1.483517243811300e+00	 1.776791022538064e-01	 2.553408493381187e+00
 1.481911828593068e+00	 1.906058522113243e-01	 2.556743921029728e+00
 1.480188485544405e+00	 2.035566268931603e-01	 2.568215376338991e+00
 1.478346383747578e+00	 2.165299739965488e-01	 2.587786615128794e+00
 1.476384713033325e+00	 2.295244181495560e-01	 2.615299333489620e+00
 1.474302684636675e+00	 2.425384612058515e-01	 2.650191962908723e+00
 1.472099531850478e+00	 2.555705825594476e-01	 2.691464737260560e+00
 1.497568413873128e+00	 1.269860454072408e-01	 2.471522338334595e+00
 1.496419262764743e+00	 1.398783282193253e-01	 2.488946189545426e+00
 1.495155026210242e+00	 1.528003838513703e-01	 2.511065137696088e+00
 1.493774791522410e+00	 1.657508468149740e-01	 2.538010022068191e+00
 1.492277664235650e+00	 1.787283274279578e-01	 2.569681194293342e+00
 1.490662768768704e+00	 1.917314120321797e-01	 2.605729879914408e+00
 1.488929249087520e+00	 2.047586632307369e-01	 2.645539643761660e+00
 1.487076269367669e+00	 2.178086201447603e-01	 2.688207991246747e+00
 1.485103014655718e+00	 2.308797986899850e-01	 2.732528139084690e+00
 1.483008691528920e+00	 2.439706918732630e-01	 2.776970990462105e+00
 1.480792528752603e+00	 2.570797701091606e-01	 2.819652413794790e+00
 1.506359893658572e+00	 1.277315173609220e-01	 2.300718745559786e+00
 1.505203996455288e+00	 1.406994843575289e-01	 2.331628127149721e+00
 1.503932338196390e+00	 1.536973989555383e-01	 2.374464441620955e+00
 1.502544000836743e+00	 1.667238876504313e-01	 2.427371087028134e+00
 1.501038084659796e+00	 1.797775526018820e-01	 2.488395348761949e+00
 1.499413708944202e+00	 1.928569718528507e-01	 2.555475169723795e+00
 1.497670012630567e+00	 2.059606995681778e-01	 2.626425974873416e+00
 1.495806154987764e+00	 2.190872662928862e-01	 2.698927572097860e+00
 1.493821316278185e+00	 2.322351792303760e-01	 2.770511152606701e+00
 1.491714698421303e+00	 2.454029225406767e-01	 2.838546415441438e+00
 1.489485525654923e+00	 2.585889576589046e-01	 2.900228842196064e+00
 1.515151373443646e+00	 1.284769893143225e-01	 2.094014006005574e+00
 1.513988730145483e+00	 1.415206404954093e-01	 2.109088672893610e+00
 1.512709650182231e+00	 1.545944140593672e-01	 2.150709206655934e+00
 1.511313210150828e+00	 1.676969284855557e-01	 2.214516255032181e+00
 1.509798505083769e+00	 1.808267777754979e-01	 2.296232461704174e+00
 1.508164649119607e+00	 1.939825316732512e-01	 2.391656277036995e+00
 1.506410776173607e+00	 2.071627359053949e-01	 2.496655754333052e+00
 1.504536040607938e+00	 2.203659124408398e-01	 2.607162340391598e+00
 1.502539617900812e+00	 2.335905597706460e-01	 2.719164670227340e+00
 1.500420705313920e+00	 2.468351532080164e-01	 2.828702377019257e+00
 1.498178522557537e+00	 2.600981452086121e-01	 2.931859929734207e+00
 1.523942853228325e+00	 1.292224612674189e-01	 1.851975941504856e+00
 1.522773463835312e+00	 1.423417966329227e-01	 1.817075132166506e+00
 1.521486962167761e+00	 1.554914291627968e-01	 1.831670373421349e+00
 1.520082419464678e+00	 1.686699693202748e-01	 1.888395141417034e+00
 1.518558925507593e+00	 1.818760029487239e-01	 1.980186280595654e+00
 1.516915589294964e+00	 1.951080914932945e-01	 2.100286471442792e+00
 1.515151539716700e+00	 2.083647722423001e-01	 2.242246595583279e+00
 1.513265926228268e+00	 2.216445585885343e-01	 2.399927990882098e+00
 1.511257919523691e+00	 2.349459403107124e-01	 2.567504590026810e+00
 1.509126712206869e+00	 2.482673838752059e-01	 2.739464937079946e+00
 1.506871519460547e+00	 2.616073327582156e-01	 2.910614077694611e+00
 1.419941550436235e+00	 2.465154572656048e-01	 1.110670944451925e+00
 1.417699298181683e+00	 2.590996468671456e-01	 1.340678955021341e+00
 1.415338839584173e+00	 2.716982758140153e-01	 1.562460611829554e+00
 1.412859501925539e+00	 2.843098186175775e-01	 1.767658782651973e+00
 1.410260636216053e+00	 2.969327296151559e-01	 1.947546894329302e+00
 1.407541617803216e+00	 3.095654433703699e-01	 2.093023876289720e+00
 1.404701846974463e+00	 3.222063750930234e-01	 2.194609972688825e+00
 1.401740749553137e+00	 3.348539210785311e-01	 2.242443497263468e+00
 1.398657777487031e+00	 3.475064591668399e-01	 2.226278604302458e+00
 1.395452409428825e+00	 3.601623492207781e-01	 2.135484148028286e+00
 1.392124151307731e+00	 3.728199336237416e-01	 1.961728565513735e+00
 1.428634547339286e+00	 2.480246448137129e-01	 1.449471427798056e+00
 1.426378567834983e+00	 2.606858758407348e-01	 1.649551048683705e+00
 1.424003658318955e+00	 2.733616346119617e-01	 1.834122921935859e+00
 1.421509141954604e+00	 2.860503862995889e-01	 1.995572215938222e+00
 1.418894365779036e+00	 2.987505757782654e-01	 2.126092342191752e+00
 1.416158701315582e+00	 3.114606280278791e-01	 2.217681903764508e+00
 1.413301545180189e+00	 3.241789485560169e-01	 2.262142338685112e+00
 1.410322319681045e+00	 3.369039238400809e-01	 2.251076327170957e+00
 1.407220473410729e+00	 3.496339217890198e-01	 2.175887031056478e+00
 1.403995481830190e+00	 3.623672922246060e-01	 2.027778232853891e+00
 1.400646847843902e+00	 3.751023673821690e-01	 1.807949461701779e+00
 1.437327544241933e+00	 2.495338323622575e-01	 1.763977873261902e+00
 1.435057837487939e+00	 2.622721048147099e-01	 1.926745140816268e+00
 1.432668477053472e+00	 2.750249934102204e-01	 2.069948209319677e+00
 1.430158781983499e+00	 2.877909539818219e-01	 2.186616687177831e+00
 1.427528095341957e+00	 3.005684219414936e-01	 2.269720386110135e+00
 1.424775784828000e+00	 3.133558126853973e-01	 2.312167564042340e+00
 1.421901243386087e+00	 3.261515220189086e-01	 2.306803735463863e+00
 1.418903889809247e+00	 3.389539266014224e-01	 2.246411115093126e+00
 1.415783169334836e+00	 3.517613844108948e-01	 2.123708760300608e+00
 1.412538554232072e+00	 3.645722352280479e-01	 1.931353476940969e+00
 1.409169544380683e+00	 3.773848011401508e-01	 1.684544365496963e+00
 1.446020541144276e+00	 2.510430199111707e-01	 2.049735672986304e+00
 1.443737107140646e+00	 2.638583337890138e-01	 2.172689329232919e+00
 1.441333295787813e+00	 2.766883522087470e-01	 2.274389464440781e+00
 1.438808422012302e+00	 2.895315216642453e-01	 2.348413370477321e+00
 1.436161824904879e+00	 3.023862681048232e-01	 2.388365334459899e+00
 1.433392868340518e+00	 3.152509973429212e-01	 2.387875472979109e+00
 1.430500941592184e+00	 3.281240954817086e-01	 2.340599052100068e+00
 1.427485459937747e+00	 3.410039293625784e-01	 2.240216358077409e+00
 1.424345865259336e+00	 3.538888470324986e-01	 2.080433183423740e+00
 1.421081626634435e+00	 3.667771782311470e-01	 1.854981992267332e+00
 1.417692240918024e+00	 3.796672348977363e-01	 1.597592910561845e+00
 1.454713538046414e+00	 2.525522074603852e-01	 2.302391012622824e+00
 1.452416376793205e+00	 2.654445627635899e-01	 2.387795744396461e+00
 1.449998114522070e+00	 2.783517110074970e-01	 2.451787536579136e+00
 1.447458062041092e+00	 2.912720893468280e-01	 2.488395689791699e+00
 1.444795554467864e+00	 3.042041142682368e-01	 2.491718665661205e+00
 1.442009951853179e+00	 3.171461820004475e-01	 2.455922816441637e+00
 1.439100639798507e+00	 3.300966689444270e-01	 2.375241564125240e+00
 1.436067030066553e+00	 3.430539321235716e-01	 2.243975095196130e+00
 1.432908561184218e+00	 3.560163096538652e-01	 2.056490636946127e+00
 1.429624699037249e+00	 3.689821212339457e-01	 1.807223380622764e+00
 1.426214937455878e+00	 3.819496686549755e-01	 1.553020054816753e+00
 1.463406534948448e+00	 2.540613950098333e-01	 2.517687805626899e+00
 1.461095646445711e+00	 2.670307917383813e-01	 2.572460959436499e+00
 1.458662933256330e+00	 2.800150698064257e-01	 2.606374409740672e+00
 1.456107702069947e+00	 2.930126570295386e-01	 2.613814851601854e+00
 1.453429284030977e+00	 3.060219604317169e-01	 2.589236209627674e+00
 1.450627035366032e+00	 3.190413666579726e-01	 2.527157574047039e+00
 1.447700338005082e+00	 3.320692424070740e-01	 2.422161595004565e+00
 1.444648600195670e+00	 3.451039348844240e-01	 2.268893404550078e+00
 1.441471257109468e+00	 3.581437722750282e-01	 2.062060135597295e+00
 1.438167771440481e+00	 3.711870642364872e-01	 1.796721110693398e+00
 1.434737633994194e+00	 3.842321024119174e-01	 1.556600759524423e+00
 1.472099531850478e+00	 2.555705825594476e-01	 2.691464737260557e+00
 1.469774916098262e+00	 2.686170207133314e-01	 2.727066386877403e+00
 1.467327751990686e+00	 2.816784286054890e-01	 2.742276363895719e+00
 1.464757342098945e+00	 2.947532247123460e-01	 2.731745183141533e+00
 1.462063013594281e+00	 3.078398065952465e-01	 2.690145076537363e+00
 1.459244118879119e+00	 3.209365513154929e-01	 2.612166453498781e+00
 1.456300036211935e+00	 3.340418158696594e-01	 2.492514872919279e+00
 1.453230170325106e+00	 3.471539376451588e-01	 2.325908601637011e+00
 1.450033953035072e+00	 3.602712348960211e-01	 2.107076834072572e+00
 1.446710843844101e+00	 3.733920072388143e-01	 1.834972074170459e+00
 1.443260330532925e+00	 3.865145361686117e-01	 1.613964514982628e+00
 1.480792528752603e+00	 2.570797701091606e-01	 2.819652413794789e+00
 1.478454185750956e+00	 2.702032496883832e-01	 2.851978662623118e+00
 1.475992570725226e+00	 2.833417874046418e-01	 2.863517026262145e+00
 1.473406982128165e+00	 2.964937923952187e-01	 2.849089284164789e+00
 1.470696743157837e+00	 3.096576527588080e-01	 2.803450343309286e+00
 1.467861202392488e+00	 3.228317359730054e-01	 2.721282547412151e+00
 1.464899734419093e+00	 3.360143893321935e-01	 2.597190595375274e+00
 1.461811740454865e+00	 3.492039404057983e-01	 2.425697151357331e+00
 1.458596648961017e+00	 3.623986975168775e-01	 2.201239228617722e+00
 1.455253916248075e+00	 3.755969502409699e-01	 1.930922923123628e+00
 1.451783027072022e+00	 3.887969699251082e-01	 1.730599719128480e+00
 1.489485525654923e+00	 2.585889576589046e-01	 2.900228842196064e+00
 1.487133455403890e+00	 2.717894786634799e-01	 2.948335289524692e+00
 1.484657389460042e+00	 2.850051462038400e-01	 2.974211704244758e+00
 1.482056622157686e+00	 2.982343600781260e-01	 2.972587483375600e+00
 1.479330472721711e+00	 3.114754989223839e-01	 2.937941507684863e+00
 1.476478285906183e+00	 3.247269206305063e-01	 2.864592723966757e+00
 1.473499432626582e+00	 3.379869627946863e-01	 2.746819213574762e+00
 1.470393310584955e+00	 3.512539431663654e-01	 2.578682305355922e+00
 1.467159344887289e+00	 3.645261601376317e-01	 2.354016109070940e+00
 1.463796988652372e+00	 3.778018932429967e-01	 2.092383445543476e+00
 1.460305723611435e+00	 3.910794036814559e-01	 1.911857915063341e+00
 1.498178522557537e+00	 2.600981452086121e-01	 2.931859929734207e+00
 1.495812725057163e+00	 2.733757076385648e-01	 3.019123583812783e+00
 1.493322208195223e+00	 2.866685050030388e-01	 3.080259063020899e+00
 1.490706262187585e+00	 2.999749277610363e-01	 3.109969299311723e+00
 1.487964202285964e+00	 3.132933450859572e-01	 3.102574785364907e+00
 1.485095369420251e+00	 3.266221052879923e-01	 3.052003274086808e+00
 1.482099130834428e+00	 3.399595362571476e-01	 2.951780069110553e+00
 1.478974880715383e+00	 3.533039459268825e-01	 2.795041475856356e+00
 1.475722040813876e+00	 3.666536227583171e-01	 2.574653271498095e+00
 1.472340061056959e+00	 3.800068362449376e-01	 2.326973257983628e+00
 1.468828420151117e+00	 3.933618374377046e-01	 2.162957893227709e+00
 1.506871519460547e+00	 2.616073327582156e-01	 2.910614077694609e+00
 1.504491994710871e+00	 2.749619366135812e-01	 3.064799739828146e+00
 1.501987026930858e+00	 2.883318638021939e-01	 3.185912862995647e+00
 1.499355902217941e+00	 3.017154954439185e-01	 3.268536290732518e+00
 1.496597931850662e+00	 3.151111912495104e-01	 3.306655478509746e+00
 1.493712452934736e+00	 3.285172899454601e-01	 3.293644445579715e+00
 1.490698829042657e+00	 3.419321097195878e-01	 3.222252518808251e+00
 1.487556450846153e+00	 3.553539486873724e-01	 3.084591921571452e+00
 1.484284736740762e+00	 3.687810853789671e-01	 2.872126262811336e+00
 1.480883133461804e+00	 3.822117792468355e-01	 2.642127395391093e+00
 1.477351116691019e+00	 3.956442711939038e-01	 2.488989663692189e+00
 1.392124151307731e+00	 3.728199336237416e-01	 1.961728565513737e+00
 1.388672537194630e+00	 3.854775379733900e-01	 1.777626594785192e+00
 1.385097130765164e+00	 3.981334721641446e-01	 1.618396773164255e+00
 1.381397524934934e+00	 4.107860304399616e-01	 1.489123137691319e+00
 1.377573342084982e+00	 4.234334917951880e-01	 1.395246011992923e+00
 1.373624234577360e+00	 4.360741205666020e-01	 1.342560637403436e+00
 1.369549885257692e+00	 4.487061670436154e-01	 1.337215382247627e+00
 1.365350007944089e+00	 4.613278680963596e-01	 1.385709517122736e+00
 1.361024347901708e+00	 4.739374478213423e-01	 1.494890542820972e+00
 1.356572682302292e+00	 4.865331182043387e-01	 1.671951056334938e+00
 1.351994820668021e+00	 4.991130798001510e-01	 1.924425139200868e+00
 1.400646847843902e+00	 3.751023673821690e-01	 1.807949461701779e+00
 1.397174102670292e+00	 3.878374626085382e-01	 1.608197869477067e+00
 1.393576807313785e+00	 4.005708774511668e-01	 1.448657343569145e+00
 1.389854552197771e+00	 4.133008957112291e-01	 1.332663417093445e+00
 1.386006957391479e+00	 4.260257858469312e-01	 1.263755560006980e+00
 1.382033673128686e+00	 4.387438015691746e-01	 1.245675851356806e+00
 1.377934380313367e+00	 4.514531824554967e-01	 1.282367447707768e+00
 1.373708791011600e+00	 4.641521545819985e-01	 1.377972839271839e+00
 1.369356648929030e+00	 4.768389311729584e-01	 1.536831883636493e+00
 1.364877729873223e+00	 4.895117132677778e-01	 1.763479605344156e+00
 1.360271842200234e+00	 5.021686904049041e-01	 2.062643747925740e+00
 1.409169544380683e+00	 3.773848011401508e-01	 1.684544365496963e+00
 1.405675668146641e+00	 3.901973872432065e-01	 1.482141638305927e+00
 1.402056483863154e+00	 4.030082827376973e-01	 1.331098105536436e+00
 1.398311579461407e+00	 4.158157609820120e-01	 1.233272818682082e+00
 1.394440572698812e+00	 4.286180798982108e-01	 1.190601379562472e+00
 1.390443111680873e+00	 4.414134825713149e-01	 1.205094667714912e+00
 1.386318875369919e+00	 4.542001978669813e-01	 1.278837549621468e+00
 1.382067574079997e+00	 4.669764410672792e-01	 1.413987564351037e+00
 1.377688949957241e+00	 4.797404145242503e-01	 1.612773578189405e+00
 1.373182777445042e+00	 4.924903083309190e-01	 1.877494398786151e+00
 1.368548863733329e+00	 5.052243010093732e-01	 2.210517337285712e+00
 1.417692240918024e+00	 3.796672348977363e-01	 1.597592910561844e+00
 1.414177233623615e+00	 3.925573118774478e-01	 1.402563542154165e+00
 1.410536160413200e+00	 4.054456880237910e-01	 1.266273730797437e+00
 1.406768606725760e+00	 4.183306262523644e-01	 1.189373017757826e+00
 1.402874188006888e+00	 4.312103739490789e-01	 1.172484748563255e+00
 1.398852550233826e+00	 4.440831635730726e-01	 1.216204869301596e+00
 1.394703370427249e+00	 4.569472132781184e-01	 1.321100858390537e+00
 1.390426357149177e+00	 4.698007275522471e-01	 1.487710790835991e+00
 1.386021250986234e+00	 4.826418978752632e-01	 1.716542529651626e+00
 1.381487825017637e+00	 4.954689033938084e-01	 2.008073036716974e+00
 1.376825885267192e+00	 5.082799116136080e-01	 2.362747792927106e+00
 1.426214937455878e+00	 3.819496686549755e-01	 1.553020054816756e+00
 1.422678799101151e+00	 3.949172365113159e-01	 1.372485891896110e+00
 1.419015836963849e+00	 4.078830933095025e-01	 1.254716864736783e+00
 1.415225633990747e+00	 4.208454915223405e-01	 1.199415043353342e+00
 1.411307803315623e+00	 4.338026679995892e-01	 1.206177881045877e+00
 1.407261988787449e+00	 4.467528445744983e-01	 1.274497093126211e+00
 1.403087865485256e+00	 4.596942286889545e-01	 1.403757793068223e+00
 1.398785140219034e+00	 4.726250140369487e-01	 1.593237884922036e+00
 1.394353552015900e+00	 4.855433812260422e-01	 1.842107708193156e+00
 1.389792872590895e+00	 4.984474984564927e-01	 2.149429928689537e+00
 1.385102906801707e+00	 5.113355222176582e-01	 2.514159666099840e+00
 1.434737633994194e+00	 3.842321024119174e-01	 1.556600759524423e+00
 1.431180364579188e+00	 3.972771611448641e-01	 1.394850266231236e+00
 1.427495513515028e+00	 4.103204985948865e-01	 1.296938943247692e+00
 1.423682661256284e+00	 4.233603567919950e-01	 1.261878610788221e+00
 1.419741418624923e+00	 4.363949620497934e-01	 1.288522068288785e+00
 1.415671427341645e+00	 4.494225255756421e-01	 1.375562068852217e+00
 1.411472360543840e+00	 4.624412440995386e-01	 1.521530641715924e+00
 1.407143923289466e+00	 4.754493005214298e-01	 1.724798762794564e+00
 1.402685853046132e+00	 4.884448645766331e-01	 1.983576370462669e+00
 1.398097920164706e+00	 5.014260935190179e-01	 2.295912720785831e+00
 1.393379928336755e+00	 5.143911328215736e-01	 2.659697073403426e+00
 1.443260330532925e+00	 3.865145361686117e-01	 1.613964514982628e+00
 1.439681930057662e+00	 3.996370857781455e-01	 1.472520030705596e+00
 1.435975190066661e+00	 4.127579038799979e-01	 1.393430994738680e+00
 1.432139688522289e+00	 4.258752220613821e-01	 1.375271492848127e+00
 1.428175033934699e+00	 4.389872560997450e-01	 1.416425901662712e+00
 1.424080865896321e+00	 4.520922065765548e-01	 1.515087971910696e+00
 1.419856855602901e+00	 4.651882595099180e-01	 1.669260319245294e+00
 1.415502706360367e+00	 4.782735870057365e-01	 1.876754323320522e+00
 1.411018154076820e+00	 4.913463479270807e-01	 2.135190432685977e+00
 1.406402967738958e+00	 5.044046885814304e-01	 2.441998869899485e+00
 1.401656949872222e+00	 5.174467434254036e-01	 2.794420728033688e+00
 1.451783027072022e+00	 3.887969699251082e-01	 1.730599719128480e+00
 1.448183495536510e+00	 4.019970104112138e-01	 1.608282781159761e+00
 1.444454866618676e+00	 4.151953091648915e-01	 1.544664427901547e+00
 1.440596715788680e+00	 4.283900873305558e-01	 1.538128928000729e+00
 1.436608649244861e+00	 4.415795501494959e-01	 1.586863573863177e+00
 1.432490304451380e+00	 4.547618875772862e-01	 1.688857886547117e+00
 1.428241350662339e+00	 4.679352749201410e-01	 1.841903257095200e+00
 1.423861489431633e+00	 4.810978734899148e-01	 2.043593024978494e+00
 1.419350455107859e+00	 4.942478312774303e-01	 2.291322991068533e+00
 1.414708015313537e+00	 5.073832836437764e-01	 2.582292359216490e+00
 1.409933971407990e+00	 5.205023540291984e-01	 2.913505097124888e+00
 1.460305723611435e+00	 3.910794036814559e-01	 1.911857915063341e+00
 1.456685061015671e+00	 4.043569350441220e-01	 1.804852714690617e+00
 1.452934543170999e+00	 4.176327144496221e-01	 1.751091805821943e+00
 1.449053743055374e+00	 4.309049525995711e-01	 1.749013064134674e+00
 1.445042264555320e+00	 4.441718441990992e-01	 1.796873255321805e+00
 1.440899743006728e+00	 4.574315685778870e-01	 1.892747374309206e+00
 1.436625845722053e+00	 4.706822903302550e-01	 2.034528419356725e+00
 1.432220272503162e+00	 4.839221599740107e-01	 2.219927601133809e+00
 1.427682756139140e+00	 4.971493146277277e-01	 2.446474983483105e+00
 1.423013062888334e+00	 5.103618787061026e-01	 2.711520549124609e+00
 1.418210992943944e+00	 5.235579646330074e-01	 3.012235680034813e+00
 1.468828420151117e+00	 3.933618374377046e-01	 2.162957893227709e+00
 1.465186626495083e+00	 4.067168596769236e-01	 2.064872931070589e+00
 1.461414219723556e+00	 4.200701197342445e-01	 2.013147606986601e+00
 1.457510770322288e+00	 4.334198178684820e-01	 2.006512436378348e+00
 1.453475879865985e+00	 4.467641382486076e-01	 2.043555542742567e+00
 1.449309181562268e+00	 4.601012495784074e-01	 2.122722143692840e+00
 1.445010340781943e+00	 4.734293057403083e-01	 2.242314440209513e+00
 1.440579055574847e+00	 4.867464464580702e-01	 2.400491908038687e+00
 1.436015057170553e+00	 5.000507979780174e-01	 2.595271986703120e+00
 1.431318110463235e+00	 5.133404737684550e-01	 2.824531158049410e+00
 1.426488014479968e+00	 5.266135752368805e-01	 3.086006402658958e+00
 1.477351116691019e+00	 3.956442711939038e-01	 2.488989663692191e+00
 1.473688191974681e+00	 4.090767843096721e-01	 2.390917667432357e+00
 1.469893896276274e+00	 4.225075250188132e-01	 2.331248973716136e+00
 1.465967797589340e+00	 4.359346831373429e-01	 2.309241477621374e+00
 1.461909495176767e+00	 4.493564322980735e-01	 2.324071976849734e+00
 1.457718620117905e+00	 4.627709305788975e-01	 2.374835816859802e+00
 1.453394835841910e+00	 4.761763211503487e-01	 2.460546877769640e+00
 1.448937838646586e+00	 4.895707329421396e-01	 2.580137900196597e+00
 1.444347358201994e+00	 5.029522813283457e-01	 2.732461143706521e+00
 1.439623158038130e+00	 5.163190688308801e-01	 2.916289367969048e+00
 1.434765036015943e+00	 5.296691858408672e-01	 3.130317123086974e+00
 1.351994820668021e+00	 4.991130798001510e-01	 1.924425139200868e+00
 1.347289794632056e+00	 5.116776564812034e-01	 2.202866508285040e+00
 1.342458246410059e+00	 5.242228865066122e-01	 2.451111956730862e+00
 1.337500084121130e+00	 5.367469388226648e-01	 2.666926089783705e+00
 1.332415249865001e+00	 5.492479737946389e-01	 2.847947378116491e+00
 1.327203720078967e+00	 5.617241439652626e-01	 2.991692547426145e+00
 1.321865505875329e+00	 5.741735948273180e-01	 3.095561183173029e+00
 1.316400653358761e+00	 5.865944656098289e-01	 3.156840523082904e+00
 1.310809243923032e+00	 5.989848900772532e-01	 3.172710407883818e+00
 1.305091394526529e+00	 6.113429973410692e-01	 3.140248358756291e+00
 1.299247257946061e+00	 6.236669126831257e-01	 3.056434748153751e+00
 1.360271842200234e+00	 5.021686904049041e-01	 2.062643747925742e+00
 1.355538011614799e+00	 5.148101884395315e-01	 2.379615426661661e+00
 1.350676884264278e+00	 5.274322213766832e-01	 2.655549100695617e+00
 1.345688367705273e+00	 5.400329469527966e-01	 2.889219450726630e+00
 1.340572403683049e+00	 5.526105142707648e-01	 3.079320033232734e+00
 1.335328968490650e+00	 5.651630645630412e-01	 3.224466889338228e+00
 1.329958073308411e+00	 5.776887319689727e-01	 3.323202302753477e+00
 1.324459764523265e+00	 5.901856443258015e-01	 3.373998678562299e+00
 1.318834124027283e+00	 6.026519239727486e-01	 3.375262512528059e+00
 1.313081269494885e+00	 6.150856885675708e-01	 3.325338418645686e+00
 1.307201354638195e+00	 6.274850519149480e-01	 3.222513180904904e+00
 1.368548863733329e+00	 5.052243010093732e-01	 2.210517337285710e+00
 1.363786228598419e+00	 5.179427203975734e-01	 2.553564530938437e+00
 1.358895522119368e+00	 5.306415562464517e-01	 2.846416728814658e+00
 1.353876651290278e+00	 5.433189550825974e-01	 3.088739481530906e+00
 1.348729557501946e+00	 5.559730547465211e-01	 3.280163566420642e+00
 1.343454216903165e+00	 5.686019851604045e-01	 3.420288014761456e+00
 1.338050640742303e+00	 5.812038691101618e-01	 3.508683223119027e+00
 1.332518875688554e+00	 5.937768230412558e-01	 3.544894119387752e+00
 1.326859004132289e+00	 6.063189578676739e-01	 3.528443352036251e+00
 1.321071144463957e+00	 6.188283797934518e-01	 3.458834469163298e+00
 1.315155451330999e+00	 6.313031911461060e-01	 3.335555052257129e+00
 1.376825885267192e+00	 5.082799116136080e-01	 2.362747792927106e+00
 1.372034445582796e+00	 5.210752523553851e-01	 2.720240406192208e+00
 1.367114159975201e+00	 5.338508911159826e-01	 3.020099788752255e+00
 1.362064934876010e+00	 5.466049632121424e-01	 3.262765652409161e+00
 1.356886711321549e+00	 5.593355952219954e-01	 3.448690612258218e+00
 1.351579465316364e+00	 5.720409057574534e-01	 3.578342829663338e+00
 1.346143208176854e+00	 5.847190062510002e-01	 3.652208675516773e+00
 1.340577986854469e+00	 5.973680017563207e-01	 3.670795382818326e+00
 1.334883884237883e+00	 6.099859917621706e-01	 3.634633655559453e+00
 1.329061019433578e+00	 6.225710710188680e-01	 3.544280199025701e+00
 1.323109548024305e+00	 6.351213303767657e-01	 3.400320134959816e+00
 1.385102906801707e+00	 5.113355222176582e-01	 2.514159666099842e+00
 1.380282662567807e+00	 5.242077843130228e-01	 2.875273407932473e+00
 1.375332797831650e+00	 5.370602259853402e-01	 3.173067333219628e+00
 1.370253218462333e+00	 5.498909713415067e-01	 3.408641038487350e+00
 1.365043865141720e+00	 5.626981356972758e-01	 3.583156010989972e+00
 1.359704713730101e+00	 5.754798263542893e-01	 3.697838083178821e+00
 1.354235775611909e+00	 5.882341433916031e-01	 3.753979844756099e+00
 1.348637098020853e+00	 6.009591804711256e-01	 3.752942979455665e+00
 1.342908764343907e+00	 6.136530256563816e-01	 3.696160491653801e+00
 1.337050894403583e+00	 6.263137622439738e-01	 3.585138786062767e+00
 1.331063644717947e+00	 6.389394696070935e-01	 3.421459562120817e+00
 1.393379928336755e+00	 5.143911328215736e-01	 2.659697073403426e+00
 1.388530879553332e+00	 5.273403162705426e-01	 3.014395176791008e+00
 1.383551435688585e+00	 5.402695608545892e-01	 3.301870673458132e+00
 1.378441502049116e+00	 5.531769794707668e-01	 3.523771137714892e+00
 1.373201018962316e+00	 5.660606761724497e-01	 3.681856318271665e+00
 1.367829962144228e+00	 5.789187469510134e-01	 3.778000598360991e+00
 1.362328343047315e+00	 5.917492805320850e-01	 3.814195351888620e+00
 1.356696209187545e+00	 6.045503591857986e-01	 3.792551160514503e+00
 1.350933644450194e+00	 6.173200595504500e-01	 3.715299854526640e+00
 1.345040769373806e+00	 6.300564534689248e-01	 3.584796338531811e+00
 1.339017741411758e+00	 6.427576088372554e-01	 3.403520161370886e+00
 1.401656949872222e+00	 5.174467434254036e-01	 2.794420728033688e+00
 1.396779096539246e+00	 5.304728482279999e-01	 3.133436263934511e+00
 1.391770073545880e+00	 5.434788957237946e-01	 3.403141621832380e+00
 1.386629785636222e+00	 5.564629875999971e-01	 3.605622755371569e+00
 1.381358172783197e+00	 5.694232166476052e-01	 3.743129358034208e+00
 1.375955210558596e+00	 5.823576675477268e-01	 3.818077521544864e+00
 1.370420910482918e+00	 5.952644176725620e-01	 3.833052229902585e+00
 1.364755320354389e+00	 6.081415379004698e-01	 3.790809651353686e+00
 1.358958524556584e+00	 6.209870934445169e-01	 3.694279188570962e+00
 1.353030644344081e+00	 6.337991446938755e-01	 3.546565245467109e+00
 1.346971838105572e+00	 6.465757480674170e-01	 3.350948667468243e+00
 1.409933971407990e+00	 5.205023540291984e-01	 2.913505097124888e+00
 1.405027313525431e+00	 5.336053801854511e-01	 3.228323862648701e+00
 1.399988711403406e+00	 5.466882305930209e-01	 3.473590819869845e+00
 1.394818069223517e+00	 5.597489957292734e-01	 3.651722952432945e+00
 1.389515326604221e+00	 5.727857571228300e-01	 3.765353816693282e+00
 1.384080458973060e+00	 5.857965881445307e-01	 3.817336589557708e+00
 1.378513477918565e+00	 5.987795548131480e-01	 3.810746892717320e+00
 1.372814431521223e+00	 6.117327166152673e-01	 3.748885352652476e+00
 1.366983404662913e+00	 6.246541273387262e-01	 3.635279853721782e+00
 1.361020519314243e+00	 6.375418359189816e-01	 3.473687439800438e+00
 1.354925934799222e+00	 6.503938872977448e-01	 3.268095818336076e+00
 1.418210992943944e+00	 5.235579646330074e-01	 3.012235680034813e+00
 1.413275530511764e+00	 5.367379121429522e-01	 3.295079641755193e+00
 1.408207349261037e+00	 5.498975654623327e-01	 3.510006148254798e+00
 1.403006352810868e+00	 5.630350038586714e-01	 3.659658055183900e+00
 1.397672480425248e+00	 5.761482975982117e-01	 3.746948877013760e+00
 1.392205707387471e+00	 5.892355087415261e-01	 3.775066414044735e+00
 1.386606045354103e+00	 6.022946919539591e-01	 3.747476097749046e+00
 1.380873542687891e+00	 6.153238953303208e-01	 3.667924010551499e+00
 1.375008284769019e+00	 6.283211612332196e-01	 3.540439534050146e+00
 1.369010394284127e+00	 6.412845271443973e-01	 3.369337577813979e+00
 1.362880031492541e+00	 6.542120265284050e-01	 3.159220339292893e+00
 1.426488014479968e+00	 5.266135752368805e-01	 3.086006402658958e+00
 1.421523747498121e+00	 5.398704441005584e-01	 3.329817676723334e+00
 1.416425987118643e+00	 5.531069003317950e-01	 3.509251215446196e+00
 1.411194636398139e+00	 5.663210119882667e-01	 3.627072723590786e+00
 1.405829634246136e+00	 5.795108380738383e-01	 3.686373890016402e+00
 1.400330955801682e+00	 5.926744293388141e-01	 3.690576782213286e+00
 1.394698612789377e+00	 6.058098290951096e-01	 3.643437902307435e+00
 1.388932653854234e+00	 6.189150740457590e-01	 3.549051857016979e+00
 1.383033164874738e+00	 6.319881951281399e-01	 3.411854591897742e+00
 1.377000269253567e+00	 6.450272183702782e-01	 3.236626138321470e+00
 1.370834128185363e+00	 6.580301657595632e-01	 3.028492820014290e+00
 1.434765036015943e+00	 5.296691858408672e-01	 3.130317123086974e+00
 1.429771964484384e+00	 5.430029760583268e-01	 3.328742474530588e+00
 1.424644624976097e+00	 5.563162352014722e-01	 3.468263921742849e+00
 1.419382919985196e+00	 5.696070201181342e-01	 3.551669076057693e+00
 1.413986788066745e+00	 5.828733785497976e-01	 3.582128083388763e+00
 1.408456204215545e+00	 5.961133499364961e-01	 3.563198973330323e+00
 1.402791180224236e+00	 6.093249662367151e-01	 3.498832614069713e+00
 1.396991765020092e+00	 6.225062527617111e-01	 3.393377221628250e+00
 1.391058044979909e+00	 6.356552290236296e-01	 3.251582369748997e+00
 1.384990144222398e+00	 6.487699095967792e-01	 3.078602444816657e+00
 1.378788224877522e+00	 6.618483049913858e-01	 2.879999488555310e+00
 1.299247257946061e+00	 6.236669126831257e-01	 3.056434748153751e+00
 1.293278048388431e+00	 6.359526727492338e-01	 2.940337328854690e+00
 1.287183007398215e+00	 6.482004958785387e-01	 2.816057728336197e+00
 1.280962395459681e+00	 6.604085011917664e-01	 2.688258353970588e+00
 1.274616509643952e+00	 6.725748073546428e-01	 2.561790875177538e+00
 1.268145683747824e+00	 6.846975334493388e-01	 2.441691309940437e+00
 1.261550288408174e+00	 6.967747998534314e-01	 2.333174479920022e+00
 1.254830731191596e+00	 7.088047291255957e-01	 2.241627805614934e+00
 1.247987456658923e+00	 7.207854468972283e-01	 2.172604414368123e+00
 1.241020946404337e+00	 7.327150827691791e-01	 2.131815535669791e+00
 1.233931719068790e+00	 7.445917712127675e-01	 2.124507237557766e+00
 1.307201354638195e+00	 6.274850519149480e-01	 3.222513180904905e+00
 1.301195601097489e+00	 6.398460263967237e-01	 3.089089009270936e+00
 1.295063245774014e+00	 6.521688316887333e-01	 2.950926511546218e+00
 1.288804550746734e+00	 6.644515753968039e-01	 2.811863089403348e+00
 1.282419814905460e+00	 6.766923646689785e-01	 2.675984460117213e+00
 1.275909374090512e+00	 6.888893070722947e-01	 2.547621583803729e+00
 1.269273601207829e+00	 7.010405114771260e-01	 2.431346887705450e+00
 1.262512906319155e+00	 7.131440889482984e-01	 2.331969753567830e+00
 1.255627736706952e+00	 7.251981536421688e-01	 2.254531235573424e+00
 1.248618576913754e+00	 7.372008237088500e-01	 2.204297978050902e+00
 1.241485948755668e+00	 7.491502221987406e-01	 2.183920880794096e+00
 1.315155451330999e+00	 6.313031911461060e-01	 3.335555052257129e+00
 1.309113153807163e+00	 6.437393800435134e-01	 3.184257927706528e+00
 1.302943484150369e+00	 6.561371674981971e-01	 3.032784483528850e+00
 1.296646706034283e+00	 6.684946496010876e-01	 2.884189893208130e+00
 1.290223120167402e+00	 6.808099219825431e-01	 2.741819657841414e+00
 1.283673064433576e+00	 6.930810806944678e-01	 2.609308177216453e+00
 1.276996914007808e+00	 7.053062231000301e-01	 2.490576567838152e+00
 1.270195081446992e+00	 7.174834487702054e-01	 2.389829689036863e+00
 1.263268016755224e+00	 7.296108603863104e-01	 2.311552339753501e+00
 1.256216207423393e+00	 7.416865646477211e-01	 2.260468251744858e+00
 1.249040178442763e+00	 7.537086731839141e-01	 2.235166478275110e+00
 1.323109548024305e+00	 6.351213303767657e-01	 3.400320134959816e+00
 1.317030706517287e+00	 6.476327336897769e-01	 3.231700970296143e+00
 1.310823722527118e+00	 6.601055033071137e-01	 3.068292685781689e+00
 1.304488861322167e+00	 6.725377238048067e-01	 2.912410023709327e+00
 1.298026425429625e+00	 6.849274792955309e-01	 2.766683233405797e+00
 1.291436754776868e+00	 6.972728543160536e-01	 2.634058092153923e+00
 1.284720226807968e+00	 7.095719347223406e-01	 2.517795144224611e+00
 1.277877256574971e+00	 7.218228085915146e-01	 2.421468114729429e+00
 1.270908296803611e+00	 7.340235671298536e-01	 2.348961456467654e+00
 1.263813837933131e+00	 7.461723055859921e-01	 2.303365542663486e+00
 1.256594408129957e+00	 7.582671241684877e-01	 2.280851061683449e+00
 1.331063644717947e+00	 6.389394696070935e-01	 3.421459562120817e+00
 1.324948259227697e+00	 6.515260873356906e-01	 3.237141083924228e+00
 1.318703960904099e+00	 6.640738391156649e-01	 3.063959903225024e+00
 1.312331016610230e+00	 6.765807980081493e-01	 2.903531165203645e+00
 1.305829730691974e+00	 6.890450366081329e-01	 2.757794072889840e+00
 1.299200445120239e+00	 7.014646279372480e-01	 2.629013166778845e+00
 1.292443539608166e+00	 7.138376463442555e-01	 2.519778814790123e+00
 1.285559431702958e+00	 7.261621684124262e-01	 2.433006865337352e+00
 1.278548576851983e+00	 7.384362738729969e-01	 2.371937417706748e+00
 1.271411468442847e+00	 7.506580465238639e-01	 2.336583130742198e+00
 1.264148637817135e+00	 7.628255751526610e-01	 2.323537791043704e+00
 1.339017741411758e+00	 6.427576088372554e-01	 3.403520161370886e+00
 1.332865811938225e+00	 6.554194409814287e-01	 3.206172418854872e+00
 1.326584199281147e+00	 6.680421749240338e-01	 3.026148407411180e+00
 1.320173171898311e+00	 6.806238722113037e-01	 2.864403563182885e+00
 1.313633035954296e+00	 6.931625939205427e-01	 2.722209501533912e+00
 1.306964135463542e+00	 7.056564015582467e-01	 2.601156367009988e+00
 1.300166852408262e+00	 7.181033579659729e-01	 2.503154406763707e+00
 1.293241606830815e+00	 7.305015282331389e-01	 2.430434716742733e+00
 1.286188856900212e+00	 7.428489806159404e-01	 2.385392762036923e+00
 1.279009098952417e+00	 7.551437874615352e-01	 2.364114301844988e+00
 1.271702867504179e+00	 7.673840261366348e-01	 2.365746861584792e+00
 1.346971838105572e+00	 6.465757480674170e-01	 3.350948667468243e+00
 1.340783364648704e+00	 6.593127946271666e-01	 3.144265322190751e+00
 1.334464437658099e+00	 6.720105107324028e-01	 2.961079530310772e+00
 1.328015327186251e+00	 6.846669464144581e-01	 2.801725977262035e+00
 1.321436341216435e+00	 6.972801512329521e-01	 2.666831414107898e+00
 1.314727825806627e+00	 7.098481751792459e-01	 2.557317892258335e+00
 1.307890165208112e+00	 7.223690695876901e-01	 2.474405255482656e+00
 1.300923781958410e+00	 7.348408880538512e-01	 2.419612835512585e+00
 1.293829136948170e+00	 7.472616873588841e-01	 2.393339262482697e+00
 1.286606729461719e+00	 7.596295283992066e-01	 2.389875855481985e+00
 1.279257097190972e+00	 7.719424771206083e-01	 2.409956345627060e+00
 1.354925934799222e+00	 6.503938872977448e-01	 3.268095818336076e+00
 1.348700917358971e+00	 6.632061482730800e-01	 3.056771188288839e+00
 1.342344676034793e+00	 6.759788465409542e-01	 2.874839075635322e+00
 1.335857482473890e+00	 6.887100206178008e-01	 2.722051459300952e+00
 1.329239646478238e+00	 7.013977085455541e-01	 2.598412225224663e+00
 1.322491516149348e+00	 7.140399488004402e-01	 2.504181102964429e+00
 1.315613478007577e+00	 7.266347812096051e-01	 2.439876913965876e+00
 1.308605957085606e+00	 7.391802478747629e-01	 2.406280075242456e+00
 1.301469416995727e+00	 7.516743941020277e-01	 2.400576310114226e+00
 1.294204359970631e+00	 7.641152693370780e-01	 2.417709924253210e+00
 1.286811326877398e+00	 7.765009281047822e-01	 2.458602972164281e+00
 1.362880031492541e+00	 6.542120265284050e-01	 3.159220339292894e+00
 1.356618470068860e+00	 6.670995019193440e-01	 2.948927171973972e+00
 1.350224914411064e+00	 6.799471823498704e-01	 2.773382574330904e+00
 1.343699637761070e+00	 6.927530948215201e-01	 2.631792963858461e+00
 1.337042951739551e+00	 7.055152658585415e-01	 2.523560646951313e+00
 1.330255206491554e+00	 7.182317224220262e-01	 2.448288277213866e+00
 1.323336790806513e+00	 7.309004928319160e-01	 2.405782700166729e+00
 1.316288132212268e+00	 7.435196076960724e-01	 2.395816590198364e+00
 1.309109697042756e+00	 7.560871008455708e-01	 2.411985353035262e+00
 1.301801990479030e+00	 7.686010102753500e-01	 2.451385697687989e+00
 1.294365556563339e+00	 7.810593790893557e-01	 2.514082846686261e+00
 1.370834128185363e+00	 6.580301657595632e-01	 3.028492820014290e+00
 1.364536022778204e+00	 6.709928555661338e-01	 2.825860770120511e+00
 1.358105152786751e+00	 6.839155181593350e-01	 2.662540390569234e+00
 1.351541793047632e+00	 6.967961690258044e-01	 2.537228797786092e+00
 1.344846257000220e+00	 7.096328231721070e-01	 2.448747300729959e+00
 1.338018896833100e+00	 7.224234960441999e-01	 2.396046203370315e+00
 1.331060103604780e+00	 7.351662044548202e-01	 2.378209088495132e+00
 1.323970307338263e+00	 7.478589675179796e-01	 2.392941991514511e+00
 1.316749977089128e+00	 7.604998075897129e-01	 2.432351248316327e+00
 1.309399620986795e+00	 7.730867512142210e-01	 2.494601054363601e+00
 1.301919786248680e+00	 7.856178300745295e-01	 2.578752113669547e+00
 1.378788224877522e+00	 6.618483049913858e-01	 2.879999488555310e+00
 1.372453575486838e+00	 6.748862092136243e-01	 2.692594276914811e+00
 1.365985391161689e+00	 6.878838539695299e-01	 2.548022684270728e+00
 1.359383948333416e+00	 7.008392432308417e-01	 2.444507915454398e+00
 1.352649562260090e+00	 7.137503804864426e-01	 2.380310170295885e+00
 1.345782587173836e+00	 7.266152696671558e-01	 2.353731615344816e+00
 1.338783416402234e+00	 7.394319160785153e-01	 2.363120951894398e+00
 1.331652482463453e+00	 7.521983273406829e-01	 2.403086397958715e+00
 1.324390257134714e+00	 7.649125143346539e-01	 2.466364568904278e+00
 1.316997251493802e+00	 7.775724921538925e-01	 2.550984106007291e+00
 1.309474015933302e+00	 7.901762810605032e-01	 2.654927564051891e+00
 1.233931719068790e+00	 7.445917712127675e-01	 2.124507237557765e+00
 1.226720330625627e+00	 7.564136527099095e-01	 2.150657223145776e+00
 1.219387375231171e+00	 7.681788753817900e-01	 2.205912430350894e+00
 1.211933484255399e+00	 7.798855952156397e-01	 2.281060649457141e+00
 1.204359325889236e+00	 7.915319767413326e-01	 2.366692492303811e+00
 1.196665605024608e+00	 8.031161939398310e-01	 2.453214702993985e+00
 1.188853063107831e+00	 8.146364311505905e-01	 2.530864282182810e+00
 1.180922477966298e+00	 8.260908839770120e-01	 2.589723418660828e+00
 1.172874663608447e+00	 8.374777601890396e-01	 2.619735217841813e+00
 1.164710469997046e+00	 8.487952806219833e-01	 2.610720212529482e+00
 1.156430782795849e+00	 8.600416800706597e-01	 2.552393636996787e+00
 1.241485948755668e+00	 7.491502221987406e-01	 2.183920880794096e+00
 1.234230411609748e+00	 7.610444782096354e-01	 2.191515453025673e+00
 1.226852563269797e+00	 7.728817285253641e-01	 2.224419416933584e+00
 1.219353038971102e+00	 7.846601178439617e-01	 2.275490953502628e+00
 1.211732510995317e+00	 7.963777994584040e-01	 2.337369445572980e+00
 1.203991688549784e+00	 8.080329361706164e-01	 2.402485919416205e+00
 1.196131317620026e+00	 8.196237012044315e-01	 2.463074330961926e+00
 1.188152180795367e+00	 8.311482791165865e-01	 2.511183695986284e+00
 1.180055097067682e+00	 8.426048667048470e-01	 2.538691059350997e+00
 1.171840921603290e+00	 8.539916739123325e-01	 2.537315294009984e+00
 1.163510545488063e+00	 8.653069247271276e-01	 2.498631716005122e+00
 1.249040178442763e+00	 7.537086731839141e-01	 2.235166478275110e+00
 1.241740492594098e+00	 7.656753037085610e-01	 2.234151209284684e+00
 1.234317751308680e+00	 7.775845816681388e-01	 2.254005081331835e+00
 1.226772593687102e+00	 7.894346404714876e-01	 2.289448383758313e+00
 1.219105696101743e+00	 8.012236221746841e-01	 2.334967258777659e+00
 1.211317772075357e+00	 8.129496784006183e-01	 2.384821553990558e+00
 1.203409572132667e+00	 8.246109712575002e-01	 2.433053544418428e+00
 1.195381883624928e+00	 8.362056742554060e-01	 2.473497528502929e+00
 1.187235530527446e+00	 8.477319732199223e-01	 2.499790298185145e+00
 1.178971373210091e+00	 8.591880672019779e-01	 2.505382478677313e+00
 1.170590308180842e+00	 8.705721693829283e-01	 2.483550728896788e+00
 1.256594408129957e+00	 7.582671241684877e-01	 2.280851061683449e+00
 1.249250573578565e+00	 7.703061292068869e-01	 2.279536826408521e+00
 1.241782939347714e+00	 7.822874348103155e-01	 2.294123558242498e+00
 1.234192148403295e+00	 7.942091630984160e-01	 2.320988718334269e+00
 1.226478881208410e+00	 8.060694448903711e-01	 2.356266462168752e+00
 1.218643855601222e+00	 8.178664206300325e-01	 2.395853179822296e+00
 1.210687826645653e+00	 8.295982413099909e-01	 2.435413924485928e+00
 1.202611586454881e+00	 8.412630693936600e-01	 2.470389738386586e+00
 1.194415963987641e+00	 8.528590797344487e-01	 2.496005880797354e+00
 1.186101824817347e+00	 8.643844604910956e-01	 2.507280958203770e+00
 1.177670070874088e+00	 8.758374140382281e-01	 2.499036951910247e+00
 1.264148637817135e+00	 7.628255751526610e-01	 2.323537791043704e+00
 1.256760654563039e+00	 7.749369547048129e-01	 2.328639480521517e+00
 1.249248127386789e+00	 7.869902879520921e-01	 2.344259770929012e+00
 1.241611703119574e+00	 7.989836857249464e-01	 2.368231628061141e+00
 1.233852066315215e+00	 8.109152676056622e-01	 2.398141665388389e+00
 1.225969939127280e+00	 8.227831628590550e-01	 2.431333645646288e+00
 1.217966081158882e+00	 8.345855113620958e-01	 2.464912883408066e+00
 1.209841289285125e+00	 8.463204645315365e-01	 2.495751562005423e+00
 1.201596397448167e+00	 8.579861862486090e-01	 2.520494973623353e+00
 1.193232276424960e+00	 8.695808537798625e-01	 2.535568686654502e+00
 1.184749833567700e+00	 8.811026586931948e-01	 2.537186639482870e+00
 1.271702867504179e+00	 7.673840261366348e-01	 2.365746861584792e+00
 1.264270735547405e+00	 7.795677802025393e-01	 2.382420917279943e+00
 1.256713315425795e+00	 7.916931410936690e-01	 2.403928063691809e+00
 1.249031257835833e+00	 8.037582083512776e-01	 2.429358299444616e+00
 1.241225251422054e+00	 8.157610903207552e-01	 2.457558259121013e+00
 1.233296022653427e+00	 8.276999050878820e-01	 2.487132946635056e+00
 1.225244335672256e+00	 8.395727814140082e-01	 2.516448376352280e+00
 1.217070992115560e+00	 8.513778596692244e-01	 2.543635139114753e+00
 1.208776830908922e+00	 8.631132927625864e-01	 2.566592905695512e+00
 1.200362728032829e+00	 8.747772470684529e-01	 2.582995875355917e+00
 1.191829596261578e+00	 8.863679033479945e-01	 2.590299172138200e+00
 1.279257097190972e+00	 7.719424771206083e-01	 2.409956345627060e+00
 1.271780816531552e+00	 7.841986057002657e-01	 2.441837156010759e+00
 1.264178503464626e+00	 7.963959942352459e-01	 2.472670848869806e+00
 1.256450812551968e+00	 8.085327309776091e-01	 2.502609107418907e+00
 1.248598436528824e+00	 8.206069130358484e-01	 2.531569198712785e+00
 1.240622106179562e+00	 8.326166473167089e-01	 2.559234206167378e+00
 1.232522590185671e+00	 8.445600514659205e-01	 2.585054170722473e+00
 1.224300694946086e+00	 8.564352548069122e-01	 2.608248161160703e+00
 1.215957264369807e+00	 8.682403992765634e-01	 2.627807289374900e+00
 1.207493179640854e+00	 8.799736403570438e-01	 2.642498681420437e+00
 1.198909358955622e+00	 8.916331480027943e-01	 2.650870410029487e+00
 1.286811326877398e+00	 7.765009281047822e-01	 2.458602972164281e+00
 1.279290897515368e+00	 7.888294311981917e-01	 2.507838171072243e+00
 1.271643691503172e+00	 8.010988473770230e-01	 2.550057267776167e+00
 1.263870367267871e+00	 8.133072536041394e-01	 2.586281335853012e+00
 1.255971621635421e+00	 8.254527357511396e-01	 2.617311866391192e+00
 1.247948189705582e+00	 8.375333895457318e-01	 2.643729763997812e+00
 1.239800844699027e+00	 8.495473215180253e-01	 2.665895246553188e+00
 1.231530397776602e+00	 8.614926499447889e-01	 2.683948672154347e+00
 1.223137697830722e+00	 8.733675057907241e-01	 2.697812311881754e+00
 1.214623631248936e+00	 8.851700336458100e-01	 2.707193081969600e+00
 1.205989121649732e+00	 8.968983926577605e-01	 2.711586243688205e+00
 1.294365556563339e+00	 7.810593790893557e-01	 2.514082846686261e+00
 1.286800978498739e+00	 7.934602566965178e-01	 2.581367551367233e+00
 1.279108879541324e+00	 8.058017005191993e-01	 2.635681864999111e+00
 1.271289921983438e+00	 8.180817762310685e-01	 2.678726943859040e+00
 1.263344806741741e+00	 8.302985584668264e-01	 2.712005008873880e+00
 1.255274273231384e+00	 8.424501317751462e-01	 2.736817366480418e+00
 1.247079099212222e+00	 8.545345915705165e-01	 2.754263322630254e+00
 1.238760100607008e+00	 8.665500450830430e-01	 2.765240015883339e+00
 1.230318131291566e+00	 8.784946123052505e-01	 2.770443190646801e+00
 1.221754082856973e+00	 8.903664269349285e-01	 2.770368926468961e+00
 1.213068884343809e+00	 9.021636373130613e-01	 2.765316333921034e+00
 1.301919786248680e+00	 7.856178300745295e-01	 2.578752113669547e+00
 1.294311059481555e+00	 7.980910821954439e-01	 2.663362138896807e+00
 1.286574067578974e+00	 8.105045536619746e-01	 2.729163275525429e+00
 1.278709476698562e+00	 8.228562988585943e-01	 2.778350376042579e+00
 1.270717991847681e+00	 8.351443811831071e-01	 2.812945747304915e+00
 1.262600356756868e+00	 8.473668740051485e-01	 2.834796454701799e+00
 1.254357353725156e+00	 8.595218616235856e-01	 2.845572503231511e+00
 1.245989803437203e+00	 8.716074402218629e-01	 2.846765923517470e+00
 1.237498564752240e+00	 8.836217188203265e-01	 2.839690785829519e+00
 1.228884534464867e+00	 8.955628202245741e-01	 2.825484159940589e+00
 1.220148647037751e+00	 9.074288819688617e-01	 2.805108033172630e+00
 1.309474015933302e+00	 7.901762810605032e-01	 2.654927564051891e+00
 1.301821140463702e+00	 8.027219076951697e-01	 2.754751647200950e+00
 1.294039255616013e+00	 8.152074068055490e-01	 2.830142924169083e+00
 1.286129031413138e+00	 8.276308214869168e-01	 2.883606414920980e+00
 1.278091176953135e+00	 8.399902039001789e-01	 2.917506656598006e+00
 1.269926440281931e+00	 8.522836162359335e-01	 2.934064546569931e+00
 1.261635608237728e+00	 8.645091316774267e-01	 2.935355040616885e+00
 1.253219506267087e+00	 8.766648353614377e-01	 2.923305735938850e+00
 1.244678998212643e+00	 8.887488253361341e-01	 2.899696363656801e+00
 1.236014986072517e+00	 9.007592135149234e-01	 2.866159210152790e+00
 1.227228409731459e+00	 9.126941266253302e-01	 2.824180481026223e+00
 1.156430782795849e+00	 8.600416800706597e-01	 2.552393636996787e+00
 1.148035087081331e+00	 8.712171004371816e-01	 2.462944413351309e+00
 1.139525741333079e+00	 8.823178827982596e-01	 2.372156623778960e+00
 1.130903741810428e+00	 8.933423018555334e-01	 2.286826694480525e+00
 1.122170119243239e+00	 9.042886497641590e-01	 2.213480303859693e+00
 1.113325938445521e+00	 9.151552369938694e-01	 2.158366651703223e+00
 1.104372297903486e+00	 9.259403931799466e-01	 2.127814704306998e+00
 1.095310329338370e+00	 9.366424679632234e-01	 2.128445662089576e+00
 1.086141197244342e+00	 9.472598318182393e-01	 2.165814056016156e+00
 1.076866098401900e+00	 9.577908768686814e-01	 2.245157106738427e+00
 1.067486261367175e+00	 9.682340176892731e-01	 2.371431922511116e+00
 1.163510545488063e+00	 8.653069247271276e-01	 2.498631716005122e+00
 1.155063450646077e+00	 8.765507619200822e-01	 2.439715130203627e+00
 1.146502009995716e+00	 8.877195041676862e-01	 2.385714460423148e+00
 1.137827225895479e+00	 8.988114156091701e-01	 2.339897057285088e+00
 1.129040135385428e+00	 9.098247779441305e-01	 2.305142169052601e+00
 1.120141809798434e+00	 9.207578912988645e-01	 2.283939900995818e+00
 1.111133354345720e+00	 9.316090750825535e-01	 2.278391167015950e+00
 1.102015907676997e+00	 9.423766688324032e-01	 2.290861560295996e+00
 1.092790641415547e+00	 9.530590330468713e-01	 2.323415453558629e+00
 1.083458759668644e+00	 9.636545500061029e-01	 2.377122728245282e+00
 1.074021498513723e+00	 9.741616245787251e-01	 2.452688671936086e+00
 1.170590308180842e+00	 8.705721693829283e-01	 2.483550728896788e+00
 1.162091814211381e+00	 8.818844234023586e-01	 2.449746365563028e+00
 1.153478278658884e+00	 8.931211255365393e-01	 2.424451755429755e+00
 1.144750709981022e+00	 9.042805293622875e-01	 2.407989223280186e+00
 1.135910151528057e+00	 9.153609061236397e-01	 2.400204167416757e+00
 1.126957681151730e+00	 9.263605456034574e-01	 2.400468018650444e+00
 1.117894410788274e+00	 9.372777569848159e-01	 2.407682353111539e+00
 1.108721486015878e+00	 9.481108697012941e-01	 2.420327804925498e+00
 1.099440085586944e+00	 9.588582342752672e-01	 2.437314825061330e+00
 1.090051420935520e+00	 9.695182231433344e-01	 2.456638136806627e+00
 1.080556735660355e+00	 9.800892314680262e-01	 2.475518490291738e+00
 1.177670070874088e+00	 8.758374140382281e-01	 2.499036951910247e+00
 1.169120177777142e+00	 8.872180848841675e-01	 2.484752150897918e+00
 1.160454547322483e+00	 8.985227469049618e-01	 2.480362584584108e+00
 1.151674194066956e+00	 9.097496431150145e-01	 2.483819447890531e+00
 1.142780167671029e+00	 9.208970343028016e-01	 2.492536357585863e+00
 1.133773552505311e+00	 9.319631999077448e-01	 2.503395627380759e+00
 1.124655467231051e+00	 9.429464388868150e-01	 2.512755817658246e+00
 1.115427064354921e+00	 9.538450705699615e-01	 2.516460534961562e+00
 1.106089529758441e+00	 9.646574355034747e-01	 2.510038816465117e+00
 1.096644082202444e+00	 9.753818962804091e-01	 2.489374882889493e+00
 1.087091972806987e+00	 9.860168383571938e-01	 2.449098787440744e+00
 1.184749833567700e+00	 8.811026586931948e-01	 2.537186639482870e+00
 1.176148541343259e+00	 8.925517463656647e-01	 2.536660566084720e+00
 1.167430815986413e+00	 9.039243682730971e-01	 2.545648373731211e+00
 1.158597678153183e+00	 9.152187568674810e-01	 2.560294113244027e+00
 1.149650183814242e+00	 9.264331624817297e-01	 2.576171428326753e+00
 1.140589423859077e+00	 9.375658542118251e-01	 2.588292470118862e+00
 1.131416523673954e+00	 9.486151207886326e-01	 2.591118166867279e+00
 1.122132642694029e+00	 9.595792714384703e-01	 2.578569819312340e+00
 1.112738973929948e+00	 9.704566367315428e-01	 2.544041986168923e+00
 1.103236743469326e+00	 9.812455694173582e-01	 2.480877376976196e+00
 1.093627209953537e+00	 9.919444452462444e-01	 2.382396617654074e+00
 1.191829596261578e+00	 8.863679033479945e-01	 2.590299172138200e+00
 1.183176904909634e+00	 8.978854078470058e-01	 2.597606754550422e+00
 1.174407084650574e+00	 9.093259896410880e-01	 2.612711103057158e+00
 1.165521162239601e+00	 9.206878706198163e-01	 2.630503436273559e+00
 1.156520199957599e+00	 9.319692906605380e-01	 2.645299217688751e+00
 1.147405295212932e+00	 9.431685085157975e-01	 2.650849039738936e+00
 1.138177580116887e+00	 9.542838026903513e-01	 2.640350903556146e+00
 1.128838221033110e+00	 9.653134723068855e-01	 2.606463861426114e+00
 1.119388418101373e+00	 9.762558379595201e-01	 2.541322982538819e+00
 1.109829404736078e+00	 9.871092425542138e-01	 2.436567281480091e+00
 1.100162447099921e+00	 9.978720521351953e-01	 2.284175561163324e+00
 1.198909358955622e+00	 8.916331480027943e-01	 2.650870410029487e+00
 1.190205268476166e+00	 9.032190693283465e-01	 2.659926148512816e+00
 1.181383353314868e+00	 9.147276110090786e-01	 2.674146714537809e+00
 1.172444646326112e+00	 9.261569843721487e-01	 2.687715361939173e+00
 1.163390216101001e+00	 9.375054188393419e-01	 2.694261388374988e+00
 1.154221166566777e+00	 9.487711628197595e-01	 2.686872325525538e+00
 1.144938636559754e+00	 9.599524845920514e-01	 2.658107526000993e+00
 1.135543799372068e+00	 9.710476731752720e-01	 2.600013111382843e+00
 1.126037862272624e+00	 9.820550391874548e-01	 2.504138239215831e+00
 1.116422066002613e+00	 9.929729156910094e-01	 2.361552640280121e+00
 1.106697684246055e+00	 1.003799659024063e+00	 2.163002376583547e+00
 1.205989121649732e+00	 8.968983926577605e-01	 2.711586243688205e+00
 1.197233632042755e+00	 9.085527308098434e-01	 2.716147895684720e+00
 1.188359621979193e+00	 9.201292323772123e-01	 2.722738714205773e+00
 1.179368130412618e+00	 9.316260981246085e-01	 2.725369633963359e+00
 1.170260232244350e+00	 9.430415470182544e-01	 2.717546252915686e+00
 1.161037037920516e+00	 9.543738171238091e-01	 2.692281671588712e+00
 1.151699693002458e+00	 9.656211664938156e-01	 2.642110691006769e+00
 1.142249377710810e+00	 9.767818740436952e-01	 2.559105331995314e+00
 1.132687306443609e+00	 9.878542404153952e-01	 2.434891631928063e+00
 1.123014727268843e+00	 9.988365888277762e-01	 2.260667668426424e+00
 1.113232921391856e+00	 1.009727265912864e+00	 2.027222753124069e+00
 1.213068884343809e+00	 9.021636373130613e-01	 2.765316333921034e+00
 1.204261995609301e+00	 9.138863922916518e-01	 2.758988479211397e+00
 1.195335890643451e+00	 9.255308537456317e-01	 2.751451961276260e+00
 1.186291614499018e+00	 9.370952118773249e-01	 2.737072035827002e+00
 1.177130248387545e+00	 9.485776751973894e-01	 2.709783742523024e+00
 1.167852909274049e+00	 9.599764714280448e-01	 2.663104742652091e+00
 1.158460749444903e+00	 9.712898483957252e-01	 2.590149438571134e+00
 1.148954956049241e+00	 9.825160749122200e-01	 2.483644336947676e+00
 1.139336750614238e+00	 9.936534416433901e-01	 2.335944611143941e+00
 1.129607388534680e+00	 1.004700261964547e+00	 2.139051811516743e+00
 1.119768158537242e+00	 1.015654872801615e+00	 1.884632666009956e+00
 1.220148647037751e+00	 9.074288819688617e-01	 2.805108033172630e+00
 1.211290359175705e+00	 9.192200537739282e-01	 2.781345522992703e+00
 1.202312159307539e+00	 9.309324751144801e-01	 2.753426636542303e+00
 1.193215098585211e+00	 9.425643256304265e-01	 2.716588795110467e+00
 1.184000264530489e+00	 9.541138033768618e-01	 2.665740513791550e+00
 1.174668780627279e+00	 9.655791257325644e-01	 2.595473592852581e+00
 1.165221805886993e+00	 9.769585302978617e-01	 2.500076475640103e+00
 1.155660534387266e+00	 9.882502757809111e-01	 2.373548735275652e+00
 1.145986194784419e+00	 9.994526428714876e-01	 2.209616645757778e+00
 1.136200049800036e+00	 1.010563935101354e+00	 2.001749786587228e+00
 1.126303395682128e+00	 1.021582479690333e+00	 1.743178623704025e+00
 1.227228409731459e+00	 9.126941266253302e-01	 2.824180481026223e+00
 1.218318722741866e+00	 9.245537152568284e-01	 2.776291774903641e+00
 1.209288427971361e+00	 9.363340964839008e-01	 2.721972382799801e+00
 1.200138582671100e+00	 9.480334393840433e-01	 2.657841144583355e+00
 1.190870280673080e+00	 9.596499315567852e-01	 2.580315187677406e+00
 1.181484651980107e+00	 9.711817800374664e-01	 2.485620833391449e+00
 1.171982862328630e+00	 9.826272122003074e-01	 2.369805516568720e+00
 1.162366112724793e+00	 9.939844766498344e-01	 2.228750681931933e+00
 1.152635638954060e+00	 1.005251844099736e+00	 2.058185614019564e+00
 1.142792711064822e+00	 1.016427608238230e+00	 1.853702151242038e+00
 1.132838632826431e+00	 1.027510086579036e+00	 1.610770228397729e+00
 1.067486261367175e+00	 9.682340176892731e-01	 2.371431922511116e+00
 1.058004563832146e+00	 9.785859426644694e-01	 2.501953864810075e+00
 1.048420696020508e+00	 9.888469111185910e-01	 2.592271138656718e+00
 1.038735960952127e+00	 9.990154272920019e-01	 2.644952111974500e+00
 1.028951691128298e+00	 1.009090020914066e+00	 2.663301676756037e+00
 1.019069247916471e+00	 1.019069247916471e+00	 2.651364238111474e+00
 1.009090020914065e+00	 1.028951691128298e+00	 2.613925384983642e+00
 9.990154272920018e-01	 1.038735960952127e+00	 2.556512205790224e+00
 9.888469111185908e-01	 1.048420696020508e+00	 2.485392216380534e+00
 9.785859426644695e-01	 1.058004563832147e+00	 2.407570872055191e+00
 9.682340176892732e-01	 1.067486261367175e+00	 2.330787639970064e+00
 1.074021498513723e+00	 9.741616245787251e-01	 2.452688671936086e+00
 1.064481753260220e+00	 9.845769248752173e-01	 2.513987880206083e+00
 1.054839212235358e+00	 9.949007118074958e-01	 2.529180184043880e+00
 1.045095186436212e+00	 1.005131480458752e+00	 2.505845302042343e+00
 1.035251016521766e+00	 1.015267751557224e+00	 2.452576015580406e+00
 1.025308072193884e+00	 1.025308072193884e+00	 2.378974039932749e+00
 1.015267751557224e+00	 1.035251016521766e+00	 2.295644170552173e+00
 1.005131480458752e+00	 1.045095186436212e+00	 2.214186678980774e+00
 9.949007118074955e-01	 1.054839212235358e+00	 2.147187937834063e+00
 9.845769248752170e-01	 1.064481753260220e+00	 2.108209259499990e+00
 9.741616245787251e-01	 1.074021498513723e+00	 2.111773938578874e+00
 1.080556735660355e+00	 9.800892314680262e-01	 2.475518490291738e+00
 1.070958942688337e+00	 9.905679070858453e-01	 2.467299010478999e+00
 1.061257728450222e+00	 1.000954512496305e+00	 2.414347692286056e+00
 1.051454411920286e+00	 1.011247533625426e+00	 2.328016446885017e+00
 1.041550341915204e+00	 1.021445482200321e+00	 2.220872240502228e+00
 1.031546896471251e+00	 1.031546896471251e+00	 2.106687619134355e+00
 1.021445482200321e+00	 1.041550341915204e+00	 2.000429206635092e+00
 1.011247533625427e+00	 1.051454411920286e+00	 1.918244158720258e+00
 1.000954512496305e+00	 1.061257728450222e+00	 1.877444561083196e+00
 9.905679070858451e-01	 1.070958942688337e+00	 1.896489765650672e+00
 9.800892314680263e-01	 1.080556735660355e+00	 1.994966665016559e+00
 1.087091972806987e+00	 9.860168383571938e-01	 2.449098787440744e+00
 1.077436132116420e+00	 9.965588892963561e-01	 2.374132621265254e+00
 1.067676244665028e+00	 1.007008313185007e+00	 2.261874695202382e+00
 1.057813637404285e+00	 1.017363586792000e+00	 2.126232737236500e+00
 1.047849667308557e+00	 1.027623212843323e+00	 1.982457895941456e+00
 1.037785720748525e+00	 1.037785720748526e+00	 1.847131672308211e+00
 1.027623212843322e+00	 1.047849667308557e+00	 1.738150626833517e+00
 1.017363586792000e+00	 1.057813637404286e+00	 1.674708849430422e+00
 1.007008313185007e+00	 1.067676244665028e+00	 1.677278185818774e+00
 9.965588892963556e-01	 1.077436132116421e+00	 1.767586220338051e+00
 9.860168383571939e-01	 1.087091972806987e+00	 1.968592021568438e+00
 1.093627209953537e+00	 9.919444452462444e-01	 2.382396617654074e+00
 1.083913321544392e+00	 1.002549871506752e+00	 2.246450943774330e+00
 1.074094760879704e+00	 1.013062113873592e+00	 2.085535255545907e+00
 1.064172862888146e+00	 1.023479639958449e+00	 1.914918957070332e+00
 1.054148992701770e+00	 1.033800943486192e+00	 1.751270509708153e+00
 1.044024545025664e+00	 1.044024545025664e+00	 1.612642506926450e+00
 1.033800943486192e+00	 1.054148992701770e+00	 1.518454429013966e+00
 1.023479639958449e+00	 1.064172862888146e+00	 1.489473067184110e+00
 1.013062113873591e+00	 1.074094760879704e+00	 1.547790612935390e+00
 1.002549871506751e+00	 1.083913321544392e+00	 1.716800415076113e+00
 9.919444452462445e-01	 1.093627209953537e+00	 2.021170413515005e+00
 1.100162447099921e+00	 9.978720521351953e-01	 2.284175561163324e+00
 1.090390510972175e+00	 1.008540853717035e+00	 2.095942135110702e+00
 1.080513277094179e+00	 1.019115914562047e+00	 1.898786845483287e+00
 1.070532088371804e+00	 1.029595693124751e+00	 1.708168335826828e+00
 1.060448318094786e+00	 1.039978674128896e+00	 1.540928091420337e+00
 1.050263369302618e+00	 1.050263369302618e+00	 1.415275375884777e+00
 1.039978674128896e+00	 1.060448318094786e+00	 1.350769854028750e+00
 1.029595693124751e+00	 1.070532088371805e+00	 1.368301889381299e+00
 1.019115914562046e+00	 1.080513277094179e+00	 1.490070511264415e+00
 1.008540853717034e+00	 1.090390510972174e+00	 1.739559052855643e+00
 9.978720521351953e-01	 1.100162447099921e+00	 2.141508468455832e+00
 1.106697684246055e+00	 1.003799659024063e+00	 2.163002376583546e+00
 1.096867700399689e+00	 1.014531835927208e+00	 1.934029032486679e+00
 1.086931793308381e+00	 1.025169715250360e+00	 1.714780372466297e+00
 1.076891313855196e+00	 1.035711746290880e+00	 1.519753031439388e+00
 1.066747643487552e+00	 1.046156404771397e+00	 1.364739274436726e+00
 1.056502193579344e+00	 1.056502193579344e+00	 1.266813496964888e+00
 1.046156404771397e+00	 1.066747643487552e+00	 1.244316518805595e+00
 1.035711746290880e+00	 1.076891313855196e+00	 1.316837655626957e+00
 1.025169715250361e+00	 1.086931793308381e+00	 1.505194559038427e+00
 1.014531835927207e+00	 1.096867700399689e+00	 1.831410822190777e+00
 1.003799659024063e+00	 1.106697684246055e+00	 2.318691354674178e+00
 1.113232921391856e+00	 1.009727265912864e+00	 2.027222753124069e+00
 1.103344889826858e+00	 1.020522818137272e+00	 1.771877613906379e+00
 1.093350309522240e+00	 1.031223515938523e+00	 1.546369866986552e+00
 1.083250539338258e+00	 1.041827799456814e+00	 1.363134259332999e+00
 1.073046968880010e+00	 1.052334135413661e+00	 1.235713115954880e+00
 1.062741017855794e+00	 1.062741017855794e+00	 1.178776770165000e+00
 1.052334135413661e+00	 1.073046968880010e+00	 1.208111313901871e+00
 1.041827799456814e+00	 1.083250539338258e+00	 1.340604325926587e+00
 1.031223515938523e+00	 1.093350309522240e+00	 1.594228561126952e+00
 1.020522818137272e+00	 1.103344889826858e+00	 1.988023590313935e+00
 1.009727265912864e+00	 1.113232921391856e+00	 2.542271447935669e+00
 1.119768158537242e+00	 1.015654872801615e+00	 1.884632666009956e+00
 1.109822079253605e+00	 1.026513800347230e+00	 1.620405177314183e+00
 1.099768825735684e+00	 1.037277316626523e+00	 1.406121846028008e+00
 1.089609764820927e+00	 1.047943852622529e+00	 1.251472081859727e+00
 1.079346294272108e+00	 1.058511866055653e+00	 1.166568569241507e+00
 1.068979842131924e+00	 1.068979842131924e+00	 1.162430205243343e+00
 1.058511866055653e+00	 1.079346294272107e+00	 1.250975075147294e+00
 1.047943852622529e+00	 1.089609764820926e+00	 1.445011702030364e+00
 1.037277316626523e+00	 1.099768825735684e+00	 1.758228543034784e+00
 1.026513800347230e+00	 1.109822079253605e+00	 2.205181710652965e+00
 1.015654872801615e+00	 1.119768158537242e+00	 2.804499384929959e+00
 1.126303395682128e+00	 1.021582479690333e+00	 1.743178623704025e+00
 1.116299268679850e+00	 1.032504782557086e+00	 1.490114864201238e+00
 1.106187341948641e+00	 1.043331117314347e+00	 1.306324365390868e+00
 1.095968990303136e+00	 1.054059905788001e+00	 1.197634871964554e+00
 1.085645619663787e+00	 1.064689596697337e+00	 1.169743641313224e+00
 1.075218666407687e+00	 1.075218666407687e+00	 1.228792071246175e+00
 1.064689596697337e+00	 1.085645619663787e+00	 1.381539038552408e+00
 1.054059905788000e+00	 1.095968990303137e+00	 1.635359517485544e+00
 1.043331117314347e+00	 1.106187341948641e+00	 1.998241822608331e+00
 1.032504782557085e+00	 1.116299268679850e+00	 2.479882615535258e+00
 1.021582479690333e+00	 1.126303395682128e+00	 3.095983187984542e+00
 1.132838632826431e+00	 1.027510086579036e+00	 1.610770228397729e+00
 1.122776458105517e+00	 1.038495764766839e+00	 1.391129526336595e+00
 1.112605858161041e+00	 1.049384918001987e+00	 1.258981361099616e+00
 1.102328215784825e+00	 1.060175958953205e+00	 1.214208464238230e+00
 1.091944945054995e+00	 1.070867327338678e+00	 1.257404248771500e+00
 1.081457490683039e+00	 1.081457490683039e+00	 1.388641779248658e+00
 1.070867327338677e+00	 1.091944945054995e+00	 1.608251087236577e+00
 1.060175958953205e+00	 1.102328215784825e+00	 1.916841401700659e+00
 1.049384918001987e+00	 1.112605858161041e+00	 2.315394444157572e+00
 1.038495764766839e+00	 1.122776458105517e+00	 2.810310414244208e+00
 1.027510086579036e+00	 1.132838632826431e+00	 3.406712124058823e+00
 9.682340176892732e-01	 1.067486261367175e+00	 2.330787639970064e+00
 9.577908768686817e-01	 1.076866098401900e+00	 2.308971866688224e+00
 9.472598318182397e-01	 1.086141197244342e+00	 2.379629336631697e+00
 9.366424679632236e-01	 1.095310329338370e+00	 2.525743369996302e+00
 9.259403931799469e-01	 1.104372297903486e+00	 2.729481160527066e+00
 9.151552369938699e-01	 1.113325938445520e+00	 2.972469841831702e+00
 9.042886497641597e-01	 1.122170119243239e+00	 3.240744597963056e+00
 8.933423018555336e-01	 1.130903741810428e+00	 3.516351662379086e+00
 8.823178827982596e-01	 1.139525741333079e+00	 3.778302235387407e+00
 8.712171004371820e-01	 1.148035087081330e+00	 4.004820785037635e+00
 8.600416800706600e-01	 1.156430782795849e+00	 4.173375449031591e+00
 9.741616245787251e-01	 1.074021498513723e+00	 2.111773938578874e+00
 9.636545500061029e-01	 1.083458759668643e+00	 2.201244999438414e+00
 9.530590330468716e-01	 1.092790641415546e+00	 2.394775444598498e+00
 9.423766688324036e-01	 1.102015907676997e+00	 2.668881068964104e+00
 9.316090750825543e-01	 1.111133354345720e+00	 2.998883968591572e+00
 9.207578912988649e-01	 1.120141809798433e+00	 3.363015127651571e+00
 9.098247779441311e-01	 1.129040135385428e+00	 3.738345666658620e+00
 8.988114156091702e-01	 1.137827225895479e+00	 4.096774087577257e+00
 8.877195041676870e-01	 1.146502009995716e+00	 4.409047603344965e+00
 8.765507619200824e-01	 1.155063450646077e+00	 4.644804379842695e+00
 8.653069247271273e-01	 1.163510545488063e+00	 4.772617320108925e+00
 9.800892314680263e-01	 1.080556735660355e+00	 1.994966665016559e+00
 9.695182231433349e-01	 1.090051420935520e+00	 2.200232015604467e+00
 9.588582342752678e-01	 1.099440085586944e+00	 2.508052850996505e+00
 9.481108697012945e-01	 1.108721486015878e+00	 2.890412472949652e+00
 9.372777569848162e-01	 1.117894410788274e+00	 3.320092946672167e+00
 9.263605456034578e-01	 1.126957681151730e+00	 3.771944067862222e+00
 9.153609061236404e-01	 1.135910151528057e+00	 4.214005063234094e+00
 9.042805293622878e-01	 1.144750709981022e+00	 4.612601917183080e+00
 8.931211255365400e-01	 1.153478278658883e+00	 4.932670616785514e+00
 8.818844234023591e-01	 1.162091814211381e+00	 5.137808662594034e+00
 8.705721693829281e-01	 1.170590308180842e+00	 5.190328418556521e+00
 9.860168383571939e-01	 1.087091972806987e+00	 1.968592021568438e+00
 9.753818962804095e-01	 1.096644082202443e+00	 2.287653127627636e+00
 9.646574355034749e-01	 1.106089529758441e+00	 2.696523189187656e+00
 9.538450705699616e-01	 1.115427064354920e+00	 3.165448735488116e+00
 9.429464388868155e-01	 1.124655467231050e+00	 3.668466920594924e+00
 9.319631999077452e-01	 1.133773552505310e+00	 4.173057970792968e+00
 9.208970343028015e-01	 1.142780167671028e+00	 4.643877583055980e+00
 9.097496431150143e-01	 1.151674194066955e+00	 5.043993148949174e+00
 8.985227469049623e-01	 1.160454547322482e+00	 5.334938757765493e+00
 8.872180848841679e-01	 1.169120177777141e+00	 5.476772311006216e+00
 8.758374140382283e-01	 1.177670070874088e+00	 5.428134660118049e+00
 9.919444452462445e-01	 1.093627209953537e+00	 2.021170413515005e+00
 9.812455694173584e-01	 1.103236743469325e+00	 2.445678384298712e+00
 9.704566367315433e-01	 1.112738973929948e+00	 2.937934412636010e+00
 9.595792714384708e-01	 1.122132642694029e+00	 3.471973202710483e+00
 9.486151207886331e-01	 1.131416523673954e+00	 4.017783642635444e+00
 9.375658542118255e-01	 1.140589423859076e+00	 4.540780344654884e+00
 9.264331624817299e-01	 1.149650183814241e+00	 5.004684037821464e+00
 9.152187568674813e-01	 1.158597678153182e+00	 5.371576197680189e+00
 9.039243682730975e-01	 1.167430815986412e+00	 5.601955949096393e+00
 8.925517463656650e-01	 1.176148541343259e+00	 5.654799156030193e+00
 8.811026586931948e-01	 1.184749833567700e+00	 5.487619606988101e+00
 9.978720521351953e-01	 1.100162447099921e+00	 2.141508468455832e+00
 9.871092425542144e-01	 1.109829404736077e+00	 2.656915073385616e+00
 9.762558379595202e-01	 1.119388418101372e+00	 3.213282022079257e+00
 9.653134723068858e-01	 1.128838221033109e+00	 3.785676958171503e+00
 9.542838026903514e-01	 1.138177580116886e+00	 4.342439572973685e+00
 9.431685085157979e-01	 1.147405295212931e+00	 4.850138113053810e+00
 9.319692906605388e-01	 1.156520199957599e+00	 5.273694136856700e+00
 9.206878706198163e-01	 1.165521162239601e+00	 5.576435613504847e+00
 9.093259896410884e-01	 1.174407084650574e+00	 5.720152249946015e+00
 8.978854078470058e-01	 1.183176904909634e+00	 5.665152963499988e+00
 8.863679033479948e-01	 1.191829596261578e+00	 5.370325411802622e+00
 1.003799659024063e+00	 1.106697684246055e+00	 2.318691354674178e+00
 9.929729156910099e-01	 1.116422066002613e+00	 2.905670998389511e+00
 9.820550391874551e-01	 1.126037862272623e+00	 3.502389151982187e+00
 9.710476731752724e-01	 1.135543799372068e+00	 4.082553424243216e+00
 9.599524845920520e-01	 1.144938636559753e+00	 4.617431309076628e+00
 9.487711628197597e-01	 1.154221166566777e+00	 5.076743492399033e+00
 9.375054188393421e-01	 1.163390216101001e+00	 5.428709971185537e+00
 9.261569843721493e-01	 1.172444646326112e+00	 5.640098302302209e+00
 9.147276110090794e-01	 1.181383353314868e+00	 5.676273912579374e+00
 9.032190693283471e-01	 1.190205268476166e+00	 5.501252396627708e+00
 8.916331480027944e-01	 1.198909358955622e+00	 5.077753724057951e+00
 1.009727265912864e+00	 1.113232921391856e+00	 2.542271447935669e+00
 9.988365888277767e-01	 1.123014727268842e+00	 3.177918631913025e+00
 9.878542404153958e-01	 1.132687306443609e+00	 3.784392154312283e+00
 9.767818740436959e-01	 1.142249377710809e+00	 4.339154806628321e+00
 9.656211664938161e-01	 1.151699693002457e+00	 4.818337665667541e+00
 9.543738171238096e-01	 1.161037037920515e+00	 5.196776504008325e+00
 9.430415470182546e-01	 1.170260232244349e+00	 5.448050075599211e+00
 9.316260981246093e-01	 1.179368130412618e+00	 5.544520227647420e+00
 9.201292323772127e-01	 1.188359621979193e+00	 5.457373785399586e+00
 9.085527308098439e-01	 1.197233632042755e+00	 5.156666151915402e+00
 8.968983926577605e-01	 1.205989121649732e+00	 4.611366560502380e+00
 1.015654872801615e+00	 1.119768158537242e+00	 2.804499384929958e+00
 1.004700261964548e+00	 1.129607388534679e+00	 3.457481291542142e+00
 9.936534416433908e-01	 1.139336750614238e+00	 4.038909223985168e+00
 9.825160749122203e-01	 1.148954956049240e+00	 4.532575486300363e+00
 9.712898483957254e-01	 1.158460749444902e+00	 4.921302378703015e+00
 9.599764714280448e-01	 1.167852909274048e+00	 5.186968094980090e+00
 9.485776751973897e-01	 1.177130248387545e+00	 5.310534045113729e+00
 9.370952118773251e-01	 1.186291614499017e+00	 5.272073574605278e+00
 9.255308537456318e-01	 1.195335890643450e+00	 5.050802048140951e+00
 9.138863922916524e-01	 1.204261995609301e+00	 4.625108261399560e+00
 9.021636373130609e-01	 1.213068884343809e+00	 3.972587140972657e+00
 1.021582479690333e+00	 1.126303395682128e+00	 3.095983187984542e+00
 1.010563935101354e+00	 1.136200049800035e+00	 3.728480028741238e+00
 9.994526428714882e-01	 1.145986194784418e+00	 4.246026120643086e+00
 9.882502757809116e-01	 1.155660534387266e+00	 4.640435986268905e+00
 9.769585302978622e-01	 1.165221805886992e+00	 4.903017408013099e+00
 9.655791257325650e-01	 1.174668780627278e+00	 5.024583843106720e+00
 9.541138033768621e-01	 1.184000264530488e+00	 4.995467683298066e+00
 9.425643256304270e-01	 1.193215098585211e+00	 4.805534356613451e+00
 9.309324751144803e-01	 1.202312159307539e+00	 4.444197265724056e+00
 9.192200537739287e-01	 1.211290359175705e+00	 3.900433554472676e+00
 9.074288819688618e-01	 1.220148647037751e+00	 3.162800691079192e+00
 1.027510086579036e+00	 1.132838632826431e+00	 3.406712124058823e+00
 1.016427608238230e+00	 1.142792711064822e+00	 3.975396575933035e+00
 1.005251844099737e+00	 1.152635638954059e+00	 4.386282381415454e+00
 9.939844766498350e-01	 1.162366112724792e+00	 4.640867489957108e+00
 9.826272122003075e-01	 1.171982862328630e+00	 4.740706814429601e+00
 9.711817800374670e-01	 1.181484651980107e+00	 4.687408222244681e+00
 9.596499315567855e-01	 1.190870280673080e+00	 4.482628660995157e+00
 9.480334393840437e-01	 1.200138582671100e+00	 4.128070447562626e+00
 9.363340964839015e-01	 1.209288427971361e+00	 3.625477747904963e+00
 9.245537152568286e-01	 1.218318722741866e+00	 2.976633272838248e+00
 9.126941266253301e-01	 1.227228409731459e+00	 2.183355213079328e+00
 8.600416800706600e-01	 1.156430782795849e+00	 4.173375449031590e+00
 8.487952806219835e-01	 1.164710469997046e+00	 4.241946194560085e+00
 8.374777601890396e-01	 1.172874663608447e+00	 4.196084186343587e+00
 8.260908839770124e-01	 1.180922477966298e+00	 4.054640008898581e+00
 8.146364311505910e-01	 1.188853063107831e+00	 3.837290933601965e+00
 8.031161939398316e-01	 1.196665605024608e+00	 3.564504759448625e+00
 7.915319767413330e-01	 1.204359325889236e+00	 3.257503014681491e+00
 7.798855952156404e-01	 1.211933484255399e+00	 2.938223590415490e+00
 7.681788753817906e-01	 1.219387375231171e+00	 2.629282876567646e+00
 7.564136527099106e-01	 1.226720330625627e+00	 2.353937469431384e+00
 7.445917712127673e-01	 1.233931719068790e+00	 2.136045519106032e+00
 8.653069247271273e-01	 1.163510545488063e+00	 4.772617320108925e+00
 8.539916739123324e-01	 1.171840921603290e+00	 4.760370390970576e+00
 8.426048667048471e-01	 1.180055097067682e+00	 4.613262317941272e+00
 8.311482791165866e-01	 1.188152180795367e+00	 4.355929141359747e+00
 8.196237012044317e-01	 1.196131317620025e+00	 4.014163110153066e+00
 8.080329361706170e-01	 1.203991688549784e+00	 3.614865186201532e+00
 7.963777994584046e-01	 1.211732510995316e+00	 3.185996550010757e+00
 7.846601178439622e-01	 1.219353038971101e+00	 2.756529201094442e+00
 7.728817285253647e-01	 1.226852563269796e+00	 2.356395746083765e+00
 7.610444782096362e-01	 1.234230411609747e+00	 2.016438466968597e+00
 7.491502221987406e-01	 1.241485948755668e+00	 1.768357761053865e+00
 8.705721693829281e-01	 1.170590308180842e+00	 5.190328418556522e+00
 8.591880672019779e-01	 1.178971373210090e+00	 5.074630482371103e+00
 8.477319732199229e-01	 1.187235530527447e+00	 4.819161251044948e+00
 8.362056742554064e-01	 1.195381883624928e+00	 4.452461528329497e+00
 8.246109712575002e-01	 1.203409572132666e+00	 4.004458020300663e+00
 8.129496784006186e-01	 1.211317772075356e+00	 3.506407923376923e+00
 8.012236221746847e-01	 1.219105696101742e+00	 2.990842264537838e+00
 7.894346404714880e-01	 1.226772593687101e+00	 2.491508102820948e+00
 7.775845816681398e-01	 1.234317751308680e+00	 2.043309701059726e+00
 7.656753037085618e-01	 1.241740492594097e+00	 1.682248776446904e+00
 7.537086731839142e-01	 1.249040178442763e+00	 1.445363937877587e+00
 8.758374140382283e-01	 1.177670070874088e+00	 5.428134660118049e+00
 8.643844604910956e-01	 1.186101824817347e+00	 5.194893609607762e+00
 8.528590797344487e-01	 1.194415963987641e+00	 4.830739968984569e+00
 8.412630693936601e-01	 1.202611586454881e+00	 4.366276255668580e+00
 8.295982413099912e-01	 1.210687826645653e+00	 3.833621916327181e+00
 8.178664206300330e-01	 1.218643855601222e+00	 3.266353382589050e+00
 8.060694448903716e-01	 1.226478881208410e+00	 2.699442739340807e+00
 7.942091630984167e-01	 1.234192148403294e+00	 2.169195123806868e+00
 7.822874348103162e-01	 1.241782939347714e+00	 1.713184973625028e+00
 7.703061292068878e-01	 1.249250573578565e+00	 1.370191241852873e+00
 7.582671241684876e-01	 1.256594408129957e+00	 1.180131696289579e+00
 8.811026586931948e-01	 1.184749833567700e+00	 5.487619606988102e+00
 8.695808537798625e-01	 1.193232276424960e+00	 5.131080562199199e+00
 8.579861862486091e-01	 1.201596397448166e+00	 4.664548940453024e+00
 8.463204645315366e-01	 1.209841289285125e+00	 4.118882666005737e+00
 8.345855113620964e-01	 1.217966081158883e+00	 3.526490085782856e+00
 8.227831628590555e-01	 1.225969939127280e+00	 2.921268841688678e+00
 8.109152676056628e-01	 1.233852066315215e+00	 2.338543324421254e+00
 7.989836857249468e-01	 1.241611703119573e+00	 1.815000829623119e+00
 7.869902879520926e-01	 1.249248127386788e+00	 1.388626537188824e+00
 7.749369547048136e-01	 1.256760654563038e+00	 1.098637434246096e+00
 7.628255751526610e-01	 1.264148637817135e+00	 9.854153017438755e-01
 8.863679033479948e-01	 1.191829596261578e+00	 5.370325411802622e+00
 8.747772470684528e-01	 1.200362728032830e+00	 4.892872781002923e+00
 8.631132927625864e-01	 1.208776830908922e+00	 4.336741938876269e+00
 8.513778596692244e-01	 1.217070992115560e+00	 3.731275779571568e+00
 8.395727814140084e-01	 1.225244335672256e+00	 3.107304686101536e+00
 8.276999050878825e-01	 1.233296022653427e+00	 2.497087533836260e+00
 8.157610903207556e-01	 1.241225251422054e+00	 1.934251352042229e+00
 8.037582083512785e-01	 1.249031257835833e+00	 1.453729760488147e+00
 7.916931410936698e-01	 1.256713315425795e+00	 1.091700297962361e+00
 7.795677802025399e-01	 1.264270735547404e+00	 8.855207590885610e-01
 7.673840261366348e-01	 1.271702867504179e+00	 8.736646550972509e-01
 8.916331480027944e-01	 1.198909358955622e+00	 5.077753724057952e+00
 8.799736403570438e-01	 1.207493179640855e+00	 4.489719108569171e+00
 8.682403992765638e-01	 1.215957264369807e+00	 3.863087438740804e+00
 8.564352548069125e-01	 1.224300694946086e+00	 3.223951164323661e+00
 8.445600514659207e-01	 1.232522590185671e+00	 2.599731942928723e+00
 8.326166473167093e-01	 1.240622106179561e+00	 2.019127055791389e+00
 8.206069130358490e-01	 1.248598436528824e+00	 1.512054664837019e+00
 8.085327309776097e-01	 1.256450812551967e+00	 1.109598017873864e+00
 7.963959942352468e-01	 1.264178503464626e+00	 8.439487082540381e-01
 7.841986057002668e-01	 1.271780816531551e+00	 7.483490946010642e-01
 7.719424771206084e-01	 1.279257097190972e+00	 8.570339852191708e-01
 8.968983926577605e-01	 1.205989121649732e+00	 4.611366560502380e+00
 8.851700336458100e-01	 1.214623631248936e+00	 3.930842297551269e+00
 8.733675057907243e-01	 1.223137697830722e+00	 3.258979606263739e+00
 8.614926499447891e-01	 1.231530397776602e+00	 2.616919277994161e+00
 8.495473215180260e-01	 1.239800844699027e+00	 2.026878738309642e+00
 8.375333895457321e-01	 1.247948189705582e+00	 1.512107123394661e+00
 8.254527357511400e-01	 1.255971621635420e+00	 1.096839486847568e+00
 8.133072536041404e-01	 1.263870367267871e+00	 8.062502271685565e-01
 8.010988473770236e-01	 1.271643691503171e+00	 6.664058252987606e-01
 7.888294311981927e-01	 1.279290897515368e+00	 7.042169804187888e-01
 7.765009281047821e-01	 1.286811326877398e+00	 9.473902308675769e-01
 9.021636373130609e-01	 1.213068884343809e+00	 3.972587140972657e+00
 8.903664269349282e-01	 1.221754082856973e+00	 3.225245287057074e+00
 8.784946123052503e-01	 1.230318131291566e+00	 2.539448900978017e+00
 8.665500450830431e-01	 1.238760100607008e+00	 1.929719303633612e+00
 8.545345915705167e-01	 1.247079099212222e+00	 1.411308613664483e+00
 8.424501317751466e-01	 1.255274273231384e+00	 1.000166700912081e+00
 8.302985584668269e-01	 1.263344806741740e+00	 7.129076643370319e-01
 8.180817762310687e-01	 1.271289921983438e+00	 5.667759018876148e-01
 8.058017005192001e-01	 1.279108879541323e+00	 5.796118382742312e-01
 7.934602566965188e-01	 1.286800978498739e+00	 7.698173749185949e-01
 7.810593790893557e-01	 1.294365556563339e+00	 1.156321124525666e+00
 9.074288819688618e-01	 1.220148647037751e+00	 3.162800691079192e+00
 8.955628202245742e-01	 1.228884534464867e+00	 2.381717256367490e+00
 8.836217188203263e-01	 1.237498564752240e+00	 1.719172304036751e+00
 8.716074402218631e-01	 1.245989803437203e+00	 1.181432499224723e+00
 8.595218616235862e-01	 1.254357353725156e+00	 7.750572113203014e-01
 8.473668740051490e-01	 1.262600356756868e+00	 5.068805296740764e-01
 8.351443811831075e-01	 1.270717991847680e+00	 3.839933019743992e-01
 8.228562988585950e-01	 1.278709476698562e+00	 4.137252337396045e-01
 8.105045536619754e-01	 1.286574067578973e+00	 6.036270851051055e-01
 7.980910821954449e-01	 1.294311059481554e+00	 9.614529987376137e-01
 7.856178300745293e-01	 1.301919786248680e+00	 1.495142990305527e+00
 9.126941266253301e-01	 1.227228409731459e+00	 2.183355213079328e+00
 9.007592135149235e-01	 1.236014986072517e+00	 1.408839465012768e+00
 8.887488253361341e-01	 1.244678998212643e+00	 8.124831883112110e-01
 8.766648353614378e-01	 1.253219506267087e+00	 3.906950809887606e-01
 8.645091316774273e-01	 1.261635608237728e+00	 1.396471772727622e-01
 8.522836162359341e-01	 1.269926440281931e+00	 5.527508026747768e-02
 8.399902039001794e-01	 1.278091176953135e+00	 1.332788188080326e-01
 8.276308214869176e-01	 1.286129031413138e+00	 3.691243317335695e-01
 8.152074068055497e-01	 1.294039255616013e+00	 7.580455796590883e-01
 8.027219076951706e-01	 1.301821140463702e+00	 1.295047281194285e+00
 7.901762810605031e-01	 1.309474015933302e+00	 1.974908267465844e+00
 7.445917712127673e-01	 1.233931719068790e+00	 2.136045519106032e+00
 7.327150827691792e-01	 1.241020946404336e+00	 1.982867234843543e+00
 7.207854468972287e-01	 1.247987456658922e+00	 1.879969382224088e+00
 7.088047291255960e-01	 1.254830731191595e+00	 1.820358011185638e+00
 6.967747998534317e-01	 1.261550288408174e+00	 1.796634436478052e+00
 6.846975334493393e-01	 1.268145683747823e+00	 1.800889672218852e+00
 6.725748073546437e-01	 1.274616509643952e+00	 1.824732860451219e+00
 6.604085011917672e-01	 1.280962395459682e+00	 1.859319683639047e+00
 6.482004958785397e-01	 1.287183007398215e+00	 1.895380680074826e+00
 6.359526727492348e-01	 1.293278048388430e+00	 1.923249385679470e+00
 6.236669126831258e-01	 1.299247257946061e+00	 1.932890230370945e+00
 7.491502221987406e-01	 1.241485948755668e+00	 1.768357761053865e+00
 7.372008237088502e-01	 1.248618576913754e+00	 1.614601216987638e+00
 7.251981536421693e-01	 1.255627736706952e+00	 1.528339973140818e+00
 7.131440889482986e-01	 1.262512906319155e+00	 1.499073792742954e+00
 7.010405114771265e-01	 1.269273601207829e+00	 1.516212953534081e+00
 6.888893070722950e-01	 1.275909374090512e+00	 1.568503877891909e+00
 6.766923646689793e-01	 1.282419814905460e+00	 1.644064449886396e+00
 6.644515753968044e-01	 1.288804550746734e+00	 1.730419423210570e+00
 6.521688316887340e-01	 1.295063245774013e+00	 1.814535825039610e+00
 6.398460263967248e-01	 1.301195601097489e+00	 1.882858265510029e+00
 6.274850519149480e-01	 1.307201354638196e+00	 1.921344067376960e+00
 7.537086731839142e-01	 1.249040178442763e+00	 1.445363937877587e+00
 7.416865646477211e-01	 1.256216207423393e+00	 1.324744559250933e+00
 7.296108603863108e-01	 1.263268016755224e+00	 1.279023142946616e+00
 7.174834487702058e-01	 1.270195081446992e+00	 1.294884110778248e+00
 7.053062231000307e-01	 1.276996914007808e+00	 1.359556902291023e+00
 6.930810806944683e-01	 1.283673064433576e+00	 1.459510315683876e+00
 6.808099219825439e-01	 1.290223120167401e+00	 1.580484080449765e+00
 6.684946496010884e-01	 1.296646706034282e+00	 1.707529259403728e+00
 6.561371674981981e-01	 1.302943484150369e+00	 1.825048701167567e+00
 6.437393800435145e-01	 1.309113153807163e+00	 1.916837442738602e+00
 6.313031911461059e-01	 1.315155451330999e+00	 1.966122966826188e+00
 7.582671241684876e-01	 1.256594408129957e+00	 1.180131696289579e+00
 7.461723055859923e-01	 1.263813837933131e+00	 1.120654566845873e+00
 7.340235671298537e-01	 1.270908296803611e+00	 1.134073650904449e+00
 7.218228085915153e-01	 1.277877256574971e+00	 1.205676710878529e+00
 7.095719347223410e-01	 1.284720226807967e+00	 1.321266732103525e+00
 6.972728543160539e-01	 1.291436754776867e+00	 1.466080351805447e+00
 6.849274792955314e-01	 1.298026425429625e+00	 1.624570226702615e+00
 6.725377238048077e-01	 1.304488861322167e+00	 1.780448449226368e+00
 6.601055033071146e-01	 1.310823722527118e+00	 1.916730030526855e+00
 6.476327336897780e-01	 1.317030706517287e+00	 2.015776343518553e+00
 6.351213303767658e-01	 1.323109548024305e+00	 2.059338424484050e+00
 7.628255751526610e-01	 1.264148637817135e+00	 9.854153017438755e-01
 7.506580465238640e-01	 1.271411468442847e+00	 1.009362202346902e+00
 7.384362738729970e-01	 1.278548576851983e+00	 1.095499795404400e+00
 7.261621684124268e-01	 1.285559431702957e+00	 1.229393070383211e+00
 7.138376463442561e-01	 1.292443539608166e+00	 1.396075769476189e+00
 7.014646279372486e-01	 1.299200445120239e+00	 1.580576838114736e+00
 6.890450366081335e-01	 1.305829730691974e+00	 1.767131443366027e+00
 6.765807980081501e-01	 1.312331016610229e+00	 1.939225445376516e+00
 6.640738391156659e-01	 1.318703960904098e+00	 2.079639914010103e+00
 6.515260873356915e-01	 1.324948259227696e+00	 2.170495581219681e+00
 6.389394696070935e-01	 1.331063644717947e+00	 2.193297125183443e+00
 7.673840261366348e-01	 1.271702867504179e+00	 8.736646550972509e-01
 7.551437874615354e-01	 1.279009098952417e+00	 9.976181484266489e-01
 7.428489806159407e-01	 1.286188856900212e+00	 1.165305821362664e+00
 7.305015282331393e-01	 1.293241606830815e+00	 1.364026364905260e+00
 7.181033579659735e-01	 1.300166852408261e+00	 1.578845868276857e+00
 7.056564015582472e-01	 1.306964135463541e+00	 1.795548055320650e+00
 6.931625939205430e-01	 1.313633035954295e+00	 1.999199195197407e+00
 6.806238722113045e-01	 1.320173171898310e+00	 2.174150190506991e+00
 6.680421749240347e-01	 1.326584199281146e+00	 2.304080151393523e+00
 6.554194409814297e-01	 1.332865811938223e+00	 2.372039847056343e+00
 6.427576088372554e-01	 1.339017741411759e+00	 2.360494931856378e+00
 7.719424771206084e-01	 1.279257097190972e+00	 8.570339852191708e-01
 7.596295283992071e-01	 1.286606729461719e+00	 1.092012382401157e+00
 7.472616873588845e-01	 1.293829136948169e+00	 1.345660777101672e+00
 7.348408880538514e-01	 1.300923781958409e+00	 1.607619493651384e+00
 7.223690695876908e-01	 1.307890165208112e+00	 1.864563201401486e+00
 7.098481751792464e-01	 1.314727825806627e+00	 2.103721858694995e+00
 6.972801512329527e-01	 1.321436341216434e+00	 2.312020929390603e+00
 6.846669464144590e-01	 1.328015327186250e+00	 2.475746673549661e+00
 6.720105107324037e-01	 1.334464437658099e+00	 2.580586823090574e+00
 6.593127946271679e-01	 1.340783364648703e+00	 2.611671042732611e+00
 6.465757480674172e-01	 1.346971838105572e+00	 2.553611078192100e+00
 7.765009281047821e-01	 1.286811326877398e+00	 9.473902308675769e-01
 7.641152693370783e-01	 1.294204359970631e+00	 1.298978601864283e+00
 7.516743941020281e-01	 1.301469416995727e+00	 1.638450425036980e+00
 7.391802478747633e-01	 1.308605957085606e+00	 1.958263161126296e+00
 7.266347812096058e-01	 1.315613478007577e+00	 2.248334188079409e+00
 7.140399488004410e-01	 1.322491516149347e+00	 2.498000017973359e+00
 7.013977085455552e-01	 1.329239646478238e+00	 2.697053380534188e+00
 6.887100206178017e-01	 1.335857482473890e+00	 2.834765737331261e+00
 6.759788465409552e-01	 1.342344676034792e+00	 2.899923122847333e+00
 6.632061482730812e-01	 1.348700917358970e+00	 2.880861645160104e+00
 6.503938872977449e-01	 1.354925934799222e+00	 2.765502556554851e+00
 7.810593790893557e-01	 1.294365556563339e+00	 1.156321124525666e+00
 7.686010102753500e-01	 1.301801990479030e+00	 1.624798490812907e+00
 7.560871008455708e-01	 1.309109697042756e+00	 2.045467954908378e+00
 7.435196076960728e-01	 1.316288132212268e+00	 2.414166523381311e+00
 7.309004928319163e-01	 1.323336790806513e+00	 2.725381551278790e+00
 7.182317224220268e-01	 1.330255206491554e+00	 2.971452743512196e+00
 7.055152658585422e-01	 1.337042951739551e+00	 3.145956098628584e+00
 6.927530948215209e-01	 1.343699637761070e+00	 3.242178127215735e+00
 6.799471823498716e-01	 1.350224914411064e+00	 3.253072431128516e+00
 6.670995019193453e-01	 1.356618470068859e+00	 3.171288293768385e+00
 6.542120265284048e-01	 1.362880031492542e+00	 2.989198693184940e+00
 7.856178300745293e-01	 1.301919786248680e+00	 1.495142990305527e+00
 7.730867512142211e-01	 1.309399620986794e+00	 2.075605832742591e+00
 7.604998075897130e-01	 1.316749977089128e+00	 2.568463205281663e+00
 7.478589675179800e-01	 1.323970307338262e+00	 2.973746132915058e+00
 7.351662044548206e-01	 1.331060103604779e+00	 3.291040499929494e+00
 7.224234960442003e-01	 1.338018896833099e+00	 3.517313391138651e+00
 7.096328231721077e-01	 1.344846257000220e+00	 3.650585191102994e+00
 6.967961690258050e-01	 1.351541793047631e+00	 3.689167770984673e+00
 6.839155181593362e-01	 1.358105152786750e+00	 3.631231619419369e+00
 6.709928555661349e-01	 1.364536022778204e+00	 3.474825591368009e+00
 6.580301657595633e-01	 1.370834128185364e+00	 3.217895903077328e+00
 7.901762810605031e-01	 1.309474015933302e+00	 1.974908267465844e+00
 7.775724921538926e-01	 1.316997251493802e+00	 2.657390476893565e+00
 7.649125143346542e-01	 1.324390257134714e+00	 3.209143619943572e+00
 7.521983273406831e-01	 1.331652482463453e+00	 3.635212048060592e+00
 7.394319160785158e-01	 1.338783416402234e+00	 3.940755030924430e+00
 7.266152696671564e-01	 1.345782587173835e+00	 4.128973338478413e+00
 7.137503804864437e-01	 1.352649562260090e+00	 4.202987270192026e+00
 7.008392432308426e-01	 1.359383948333415e+00	 4.167125280618938e+00
 6.878838539695308e-01	 1.365985391161689e+00	 4.025804576119519e+00
 6.748862092136254e-01	 1.372453575486838e+00	 3.783540109943416e+00
 6.618483049913858e-01	 1.378788224877522e+00	 3.444952617282743e+00
 6.236669126831258e-01	 1.299247257946061e+00	 1.932890230370945e+00
 6.113429973410696e-01	 1.305091394526528e+00	 1.932332727420829e+00
 5.989848900772535e-01	 1.310809243923031e+00	 1.936158355704266e+00
 5.865944656098293e-01	 1.316400653358761e+00	 1.943975095955283e+00
 5.741735948273184e-01	 1.321865505875329e+00	 1.955497946116461e+00
 5.617241439652630e-01	 1.327203720078967e+00	 1.970553188787492e+00
 5.492479737946393e-01	 1.332415249865001e+00	 1.989081906296034e+00
 5.367469388226653e-01	 1.337500084121130e+00	 2.011142744830414e+00
 5.242228865066125e-01	 1.342458246410058e+00	 2.036913933710132e+00
 5.116776564812040e-01	 1.347289794632056e+00	 2.066694570325182e+00
 4.991130798001508e-01	 1.351994820668021e+00	 2.100905185524987e+00
 6.274850519149480e-01	 1.307201354638196e+00	 1.921344067376960e+00
 6.150856885675712e-01	 1.313081269494886e+00	 1.939760478405564e+00
 6.026519239727491e-01	 1.318834124027283e+00	 1.957767471831670e+00
 5.901856443258018e-01	 1.324459764523265e+00	 1.975935953999831e+00
 5.776887319689732e-01	 1.329958073308410e+00	 1.994985237373133e+00
 5.651630645630416e-01	 1.335328968490650e+00	 2.015785486183643e+00
 5.526105142707654e-01	 1.340572403683049e+00	 2.039359355630067e+00
 5.400329469527970e-01	 1.345688367705273e+00	 2.066882829832119e+00
 5.274322213766837e-01	 1.350676884264278e+00	 2.099685268545507e+00
 5.148101884395320e-01	 1.355538011614798e+00	 2.139248677239153e+00
 5.021686904049041e-01	 1.360271842200233e+00	 2.187206219512659e+00
 6.313031911461059e-01	 1.315155451330999e+00	 1.966122966826188e+00
 6.188283797934524e-01	 1.321071144463957e+00	 1.986761391278138e+00
 6.063189578676741e-01	 1.326859004132288e+00	 2.004837968162538e+00
 5.937768230412560e-01	 1.332518875688554e+00	 2.021665452436235e+00
 5.812038691101622e-01	 1.338050640742303e+00	 2.038733817116472e+00
 5.686019851604048e-01	 1.343454216903165e+00	 2.057711370840758e+00
 5.559730547465216e-01	 1.348729557501946e+00	 2.080445023176618e+00
 5.433189550825979e-01	 1.353876651290278e+00	 2.108959705737007e+00
 5.306415562464522e-01	 1.358895522119367e+00	 2.145456962115102e+00
 5.179427203975739e-01	 1.363786228598419e+00	 2.192312724400020e+00
 5.052243010093732e-01	 1.368548863733329e+00	 2.252074298547978e+00
 6.351213303767658e-01	 1.323109548024305e+00	 2.059338424484050e+00
 6.225710710188684e-01	 1.329061019433578e+00	 2.067208239525290e+00
 6.099859917621709e-01	 1.334883884237883e+00	 2.072757596607803e+00
 5.973680017563212e-01	 1.340577986854469e+00	 2.077824890333078e+00
 5.847190062510004e-01	 1.346143208176854e+00	 2.084442115974104e+00
 5.720409057574538e-01	 1.351579465316364e+00	 2.094835147487465e+00
 5.593355952219958e-01	 1.356886711321549e+00	 2.111423125647151e+00
 5.466049632121427e-01	 1.362064934876010e+00	 2.136816966286347e+00
 5.338508911159829e-01	 1.367114159975201e+00	 2.173817003761413e+00
 5.210752523553858e-01	 1.372034445582796e+00	 2.225409789657999e+00
 5.082799116136081e-01	 1.376825885267193e+00	 2.294764071418108e+00
 6.389394696070935e-01	 1.331063644717947e+00	 2.193297125183444e+00
 6.263137622439744e-01	 1.337050894403583e+00	 2.175127229764461e+00
 6.136530256563820e-01	 1.342908764343907e+00	 2.157031631609617e+00
 6.009591804711257e-01	 1.348637098020852e+00	 2.141162906081293e+00
 5.882341433916033e-01	 1.354235775611909e+00	 2.129871326899700e+00
 5.754798263542896e-01	 1.359704713730101e+00	 2.125704788112766e+00
 5.626981356972761e-01	 1.365043865141720e+00	 2.131407806620174e+00
 5.498909713415072e-01	 1.370253218462333e+00	 2.149919616261987e+00
 5.370602259853408e-01	 1.375332797831649e+00	 2.184371369785299e+00
 5.242077843130235e-01	 1.380282662567807e+00	 2.238082470074570e+00
 5.113355222176582e-01	 1.385102906801707e+00	 2.314556056845022e+00
 6.427576088372554e-01	 1.339017741411759e+00	 2.360494931856378e+00
 6.300564534689254e-01	 1.345040769373805e+00	 2.304693259096837e+00
 6.173200595504501e-01	 1.350933644450194e+00	 2.253279221048692e+00
 6.045503591857989e-01	 1.356696209187545e+00	 2.208512750544008e+00
 5.917492805320858e-01	 1.362328343047314e+00	 2.172843432811265e+00
 5.789187469510138e-01	 1.367829962144227e+00	 2.148910549993761e+00
 5.660606761724502e-01	 1.373201018962316e+00	 2.139542184608920e+00
 5.531769794707670e-01	 1.378441502049116e+00	 2.147753393084298e+00
 5.402695608545897e-01	 1.383551435688585e+00	 2.176743465990792e+00
 5.273403162705431e-01	 1.388530879553331e+00	 2.229892296839449e+00
 5.143911328215734e-01	 1.393379928336755e+00	 2.310755886287419e+00
 6.465757480674172e-01	 1.346971838105572e+00	 2.553611078192100e+00
 6.337991446938762e-01	 1.353030644344081e+00	 2.450225331664133e+00
 6.209870934445172e-01	 1.358958524556584e+00	 2.357229858111736e+00
 6.081415379004701e-01	 1.364755320354388e+00	 2.276789648979611e+00
 5.952644176725624e-01	 1.370420910482918e+00	 2.211239296745485e+00
 5.823576675477273e-01	 1.375955210558597e+00	 2.163083635782391e+00
 5.694232166476056e-01	 1.381358172783197e+00	 2.134997428397633e+00
 5.564629875999976e-01	 1.386629785636222e+00	 2.129824106418627e+00
 5.434788957237950e-01	 1.391770073545879e+00	 2.150573584368988e+00
 5.304728482280007e-01	 1.396779096539246e+00	 2.200419165705856e+00
 5.174467434254035e-01	 1.401656949872221e+00	 2.282693568743612e+00
 6.503938872977449e-01	 1.354925934799222e+00	 2.765502556554852e+00
 6.375418359189817e-01	 1.361020519314243e+00	 2.606182127867346e+00
 6.246541273387267e-01	 1.366983404662914e+00	 2.464719969148924e+00
 6.117327166152677e-01	 1.372814431521223e+00	 2.342988248090531e+00
 5.987795548131486e-01	 1.378513477918565e+00	 2.242996811959744e+00
 5.857965881445312e-01	 1.384080458973060e+00	 2.166894893923318e+00
 5.727857571228303e-01	 1.389515326604221e+00	 2.116971858526382e+00
 5.597489957292741e-01	 1.394818069223517e+00	 2.095656995050510e+00
 5.466882305930215e-01	 1.399988711403406e+00	 2.105518373340410e+00
 5.336053801854517e-01	 1.405027313525431e+00	 2.149260782306712e+00
 5.205023540291984e-01	 1.409933971407990e+00	 2.229722776651573e+00
 6.542120265284048e-01	 1.362880031492542e+00	 2.989198693184940e+00
 6.412845271443978e-01	 1.369010394284127e+00	 2.767157720011539e+00
 6.283211612332199e-01	 1.375008284769019e+00	 2.571689612783665e+00
 6.153238953303212e-01	 1.380873542687891e+00	 2.404180144720685e+00
 6.022946919539597e-01	 1.386606045354103e+00	 2.266109109533258e+00
 5.892355087415264e-01	 1.392205707387471e+00	 2.159053557755743e+00
 5.761482975982123e-01	 1.397672480425248e+00	 2.084690073856406e+00
 5.630350038586721e-01	 1.403006352810868e+00	 2.044796100324555e+00
 5.498975654623333e-01	 1.408207349261036e+00	 2.041250321002148e+00
 5.367379121429527e-01	 1.413275530511763e+00	 2.076032121743963e+00
 5.235579646330074e-01	 1.418210992943944e+00	 2.151220152024291e+00
 6.580301657595633e-01	 1.370834128185364e+00	 3.217895903077329e+00
 6.450272183702787e-01	 1.377000269253567e+00	 2.927877428430204e+00
 6.319881951281403e-01	 1.383033164874738e+00	 2.674179285756459e+00
 6.189150740457597e-01	 1.388932653854234e+00	 2.457511492885954e+00
 6.058098290951102e-01	 1.394698612789377e+00	 2.278622821132454e+00
 5.926744293388148e-01	 1.400330955801682e+00	 2.138306021728482e+00
 5.795108380738389e-01	 1.405829634246136e+00	 2.037402102197917e+00
 5.663210119882670e-01	 1.411194636398138e+00	 1.976803655474569e+00
 5.531069003317955e-01	 1.416425987118642e+00	 1.957457250851867e+00
 5.398704441005593e-01	 1.421523747498121e+00	 1.980364901871589e+00
 5.266135752368805e-01	 1.426488014479967e+00	 2.046584631998767e+00
 6.618483049913858e-01	 1.378788224877522e+00	 3.444952617282743e+00
 6.487699095967796e-01	 1.384990144222397e+00	 3.083193812417024e+00
 6.356552290236301e-01	 1.391058044979909e+00	 2.768326831193682e+00
 6.225062527617115e-01	 1.396991765020092e+00	 2.500200685975154e+00
 6.093249662367155e-01	 1.402791180224235e+00	 2.278636394713601e+00
 5.961133499364965e-01	 1.408456204215545e+00	 2.103434653230164e+00
 5.828733785497980e-01	 1.413986788066745e+00	 1.974382574028947e+00
 5.696070201181347e-01	 1.419382919985196e+00	 1.891259490203571e+00
 5.563162352014727e-01	 1.424644624976096e+00	 1.853841829485176e+00
 5.430029760583274e-01	 1.429771964484383e+00	 1.861907069719535e+00
 5.296691858408672e-01	 1.434765036015944e+00	 1.915236793014900e+00
 4.991130798001508e-01	 1.351994820668021e+00	 2.100905185524987e+00
 4.865331182043390e-01	 1.356572682302293e+00	 2.137665682769293e+00
 4.739374478213425e-01	 1.361024347901707e+00	 2.174685436805837e+00
 4.613278680963599e-01	 1.365350007944089e+00	 2.211838790709969e+00
 4.487061670436159e-01	 1.369549885257692e+00	 2.248997330214495e+00
 4.360741205666026e-01	 1.373624234577360e+00	 2.286030693350056e+00
 4.234334917951887e-01	 1.377573342084982e+00	 2.322806921213312e+00
 4.107860304399624e-01	 1.381397524934933e+00	 2.359192379654539e+00
 3.981334721641456e-01	 1.385097130765164e+00	 2.395051283706489e+00
 3.854775379733910e-01	 1.388672537194630e+00	 2.430244858313019e+00
 3.728199336237416e-01	 1.392124151307731e+00	 2.464630170356756e+00
 5.021686904049041e-01	 1.360271842200233e+00	 2.187206219512659e+00
 4.895117132677779e-01	 1.364877729873223e+00	 2.241089702786151e+00
 4.768389311729586e-01	 1.369356648929030e+00	 2.296667910431894e+00
 4.641521545819990e-01	 1.373708791011600e+00	 2.352997416704187e+00
 4.514531824554971e-01	 1.377934380313367e+00	 2.409113826939474e+00
 4.387438015691752e-01	 1.382033673128686e+00	 2.464033926157494e+00
 4.260257858469319e-01	 1.386006957391479e+00	 2.516757347291779e+00
 4.133008957112301e-01	 1.389854552197771e+00	 2.566267788155067e+00
 4.005708774511679e-01	 1.393576807313784e+00	 2.611533808404431e+00
 3.878374626085394e-01	 1.397174102670292e+00	 2.651509239627676e+00
 3.751023673821690e-01	 1.400646847843902e+00	 2.685133243224917e+00
 5.052243010093732e-01	 1.368548863733329e+00	 2.252074298547978e+00
 4.924903083309190e-01	 1.373182777445042e+00	 2.320976283814649e+00
 4.797404145242506e-01	 1.377688949957241e+00	 2.392431177629569e+00
 4.669764410672796e-01	 1.382067574079997e+00	 2.464817817536854e+00
 4.542001978669820e-01	 1.386318875369919e+00	 2.536481384272463e+00
 4.414134825713155e-01	 1.390443111680873e+00	 2.605736612161298e+00
 4.286180798982113e-01	 1.394440572698812e+00	 2.670870494615607e+00
 4.158157609820129e-01	 1.398311579461406e+00	 2.730144513675830e+00
 4.030082827376984e-01	 1.402056483863154e+00	 2.781796424819205e+00
 3.901973872432076e-01	 1.405675668146641e+00	 2.824041630233338e+00
 3.773848011401508e-01	 1.409169544380683e+00	 2.855074175409296e+00
 5.082799116136081e-01	 1.376825885267193e+00	 2.294764071418108e+00
 4.954689033938086e-01	 1.381487825017637e+00	 2.376272583736139e+00
 4.826418978752635e-01	 1.386021250986234e+00	 2.460734458589900e+00
 4.698007275522475e-01	 1.390426357149176e+00	 2.545988085000026e+00
 4.569472132781189e-01	 1.394703370427249e+00	 2.629830975500695e+00
 4.440831635730731e-01	 1.398852550233825e+00	 2.710023763827819e+00
 4.312103739490798e-01	 1.402874188006889e+00	 2.784293670144531e+00
 4.183306262523653e-01	 1.406768606725761e+00	 2.850337463099586e+00
 4.054456880237921e-01	 1.410536160413200e+00	 2.905823950419758e+00
 3.925573118774490e-01	 1.414177233623615e+00	 2.948396031818973e+00
 3.796672348977365e-01	 1.417692240918024e+00	 2.975672349763731e+00
 5.113355222176582e-01	 1.385102906801707e+00	 2.314556056845022e+00
 4.984474984564929e-01	 1.389792872590896e+00	 2.405958869417708e+00
 4.855433812260426e-01	 1.394353552015900e+00	 2.500374419591624e+00
 4.726250140369492e-01	 1.398785140219034e+00	 2.595235259099092e+00
 4.596942286889552e-01	 1.403087865485256e+00	 2.687931257846030e+00
 4.467528445744989e-01	 1.407261988787448e+00	 2.775814116974125e+00
 4.338026679995901e-01	 1.411307803315623e+00	 2.856201318853071e+00
 4.208454915223415e-01	 1.415225633990746e+00	 2.926379544169432e+00
 4.078830933095035e-01	 1.419015836963849e+00	 2.983607588801656e+00
 3.949172365113172e-01	 1.422678799101151e+00	 3.025118815357808e+00
 3.819496686549754e-01	 1.426214937455878e+00	 3.048123176101986e+00
 5.143911328215734e-01	 1.393379928336755e+00	 2.310755886287419e+00
 5.014260935190180e-01	 1.398097920164706e+00	 2.409047559637795e+00
 4.884448645766332e-01	 1.402685853046131e+00	 2.510184100872033e+00
 4.754493005214303e-01	 1.407143923289465e+00	 2.611324223710477e+00
 4.624412440995391e-01	 1.411472360543840e+00	 2.709587516729115e+00
 4.494225255756428e-01	 1.415671427341645e+00	 2.802059202396102e+00
 4.363949620497943e-01	 1.419741418624923e+00	 2.885794299379797e+00
 4.233603567919959e-01	 1.423682661256284e+00	 2.957821219679930e+00
 4.103204985948876e-01	 1.427495513515027e+00	 3.015144834770591e+00
 3.972771611448651e-01	 1.431180364579188e+00	 3.054749047231097e+00
 3.842321024119175e-01	 1.434737633994194e+00	 3.073598906277162e+00
 5.174467434254035e-01	 1.401656949872221e+00	 2.282693568743612e+00
 5.044046885814306e-01	 1.406402967738958e+00	 2.384582297463017e+00
 4.913463479270809e-01	 1.411018154076820e+00	 2.489031878377727e+00
 4.782735870057369e-01	 1.415502706360367e+00	 2.593056637596566e+00
 4.651882595099187e-01	 1.419856855602901e+00	 2.693640643988345e+00
 4.520922065765555e-01	 1.424080865896321e+00	 2.787742447242242e+00
 4.389872560997457e-01	 1.428175033934699e+00	 2.872299182480882e+00
 4.258752220613828e-01	 1.432139688522289e+00	 2.944230074874931e+00
 4.127579038799990e-01	 1.435975190066661e+00	 3.000439380455370e+00
 3.996370857781466e-01	 1.439681930057661e+00	 3.037818801703083e+00
 3.865145361686117e-01	 1.443260330532925e+00	 3.053249418512303e+00
 5.205023540291984e-01	 1.409933971407990e+00	 2.229722776651573e+00
 5.073832836437766e-01	 1.414708015313537e+00	 2.331637050866106e+00
 4.942478312774308e-01	 1.419350455107859e+00	 2.435820458003133e+00
 4.810978734899151e-01	 1.423861489431633e+00	 2.539269899324948e+00
 4.679352749201415e-01	 1.428241350662339e+00	 2.638966148658278e+00
 4.547618875772868e-01	 1.432490304451380e+00	 2.731878304910619e+00
 4.415795501494966e-01	 1.436608649244861e+00	 2.814967571350724e+00
 4.283900873305568e-01	 1.440596715788680e+00	 2.885190397508944e+00
 4.151953091648925e-01	 1.444454866618676e+00	 2.939501022407844e+00
 4.019970104112149e-01	 1.448183495536511e+00	 2.974853460307878e+00
 3.887969699251081e-01	 1.451783027072022e+00	 2.988202972245556e+00
 5.235579646330074e-01	 1.418210992943944e+00	 2.151220152024291e+00
 5.103618787061026e-01	 1.423013062888333e+00	 2.249315240431171e+00
 4.971493146277278e-01	 1.427682756139139e+00	 2.349485900989522e+00
 4.839221599740112e-01	 1.432220272503161e+00	 2.448836144706828e+00
 4.706822903302555e-01	 1.436625845722054e+00	 2.544473198977216e+00
 4.574315685778877e-01	 1.440899743006728e+00	 2.633511412303728e+00
 4.441718441991001e-01	 1.445042264555320e+00	 2.713075442916177e+00
 4.309049525995721e-01	 1.449053743055374e+00	 2.780302770054846e+00
 4.176327144496232e-01	 1.452934543170999e+00	 2.832345569649292e+00
 4.043569350441231e-01	 1.456685061015672e+00	 2.866371998682697e+00
 3.910794036814558e-01	 1.460305723611435e+00	 2.879566934694239e+00
 5.266135752368805e-01	 1.426488014479967e+00	 2.046584631998767e+00
 5.133404737684552e-01	 1.431318110463235e+00	 2.136748893046353e+00
 5.000507979780178e-01	 1.436015057170554e+00	 2.228996679218986e+00
 4.867464464580708e-01	 1.440579055574847e+00	 2.320661275433818e+00
 4.734293057403088e-01	 1.445010340781943e+00	 2.409103694355589e+00
 4.601012495784080e-01	 1.449309181562269e+00	 2.491715773329926e+00
 4.467641382486084e-01	 1.453475879865985e+00	 2.565922509252431e+00
 4.334198178684830e-01	 1.457510770322289e+00	 2.629183673564154e+00
 4.200701197342454e-01	 1.461414219723556e+00	 2.678994752624654e+00
 4.067168596769248e-01	 1.465186626495083e+00	 2.712887261357135e+00
 3.933618374377046e-01	 1.468828420151117e+00	 2.728428480286241e+00
 5.296691858408672e-01	 1.434765036015944e+00	 1.915236793014900e+00
 5.163190688308803e-01	 1.439623158038130e+00	 1.993097820534520e+00
 5.029522813283460e-01	 1.444347358201994e+00	 2.073352759196287e+00
 4.895707329421400e-01	 1.448937838646585e+00	 2.153684017653286e+00
 4.761763211503492e-01	 1.453394835841910e+00	 2.231831366095165e+00
 4.627709305788981e-01	 1.457718620117905e+00	 2.305593967591528e+00
 4.493564322980741e-01	 1.461909495176767e+00	 2.372831598307796e+00
 4.359346831373438e-01	 1.465967797589339e+00	 2.431465102709373e+00
 4.225075250188142e-01	 1.469893896276274e+00	 2.479476133027757e+00
 4.090767843096734e-01	 1.473688191974680e+00	 2.514906224984715e+00
 3.956442711939038e-01	 1.477351116691019e+00	 2.535855264054315e+00
 3.728199336237416e-01	 1.392124151307731e+00	 2.464630170356756e+00
 3.601623492207781e-01	 1.395452409428825e+00	 2.496090850359716e+00
 3.475064591668398e-01	 1.398657777487031e+00	 2.521848487611890e+00
 3.348539210785312e-01	 1.401740749553137e+00	 2.540881342205298e+00
 3.222063750930237e-01	 1.404701846974463e+00	 2.552206010985205e+00
 3.095654433703703e-01	 1.407541617803216e+00	 2.554870418193156e+00
 2.969327296151564e-01	 1.410260636216053e+00	 2.547949747934467e+00
 2.843098186175781e-01	 1.412859501925538e+00	 2.530543179578954e+00
 2.716982758140161e-01	 1.415338839584173e+00	 2.501771375967514e+00
 2.590996468671465e-01	 1.417699298181683e+00	 2.460774672064133e+00
 2.465154572656048e-01	 1.419941550436234e+00	 2.406711909918513e+00
 3.751023673821690e-01	 1.400646847843902e+00	 2.685133243224917e+00
 3.623672922246058e-01	 1.403995481830190e+00	 2.710034238988841e+00
 3.496339217890197e-01	 1.407220473410729e+00	 2.724073488504043e+00
 3.369039238400812e-01	 1.410322319681046e+00	 2.726925246872804e+00
 3.241789485560170e-01	 1.413301545180189e+00	 2.718342194804704e+00
 3.114606280278794e-01	 1.416158701315581e+00	 2.698128512235170e+00
 2.987505757782659e-01	 1.418894365779036e+00	 2.666134519345329e+00
 2.860503862995896e-01	 1.421509141954604e+00	 2.622252154565231e+00
 2.733616346119624e-01	 1.424003658318955e+00	 2.566411238789236e+00
 2.606858758407357e-01	 1.426378567834983e+00	 2.498576472683635e+00
 2.480246448137129e-01	 1.428634547339286e+00	 2.418745112091595e+00
 3.773848011401508e-01	 1.409169544380683e+00	 2.855074175409296e+00
 3.645722352280478e-01	 1.412538554232072e+00	 2.872870123634128e+00
 3.517613844108948e-01	 1.415783169334836e+00	 2.876254607482433e+00
 3.389539266014226e-01	 1.418903889809247e+00	 2.865422753168337e+00
 3.261515220189089e-01	 1.421901243386087e+00	 2.840715129467838e+00
 3.133558126853977e-01	 1.424775784828000e+00	 2.802537350591654e+00
 3.005684219414941e-01	 1.427528095341957e+00	 2.751353751267537e+00
 2.877909539818225e-01	 1.430158781983499e+00	 2.687681935293413e+00
 2.750249934102211e-01	 1.432668477053471e+00	 2.612088145539260e+00
 2.622721048147107e-01	 1.435057837487939e+00	 2.525183400920429e+00
 2.495338323622575e-01	 1.437327544241933e+00	 2.427620343901245e+00
 3.796672348977365e-01	 1.417692240918024e+00	 2.975672349763731e+00
 3.667771782311469e-01	 1.421081626634435e+00	 2.986435866979129e+00
 3.538888470324986e-01	 1.424345865259336e+00	 2.980713042291142e+00
 3.410039293625786e-01	 1.427485459937747e+00	 2.959031423718046e+00
 3.281240954817088e-01	 1.430500941592184e+00	 2.922174301907313e+00
 3.152509973429217e-01	 1.433392868340518e+00	 2.870996992240847e+00
 3.023862681048236e-01	 1.436161824904879e+00	 2.806419866647982e+00
 2.895315216642460e-01	 1.438808422012302e+00	 2.729422297835999e+00
 2.766883522087478e-01	 1.441333295787813e+00	 2.641037462059300e+00
 2.638583337890147e-01	 1.443737107140646e+00	 2.542347943996537e+00
 2.510430199111707e-01	 1.446020541144276e+00	 2.434482085263226e+00
 3.819496686549754e-01	 1.426214937455878e+00	 3.048123176101986e+00
 3.689821212339457e-01	 1.429624699037249e+00	 3.052529752996787e+00
 3.560163096538653e-01	 1.432908561184218e+00	 3.039718186299306e+00
 3.430539321235716e-01	 1.436067030066553e+00	 3.010347925186738e+00
 3.300966689444273e-01	 1.439100639798507e+00	 2.965502771243890e+00
 3.171461820004478e-01	 1.442009951853179e+00	 2.906339020041005e+00
 3.042041142682372e-01	 1.444795554467864e+00	 2.834078169591276e+00
 2.912720893468286e-01	 1.447458062041092e+00	 2.750000582654154e+00
 2.783517110074977e-01	 1.449998114522070e+00	 2.655440046544227e+00
 2.654445627635908e-01	 1.452416376793205e+00	 2.551779171466883e+00
 2.525522074603853e-01	 1.454713538046414e+00	 2.440445566293087e+00
 3.842321024119175e-01	 1.434737633994194e+00	 3.073598906277162e+00
 3.711870642364873e-01	 1.438167771440482e+00	 3.072913212419558e+00
 3.581437722750282e-01	 1.441471257109468e+00	 3.055489466259556e+00
 3.451039348844241e-01	 1.444648600195670e+00	 3.021910099010904e+00
 3.320692424070742e-01	 1.447700338005082e+00	 2.973419369439907e+00
 3.190413666579729e-01	 1.450627035366032e+00	 2.911328770466321e+00
 3.060219604317175e-01	 1.453429284030977e+00	 2.837009005600764e+00
 2.930126570295394e-01	 1.456107702069947e+00	 2.751883689069789e+00
 2.800150698064265e-01	 1.458662933256330e+00	 2.657423984314647e+00
 2.670307917383822e-01	 1.461095646445711e+00	 2.555144118743182e+00
 2.540613950098334e-01	 1.463406534948448e+00	 2.446597710449385e+00
 3.865145361686117e-01	 1.443260330532925e+00	 3.053249418512303e+00
 3.733920072388143e-01	 1.446710843844101e+00	 3.049323574478263e+00
 3.602712348960211e-01	 1.450033953035072e+00	 3.030198120461958e+00
 3.471539376451588e-01	 1.453230170325105e+00	 2.996198963774750e+00
 3.340418158696596e-01	 1.456300036211934e+00	 2.948580828523013e+00
 3.209365513154934e-01	 1.459244118879119e+00	 2.888667488441168e+00
 3.078398065952469e-01	 1.462063013594280e+00	 2.817829848966235e+00
 2.947532247123467e-01	 1.464757342098945e+00	 2.737480002370794e+00
 2.816784286054896e-01	 1.467327751990686e+00	 2.649066264063521e+00
 2.686170207133323e-01	 1.469774916098262e+00	 2.554069124202350e+00
 2.555705825594477e-01	 1.472099531850478e+00	 2.453998046554992e+00
 3.887969699251081e-01	 1.451783027072022e+00	 2.988202972245556e+00
 3.755969502409698e-01	 1.455253916248075e+00	 2.983465882578658e+00
 3.623986975168776e-01	 1.458596648961016e+00	 2.965968919731942e+00
 3.492039404057984e-01	 1.461811740454865e+00	 2.935640652037482e+00
 3.360143893321938e-01	 1.464899734419093e+00	 2.893583837397010e+00
 3.228317359730058e-01	 1.467861202392487e+00	 2.840994410350094e+00
 3.096576527588085e-01	 1.470696743157837e+00	 2.779097320291569e+00
 2.964937923952194e-01	 1.473406982128165e+00	 2.709141256317241e+00
 2.833417874046426e-01	 1.475992570725226e+00	 2.632394397981553e+00
 2.702032496883841e-01	 1.478454185750956e+00	 2.550141121786465e+00
 2.570797701091607e-01	 1.480792528752603e+00	 2.463679590975128e+00
 3.910794036814558e-01	 1.460305723611435e+00	 2.879566934694239e+00
 3.778018932429966e-01	 1.463796988652372e+00	 2.877009085268954e+00
 3.645261601376318e-01	 1.467159344887289e+00	 2.864881833606231e+00
 3.512539431663655e-01	 1.470393310584955e+00	 2.842608284288901e+00
 3.379869627946864e-01	 1.473499432626582e+00	 2.810967031115678e+00
 3.247269206305067e-01	 1.476478285906183e+00	 2.770888778157157e+00
 3.114754989223844e-01	 1.479330472721710e+00	 2.723309137015851e+00
 2.982343600781267e-01	 1.482056622157686e+00	 2.669169609084270e+00
 2.850051462038407e-01	 1.484657389460041e+00	 2.609542359302770e+00
 2.717894786634808e-01	 1.487133455403891e+00	 2.545367025912236e+00
 2.585889576589047e-01	 1.489485525654923e+00	 2.477501410624094e+00
 3.933618374377046e-01	 1.468828420151117e+00	 2.728428480286241e+00
 3.800068362449374e-01	 1.472340061056958e+00	 2.731588471176847e+00
 3.666536227583171e-01	 1.475722040813875e+00	 2.728973643912602e+00
 3.533039459268826e-01	 1.478974880715383e+00	 2.719423782586166e+00
 3.399595362571478e-01	 1.482099130834428e+00	 2.703219834345300e+00
 3.266221052879927e-01	 1.485095369420250e+00	 2.681105646988941e+00
 3.132933450859577e-01	 1.487964202285965e+00	 2.653632066394216e+00
 2.999749277610369e-01	 1.490706262187585e+00	 2.621197237474043e+00
 2.866685050030396e-01	 1.493322208195222e+00	 2.584169016119201e+00
 2.733757076385657e-01	 1.495812725057163e+00	 2.542888712211906e+00
 2.600981452086121e-01	 1.498178522557537e+00	 2.497674826723679e+00
 3.956442711939038e-01	 1.477351116691019e+00	 2.535855264054315e+00
 3.822117792468353e-01	 1.480883133461804e+00	 2.548806734267909e+00
 3.687810853789673e-01	 1.484284736740762e+00	 2.560389011283239e+00
 3.553539486873725e-01	 1.487556450846154e+00	 2.569058977706220e+00
 3.419321097195881e-01	 1.490698829042657e+00	 2.574334438927607e+00
 3.285172899454604e-01	 1.493712452934736e+00	 2.576127377232783e+00
 3.151111912495110e-01	 1.496597931850662e+00	 2.574281535682932e+00
 3.017154954439191e-01	 1.499355902217940e+00	 2.568577575681199e+00
 2.883318638021947e-01	 1.501987026930858e+00	 2.558738264301164e+00
 2.749619366135821e-01	 1.504491994710871e+00	 2.544433674141240e+00
 2.616073327582157e-01	 1.506871519460547e+00	 2.525286379238576e+00
 2.465154572656048e-01	 1.419941550436234e+00	 2.406711909918513e+00
 2.339450772057051e-01	 1.422066643280715e+00	 2.345269827758895e+00
 2.213921349108230e-01	 1.424074903295569e+00	 2.284108038040070e+00
 2.088580971103485e-01	 1.425967070022836e+00	 2.225294004471747e+00
 1.963444088697830e-01	 1.427743904280846e+00	 2.170849978145857e+00
 1.838524932871508e-01	 1.429406187533840e+00	 2.122752093592551e+00
 1.713837512086717e-01	 1.430954721259390e+00	 2.082929903053795e+00
 1.589395609635559e-01	 1.432390326314207e+00	 2.053266293682254e+00
 1.465212781177617e-01	 1.433713842298944e+00	 2.035597733462151e+00
 1.341302352465411e-01	 1.434926126922566e+00	 2.031714793034561e+00
 1.217677417255753e-01	 1.436028055366862e+00	 2.043362892267053e+00
 2.480246448137129e-01	 1.428634547339286e+00	 2.418745112091595e+00
 2.353773078715000e-01	 1.430772650174154e+00	 2.332965426542414e+00
 2.227475154497405e-01	 1.432793204919373e+00	 2.249099286196651e+00
 2.101367432572491e-01	 1.434696955644506e+00	 2.169789654164485e+00
 1.975464452063245e-01	 1.436484667825658e+00	 2.097606211010520e+00
 1.849780531073011e-01	 1.438157127711246e+00	 2.035044626825095e+00
 1.724329763824818e-01	 1.439715141685539e+00	 1.984526316649321e+00
 1.599126017993094e-01	 1.441159535630586e+00	 1.948398620506336e+00
 1.474182932226162e-01	 1.442491154287129e+00	 1.928935350419707e+00
 1.349513913857771e-01	 1.443710860615085e+00	 1.928337648239050e+00
 1.225132136805673e-01	 1.444819535154164e+00	 1.948735099816945e+00
 2.495338323622575e-01	 1.437327544241933e+00	 2.427620343901245e+00
 2.368095385377553e-01	 1.439478657067154e+00	 2.325271223005472e+00
 2.241028959891169e-01	 1.441511506542723e+00	 2.225698703672157e+00
 2.114153894045854e-01	 1.443426841265723e+00	 2.131997468930708e+00
 1.987484815432586e-01	 1.445225431370035e+00	 2.047166892304725e+00
 1.861036129277844e-01	 1.446908067888245e+00	 1.974110512064573e+00
 1.734822015565518e-01	 1.448475562111318e+00	 1.915636026372802e+00
 1.608856426352384e-01	 1.449928744946638e+00	 1.874455747217674e+00
 1.483153083275534e-01	 1.451268466275035e+00	 1.853187452208713e+00
 1.357725475249974e-01	 1.452495594307371e+00	 1.854355574811586e+00
 1.232586856354421e-01	 1.453611014941279e+00	 1.880392675400402e+00
 2.510430199111707e-01	 1.446020541144276e+00	 2.434482085263226e+00
 2.382417692043942e-01	 1.448184663959809e+00	 2.322708216839950e+00
 2.254582765288696e-01	 1.450229808165704e+00	 2.213897137969287e+00
 2.126940355522703e-01	 1.452156726886562e+00	 2.111473159221470e+00
 1.999505178804973e-01	 1.453966194914036e+00	 2.018749216997056e+00
 1.872291727485147e-01	 1.455659008064883e+00	 1.938926576773039e+00
 1.745314267308005e-01	 1.457235982536756e+00	 1.875095087257572e+00
 1.618586834712703e-01	 1.458697954262377e+00	 1.830233920084624e+00
 1.492123234325130e-01	 1.460045778262658e+00	 1.807212730920381e+00
 1.365937036641581e-01	 1.461280327999410e+00	 1.808793179431153e+00
 1.240041575901763e-01	 1.462402494728179e+00	 1.837630747450613e+00
 2.525522074603853e-01	 1.454713538046414e+00	 2.440445566293087e+00
 2.396739998713409e-01	 1.456890670852216e+00	 2.325782777934670e+00
 2.268136570689155e-01	 1.458948109788406e+00	 2.213683273406768e+00
 2.139726817002172e-01	 1.460886612507100e+00	 2.107780540039404e+00
 2.011525542179526e-01	 1.462706958457724e+00	 2.011586509639549e+00
 1.883547325694058e-01	 1.464409948241202e+00	 1.928491518199513e+00
 1.755806519051467e-01	 1.465996402961881e+00	 1.861764839077822e+00
 1.628317243073325e-01	 1.467467163577811e+00	 1.814555721109673e+00
 1.501093385374348e-01	 1.468823090249994e+00	 1.789894864416777e+00
 1.374148598032152e-01	 1.470065061691183e+00	 1.790696268350269e+00
 1.247496295447467e-01	 1.471193974514840e+00	 1.819759387985763e+00
 2.540613950098334e-01	 1.463406534948448e+00	 2.446597710449385e+00
 2.411062305385188e-01	 1.465596677744473e+00	 2.334987137904062e+00
 2.281690376091720e-01	 1.467666411410917e+00	 2.225043737097172e+00
 2.152513278483389e-01	 1.469616498127414e+00	 2.120491318683206e+00
 2.023545905555364e-01	 1.471447722001160e+00	 2.024927762395754e+00
 1.894802923903711e-01	 1.473160888417249e+00	 1.941825261353222e+00
 1.766298770795092e-01	 1.474756823386719e+00	 1.874531155019320e+00
 1.638047651433523e-01	 1.476236372892955e+00	 1.826269279186316e+00
 1.510063536422585e-01	 1.477600402237040e+00	 1.800141762745284e+00
 1.382360159421248e-01	 1.478849795382675e+00	 1.799131202767752e+00
 1.254951014991298e-01	 1.479985454301237e+00	 1.826103151516849e+00
 2.555705825594477e-01	 1.472099531850478e+00	 2.453998046554992e+00
 2.425384612058516e-01	 1.474302684636676e+00	 2.350799866210843e+00
 2.295244181495562e-01	 1.476384713033325e+00	 2.247963202917571e+00
 2.165299739965491e-01	 1.478346383747577e+00	 2.149184891521449e+00
 2.035566268931606e-01	 1.480188485544405e+00	 2.058037190728831e+00
 1.906058522113247e-01	 1.481911828593068e+00	 1.977969648823348e+00
 1.776791022538068e-01	 1.483517243811300e+00	 1.912329343391251e+00
 1.647778059792572e-01	 1.485005582207817e+00	 1.864312529816551e+00
 1.519033687469240e-01	 1.486377714223790e+00	 1.836989378852822e+00
 1.390571720808430e-01	 1.487634529073867e+00	 1.833319956251810e+00
 1.262405734533023e-01	 1.488776934087341e+00	 1.856156234173479e+00
 2.570797701091607e-01	 1.480792528752603e+00	 2.463679590975128e+00
 2.439706918732630e-01	 1.483008691528920e+00	 2.373713987043004e+00
 2.308797986899852e-01	 1.485103014655718e+00	 2.282565929078809e+00
 2.178086201447604e-01	 1.487076269367669e+00	 2.193750606171750e+00
 2.047586632307373e-01	 1.488929249087520e+00	 2.110667749961690e+00
 1.917314120321801e-01	 1.490662768768704e+00	 2.036609462383757e+00
 1.787283274279582e-01	 1.492277664235650e+00	 1.974761855293441e+00
 1.657508468149745e-01	 1.493774791522410e+00	 1.928206783258010e+00
 1.528003838513708e-01	 1.495155026210242e+00	 1.899923659433844e+00
 1.398783282193259e-01	 1.496419262764743e+00	 1.892791344899010e+00
 1.269860454072408e-01	 1.497568413873128e+00	 1.909590102260581e+00
 2.585889576589047e-01	 1.489485525654923e+00	 2.477501410624095e+00
 2.454029225406767e-01	 1.491714698421302e+00	 2.405376095323493e+00
 2.322351792303761e-01	 1.493821316278184e+00	 2.330093081307256e+00
 2.190872662928865e-01	 1.495806154987764e+00	 2.254910349017017e+00
 2.059606995681781e-01	 1.497670012630567e+00	 2.182992131532952e+00
 1.928569718528511e-01	 1.499413708944202e+00	 2.117410463953174e+00
 1.797775526018825e-01	 1.501038084659796e+00	 2.061146816074833e+00
 1.667238876504317e-01	 1.502544000836743e+00	 2.017093798297045e+00
 1.536973989555389e-01	 1.503932338196390e+00	 1.988056931146453e+00
 1.406994843575295e-01	 1.505203996455287e+00	 1.976756469306972e+00
 1.277315173609220e-01	 1.506359893658572e+00	 1.985829271513987e+00
 2.600981452086121e-01	 1.498178522557537e+00	 2.497674826723679e+00
 2.468351532080165e-01	 1.500420705313920e+00	 2.446949272188344e+00
 2.335905597706462e-01	 1.502539617900812e+00	 2.390915585005915e+00
 2.203659124408400e-01	 1.504536040607938e+00	 2.332470428496915e+00
 2.071627359053952e-01	 1.506410776173607e+00	 2.274437830246425e+00
 1.939825316732516e-01	 1.508164649119607e+00	 2.219570754671758e+00
 1.808267777754982e-01	 1.509798505083768e+00	 2.170552731049406e+00
 1.676969284855562e-01	 1.511313210150828e+00	 2.129999527554083e+00
 1.545944140593678e-01	 1.512709650182231e+00	 2.100460862384893e+00
 1.415206404954100e-01	 1.513988730145483e+00	 2.084422143572835e+00
 1.284769893143224e-01	 1.515151373443647e+00	 2.084306229577589e+00
 2.616073327582157e-01	 1.506871519460547e+00	 2.525286379238575e+00
 2.482673838752059e-01	 1.509126712206869e+00	 2.498982105014311e+00
 2.349459403107126e-01	 1.511257919523690e+00	 2.465128469373620e+00
 2.216445585885345e-01	 1.513265926228268e+00	 2.426151929863310e+00
 2.083647722423004e-01	 1.515151539716700e+00	 2.384433050102656e+00
 1.951080914932949e-01	 1.516915589294963e+00	 2.342308105331498e+00
 1.818760029487244e-01	 1.518558925507594e+00	 2.302070708180673e+00
 1.686699693202753e-01	 1.520082419464677e+00	 2.265973446034201e+00
 1.554914291627973e-01	 1.521486962167761e+00	 2.236229521924083e+00
 1.423417966329233e-01	 1.522773463835312e+00	 2.215014391463668e+00
 1.292224612674189e-01	 1.523942853228325e+00	 2.204467388880643e+00
 1.217677417255753e-01	 1.436028055366862e+00	 2.043362892267053e+00
 1.094371724198060e-01	 1.437020360159012e+00	 2.064244391653914e+00
 9.713766133773548e-02	 1.437904145495773e+00	 2.087099869918700e+00
 8.487041851234521e-02	 1.438680334414162e+00	 2.112169816041605e+00
 7.263663090477897e-02	 1.439349864871708e+00	 2.139672000652622e+00
 6.043746228117610e-02	 1.439913689129008e+00	 2.169804259699056e+00
 4.827405310600610e-02	 1.440372773135193e+00	 2.202747177512943e+00
 3.614752045162955e-02	 1.440728095916790e+00	 2.238666634784227e+00
 2.405895792380075e-02	 1.440980648970397e+00	 2.277716189981435e+00
 1.200943560281591e-02	 1.441131435659619e+00	 2.320039265841316e+00
 0.000000000000000e+00	 1.441181470616666e+00	 2.365771115847479e+00
 1.225132136805673e-01	 1.444819535154164e+00	 1.948735099816945e+00
 1.101071556331183e-01	 1.445817914916131e+00	 1.983973089356343e+00
 9.773234595027336e-02	 1.446707110857748e+00	 2.025675357287845e+00
 8.539000207294824e-02	 1.447488051666967e+00	 2.072578691629918e+00
 7.308131822897321e-02	 1.448161681043600e+00	 2.123434744259199e+00
 6.080746530917232e-02	 1.448728957078083e+00	 2.177014037486453e+00
 4.856959076004481e-02	 1.449190851633198e+00	 2.232109786995625e+00
 3.636881849277245e-02	 1.449548349729178e+00	 2.287541505827458e+00
 2.420624880826609e-02	 1.449802448932670e+00	 2.342158357368423e+00
 1.208295833795353e-02	 1.449954158749978e+00	 2.394842228625127e+00
 0.000000000000000e+00	 1.450004500024999e+00	 2.444510498591784e+00
 1.232586856354421e-01	 1.453611014941279e+00	 1.880392675400402e+00
 1.107771388462124e-01	 1.454615469673103e+00	 1.925609747846553e+00
 9.832703056249870e-02	 1.455510076219609e+00	 1.981096333377991e+00
 8.590958563315816e-02	 1.456295768919688e+00	 2.044395338071794e+00
 7.352600555271452e-02	 1.456973497215430e+00	 2.113094469764845e+00
 6.117746833668336e-02	 1.457544225027118e+00	 2.184831306289517e+00
 4.886512841360040e-02	 1.458008930131178e+00	 2.257298110554459e+00
 3.659011653347526e-02	 1.458368603541552e+00	 2.328246356120928e+00
 2.435353969238192e-02	 1.458624248894937e+00	 2.395490930433239e+00
 1.215648107288622e-02	 1.458776881840336e+00	 2.456913986407238e+00
 0.000000000000000e+00	 1.458827529433332e+00	 2.510468416824260e+00
 1.240041575901763e-01	 1.462402494728179e+00	 1.837630747450613e+00
 1.114471220590894e-01	 1.463413024429894e+00	 1.888736756397666e+00
 9.892171517443898e-02	 1.464313041581324e+00	 1.953157058145246e+00
 8.642916919302808e-02	 1.465103486172293e+00	 2.027545100206794e+00
 7.397069287607830e-02	 1.465785313387171e+00	 2.108621532224852e+00
 6.154747136380100e-02	 1.466359492976088e+00	 2.193180176745277e+00
 4.916066606677269e-02	 1.466827008629116e+00	 2.278093690684222e+00
 3.681141457383508e-02	 1.467188857353902e+00	 2.360318879900902e+00
 2.450083057622936e-02	 1.467446048857193e+00	 2.436901633011845e+00
 1.223000380766352e-02	 1.467599604930691e+00	 2.504981444340252e+00
 0.000000000000000e+00	 1.467650558841666e+00	 2.561795499840940e+00
 1.247496295447467e-01	 1.471193974514840e+00	 1.819759387985763e+00
 1.121171052717505e-01	 1.472210579186476e+00	 1.872944815942951e+00
 9.951639978612176e-02	 1.473116006942859e+00	 1.941655291090479e+00
 8.694875275261116e-02	 1.473911203424750e+00	 2.021953952615900e+00
 7.441538019913987e-02	 1.474597129558798e+00	 2.109986108899463e+00
 6.191747439061700e-02	 1.475174760924974e+00	 2.201985953804670e+00
 4.945620371966154e-02	 1.475645087126997e+00	 2.294282930724773e+00
 3.703271261394902e-02	 1.476009111166218e+00	 2.383307705354549e+00
 2.464812145988957e-02	 1.476267848819432e+00	 2.465597712079953e+00
 1.230352654233498e-02	 1.476422328021041e+00	 2.537802242835613e+00
 0.000000000000000e+00	 1.476473588250000e+00	 2.596687051418190e+00
 1.254951014991298e-01	 1.479985454301237e+00	 1.826103151516849e+00
 1.127870884841970e-01	 1.481008133942816e+00	 1.877832673783415e+00
 1.001110843975746e-01	 1.481918972304183e+00	 1.946392534193198e+00
 8.746833631196044e-02	 1.482718920677030e+00	 2.027551153079098e+00
 7.486006752197466e-02	 1.483408945730283e+00	 2.117164724018755e+00
 6.228747741722318e-02	 1.483990028873754e+00	 2.211187397010346e+00
 4.975174137236683e-02	 1.484463165624805e+00	 2.305677967340679e+00
 3.725401065391418e-02	 1.484829364978490e+00	 2.396805708580214e+00
 2.479541234344365e-02	 1.485089648781651e+00	 2.480855878466655e+00
 1.237704927695015e-02	 1.485245051111386e+00	 2.554234896794494e+00
 0.000000000000000e+00	 1.485296617658333e+00	 2.613475195372659e+00
 1.262405734533023e-01	 1.488776934087341e+00	 1.856156234173479e+00
 1.134570716964298e-01	 1.489805688698884e+00	 1.903173018838773e+00
 1.007057690088250e-01	 1.490721937665264e+00	 1.967344837569760e+00
 8.798791987112910e-02	 1.491526637929102e+00	 2.044439012562979e+00
 7.530475484465803e-02	 1.492220761901599e+00	 2.130314321232282e+00
 6.265748044371126e-02	 1.492805296822406e+00	 2.220927591195233e+00
 5.004727902498833e-02	 1.493281244122523e+00	 2.312339968147503e+00
 3.747530869382763e-02	 1.493649618790708e+00	 2.400722854041277e+00
 2.494270322697275e-02	 1.493911448743844e+00	 2.482363513848041e+00
 1.245057201155858e-02	 1.494067774201724e+00	 2.553670350014963e+00
 0.000000000000000e+00	 1.494119647066666e+00	 2.611177844674074e+00
 1.269860454072408e-01	 1.497568413873128e+00	 1.909590102260581e+00
 1.141270549084503e-01	 1.498603243454648e+00	 1.948811178183887e+00
 1.013004536199004e-01	 1.499524903026068e+00	 2.004483775259402e+00
 8.850750343017022e-02	 1.500334355180935e+00	 2.072665935585615e+00
 7.574944216726533e-02	 1.501032578072720e+00	 2.149499439145677e+00
 6.302748347017310e-02	 1.501620564770908e+00	 2.231216343172028e+00
 5.034281667762593e-02	 1.502099322620138e+00	 2.314145203536872e+00
 3.769660673378654e-02	 1.502469872602863e+00	 2.394716975408588e+00
 2.508999411055800e-02	 1.502733248706007e+00	 2.469470591273695e+00
 1.252409474620982e-02	 1.502890497292054e+00	 2.535058215247931e+00
 0.000000000000000e+00	 1.502942676475000e+00	 2.588250173538585e+00
 1.277315173609220e-01	 1.506359893658572e+00	 1.985829271513987e+00
 1.147970381202595e-01	 1.507400798210079e+00	 2.014411791965673e+00
 1.018951382308284e-01	 1.508327868386564e+00	 2.057652602779652e+00
 8.902708698913693e-02	 1.509142072432499e+00	 2.112182850661078e+00
 7.619412948987196e-02	 1.509844394243618e+00	 2.174702630780081e+00
 6.339748649670046e-02	 1.510435832719239e+00	 2.241987302583391e+00
 5.063835433037947e-02	 1.510917401117631e+00	 2.310893510032981e+00
 3.791790477388794e-02	 1.511290126414943e+00	 2.378364903196377e+00
 2.523728499428053e-02	 1.511555048668135e+00	 2.441437558949705e+00
 1.259761748095341e-02	 1.511713220382374e+00	 2.497245099355748e+00
 0.000000000000000e+00	 1.511765705883333e+00	 2.543023507190212e+00
 1.284769893143224e-01	 1.515151373443647e+00	 2.084306229577589e+00
 1.154670213318587e-01	 1.516198352965144e+00	 2.099647504457563e+00
 1.024898228416366e-01	 1.517130833746721e+00	 2.126698864080774e+00
 8.954667054808234e-02	 1.517949789683762e+00	 2.162942382314483e+00
 7.663881681255330e-02	 1.518656210414267e+00	 2.205907312666337e+00
 6.376748952338508e-02	 1.519251100667377e+00	 2.253176013983170e+00
 5.093389198334878e-02	 1.519735479614989e+00	 2.302389616121094e+00
 3.813920281422896e-02	 1.520110380226940e+00	 2.351253422058716e+00
 2.538457587822146e-02	 1.520376848630222e+00	 2.397542043719483e+00
 1.267114021583890e-02	 1.520535943472684e+00	 2.439104269530648e+00
 0.000000000000000e+00	 1.520588735291667e+00	 2.473867662612931e+00
 1.292224612674189e-01	 1.523942853228325e+00	 2.204467388880643e+00
 1.161370045432490e-01	 1.524995907719813e+00	 2.204199260355327e+00
 1.030845074523524e-01	 1.525933799106504e+00	 2.211474279665080e+00
 9.006625410705957e-02	 1.526757506934695e+00	 2.224898813484531e+00
 7.708350413538470e-02	 1.527468026584641e+00	 2.243097750472831e+00
 6.413749255031878e-02	 1.528066368615300e+00	 2.264719871638086e+00
 5.122942963663374e-02	 1.528553558112195e+00	 2.288443009243478e+00
 3.836050085490671e-02	 1.528930634038844e+00	 2.312978990137742e+00
 2.553186676246194e-02	 1.529198648592264e+00	 2.337078360126665e+00
 1.274466295091584e-02	 1.529358666562981e+00	 2.359534886706189e+00
 0.000000000000000e+00	 1.529411764700000e+00	 2.379189838284045e+00
 1.529411764700000e+00	 0.000000000000000e+00	 3.393697870834847e+00
 1.529358666562982e+00	 1.274466295091500e-02	 3.364168128308533e+00
 1.529198648592264e+00	 2.553186676246121e-02	 3.266202237712710e+00
 1.528930634038844e+00	 3.836050085490612e-02	 3.114908467199558e+00
 1.528553558112195e+00	 5.122942963663325e-02	 2.925534429287730e+00
 1.528066368615300e+00	 6.413749255031843e-02	 2.713431852616373e+00
 1.527468026584641e+00	 7.708350413538451e-02	 2.494020501884368e+00
 1.526757506934695e+00	 9.006625410705946e-02	 2.282751281607672e+00
 1.525933799106504e+00	 1.030845074523524e-01	 2.095068552913889e+00
 1.524995907719813e+00	 1.161370045432491e-01	 1.946371694567889e+00
 1.523942853228325e+00	 1.292224612674189e-01	 1.851975941504858e+00
 1.538234794108333e+00	 0.000000000000000e+00	 3.048403286523694e+00
 1.538181389653267e+00	 1.281818568621664e-02	 3.242822367208777e+00
 1.538020448554259e+00	 2.567915764705614e-02	 3.296145348879778e+00
 1.537750887850649e+00	 3.858179889598697e-02	 3.233429475944475e+00
 1.537371636609242e+00	 5.152496729030299e-02	 3.079675172258876e+00
 1.536881636562999e+00	 6.450749557756599e-02	 2.859773533746664e+00
 1.536279842754725e+00	 7.752819145842066e-02	 2.598452788815965e+00
 1.535565224185284e+00	 9.058583766610895e-02	 2.320223782160117e+00
 1.534736764465901e+00	 1.036791920629995e-01	 2.049324531920242e+00
 1.533793462474074e+00	 1.168069877544365e-01	 1.809663913050603e+00
 1.532734333012602e+00	 1.299679332201999e-01	 1.624764522689718e+00
 1.547057823516667e+00	 0.000000000000000e+00	 2.590855942197736e+00
 1.547004112743540e+00	 1.289170842171107e-02	 3.003452791513678e+00
 1.546842248516213e+00	 2.582644853195545e-02	 3.215989752733333e+00
 1.546571141662372e+00	 3.880309693741444e-02	 3.260110428700937e+00
 1.546189715106154e+00	 5.182050494430411e-02	 3.167282181347606e+00
 1.545696904510509e+00	 6.487749860508427e-02	 2.968732245529204e+00
 1.545091658924568e+00	 7.797287878163378e-02	 2.695382680936081e+00
 1.544372941435584e+00	 9.110542122522094e-02	 2.377784230200014e+00
 1.543539729824974e+00	 1.042738766735866e-01	 2.046049146214621e+00
 1.542591017227994e+00	 1.174769709654459e-01	 1.729783055128648e+00
 1.541525812796541e+00	 1.307134051727029e-01	 1.458015925013358e+00
 1.555880852925000e+00	 0.000000000000000e+00	 2.071874095804758e+00
 1.555826835833806e+00	 1.296523115735006e-02	 2.679287265832387e+00
 1.555664048478137e+00	 2.597373941708294e-02	 3.043853633884850e+00
 1.555391395474032e+00	 3.902439497910137e-02	 3.200503167671475e+00
 1.555007793602967e+00	 5.211604259855248e-02	 3.183946114422689e+00
 1.554512172457877e+00	 6.524750163280306e-02	 3.028603577817319e+00
 1.553903475094228e+00	 7.841756610497526e-02	 2.768536853379425e+00
 1.553180658685667e+00	 9.162500478437288e-02	 2.437375595653206e+00
 1.552342695183805e+00	 1.048685612841183e-01	 2.068244885548832e+00
 1.551388571981657e+00	 1.181469541763072e-01	 1.693691269972495e+00
 1.550317292580228e+00	 1.314588771249771e-01	 1.345607849677500e+00
 1.564703882333334e+00	 0.000000000000000e+00	 1.541112841707899e+00
 1.564649558924067e+00	 1.303875389308542e-02	 2.302789030025197e+00
 1.564485848440042e+00	 2.612103030236232e-02	 2.797433136590506e+00
 1.564211649285652e+00	 3.924569302096055e-02	 3.060022706561426e+00
 1.563825872099711e+00	 5.241158025296400e-02	 3.125347240309773e+00
 1.563327440405151e+00	 6.561750466065225e-02	 3.027939018168785e+00
 1.562715291263768e+00	 7.886225342839656e-02	 2.802002653643641e+00
 1.561988375935605e+00	 9.214458834354233e-02	 2.481343446277694e+00
 1.561145660542473e+00	 1.054632458945994e-01	 2.099294600342558e+00
 1.560186126735150e+00	 1.188169373870501e-01	 1.688643379216336e+00
 1.559108772363745e+00	 1.322043490770718e-01	 1.281556269120677e+00
 1.573526911741667e+00	 0.000000000000000e+00	 1.047096721141554e+00
 1.573472282014323e+00	 1.311227662886893e-02	 1.905678174926441e+00
 1.573307648401937e+00	 2.626832118771735e-02	 2.494014272134823e+00
 1.573031903097250e+00	 3.946699106290481e-02	 2.843951175645026e+00
 1.572643950596423e+00	 5.270711790745457e-02	 2.987253066684778e+00
 1.572142708352377e+00	 6.598750768856169e-02	 2.955538946290728e+00
 1.571527107433246e+00	 7.930694075184921e-02	 2.780218184306602e+00
 1.570796093185471e+00	 9.266417190270682e-02	 2.492424877752352e+00
 1.569948625901061e+00	 1.060579305050347e-01	 2.122951074964294e+00
 1.568983681488556e+00	 1.194869205977046e-01	 1.702178925276056e+00
 1.567900252147179e+00	 1.329498210290364e-01	 1.260011817509719e+00
 1.582349941150001e+00	 0.000000000000000e+00	 6.372512416627085e-01
 1.582295005104582e+00	 1.318579936465236e-02	 1.518952399557637e+00
 1.582129448363831e+00	 2.641561207307176e-02	 2.150484427753825e+00
 1.581852156908849e+00	 3.968828910484695e-02	 2.557441634649756e+00
 1.581462029093134e+00	 5.300265556194007e-02	 2.765516046982096e+00
 1.580957976299604e+00	 6.635751071646118e-02	 2.800445862320710e+00
 1.580338923602726e+00	 7.975162807528464e-02	 2.687962716754894e+00
 1.579603810435338e+00	 9.318375546184382e-02	 2.453737813054545e+00
 1.578751591259648e+00	 1.066526151154288e-01	 2.123326948450291e+00
 1.577781236241964e+00	 1.201569038083003e-01	 1.722114483921925e+00
 1.576691731930612e+00	 1.336952929809201e-01	 1.275256299787519e+00
 1.591172970558334e+00	 0.000000000000000e+00	 3.579333479448197e-01
 1.591117728194842e+00	 1.325932210038751e-02	 1.172907077720182e+00
 1.590951248325736e+00	 2.656290295834931e-02	 1.783343492565681e+00
 1.590672410720468e+00	 3.990958714669979e-02	 2.205521758589899e+00
 1.590280107589879e+00	 5.329819321633645e-02	 2.456071363249937e+00
 1.589773244246877e+00	 6.672751374428061e-02	 2.551937839867699e+00
 1.589150739772265e+00	 8.019631539865428e-02	 2.510347423076018e+00
 1.588411527685275e+00	 9.370333902093092e-02	 2.348770656792690e+00
 1.587554556618317e+00	 1.072472997257866e-01	 2.084884969176557e+00
 1.586578790995455e+00	 1.208268870188671e-01	 1.736536230848967e+00
 1.585483211714131e+00	 1.344407649327723e-01	 1.321699314675661e+00
 1.599995999966668e+00	 0.000000000000000e+00	 2.544608843927456e-01
 1.599940451285107e+00	 1.333284483602616e-02	 8.971546606239973e-01
 1.599773048287660e+00	 2.671019384347373e-02	 1.408714615290643e+00
 1.599492664532128e+00	 4.013088518837613e-02	 1.793097401453652e+00
 1.599098186086692e+00	 5.359373087055953e-02	 2.054934782021895e+00
 1.598588512194245e+00	 6.709751677194979e-02	 2.199522195137163e+00
 1.597962555941925e+00	 8.064100272190966e-02	 2.232806413832698e+00
 1.597219244935359e+00	 9.422292257994562e-02	 2.161372290791933e+00
 1.596357521977147e+00	 1.078419843361127e-01	 1.992428570592824e+00
 1.595376345749119e+00	 1.214968702294347e-01	 1.733792752441103e+00
 1.594274691497817e+00	 1.351862368846424e-01	 1.393874987233299e+00
 1.608819029375000e+00	 0.000000000000000e+00	 3.711410882825383e-01
 1.608763174375381e+00	 1.340636757152011e-02	 7.206434410445866e-01
 1.608594848249615e+00	 2.685748472836876e-02	 1.042354607897280e+00
 1.608312918343851e+00	 4.035218322978882e-02	 1.324956042432659e+00
 1.607916264583604e+00	 5.388926852452527e-02	 1.558200580401748e+00
 1.607403780141754e+00	 6.746751979939858e-02	 1.732929363845468e+00
 1.606774372111768e+00	 8.108569004500223e-02	 1.841088069976905e+00
 1.606026962185658e+00	 9.474250613886548e-02	 1.875742397833839e+00
 1.605160487336220e+00	 1.084366689464120e-01	 1.831092755693776e+00
 1.604173900503039e+00	 1.221668534400330e-01	 1.702488091354885e+00
 1.603066171281756e+00	 1.359317088365797e-01	 1.486438806766931e+00
 1.617642058783334e+00	 0.000000000000000e+00	 7.512981504391352e-01
 1.617585897465666e+00	 1.347989030682115e-02	 6.716757033812821e-01
 1.617416648211609e+00	 2.700477561295814e-02	 6.996640086925492e-01
 1.617133172155657e+00	 4.057348127085064e-02	 8.057701191788549e-01
 1.616734343080650e+00	 5.418480617814950e-02	 9.620395396805153e-01
 1.616219048089453e+00	 6.783752282655682e-02	 1.142106977990361e+00
 1.615586188281852e+00	 8.153037736788341e-02	 1.321246657674070e+00
 1.614834679436247e+00	 9.526208969766795e-02	 1.476422101020306e+00
 1.613963452695617e+00	 1.090313535566891e-01	 1.586335278440051e+00
 1.612971455257299e+00	 1.228368366506917e-01	 1.631475017957322e+00
 1.611857651066033e+00	 1.366771807886334e-01	 1.594164566069256e+00
 1.523942853228325e+00	 1.292224612674189e-01	 1.851975941504857e+00
 1.522773463835312e+00	 1.423417966329227e-01	 1.817075132166506e+00
 1.521486962167761e+00	 1.554914291627968e-01	 1.831670373421349e+00
 1.520082419464678e+00	 1.686699693202748e-01	 1.888395141417034e+00
 1.518558925507593e+00	 1.818760029487239e-01	 1.980186280595653e+00
 1.516915589294964e+00	 1.951080914932945e-01	 2.100286471442792e+00
 1.515151539716700e+00	 2.083647722423001e-01	 2.242246595583279e+00
 1.513265926228268e+00	 2.216445585885343e-01	 2.399927990882098e+00
 1.511257919523691e+00	 2.349459403107124e-01	 2.567504590026809e+00
 1.509126712206869e+00	 2.482673838752059e-01	 2.739464937079946e+00
 1.506871519460547e+00	 2.616073327582156e-01	 2.910614077694611e+00
 1.532734333012602e+00	 1.299679332201999e-01	 1.624764522689718e+00
 1.531558197524774e+00	 1.431629527700425e-01	 1.516777241404214e+00
 1.530264274152987e+00	 1.563884442657875e-01	 1.485400397690631e+00
 1.528851628778306e+00	 1.696430101545384e-01	 1.520455691186303e+00
 1.527319345931298e+00	 1.829252281215018e-01	 1.612278420749592e+00
 1.525666529470308e+00	 1.962336513129165e-01	 1.751728178512349e+00
 1.523892303259896e+00	 2.095668085788252e-01	 1.930199356391763e+00
 1.521995811848809e+00	 2.229232047359000e-01	 2.139631442246422e+00
 1.519976221146880e+00	 2.363013208505065e-01	 2.372519083452186e+00
 1.517832719100216e+00	 2.496996145421798e-01	 2.621921896492202e+00
 1.515564516364018e+00	 2.631165203076562e-01	 2.881474002203814e+00
 1.541525812796541e+00	 1.307134051727029e-01	 1.458015925013358e+00
 1.540342931213930e+00	 1.439841089068119e-01	 1.273238770391352e+00
 1.539041586137960e+00	 1.572854593683831e-01	 1.190587749158589e+00
 1.537620838091754e+00	 1.706160509883859e-01	 1.197948879363858e+00
 1.536079766354907e+00	 1.839744532938632e-01	 1.283867259556166e+00
 1.534417469645651e+00	 1.973592111321385e-01	 1.437563538476217e+00
 1.532633066803184e+00	 2.107688449149806e-01	 1.648950137972412e+00
 1.530725697469535e+00	 2.242018508829359e-01	 1.908647195116861e+00
 1.528694522770340e+00	 2.376567013900171e-01	 2.207998189932888e+00
 1.526538725993905e+00	 2.511318452089189e-01	 2.539085225836473e+00
 1.524257513267884e+00	 2.646257078569091e-01	 2.894743930846409e+00
 1.550317292580228e+00	 1.314588771249771e-01	 1.345607849677501e+00
 1.549127664902857e+00	 1.448052650432917e-01	 1.088036153809097e+00
 1.547818898122744e+00	 1.581824744706480e-01	 9.550665084874381e-01
 1.546390047405068e+00	 1.715890918218794e-01	 9.335076701616249e-01
 1.544840186778444e+00	 1.850236784658628e-01	 1.010908929051117e+00
 1.543168409820990e+00	 1.984847709510043e-01	 1.175579928938285e+00
 1.541373830346542e+00	 2.119708812507966e-01	 1.416610206402654e+00
 1.539455583090400e+00	 2.254804970296583e-01	 1.723888408488656e+00
 1.537412824394003e+00	 2.390120819292469e-01	 2.088121148153149e+00
 1.535244732887851e+00	 2.525640758754146e-01	 2.500851457467881e+00
 1.532950510172048e+00	 2.661348954059583e-01	 2.954476799464980e+00
 1.559108772363745e+00	 1.322043490770718e-01	 1.281556269120676e+00
 1.557912398591630e+00	 1.456264211795426e-01	 9.627119851706443e-01
 1.556596210107402e+00	 1.590794895726466e-01	 7.864972560611738e-01
 1.555159256718291e+00	 1.725621326550807e-01	 7.394847166874743e-01
 1.553600607201934e+00	 1.860729036375550e-01	 8.090056666433676e-01
 1.551919349996329e+00	 1.996103307695573e-01	 9.831708391556027e-01
 1.550114593889945e+00	 2.131729175863033e-01	 1.250890880930903e+00
 1.548185468711358e+00	 2.267591431760834e-01	 1.601896499114240e+00
 1.546131126017801e+00	 2.403674624681988e-01	 2.026758231900186e+00
 1.543950739781968e+00	 2.539963065416586e-01	 2.516905799971277e+00
 1.541643507076409e+00	 2.676440829547878e-01	 3.064646996869997e+00
 1.567900252147179e+00	 1.329498210290364e-01	 1.260011817509719e+00
 1.566697132280327e+00	 1.464475773156253e-01	 8.987762427334993e-01
 1.565373522091997e+00	 1.599765046744435e-01	 6.923722200848723e-01
 1.563928466031469e+00	 1.735351734880518e-01	 6.279605068566896e-01
 1.562361027625399e+00	 1.871221288089941e-01	 6.934160237793014e-01
 1.560670290171667e+00	 2.007358905878409e-01	 8.773471961825361e-01
 1.558855357433371e+00	 2.143749539215312e-01	 1.169115022602074e+00
 1.556915354332362e+00	 2.280377893222275e-01	 1.558851828388883e+00
 1.554849427641667e+00	 2.417228430068758e-01	 2.037479662283420e+00
 1.552656746676170e+00	 2.554285372076424e-01	 2.596728294617181e+00
 1.550336503980869e+00	 2.691532705033813e-01	 3.229152776812128e+00
 1.576691731930612e+00	 1.336952929809201e-01	 1.275256299787519e+00
 1.575481865969024e+00	 1.472687334516005e-01	 8.977074717184887e-01
 1.574150834076592e+00	 1.608735197761031e-01	 6.800202492438439e-01
 1.572697675344646e+00	 1.745082143208546e-01	 6.107512329919542e-01
 1.571121448048864e+00	 1.881713539802348e-01	 6.790647286560385e-01
 1.569421230347005e+00	 2.018614504058985e-01	 8.747483069982960e-01
 1.567596120976798e+00	 2.155769902565102e-01	 1.188228132699617e+00
 1.565645239953366e+00	 2.293164354681070e-01	 1.610584025092961e+00
 1.563567729265533e+00	 2.430782235452809e-01	 2.133564214349898e+00
 1.561362753570373e+00	 2.568607678733579e-01	 2.749599757524636e+00
 1.559029500885329e+00	 2.706624580517230e-01	 3.451818579999795e+00
 1.585483211714131e+00	 1.344407649327723e-01	 1.321699314675661e+00
 1.584266599657797e+00	 1.480898895875289e-01	 9.609539245315374e-01
 1.582928146061250e+00	 1.617705348776899e-01	 7.566116167331612e-01
 1.581466884657870e+00	 1.754812551535511e-01	 6.994163958374646e-01
 1.579881868472353e+00	 1.892205791513314e-01	 7.805522164126564e-01
 1.578172170522343e+00	 2.029870102237736e-01	 9.916524315239226e-01
 1.576336884520201e+00	 2.167790265912708e-01	 1.324809076149343e+00
 1.574375125574324e+00	 2.305950816137379e-01	 1.772581958125816e+00
 1.572286030889332e+00	 2.444336040834169e-01	 2.328007529957676e+00
 1.570068760464489e+00	 2.582929985387966e-01	 2.984607515849305e+00
 1.567722497789690e+00	 2.721716455997967e-01	 3.736397269654404e+00
 1.594274691497817e+00	 1.351862368846424e-01	 1.393874987233298e+00
 1.593051333346724e+00	 1.489110457234711e-01	 1.089934660610216e+00
 1.591705458046034e+00	 1.626675499792682e-01	 9.291626621667836e-01
 1.590236093971183e+00	 1.764542959862032e-01	 9.052661532389478e-01
 1.588642288895891e+00	 1.902698043223387e-01	 1.012163839634713e+00
 1.586923110697683e+00	 2.041125700415096e-01	 1.243987000777175e+00
 1.585077648063559e+00	 2.179810629258432e-01	 1.595080444362371e+00
 1.583105011195189e+00	 2.318737277591367e-01	 2.060003372742195e+00
 1.581004332512994e+00	 2.457889846212868e-01	 2.633530148246730e+00
 1.578774767358435e+00	 2.597252292039502e-01	 3.310650945947657e+00
 1.576415494693854e+00	 2.736808331475863e-01	 4.086572283940539e+00
 1.603066171281756e+00	 1.359317088365797e-01	 1.486438806766930e+00
 1.601836067035879e+00	 1.497322018594880e-01	 1.286040607445022e+00
 1.600482770031007e+00	 1.635645650809027e-01	 1.204540277590372e+00
 1.599005303284632e+00	 1.774273368188728e-01	 1.239368423292542e+00
 1.597402709319500e+00	 1.913190294933108e-01	 1.387878771445736e+00
 1.595674050873025e+00	 2.052381298591499e-01	 1.647338493788352e+00
 1.593818411606847e+00	 2.191830992602576e-01	 2.014918571359226e+00
 1.591834896815916e+00	 2.331523739043194e-01	 2.487684203209215e+00
 1.589722634136455e+00	 2.471443651588933e-01	 3.062585264548640e+00
 1.587480774252124e+00	 2.611574598688103e-01	 3.736446821120048e+00
 1.585108491597720e+00	 2.751900206950757e-01	 4.505959708463489e+00
 1.611857651066033e+00	 1.366771807886334e-01	 1.594164566069255e+00
 1.610620800725342e+00	 1.505533579956402e-01	 1.550635584257947e+00
 1.609260082016233e+00	 1.644615801826577e-01	 1.589466243550757e+00
 1.607774512598260e+00	 1.784003776516219e-01	 1.712555751336793e+00
 1.606163129743204e+00	 1.923682546643022e-01	 1.921378612922456e+00
 1.604424991048371e+00	 2.063636896767381e-01	 2.216961986306193e+00
 1.602559175150043e+00	 2.203851355945442e-01	 2.599863216413114e+00
 1.600564782436457e+00	 2.344310200493024e-01	 3.070147574239174e+00
 1.598440935759645e+00	 2.484997456962395e-01	 3.627366228103984e+00
 1.596186781145472e+00	 2.625896905333687e-01	 4.270534476202931e+00
 1.593801488501192e+00	 2.766992082422489e-01	 4.998110271885391e+00
 1.506871519460547e+00	 2.616073327582156e-01	 2.910614077694610e+00
 1.504491994710871e+00	 2.749619366135812e-01	 3.064799739828143e+00
 1.501987026930858e+00	 2.883318638021939e-01	 3.185912862995647e+00
 1.499355902217941e+00	 3.017154954439185e-01	 3.268536290732520e+00
 1.496597931850662e+00	 3.151111912495104e-01	 3.306655478509746e+00
 1.493712452934736e+00	 3.285172899454601e-01	 3.293644445579715e+00
 1.490698829042657e+00	 3.419321097195878e-01	 3.222252518808251e+00
 1.487556450846153e+00	 3.553539486873724e-01	 3.084591921571452e+00
 1.484284736740762e+00	 3.687810853789671e-01	 2.872126262811336e+00
 1.480883133461804e+00	 3.822117792468355e-01	 2.642127395391093e+00
 1.477351116691019e+00	 3.956442711939038e-01	 2.488989663692189e+00
 1.515564516364018e+00	 2.631165203076562e-01	 2.881474002203814e+00
 1.513171264365079e+00	 2.765481655884783e-01	 3.123735702101976e+00
 1.510651845667007e+00	 2.899952226012651e-01	 3.322032046588250e+00
 1.508005542248800e+00	 3.034560631267443e-01	 3.470854532041155e+00
 1.505231661415838e+00	 3.169290374130278e-01	 3.563890185753419e+00
 1.502329536449663e+00	 3.304124746029069e-01	 3.594003864259814e+00
 1.499298527251279e+00	 3.439046831820169e-01	 3.553221535922572e+00
 1.496138020977260e+00	 3.574039514478567e-01	 3.432714610623191e+00
 1.492847432667928e+00	 3.709085479996148e-01	 3.222908525519261e+00
 1.489426205866871e+00	 3.844167222487312e-01	 3.006658311859692e+00
 1.485873813231091e+00	 3.979267049501003e-01	 2.852992713827167e+00
 1.524257513267884e+00	 2.646257078569091e-01	 2.894743930846409e+00
 1.521850534019712e+00	 2.781343945632309e-01	 3.232734134964320e+00
 1.519316664403591e+00	 2.916585814002298e-01	 3.512169029984582e+00
 1.516655182280088e+00	 3.051966308094968e-01	 3.727598154791763e+00
 1.513865390981419e+00	 3.187468835765006e-01	 3.872615906121296e+00
 1.510946619964957e+00	 3.323076592603330e-01	 3.939840997523002e+00
 1.507898225460224e+00	 3.458772566444446e-01	 3.920897036170778e+00
 1.504719591108642e+00	 3.594539542083549e-01	 3.806394287579752e+00
 1.501410128595314e+00	 3.730360106202865e-01	 3.589237995651422e+00
 1.497969278272108e+00	 3.866216652506579e-01	 3.373875202731788e+00
 1.494396509771284e+00	 4.002091387063300e-01	 3.204871996147360e+00
 1.532950510172048e+00	 2.661348954059583e-01	 2.954476799464979e+00
 1.530529803674665e+00	 2.797206235378198e-01	 3.389720769127349e+00
 1.527981483140501e+00	 2.933219401990699e-01	 3.749120550944068e+00
 1.525304822311696e+00	 3.069371984921623e-01	 4.027431385186500e+00
 1.522499120547301e+00	 3.205647297399217e-01	 4.218358456590158e+00
 1.519563703480526e+00	 3.342028439177395e-01	 4.314534319473486e+00
 1.516497923669408e+00	 3.478498301068810e-01	 4.307497516059390e+00
 1.513301161240221e+00	 3.615039569688852e-01	 4.187672462735907e+00
 1.509972824522857e+00	 3.751634732410087e-01	 3.955232967740568e+00
 1.506512350677455e+00	 3.888266082526465e-01	 3.728394776122037e+00
 1.502919206311548e+00	 4.024915724626263e-01	 3.531738538814914e+00
 1.541643507076409e+00	 2.676440829547878e-01	 3.064646996869998e+00
 1.539209073329832e+00	 2.813068525122256e-01	 3.592681890438174e+00
 1.536646301877631e+00	 2.949852989977672e-01	 4.025860418132984e+00
 1.533954462343517e+00	 3.086777661747270e-01	 4.359289488835388e+00
 1.531132850113384e+00	 3.223825759032839e-01	 4.586986168959237e+00
 1.528180786996274e+00	 3.360980285751274e-01	 4.701853870810802e+00
 1.525097621878746e+00	 3.498224035693362e-01	 4.695659751715131e+00
 1.521882731371925e+00	 3.635539597294664e-01	 4.559013400801978e+00
 1.518535520450489e+00	 3.772909358618070e-01	 4.304159669374263e+00
 1.515055423082858e+00	 3.910315512547280e-01	 4.055197010927270e+00
 1.511441902851829e+00	 4.047740062190222e-01	 3.821229553925232e+00
 1.550336503980869e+00	 2.691532705033813e-01	 3.229152776812128e+00
 1.547888342985106e+00	 2.828930814864292e-01	 3.839662826377698e+00
 1.545311120614868e+00	 2.966486577963034e-01	 4.335534701743658e+00
 1.542604102375442e+00	 3.104183338571770e-01	 4.712371294022380e+00
 1.539766579679564e+00	 3.242004220665801e-01	 4.964700372811136e+00
 1.536797870512107e+00	 3.379932132324981e-01	 5.085950326638710e+00
 1.533697320088152e+00	 3.517949770318198e-01	 5.068427074377569e+00
 1.530464301503676e+00	 3.656039624901167e-01	 4.903292224171715e+00
 1.527098216378146e+00	 3.794183984827072e-01	 4.619672082336271e+00
 1.523598495488259e+00	 3.932364942569337e-01	 4.339611319927524e+00
 1.519964599392081e+00	 4.070564399755509e-01	 4.061272173011989e+00
 1.559029500885329e+00	 2.706624580517230e-01	 3.451818579999795e+00
 1.556567612640379e+00	 2.844793104604115e-01	 4.128766472948660e+00
 1.553975939352105e+00	 2.983120165946605e-01	 4.671457073733346e+00
 1.551253742407366e+00	 3.121589015394983e-01	 5.076131952744833e+00
 1.548400309245738e+00	 3.260182682298032e-01	 5.338026183373659e+00
 1.545414954027930e+00	 3.398883978898523e-01	 5.451344415339754e+00
 1.542297018297540e+00	 3.537675504943419e-01	 5.409238022238253e+00
 1.539045871635399e+00	 3.676539652508549e-01	 5.203783397026539e+00
 1.535660912305761e+00	 3.815458611037352e-01	 4.885801113047679e+00
 1.532141567893601e+00	 3.954414372592944e-01	 4.567306761932489e+00
 1.528487295932251e+00	 4.093388737322460e-01	 4.240075290517726e+00
 1.567722497789690e+00	 2.721716455997967e-01	 3.736397269654403e+00
 1.565246882295545e+00	 2.860655394341532e-01	 4.458151860385279e+00
 1.562640758089232e+00	 2.999753753928205e-01	 5.027104291875537e+00
 1.559903382439181e+00	 3.138994692216772e-01	 5.440275930297762e+00
 1.557034038811805e+00	 3.278361143929458e-01	 5.693803582447968e+00
 1.554032037543648e+00	 3.417835825471916e-01	 5.782916674889252e+00
 1.550896716506826e+00	 3.557401239569126e-01	 5.701915354018876e+00
 1.547627441767019e+00	 3.697039680116990e-01	 5.444149575494251e+00
 1.544223608233268e+00	 3.836733237249167e-01	 5.086944113486030e+00
 1.540684640298826e+00	 3.976463802618416e-01	 4.724282569077634e+00
 1.537009992472289e+00	 4.116213074891404e-01	 4.346121667453828e+00
 1.576415494693854e+00	 2.736808331475863e-01	 4.086572283940539e+00
 1.573926151950498e+00	 2.876517684076353e-01	 4.826032756186578e+00
 1.571305576826140e+00	 3.016387341907649e-01	 5.396111822073115e+00
 1.568553022470778e+00	 3.156400369036998e-01	 5.794750214581168e+00
 1.565667768377662e+00	 3.296539605560009e-01	 6.019178781090837e+00
 1.562649121059167e+00	 3.436787672045165e-01	 6.065897533583437e+00
 1.559496414715924e+00	 3.577126974195415e-01	 5.930655410325093e+00
 1.556209011898460e+00	 3.717539707726680e-01	 5.609315735168750e+00
 1.552786304160604e+00	 3.858007863462778e-01	 5.207854739054305e+00
 1.549227712703878e+00	 3.998513232646058e-01	 4.796858977105325e+00
 1.545532689012145e+00	 4.139037412462675e-01	 4.368160285206480e+00
 1.585108491597720e+00	 2.751900206950757e-01	 4.505959708463490e+00
 1.582605421605131e+00	 2.892379973808384e-01	 5.230676304040856e+00
 1.579970395562720e+00	 3.033020929884759e-01	 5.772269593625580e+00
 1.577202662502051e+00	 3.173806045855524e-01	 6.129737736695592e+00
 1.574301497943207e+00	 3.314718067189618e-01	 6.301595853235082e+00
 1.571266204574391e+00	 3.455739518618284e-01	 6.285857702727836e+00
 1.568096112924747e+00	 3.596852708822387e-01	 6.080017809425293e+00
 1.564790582029647e+00	 3.738039735337799e-01	 5.686635411009909e+00
 1.561349000087700e+00	 3.879282489678443e-01	 5.233633130464350e+00
 1.557770785108700e+00	 4.020562662676186e-01	 4.771668346999347e+00
 1.554055385551768e+00	 4.161861750036604e-01	 4.295198939885677e+00
 1.593801488501192e+00	 2.766992082422489e-01	 4.998110271885393e+00
 1.591284691259338e+00	 2.908242263537434e-01	 5.670401697271291e+00
 1.588635214298862e+00	 3.049654517859350e-01	 6.149517882374754e+00
 1.585852302532892e+00	 3.191211722672210e-01	 6.435650994759483e+00
 1.582935227508338e+00	 3.332896528818207e-01	 6.528788629903739e+00
 1.579883288089227e+00	 3.474691365191284e-01	 6.428698869375721e+00
 1.576695811133212e+00	 3.616578443450141e-01	 6.134915464686262e+00
 1.573372152160505e+00	 3.758539762950537e-01	 5.661111820501322e+00
 1.569911696014492e+00	 3.900557115896419e-01	 5.149716407264299e+00
 1.566313857513235e+00	 4.042612092709107e-01	 4.635646566849348e+00
 1.562578082091108e+00	 4.184686087613524e-01	 4.116497068033786e+00
 1.477351116691019e+00	 3.956442711939038e-01	 2.488989663692189e+00
 1.473688191974681e+00	 4.090767843096721e-01	 2.390917667432356e+00
 1.469893896276274e+00	 4.225075250188132e-01	 2.331248973716136e+00
 1.465967797589340e+00	 4.359346831373429e-01	 2.309241477621374e+00
 1.461909495176767e+00	 4.493564322980735e-01	 2.324071976849735e+00
 1.457718620117905e+00	 4.627709305788975e-01	 2.374835816859802e+00
 1.453394835841910e+00	 4.761763211503487e-01	 2.460546877769640e+00
 1.448937838646586e+00	 4.895707329421396e-01	 2.580137900196597e+00
 1.444347358201994e+00	 5.029522813283457e-01	 2.732461143706521e+00
 1.439623158038130e+00	 5.163190688308801e-01	 2.916289367969048e+00
 1.434765036015943e+00	 5.296691858408672e-01	 3.130317123086974e+00
 1.485873813231091e+00	 3.979267049501003e-01	 2.852992713827168e+00
 1.482189757454407e+00	 4.114367089424172e-01	 2.742341604121076e+00
 1.478373572829083e+00	 4.249449303033787e-01	 2.663257095886201e+00
 1.474424824856452e+00	 4.384495484062021e-01	 2.615709669272420e+00
 1.470343110487583e+00	 4.519487263475422e-01	 2.599434762501974e+00
 1.466128058673551e+00	 4.654406115793988e-01	 2.614140961319323e+00
 1.461779330901862e+00	 4.789233365604130e-01	 2.659517899339971e+00
 1.457296621718283e+00	 4.923950194262511e-01	 2.735236691054452e+00
 1.452679659233362e+00	 5.058537646787410e-01	 2.840950632877737e+00
 1.447928205612917e+00	 5.192976638934051e-01	 2.976296160380740e+00
 1.443042057551770e+00	 5.327247964449955e-01	 3.140894046172002e+00
 1.494396509771284e+00	 4.002091387063300e-01	 3.204871996147357e+00
 1.490691322934210e+00	 4.137966335751939e-01	 3.068881132078291e+00
 1.486853249381933e+00	 4.273823355879717e-01	 2.961412152183962e+00
 1.482881852123574e+00	 4.409644136750840e-01	 2.882097688786630e+00
 1.478776725798381e+00	 4.545410203970290e-01	 2.830759038540129e+00
 1.474537497229151e+00	 4.681102925799150e-01	 2.807764367336421e+00
 1.470163825961741e+00	 4.816703519704926e-01	 2.813151456810464e+00
 1.465655404789880e+00	 4.952193059103833e-01	 2.846942968328337e+00
 1.461011960264602e+00	 5.087552480291690e-01	 2.909186514794766e+00
 1.456233253187544e+00	 5.222762589559825e-01	 2.999955849191811e+00
 1.451319079087398e+00	 5.357804070492050e-01	 3.119352257085588e+00
 1.502919206311548e+00	 4.024915724626263e-01	 3.531738538814913e+00
 1.499192888414045e+00	 4.161565582080342e-01	 3.359932130844889e+00
 1.495332925934780e+00	 4.298197408726190e-01	 3.216824587798826e+00
 1.491338879390661e+00	 4.434792789440071e-01	 3.101913145258062e+00
 1.487210341109111e+00	 4.571333144465414e-01	 3.014739879378862e+00
 1.482946935784657e+00	 4.707799735804412e-01	 2.954895672979660e+00
 1.478548321021499e+00	 4.844173673805686e-01	 2.922243451146011e+00
 1.474014187861330e+00	 4.980435923945019e-01	 2.917333576156073e+00
 1.469344261295668e+00	 5.116567313795788e-01	 2.940258193122740e+00
 1.464538300761969e+00	 5.252548540185451e-01	 2.991108983590204e+00
 1.459596100622796e+00	 5.388360176534135e-01	 3.070029231723979e+00
 1.511441902851829e+00	 4.047740062190222e-01	 3.821229553925231e+00
 1.507694453893865e+00	 4.185164828409695e-01	 3.606106727375048e+00
 1.503812602487579e+00	 4.322571461573475e-01	 3.422603867734873e+00
 1.499795906657667e+00	 4.459941442129894e-01	 3.269788497298953e+00
 1.495643956419731e+00	 4.597256084960870e-01	 3.146772911825640e+00
 1.491356374340022e+00	 4.734496545809723e-01	 3.052718645737383e+00
 1.486932816081087e+00	 4.871643827906212e-01	 2.986841431477320e+00
 1.482372970932584e+00	 5.008678788785714e-01	 2.948416679741124e+00
 1.477676562326512e+00	 5.145582147299196e-01	 2.937185223409309e+00
 1.472843348336149e+00	 5.282334490810264e-01	 2.953510546171976e+00
 1.467873122157928e+00	 5.418916282575386e-01	 2.997166948073895e+00
 1.519964599392081e+00	 4.070564399755509e-01	 4.061272173011989e+00
 1.516196019373624e+00	 4.208764074740315e-01	 3.798240298295679e+00
 1.512292279040284e+00	 4.346945514421832e-01	 3.572200306952743e+00
 1.508252933924546e+00	 4.485090094820496e-01	 3.381501111188372e+00
 1.504077571730192e+00	 4.623179025456737e-01	 3.224516558649121e+00
 1.499765812895198e+00	 4.761193355815033e-01	 3.099650512889713e+00
 1.495317311140457e+00	 4.899113982006308e-01	 3.005342470561713e+00
 1.490731754003591e+00	 5.036921653625575e-01	 2.940073743040034e+00
 1.486008863357089e+00	 5.174596980801405e-01	 2.902374229867607e+00
 1.481148395910044e+00	 5.312120441433594e-01	 2.890833010901613e+00
 1.476150143692762e+00	 5.449472388614981e-01	 2.904915281758119e+00
 1.528487295932251e+00	 4.093388737322460e-01	 4.240075290517726e+00
 1.524697584853275e+00	 4.232363321072520e-01	 3.927385143014227e+00
 1.520771955592850e+00	 4.371319567271527e-01	 3.659222816884911e+00
 1.516709961191254e+00	 4.510238747512060e-01	 3.432935019616854e+00
 1.512511187040448e+00	 4.649101965953087e-01	 3.245854013239206e+00
 1.508175251450137e+00	 4.787890165820285e-01	 3.095303424922911e+00
 1.503701806199560e+00	 4.926584136105780e-01	 2.978604665340787e+00
 1.499090537074308e+00	 5.065164518464248e-01	 2.893083983880921e+00
 1.494341164387353e+00	 5.203611814301908e-01	 2.836080189407189e+00
 1.489453443483610e+00	 5.341906392054776e-01	 2.804953064614277e+00
 1.484427165227262e+00	 5.480028494652097e-01	 2.797092501112090e+00
 1.537009992472289e+00	 4.116213074891404e-01	 4.346121667453828e+00
 1.533199150332770e+00	 4.255962567406624e-01	 3.984804355443536e+00
 1.529251632145231e+00	 4.395693620122826e-01	 3.677434363543086e+00
 1.525166988457745e+00	 4.535387400204767e-01	 3.420077787851661e+00
 1.520944802350455e+00	 4.675024906450000e-01	 3.208727578342482e+00
 1.516584690004791e+00	 4.814586975825433e-01	 3.039310193188112e+00
 1.512086301258349e+00	 4.954054290204439e-01	 2.907692960104650e+00
 1.507449320144682e+00	 5.093407383301388e-01	 2.809692175560395e+00
 1.502673465417256e+00	 5.232626647800198e-01	 2.741081972190237e+00
 1.497758491056808e+00	 5.371692342673142e-01	 2.697603983992166e+00
 1.492704186761395e+00	 5.510584600685913e-01	 2.674977837839666e+00
 1.545532689012145e+00	 4.139037412462675e-01	 4.368160285206480e+00
 1.541700715812064e+00	 4.279561813742943e-01	 3.961965886676894e+00
 1.537731308697385e+00	 4.420067672975994e-01	 3.620747563378384e+00
 1.533624015723975e+00	 4.560536052898805e-01	 3.339017470345894e+00
 1.529378417660164e+00	 4.700947846947551e-01	 3.111136814370687e+00
 1.524994128559113e+00	 4.841283785830425e-01	 2.931323464386057e+00
 1.520470796316772e+00	 4.981524444302082e-01	 2.793660396099675e+00
 1.515808103214667e+00	 5.121650248136645e-01	 2.692105003847253e+00
 1.511005766446753e+00	 5.261641481295766e-01	 2.620499311987474e+00
 1.506063538629595e+00	 5.401478293288025e-01	 2.572581117229974e+00
 1.500981208295128e+00	 5.541140706715605e-01	 2.541996092067242e+00
 1.554055385551768e+00	 4.161861750036604e-01	 4.295198939885676e+00
 1.550202281291109e+00	 4.303161060081796e-01	 3.850536791283180e+00
 1.546210985249265e+00	 4.444441725831297e-01	 3.483220411606524e+00
 1.542081042989899e+00	 4.585684705594355e-01	 3.185939654319231e+00
 1.537812032969530e+00	 4.726870787445818e-01	 2.951136734740086e+00
 1.533403567113055e+00	 4.867980595835208e-01	 2.771014907578593e+00
 1.528855291374783e+00	 5.008994598398521e-01	 2.637548133670408e+00
 1.524166886284214e+00	 5.149893112969672e-01	 2.542491771389876e+00
 1.519338067475797e+00	 5.290656314788104e-01	 2.477394327369138e+00
 1.514368586201928e+00	 5.431264243898751e-01	 2.433610300016485e+00
 1.509258229828425e+00	 5.571696812740350e-01	 2.402314147880696e+00
 1.562578082091108e+00	 4.184686087613524e-01	 4.116497068033786e+00
 1.558703846769861e+00	 4.326760306423498e-01	 3.642377650211427e+00
 1.554690661800825e+00	 4.468815778688999e-01	 3.259052137940056e+00
 1.550538070255469e+00	 4.610833358291598e-01	 2.957124586990124e+00
 1.546245648278505e+00	 4.752793727944876e-01	 2.726836046445930e+00
 1.541813005666570e+00	 4.894677405839732e-01	 2.558074413248717e+00
 1.537239786432334e+00	 5.036464752493558e-01	 2.440385458378256e+00
 1.532525669353274e+00	 5.178135977800120e-01	 2.362985063024470e+00
 1.527670368504342e+00	 5.319671148276703e-01	 2.314772702018391e+00
 1.522673633773767e+00	 5.461050194504661e-01	 2.284346210400872e+00
 1.517535251361254e+00	 5.602252918759326e-01	 2.260017867290012e+00
 1.434765036015943e+00	 5.296691858408672e-01	 3.130317123086974e+00
 1.429771964484384e+00	 5.430029760583268e-01	 3.328742474530587e+00
 1.424644624976097e+00	 5.563162352014722e-01	 3.468263921742848e+00
 1.419382919985196e+00	 5.696070201181342e-01	 3.551669076057693e+00
 1.413986788066745e+00	 5.828733785497976e-01	 3.582128083388763e+00
 1.408456204215545e+00	 5.961133499364961e-01	 3.563198973330323e+00
 1.402791180224236e+00	 6.093249662367151e-01	 3.498832614069713e+00
 1.396991765020092e+00	 6.225062527617111e-01	 3.393377221628250e+00
 1.391058044979909e+00	 6.356552290236296e-01	 3.251582369748997e+00
 1.384990144222398e+00	 6.487699095967792e-01	 3.078602444816657e+00
 1.378788224877522e+00	 6.618483049913858e-01	 2.879999488555310e+00
 1.443042057551770e+00	 5.327247964449955e-01	 3.140894046172003e+00
 1.438020181470444e+00	 5.461355080162867e-01	 3.292978970584324e+00
 1.432863262833292e+00	 5.595255700713999e-01	 3.392637573868596e+00
 1.427571203571930e+00	 5.728930282483168e-01	 3.442671176941135e+00
 1.422143941886962e+00	 5.862359190261399e-01	 3.446315966089250e+00
 1.416581452628946e+00	 5.995522705346319e-01	 3.407249273990810e+00
 1.410883747658562e+00	 6.128401033788453e-01	 3.329595416717771e+00
 1.405050876185350e+00	 6.260974314782569e-01	 3.217931031342507e+00
 1.399082925084413e+00	 6.393222629197791e-01	 3.077289856500399e+00
 1.392980019190502e+00	 6.525126008239998e-01	 2.913166896275203e+00
 1.386742321568902e+00	 6.656664442239804e-01	 2.731521906097263e+00
 1.451319079087398e+00	 5.357804070492050e-01	 3.119352257085588e+00
 1.446268398456265e+00	 5.492680399743678e-01	 3.229274310794422e+00
 1.441081900690200e+00	 5.627349049414969e-01	 3.293188639039773e+00
 1.435759487158325e+00	 5.761790363787239e-01	 3.313992208782309e+00
 1.430301095706789e+00	 5.895984595027685e-01	 3.295059599291502e+00
 1.424706701041903e+00	 6.029911911331179e-01	 3.240249985600377e+00
 1.418976315092390e+00	 6.163552405213902e-01	 3.153913638523263e+00
 1.413109987350058e+00	 6.296886101952824e-01	 3.040897882431095e+00
 1.407107805188320e+00	 6.429892968164693e-01	 2.906552449629224e+00
 1.400969894157965e+00	 6.562552920518180e-01	 2.756734168125844e+00
 1.394696418259602e+00	 6.694845834572226e-01	 2.597810917847844e+00
 1.459596100622796e+00	 5.388360176534135e-01	 3.070029231723980e+00
 1.454516615441825e+00	 5.524005719324726e-01	 3.142255265915106e+00
 1.449300538546812e+00	 5.659442398116526e-01	 3.174665817698252e+00
 1.443947770744394e+00	 5.794650445092336e-01	 3.170333586113001e+00
 1.438458249526254e+00	 5.929609999795480e-01	 3.132842150840548e+00
 1.432831949454466e+00	 6.064301117318081e-01	 3.066293431566530e+00
 1.427068882525793e+00	 6.198703776641961e-01	 2.975314634837759e+00
 1.421169098514310e+00	 6.332797889126242e-01	 2.865064626649432e+00
 1.415132685291742e+00	 6.466563307135295e-01	 2.741239666550392e+00
 1.408959769124917e+00	 6.599979832800562e-01	 2.610078436910318e+00
 1.402650514949769e+00	 6.733027226909291e-01	 2.478366299187516e+00
 1.467873122157928e+00	 5.418916282575386e-01	 2.997166948073894e+00
 1.462764832427099e+00	 5.555331038905043e-01	 3.036447908673644e+00
 1.457519176403125e+00	 5.691535746817571e-01	 3.041715729238759e+00
 1.452136054330145e+00	 5.827510526397216e-01	 3.016297112322528e+00
 1.446615403345389e+00	 5.963235404563441e-01	 2.964053533501629e+00
 1.440957197866686e+00	 6.098690323305578e-01	 2.889388953030075e+00
 1.435161449958843e+00	 6.233855148071071e-01	 2.797256996216379e+00
 1.429228209678199e+00	 6.368709676301186e-01	 2.693167538263471e+00
 1.423157565394793e+00	 6.503233646107893e-01	 2.583192626746444e+00
 1.416949644091493e+00	 6.637406745085374e-01	 2.473971672655159e+00
 1.410604611639553e+00	 6.771208619249164e-01	 2.372715839031875e+00
 1.476150143692762e+00	 5.449472388614981e-01	 2.904915281758119e+00
 1.471013049412068e+00	 5.586656358483663e-01	 2.916281215414902e+00
 1.465737814259127e+00	 5.723629095516990e-01	 2.898886613747979e+00
 1.460324337915590e+00	 5.860370607700659e-01	 2.856388674342231e+00
 1.454772557164222e+00	 5.996860809330222e-01	 2.792993984364720e+00
 1.449082446278614e+00	 6.133079529292218e-01	 2.713466263757604e+00
 1.443254017391610e+00	 6.269006519499691e-01	 2.623133568631498e+00
 1.437287320841819e+00	 6.404621463476019e-01	 2.527894888556568e+00
 1.431182445497588e+00	 6.539903985080776e-01	 2.434226068752402e+00
 1.424939519057823e+00	 6.674833657370838e-01	 2.349184985808840e+00
 1.418558708329102e+00	 6.809390011590023e-01	 2.280415903562011e+00
 1.484427165227262e+00	 5.480028494652097e-01	 2.797092501112089e+00
 1.479261266396708e+00	 5.617981678059614e-01	 2.786090568637877e+00
 1.473956452114813e+00	 5.755722444213687e-01	 2.750631932248862e+00
 1.468512621500738e+00	 5.893230689001427e-01	 2.695021837040962e+00
 1.462929710982784e+00	 6.030486214094474e-01	 2.623877548792541e+00
 1.457207694690301e+00	 6.167468735276552e-01	 2.542378718069235e+00
 1.451346584824168e+00	 6.304157890926269e-01	 2.456274398902504e+00
 1.445346432005262e+00	 6.440533250649119e-01	 2.371889461448893e+00
 1.439207325600238e+00	 6.576574324052227e-01	 2.296130327890605e+00
 1.432929394024040e+00	 6.712260569655181e-01	 2.236489958329111e+00
 1.426512805018568e+00	 6.847571403930037e-01	 2.201052011287958e+00
 1.492704186761395e+00	 5.510584600685913e-01	 2.674977837839667e+00
 1.487509483380995e+00	 5.649306997631929e-01	 2.649101893545878e+00
 1.482175089970177e+00	 5.787815792906554e-01	 2.601300217973806e+00
 1.476700905085600e+00	 5.926090770298296e-01	 2.536521341222048e+00
 1.471086864801106e+00	 6.064111618854858e-01	 2.460835472615017e+00
 1.465332943101795e+00	 6.201857941257121e-01	 2.379906495174959e+00
 1.459439152256588e+00	 6.339309262349258e-01	 2.299949608241580e+00
 1.453405543168622e+00	 6.476445037818844e-01	 2.227751012512494e+00
 1.447232205702859e+00	 6.613244663020543e-01	 2.170673276276192e+00
 1.440919268990278e+00	 6.749687481936627e-01	 2.136659959532948e+00
 1.434466901708098e+00	 6.885752796267373e-01	 2.134239419002165e+00
 1.500981208295128e+00	 5.541140706715605e-01	 2.541996092067242e+00
 1.495757700364910e+00	 5.680632317199641e-01	 2.506985262476025e+00
 1.490393727825208e+00	 5.819909141594484e-01	 2.452987998507136e+00
 1.484889188670185e+00	 5.958950851590029e-01	 2.384795953301436e+00
 1.479244018619216e+00	 6.097737023610023e-01	 2.307919506109620e+00
 1.473458191513149e+00	 6.236247147232478e-01	 2.229759703143407e+00
 1.467531719688943e+00	 6.374460633767114e-01	 2.157372196687747e+00
 1.461464654331994e+00	 6.512356824983567e-01	 2.098038673564034e+00
 1.455257085805564e+00	 6.649915001984019e-01	 2.059602226546636e+00
 1.448909143956669e+00	 6.787114394213397e-01	 2.050471447294048e+00
 1.442420998397841e+00	 6.923934188600199e-01	 2.079623718199402e+00
 1.509258229828425e+00	 5.571696812740350e-01	 2.402314147880696e+00
 1.504005917348429e+00	 5.711957636761779e-01	 2.364023236315886e+00
 1.498612365679901e+00	 5.852002490276377e-01	 2.308549206942550e+00
 1.493077472254505e+00	 5.991810932875401e-01	 2.241271994432839e+00
 1.487401172437143e+00	 6.131362428358620e-01	 2.168119890615453e+00
 1.481583439924415e+00	 6.270636353201173e-01	 2.095581140872479e+00
 1.475624287121304e+00	 6.409612005178288e-01	 2.031700781079576e+00
 1.469523765495467e+00	 6.548268612141651e-01	 1.985273304921702e+00
 1.463281965908466e+00	 6.686585340940939e-01	 1.964645800704961e+00
 1.456899018923344e+00	 6.824541306483726e-01	 1.978705255147342e+00
 1.450375095087947e+00	 6.962115580926687e-01	 2.036881441558135e+00
 1.517535251361254e+00	 5.602252918759326e-01	 2.260017867290012e+00
 1.512254134331529e+00	 5.743282956317375e-01	 2.224555017759268e+00
 1.506831003534249e+00	 5.884095838951129e-01	 2.172433110501942e+00
 1.501265755838570e+00	 6.024671014153181e-01	 2.109690187078098e+00
 1.495558326254919e+00	 6.164987833099306e-01	 2.042879373057747e+00
 1.489708688335641e+00	 6.305025559161748e-01	 1.979079098947660e+00
 1.483716854553744e+00	 6.444763376581230e-01	 1.925903625730389e+00
 1.477582876659139e+00	 6.584180399291462e-01	 1.891939797321455e+00
 1.471306846011681e+00	 6.723255679889599e-01	 1.887515765405525e+00
 1.464888893890439e+00	 6.861968218745834e-01	 1.922147865835379e+00
 1.458329191778564e+00	 7.000296973245008e-01	 2.005720679095731e+00
 1.378788224877522e+00	 6.618483049913858e-01	 2.879999488555310e+00
 1.372453575486838e+00	 6.748862092136243e-01	 2.692594276914811e+00
 1.365985391161689e+00	 6.878838539695299e-01	 2.548022684270728e+00
 1.359383948333416e+00	 7.008392432308417e-01	 2.444507915454398e+00
 1.352649562260090e+00	 7.137503804864426e-01	 2.380310170295885e+00
 1.345782587173836e+00	 7.266152696671558e-01	 2.353731615344816e+00
 1.338783416402234e+00	 7.394319160785153e-01	 2.363120951894398e+00
 1.331652482463453e+00	 7.521983273406829e-01	 2.403086397958715e+00
 1.324390257134714e+00	 7.649125143346539e-01	 2.466364568904278e+00
 1.316997251493802e+00	 7.775724921538925e-01	 2.550984106007290e+00
 1.309474015933302e+00	 7.901762810605032e-01	 2.654927564051891e+00
 1.386742321568902e+00	 6.656664442239804e-01	 2.731521906097263e+00
 1.380371128194650e+00	 6.787795628619303e-01	 2.566390992174251e+00
 1.373865629535772e+00	 6.918521897805751e-01	 2.446091831746023e+00
 1.367226103618319e+00	 7.048823174367571e-01	 2.368412649034169e+00
 1.360452867519065e+00	 7.178679378016770e-01	 2.331092313570725e+00
 1.353546277513669e+00	 7.308070432910249e-01	 2.331825451032357e+00
 1.346506729198790e+00	 7.436976277031334e-01	 2.368021207554572e+00
 1.339334657587757e+00	 7.565376871643147e-01	 2.431060417163256e+00
 1.332030537179435e+00	 7.693252210805265e-01	 2.515588964076061e+00
 1.324594881999977e+00	 7.820582330944966e-01	 2.618742397154699e+00
 1.317028245617134e+00	 7.947347320474100e-01	 2.737471951452086e+00
 1.394696418259602e+00	 6.694845834572226e-01	 2.597810917847844e+00
 1.388288680901750e+00	 6.826729165109249e-01	 2.460034599843368e+00
 1.381745867909117e+00	 6.958205255923418e-01	 2.367425571639648e+00
 1.375068258902466e+00	 7.089253916434194e-01	 2.317379525203032e+00
 1.368256172777272e+00	 7.219854951176778e-01	 2.307173396186942e+00
 1.361309967852731e+00	 7.349988169156747e-01	 2.333970726566016e+00
 1.354230041994578e+00	 7.479633393285418e-01	 2.393418742830650e+00
 1.347016832711303e+00	 7.608770469887427e-01	 2.475703919684407e+00
 1.339670817223418e+00	 7.737379278271983e-01	 2.576564658025098e+00
 1.332192512505436e+00	 7.865439740359003e-01	 2.692345843146978e+00
 1.324582475300281e+00	 7.992931830351171e-01	 2.819132887909599e+00
 1.402650514949769e+00	 6.733027226909291e-01	 2.478366299187517e+00
 1.396206233608299e+00	 6.865662701604206e-01	 2.371794728261818e+00
 1.389626106281897e+00	 6.997888614046390e-01	 2.309330636756848e+00
 1.382910414186040e+00	 7.129684658506356e-01	 2.288018745691259e+00
 1.376059478034899e+00	 7.261030524342491e-01	 2.304732370461779e+00
 1.369073658191210e+00	 7.391905905409075e-01	 2.356179147612508e+00
 1.361953354789785e+00	 7.522290509545413e-01	 2.435452661057328e+00
 1.354699007834274e+00	 7.652164068137669e-01	 2.533552634313371e+00
 1.347311097266834e+00	 7.781506345744689e-01	 2.646437883312126e+00
 1.339790143010344e+00	 7.910297149779046e-01	 2.769809311458975e+00
 1.332136704982894e+00	 8.038516340234235e-01	 2.899049958819545e+00
 1.410604611639553e+00	 6.771208619249164e-01	 2.372715839031875e+00
 1.404123786314461e+00	 6.904596238102296e-01	 2.299998223799973e+00
 1.397506344654285e+00	 7.037571972172749e-01	 2.269194130306007e+00
 1.390752569469218e+00	 7.170115400582103e-01	 2.277037995800970e+00
 1.383862783292130e+00	 7.302206097511948e-01	 2.320056763605871e+00
 1.376837348529294e+00	 7.433823641665254e-01	 2.394395149881469e+00
 1.369676667584597e+00	 7.564947625809333e-01	 2.490409221857561e+00
 1.362381182956852e+00	 7.695557666391879e-01	 2.601234723563780e+00
 1.354951377309859e+00	 7.825633413221388e-01	 2.722432829209944e+00
 1.347387773514863e+00	 7.955154559203084e-01	 2.849205344284010e+00
 1.339690934665124e+00	 8.084100850121306e-01	 2.976394388467138e+00
 1.418558708329102e+00	 6.809390011590023e-01	 2.280415903562011e+00
 1.412041339020397e+00	 6.943529774601643e-01	 2.243028959466416e+00
 1.405386583026458e+00	 7.077255330300590e-01	 2.244482748517095e+00
 1.398594724752184e+00	 7.210546142659503e-01	 2.281241249640978e+00
 1.391666088549151e+00	 7.343381670683184e-01	 2.349541233527267e+00
 1.384601038867169e+00	 7.475741377923304e-01	 2.444232429575322e+00
 1.377399980379199e+00	 7.607604742075187e-01	 2.554672369045178e+00
 1.370063358079217e+00	 7.738951264648061e-01	 2.675467612822535e+00
 1.362591657352667e+00	 7.869760480700073e-01	 2.801848839992757e+00
 1.354985404019159e+00	 8.000011968629120e-01	 2.928661889934033e+00
 1.347245164347121e+00	 8.129685360010375e-01	 3.050367467186856e+00
 1.426512805018568e+00	 6.847571403930037e-01	 2.201052011287958e+00
 1.419958891726272e+00	 6.982463311100371e-01	 2.199327681086588e+00
 1.413266821398584e+00	 7.116938688427993e-01	 2.232742061404050e+00
 1.406436880035119e+00	 7.250976884736610e-01	 2.297527648429368e+00
 1.399469393806150e+00	 7.384557243854234e-01	 2.389686206997932e+00
 1.392364729205024e+00	 7.517659114181249e-01	 2.502028919907331e+00
 1.385123293173778e+00	 7.650261858340986e-01	 2.624720440000607e+00
 1.377745533201551e+00	 7.782344862904220e-01	 2.753054896266766e+00
 1.370231937395432e+00	 7.913887548178756e-01	 2.882057677057045e+00
 1.362583034523394e+00	 8.044869378055158e-01	 3.006360079671455e+00
 1.354799394029036e+00	 8.175269869899446e-01	 3.120199000133096e+00
 1.434466901708098e+00	 6.885752796267373e-01	 2.134239419002165e+00
 1.427876444432247e+00	 7.021396847596603e-01	 2.167391889590846e+00
 1.421147059770840e+00	 7.156622046553046e-01	 2.231595849410942e+00
 1.414279035318203e+00	 7.291407626811482e-01	 2.322890449024114e+00
 1.407272699063309e+00	 7.425732817023141e-01	 2.437012656899576e+00
 1.400128419543044e+00	 7.559576850437106e-01	 2.564275936798790e+00
 1.392846605968520e+00	 7.692918974604742e-01	 2.697122955973342e+00
 1.385427708324037e+00	 7.825738461158362e-01	 2.830883316567938e+00
 1.377872217438328e+00	 7.958014615655431e-01	 2.960500842397142e+00
 1.370180665027733e+00	 8.089726787479194e-01	 3.080532048209752e+00
 1.362353623711018e+00	 8.220854379786513e-01	 3.185145776824255e+00
 1.442420998397841e+00	 6.923934188600199e-01	 2.079623718199402e+00
 1.435793997138486e+00	 7.060330384088467e-01	 2.145775758014912e+00
 1.429027298143399e+00	 7.196305404673842e-01	 2.238745493781164e+00
 1.422121190601619e+00	 7.331838368882182e-01	 2.354416039967416e+00
 1.415076004320817e+00	 7.466908390187935e-01	 2.487626054894543e+00
 1.407892109881419e+00	 7.601494586688904e-01	 2.627555439482878e+00
 1.400569918763610e+00	 7.735576090864466e-01	 2.768537490188171e+00
 1.393109883446856e+00	 7.869132059408491e-01	 2.905919815535747e+00
 1.385512497481530e+00	 8.002141683128107e-01	 3.034686961067943e+00
 1.377778295532340e+00	 8.134584196899231e-01	 3.149458796198110e+00
 1.369907853393219e+00	 8.266438889669586e-01	 3.244490060659063e+00
 1.450375095087947e+00	 6.962115580926687e-01	 2.036881441558135e+00
 1.443711549845151e+00	 7.099263920574083e-01	 2.133090081876585e+00
 1.436907536516434e+00	 7.235988762788464e-01	 2.251969418583906e+00
 1.429963345885546e+00	 7.372269110946765e-01	 2.389283022448181e+00
 1.422879309578859e+00	 7.508083963346656e-01	 2.538228839895866e+00
 1.415655800220335e+00	 7.643412322934658e-01	 2.688536942809619e+00
 1.408293231559236e+00	 7.778233207118169e-01	 2.835706610769145e+00
 1.400792058570189e+00	 7.912525657652609e-01	 2.975208652979166e+00
 1.393152777525212e+00	 8.046268750594778e-01	 3.102189220371080e+00
 1.385375926037378e+00	 8.179441606313270e-01	 3.211468093079162e+00
 1.377462083075788e+00	 8.312023399546654e-01	 3.297538097639345e+00
 1.458329191778564e+00	 7.000296973245008e-01	 2.005720679095731e+00
 1.451629102552406e+00	 7.138197457051577e-01	 2.128002261651068e+00
 1.444787774890119e+00	 7.275672120895003e-01	 2.269122582421917e+00
 1.437805501170166e+00	 7.412699853003292e-01	 2.424753677076166e+00
 1.430682614837620e+00	 7.549259536497341e-01	 2.585729401540700e+00
 1.423419490559979e+00	 7.685330059172392e-01	 2.743974503123323e+00
 1.416016544355583e+00	 7.820890323363864e-01	 2.895454895625602e+00
 1.408474233694218e+00	 7.955919255888726e-01	 3.035868591181172e+00
 1.400793057569549e+00	 8.090395818053450e-01	 3.160642863599795e+00
 1.392973556543012e+00	 8.224299015719309e-01	 3.264932418779238e+00
 1.385016312758878e+00	 8.357607909415733e-01	 3.343618643566659e+00
 1.309474015933302e+00	 7.901762810605032e-01	 2.654927564051891e+00
 1.301821140463702e+00	 8.027219076951697e-01	 2.754751647200950e+00
 1.294039255616013e+00	 8.152074068055490e-01	 2.830142924169083e+00
 1.286129031413138e+00	 8.276308214869168e-01	 2.883606414920980e+00
 1.278091176953135e+00	 8.399902039001789e-01	 2.917506656598006e+00
 1.269926440281931e+00	 8.522836162359335e-01	 2.934064546569931e+00
 1.261635608237728e+00	 8.645091316774267e-01	 2.935355040616885e+00
 1.253219506267087e+00	 8.766648353614377e-01	 2.923305735938849e+00
 1.244678998212643e+00	 8.887488253361341e-01	 2.899696363656801e+00
 1.236014986072517e+00	 9.007592135149234e-01	 2.866159210152790e+00
 1.227228409731459e+00	 9.126941266253302e-01	 2.824180481026223e+00
 1.317028245617134e+00	 7.947347320474100e-01	 2.737471951452086e+00
 1.309331221445109e+00	 8.073527331958290e-01	 2.847302335844533e+00
 1.301504443652370e+00	 8.199102599500554e-01	 2.927750065906037e+00
 1.293548586127093e+00	 8.324053441161684e-01	 2.981536197915027e+00
 1.285464362058033e+00	 8.448360266181746e-01	 3.011272192717315e+00
 1.277252523806497e+00	 8.572003584676333e-01	 3.019456408916502e+00
 1.268913862749860e+00	 8.694964017321672e-01	 3.008471432550995e+00
 1.260449209096579e+00	 8.817222305018921e-01	 2.980582274504985e+00
 1.251859431672694e+00	 8.938759318527958e-01	 2.937935461786246e+00
 1.243145437679840e+00	 9.059556068060929e-01	 2.882559043393490e+00
 1.234308172424851e+00	 9.179593712825771e-01	 2.816363525822168e+00
 1.324582475300281e+00	 7.992931830351171e-01	 2.819132887909599e+00
 1.316841302425870e+00	 8.119835586972877e-01	 2.932382668000615e+00
 1.308969631688123e+00	 8.246131130953608e-01	 3.012286784099330e+00
 1.300968140840490e+00	 8.371798667462164e-01	 3.061776070119119e+00
 1.292837547162419e+00	 8.496818493369616e-01	 3.083694730753790e+00
 1.284578607330597e+00	 8.621171007001166e-01	 3.080796453463929e+00
 1.276192117261567e+00	 8.744836717876796e-01	 3.055741350036694e+00
 1.267678911925683e+00	 8.867796256431015e-01	 3.011093760687370e+00
 1.259039865132385e+00	 8.990030383701902e-01	 2.949320948448945e+00
 1.250275889286823e+00	 9.111520000979663e-01	 2.872792706066494e+00
 1.241387935117909e+00	 9.232246159404913e-01	 2.783781891807771e+00
 1.332136704982894e+00	 8.038516340234235e-01	 2.899049958819545e+00
 1.324351383406119e+00	 8.166143841993467e-01	 3.010323670041662e+00
 1.316434819723388e+00	 8.293159662412655e-01	 3.085154679848446e+00
 1.308387695553425e+00	 8.419543893768620e-01	 3.126677859095727e+00
 1.300210732266370e+00	 8.545276720563417e-01	 3.137956578442894e+00
 1.291904690854288e+00	 8.670338429331873e-01	 3.121978407570030e+00
 1.283470371772889e+00	 8.794709418437703e-01	 3.081651648719303e+00
 1.274908614754424e+00	 8.918370207848774e-01	 3.019802739420819e+00
 1.266220298591729e+00	 9.041301448881338e-01	 2.939174553909092e+00
 1.257406340893468e+00	 9.163483933903669e-01	 2.842425627059940e+00
 1.248467697810633e+00	 9.284898605989058e-01	 2.732130318714315e+00
 1.339690934665124e+00	 8.084100850121306e-01	 2.976394388467138e+00
 1.331861464385989e+00	 8.212452097018050e-01	 3.081460493354588e+00
 1.323900007758282e+00	 8.340188193875695e-01	 3.147734722970226e+00
 1.315807250265996e+00	 8.467289120079050e-01	 3.178550755003413e+00
 1.307583917369962e+00	 8.593734947761186e-01	 3.177178140614236e+00
 1.299230774377627e+00	 8.719505851666497e-01	 3.146817559083508e+00
 1.290748626283865e+00	 8.844582119002470e-01	 3.090596923136791e+00
 1.282138317582823e+00	 8.968944159270301e-01	 3.011568371867601e+00
 1.273400732050734e+00	 9.092572514064431e-01	 2.912706182672399e+00
 1.264536792499779e+00	 9.215447866831195e-01	 2.796905627761239e+00
 1.255547460503024e+00	 9.337551052576544e-01	 2.666982794658666e+00
 1.347245164347121e+00	 8.129685360010375e-01	 3.050367467186856e+00
 1.339371545365616e+00	 8.258760352044638e-01	 3.146131580137053e+00
 1.331365195792919e+00	 8.387216725340733e-01	 3.201387080662307e+00
 1.323226804978296e+00	 8.515034346391478e-01	 3.219661726660842e+00
 1.314957102473272e+00	 8.642193174960928e-01	 3.204418847548746e+00
 1.306556857900669e+00	 8.768673274003077e-01	 3.159052122300819e+00
 1.298026880794533e+00	 8.894454819569168e-01	 3.086881236052421e+00
 1.289368020410903e+00	 9.019518110693714e-01	 2.991148454426214e+00
 1.280581165509415e+00	 9.143843579249360e-01	 2.875016149050961e+00
 1.271667244105759e+00	 9.267411799760478e-01	 2.741565301692101e+00
 1.262627223195081e+00	 9.390203499165696e-01	 2.593795008051179e+00
 1.354799394029036e+00	 8.175269869899446e-01	 3.120199000133095e+00
 1.346881626345133e+00	 8.305068607071227e-01	 3.204677825573303e+00
 1.338830383827416e+00	 8.434245256805770e-01	 3.247450919872364e+00
 1.330646359690425e+00	 8.562779572703907e-01	 3.252235891192270e+00
 1.322330287576376e+00	 8.690651402160674e-01	 3.222678019330997e+00
 1.313882941423474e+00	 8.817840696339661e-01	 3.162344524857214e+00
 1.305305135304933e+00	 8.944327520135860e-01	 3.074719756170782e+00
 1.296597723238691e+00	 9.070092062117130e-01	 2.963201336066493e+00
 1.287761598967780e+00	 9.195114644434285e-01	 2.831097303472216e+00
 1.278797695711410e+00	 9.319375732689762e-01	 2.681624279759694e+00
 1.269706985886806e+00	 9.442855945754851e-01	 2.517906682423723e+00
 1.362353623711018e+00	 8.220854379786513e-01	 3.185145776824255e+00
 1.354391707324675e+00	 8.351376862095812e-01	 3.257441736530610e+00
 1.346295571861889e+00	 8.481273788268814e-01	 3.287244184394391e+00
 1.338065914402476e+00	 8.610524799014340e-01	 3.278456839056798e+00
 1.329703472679351e+00	 8.739109629358442e-01	 3.234895668681726e+00
 1.321209024946097e+00	 8.867008118674287e-01	 3.160282618621518e+00
 1.312583389815104e+00	 8.994200220700627e-01	 3.058240307794014e+00
 1.303827426066207e+00	 9.120666013538659e-01	 2.932287737938081e+00
 1.294942032425843e+00	 9.246385709617381e-01	 2.785837053773175e+00
 1.285928147316737e+00	 9.371339665617289e-01	 2.622191385564202e+00
 1.276786748578197e+00	 9.495508392342334e-01	 2.444543798722551e+00
 1.369907853393219e+00	 8.266438889669586e-01	 3.244490060659063e+00
 1.361901788304375e+00	 8.397685117116401e-01	 3.304766586911523e+00
 1.353760759896453e+00	 8.528302319727858e-01	 3.322063347668447e+00
 1.345485469114547e+00	 8.658270025320798e-01	 3.300466916184388e+00
 1.337076657782270e+00	 8.787567856552245e-01	 3.243953244645900e+00
 1.328535108468596e+00	 8.916175541004997e-01	 3.156380817528714e+00
 1.319861644325085e+00	 9.044072921261535e-01	 3.041484835817902e+00
 1.311057128893476e+00	 9.171239964956415e-01	 2.902872479024960e+00
 1.302122465883613e+00	 9.297656774796815e-01	 2.744019285534111e+00
 1.293058598921742e+00	 9.423303598541299e-01	 2.568266685006987e+00
 1.283866511269256e+00	 9.548160838926484e-01	 2.378820709410385e+00
 1.377462083075788e+00	 8.312023399546654e-01	 3.297538097639344e+00
 1.369411869284369e+00	 8.443993372130992e-01	 3.346995569790994e+00
 1.361225947931225e+00	 8.575330851180918e-01	 3.353183142217236e+00
 1.352905023826734e+00	 8.706015251621280e-01	 3.320367464865984e+00
 1.344449842885214e+00	 8.836026083740119e-01	 3.252674319407528e+00
 1.335861191991027e+00	 8.965342963329830e-01	 3.154081165155905e+00
 1.327139898834915e+00	 9.093945621816663e-01	 3.028410789318493e+00
 1.318286831720522e+00	 9.221813916368512e-01	 2.879326111453635e+00
 1.309302899341102e+00	 9.348927839970761e-01	 2.710326185327972e+00
 1.300189050526428e+00	 9.475267531460032e-01	 2.524743434257680e+00
 1.290946273959983e+00	 9.600813285505631e-01	 2.325742148531476e+00
 1.385016312758878e+00	 8.357607909415733e-01	 3.343618643566659e+00
 1.376921950264790e+00	 8.490301627137588e-01	 3.384470946462055e+00
 1.368691135966320e+00	 8.622359382625984e-01	 3.381856266612432e+00
 1.360324578539134e+00	 8.753760477913800e-01	 3.340219024973306e+00
 1.351823027988257e+00	 8.884484310920081e-01	 3.263825220403484e+00
 1.343187275513448e+00	 9.014510385646831e-01	 3.156754334724631e+00
 1.334418153344632e+00	 9.143818322364075e-01	 3.022892426838174e+00
 1.325516534547367e+00	 9.272387867773062e-01	 2.865926468904852e+00
 1.316483332798322e+00	 9.400198905137382e-01	 2.689339970592779e+00
 1.307319502130800e+00	 9.527231464371733e-01	 2.496409929961250e+00
 1.298026036650376e+00	 9.653465732078103e-01	 2.290205141712148e+00
 1.227228409731459e+00	 9.126941266253302e-01	 2.824180481026223e+00
 1.218318722741866e+00	 9.245537152568284e-01	 2.776291774903641e+00
 1.209288427971361e+00	 9.363340964839008e-01	 2.721972382799801e+00
 1.200138582671100e+00	 9.480334393840433e-01	 2.657841144583355e+00
 1.190870280673080e+00	 9.596499315567852e-01	 2.580315187677406e+00
 1.181484651980107e+00	 9.711817800374664e-01	 2.485620833391449e+00
 1.171982862328630e+00	 9.826272122003074e-01	 2.369805516568719e+00
 1.162366112724793e+00	 9.939844766498344e-01	 2.228750681931933e+00
 1.152635638954060e+00	 1.005251844099736e+00	 2.058185614019564e+00
 1.142792711064822e+00	 1.016427608238230e+00	 1.853702151242038e+00
 1.132838632826431e+00	 1.027510086579036e+00	 1.610770228397729e+00
 1.234308172424851e+00	 9.179593712825771e-01	 2.816363525822168e+00
 1.225347086307702e+00	 9.298873767404560e-01	 2.742358389837430e+00
 1.216264696634833e+00	 9.417357178539901e-01	 2.661146447136459e+00
 1.207062066756604e+00	 9.535025531382606e-01	 2.570845773724991e+00
 1.197740296815246e+00	 9.651860597372364e-01	 2.469502631535591e+00
 1.188300523332462e+00	 9.767844343428165e-01	 2.355100918216113e+00
 1.178743918769747e+00	 9.882958941031162e-01	 2.225572473218200e+00
 1.169071691061755e+00	 9.997186775190332e-01	 2.078808204972738e+00
 1.159285083123101e+00	 1.011051045328170e+00	 1.912669997591847e+00
 1.149385372328986e+00	 1.022291281375197e+00	 1.725003349316027e+00
 1.139373869970101e+00	 1.033437693467736e+00	 1.513650688875945e+00
 1.241387935117909e+00	 9.232246159404913e-01	 2.783781891807771e+00
 1.232375449873197e+00	 9.352210382247070e-01	 2.686412801644495e+00
 1.223240965297948e+00	 9.471373392246524e-01	 2.582926755501392e+00
 1.213985550841725e+00	 9.589716668929941e-01	 2.472675910112849e+00
 1.204610312956998e+00	 9.707221879181396e-01	 2.355050386201542e+00
 1.195116394684370e+00	 9.823870886485513e-01	 2.229486551719308e+00
 1.185504975210384e+00	 9.939645760062389e-01	 2.095476034402580e+00
 1.175777269398207e+00	 1.005452878388470e+00	 1.952575429454554e+00
 1.165934527291609e+00	 1.016850246556763e+00	 1.800416661897224e+00
 1.155978033592601e+00	 1.028154954512245e+00	 1.638717956992423e+00
 1.145909107113222e+00	 1.039365300356437e+00	 1.467295366158166e+00
 1.248467697810633e+00	 9.284898605989058e-01	 2.732130318714315e+00
 1.239403813438355e+00	 9.405546997094260e-01	 2.614069173845028e+00
 1.230217233960716e+00	 9.525389605957433e-01	 2.492543383217508e+00
 1.220909034926485e+00	 9.644407806481131e-01	 2.367878208983546e+00
 1.211480329098371e+00	 9.762583160993819e-01	 2.240526762089978e+00
 1.201932266035883e+00	 9.879897429545742e-01	 2.111077406291453e+00
 1.192266031650608e+00	 9.996332579095951e-01	 1.980261794304641e+00
 1.182482847734234e+00	 1.011187079258084e+00	 1.848963502565816e+00
 1.172583971459682e+00	 1.022649447785477e+00	 1.718227224798099e+00
 1.162570694855779e+00	 1.034018627649354e+00	 1.589268478462827e+00
 1.152444344255910e+00	 1.045292907245138e+00	 1.463483772209496e+00
 1.255547460503024e+00	 9.337551052576544e-01	 2.666982794658666e+00
 1.246432177003179e+00	 9.458883611944567e-01	 2.530822567661237e+00
 1.237193502623148e+00	 9.579405819671213e-01	 2.395115859296444e+00
 1.227832519010907e+00	 9.699098944034904e-01	 2.260904148750711e+00
 1.218350345239403e+00	 9.817944442808502e-01	 2.129426977129349e+00
 1.208748137387051e+00	 9.935923972607894e-01	 2.002128756942187e+00
 1.199027088090488e+00	 1.005301939813108e+00	 1.880666146158622e+00
 1.189188426069918e+00	 1.016921280127817e+00	 1.766915953571890e+00
 1.179233415627417e+00	 1.028448649014271e+00	 1.662983535904478e+00
 1.169163356118627e+00	 1.039882300786502e+00	 1.571211640903027e+00
 1.158979581398281e+00	 1.051220514133840e+00	 1.494189644660489e+00
 1.262627223195081e+00	 9.390203499165696e-01	 2.593795008051179e+00
 1.253460540567672e+00	 9.512220226796436e-01	 2.442051334006841e+00
 1.244169771285253e+00	 9.633422033386418e-01	 2.295655307115763e+00
 1.234756003095011e+00	 9.753790081589960e-01	 2.156111731621845e+00
 1.225220361380129e+00	 9.873305724624319e-01	 2.025174231362809e+00
 1.215564008737927e+00	 9.991950515671001e-01	 1.904851746867104e+00
 1.205788144530093e+00	 1.010970621716699e+00	 1.797415558844807e+00
 1.195894004405344e+00	 1.022655480997609e+00	 1.705406804720864e+00
 1.185882859794912e+00	 1.034247850243104e+00	 1.631644448434284e+00
 1.175756017381255e+00	 1.045745973923671e+00	 1.579233657427670e+00
 1.165514818540451e+00	 1.057148121022542e+00	 1.551574534626797e+00
 1.269706985886806e+00	 9.442855945754851e-01	 2.517906682423723e+00
 1.260488904131836e+00	 9.565556841648301e-01	 2.353019390153532e+00
 1.251146039947044e+00	 9.687438247101628e-01	 2.199066477963974e+00
 1.241679487178819e+00	 9.808481219145021e-01	 2.057767091619815e+00
 1.232090377520585e+00	 9.928667006440136e-01	 1.931120709743424e+00
 1.222379880088564e+00	 1.004797705873412e+00	 1.821413608153378e+00
 1.212549200969489e+00	 1.016639303620289e+00	 1.731225841619600e+00
 1.202599582740595e+00	 1.028389681867401e+00	 1.663438709225654e+00
 1.192532303962266e+00	 1.040047051471937e+00	 1.621242662922959e+00
 1.182348678643772e+00	 1.051609647060840e+00	 1.608145612382419e+00
 1.172050055682539e+00	 1.063075727911243e+00	 1.627981572947859e+00
 1.276786748578197e+00	 9.495508392342334e-01	 2.444543798722551e+00
 1.267517267695675e+00	 9.618893456498609e-01	 2.268878385550865e+00
 1.258122308608529e+00	 9.741454460815405e-01	 2.110149681611885e+00
 1.248602971262355e+00	 9.863172356698795e-01	 1.970046013603191e+00
 1.238960393660808e+00	 9.984028288254821e-01	 1.850548515910992e+00
 1.229195751439012e+00	 1.010400360179626e+00	 1.753937839365546e+00
 1.219310257408746e+00	 1.022307985523802e+00	 1.682801397441366e+00
 1.209305161075755e+00	 1.034123882737134e+00	 1.640041115271358e+00
 1.199181748129577e+00	 1.045846252700731e+00	 1.628881639993341e+00
 1.188941339906288e+00	 1.057473320197989e+00	 1.652878964224547e+00
 1.178585292824659e+00	 1.069003334799945e+00	 1.715929407918780e+00
 1.283866511269256e+00	 9.548160838926484e-01	 2.378820709410385e+00
 1.274545631259191e+00	 9.672230071345801e-01	 2.194669761078710e+00
 1.265098577269720e+00	 9.795470674526320e-01	 2.033602617885411e+00
 1.255526455345638e+00	 9.917863494249991e-01	 1.897035366721176e+00
 1.245830409800833e+00	 1.003938957006725e+00	 1.786670539614565e+00
 1.236011622789324e+00	 1.016003014485649e+00	 1.704504341675844e+00
 1.226071313847931e+00	 1.027976667427159e+00	 1.652834465332330e+00
 1.216010739410909e+00	 1.039858083606749e+00	 1.634268455043010e+00
 1.205831192296940e+00	 1.051645453929444e+00	 1.651732579519766e+00
 1.195534001168910e+00	 1.063336993335098e+00	 1.708481161452826e+00
 1.185120529966928e+00	 1.074930941688647e+00	 1.808106307895287e+00
 1.290946273959983e+00	 9.600813285505631e-01	 2.325742148531476e+00
 1.281573994822387e+00	 9.725566686188315e-01	 2.135326705823594e+00
 1.272074845930627e+00	 9.849486888232941e-01	 1.974022113040628e+00
 1.262449939428692e+00	 9.972554631797322e-01	 1.842734455587984e+00
 1.252700425940696e+00	 1.009475085187628e+00	 1.742631260328200e+00
 1.242827494139551e+00	 1.021605668791384e+00	 1.675149515130631e+00
 1.232832370287113e+00	 1.033645349330281e+00	 1.642004352197250e+00
 1.222716317746139e+00	 1.045592284476185e+00	 1.645198357813282e+00
 1.212480636464455e+00	 1.057444655158037e+00	 1.687031463637383e+00
 1.202126662431749e+00	 1.069200666472146e+00	 1.770111367246367e+00
 1.191655767109463e+00	 1.080858548577347e+00	 1.897364422442007e+00
 1.298026036650376e+00	 9.653465732078103e-01	 2.290205141712148e+00
 1.288602358385265e+00	 9.778903301024591e-01	 2.095676015291850e+00
 1.279051114591260e+00	 9.903503101933834e-01	 1.935905764575894e+00
 1.269373423511538e+00	 1.002724576933950e+00	 1.811056292318491e+00
 1.259570442080433e+00	 1.015011213368079e+00	 1.721507489496154e+00
 1.249643365489745e+00	 1.027208323096735e+00	 1.667866316575016e+00
 1.239593426726359e+00	 1.039314031233090e+00	 1.650976654501533e+00
 1.229421896081530e+00	 1.051326485345384e+00	 1.671929886171200e+00
 1.219130080632221e+00	 1.063243856386471e+00	 1.732076161158951e+00
 1.208719323694913e+00	 1.075064339609113e+00	 1.833036288661855e+00
 1.198191004252381e+00	 1.086786155466048e+00	 1.976714195970660e+00
 1.132838632826431e+00	 1.027510086579036e+00	 1.610770228397729e+00
 1.122776458105517e+00	 1.038495764766839e+00	 1.391129526336595e+00
 1.112605858161041e+00	 1.049384918001987e+00	 1.258981361099616e+00
 1.102328215784825e+00	 1.060175958953205e+00	 1.214208464238230e+00
 1.091944945054995e+00	 1.070867327338678e+00	 1.257404248771500e+00
 1.081457490683039e+00	 1.081457490683039e+00	 1.388641779248658e+00
 1.070867327338677e+00	 1.091944945054995e+00	 1.608251087236577e+00
 1.060175958953205e+00	 1.102328215784825e+00	 1.916841401700659e+00
 1.049384918001987e+00	 1.112605858161041e+00	 2.315394444157572e+00
 1.038495764766839e+00	 1.122776458105517e+00	 2.810310414244208e+00
 1.027510086579036e+00	 1.132838632826431e+00	 3.406712124058823e+00
 1.139373869970101e+00	 1.033437693467736e+00	 1.513650688875945e+00
 1.129253647530560e+00	 1.044486746976497e+00	 1.342159554541125e+00
 1.119024374372843e+00	 1.055438718689437e+00	 1.271492850031943e+00
 1.108687441265957e+00	 1.066292012118133e+00	 1.295648672121960e+00
 1.098244270445701e+00	 1.077045057979658e+00	 1.409438574734585e+00
 1.087696314957954e+00	 1.087696314957954e+00	 1.607179025615121e+00
 1.077045057979658e+00	 1.098244270445701e+00	 1.882725220010220e+00
 1.066292012118133e+00	 1.108687441265958e+00	 2.229875198433191e+00
 1.055438718689437e+00	 1.119024374372843e+00	 2.644750384888560e+00
 1.044486746976496e+00	 1.129253647530560e+00	 3.127020944778096e+00
 1.033437693467736e+00	 1.139373869970101e+00	 3.671469790008599e+00
 1.145909107113222e+00	 1.039365300356437e+00	 1.467295366158166e+00
 1.135730836955065e+00	 1.050477729186075e+00	 1.347928791903587e+00
 1.125442890584133e+00	 1.061492519376731e+00	 1.335646844171146e+00
 1.115046666746616e+00	 1.072408065282828e+00	 1.419954785072512e+00
 1.104543595835981e+00	 1.083222788620335e+00	 1.590189265015759e+00
 1.093935139232501e+00	 1.093935139232501e+00	 1.836169290781354e+00
 1.083222788620335e+00	 1.104543595835981e+00	 2.146522903174127e+00
 1.072408065282828e+00	 1.115046666746616e+00	 2.509993925043162e+00
 1.061492519376731e+00	 1.125442890584134e+00	 2.920445879047810e+00
 1.050477729186075e+00	 1.135730836955066e+00	 3.367911869662232e+00
 1.039365300356437e+00	 1.145909107113222e+00	 3.840623719425678e+00
 1.152444344255910e+00	 1.045292907245138e+00	 1.463483772209496e+00
 1.142208026379153e+00	 1.056468711395594e+00	 1.397965797983784e+00
 1.131861406795029e+00	 1.067546320063906e+00	 1.439753390899538e+00
 1.121405892226911e+00	 1.078524118447347e+00	 1.574834215464588e+00
 1.110842921225937e+00	 1.089400519260783e+00	 1.788510993047603e+00
 1.100173963506769e+00	 1.100173963506769e+00	 2.066241757859231e+00
 1.089400519260783e+00	 1.110842921225936e+00	 2.393008011796640e+00
 1.078524118447347e+00	 1.121405892226911e+00	 2.756230765865573e+00
 1.067546320063906e+00	 1.131861406795029e+00	 3.143918289716718e+00
 1.056468711395593e+00	 1.142208026379153e+00	 3.539911902026401e+00
 1.045292907245138e+00	 1.152444344255910e+00	 3.927472742431974e+00
 1.158979581398281e+00	 1.051220514133840e+00	 1.494189644660489e+00
 1.148685215802940e+00	 1.062459693605073e+00	 1.482044575946154e+00
 1.138279923005648e+00	 1.073600120751002e+00	 1.572395968028753e+00
 1.127765117706955e+00	 1.084640171611749e+00	 1.748635210236724e+00
 1.117142246615671e+00	 1.095578249901076e+00	 1.993299320478088e+00
 1.106412787780847e+00	 1.106412787780847e+00	 2.288255161141345e+00
 1.095578249901076e+00	 1.117142246615671e+00	 2.616847839040336e+00
 1.084640171611749e+00	 1.127765117706955e+00	 2.965706104278672e+00
 1.073600120751001e+00	 1.138279923005648e+00	 3.316565986720714e+00
 1.062459693605073e+00	 1.148685215802941e+00	 3.649786816282216e+00
 1.051220514133840e+00	 1.158979581398281e+00	 3.945008998390663e+00
 1.165514818540451e+00	 1.057148121022542e+00	 1.551574534626797e+00
 1.155162405226548e+00	 1.068450675814532e+00	 1.590176733811983e+00
 1.144698439216106e+00	 1.079653921438058e+00	 1.722422872037597e+00
 1.134124343186860e+00	 1.090756224776091e+00	 1.930013515528598e+00
 1.123441572005285e+00	 1.101755980541289e+00	 2.193690255141561e+00
 1.112651612054825e+00	 1.112651612054825e+00	 2.493343229235498e+00
 1.101755980541289e+00	 1.123441572005284e+00	 2.812923752680788e+00
 1.090756224776090e+00	 1.134124343186860e+00	 3.135393639743028e+00
 1.079653921438057e+00	 1.144698439216106e+00	 3.439749156664727e+00
 1.068450675814532e+00	 1.155162405226549e+00	 3.704143726367049e+00
 1.057148121022542e+00	 1.165514818540452e+00	 3.905926237991450e+00
 1.172050055682539e+00	 1.063075727911243e+00	 1.627981572947859e+00
 1.161639594650095e+00	 1.074441658023991e+00	 1.712603871928397e+00
 1.151116955426522e+00	 1.085707722125113e+00	 1.878938858491380e+00
 1.140483568666735e+00	 1.096872277940430e+00	 2.107886208960820e+00
 1.129740897394881e+00	 1.107933711181497e+00	 2.379345663822367e+00
 1.118890436328793e+00	 1.118890436328793e+00	 2.673886065546830e+00
 1.107933711181497e+00	 1.129740897394881e+00	 2.974844552880817e+00
 1.096872277940430e+00	 1.140483568666735e+00	 3.262327616388894e+00
 1.085707722125113e+00	 1.151116955426522e+00	 3.514790583230733e+00
 1.074441658023991e+00	 1.161639594650096e+00	 3.709435218092346e+00
 1.063075727911243e+00	 1.172050055682539e+00	 3.822627844696831e+00
 1.178585292824659e+00	 1.069003334799945e+00	 1.715929407918780e+00
 1.168116784073700e+00	 1.080432640233470e+00	 1.839790187872966e+00
 1.157535471637011e+00	 1.091761522812206e+00	 2.031297024853689e+00
 1.146842794146693e+00	 1.102988331104825e+00	 2.271423461304839e+00
 1.136040222784560e+00	 1.114111441821773e+00	 2.540375931271457e+00
 1.125129260602840e+00	 1.125129260602840e+00	 2.821636354999048e+00
 1.114111441821773e+00	 1.136040222784560e+00	 3.096288538165970e+00
 1.102988331104825e+00	 1.146842794146693e+00	 3.343600866336999e+00
 1.091761522812206e+00	 1.157535471637012e+00	 3.542976398891601e+00
 1.080432640233470e+00	 1.168116784073701e+00	 3.671963341259430e+00
 1.069003334799945e+00	 1.178585292824659e+00	 3.707234586442646e+00
 1.185120529966928e+00	 1.074930941688647e+00	 1.808106307895287e+00
 1.174593973497482e+00	 1.086423622442988e+00	 1.962415290400284e+00
 1.163953987847693e+00	 1.097815323499378e+00	 2.169090926333559e+00
 1.153202019626845e+00	 1.109104384269333e+00	 2.410040535329466e+00
 1.142339548174426e+00	 1.120289172462195e+00	 2.668141974673852e+00
 1.131368084877056e+00	 1.131368084877056e+00	 2.928030207676872e+00
 1.120289172462194e+00	 1.142339548174426e+00	 3.170727662088913e+00
 1.109104384269333e+00	 1.153202019626845e+00	 3.376362915279182e+00
 1.097815323499378e+00	 1.163953987847693e+00	 3.525556809144997e+00
 1.086423622442988e+00	 1.174593973497482e+00	 3.597883466955988e+00
 1.074930941688647e+00	 1.185120529966928e+00	 3.571592108005378e+00
 1.191655767109463e+00	 1.080858548577347e+00	 1.897364422442007e+00
 1.181071162921560e+00	 1.092414604652565e+00	 2.071367214405134e+00
 1.170372504058683e+00	 1.103869124186667e+00	 2.282146915821439e+00
 1.159561245107302e+00	 1.115220437434012e+00	 2.513701435986512e+00
 1.148638873564579e+00	 1.126466903102834e+00	 2.752951687281644e+00
 1.137606909151529e+00	 1.137606909151529e+00	 2.984674144150204e+00
 1.126466903102834e+00	 1.148638873564579e+00	 3.192083519546419e+00
 1.115220437434012e+00	 1.159561245107302e+00	 3.357689438501551e+00
 1.103869124186666e+00	 1.170372504058683e+00	 3.463746790322101e+00
 1.092414604652565e+00	 1.181071162921561e+00	 3.493208015209063e+00
 1.080858548577348e+00	 1.191655767109464e+00	 3.427278173992112e+00
 1.198191004252381e+00	 1.086786155466048e+00	 1.976714195970660e+00
 1.187548352346055e+00	 1.098405586862223e+00	 2.157735629227001e+00
 1.176791020270100e+00	 1.109922924874111e+00	 2.360516699357744e+00
 1.165920470588176e+00	 1.121336490598920e+00	 2.573138787729254e+00
 1.154938198955122e+00	 1.132644633743766e+00	 2.785065839874287e+00
 1.143845733426350e+00	 1.143845733426350e+00	 2.983340700056679e+00
 1.132644633743766e+00	 1.154938198955122e+00	 3.154462007963459e+00
 1.121336490598919e+00	 1.165920470588176e+00	 3.284420476481060e+00
 1.109922924874111e+00	 1.176791020270100e+00	 3.358726761980432e+00
 1.098405586862222e+00	 1.187548352346055e+00	 3.363810057944333e+00
 1.086786155466048e+00	 1.198191004252381e+00	 3.285609671974238e+00
 1.027510086579036e+00	 1.132838632826431e+00	 3.406712124058823e+00
 1.016427608238230e+00	 1.142792711064822e+00	 3.975396575933035e+00
 1.005251844099737e+00	 1.152635638954059e+00	 4.386282381415455e+00
 9.939844766498350e-01	 1.162366112724792e+00	 4.640867489957108e+00
 9.826272122003075e-01	 1.171982862328630e+00	 4.740706814429601e+00
 9.711817800374670e-01	 1.181484651980107e+00	 4.687408222244681e+00
 9.596499315567855e-01	 1.190870280673080e+00	 4.482628660995157e+00
 9.480334393840437e-01	 1.200138582671100e+00	 4.128070447562626e+00
 9.363340964839015e-01	 1.209288427971361e+00	 3.625477747904963e+00
 9.245537152568286e-01	 1.218318722741866e+00	 2.976633272838248e+00
 9.126941266253301e-01	 1.227228409731459e+00	 2.183355213079328e+00
 1.033437693467736e+00	 1.139373869970101e+00	 3.671469790008600e+00
 1.022291281375197e+00	 1.149385372328985e+00	 4.145673990021360e+00
 1.011051045328171e+00	 1.159285083123100e+00	 4.427767108146999e+00
 9.997186775190335e-01	 1.169071691061754e+00	 4.528827137397325e+00
 9.882958941031171e-01	 1.178743918769747e+00	 4.460546104423298e+00
 9.767844343428174e-01	 1.188300523332462e+00	 4.235209676550715e+00
 9.651860597372367e-01	 1.197740296815246e+00	 3.865676200564068e+00
 9.535025531382613e-01	 1.207062066756603e+00	 3.365355233678866e+00
 9.417357178539907e-01	 1.216264696634832e+00	 2.748185626555427e+00
 9.298873767404562e-01	 1.225347086307701e+00	 2.028613217369823e+00
 9.179593712825768e-01	 1.234308172424850e+00	 1.221568194880313e+00
 1.039365300356437e+00	 1.145909107113222e+00	 3.840623719425678e+00
 1.028154954512246e+00	 1.155978033592601e+00	 4.209949598446998e+00
 1.016850246556764e+00	 1.165934527291609e+00	 4.367139313926737e+00
 1.005452878388470e+00	 1.175777269398208e+00	 4.331026020474122e+00
 9.939645760062396e-01	 1.185504975210383e+00	 4.121501861544292e+00
 9.823870886485516e-01	 1.195116394684369e+00	 3.759484175121480e+00
 9.707221879181400e-01	 1.204610312956998e+00	 3.266880571140126e+00
 9.589716668929942e-01	 1.213985550841725e+00	 2.666552966994997e+00
 9.471373392246524e-01	 1.223240965297948e+00	 1.982280667803211e+00
 9.352210382247075e-01	 1.232375449873196e+00	 1.238722578070557e+00
 9.232246159404913e-01	 1.241387935117908e+00	 4.613786310911234e-01
 1.045292907245138e+00	 1.152444344255910e+00	 3.927472742431974e+00
 1.034018627649354e+00	 1.162570694855779e+00	 4.187423315605662e+00
 1.022649447785478e+00	 1.172583971459681e+00	 4.227717086692085e+00
 1.011187079258085e+00	 1.182482847734234e+00	 4.073150605398990e+00
 9.996332579095959e-01	 1.192266031650607e+00	 3.749913522379298e+00
 9.879897429545744e-01	 1.201932266035882e+00	 3.285544346467296e+00
 9.762583160993820e-01	 1.211480329098371e+00	 2.708884655176361e+00
 9.644407806481138e-01	 1.220909034926485e+00	 2.050031865184427e+00
 9.525389605957438e-01	 1.230217233960716e+00	 1.340290670498263e+00
 9.405546997094262e-01	 1.239403813438355e+00	 6.121232565725141e-01
 9.284898605989058e-01	 1.248467697810633e+00	-1.009016011254557e-01
 1.051220514133840e+00	 1.158979581398281e+00	 3.945008998390663e+00
 1.039882300786503e+00	 1.169163356118626e+00	 4.096855207561006e+00
 1.028448649014271e+00	 1.179233415627417e+00	 4.032285738842459e+00
 1.016921280127817e+00	 1.189188426069917e+00	 3.780301140196872e+00
 1.005301939813108e+00	 1.199027088090488e+00	 3.371519572663769e+00
 9.935923972607900e-01	 1.208748137387051e+00	 2.838125042895040e+00
 9.817944442808508e-01	 1.218350345239403e+00	 2.213813810807892e+00
 9.699098944034910e-01	 1.227832519010907e+00	 1.533739093968294e+00
 9.579405819671214e-01	 1.237193502623147e+00	 8.344541916905689e-01
 9.458883611944573e-01	 1.246432177003179e+00	 1.538541527895610e-01
 9.337551052576544e-01	 1.255547460503023e+00	-4.688838885392265e-01
 1.057148121022542e+00	 1.165514818540452e+00	 3.905926237991450e+00
 1.045745973923672e+00	 1.175756017381254e+00	 3.956577521313382e+00
 1.034247850243104e+00	 1.185882859794912e+00	 3.803112436195919e+00
 1.022655480997610e+00	 1.195894004405343e+00	 3.477007776791060e+00
 1.010970621716699e+00	 1.205788144530092e+00	 3.011474077676874e+00
 9.991950515671009e-01	 1.215564008737927e+00	 2.441399216922670e+00
 9.873305724624323e-01	 1.225220361380129e+00	 1.803290055289526e+00
 9.753790081589967e-01	 1.234756003095011e+00	 1.135212242620334e+00
 9.633422033386424e-01	 1.244169771285253e+00	 4.767283240127222e-01
 9.512220226796441e-01	 1.253460540567672e+00	-1.311657205421466e-01
 9.390203499165697e-01	 1.262627223195081e+00	-6.461053687227278e-01
 1.063075727911243e+00	 1.172050055682539e+00	 3.822627844696831e+00
 1.051609647060841e+00	 1.182348678643772e+00	 3.784506308614765e+00
 1.040047051471938e+00	 1.192532303962266e+00	 3.561960334401460e+00
 1.028389681867402e+00	 1.202599582740594e+00	 3.187246150478158e+00
 1.016639303620290e+00	 1.212549200969488e+00	 2.694362656258250e+00
 1.004797705873412e+00	 1.222379880088564e+00	 2.118993263090945e+00
 9.928667006440139e-01	 1.232090377520585e+00	 1.498445770371022e+00
 9.808481219145028e-01	 1.241679487178819e+00	 8.715904119107958e-01
 9.687438247101636e-01	 1.251146039947044e+00	 2.787962091353717e-01
 9.565556841648307e-01	 1.260488904131836e+00	-2.381342313363053e-01
 9.442855945754851e-01	 1.269706985886806e+00	-6.360313376135540e-01
 1.069003334799945e+00	 1.178585292824659e+00	 3.707234586442646e+00
 1.057473320197990e+00	 1.188941339906287e+00	 3.598152660067600e+00
 1.045846252700731e+00	 1.199181748129576e+00	 3.330102241925645e+00
 1.034123882737135e+00	 1.209305161075755e+00	 2.934452437854697e+00
 1.022307985523803e+00	 1.219310257408746e+00	 2.444217920042355e+00
 1.010400360179627e+00	 1.229195751439012e+00	 1.894001845923306e+00
 9.984028288254823e-01	 1.238960393660807e+00	 1.319936948166353e+00
 9.863172356698798e-01	 1.248602971262355e+00	 7.596249295329285e-01
 9.741454460815411e-01	 1.258122308608529e+00	 2.520742975403134e-01
 9.618893456498615e-01	 1.267517267695675e+00	-1.623632254482997e-01
 9.495508392342339e-01	 1.276786748578197e+00	-4.420575808468480e-01
 1.074930941688647e+00	 1.185120529966928e+00	 3.571592108005378e+00
 1.063336993335098e+00	 1.195534001168910e+00	 3.414633564551183e+00
 1.051645453929444e+00	 1.205831192296939e+00	 3.128333827888051e+00
 1.039858083606749e+00	 1.216010739410908e+00	 2.741537913327859e+00
 1.027976667427159e+00	 1.226071313847931e+00	 2.284534398553915e+00
 1.016003014485650e+00	 1.236011622789324e+00	 1.789002233869154e+00
 1.003938957006725e+00	 1.245830409800832e+00	 1.287955995254563e+00
 9.917863494249995e-01	 1.255526455345638e+00	 8.156897073917710e-01
 9.795470674526328e-01	 1.265098577269720e+00	 4.077193644037262e-01
 9.672230071345804e-01	 1.274545631259191e+00	 1.007242762210409e-01
 9.548160838926487e-01	 1.283866511269256e+00	-6.751263180003386e-02
 1.080858548577348e+00	 1.191655767109464e+00	 3.427278173992112e+00
 1.069200666472146e+00	 1.202126662431748e+00	 3.250682408359136e+00
 1.057444655158038e+00	 1.212480636464455e+00	 2.976986392218699e+00
 1.045592284476185e+00	 1.222716317746139e+00	 2.630903023459275e+00
 1.033645349330281e+00	 1.232832370287112e+00	 2.238282969901837e+00
 1.021605668791385e+00	 1.242827494139550e+00	 1.826068158195738e+00
 1.009475085187628e+00	 1.252700425940695e+00	 1.422244111971569e+00
 9.972554631797325e-01	 1.262449939428692e+00	 1.055791254504137e+00
 9.849486888232947e-01	 1.272074845930627e+00	 7.566352909527840e-01
 9.725566686188319e-01	 1.281573994822386e+00	 5.555967846418918e-01
 9.600813285505632e-01	 1.290946273959983e+00	 4.843400408369142e-01
 1.086786155466048e+00	 1.198191004252381e+00	 3.285609671974238e+00
 1.075064339609114e+00	 1.208719323694913e+00	 3.122659127803733e+00
 1.063243856386472e+00	 1.219130080632220e+00	 2.895939214848200e+00
 1.051326485345384e+00	 1.229421896081530e+00	 2.624450997551417e+00
 1.039314031233091e+00	 1.239593426726358e+00	 2.327924815948046e+00
 1.027208323096735e+00	 1.249643365489745e+00	 2.026783214966211e+00
 1.015011213368080e+00	 1.259570442080433e+00	 1.742103263112273e+00
 1.002724576933951e+00	 1.269373423511538e+00	 1.495578358658787e+00
 9.903503101933842e-01	 1.279051114591260e+00	 1.309479620249907e+00
 9.778903301024598e-01	 1.288602358385265e+00	 1.206616957256728e+00
 9.653465732078104e-01	 1.298026036650377e+00	 1.210299913275487e+00
 9.126941266253301e-01	 1.227228409731459e+00	 2.183355213079328e+00
 9.007592135149235e-01	 1.236014986072517e+00	 1.408839465012767e+00
 8.887488253361341e-01	 1.244678998212643e+00	 8.124831883112112e-01
 8.766648353614378e-01	 1.253219506267087e+00	 3.906950809887606e-01
 8.645091316774273e-01	 1.261635608237728e+00	 1.396471772727621e-01
 8.522836162359341e-01	 1.269926440281931e+00	 5.527508026747796e-02
 8.399902039001794e-01	 1.278091176953135e+00	 1.332788188080326e-01
 8.276308214869176e-01	 1.286129031413138e+00	 3.691243317335697e-01
 8.152074068055497e-01	 1.294039255616013e+00	 7.580455796590883e-01
 8.027219076951706e-01	 1.301821140463702e+00	 1.295047281194285e+00
 7.901762810605031e-01	 1.309474015933302e+00	 1.974908267465844e+00
 9.179593712825768e-01	 1.234308172424850e+00	 1.221568194880313e+00
 9.059556068060932e-01	 1.243145437679841e+00	 4.947248546475574e-01
 8.938759318527958e-01	 1.251859431672693e+00	-3.170848169198534e-03
 8.817222305018924e-01	 1.260449209096579e+00	-2.853779970100610e-01
 8.694964017321677e-01	 1.268913862749860e+00	-3.659119856183381e-01
 8.572003584676338e-01	 1.277252523806497e+00	-2.595262813848818e-01
 8.448360266181751e-01	 1.285464362058033e+00	 1.830702732037515e-02
 8.324053441161692e-01	 1.293548586127093e+00	 4.514178682302252e-01
 8.199102599500563e-01	 1.301504443652369e+00	 1.022959971060835e+00
 8.073527331958299e-01	 1.309331221445109e+00	 1.715433762672932e+00
 7.947347320474101e-01	 1.317028245617134e+00	 2.510710328224037e+00
 9.232246159404913e-01	 1.241387935117908e+00	 4.613786310911233e-01
 9.111520000979662e-01	 1.250275889286824e+00	-1.865021892235487e-01
 8.990030383701904e-01	 1.259039865132385e+00	-5.727395364800814e-01
 8.867796256431019e-01	 1.267678911925684e+00	-7.183223682310589e-01
 8.744836717876799e-01	 1.276192117261567e+00	-6.454063518895973e-01
 8.621171007001169e-01	 1.284578607330597e+00	-3.772811606679434e-01
 8.496818493369620e-01	 1.292837547162419e+00	 6.166391684689196e-02
 8.371798667462170e-01	 1.300968140840489e+00	 6.459759939504321e-01
 8.246131130953616e-01	 1.308969631688123e+00	 1.349176165664045e+00
 8.119835586972889e-01	 1.316841302425870e+00	 2.143798582385934e+00
 7.992931830351171e-01	 1.324582475300281e+00	 3.001430944247234e+00
 9.284898605989058e-01	 1.248467697810633e+00	-1.009016011254561e-01
 9.163483933903672e-01	 1.257406340893469e+00	-6.471867575342480e-01
 9.041301448881336e-01	 1.266220298591729e+00	-9.154098891299146e-01
 8.918370207848774e-01	 1.274908614754423e+00	-9.323886255903158e-01
 8.794709418437707e-01	 1.283470371772889e+00	-7.264096786027392e-01
 8.670338429331876e-01	 1.291904690854288e+00	-3.271851715151358e-01
 8.545276720563426e-01	 1.300210732266370e+00	 2.341930673091640e-01
 8.419543893768623e-01	 1.308387695553425e+00	 9.253011668134714e-01
 8.293159662412662e-01	 1.316434819723388e+00	 1.712432745369578e+00
 8.166143841993475e-01	 1.324351383406118e+00	 2.560650221807401e+00
 8.038516340234237e-01	 1.332136704982894e+00	 3.433837809709719e+00
 9.337551052576544e-01	 1.255547460503023e+00	-4.688838885392269e-01
 9.215447866831196e-01	 1.264536792499779e+00	-8.994017984611479e-01
 9.092572514064435e-01	 1.273400732050735e+00	-1.049942284250430e+00
 8.968944159270301e-01	 1.282138317582822e+00	-9.512863230798694e-01
 8.844582119002473e-01	 1.290748626283865e+00	-6.358795110391741e-01
 8.719505851666500e-01	 1.299230774377626e+00	-1.377808929518482e-01
 8.593734947761192e-01	 1.307583917369962e+00	 5.073904746544239e-01
 8.467289120079058e-01	 1.315807250265995e+00	 1.262511132498494e+00
 8.340188193875699e-01	 1.323900007758281e+00	 2.089010898855859e+00
 8.212452097018060e-01	 1.331861464385989e+00	 2.946932515310364e+00
 8.084100850121306e-01	 1.339690934665124e+00	 3.794993146977216e+00
 9.390203499165697e-01	 1.262627223195081e+00	-6.461053687227278e-01
 9.267411799760478e-01	 1.271667244105759e+00	-9.549560836972040e-01
 9.143843579249360e-01	 1.280581165509415e+00	-9.946827635923452e-01
 9.019518110693717e-01	 1.289368020410903e+00	-7.981994810088734e-01
 8.894454819569170e-01	 1.298026880794533e+00	-4.001747946839747e-01
 8.768673274003085e-01	 1.306556857900669e+00	 1.630234879589021e-01
 8.642193174960935e-01	 1.314957102473272e+00	 8.533859272833391e-01
 8.515034346391487e-01	 1.323226804978296e+00	 1.631321344434390e+00
 8.387216725340740e-01	 1.331365195792919e+00	 2.455718882496930e+00
 8.258760352044646e-01	 1.339371545365615e+00	 3.284012121904731e+00
 8.129685360010376e-01	 1.347245164347121e+00	 4.072245130956724e+00
 9.442855945754851e-01	 1.269706985886806e+00	-6.360313376135540e-01
 9.319375732689762e-01	 1.278797695711410e+00	-8.254019121728265e-01
 9.195114644434282e-01	 1.287761598967780e+00	-7.675749231143775e-01
 9.070092062117132e-01	 1.296597723238690e+00	-4.958015765973532e-01
 8.944327520135863e-01	 1.305305135304933e+00	-4.507290213323067e-02
 8.817840696339667e-01	 1.313882941423474e+00	 5.479361526922295e-01
 8.690651402160680e-01	 1.322330287576376e+00	 1.244925001311027e+00
 8.562779572703911e-01	 1.330646359690425e+00	 2.006027967676604e+00
 8.434245256805779e-01	 1.338830383827416e+00	 2.789876996860216e+00
 8.305068607071231e-01	 1.346881626345132e+00	 3.553666411806362e+00
 8.175269869899446e-01	 1.354799394029036e+00	 4.253219596027344e+00
 9.495508392342339e-01	 1.276786748578197e+00	-4.420575808468480e-01
 9.371339665617289e-01	 1.285928147316737e+00	-5.220425614152182e-01
 9.246385709617380e-01	 1.294942032425842e+00	-3.861714119784579e-01
 9.120666013538661e-01	 1.303827426066207e+00	-6.627003989810043e-02
 8.994200220700630e-01	 1.312583389815105e+00	 4.042139023658746e-01
 8.867008118674292e-01	 1.321209024946097e+00	 9.902642233122304e-01
 8.739109629358442e-01	 1.329703472679350e+00	 1.655351650641755e+00
 8.610524799014349e-01	 1.338065914402476e+00	 2.361491444007619e+00
 8.481273788268821e-01	 1.346295571861889e+00	 3.069303058772205e+00
 8.351376862095822e-01	 1.354391707324674e+00	 3.738071751736011e+00
 8.220854379786514e-01	 1.362353623711018e+00	 4.325812014584256e+00
 9.548160838926487e-01	 1.283866511269256e+00	-6.751263180003431e-02
 9.423303598541299e-01	 1.293058598921742e+00	-5.593949628686523e-02
 9.297656774796816e-01	 1.302122465883613e+00	 1.323549449330949e-01
 9.171239964956415e-01	 1.311057128893476e+00	 4.686997258588759e-01
 9.044072921261541e-01	 1.319861644325085e+00	 9.230225390348855e-01
 8.916175541005001e-01	 1.328535108468596e+00	 1.463896907012522e+00
 8.787567856552255e-01	 1.337076657782270e+00	 2.058591368897333e+00
 8.658270025320803e-01	 1.345485469114547e+00	 2.673120596598058e+00
 8.528302319727866e-01	 1.353760759896453e+00	 3.272298349823393e+00
 8.397685117116412e-01	 1.361901788304374e+00	 3.819792173557425e+00
 8.266438889669584e-01	 1.369907853393219e+00	 4.278179736711949e+00
 9.600813285505632e-01	 1.290946273959983e+00	 4.843400408369142e-01
 9.475267531460031e-01	 1.300189050526428e+00	 5.620806555829625e-01
 9.348927839970761e-01	 1.309302899341102e+00	 7.712003865264229e-01
 9.221813916368514e-01	 1.318286831720522e+00	 1.087880781242757e+00
 9.093945621816664e-01	 1.327139898834914e+00	 1.487223708588583e+00
 8.965342963329834e-01	 1.335861191991027e+00	 1.943289191169566e+00
 8.836026083740131e-01	 1.344449842885214e+00	 2.429134901246842e+00
 8.706015251621286e-01	 1.352905023826733e+00	 2.916857253515330e+00
 8.575330851180926e-01	 1.361225947931225e+00	 3.377634023022657e+00
 8.443993372131001e-01	 1.369411869284368e+00	 3.781768411539099e+00
 8.312023399546657e-01	 1.377462083075788e+00	 4.098734480962667e+00
 9.653465732078104e-01	 1.298026036650377e+00	 1.210299913275487e+00
 9.527231464371734e-01	 1.307319502130800e+00	 1.321419352766704e+00
 9.400198905137386e-01	 1.316483332798322e+00	 1.513919803209110e+00
 9.272387867773065e-01	 1.325516534547367e+00	 1.770501527459198e+00
 9.143818322364077e-01	 1.334418153344632e+00	 2.073206988314908e+00
 9.014510385646834e-01	 1.343187275513448e+00	 2.403446067890601e+00
 8.884484310920087e-01	 1.351823027988257e+00	 2.742022485142916e+00
 8.753760477913806e-01	 1.360324578539132e+00	 3.069161370271086e+00
 8.622359382625994e-01	 1.368691135966320e+00	 3.364537950109688e+00
 8.490301627137596e-01	 1.376921950264789e+00	 3.607307294165913e+00
 8.357607909415732e-01	 1.385016312758878e+00	 3.776135066653252e+00
 7.901762810605031e-01	 1.309474015933302e+00	 1.974908267465844e+00
 7.775724921538926e-01	 1.316997251493802e+00	 2.657390476893565e+00
 7.649125143346542e-01	 1.324390257134714e+00	 3.209143619943572e+00
 7.521983273406831e-01	 1.331652482463453e+00	 3.635212048060592e+00
 7.394319160785158e-01	 1.338783416402234e+00	 3.940755030924430e+00
 7.266152696671564e-01	 1.345782587173835e+00	 4.128973338478413e+00
 7.137503804864437e-01	 1.352649562260090e+00	 4.202987270192026e+00
 7.008392432308426e-01	 1.359383948333415e+00	 4.167125280618937e+00
 6.878838539695308e-01	 1.365985391161689e+00	 4.025804576119519e+00
 6.748862092136254e-01	 1.372453575486838e+00	 3.783540109943416e+00
 6.618483049913858e-01	 1.378788224877522e+00	 3.444952617282743e+00
 7.947347320474101e-01	 1.317028245617134e+00	 2.510710328224037e+00
 7.820582330944967e-01	 1.324594881999977e+00	 3.263547751872871e+00
 7.693252210805268e-01	 1.332030537179435e+00	 3.847530405807007e+00
 7.565376871643154e-01	 1.339334657587757e+00	 4.272616306904082e+00
 7.436976277031341e-01	 1.346506729198790e+00	 4.549157738048987e+00
 7.308070432910254e-01	 1.353546277513669e+00	 4.686854975026792e+00
 7.178679378016779e-01	 1.360452867519065e+00	 4.693802656757090e+00
 7.048823174367581e-01	 1.367226103618319e+00	 4.580138686292671e+00
 6.918521897805761e-01	 1.373865629535772e+00	 4.356398384128687e+00
 6.787795628619315e-01	 1.380371128194650e+00	 4.033429102628384e+00
 6.656664442239804e-01	 1.386742321568902e+00	 3.622387474416267e+00
 7.992931830351171e-01	 1.324582475300281e+00	 3.001430944247234e+00
 7.865439740359006e-01	 1.332192512505436e+00	 3.778977500464992e+00
 7.737379278271984e-01	 1.339670817223418e+00	 4.361683016562055e+00
 7.608770469887430e-01	 1.347016832711303e+00	 4.763425314613521e+00
 7.479633393285424e-01	 1.354230041994578e+00	 4.998682927892374e+00
 7.349988169156754e-01	 1.361309967852731e+00	 5.082178885769187e+00
 7.219854951176785e-01	 1.368256172777272e+00	 5.026529386852345e+00
 7.089253916434206e-01	 1.375068258902466e+00	 4.846161730685892e+00
 6.958205255923428e-01	 1.381745867909116e+00	 4.556470474365360e+00
 6.826729165109264e-01	 1.388288680901750e+00	 4.173330204216995e+00
 6.694845834572227e-01	 1.394696418259602e+00	 3.713084258478731e+00
 8.038516340234237e-01	 1.332136704982894e+00	 3.433837809709719e+00
 7.910297149779048e-01	 1.339790143010344e+00	 4.196934894949454e+00
 7.781506345744692e-01	 1.347311097266834e+00	 4.750354367787117e+00
 7.652164068137673e-01	 1.354699007834274e+00	 5.110919855997587e+00
 7.522290509545420e-01	 1.361953354789784e+00	 5.296205590881046e+00
 7.391905905409083e-01	 1.369073658191210e+00	 5.324484516275045e+00
 7.261030524342501e-01	 1.376059478034898e+00	 5.212445760508508e+00
 7.129684658506364e-01	 1.382910414186039e+00	 4.977326395814516e+00
 6.997888614046400e-01	 1.389626106281897e+00	 4.638144030126238e+00
 6.865662701604218e-01	 1.396206233608299e+00	 4.214518526423810e+00
 6.733027226909291e-01	 1.402650514949769e+00	 3.726654438615366e+00
 8.084100850121306e-01	 1.339690934665124e+00	 3.794993146977216e+00
 7.955154559203086e-01	 1.347387773514863e+00	 4.510823682452715e+00
 7.825633413221392e-01	 1.354951377309859e+00	 5.012322339049440e+00
 7.695557666391883e-01	 1.362381182956852e+00	 5.318303962354735e+00
 7.564947625809341e-01	 1.369676667584597e+00	 5.448427939689823e+00
 7.433823641665259e-01	 1.376837348529294e+00	 5.423165042855638e+00
 7.302206097511953e-01	 1.383862783292129e+00	 5.262576607955490e+00
 7.170115400582112e-01	 1.390752569469217e+00	 4.985492730385822e+00
 7.037571972172763e-01	 1.397506344654285e+00	 4.613271251327113e+00
 6.904596238102308e-01	 1.404123786314460e+00	 4.168018034238978e+00
 6.771208619249167e-01	 1.410604611639553e+00	 3.672496523089479e+00
 8.129685360010376e-01	 1.347245164347121e+00	 4.072245130956724e+00
 8.000011968629125e-01	 1.354985404019159e+00	 4.714191706293021e+00
 7.869760480700081e-01	 1.362591657352667e+00	 5.146388766442152e+00
 7.738951264648064e-01	 1.370063358079217e+00	 5.388706761978380e+00
 7.607604742075191e-01	 1.377399980379199e+00	 5.461899254493762e+00
 7.475741377923311e-01	 1.384601038867169e+00	 5.387567628411668e+00
 7.343381670683192e-01	 1.391666088549151e+00	 5.187699968922679e+00
 7.210546142659512e-01	 1.398594724752184e+00	 4.882256082382095e+00
 7.077255330300599e-01	 1.405386583026457e+00	 4.493440595146005e+00
 6.943529774601656e-01	 1.412041339020397e+00	 4.044608264101116e+00
 6.809390011590026e-01	 1.418558708329103e+00	 3.559801739459062e+00
 8.175269869899446e-01	 1.354799394029036e+00	 4.253219596027344e+00
 8.044869378055161e-01	 1.362583034523394e+00	 4.800726572832457e+00
 7.913887548178761e-01	 1.370231937395432e+00	 5.151378464497577e+00
 7.782344862904226e-01	 1.377745533201551e+00	 5.325184264430447e+00
 7.650261858340990e-01	 1.385123293173777e+00	 5.343019849433810e+00
 7.517659114181253e-01	 1.392364729205023e+00	 5.226592508329897e+00
 7.384557243854243e-01	 1.399469393806149e+00	 4.998353537614388e+00
 7.250976884736618e-01	 1.406436880035118e+00	 4.678954079336170e+00
 7.116938688428003e-01	 1.413266821398584e+00	 4.289983764605898e+00
 6.982463311100385e-01	 1.419958891726272e+00	 3.854830807996856e+00
 6.847571403930037e-01	 1.426512805018568e+00	 3.397559515903423e+00
 8.220854379786514e-01	 1.362353623711018e+00	 4.325812014584256e+00
 8.089726787479197e-01	 1.370180665027734e+00	 4.764251458188825e+00
 7.958014615655435e-01	 1.377872217438328e+00	 5.026138276337690e+00
 7.825738461158364e-01	 1.385427708324037e+00	 5.130721081153997e+00
 7.692918974604748e-01	 1.392846605968519e+00	 5.098044902833008e+00
 7.559576850437113e-01	 1.400128419543043e+00	 4.948917464219979e+00
 7.425732817023147e-01	 1.407272699063309e+00	 4.704875191404422e+00
 7.291407626811492e-01	 1.414279035318203e+00	 4.386673366093569e+00
 7.156622046553058e-01	 1.421147059770840e+00	 4.013982454882478e+00
 7.021396847596617e-01	 1.427876444432247e+00	 3.608995572573931e+00
 6.885752796267371e-01	 1.434466901708098e+00	 3.194562771419397e+00
 8.266438889669584e-01	 1.369907853393219e+00	 4.278179736711949e+00
 8.134584196899231e-01	 1.377778295532340e+00	 4.598721049409345e+00
 8.002141683128110e-01	 1.385512497481530e+00	 4.769536150971806e+00
 7.869132059408492e-01	 1.393109883446855e+00	 4.808232084883605e+00
 7.735576090864471e-01	 1.400569918763610e+00	 4.733088156423483e+00
 7.601494586688906e-01	 1.407892109881418e+00	 4.563025864151677e+00
 7.466908390187942e-01	 1.415076004320817e+00	 4.317578708220699e+00
 7.331838368882193e-01	 1.422121190601618e+00	 4.016256109423943e+00
 7.196305404673856e-01	 1.429027298143399e+00	 3.676274866689884e+00
 7.060330384088480e-01	 1.435793997138485e+00	 3.317186821953644e+00
 6.923934188600199e-01	 1.442420998397841e+00	 2.959413022266058e+00
 8.312023399546657e-01	 1.377462083075788e+00	 4.098734480962667e+00
 8.179441606313274e-01	 1.385375926037378e+00	 4.298217614944699e+00
 8.046268750594782e-01	 1.393152777525212e+00	 4.380460246700128e+00
 7.912525657652613e-01	 1.400792058570189e+00	 4.360564010202919e+00
 7.778233207118174e-01	 1.408293231559235e+00	 4.254125488613052e+00
 7.643412322934664e-01	 1.415655800220334e+00	 4.077211695843836e+00
 7.508083963346665e-01	 1.422879309578859e+00	 3.846335626750617e+00
 7.372269110946775e-01	 1.429963345885546e+00	 3.578306278433752e+00
 7.235988762788474e-01	 1.436907536516434e+00	 3.287461995687985e+00
 7.099263920574095e-01	 1.443711549845151e+00	 2.989269012547836e+00
 6.962115580926688e-01	 1.450375095087947e+00	 2.700525311713295e+00
 8.357607909415732e-01	 1.385016312758878e+00	 3.776135066653252e+00
 8.224299015719309e-01	 1.392973556543011e+00	 3.856947199487316e+00
 8.090395818053454e-01	 1.400793057569549e+00	 3.857818059626892e+00
 7.955919255888730e-01	 1.408474233694218e+00	 3.790496997497283e+00
 7.820890323363869e-01	 1.416016544355583e+00	 3.666998366601297e+00
 7.685330059172397e-01	 1.423419490559979e+00	 3.499584430944712e+00
 7.549259536497352e-01	 1.430682614837620e+00	 3.300748583512011e+00
 7.412699853003305e-01	 1.437805501170166e+00	 3.083198884836739e+00
 7.275672120895014e-01	 1.444787774890119e+00	 2.857913706463775e+00
 7.138197457051589e-01	 1.451629102552406e+00	 2.634892427822638e+00
 7.000296973245008e-01	 1.458329191778564e+00	 2.426132969841615e+00
 6.618483049913858e-01	 1.378788224877522e+00	 3.444952617282743e+00
 6.487699095967796e-01	 1.384990144222397e+00	 3.083193812417024e+00
 6.356552290236301e-01	 1.391058044979909e+00	 2.768326831193682e+00
 6.225062527617115e-01	 1.396991765020092e+00	 2.500200685975154e+00
 6.093249662367155e-01	 1.402791180224235e+00	 2.278636394713601e+00
 5.961133499364965e-01	 1.408456204215545e+00	 2.103434653230164e+00
 5.828733785497980e-01	 1.413986788066745e+00	 1.974382574028947e+00
 5.696070201181347e-01	 1.419382919985196e+00	 1.891259490203571e+00
 5.563162352014727e-01	 1.424644624976096e+00	 1.853841829485176e+00
 5.430029760583274e-01	 1.429771964484383e+00	 1.861907069719535e+00
 5.296691858408672e-01	 1.434765036015944e+00	 1.915236793014900e+00
 6.656664442239804e-01	 1.386742321568902e+00	 3.622387474416267e+00
 6.525126008240003e-01	 1.392980019190503e+00	 3.199496703590905e+00
 6.393222629197794e-01	 1.399082925084413e+00	 2.832897745733274e+00
 6.260974314782574e-01	 1.405050876185350e+00	 2.521547013514585e+00
 6.128401033788459e-01	 1.410883747658563e+00	 2.264307786921238e+00
 5.995522705346324e-01	 1.416581452628946e+00	 2.059960371014090e+00
 5.862359190261404e-01	 1.422143941886962e+00	 1.907211333107542e+00
 5.728930282483172e-01	 1.427571203571930e+00	 1.804701813668442e+00
 5.595255700714005e-01	 1.432863262833292e+00	 1.751014911952094e+00
 5.461355080162874e-01	 1.438020181470444e+00	 1.744682153858487e+00
 5.327247964449955e-01	 1.443042057551770e+00	 1.784189055672209e+00
 6.694845834572227e-01	 1.394696418259602e+00	 3.713084258478731e+00
 6.562552920518185e-01	 1.400969894157965e+00	 3.251745779174049e+00
 6.429892968164699e-01	 1.407107805188320e+00	 2.853235157601577e+00
 6.296886101952830e-01	 1.413109987350059e+00	 2.515733538345861e+00
 6.163552405213909e-01	 1.418976315092390e+00	 2.237278312560056e+00
 6.029911911331183e-01	 1.424706701041903e+00	 2.015775390298102e+00
 5.895984595027690e-01	 1.430301095706788e+00	 1.849010550405232e+00
 5.761790363787246e-01	 1.435759487158326e+00	 1.734659858845081e+00
 5.627349049414975e-01	 1.441081900690199e+00	 1.670299153302174e+00
 5.492680399743685e-01	 1.446268398456265e+00	 1.653412598605805e+00
 5.357804070492048e-01	 1.451319079087398e+00	 1.681400323939899e+00
 6.733027226909291e-01	 1.402650514949769e+00	 3.726654438615366e+00
 6.599979832800569e-01	 1.408959769124917e+00	 3.247612255068774e+00
 6.466563307135300e-01	 1.415132685291741e+00	 2.835315111816972e+00
 6.332797889126243e-01	 1.421169098514310e+00	 2.487283210772119e+00
 6.198703776641965e-01	 1.427068882525793e+00	 2.200856751163048e+00
 6.064301117318085e-01	 1.432831949454466e+00	 1.973209949538903e+00
 5.929609999795484e-01	 1.438458249526254e+00	 1.801364120792005e+00
 5.794650445092341e-01	 1.443947770744395e+00	 1.682199808486270e+00
 5.659442398116531e-01	 1.449300538546813e+00	 1.612467959998148e+00
 5.524005719324733e-01	 1.454516615441825e+00	 1.588800148940088e+00
 5.388360176534135e-01	 1.459596100622796e+00	 1.607717854005829e+00
 6.771208619249167e-01	 1.410604611639553e+00	 3.672496523089479e+00
 6.637406745085377e-01	 1.416949644091492e+00	 3.194598762471294e+00
 6.503233646107899e-01	 1.423157565394793e+00	 2.784983865921368e+00
 6.368709676301190e-01	 1.429228209678199e+00	 2.440622477737218e+00
 6.233855148071075e-01	 1.435161449958841e+00	 2.158283219373037e+00
 6.098690323305584e-01	 1.440957197866686e+00	 1.934548094132445e+00
 5.963235404563446e-01	 1.446615403345389e+00	 1.765826921729686e+00
 5.827510526397223e-01	 1.452136054330145e+00	 1.648370789237070e+00
 5.691535746817576e-01	 1.457519176403124e+00	 1.578284512434443e+00
 5.555331038905049e-01	 1.462764832427100e+00	 1.551538108810101e+00
 5.418916282575384e-01	 1.467873122157929e+00	 1.563977290394272e+00
 6.809390011590026e-01	 1.418558708329103e+00	 3.559801739459062e+00
 6.674833657370843e-01	 1.424939519057822e+00	 3.100043815353352e+00
 6.539903985080778e-01	 1.431182445497587e+00	 2.707961299968147e+00
 6.404621463476025e-01	 1.437287320841818e+00	 2.380083788625290e+00
 6.269006519499696e-01	 1.443254017391609e+00	 2.112730923867276e+00
 6.133079529292226e-01	 1.449082446278614e+00	 1.902028825691751e+00
 5.996860809330227e-01	 1.454772557164222e+00	 1.743925505954766e+00
 5.860370607700663e-01	 1.460324337915590e+00	 1.634205252509720e+00
 5.723629095516996e-01	 1.465737814259127e+00	 1.568501976441116e+00
 5.586656358483669e-01	 1.471013049412068e+00	 1.542311523271335e+00
 5.449472388614981e-01	 1.476150143692762e+00	 1.551002956225329e+00
 6.847571403930037e-01	 1.426512805018568e+00	 3.397559515903423e+00
 6.712260569655186e-01	 1.432929394024040e+00	 2.971126120150556e+00
 6.576574324052233e-01	 1.439207325600238e+00	 2.609844204569098e+00
 6.440533250649124e-01	 1.445346432005262e+00	 2.309908009830259e+00
 6.304157890926273e-01	 1.451346584824167e+00	 2.067307848687825e+00
 6.167468735276558e-01	 1.457207694690300e+00	 1.877847206360281e+00
 6.030486214094480e-01	 1.462929710982785e+00	 1.737158764893036e+00
 5.893230689001431e-01	 1.468512621500738e+00	 1.640719336928647e+00
 5.755722444213691e-01	 1.473956452114813e+00	 1.583863702416268e+00
 5.617981678059620e-01	 1.479261266396707e+00	 1.561797349610931e+00
 5.480028494652096e-01	 1.484427165227262e+00	 1.569653530545663e+00
 6.885752796267371e-01	 1.434466901708098e+00	 3.194562771419397e+00
 6.749687481936630e-01	 1.440919268990278e+00	 2.814868733783174e+00
 6.613244663020548e-01	 1.447232205702859e+00	 2.496109451734540e+00
 6.476445037818852e-01	 1.453405543168623e+00	 2.234246751637372e+00
 6.339309262349262e-01	 1.459439152256587e+00	 2.025058379524480e+00
 6.201857941257128e-01	 1.465332943101795e+00	 1.864155419906819e+00
 6.064111618854863e-01	 1.471086864801106e+00	 1.746998563942731e+00
 5.926090770298299e-01	 1.476700905085600e+00	 1.668913213061447e+00
 5.787815792906560e-01	 1.482175089970176e+00	 1.625103890813850e+00
 5.649306997631937e-01	 1.487509483380995e+00	 1.610772212088763e+00
 5.510584600685913e-01	 1.492704186761395e+00	 1.621210358134288e+00
 6.923934188600199e-01	 1.442420998397841e+00	 2.959413022266058e+00
 6.787114394213402e-01	 1.448909143956669e+00	 2.638143075864997e+00
 6.649915001984027e-01	 1.455257085805564e+00	 2.372117053031833e+00
 6.512356824983572e-01	 1.461464654331993e+00	 2.157164610802483e+00
 6.374460633767118e-01	 1.467531719688942e+00	 1.988964867384772e+00
 6.236247147232484e-01	 1.473458191513149e+00	 1.863063791270986e+00
 6.097737023610023e-01	 1.479244018619215e+00	 1.774890350712829e+00
 5.958950851590034e-01	 1.484889188670185e+00	 1.719754975484591e+00
 5.819909141594490e-01	 1.490393727825208e+00	 1.692991510038932e+00
 5.680632317199648e-01	 1.495757700364909e+00	 1.690097075197051e+00
 5.541140706715604e-01	 1.500981208295127e+00	 1.706473199097092e+00
 6.962115580926688e-01	 1.450375095087947e+00	 2.700525311713295e+00
 6.824541306483731e-01	 1.456899018923345e+00	 2.447672800699096e+00
 6.686585340940945e-01	 1.463281965908467e+00	 2.243113109389204e+00
 6.548268612141656e-01	 1.469523765495468e+00	 2.082641332066260e+00
 6.409612005178291e-01	 1.475624287121304e+00	 1.961949133978879e+00
 6.270636353201177e-01	 1.481583439924414e+00	 1.876641711168922e+00
 6.131362428358624e-01	 1.487401172437143e+00	 1.822117136032118e+00
 5.991810932875407e-01	 1.493077472254505e+00	 1.794010663167170e+00
 5.852002490276385e-01	 1.498612365679901e+00	 1.788147660020635e+00
 5.711957636761784e-01	 1.504005917348428e+00	 1.800275388300506e+00
 5.571696812740350e-01	 1.509258229828425e+00	 1.826066282237336e+00
 7.000296973245008e-01	 1.458329191778564e+00	 2.426132969841615e+00
 6.861968218745838e-01	 1.464888893890438e+00	 2.250037534414770e+00
 6.723255679889603e-01	 1.471306846011681e+00	 2.114232656682746e+00
 6.584180399291466e-01	 1.477582876659139e+00	 2.014573891699488e+00
 6.444763376581236e-01	 1.483716854553744e+00	 1.946832070086569e+00
 6.305025559161753e-01	 1.489708688335640e+00	 1.906484826904587e+00
 6.164987833099310e-01	 1.495558326254919e+00	 1.889613510655046e+00
 6.024671014153186e-01	 1.501265755838569e+00	 1.892425504190658e+00
 5.884095838951133e-01	 1.506831003534249e+00	 1.911098269099263e+00
 5.743282956317380e-01	 1.512254134331529e+00	 1.941781361204520e+00
 5.602252918759325e-01	 1.517535251361254e+00	 1.980598419113182e+00
 5.296691858408672e-01	 1.434765036015944e+00	 1.915236793014900e+00
 5.163190688308803e-01	 1.439623158038130e+00	 1.993097820534520e+00
 5.029522813283460e-01	 1.444347358201994e+00	 2.073352759196287e+00
 4.895707329421400e-01	 1.448937838646585e+00	 2.153684017653286e+00
 4.761763211503492e-01	 1.453394835841910e+00	 2.231831366095165e+00
 4.627709305788981e-01	 1.457718620117905e+00	 2.305593967591528e+00
 4.493564322980741e-01	 1.461909495176767e+00	 2.372831598307796e+00
 4.359346831373438e-01	 1.465967797589339e+00	 2.431465102709373e+00
 4.225075250188142e-01	 1.469893896276274e+00	 2.479476133027757e+00
 4.090767843096734e-01	 1.473688191974680e+00	 2.514906224984715e+00
 3.956442711939038e-01	 1.477351116691019e+00	 2.535855264054315e+00
 5.327247964449955e-01	 1.443042057551770e+00	 1.784189055672209e+00
 5.192976638934053e-01	 1.447928205612917e+00	 1.848215474649196e+00
 5.058537646787414e-01	 1.452679659233363e+00	 1.915166784043262e+00
 4.923950194262516e-01	 1.457296621718283e+00	 1.983117868903918e+00
 4.789233365604134e-01	 1.461779330901862e+00	 2.050230638709961e+00
 4.654406115793993e-01	 1.466128058673551e+00	 2.114754925958419e+00
 4.519487263475430e-01	 1.470343110487583e+00	 2.175028524781826e+00
 4.384495484062030e-01	 1.474424824856452e+00	 2.229476419773728e+00
 4.249449303033795e-01	 1.478373572829082e+00	 2.276609258458056e+00
 4.114367089424183e-01	 1.482189757454407e+00	 2.315030131579957e+00
 3.979267049501003e-01	 1.485873813231091e+00	 2.343747884119407e+00
 5.357804070492048e-01	 1.451319079087398e+00	 1.681400323939899e+00
 5.222762589559826e-01	 1.456233253187544e+00	 1.733211409157982e+00
 5.087552480291694e-01	 1.461011960264603e+00	 1.788486246944342e+00
 4.952193059103838e-01	 1.465655404789880e+00	 1.845661144336148e+00
 4.816703519704932e-01	 1.470163825961741e+00	 1.903284106354828e+00
 4.681102925799156e-01	 1.474537497229151e+00	 1.960014722774709e+00
 4.545410203970298e-01	 1.478776725798380e+00	 2.014623149580955e+00
 4.409644136750849e-01	 1.482881852123574e+00	 2.066020515708078e+00
 4.273823355879728e-01	 1.486853249381933e+00	 2.113598978911709e+00
 4.137966335751952e-01	 1.490691322934210e+00	 2.156577112312187e+00
 4.002091387063301e-01	 1.494396509771284e+00	 2.194118576337997e+00
 5.388360176534135e-01	 1.459596100622796e+00	 1.607717854005829e+00
 5.252548540185452e-01	 1.464538300761968e+00	 1.649137545722063e+00
 5.116567313795790e-01	 1.469344261295668e+00	 1.694472174937285e+00
 4.980435923945024e-01	 1.474014187861330e+00	 1.742489264556927e+00
 4.844173673805691e-01	 1.478548321021499e+00	 1.792087786978289e+00
 4.707799735804418e-01	 1.482946935784657e+00	 1.842327333711867e+00
 4.571333144465422e-01	 1.487210341109111e+00	 1.892779946149866e+00
 4.434792789440081e-01	 1.491338879390661e+00	 1.942908697835983e+00
 4.298197408726202e-01	 1.495332925934780e+00	 1.992143427126055e+00
 4.161565582080354e-01	 1.499192888414045e+00	 2.039987935272511e+00
 4.024915724626263e-01	 1.502919206311548e+00	 2.086016734029871e+00
 5.418916282575384e-01	 1.467873122157929e+00	 1.563977290394271e+00
 5.282334490810263e-01	 1.472843348336149e+00	 1.597029632903027e+00
 5.145582147299198e-01	 1.477676562326513e+00	 1.634266960422741e+00
 5.008678788785720e-01	 1.482372970932583e+00	 1.674767316164846e+00
 4.871643827906217e-01	 1.486932816081087e+00	 1.718093540736695e+00
 4.734496545809729e-01	 1.491356374340022e+00	 1.763875706894436e+00
 4.597256084960878e-01	 1.495643956419731e+00	 1.811700103293825e+00
 4.459941442129904e-01	 1.499795906657666e+00	 1.861242565941811e+00
 4.322571461573484e-01	 1.503812602487578e+00	 1.912264709016924e+00
 4.185164828409708e-01	 1.507694453893865e+00	 1.964610098435295e+00
 4.047740062190222e-01	 1.511441902851830e+00	 2.018200377858804e+00
 5.449472388614981e-01	 1.476150143692762e+00	 1.551002956225329e+00
 5.312120441433595e-01	 1.481148395910043e+00	 1.577907682085122e+00
 5.174596980801408e-01	 1.486008863357090e+00	 1.609182081897318e+00
 5.036921653625578e-01	 1.490731754003592e+00	 1.644531331896925e+00
 4.899113982006313e-01	 1.495317311140457e+00	 1.683610729303175e+00
 4.761193355815037e-01	 1.499765812895197e+00	 1.726177181554035e+00
 4.623179025456745e-01	 1.504077571730192e+00	 1.772085946208590e+00
 4.485090094820507e-01	 1.508252933924546e+00	 1.821286444488034e+00
 4.346945514421844e-01	 1.512292279040283e+00	 1.873818009643736e+00
 4.208764074740328e-01	 1.516196019373624e+00	 1.929805580722137e+00
 4.070564399755510e-01	 1.519964599392081e+00	 1.989455352119331e+00
 5.480028494652096e-01	 1.484427165227262e+00	 1.569653530545663e+00
 5.341906392054778e-01	 1.489453443483611e+00	 1.593226453690993e+00
 5.203611814301912e-01	 1.494341164387353e+00	 1.621227477361834e+00
 5.065164518464250e-01	 1.499090537074308e+00	 1.653427189413896e+00
 4.926584136105788e-01	 1.503701806199560e+00	 1.689703785395062e+00
 4.787890165820292e-01	 1.508175251450136e+00	 1.730038683242609e+00
 4.649101965953096e-01	 1.512511187040449e+00	 1.774512056063273e+00
 4.510238747512069e-01	 1.516709961191254e+00	 1.823298294337012e+00
 4.371319567271537e-01	 1.520771955592849e+00	 1.876661408723180e+00
 4.232363321072532e-01	 1.524697584853274e+00	 1.934950384466829e+00
 4.093388737322460e-01	 1.528487295932251e+00	 1.998594498204690e+00
 5.510584600685913e-01	 1.492704186761395e+00	 1.621210358134288e+00
 5.371692342673143e-01	 1.497758491056808e+00	 1.644415396942131e+00
 5.232626647800200e-01	 1.502673465417256e+00	 1.671505908074745e+00
 5.093407383301393e-01	 1.507449320144682e+00	 1.702446251030978e+00
 4.954054290204444e-01	 1.512086301258349e+00	 1.737304622180833e+00
 4.814586975825439e-01	 1.516584690004791e+00	 1.776248431193242e+00
 4.675024906450008e-01	 1.520944802350454e+00	 1.819539604783451e+00
 4.535387400204777e-01	 1.525166988457745e+00	 1.867529829307086e+00
 4.395693620122836e-01	 1.529251632145231e+00	 1.920655743542780e+00
 4.255962567406635e-01	 1.533199150332770e+00	 1.979434092802073e+00
 4.116213074891404e-01	 1.537009992472289e+00	 2.044456855285109e+00
 5.541140706715604e-01	 1.500981208295127e+00	 1.706473199097092e+00
 5.401478293288025e-01	 1.506063538629595e+00	 1.732309253322974e+00
 5.261641481295767e-01	 1.511005766446753e+00	 1.760960469352092e+00
 5.121650248136650e-01	 1.515808103214667e+00	 1.792556838247342e+00
 4.981524444302087e-01	 1.520470796316772e+00	 1.827323576877814e+00
 4.841283785830433e-01	 1.524994128559112e+00	 1.865576388101258e+00
 4.700947846947560e-01	 1.529378417660163e+00	 1.907716661849853e+00
 4.560536052898813e-01	 1.533624015723974e+00	 1.954226628550300e+00
 4.420067672976006e-01	 1.537731308697385e+00	 2.005664476099666e+00
 4.279561813742956e-01	 1.541700715812063e+00	 2.062659441391751e+00
 4.139037412462674e-01	 1.545532689012144e+00	 2.125906887146099e+00
 5.571696812740350e-01	 1.509258229828425e+00	 1.826066282237336e+00
 5.431264243898752e-01	 1.514368586201928e+00	 1.857722059951356e+00
 5.290656314788106e-01	 1.519338067475797e+00	 1.890512169514994e+00
 5.149893112969677e-01	 1.524166886284214e+00	 1.924704791434930e+00
 5.008994598398526e-01	 1.528855291374784e+00	 1.960649933343852e+00
 4.867980595835216e-01	 1.533403567113055e+00	 1.998774694763986e+00
 4.726870787445826e-01	 1.537812032969529e+00	 2.039578490670741e+00
 4.585684705594363e-01	 1.542081042989898e+00	 2.083628244911991e+00
 4.444441725831308e-01	 1.546210985249264e+00	 2.131553564301989e+00
 4.303161060081809e-01	 1.550202281291109e+00	 2.184041903958021e+00
 4.161861750036603e-01	 1.554055385551768e+00	 2.241833734182352e+00
 5.602252918759325e-01	 1.517535251361254e+00	 1.980598419113182e+00
 5.461050194504662e-01	 1.522673633773767e+00	 2.021448463297953e+00
 5.319671148276707e-01	 1.527670368504342e+00	 2.061060457097661e+00
 5.178135977800125e-01	 1.532525669353275e+00	 2.099814010853242e+00
 5.036464752493562e-01	 1.537239786432333e+00	 2.138152427218023e+00
 4.894677405839741e-01	 1.541813005666570e+00	 2.176578090157362e+00
 4.752793727944883e-01	 1.546245648278505e+00	 2.215647834926145e+00
 4.610833358291607e-01	 1.550538070255469e+00	 2.255968309425768e+00
 4.468815778689010e-01	 1.554690661800824e+00	 2.298191337078054e+00
 4.326760306423511e-01	 1.558703846769861e+00	 2.343009291076476e+00
 4.184686087613524e-01	 1.562578082091108e+00	 2.391150489586926e+00
 3.956442711939038e-01	 1.477351116691019e+00	 2.535855264054315e+00
 3.822117792468353e-01	 1.480883133461804e+00	 2.548806734267909e+00
 3.687810853789673e-01	 1.484284736740762e+00	 2.560389011283239e+00
 3.553539486873725e-01	 1.487556450846154e+00	 2.569058977706220e+00
 3.419321097195881e-01	 1.490698829042657e+00	 2.574334438927607e+00
 3.285172899454604e-01	 1.493712452934736e+00	 2.576127377232784e+00
 3.151111912495110e-01	 1.496597931850662e+00	 2.574281535682932e+00
 3.017154954439191e-01	 1.499355902217940e+00	 2.568577575681199e+00
 2.883318638021947e-01	 1.501987026930858e+00	 2.558738264301164e+00
 2.749619366135821e-01	 1.504491994710871e+00	 2.544433674141240e+00
 2.616073327582157e-01	 1.506871519460547e+00	 2.525286379238575e+00
 3.979267049501003e-01	 1.485873813231091e+00	 2.343747884119407e+00
 3.844167222487311e-01	 1.489426205866871e+00	 2.369389802008148e+00
 3.709085479996148e-01	 1.492847432667928e+00	 2.397704325101465e+00
 3.574039514478568e-01	 1.496138020977261e+00	 2.426274055747301e+00
 3.439046831820171e-01	 1.499298527251279e+00	 2.453826328356321e+00
 3.304124746029072e-01	 1.502329536449662e+00	 2.479720839264260e+00
 3.169290374130285e-01	 1.505231661415839e+00	 2.503219314320614e+00
 3.034560631267449e-01	 1.508005542248799e+00	 2.523491590992164e+00
 2.899952226012659e-01	 1.510651845667006e+00	 2.539622254320914e+00
 2.765481655884793e-01	 1.513171264365078e+00	 2.550617289562674e+00
 2.631165203076562e-01	 1.515564516364017e+00	 2.555410732581710e+00
 4.002091387063301e-01	 1.494396509771284e+00	 2.194118576337997e+00
 3.866216652506577e-01	 1.497969278272107e+00	 2.232130759229809e+00
 3.730360106202864e-01	 1.501410128595314e+00	 2.275263728942417e+00
 3.594539542083551e-01	 1.504719591108642e+00	 2.320712157101410e+00
 3.458772566444450e-01	 1.507898225460224e+00	 2.366525981622274e+00
 3.323076592603333e-01	 1.510946619964957e+00	 2.411637607932094e+00
 3.187468835765012e-01	 1.513865390981419e+00	 2.454873191813654e+00
 3.051966308094975e-01	 1.516655182280088e+00	 2.494943892214434e+00
 2.916585814002307e-01	 1.519316664403590e+00	 2.530453658277762e+00
 2.781343945632320e-01	 1.521850534019712e+00	 2.559907036424932e+00
 2.646257078569091e-01	 1.524257513267884e+00	 2.581716976567931e+00
 4.024915724626263e-01	 1.502919206311548e+00	 2.086016734029871e+00
 3.888266082526464e-01	 1.506512350677455e+00	 2.135191138725955e+00
 3.751634732410087e-01	 1.509972824522856e+00	 2.190792501232960e+00
 3.615039569688854e-01	 1.513301161240222e+00	 2.249785398646633e+00
 3.478498301068813e-01	 1.516497923669408e+00	 2.309682305390214e+00
 3.342028439177397e-01	 1.519563703480526e+00	 2.369096895724394e+00
 3.205647297399223e-01	 1.522499120547302e+00	 2.426563390290065e+00
 3.069371984921631e-01	 1.525304822311696e+00	 2.480483543020246e+00
 2.933219401990707e-01	 1.527981483140502e+00	 2.529135284699163e+00
 2.797206235378206e-01	 1.530529803674665e+00	 2.570681389155049e+00
 2.661348954059583e-01	 1.532950510172047e+00	 2.603178139629298e+00
 4.047740062190222e-01	 1.511441902851830e+00	 2.018200377858804e+00
 3.910315512547278e-01	 1.515055423082858e+00	 2.076767297449283e+00
 3.772909358618069e-01	 1.518535520450489e+00	 2.142063329492061e+00
 3.635539597294665e-01	 1.521882731371924e+00	 2.210965683000925e+00
 3.498224035693366e-01	 1.525097621878746e+00	 2.280607665205621e+00
 3.360980285751278e-01	 1.528180786996274e+00	 2.349382035198718e+00
 3.223825759032845e-01	 1.531132850113384e+00	 2.415671963953989e+00
 3.086777661747279e-01	 1.533954462343517e+00	 2.477716266135500e+00
 2.949852989977679e-01	 1.536646301877630e+00	 2.533618608583298e+00
 2.813068525122265e-01	 1.539209073329832e+00	 2.581356743224870e+00
 2.676440829547879e-01	 1.541643507076409e+00	 2.618791740873183e+00
 4.070564399755510e-01	 1.519964599392081e+00	 1.989455352119331e+00
 3.932364942569336e-01	 1.523598495488259e+00	 2.055096130008460e+00
 3.794183984827072e-01	 1.527098216378146e+00	 2.126899052894022e+00
 3.656039624901168e-01	 1.530464301503675e+00	 2.201782978504749e+00
 3.517949770318200e-01	 1.533697320088152e+00	 2.276676068102217e+00
 3.379932132324985e-01	 1.536797870512107e+00	 2.349838648394697e+00
 3.242004220665807e-01	 1.539766579679563e+00	 2.419641037712831e+00
 3.104183338571776e-01	 1.542604102375442e+00	 2.484302831782027e+00
 2.966486577963042e-01	 1.545311120614868e+00	 2.541902388412433e+00
 2.828930814864300e-01	 1.547888342985105e+00	 2.590386337612935e+00
 2.691532705033814e-01	 1.550336503980869e+00	 2.627579092959285e+00
 4.093388737322460e-01	 1.528487295932251e+00	 1.998594498204690e+00
 3.954414372592944e-01	 1.532141567893601e+00	 2.068453890628693e+00
 3.815458611037352e-01	 1.535660912305761e+00	 2.143171219106081e+00
 3.676539652508549e-01	 1.539045871635399e+00	 2.219823655140359e+00
 3.537675504943423e-01	 1.542297018297540e+00	 2.295321404522959e+00
 3.398883978898529e-01	 1.545414954027931e+00	 2.367872876116643e+00
 3.260182682298037e-01	 1.548400309245738e+00	 2.435971103469363e+00
 3.121589015394989e-01	 1.551253742407367e+00	 2.497957498878693e+00
 2.983120165946614e-01	 1.553975939352105e+00	 2.552031328379732e+00
 2.844793104604125e-01	 1.556567612640378e+00	 2.596259212357768e+00
 2.706624580517231e-01	 1.559029500885329e+00	 2.628584627433390e+00
 4.116213074891404e-01	 1.537009992472289e+00	 2.044456855285109e+00
 3.976463802618413e-01	 1.540684640298826e+00	 2.115155054029713e+00
 3.836733237249167e-01	 1.544223608233268e+00	 2.188798688877131e+00
 3.697039680116991e-01	 1.547627441767019e+00	 2.262728874216374e+00
 3.557401239569128e-01	 1.550896716506826e+00	 2.334035747252382e+00
 3.417835825471919e-01	 1.554032037543648e+00	 2.400949664762244e+00
 3.278361143929464e-01	 1.557034038811805e+00	 2.462219371840429e+00
 3.138994692216779e-01	 1.559903382439181e+00	 2.516446506953671e+00
 2.999753753928214e-01	 1.562640758089232e+00	 2.562094784074682e+00
 2.860655394341541e-01	 1.565246882295545e+00	 2.597499199840678e+00
 2.721716455997967e-01	 1.567722497789690e+00	 2.620875241646347e+00
 4.139037412462674e-01	 1.545532689012144e+00	 2.125906887146099e+00
 3.998513232646057e-01	 1.549227712703878e+00	 2.193551213719164e+00
 3.858007863462779e-01	 1.552786304160603e+00	 2.261746286534196e+00
 3.717539707726681e-01	 1.556209011898460e+00	 2.328197708285189e+00
 3.577126974195418e-01	 1.559496414715923e+00	 2.390367705159490e+00
 3.436787672045168e-01	 1.562649121059167e+00	 2.446591108475987e+00
 3.296539605560016e-01	 1.565667768377662e+00	 2.495998177162828e+00
 3.156400369037006e-01	 1.568553022470778e+00	 2.537586616810143e+00
 3.016387341907656e-01	 1.571305576826140e+00	 2.570225509949394e+00
 2.876517684076362e-01	 1.573926151950498e+00	 2.592663948495983e+00
 2.736808331475863e-01	 1.576415494693853e+00	 2.603539666425026e+00
 4.161861750036603e-01	 1.554055385551768e+00	 2.241833734182352e+00
 4.020562662676184e-01	 1.557770785108700e+00	 2.302030016264832e+00
 3.879282489678443e-01	 1.561349000087700e+00	 2.360023494624287e+00
 3.738039735337803e-01	 1.564790582029647e+00	 2.413994485937846e+00
 3.596852708822389e-01	 1.568096112924747e+00	 2.461920829646941e+00
 3.455739518618289e-01	 1.571266204574392e+00	 2.502374844503413e+00
 3.314718067189623e-01	 1.574301497943207e+00	 2.534973433740627e+00
 3.173806045855531e-01	 1.577202662502051e+00	 2.559243698074045e+00
 3.033020929884768e-01	 1.579970395562720e+00	 2.574598446962106e+00
 2.892379973808393e-01	 1.582605421605131e+00	 2.580343977703868e+00
 2.751900206950757e-01	 1.585108491597720e+00	 2.575687853698517e+00
 4.184686087613524e-01	 1.562578082091108e+00	 2.391150489586926e+00
 4.042612092709105e-01	 1.566313857513235e+00	 2.439014130172002e+00
 3.900557115896419e-01	 1.569911696014492e+00	 2.481683191016132e+00
 3.758539762950538e-01	 1.573372152160505e+00	 2.517921825837733e+00
 3.616578443450143e-01	 1.576695811133211e+00	 2.546352071794350e+00
 3.474691365191289e-01	 1.579883288089228e+00	 2.565932499715010e+00
 3.332896528818214e-01	 1.582935227508337e+00	 2.576863141377489e+00
 3.191211722672218e-01	 1.585852302532892e+00	 2.579331361833730e+00
 3.049654517859358e-01	 1.588635214298862e+00	 2.573429548863637e+00
 2.908242263537443e-01	 1.591284691259338e+00	 2.559161762675226e+00
 2.766992082422489e-01	 1.593801488501192e+00	 2.536450383317856e+00
 2.616073327582157e-01	 1.506871519460547e+00	 2.525286379238575e+00
 2.482673838752059e-01	 1.509126712206869e+00	 2.498982105014311e+00
 2.349459403107126e-01	 1.511257919523690e+00	 2.465128469373620e+00
 2.216445585885345e-01	 1.513265926228268e+00	 2.426151929863310e+00
 2.083647722423004e-01	 1.515151539716700e+00	 2.384433050102656e+00
 1.951080914932949e-01	 1.516915589294963e+00	 2.342308105331498e+00
 1.818760029487244e-01	 1.518558925507594e+00	 2.302070708180673e+00
 1.686699693202753e-01	 1.520082419464677e+00	 2.265973446034201e+00
 1.554914291627973e-01	 1.521486962167761e+00	 2.236229521924083e+00
 1.423417966329233e-01	 1.522773463835312e+00	 2.215014391463668e+00
 1.292224612674189e-01	 1.523942853228325e+00	 2.204467388880643e+00
 2.631165203076562e-01	 1.515564516364017e+00	 2.555410732581710e+00
 2.496996145421800e-01	 1.517832719100216e+00	 2.551432261470814e+00
 2.363013208505068e-01	 1.519976221146880e+00	 2.538145061229757e+00
 2.229232047359003e-01	 1.521995811848809e+00	 2.517468673160495e+00
 2.095668085788256e-01	 1.523892303259896e+00	 2.491303399714351e+00
 1.962336513129168e-01	 1.525666529470308e+00	 2.461531994630468e+00
 1.829252281215022e-01	 1.527319345931298e+00	 2.430021336735909e+00
 1.696430101545389e-01	 1.528851628778306e+00	 2.398624079554440e+00
 1.563884442657881e-01	 1.530264274152987e+00	 2.369180269496060e+00
 1.431629527700431e-01	 1.531558197524774e+00	 2.343518926013532e+00
 1.299679332201999e-01	 1.532734333012601e+00	 2.323459577712970e+00
 2.646257078569091e-01	 1.524257513267884e+00	 2.581716976567931e+00
 2.511318452089191e-01	 1.526538725993905e+00	 2.593609995784547e+00
 2.376567013900173e-01	 1.528694522770340e+00	 2.595371946687294e+00
 2.242018508829361e-01	 1.530725697469535e+00	 2.588449785126678e+00
 2.107688449149809e-01	 1.532633066803184e+00	 2.574292163884306e+00
 1.973592111321389e-01	 1.534417469645651e+00	 2.554351300159133e+00
 1.839744532938637e-01	 1.536079766354907e+00	 2.530084794835406e+00
 1.706160509883864e-01	 1.537620838091754e+00	 2.502957396198179e+00
 1.572854593683837e-01	 1.539041586137960e+00	 2.474442701440557e+00
 1.439841089068125e-01	 1.540342931213930e+00	 2.446024789970620e+00
 1.307134051727029e-01	 1.541525812796541e+00	 2.419199783173230e+00
 2.661348954059583e-01	 1.532950510172047e+00	 2.603178139629298e+00
 2.525640758754147e-01	 1.535244732887851e+00	 2.625092613250005e+00
 2.390120819292470e-01	 1.537412824394003e+00	 2.636892913029410e+00
 2.254804970296585e-01	 1.539455583090400e+00	 2.639587523421660e+00
 2.119708812507968e-01	 1.541373830346541e+00	 2.634201905706560e+00
 1.984847709510047e-01	 1.543168409820991e+00	 2.621780634642167e+00
 1.850236784658633e-01	 1.544840186778444e+00	 2.603389459656700e+00
 1.715890918218799e-01	 1.546390047405068e+00	 2.580117283507762e+00
 1.581824744706486e-01	 1.547818898122745e+00	 2.553078052068309e+00
 1.448052650432924e-01	 1.549127664902857e+00	 2.523412549612830e+00
 1.314588771249771e-01	 1.550317292580228e+00	 2.492290094671492e+00
 2.676440829547879e-01	 1.541643507076409e+00	 2.618791740873183e+00
 2.539963065416587e-01	 1.543950739781967e+00	 2.645468256287486e+00
 2.403674624681990e-01	 1.546131126017801e+00	 2.662791132586178e+00
 2.267591431760836e-01	 1.548185468711358e+00	 2.671364284642154e+00
 2.131729175863037e-01	 1.550114593889945e+00	 2.671818290178873e+00
 1.996103307695577e-01	 1.551919349996329e+00	 2.664812886490211e+00
 1.860729036375554e-01	 1.553600607201934e+00	 2.651039369052069e+00
 1.725621326550812e-01	 1.555159256718291e+00	 2.631222884961751e+00
 1.590794895726473e-01	 1.556596210107402e+00	 2.606124614925196e+00
 1.456264211795432e-01	 1.557912398591630e+00	 2.576543838276849e+00
 1.322043490770718e-01	 1.559108772363745e+00	 2.543319876259450e+00
 2.691532705033814e-01	 1.550336503980869e+00	 2.627579092959285e+00
 2.554285372076425e-01	 1.552656746676170e+00	 2.654335593678735e+00
 2.417228430068760e-01	 1.554849427641667e+00	 2.673149176289566e+00
 2.280377893222278e-01	 1.556915354332362e+00	 2.684252880026604e+00
 2.143749539215315e-01	 1.558855357433372e+00	 2.687910559797684e+00
 2.007358905878413e-01	 1.560670290171667e+00	 2.684419832974284e+00
 1.871221288089945e-01	 1.562361027625399e+00	 2.674114909979617e+00
 1.735351734880523e-01	 1.563928466031469e+00	 2.657369301365925e+00
 1.599765046744442e-01	 1.565373522091998e+00	 2.634598394909611e+00
 1.464475773156259e-01	 1.566697132280327e+00	 2.606261897068344e+00
 1.329498210290364e-01	 1.567900252147179e+00	 2.572866133935907e+00
 2.706624580517231e-01	 1.559029500885329e+00	 2.628584627433390e+00
 2.568607678733580e-01	 1.561362753570373e+00	 2.651303519421231e+00
 2.430782235452811e-01	 1.563567729265533e+00	 2.668049026079678e+00
 2.293164354681073e-01	 1.565645239953367e+00	 2.678716801318931e+00
 2.155769902565106e-01	 1.567596120976798e+00	 2.683231993697728e+00
 2.018614504058989e-01	 1.569421230347005e+00	 2.681552732410577e+00
 1.881713539802353e-01	 1.571121448048864e+00	 2.673673483490707e+00
 1.745082143208551e-01	 1.572697675344647e+00	 2.659628268425858e+00
 1.608735197761037e-01	 1.574150834076592e+00	 2.639493738274002e+00
 1.472687334516011e-01	 1.575481865969024e+00	 2.613392097232955e+00
 1.336952929809201e-01	 1.576691731930613e+00	 2.581493870459130e+00
 2.721716455997967e-01	 1.567722497789690e+00	 2.620875241646347e+00
 2.582929985387967e-01	 1.570068760464489e+00	 2.635990860827709e+00
 2.444336040834171e-01	 1.572286030889331e+00	 2.647572086206666e+00
 2.305950816137382e-01	 1.574375125574324e+00	 2.655210477173143e+00
 2.167790265912712e-01	 1.576336884520202e+00	 2.658520350975124e+00
 2.029870102237739e-01	 1.578172170522343e+00	 2.657142896170309e+00
 1.892205791513319e-01	 1.579881868472354e+00	 2.650750147183643e+00
 1.754812551535516e-01	 1.581466884657869e+00	 2.639048811425670e+00
 1.617705348776905e-01	 1.582928146061250e+00	 2.621783941369132e+00
 1.480898895875295e-01	 1.584266599657797e+00	 2.598742444899985e+00
 1.344407649327723e-01	 1.585483211714131e+00	 2.569756428151047e+00
 2.736808331475863e-01	 1.576415494693853e+00	 2.603539666425026e+00
 2.597252292039504e-01	 1.578774767358436e+00	 2.608026095514041e+00
 2.457889846212869e-01	 1.581004332512994e+00	 2.611799193471131e+00
 2.318737277591369e-01	 1.583105011195190e+00	 2.614179520463903e+00
 2.179810629258437e-01	 1.585077648063559e+00	 2.614498298804464e+00
 2.041125700415098e-01	 1.586923110697683e+00	 2.612102241293569e+00
 1.902698043223391e-01	 1.588642288895891e+00	 2.606358235993505e+00
 1.764542959862037e-01	 1.590236093971183e+00	 2.596657877896642e+00
 1.626675499792689e-01	 1.591705458046034e+00	 2.582421838951493e+00
 1.489110457234718e-01	 1.593051333346724e+00	 2.563104068879138e+00
 1.351862368846424e-01	 1.594274691497817e+00	 2.538195820156778e+00
 2.751900206950757e-01	 1.585108491597720e+00	 2.575687853698517e+00
 2.611574598688104e-01	 1.587480774252124e+00	 2.567047076934348e+00
 2.471443651588935e-01	 1.589722634136455e+00	 2.560810626443632e+00
 2.331523739043196e-01	 1.591834896815916e+00	 2.556060966852287e+00
 2.191830992602580e-01	 1.593818411606847e+00	 2.551873825933611e+00
 2.052381298591504e-01	 1.595674050873026e+00	 2.547323824451570e+00
 1.913190294933112e-01	 1.597402709319500e+00	 2.541489962149724e+00
 1.774273368188733e-01	 1.599005303284631e+00	 2.533460949120663e+00
 1.635645650809033e-01	 1.600482770031007e+00	 2.522340372838572e+00
 1.497322018594886e-01	 1.601836067035880e+00	 2.507251692161048e+00
 1.359317088365796e-01	 1.603066171281757e+00	 2.487343050602745e+00
 2.766992082422489e-01	 1.593801488501192e+00	 2.536450383317856e+00
 2.625896905333688e-01	 1.596186781145472e+00	 2.512700768136910e+00
 2.484997456962398e-01	 1.598440935759645e+00	 2.494686113702338e+00
 2.344310200493027e-01	 1.600564782436457e+00	 2.481283504940507e+00
 2.203851355945446e-01	 1.602559175150043e+00	 2.471340642114515e+00
 2.063636896767386e-01	 1.604424991048371e+00	 2.463682357969617e+00
 1.923682546643027e-01	 1.606163129743204e+00	 2.457116995096911e+00
 1.784003776516225e-01	 1.607774512598260e+00	 2.450442631276610e+00
 1.644615801826584e-01	 1.609260082016233e+00	 2.442453141662210e+00
 1.505533579956408e-01	 1.610620800725342e+00	 2.431944087743600e+00
 1.366771807886333e-01	 1.611857651066033e+00	 2.417718424077243e+00
 1.292224612674189e-01	 1.523942853228325e+00	 2.204467388880643e+00
 1.161370045432490e-01	 1.524995907719813e+00	 2.204199260355327e+00
 1.030845074523524e-01	 1.525933799106504e+00	 2.211474279665080e+00
 9.006625410705957e-02	 1.526757506934695e+00	 2.224898813484531e+00
 7.708350413538470e-02	 1.527468026584641e+00	 2.243097750472831e+00
 6.413749255031878e-02	 1.528066368615300e+00	 2.264719871638086e+00
 5.122942963663374e-02	 1.528553558112195e+00	 2.288443009243478e+00
 3.836050085490671e-02	 1.528930634038844e+00	 2.312978990137742e+00
 2.553186676246194e-02	 1.529198648592264e+00	 2.337078360126665e+00
 1.274466295091584e-02	 1.529358666562981e+00	 2.359534886706189e+00
 0.000000000000000e+00	 1.529411764700000e+00	 2.379189838284045e+00
 1.299679332201999e-01	 1.532734333012601e+00	 2.323459577712970e+00
 1.168069877544363e-01	 1.533793462474074e+00	 2.308312497547415e+00
 1.036791920629995e-01	 1.534736764465901e+00	 2.296058755225525e+00
 9.058583766610906e-02	 1.535565224185284e+00	 2.286515141164542e+00
 7.752819145842089e-02	 1.536279842754725e+00	 2.279487388605671e+00
 6.450749557756634e-02	 1.536881636562999e+00	 2.274774898248620e+00
 5.152496729030349e-02	 1.537371636609242e+00	 2.272175303612936e+00
 3.858179889598756e-02	 1.537750887850650e+00	 2.271488872449409e+00
 2.567915764705685e-02	 1.538020448554258e+00	 2.272522740191475e+00
 1.281818568621749e-02	 1.538181389653266e+00	 2.275094972075863e+00
 0.000000000000000e+00	 1.538234794108333e+00	 2.279038451301103e+00
 1.307134051727029e-01	 1.541525812796541e+00	 2.419199783173230e+00
 1.174769709654458e-01	 1.542591017227994e+00	 2.392652021034828e+00
 1.042738766735866e-01	 1.543539729824975e+00	 2.364692577641208e+00
 9.110542122522107e-02	 1.544372941435584e+00	 2.336251361725032e+00
 7.797287878163402e-02	 1.545091658924567e+00	 2.308222591551036e+00
 6.487749860508464e-02	 1.545696904510509e+00	 2.281468857538176e+00
 5.182050494430460e-02	 1.546189715106154e+00	 2.256825072106995e+00
 3.880309693741504e-02	 1.546571141662372e+00	 2.235102301710139e+00
 2.582644853195619e-02	 1.546842248516213e+00	 2.217091476606630e+00
 1.289170842171192e-02	 1.547004112743540e+00	 2.203566974518741e+00
 0.000000000000000e+00	 1.547057823516667e+00	 2.195290074985068e+00
 1.314588771249771e-01	 1.550317292580228e+00	 2.492290094671492e+00
 1.181469541763070e-01	 1.551388571981657e+00	 2.457529115495437e+00
 1.048685612841183e-01	 1.552342695183805e+00	 2.417469996787989e+00
 9.162500478437302e-02	 1.553180658685667e+00	 2.374059755459467e+00
 7.841756610497545e-02	 1.553903475094228e+00	 2.329189970688263e+00
 6.524750163280341e-02	 1.554512172457876e+00	 2.284700168487516e+00
 5.211604259855294e-02	 1.555007793602966e+00	 2.242381134358040e+00
 3.902439497910197e-02	 1.555391395474033e+00	 2.203978148812345e+00
 2.597373941708367e-02	 1.555664048478137e+00	 2.171194141097304e+00
 1.296523115735092e-02	 1.555826835833806e+00	 2.145692756962867e+00
 0.000000000000000e+00	 1.555880852925000e+00	 2.129101336937696e+00
 1.322043490770718e-01	 1.559108772363745e+00	 2.543319876259450e+00
 1.188169373870500e-01	 1.560186126735149e+00	 2.503248819485422e+00
 1.054632458945994e-01	 1.561145660542473e+00	 2.454483825301076e+00
 9.214458834354247e-02	 1.561988375935605e+00	 2.399894274714497e+00
 7.886225342839680e-02	 1.562715291263768e+00	 2.342279191306743e+00
 6.561750466065261e-02	 1.563327440405150e+00	 2.284369931932836e+00
 5.241158025296448e-02	 1.563825872099712e+00	 2.228832840780478e+00
 3.924569302096115e-02	 1.564211649285652e+00	 2.178271861589305e+00
 2.612103030236307e-02	 1.564485848440041e+00	 2.135231103319727e+00
 1.303875389308628e-02	 1.564649558924066e+00	 2.102197355025115e+00
 0.000000000000000e+00	 1.564703882333334e+00	 2.081602546235902e+00
 1.329498210290364e-01	 1.567900252147179e+00	 2.572866133935907e+00
 1.194869205977044e-01	 1.568983681488557e+00	 2.530110111401658e+00
 1.060579305050347e-01	 1.569948625901061e+00	 2.475825489705975e+00
 9.266417190270691e-02	 1.570796093185471e+00	 2.413710507525306e+00
 7.930694075184948e-02	 1.571527107433247e+00	 2.347382896867818e+00
 6.598750768856204e-02	 1.572142708352377e+00	 2.280381864324688e+00
 5.270711790745506e-02	 1.572643950596423e+00	 2.216170065407926e+00
 3.946699106290542e-02	 1.573031903097251e+00	 2.158135566985002e+00
 2.626832118771809e-02	 1.573307648401937e+00	 2.109593793254159e+00
 1.311227662886979e-02	 1.573472282014324e+00	 2.073789451116705e+00
 0.000000000000000e+00	 1.573526911741667e+00	 2.053898431301646e+00
 1.336952929809201e-01	 1.576691731930613e+00	 2.581493870459130e+00
 1.201569038083001e-01	 1.577781236241964e+00	 2.538406089058036e+00
 1.066526151154288e-01	 1.578751591259648e+00	 2.481585079709704e+00
 9.318375546184397e-02	 1.579603810435338e+00	 2.415465642369490e+00
 7.975162807528487e-02	 1.580338923602726e+00	 2.344396635729064e+00
 6.635751071646155e-02	 1.580957976299603e+00	 2.272642233653861e+00
 5.300265556194057e-02	 1.581462029093134e+00	 2.204383198938816e+00
 3.968828910484756e-02	 1.581852156908849e+00	 2.143718169788433e+00
 2.641561207307251e-02	 1.582129448363831e+00	 2.094664954811647e+00
 1.318579936465323e-02	 1.582295005104581e+00	 2.061161832685321e+00
 0.000000000000000e+00	 1.582349941150001e+00	 2.047068853085968e+00
 1.344407649327723e-01	 1.585483211714131e+00	 2.569756428151047e+00
 1.208268870188669e-01	 1.586578790995455e+00	 2.528424143123566e+00
 1.072472997257866e-01	 1.587554556618316e+00	 2.471851395723777e+00
 9.370333902093100e-02	 1.588411527685276e+00	 2.405118433996122e+00
 8.019631539865456e-02	 1.589150739772266e+00	 2.333218790235451e+00
 6.672751374428097e-02	 1.589773244246877e+00	 2.261059797460071e+00
 5.329819321633694e-02	 1.590280107589879e+00	 2.193463141982332e+00
 3.990958714670042e-02	 1.590672410720468e+00	 2.135165448065702e+00
 2.656290295835006e-02	 1.590951248325736e+00	 2.090818890995674e+00
 1.325932210038839e-02	 1.591117728194842e+00	 2.064991835209615e+00
 0.000000000000000e+00	 1.591172970558334e+00	 2.062169494525407e+00
 1.351862368846424e-01	 1.594274691497817e+00	 2.538195820156778e+00
 1.214968702294345e-01	 1.595376345749119e+00	 2.500446124659257e+00
 1.078419843361127e-01	 1.596357521977147e+00	 2.446711994687170e+00
 9.422292257994572e-02	 1.597219244935359e+00	 2.382629170288454e+00
 8.064100272190992e-02	 1.597962555941926e+00	 2.313750508086005e+00
 6.709751677195017e-02	 1.598588512194245e+00	 2.245545742843126e+00
 5.359373087056002e-02	 1.599098186086691e+00	 2.183401298496990e+00
 4.013088518837676e-02	 1.599492664532128e+00	 2.132620145417405e+00
 2.671019384347448e-02	 1.599773048287660e+00	 2.098421700944655e+00
 1.333284483602705e-02	 1.599940451285107e+00	 2.085941770534670e+00
 0.000000000000000e+00	 1.599995999966668e+00	 2.100232527186684e+00
 1.359317088365796e-01	 1.603066171281757e+00	 2.487343050602745e+00
 1.221668534400328e-01	 1.604173900503038e+00	 2.454748506980315e+00
 1.084366689464120e-01	 1.605160487336221e+00	 2.406253234254569e+00
 9.474250613886555e-02	 1.606026962185658e+00	 2.347959640120629e+00
 8.108569004500246e-02	 1.606774372111768e+00	 2.285895635888602e+00
 6.746751979939895e-02	 1.607403780141754e+00	 2.226013628399691e+00
 5.388926852452577e-02	 1.607916264583604e+00	 2.174189569414417e+00
 4.035218322978945e-02	 1.608312918343851e+00	 2.136222060183162e+00
 2.685748472836951e-02	 1.608594848249614e+00	 2.117831509166979e+00
 1.340636757152100e-02	 1.608763174375381e+00	 2.124659341111140e+00
 0.000000000000000e+00	 1.608819029375000e+00	 2.162267255975366e+00
 1.366771807886333e-01	 1.611857651066033e+00	 2.417718424077243e+00
 1.228368366506916e-01	 1.612971455257300e+00	 2.391602542060308e+00
 1.090313535566891e-01	 1.613963452695617e+00	 2.350560315412335e+00
 9.526208969766804e-02	 1.614834679436247e+00	 2.301073102170471e+00
 8.153037736788364e-02	 1.615586188281853e+00	 2.249560654819437e+00
 6.783752282655720e-02	 1.616219048089453e+00	 2.202379328012077e+00
 5.418480617815002e-02	 1.616734343080651e+00	 2.165820346441314e+00
 4.057348127085128e-02	 1.617133172155657e+00	 2.146108131709880e+00
 2.700477561295891e-02	 1.617416648211609e+00	 2.149398687266702e+00
 1.347989030682204e-02	 1.617585897465666e+00	 2.181778040676283e+00
 0.000000000000000e+00	 1.617642058783334e+00	 2.249260742745986e+00
 1.617642058783334e+00	 0.000000000000000e+00	 7.512981504391298e-01
 1.617585897465666e+00	 1.347989030682115e-02	 6.716757033812821e-01
 1.617416648211609e+00	 2.700477561295814e-02	 6.996640086925492e-01
 1.617133172155657e+00	 4.057348127085064e-02	 8.057701191788549e-01
 1.616734343080650e+00	 5.418480617814950e-02	 9.620395396805153e-01
 1.616219048089453e+00	 6.783752282655682e-02	 1.142106977990361e+00
 1.615586188281852e+00	 8.153037736788341e-02	 1.321246657674069e+00
 1.614834679436247e+00	 9.526208969766795e-02	 1.476422101020307e+00
 1.613963452695617e+00	 1.090313535566891e-01	 1.586335278440052e+00
 1.612971455257299e+00	 1.228368366506917e-01	 1.631475017957323e+00
 1.611857651066033e+00	 1.366771807886334e-01	 1.594164566069256e+00
 1.626466587363230e+00	 0.000000000000000e+00	 1.353179838096234e+00
 1.626410119675477e+00	 1.355342553456704e-02	 7.735491789292839e-01
 1.626239947136310e+00	 2.715209152423106e-02	 4.435489584907093e-01
 1.625954924667503e+00	 4.079481691352500e-02	 3.168491131415112e-01
 1.625553919908178e+00	 5.448039404787752e-02	 3.490960755187376e-01
 1.625035813890140e+00	 6.820758872271934e-02	 4.979952101296037e-01
 1.624399501718476e+00	 8.197514024990128e-02	 7.233930503700667e-01
 1.623643893256957e+00	 9.578176154176929e-02	 9.873592029725677e-01
 1.622767913817755e+00	 1.096261392132306e-01	 1.254267772216834e+00
 1.621770504854973e+00	 1.235069337021329e-01	 1.490878151869175e+00
 1.620650624661481e+00	 1.374227794082651e-01	 1.666415028816174e+00
 1.635291110942501e+00	 0.000000000000000e+00	 2.063601623721624e+00
 1.635234336884848e+00	 1.362696072045005e-02	 1.006257174659773e+00
 1.635063241061123e+00	 2.729940735172182e-02	 3.176681139256798e-01
 1.634776672180379e+00	 4.101615243043206e-02	-5.985342665591942e-02
 1.634373491738018e+00	 5.477598174977760e-02	-1.817084804822782e-01
 1.633852574694785e+00	 6.857765440890817e-02	-1.009067952215679e-01
 1.633212810161064e+00	 8.241990287970458e-02	 1.320375779199432e-01
 1.632453102085998e+00	 9.630143309131031e-02	 4.692104905449667e-01
 1.631572369950946e+00	 1.102209245327511e-01	 8.654015199299301e-01
 1.630569549466778e+00	 1.241770303739671e-01	 1.278207223753461e+00
 1.629443593274491e+00	 1.381683776055684e-01	 1.668133636881069e+00
 1.644115624520522e+00	 0.000000000000000e+00	 2.819308808163726e+00
 1.644058544093324e+00	 1.370049582284849e-02	 1.333270576265653e+00
 1.643886524986109e+00	 2.744672301203027e-02	 3.083379887887530e-01
 1.643598409695212e+00	 4.123748769624271e-02	-3.191527933571852e-01
 1.643193053572317e+00	 5.507156911644759e-02	-6.103948669229780e-01
 1.642669325507112e+00	 6.894771967551033e-02	-6.239936968010520e-01
 1.642026108615282e+00	 8.286466500533883e-02	-4.158501886986765e-01
 1.641262300931342e+00	 9.682110405187060e-02	-3.904390639368360e-02
 1.640376816105841e+00	 1.108157091782467e-01	 4.562833683597258e-01
 1.639368584106420e+00	 1.248471262864970e-01	 1.023043528950633e+00
 1.638236551922202e+00	 1.389139749580493e-01	 1.617317279908858e+00
 1.652940123096667e+00	 0.000000000000000e+00	 3.558380808341680e+00
 1.652882736300451e+00	 1.377403080014068e-02	 1.718826081086940e+00
 1.652709793911329e+00	 2.759403842175629e-02	 4.021553200206442e-01
 1.652420132212929e+00	 4.145882258562784e-02	-4.559848368769677e-01
 1.652012600413221e+00	 5.536715598048526e-02	-9.174182853728214e-01
 1.651486061330844e+00	 6.931778431291304e-02	-1.041319613134311e+00
 1.650839392086791e+00	 8.330942637484934e-02	-8.840942215672269e-01
 1.650071484800959e+00	 9.734077412902960e-02	-4.992586000956918e-01
 1.649181247293090e+00	 1.114104928127139e-01	 6.267904243742728e-02
 1.648167603787603e+00	 1.255172210600252e-01	 7.543375781040487e-01
 1.647029495621756e+00	 1.396595710432135e-01	 1.531580974794424e+00
 1.661764601670313e+00	 0.000000000000000e+00	 4.220195722117576e+00
 1.661706908505775e+00	 1.384756561070495e-02	 2.127905898953457e+00
 1.661533042836846e+00	 2.774135349749974e-02	 5.859897024672107e-01
 1.661241834734455e+00	 4.168015697325835e-02	-4.654026525162749e-01
 1.660832127262873e+00	 5.566274217448843e-02	-1.083656724144083e+00
 1.660302777169703e+00	 6.968784811150329e-02	-1.323580446980906e+00
 1.659652655581256e+00	 8.375418673628164e-02	-1.237290779358364e+00
 1.658880648702818e+00	 9.786044302836691e-02	-8.741005779829412e-01
 1.657985658523342e+00	 1.120052750991488e-01	-2.804058988308040e-01
 1.656966603524032e+00	 1.261873143148546e-01	 5.004260704520476e-01
 1.655822419390292e+00	 1.404051654385669e-01	 1.428168235688228e+00
 1.670589055240833e+00	 0.000000000000000e+00	 4.745396012910232e+00
 1.670531055708842e+00	 1.392110021291962e-02	 2.526218094487816e+00
 1.670356266762721e+00	 2.788866815586049e-02	 8.469764563531477e-01
 1.670063512260718e+00	 4.190149073380513e-02	-3.425733743208050e-01
 1.669651629123421e+00	 5.595832753105487e-02	-1.090399651265737e+00
 1.669119468027414e+00	 7.005791086166832e-02	-1.442096768739432e+00
 1.668465894104338e+00	 8.419894583768114e-02	-1.440787823214801e+00
 1.667689787644890e+00	 9.838011045546205e-02	-1.127027543416113e+00
 1.666790044807246e+00	 1.126000557005478e-01	-5.387057699095181e-01
 1.665765578329411e+00	 1.268574056712876e-01	 2.890483291101527e-01
 1.664615318244948e+00	 1.411507577216153e-01	 1.323961114209151e+00
 1.679413478807604e+00	 0.000000000000000e+00	 5.075855272991221e+00
 1.679355172909198e+00	 1.399463456516301e-02	 2.880177547346825e+00
 1.679179460689016e+00	 2.803598231343839e-02	 1.172509718938907e+00
 1.678885159792644e+00	 4.212282374193910e-02	-8.277506934180745e-02
 1.678471100997010e+00	 5.625391188278244e-02	-9.193370631212305e-01
 1.677936128907697e+00	 7.042797235379507e-02	-1.368797238315961e+00
 1.677279102661701e+00	 8.464370342709324e-02	-1.460665080321747e+00
 1.676498896635147e+00	 9.889977611589459e-02	-1.222266938236092e+00
 1.675594401155452e+00	 1.131948342799072e-01	-6.786751054232116e-01
 1.674564523217445e+00	 1.275274947496271e-01	 1.473622180679830e-01
 1.673408187202868e+00	 1.418963474698645e-01	 1.235489921954800e+00
 1.688237867370000e+00	 0.000000000000000e+00	 5.154646026114253e+00
 1.688179255106389e+00	 1.406816862581345e-02	 3.156887507859256e+00
 1.688002619615791e+00	 2.818329588683332e-02	 1.550235752181217e+00
 1.687706772331160e+00	 4.234415587233111e-02	 3.186062708777428e-01
 1.687290537885786e+00	 5.654949506226892e-02	-5.525488757781873e-01
 1.686752754814276e+00	 7.079803237827080e-02	-1.076202545816411e+00
 1.686092276259008e+00	 8.508845925256343e-02	-1.263714731549309e+00
 1.685307970681557e+00	 9.941943971524404e-02	-1.124795622210666e+00
 1.684398722578610e+00	 1.137896105002232e-01	-6.674696226777419e-01
 1.683363433201838e+00	 1.281975811701757e-01	 1.019595598049881e-01
 1.682201021281189e+00	 1.426419342608202e-01	 1.178942646895390e+00
 1.697062215927397e+00	 0.000000000000000e+00	 4.926008531762051e+00
 1.697003297299960e+00	 1.414170235324925e-02	 3.324121726453201e+00
 1.696825738543109e+00	 2.833060879264513e-02	 1.968046458559843e+00
 1.696528344877194e+00	 4.256548699965210e-02	 8.660796451204851e-01
 1.696109934791894e+00	 5.684507690211212e-02	 2.750535342442229e-02
 1.695569340750875e+00	 7.116809072548257e-02	-5.374098522376727e-01
 1.694905409901922e+00	 8.553321306213711e-02	-8.174227005207042e-01
 1.694117004792092e+00	 9.993910095908996e-02	-8.003201855505053e-01
 1.693203004087369e+00	 1.143843840244923e-01	-4.729277776688754e-01
 1.692162303296296e+00	 1.288676645532361e-01	 1.788810716424400e-01
 1.690993815497055e+00	 1.433875176719886e-01	 1.170174074756757e+00
 1.705886519479168e+00	 0.000000000000000e+00	 4.335320554849468e+00
 1.705827294489459e+00	 1.421523570584876e-02	 3.350307136157605e+00
 1.705648812471032e+00	 2.847792094747371e-02	 2.414073097551709e+00
 1.705349872431669e+00	 4.278681699857291e-02	 1.564051866995478e+00
 1.704929286717479e+00	 5.714065723490981e-02	 8.379963859526880e-01
 1.704385881721215e+00	 7.153814718581744e-02	 2.739222878920402e-01
 1.703718498596106e+00	 8.597796460385973e-02	-8.995052239568579e-02
 1.702925993974722e+00	 1.004587595530119e-01	-2.152578716423221e-01
 1.702007240692379e+00	 1.149791545157106e-01	-6.355289315438517e-02
 1.700961128514523e+00	 1.295377445191110e-01	 4.036308382053218e-01
 1.699786564867602e+00	 1.441330972808752e-01	 1.224714626040227e+00
 1.611857651066033e+00	 1.366771807886334e-01	 1.594164566069255e+00
 1.610620800725342e+00	 1.505533579956402e-01	 1.550635584257947e+00
 1.609260082016233e+00	 1.644615801826577e-01	 1.589466243550757e+00
 1.607774512598260e+00	 1.784003776516219e-01	 1.712555751336793e+00
 1.606163129743204e+00	 1.923682546643022e-01	 1.921378612922455e+00
 1.604424991048371e+00	 2.063636896767381e-01	 2.216961986306193e+00
 1.602559175150043e+00	 2.203851355945442e-01	 2.599863216413113e+00
 1.600564782436457e+00	 2.344310200493024e-01	 3.070147574239173e+00
 1.598440935759645e+00	 2.484997456962395e-01	 3.627366228103985e+00
 1.596186781145472e+00	 2.625896905333687e-01	 4.270534476202931e+00
 1.593801488501192e+00	 2.766992082422489e-01	 4.998110271885391e+00
 1.620650624661481e+00	 1.374227794082651e-01	 1.666415028816174e+00
 1.619407027079671e+00	 1.513746536593318e-01	 1.819092107958732e+00
 1.618038885405196e+00	 1.653587477015729e-01	 2.010783185707051e+00
 1.616545211938770e+00	 1.793735838194572e-01	 2.247625756901938e+00
 1.614925038700317e+00	 1.934176581152332e-01	 2.535005324845217e+00
 1.613177418146170e+00	 2.074894407446446e-01	 2.877520442638693e+00
 1.611301423886408e+00	 2.215873761736283e-01	 3.278948061709725e+00
 1.609296151401727e+00	 2.357098834562133e-01	 3.742209233290855e+00
 1.607160718759159e+00	 2.498553565338243e-01	 4.269335210766669e+00
 1.604894267325988e+00	 2.640221645561615e-01	 4.861434003163424e+00
 1.602495962481167e+00	 2.782086522238208e-01	 5.518657432646048e+00
 1.629443593274491e+00	 1.381683776055684e-01	 1.668133636881069e+00
 1.628193248455343e+00	 1.521959488578245e-01	 2.029235948349427e+00
 1.626817683819643e+00	 1.662559147122843e-01	 2.386879847804465e+00
 1.625315906309269e+00	 1.803467894359614e-01	 2.750258527922936e+00
 1.623686942692302e+00	 1.944670609715952e-01	 3.127585381130710e+00
 1.621929840284107e+00	 2.086151911746459e-01	 3.526050271453165e+00
 1.620043667668570e+00	 2.227896160713845e-01	 3.951776194771865e+00
 1.618027515418851e+00	 2.369887461383005e-01	 4.409776387050832e+00
 1.615880496816994e+00	 2.512109666030279e-01	 4.903911942540315e+00
 1.613601748571710e+00	 2.654546377669675e-01	 5.436850006623304e+00
 1.611190431533655e+00	 2.797180953497652e-01	 6.010022610837848e+00
 1.638236551922202e+00	 1.389139749580493e-01	 1.617317279908858e+00
 1.636979459873319e+00	 1.530172431257230e-01	 2.186163175340023e+00
 1.635596472284742e+00	 1.671530807064029e-01	 2.712014184335359e+00
 1.634086590739525e+00	 1.813199939496616e-01	 3.205958613446564e+00
 1.632448836753914e+00	 1.955164626387451e-01	 3.677975597207555e+00
 1.630682252502318e+00	 2.097409403288453e-01	 4.136886111275514e+00
 1.628785901542440e+00	 2.239918546065830e-01	 4.590304408990006e+00
 1.626758869539914e+00	 2.382676073709237e-01	 5.044589948229909e+00
 1.624600264991807e+00	 2.525665751357271e-01	 5.504799878103498e+00
 1.622309219948267e+00	 2.668871093541108e-01	 5.974642157875238e+00
 1.619884890731665e+00	 2.812275367647870e-01	 6.456429383613819e+00
 1.647029495621756e+00	 1.396595710432135e-01	 1.531580974794424e+00
 1.645765656354561e+00	 1.538385359976326e-01	 2.294864955422509e+00
 1.644375245825661e+00	 1.680502451755395e-01	 2.980572106381995e+00
 1.642857260259301e+00	 1.822931968090853e-01	 3.600546791997100e+00
 1.641210715919905e+00	 1.965658625220402e-01	 4.165492248939946e+00
 1.639434649840937e+00	 2.108666875693464e-01	 4.684919819016555e+00
 1.637528120553928e+00	 2.251940910979935e-01	 5.167098594462066e+00
 1.635490208817002e+00	 2.395464664294424e-01	 5.619005543511513e+00
 1.633320018342258e+00	 2.539221813637981e-01	 6.046276186785262e+00
 1.631016676521292e+00	 2.683195785059148e-01	 6.453155898028336e+00
 1.628579335148205e+00	 2.827369756135909e-01	 6.842451905969961e+00
 1.655822419390292e+00	 1.404051654385669e-01	 1.428168235688228e+00
 1.654551832920027e+00	 1.546598270081577e-01	 2.360230570397744e+00
 1.653153999467569e+00	 1.689474076113055e-01	 3.187064317224544e+00
 1.651627909898363e+00	 1.832663974627599e-01	 3.920151904743479e+00
 1.649972575225027e+00	 1.976152600268374e-01	 4.569899095959661e+00
 1.648187027340098e+00	 2.119924322582525e-01	 5.145585887388198e+00
 1.646270319748946e+00	 2.263963248643860e-01	 5.655317764097362e+00
 1.644221528302200e+00	 2.408253225892167e-01	 6.105977372980276e+00
 1.642039751927005e+00	 2.552777845191178e-01	 6.503176679321432e+00
 1.639724113356420e+00	 2.697520444107033e-01	 6.851209674775712e+00
 1.637273759856283e+00	 2.842464110408821e-01	 7.153005708184006e+00
 1.664615318244948e+00	 1.411507577216153e-01	 1.323961114209151e+00
 1.663337984590680e+00	 1.554811156919036e-01	 2.387050338115897e+00
 1.661932728235633e+00	 1.698445675053118e-01	 3.326123244812316e+00
 1.660398534686476e+00	 1.842395953592128e-01	 4.151202943029382e+00
 1.658734409704035e+00	 1.986646545584939e-01	 4.871395779131531e+00
 1.656939380039935e+00	 2.131181737576670e-01	 5.494847318137863e+00
 1.655012494173407e+00	 2.275985552245304e-01	 6.028698578798534e+00
 1.652952823047595e+00	 2.421041751256061e-01	 6.479042573147357e+00
 1.650759460804705e+00	 2.566333838335624e-01	 6.850881203689959e+00
 1.648431525519279e+00	 2.711845062568001e-01	 7.148082574412062e+00
 1.645968159928908e+00	 2.857558421913653e-01	 7.373338775112093e+00
 1.673408187202868e+00	 1.418963474698645e-01	 1.235489921954801e+00
 1.672124106387480e+00	 1.563024015834751e-01	 2.380018438819611e+00
 1.670711427155022e+00	 1.707417243491695e-01	 3.392500067544094e+00
 1.669169129653405e+00	 1.852127899469711e-01	 4.280421380936222e+00
 1.667496214391682e+00	 1.997140455223665e-01	 5.050606578430736e+00
 1.665691702980585e+00	 2.142439114296938e-01	 5.709181934383453e+00
 1.663754638873219e+00	 2.288007814971963e-01	 6.261540353418598e+00
 1.661684088105270e+00	 2.433830233139704e-01	 6.712306065105199e+00
 1.659479140034019e+00	 2.579889785390085e-01	 7.065299492823547e+00
 1.657138908075503e+00	 2.726169632325287e-01	 7.323502334607093e+00
 1.654662530439087e+00	 2.872652682097453e-01	 7.489022897008160e+00
 1.682201021281189e+00	 1.426419342608202e-01	 1.178942646895390e+00
 1.680910193331387e+00	 1.571236842174772e-01	 2.343735650531027e+00
 1.679490091250905e+00	 1.716388776344895e-01	 3.381061829950530e+00
 1.677939689828916e+00	 1.861859806745624e-01	 4.294813743937882e+00
 1.676257984322722e+00	 2.007634323238126e-01	 5.088569518082338e+00
 1.674443991202181e+00	 2.153696446364358e-01	 5.765569116030107e+00
 1.672496748894298e+00	 2.300030030011540e-01	 6.328690525954155e+00
 1.670415318527312e+00	 2.446618664296693e-01	 6.780425870113168e+00
 1.668198784673604e+00	 2.593445678673327e-01	 7.122857447715219e+00
 1.665846256090725e+00	 2.740494145262128e-01	 7.357633724045419e+00
 1.663356866459828e+00	 2.887746882407271e-01	 7.485945281961498e+00
 1.690993815497055e+00	 1.433875176719886e-01	 1.170174074756757e+00
 1.689696240443363e+00	 1.579449631285147e-01	 2.282711996780203e+00
 1.688268715548449e+00	 1.725360268528830e-01	 3.286788645013845e+00
 1.686710210242772e+00	 1.871591669905140e-01	 4.181664405077338e+00
 1.685019714531905e+00	 2.018128143681890e-01	 4.966725806358959e+00
 1.683196239744859e+00	 2.164953727399969e-01	 5.641476942912970e+00
 1.681238819282553e+00	 2.312052190551732e-01	 6.205530573161897e+00
 1.679146509365806e+00	 2.459407037480627e-01	 6.658598875650642e+00
 1.676918389782119e+00	 2.607001510504113e-01	 7.000483840115832e+00
 1.674553564630576e+00	 2.754818593261764e-01	 7.231067275619605e+00
 1.672051163064140e+00	 2.902841014290156e-01	 7.350300420459289e+00
 1.699786564867602e+00	 1.441330972808752e-01	 1.224714626040227e+00
 1.698482242744367e+00	 1.587662378511926e-01	 2.201369309836684e+00
 1.697047295072823e+00	 1.734331714959610e-01	 3.104770979993813e+00
 1.695480685924739e+00	 1.881323483433532e-01	 3.928528600448291e+00
 1.693781400053988e+00	 2.028621910608528e-01	 4.666909597952523e+00
 1.691948443648752e+00	 2.176210951024801e-01	 5.314849730944675e+00
 1.689980845083896e+00	 2.324074289780237e-01	 5.867962356481186e+00
 1.687877655672838e+00	 2.472195345445101e-01	 6.322547035673704e+00
 1.685637950418222e+00	 2.620557273201210e-01	 6.675597419675406e+00
 1.683260828760689e+00	 2.769142968207428e-01	 6.924808360412319e+00
 1.680745415325032e+00	 2.917935069193159e-01	 7.068582192972573e+00
 1.593801488501192e+00	 2.766992082422489e-01	 4.998110271885393e+00
 1.591284691259338e+00	 2.908242263537434e-01	 5.670401697271292e+00
 1.588635214298862e+00	 3.049654517859350e-01	 6.149517882374754e+00
 1.585852302532892e+00	 3.191211722672210e-01	 6.435650994759481e+00
 1.582935227508338e+00	 3.332896528818207e-01	 6.528788629903739e+00
 1.579883288089227e+00	 3.474691365191284e-01	 6.428698869375721e+00
 1.576695811133212e+00	 3.616578443450141e-01	 6.134915464686262e+00
 1.573372152160505e+00	 3.758539762950537e-01	 5.661111820501323e+00
 1.569911696014492e+00	 3.900557115896419e-01	 5.149716407264299e+00
 1.566313857513235e+00	 4.042612092709107e-01	 4.635646566849349e+00
 1.562578082091108e+00	 4.184686087613524e-01	 4.116497068033786e+00
 1.602495962481167e+00	 2.782086522238208e-01	 5.518657432646049e+00
 1.599965435657536e+00	 2.924107248516120e-01	 6.108395948935060e+00
 1.597301505323543e+00	 3.066290932139739e-01	 6.499555061172225e+00
 1.594503412273176e+00	 3.208620356985422e-01	 6.693529622502301e+00
 1.591570424079493e+00	 3.351078079252470e-01	 6.691783601254549e+00
 1.588501835781692e+00	 3.493646431981160e-01	 6.495838424951547e+00
 1.585296970565304e+00	 3.636307529791469e-01	 6.107261131670407e+00
 1.581955180434782e+00	 3.779043273842289e-01	 5.554901873394574e+00
 1.578475846877712e+00	 3.921835357010632e-01	 4.987819039038254e+00
 1.574858381519876e+00	 4.064665269290135e-01	 4.428916437329506e+00
 1.571102226770384e+00	 4.207514303407746e-01	 3.878898228969607e+00
 1.611190431533655e+00	 2.797180953497652e-01	 6.010022610837850e+00
 1.608646175135986e+00	 2.939972224501950e-01	 6.502802687718908e+00
 1.605967791436650e+00	 3.082927336990454e-01	 6.795952416967122e+00
 1.603154517110488e+00	 3.226028981431904e-01	 6.891951493651064e+00
 1.600205615756710e+00	 3.369259619382693e-01	 6.793561952374752e+00
 1.597120378589678e+00	 3.512601488029425e-01	 6.503818869961242e+00
 1.593898125122802e+00	 3.656036604953347e-01	 6.026020616606479e+00
 1.590538203844771e+00	 3.799546773116462e-01	 5.407897169146978e+00
 1.587039992887372e+00	 3.943113586068852e-01	 4.796837155691466e+00
 1.583402900684101e+00	 4.086718433376451e-01	 4.207001497277268e+00
 1.579626366618807e+00	 4.230342506268229e-01	 3.641644531292121e+00
 1.619884890731665e+00	 2.812275367647870e-01	 6.456429383613820e+00
 1.617326904775478e+00	 2.955837182505238e-01	 6.844802457571928e+00
 1.614634067727157e+00	 3.099563722984526e-01	 7.035820214278181e+00
 1.611805612142400e+00	 3.243437586146905e-01	 7.032930591023018e+00
 1.608840797646567e+00	 3.387441138905927e-01	 6.840017306624666e+00
 1.605738911629190e+00	 3.531556522594577e-01	 6.461392005066828e+00
 1.602499269931555e+00	 3.675765657755433e-01	 5.901785747625171e+00
 1.599121217526589e+00	 3.820050249153675e-01	 5.231506874337570e+00
 1.595604129190281e+00	 3.964391791012510e-01	 4.587979767632213e+00
 1.591947410163843e+00	 4.108771572470237e-01	 3.979906602130671e+00
 1.588150496805859e+00	 4.253170683257905e-01	 3.412538855082590e+00
 1.628579335148205e+00	 2.827369756135909e-01	 6.842451905969960e+00
 1.626007619656798e+00	 2.971702113536303e-01	 7.125778419905164e+00
 1.623300329284035e+00	 3.116200080694980e-01	 7.216345207520662e+00
 1.620456692466479e+00	 3.260846161265676e-01	 7.118453066080742e+00
 1.617475964855642e+00	 3.405622627519219e-01	 6.836932900370001e+00
 1.614357430016230e+00	 3.550511524935114e-01	 6.377138398804937e+00
 1.611100400117410e+00	 3.695494677017393e-01	 5.744937916419895e+00
 1.607704216616352e+00	 3.840553690334547e-01	 5.036908081500862e+00
 1.604168250933248e+00	 3.985669959783040e-01	 4.372228017160637e+00
 1.600491905117031e+00	 4.130824674073677e-01	 3.757434333382934e+00
 1.596674612501020e+00	 4.275998821439713e-01	 3.199228658628735e+00
 1.637273759856283e+00	 2.842464110408821e-01	 7.153005708184008e+00
 1.634688314860732e+00	 2.987567008605458e-01	 7.337311046855105e+00
 1.631966571196259e+00	 3.132836400694843e-01	 7.334788646503566e+00
 1.629107753180294e+00	 3.278254696923462e-01	 7.150477973799642e+00
 1.626111112490514e+00	 3.423804074919620e-01	 6.789984465467572e+00
 1.622975928866803e+00	 3.569466484309533e-01	 6.259471837438014e+00
 1.619701510806219e+00	 3.715223651558893e-01	 5.566263226796672e+00
 1.616287196250179e+00	 3.861057085039698e-01	 4.835051899338862e+00
 1.612732353263084e+00	 4.006948080321880e-01	 4.160341128014830e+00
 1.609036380701594e+00	 4.152877725688949e-01	 3.549190237989403e+00
 1.605198708873770e+00	 4.298826907876586e-01	 3.009209941719923e+00
 1.645968159928908e+00	 2.857558421913653e-01	 7.373338775112093e+00
 1.643368985468068e+00	 3.003431858723023e-01	 7.471172972377840e+00
 1.640632788552800e+00	 3.149472673557145e-01	 7.388484334123370e+00
 1.637758789381415e+00	 3.295663183255516e-01	 7.130937972469270e+00
 1.634746235657761e+00	 3.441985470804180e-01	 6.704743007758524e+00
 1.631594403296914e+00	 3.588421389976334e-01	 6.116643620176498e+00
 1.628302597123831e+00	 3.734952570199594e-01	 5.378548722984164e+00
 1.624870151564186e+00	 3.881560421649748e-01	 4.636669341682238e+00
 1.621296431326598e+00	 4.028226140570464e-01	 3.962862157491189e+00
 1.617580832075464e+00	 4.174930714818240e-01	 3.364587892152408e+00
 1.613722781093592e+00	 4.321654929631462e-01	 2.849831072991839e+00
 1.654662530439087e+00	 2.872652682097453e-01	 7.489022897008160e+00
 1.652049626559594e+00	 3.019296654899313e-01	 7.519323995386658e+00
 1.649298976442632e+00	 3.166108889854911e-01	 7.374836734341722e+00
 1.646409796167410e+00	 3.313071610397084e-01	 7.061739989716223e+00
 1.643381329463962e+00	 3.460166804869948e-01	 6.586677485385186e+00
 1.640212848422567e+00	 3.607376231194011e-01	 5.956746705446442e+00
 1.636903654196095e+00	 3.754681421759162e-01	 5.191919983184566e+00
 1.633453077694489e+00	 3.902063688545312e-01	 4.452277022583623e+00
 1.629860480270600e+00	 4.049504128470224e-01	 3.790123558382080e+00
 1.626125254396569e+00	 4.196983628963729e-01	 3.212853795927569e+00
 1.622246824329965e+00	 4.344482873767272e-01	 2.728296486310654e+00
 1.663356866459828e+00	 2.887746882407271e-01	 7.485945281961499e+00
 1.660730233216095e+00	 3.035161388144645e-01	 7.473906229388227e+00
 1.657965129954727e+00	 3.182745040161170e-01	 7.291319128614377e+00
 1.655060768635849e+00	 3.330479968483417e-01	 6.944765855983366e+00
 1.652016389015695e+00	 3.478348066813974e-01	 6.441157390589222e+00
 1.648831259359766e+00	 3.626330997221065e-01	 5.787719713639626e+00
 1.645504677148861e+00	 3.774410195057262e-01	 5.015957737318571e+00
 1.642035969777207e+00	 3.922566874107016e-01	 4.292182664617251e+00
 1.638424495241900e+00	 4.070782031962595e-01	 3.652252557671646e+00
 1.634669642822839e+00	 4.219036455627596e-01	 3.103032104827126e+00
 1.630770833752373e+00	 4.367310727346956e-01	 2.651670250978241e+00
 1.672051163064140e+00	 2.902841014290156e-01	 7.350300420459289e+00
 1.669410800518359e+00	 3.051026049469336e-01	 7.327239393301848e+00
 1.666631244178060e+00	 3.199381115048950e-01	 7.135471819015241e+00
 1.663711701884300e+00	 3.347888247649764e-01	 6.781872906649277e+00
 1.660651409419539e+00	 3.496529246333306e-01	 6.273455238497323e+00
 1.657449631224517e+00	 3.645285677315994e-01	 5.617350791559572e+00
 1.654105661107979e+00	 3.794138878913558e-01	 4.860054427105434e+00
 1.650618822948456e+00	 3.943069966715473e-01	 4.166490427167162e+00
 1.646988471387306e+00	 4.092059838989013e-01	 3.559176358642894e+00
 1.643213992512206e+00	 4.241089182312025e-01	 3.043989204339561e+00
 1.639294804530294e+00	 4.390138477433446e-01	 2.626879520342706e+00
 1.680745415325032e+00	 2.917935069193159e-01	 7.068582192972573e+00
 1.678091323547173e+00	 3.066890629883703e-01	 7.071816238366506e+00
 1.675297314201602e+00	 3.216017105091277e-01	 6.904900376371732e+00
 1.672362591010333e+00	 3.365296438031375e-01	 6.574894553922412e+00
 1.669286385782073e+00	 3.514710333124996e-01	 6.088748966256061e+00
 1.666067959132822e+00	 3.664240260737297e-01	 5.453281343560698e+00
 1.662706601199298e+00	 3.813867462147712e-01	 4.733418995174870e+00
 1.659201632344353e+00	 3.963572954751306e-01	 4.085106061205462e+00
 1.655552403853629e+00	 4.113337537490910e-01	 3.520627172775642e+00
 1.651758298622600e+00	 4.263141796519203e-01	 3.044418133041403e+00
 1.647818731833210e+00	 4.412966111089680e-01	 2.660717863208852e+00
 1.562578082091108e+00	 4.184686087613524e-01	 4.116497068033786e+00
 1.558703846769861e+00	 4.326760306423498e-01	 3.642377650211427e+00
 1.554690661800825e+00	 4.468815778688999e-01	 3.259052137940055e+00
 1.550538070255469e+00	 4.610833358291598e-01	 2.957124586990124e+00
 1.546245648278505e+00	 4.752793727944876e-01	 2.726836046445930e+00
 1.541813005666570e+00	 4.894677405839732e-01	 2.558074413248718e+00
 1.537239786432334e+00	 5.036464752493558e-01	 2.440385458378256e+00
 1.532525669353274e+00	 5.178135977800120e-01	 2.362985063024469e+00
 1.527670368504342e+00	 5.319671148276703e-01	 2.314772702018391e+00
 1.522673633773767e+00	 5.461050194504661e-01	 2.284346210400871e+00
 1.517535251361254e+00	 5.602252918759326e-01	 2.260017867290012e+00
 1.571102226770384e+00	 4.207514303407746e-01	 3.878898228969608e+00
 1.567206856798041e+00	 4.350363562651544e-01	 3.388592866699097e+00
 1.563171779182520e+00	 4.493193973084392e-01	 3.000973158391998e+00
 1.558996534502674e+00	 4.635986284142490e-01	 2.704622008662965e+00
 1.554680696591020e+00	 4.778721073160304e-01	 2.487646571714432e+00
 1.550223873115576e+00	 4.921378752052116e-01	 2.337689252317082e+00
 1.545625706147051e+00	 5.063939574198565e-01	 2.241940057099841e+00
 1.540885872710607e+00	 5.206383641534992e-01	 2.187150337398283e+00
 1.536004085321435e+00	 5.348690911838103e-01	 2.159647963602008e+00
 1.530980092503372e+00	 5.490841206207129e-01	 2.145353969306964e+00
 1.525813679289818e+00	 5.632814216735341e-01	 2.129800701599245e+00
 1.579626366618807e+00	 4.230342506268229e-01	 3.641644531292121e+00
 1.575709862007344e+00	 4.373966805506522e-01	 3.149273835652528e+00
 1.571652891757734e+00	 4.517572153667169e-01	 2.767682700509861e+00
 1.567454993956215e+00	 4.661139195741107e-01	 2.483818941986504e+00
 1.563115740123116e+00	 4.804648403683796e-01	 2.284065536519527e+00
 1.558634735797844e+00	 4.948080083133009e-01	 2.154252598328826e+00
 1.554011621109148e+00	 5.091414380332737e-01	 2.079670851121255e+00
 1.549246071329882e+00	 5.234631289260001e-01	 2.045086637851618e+00
 1.544337797415481e+00	 5.377710658951049e-01	 2.034758510888975e+00
 1.539286546525394e+00	 5.520632201023093e-01	 2.032455443121670e+00
 1.534092102526720e+00	 5.663375497387464e-01	 2.021476698359231e+00
 1.588150496805859e+00	 4.253170683257905e-01	 3.412538855082590e+00
 1.584212857579237e+00	 4.397570021612192e-01	 2.929693555757171e+00
 1.580133994720345e+00	 4.541950306622045e-01	 2.562257323206315e+00
 1.575913443822824e+00	 4.686292078833300e-01	 2.295922622647378e+00
 1.571550774094812e+00	 4.830575704822554e-01	 2.115751380811276e+00
 1.567045588947110e+00	 4.974781383951229e-01	 2.006187770901408e+00
 1.562397526566516e+00	 5.118889155326829e-01	 1.951072601240365e+00
 1.557606260473578e+00	 5.262878904968218e-01	 1.933659353675960e+00
 1.552671500063979e+00	 5.406730373171337e-01	 1.936631916243794e+00
 1.547592991132789e+00	 5.550423162071548e-01	 1.942124052651381e+00
 1.542370516380803e+00	 5.693936743398390e-01	 1.931740648842445e+00
 1.596674612501020e+00	 4.275998821439713e-01	 3.199228658628736e+00
 1.592715838695181e+00	 4.421173197592319e-01	 2.735023410287096e+00
 1.588615083264239e+00	 4.566328418133744e-01	 2.387718611945520e+00
 1.584371879309232e+00	 4.711444919164912e-01	 2.142124930614560e+00
 1.579985793726124e+00	 4.856502961883770e-01	 1.982379928370432e+00
 1.575456427797111e+00	 5.001482639375592e-01	 1.891961486725667e+00
 1.570783417767045e+00	 5.146363883611601e-01	 1.853702909926812e+00
 1.565966435404172e+00	 5.291126472652710e-01	 1.849809755185818e+00
 1.561005188544430e+00	 5.435750038054763e-01	 1.861878436235427e+00
 1.555899421618507e+00	 5.580214072471477e-01	 1.870916644613036e+00
 1.550648916160909e+00	 5.724497937450826e-01	 1.857365630704906e+00
 1.605198708873770e+00	 4.298826907876586e-01	 3.009209941719924e+00
 1.601218800536641e+00	 4.444776320070666e-01	 2.570335668159325e+00
 1.597096152583294e+00	 4.590706474386978e-01	 2.247034406416788e+00
 1.592830295622173e+00	 4.736597702481790e-01	 2.023602529704190e+00
 1.588420794237072e+00	 4.882430160174646e-01	 1.883643619799018e+00
 1.583867247581586e+00	 5.028183834274921e-01	 1.810082363629458e+00
 1.579169289958625e+00	 5.173838549617816e-01	 1.785180170070777e+00
 1.574326591384141e+00	 5.319373976306545e-01	 1.790552556581966e+00
 1.569338858134331e+00	 5.464769637157119e-01	 1.807188353714826e+00
 1.564205833275506e+00	 5.610004915341873e-01	 1.815470773551642e+00
 1.558927297175879e+00	 5.755059062227464e-01	 1.795200385751988e+00
 1.613722781093592e+00	 4.321654929631462e-01	 2.849831072991839e+00
 1.609721738285084e+00	 4.468379375670998e-01	 2.440605894577724e+00
 1.605577197871394e+00	 4.615084461566470e-01	 2.143119977357775e+00
 1.601288687968381e+00	 4.761750414529781e-01	 1.941516989989791e+00
 1.596855770847671e+00	 4.908357285002375e-01	 1.819250756306026e+00
 1.592278043534270e+00	 5.054884953518033e-01	 1.759099457764614e+00
 1.587555138389146e+00	 5.201313137776232e-01	 1.743181563690122e+00
 1.582686723675965e+00	 5.347621399922793e-01	 1.752973540247851e+00
 1.577672504111181e+00	 5.493789154034200e-01	 1.769329387578874e+00
 1.572512221396736e+00	 5.639795673801717e-01	 1.772502052618339e+00
 1.567205654734554e+00	 5.785620100411010e-01	 1.742166762806497e+00
 1.622246824329965e+00	 4.344482873767272e-01	 2.728296486310653e+00
 1.618224647121973e+00	 4.491982351017074e-01	 2.350715274586765e+00
 1.614058214322420e+00	 4.639462365856935e-01	 2.078839154398570e+00
 1.609747051554588e+00	 4.786903041054734e-01	 1.897014893693428e+00
 1.605290718777939e+00	 4.934284321674158e-01	 1.788924753899843e+00
 1.600688810888898e+00	 5.081585981973746e-01	 1.737600832710634e+00
 1.595940958306500e+00	 5.228787632517605e-01	 1.725441108772249e+00
 1.591046827542119e+00	 5.375868727494517e-01	 1.734227240235849e+00
 1.586006121752479e+00	 5.522808572241801e-01	 1.745144167748653e+00
 1.580818581275152e+00	 5.669586330970007e-01	 1.738801570694301e+00
 1.575483984145777e+00	 5.816181034684160e-01	 1.695257223303233e+00
 1.630770833752373e+00	 4.367310727346956e-01	 2.651670250978240e+00
 1.626727522228772e+00	 4.515585232732663e-01	 2.305452852717242e+00
 1.622539197130253e+00	 4.663840173443090e-01	 2.057005406718338e+00
 1.618205381587525e+00	 4.812055567802494e-01	 1.891227925167544e+00
 1.613725633247896e+00	 4.960211255497193e-01	 1.792403407615153e+00
 1.609099544879210e+00	 5.108286904510881e-01	 1.744212159338507e+00
 1.604326744958575e+00	 5.256262018272696e-01	 1.729747752503741e+00
 1.599406898245083e+00	 5.404115943014789e-01	 1.731534682793692e+00
 1.594339706335727e+00	 5.551827875335718e-01	 1.731547772993593e+00
 1.589124908203710e+00	 5.699376869965725e-01	 1.711233373451683e+00
 1.583762280718390e+00	 5.846741847729618e-01	 1.651532407333606e+00
 1.639294804530294e+00	 4.390138477433446e-01	 2.626879520342706e+00
 1.635230358786947e+00	 4.539188007441525e-01	 2.309517691774881e+00
 1.631020141488776e+00	 4.688217870509657e-01	 2.080382878234071e+00
 1.626663673273927e+00	 4.837207980518907e-01	 1.925272945550975e+00
 1.622160509477558e+00	 4.986138071778677e-01	 1.829438165417693e+00
 1.617510240738942e+00	 5.134987705998255e-01	 1.777595345327543e+00
 1.612712493593262e+00	 5.283736279472265e-01	 1.753943509213628e+00
 1.607766931047334e+00	 5.432363030476676e-01	 1.742181181871020e+00
 1.602673253138420e+00	 5.580847046871741e-01	 1.725525329331487e+00
 1.597431197475362e+00	 5.729167273907858e-01	 1.686732006042667e+00
 1.592040539761233e+00	 5.877302522230078e-01	 1.608118757959063e+00
 1.647818731833210e+00	 4.412966111089680e-01	 2.660717863208852e+00
 1.643733151977962e+00	 4.562790661767426e-01	 2.367520953696482e+00
 1.639501042591871e+00	 4.712595443241352e-01	 2.151687378969114e+00
 1.635121921820524e+00	 4.862360264949822e-01	 2.000252052660476e+00
 1.630595342686944e+00	 5.012064755825806e-01	 1.899793411445758e+00
 1.625920893701830e+00	 5.161688371304689e-01	 1.836447193272654e+00
 1.621098199458452e+00	 5.311210400547071e-01	 1.795921641425321e+00
 1.616126921211349e+00	 5.460609973873246e-01	 1.763514187631482e+00
 1.611006757438059e+00	 5.609866070405668e-01	 1.724129666828186e+00
 1.605737444383062e+00	 5.758957525915405e-01	 1.662300115203346e+00
 1.600318756583150e+00	 5.907863040868249e-01	 1.562206201701786e+00
 1.517535251361254e+00	 5.602252918759326e-01	 2.260017867290012e+00
 1.512254134331529e+00	 5.743282956317375e-01	 2.224555017759268e+00
 1.506831003534249e+00	 5.884095838951129e-01	 2.172433110501942e+00
 1.501265755838570e+00	 6.024671014153181e-01	 2.109690187078098e+00
 1.495558326254919e+00	 6.164987833099306e-01	 2.042879373057746e+00
 1.489708688335641e+00	 6.305025559161748e-01	 1.979079098947660e+00
 1.483716854553744e+00	 6.444763376581230e-01	 1.925903625730389e+00
 1.477582876659139e+00	 6.584180399291462e-01	 1.891939797321455e+00
 1.471306846011681e+00	 6.723255679889599e-01	 1.887515765405525e+00
 1.464888893890439e+00	 6.861968218745834e-01	 1.922147865835379e+00
 1.458329191778564e+00	 7.000296973245008e-01	 2.005720679095731e+00
 1.525813679289818e+00	 5.632814216735341e-01	 2.129800701599244e+00
 1.520503752816078e+00	 5.774613598530635e-01	 2.098372317244787e+00
 1.515051037864169e+00	 5.916194640783085e-01	 2.050482266536146e+00
 1.509455430740640e+00	 6.057536678867566e-01	 1.992768965039182e+00
 1.503716866101382e+00	 6.198618951316699e-01	 1.932348009923022e+00
 1.497835317354450e+00	 6.339420608380589e-01	 1.876821029865282e+00
 1.491810797040888e+00	 6.479920720746154e-01	 1.834284892560278e+00
 1.485643357192900e+00	 6.620098288409743e-01	 1.813341288719157e+00
 1.479333089668717e+00	 6.759932249696560e-01	 1.823232801889928e+00
 1.472880126463550e+00	 6.899401490419939e-01	 1.875222183355241e+00
 1.466284639996011e+00	 7.038484853173357e-01	 1.980028051837023e+00
 1.534092102526720e+00	 5.663375497387464e-01	 2.021476698359231e+00
 1.528753366625351e+00	 5.805944222983290e-01	 1.990466416052044e+00
 1.523271067535659e+00	 5.948293424418540e-01	 1.943923859282491e+00
 1.517645101001581e+00	 6.090402324950414e-01	 1.888905414824478e+00
 1.511875401324467e+00	 6.232250050468431e-01	 1.832906263888194e+00
 1.505961941768080e+00	 6.373815638100609e-01	 1.783868101436070e+00
 1.499904734941495e+00	 6.515078044980087e-01	 1.750187270502513e+00
 1.493703833159206e+00	 6.656016157165922e-01	 1.740723334871677e+00
 1.487359328777816e+00	 6.796608798711410e-01	 1.764808110836048e+00
 1.480871354508670e+00	 6.936834740873061e-01	 1.832265177594093e+00
 1.474240083705840e+00	 7.076672711453058e-01	 1.954740632550195e+00
 1.542370516380803e+00	 5.693936743398390e-01	 1.931740648842444e+00
 1.537002971084515e+00	 5.837274811922245e-01	 1.897896358229885e+00
 1.531491087890640e+00	 5.980392171669248e-01	 1.850199018014419e+00
 1.525834761980506e+00	 6.123267933779026e-01	 1.795943820524591e+00
 1.520033927300916e+00	 6.265881111498114e-01	 1.742825882360165e+00
 1.514088556971340e+00	 6.408210628832548e-01	 1.698947070703875e+00
 1.507998663668878e+00	 6.550235329361828e-01	 1.672823306414222e+00
 1.501764299990313e+00	 6.691933985207813e-01	 1.673392371465817e+00
 1.495385558790614e+00	 6.833285306152008e-01	 1.710022245592834e+00
 1.488862573497258e+00	 6.974267948894225e-01	 1.792519993842630e+00
 1.482195518399771e+00	 7.114860526445453e-01	 1.931141223156372e+00
 1.550648916160909e+00	 5.724497937450826e-01	 1.857365630704906e+00
 1.545252561518732e+00	 5.868605347594412e-01	 1.817791291982885e+00
 1.539711094271035e+00	 6.012490864346952e-01	 1.766810426311886e+00
 1.534024409036530e+00	 6.156133486730686e-01	 1.711781038079043e+00
 1.528192439407473e+00	 6.299512115349341e-01	 1.660421704472557e+00
 1.522215158359038e+00	 6.442605561087159e-01	 1.620817743568360e+00
 1.516092578636350e+00	 6.585392553970166e-01	 1.601427925318121e+00
 1.509824753118475e+00	 6.727851752183220e-01	 1.611091756969130e+00
 1.503411775158746e+00	 6.869961751236214e-01	 1.659037371644652e+00
 1.496853778900772e+00	 7.011701093272450e-01	 1.754890045550174e+00
 1.490150939569523e+00	 7.153048276511899e-01	 1.908681365543646e+00
 1.558927297175879e+00	 5.755059062227464e-01	 1.795200385751988e+00
 1.553502133253170e+00	 5.899935812246702e-01	 1.747348024070966e+00
 1.547931082018768e+00	 6.044589484263408e-01	 1.691320062971096e+00
 1.542214037528769e+00	 6.188998965182695e-01	 1.634364434408550e+00
 1.536350933020881e+00	 6.333143042965717e-01	 1.584049811991480e+00
 1.530341741325984e+00	 6.477000415375185e-01	 1.548271352854378e+00
 1.524186475257223e+00	 6.620549698883894e-01	 1.535257052864138e+00
 1.517885187975948e+00	 6.763769437739950e-01	 1.553574750409435e+00
 1.511437973333853e+00	 6.906638113181893e-01	 1.612139811119981e+00
 1.504844966190669e+00	 7.049134152796751e-01	 1.720223522472438e+00
 1.498106342706818e+00	 7.191235940013742e-01	 1.887462223363184e+00
 1.567205654734554e+00	 5.785620100411010e-01	 1.742166762806497e+00
 1.561751681612993e+00	 5.931266188126015e-01	 1.683828632999090e+00
 1.556151046475760e+00	 6.076688013230365e-01	 1.621346995079883e+00
 1.550403642816337e+00	 6.221864350512336e-01	 1.561689871719425e+00
 1.544509403517884e+00	 6.366773875290850e-01	 1.512105717973877e+00
 1.538468301266987e+00	 6.511395172207374e-01	 1.480128966231715e+00
 1.532280348944810e+00	 6.655706744181810e-01	 1.473586259200033e+00
 1.525945599994987e+00	 6.799687021525819e-01	 1.500603409665545e+00
 1.519464148767568e+00	 6.943314371206906e-01	 1.569613122744502e+00
 1.512836130838410e+00	 7.086567106256150e-01	 1.689363512808197e+00
 1.506061723303376e+00	 7.229423495312334e-01	 1.868927443232396e+00
 1.575483984145777e+00	 5.816181034684160e-01	 1.695257223303233e+00
 1.570001201923368e+00	 5.962596457479266e-01	 1.624558138853312e+00
 1.564370982983933e+00	 6.108786433059569e-01	 1.554565221358434e+00
 1.558593220258347e+00	 6.254729624096913e-01	 1.491799735336927e+00
 1.552667846275225e+00	 6.400404593268340e-01	 1.443022591808380e+00
 1.546594833576855e+00	 6.545789812094476e-01	 1.415239922905922e+00
 1.540374195112425e+00	 6.690863669942703e-01	 1.415709423481898e+00
 1.534005984607846e+00	 6.835604483188631e-01	 1.451947501692390e+00
 1.527490296911529e+00	 6.979990504529110e-01	 1.531737277397732e+00
 1.520827268315452e+00	 7.123999932439664e-01	 1.663137463538999e+00
 1.514017076850916e+00	 7.267610920769028e-01	 1.854492161438793e+00
 1.583762280718390e+00	 5.846741847729618e-01	 1.651532407333607e+00
 1.578250689509457e+00	 5.993926602553357e-01	 1.566922227729436e+00
 1.572590886885210e+00	 6.140884725562775e-01	 1.488701563945286e+00
 1.566782765213917e+00	 6.287594767313712e-01	 1.422781003494006e+00
 1.560826256669648e+00	 6.434035177841784e-01	 1.375269519326306e+00
 1.554721333650398e+00	 6.580184315547234e-01	 1.352480298046146e+00
 1.548468009173378e+00	 6.726020456245368e-01	 1.360937418287844e+00
 1.542066337246781e+00	 6.871521802376196e-01	 1.407383424262168e+00
 1.535516413217374e+00	 7.016666492366371e-01	 1.498787836192514e+00
 1.528818374093255e+00	 7.161432610136317e-01	 1.642356635522737e+00
 1.521972398841161e+00	 7.305798194745170e-01	 1.845542758382046e+00
 1.592040539761233e+00	 5.877302522230078e-01	 1.608118757959063e+00
 1.586500139696427e+00	 6.025256605595203e-01	 1.508365028786113e+00
 1.580810753521514e+00	 6.172982872551731e-01	 1.421533606884305e+00
 1.574972273042159e+00	 6.320459761540024e-01	 1.352763357567385e+00
 1.568984630077895e+00	 6.467665609954794e-01	 1.307349796725465e+00
 1.562847796882426e+00	 6.614578663076398e-01	 1.290751393959597e+00
 1.556561786540984e+00	 6.761177083168597e-01	 1.308596813229498e+00
 1.550126653344047e+00	 6.907438958736325e-01	 1.366693138821186e+00
 1.543542493136738e+00	 7.053342313936549e-01	 1.471035131004308e+00
 1.536809443643275e+00	 7.198865118135123e-01	 1.627815551736524e+00
 1.529927684765830e+00	 7.343985295602113e-01	 1.843436596179987e+00
 1.600318756583150e+00	 5.907863040868249e-01	 1.562206201701787e+00
 1.594749547809442e+00	 6.056586448851704e-01	 1.446386942035926e+00
 1.589030578234766e+00	 6.205080855838191e-01	 1.350887679640595e+00
 1.583161739102190e+00	 6.353324588153144e-01	 1.279917331315503e+00
 1.577142961876711e+00	 6.501295870550968e-01	 1.237799257101798e+00
 1.570974218667745e+00	 6.648972835192715e-01	 1.228978257063286e+00
 1.564655522628555e+00	 6.796333530791189e-01	 1.258028597085336e+00
 1.558186928331899e+00	 6.943355931916823e-01	 1.329663114079085e+00
 1.551568532121260e+00	 7.090017948457507e-01	 1.448743447380348e+00
 1.544800472436973e+00	 7.236297435225104e-01	 1.620291438935524e+00
 1.537882930116643e+00	 7.382172201701207e-01	 1.849501740066651e+00
 1.458329191778564e+00	 7.000296973245008e-01	 2.005720679095731e+00
 1.451629102552406e+00	 7.138197457051577e-01	 2.128002261651068e+00
 1.444787774890119e+00	 7.275672120895003e-01	 2.269122582421917e+00
 1.437805501170166e+00	 7.412699853003292e-01	 2.424753677076165e+00
 1.430682614837620e+00	 7.549259536497341e-01	 2.585729401540700e+00
 1.423419490559979e+00	 7.685330059172392e-01	 2.743974503123323e+00
 1.416016544355583e+00	 7.820890323363864e-01	 2.895454895625602e+00
 1.408474233694218e+00	 7.955919255888726e-01	 3.035868591181172e+00
 1.400793057569549e+00	 8.090395818053450e-01	 3.160642863599795e+00
 1.392973556543012e+00	 8.224299015719309e-01	 3.264932418779238e+00
 1.385016312758878e+00	 8.357607909415733e-01	 3.343618643566659e+00
 1.466284639996011e+00	 7.038484853173357e-01	 1.980028051837023e+00
 1.459548000577180e+00	 7.177137608940228e-01	 2.123993383163513e+00
 1.452669352241098e+00	 7.315362221819188e-01	 2.283553380818341e+00
 1.445648988961213e+00	 7.453137464869757e-01	 2.453832812391754e+00
 1.438487246001606e+00	 7.590442106016481e-01	 2.624035118666537e+00
 1.431184500073661e+00	 7.727254917883754e-01	 2.788450814909369e+00
 1.423741169465178e+00	 7.863554687715474e-01	 2.943279714340864e+00
 1.416157714141530e+00	 7.999320227370634e-01	 3.084510022564936e+00
 1.408434635818488e+00	 8.134530383385862e-01	 3.207915356795917e+00
 1.400572478006355e+00	 8.269164047095668e-01	 3.309052715477212e+00
 1.392571826025109e+00	 8.403200164800926e-01	 3.383261471674623e+00
 1.474240083705840e+00	 7.076672711453058e-01	 1.954740632550195e+00
 1.467466894115124e+00	 7.216077738753871e-01	 2.116667644169220e+00
 1.460550925126458e+00	 7.355052300243319e-01	 2.291549340177735e+00
 1.453492472308269e+00	 7.493575053812495e-01	 2.473204118115955e+00
 1.446291872743647e+00	 7.631624652189664e-01	 2.650831893431111e+00
 1.438949505187860e+00	 7.769179752828448e-01	 2.820370765841411e+00
 1.431465790198168e+00	 7.906219027881273e-01	 2.978287513376229e+00
 1.423841190235528e+00	 8.042721174249227e-01	 3.120882878226889e+00
 1.416076209737817e+00	 8.178664923699179e-01	 3.244288279162423e+00
 1.408171395164201e+00	 8.314029053038924e-01	 3.344463431603602e+00
 1.400127335010365e+00	 8.448792394340858e-01	 3.417194951221746e+00
 1.482195518399771e+00	 7.114860526445453e-01	 1.931141223156372e+00
 1.475385778678659e+00	 7.255017824427503e-01	 2.107911361394456e+00
 1.468432489079756e+00	 7.394742333677343e-01	 2.295427736490049e+00
 1.461335946766467e+00	 7.534012596917782e-01	 2.485412335172933e+00
 1.454096490640893e+00	 7.672807151680944e-01	 2.668743788651575e+00
 1.446714501502178e+00	 7.811104540249799e-01	 2.842275328981189e+00
 1.439190402177040e+00	 7.948883319685445e-01	 3.002773184859409e+00
 1.431524657622020e+00	 8.086122071931201e-01	 3.146872511323304e+00
 1.423717774997096e+00	 8.222799413984306e-01	 3.271073633467115e+00
 1.415770303710294e+00	 8.358894008125978e-01	 3.371739168931695e+00
 1.407682835433004e+00	 8.494384572200259e-01	 3.445092107997526e+00
 1.490150939569523e+00	 7.153048276511899e-01	 1.908681365543647e+00
 1.483304649780203e+00	 7.293957843896119e-01	 2.099520655448424e+00
 1.476314039634549e+00	 7.434432299631210e-01	 2.297291441746225e+00
 1.469179407890946e+00	 7.574450071271901e-01	 2.492958943957422e+00
 1.461901095270492e+00	 7.713989581154368e-01	 2.680348814421118e+00
 1.454479484616214e+00	 7.853029256391135e-01	 2.856660104551927e+00
 1.446915001024281e+00	 7.991547538952182e-01	 3.018990419025402e+00
 1.439208111946813e+00	 8.129522895823248e-01	 3.164330751520652e+00
 1.431359327265885e+00	 8.266933829232151e-01	 3.289561098619908e+00
 1.423369199338379e+00	 8.403758886933724e-01	 3.391446937346136e+00
 1.415238323011382e+00	 8.539976672543874e-01	 3.466636648617935e+00
 1.498106342706818e+00	 7.191235940013742e-01	 1.887462223363184e+00
 1.491223502932177e+00	 7.332897775094712e-01	 2.091297064988679e+00
 1.484195572324397e+00	 7.474122175614871e-01	 2.298622090354963e+00
 1.477022851236836e+00	 7.614887453961123e-01	 2.498302655099597e+00
 1.469705682209594e+00	 7.755171917273981e-01	 2.688179448435847e+00
 1.462244450129569e+00	 7.894953877495785e-01	 2.865975778506994e+00
 1.454639582362379e+00	 8.034211661505669e-01	 3.029152009332094e+00
 1.446891548855716e+00	 8.172923621332060e-01	 3.175075964653887e+00
 1.439000862213744e+00	 8.311068144433613e-01	 3.301017751625607e+00
 1.430968077742198e+00	 8.448623664039067e-01	 3.404145446664259e+00
 1.422793793463853e+00	 8.585568669536435e-01	 3.481521729678661e+00
 1.506061723303376e+00	 7.229423495312334e-01	 1.868927443232396e+00
 1.499142333646998e+00	 7.371837595958279e-01	 2.084294010315834e+00
 1.492077082682854e+00	 7.513811939138264e-01	 2.299435320718208e+00
 1.484866272359275e+00	 7.655324722071728e-01	 2.503593637934030e+00
 1.477510247035349e+00	 7.796354136703829e-01	 2.694723113873192e+00
 1.470009393641844e+00	 7.936878379807087e-01	 2.872628540010758e+00
 1.462364141813821e+00	 8.076875663170096e-01	 3.035430120761792e+00
 1.454574963994535e+00	 8.216324223864327e-01	 3.180893082768057e+00
 1.446642375510236e+00	 8.355202334579608e-01	 3.306687770049887e+00
 1.438566934615496e+00	 8.493488314018902e-01	 3.410384392039748e+00
 1.430349242508775e+00	 8.631160537342678e-01	 3.489448736503218e+00
 1.514017076850916e+00	 7.267610920769028e-01	 1.854492161438793e+00
 1.507061137437086e+00	 7.410777284421817e-01	 2.080458976816473e+00
 1.499958566243481e+00	 7.553501567711348e-01	 2.301316605061178e+00
 1.492709666813395e+00	 7.695761852689991e-01	 2.509087237710701e+00
 1.485314785324906e+00	 7.837536216107969e-01	 2.702091404079943e+00
 1.477774310752641e+00	 7.978802739568360e-01	 2.878980459355858e+00
 1.470088675001094e+00	 8.119539519769651e-01	 3.039956522676864e+00
 1.462258353009080e+00	 8.259724678826740e-01	 3.183533605648311e+00
 1.454283862824919e+00	 8.399336374661037e-01	 3.307792115732917e+00
 1.446165765652017e+00	 8.538352811450131e-01	 3.410703733204307e+00
 1.437904665864503e+00	 8.676752250127346e-01	 3.490126071155186e+00
 1.521972398841161e+00	 7.305798194745170e-01	 1.845542758382047e+00
 1.514979909814860e+00	 7.449716818420312e-01	 2.081137160121038e+00
 1.507840018539832e+00	 7.593191038844065e-01	 2.306432254309333e+00
 1.500553030154332e+00	 7.736198822902188e-01	 2.516686915892356e+00
 1.493119292655413e+00	 7.878718132150444e-01	 2.710624787318868e+00
 1.485539197061559e+00	 8.020726933022940e-01	 2.886990193792477e+00
 1.477813177546687e+00	 8.162203207128523e-01	 3.044822787541405e+00
 1.469941711545156e+00	 8.303124961625994e-01	 3.184715574898044e+00
 1.461925319827353e+00	 8.443470239668803e-01	 3.305528200454928e+00
 1.453764566545504e+00	 8.583217130909651e-01	 3.405632967793274e+00
 1.445460059249392e+00	 8.722343782055169e-01	 3.483267949398449e+00
 1.529927684765830e+00	 7.343985295602113e-01	 1.843436596179987e+00
 1.522898646292739e+00	 7.488656175888769e-01	 2.087717726807415e+00
 1.515721435105468e+00	 7.632880330046365e-01	 2.316879946365544e+00
 1.508396357937219e+00	 7.776635609794600e-01	 2.528691652710692e+00
 1.500923764604023e+00	 7.919899861495301e-01	 2.722323323736930e+00
 1.493304048168200e+00	 8.062650936414156e-01	 2.896948571546448e+00
 1.485537645073085e+00	 8.204866701070902e-01	 3.051732782382741e+00
 1.477625035248573e+00	 8.346525047668775e-01	 3.186123521581693e+00
 1.469566742187101e+00	 8.487603904593822e-01	 3.301069534229983e+00
 1.461363332989701e+00	 8.628081246974364e-01	 3.395690398991723e+00
 1.453015418381801e+00	 8.767935107290888e-01	 3.468593206303244e+00
 1.537882930116643e+00	 7.382172201701207e-01	 1.849501740066651e+00
 1.530817342383143e+00	 7.527595334762179e-01	 2.101896994257593e+00
 1.523602811473945e+00	 7.672569418828201e-01	 2.334690570871059e+00
 1.516239645717194e+00	 7.817072190453502e-01	 2.547329487008157e+00
 1.508728196747882e+00	 7.961081380806593e-01	 2.739473886464696e+00
 1.501068859672164e+00	 8.104574725985342e-01	 2.910760198852996e+00
 1.493262073202777e+00	 8.247529977420973e-01	 3.060788691350167e+00
 1.485308319765139e+00	 8.389924912361780e-01	 3.189109654620649e+00
 1.477208125573723e+00	 8.531737344426989e-01	 3.295565356876611e+00
 1.468962060678353e+00	 8.672945134221165e-01	 3.381382397728512e+00
 1.460570738980083e+00	 8.813526199999246e-01	 3.445824110209041e+00
 1.385016312758878e+00	 8.357607909415733e-01	 3.343618643566658e+00
 1.376921950264790e+00	 8.490301627137588e-01	 3.384470946462055e+00
 1.368691135966320e+00	 8.622359382625984e-01	 3.381856266612432e+00
 1.360324578539134e+00	 8.753760477913800e-01	 3.340219024973306e+00
 1.351823027988257e+00	 8.884484310920081e-01	 3.263825220403483e+00
 1.343187275513448e+00	 9.014510385646831e-01	 3.156754334724631e+00
 1.334418153344632e+00	 9.143818322364075e-01	 3.022892426838174e+00
 1.325516534547367e+00	 9.272387867773062e-01	 2.865926468904852e+00
 1.316483332798322e+00	 9.400198905137382e-01	 2.689339970592779e+00
 1.307319502130800e+00	 9.527231464371733e-01	 2.496409929961250e+00
 1.298026036650376e+00	 9.653465732078103e-01	 2.290205141712148e+00
 1.392571826025109e+00	 8.403200164800926e-01	 3.383261471674622e+00
 1.384433307326690e+00	 8.536617750635985e-01	 3.418862863351067e+00
 1.376157592454760e+00	 8.669395904949169e-01	 3.410567330284652e+00
 1.367745393950933e+00	 8.801513816862189e-01	 3.362980212654079e+00
 1.359197465911648e+00	 8.932950771906035e-01	 3.280493002132971e+00
 1.350514603852795e+00	 9.063686162273336e-01	 3.167274637917926e+00
 1.341697644544260e+00	 9.193699497059010e-01	 3.027264074956617e+00
 1.332747465814330e+00	 9.322970412478896e-01	 2.864164180492813e+00
 1.323664986323940e+00	 9.451478682056157e-01	 2.681437007732386e+00
 1.314451165310814e+00	 9.579204226765062e-01	 2.482300487662872e+00
 1.305107002303551e+00	 9.706127125121943e-01	 2.269726571872840e+00
 1.400127335010365e+00	 8.448792394340858e-01	 3.417194951221746e+00
 1.391944660132547e+00	 8.582933847878872e-01	 3.450770626600062e+00
 1.383624044712497e+00	 8.716432400608570e-01	 3.439645307614132e+00
 1.375166205157784e+00	 8.849267128740599e-01	 3.388553857751468e+00
 1.366571899656258e+00	 8.981417205417938e-01	 3.301993304833560e+00
 1.357841928039947e+00	 9.112861911023913e-01	 3.184213624536659e+00
 1.348977131618701e+00	 9.243580643478408e-01	 3.039209864928438e+00
 1.339978392983535e+00	 9.373552928511949e-01	 2.870715671041247e+00
 1.330846635779655e+00	 9.502758429907313e-01	 2.682198260899055e+00
 1.321582824449209e+00	 9.631176959698434e-01	 2.476854896333148e+00
 1.312187963943819e+00	 9.758788488316039e-01	 2.257610883407258e+00
 1.407682835433004e+00	 8.494384572200259e-01	 3.445092107997526e+00
 1.399456004425755e+00	 8.629249892620728e-01	 3.478969729706005e+00
 1.391090488508389e+00	 8.763468842950405e-01	 3.467140884203017e+00
 1.382587007954426e+00	 8.897020386488994e-01	 3.414439118185056e+00
 1.373946325043128e+00	 9.029883583991610e-01	 3.325447461130764e+00
 1.365169243922662e+00	 9.162037604032416e-01	 3.204488791364317e+00
 1.356256610442838e+00	 9.293461733356397e-01	 3.055617597783139e+00
 1.347209311957400e+00	 9.424135387208866e-01	 2.882613198971635e+00
 1.338028277095824e+00	 9.554038119632393e-01	 2.688974473549585e+00
 1.328714475504677e+00	 9.683149633720676e-01	 2.477916147233930e+00
 1.319268917558604e+00	 9.811449791818985e-01	 2.252366673272359e+00
 1.415238323011382e+00	 8.539976672543874e-01	 3.466636648617935e+00
 1.406967335949710e+00	 8.675565858616047e-01	 3.502264573639219e+00
 1.398556919611293e+00	 8.810505205320885e-01	 3.491148236708751e+00
 1.390007798135601e+00	 8.944773563047353e-01	 3.438189576474525e+00
 1.381320737893303e+00	 9.078349880162894e-01	 3.348038507382522e+00
 1.372496547348698e+00	 9.211213213432713e-01	 3.225082961871889e+00
 1.363536076891557e+00	 9.343342738427080e-01	 3.073440368873079e+00
 1.354440218638345e+00	 9.474717759906313e-01	 2.896950632832803e+00
 1.345209906202802e+00	 9.605317722172934e-01	 2.699170669369073e+00
 1.335846114435910e+00	 9.735122219380624e-01	 2.483370545023156e+00
 1.326349859135333e+00	 9.864111005789371e-01	 2.252531259471483e+00
 1.422793793463853e+00	 8.585568669536435e-01	 3.481521729678661e+00
 1.414478650447807e+00	 8.721881719619314e-01	 3.519486716137495e+00
 1.406023333790067e+00	 8.857541461066222e-01	 3.509802860698068e+00
 1.397428571496050e+00	 8.992526631355648e-01	 3.457410744854363e+00
 1.388695134027825e+00	 9.126816066467631e-01	 3.367008464964003e+00
 1.379823834165816e+00	 9.260388711358668e-01	 3.243041442716939e+00
 1.370815526839743e+00	 9.393223630424579e-01	 3.089693698691134e+00
 1.361671108928788e+00	 9.525300017940931e-01	 2.910880655526962e+00
 1.352391519030945e+00	 9.656597208470472e-01	 2.710243528905125e+00
 1.342977737201602e+00	 9.787094687227104e-01	 2.491145355631350e+00
 1.333430784661431e+00	 9.916772100385802e-01	 2.256668698765619e+00
 1.430349242508775e+00	 8.631160537342678e-01	 3.489448736503218e+00
 1.421989943663440e+00	 8.768197449385009e-01	 3.529493146539586e+00
 1.413489726813570e+00	 8.904577583532622e-01	 3.521279436896896e+00
 1.404849323830514e+00	 9.040279564353855e-01	 3.469757618544950e+00
 1.396069509267736e+00	 9.175282115441656e-01	 3.379655676367389e+00
 1.387151100221771e+00	 9.309564069944144e-01	 3.255469238610827e+00
 1.378094956162280e+00	 9.443104381083003e-01	 3.101452722503332e+00
 1.368901978731147e+00	 9.575882132649376e-01	 2.921612024692209e+00
 1.359573111510609e+00	 9.707876549466550e-01	 2.719698816598184e+00
 1.350109339760446e+00	 9.839067007808964e-01	 2.499206495677838e+00
 1.340511690124322e+00	 9.969433045766869e-01	 2.263367833980194e+00
 1.437904665864503e+00	 8.676752250127346e-01	 3.490126071155186e+00
 1.429501211340003e+00	 8.814513021667627e-01	 3.531164585243326e+00
 1.420956094450658e+00	 8.951613546066303e-01	 3.523789734450572e+00
 1.412270050933736e+00	 9.088032334981945e-01	 3.472932275436977e+00
 1.403443859434079e+00	 9.223747999620809e-01	 3.383332194129936e+00
 1.394478341364324e+00	 9.358739261323001e-01	 3.259528323437713e+00
 1.385374360734054e+00	 9.492984962136471e-01	 3.105849436664107e+00
 1.376132823947842e+00	 9.626464075368303e-01	 2.926406887206965e+00
 1.366754679572149e+00	 9.759155716102704e-01	 2.725088856384954e+00
 1.357240918071134e+00	 9.891039151675020e-01	 2.505556261928816e+00
 1.347592571511432e+00	 1.002209381209118e+00	 2.271240369847761e+00
 1.445460059249392e+00	 8.722343782055169e-01	 3.483267949398449e+00
 1.437012449220893e+00	 8.860828410221652e-01	 3.523403806912646e+00
 1.428422432470189e+00	 8.998649322013471e-01	 3.515580549867369e+00
 1.419690748600457e+00	 9.135784916179892e-01	 3.464681520519808e+00
 1.410818180347898e+00	 9.272213691540918e-01	 3.375441220687389e+00
 1.401805553441232e+00	 9.407914257629103e-01	 3.252434965597968e+00
 1.392653736429950e+00	 9.542865345319089e-01	 3.100069999571523e+00
 1.383363640481291e+00	 9.677045817434362e-01	 2.922578145867552e+00
 1.373936219145922e+00	 9.810434679320476e-01	 2.724010054128999e+00
 1.364372468092358e+00	 9.943011089374115e-01	 2.508231099362729e+00
 1.354673424810187e+00	 1.007475436951730e+00	 2.278918976371994e+00
 1.453015418381801e+00	 8.767935107290888e-01	 3.468593206303244e+00
 1.444523653049504e+00	 8.907143588801568e-01	 3.505133986594709e+00
 1.435888736641022e+00	 9.045684884720345e-01	 3.494931680374146e+00
 1.427111412625418e+00	 9.183537280887676e-01	 3.442794573454416e+00
 1.418192467830235e+00	 9.320679163737829e-01	 3.353434597329647e+00
 1.409132732300255e+00	 9.457089030996315e-01	 3.231457105633613e+00
 1.399933079124852e+00	 9.592745502364981e-01	 3.081352085305457e+00
 1.390594424233912e+00	 9.727627330184206e-01	 2.907486876371808e+00
 1.381117726162284e+00	 9.861713410061395e-01	 2.714100465205664e+00
 1.371503985782812e+00	 9.994982791455084e-01	 2.505299406468791e+00
 1.361754246008011e+00	 1.012741468820386e+00	 2.285055418741424e+00
 1.460570738980083e+00	 8.813526199999246e-01	 3.445824110209041e+00
 1.452034818569231e+00	 8.953458531161863e-01	 3.475297067943986e+00
 1.443355002732013e+00	 9.092720207533125e-01	 3.460153930466305e+00
 1.434532038803360e+00	 9.231289402045261e-01	 3.405100797758289e+00
 1.425566717702133e+00	 9.369144388747375e-01	 3.314810340511553e+00
 1.416459873789150e+00	 9.506263553558497e-01	 3.193911784274445e+00
 1.407212384693646e+00	 9.642625405008262e-01	 3.046982288073349e+00
 1.397825171108125e+00	 9.778208584954495e-01	 2.878539792819547e+00
 1.388299196551591e+00	 9.912991879267010e-01	 2.693037405638520e+00
 1.378635467101188e+00	 1.004695422846675e+00	 2.494859376462120e+00
 1.368835031092330e+00	 1.018007473830945e+00	 2.288318712862290e+00
 1.298026036650376e+00	 9.653465732078103e-01	 2.290205141712148e+00
 1.288602358385265e+00	 9.778903301024591e-01	 2.095676015291850e+00
 1.279051114591260e+00	 9.903503101933834e-01	 1.935905764575894e+00
 1.269373423511538e+00	 1.002724576933950e+00	 1.811056292318491e+00
 1.259570442080433e+00	 1.015011213368079e+00	 1.721507489496154e+00
 1.249643365489745e+00	 1.027208323096735e+00	 1.667866316575016e+00
 1.239593426726359e+00	 1.039314031233090e+00	 1.650976654501533e+00
 1.229421896081530e+00	 1.051326485345384e+00	 1.671929886171200e+00
 1.219130080632221e+00	 1.063243856386471e+00	 1.732076161158951e+00
 1.208719323694913e+00	 1.075064339609113e+00	 1.833036288661855e+00
 1.198191004252381e+00	 1.086786155466048e+00	 1.976714195970660e+00
 1.305107002303551e+00	 9.706127125121943e-01	 2.269726571872840e+00
 1.295631916177420e+00	 9.832248978583730e-01	 2.071530745022336e+00
 1.286028568629475e+00	 9.957528493832745e-01	 1.913213809015537e+00
 1.276298084003108e+00	 1.008194619976057e+00	 1.794097513087612e+00
 1.266441625543942e+00	 1.020548282223301e+00	 1.713668611325694e+00
 1.256460394963762e+00	 1.032811929380773e+00	 1.671589124887745e+00
 1.246355631975619e+00	 1.044983676333802e+00	 1.667707495333837e+00
 1.236128613800440e+00	 1.057061660545278e+00	 1.702070587776939e+00
 1.225780654645524e+00	 1.069044042990277e+00	 1.774936494114560e+00
 1.215313105155390e+00	 1.080929009076339e+00	 1.886788078298982e+00
 1.204727351835412e+00	 1.092714769548452e+00	 2.038347197506349e+00
 1.312187963943819e+00	 9.758788488316039e-01	 2.257610883407258e+00
 1.302661469985817e+00	 9.885594625905887e-01	 2.055047799083761e+00
 1.293006018713498e+00	 1.001155385511013e+00	 1.896972819697186e+00
 1.283222740570472e+00	 1.013664659917829e+00	 1.781907505232759e+00
 1.273312805113630e+00	 1.026085347940282e+00	 1.708484713627046e+00
 1.263277420574739e+00	 1.038415532488947e+00	 1.675460013557213e+00
 1.253117833393007e+00	 1.050653318221314e+00	 1.681724112255924e+00
 1.242835327719017e+00	 1.062796832494929e+00	 1.726316255057742e+00
 1.232431224890399e+00	 1.074844226307089e+00	 1.808438544450799e+00
 1.221906882879699e+00	 1.086793675220122e+00	 1.927471117622259e+00
 1.211263695714876e+00	 1.098643380271268e+00	 2.082988112912722e+00
 1.319268917558604e+00	 9.811449791818985e-01	 2.252366673272359e+00
 1.309691015827007e+00	 9.938940212761895e-01	 2.045486857076747e+00
 1.299983460889407e+00	 1.006557915515162e+00	 1.887191028621410e+00
 1.290147389289607e+00	 1.019134693659575e+00	 1.775240200770927e+00
 1.280183976895768e+00	 1.031622407381351e+00	 1.707452245811286e+00
 1.270094438459620e+00	 1.044019129245879e+00	 1.681714428656742e+00
 1.259880027146516e+00	 1.056322953682820e+00	 1.695997081564597e+00
 1.249542034036682e+00	 1.068531997944388e+00	 1.748368375108777e+00
 1.239081787598070e+00	 1.080644403050114e+00	 1.837010130733285e+00
 1.228500653131234e+00	 1.092658334717119e+00	 1.960234610927239e+00
 1.217800032186712e+00	 1.104571984274907e+00	 2.116502214002786e+00
 1.326349859135333e+00	 9.864111005789371e-01	 2.252531259471483e+00
 1.316720549717547e+00	 9.992285708922567e-01	 2.042119980822850e+00
 1.306960891203272e+00	 1.011960436334287e+00	 1.883872846076292e+00
 1.297072026236494e+00	 1.024604718101607e+00	 1.774829649309617e+00
 1.287055136996626e+00	 1.037159457408831e+00	 1.712031865517412e+00
 1.276911444755347e+00	 1.049622716476184e+00	 1.692536274302705e+00
 1.266642209404138e+00	 1.061992579505511e+00	 1.713429854173662e+00
 1.256248728952858e+00	 1.074267153643709e+00	 1.771845900287545e+00
 1.245732338999760e+00	 1.086444569932559e+00	 1.864981308544513e+00
 1.235094412173392e+00	 1.098522984243988e+00	 1.990114959148581e+00
 1.224336357546852e+00	 1.110500578199781e+00	 2.144627123193248e+00
 1.333430784661431e+00	 9.916772100385802e-01	 2.256668698765619e+00
 1.323750067673990e+00	 1.004563108415874e+00	 2.044230050649102e+00
 1.313938305701167e+00	 1.017362944906950e+00	 1.887017714314943e+00
 1.303996647487112e+00	 1.030074730144233e+00	 1.781389287754203e+00
 1.293926281522473e+00	 1.042696494885050e+00	 1.723648122802548e+00
 1.283728435598860e+00	 1.055226291004481e+00	 1.710058009595902e+00
 1.273404376333869e+00	 1.067662192476579e+00	 1.736859263389678e+00
 1.262955408666967e+00	 1.080002296342945e+00	 1.800286164721326e+00
 1.252382875326693e+00	 1.092244723667627e+00	 1.896585693434329e+00
 1.241688156269569e+00	 1.104387620477386e+00	 2.022037486778450e+00
 1.230872668091234e+00	 1.116429158686304e+00	 2.173043114329885e+00
 1.340511690124322e+00	 9.969433045766869e-01	 2.263367833980195e+00
 1.330779565712892e+00	 1.009897630824122e+00	 2.051109217811697e+00
 1.320915700429165e+00	 1.022765438171716e+00	 1.896618963981376e+00
 1.310921249117441e+00	 1.035544726687763e+00	 1.795611199444484e+00
 1.300797406579578e+00	 1.048233516672332e+00	 1.743689120519986e+00
 1.290545407127104e+00	 1.060829849655387e+00	 1.736360708593432e+00
 1.280166524103702e+00	 1.073331789383216e+00	 1.769055982650769e+00
 1.269662069378431e+00	 1.085737422792146e+00	 1.837145737806294e+00
 1.259033392810093e+00	 1.098044860968527e+00	 1.935961707992508e+00
 1.248281881683161e+00	 1.110252240093970e+00	 2.060818080145291e+00
 1.237408960115793e+00	 1.122357722374885e+00	 2.207148225432750e+00
 1.347592571511432e+00	 1.002209381209118e+00	 2.271240369847761e+00
 1.337809039850808e+00	 1.015232135094084e+00	 2.062057372492838e+00
 1.327893071433340e+00	 1.028167913067147e+00	 1.912662673209875e+00
 1.317845827203458e+00	 1.041014704632506e+00	 1.818165363134146e+00
 1.307668508274213e+00	 1.053770519633005e+00	 1.773506151784464e+00
 1.297362355477020e+00	 1.066433389253523e+00	 1.773474084692906e+00
 1.286928648881630e+00	 1.079001367012613e+00	 1.812724935089449e+00
 1.276368707286673e+00	 1.091472529741369e+00	 1.885801217034736e+00
 1.265683887681183e+00	 1.103844978548464e+00	 1.987153755851719e+00
 1.254875584677564e+00	 1.116116839770399e+00	 2.111090089478879e+00
 1.243945229916464e+00	 1.128286265905938e+00	 2.251992558530796e+00
 1.354673424810187e+00	 1.007475436951730e+00	 2.278918976371994e+00
 1.344838486104291e+00	 1.020566618202843e+00	 2.076380626829216e+00
 1.334870414759766e+00	 1.033570366531807e+00	 1.935126529327086e+00
 1.324770377821145e+00	 1.046484660878773e+00	 1.849698892210417e+00
 1.314539582712644e+00	 1.059307500629393e+00	 1.814413315387355e+00
 1.304179276785549e+00	 1.072036906623503e+00	 1.823376480754001e+00
 1.293690746835649e+00	 1.084670922151964e+00	 1.870505656703734e+00
 1.283075318591113e+00	 1.097207613940664e+00	 1.949549962390463e+00
 1.272334356171187e+00	 1.109645073120645e+00	 2.054113325313055e+00
 1.261469261516174e+00	 1.121981416183330e+00	 2.177150082341760e+00
 1.250481473789183e+00	 1.134214785919873e+00	 2.312505168824387e+00
 1.361754246008011e+00	 1.012741468820386e+00	 2.285055418741424e+00
 1.351867900489896e+00	 1.025901077127479e+00	 2.093389812454003e+00
 1.341847726454515e+00	 1.038972795504262e+00	 1.963978693089888e+00
 1.331694897046479e+00	 1.051954592326871e+00	 1.890835264535859e+00
 1.321410626001145e+00	 1.064844456523824e+00	 1.867687109989644e+00
 1.310996167189634e+00	 1.077640398589949e+00	 1.887994826228516e+00
 1.300452814133752e+00	 1.090340451588458e+00	 1.944972614847732e+00
 1.289781899491176e+00	 1.102942672140085e+00	 2.031610774460398e+00
 1.278984794511330e+00	 1.115445141398275e+00	 2.140545547833274e+00
 1.268062908462387e+00	 1.127845966009419e+00	 2.263185819376574e+00
 1.257017688029886e+00	 1.140143279057105e+00	 2.393499050875493e+00
 1.368835031092330e+00	 1.018007473830945e+00	 2.288318712862291e+00
 1.358897279024179e+00	 1.031235508845077e+00	 2.112398992056494e+00
 1.348825002563662e+00	 1.044375196923073e+00	 1.999176665395761e+00
 1.338619380955441e+00	 1.057424495877113e+00	 1.942173543279083e+00
 1.328281634245983e+00	 1.070381384178622e+00	 1.934566007887347e+00
 1.317813022826219e+00	 1.083243861977478e+00	 1.969204562518436e+00
 1.307214846943933e+00	 1.096009952109289e+00	 2.038635483683235e+00
 1.296488446186282e+00	 1.108677701089683e+00	 2.135124518322720e+00
 1.285635198932836e+00	 1.121245180094562e+00	 2.249688900739895e+00
 1.274656521779600e+00	 1.133710485925326e+00	 2.373286257369333e+00
 1.263553868934508e+00	 1.146071741958044e+00	 2.499674608138911e+00
 1.198191004252381e+00	 1.086786155466048e+00	 1.976714195970660e+00
 1.187548352346055e+00	 1.098405586862223e+00	 2.157735629227001e+00
 1.176791020270100e+00	 1.109922924874111e+00	 2.360516699357744e+00
 1.165920470588176e+00	 1.121336490598920e+00	 2.573138787729254e+00
 1.154938198955122e+00	 1.132644633743766e+00	 2.785065839874287e+00
 1.143845733426350e+00	 1.143845733426350e+00	 2.983340700056679e+00
 1.132644633743766e+00	 1.154938198955122e+00	 3.154462007963458e+00
 1.121336490598919e+00	 1.165920470588176e+00	 3.284420476481060e+00
 1.109922924874111e+00	 1.176791020270100e+00	 3.358726761980433e+00
 1.098405586862222e+00	 1.187548352346055e+00	 3.363810057944333e+00
 1.086786155466048e+00	 1.198191004252381e+00	 3.285609671974238e+00
 1.204727351835412e+00	 1.092714769548452e+00	 2.038347197506349e+00
 1.194026642347475e+00	 1.104397587034142e+00	 2.218066583864350e+00
 1.183210627088950e+00	 1.115977754197759e+00	 2.407111248813568e+00
 1.172280776602042e+00	 1.127453582977790e+00	 2.597892015086997e+00
 1.161238594700656e+00	 1.138823414078712e+00	 2.781600102117515e+00
 1.150085617776020e+00	 1.150085617776020e+00	 2.948623625174326e+00
 1.138823414078712e+00	 1.161238594700656e+00	 3.089041906406737e+00
 1.127453582977790e+00	 1.172280776602042e+00	 3.192636456541961e+00
 1.115977754197758e+00	 1.183210627088951e+00	 3.248902035656857e+00
 1.104397587034142e+00	 1.194026642347476e+00	 3.247465574441021e+00
 1.092714769548452e+00	 1.204727351835411e+00	 3.179346005616608e+00
 1.211263695714876e+00	 1.098643380271268e+00	 2.082988112912722e+00
 1.200504928678265e+00	 1.110389583810643e+00	 2.259021095417281e+00
 1.189630230270434e+00	 1.122032580090466e+00	 2.435797631742616e+00
 1.178641079012137e+00	 1.133570671890515e+00	 2.608021109503375e+00
 1.167538986876340e+00	 1.145002190912624e+00	 2.769207034949591e+00
 1.156325498590087e+00	 1.156325498590087e+00	 2.912734436075147e+00
 1.145002190912624e+00	 1.167538986876340e+00	 3.031857431833927e+00
 1.133570671890515e+00	 1.178641079012137e+00	 3.119711832399604e+00
 1.122032580090466e+00	 1.189630230270434e+00	 3.169321542330948e+00
 1.110389583810642e+00	 1.200504928678265e+00	 3.173609499626345e+00
 1.098643380271268e+00	 1.211263695714876e+00	 3.126915493269959e+00
 1.217800032186712e+00	 1.104571984274907e+00	 2.116502214002786e+00
 1.206983207667255e+00	 1.116381573796204e+00	 2.287158730735900e+00
 1.196049826176641e+00	 1.128087399121099e+00	 2.452624370624822e+00
 1.185001374214159e+00	 1.139687753870663e+00	 2.609083844836299e+00
 1.173839371911833e+00	 1.151180960744101e+00	 2.752512904770752e+00
 1.162565372332510e+00	 1.162565372332510e+00	 2.878912351868280e+00
 1.151180960744100e+00	 1.173839371911833e+00	 2.984311201858849e+00
 1.139687753870664e+00	 1.185001374214159e+00	 3.064769403228339e+00
 1.128087399121098e+00	 1.196049826176641e+00	 3.116380124973314e+00
 1.116381573796204e+00	 1.206983207667256e+00	 3.135271632378325e+00
 1.104571984274908e+00	 1.217800032186712e+00	 3.118038406163588e+00
 1.224336357546852e+00	 1.110500578199781e+00	 2.144627123193248e+00
 1.213461475643280e+00	 1.122373553595308e+00	 2.308836004211578e+00
 1.202469411169660e+00	 1.134142207858521e+00	 2.463475170101382e+00
 1.191361658603809e+00	 1.145804825451803e+00	 2.606503728468653e+00
 1.180139746236791e+00	 1.157359720071738e+00	 2.736029672475019e+00
 1.168805235467249e+00	 1.168805235467249e+00	 2.850311945977146e+00
 1.157359720071739e+00	 1.180139746236792e+00	 2.947760418671372e+00
 1.145804825451803e+00	 1.191361658603810e+00	 3.026935217670484e+00
 1.134142207858521e+00	 1.202469411169661e+00	 3.086545436912075e+00
 1.122373553595307e+00	 1.213461475643280e+00	 3.125447249957717e+00
 1.110500578199782e+00	 1.224336357546852e+00	 3.142645208675934e+00
 1.230872668091234e+00	 1.116429158686304e+00	 2.173043114329885e+00
 1.219939728935172e+00	 1.128365519812435e+00	 2.329804665814083e+00
 1.208888981611582e+00	 1.140197002871597e+00	 2.474093527489937e+00
 1.197721928576787e+00	 1.151921883167503e+00	 2.605573932805741e+00
 1.186440106280875e+00	 1.163538465394137e+00	 2.724158394004693e+00
 1.175045084458263e+00	 1.175045084458263e+00	 2.830005756861545e+00
 1.163538465394137e+00	 1.186440106280875e+00	 2.923518434430012e+00
 1.151921883167503e+00	 1.197721928576787e+00	 3.005338841992315e+00
 1.140197002871598e+00	 1.208888981611583e+00	 3.076345060159175e+00
 1.128365519812435e+00	 1.219939728935172e+00	 3.137645757645617e+00
 1.116429158686304e+00	 1.230872668091235e+00	 3.190574409612120e+00
 1.237408960115793e+00	 1.122357722374885e+00	 2.207148225432750e+00
 1.226417963871765e+00	 1.134357469052068e+00	 2.355675384555608e+00
 1.215308533864497e+00	 1.146251780729193e+00	 2.490086823705703e+00
 1.204082180528792e+00	 1.158038923551330e+00	 2.611461125798191e+00
 1.192740448473742e+00	 1.169717193209894e+00	 2.721192536655530e+00
 1.181284915769513e+00	 1.181284915769513e+00	 2.820986839376309e+00
 1.169717193209894e+00	 1.192740448473742e+00	 2.912856290230154e+00
 1.158038923551331e+00	 1.204082180528792e+00	 2.999113642695180e+00
 1.146251780729193e+00	 1.215308533864497e+00	 3.082365291363796e+00
 1.134357469052067e+00	 1.226417963871766e+00	 3.165503572357063e+00
 1.122357722374885e+00	 1.237408960115793e+00	 3.251698261571919e+00
 1.243945229916464e+00	 1.128286265905938e+00	 2.251992558530796e+00
 1.232896176781893e+00	 1.140349397918687e+00	 2.391926501457408e+00
 1.221728064290493e+00	 1.152306538000173e+00	 2.516930308746658e+00
 1.210442410855525e+00	 1.164155943136855e+00	 2.629209204182604e+00
 1.199040769245050e+00	 1.175895900017607e+00	 2.731321214211682e+00
 1.187524725864957e+00	 1.187524725864957e+00	 2.826171258932919e+00
 1.175895900017607e+00	 1.199040769245051e+00	 2.917004229606884e+00
 1.164155943136855e+00	 1.210442410855525e+00	 3.007397083041780e+00
 1.152306538000173e+00	 1.221728064290494e+00	 3.101249988595442e+00
 1.140349397918687e+00	 1.232896176781894e+00	 3.202776568703952e+00
 1.128286265905937e+00	 1.243945229916464e+00	 3.316493278774650e+00
 1.250481473789183e+00	 1.134214785919873e+00	 2.312505168824387e+00
 1.239374363994389e+00	 1.146341303016773e+00	 2.443907916913928e+00
 1.228147569251661e+00	 1.158361271253401e+00	 2.559970985577845e+00
 1.216802615952685e+00	 1.170272938457645e+00	 2.663742932977615e+00
 1.205341065024458e+00	 1.182074582315874e+00	 2.758632343860377e+00
 1.193764511208554e+00	 1.193764511208554e+00	 2.848400530539711e+00
 1.182074582315875e+00	 1.205341065024458e+00	 2.937153187490300e+00
 1.170272938457645e+00	 1.216802615952685e+00	 3.029331032979164e+00
 1.158361271253401e+00	 1.228147569251662e+00	 3.129699476727335e+00
 1.146341303016773e+00	 1.239374363994389e+00	 3.243337357946456e+00
 1.134214785919873e+00	 1.250481473789183e+00	 3.375624803187737e+00
 1.257017688029886e+00	 1.140143279057105e+00	 2.393499050875493e+00
 1.245852521838084e+00	 1.152333180950808e+00	 2.516844880034489e+00
 1.234567045110091e+00	 1.164415977057743e+00	 2.624431396090200e+00
 1.223162792215972e+00	 1.176389906047268e+00	 2.719871494625584e+00
 1.211641332241624e+00	 1.188253236603295e+00	 2.807115727713122e+00
 1.200004268264265e+00	 1.200004268264265e+00	 2.890444004709365e+00
 1.188253236603295e+00	 1.211641332241624e+00	 2.974456255492925e+00
 1.176389906047268e+00	 1.223162792215972e+00	 3.064062091961074e+00
 1.164415977057743e+00	 1.234567045110091e+00	 3.164469509282350e+00
 1.152333180950808e+00	 1.245852521838085e+00	 3.281172673853926e+00
 1.140143279057105e+00	 1.257017688029886e+00	 3.419938850094896e+00
 1.263553868934508e+00	 1.146071741958044e+00	 2.499674608138911e+00
 1.252330646641814e+00	 1.158325028325273e+00	 2.615841683488976e+00
 1.240986488227872e+00	 1.170470651982062e+00	 2.715413312656852e+00
 1.229522936041086e+00	 1.182506842439293e+00	 2.802291951029685e+00
 1.217941567326206e+00	 1.194431859378467e+00	 2.880666061643255e+00
 1.206243993496050e+00	 1.206243993496050e+00	 2.955001202139712e+00
 1.194431859378466e+00	 1.217941567326207e+00	 3.030030124371322e+00
 1.182506842439293e+00	 1.229522936041086e+00	 3.110741924191849e+00
 1.170470651982062e+00	 1.240986488227873e+00	 3.202370284691244e+00
 1.158325028325273e+00	 1.252330646641815e+00	 3.310380861604070e+00
 1.146071741958044e+00	 1.263553868934508e+00	 3.440457864818687e+00
 1.086786155466048e+00	 1.198191004252381e+00	 3.285609671974238e+00
 1.075064339609114e+00	 1.208719323694913e+00	 3.122659127803733e+00
 1.063243856386472e+00	 1.219130080632220e+00	 2.895939214848201e+00
 1.051326485345384e+00	 1.229421896081530e+00	 2.624450997551418e+00
 1.039314031233091e+00	 1.239593426726358e+00	 2.327924815948046e+00
 1.027208323096735e+00	 1.249643365489745e+00	 2.026783214966211e+00
 1.015011213368080e+00	 1.259570442080433e+00	 1.742103263112273e+00
 1.002724576933951e+00	 1.269373423511538e+00	 1.495578358658787e+00
 9.903503101933842e-01	 1.279051114591260e+00	 1.309479620249907e+00
 9.778903301024598e-01	 1.288602358385265e+00	 1.206616957256728e+00
 9.653465732078104e-01	 1.298026036650377e+00	 1.210299913275487e+00
 1.092714769548452e+00	 1.204727351835411e+00	 3.179346005616608e+00
 1.080929009076340e+00	 1.215313105155390e+00	 3.052734457447263e+00
 1.069044042990278e+00	 1.225780654645523e+00	 2.891215770757005e+00
 1.057061660545279e+00	 1.236128613800439e+00	 2.707743680181157e+00
 1.044983676333803e+00	 1.246355631975619e+00	 2.515577648237109e+00
 1.032811929380773e+00	 1.256460394963761e+00	 2.328255849937880e+00
 1.020548282223301e+00	 1.266441625543941e+00	 2.159568107088891e+00
 1.008194619976057e+00	 1.276298084003107e+00	 2.023528852140976e+00
 9.957528493832748e-01	 1.286028568629474e+00	 1.934350199210092e+00
 9.832248978583736e-01	 1.295631916177421e+00	 1.906415197281877e+00
 9.706127125121946e-01	 1.305107002303552e+00	 1.954251337717870e+00
 1.098643380271268e+00	 1.211263695714876e+00	 3.126915493269959e+00
 1.086793675220123e+00	 1.221906882879699e+00	 3.043236411737749e+00
 1.074844226307090e+00	 1.232431224890399e+00	 2.945200431355793e+00
 1.062796832494929e+00	 1.242835327719016e+00	 2.840595968463960e+00
 1.050653318221315e+00	 1.253117833393007e+00	 2.737165129766738e+00
 1.038415532488948e+00	 1.263277420574739e+00	 2.642585242914589e+00
 1.026085347940283e+00	 1.273312805113630e+00	 2.564450804752224e+00
 1.013664659917829e+00	 1.283222740570471e+00	 2.510255911824328e+00
 1.001155385511013e+00	 1.293006018713498e+00	 2.487377234572204e+00
 9.885594625905887e-01	 1.302661469985816e+00	 2.503057593205201e+00
 9.758788488316041e-01	 1.312187963943819e+00	 2.564390189512606e+00
 1.104571984274908e+00	 1.217800032186712e+00	 3.118038406163588e+00
 1.092658334717119e+00	 1.228500653131234e+00	 3.080647432423786e+00
 1.080644403050115e+00	 1.239081787598070e+00	 3.042211388607991e+00
 1.068531997944389e+00	 1.249542034036681e+00	 3.006220106764900e+00
 1.056322953682821e+00	 1.259880027146515e+00	 2.975835801749851e+00
 1.044019129245879e+00	 1.270094438459620e+00	 2.953881652491991e+00
 1.031622407381351e+00	 1.280183976895768e+00	 2.942831177376252e+00
 1.019134693659576e+00	 1.290147389289606e+00	 2.944798455991172e+00
 1.006557915515163e+00	 1.299983460889407e+00	 2.961529245602139e+00
 9.938940212761899e-01	 1.309691015827007e+00	 2.994393036554950e+00
 9.811449791818985e-01	 1.319268917558604e+00	 3.044376086423107e+00
 1.110500578199782e+00	 1.224336357546852e+00	 3.142645208675934e+00
 1.098522984243988e+00	 1.235094412173392e+00	 3.151729143235754e+00
 1.086444569932559e+00	 1.245732338999760e+00	 3.166892090472661e+00
 1.074267153643709e+00	 1.256248728952857e+00	 3.188177084735373e+00
 1.061992579505512e+00	 1.266642209404137e+00	 3.215088202146434e+00
 1.049622716476184e+00	 1.276911444755346e+00	 3.246584711022149e+00
 1.037159457408832e+00	 1.287055136996625e+00	 3.281076302084183e+00
 1.024604718101608e+00	 1.297072026236494e+00	 3.316419441295554e+00
 1.011960436334287e+00	 1.306960891203271e+00	 3.349914883686629e+00
 9.992285708922573e-01	 1.316720549717546e+00	 3.378306381828268e+00
 9.864111005789371e-01	 1.326349859135333e+00	 3.397780617686673e+00
 1.116429158686304e+00	 1.230872668091235e+00	 3.190574409612120e+00
 1.104387620477386e+00	 1.241688156269569e+00	 3.243514621773901e+00
 1.092244723667627e+00	 1.252382875326692e+00	 3.304202281877773e+00
 1.080002296342945e+00	 1.262955408666967e+00	 3.370367047262271e+00
 1.067662192476579e+00	 1.273404376333868e+00	 3.438761235373386e+00
 1.055226291004481e+00	 1.283728435598860e+00	 3.505454335329569e+00
 1.042696494885051e+00	 1.293926281522472e+00	 3.565832534852281e+00
 1.030074730144233e+00	 1.303996647487111e+00	 3.614599558956631e+00
 1.017362944906951e+00	 1.313938305701166e+00	 3.645778851831831e+00
 1.004563108415874e+00	 1.323750067673990e+00	 3.652717128227960e+00
 9.916772100385803e-01	 1.333430784661431e+00	 3.628089315352697e+00
 1.122357722374885e+00	 1.237408960115793e+00	 3.251698261571919e+00
 1.110252240093970e+00	 1.248281881683160e+00	 3.343300912845534e+00
 1.098044860968527e+00	 1.259033392810092e+00	 3.439409325925766e+00
 1.085737422792147e+00	 1.269662069378431e+00	 3.537020004482056e+00
 1.073331789383216e+00	 1.280166524103701e+00	 3.631024843249073e+00
 1.060829849655388e+00	 1.290545407127104e+00	 3.715561921470652e+00
 1.048233516672333e+00	 1.300797406579578e+00	 3.784017782319543e+00
 1.035544726687763e+00	 1.310921249117440e+00	 3.829031126802586e+00
 1.022765438171716e+00	 1.320915700429164e+00	 3.842497949680459e+00
 1.009897630824123e+00	 1.330779565712892e+00	 3.815578139562128e+00
 9.969433045766871e-01	 1.340511690124322e+00	 3.738703559770930e+00
 1.128286265905937e+00	 1.243945229916464e+00	 3.316493278774650e+00
 1.116116839770399e+00	 1.254875584677563e+00	 3.438350060954354e+00
 1.103844978548465e+00	 1.265683887681182e+00	 3.558079795061540e+00
 1.091472529741369e+00	 1.276368707286672e+00	 3.672686830862579e+00
 1.079001367012614e+00	 1.286928648881630e+00	 3.776370966132477e+00
 1.066433389253523e+00	 1.297362355477019e+00	 3.862281813126666e+00
 1.053770519633005e+00	 1.307668508274211e+00	 3.922814013285820e+00
 1.041014704632506e+00	 1.317845827203458e+00	 3.949612169989636e+00
 1.028167913067147e+00	 1.327893071433339e+00	 3.933577239450812e+00
 1.015232135094085e+00	 1.337809039850808e+00	 3.864874400914001e+00
 1.002209381209118e+00	 1.347592571511432e+00	 3.732942421651194e+00
 1.134214785919873e+00	 1.250481473789183e+00	 3.375624803187737e+00
 1.121981416183330e+00	 1.261469261516173e+00	 3.515939379200877e+00
 1.109645073120645e+00	 1.272334356171187e+00	 3.646071322360732e+00
 1.097207613940664e+00	 1.283075318591113e+00	 3.762230542813711e+00
 1.084670922151964e+00	 1.293690746835649e+00	 3.859604783677220e+00
 1.072036906623504e+00	 1.304179276785548e+00	 3.931283033654970e+00
 1.059307500629394e+00	 1.314539582712644e+00	 3.969660001161124e+00
 1.046484660878773e+00	 1.324770377821144e+00	 3.966440683519800e+00
 1.033570366531808e+00	 1.334870414759765e+00	 3.912646328393115e+00
 1.020566618202843e+00	 1.344838486104291e+00	 3.798621810746585e+00
 1.007475436951731e+00	 1.354673424810187e+00	 3.614044443014436e+00
 1.140143279057105e+00	 1.257017688029886e+00	 3.419938850094896e+00
 1.127845966009420e+00	 1.268062908462386e+00	 3.564058172527269e+00
 1.115445141398276e+00	 1.278984794511330e+00	 3.689283155227376e+00
 1.102942672140085e+00	 1.289781899491176e+00	 3.790817844725348e+00
 1.090340451588459e+00	 1.300452814133751e+00	 3.865836225059414e+00
 1.077640398589949e+00	 1.310996167189634e+00	 3.908521272236561e+00
 1.064844456523824e+00	 1.321410626001144e+00	 3.912244288991500e+00
 1.051954592326872e+00	 1.331694897046479e+00	 3.869809069966399e+00
 1.038972795504262e+00	 1.341847726454515e+00	 3.773455763541408e+00
 1.025901077127480e+00	 1.351867900489896e+00	 3.614866007162972e+00
 1.012741468820386e+00	 1.361754246008010e+00	 3.385169359259211e+00
 1.146071741958044e+00	 1.263553868934508e+00	 3.440457864818687e+00
 1.133710485925327e+00	 1.274656521779599e+00	 3.570939202167669e+00
 1.121245180094562e+00	 1.285635198932835e+00	 3.673512698387396e+00
 1.108677701089684e+00	 1.296488446186282e+00	 3.743910933747836e+00
 1.096009952109290e+00	 1.307214846943932e+00	 3.780471738957083e+00
 1.083243861977478e+00	 1.317813022826219e+00	 3.780231114952800e+00
 1.070381384178622e+00	 1.328281634245983e+00	 3.738498369032023e+00
 1.057424495877114e+00	 1.338619380955441e+00	 3.650198746088385e+00
 1.044375196923074e+00	 1.348825002563662e+00	 3.509873534712831e+00
 1.031235508845077e+00	 1.358897279024178e+00	 3.311681227095561e+00
 1.018007473830945e+00	 1.368835031092329e+00	 3.049399764476110e+00
 9.653465732078104e-01	 1.298026036650377e+00	 1.210299913275487e+00
 9.527231464371734e-01	 1.307319502130800e+00	 1.321419352766704e+00
 9.400198905137386e-01	 1.316483332798322e+00	 1.513919803209110e+00
 9.272387867773065e-01	 1.325516534547367e+00	 1.770501527459198e+00
 9.143818322364077e-01	 1.334418153344632e+00	 2.073206988314908e+00
 9.014510385646834e-01	 1.343187275513448e+00	 2.403446067890601e+00
 8.884484310920087e-01	 1.351823027988257e+00	 2.742022485142915e+00
 8.753760477913806e-01	 1.360324578539132e+00	 3.069161370271086e+00
 8.622359382625994e-01	 1.368691135966320e+00	 3.364537950109687e+00
 8.490301627137596e-01	 1.376921950264789e+00	 3.607307294165912e+00
 8.357607909415732e-01	 1.385016312758878e+00	 3.776135066653252e+00
 9.706127125121946e-01	 1.305107002303552e+00	 1.954251337717870e+00
 9.579204226765063e-01	 1.314451165310814e+00	 2.066247599420123e+00
 9.451478682056158e-01	 1.323664986323940e+00	 2.214185500862234e+00
 9.322970412478898e-01	 1.332747465814330e+00	 2.387552264277077e+00
 9.193699497059011e-01	 1.341697644544260e+00	 2.575610290998048e+00
 9.063686162273341e-01	 1.350514603852795e+00	 2.767409199858703e+00
 8.932950771906041e-01	 1.359197465911647e+00	 2.951798586828091e+00
 8.801513816862198e-01	 1.367745393950933e+00	 3.117441490982634e+00
 8.669395904949175e-01	 1.376157592454760e+00	 3.252828547878206e+00
 8.536617750635996e-01	 1.384433307326689e+00	 3.346292807420248e+00
 8.403200164800926e-01	 1.392571826025108e+00	 3.386025189459215e+00
 9.758788488316041e-01	 1.312187963943819e+00	 2.564390189512606e+00
 9.631176959698434e-01	 1.321582824449209e+00	 2.653731649707257e+00
 9.502758429907315e-01	 1.330846635779655e+00	 2.745538868788140e+00
 9.373552928511951e-01	 1.339978392983535e+00	 2.834988022479581e+00
 9.243580643478413e-01	 1.348977131618700e+00	 2.917386506157025e+00
 9.112861911023920e-01	 1.357841928039947e+00	 2.988173901770315e+00
 8.981417205417940e-01	 1.366571899656257e+00	 3.042923278574521e+00
 8.849267128740603e-01	 1.375166205157783e+00	 3.077342834892953e+00
 8.716432400608579e-01	 1.383624044712497e+00	 3.087277884535807e+00
 8.582933847878884e-01	 1.391944660132546e+00	 3.068713187910262e+00
 8.448792394340859e-01	 1.400127335010365e+00	 3.017775624308025e+00
 9.811449791818985e-01	 1.319268917558604e+00	 3.044376086423106e+00
 9.683149633720676e-01	 1.328714475504677e+00	 3.093194696176792e+00
 9.554038119632393e-01	 1.338028277095824e+00	 3.121771091192904e+00
 9.424135387208870e-01	 1.347209311957400e+00	 3.129892512087581e+00
 9.293461733356401e-01	 1.356256610442838e+00	 3.117757336278548e+00
 9.162037604032420e-01	 1.365169243922661e+00	 3.085967062552136e+00
 9.029883583991613e-01	 1.373946325043128e+00	 3.035518330787656e+00
 8.897020386489001e-01	 1.382587007954425e+00	 2.967795001967836e+00
 8.763468842950412e-01	 1.391090488508388e+00	 2.884560320307617e+00
 8.629249892620739e-01	 1.399456004425755e+00	 2.787949176003335e+00
 8.494384572200260e-01	 1.407682835433004e+00	 2.680460483766680e+00
 9.864111005789371e-01	 1.326349859135333e+00	 3.397780617686673e+00
 9.735122219380625e-01	 1.335846114435911e+00	 3.393751102396751e+00
 9.605317722172935e-01	 1.345209906202802e+00	 3.356369301572331e+00
 9.474717759906314e-01	 1.354440218638345e+00	 3.288975316803120e+00
 9.343342738427083e-01	 1.363536076891557e+00	 3.195524977654312e+00
 9.211213213432717e-01	 1.372496547348698e+00	 3.080574913058507e+00
 9.078349880162899e-01	 1.381320737893303e+00	 2.949267447298599e+00
 8.944773563047360e-01	 1.390007798135600e+00	 2.807315359429236e+00
 8.810505205320893e-01	 1.398556919611293e+00	 2.660986541860840e+00
 8.675565858616057e-01	 1.406967335949710e+00	 2.517088590637795e+00
 8.539976672543873e-01	 1.415238323011382e+00	 2.382953356708692e+00
 9.916772100385803e-01	 1.333430784661431e+00	 3.628089315352697e+00
 9.787094687227104e-01	 1.342977737201603e+00	 3.564311580351271e+00
 9.656597208470472e-01	 1.352391519030944e+00	 3.462524288195973e+00
 9.525300017940932e-01	 1.361671108928788e+00	 3.328581461015481e+00
 9.393223630424582e-01	 1.370815526839742e+00	 3.169082894214535e+00
 9.260388711358674e-01	 1.379823834165815e+00	 2.991354364359713e+00
 9.126816066467638e-01	 1.388695134027825e+00	 2.803427538496493e+00
 8.992526631355656e-01	 1.397428571496049e+00	 2.614019633310888e+00
 8.857541461066231e-01	 1.406023333790067e+00	 2.432512869467427e+00
 8.721881719619323e-01	 1.414478650447806e+00	 2.268933763282997e+00
 8.585568669536435e-01	 1.422793793463853e+00	 2.133932294657428e+00
 9.969433045766871e-01	 1.340511690124322e+00	 3.738703559770930e+00
 9.839067007808963e-01	 1.350109339760446e+00	 3.613588200620158e+00
 9.707876549466550e-01	 1.359573111510609e+00	 3.453137952432873e+00
 9.575882132649380e-01	 1.368901978731147e+00	 3.264700670775142e+00
 9.443104381083008e-01	 1.378094956162280e+00	 3.056426247146874e+00
 9.309564069944146e-01	 1.387151100221770e+00	 2.837243983935543e+00
 9.175282115441665e-01	 1.396069509267736e+00	 2.616839634385443e+00
 9.040279564353864e-01	 1.404849323830514e+00	 2.405632161440020e+00
 8.904577583532634e-01	 1.413489726813569e+00	 2.214750266147071e+00
 8.768197449385021e-01	 1.421989943663439e+00	 2.056008733044224e+00
 8.631160537342678e-01	 1.430349242508775e+00	 1.941884636593799e+00
 1.002209381209118e+00	 1.347592571511432e+00	 3.732942421651193e+00
 9.891039151675021e-01	 1.357240918071134e+00	 3.550099241478937e+00
 9.759155716102704e-01	 1.366754679572149e+00	 3.340830528988787e+00
 9.626464075368305e-01	 1.376132823947842e+00	 3.112976339963831e+00
 9.492984962136473e-01	 1.385374360734054e+00	 2.875161992929242e+00
 9.358739261323006e-01	 1.394478341364323e+00	 2.636774623058605e+00
 9.223747999620814e-01	 1.403443859434079e+00	 2.407939450776155e+00
 9.088032334981953e-01	 1.412270050933735e+00	 2.199495820267148e+00
 8.951613546066312e-01	 1.420956094450657e+00	 2.022973059725410e+00
 8.814513021667640e-01	 1.429501211340003e+00	 1.890566211677486e+00
 8.676752250127349e-01	 1.437904665864503e+00	 1.815111678158163e+00
 1.007475436951731e+00	 1.354673424810187e+00	 3.614044443014436e+00
 9.943011089374117e-01	 1.364372468092358e+00	 3.382173882801979e+00
 9.810434679320473e-01	 1.373936219145922e+00	 3.137947576746245e+00
 9.677045817434365e-01	 1.383363640481290e+00	 2.888714212421315e+00
 9.542865345319093e-01	 1.392653736429950e+00	 2.642518661878893e+00
 9.407914257629109e-01	 1.401805553441232e+00	 2.408079708097701e+00
 9.272213691540926e-01	 1.410818180347898e+00	 2.194767621272052e+00
 9.135784916179900e-01	 1.419690748600456e+00	 2.012581637447822e+00
 8.998649322013481e-01	 1.428422432470189e+00	 1.872127388286401e+00
 8.860828410221659e-01	 1.437012449220892e+00	 1.784594326914311e+00
 8.722343782055170e-01	 1.445460059249393e+00	 1.761733190929422e+00
 1.012741468820386e+00	 1.361754246008010e+00	 3.385169359259211e+00
 9.994982791455084e-01	 1.371503985782812e+00	 3.117956750407177e+00
 9.861713410061398e-01	 1.381117726162284e+00	 2.856566748538649e+00
 9.727627330184212e-01	 1.390594424233912e+00	 2.606890790342971e+00
 9.592745502364989e-01	 1.399933079124852e+00	 2.375355828818039e+00
 9.457089030996320e-01	 1.409132732300254e+00	 2.168905207944098e+00
 9.320679163737833e-01	 1.418192467830235e+00	 1.994979607184417e+00
 9.183537280887681e-01	 1.427111412625417e+00	 1.861498101586962e+00
 9.045684884720355e-01	 1.435888736641021e+00	 1.776839379063264e+00
 8.907143588801576e-01	 1.444523653049503e+00	 1.749823152148058e+00
 8.767935107290891e-01	 1.453015418381801e+00	 1.789691797228521e+00
 1.018007473830945e+00	 1.368835031092329e+00	 3.049399764476110e+00
 1.004695422846676e+00	 1.378635467101188e+00	 2.765412316247881e+00
 9.912991879267010e-01	 1.388299196551591e+00	 2.508504347845959e+00
 9.778208584954495e-01	 1.397825171108125e+00	 2.282161478837153e+00
 9.642625405008268e-01	 1.407212384693646e+00	 2.090173286977733e+00
 9.506263553558507e-01	 1.416459873789150e+00	 1.936619289259882e+00
 9.369144388747381e-01	 1.425566717702133e+00	 1.825855297010790e+00
 9.231289402045267e-01	 1.434532038803360e+00	 1.762500180085443e+00
 9.092720207533138e-01	 1.443355002732014e+00	 1.751423070398334e+00
 8.953458531161874e-01	 1.452034818569230e+00	 1.797731030201369e+00
 8.813526199999249e-01	 1.460570738980084e+00	 1.906757205669061e+00
 8.357607909415732e-01	 1.385016312758878e+00	 3.776135066653252e+00
 8.224299015719309e-01	 1.392973556543011e+00	 3.856947199487316e+00
 8.090395818053454e-01	 1.400793057569549e+00	 3.857818059626892e+00
 7.955919255888730e-01	 1.408474233694218e+00	 3.790496997497283e+00
 7.820890323363869e-01	 1.416016544355583e+00	 3.666998366601296e+00
 7.685330059172397e-01	 1.423419490559979e+00	 3.499584430944712e+00
 7.549259536497352e-01	 1.430682614837620e+00	 3.300748583512011e+00
 7.412699853003305e-01	 1.437805501170166e+00	 3.083198884836739e+00
 7.275672120895014e-01	 1.444787774890119e+00	 2.857913706463775e+00
 7.138197457051589e-01	 1.451629102552406e+00	 2.634892427822638e+00
 7.000296973245008e-01	 1.458329191778564e+00	 2.426132969841615e+00
 8.403200164800926e-01	 1.392571826025108e+00	 3.386025189459215e+00
 8.269164047095671e-01	 1.400572478006355e+00	 3.369721099828708e+00
 8.134530383385865e-01	 1.408434635818488e+00	 3.308512769448458e+00
 7.999320227370638e-01	 1.416157714141530e+00	 3.210677538059239e+00
 7.863554687715479e-01	 1.423741169465177e+00	 3.084522466289206e+00
 7.727254917883762e-01	 1.431184500073661e+00	 2.938374954435307e+00
 7.590442106016489e-01	 1.438487246001606e+00	 2.780573919730131e+00
 7.453137464869763e-01	 1.445648988961212e+00	 2.619461524879044e+00
 7.315362221819197e-01	 1.452669352241097e+00	 2.462465876658368e+00
 7.177137608940241e-01	 1.459548000577179e+00	 2.314346784183692e+00
 7.038484853173357e-01	 1.466284639996012e+00	 2.181952310163958e+00
 8.448792394340859e-01	 1.400127335010365e+00	 3.017775624308025e+00
 8.314029053038926e-01	 1.408171395164200e+00	 2.938454310163174e+00
 8.178664923699180e-01	 1.416076209737817e+00	 2.840925517187190e+00
 8.042721174249234e-01	 1.423841190235528e+00	 2.730584270933508e+00
 7.906219027881279e-01	 1.431465790198168e+00	 2.612661447767612e+00
 7.769179752828455e-01	 1.438949505187860e+00	 2.492220817332708e+00
 7.631624652189676e-01	 1.446291872743647e+00	 2.374156850691191e+00
 7.493575053812503e-01	 1.453492472308268e+00	 2.263193273261879e+00
 7.355052300243327e-01	 1.460550925126457e+00	 2.163599385774405e+00
 7.216077738753884e-01	 1.467466894115123e+00	 2.076398730091213e+00
 7.076672711453056e-01	 1.474240083705840e+00	 2.003849816043957e+00
 8.494384572200260e-01	 1.407682835433004e+00	 2.680460483766680e+00
 8.358894008125980e-01	 1.415770303710294e+00	 2.567757020947250e+00
 8.222799413984310e-01	 1.423717774997096e+00	 2.455876212816187e+00
 8.086122071931203e-01	 1.431524657622020e+00	 2.347908838415222e+00
 7.948883319685447e-01	 1.439190402177039e+00	 2.246628636451556e+00
 7.811104540249806e-01	 1.446714501502177e+00	 2.154494496392595e+00
 7.672807151680953e-01	 1.454096490640892e+00	 2.073653582519538e+00
 7.534012596917795e-01	 1.461335946766468e+00	 2.005945358967975e+00
 7.394742333677352e-01	 1.468432489079755e+00	 1.952891132370389e+00
 7.255017824427517e-01	 1.475385778678658e+00	 1.913199135185096e+00
 7.114860526445453e-01	 1.482195518399771e+00	 1.885109708529842e+00
 8.539976672543873e-01	 1.415238323011382e+00	 2.382953356708692e+00
 8.403758886933725e-01	 1.423369199338379e+00	 2.262134663872966e+00
 8.266933829232153e-01	 1.431359327265884e+00	 2.154161394560914e+00
 8.129522895823253e-01	 1.439208111946813e+00	 2.060386768994784e+00
 7.991547538952187e-01	 1.446915001024281e+00	 1.981734630903275e+00
 7.853029256391143e-01	 1.454479484616213e+00	 1.918705524536738e+00
 7.713989581154376e-01	 1.461901095270491e+00	 1.871383832347593e+00
 7.574450071271909e-01	 1.469179407890945e+00	 1.839445932824336e+00
 7.434432299631220e-01	 1.476314039634548e+00	 1.822169334045343e+00
 7.293957843896132e-01	 1.483304649780203e+00	 1.817001629035570e+00
 7.153048276511897e-01	 1.490150939569523e+00	 1.817848384446574e+00
 8.585568669536435e-01	 1.422793793463853e+00	 2.133932294657428e+00
 8.448623664039071e-01	 1.430968077742198e+00	 2.025990361360515e+00
 8.311068144433615e-01	 1.439000862213744e+00	 1.936554523446128e+00
 8.172923621332062e-01	 1.446891548855715e+00	 1.865795992293225e+00
 8.034211661505677e-01	 1.454639582362379e+00	 1.813384406675347e+00
 7.894953877495794e-01	 1.462244450129568e+00	 1.778496545071562e+00
 7.755171917273989e-01	 1.469705682209594e+00	 1.759826187095960e+00
 7.614887453961133e-01	 1.477022851236836e+00	 1.755595077526364e+00
 7.474122175614880e-01	 1.484195572324396e+00	 1.763407393758186e+00
 7.332897775094723e-01	 1.491223502932176e+00	 1.778579684824731e+00
 7.191235940013743e-01	 1.498106342706818e+00	 1.794552036019170e+00
 8.631160537342678e-01	 1.430349242508775e+00	 1.941884636593799e+00
 8.493488314018908e-01	 1.438566934615497e+00	 1.863627294660044e+00
 8.355202334579608e-01	 1.446642375510236e+00	 1.803806264535778e+00
 8.216324223864331e-01	 1.454574963994535e+00	 1.761955396921013e+00
 8.076875663170102e-01	 1.462364141813821e+00	 1.737074507669829e+00
 7.936878379807095e-01	 1.470009393641845e+00	 1.727639486599866e+00
 7.796354136703839e-01	 1.477510247035349e+00	 1.731613604938680e+00
 7.655324722071737e-01	 1.484866272359274e+00	 1.746194533528129e+00
 7.513811939138275e-01	 1.492077082682854e+00	 1.766689461907938e+00
 7.371837595958292e-01	 1.499142333646997e+00	 1.789666435125516e+00
 7.229423495312334e-01	 1.506061723303375e+00	 1.808728309501074e+00
 8.676752250127349e-01	 1.437904665864503e+00	 1.815111678158163e+00
 8.538352811450133e-01	 1.446165765652017e+00	 1.779250993553677e+00
 8.399336374661037e-01	 1.454283862824918e+00	 1.756644755360369e+00
 8.259724678826744e-01	 1.462258353009079e+00	 1.746723429692952e+00
 8.119539519769657e-01	 1.470088675001095e+00	 1.748390321810610e+00
 7.978802739568368e-01	 1.477774310752640e+00	 1.760031854206399e+00
 7.837536216107979e-01	 1.485314785324906e+00	 1.779165364977655e+00
 7.695761852690001e-01	 1.492709666813394e+00	 1.801281293662938e+00
 7.553501567711358e-01	 1.499958566243480e+00	 1.823490439852132e+00
 7.410777284421829e-01	 1.507061137437085e+00	 1.842857853423260e+00
 7.267610920769029e-01	 1.514017076850916e+00	 1.854017183199370e+00
 8.722343782055170e-01	 1.445460059249393e+00	 1.761733190929422e+00
 8.583217130909654e-01	 1.453764566545504e+00	 1.776971550524293e+00
 8.443470239668807e-01	 1.461925319827353e+00	 1.795775862005848e+00
 8.303124961625998e-01	 1.469941711545156e+00	 1.817996734697026e+00
 8.162203207128530e-01	 1.477813177546687e+00	 1.843003437959984e+00
 8.020726933022949e-01	 1.485539197061559e+00	 1.869262844242308e+00
 7.878718132150452e-01	 1.493119292655414e+00	 1.893080360717613e+00
 7.736198822902197e-01	 1.500553030154331e+00	 1.912611187654223e+00
 7.593191038844079e-01	 1.507840018539832e+00	 1.926007142715859e+00
 7.449716818420326e-01	 1.514979909814860e+00	 1.931061884913009e+00
 7.305798194745172e-01	 1.521972398841161e+00	 1.924187402398860e+00
 8.767935107290891e-01	 1.453015418381801e+00	 1.789691797228521e+00
 8.628081246974363e-01	 1.461363332989701e+00	 1.860805762138821e+00
 8.487603904593822e-01	 1.469566742187101e+00	 1.921883423318334e+00
 8.346525047668777e-01	 1.477625035248573e+00	 1.973708830777606e+00
 8.204866701070908e-01	 1.485537645073084e+00	 2.016219676989561e+00
 8.062650936414162e-01	 1.493304048168199e+00	 2.047041995241756e+00
 7.919899861495309e-01	 1.500923764604022e+00	 2.065877687459951e+00
 7.776635609794609e-01	 1.508396357937219e+00	 2.072550210098909e+00
 7.632880330046380e-01	 1.515721435105468e+00	 2.066593237184727e+00
 7.488656175888779e-01	 1.522898646292738e+00	 2.047257374624460e+00
 7.343985295602115e-01	 1.529927684765830e+00	 2.013133024851888e+00
 8.813526199999249e-01	 1.460570738980084e+00	 1.906757205669061e+00
 8.672945134221165e-01	 1.468962060678352e+00	 2.034679200280487e+00
 8.531737344426994e-01	 1.477208125573723e+00	 2.135629483660564e+00
 8.389924912361787e-01	 1.485308319765138e+00	 2.211414479984565e+00
 8.247529977420975e-01	 1.493262073202776e+00	 2.261371084841209e+00
 8.104574725985347e-01	 1.501068859672163e+00	 2.287114205296897e+00
 7.961081380806602e-01	 1.508728196747882e+00	 2.290603378654267e+00
 7.817072190453511e-01	 1.516239645717194e+00	 2.273617108760454e+00
 7.672569418828216e-01	 1.523602811473945e+00	 2.237755285961482e+00
 7.527595334762194e-01	 1.530817342383143e+00	 2.184441791833680e+00
 7.382172201701207e-01	 1.537882930116643e+00	 2.114870072844084e+00
 7.000296973245008e-01	 1.458329191778564e+00	 2.426132969841615e+00
 6.861968218745838e-01	 1.464888893890438e+00	 2.250037534414769e+00
 6.723255679889603e-01	 1.471306846011681e+00	 2.114232656682746e+00
 6.584180399291466e-01	 1.477582876659139e+00	 2.014573891699488e+00
 6.444763376581236e-01	 1.483716854553744e+00	 1.946832070086569e+00
 6.305025559161753e-01	 1.489708688335640e+00	 1.906484826904587e+00
 6.164987833099310e-01	 1.495558326254919e+00	 1.889613510655046e+00
 6.024671014153186e-01	 1.501265755838569e+00	 1.892425504190658e+00
 5.884095838951133e-01	 1.506831003534249e+00	 1.911098269099263e+00
 5.743282956317380e-01	 1.512254134331529e+00	 1.941781361204520e+00
 5.602252918759325e-01	 1.517535251361254e+00	 1.980598419113182e+00
 7.038484853173357e-01	 1.466284639996012e+00	 2.181952310163958e+00
 6.899401490419942e-01	 1.472880126463550e+00	 2.077520846358109e+00
 6.759932249696565e-01	 1.479333089668717e+00	 2.005897526010581e+00
 6.620098288409746e-01	 1.485643357192899e+00	 1.962832664525010e+00
 6.479920720746157e-01	 1.491810797040887e+00	 1.943896260991443e+00
 6.339420608380593e-01	 1.497835317354450e+00	 1.945522796508779e+00
 6.198618951316702e-01	 1.503716866101382e+00	 1.964227129828155e+00
 6.057536678867569e-01	 1.509455430740640e+00	 1.996546024135894e+00
 5.916194640783091e-01	 1.515051037864169e+00	 2.039038935860437e+00
 5.774613598530639e-01	 1.520503752816078e+00	 2.088288723905944e+00
 5.632814216735341e-01	 1.525813679289818e+00	 2.140902283144142e+00
 7.076672711453056e-01	 1.474240083705840e+00	 2.003849816043957e+00
 6.936834740873067e-01	 1.480871354508670e+00	 1.954520223245074e+00
 6.796608798711417e-01	 1.487359328777816e+00	 1.931902448412798e+00
 6.656016157165926e-01	 1.493703833159206e+00	 1.931643515393674e+00
 6.515078044980092e-01	 1.499904734941495e+00	 1.950319056082961e+00
 6.373815638100612e-01	 1.505961941768080e+00	 1.984576764419000e+00
 6.232250050468437e-01	 1.511875401324467e+00	 2.031130703440235e+00
 6.090402324950419e-01	 1.517645101001581e+00	 2.086761218569325e+00
 5.948293424418547e-01	 1.523271067535658e+00	 2.148314721962497e+00
 5.805944222983297e-01	 1.528753366625351e+00	 2.212703354111668e+00
 5.663375497387463e-01	 1.534092102526720e+00	 2.276904528905230e+00
 7.114860526445453e-01	 1.482195518399771e+00	 1.885109708529842e+00
 6.974267948894233e-01	 1.488862573497258e+00	 1.874814435058554e+00
 6.833285306152012e-01	 1.495385558790613e+00	 1.886754360060228e+00
 6.691933985207817e-01	 1.501764299990313e+00	 1.917460209208260e+00
 6.550235329361833e-01	 1.507998663668878e+00	 1.963565869101677e+00
 6.408210628832554e-01	 1.514088556971340e+00	 2.021807934846088e+00
 6.265881111498115e-01	 1.520033927300915e+00	 2.089025076429672e+00
 6.123267933779030e-01	 1.525834761980506e+00	 2.162157231735125e+00
 5.980392171669252e-01	 1.531491087890640e+00	 2.238244634111908e+00
 5.837274811922253e-01	 1.537002971084514e+00	 2.314426682497886e+00
 5.693936743398391e-01	 1.542370516380803e+00	 2.387940662126614e+00
 7.153048276511897e-01	 1.490150939569523e+00	 1.817848384446574e+00
 7.011701093272453e-01	 1.496853778900771e+00	 1.831878823022976e+00
 6.869961751236221e-01	 1.503411775158746e+00	 1.866083005847225e+00
 6.727851752183224e-01	 1.509824753118475e+00	 1.916963485138209e+00
 6.585392553970170e-01	 1.516092578636349e+00	 1.981153027693195e+00
 6.442605561087161e-01	 1.522215158359038e+00	 2.055413737405653e+00
 6.299512115349345e-01	 1.528192439407473e+00	 2.136635966554289e+00
 6.156133486730692e-01	 1.534024409036530e+00	 2.221837024918869e+00
 6.012490864346958e-01	 1.539711094271035e+00	 2.308159695890276e+00
 5.868605347594419e-01	 1.545252561518732e+00	 2.392870568832365e+00
 5.724497937450824e-01	 1.550648916160909e+00	 2.473358197022511e+00
 7.191235940013743e-01	 1.498106342706818e+00	 1.794552036019170e+00
 7.049134152796757e-01	 1.504844966190669e+00	 1.820359740390564e+00
 6.906638113181898e-01	 1.511437973333853e+00	 1.865665416235220e+00
 6.763769437739957e-01	 1.517885187975948e+00	 1.926901125395458e+00
 6.620549698883899e-01	 1.524186475257223e+00	 2.000646322793614e+00
 6.477000415375186e-01	 1.530341741325984e+00	 2.083626768718117e+00
 6.333143042965722e-01	 1.536350933020881e+00	 2.172713209761984e+00
 6.188998965182698e-01	 1.542214037528769e+00	 2.264919838171876e+00
 6.044589484263413e-01	 1.547931082018767e+00	 2.357402539496927e+00
 5.899935812246709e-01	 1.553502133253170e+00	 2.447456938534298e+00
 5.755059062227464e-01	 1.558927297175879e+00	 2.532516253653449e+00
 7.229423495312334e-01	 1.506061723303375e+00	 1.808728309501073e+00
 7.086567106256154e-01	 1.512836130838410e+00	 1.835018400320910e+00
 6.943314371206910e-01	 1.519464148767568e+00	 1.881364136381483e+00
 6.799687021525825e-01	 1.525945599994986e+00	 1.944086083693796e+00
 6.655706744181815e-01	 1.532280348944810e+00	 2.019659603498982e+00
 6.511395172207378e-01	 1.538468301266987e+00	 2.104713767099218e+00
 6.366773875290852e-01	 1.544509403517884e+00	 2.196030029053842e+00
 6.221864350512342e-01	 1.550403642816336e+00	 2.290540668693052e+00
 6.076688013230372e-01	 1.556151046475759e+00	 2.385327010042872e+00
 5.931266188126023e-01	 1.561751681612993e+00	 2.477617430372381e+00
 5.785620100411009e-01	 1.567205654734554e+00	 2.564785167668886e+00
 7.267610920769029e-01	 1.514017076850916e+00	 1.854017183199370e+00
 7.123999932439670e-01	 1.520827268315453e+00	 1.870722163030946e+00
 6.979990504529114e-01	 1.527490296911529e+00	 1.909124876605598e+00
 6.835604483188636e-01	 1.534005984607846e+00	 1.965394672187484e+00
 6.690863669942707e-01	 1.540374195112425e+00	 2.035853415752270e+00
 6.545789812094478e-01	 1.546594833576855e+00	 2.116974619128994e+00
 6.400404593268342e-01	 1.552667846275225e+00	 2.205382325979676e+00
 6.254729624096917e-01	 1.558593220258347e+00	 2.297849765258820e+00
 6.108786433059578e-01	 1.564370982983933e+00	 2.391297781937224e+00
 5.962596457479271e-01	 1.570001201923367e+00	 2.482793054893875e+00
 5.816181034684160e-01	 1.575483984145777e+00	 2.569546111977512e+00
 7.305798194745172e-01	 1.521972398841161e+00	 1.924187402398860e+00
 7.161432610136320e-01	 1.528818374093254e+00	 1.922441656839655e+00
 7.016666492366378e-01	 1.535516413217374e+00	 1.944974235980426e+00
 6.871521802376204e-01	 1.542066337246781e+00	 1.987764804757421e+00
 6.726020456245372e-01	 1.548468009173378e+00	 2.046933683251112e+00
 6.580184315547238e-01	 1.554721333650398e+00	 2.118741396937925e+00
 6.434035177841789e-01	 1.560826256669648e+00	 2.199587993941882e+00
 6.287594767313717e-01	 1.566782765213916e+00	 2.286012138117078e+00
 6.140884725562782e-01	 1.572590886885209e+00	 2.374689986926272e+00
 5.993926602553366e-01	 1.578250689509457e+00	 2.462433863194517e+00
 5.846741847729616e-01	 1.583762280718389e+00	 2.546190729911339e+00
 7.343985295602115e-01	 1.529927684765830e+00	 2.013133024851888e+00
 7.198865118135128e-01	 1.536809443643275e+00	 1.985247988431637e+00
 7.053342313936555e-01	 1.543542493136738e+00	 1.985017496395679e+00
 6.907438958736327e-01	 1.550126653344047e+00	 2.008194294601740e+00
 6.761177083168599e-01	 1.556561786540984e+00	 2.050650429045652e+00
 6.614578663076400e-01	 1.562847796882425e+00	 2.108377425096996e+00
 6.467665609954798e-01	 1.568984630077895e+00	 2.177486252517579e+00
 6.320459761540028e-01	 1.574972273042159e+00	 2.254207083785406e+00
 6.172982872551739e-01	 1.580810753521514e+00	 2.334888853363709e+00
 6.025256605595208e-01	 1.586500139696426e+00	 2.415998625655355e+00
 5.877302522230080e-01	 1.592040539761234e+00	 2.494120779467720e+00
 7.382172201701207e-01	 1.537882930116643e+00	 2.114870072844084e+00
 7.236297435225110e-01	 1.544800472436972e+00	 2.054310039120205e+00
 7.090017948457513e-01	 1.551568532121260e+00	 2.025436484551471e+00
 6.943355931916827e-01	 1.558186928331899e+00	 2.023739204171834e+00
 6.796333530791191e-01	 1.564655522628554e+00	 2.044796536359068e+00
 6.648972835192718e-01	 1.570974218667745e+00	 2.084276376044391e+00
 6.501295870550970e-01	 1.577142961876710e+00	 2.137937002041725e+00
 6.353324588153149e-01	 1.583161739102190e+00	 2.201627724216848e+00
 6.205080855838198e-01	 1.589030578234767e+00	 2.271289356307841e+00
 6.056586448851712e-01	 1.594749547809442e+00	 2.342954520287886e+00
 5.907863040868248e-01	 1.600318756583150e+00	 2.412747788230578e+00
 5.602252918759325e-01	 1.517535251361254e+00	 1.980598419113182e+00
 5.461050194504662e-01	 1.522673633773767e+00	 2.021448463297953e+00
 5.319671148276707e-01	 1.527670368504342e+00	 2.061060457097661e+00
 5.178135977800125e-01	 1.532525669353275e+00	 2.099814010853242e+00
 5.036464752493562e-01	 1.537239786432333e+00	 2.138152427218023e+00
 4.894677405839741e-01	 1.541813005666570e+00	 2.176578090157362e+00
 4.752793727944883e-01	 1.546245648278505e+00	 2.215647834926145e+00
 4.610833358291607e-01	 1.550538070255469e+00	 2.255968309425768e+00
 4.468815778689010e-01	 1.554690661800824e+00	 2.298191337078054e+00
 4.326760306423511e-01	 1.558703846769861e+00	 2.343009291076475e+00
 4.184686087613524e-01	 1.562578082091108e+00	 2.391150489586926e+00
 5.632814216735341e-01	 1.525813679289818e+00	 2.140902283144142e+00
 5.490841206207130e-01	 1.530980092503372e+00	 2.191942066350255e+00
 5.348690911838104e-01	 1.536004085321435e+00	 2.239034060617823e+00
 5.206383641534996e-01	 1.540885872710607e+00	 2.282658143378016e+00
 5.063939574198570e-01	 1.545625706147051e+00	 2.323339191918227e+00
 4.921378752052123e-01	 1.550223873115576e+00	 2.361642621970424e+00
 4.778721073160311e-01	 1.554680696591020e+00	 2.398169929821648e+00
 4.635986284142499e-01	 1.558996534502674e+00	 2.433554247644531e+00
 4.493193973084404e-01	 1.563171779182520e+00	 2.468455921453648e+00
 4.350363562651558e-01	 1.567206856798041e+00	 2.503558120791466e+00
 4.207514303407747e-01	 1.571102226770384e+00	 2.539562488936685e+00
 5.663375497387463e-01	 1.534092102526720e+00	 2.276904528905230e+00
 5.520632201023095e-01	 1.539286546525394e+00	 2.336550063114565e+00
 5.377710658951050e-01	 1.544337797415481e+00	 2.389648477949874e+00
 5.234631289260004e-01	 1.549246071329882e+00	 2.436783725819237e+00
 5.091414380332743e-01	 1.554011621109148e+00	 2.478569633902886e+00
 4.948080083133017e-01	 1.558634735797844e+00	 2.515645524551826e+00
 4.804648403683806e-01	 1.563115740123116e+00	 2.548671858238560e+00
 4.661139195741118e-01	 1.567454993956215e+00	 2.578325908229472e+00
 4.517572153667179e-01	 1.571652891757733e+00	 2.605297475831043e+00
 4.373966805506534e-01	 1.575709862007345e+00	 2.630284654736903e+00
 4.230342506268229e-01	 1.579626366618807e+00	 2.653989652671058e+00
 5.693936743398391e-01	 1.542370516380803e+00	 2.387940662126614e+00
 5.550423162071549e-01	 1.547592991132789e+00	 2.454497808237647e+00
 5.406730373171339e-01	 1.552671500063979e+00	 2.512077201101273e+00
 5.262878904968222e-01	 1.557606260473578e+00	 2.561370461283561e+00
 5.118889155326835e-01	 1.562397526566516e+00	 2.603087487040904e+00
 4.974781383951237e-01	 1.567045588947110e+00	 2.637952089439292e+00
 4.830575704822563e-01	 1.571550774094812e+00	 2.666697665570679e+00
 4.686292078833309e-01	 1.575913443822823e+00	 2.690062918681306e+00
 4.541950306622056e-01	 1.580133994720345e+00	 2.708787633687027e+00
 4.397570021612204e-01	 1.584212857579236e+00	 2.723608516204407e+00
 4.253170683257905e-01	 1.588150496805859e+00	 2.735255102875523e+00
 5.724497937450824e-01	 1.550648916160909e+00	 2.473358197022511e+00
 5.580214072471477e-01	 1.555899421618508e+00	 2.545025187318282e+00
 5.435750038054766e-01	 1.561005188544430e+00	 2.605509529127680e+00
 5.291126472652714e-01	 1.565966435404172e+00	 2.655613894017126e+00
 5.146363883611608e-01	 1.570783417767045e+00	 2.696151123646028e+00
 5.001482639375601e-01	 1.575456427797112e+00	 2.727939813192081e+00
 4.856502961883779e-01	 1.579985793726124e+00	 2.751799944961795e+00
 4.711444919164921e-01	 1.584371879309231e+00	 2.768548580819312e+00
 4.566328418133755e-01	 1.588615083264238e+00	 2.778995621705958e+00
 4.421173197592332e-01	 1.592715838695180e+00	 2.783939642158354e+00
 4.275998821439713e-01	 1.596674612501019e+00	 2.784163807363984e+00
 5.755059062227464e-01	 1.558927297175879e+00	 2.532516253653449e+00
 5.610004915341872e-01	 1.564205833275505e+00	 2.607386150093796e+00
 5.464769637157124e-01	 1.569338858134331e+00	 2.669150070290078e+00
 5.319373976306551e-01	 1.574326591384141e+00	 2.718724913558543e+00
 5.173838549617822e-01	 1.579169289958625e+00	 2.757033093507860e+00
 5.028183834274927e-01	 1.583867247581586e+00	 2.784998004016582e+00
 4.882430160174654e-01	 1.588420794237071e+00	 2.803539544055475e+00
 4.736597702481799e-01	 1.592830295622174e+00	 2.813569709976568e+00
 4.590706474386991e-01	 1.597096152583294e+00	 2.815988263512663e+00
 4.444776320070679e-01	 1.601218800536641e+00	 2.811678483349166e+00
 4.298826907876586e-01	 1.605198708873770e+00	 2.801503007745684e+00
 5.785620100411009e-01	 1.567205654734554e+00	 2.564785167668886e+00
 5.639795673801719e-01	 1.572512221396735e+00	 2.640848258039296e+00
 5.493789154034203e-01	 1.577672504111181e+00	 2.702218259610286e+00
 5.347621399922795e-01	 1.582686723675964e+00	 2.749929274233419e+00
 5.201313137776238e-01	 1.587555138389146e+00	 2.785019677169092e+00
 5.054884953518040e-01	 1.592278043534268e+00	 2.808527400509948e+00
 4.908357285002384e-01	 1.596855770847669e+00	 2.821485280707418e+00
 4.761750414529792e-01	 1.601288687968382e+00	 2.824916478981748e+00
 4.615084461566480e-01	 1.605577197871394e+00	 2.819829983002301e+00
 4.468379375671011e-01	 1.609721738285083e+00	 2.807216197828296e+00
 4.321654929631460e-01	 1.613722781093591e+00	 2.788042633701506e+00
 5.816181034684160e-01	 1.575483984145777e+00	 2.569546111977512e+00
 5.669586330970008e-01	 1.580818581275152e+00	 2.644692245852241e+00
 5.522808572241804e-01	 1.586006121752480e+00	 2.703947891261433e+00
 5.375868727494523e-01	 1.591046827542120e+00	 2.748467129428827e+00
 5.228787632517612e-01	 1.595940958306500e+00	 2.779410452927692e+00
 5.081585981973755e-01	 1.600688810888898e+00	 2.797939802078324e+00
 4.934284321674168e-01	 1.605290718777939e+00	 2.805213667332678e+00
 4.786903041054745e-01	 1.609747051554588e+00	 2.802382266752657e+00
 4.639462365856944e-01	 1.614058214322419e+00	 2.790582807282684e+00
 4.491982351017086e-01	 1.618224647121972e+00	 2.770934838107682e+00
 4.344482873767272e-01	 1.622246824329965e+00	 2.744535703976152e+00
 5.846741847729616e-01	 1.583762280718389e+00	 2.546190729911339e+00
 5.699376869965725e-01	 1.589124908203710e+00	 2.618211596317059e+00
 5.551827875335719e-01	 1.594339706335727e+00	 2.673586665253348e+00
 5.404115943014792e-01	 1.599406898245083e+00	 2.713592580109835e+00
 5.256262018272702e-01	 1.604326744958575e+00	 2.739517877064386e+00
 5.108286904510888e-01	 1.609099544879210e+00	 2.752657710604899e+00
 4.960211255497203e-01	 1.613725633247896e+00	 2.754308643573687e+00
 4.812055567802505e-01	 1.618205381587525e+00	 2.745763511334289e+00
 4.663840173443101e-01	 1.622539197130253e+00	 2.728306369244132e+00
 4.515585232732676e-01	 1.626727522228771e+00	 2.703207532196315e+00
 4.367310727346956e-01	 1.630770833752372e+00	 2.671718714571376e+00
 5.877302522230080e-01	 1.592040539761234e+00	 2.494120779467720e+00
 5.729167273907859e-01	 1.597431197475362e+00	 2.560712128065451e+00
 5.580847046871743e-01	 1.602673253138420e+00	 2.610395747895271e+00
 5.432363030476680e-01	 1.607766931047333e+00	 2.644573237062102e+00
 5.283736279472270e-01	 1.612712493593261e+00	 2.664666876816524e+00
 5.134987705998262e-01	 1.617510240738941e+00	 2.672113982960422e+00
 4.986138071778686e-01	 1.622160509477558e+00	 2.668361316988073e+00
 4.837207980518917e-01	 1.626663673273926e+00	 2.654859567221067e+00
 4.688217870509668e-01	 1.631020141488776e+00	 2.633057909771242e+00
 4.539188007441537e-01	 1.635230358786946e+00	 2.604398658736926e+00
 4.390138477433446e-01	 1.639294804530294e+00	 2.570312014605756e+00
 5.907863040868248e-01	 1.600318756583150e+00	 2.412747788230578e+00
 5.758957525915404e-01	 1.605737444383062e+00	 2.471511595767959e+00
 5.609866070405670e-01	 1.611006757438059e+00	 2.513649345539608e+00
 5.460609973873252e-01	 1.616126921211349e+00	 2.540689796366367e+00
 5.311210400547076e-01	 1.621098199458451e+00	 2.554194455639237e+00
 5.161688371304696e-01	 1.625920893701830e+00	 2.555751493965864e+00
 5.012064755825815e-01	 1.630595342686943e+00	 2.546969711467748e+00
 4.862360264949831e-01	 1.635121921820524e+00	 2.529472566809337e+00
 4.712595443241364e-01	 1.639501042591871e+00	 2.504892279610264e+00
 4.562790661767438e-01	 1.643733151977961e+00	 2.474864016456570e+00
 4.412966111089681e-01	 1.647818731833210e+00	 2.441020170286707e+00
 4.184686087613524e-01	 1.562578082091108e+00	 2.391150489586926e+00
 4.042612092709105e-01	 1.566313857513235e+00	 2.439014130172002e+00
 3.900557115896419e-01	 1.569911696014492e+00	 2.481683191016132e+00
 3.758539762950538e-01	 1.573372152160505e+00	 2.517921825837733e+00
 3.616578443450143e-01	 1.576695811133211e+00	 2.546352071794350e+00
 3.474691365191289e-01	 1.579883288089228e+00	 2.565932499715010e+00
 3.332896528818214e-01	 1.582935227508337e+00	 2.576863141377489e+00
 3.191211722672218e-01	 1.585852302532892e+00	 2.579331361833730e+00
 3.049654517859358e-01	 1.588635214298862e+00	 2.573429548863637e+00
 2.908242263537443e-01	 1.591284691259338e+00	 2.559161762675226e+00
 2.766992082422489e-01	 1.593801488501192e+00	 2.536450383317856e+00
 4.207514303407747e-01	 1.571102226770384e+00	 2.539562488936685e+00
 4.064665269290134e-01	 1.574858381519876e+00	 2.572596143092944e+00
 3.921835357010634e-01	 1.578475846877712e+00	 2.597870920200080e+00
 3.779043273842290e-01	 1.581955180434782e+00	 2.614734030304285e+00
 3.636307529791473e-01	 1.585296970565305e+00	 2.622456889222990e+00
 3.493646431981165e-01	 1.588501835781693e+00	 2.620425294098429e+00
 3.351078079252475e-01	 1.591570424079493e+00	 2.609389743412706e+00
 3.208620356985429e-01	 1.594503412273176e+00	 2.590199072406870e+00
 3.066290932139747e-01	 1.597301505323544e+00	 2.563627134836198e+00
 2.924107248516131e-01	 1.599965435657535e+00	 2.530378301961583e+00
 2.782086522238209e-01	 1.602495962481166e+00	 2.491092957261156e+00
 4.230342506268229e-01	 1.579626366618807e+00	 2.653989652671058e+00
 4.086718433376451e-01	 1.583402900684102e+00	 2.672669202463529e+00
 3.943113586068853e-01	 1.587039992887372e+00	 2.681976282204257e+00
 3.799546773116462e-01	 1.590538203844771e+00	 2.681733084548781e+00
 3.656036604953350e-01	 1.593898125122802e+00	 2.671745906823205e+00
 3.512601488029429e-01	 1.597120378589678e+00	 2.651761629293558e+00
 3.369259619382698e-01	 1.600205615756710e+00	 2.622923277496961e+00
 3.226028981431911e-01	 1.603154517110489e+00	 2.586615535902777e+00
 3.082927336990464e-01	 1.605967791436651e+00	 2.544164533419120e+00
 2.939972224501960e-01	 1.608646175135986e+00	 2.496842422417838e+00
 2.797180953497652e-01	 1.611190431533655e+00	 2.445871950782599e+00
 4.253170683257905e-01	 1.588150496805859e+00	 2.735255102875523e+00
 4.108771572470237e-01	 1.591947410163843e+00	 2.740439316332220e+00
 3.964391791012510e-01	 1.595604129190281e+00	 2.735493095309077e+00
 3.820050249153676e-01	 1.599121217526589e+00	 2.720607563760644e+00
 3.675765657755436e-01	 1.602499269931554e+00	 2.696005378807962e+00
 3.531556522594581e-01	 1.605738911629189e+00	 2.661738802482855e+00
 3.387441138905933e-01	 1.608840797646567e+00	 2.619185636388107e+00
 3.243437586146913e-01	 1.611805612142400e+00	 2.570142962430800e+00
 3.099563722984534e-01	 1.614634067727157e+00	 2.516362199282285e+00
 2.955837182505248e-01	 1.617326904775478e+00	 2.459552990071591e+00
 2.812275367647871e-01	 1.619884890731665e+00	 2.401387079702499e+00
 4.275998821439713e-01	 1.596674612501019e+00	 2.784163807363984e+00
 4.130824674073675e-01	 1.600491905117031e+00	 2.777086307515806e+00
 3.985669959783042e-01	 1.604168250933248e+00	 2.759882988288155e+00
 3.840553690334549e-01	 1.607704216616352e+00	 2.733009832322799e+00
 3.695494677017397e-01	 1.611100400117410e+00	 2.696984262703994e+00
 3.550511524935119e-01	 1.614357430016230e+00	 2.652116638386356e+00
 3.405622627519225e-01	 1.617475964855642e+00	 2.599862906873802e+00
 3.260846161265684e-01	 1.620456692466479e+00	 2.542311217504621e+00
 3.116200080694989e-01	 1.623300329284035e+00	 2.481513450630959e+00
 2.971702113536312e-01	 1.626007619656798e+00	 2.419488640554361e+00
 2.827369756135910e-01	 1.628579335148205e+00	 2.358226383985320e+00
 4.298826907876586e-01	 1.605198708873770e+00	 2.801503007745684e+00
 4.152877725688948e-01	 1.609036380701594e+00	 2.783764458034216e+00
 4.006948080321881e-01	 1.612732353263084e+00	 2.756576207406348e+00
 3.861057085039700e-01	 1.616287196250179e+00	 2.720556960714173e+00
 3.715223651558897e-01	 1.619701510806219e+00	 2.676398300733181e+00
 3.569466484309538e-01	 1.622975928866803e+00	 2.624618438333275e+00
 3.423804074919626e-01	 1.626111112490514e+00	 2.566606280812828e+00
 3.278254696923469e-01	 1.629107753180294e+00	 2.504618647079533e+00
 3.132836400694852e-01	 1.631966571196258e+00	 2.440885161523013e+00
 2.987567008605469e-01	 1.634688314860732e+00	 2.377608293260020e+00
 2.842464110408821e-01	 1.637273759856283e+00	 2.316966519595561e+00
 4.321654929631460e-01	 1.613722781093591e+00	 2.788042633701506e+00
 4.174930714818238e-01	 1.617580832075464e+00	 2.761603132928846e+00
 4.028226140570464e-01	 1.621296431326598e+00	 2.726972397675762e+00
 3.881560421649748e-01	 1.624870151564185e+00	 2.684831613208761e+00
 3.734952570199596e-01	 1.628302597123831e+00	 2.635940286979078e+00
 3.588421389976337e-01	 1.631594403296914e+00	 2.580931898041848e+00
 3.441985470804185e-01	 1.634746235657761e+00	 2.521032936190144e+00
 3.295663183255523e-01	 1.637758789381415e+00	 2.458532875420399e+00
 3.149472673557154e-01	 1.640632788552800e+00	 2.395718431305836e+00
 3.003431858723034e-01	 1.643368985468068e+00	 2.334851648343203e+00
 2.857558421913652e-01	 1.645968159928908e+00	 2.278173040304394e+00
 4.344482873767272e-01	 1.622246824329965e+00	 2.744535703976152e+00
 4.196983628963727e-01	 1.626125254396569e+00	 2.711707384221014e+00
 4.049504128470223e-01	 1.629860480270600e+00	 2.672441359314448e+00
 3.902063688545315e-01	 1.633453077694489e+00	 2.627382907442785e+00
 3.754681421759165e-01	 1.636903654196095e+00	 2.577256832260491e+00
 3.607376231194017e-01	 1.640212848422567e+00	 2.522709995255681e+00
 3.460166804869954e-01	 1.643381329463962e+00	 2.464726889285892e+00
 3.313071610397092e-01	 1.646409796167410e+00	 2.405491576797432e+00
 3.166108889854919e-01	 1.649298976442632e+00	 2.347229232012563e+00
 3.019296654899323e-01	 1.652049626559593e+00	 2.292139667187498e+00
 2.872652682097454e-01	 1.654662530439087e+00	 2.242400669815933e+00
 4.367310727346956e-01	 1.630770833752372e+00	 2.671718714571376e+00
 4.219036455627593e-01	 1.634669642822839e+00	 2.635158535735902e+00
 4.070782031962595e-01	 1.638424495241900e+00	 2.594323780312861e+00
 3.922566874107019e-01	 1.642035969777207e+00	 2.549727246876832e+00
 3.774410195057264e-01	 1.645504677148861e+00	 2.501958261584027e+00
 3.626330997221071e-01	 1.648831259359767e+00	 2.451571848337051e+00
 3.478348066813979e-01	 1.652016389015695e+00	 2.399239819012966e+00
 3.330479968483425e-01	 1.655060768635849e+00	 2.346903221965059e+00
 3.182745040161179e-01	 1.657965129954727e+00	 2.296609034522107e+00
 3.035161388144657e-01	 1.660730233216094e+00	 2.250375036946803e+00
 2.887746882407271e-01	 1.663356866459827e+00	 2.210193564566693e+00
 4.390138477433446e-01	 1.639294804530294e+00	 2.570312014605756e+00
 4.241089182312024e-01	 1.643213992512207e+00	 2.533014749486867e+00
 4.092059838989013e-01	 1.646988471387306e+00	 2.493931945975932e+00
 3.943069966715474e-01	 1.650618822948456e+00	 2.453349127137136e+00
 3.794138878913559e-01	 1.654105661107979e+00	 2.411621183532992e+00
 3.645285677315999e-01	 1.657449631224517e+00	 2.369103546871973e+00
 3.496529246333312e-01	 1.660651409419539e+00	 2.326091864433818e+00
 3.347888247649772e-01	 1.663711701884300e+00	 2.284147800339724e+00
 3.199381115048958e-01	 1.666631244178060e+00	 2.245025414254386e+00
 3.051026049469347e-01	 1.669410800518359e+00	 2.210442619738501e+00
 2.902841014290157e-01	 1.672051163064140e+00	 2.182085567537179e+00
 4.412966111089681e-01	 1.647818731833210e+00	 2.441020170286707e+00
 4.263141796519200e-01	 1.651758298622600e+00	 2.406311574286698e+00
 4.113337537490910e-01	 1.655552403853629e+00	 2.372550426272521e+00
 3.963572954751309e-01	 1.659201632344353e+00	 2.339701917179689e+00
 3.813867462147714e-01	 1.662706601199298e+00	 2.307789321321085e+00
 3.664240260737301e-01	 1.666067959132822e+00	 2.276858955298447e+00
 3.514710333125002e-01	 1.669286385782073e+00	 2.246772396425662e+00
 3.365296438031382e-01	 1.672362591010333e+00	 2.218577518754621e+00
 3.216017105091286e-01	 1.675297314201602e+00	 2.193622637140092e+00
 3.066890629883714e-01	 1.678091323547173e+00	 2.173209887042980e+00
 2.917935069193159e-01	 1.680745415325032e+00	 2.158600453400553e+00
 2.766992082422489e-01	 1.593801488501192e+00	 2.536450383317856e+00
 2.625896905333688e-01	 1.596186781145472e+00	 2.512700768136910e+00
 2.484997456962398e-01	 1.598440935759645e+00	 2.494686113702338e+00
 2.344310200493027e-01	 1.600564782436457e+00	 2.481283504940507e+00
 2.203851355945446e-01	 1.602559175150043e+00	 2.471340642114516e+00
 2.063636896767386e-01	 1.604424991048371e+00	 2.463682357969617e+00
 1.923682546643027e-01	 1.606163129743204e+00	 2.457116995096911e+00
 1.784003776516225e-01	 1.607774512598260e+00	 2.450442631276610e+00
 1.644615801826584e-01	 1.609260082016233e+00	 2.442453141662210e+00
 1.505533579956408e-01	 1.610620800725342e+00	 2.431944087743600e+00
 1.366771807886333e-01	 1.611857651066033e+00	 2.417718424077243e+00
 2.782086522238209e-01	 1.602495962481166e+00	 2.491092957261156e+00
 2.640221645561616e-01	 1.604894267325989e+00	 2.453728933292535e+00
 2.498553565338244e-01	 1.607160718759159e+00	 2.425035015875842e+00
 2.357098834562135e-01	 1.609296151401727e+00	 2.403727730569174e+00
 2.215873761736286e-01	 1.611301423886408e+00	 2.388470768955336e+00
 2.074894407446450e-01	 1.613177418146170e+00	 2.377882360107146e+00
 1.934176581152337e-01	 1.614925038700317e+00	 2.370542508071137e+00
 1.793735838194578e-01	 1.616545211938770e+00	 2.365000081659351e+00
 1.653587477015736e-01	 1.618038885405196e+00	 2.359779743989117e+00
 1.513746536593325e-01	 1.619407027079671e+00	 2.353388710337677e+00
 1.374227794082650e-01	 1.620650624661481e+00	 2.344323323979600e+00
 2.797180953497652e-01	 1.611190431533655e+00	 2.445871950782599e+00
 2.654546377669676e-01	 1.613601748571710e+00	 2.399260456955775e+00
 2.512109666030281e-01	 1.615880496816994e+00	 2.363355268411187e+00
 2.369887461383008e-01	 1.618027515418851e+00	 2.336768652360754e+00
 2.227896160713848e-01	 1.620043667668570e+00	 2.318040188372833e+00
 2.086151911746463e-01	 1.621929840284108e+00	 2.305644843579236e+00
 1.944670609715957e-01	 1.623686942692302e+00	 2.298000918821558e+00
 1.803467894359619e-01	 1.625315906309269e+00	 2.293477850799552e+00
 1.662559147122849e-01	 1.626817683819643e+00	 2.290403856478922e+00
 1.521959488578252e-01	 1.628193248455343e+00	 2.287073407187857e+00
 1.381683776055684e-01	 1.629443593274491e+00	 2.281754520977501e+00
 2.812275367647871e-01	 1.619884890731665e+00	 2.401387079702499e+00
 2.668871093541109e-01	 1.622309219948267e+00	 2.349496079643837e+00
 2.525665751357273e-01	 1.624600264991807e+00	 2.309524385950611e+00
 2.382676073709239e-01	 1.626758869539914e+00	 2.280035110733759e+00
 2.239918546065833e-01	 1.628785901542439e+00	 2.259502386517288e+00
 2.097409403288457e-01	 1.630682252502318e+00	 2.246319996051626e+00
 1.955164626387456e-01	 1.632448836753914e+00	 2.238809877106720e+00
 1.813199939496622e-01	 1.634086590739525e+00	 2.235230486323418e+00
 1.671530807064034e-01	 1.635596472284742e+00	 2.233785007435585e+00
 1.530172431257238e-01	 1.636979459873319e+00	 2.232629390386608e+00
 1.389139749580493e-01	 1.638236551922203e+00	 2.229880209048732e+00
 2.827369756135910e-01	 1.628579335148205e+00	 2.358226383985320e+00
 2.683195785059148e-01	 1.631016676521293e+00	 2.304633408154888e+00
 2.539221813637983e-01	 1.633320018342258e+00	 2.263423664871314e+00
 2.395464664294427e-01	 1.635490208817003e+00	 2.233165041964229e+00
 2.251940910979939e-01	 1.637528120553927e+00	 2.212323684321871e+00
 2.108666875693468e-01	 1.639434649840937e+00	 2.199273030586617e+00
 1.965658625220407e-01	 1.641210715919905e+00	 2.192302727988708e+00
 1.822931968090859e-01	 1.642857260259301e+00	 2.189627408653644e+00
 1.680502451755402e-01	 1.644375245825661e+00	 2.189395311986844e+00
 1.538385359976332e-01	 1.645765656354560e+00	 2.189696738983951e+00
 1.396595710432135e-01	 1.647029495621756e+00	 2.188572325532951e+00
 2.842464110408821e-01	 1.637273759856283e+00	 2.316966519595561e+00
 2.697520444107036e-01	 1.639724113356420e+00	 2.264866985059498e+00
 2.552777845191180e-01	 1.642039751927004e+00	 2.224938073205444e+00
 2.408253225892169e-01	 1.644221528302201e+00	 2.195805230654882e+00
 2.263963248643863e-01	 1.646270319748946e+00	 2.175982893949848e+00
 2.119924322582529e-01	 1.648187027340098e+00	 2.163883786786852e+00
 1.976152600268379e-01	 1.649972575225027e+00	 2.157828097663784e+00
 1.832663974627605e-01	 1.651627909898363e+00	 2.156052520771905e+00
 1.689474076113062e-01	 1.653153999467569e+00	 2.156719144262104e+00
 1.546598270081584e-01	 1.654551832920027e+00	 2.157924171287348e+00
 1.404051654385669e-01	 1.655822419390291e+00	 2.157706460468663e+00
 2.857558421913652e-01	 1.645968159928908e+00	 2.278173040304394e+00
 2.711845062568002e-01	 1.648431525519280e+00	 2.230388355251214e+00
 2.566333838335626e-01	 1.650759460804705e+00	 2.193956143370932e+00
 2.421041751256064e-01	 1.652952823047595e+00	 2.167611069431599e+00
 2.275985552245307e-01	 1.655012494173407e+00	 2.149970985572215e+00
 2.131181737576675e-01	 1.656939380039935e+00	 2.139546344081593e+00
 1.986646545584943e-01	 1.658734409704035e+00	 2.134749491979618e+00
 1.842395953592133e-01	 1.660398534686476e+00	 2.133903829967703e+00
 1.698445675053125e-01	 1.661932728235633e+00	 2.135252819636017e+00
 1.554811156919043e-01	 1.663337984590680e+00	 2.136968824110907e+00
 1.411507577216152e-01	 1.664615318244948e+00	 2.137161768592409e+00
 2.872652682097454e-01	 1.654662530439087e+00	 2.242400669815933e+00
 2.726169632325288e-01	 1.657138908075503e+00	 2.201386129664301e+00
 2.579889785390088e-01	 1.659479140034020e+00	 2.170369867610402e+00
 2.433830233139706e-01	 1.661684088105270e+00	 2.148246325602525e+00
 2.288007814971968e-01	 1.663754638873220e+00	 2.133790764097126e+00
 2.142439114296942e-01	 1.665691702980585e+00	 2.125668646710374e+00
 1.997140455223670e-01	 1.667496214391682e+00	 2.122444907174047e+00
 1.852127899469717e-01	 1.669169129653405e+00	 2.122593081133954e+00
 1.707417243491701e-01	 1.670711427155022e+00	 2.124504286668617e+00
 1.563024015834758e-01	 1.672124106387480e+00	 2.126496038719005e+00
 1.418963474698644e-01	 1.673408187202868e+00	 2.126820883902520e+00
 2.887746882407271e-01	 1.663356866459827e+00	 2.210193564566693e+00
 2.740494145262130e-01	 1.665846256090725e+00	 2.178046046262431e+00
 2.593445678673329e-01	 1.668198784673604e+00	 2.154074596039655e+00
 2.446618664296696e-01	 1.670415318527313e+00	 2.137382914525920e+00
 2.300030030011544e-01	 1.672496748894298e+00	 2.126956555488265e+00
 2.153696446364362e-01	 1.674443991202181e+00	 2.121672139977485e+00
 2.007634323238131e-01	 1.676257984322721e+00	 2.120306452389499e+00
 1.861859806745630e-01	 1.677939689828916e+00	 2.121545401188250e+00
 1.716388776344902e-01	 1.679490091250905e+00	 2.123992828388281e+00
 1.571236842174779e-01	 1.680910193331387e+00	 2.126179153220095e+00
 1.426419342608202e-01	 1.682201021281190e+00	 2.126569836693797e+00
 2.902841014290157e-01	 1.672051163064140e+00	 2.182085567537179e+00
 2.754818593261765e-01	 1.674553564630576e+00	 2.160551028397753e+00
 2.607001510504114e-01	 1.676918389782119e+00	 2.144968937211284e+00
 2.459407037480629e-01	 1.679146509365806e+00	 2.134700679443676e+00
 2.312052190551735e-01	 1.681238819282553e+00	 2.128993902324382e+00
 2.164953727399972e-01	 1.683196239744858e+00	 2.126991417368338e+00
 2.018128143681895e-01	 1.685019714531905e+00	 2.127739983535970e+00
 1.871591669905145e-01	 1.686710210242772e+00	 2.130198954216042e+00
 1.725360268528837e-01	 1.688268715548449e+00	 2.133248772578543e+00
 1.579449631285154e-01	 1.689696240443363e+00	 2.135699301176634e+00
 1.433875176719885e-01	 1.690993815497054e+00	 2.136297972973378e+00
 2.917935069193159e-01	 1.680745415325032e+00	 2.158600453400553e+00
 2.769142968207429e-01	 1.683260828760689e+00	 2.149081240635567e+00
 2.620557273201212e-01	 1.685637950418222e+00	 2.142954661103026e+00
 2.472195345445104e-01	 1.687877655672838e+00	 2.139887177547194e+00
 2.324074289780241e-01	 1.689980845083896e+00	 2.139439268266553e+00
 2.176210951024806e-01	 1.691948443648752e+00	 2.141073878135763e+00
 2.028621910608533e-01	 1.693781400053988e+00	 2.144164748092799e+00
 1.881323483433538e-01	 1.695480685924739e+00	 2.148004606948679e+00
 1.734331714959617e-01	 1.697047295072823e+00	 2.151813210743588e+00
 1.587662378511934e-01	 1.698482242744367e+00	 2.154745216206606e+00
 1.441330972808751e-01	 1.699786564867602e+00	 2.155897876171799e+00
 1.366771807886333e-01	 1.611857651066033e+00	 2.417718424077243e+00
 1.228368366506916e-01	 1.612971455257300e+00	 2.391602542060308e+00
 1.090313535566891e-01	 1.613963452695617e+00	 2.350560315412335e+00
 9.526208969766804e-02	 1.614834679436247e+00	 2.301073102170471e+00
 8.153037736788364e-02	 1.615586188281853e+00	 2.249560654819438e+00
 6.783752282655720e-02	 1.616219048089453e+00	 2.202379328012077e+00
 5.418480617815002e-02	 1.616734343080651e+00	 2.165820346441314e+00
 4.057348127085128e-02	 1.617133172155657e+00	 2.146108131709880e+00
 2.700477561295891e-02	 1.617416648211609e+00	 2.149398687266702e+00
 1.347989030682204e-02	 1.617585897465666e+00	 2.181778040676283e+00
 0.000000000000000e+00	 1.617642058783334e+00	 2.249260742745986e+00
 1.374227794082650e-01	 1.620650624661481e+00	 2.344323323979600e+00
 1.235069337021328e-01	 1.621770504854973e+00	 2.324485827090069e+00
 1.096261392132307e-01	 1.622767913817755e+00	 2.291284593956580e+00
 9.578176154176940e-02	 1.623643893256957e+00	 2.251442485284169e+00
 8.197514024990150e-02	 1.624399501718475e+00	 2.211635112832269e+00
 6.820758872271974e-02	 1.625035813890140e+00	 2.178488390132876e+00
 5.448039404787802e-02	 1.625553919908178e+00	 2.158576140777694e+00
 4.079481691352561e-02	 1.625954924667502e+00	 2.158417764230131e+00
 2.715209152423184e-02	 1.626239947136311e+00	 2.184475959315527e+00
 1.355342553456794e-02	 1.626410119675477e+00	 2.243154505713000e+00
 0.000000000000000e+00	 1.626466587363230e+00	 2.340796103997761e+00
 1.381683776055684e-01	 1.629443593274491e+00	 2.281754520977501e+00
 1.241770303739670e-01	 1.630569549466778e+00	 2.266787751029966e+00
 1.102209245327511e-01	 1.631572369950946e+00	 2.240211436183303e+00
 9.630143309131045e-02	 1.632453102085998e+00	 2.208804136028992e+00
 8.241990287970483e-02	 1.633212810161064e+00	 2.179309981625871e+00
 6.857765440890855e-02	 1.633852574694785e+00	 2.158435836595236e+00
 5.477598174977812e-02	 1.634373491738018e+00	 2.152848508006326e+00
 4.101615243043270e-02	 1.634776672180379e+00	 2.169172007882869e+00
 2.729940735172260e-02	 1.635063241061123e+00	 2.213984866350468e+00
 1.362696072045095e-02	 1.635234336884847e+00	 2.293817497603905e+00
 0.000000000000000e+00	 1.635291110942501e+00	 2.415149620082138e+00
 1.389139749580493e-01	 1.638236551922203e+00	 2.229880209048732e+00
 1.248471262864969e-01	 1.639368584106420e+00	 2.218605872179598e+00
 1.108157091782467e-01	 1.640376816105841e+00	 2.197590443310728e+00
 9.682110405187071e-02	 1.641262300931342e+00	 2.173485644657018e+00
 8.286466500533905e-02	 1.642026108615281e+00	 2.152920065683035e+00
 6.894771967551071e-02	 1.642669325507112e+00	 2.142496199452382e+00
 5.507156911644809e-02	 1.643193053572317e+00	 2.148787515836573e+00
 4.123748769624335e-02	 1.643598409695213e+00	 2.178335573056068e+00
 2.744672301203106e-02	 1.643886524986108e+00	 2.237647169223688e+00
 1.370049582284940e-02	 1.644058544093324e+00	 2.333191535725375e+00
 0.000000000000000e+00	 1.644115624520522e+00	 2.471397574481930e+00
 1.396595710432135e-01	 1.647029495621756e+00	 2.188572325532951e+00
 1.255172210600251e-01	 1.648167603787604e+00	 2.180036522064334e+00
 1.114104928127138e-01	 1.649181247293090e+00	 2.163666661146491e+00
 9.734077412902969e-02	 1.650071484800958e+00	 2.145808288511799e+00
 8.330942637484956e-02	 1.650839392086791e+00	 2.132793599643303e+00
 6.931778431291342e-02	 1.651486061330844e+00	 2.130938613806566e+00
 5.536715598048577e-02	 1.652012600413220e+00	 2.146540366900438e+00
 4.145882258562848e-02	 1.652420132212929e+00	 2.185874125010918e+00
 2.759403842175708e-02	 1.652709793911330e+00	 2.255190620774396e+00
 1.377403080014159e-02	 1.652882736300450e+00	 2.360713314843433e+00
 0.000000000000000e+00	 1.652940123096667e+00	 2.508635684972774e+00
 1.404051654385669e-01	 1.655822419390291e+00	 2.157706460468663e+00
 1.261873143148544e-01	 1.656966603524032e+00	 2.151174847386293e+00
 1.120052750991488e-01	 1.657985658523342e+00	 2.138680710713477e+00
 9.786044302836701e-02	 1.658880648702817e+00	 2.126087209247090e+00
 8.375418673628189e-02	 1.659652655581255e+00	 2.119252431896292e+00
 6.968784811150369e-02	 1.660302777169703e+00	 2.124026969427091e+00
 5.566274217448894e-02	 1.660832127262873e+00	 2.146251481917399e+00
 4.168015697325902e-02	 1.661241834734456e+00	 2.191754263989615e+00
 2.774135349750053e-02	 1.661533042836846e+00	 2.266348810150722e+00
 1.384756561070587e-02	 1.661706908505775e+00	 2.375831382795154e+00
 0.000000000000000e+00	 1.661764601670313e+00	 2.525978585682255e+00
 1.411507577216152e-01	 1.664615318244948e+00	 2.137161768592409e+00
 1.268574056712874e-01	 1.665765578329411e+00	 2.132114850486034e+00
 1.126000557005477e-01	 1.666790044807246e+00	 2.122868914618831e+00
 9.838011045546215e-02	 1.667689787644890e+00	 2.114631584346778e+00
 8.419894583768139e-02	 1.668465894104338e+00	 2.112612202300831e+00
 7.005791086166871e-02	 1.669119468027414e+00	 2.122020057526479e+00
 5.595832753105540e-02	 1.669651629123421e+00	 2.148062580198300e+00
 4.190149073380579e-02	 1.670063512260719e+00	 2.195943505932639e+00
 2.788866815586128e-02	 1.670356266762721e+00	 2.270861012041743e+00
 1.392110021292054e-02	 1.670531055708842e+00	 2.378005828352177e+00
 0.000000000000000e+00	 1.670589055240833e+00	 2.522559325515154e+00
 1.418963474698644e-01	 1.673408187202868e+00	 2.126820883902520e+00
 1.275274947496269e-01	 1.674564523217445e+00	 2.122949428369375e+00
 1.131948342799072e-01	 1.675594401155453e+00	 2.116463419322127e+00
 9.889977611589473e-02	 1.676498896635146e+00	 2.111744793154813e+00
 8.464370342709347e-02	 1.677279102661701e+00	 2.113182514245185e+00
 7.042797235379547e-02	 1.677936128907696e+00	 2.125171712872215e+00
 5.625391188278296e-02	 1.678471100997010e+00	 2.152112757585784e+00
 4.212282374193975e-02	 1.678885159792645e+00	 2.198410263783074e+00
 2.803598231343919e-02	 1.679179460689016e+00	 2.268472040639649e+00
 1.399463456516394e-02	 1.679355172909198e+00	 2.366707978892927e+00
 0.000000000000000e+00	 1.679413478807604e+00	 2.497528882344657e+00
 1.426419342608202e-01	 1.682201021281190e+00	 2.126569836693797e+00
 1.281975811701755e-01	 1.683363433201838e+00	 2.123770410351675e+00
 1.137896105002232e-01	 1.684398722578610e+00	 2.119692313452218e+00
 9.941943971524417e-02	 1.685307970681557e+00	 2.117724577615350e+00
 8.508845925256367e-02	 1.686092276259008e+00	 2.121267101254743e+00
 7.079803237827123e-02	 1.686752754814276e+00	 2.133730951404140e+00
 5.654949506226945e-02	 1.687290537885786e+00	 2.158538561924715e+00
 4.234415587233178e-02	 1.687706772331161e+00	 2.199123829356452e+00
 2.818329588683412e-02	 1.688002619615791e+00	 2.258932108159300e+00
 1.406816862581438e-02	 1.688179255106389e+00	 2.341420107525635e+00
 0.000000000000000e+00	 1.688237867370000e+00	 2.450055692394434e+00
 1.433875176719885e-01	 1.690993815497054e+00	 2.136297972973378e+00
 1.288676645532359e-01	 1.692162303296296e+00	 2.134668594369629e+00
 1.143843840244923e-01	 1.693203004087369e+00	 2.132779742316029e+00
 9.993910095909007e-02	 1.694117004792092e+00	 2.132863197914953e+00
 8.553321306213733e-02	 1.694905409901922e+00	 2.137163988344869e+00
 7.116809072548295e-02	 1.695569340750875e+00	 2.147942103520428e+00
 5.684507690211263e-02	 1.696109934791894e+00	 2.167474066152069e+00
 4.256548699965275e-02	 1.696528344877193e+00	 2.198054355755562e+00
 2.833060879264594e-02	 1.696825738543109e+00	 2.241996687749842e+00
 1.414170235325019e-02	 1.697003297299960e+00	 2.301635149319231e+00
 0.000000000000000e+00	 1.697062215927397e+00	 2.379325194260225e+00
 1.441330972808751e-01	 1.699786564867602e+00	 2.155897876171799e+00
 1.295377445191109e-01	 1.700961128514523e+00	 2.155733782008638e+00
 1.149791545157106e-01	 1.702007240692378e+00	 2.155946018736715e+00
 1.004587595530120e-01	 1.702925993974722e+00	 2.157447583210793e+00
 8.597796460385999e-02	 1.703718498596106e+00	 2.161165648308570e+00
 7.153814718581784e-02	 1.704385881721215e+00	 2.168044943188490e+00
 5.714065723491034e-02	 1.704929286717479e+00	 2.179050939092205e+00
 4.278681699857358e-02	 1.705349872431669e+00	 2.195172840310418e+00
 2.847792094747452e-02	 1.705648812471032e+00	 2.217426380639719e+00
 1.421523570584970e-02	 1.705827294489458e+00	 2.246856426313179e+00
 0.000000000000000e+00	 1.705886519479168e+00	 2.284539387042509e+00
 1.705886519479168e+00	 0.000000000000000e+00	 4.335320554849468e+00
 1.705827294489459e+00	 1.421523570584876e-02	 3.350307136157605e+00
 1.705648812471032e+00	 2.847792094747371e-02	 2.414073097551706e+00
 1.705349872431669e+00	 4.278681699857291e-02	 1.564051866995473e+00
 1.704929286717479e+00	 5.714065723490981e-02	 8.379963859526880e-01
 1.704385881721215e+00	 7.153814718581744e-02	 2.739222878920402e-01
 1.703718498596106e+00	 8.597796460385973e-02	-8.995052239568579e-02
 1.702925993974722e+00	 1.004587595530119e-01	-2.152578716423221e-01
 1.702007240692379e+00	 1.149791545157106e-01	-6.355289315438517e-02
 1.700961128514523e+00	 1.295377445191110e-01	 4.036308382053213e-01
 1.699786564867602e+00	 1.441330972808752e-01	 1.224714626040228e+00
 1.714709275570436e+00	 0.000000000000000e+00	 3.523812234641129e+00
 1.714649744272165e+00	 1.428875616361442e-02	 3.260711763851637e+00
 1.714470339154033e+00	 2.862520726952074e-02	 2.835822152620536e+00
 1.714169853012344e+00	 4.300810818478416e-02	 2.314468768051704e+00
 1.713747092050717e+00	 5.743618573424850e-02	 1.761629196016120e+00
 1.713200876592064e+00	 7.190813875230691e-02	 1.241825540214963e+00
 1.712530041796110e+00	 8.642263815292325e-02	 8.190146918095538e-01
 1.711733438381984e+00	 1.009783270182689e-01	 5.564766485433239e-01
 1.710809933355354e+00	 1.155738207063259e-01	 5.167009578069783e-01
 1.709758410739589e+00	 1.302077069777980e-01	 7.612713629837766e-01
 1.708577772310391e+00	 1.448785461426520e-01	 1.350748737571354e+00
 1.723531991670303e+00	 0.000000000000000e+00	 2.700186943229238e+00
 1.723472154064846e+00	 1.436227628832694e-02	 3.115548163712126e+00
 1.723291825851158e+00	 2.877249292428796e-02	 3.187983681267076e+00
 1.722989793614098e+00	 4.322939836835290e-02	 3.003612404276001e+00
 1.722564857414828e+00	 5.773171289448438e-02	 2.647655395535034e+00
 1.722015831506448e+00	 7.227812864217469e-02	 2.204288710652272e+00
 1.721341545055211e+00	 8.686730968682753e-02	 1.756493914769319e+00
 1.720540842866837e+00	 1.014978921288509e-01	 1.385906405215476e+00
 1.719612586117377e+00	 1.161684842018142e-01	 1.172661665194740e+00
 1.718555653088150e+00	 1.308776664000112e-01	 1.195239580407760e+00
 1.717368939904148e+00	 1.456239916257571e-01	 1.530306957560023e+00
 1.732354677776619e+00	 0.000000000000000e+00	 1.911527431641321e+00
 1.732294533865007e+00	 1.443579616324962e-02	 2.935831660084579e+00
 1.732113282558871e+00	 2.891977807859532e-02	 3.469417414954744e+00
 1.731809704231650e+00	 4.345068779993982e-02	 3.612217040757987e+00
 1.731382592802073e+00	 5.802723905039318e-02	 3.462831130270465e+00
 1.730830756453453e+00	 7.264811727457615e-02	 3.118353219022124e+00
 1.730153018358598e+00	 8.731197970936237e-02	 2.674192002608232e+00
 1.729348217409838e+00	 1.020174554734268e-01	 2.223891240007114e+00
 1.728415208953636e+00	 1.167631456759571e-01	 1.858947504893604e+00
 1.727352865529281e+00	 1.315476235448692e-01	 1.668625955035435e+00
 1.726160077611077e+00	 1.463694345748584e-01	 1.739774298168818e+00
 1.741177343887234e+00	 0.000000000000000e+00	 1.203945855255811e+00
 1.741116893670152e+00	 1.450931587164573e-02	 2.742138605702191e+00
 1.740934719273633e+00	 2.906706289926280e-02	 3.678996105165816e+00
 1.740629594859717e+00	 4.367197673020553e-02	 4.121399958940233e+00
 1.740200308204713e+00	 5.832276453675059e-02	 4.174581221690544e+00
 1.739645661422168e+00	 7.301810506866685e-02	 3.941928164774876e+00
 1.738964471691459e+00	 8.775664872431757e-02	 3.524791546419031e+00
 1.738155571991545e+00	 1.025370176406653e-01	 3.022287570463026e+00
 1.737217811839318e+00	 1.173578058025365e-01	 2.531098718905289e+00
 1.736150058032053e+00	 1.322175791714904e-01	 2.145272652228643e+00
 1.734951195393385e+00	 1.471148758346237e-01	 1.956019380450310e+00
 1.750000000000000e+00	 0.000000000000000e+00	 6.226082171472314e-01
 1.749939243477787e+00	 1.458283549677856e-02	 2.554617477420642e+00
 1.749756145991908e+00	 2.921434755311032e-02	 3.815605269251717e+00
 1.749449475493014e+00	 4.389326540981060e-02	 4.512651910911412e+00
 1.749018013615008e+00	 5.861828968833231e-02	 4.750982448085986e+00
 1.748460556401677e+00	 7.338809244360212e-02	 4.633768612762617e+00
 1.747775915038981e+00	 8.820131723548300e-02	 4.261928399310615e+00
 1.746962916592515e+00	 1.030565792192351e-01	 3.733923453079888e+00
 1.746020404749609e+00	 1.179524652553341e-01	 3.145554466416336e+00
 1.744947240565538e+00	 1.328875340389930e-01	 2.589754785789958e+00
 1.743742303213276e+00	 1.478603162497211e-01	 2.156382442725592e+00
 1.758822656112766e+00	 0.000000000000000e+00	 2.117580700693527e-01
 1.758761593285413e+00	 1.465635512191138e-02	 2.392999635296979e+00
 1.758577572710158e+00	 2.936163220695785e-02	 3.878142943730475e+00
 1.758269356126260e+00	 4.411455408941568e-02	 4.767827862806961e+00
 1.757835719025220e+00	 5.891381483991402e-02	 5.160747332188106e+00
 1.757275451381068e+00	 7.375807981853734e-02	 5.153454536833946e+00
 1.756587358386351e+00	 8.864598574664836e-02	 4.840167944751197e+00
 1.755770261193304e+00	 1.035761407978049e-01	 4.312574401491977e+00
 1.754822997659698e+00	 1.185471247081317e-01	 3.659630472504800e+00
 1.753744423098810e+00	 1.335574889064958e-01	 2.967362232659963e+00
 1.752533411032956e+00	 1.486057566648185e-01	 2.318663710685313e+00
 1.767645322223381e+00	 0.000000000000000e+00	 1.473950316776129e-02
 1.767583953090539e+00	 1.472987483030750e-02	 2.276609756861279e+00
 1.767399009424846e+00	 2.950891702762532e-02	 3.865519444770334e+00
 1.767089246754171e+00	 4.433584301968137e-02	 4.869138017144259e+00
 1.766653434427608e+00	 5.920934032627143e-02	 5.373208417464968e+00
 1.766090356349428e+00	 7.412806761262804e-02	 5.461370398106121e+00
 1.765398811718757e+00	 8.909065476160360e-02	 5.214982080120722e+00
 1.764577615774469e+00	 1.040957029650434e-01	 4.712939933230659e+00
 1.763625600544772e+00	 1.191417848347111e-01	 4.031497349939981e+00
 1.762541615600941e+00	 1.342274445331169e-01	 3.244081994724664e+00
 1.761324528814632e+00	 1.493511979245839e-01	 2.421112116488498e+00
 1.776468008329698e+00	 0.000000000000000e+00	 7.401943846925718e-02
 1.776406332890666e+00	 1.480339470523017e-02	 2.224375957956511e+00
 1.776220466132433e+00	 2.965620218193269e-02	 3.776657135610224e+00
 1.775909157371466e+00	 4.455713245126831e-02	 4.799139104327012e+00
 1.775471169814435e+00	 5.950486648218025e-02	 5.358303015987713e+00
 1.774905281295844e+00	 7.449805624502953e-02	 5.518685335694487e+00
 1.774210285021387e+00	 8.953532478413845e-02	 5.342726890432794e+00
 1.773384990316567e+00	 1.046152663096193e-01	 4.890620819550760e+00
 1.772428223380018e+00	 1.197364463088540e-01	 4.220159570508590e+00
 1.771338828041004e+00	 1.348974016779749e-01	 3.386581088579551e+00
 1.770115666520508e+00	 1.500966408736851e-01	 2.442414354644628e+00
 1.785290724429565e+00	 0.000000000000000e+00	 4.312092611981573e-01
 1.785228742683300e+00	 1.487691482994270e-02	 2.254839611068768e+00
 1.785041952829383e+00	 2.980348783669991e-02	 3.610490200676914e+00
 1.784729097972858e+00	 4.477842263483706e-02	 4.540725933943450e+00
 1.784288935177959e+00	 5.980039364241613e-02	 5.086558411438012e+00
 1.783720236209402e+00	 7.486804613489732e-02	 5.287333948562259e+00
 1.783021788279429e+00	 8.997999631804272e-02	 5.180620988182818e+00
 1.782192394800156e+00	 1.051348314202014e-01	 4.802097013830133e+00
 1.781230876140625e+00	 1.203311098043423e-01	 4.185435063242943e+00
 1.780136070388071e+00	 1.355673611001882e-01	 3.362189944860583e+00
 1.778906834112791e+00	 1.508420863567903e-01	 2.361684262949090e+00
 1.794113480520832e+00	 0.000000000000000e+00	 1.127085807016780e+00
 1.794051192465945e+00	 1.495043528770836e-02	 2.386164871636681e+00
 1.793863479512158e+00	 2.995077415874692e-02	 3.365964426168326e+00
 1.793549078553066e+00	 4.499971382104827e-02	 4.077123196852785e+00
 1.793106740510443e+00	 6.009592214175480e-02	 4.529077501480592e+00
 1.792535231079187e+00	 7.523803770138675e-02	 4.729997647999754e+00
 1.791833331478071e+00	 9.042466986710623e-02	 4.686724496231173e+00
 1.790999839205791e+00	 1.056543988854583e-01	 4.404706235021563e+00
 1.790033568801779e+00	 1.209257759949575e-01	 3.887935417819769e+00
 1.788933352611214e+00	 1.362373235588751e-01	 3.138886299479871e+00
 1.787698041553686e+00	 1.515875352185671e-01	 2.158452517208396e+00
 1.699786564867602e+00	 1.441330972808752e-01	 1.224714626040227e+00
 1.698482242744367e+00	 1.587662378511926e-01	 2.201369309836685e+00
 1.697047295072823e+00	 1.734331714959610e-01	 3.104770979993813e+00
 1.695480685924739e+00	 1.881323483433532e-01	 3.928528600448291e+00
 1.693781400053988e+00	 2.028621910608528e-01	 4.666909597952523e+00
 1.691948443648752e+00	 2.176210951024801e-01	 5.314849730944674e+00
 1.689980845083896e+00	 2.324074289780237e-01	 5.867962356481186e+00
 1.687877655672838e+00	 2.472195345445101e-01	 6.322547035673704e+00
 1.685637950418222e+00	 2.620557273201210e-01	 6.675597419675406e+00
 1.683260828760689e+00	 2.769142968207428e-01	 6.924808360412320e+00
 1.680745415325032e+00	 2.917935069193159e-01	 7.068582192972573e+00
 1.708577772310391e+00	 1.448785461426520e-01	 1.350748737571353e+00
 1.707266704300739e+00	 1.595873685525808e-01	 2.123124948670390e+00
 1.705824335154196e+00	 1.743301588129325e-01	 2.867832175946466e+00
 1.704249623584781e+00	 1.891053590360332e-01	 3.573022105752439e+00
 1.702541549095582e+00	 2.039113837314954e-01	 4.228029080934338e+00
 1.700699112734855e+00	 2.187466200547206e-01	 4.823398101744314e+00
 1.698721337852288e+00	 2.336094280775254e-01	 5.350911944932743e+00
 1.696607270854759e+00	 2.484981410811179e-01	 5.803617305032978e+00
 1.694355981960888e+00	 2.634110658716374e-01	 6.175849863050312e+00
 1.691966565953688e+00	 2.783464831184465e-01	 6.463258189597210e+00
 1.689438142930575e+00	 2.933026477153374e-01	 6.662826391996737e+00
 1.717368939904148e+00	 1.456239916257571e-01	 1.530306957560022e+00
 1.716051126038605e+00	 1.604084955322307e-01	 2.062411417518184e+00
 1.714601335450664e+00	 1.752271420643226e-01	 2.614381785749810e+00
 1.713018521496617e+00	 1.900783653185445e-01	 3.170289336628302e+00
 1.711301658428788e+00	 2.049605716466695e-01	 3.715805718295602e+00
 1.709449742155527e+00	 2.198721399055145e-01	 4.238245205080406e+00
 1.707461791001365e+00	 2.348114217289573e-01	 4.726605833767890e+00
 1.705336846466656e+00	 2.497767418224219e-01	 5.171609298159955e+00
 1.703073973986022e+00	 2.647663982800406e-01	 5.565739477266925e+00
 1.700672263684863e+00	 2.797786629246871e-01	 5.903279474079635e+00
 1.698130831133237e+00	 2.948117816710418e-01	 6.180347044199825e+00
 1.726160077611077e+00	 1.463694345748584e-01	 1.739774298168818e+00
 1.724835517912544e+00	 1.612296197205770e-01	 2.010297791296135e+00
 1.723378305908415e+00	 1.761241222665267e-01	 2.348036298516681e+00
 1.721787389597272e+00	 1.910513682934287e-01	 2.734333651599098e+00
 1.720061737980688e+00	 2.060097559952411e-01	 3.152446380661741e+00
 1.718200341827125e+00	 2.209976559302208e-01	 3.587596373375707e+00
 1.716202214435967e+00	 2.360134112943326e-01	 4.027022228908992e+00
 1.714066392401066e+00	 2.510553382172411e-01	 4.460029158274983e+00
 1.711791936373050e+00	 2.661217260810984e-01	 4.878037283464312e+00
 1.709377931819725e+00	 2.812108378623158e-01	 5.274628189218728e+00
 1.706823489783799e+00	 2.963209104964882e-01	 5.645589583571959e+00
 1.734951195393385e+00	 1.471148758346237e-01	 1.956019380450310e+00
 1.733619889877132e+00	 1.620507420480541e-01	 1.958040436114829e+00
 1.732155256473636e+00	 1.770211004359399e-01	 2.072346414184101e+00
 1.730556237823766e+00	 1.920243690632273e-01	 2.278883248572296e+00
 1.728821797678364e+00	 2.070589379660760e-01	 2.559717566251969e+00
 1.726950921666006e+00	 2.221231694041990e-01	 2.899095943659921e+00
 1.724942618060941e+00	 2.372153981356642e-01	 3.283502713617856e+00
 1.722795918550523e+00	 2.523339317143948e-01	 3.701716158400609e+00
 1.720509879001397e+00	 2.674770508105788e-01	 4.144862925222042e+00
 1.718083580223781e+00	 2.826430095541833e-01	 4.606470501857156e+00
 1.715516128733043e+00	 2.978300359017357e-01	 5.082517592405741e+00
 1.743742303213276e+00	 1.478603162497211e-01	 2.156382442725592e+00
 1.742404251886952e+00	 1.628718634450967e-01	 1.897078487732627e+00
 1.740932197092512e+00	 1.779180775889574e-01	 1.790798898789536e+00
 1.739325076113126e+00	 1.929973687304822e-01	 1.817398291501622e+00
 1.737581847448898e+00	 2.081081187480401e-01	 1.958956681858362e+00
 1.735701491588527e+00	 2.232486816028079e-01	 2.199841564737570e+00
 1.733683011781130e+00	 2.384173836149654e-01	 2.526768443254065e+00
 1.731525434807559e+00	 2.536125237627017e-01	 2.928859635248520e+00
 1.729227811750488e+00	 2.688323740042501e-01	 3.397701183876565e+00
 1.726789218762543e+00	 2.840751796231408e-01	 3.927397700772346e+00
 1.724208757831753e+00	 2.993391595968430e-01	 4.514624972651114e+00
 1.752533411032956e+00	 1.486057566648185e-01	 2.318663710685312e+00
 1.751188613896581e+00	 1.636929848421391e-01	 1.819029464838705e+00
 1.749709137711230e+00	 1.788150547419742e-01	 1.506818380782167e+00
 1.748093914402372e+00	 1.939703683977349e-01	 1.363077817757689e+00
 1.746341897219373e+00	 2.091572995299990e-01	 1.371082978027557e+00
 1.744452061511046e+00	 2.243741938014068e-01	 1.516398066207446e+00
 1.742423405501375e+00	 2.396193690942492e-01	 1.786935844006195e+00
 1.740254951064713e+00	 2.548911158109811e-01	 2.173015403972975e+00
 1.737945744499749e+00	 2.701876971978801e-01	 2.667417986649331e+00
 1.735494857301518e+00	 2.855073496920395e-01	 3.265440667196894e+00
 1.732901386930710e+00	 3.008482832918692e-01	 3.964947740150814e+00
 1.761324528814632e+00	 1.493511979245839e-01	 2.421112116488498e+00
 1.759972985860596e+00	 1.645141071696161e-01	 1.715685012425704e+00
 1.758486088275977e+00	 1.797120329113855e-01	 1.223769090450371e+00
 1.756862762628529e+00	 1.949433691675272e-01	 9.288664339303400e-01
 1.755101956916870e+00	 2.102064815008186e-01	 8.166081506195453e-01
 1.753202641349922e+00	 2.254997072753549e-01	 8.748109047579824e-01
 1.751163809126523e+00	 2.408213559355289e-01	 1.093531833056709e+00
 1.748984477214517e+00	 2.561697093080520e-01	 1.465121672063272e+00
 1.746663687128603e+00	 2.715430219272368e-01	 1.984275925437443e+00
 1.744200505706216e+00	 2.869395213837301e-01	 2.648083901595008e+00
 1.741594025880697e+00	 3.023574086968733e-01	 3.456075455027273e+00
 1.770115666520508e+00	 1.500966408736851e-01	 2.442414354644628e+00
 1.768757377733578e+00	 1.653352313579620e-01	 1.579006770703529e+00
 1.767263058732940e+00	 1.806090131135865e-01	 9.449565444626086e-01
 1.765631630728619e+00	 1.959163721424007e-01	 5.274608074766124e-01
 1.763862036468471e+00	 2.112556658493647e-01	 3.156466204307821e-01
 1.761953241021510e+00	 2.266252233000113e-01	 3.006192025445569e-01
 1.759904232561414e+00	 2.420233455008174e-01	 4.755085769415821e-01
 1.757714023149506e+00	 2.574483057027334e-01	 8.355144699162802e-01
 1.755381649516477e+00	 2.728983497280881e-01	 1.377949303403358e+00
 1.752906173842148e+00	 2.883716963210640e-01	 2.102279122233414e+00
 1.750286684532495e+00	 3.038665375219142e-01	 3.010162300960181e+00
 1.778906834112791e+00	 1.508420863567903e-01	 2.361684262949090e+00
 1.777541799470105e+00	 1.661563583376114e-01	 1.401122365184220e+00
 1.776040059028305e+00	 1.815059963649723e-01	 6.736291774393307e-01
 1.774400528639666e+00	 1.968893784248969e-01	 1.713159613322789e-01
 1.772622145801259e+00	 2.123048537645031e-01	-1.120744978963300e-01
 1.770703870442168e+00	 2.277507431507352e-01	-1.811316081334476e-01
 1.768644685710895e+00	 2.432253391521282e-01	-3.874219580157173e-02
 1.766443598762214e+00	 2.587269064438442e-01	 3.139426149312076e-01
 1.764099641542794e+00	 2.742536821362022e-01	 8.775387258172166e-01
 1.761611871574821e+00	 2.898038761268918e-01	 1.654458450466032e+00
 1.758979372736888e+00	 3.053756714770509e-01	 2.648937825586490e+00
 1.787698041553686e+00	 1.515875352185671e-01	 2.158452517208396e+00
 1.786326261024755e+00	 1.669774890389988e-01	 1.174321513743482e+00
 1.784817099108259e+00	 1.824029836819379e-01	 4.129799223982574e-01
 1.783169466298693e+00	 1.978623891175576e-01	-1.273486216763500e-01
 1.781382294842314e+00	 2.133540464350997e-01	-4.472057269011597e-01
 1.779454539528256e+00	 2.288762681028857e-01	-5.458775202031920e-01
 1.777385178479808e+00	 2.444273382514740e-01	-4.213753122413241e-01
 1.775173213945176e+00	 2.600055129802037e-01	-7.041777469852187e-02
 1.772817673086980e+00	 2.756090206873468e-01	 5.115852509532177e-01
 1.770317608769745e+00	 2.912360624240647e-01	 1.330547197060463e+00
 1.767672100344656e+00	 3.068848122723423e-01	 2.393717353769302e+00
 1.680745415325032e+00	 2.917935069193159e-01	 7.068582192972573e+00
 1.678091323547173e+00	 3.066890629883703e-01	 7.071816238366505e+00
 1.675297314201602e+00	 3.216017105091277e-01	 6.904900376371733e+00
 1.672362591010333e+00	 3.365296438031375e-01	 6.574894553922412e+00
 1.669286385782073e+00	 3.514710333124996e-01	 6.088748966256062e+00
 1.666067959132822e+00	 3.664240260737297e-01	 5.453281343560698e+00
 1.662706601199298e+00	 3.813867462147712e-01	 4.733418995174870e+00
 1.659201632344353e+00	 3.963572954751306e-01	 4.085106061205462e+00
 1.655552403853629e+00	 4.113337537490910e-01	 3.520627172775642e+00
 1.651758298622600e+00	 4.263141796519203e-01	 3.044418133041403e+00
 1.647818731833210e+00	 4.412966111089680e-01	 2.660717863208851e+00
 1.689438142930575e+00	 2.933026477153374e-01	 6.662826391996736e+00
 1.686770324328197e+00	 3.082752428232585e-01	 6.727576477437252e+00
 1.683961864511827e+00	 3.232650177790162e-01	 6.616831101377914e+00
 1.681011963085166e+00	 3.382701575652768e-01	 6.337705710059651e+00
 1.677919847883867e+00	 3.532888231617539e-01	 5.896953784024523e+00
 1.674684775699870e+00	 3.683191520215244e-01	 5.300939448291323e+00
 1.671306032998505e+00	 3.833592585706100e-01	 4.636573228702218e+00
 1.667782936627572e+00	 3.984072347308051e-01	 4.043442816216736e+00
 1.664114834517587e+00	 4.134611504656967e-01	 3.526940725520953e+00
 1.660301106372383e+00	 4.285190543498037e-01	 3.089902035207458e+00
 1.656341164349248e+00	 4.435789741607188e-01	 2.734689730488291e+00
 1.698130831133237e+00	 2.948117816710418e-01	 6.180347044199825e+00
 1.695449285768520e+00	 3.098614154685692e-01	 6.331696278468555e+00
 1.692626375546808e+00	 3.249283175096468e-01	 6.298775968307837e+00
 1.689661295953505e+00	 3.400106634381059e-01	 6.088608158779202e+00
 1.686553270851235e+00	 3.551066047713227e-01	 5.707645148369684e+00
 1.683301553207896e+00	 3.702142693789844e-01	 5.161738383349547e+00
 1.679905425817454e+00	 3.853317619852417e-01	 4.563443785587083e+00
 1.676364202012672e+00	 4.004571646942260e-01	 4.028832592632859e+00
 1.672677226368962e+00	 4.155885375388806e-01	 3.559970680703868e+00
 1.668843875398534e+00	 4.307239190530262e-01	 3.158222855582890e+00
 1.664863558234037e+00	 4.458613268665516e-01	 2.824256025230656e+00
 1.706823489783799e+00	 2.963209104964882e-01	 5.645589583571960e+00
 1.704128217703386e+00	 3.114475827216699e-01	 5.902535113545849e+00
 1.701290857125424e+00	 3.265916115857996e-01	 5.963762504916489e+00
 1.698310599417042e+00	 3.417511633939107e-01	 5.836053927268808e+00
 1.695186664467848e+00	 3.569243802010779e-01	 5.525458006798209e+00
 1.691918301421715e+00	 3.721093802936368e-01	 5.038664074105900e+00
 1.688504789401261e+00	 3.873042586939051e-01	 4.513286927533856e+00
 1.684945438224232e+00	 4.025070876883903e-01	 4.038984899662776e+00
 1.681239589110945e+00	 4.177159173794298e-01	 3.616641902600290e+00
 1.677386615382003e+00	 4.329287762601861e-01	 3.246282523380922e+00
 1.673385923145432e+00	 4.481436718128828e-01	 2.927056548229215e+00
 1.715516128733043e+00	 2.978300359017357e-01	 5.082517592405742e+00
 1.712807129968037e+00	 3.130337463799280e-01	 5.458094135769343e+00
 1.709955319066555e+00	 3.282549018922546e-01	 5.624568030116119e+00
 1.706959883277467e+00	 3.434916594049757e-01	 5.588337473974169e+00
 1.703820038517378e+00	 3.587421515108909e-01	 5.354946870114309e+00
 1.700535030106145e+00	 3.740044869130089e-01	 4.935306059444796e+00
 1.697104133495052e+00	 3.892767509318406e-01	 4.485383996401963e+00
 1.693526654986833e+00	 4.045570060362953e-01	 4.071665344147288e+00
 1.689801932446728e+00	 4.198432923981320e-01	 3.693950862287228e+00
 1.685929336003742e+00	 4.351336284698814e-01	 3.351054586796088e+00
 1.681908268741285e+00	 4.504260115861295e-01	 3.040787255958438e+00
 1.724208757831753e+00	 2.993391595968430e-01	 4.514624972651114e+00
 1.721486032397711e+00	 3.146199082407106e-01	 5.016025194414170e+00
 1.718619771189080e+00	 3.299181903137919e-01	 5.293725897746921e+00
 1.715609157336470e+00	 3.452321534435868e-01	 5.353599547045173e+00
 1.712453402783494e+00	 3.605599207606334e-01	 5.200587672632550e+00
 1.709151749026000e+00	 3.758995913846277e-01	 4.853203750140402e+00
 1.705703467843944e+00	 3.912492409342873e-01	 4.479040661017078e+00
 1.702107862025056e+00	 4.066069220609381e-01	 4.124694062878822e+00
 1.698364266079504e+00	 4.219706650057746e-01	 3.788963645057896e+00
 1.694472046944702e+00	 4.373384781807103e-01	 3.469582184886989e+00
 1.690430604679450e+00	 4.527083487727079e-01	 3.163198585821442e+00
 1.732901386930710e+00	 3.008482832918692e-01	 3.964947740150814e+00
 1.730164934827652e+00	 3.162060701013855e-01	 4.593639567774204e+00
 1.727284223311878e+00	 3.315814787351915e-01	 4.983531541119313e+00
 1.724258431395744e+00	 3.469726474820292e-01	 5.139830914888338e+00
 1.721086767049868e+00	 3.623776900101769e-01	 5.066779564048201e+00
 1.717768467946097e+00	 3.777946958560200e-01	 4.793859158744971e+00
 1.714302802193058e+00	 3.932217309364849e-01	 4.493586179253743e+00
 1.710689069063482e+00	 4.086568380853161e-01	 4.195944194297968e+00
 1.706926599712465e+00	 4.240980376131451e-01	 3.898814009490362e+00
 1.703014757885835e+00	 4.395433278912708e-01	 3.598976071567305e+00
 1.698952940617783e+00	 4.549906859590346e-01	 3.292093822153592e+00
 1.741594025880697e+00	 3.023574086968733e-01	 3.456075455027273e+00
 1.738843847093102e+00	 3.177922337593199e-01	 4.207916423622288e+00
 1.735948685253829e+00	 3.332447690412335e-01	 4.706048325334169e+00
 1.732907715256979e+00	 3.487131434925884e-01	 4.954875973320048e+00
 1.729720141100172e+00	 3.641954613193933e-01	 4.957846635361977e+00
 1.726385196631251e+00	 3.796898024747132e-01	 4.758754142196095e+00
 1.722902146287515e+00	 3.951942231736733e-01	 4.528372674846098e+00
 1.719270285826692e+00	 4.107067564324263e-01	 4.283340388174147e+00
 1.715488943048805e+00	 4.262254126310313e-01	 4.020701496343234e+00
 1.711557478508091e+00	 4.417481801001611e-01	 3.736412689861029e+00
 1.707475286214137e+00	 4.572730257315262e-01	 3.425327501537304e+00
 1.750286684532495e+00	 3.038665375219142e-01	 3.010162300960179e+00
 1.747522779029300e+00	 3.193784010118813e-01	 3.875511016821438e+00
 1.744613166833812e+00	 3.349080631166978e-01	 4.473113214107513e+00
 1.741557018721864e+00	 3.504536434475494e-01	 4.806436233634533e+00
 1.738353534718078e+00	 3.660132367481540e-01	 4.878039581159418e+00
 1.735001944846279e+00	 3.815849133882341e-01	 4.749350792814507e+00
 1.731501509872435e+00	 3.971667198810918e-01	 4.582774428404882e+00
 1.727851522039264e+00	 4.127566794252661e-01	 4.384857351933150e+00
 1.724051305791712e+00	 4.283527924702203e-01	 4.151889585525042e+00
 1.720100218492421e+00	 4.439530373059796e-01	 3.879132294652488e+00
 1.715997651126365e+00	 4.595553706765994e-01	 3.560803856039978e+00
 1.758979372736888e+00	 3.053756714770509e-01	 2.648937825586490e+00
 1.756201740471491e+00	 3.209645736564372e-01	 3.612762633242268e+00
 1.753277677870706e+00	 3.365713628463647e-01	 4.296342257557166e+00
 1.750206351592092e+00	 3.521941493191978e-01	 4.702073695728648e+00
 1.746986957687255e+00	 3.678310183563307e-01	 4.831537300452704e+00
 1.743618722355998e+00	 3.834800307441098e-01	 4.767091810719879e+00
 1.740100902692939e+00	 3.991392232939802e-01	 4.656187182139350e+00
 1.736432787425782e+00	 4.148066093868323e-01	 4.498518432346414e+00
 1.732613697644382e+00	 4.304801795414998e-01	 4.289703899453460e+00
 1.728642987519778e+00	 4.461579020073241e-01	 4.024437122230365e+00
 1.724520045012323e+00	 4.618377233806708e-01	 3.696475293041970e+00
 1.767672100344656e+00	 3.068848122723423e-01	 2.393717353769304e+00
 1.764880741254913e+00	 3.225507534903543e-01	 3.435702288777544e+00
 1.761942228183390e+00	 3.382346701150138e-01	 4.187135907152538e+00
 1.758855723669352e+00	 3.539346630798190e-01	 4.649214110260090e+00
 1.755620419791376e+00	 3.696488082037950e-01	 4.822448438204858e+00
 1.752235538925222e+00	 3.853751566898675e-01	 4.813400858303638e+00
 1.748700334494149e+00	 4.011117356475780e-01	 4.748027457801880e+00
 1.745014091710825e+00	 4.168565486401224e-01	 4.622394231348613e+00
 1.741176128310005e+00	 4.326075762556573e-01	 4.431530451186119e+00
 1.737185795271111e+00	 4.483627767027928e-01	 4.169689604993017e+00
 1.733042477529863e+00	 4.641200864301568e-01	 3.830340910373610e+00
 1.647818731833210e+00	 4.412966111089680e-01	 2.660717863208852e+00
 1.643733151977962e+00	 4.562790661767426e-01	 2.367520953696482e+00
 1.639501042591871e+00	 4.712595443241352e-01	 2.151687378969115e+00
 1.635121921820524e+00	 4.862360264949822e-01	 2.000252052660476e+00
 1.630595342686944e+00	 5.012064755825806e-01	 1.899793411445758e+00
 1.625920893701830e+00	 5.161688371304689e-01	 1.836447193272654e+00
 1.621098199458452e+00	 5.311210400547071e-01	 1.795921641425322e+00
 1.616126921211349e+00	 5.460609973873246e-01	 1.763514187631482e+00
 1.611006757438059e+00	 5.609866070405668e-01	 1.724129666828186e+00
 1.605737444383062e+00	 5.758957525915405e-01	 1.662300115203346e+00
 1.600318756583150e+00	 5.907863040868249e-01	 1.562206201701787e+00
 1.656341164349248e+00	 4.435789741607188e-01	 2.734689730488291e+00
 1.652234454088311e+00	 4.586389177044359e-01	 2.458252104049057e+00
 1.647980456453456e+00	 4.736968741032095e-01	 2.248655248543357e+00
 1.643578687098146e+00	 4.887508138584320e-01	 2.094301388325387e+00
 1.639028696733660e+00	 5.037986893275994e-01	 1.983233117538939e+00
 1.634330071742502e+00	 5.188384354287178e-01	 1.903146710765792e+00
 1.629482434776356e+00	 5.338679703663182e-01	 1.841406724252597e+00
 1.624485445337789e+00	 5.488851963787497e-01	 1.785061941099682e+00
 1.619338800344882e+00	 5.638880005063789e-01	 1.720862713544467e+00
 1.614042234677985e+00	 5.788742553802928e-01	 1.635279754817554e+00
 1.608595521707807e+00	 5.938418200310728e-01	 1.514524431961130e+00
 1.664863558234037e+00	 4.458613268665516e-01	 2.824256025230655e+00
 1.660735717663242e+00	 4.609987585349868e-01	 2.556602865121311e+00
 1.656459831878910e+00	 4.761341928339932e-01	 2.346977140143186e+00
 1.652035414042385e+00	 4.912655898225607e-01	 2.185074584678747e+00
 1.647462012553212e+00	 5.063908913224280e-01	 2.060318168105536e+00
 1.642739211665698e+00	 5.215080216261104e-01	 1.961870868873943e+00
 1.637866632089948e+00	 5.366148882266542e-01	 1.878649615619386e+00
 1.632843931576560e+00	 5.517093825687712e-01	 1.799340449247981e+00
 1.627670805484157e+00	 5.667893808209925e-01	 1.712414960015792e+00
 1.622346987328963e+00	 5.818527446684303e-01	 1.606148053298840e+00
 1.616872249315604e+00	 5.968973221257119e-01	 1.468637096988586e+00
 1.673385923145432e+00	 4.481436718128828e-01	 2.927056548229215e+00
 1.669236952336652e+00	 4.633585913426253e-01	 2.661255527178035e+00
 1.664939178477311e+00	 4.785715032785140e-01	 2.446227893371469e+00
 1.660492112236637e+00	 4.937803572371674e-01	 2.272890333271936e+00
 1.655895299702445e+00	 5.089830845045967e-01	 2.131963763261534e+00
 1.651148323000847e+00	 5.241775987478600e-01	 2.013985498273155e+00
 1.646250800900371e+00	 5.393617967485482e-01	 1.909322475499372e+00
 1.641202389399645e+00	 5.545335591577688e-01	 1.808185588053393e+00
 1.636002782297841e+00	 5.696907512722504e-01	 1.700645183860328e+00
 1.630651711747051e+00	 5.848312238311610e-01	 1.576647785051923e+00
 1.625148948785818e+00	 5.999528138332071e-01	 1.426034082689351e+00
 1.681908268741285e+00	 4.504260115861295e-01	 3.040787255958437e+00
 1.677738167742438e+00	 4.657184188015822e-01	 2.770926847111617e+00
 1.673418505857737e+00	 4.810088081988005e-01	 2.545998117472315e+00
 1.668948791264298e+00	 4.962951189520506e-01	 2.358067370243957e+00
 1.664328567738204e+00	 5.115752718116370e-01	 2.199072372431015e+00
 1.659557415277376e+00	 5.268471698191787e-01	 2.060833849242330e+00
 1.654634950708765e+00	 5.421086990448331e-01	 1.935067933079326e+00
 1.649560828279031e+00	 5.573577293461230e-01	 1.813399623299132e+00
 1.644334740227887e+00	 5.725921151479938e-01	 1.687377313657722e+00
 1.638956417343301e+00	 5.878096962436918e-01	 1.548488444640073e+00
 1.633425629497728e+00	 6.030082986160218e-01	 1.388176337735287e+00
 1.690430604679450e+00	 4.527083487727079e-01	 3.163198585821442e+00
 1.686239373514498e+00	 4.680782435860881e-01	 2.884366882692476e+00
 1.681897823629267e+00	 4.834461103568807e-01	 2.645893457804453e+00
 1.677405460708763e+00	 4.988098778170094e-01	 2.440924098863967e+00
 1.672761826217336e+00	 5.141674561810792e-01	 2.262533637488220e+00
 1.667966498024715e+00	 5.295167378652795e-01	 2.103736700675109e+00
 1.663019091016273e+00	 5.448555982283418e-01	 1.957499327708487e+00
 1.657919257686699e+00	 5.601818963342132e-01	 1.816751510382738e+00
 1.652666688716252e+00	 5.754934757360649e-01	 1.674400715448514e+00
 1.647261113528766e+00	 5.907881652812301e-01	 1.523346448776087e+00
 1.641702300830611e+00	 6.060637799366203e-01	 1.356495920872614e+00
 1.698952940617783e+00	 4.549906859590346e-01	 3.292093822153591e+00
 1.694740579286728e+00	 4.704380683703731e-01	 3.000357851491730e+00
 1.690377141400980e+00	 4.858834125147833e-01	 2.745533873217242e+00
 1.685862130153426e+00	 5.013246366818425e-01	 2.521778211504653e+00
 1.681195084696685e+00	 5.167596405504542e-01	 2.323224266136148e+00
 1.676375580772290e+00	 5.321863059113747e-01	 2.143992452390768e+00
 1.671403231324035e+00	 5.476024974119074e-01	 1.978200928442400e+00
 1.666277687094635e+00	 5.630060633224198e-01	 1.819977170223618e+00
 1.660998637204889e+00	 5.783948363243064e-01	 1.663470455020334e+00
 1.655565809714499e+00	 5.937666343189831e-01	 1.502865315942162e+00
 1.649978972163745e+00	 6.091192612574668e-01	 1.332396029825511e+00
 1.707475286214137e+00	 4.572730257315262e-01	 3.425327501537304e+00
 1.703241794693026e+00	 4.727978958286677e-01	 3.117713013595075e+00
 1.698856468781952e+00	 4.883207174345360e-01	 2.844552923931996e+00
 1.694318809181683e+00	 5.038393983963487e-01	 2.600946311051288e+00
 1.689628352733099e+00	 5.193518278572928e-01	 2.382007915848579e+00
 1.684784673049533e+00	 5.348558769826773e-01	 2.182877201312913e+00
 1.679787381133194e+00	 5.503493997083625e-01	 1.998728132914926e+00
 1.674636125974823e+00	 5.658302335111224e-01	 1.824779742089594e+00
 1.669330595135754e+00	 5.812962002005597e-01	 1.656307536810047e+00
 1.663870515311554e+00	 5.967451067321586e-01	 1.488655824401243e+00
 1.658255652876409e+00	 6.121747460410251e-01	 1.317251012416696e+00
 1.715997651126365e+00	 4.595553706765994e-01	 3.560803856039978e+00
 1.711743029367289e+00	 4.751577286352023e-01	 3.235275577262069e+00
 1.707335815381264e+00	 4.907580278781677e-01	 2.942597069546276e+00
 1.702775507376929e+00	 5.063541658103270e-01	 2.678743531750015e+00
 1.698061639883421e+00	 5.219440210391257e-01	 2.439735068688521e+00
 1.693193784385869e+00	 5.375254541043998e-01	 2.221644802062997e+00
 1.688171549944891e+00	 5.530963082305402e-01	 2.020607646241683e+00
 1.682994583799245e+00	 5.686544101007009e-01	 1.832829814128808e+00
 1.677662571950802e+00	 5.841975706526670e-01	 1.654599120216766e+00
 1.672175239730982e+00	 5.997235858959632e-01	 1.482296149331072e+00
 1.666532352347879e+00	 6.152302377497595e-01	 1.312406360500777e+00
 1.724520045012323e+00	 4.618377233806708e-01	 3.696475293041971e+00
 1.720244292943415e+00	 4.775175694642075e-01	 3.351917626718121e+00
 1.715815190807992e+00	 4.931953466077065e-01	 3.039324976794055e+00
 1.711232234322559e+00	 5.088689417735761e-01	 2.755483159499179e+00
 1.706494955704498e+00	 5.245362230334839e-01	 2.497242897303259e+00
 1.701602924310728e+00	 5.401950403017549e-01	 2.261526912491337e+00
 1.696555747260267e+00	 5.558432260912735e-01	 2.045337640629702e+00
 1.691353070039889e+00	 5.714785962915360e-01	 1.845765632360744e+00
 1.685994577091986e+00	 5.870989509684701e-01	 1.659998714088712e+00
 1.680479992383838e+00	 6.027020751856048e-01	 1.485331979782190e+00
 1.674809079957435e+00	 6.182857398461339e-01	 1.319178687281453e+00
 1.733042477529863e+00	 4.641200864301568e-01	 3.830340910373610e+00
 1.728745595055301e+00	 4.798774209899135e-01	 3.466539071298176e+00
 1.724294604671216e+00	 4.956326763851802e-01	 3.134406836707590e+00
 1.719688999601968e+00	 5.113837291358949e-01	 2.831476251585614e+00
 1.714928309753177e+00	 5.271284367778979e-01	 2.555355122383189e+00
 1.710012102353537e+00	 5.428646385999550e-01	 2.303733024648101e+00
 1.704939982580465e+00	 5.585901564033950e-01	 2.074387896340244e+00
 1.699711594168736e+00	 5.743027952840064e-01	 1.865193288850146e+00
 1.694326620001263e+00	 5.900003444358111e-01	 1.674126350115171e+00
 1.688784782681174e+00	 6.056805779762906e-01	 1.499276616133036e+00
 1.683085845084354e+00	 6.213412557926126e-01	 1.338855688560090e+00
 1.600318756583150e+00	 5.907863040868249e-01	 1.562206201701786e+00
 1.594749547809442e+00	 6.056586448851704e-01	 1.446386942035926e+00
 1.589030578234766e+00	 6.205080855838191e-01	 1.350887679640595e+00
 1.583161739102190e+00	 6.353324588153144e-01	 1.279917331315503e+00
 1.577142961876711e+00	 6.501295870550968e-01	 1.237799257101798e+00
 1.570974218667745e+00	 6.648972835192715e-01	 1.228978257063286e+00
 1.564655522628555e+00	 6.796333530791189e-01	 1.258028597085335e+00
 1.558186928331899e+00	 6.943355931916823e-01	 1.329663114079085e+00
 1.551568532121260e+00	 7.090017948457507e-01	 1.448743447380348e+00
 1.544800472436973e+00	 7.236297435225104e-01	 1.620291438935525e+00
 1.537882930116643e+00	 7.382172201701207e-01	 1.849501740066651e+00
 1.608595521707807e+00	 5.938418200310728e-01	 1.514524431961130e+00
 1.602997509277234e+00	 6.087910798001855e-01	 1.384318645891495e+00
 1.597248961490656e+00	 6.237173210315192e-01	 1.281873811132132e+00
 1.591349769028650e+00	 6.386183651480929e-01	 1.210430945918427e+00
 1.585299863001743e+00	 6.534920233632905e-01	 1.173303043804653e+00
 1.579099215375095e+00	 6.683360975832727e-01	 1.173882810845286e+00
 1.572747839369985e+00	 6.831483813262159e-01	 1.215651524780355e+00
 1.566245789841413e+00	 6.979266606577132e-01	 1.302189069216531e+00
 1.559593163631132e+00	 7.126687151416503e-01	 1.437185192033161e+00
 1.552790099895475e+00	 7.273723188058236e-01	 1.624452032858609e+00
 1.545836780407322e+00	 7.420352411215599e-01	 1.867870946578814e+00
 1.616872249315604e+00	 5.968973221257119e-01	 1.468637096988587e+00
 1.611245433358750e+00	 6.119235005170082e-01	 1.327898109331623e+00
 1.605467307494346e+00	 6.269265419329606e-01	 1.221572765231664e+00
 1.599537761840478e+00	 6.419042565871179e-01	 1.152013467916429e+00
 1.593456727153211e+00	 6.568544444308595e-01	 1.121602060143912e+00
 1.587224175253451e+00	 6.717748960604545e-01	 1.132758178829039e+00
 1.580840119430500e+00	 6.866633936410271e-01	 1.187948823532946e+00
 1.574304614821597e+00	 7.015177118467740e-01	 1.289699194672732e+00
 1.567617758766773e+00	 7.163356188167297e-01	 1.440604853390174e+00
 1.560779691138358e+00	 7.311148771253555e-01	 1.643345250452500e+00
 1.553790594644505e+00	 7.458532447671977e-01	 1.899647360442882e+00
 1.625148948785818e+00	 5.999528138332071e-01	 1.426034082689352e+00
 1.619493329400616e+00	 6.150559105852523e-01	 1.278293175979810e+00
 1.613685625558930e+00	 6.301357519247762e-01	 1.170826800023946e+00
 1.607725726816363e+00	 6.451901368558953e-01	 1.105176778798771e+00
 1.601613563574521e+00	 6.602168540680251e-01	 1.082871766413118e+00
 1.595349107510062e+00	 6.752136828475820e-01	 1.105436096627064e+00
 1.588932371980313e+00	 6.901783940066796e-01	 1.174399936977949e+00
 1.582363412404756e+00	 7.051087508281577e-01	 1.291310806500889e+00
 1.575642326621699e+00	 7.200025100262405e-01	 1.457746511962383e+00
 1.568769255219473e+00	 7.348574227220940e-01	 1.675329552784590e+00
 1.561744381841501e+00	 7.496712354335255e-01	 1.942409910993835e+00
 1.633425629497728e+00	 6.030082986160218e-01	 1.388176337735287e+00
 1.627741206749456e+00	 6.181883135545332e-01	 1.236648501437423e+00
 1.621903924997503e+00	 6.333449546435992e-01	 1.130460817145991e+00
 1.615913673234995e+00	 6.484760096779303e-01	 1.070421348184950e+00
 1.609770381509082e+00	 6.635792560850070e-01	 1.057282299357028e+00
 1.603474021352178e+00	 6.786524618414203e-01	 1.091749239174459e+00
 1.597024606189638e+00	 6.936933864063001e-01	 1.174491716338557e+00
 1.590422191723191e+00	 7.086997816711573e-01	 1.306155332851712e+00
 1.583666876289425e+00	 7.236693929254333e-01	 1.487375331932677e+00
 1.576758801192669e+00	 7.385999598370276e-01	 1.718791753995852e+00
 1.569698151011624e+00	 7.534892174470363e-01	 1.993985162870341e+00
 1.641702300830611e+00	 6.060637799366203e-01	 1.356495920872614e+00
 1.635989074751892e+00	 6.213207129744660e-01	 1.204085410376876e+00
 1.630122215123158e+00	 6.365541537260619e-01	 1.101282026697086e+00
 1.624101610375062e+00	 6.517618787767294e-01	 1.048235703932619e+00
 1.617927190200303e+00	 6.669416542920266e-01	 1.044997744205835e+00
 1.611598925987050e+00	 6.820912369387343e-01	 1.091530290763650e+00
 1.605116831228692e+00	 6.972083748230155e-01	 1.187717283880613e+00
 1.598480961909206e+00	 7.122908084450653e-01	 1.333376965610231e+00
 1.591691416863465e+00	 7.273362716695597e-01	 1.528275995081844e+00
 1.584748338111799e+00	 7.423424927111454e-01	 1.772018226038516e+00
 1.577651911168186e+00	 7.573071951342214e-01	 2.052221161468466e+00
 1.649978972163745e+00	 6.091192612574668e-01	 1.332396029825511e+00
 1.644236942754549e+00	 6.244531123946657e-01	 1.181701740272895e+00
 1.638340505248992e+00	 6.397633528087979e-01	 1.084079603889247e+00
 1.632289547515254e+00	 6.550477478757979e-01	 1.039095899168951e+00
 1.626083998891588e+00	 6.703040524993036e-01	 1.046175408917829e+00
 1.619723830621925e+00	 6.855300120362899e-01	 1.104611022695748e+00
 1.613209056267688e+00	 7.007233632399521e-01	 1.213574909536043e+00
 1.606539732095105e+00	 7.158818352191755e-01	 1.372131330920214e+00
 1.599715957437335e+00	 7.310031504138707e-01	 1.579251159507937e+00
 1.592737875030714e+00	 7.460850255854347e-01	 1.832394727156162e+00
 1.585605671324500e+00	 7.611251728215738e-01	 2.114987055248757e+00
 1.658255652876409e+00	 6.121747460410251e-01	 1.317251012416696e+00
 1.652484820104049e+00	 6.275855153647469e-01	 1.170571672214329e+00
 1.646558804688096e+00	 6.429725555284406e-01	 1.079624337699190e+00
 1.640477493934259e+00	 6.583336206986412e-01	 1.043464976322542e+00
 1.634240816826348e+00	 6.736664545170594e-01	 1.060965100519818e+00
 1.627848744464055e+00	 6.889687910308514e-01	 1.130821378245947e+00
 1.621301290476840e+00	 7.042383556402374e-01	 1.251566900196175e+00
 1.614598511413189e+00	 7.194728660627809e-01	 1.421584177894206e+00
 1.607740507104548e+00	 7.346700333136170e-01	 1.639119942227487e+00
 1.600727421003264e+00	 7.498275627008844e-01	 1.898002442376856e+00
 1.593559440493879e+00	 7.649431548355849e-01	 2.180172753636449e+00
 1.666532352347879e+00	 6.152302377497595e-01	 1.312406360500777e+00
 1.660732716147017e+00	 6.307179254343253e-01	 1.171745549220364e+00
 1.654777122753566e+00	 6.461817655216219e-01	 1.088668271771747e+00
 1.648665458910769e+00	 6.616195009687654e-01	 1.061792428228871e+00
 1.642397653247990e+00	 6.770288641555141e-01	 1.089508403438530e+00
 1.635973676720688e+00	 6.924075778191846e-01	 1.169988564651787e+00
 1.629393543026364e+00	 7.077533560069982e-01	 1.301198501194455e+00
 1.622657308995762e+00	 7.230639050451743e-01	 1.480910084833908e+00
 1.615765074958621e+00	 7.383369245240503e-01	 1.706716424782349e+00
 1.608716985083301e+00	 7.535701082984831e-01	 1.967137038229387e+00
 1.601513227689634e+00	 7.687611455027475e-01	 2.245688619280010e+00
 1.674809079957435e+00	 6.182857398461339e-01	 1.319178687281452e+00
 1.668980640230075e+00	 6.338503461530152e-01	 1.186249682466882e+00
 1.662995468758496e+00	 6.493909864249758e-01	 1.111944337813469e+00
 1.656853451723470e+00	 6.649053924096762e-01	 1.094513656378699e+00
 1.650554517399921e+00	 6.803912852248885e-01	 1.131937959718921e+00
 1.644098636599075e+00	 6.958463762980542e-01	 1.221936151843421e+00
 1.637485823086475e+00	 7.112683683233613e-01	 1.361976809515937e+00
 1.630716133975127e+00	 7.266549562356488e-01	 1.549291182311375e+00
 1.623789670093067e+00	 7.420038282004217e-01	 1.780789855456730e+00
 1.616706576324676e+00	 7.573126666192189e-01	 2.038106442176975e+00
 1.609467041925078e+00	 7.725791491495535e-01	 2.309465193484040e+00
 1.683085845084354e+00	 6.213412557926126e-01	 1.338855688560090e+00
 1.677228601699849e+00	 6.369827810704320e-01	 1.215086145812018e+00
 1.671213852015979e+00	 6.526002218751347e-01	 1.150165981704800e+00
 1.665041481651053e+00	 6.681912987448789e-01	 1.142049426374388e+00
 1.658711418525549e+00	 6.837537215354029e-01	 1.188376751028679e+00
 1.652223633306464e+00	 6.992851903642255e-01	 1.286483177644998e+00
 1.645578139827386e+00	 7.147833965724529e-01	 1.433409698288516e+00
 1.638774995483586e+00	 7.302460237034971e-01	 1.625915892486279e+00
 1.631814301601403e+00	 7.456707484979819e-01	 1.858996935903844e+00
 1.624696203781240e+00	 7.610552419040804e-01	 2.109230759585238e+00
 1.617420892213523e+00	 7.763971701024949e-01	 2.369452953680477e+00
 1.537882930116643e+00	 7.382172201701207e-01	 1.849501740066651e+00
 1.530817342383143e+00	 7.527595334762179e-01	 2.101896994257593e+00
 1.523602811473945e+00	 7.672569418828201e-01	 2.334690570871059e+00
 1.516239645717194e+00	 7.817072190453502e-01	 2.547329487008157e+00
 1.508728196747882e+00	 7.961081380806593e-01	 2.739473886464696e+00
 1.501068859672164e+00	 8.104574725985342e-01	 2.910760198852995e+00
 1.493262073202777e+00	 8.247529977420973e-01	 3.060788691350166e+00
 1.485308319765139e+00	 8.389924912361780e-01	 3.189109654620649e+00
 1.477208125573723e+00	 8.531737344426989e-01	 3.295565356876611e+00
 1.468962060678353e+00	 8.672945134221165e-01	 3.381382397728512e+00
 1.460570738980083e+00	 8.813526199999246e-01	 3.445824110209041e+00
 1.545836780407322e+00	 7.420352411215599e-01	 1.867870946578814e+00
 1.538734649822780e+00	 7.566527665132639e-01	 2.127422497757687e+00
 1.531482805736143e+00	 7.712251547596105e-01	 2.363366003404616e+00
 1.524081558070217e+00	 7.857501680014974e-01	 2.575897268881902e+00
 1.516531260278639e+00	 8.002255678384668e-01	 2.765174522015369e+00
 1.508832309511039e+00	 8.146491163655438e-01	 2.931306241419944e+00
 1.500985146749157e+00	 8.290185772190212e-01	 3.074337618775459e+00
 1.492990256913498e+00	 8.433317166302503e-01	 3.194235636351570e+00
 1.484848168940095e+00	 8.575863044864871e-01	 3.290872749990982e+00
 1.476559455827043e+00	 8.717801153978217e-01	 3.364462322688969e+00
 1.468124734650470e+00	 8.859109297691988e-01	 3.416404812498630e+00
 1.553790594644505e+00	 7.458532447671977e-01	 1.899647360442882e+00
 1.546651921374522e+00	 7.605459819035407e-01	 2.165228518731866e+00
 1.539362764279550e+00	 7.751933496497118e-01	 2.403236127122552e+00
 1.531923434877050e+00	 7.897930986321384e-01	 2.614353520771294e+00
 1.524334288439294e+00	 8.043429789331048e-01	 2.799212114848576e+00
 1.516595724159373e+00	 8.188407411329298e-01	 2.958378319225060e+00
 1.508708185288027e+00	 8.332841373611287e-01	 3.092339054057705e+00
 1.500672159240829e+00	 8.476709223556291e-01	 3.201485846865530e+00
 1.492488177675361e+00	 8.619988545290729e-01	 3.286097500843515e+00
 1.484156816537980e+00	 8.762656970412377e-01	 3.346321333885538e+00
 1.475678696079867e+00	 8.904692188765717e-01	 3.382752973449065e+00
 1.561744381841501e+00	 7.496712354335255e-01	 1.942409910993835e+00
 1.554569166010277e+00	 7.644391840587833e-01	 2.212760558517663e+00
 1.547242696033798e+00	 7.791615310498432e-01	 2.451539199304964e+00
 1.539765285024175e+00	 7.938360155187009e-01	 2.659881774999201e+00
 1.532137290072307e+00	 8.084603760304231e-01	 2.838868484851926e+00
 1.524359112414744e+00	 8.230323516506624e-01	 2.989509943015270e+00
 1.516431197571211e+00	 8.375496830021967e-01	 3.112731889409327e+00
 1.508354035452344e+00	 8.520101133295683e-01	 3.209358433557497e+00
 1.500128160437264e+00	 8.664113895708461e-01	 3.280093820216936e+00
 1.491754151420574e+00	 8.807512634355336e-01	 3.325502715650614e+00
 1.483232631828501e+00	 8.950274924876223e-01	 3.345989023945166e+00
 1.569698151011624e+00	 7.534892174470363e-01	 1.993985162870341e+00
 1.562486392701951e+00	 7.683323773907269e-01	 2.267493433817316e+00
 1.555122609928514e+00	 7.831297034567219e-01	 2.505547130844190e+00
 1.547607117398071e+00	 7.978789232426116e-01	 2.709700457070605e+00
 1.539940274020142e+00	 8.125777637962718e-01	 2.881458471317541e+00
 1.532122483074731e+00	 8.272239526687130e-01	 3.022262643407076e+00
 1.524154192350537e+00	 8.418152189760019e-01	 3.133474901506589e+00
 1.516035894253259e+00	 8.563492944693228e-01	 3.216360149226679e+00
 1.507768125883542e+00	 8.708239146121964e-01	 3.272067239917637e+00
 1.499351469084235e+00	 8.852368196638790e-01	 3.301608405954875e+00
 1.490786550456598e+00	 8.995857557679301e-01	 3.305837151709064e+00
 1.577651911168186e+00	 7.573071951342214e-01	 2.052221161468466e+00
 1.570403610421449e+00	 7.722255663111065e-01	 2.326930706970572e+00
 1.563002514893328e+00	 7.870978713670665e-01	 2.562564838149730e+00
 1.555448940885220e+00	 8.019218263852984e-01	 2.761062236304773e+00
 1.547743249125264e+00	 8.166951468964999e-01	 2.924329359652048e+00
 1.539885844936908e+00	 8.314155489370509e-01	 3.054225551226271e+00
 1.531877178377833e+00	 8.460807501163210e-01	 3.152546563157469e+00
 1.523717744348785e+00	 8.606884706921472e-01	 3.221006472861936e+00
 1.515408082671938e+00	 8.752364346535142e-01	 3.261217976749086e+00
 1.506948778138374e+00	 8.897223708094435e-01	 3.274671057745813e+00
 1.498340460524385e+00	 9.041440138830750e-01	 3.262710034224392e+00
 1.585605671324500e+00	 7.611251728215738e-01	 2.114987055248756e+00
 1.578320828140682e+00	 7.761187552316575e-01	 2.388604158430442e+00
 1.570882419857871e+00	 7.910660392775954e-01	 2.619929640233447e+00
 1.563290764372101e+00	 8.059647295281894e-01	 2.811253422269133e+00
 1.555546224230132e+00	 8.208125299969571e-01	 2.964860352144931e+00
 1.547649206798856e+00	 8.356071452056480e-01	 3.083015017790419e+00
 1.539600164404925e+00	 8.503462812569315e-01	 3.167944888418640e+00
 1.531399594444139e+00	 8.650276469152958e-01	 3.221821755001056e+00
 1.523048039460192e+00	 8.796489546951893e-01	 3.246741453554223e+00
 1.514546087192402e+00	 8.942079219553957e-01	 3.244701865618267e+00
 1.505894370592088e+00	 9.087022719986346e-01	 3.217579202001387e+00
 1.593559440493879e+00	 7.649431548355849e-01	 2.180172753636449e+00
 1.586238054831554e+00	 7.800119485641144e-01	 2.450073299968254e+00
 1.578762333751769e+00	 7.950342116850261e-01	 2.675010699397725e+00
 1.571132596745197e+00	 8.100076372527115e-01	 2.857593405416913e+00
 1.563349208177210e+00	 8.249299177634930e-01	 3.000462081259625e+00
 1.555412577458151e+00	 8.397987462244746e-01	 3.106274273744336e+00
 1.547323159183641e+00	 8.546118172316092e-01	 3.177687310001573e+00
 1.539081453244534e+00	 8.693668280560232e-01	 3.217339386817086e+00
 1.530688004906044e+00	 8.840614797376110e-01	 3.227828833122825e+00
 1.522143404855727e+00	 8.986934781849051e-01	 3.211691537661960e+00
 1.513448289219931e+00	 9.132605352801891e-01	 3.171376545987280e+00
 1.601513227689634e+00	 7.687611455027475e-01	 2.245688619280010e+00
 1.594155299465974e+00	 7.839051507202124e-01	 2.508924927194838e+00
 1.586642265504654e+00	 7.990023930860769e-01	 2.725208504014020e+00
 1.578974446890986e+00	 8.140505541402923e-01	 2.897434140395932e+00
 1.571152209808963e+00	 8.290473148619573e-01	 3.028576163974879e+00
 1.563175965712369e+00	 8.439903567435010e-01	 3.121673125116065e+00
 1.555046171465808e+00	 8.588773628741321e-01	 3.179810587855509e+00
 1.546763329455181e+00	 8.737060190315838e-01	 3.206101992120343e+00
 1.538327987667236e+00	 8.884740147811697e-01	 3.203667564533763e+00
 1.529740739737763e+00	 9.031790445811413e-01	 3.175611267043108e+00
 1.521002224968144e+00	 9.178188088933179e-01	 3.124995785212970e+00
 1.609467041925078e+00	 7.725791491495535e-01	 2.309465193484040e+00
 1.602072571015848e+00	 7.877983661116872e-01	 2.562772710042125e+00
 1.594522224046154e+00	 8.029705879774656e-01	 2.767954391940620e+00
 1.586816323695951e+00	 8.180934847723598e-01	 2.928159670558451e+00
 1.578955237967851e+00	 8.331647259582001e-01	 3.046674795763744e+00
 1.570939380359091e+00	 8.481819815126986e-01	 3.126907685315525e+00
 1.562769210003252e+00	 8.631429230182764e-01	 3.172370747861044e+00
 1.554445231781298e+00	 8.780452247592319e-01	 3.186661641498671e+00
 1.545967996401508e+00	 8.928865648262553e-01	 3.173441941520620e+00
 1.537338100447917e+00	 9.076646262272738e-01	 3.136413703351908e+00
 1.528556186396950e+00	 9.223770980035991e-01	 3.079293919806692e+00
 1.617420892213523e+00	 7.763971701024949e-01	 2.369452953680477e+00
 1.609989878453082e+00	 7.916915991502730e-01	 2.609256819904661e+00
 1.602402218305899e+00	 8.069388008559107e-01	 2.800710113187499e+00
 1.594658236046571e+00	 8.221364337303407e-01	 2.947185692261632e+00
 1.586758301496337e+00	 8.372821557180704e-01	 3.052260382855130e+00
 1.578702830195891e+00	 8.523736252820372e-01	 3.119700141849693e+00
 1.570492283547801e+00	 8.674085024978190e-01	 3.153443049611600e+00
 1.562127168928098e+00	 8.823844501562221e-01	 3.157580087850643e+00
 1.553608039766600e+00	 8.972991348732569e-01	 3.136333672467303e+00
 1.544935495595602e+00	 9.121502282064712e-01	 3.094033923748466e+00
 1.536110182066576e+00	 9.269354077766122e-01	 3.035092669907120e+00
 1.460570738980083e+00	 8.813526199999246e-01	 3.445824110209041e+00
 1.452034818569231e+00	 8.953458531161863e-01	 3.475297067943986e+00
 1.443355002732013e+00	 9.092720207533125e-01	 3.460153930466305e+00
 1.434532038803360e+00	 9.231289402045261e-01	 3.405100797758289e+00
 1.425566717702133e+00	 9.369144388747375e-01	 3.314810340511554e+00
 1.416459873789150e+00	 9.506263553558497e-01	 3.193911784274446e+00
 1.407212384693646e+00	 9.642625405008262e-01	 3.046982288073349e+00
 1.397825171108125e+00	 9.778208584954495e-01	 2.878539792819547e+00
 1.388299196551591e+00	 9.912991879267010e-01	 2.693037405638520e+00
 1.378635467101188e+00	 1.004695422846675e+00	 2.494859376462120e+00
 1.368835031092330e+00	 1.018007473830945e+00	 2.288318712862291e+00
 1.468124734650470e+00	 8.859109297691988e-01	 3.416404812498630e+00
 1.459544666904305e+00	 8.999765351569259e-01	 3.435158156671772e+00
 1.450819959512134e+00	 9.139747282064182e-01	 3.412542313673642e+00
 1.441951363674070e+00	 9.279033149220556e-01	 3.353107945770510e+00
 1.432939674399574e+00	 9.417601114722038e-01	 3.261430837177489e+00
 1.423785730364742e+00	 9.555429452700802e-01	 3.142102123526265e+00
 1.414490413737870e+00	 9.692496560533729e-01	 2.999719883108530e+00
 1.405054649973241e+00	 9.828780969615490e-01	 2.838882166662101e+00
 1.395479407573138e+00	 9.964261356097552e-01	 2.664181533146539e+00
 1.385765697818091e+00	 1.009891655158237e+00	 2.480201148994900e+00
 1.375914574465458e+00	 1.023272555376175e+00	 2.291512497786959e+00
 1.475678696079867e+00	 8.904692188765717e-01	 3.382752973449065e+00
 1.467054481198550e+00	 9.046071962076796e-01	 3.388120253493176e+00
 1.458284882454965e+00	 9.186774143430325e-01	 3.356423988310201e+00
 1.449370654914387e+00	 9.326776679982201e-01	 3.291980608195685e+00
 1.440312597676858e+00	 9.466057621051132e-01	 3.199171255590769e+00
 1.431111553733727e+00	 9.604595128982916e-01	 3.082432250731549e+00
 1.421768409792328e+00	 9.742367490002224e-01	 2.946246914329336e+00
 1.412284096068702e+00	 9.879353125041045e-01	 2.795138825781040e+00
 1.402659586048385e+00	 1.001553060053302e+00	 2.633666585883902e+00
 1.392895896215265e+00	 1.015087863916258e+00	 2.466420142845123e+00
 1.382994085748618e+00	 1.028537613055813e+00	 2.298018729594119e+00
 1.483232631828501e+00	 8.950274924876223e-01	 3.345989023945167e+00
 1.474564269962160e+00	 9.092378415160540e-01	 3.336324974008930e+00
 1.465749780019818e+00	 9.233800844923938e-01	 3.294651126314889e+00
 1.456789920931904e+00	 9.374520048434779e-01	 3.225027309616849e+00
 1.447685495889017e+00	 9.514513962647224e-01	 3.131543874995635e+00
 1.438437352197751e+00	 9.653760638121085e-01	 3.018367392102633e+00
 1.429046381104456e+00	 9.792238249929172e-01	 2.889732721424653e+00
 1.419513517586915e+00	 9.929925108541201e-01	 2.749936547129801e+00
 1.409839740113895e+00	 1.006679967067332e+00	 2.603332441215177e+00
 1.400026070372627e+00	 1.020284055009235e+00	 2.454327519209840e+00
 1.390073572964280e+00	 1.033802652836363e+00	 2.307380736600736e+00
 1.490786550456598e+00	 8.995857557679301e-01	 3.305837151709063e+00
 1.482074041705324e+00	 9.138684763296547e-01	 3.281856615894609e+00
 1.473214660666004e+00	 9.280827439837377e-01	 3.230008885672838e+00
 1.464209170134208e+00	 9.422263308682883e-01	 3.155479170402426e+00
 1.455058377391087e+00	 9.562970194422910e-01	 3.061978370803316e+00
 1.445763134058461e+00	 9.702926035831553e-01	 2.953290130649022e+00
 1.436324335921691e+00	 9.842108896830017e-01	 2.833269087378116e+00
 1.426742922720285e+00	 9.980496977425981e-01	 2.705834724952113e+00
 1.417019877906233e+00	 1.011806862461838e+00	 2.574966812934584e+00
 1.407156228370093e+00	 1.025480234325661e+00	 2.444702493668343e+00
 1.397153044134917e+00	 1.039067680684324e+00	 2.319135067977832e+00
 1.498340460524385e+00	 9.041440138830750e-01	 3.262710034224392e+00
 1.489583804938235e+00	 9.184991058960881e-01	 3.225627280238978e+00
 1.480679532852836e+00	 9.327853981463010e-01	 3.165215849399481e+00
 1.471628410928892e+00	 9.470006514831086e-01	 3.086490572221992e+00
 1.462431250538099e+00	 9.611426371290773e-01	 2.993822577748774e+00
 1.453088907617503e+00	 9.752091377830566e-01	 2.890501138965832e+00
 1.443602282491466e+00	 9.891979487220194e-01	 2.779870813858098e+00
 1.433972319661219e+00	 1.003106878900542e+00	 2.665325662819590e+00
 1.424200007561964e+00	 1.016933752046808e+00	 2.550305135170221e+00
 1.414286378287581e+00	 1.030676407754032e+00	 2.438291688441435e+00
 1.404232507283000e+00	 1.044332702566201e+00	 2.332810192218235e+00
 1.505894370592088e+00	 9.087022719986346e-01	 3.217579202001387e+00
 1.497093568171084e+00	 9.231297354629593e-01	 3.168711772116330e+00
 1.488144405039622e+00	 9.374880523093198e-01	 3.102192440472855e+00
 1.479047651723543e+00	 9.517749720983979e-01	 3.021139773727846e+00
 1.469804123685088e+00	 9.659882548163403e-01	 2.930343199825036e+00
 1.460414681176524e+00	 9.801256719834367e-01	 2.833219859318274e+00
 1.450880229061219e+00	 9.941850077615138e-01	 2.732476248299763e+00
 1.441201716602122e+00	 1.008164060058956e+00	 2.630834825603150e+00
 1.431380137217650e+00	 1.022060641632236e+00	 2.531030418274834e+00
 1.421416528205009e+00	 1.035872581182843e+00	 2.435808472462931e+00
 1.411311970431000e+00	 1.049597724448495e+00	 2.347925202974602e+00
 1.513448289219931e+00	 9.132605352801891e-01	 3.171376545987280e+00
 1.504603339914063e+00	 9.277603702778745e-01	 3.112935293975292e+00
 1.495609285685678e+00	 9.421907118020318e-01	 3.042364099476355e+00
 1.486466900925753e+00	 9.565492981246134e-01	 2.962044939367459e+00
 1.477177005187087e+00	 9.708338779953380e-01	 2.874726468820433e+00
 1.467740463037171e+00	 9.850422117559205e-01	 2.784585132827969e+00
 1.458158183878383e+00	 9.991720724530285e-01	 2.693947764329232e+00
 1.448431121735399e+00	 1.013221246948842e+00	 2.604721052737300e+00
 1.438560275009860e+00	 1.027187537028112e+00	 2.518773077637022e+00
 1.428546686202294e+00	 1.041068760500588e+00	 2.437932289639626e+00
 1.418391441601388e+00	 1.054862752297708e+00	 2.363988531954847e+00
 1.521002224968144e+00	 9.178188088933179e-01	 3.124995785212970e+00
 1.512113128677363e+00	 9.323910155884400e-01	 3.060067125082112e+00
 1.503074183250311e+00	 9.468933819536728e-01	 2.988133191732383e+00
 1.493886166943114e+00	 9.613236349722156e-01	 2.910855776197145e+00
 1.484549903399128e+00	 9.756795121573290e-01	 2.829943385871715e+00
 1.475066261501091e+00	 9.899587626721326e-01	 2.747655779493294e+00
 1.465436155190395e+00	 1.004159148448107e+00	 2.667072197112398e+00
 1.455660543253458e+00	 1.018278445301203e+00	 2.589276734080408e+00
 1.445740429075154e+00	 1.032314444044426e+00	 2.515110736307938e+00
 1.435676860359353e+00	 1.046264951595763e+00	 2.445307975659207e+00
 1.425470928816637e+00	 1.060127792080343e+00	 2.380496668572950e+00
 1.528556186396950e+00	 9.223770980035991e-01	 3.079293919806692e+00
 1.519622942971177e+00	 9.370216766422617e-01	 3.011822531895205e+00
 1.510539106192834e+00	 9.515960680934792e-01	 2.941845877460367e+00
 1.501305458183212e+00	 9.660979880516606e-01	 2.870232645966166e+00
 1.491922826676247e+00	 9.805251627935724e-01	 2.797823707750023e+00
 1.482392084869929e+00	 9.948753303036967e-01	 2.725400246484711e+00
 1.472714151244691e+00	 1.009146241398292e+00	 2.654561235146327e+00
 1.462889989348705e+00	 1.023335660847044e+00	 2.586727949620550e+00
 1.452920607550100e+00	 1.037441368491171e+00	 2.521568002301271e+00
 1.442807058756104e+00	 1.051461160356861e+00	 2.458545063689725e+00
 1.432550440099217e+00	 1.065392849762901e+00	 2.396932886063620e+00
 1.536110182066576e+00	 9.269354077766122e-01	 3.035092669907120e+00
 1.527132791305695e+00	 9.416523586869447e-01	 2.969864651135548e+00
 1.518004062972558e+00	 9.562987755506877e-01	 2.905783758994835e+00
 1.508724783053639e+00	 9.708723627734075e-01	 2.842853757046399e+00
 1.499295783373475e+00	 9.853708353953261e-01	 2.780959118107930e+00
 1.489717941445333e+00	 9.997919202222378e-01	 2.719833230078631e+00
 1.479992180288704e+00	 1.014133356955129e+00	 2.659051769949499e+00
 1.470119468213546e+00	 1.028392899317367e+00	 2.599234574225585e+00
 1.460100818571260e+00	 1.042568316178337e+00	 2.539616221388717e+00
 1.449937289472463e+00	 1.056657392672377e+00	 2.478217079299055e+00
 1.439629983471600e+00	 1.070657931311884e+00	 2.412765973779121e+00
 1.368835031092330e+00	 1.018007473830945e+00	 2.288318712862291e+00
 1.358897279024179e+00	 1.031235508845077e+00	 2.112398992056494e+00
 1.348825002563662e+00	 1.044375196923073e+00	 1.999176665395761e+00
 1.338619380955441e+00	 1.057424495877113e+00	 1.942173543279084e+00
 1.328281634245983e+00	 1.070381384178622e+00	 1.934566007887347e+00
 1.317813022826219e+00	 1.083243861977478e+00	 1.969204562518436e+00
 1.307214846943933e+00	 1.096009952109289e+00	 2.038635483683235e+00
 1.296488446186282e+00	 1.108677701089683e+00	 2.135124518322720e+00
 1.285635198932836e+00	 1.121245180094562e+00	 2.249688900739895e+00
 1.274656521779600e+00	 1.133710485925326e+00	 2.373286257369332e+00
 1.263553868934508e+00	 1.146071741958044e+00	 2.499674608138911e+00
 1.375914574465458e+00	 1.023272555376175e+00	 2.291512497786959e+00
 1.365925424862099e+00	 1.036569005097845e+00	 2.135185785596930e+00
 1.355801055113290e+00	 1.049776650957703e+00	 2.040966418877705e+00
 1.345542650562677e+00	 1.062893440205820e+00	 2.002024309034856e+00
 1.335151437566738e+00	 1.075917340858361e+00	 2.011132895076813e+00
 1.324628683035069e+00	 1.088846342722065e+00	 2.060689443816314e+00
 1.313975693940261e+00	 1.101678458406729e+00	 2.142737587625760e+00
 1.303193816797736e+00	 1.114411724324639e+00	 2.248847978638655e+00
 1.292284437115965e+00	 1.127044201675902e+00	 2.368042761231159e+00
 1.281248978817504e+00	 1.139573977418654e+00	 2.492265080232929e+00
 1.270088903631367e+00	 1.151999165223144e+00	 2.614712247080759e+00
 1.382994085748618e+00	 1.028537613055813e+00	 2.298018729594119e+00
 1.372953538843014e+00	 1.041902477174947e+00	 2.162836010909693e+00
 1.362777076042019e+00	 1.055178080508667e+00	 2.087802095814603e+00
 1.352465888788236e+00	 1.068362359744984e+00	 2.065973769758086e+00
 1.342021209748127e+00	 1.081453272444846e+00	 2.089978473548574e+00
 1.331444312349928e+00	 1.094448798071896e+00	 2.152035056678760e+00
 1.320736510291013e+00	 1.107346939010167e+00	 2.243976878287784e+00
 1.309899157015040e+00	 1.120145721568647e+00	 2.356086371564761e+00
 1.298933645159349e+00	 1.132843196971690e+00	 2.477151607500078e+00
 1.287841405973020e+00	 1.145437442334210e+00	 2.599975636833046e+00
 1.276623908706116e+00	 1.157926561620675e+00	 2.717486101581590e+00
 1.390073572964280e+00	 1.033802652836363e+00	 2.307380736600736e+00
 1.379981628931149e+00	 1.047235931120395e+00	 2.193632421451220e+00
 1.369753073255039e+00	 1.060579491696971e+00	 2.136955612784599e+00
 1.359389103477492e+00	 1.073831260692069e+00	 2.130528874889175e+00
 1.348890958574938e+00	 1.086989185211458e+00	 2.167086525397320e+00
 1.338259918494237e+00	 1.100051234375721e+00	 2.238939546480058e+00
 1.327497303657517e+00	 1.113015400343153e+00	 2.337934020402001e+00
 1.316604474436657e+00	 1.125879699319483e+00	 2.452322528270113e+00
 1.305582830597845e+00	 1.138642172553339e+00	 2.572961898290125e+00
 1.294433810716664e+00	 1.151300887316448e+00	 2.692975227889991e+00
 1.283158891564200e+00	 1.163853937867530e+00	 2.805375690319621e+00
 1.397153044134917e+00	 1.039067680684324e+00	 2.319135067977831e+00
 1.387009703090728e+00	 1.052569372978205e+00	 2.225876116475106e+00
 1.376729054657538e+00	 1.065980890643620e+00	 2.185737402246728e+00
 1.366312302475823e+00	 1.079300149244544e+00	 2.192250383537253e+00
 1.355760691831964e+00	 1.092525085431585e+00	 2.238505141942551e+00
 1.345075509191430e+00	 1.105653657982287e+00	 2.317171158656179e+00
 1.334258081701098e+00	 1.118683848829236e+00	 2.419424584452636e+00
 1.323309776661051e+00	 1.131613664074918e+00	 2.533187502846012e+00
 1.312232000966312e+00	 1.144441134992262e+00	 2.651491273405177e+00
 1.301026200518949e+00	 1.157164319009825e+00	 2.767880212282335e+00
 1.289693859611062e+00	 1.169781300680601e+00	 2.875803135584417e+00
 1.404232507283000e+00	 1.044332702566201e+00	 2.332810192218235e+00
 1.394037769285973e+00	 1.057902808792391e+00	 2.257884589476200e+00
 1.383705028154707e+00	 1.071382283469621e+00	 2.231493938657009e+00
 1.373235493628604e+00	 1.084769031599873e+00	 2.247749993981028e+00
 1.362630417303992e+00	 1.098060979378610e+00	 2.300343580245032e+00
 1.351891092164948e+00	 1.111256075240345e+00	 2.382564446548761e+00
 1.341018852083084e+00	 1.124352290891966e+00	 2.483757850509681e+00
 1.330015071286687e+00	 1.137347622332728e+00	 2.594389777961935e+00
 1.318881163799606e+00	 1.150240090859871e+00	 2.708827313761557e+00
 1.307618582850391e+00	 1.163027744058796e+00	 2.821365078951014e+00
 1.296228820252147e+00	 1.175708656776781e+00	 2.926232654550194e+00
 1.411311970431000e+00	 1.049597724448495e+00	 2.347925202974602e+00
 1.401065835481108e+00	 1.063236244606966e+00	 2.287989803478029e+00
 1.390681001651735e+00	 1.076783676295980e+00	 2.271605307059030e+00
 1.380158684781212e+00	 1.090237913955525e+00	 2.293687527494130e+00
 1.369500142775814e+00	 1.103596873325917e+00	 2.348769182079771e+00
 1.358706675138226e+00	 1.116858492498644e+00	 2.430255198282598e+00
 1.347779622464802e+00	 1.130020732954891e+00	 2.526554877495396e+00
 1.336720365912028e+00	 1.143081580590686e+00	 2.631713888711270e+00
 1.325530326632585e+00	 1.156039046727581e+00	 2.741126360878901e+00
 1.314210965181505e+00	 1.168891169107819e+00	 2.850161568839194e+00
 1.302763780892899e+00	 1.181636012872962e+00	 2.954170087902092e+00
 1.418391441601388e+00	 1.054862752297708e+00	 2.363988531954847e+00
 1.408093909640356e+00	 1.068569686465945e+00	 2.314536292164694e+00
 1.397656983053812e+00	 1.082185075243703e+00	 2.303482812599535e+00
 1.387081883779023e+00	 1.095706802508965e+00	 2.326768164527678e+00
 1.376369876032220e+00	 1.109132773546891e+00	 2.380004353111786e+00
 1.365522265834702e+00	 1.122460916105931e+00	 2.455373411758894e+00
 1.354540400507578e+00	 1.135689181441560e+00	 2.543514361434986e+00
 1.343425668135538e+00	 1.148815545346567e+00	 2.641019109655915e+00
 1.332179497000107e+00	 1.161838009166804e+00	 2.744612393739544e+00
 1.320803354982806e+00	 1.174754600801347e+00	 2.851057845128628e+00
 1.309298748938762e+00	 1.187563375686034e+00	 2.957162464522689e+00
 1.425470928816637e+00	 1.060127792080343e+00	 2.380496668572950e+00
 1.415121999727941e+00	 1.073903140413343e+00	 2.335879285896674e+00
 1.404632980266128e+00	 1.087586486433797e+00	 2.324566629479691e+00
 1.394005098467412e+00	 1.101175703457661e+00	 2.343739731360144e+00
 1.383239624857998e+00	 1.114668686314918e+00	 2.389987259234554e+00
 1.372337871977815e+00	 1.128063352410956e+00	 2.453740753672089e+00
 1.361301193872737e+00	 1.141357642775523e+00	 2.530411302090153e+00
 1.350130985555682e+00	 1.154549523098144e+00	 2.618238202879000e+00
 1.338828682437029e+00	 1.167636984748952e+00	 2.715575961030138e+00
 1.327395759724808e+00	 1.180618045783837e+00	 2.820897710104161e+00
 1.315833731795180e+00	 1.193490751932892e+00	 2.932797600998886e+00
 1.432550440099217e+00	 1.065392849762901e+00	 2.396932886063620e+00
 1.422150113708087e+00	 1.079236612493172e+00	 2.350382861686622e+00
 1.411609001193872e+00	 1.092987915987266e+00	 2.332323487910501e+00
 1.400928336691757e+00	 1.106644622999078e+00	 2.341390035397832e+00
 1.390109397037940e+00	 1.120204617903380e+00	 2.373780734747124e+00
 1.379153501291003e+00	 1.133665807762470e+00	 2.421252574150991e+00
 1.368062010221609e+00	 1.147026123380327e+00	 2.483095730839098e+00
 1.356836325770924e+00	 1.160283520343190e+00	 2.559376224943267e+00
 1.345477890478210e+00	 1.173435980045439e+00	 2.650373166859286e+00
 1.333988186878027e+00	 1.186481510699745e+00	 2.756579867045209e+00
 1.322368736867599e+00	 1.199418148330425e+00	 2.878703734759634e+00
 1.439629983471600e+00	 1.070657931311884e+00	 2.412765973779121e+00
 1.429178259545016e+00	 1.084570108749448e+00	 2.356418116246159e+00
 1.418585053742233e+00	 1.098389370025116e+00	 2.324244397695866e+00
 1.407851606297432e+00	 1.112113567330683e+00	 2.316514610754017e+00
 1.396979200356835e+00	 1.125740574585664e+00	 2.327497772197562e+00
 1.385969161497703e+00	 1.139268288509219e+00	 2.353876715788926e+00
 1.374822857215517e+00	 1.152694629679524e+00	 2.397491497703466e+00
 1.363541696379728e+00	 1.166017543579481e+00	 2.460509390737159e+00
 1.352127128658505e+00	 1.179235001627677e+00	 2.545424708121550e+00
 1.340580643912978e+00	 1.192345002193526e+00	 2.655057225607869e+00
 1.328903771561460e+00	 1.205345571595528e+00	 2.792549189703336e+00
 1.263553868934508e+00	 1.146071741958044e+00	 2.499674608138910e+00
 1.252330646641814e+00	 1.158325028325273e+00	 2.615841683488976e+00
 1.240986488227872e+00	 1.170470651982062e+00	 2.715413312656852e+00
 1.229522936041086e+00	 1.182506842439293e+00	 2.802291951029685e+00
 1.217941567326206e+00	 1.194431859378467e+00	 2.880666061643256e+00
 1.206243993496050e+00	 1.206243993496050e+00	 2.955001202139712e+00
 1.194431859378466e+00	 1.217941567326207e+00	 3.030030124371322e+00
 1.182506842439293e+00	 1.229522936041086e+00	 3.110741924191849e+00
 1.170470651982062e+00	 1.240986488227873e+00	 3.202370284691244e+00
 1.158325028325273e+00	 1.252330646641815e+00	 3.310380861604070e+00
 1.146071741958044e+00	 1.263553868934508e+00	 3.440457864818687e+00
 1.270088903631367e+00	 1.151999165223144e+00	 2.614712247080759e+00
 1.258807635418717e+00	 1.164315824948562e+00	 2.723975306643302e+00
 1.247404805609481e+00	 1.176524265137518e+00	 2.815786175586537e+00
 1.235881964529000e+00	 1.188622706144024e+00	 2.894099662033668e+00
 1.224240697579443e+00	 1.200609398648756e+00	 2.963090244838670e+00
 1.212482624507759e+00	 1.212482624507759e+00	 3.027142891936542e+00
 1.200609398648756e+00	 1.224240697579443e+00	 3.090842961825357e+00
 1.188622706144024e+00	 1.235881964529000e+00	 3.158965226865053e+00
 1.176524265137517e+00	 1.247404805609482e+00	 3.236462062787227e+00
 1.164315824948561e+00	 1.258807635418717e+00	 3.328450854273711e+00
 1.151999165223144e+00	 1.270088903631367e+00	 3.440200671638357e+00
 1.276623908706116e+00	 1.157926561620675e+00	 2.717486101581590e+00
 1.265284594836632e+00	 1.170306594417003e+00	 2.819874359227798e+00
 1.253823093898073e+00	 1.182577850853358e+00	 2.904593873706279e+00
 1.242240964192679e+00	 1.194738542126929e+00	 2.975451768663866e+00
 1.230539799279995e+00	 1.206786909917608e+00	 3.036408176907447e+00
 1.218721227241065e+00	 1.218721227241065e+00	 3.091567094492634e+00
 1.206786909917608e+00	 1.230539799279995e+00	 3.145166387868828e+00
 1.194738542126929e+00	 1.242240964192679e+00	 3.201566993408298e+00
 1.182577850853358e+00	 1.253823093898074e+00	 3.265241354357915e+00
 1.170306594417002e+00	 1.265284594836632e+00	 3.340761145710465e+00
 1.157926561620675e+00	 1.276623908706116e+00	 3.432784342658495e+00
 1.283158891564200e+00	 1.163853937867530e+00	 2.805375690319621e+00
 1.271761532235222e+00	 1.176297343519296e+00	 2.901842118846290e+00
 1.260241360366823e+00	 1.188631415989463e+00	 2.981061284610809e+00
 1.248599942238107e+00	 1.200854357318428e+00	 3.046496011143863e+00
 1.236838879565968e+00	 1.212964400185335e+00	 3.101695148411512e+00
 1.224959808765511e+00	 1.224959808765511e+00	 3.150284764177265e+00
 1.212964400185335e+00	 1.236838879565968e+00	 3.195958557759145e+00
 1.200854357318428e+00	 1.248599942238107e+00	 3.242467535656200e+00
 1.188631415989462e+00	 1.260241360366824e+00	 3.293608994236976e+00
 1.176297343519296e+00	 1.271761532235223e+00	 3.353214860143561e+00
 1.163853937867530e+00	 1.283158891564200e+00	 3.425139444227486e+00
 1.289693859611062e+00	 1.169781300680601e+00	 2.875803135584417e+00
 1.278238454954155e+00	 1.182288079044142e+00	 2.968205904259703e+00
 1.266659612288909e+00	 1.194684967405711e+00	 3.044418758841902e+00
 1.254958905871271e+00	 1.206970158648941e+00	 3.107366960569955e+00
 1.243137945575468e+00	 1.219141876452249e+00	 3.159994496924668e+00
 1.231198376150641e+00	 1.231198376150641e+00	 3.205255909040406e+00
 1.219141876452249e+00	 1.243137945575468e+00	 3.246107410239296e+00
 1.206970158648941e+00	 1.254958905871272e+00	 3.285497334817082e+00
 1.194684967405710e+00	 1.266659612288908e+00	 3.326355961941945e+00
 1.182288079044141e+00	 1.278238454954156e+00	 3.371584764997856e+00
 1.169781300680601e+00	 1.289693859611061e+00	 3.424045141871829e+00
 1.296228820252147e+00	 1.175708656776781e+00	 2.926232654550194e+00
 1.284715370333094e+00	 1.188278807780237e+00	 3.017317037446196e+00
 1.273077856937502e+00	 1.200738511961980e+00	 3.093902551189461e+00
 1.261317862298157e+00	 1.213085953048889e+00	 3.158186919661116e+00
 1.249437004446598e+00	 1.225319345718662e+00	 3.212318979193308e+00
 1.237436936465997e+00	 1.237436936465997e+00	 3.258391438098934e+00
 1.225319345718662e+00	 1.249437004446599e+00	 3.298432995414016e+00
 1.213085953048889e+00	 1.261317862298158e+00	 3.334399857149720e+00
 1.200738511961980e+00	 1.273077856937503e+00	 3.368166694102372e+00
 1.188278807780237e+00	 1.284715370333095e+00	 3.401517090757483e+00
 1.175708656776781e+00	 1.296228820252147e+00	 3.436133540004644e+00
 1.302763780892899e+00	 1.181636012872962e+00	 2.954170087902093e+00
 1.291192285711706e+00	 1.194269536516284e+00	 3.047550828752697e+00
 1.279496101585782e+00	 1.206792056518153e+00	 3.128755260849414e+00
 1.267676818724751e+00	 1.219201747448692e+00	 3.199066818105102e+00
 1.255736063317465e+00	 1.231496814984886e+00	 3.259652123553599e+00
 1.243675496781125e+00	 1.243675496781125e+00	 3.311554974407134e+00
 1.231496814984886e+00	 1.255736063317465e+00	 3.355689753753212e+00
 1.219201747448691e+00	 1.267676818724751e+00	 3.392834305872216e+00
 1.206792056518152e+00	 1.279496101585782e+00	 3.423622317934536e+00
 1.194269536516284e+00	 1.291192285711706e+00	 3.448535256348170e+00
 1.181636012872962e+00	 1.302763780892899e+00	 3.467893911230038e+00
 1.309298748938762e+00	 1.187563375686034e+00	 2.957162464522689e+00
 1.297669208429653e+00	 1.200260272040981e+00	 3.057306584347094e+00
 1.285914353506923e+00	 1.212845607934105e+00	 3.148226280148778e+00
 1.274035782357038e+00	 1.225317548778769e+00	 3.230107102713051e+00
 1.262035129326172e+00	 1.237674291251232e+00	 3.302949563321747e+00
 1.249914064165568e+00	 1.249914064165567e+00	 3.366564635137568e+00
 1.237674291251232e+00	 1.262035129326172e+00	 3.420568747964214e+00
 1.225317548778769e+00	 1.274035782357039e+00	 3.464378311568784e+00
 1.212845607934105e+00	 1.285914353506924e+00	 3.497203808563031e+00
 1.200260272040981e+00	 1.297669208429654e+00	 3.518043503384308e+00
 1.187563375686034e+00	 1.309298748938762e+00	 3.525676819149691e+00
 1.315833731795180e+00	 1.193490751932892e+00	 2.932797600998886e+00
 1.304146145826603e+00	 1.206251021143027e+00	 3.045007635213075e+00
 1.292332619974102e+00	 1.218899173069718e+00	 3.151572251560808e+00
 1.280394760401003e+00	 1.231433363969541e+00	 3.251398622587169e+00
 1.268334209610826e+00	 1.243851781518014e+00	 3.343140351846751e+00
 1.256152645688868e+00	 1.256152645688868e+00	 3.425194779850400e+00
 1.243851781518013e+00	 1.268334209610826e+00	 3.495699849406100e+00
 1.231433363969541e+00	 1.280394760401004e+00	 3.552530563270573e+00
 1.218899173069718e+00	 1.292332619974102e+00	 3.593295072877779e+00
 1.206251021143026e+00	 1.304146145826603e+00	 3.615330442494184e+00
 1.193490751932891e+00	 1.315833731795180e+00	 3.615698138422509e+00
 1.322368736867599e+00	 1.199418148330425e+00	 2.878703734759634e+00
 1.310623105242220e+00	 1.212241790611122e+00	 3.009101386960927e+00
 1.298750908260492e+00	 1.224952758784869e+00	 3.138057532745287e+00
 1.286753760062633e+00	 1.237549199951429e+00	 3.263023509499249e+00
 1.274633311309532e+00	 1.250029292785542e+00	 3.381128259888269e+00
 1.262391248420571e+00	 1.262391248420571e+00	 3.489177728083275e+00
 1.250029292785542e+00	 1.274633311309532e+00	 3.583653880653419e+00
 1.237549199951429e+00	 1.286753760062633e+00	 3.660713382300971e+00
 1.224952758784869e+00	 1.298750908260493e+00	 3.716185962509764e+00
 1.212241790611121e+00	 1.310623105242220e+00	 3.745572514809719e+00
 1.199418148330425e+00	 1.322368736867598e+00	 3.744042975680021e+00
 1.328903771561460e+00	 1.205345571595528e+00	 2.792549189703336e+00
 1.317100094016168e+00	 1.218232587233964e+00	 2.948059389757362e+00
 1.305169225639270e+00	 1.231006371939438e+00	 3.106954669360625e+00
 1.293112788547912e+00	 1.243665063654852e+00	 3.265056053670850e+00
 1.280932441560393e+00	 1.256206832054128e+00	 3.417793055957215e+00
 1.268629879430219e+00	 1.268629879430219e+00	 3.560205447350109e+00
 1.256206832054128e+00	 1.280932441560393e+00	 3.686944715754393e+00
 1.243665063654852e+00	 1.293112788547913e+00	 3.792275240894373e+00
 1.231006371939438e+00	 1.305169225639270e+00	 3.870075218406854e+00
 1.218232587233963e+00	 1.317100094016168e+00	 3.913837371585896e+00
 1.205345571595528e+00	 1.328903771561460e+00	 3.916669494758508e+00
 1.146071741958044e+00	 1.263553868934508e+00	 3.440457864818687e+00
 1.133710485925327e+00	 1.274656521779599e+00	 3.570939202167669e+00
 1.121245180094562e+00	 1.285635198932835e+00	 3.673512698387396e+00
 1.108677701089684e+00	 1.296488446186282e+00	 3.743910933747836e+00
 1.096009952109290e+00	 1.307214846943932e+00	 3.780471738957083e+00
 1.083243861977478e+00	 1.317813022826219e+00	 3.780231114952800e+00
 1.070381384178622e+00	 1.328281634245983e+00	 3.738498369032022e+00
 1.057424495877114e+00	 1.338619380955441e+00	 3.650198746088385e+00
 1.044375196923074e+00	 1.348825002563662e+00	 3.509873534712831e+00
 1.031235508845077e+00	 1.358897279024178e+00	 3.311681227095561e+00
 1.018007473830945e+00	 1.368835031092329e+00	 3.049399764476110e+00
 1.151999165223144e+00	 1.270088903631367e+00	 3.440200671638357e+00
 1.139573977418655e+00	 1.281248978817504e+00	 3.546783784337278e+00
 1.127044201675902e+00	 1.292284437115965e+00	 3.617933169292747e+00
 1.114411724324640e+00	 1.303193816797736e+00	 3.650953062151270e+00
 1.101678458406729e+00	 1.313975693940260e+00	 3.644293127165921e+00
 1.088846342722065e+00	 1.324628683035068e+00	 3.598655096664812e+00
 1.075917340858362e+00	 1.335151437566738e+00	 3.511794443118035e+00
 1.062893440205821e+00	 1.345542650562677e+00	 3.381128720168052e+00
 1.049776650957704e+00	 1.355801055113290e+00	 3.203886874476295e+00
 1.036569005097846e+00	 1.365925424862099e+00	 2.977105800296517e+00
 1.023272555376175e+00	 1.375914574465458e+00	 2.697627749880548e+00
 1.157926561620675e+00	 1.276623908706116e+00	 3.432784342658495e+00
 1.145437442334210e+00	 1.287841405973020e+00	 3.514780694450392e+00
 1.132843196971690e+00	 1.298933645159349e+00	 3.556234402081859e+00
 1.120145721568648e+00	 1.309899157015040e+00	 3.555949676766339e+00
 1.107346939010167e+00	 1.320736510291012e+00	 3.512959633265533e+00
 1.094448798071897e+00	 1.331444312349929e+00	 3.429823103074331e+00
 1.081453272444846e+00	 1.342021209748126e+00	 3.307363335350731e+00
 1.068362359744984e+00	 1.352465888788236e+00	 3.145223068792419e+00
 1.055178080508667e+00	 1.362777076042019e+00	 2.943024188490620e+00
 1.041902477174947e+00	 1.372953538843014e+00	 2.700360135030779e+00
 1.028537613055813e+00	 1.382994085748617e+00	 2.416788976124922e+00
 1.163853937867530e+00	 1.283158891564200e+00	 3.425139444227486e+00
 1.151300887316449e+00	 1.294433810716663e+00	 3.482696476528321e+00
 1.138642172553339e+00	 1.305582830597845e+00	 3.496609839888206e+00
 1.125879699319483e+00	 1.316604474436656e+00	 3.467033300863188e+00
 1.113015400343154e+00	 1.327497303657516e+00	 3.394293363719766e+00
 1.100051234375721e+00	 1.338259918494236e+00	 3.280830282180927e+00
 1.086989185211459e+00	 1.348890958574938e+00	 3.131121484591286e+00
 1.073831260692070e+00	 1.359389103477492e+00	 2.946827213044849e+00
 1.060579491696971e+00	 1.369753073255038e+00	 2.729671677210415e+00
 1.047235931120395e+00	 1.379981628931149e+00	 2.481487396809251e+00
 1.033802652836363e+00	 1.390073572964280e+00	 2.204204426184928e+00
 1.169781300680601e+00	 1.289693859611061e+00	 3.424045141871829e+00
 1.157164319009826e+00	 1.301026200518948e+00	 3.458129080802013e+00
 1.144441134992262e+00	 1.312232000966311e+00	 3.447075403694796e+00
 1.131613664074918e+00	 1.323309776661050e+00	 3.392239603962676e+00
 1.118683848829237e+00	 1.334258081701098e+00	 3.295277586413612e+00
 1.105653657982288e+00	 1.345075509191430e+00	 3.158615095846300e+00
 1.092525085431586e+00	 1.355760691831963e+00	 2.988852457574165e+00
 1.079300149244544e+00	 1.366312302475822e+00	 2.790185504725132e+00
 1.065980890643620e+00	 1.376729054657537e+00	 2.566154182783626e+00
 1.052569372978206e+00	 1.387009703090727e+00	 2.320516925540376e+00
 1.039067680684324e+00	 1.397153044134917e+00	 2.057236519834201e+00
 1.175708656776781e+00	 1.296228820252147e+00	 3.436133540004644e+00
 1.163027744058797e+00	 1.307618582850391e+00	 3.448512624872273e+00
 1.150240090859872e+00	 1.318881163799605e+00	 3.415474465245198e+00
 1.137347622332729e+00	 1.330015071286686e+00	 3.339430995293805e+00
 1.124352290891966e+00	 1.341018852083083e+00	 3.223194241764594e+00
 1.111256075240345e+00	 1.351891092164947e+00	 3.069962539268802e+00
 1.098060979378610e+00	 1.362630417303992e+00	 2.886209933246582e+00
 1.084769031599873e+00	 1.373235493628604e+00	 2.679443403411160e+00
 1.071382283469622e+00	 1.383705028154706e+00	 2.454736360164585e+00
 1.057902808792391e+00	 1.394037769285972e+00	 2.217464204272424e+00
 1.044332702566201e+00	 1.404232507283000e+00	 1.973287685986614e+00
 1.181636012872962e+00	 1.302763780892899e+00	 3.467893911230038e+00
 1.168891169107819e+00	 1.314210965181504e+00	 3.461122031508371e+00
 1.156039046727581e+00	 1.325530326632585e+00	 3.409482689975760e+00
 1.143081580590687e+00	 1.336720365912027e+00	 3.316301469805609e+00
 1.130020732954891e+00	 1.347779622464801e+00	 3.185376025813080e+00
 1.116858492498644e+00	 1.358706675138226e+00	 3.020960246264984e+00
 1.103596873325918e+00	 1.369500142775814e+00	 2.828720593153450e+00
 1.090237913955525e+00	 1.380158684781211e+00	 2.618649583957382e+00
 1.076783676295981e+00	 1.390681001651735e+00	 2.397623809084211e+00
 1.063236244606966e+00	 1.401065835481107e+00	 2.172330825174136e+00
 1.049597724448495e+00	 1.411311970431000e+00	 1.949798974546560e+00
 1.187563375686034e+00	 1.309298748938762e+00	 3.525676819149691e+00
 1.174754600801347e+00	 1.320803354982805e+00	 3.503077547446880e+00
 1.161838009166804e+00	 1.332179497000106e+00	 3.436612754563498e+00
 1.148815545346567e+00	 1.343425668135537e+00	 3.330381328488396e+00
 1.135689181441561e+00	 1.354540400507577e+00	 3.188998790751082e+00
 1.122460916105931e+00	 1.365522265834702e+00	 3.017579693944647e+00
 1.109132773546892e+00	 1.376369876032219e+00	 2.821786921162543e+00
 1.095706802508965e+00	 1.387081883779022e+00	 2.611757976866506e+00
 1.082185075243703e+00	 1.397656983053812e+00	 2.396964168242971e+00
 1.068569686465946e+00	 1.408093909640356e+00	 2.185104452839002e+00
 1.054862752297708e+00	 1.418391441601388e+00	 1.984248706364872e+00
 1.193490751932891e+00	 1.315833731795180e+00	 3.615698138422509e+00
 1.180618045783838e+00	 1.327395759724808e+00	 3.581349147379216e+00
 1.167636984748952e+00	 1.338828682437029e+00	 3.504218943501166e+00
 1.154549523098144e+00	 1.350130985555682e+00	 3.389041777425934e+00
 1.141357642775523e+00	 1.361301193872737e+00	 3.241085957714696e+00
 1.128063352410957e+00	 1.372337871977816e+00	 3.066134770298448e+00
 1.114668686314918e+00	 1.383239624857997e+00	 2.870466391807133e+00
 1.101175703457661e+00	 1.394005098467411e+00	 2.662629743872853e+00
 1.087586486433797e+00	 1.404632980266128e+00	 2.454848173037426e+00
 1.073903140413343e+00	 1.415121999727941e+00	 2.255758784994411e+00
 1.060127792080343e+00	 1.425470928816637e+00	 2.074151159953576e+00
 1.199418148330425e+00	 1.322368736867598e+00	 3.744042975680021e+00
 1.186481510699746e+00	 1.333988186878026e+00	 3.702760827150414e+00
 1.173435980045439e+00	 1.345477890478209e+00	 3.619501628936435e+00
 1.160283520343191e+00	 1.356836325770923e+00	 3.499499409825710e+00
 1.147026123380328e+00	 1.368062010221608e+00	 3.348512817888490e+00
 1.133665807762470e+00	 1.379153501291003e+00	 3.172804845120895e+00
 1.120204617903381e+00	 1.390109397037939e+00	 2.979121546592905e+00
 1.106644622999078e+00	 1.400928336691756e+00	 2.775035190982873e+00
 1.092987915987266e+00	 1.411609001193872e+00	 2.573310678078595e+00
 1.079236612493173e+00	 1.422150113708087e+00	 2.384253510694104e+00
 1.065392849762901e+00	 1.432550440099217e+00	 2.217055293666308e+00
 1.205345571595528e+00	 1.328903771561460e+00	 3.916669494758508e+00
 1.192345002193527e+00	 1.340580643912977e+00	 3.873994790033611e+00
 1.179235001627678e+00	 1.352127128658504e+00	 3.789511637845300e+00
 1.166017543579482e+00	 1.363541696379727e+00	 3.668820575106492e+00
 1.152694629679524e+00	 1.374822857215517e+00	 3.518010725816255e+00
 1.139268288509220e+00	 1.385969161497703e+00	 3.343638611280183e+00
 1.125740574585664e+00	 1.396979200356834e+00	 3.152705991352085e+00
 1.112113567330684e+00	 1.407851606297432e+00	 2.952636848554730e+00
 1.098389370025117e+00	 1.418585053742233e+00	 2.754331645710622e+00
 1.084570108749449e+00	 1.429178259545016e+00	 2.570534266068340e+00
 1.070657931311884e+00	 1.439629983471600e+00	 2.410543502102174e+00
 1.018007473830945e+00	 1.368835031092329e+00	 3.049399764476110e+00
 1.004695422846676e+00	 1.378635467101188e+00	 2.765412316247881e+00
 9.912991879267010e-01	 1.388299196551591e+00	 2.508504347845959e+00
 9.778208584954495e-01	 1.397825171108125e+00	 2.282161478837154e+00
 9.642625405008268e-01	 1.407212384693646e+00	 2.090173286977733e+00
 9.506263553558507e-01	 1.416459873789150e+00	 1.936619289259882e+00
 9.369144388747381e-01	 1.425566717702133e+00	 1.825855297010790e+00
 9.231289402045267e-01	 1.434532038803360e+00	 1.762500180085443e+00
 9.092720207533138e-01	 1.443355002732014e+00	 1.751423070398334e+00
 8.953458531161874e-01	 1.452034818569230e+00	 1.797731030201369e+00
 8.813526199999249e-01	 1.460570738980084e+00	 1.906757205669061e+00
 1.023272555376175e+00	 1.375914574465458e+00	 2.697627749880547e+00
 1.009891655158237e+00	 1.385765697818092e+00	 2.413846620519510e+00
 9.964261356097555e-01	 1.395479407573138e+00	 2.176775310736475e+00
 9.828780969615492e-01	 1.405054649973241e+00	 1.987241904195228e+00
 9.692496560533734e-01	 1.414490413737869e+00	 1.846131194927655e+00
 9.555429452700807e-01	 1.423785730364742e+00	 1.754376294946976e+00
 9.417601114722048e-01	 1.432939674399574e+00	 1.712950939137868e+00
 9.279033149220564e-01	 1.441951363674069e+00	 1.722862510696014e+00
 9.139747282064189e-01	 1.450819959512134e+00	 1.785145804966724e+00
 8.999765351569268e-01	 1.459544666904304e+00	 1.900857544101832e+00
 8.859109297691987e-01	 1.468124734650470e+00	 2.071071649552396e+00
 1.028537613055813e+00	 1.382994085748617e+00	 2.416788976124923e+00
 1.015087863916258e+00	 1.392895896215265e+00	 2.143627402901086e+00
 1.001553060053302e+00	 1.402659586048384e+00	 1.931543110749147e+00
 9.879353125041048e-01	 1.412284096068702e+00	 1.779134246855535e+00
 9.742367490002228e-01	 1.421768409792328e+00	 1.684847111197880e+00
 9.604595128982922e-01	 1.431111553733727e+00	 1.646972492035516e+00
 9.466057621051136e-01	 1.440312597676857e+00	 1.663642976431120e+00
 9.326776679982206e-01	 1.449370654914388e+00	 1.732831249203519e+00
 9.186774143430335e-01	 1.458284882454964e+00	 1.852349387727893e+00
 9.046071962076807e-01	 1.467054481198550e+00	 2.019849154038023e+00
 8.904692188765717e-01	 1.475678696079867e+00	 2.232823279783153e+00
 1.033802652836363e+00	 1.390073572964280e+00	 2.204204426184928e+00
 1.020284055009235e+00	 1.400026070372627e+00	 1.949452860835177e+00
 1.006679967067333e+00	 1.409839740113895e+00	 1.765451956329136e+00
 9.929925108541205e-01	 1.419513517586915e+00	 1.648989857244562e+00
 9.792238249929176e-01	 1.429046381104456e+00	 1.596532593899062e+00
 9.653760638121091e-01	 1.438437352197751e+00	 1.604224255151460e+00
 9.514513962647230e-01	 1.447685495889017e+00	 1.667888368899122e+00
 9.374520048434789e-01	 1.456789920931903e+00	 1.783030495680354e+00
 9.233800844923945e-01	 1.465749780019818e+00	 1.944842034312440e+00
 9.092378415160550e-01	 1.474564269962159e+00	 2.148205232063255e+00
 8.950274924876224e-01	 1.483232631828501e+00	 2.387607614614514e+00
 1.039067680684324e+00	 1.397153044134917e+00	 2.057236519834201e+00
 1.025480234325661e+00	 1.407156228370093e+00	 1.826115922944575e+00
 1.011806862461838e+00	 1.417019877906233e+00	 1.671282598244738e+00
 9.980496977425986e-01	 1.426742922720285e+00	 1.588127109310240e+00
 9.842108896830023e-01	 1.436324335921691e+00	 1.571585536933813e+00
 9.702926035831555e-01	 1.445763134058460e+00	 1.616142606632798e+00
 9.562970194422918e-01	 1.455058377391087e+00	 1.715836211800906e+00
 9.422263308682891e-01	 1.464209170134207e+00	 1.864263331790986e+00
 9.280827439837385e-01	 1.473214660666003e+00	 2.054587337307087e+00
 9.138684763296557e-01	 1.482074041705323e+00	 2.279536231067429e+00
 8.995857557679303e-01	 1.490786550456598e+00	 2.528840821985020e+00
 1.044332702566201e+00	 1.404232507283000e+00	 1.973287685986614e+00
 1.030676407754032e+00	 1.414286378287581e+00	 1.768501475645309e+00
 1.016933752046808e+00	 1.424200007561963e+00	 1.641948501157453e+00
 1.003106878900542e+00	 1.433972319661218e+00	 1.588026803812662e+00
 9.891979487220198e-01	 1.443602282491466e+00	 1.600585087646540e+00
 9.752091377830571e-01	 1.453088907617503e+00	 1.672927926852177e+00
 9.611426371290783e-01	 1.462431250538098e+00	 1.797822512435351e+00
 9.470006514831094e-01	 1.471628410928890e+00	 1.967506933132397e+00
 9.327853981463018e-01	 1.480679532852835e+00	 2.173699978335173e+00
 9.184991058960887e-01	 1.489583804938234e+00	 2.405615204006383e+00
 9.041440138830749e-01	 1.498340460524385e+00	 2.651281081582349e+00
 1.049597724448495e+00	 1.411311970431000e+00	 1.949798974546560e+00
 1.035872581182843e+00	 1.421416528205009e+00	 1.771583670007074e+00
 1.022060641632236e+00	 1.431380137217650e+00	 1.670492127370652e+00
 1.008164060058956e+00	 1.441201716602121e+00	 1.640327707036645e+00
 9.941850077615139e-01	 1.450880229061218e+00	 1.674286714574823e+00
 9.801256719834371e-01	 1.460414681176524e+00	 1.764964820888548e+00
 9.659882548163409e-01	 1.469804123685087e+00	 1.904365121232460e+00
 9.517749720983987e-01	 1.479047651723542e+00	 2.083907825677132e+00
 9.374880523093211e-01	 1.488144405039623e+00	 2.293095015361131e+00
 9.231297354629600e-01	 1.497093568171083e+00	 2.518796891162069e+00
 9.087022719986347e-01	 1.505894370592087e+00	 2.750776254841671e+00
 1.054862752297708e+00	 1.418391441601388e+00	 1.984248706364872e+00
 1.041068760500589e+00	 1.428546686202294e+00	 1.830423306024356e+00
 1.027187537028111e+00	 1.438560275009859e+00	 1.750081328796880e+00
 1.013221246948842e+00	 1.448431121735399e+00	 1.736822220147632e+00
 9.991720724530286e-01	 1.458158183878383e+00	 1.783617420007157e+00
 9.850422117559210e-01	 1.467740463037170e+00	 1.882817136033158e+00
 9.708338779953384e-01	 1.477177005187086e+00	 2.026158811703582e+00
 9.565492981246145e-01	 1.486466900925753e+00	 2.204030987481332e+00
 9.421907118020330e-01	 1.495609285685677e+00	 2.403136207277162e+00
 9.277603702778756e-01	 1.504603339914062e+00	 2.612999563379907e+00
 9.132605352801892e-01	 1.513448289219931e+00	 2.823253998745957e+00
 1.060127792080343e+00	 1.425470928816637e+00	 2.074151159953576e+00
 1.046264951595763e+00	 1.435676860359353e+00	 1.940165291575415e+00
 1.032314444044426e+00	 1.445740429075154e+00	 1.874005843341689e+00
 1.018278445301203e+00	 1.455660543253458e+00	 1.869452174603880e+00
 1.004159148448107e+00	 1.465436155190395e+00	 1.919671092263944e+00
 9.899587626721327e-01	 1.475066261501090e+00	 2.017223124835205e+00
 9.756795121573298e-01	 1.484549903399127e+00	 2.153792805014286e+00
 9.613236349722157e-01	 1.493886166943112e+00	 2.316953008941340e+00
 9.468933819536737e-01	 1.503074183250311e+00	 2.496318997142682e+00
 9.323910155884413e-01	 1.512113128677363e+00	 2.682259543007986e+00
 9.178188088933178e-01	 1.521002224968144e+00	 2.864720014808114e+00
 1.065392849762901e+00	 1.432550440099217e+00	 2.217055293666308e+00
 1.051461160356861e+00	 1.442807058756104e+00	 2.096036173454057e+00
 1.037441368491171e+00	 1.452920607550099e+00	 2.035673892053218e+00
 1.023335660847045e+00	 1.462889989348706e+00	 2.030304749219903e+00
 1.009146241398293e+00	 1.472714151244691e+00	 2.073703992820593e+00
 9.948753303036972e-01	 1.482392084869929e+00	 2.159067069003766e+00
 9.805251627935732e-01	 1.491922826676246e+00	 2.275912302217701e+00
 9.660979880516615e-01	 1.501305458183212e+00	 2.414113321219264e+00
 9.515960680934802e-01	 1.510539106192833e+00	 2.565304085399579e+00
 9.370216766422629e-01	 1.519622942971177e+00	 2.720728532448881e+00
 9.223770980035991e-01	 1.528556186396949e+00	 2.871256357620301e+00
 1.070657931311884e+00	 1.439629983471600e+00	 2.410543502102174e+00
 1.056657392672377e+00	 1.449937289472463e+00	 2.293341737962848e+00
 1.042568316178337e+00	 1.460100818571260e+00	 2.228608873531186e+00
 1.028392899317367e+00	 1.470119468213545e+00	 2.211608504650729e+00
 1.014133356955129e+00	 1.479992180288705e+00	 2.237130373584847e+00
 9.997919202222384e-01	 1.489717941445333e+00	 2.297539842742953e+00
 9.853708353953267e-01	 1.499295783373474e+00	 2.383174584409376e+00
 9.708723627734085e-01	 1.508724783053639e+00	 2.487292831974324e+00
 9.562987755506887e-01	 1.518004062972557e+00	 2.602894379547252e+00
 9.416523586869459e-01	 1.527132791305695e+00	 2.722671029500540e+00
 9.269354077766124e-01	 1.536110182066576e+00	 2.839019800914862e+00
 8.813526199999249e-01	 1.460570738980084e+00	 1.906757205669061e+00
 8.672945134221165e-01	 1.468962060678352e+00	 2.034679200280487e+00
 8.531737344426994e-01	 1.477208125573723e+00	 2.135629483660564e+00
 8.389924912361787e-01	 1.485308319765138e+00	 2.211414479984565e+00
 8.247529977420975e-01	 1.493262073202776e+00	 2.261371084841209e+00
 8.104574725985347e-01	 1.501068859672163e+00	 2.287114205296897e+00
 7.961081380806602e-01	 1.508728196747882e+00	 2.290603378654267e+00
 7.817072190453511e-01	 1.516239645717194e+00	 2.273617108760454e+00
 7.672569418828216e-01	 1.523602811473945e+00	 2.237755285961482e+00
 7.527595334762194e-01	 1.530817342383143e+00	 2.184441791833681e+00
 7.382172201701207e-01	 1.537882930116643e+00	 2.114870072844084e+00
 8.859109297691987e-01	 1.468124734650470e+00	 2.071071649552396e+00
 8.717801153978220e-01	 1.476559455827043e+00	 2.246030073294599e+00
 8.575863044864874e-01	 1.484848168940095e+00	 2.377492321524366e+00
 8.433317166302509e-01	 1.492990256913498e+00	 2.466391657343523e+00
 8.290185772190218e-01	 1.500985146749157e+00	 2.516038081849767e+00
 8.146491163655446e-01	 1.508832309511038e+00	 2.530401715743984e+00
 8.002255678384677e-01	 1.516531260278639e+00	 2.513395593413520e+00
 7.857501680014982e-01	 1.524081558070216e+00	 2.468873746503207e+00
 7.712251547596115e-01	 1.531482805736142e+00	 2.400629347980157e+00
 7.566527665132655e-01	 1.538734649822780e+00	 2.312392928240938e+00
 7.420352411215601e-01	 1.545836780407322e+00	 2.207830674426182e+00
 8.904692188765717e-01	 1.475678696079867e+00	 2.232823279783153e+00
 8.762656970412380e-01	 1.484156816537981e+00	 2.438200368866761e+00
 8.619988545290732e-01	 1.492488177675362e+00	 2.585263805033177e+00
 8.476709223556296e-01	 1.500672159240829e+00	 2.678335844862871e+00
 8.332841373611295e-01	 1.508708185288026e+00	 2.722805162823210e+00
 8.188407411329303e-01	 1.516595724159373e+00	 2.724113579377966e+00
 8.043429789331058e-01	 1.524334288439293e+00	 2.687750782488745e+00
 7.897930986321395e-01	 1.531923434877049e+00	 2.619248988331294e+00
 7.751933496497130e-01	 1.539362764279550e+00	 2.524177560477838e+00
 7.605459819035419e-01	 1.546651921374522e+00	 2.408137606614149e+00
 7.458532447671977e-01	 1.553790594644504e+00	 2.276756571549160e+00
 8.950274924876224e-01	 1.483232631828501e+00	 2.387607614614514e+00
 8.807512634355339e-01	 1.491754151420575e+00	 2.606606944397836e+00
 8.664113895708463e-01	 1.500128160437264e+00	 2.758163263224132e+00
 8.520101133295689e-01	 1.508354035452344e+00	 2.848553639500975e+00
 8.375496830021971e-01	 1.516431197571210e+00	 2.884202543965119e+00
 8.230323516506631e-01	 1.524359112414744e+00	 2.871674136016972e+00
 8.084603760304244e-01	 1.532137290072307e+00	 2.817664375492527e+00
 7.938360155187019e-01	 1.539765285024174e+00	 2.728992985103415e+00
 7.791615310498444e-01	 1.547242696033797e+00	 2.612595288823933e+00
 7.644391840587847e-01	 1.554569166010276e+00	 2.475513951396835e+00
 7.496712354335257e-01	 1.561744381841501e+00	 2.324890643874829e+00
 8.995857557679303e-01	 1.490786550456598e+00	 2.528840821985020e+00
 8.852368196638791e-01	 1.499351469084235e+00	 2.748420409967028e+00
 8.708239146121972e-01	 1.507768125883543e+00	 2.895939062414192e+00
 8.563492944693235e-01	 1.516035894253259e+00	 2.978321052348178e+00
 8.418152189760024e-01	 1.524154192350537e+00	 3.002704926027258e+00
 8.272239526687135e-01	 1.532122483074730e+00	 2.976433949096156e+00
 8.125777637962726e-01	 1.539940274020142e+00	 2.907046305809430e+00
 7.978789232426124e-01	 1.547607117398071e+00	 2.802265081128222e+00
 7.831297034567231e-01	 1.555122609928513e+00	 2.669988055609346e+00
 7.683323773907280e-01	 1.562486392701949e+00	 2.518277342955941e+00
 7.534892174470363e-01	 1.569698151011624e+00	 2.355348899883682e+00
 9.041440138830749e-01	 1.498340460524385e+00	 2.651281081582349e+00
 8.897223708094438e-01	 1.506948778138374e+00	 2.861565585433984e+00
 8.752364346535145e-01	 1.515408082671938e+00	 2.998340870113223e+00
 8.606884706921478e-01	 1.523717744348785e+00	 3.068884464275936e+00
 8.460807501163218e-01	 1.531877178377833e+00	 3.080733068382571e+00
 8.314155489370515e-01	 1.539885844936908e+00	 3.041671829521739e+00
 8.166951468965006e-01	 1.547743249125263e+00	 2.959723318896778e+00
 8.019218263852995e-01	 1.555448940885219e+00	 2.843136244990184e+00
 7.870978713670681e-01	 1.563002514893328e+00	 2.700373935589464e+00
 7.722255663111076e-01	 1.570403610421449e+00	 2.540102621844956e+00
 7.573071951342214e-01	 1.577651911168186e+00	 2.371179557341534e+00
 9.087022719986347e-01	 1.505894370592087e+00	 2.750776254841671e+00
 8.942079219553956e-01	 1.514546087192401e+00	 2.944005491246493e+00
 8.796489546951897e-01	 1.523048039460192e+00	 3.065119822423573e+00
 8.650276469152963e-01	 1.531399594444139e+00	 3.121461559476830e+00
 8.503462812569321e-01	 1.539600164404925e+00	 3.120655322069179e+00
 8.356071452056488e-01	 1.547649206798855e+00	 3.070596804686507e+00
 8.208125299969579e-01	 1.555546224230132e+00	 2.979441216947329e+00
 8.059647295281903e-01	 1.563290764372100e+00	 2.855591432845034e+00
 7.910660392775967e-01	 1.570882419857870e+00	 2.707685884004969e+00
 7.761187552316586e-01	 1.578320828140681e+00	 2.544586232044755e+00
 7.611251728215739e-01	 1.585605671324500e+00	 2.375364854947639e+00
 9.132605352801892e-01	 1.513448289219931e+00	 2.823253998745957e+00
 8.986934781849053e-01	 1.522143404855727e+00	 2.993740610412924e+00
 8.840614797376112e-01	 1.530688004906044e+00	 3.096028693393540e+00
 8.693668280560238e-01	 1.539081453244533e+00	 3.137242237680616e+00
 8.546118172316102e-01	 1.547323159183640e+00	 3.124789123256348e+00
 8.397987462244753e-01	 1.555412577458151e+00	 3.066350034583265e+00
 8.249299177634937e-01	 1.563349208177210e+00	 2.969867042159961e+00
 8.100076372527125e-01	 1.571132596745196e+00	 2.843531886567145e+00
 7.950342116850274e-01	 1.578762333751769e+00	 2.695774000630779e+00
 7.800119485641155e-01	 1.586238054831553e+00	 2.535248305335077e+00
 7.649431548355849e-01	 1.593559440493879e+00	 2.370822814934175e+00
 9.178188088933178e-01	 1.521002224968144e+00	 2.864720014808114e+00
 9.031790445811415e-01	 1.529740739737763e+00	 3.008808179766378e+00
 8.884740147811701e-01	 1.538327987667236e+00	 3.090822066265053e+00
 8.737060190315843e-01	 1.546763329455182e+00	 3.117389505801200e+00
 8.588773628741327e-01	 1.555046171465807e+00	 3.095402448525576e+00
 8.439903567435021e-01	 1.563175965712369e+00	 3.032006676875715e+00
 8.290473148619583e-01	 1.571152209808962e+00	 2.934591200774483e+00
 8.140505541402934e-01	 1.578974446890986e+00	 2.810777369036597e+00
 7.990023930860779e-01	 1.586642265504654e+00	 2.668407731809562e+00
 7.839051507202141e-01	 1.594155299465974e+00	 2.515534688863450e+00
 7.687611455027474e-01	 1.601513227689634e+00	 2.360408958339852e+00
 9.223770980035991e-01	 1.528556186396949e+00	 2.871256357620301e+00
 9.076646262272738e-01	 1.537338100447917e+00	 2.987281509508899e+00
 8.928865648262556e-01	 1.545967996401507e+00	 3.049256506557529e+00
 8.780452247592323e-01	 1.554445231781298e+00	 3.063040349738866e+00
 8.631429230182767e-01	 1.562769210003252e+00	 3.034715233305270e+00
 8.481819815126992e-01	 1.570939380359090e+00	 2.970577702712642e+00
 8.331647259582009e-01	 1.578955237967850e+00	 2.877129529941686e+00
 8.180934847723605e-01	 1.586816323695950e+00	 2.761068338762676e+00
 8.029705879774670e-01	 1.594522224046154e+00	 2.629278012636673e+00
 7.877983661116885e-01	 1.602072571015847e+00	 2.488818917896513e+00
 7.725791491495536e-01	 1.609467041925078e+00	 2.346917974611911e+00
 9.269354077766124e-01	 1.536110182066576e+00	 2.839019800914862e+00
 9.121502282064713e-01	 1.544935495595601e+00	 2.927269330064497e+00
 8.972991348732574e-01	 1.553608039766600e+00	 2.971090736933329e+00
 8.823844501562227e-01	 1.562127168928098e+00	 2.975306587034636e+00
 8.674085024978194e-01	 1.570492283547801e+00	 2.944900754744133e+00
 8.523736252820379e-01	 1.578702830195891e+00	 2.885011665000671e+00
 8.372821557180713e-01	 1.586758301496337e+00	 2.800925309417620e+00
 8.221364337303418e-01	 1.594658236046570e+00	 2.698068065953723e+00
 8.069388008559120e-01	 1.602402218305899e+00	 2.581999351378167e+00
 7.916915991502745e-01	 1.609989878453082e+00	 2.458404135660421e+00
 7.763971701024950e-01	 1.617420892213523e+00	 2.333085347125676e+00
 7.382172201701207e-01	 1.537882930116643e+00	 2.114870072844084e+00
 7.236297435225110e-01	 1.544800472436972e+00	 2.054310039120205e+00
 7.090017948457513e-01	 1.551568532121260e+00	 2.025436484551471e+00
 6.943355931916827e-01	 1.558186928331899e+00	 2.023739204171833e+00
 6.796333530791191e-01	 1.564655522628554e+00	 2.044796536359068e+00
 6.648972835192718e-01	 1.570974218667745e+00	 2.084276376044391e+00
 6.501295870550970e-01	 1.577142961876710e+00	 2.137937002041725e+00
 6.353324588153149e-01	 1.583161739102190e+00	 2.201627724216848e+00
 6.205080855838198e-01	 1.589030578234767e+00	 2.271289356307841e+00
 6.056586448851712e-01	 1.594749547809442e+00	 2.342954520287886e+00
 5.907863040868248e-01	 1.600318756583150e+00	 2.412747788230578e+00
 7.420352411215601e-01	 1.545836780407322e+00	 2.207830674426182e+00
 7.273723188058242e-01	 1.552790099895475e+00	 2.115874262381678e+00
 7.126687151416508e-01	 1.559593163631131e+00	 2.059258725849076e+00
 6.979266606577137e-01	 1.566245789841412e+00	 2.033227469180666e+00
 6.831483813262161e-01	 1.572747839369985e+00	 2.033095714534391e+00
 6.683360975832732e-01	 1.579099215375095e+00	 2.054236813119728e+00
 6.534920233632909e-01	 1.585299863001742e+00	 2.092083923212290e+00
 6.386183651480936e-01	 1.591349769028650e+00	 2.142131536847324e+00
 6.237173210315201e-01	 1.597248961490656e+00	 2.199936859149400e+00
 6.087910798001863e-01	 1.602997509277233e+00	 2.261121044310300e+00
 5.938418200310727e-01	 1.608595521707807e+00	 2.321370292276445e+00
 7.458532447671977e-01	 1.553790594644504e+00	 2.276756571549160e+00
 7.311148771253558e-01	 1.560779691138358e+00	 2.161063555572046e+00
 7.163356188167301e-01	 1.567617758766773e+00	 2.083277418535975e+00
 7.015177118467748e-01	 1.574304614821597e+00	 2.038302330405320e+00
 6.866633936410276e-01	 1.580840119430500e+00	 2.021294744038237e+00
 6.717748960604549e-01	 1.587224175253450e+00	 2.027443892108221e+00
 6.568544444308601e-01	 1.593456727153210e+00	 2.051974081048782e+00
 6.419042565871184e-01	 1.599537761840478e+00	 2.090146858139596e+00
 6.269265419329615e-01	 1.605467307494346e+00	 2.137263054283072e+00
 6.119235005170091e-01	 1.611245433358750e+00	 2.188664705049447e+00
 5.968973221257120e-01	 1.616872249315604e+00	 2.239736852596583e+00
 7.496712354335257e-01	 1.561744381841501e+00	 2.324890643874830e+00
 7.348574227220943e-01	 1.568769255219472e+00	 2.192355340655744e+00
 7.200025100262408e-01	 1.575642326621699e+00	 2.099327231666707e+00
 7.051087508281582e-01	 1.582363412404755e+00	 2.040256142475470e+00
 6.901783940066800e-01	 1.588932371980312e+00	 2.010242164267036e+00
 6.752136828475825e-01	 1.595349107510062e+00	 2.004398839130517e+00
 6.602168540680257e-01	 1.601613563574521e+00	 2.017855837292867e+00
 6.451901368558957e-01	 1.607725726816363e+00	 2.045761527612708e+00
 6.301357519247769e-01	 1.613685625558930e+00	 2.083285442917267e+00
 6.150559105852531e-01	 1.619493329400616e+00	 2.125620641768467e+00
 5.999528138332071e-01	 1.625148948785818e+00	 2.167985968249387e+00
 7.534892174470363e-01	 1.569698151011624e+00	 2.355348899883682e+00
 7.385999598370280e-01	 1.576758801192669e+00	 2.212172259752918e+00
 7.236693929254339e-01	 1.583666876289425e+00	 2.109201267622758e+00
 7.086997816711579e-01	 1.590422191723191e+00	 2.040350875100458e+00
 6.936933864063007e-01	 1.597024606189638e+00	 2.000765318465038e+00
 6.786524618414209e-01	 1.603474021352178e+00	 1.985588919503859e+00
 6.635792560850077e-01	 1.609770381509082e+00	 1.989968915467680e+00
 6.484760096779308e-01	 1.615913673234994e+00	 2.009058198092502e+00
 6.333449546435997e-01	 1.621903924997502e+00	 2.038017962744355e+00
 6.181883135545339e-01	 1.627741206749455e+00	 2.072020268719415e+00
 6.030082986160217e-01	 1.633425629497728e+00	 2.106250511712608e+00
 7.573071951342214e-01	 1.577651911168186e+00	 2.371179557341534e+00
 7.423424927111456e-01	 1.584748338111799e+00	 2.222904418076313e+00
 7.273362716695602e-01	 1.591691416863465e+00	 2.114652008528195e+00
 7.122908084450659e-01	 1.598480961909206e+00	 2.039818779548792e+00
 6.972083748230158e-01	 1.605116831228691e+00	 1.993670790704216e+00
 6.820912369387350e-01	 1.611598925987050e+00	 1.971487694639235e+00
 6.669416542920269e-01	 1.617927190200302e+00	 1.968544526060727e+00
 6.517618787767300e-01	 1.624101610375061e+00	 1.980114376472891e+00
 6.365541537260625e-01	 1.630122215123159e+00	 2.001470990470462e+00
 6.213207129744667e-01	 1.635989074751893e+00	 2.027891284503827e+00
 6.060637799366202e-01	 1.641702300830610e+00	 2.054657788984991e+00
 7.611251728215739e-01	 1.585605671324500e+00	 2.375364854947640e+00
 7.460850255854350e-01	 1.592737875030713e+00	 2.227020077083503e+00
 7.310031504138708e-01	 1.599715957437334e+00	 2.117392233504682e+00
 7.158818352191763e-01	 1.606539732095104e+00	 2.039863034458163e+00
 7.007233632399525e-01	 1.613209056267687e+00	 1.989744829157446e+00
 6.855300120362904e-01	 1.619723830621925e+00	 1.962555270697167e+00
 6.703040524993042e-01	 1.626083998891588e+00	 1.953805487465174e+00
 6.550477478757982e-01	 1.632289547515253e+00	 1.959002462802173e+00
 6.397633528087988e-01	 1.638340505248991e+00	 1.973651343837254e+00
 6.244531123946662e-01	 1.644236942754548e+00	 1.993257680726917e+00
 6.091192612574667e-01	 1.649978972163745e+00	 2.013329597452473e+00
 7.649431548355849e-01	 1.593559440493879e+00	 2.370822814934175e+00
 7.498275627008849e-01	 1.600727421003264e+00	 2.226785875951622e+00
 7.346700333136174e-01	 1.607740507104548e+00	 2.119095907788725e+00
 7.194728660627816e-01	 1.614598511413189e+00	 2.041658371700092e+00
 7.042383556402380e-01	 1.621301290476840e+00	 1.989753756144153e+00
 6.889687910308518e-01	 1.627848744464054e+00	 1.959238539289099e+00
 6.736664545170600e-01	 1.634240816826348e+00	 1.945966342825783e+00
 6.583336206986419e-01	 1.640477493934260e+00	 1.945789787750381e+00
 6.429725555284411e-01	 1.646558804688096e+00	 1.954562283150889e+00
 6.275855153647476e-01	 1.652484820104049e+00	 1.968139749967475e+00
 6.121747460410250e-01	 1.658255652876409e+00	 1.982382281595029e+00
 7.687611455027474e-01	 1.601513227689634e+00	 2.360408958339852e+00
 7.535701082984835e-01	 1.608716985083301e+00	 2.224382692410056e+00
 7.383369245240510e-01	 1.615765074958621e+00	 2.121399044693078e+00
 7.230639050451747e-01	 1.622657308995762e+00	 2.046351682994281e+00
 7.077533560069987e-01	 1.629393543026364e+00	 1.994444365408383e+00
 6.924075778191850e-01	 1.635973676720688e+00	 1.961971410499740e+00
 6.770288641555144e-01	 1.642397653247990e+00	 1.945233472929768e+00
 6.616195009687661e-01	 1.648665458910769e+00	 1.940538648511455e+00
 6.461817655216227e-01	 1.654777122753565e+00	 1.944203512332427e+00
 6.307179254343258e-01	 1.660732716147016e+00	 1.952554093084679e+00
 6.152302377497595e-01	 1.666532352347879e+00	 1.961926786607039e+00
 7.725791491495536e-01	 1.609467041925078e+00	 2.346917974611911e+00
 7.573126666192194e-01	 1.616706576324677e+00	 2.221943731798621e+00
 7.420038282004221e-01	 1.623789670093067e+00	 2.125911868379794e+00
 7.266549562356495e-01	 1.630716133975127e+00	 2.055062607940145e+00
 7.112683683233616e-01	 1.637485823086475e+00	 2.004544307070939e+00
 6.958463762980548e-01	 1.644098636599074e+00	 1.971175038494859e+00
 6.803912852248891e-01	 1.650554517399922e+00	 1.951805205277473e+00
 6.649053924096767e-01	 1.656853451723470e+00	 1.943306343191759e+00
 6.493909864249762e-01	 1.662995468758495e+00	 1.942571179503545e+00
 6.338503461530158e-01	 1.668980640230076e+00	 1.946513625882176e+00
 6.182857398461339e-01	 1.674809079957435e+00	 1.952068710001253e+00
 7.763971701024950e-01	 1.617420892213523e+00	 2.333085347125676e+00
 7.610552419040807e-01	 1.624696203781240e+00	 2.221555817140463e+00
 7.456707484979823e-01	 1.631814301601403e+00	 2.134318447535878e+00
 7.302460237034977e-01	 1.638774995483586e+00	 2.068884104106434e+00
 7.147833965724535e-01	 1.645578139827385e+00	 2.020762460679681e+00
 6.992851903642262e-01	 1.652223633306464e+00	 1.987258039968360e+00
 6.837537215354034e-01	 1.658711418525549e+00	 1.965871919462147e+00
 6.681912987448795e-01	 1.665041481651053e+00	 1.954145203734496e+00
 6.526002218751353e-01	 1.671213852015979e+00	 1.949657877120813e+00
 6.369827810704327e-01	 1.677228601699848e+00	 1.950027585148908e+00
 6.213412557926123e-01	 1.683085845084353e+00	 1.952908351263571e+00
 5.907863040868248e-01	 1.600318756583150e+00	 2.412747788230578e+00
 5.758957525915404e-01	 1.605737444383062e+00	 2.471511595767959e+00
 5.609866070405670e-01	 1.611006757438059e+00	 2.513649345539608e+00
 5.460609973873252e-01	 1.616126921211349e+00	 2.540689796366367e+00
 5.311210400547076e-01	 1.621098199458451e+00	 2.554194455639237e+00
 5.161688371304696e-01	 1.625920893701830e+00	 2.555751493965864e+00
 5.012064755825815e-01	 1.630595342686943e+00	 2.546969711467748e+00
 4.862360264949831e-01	 1.635121921820524e+00	 2.529472566809337e+00
 4.712595443241364e-01	 1.639501042591871e+00	 2.504892279610264e+00
 4.562790661767438e-01	 1.643733151977961e+00	 2.474864016456570e+00
 4.412966111089681e-01	 1.647818731833210e+00	 2.441020170286707e+00
 5.938418200310727e-01	 1.608595521707807e+00	 2.321370292276445e+00
 5.788742553802930e-01	 1.614042234677985e+00	 2.371251626393565e+00
 5.638880005063792e-01	 1.619338800344882e+00	 2.405249252749083e+00
 5.488851963787501e-01	 1.624485445337789e+00	 2.424982900555436e+00
 5.338679703663187e-01	 1.629482434776356e+00	 2.432117941118016e+00
 5.188384354287184e-01	 1.634330071742502e+00	 2.428358897884638e+00
 5.037986893276002e-01	 1.639028696733660e+00	 2.415442998311629e+00
 4.887508138584330e-01	 1.643578687098145e+00	 2.395133779434544e+00
 4.736968741032108e-01	 1.647980456453455e+00	 2.369214758599711e+00
 4.586389177044372e-01	 1.652234454088310e+00	 2.339483180374236e+00
 4.435789741607188e-01	 1.656341164349249e+00	 2.307743850207747e+00
 5.968973221257120e-01	 1.616872249315604e+00	 2.239736852596583e+00
 5.818527446684305e-01	 1.622346987328963e+00	 2.281168445567320e+00
 5.667893808209928e-01	 1.627670805484157e+00	 2.307779881419083e+00
 5.517093825687714e-01	 1.632843931576559e+00	 2.321208258940471e+00
 5.366148882266547e-01	 1.637866632089948e+00	 2.323147630500588e+00
 5.215080216261112e-01	 1.642739211665698e+00	 2.315342233188209e+00
 5.063908913224290e-01	 1.647462012553212e+00	 2.299579751714192e+00
 4.912655898225618e-01	 1.652035414042385e+00	 2.277684625578382e+00
 4.761341928339942e-01	 1.656459831878909e+00	 2.251511412573243e+00
 4.609987585349881e-01	 1.660735717663242e+00	 2.222938220259802e+00
 4.458613268665516e-01	 1.664863558234037e+00	 2.193860216608317e+00
 5.999528138332071e-01	 1.625148948785818e+00	 2.167985968249387e+00
 5.848312238311610e-01	 1.630651711747050e+00	 2.201528017449037e+00
 5.696907512722506e-01	 1.636002782297840e+00	 2.221599524325281e+00
 5.545335591577693e-01	 1.641202389399646e+00	 2.229782567322465e+00
 5.393617967485489e-01	 1.646250800900371e+00	 2.227725922649265e+00
 5.241775987478607e-01	 1.651148323000847e+00	 2.217138141117253e+00
 5.089830845045978e-01	 1.655895299702445e+00	 2.199780646472955e+00
 4.937803572371684e-01	 1.660492112236637e+00	 2.177460868145507e+00
 4.785715032785152e-01	 1.664939178477311e+00	 2.152025420910476e+00
 4.633585913426267e-01	 1.669236952336652e+00	 2.125353343540838e+00
 4.481436718128829e-01	 1.673385923145431e+00	 2.099349408079314e+00
 6.030082986160217e-01	 1.633425629497728e+00	 2.106250511712608e+00
 5.878096962436921e-01	 1.638956417343300e+00	 2.132588285911773e+00
 5.725921151479941e-01	 1.644334740227887e+00	 2.147056768862006e+00
 5.573577293461232e-01	 1.649560828279030e+00	 2.151111815291317e+00
 5.421086990448337e-01	 1.654634950708765e+00	 2.146284169013555e+00
 5.268471698191795e-01	 1.659557415277376e+00	 2.134172509020975e+00
 5.115752718116380e-01	 1.664328567738204e+00	 2.116436506587036e+00
 4.962951189520516e-01	 1.668948791264298e+00	 2.094789906531131e+00
 4.810088081988015e-01	 1.673418505857737e+00	 2.070993645387778e+00
 4.657184188015836e-01	 1.677738167742438e+00	 2.046849018805152e+00
 4.504260115861295e-01	 1.681908268741285e+00	 2.024190910072983e+00
 6.060637799366202e-01	 1.641702300830610e+00	 2.054657788984991e+00
 5.907881652812302e-01	 1.647261113528765e+00	 2.074599297793949e+00
 5.754934757360652e-01	 1.652666688716251e+00	 2.084490665567694e+00
 5.601818963342136e-01	 1.657919257686699e+00	 2.085591482768281e+00
 5.448555982283425e-01	 1.663019091016272e+00	 2.079242881561532e+00
 5.295167378652802e-01	 1.667966498024714e+00	 2.066860673684468e+00
 5.141674561810801e-01	 1.672761826217335e+00	 2.049928488629012e+00
 4.988098778170105e-01	 1.677405460708763e+00	 2.029990925333172e+00
 4.834461103568818e-01	 1.681897823629267e+00	 2.008646730178933e+00
 4.680782435860895e-01	 1.686239373514497e+00	 1.987542013695426e+00
 4.527083487727080e-01	 1.690430604679451e+00	 1.968363517958153e+00
 6.091192612574667e-01	 1.649978972163745e+00	 2.013329597452473e+00
 5.937666343189832e-01	 1.655565809714499e+00	 2.027803322011554e+00
 5.783948363243070e-01	 1.660998637204889e+00	 2.034230891148643e+00
 5.630060633224202e-01	 1.666277687094635e+00	 2.033606730208809e+00
 5.476024974119078e-01	 1.671403231324035e+00	 2.027011934038411e+00
 5.321863059113755e-01	 1.676375580772290e+00	 2.015607618135502e+00
 5.167596405504552e-01	 1.681195084696685e+00	 2.000628259214380e+00
 5.013246366818435e-01	 1.685862130153426e+00	 1.983375038226376e+00
 4.858834125147845e-01	 1.690377141400979e+00	 1.965209198508591e+00
 4.704380683703745e-01	 1.694740579286728e+00	 1.947545431353800e+00
 4.549906859590346e-01	 1.698952940617783e+00	 1.931845300909028e+00
 6.121747460410250e-01	 1.658255652876409e+00	 1.982382281595029e+00
 5.967451067321587e-01	 1.663870515311554e+00	 1.992434964673518e+00
 5.812962002005601e-01	 1.669330595135754e+00	 1.996597906192213e+00
 5.658302335111228e-01	 1.674636125974823e+00	 1.995532582686454e+00
 5.503493997083629e-01	 1.679787381133194e+00	 1.989990756784828e+00
 5.348558769826780e-01	 1.684784673049532e+00	 1.980808162158012e+00
 5.193518278572937e-01	 1.689628352733098e+00	 1.968898166774244e+00
 5.038393983963497e-01	 1.694318809181683e+00	 1.955245427166763e+00
 4.883207174345374e-01	 1.698856468781952e+00	 1.940899546074536e+00
 4.727978958286690e-01	 1.703241794693026e+00	 1.926968745465875e+00
 4.572730257315263e-01	 1.707475286214137e+00	 1.914613566596598e+00
 6.152302377497595e-01	 1.666532352347879e+00	 1.961926786607039e+00
 5.997235858959635e-01	 1.672175239730982e+00	 1.968721280337724e+00
 5.841975706526672e-01	 1.677662571950801e+00	 1.971903107752926e+00
 5.686544101007016e-01	 1.682994583799245e+00	 1.971734108069759e+00
 5.530963082305408e-01	 1.688171549944890e+00	 1.968568525338104e+00
 5.375254541044006e-01	 1.693193784385869e+00	 1.962847146730545e+00
 5.219440210391266e-01	 1.698061639883421e+00	 1.955091407828677e+00
 5.063541658103280e-01	 1.702775507376928e+00	 1.945897477087958e+00
 4.907580278781689e-01	 1.707335815381264e+00	 1.935930331349971e+00
 4.751577286352038e-01	 1.711743029367290e+00	 1.925917833951287e+00
 4.595553706765995e-01	 1.715997651126365e+00	 1.916644826652887e+00
 6.182857398461339e-01	 1.674809079957435e+00	 1.952068710001253e+00
 6.027020751856050e-01	 1.680479992383838e+00	 1.956881879539505e+00
 5.870989509684704e-01	 1.685994577091986e+00	 1.960448976987698e+00
 5.714785962915362e-01	 1.691353070039888e+00	 1.962566589495620e+00
 5.558432260912740e-01	 1.696555747260267e+00	 1.963124343030869e+00
 5.401950403017557e-01	 1.701602924310728e+00	 1.962099612599120e+00
 5.245362230334848e-01	 1.706494955704498e+00	 1.959552187950325e+00
 5.088689417735772e-01	 1.711232234322558e+00	 1.955618906244492e+00
 4.931953466077078e-01	 1.715815190807992e+00	 1.950508262872723e+00
 4.775175694642090e-01	 1.720244292943415e+00	 1.944495011346335e+00
 4.618377233806708e-01	 1.724520045012323e+00	 1.937914762879428e+00
 6.213412557926123e-01	 1.683085845084353e+00	 1.952908351263571e+00
 6.056805779762906e-01	 1.688784782681174e+00	 1.957129032719254e+00
 5.900003444358113e-01	 1.694326620001263e+00	 1.962529222009331e+00
 5.743027952840069e-01	 1.699711594168735e+00	 1.968375692334406e+00
 5.585901564033956e-01	 1.704939982580464e+00	 1.974027417792821e+00
 5.428646385999558e-01	 1.710012102353537e+00	 1.978930973185743e+00
 5.271284367778988e-01	 1.714928309753176e+00	 1.982615877600233e+00
 5.113837291358960e-01	 1.719688999601967e+00	 1.984689892351038e+00
 4.956326763851813e-01	 1.724294604671215e+00	 1.984834283623962e+00
 4.798774209899149e-01	 1.728745595055301e+00	 1.982799059922130e+00
 4.641200864301568e-01	 1.733042477529863e+00	 1.978398194172508e+00
 4.412966111089681e-01	 1.647818731833210e+00	 2.441020170286707e+00
 4.263141796519200e-01	 1.651758298622600e+00	 2.406311574286698e+00
 4.113337537490910e-01	 1.655552403853629e+00	 2.372550426272521e+00
 3.963572954751309e-01	 1.659201632344353e+00	 2.339701917179689e+00
 3.813867462147714e-01	 1.662706601199298e+00	 2.307789321321085e+00
 3.664240260737301e-01	 1.666067959132822e+00	 2.276858955298447e+00
 3.514710333125002e-01	 1.669286385782073e+00	 2.246772396425662e+00
 3.365296438031382e-01	 1.672362591010333e+00	 2.218577518754621e+00
 3.216017105091286e-01	 1.675297314201602e+00	 2.193622637140092e+00
 3.066890629883714e-01	 1.678091323547173e+00	 2.173209887042980e+00
 2.917935069193159e-01	 1.680745415325032e+00	 2.158600453400553e+00
 4.435789741607188e-01	 1.656341164349249e+00	 2.307743850207747e+00
 4.285190543498036e-01	 1.660301106372383e+00	 2.277439252062151e+00
 4.134611504656968e-01	 1.664114834517588e+00	 2.250551171082812e+00
 3.984072347308053e-01	 1.667782936627572e+00	 2.226731600227766e+00
 3.833592585706105e-01	 1.671306032998505e+00	 2.205677794230873e+00
 3.683191520215247e-01	 1.674684775699870e+00	 2.187119798705468e+00
 3.532888231617544e-01	 1.677919847883867e+00	 2.170536838364822e+00
 3.382701575652775e-01	 1.681011963085166e+00	 2.156438883688104e+00
 3.232650177790171e-01	 1.683961864511827e+00	 2.145766967083550e+00
 3.082752428232595e-01	 1.686770324328196e+00	 2.139404505565855e+00
 2.933026477153374e-01	 1.689438142930575e+00	 2.138183412266562e+00
 4.458613268665516e-01	 1.664863558234037e+00	 2.193860216608317e+00
 4.307239190530261e-01	 1.668843875398534e+00	 2.167954726823313e+00
 4.155885375388807e-01	 1.672677226368962e+00	 2.147240760563130e+00
 4.004571646942260e-01	 1.676364202012672e+00	 2.131162034154197e+00
 3.853317619852419e-01	 1.679905425817453e+00	 2.119195719186475e+00
 3.702142693789848e-01	 1.683301553207896e+00	 2.110849078697607e+00
 3.551066047713233e-01	 1.686553270851235e+00	 2.105376367953140e+00
 3.400106634381067e-01	 1.689661295953505e+00	 2.102833947583729e+00
 3.249283175096477e-01	 1.692626375546808e+00	 2.103862756942854e+00
 3.098614154685703e-01	 1.695449285768520e+00	 2.109034939850439e+00
 2.948117816710419e-01	 1.698130831133236e+00	 2.118860700787913e+00
 4.481436718128829e-01	 1.673385923145431e+00	 2.099349408079314e+00
 4.329287762601861e-01	 1.677386615382004e+00	 2.077699469408329e+00
 4.177159173794299e-01	 1.681239589110945e+00	 2.062355914997068e+00
 4.025070876883904e-01	 1.684945438224232e+00	 2.052657424577156e+00
 3.873042586939053e-01	 1.688504789401261e+00	 2.047965335204206e+00
 3.721093802936372e-01	 1.691918301421715e+00	 2.047660678605252e+00
 3.569243802010784e-01	 1.695186664467848e+00	 2.050909455909300e+00
 3.417511633939113e-01	 1.698310599417042e+00	 2.057417570744395e+00
 3.265916115858005e-01	 1.701290857125424e+00	 2.067625211144691e+00
 3.114475827216708e-01	 1.704128217703386e+00	 2.081898974390956e+00
 2.963209104964883e-01	 1.706823489783799e+00	 2.100533202846208e+00
 4.504260115861295e-01	 1.681908268741285e+00	 2.024190910072983e+00
 4.351336284698812e-01	 1.685929336003742e+00	 2.006517272065577e+00
 4.198432923981320e-01	 1.689801932446728e+00	 1.995637960791154e+00
 4.045570060362953e-01	 1.693526654986833e+00	 1.990888211313278e+00
 3.892767509318409e-01	 1.697104133495052e+00	 1.991616120271440e+00
 3.740044869130095e-01	 1.700535030106144e+00	 1.997179861572128e+00
 3.587421515108914e-01	 1.703820038517377e+00	 2.006762792079456e+00
 3.434916594049765e-01	 1.706959883277466e+00	 2.019852202655620e+00
 3.282549018922555e-01	 1.709955319066555e+00	 2.036775998641201e+00
 3.130337463799290e-01	 1.712807129968036e+00	 2.057799272364176e+00
 2.978300359017357e-01	 1.715516128733043e+00	 2.083104667519062e+00
 4.527083487727080e-01	 1.690430604679451e+00	 1.968363517958153e+00
 4.373384781807100e-01	 1.694472046944703e+00	 1.954254139532959e+00
 4.219706650057747e-01	 1.698364266079504e+00	 1.946832667024318e+00
 4.066069220609382e-01	 1.702107862025056e+00	 1.945530866982892e+00
 3.912492409342875e-01	 1.705703467843943e+00	 1.949784567729499e+00
 3.758995913846281e-01	 1.709151749026000e+00	 1.959030903660685e+00
 3.605599207606341e-01	 1.712453402783493e+00	 1.972571029546183e+00
 3.452321534435876e-01	 1.715609157336470e+00	 1.989807648560128e+00
 3.299181903137928e-01	 1.718619771189080e+00	 2.011043054062504e+00
 3.146199082407117e-01	 1.721486032397711e+00	 2.036543222600098e+00
 2.993391595968430e-01	 1.724208757831753e+00	 2.066481612237876e+00
 4.549906859590346e-01	 1.698952940617783e+00	 1.931845300909028e+00
 4.395433278912707e-01	 1.703014757885835e+00	 1.920758183147738e+00
 4.240980376131453e-01	 1.706926599712466e+00	 1.915690086695874e+00
 4.086568380853162e-01	 1.710689069063482e+00	 1.916267701479120e+00
 3.932217309364851e-01	 1.714302802193057e+00	 1.922113969208960e+00
 3.777946958560204e-01	 1.717768467946096e+00	 1.932845207835000e+00
 3.623776900101776e-01	 1.721086767049868e+00	 1.947976535359217e+00
 3.469726474820300e-01	 1.724258431395743e+00	 1.966960842071400e+00
 3.315814787351925e-01	 1.727284223311878e+00	 1.990160383953660e+00
 3.162060701013867e-01	 1.730164934827652e+00	 2.017942790337393e+00
 3.008482832918693e-01	 1.732901386930710e+00	 2.050573228112107e+00
 4.572730257315263e-01	 1.707475286214137e+00	 1.914613566596598e+00
 4.417481801001611e-01	 1.711557478508091e+00	 1.905879517878599e+00
 4.262254126310313e-01	 1.715488943048804e+00	 1.901964402505225e+00
 4.107067564324265e-01	 1.719270285826692e+00	 1.902786672092959e+00
 3.951942231736736e-01	 1.722902146287515e+00	 1.908254203885452e+00
 3.796898024747137e-01	 1.726385196631251e+00	 1.918261158122799e+00
 3.641954613193938e-01	 1.729720141100172e+00	 1.932629147653026e+00
 3.487131434925890e-01	 1.732907715256978e+00	 1.950995623611893e+00
 3.332447690412345e-01	 1.735948685253828e+00	 1.973867877915698e+00
 3.177922337593210e-01	 1.738843847093101e+00	 2.001814371629342e+00
 3.023574086968734e-01	 1.741594025880697e+00	 2.035291287342668e+00
 4.595553706765995e-01	 1.715997651126365e+00	 1.916644826652887e+00
 4.439530373059795e-01	 1.720100218492422e+00	 1.909470162176096e+00
 4.283527924702204e-01	 1.724051305791712e+00	 1.905413777003083e+00
 4.127566794252662e-01	 1.727851522039265e+00	 1.904781199094977e+00
 3.971667198810920e-01	 1.731501509872435e+00	 1.907861533833345e+00
 3.815849133882345e-01	 1.735001944846279e+00	 1.914923908291897e+00
 3.660132367481546e-01	 1.738353534718077e+00	 1.926185938925856e+00
 3.504536434475501e-01	 1.741557018721864e+00	 1.941602524470437e+00
 3.349080631166989e-01	 1.744613166833812e+00	 1.961911124477624e+00
 3.193784010118823e-01	 1.747522779029301e+00	 1.987978651271092e+00
 3.038665375219142e-01	 1.750286684532495e+00	 2.020550052650293e+00
 4.618377233806708e-01	 1.724520045012323e+00	 1.937914762879428e+00
 4.461579020073239e-01	 1.728642987519778e+00	 1.931383940541718e+00
 4.304801795414998e-01	 1.732613697644382e+00	 1.925800206960486e+00
 4.148066093868325e-01	 1.736432787425782e+00	 1.921949986582100e+00
 3.991392232939805e-01	 1.740100902692939e+00	 1.920598405263483e+00
 3.834800307441104e-01	 1.743618722355998e+00	 1.922485176624974e+00
 3.678310183563314e-01	 1.746986957687255e+00	 1.928310985263422e+00
 3.521941493191987e-01	 1.750206351592091e+00	 1.938478556281184e+00
 3.365713628463656e-01	 1.753277677870706e+00	 1.954041231532966e+00
 3.209645736564382e-01	 1.756201740471491e+00	 1.976260464124316e+00
 3.053756714770509e-01	 1.758979372736888e+00	 2.006266188647594e+00
 4.641200864301568e-01	 1.733042477529863e+00	 1.978398194172508e+00
 4.483627767027926e-01	 1.737185795271111e+00	 1.971476388719646e+00
 4.326075762556573e-01	 1.741176128310005e+00	 1.962889381807749e+00
 4.168565486401227e-01	 1.745014091710825e+00	 1.953996848405486e+00
 4.011117356475782e-01	 1.748700334494148e+00	 1.946133255439757e+00
 3.853751566898679e-01	 1.752235538925222e+00	 1.940603046580081e+00
 3.696488082037957e-01	 1.755620419791376e+00	 1.938675141299321e+00
 3.539346630798197e-01	 1.758855723669352e+00	 1.941327005734514e+00
 3.382346701150147e-01	 1.761942228183390e+00	 1.950014651181185e+00
 3.225507534903555e-01	 1.764880741254913e+00	 1.966488659720114e+00
 3.068848122723423e-01	 1.767672100344656e+00	 1.992358675086236e+00
 2.917935069193159e-01	 1.680745415325032e+00	 2.158600453400553e+00
 2.769142968207429e-01	 1.683260828760689e+00	 2.149081240635567e+00
 2.620557273201212e-01	 1.685637950418222e+00	 2.142954661103026e+00
 2.472195345445104e-01	 1.687877655672838e+00	 2.139887177547194e+00
 2.324074289780241e-01	 1.689980845083896e+00	 2.139439268266553e+00
 2.176210951024806e-01	 1.691948443648752e+00	 2.141073878135763e+00
 2.028621910608533e-01	 1.693781400053988e+00	 2.144164748092799e+00
 1.881323483433538e-01	 1.695480685924739e+00	 2.148004606948679e+00
 1.734331714959617e-01	 1.697047295072823e+00	 2.151813210743588e+00
 1.587662378511934e-01	 1.698482242744367e+00	 2.154745216206606e+00
 1.441330972808751e-01	 1.699786564867602e+00	 2.155897876171799e+00
 2.933026477153374e-01	 1.689438142930575e+00	 2.138183412266562e+00
 2.783464831184466e-01	 1.691966565953688e+00	 2.140289649559653e+00
 2.634110658716375e-01	 1.694355981960888e+00	 2.143393796755796e+00
 2.484981410811182e-01	 1.696607270854758e+00	 2.147443019655559e+00
 2.336094280775258e-01	 1.698721337852289e+00	 2.152287625943208e+00
 2.187466200547211e-01	 1.700699112734856e+00	 2.157689060936399e+00
 2.039113837314958e-01	 1.702541549095582e+00	 2.163327777859511e+00
 1.891053590360338e-01	 1.704249623584780e+00	 2.168810967226889e+00
 1.743301588129330e-01	 1.705824335154196e+00	 2.173680131295037e+00
 1.595873685525815e-01	 1.707266704300739e+00	 2.177418490879120e+00
 1.448785461426520e-01	 1.708577772310391e+00	 2.179458213125058e+00
 2.948117816710419e-01	 1.698130831133236e+00	 2.118860700787913e+00
 2.797786629246872e-01	 1.700672263684863e+00	 2.130706167168806e+00
 2.647663982800408e-01	 1.703073973986022e+00	 2.141757675300865e+00
 2.497767418224222e-01	 1.705336846466656e+00	 2.152148745866635e+00
 2.348114217289577e-01	 1.707461791001365e+00	 2.161924592329552e+00
 2.198721399055148e-01	 1.709449742155527e+00	 2.171049792016558e+00
 2.049605716466700e-01	 1.711301658428788e+00	 2.179415825150199e+00
 1.900783653185451e-01	 1.713018521496616e+00	 2.186848467027956e+00
 1.752271420643233e-01	 1.714601335450664e+00	 2.193115019933993e+00
 1.604084955322314e-01	 1.716051126038605e+00	 2.197931372716535e+00
 1.456239916257571e-01	 1.717368939904149e+00	 2.200968877268820e+00
 2.963209104964883e-01	 1.706823489783799e+00	 2.100533202846208e+00
 2.812108378623159e-01	 1.709377931819725e+00	 2.120329359785063e+00
 2.661217260810986e-01	 1.711791936373050e+00	 2.138113281758946e+00
 2.510553382172414e-01	 1.714066392401066e+00	 2.154111977021028e+00
 2.360134112943329e-01	 1.716202214435967e+00	 2.168472125907809e+00
 2.209976559302213e-01	 1.718200341827125e+00	 2.181267556767216e+00
 2.060097559952416e-01	 1.720061737980688e+00	 2.192506580644493e+00
 1.910513682934293e-01	 1.721787389597271e+00	 2.202139170418878e+00
 1.761241222665274e-01	 1.723378305908415e+00	 2.210063971494423e+00
 1.612296197205777e-01	 1.724835517912544e+00	 2.216135132516675e+00
 1.463694345748583e-01	 1.726160077611077e+00	 2.220168945908803e+00
 2.978300359017357e-01	 1.715516128733043e+00	 2.083104667519062e+00
 2.826430095541834e-01	 1.718083580223782e+00	 2.109158742529563e+00
 2.674770508105791e-01	 1.720509879001397e+00	 2.132527213868607e+00
 2.523339317143950e-01	 1.722795918550522e+00	 2.153439161032357e+00
 2.372153981356646e-01	 1.724942618060942e+00	 2.172050747125839e+00
 2.221231694041994e-01	 1.726950921666006e+00	 2.188452628077111e+00
 2.070589379660766e-01	 1.728821797678364e+00	 2.202677208814993e+00
 1.920243690632279e-01	 1.730556237823766e+00	 2.214705732482911e+00
 1.770211004359405e-01	 1.732155256473636e+00	 2.224475190203745e+00
 1.620507420480548e-01	 1.733619889877132e+00	 2.231885040307414e+00
 1.471148758346237e-01	 1.734951195393385e+00	 2.236803727280504e+00
 2.993391595968430e-01	 1.724208757831753e+00	 2.066481612237876e+00
 2.840751796231410e-01	 1.726789218762543e+00	 2.097194735777824e+00
 2.688323740042503e-01	 1.729227811750488e+00	 2.125065676758617e+00
 2.536125237627020e-01	 1.731525434807560e+00	 2.150235591460803e+00
 2.384173836149657e-01	 1.733683011781130e+00	 2.172779567321971e+00
 2.232486816028083e-01	 1.735701491588526e+00	 2.192714092826249e+00
 2.081081187480406e-01	 1.737581847448899e+00	 2.210004359974534e+00
 1.929973687304829e-01	 1.739325076113126e+00	 2.224571385673420e+00
 1.779180775889581e-01	 1.740932197092512e+00	 2.236298939863253e+00
 1.628718634450974e-01	 1.742404251886952e+00	 2.245040269639902e+00
 1.478603162497211e-01	 1.743742303213276e+00	 2.250624610005981e+00
 3.008482832918693e-01	 1.732901386930710e+00	 2.050573228112107e+00
 2.855073496920396e-01	 1.735494857301518e+00	 2.084438622246232e+00
 2.701876971978803e-01	 1.737945744499749e+00	 2.115794477169063e+00
 2.548911158109815e-01	 1.740254951064713e+00	 2.144605424982359e+00
 2.396193690942495e-01	 1.742423405501375e+00	 2.170776316298869e+00
 2.243741938014072e-01	 1.744452061511047e+00	 2.194159877164673e+00
 2.091572995299995e-01	 1.746341897219373e+00	 2.214564181604694e+00
 1.939703683977355e-01	 1.748093914402372e+00	 2.231759926281349e+00
 1.788150547419749e-01	 1.749709137711230e+00	 2.245487495287804e+00
 1.636929848421399e-01	 1.751188613896581e+00	 2.255463804576555e+00
 1.486057566648185e-01	 1.752533411032956e+00	 2.261388916947642e+00
 3.023574086968734e-01	 1.741594025880697e+00	 2.035291287342668e+00
 2.869395213837304e-01	 1.744200505706217e+00	 2.070892504686680e+00
 2.715430219272370e-01	 1.746663687128603e+00	 2.104779017236365e+00
 2.561697093080523e-01	 1.748984477214517e+00	 2.136651697792201e+00
 2.408213559355292e-01	 1.751163809126522e+00	 2.166157368593582e+00
 2.254997072753554e-01	 1.753202641349921e+00	 2.192896770619079e+00
 2.102064815008191e-01	 1.755101956916870e+00	 2.216432328990726e+00
 1.949433691675278e-01	 1.756862762628529e+00	 2.236295701012344e+00
 1.797120329113862e-01	 1.758486088275977e+00	 2.251995094960395e+00
 1.645141071696168e-01	 1.759972985860596e+00	 2.263022349278975e+00
 1.493511979245838e-01	 1.761324528814632e+00	 2.268859763304472e+00
 3.038665375219142e-01	 1.750286684532495e+00	 2.020550052650293e+00
 2.883716963210641e-01	 1.752906173842148e+00	 2.056559264167216e+00
 2.728983497280884e-01	 1.755381649516476e+00	 2.092084287856789e+00
 2.574483057027337e-01	 1.757714023149505e+00	 2.126476340978885e+00
 2.420233455008178e-01	 1.759904232561414e+00	 2.159037768489057e+00
 2.266252233000118e-01	 1.761953241021510e+00	 2.189030449067943e+00
 2.112556658493652e-01	 1.763862036468471e+00	 2.215683975187021e+00
 1.959163721424012e-01	 1.765631630728619e+00	 2.238203593669497e+00
 1.806090131135872e-01	 1.767263058732940e+00	 2.255777894859115e+00
 1.653352313579627e-01	 1.768757377733578e+00	 2.267586240104894e+00
 1.500966408736851e-01	 1.770115666520508e+00	 2.272805918802235e+00
 3.053756714770509e-01	 1.758979372736888e+00	 2.006266188647594e+00
 2.898038761268919e-01	 1.761611871574821e+00	 2.041442518917314e+00
 2.742536821362024e-01	 1.764099641542793e+00	 2.077774861642364e+00
 2.587269064438446e-01	 1.766443598762214e+00	 2.114180194904701e+00
 2.432253391521285e-01	 1.768644685710895e+00	 2.149531253810474e+00
 2.277507431507357e-01	 1.770703870442168e+00	 2.182665496624333e+00
 2.123048537645037e-01	 1.772622145801259e+00	 2.212393820336210e+00
 1.968893784248975e-01	 1.774400528639667e+00	 2.237509011938033e+00
 1.815059963649729e-01	 1.776040059028305e+00	 2.256793923415618e+00
 1.661563583376121e-01	 1.777541799470105e+00	 2.269029360126705e+00
 1.508420863567902e-01	 1.778906834112791e+00	 2.273001673835106e+00
 3.068848122723423e-01	 1.767672100344656e+00	 1.992358675086236e+00
 2.912360624240649e-01	 1.770317608769745e+00	 2.025546583717301e+00
 2.756090206873471e-01	 1.772817673086979e+00	 2.061914885482647e+00
 2.600055129802040e-01	 1.775173213945177e+00	 2.099863022625990e+00
 2.444273382514744e-01	 1.777385178479808e+00	 2.137750278548081e+00
 2.288762681028862e-01	 1.779454539528256e+00	 2.173905426463884e+00
 2.133540464351001e-01	 1.781382294842315e+00	 2.206636100364120e+00
 1.978623891175583e-01	 1.783169466298693e+00	 2.234237874268234e+00
 1.824029836819386e-01	 1.784817099108259e+00	 2.255003037565836e+00
 1.669774890389995e-01	 1.786326261024755e+00	 2.267229055987765e+00
 1.515875352185671e-01	 1.787698041553686e+00	 2.269226709421887e+00
 1.441330972808751e-01	 1.699786564867602e+00	 2.155897876171799e+00
 1.295377445191109e-01	 1.700961128514523e+00	 2.155733782008638e+00
 1.149791545157106e-01	 1.702007240692378e+00	 2.155946018736715e+00
 1.004587595530120e-01	 1.702925993974722e+00	 2.157447583210794e+00
 8.597796460385999e-02	 1.703718498596106e+00	 2.161165648308570e+00
 7.153814718581784e-02	 1.704385881721215e+00	 2.168044943188490e+00
 5.714065723491034e-02	 1.704929286717479e+00	 2.179050939092205e+00
 4.278681699857358e-02	 1.705349872431669e+00	 2.195172840310418e+00
 2.847792094747452e-02	 1.705648812471032e+00	 2.217426380639719e+00
 1.421523570584970e-02	 1.705827294489458e+00	 2.246856426313179e+00
 0.000000000000000e+00	 1.705886519479168e+00	 2.284539387042509e+00
 1.448785461426520e-01	 1.708577772310391e+00	 2.179458213125058e+00
 1.302077069777978e-01	 1.709758410739589e+00	 2.180848389824267e+00
 1.155738207063259e-01	 1.710809933355354e+00	 2.182822801108292e+00
 1.009783270182690e-01	 1.711733438381984e+00	 2.185063220058707e+00
 8.642263815292352e-02	 1.712530041796110e+00	 2.187265066507687e+00
 7.190813875230727e-02	 1.713200876592063e+00	 2.189142391575497e+00
 5.743618573424903e-02	 1.713747092050717e+00	 2.190432623112437e+00
 4.300810818478481e-02	 1.714169853012343e+00	 2.190901070728856e+00
 2.862520726952154e-02	 1.714470339154033e+00	 2.190345189921235e+00
 1.428875616361536e-02	 1.714649744272164e+00	 2.188598605570054e+00
 0.000000000000000e+00	 1.714709275570436e+00	 2.185534895846009e+00
 1.456239916257571e-01	 1.717368939904149e+00	 2.200968877268820e+00
 1.308776664000111e-01	 1.718555653088151e+00	 2.203605253465111e+00
 1.161684842018141e-01	 1.719612586117377e+00	 2.206641907019689e+00
 1.014978921288511e-01	 1.720540842866837e+00	 2.208860185916461e+00
 8.686730968682779e-02	 1.721341545055211e+00	 2.209053097793111e+00
 7.227812864217506e-02	 1.722015831506447e+00	 2.206031535472721e+00
 5.773171289448491e-02	 1.722564857414828e+00	 2.198630229955155e+00
 4.322939836835357e-02	 1.722989793614098e+00	 2.185713428826670e+00
 2.877249292428877e-02	 1.723291825851158e+00	 2.166180298960062e+00
 1.436227628832789e-02	 1.723472154064845e+00	 2.138970053232069e+00
 0.000000000000000e+00	 1.723531991670303e+00	 2.103066801826645e+00
 1.463694345748583e-01	 1.726160077611077e+00	 2.220168945908803e+00
 1.315476235448691e-01	 1.727352865529281e+00	 2.223651872726421e+00
 1.167631456759571e-01	 1.728415208953636e+00	 2.227013336476201e+00
 1.020174554734269e-01	 1.729348217409838e+00	 2.228459835438738e+00
 8.731197970936264e-02	 1.730153018358599e+00	 2.226206109128345e+00
 7.264811727457655e-02	 1.730830756453453e+00	 2.218482244617773e+00
 5.802723905039373e-02	 1.731382592802073e+00	 2.203540487976341e+00
 4.345068779994050e-02	 1.731809704231651e+00	 2.179661758263752e+00
 2.891977807859615e-02	 1.732113282558871e+00	 2.145161862499026e+00
 1.443579616325058e-02	 1.732294533865007e+00	 2.098397410939917e+00
 0.000000000000000e+00	 1.732354677776619e+00	 2.037771432905982e+00
 1.471148758346237e-01	 1.734951195393385e+00	 2.236803727280504e+00
 1.322175791714902e-01	 1.736150058032052e+00	 2.240643782104665e+00
 1.173578058025364e-01	 1.737217811839318e+00	 2.243555820238285e+00
 1.025370176406654e-01	 1.738155571991545e+00	 2.243491946318256e+00
 8.775664872431782e-02	 1.738964471691459e+00	 2.238407682488989e+00
 7.301810506866725e-02	 1.739645661422167e+00	 2.226269598341537e+00
 5.832276453675114e-02	 1.740200308204714e+00	 2.205062634622927e+00
 4.367197673020620e-02	 1.740629594859717e+00	 2.172797117849249e+00
 2.906706289926362e-02	 1.740934719273633e+00	 2.127515463971575e+00
 1.450931587164670e-02	 1.741116893670152e+00	 2.067298570195240e+00
 0.000000000000000e+00	 1.741177343887234e+00	 1.990271894982400e+00
 1.478603162497211e-01	 1.743742303213276e+00	 2.250624610005981e+00
 1.328875340389929e-01	 1.744947240565538e+00	 2.254244355895960e+00
 1.179524652553341e-01	 1.746020404749609e+00	 2.255896608152357e+00
 1.030565792192352e-01	 1.746962916592514e+00	 2.253594515769381e+00
 8.820131723548325e-02	 1.747775915038981e+00	 2.245348441762662e+00
 7.338809244360252e-02	 1.748460556401677e+00	 2.229173762505923e+00
 5.861828968833286e-02	 1.749018013615008e+00	 2.203098360404007e+00
 4.389326540981127e-02	 1.749449475493014e+00	 2.165169806934146e+00
 2.921434755311115e-02	 1.749756145991908e+00	 2.113462234115075e+00
 1.458283549677953e-02	 1.749939243477786e+00	 2.046082893426210e+00
 0.000000000000000e+00	 1.750000000000000e+00	 1.961178402134843e+00
 1.486057566648185e-01	 1.752533411032956e+00	 2.261388916947642e+00
 1.335574889064956e-01	 1.753744423098810e+00	 2.264124619071671e+00
 1.185471247081317e-01	 1.754822997659698e+00	 2.263671263797849e+00
 1.035761407978050e-01	 1.755770261193304e+00	 2.258413563107243e+00
 8.864598574664863e-02	 1.756587358386351e+00	 2.246725884844520e+00
 7.375807981853776e-02	 1.757275451381068e+00	 2.226979870138076e+00
 5.891381483991457e-02	 1.757835719025220e+00	 2.197551754540247e+00
 4.411455408941636e-02	 1.758269356126260e+00	 2.156829390023581e+00
 2.936163220695867e-02	 1.758577572710158e+00	 2.103218965983915e+00
 1.465635512191236e-02	 1.758761593285413e+00	 2.035151428349471e+00
 0.000000000000000e+00	 1.758822656112766e+00	 1.951088596813313e+00
 1.493511979245838e-01	 1.761324528814632e+00	 2.268859763304472e+00
 1.342274445331167e-01	 1.762541615600941e+00	 2.269963063727982e+00
 1.191417848347111e-01	 1.763625600544772e+00	 2.266523465228488e+00
 1.040957029650435e-01	 1.764577615774469e+00	 2.257602938208107e+00
 8.909065476160387e-02	 1.765398811718757e+00	 2.242244220745637e+00
 7.412806761262845e-02	 1.766090356349429e+00	 2.219477905631288e+00
 5.920934032627197e-02	 1.766653434427608e+00	 2.188329252232613e+00
 4.433584301968205e-02	 1.767089246754171e+00	 2.147824720636572e+00
 2.950891702762615e-02	 1.767399009424845e+00	 2.096998226489263e+00
 1.472987483030848e-02	 1.767583953090539e+00	 2.034897115864520e+00
 0.000000000000000e+00	 1.767645322223381e+00	 1.960587860368571e+00
 1.500966408736851e-01	 1.770115666520508e+00	 2.272805918802235e+00
 1.348974016779748e-01	 1.771338828041004e+00	 2.271445470914428e+00
 1.197364463088540e-01	 1.772428223380018e+00	 2.264104811594532e+00
 1.046152663096194e-01	 1.773384990316567e+00	 2.250824135645226e+00
 8.953532478413871e-02	 1.774210285021388e+00	 2.231614211538988e+00
 7.449805624502995e-02	 1.774905281295844e+00	 2.206462592387791e+00
 5.950486648218080e-02	 1.775471169814435e+00	 2.175339583493899e+00
 4.455713245126898e-02	 1.775909157371465e+00	 2.138203964439613e+00
 2.965620218193353e-02	 1.776220466132433e+00	 2.095008464587289e+00
 1.480339470523116e-02	 1.776406332890666e+00	 2.045704991707033e+00
 0.000000000000000e+00	 1.776468008329698e+00	 1.990249614259410e+00
 1.508420863567902e-01	 1.778906834112791e+00	 2.273001673835106e+00
 1.355673611001880e-01	 1.780136070388071e+00	 2.268264737654166e+00
 1.203311098043423e-01	 1.781230876140625e+00	 2.256074635441293e+00
 1.051348314202015e-01	 1.782192394800156e+00	 2.237746114302598e+00
 8.997999631804297e-02	 1.783021788279429e+00	 2.214553018974607e+00
 7.486804613489774e-02	 1.783720236209401e+00	 2.187733283783765e+00
 5.980039364241670e-02	 1.784288935177960e+00	 2.158493723488769e+00
 4.477842263483776e-02	 1.784729097972858e+00	 2.128014621679636e+00
 2.980348783670076e-02	 1.785041952829383e+00	 2.097454116232662e+00
 1.487691482994369e-02	 1.785228742683300e+00	 2.067952382078783e+00
 0.000000000000000e+00	 1.785290724429565e+00	 2.040635612262427e+00
 1.515875352185671e-01	 1.787698041553686e+00	 2.269226709421887e+00
 1.362373235588749e-01	 1.788933352611214e+00	 2.260120708976061e+00
 1.209257759949575e-01	 1.790033568801779e+00	 2.242099820487240e+00
 1.056543988854585e-01	 1.790999839205792e+00	 2.218045122276938e+00
 9.042466986710648e-02	 1.791833331478070e+00	 2.190784055602309e+00
 7.523803770138718e-02	 1.792535231079186e+00	 2.163093857341540e+00
 6.009592214175536e-02	 1.793106740510443e+00	 2.137704844330213e+00
 4.499971382104898e-02	 1.793549078553067e+00	 2.117303548940791e+00
 2.995077415874777e-02	 1.793863479512159e+00	 2.104535706209734e+00
 1.495043528770935e-02	 1.794051192465945e+00	 2.102009093463014e+00
 0.000000000000000e+00	 1.794113480520832e+00	 2.112296223996288e+00
 1.794113480520832e+00	 0.000000000000000e+00	 1.127085807016780e+00
 1.794051192465945e+00	 1.495043528770836e-02	 2.386164871636681e+00
 1.793863479512158e+00	 2.995077415874692e-02	 3.365964426168330e+00
 1.793549078553066e+00	 4.499971382104827e-02	 4.077123196852785e+00
 1.793106740510443e+00	 6.009592214175480e-02	 4.529077501480590e+00
 1.792535231079187e+00	 7.523803770138675e-02	 4.729997647999753e+00
 1.791833331478071e+00	 9.042466986710623e-02	 4.686724496231173e+00
 1.790999839205791e+00	 1.056543988854583e-01	 4.404706235021563e+00
 1.790033568801779e+00	 1.209257759949575e-01	 3.887935417819768e+00
 1.788933352611214e+00	 1.362373235588751e-01	 3.138886299479872e+00
 1.787698041553686e+00	 1.515875352185671e-01	 2.158452517208396e+00
 1.802937784072603e+00	 0.000000000000000e+00	 2.054407429314129e+00
 1.802875189655369e+00	 1.502396864030362e-02	 2.626034073440734e+00
 1.802686553439808e+00	 3.009808631356830e-02	 3.128585229551098e+00
 1.802370606106978e+00	 4.522104381996007e-02	 3.540253768581195e+00
 1.801926092435116e+00	 6.039150247454263e-02	 3.838402611148758e+00
 1.801351772048239e+00	 7.560809416171167e-02	 3.999551003452428e+00
 1.800646420170603e+00	 9.086942140881944e-02	 3.999361735167174e+00
 1.799808828386452e+00	 1.061740574793719e-01	 3.812629295740904e+00
 1.798837805404581e+00	 1.215205464861688e-01	 3.413268953068290e+00
 1.797732177827113e+00	 1.369074035247444e-01	 2.774306735242345e+00
 1.796490790921936e+00	 1.523331148274494e-01	 1.867870293150352e+00
 1.811762132630000e+00	 0.000000000000000e+00	 3.053578960358247e+00
 1.811699231848858e+00	 1.509750236770970e-02	 2.956235893310244e+00
 1.811509672366819e+00	 3.024539921932970e-02	 2.980542521211621e+00
 1.811192178652375e+00	 4.544237494721785e-02	 3.077311602215048e+00
 1.810745489340192e+00	 6.068708431431658e-02	 3.196833165239600e+00
 1.810168357983385e+00	 7.597815250885374e-02	 3.288903085831167e+00
 1.809459553811654e+00	 9.131417521832746e-02	 3.302853275801640e+00
 1.808617862494764e+00	 1.066937187231593e-01	 3.187583435296678e+00
 1.807642086910848e+00	 1.221153200103886e-01	 2.891594300859468e+00
 1.806531047918943e+00	 1.375774869077655e-01	 2.363022317120002e+00
 1.805283585135210e+00	 1.530786982385879e-01	 1.549675654188729e+00
 1.820586521192396e+00	 0.000000000000000e+00	 4.087221656969710e+00
 1.820523314045960e+00	 1.517103642827948e-02	 3.356206657386655e+00
 1.820332831293267e+00	 3.039271279258782e-02	 2.915755099669231e+00
 1.820013791190213e+00	 4.566370707743835e-02	 2.694285402008314e+00
 1.819564926227870e+00	 6.098266749361515e-02	 2.619935795105592e+00
 1.818984983888418e+00	 7.634821253314039e-02	 2.620627687564675e+00
 1.818272727406976e+00	 9.175893104361936e-02	 2.624131210680044e+00
 1.817426936538807e+00	 1.072133823223500e-01	 2.558132851622570e+00
 1.816446408331353e+00	 1.227100962305709e-01	 2.350305066715234e+00
 1.815329957900539e+00	 1.382475733282074e-01	 1.928377758326099e+00
 1.814076419210772e+00	 1.538242850294628e-01	 1.220211491155031e+00
 1.829410944759166e+00	 0.000000000000000e+00	 5.118663175093286e+00
 1.829347431246227e+00	 1.524457078036579e-02	 3.805767493398639e+00
 1.829156025219229e+00	 3.054002694989930e-02	 2.928249799720358e+00
 1.828835438721452e+00	 4.588504008523830e-02	 2.397041523227550e+00
 1.828384398100345e+00	 6.127825184497686e-02	 2.122972314974772e+00
 1.827801644767130e+00	 7.671827402489902e-02	 2.016860758015135e+00
 1.827085935962325e+00	 9.220368863268434e-02	 1.989607717287156e+00
 1.826236045526661e+00	 1.077330479824734e-01	 1.952292206665682e+00
 1.825250764676867e+00	 1.233048748096698e-01	 1.816269631471667e+00
 1.824128902785732e+00	 1.389176624063391e-01	 1.493272254761617e+00
 1.822869288165890e+00	 1.545698747775544e-01	 8.955117261890255e-01
 1.838235398329687e+00	 0.000000000000000e+00	 6.111920620639654e+00
 1.838171578449207e+00	 1.531810538232149e-02	 4.285115136623794e+00
 1.837979249144781e+00	 3.068734160782080e-02	 3.012158972436798e+00
 1.837657116247048e+00	 4.610637384523443e-02	 2.191327008211293e+00
 1.837203899959812e+00	 6.157383720094010e-02	 1.720907159465566e+00
 1.836618335623317e+00	 7.708833677445702e-02	 1.499311051499182e+00
 1.835899174483453e+00	 9.264844773351147e-02	 1.425187689598799e+00
 1.835045184466402e+00	 1.082527154090590e-01	 1.397539978820753e+00
 1.834055150958159e+00	 1.238996554106393e-01	 1.315843926654186e+00
 1.832927877588356e+00	 1.395877537624296e-01	 1.080170350511908e+00
 1.831662187017830e+00	 1.553154670603430e-01	 5.913089011066012e-01
 1.847059876903333e+00	 0.000000000000000e+00	 7.031684084167091e+00
 1.846995750654451e+00	 1.539164019249942e-02	 4.774812998321371e+00
 1.846802498070001e+00	 3.083465668290898e-02	 3.161718037083011e+00
 1.846478818767959e+00	 4.632770823204344e-02	 2.082772535670233e+00
 1.846023426808468e+00	 6.186942339404342e-02	 1.428414608579486e+00
 1.845435051460771e+00	 7.745840057214178e-02	 1.089270470974374e+00
 1.844712437976115e+00	 9.309320809408997e-02	 9.562810084677640e-01
 1.843854348366112e+00	 1.087723843076360e-01	 9.208314333633063e-01
 1.842859562186001e+00	 1.244944376964336e-01	 8.748838440201721e-01
 1.841726877322242e+00	 1.402578470167478e-01	 7.111124916785154e-01
 1.840455110783858e+00	 1.560610614553088e-01	 3.230415472504032e-01
 1.855884375479479e+00	 0.000000000000000e+00	 7.840901208531943e+00
 1.855819942861508e+00	 1.546517516925245e-02	 5.253625239249459e+00
 1.855625766994964e+00	 3.098197209172050e-02	 3.369455715155782e+00
 1.855300541285142e+00	 4.654904312028212e-02	 2.075501214356477e+00
 1.854842973648509e+00	 6.216501025682523e-02	 1.258920585000179e+00
 1.854251787283286e+00	 7.782846520828068e-02	 8.070550620803134e-01
 1.853525721446064e+00	 9.353796946240889e-02	 6.075633388257518e-01
 1.852663532233867e+00	 1.092920543837340e-01	 5.485594721870237e-01
 1.851663993371164e+00	 1.250892213300065e-01	 5.187572913899730e-01
 1.850525897001225e+00	 1.409279417895628e-01	 4.077252788711458e-01
 1.849248054481242e+00	 1.568066575399323e-01	 1.058613440626429e-01
 1.864708889057499e+00	 0.000000000000000e+00	 8.488632250039181e+00
 1.864644150069929e+00	 1.553871027093341e-02	 5.687104021332506e+00
 1.864449050919747e+00	 3.112928775081202e-02	 3.615271327283783e+00
 1.864122278799557e+00	 4.677037838456715e-02	 2.161574763656907e+00
 1.863662535482128e+00	 6.246059762182402e-02	 1.214437773885032e+00
 1.863068538094658e+00	 7.819853047320120e-02	 6.623964394652866e-01
 1.862339019899055e+00	 9.398273158645745e-02	 3.942322891071983e-01
 1.861472731077748e+00	 1.098117253428823e-01	 2.991080118989009e-01
 1.860468439524420e+00	 1.256840059743123e-01	 2.667059364140192e-01
 1.859324931639138e+00	 1.415980377011436e-01	 1.873691223628027e-01
 1.858041013127248e+00	 1.575522548916935e-01	-4.775510444613262e-02
 1.873533412636770e+00	 0.000000000000000e+00	 8.939469393910295e+00
 1.873468367279264e+00	 1.561224545589516e-02	 6.054869285545911e+00
 1.873272344844427e+00	 3.127660357674020e-02	 3.891565439786228e+00
 1.872944026312159e+00	 4.699171389951528e-02	 2.343874834750189e+00
 1.872482107311525e+00	 6.275618532157827e-02	 1.305968096230495e+00
 1.871885298898677e+00	 7.856859615723068e-02	 6.719897858341408e-01
 1.871152328340842e+00	 9.442749421422478e-02	 3.361816724155475e-01
 1.870281939905831e+00	 1.103313968906103e-01	 1.930088858314392e-01
 1.869272895656538e+00	 1.262787912923049e-01	 1.372888290121406e-01
 1.868123976249811e+00	 1.422681343717592e-01	 6.432270925171624e-02
 1.866833981739142e+00	 1.582978530880728e-01	-1.299704660210212e-01
 1.882357941216666e+00	 0.000000000000000e+00	 9.162186785634672e+00
 1.882292589489063e+00	 1.568578068249056e-02	 6.340274886228625e+00
 1.882095643769081e+00	 3.142391948606171e-02	 4.194234948704740e+00
 1.881765778823908e+00	 4.721304953974327e-02	 2.628735158614113e+00
 1.881301684138893e+00	 6.305177318862648e-02	 1.548106840975413e+00
 1.880702064699139e+00	 7.893866205069652e-02	 8.564481275132798e-01
 1.879965641777177e+00	 9.487225709369997e-02	 4.577304729644576e-01
 1.879091153726199e+00	 1.108510687324475e-01	 2.559079412051113e-01
 1.878077356778291e+00	 1.268735769469385e-01	 1.550291596318236e-01
 1.876923025847079e+00	 1.429382314216786e-01	 5.935182577426479e-02
 1.875626955334190e+00	 1.590434517065505e-01	-1.265403649300208e-01
 1.787698041553686e+00	 1.515875352185671e-01	 2.158452517208396e+00
 1.786326261024755e+00	 1.669774890389988e-01	 1.174321513743481e+00
 1.784817099108259e+00	 1.824029836819379e-01	 4.129799223982574e-01
 1.783169466298693e+00	 1.978623891175576e-01	-1.273486216763500e-01
 1.781382294842314e+00	 2.133540464350997e-01	-4.472057269011601e-01
 1.779454539528256e+00	 2.288762681028857e-01	-5.458775202031920e-01
 1.777385178479808e+00	 2.444273382514740e-01	-4.213753122413239e-01
 1.775173213945176e+00	 2.600055129802037e-01	-7.041777469852187e-02
 1.772817673086980e+00	 2.756090206873468e-01	 5.115852509532157e-01
 1.770317608769745e+00	 2.912360624240647e-01	 1.330547197060463e+00
 1.767672100344656e+00	 3.068848122723423e-01	 2.393717353769302e+00
 1.796490790921936e+00	 1.523331148274494e-01	 1.867870293150352e+00
 1.795112263323674e+00	 1.677987637616727e-01	 9.183743683271037e-01
 1.793595678630914e+00	 1.833001283250068e-01	 1.722141674469912e-01
 1.791939941979431e+00	 1.988355704703719e-01	-3.661172826810972e-01
 1.790143980363745e+00	 2.144034231277070e-01	-6.913107571794743e-01
 1.788206743432129e+00	 2.300019904652596e-01	-7.972363787354746e-01
 1.786127204281779e+00	 2.456295481741353e-01	-6.769404240363719e-01
 1.783904360253470e+00	 2.612843437763503e-01	-3.226434881201795e-01
 1.781537233724924e+00	 2.769645969566062e-01	 2.742598991805845e-01
 1.779024872902189e+00	 2.926684999179882e-01	 1.123200114327224e+00
 1.776366352608243e+00	 3.083942177617580e-01	 2.234429653007845e+00
 1.805283585135210e+00	 1.530786982385879e-01	 1.549675654188728e+00
 1.803898310433295e+00	 1.686200426726874e-01	 6.638554948390486e-01
 1.802374302926518e+00	 1.841972775433771e-01	-4.049227983674369e-02
 1.800710462391899e+00	 1.998087567862867e-01	-5.534688241680341e-01
 1.798905710572194e+00	 2.154528051720141e-01	-8.647236934771021e-01
 1.796958991974783e+00	 2.311277185686937e-01	-9.634645003991724e-01
 1.794869274670746e+00	 2.468317642279395e-01	-8.384677230461937e-01
 1.792635551093389e+00	 2.625631810944035e-01	-4.780907412864218e-01
 1.790256838835518e+00	 2.783201801391766e-01	 1.297148260305182e-01
 1.787732181444672e+00	 2.941009447172261e-01	 9.973884143679346e-01
 1.785060649215598e+00	 3.099036309490485e-01	 2.137744373952597e+00
 1.814076419210772e+00	 1.538242850294628e-01	 1.220211491155031e+00
 1.812684397374696e+00	 1.694413253066293e-01	 4.191333699895237e-01
 1.811152967020335e+00	 1.850944308286472e-01	-2.236761485015623e-01
 1.809481022565932e+00	 2.007819475138219e-01	-6.937623495358930e-01
 1.807667480502450e+00	 2.165021919733756e-01	-9.765300729002390e-01
 1.805711280196355e+00	 2.322534517752947e-01	-1.057265337982360e+00
 1.803611384692580e+00	 2.480339857316648e-01	-9.211580321345508e-01
 1.801366781516948e+00	 2.638420242097387e-01	-5.533257215925358e-01
 1.798976483477317e+00	 2.796757694669589e-01	 6.116135970749492e-02
 1.796439529462697e+00	 2.955333960101377e-01	 9.372540928048972e-01
 1.793754985239578e+00	 3.114130509789675e-01	 2.089896982877824e+00
 1.822869288165890e+00	 1.545698747775544e-01	 8.955117261890262e-01
 1.821470519168950e+00	 1.702626111980846e-01	 1.924226868018420e-01
 1.819931665937626e+00	 1.859915876724152e-01	-3.758935297681211e-01
 1.818251617531361e+00	 2.017551421014973e-01	-7.912629364211509e-01
 1.816429285189302e+00	 2.175515829371460e-01	-1.035629311961431e+00
 1.814463603136981e+00	 2.333791894471684e-01	-1.091085670526024e+00
 1.812353529393162e+00	 2.492362120040901e-01	-9.399067261927406e-01
 1.810098046576164e+00	 2.651208723977317e-01	-5.645823987170545e-01
 1.807696162708878e+00	 2.810313641718543e-01	 5.214759791103429e-02
 1.805146912021767e+00	 2.969658529850817e-01	 9.272580475134801e-01
 1.802449355753047e+00	 3.129224769962685e-01	 2.077401373785560e+00
 1.831662187017830e+00	 1.553154670603430e-01	 5.913089011066012e-01
 1.830256670837134e+00	 1.710838998816394e-01	-8.211784868882466e-03
 1.828710394703656e+00	 1.868887475662795e-01	-4.957192501318420e-01
 1.827022242318018e+00	 2.027283399978324e-01	-8.501437428465567e-01
 1.825191119667539e+00	 2.186009774686797e-01	-1.050739039090621e+00
 1.823215955836795e+00	 2.345049309464211e-01	-1.077121649654431e+00
 1.821095703818368e+00	 2.504384423639941e-01	-9.093109741444227e-01
 1.818829341323052e+00	 2.663997249337579e-01	-5.277704388185938e-01
 1.816415871588759e+00	 2.823869634857640e-01	 8.655034999111966e-02
 1.813854324187387e+00	 2.983983148304172e-01	 9.521724104552634e-01
 1.811143755828862e+00	 3.144319081457049e-01	 2.087043127731861e+00
 1.840455110783858e+00	 1.560610614553088e-01	 3.230415472504030e-01
 1.839042847400324e+00	 1.719051908918804e-01	-1.748514503629479e-01
 1.837489148343687e+00	 1.877859100018383e-01	-5.817462651873296e-01
 1.835792891955739e+00	 2.037015406513474e-01	-8.744880565946519e-01
 1.833952978971950e+00	 2.196503749733315e-01	-1.030399307376559e+00
 1.831968333335933e+00	 2.356306756351590e-01	-1.027324677811859e+00
 1.829837903014075e+00	 2.516406761301552e-01	-8.436767793622362e-01
 1.827560660809629e+00	 2.676785810931931e-01	-4.584828986330806e-01
 1.825135605175517e+00	 2.837425666405889e-01	 1.485673025885644e-01
 1.822561761025060e+00	 2.998307807345035e-01	 9.970730911180107e-01
 1.819838180539883e+00	 3.159413435720306e-01	 2.105872956490535e+00
 1.849248054481242e+00	 1.568066575399323e-01	 1.058613440626431e-01
 1.847829043879594e+00	 1.727264837633934e-01	-2.997202510624473e-01
 1.846267921882982e+00	 1.886830744706899e-01	-6.325850734891414e-01
 1.844563561474353e+00	 2.046747435105618e-01	-8.682912896891121e-01
 1.842714858137325e+00	 2.206997748564558e-01	-9.829766915093612e-01
 1.840720730674533e+00	 2.367564228754885e-01	-9.534071239770692e-01
 1.838580122026158e+00	 2.528429126213521e-01	-7.570258251776644e-01
 1.836292000087911e+00	 2.689574401514129e-01	-3.720037067650817e-01
 1.833855358527708e+00	 2.850981728682301e-01	 2.227094013545454e-01
 1.831269217600288e+00	 3.012632498856995e-01	 1.047332524550899e+00
 1.828532624958970e+00	 3.174507824199989e-01	 2.121200324447446e+00
 1.858041013127248e+00	 1.575522548916935e-01	-4.775510444613196e-02
 1.856615255296021e+00	 1.735477780307652e-01	-3.764553338444574e-01
 1.855046710346803e+00	 1.895802404644325e-01	-6.473728630088446e-01
 1.853334245903695e+00	 2.056479480239954e-01	-8.355580864105667e-01
 1.851476752198452e+00	 2.217491765234071e-01	-9.166682727448878e-01
 1.849473142892728e+00	 2.378821720295156e-01	-8.668478822172438e-01
 1.847322355900494e+00	 2.540451511563633e-01	-6.631021319131487e-01
 1.845023354209912e+00	 2.702363013837927e-01	-2.833149391924511e-01
 1.842575126703891e+00	 2.864537814005889e-01	 2.937934416228012e-01
 1.839976688978579e+00	 3.026957214723643e-01	 1.088612617248016e+00
 1.837227084158984e+00	 3.189602238343635e-01	 2.120587242848582e+00
 1.866833981739142e+00	 1.582978530880728e-01	-1.299704660210212e-01
 1.865401476670680e+00	 1.743690732285816e-01	-4.040271983821929e-01
 1.863825508760415e+00	 1.904774074746644e-01	-6.304351954337010e-01
 1.862104940273597e+00	 2.066211536401683e-01	-7.845360259614846e-01
 1.860238656190121e+00	 2.227985793795398e-01	-8.422844382867150e-01
 1.858225565030656e+00	 2.390079224593465e-01	-7.802972077858643e-01
 1.856064599682962e+00	 2.552473910539676e-01	-5.759029325414728e-01
 1.853754718227649e+00	 2.715151640657081e-01	-2.071928150675164e-01
 1.851294904762621e+00	 2.878093914695661e-01	 3.469348611758608e-01
 1.848684170225434e+00	 3.041281946828569e-01	 1.106857884386663e+00
 1.845921553212783e+00	 3.204696669598779e-01	 2.091842230745907e+00
 1.875626955334190e+00	 1.590434517065505e-01	-1.265403649300213e-01
 1.874187703024645e+00	 1.751903688914292e-01	-3.757456009783810e-01
 1.872604312149079e+00	 1.913745749929839e-01	-5.818698633698415e-01
 1.870875639613893e+00	 2.075943598076000e-01	-7.213043620724435e-01
 1.869000565147121e+00	 2.238479828302088e-01	-7.710035813807309e-01
 1.866977992128452e+00	 2.401336735270876e-01	-7.085317254997400e-01
 1.864806848419438e+00	 2.564496316329435e-01	-5.121100889003976e-01
 1.862486087193140e+00	 2.727940274725351e-01	-1.606653942407220e-01
 1.860014687762457e+00	 2.891650023070629e-01	 3.661208512851978e-01
 1.857391656406358e+00	 3.055606687055365e-01	 1.087761922108045e+00
 1.854616027193228e+00	 3.219791109412959e-01	 2.022914295630130e+00
 1.767672100344656e+00	 3.068848122723423e-01	 2.393717353769304e+00
 1.764880741254913e+00	 3.225507534903543e-01	 3.435702288777544e+00
 1.761942228183390e+00	 3.382346701150138e-01	 4.187135907152539e+00
 1.758855723669352e+00	 3.539346630798190e-01	 4.649214110260090e+00
 1.755620419791376e+00	 3.696488082037950e-01	 4.822448438204858e+00
 1.752235538925222e+00	 3.853751566898675e-01	 4.813400858303638e+00
 1.748700334494149e+00	 4.011117356475780e-01	 4.748027457801880e+00
 1.745014091710825e+00	 4.168565486401224e-01	 4.622394231348613e+00
 1.741176128310005e+00	 4.326075762556573e-01	 4.431530451186118e+00
 1.737185795271111e+00	 4.483627767027928e-01	 4.169689604993017e+00
 1.733042477529863e+00	 4.641200864301568e-01	 3.830340910373610e+00
 1.776366352608243e+00	 3.083942177617580e-01	 2.234429653007843e+00
 1.773561264286633e+00	 3.241372115306150e-01	 3.331008456149851e+00
 1.770608298209911e+00	 3.398982691177453e-01	 4.129404993217276e+00
 1.767506612798326e+00	 3.556754821161409e-01	 4.629573343647518e+00
 1.764255396156726e+00	 3.714669168807957e-01	 4.831471574696331e+00
 1.760853866836163e+00	 3.872706150295302e-01	 4.867522430657409e+00
 1.757301274587891e+00	 4.030845939682787e-01	 4.837324722909258e+00
 1.753596901108929e+00	 4.189068474408174e-01	 4.735955209015451e+00
 1.749740060778345e+00	 4.347353461028813e-01	 4.557885056480520e+00
 1.745730101383382e+00	 4.505680381205852e-01	 4.296973736426455e+00
 1.741566404834599e+00	 4.664028497930368e-01	 3.946463829531826e+00
 1.785060649215598e+00	 3.099036309490485e-01	 2.137744373952598e+00
 1.782241831592177e+00	 3.257236776617571e-01	 3.267283635267861e+00
 1.779274412436605e+00	 3.415618766048292e-01	 4.093587654201851e+00
 1.776157546050095e+00	 3.574163100307003e-01	 4.615416703484031e+00
 1.772890416563749e+00	 3.732850348302820e-01	 4.835085968172354e+00
 1.769472238703889e+00	 3.891660830362387e-01	 4.905537532518676e+00
 1.765902258549744e+00	 4.050574623508447e-01	 4.902209560713946e+00
 1.762179754282671e+00	 4.209571566984042e-01	 4.819453958989522e+00
 1.758304036926028e+00	 4.368631268021764e-01	 4.651163428191095e+00
 1.754274451074868e+00	 4.527733107857277e-01	 4.390768582601265e+00
 1.750090375614572e+00	 4.686856247985898e-01	 4.031235834859926e+00
 1.793754985239578e+00	 3.114130509789675e-01	 2.089896982877821e+00
 1.790922438252172e+00	 3.273101509848771e-01	 3.233327373177263e+00
 1.787940565952282e+00	 3.432254916336510e-01	 4.070820334074533e+00
 1.784808518522069e+00	 3.591571458371234e-01	 4.599989871224636e+00
 1.781525476118869e+00	 3.751031610220786e-01	 4.828667150344522e+00
 1.778090649644257e+00	 3.910615596359786e-01	 4.924196322862702e+00
 1.774503281505424e+00	 4.070303396773920e-01	 4.940850113463658e+00
 1.770762646368043e+00	 4.230074752511032e-01	 4.872249643054900e+00
 1.766868051899751e+00	 4.389909171478490e-01	 4.711689115048329e+00
 1.762818839503396e+00	 4.549785934485991e-01	 4.452135934963842e+00
 1.758614385039166e+00	 4.709684101532610e-01	 4.086231463468484e+00
 1.802449355753047e+00	 3.129224769962685e-01	 2.077401373785562e+00
 1.799603079347242e+00	 3.288966306010713e-01	 3.218167916655536e+00
 1.796606753845749e+00	 3.448891132615959e-01	 4.052422658239334e+00
 1.793459525311652e+00	 3.608979885490363e-01	 4.576680411445079e+00
 1.790160569928509e+00	 3.769212944260097e-01	 4.807423747271760e+00
 1.786709094773127e+00	 3.929570437547357e-01	 4.920320316913789e+00
 1.783104338580646e+00	 4.090032248300363e-01	 4.951457945360002e+00
 1.779345572501041e+00	 4.250578019371356e-01	 4.893721210461504e+00
 1.775432100846214e+00	 4.411187159342062e-01	 4.739786116399479e+00
 1.771363261826792e+00	 4.571838848595787e-01	 4.482122991413659e+00
 1.767138428277760e+00	 4.732512045634946e-01	 4.112999899658965e+00
 1.811143755828862e+00	 3.144319081457049e-01	 2.087043127731863e+00
 1.808283749958020e+00	 3.304831156114362e-01	 3.211056616581011e+00
 1.805272971205817e+00	 3.465527405460495e-01	 4.029892877625938e+00
 1.802110561516253e+00	 3.626388371800650e-01	 4.539014150127376e+00
 1.798795693099089e+00	 3.787394340118994e-01	 4.766665365709384e+00
 1.795327569206358e+00	 3.948525343184955e-01	 4.890800517184067e+00
 1.791705424901127e+00	 4.109761166908936e-01	 4.932286808814313e+00
 1.787928527817661e+00	 4.271081355947222e-01	 4.883266694562709e+00
 1.783996178912116e+00	 4.432465219555545e-01	 4.735778604531684e+00
 1.779907713202884e+00	 4.593891837690459e-01	 4.481762399824158e+00
 1.775662500499735e+00	 4.755340067357352e-01	 4.113065235435861e+00
 1.819838180539883e+00	 3.159413435720306e-01	 2.105872956490536e+00
 1.816964445165127e+00	 3.320696051170678e-01	 3.201462483120275e+00
 1.813939213121292e+00	 3.482163725443969e-01	 3.994903433043577e+00
 1.810761622233280e+00	 3.643796907438359e-01	 4.480651645625901e+00
 1.807430840737038e+00	 3.805575787495722e-01	 4.701800052121000e+00
 1.803946068059810e+00	 3.967480302532436e-01	 4.832595590971634e+00
 1.800306535592583e+00	 4.129490141420798e-01	 4.881631438506508e+00
 1.796511507453898e+00	 4.291584750620841e-01	 4.840302521577207e+00
 1.792560281244154e+00	 4.453743340062008e-01	 4.699990646413984e+00
 1.788452188789497e+00	 4.615944889273798e-01	 4.452072291246481e+00
 1.784186596874472e+00	 4.778168153764275e-01	 4.087926713927061e+00
 1.828532624958970e+00	 3.174507824199989e-01	 2.121200324447450e+00
 1.825645160049192e+00	 3.336560982190630e-01	 3.179066886738159e+00
 1.822605474680987e+00	 3.498800083140239e-01	 3.939296635816301e+00
 1.819412702560138e+00	 3.661205482539751e-01	 4.395384749246606e+00
 1.816066007948776e+00	 3.823757276088526e-01	 4.608331817530130e+00
 1.812564586449340e+00	 3.986435304849657e-01	 4.742730092781319e+00
 1.808907665780729e+00	 4.149219160657105e-01	 4.797826372329630e+00
 1.805094506545749e+00	 4.312088191774424e-01	 4.764262831077489e+00
 1.801124402989027e+00	 4.475021508804514e-01	 4.632745924882422e+00
 1.796996683744460e+00	 4.637997990849598e-01	 4.394056303143030e+00
 1.792710712571352e+00	 4.800996291920159e-01	 4.039058956284570e+00
 1.837227084158984e+00	 3.189602238343635e-01	 2.120587242848580e+00
 1.834325889690843e+00	 3.352425940185181e-01	 3.133758400223480e+00
 1.831271750973707e+00	 3.515436469123155e-01	 3.855080460868171e+00
 1.828063797594234e+00	 3.678614087241088e-01	 4.277133252488052e+00
 1.824701189840726e+00	 3.841938795595647e-01	 4.481858226042666e+00
 1.821183119490811e+00	 4.005390339396475e-01	 4.618292730189638e+00
 1.817508810591282e+00	 4.168948213439020e-01	 4.679244798336272e+00
 1.813677520229209e+00	 4.332591667790174e-01	 4.654598807822135e+00
 1.809688539293435e+00	 4.496299713726133e-01	 4.534367459291491e+00
 1.805541193225597e+00	 4.660051129921649e-01	 4.308703592985553e+00
 1.801234842759755e+00	 4.823824468889450e-01	 3.967912172616629e+00
 1.845921553212783e+00	 3.204696669598779e-01	 2.091842230745907e+00
 1.843006629170708e+00	 3.368290916165294e-01	 3.055627777103890e+00
 1.839938037088262e+00	 3.532072873966573e-01	 3.734424448570036e+00
 1.836714902432977e+00	 3.696022711678629e-01	 4.119941618103860e+00
 1.833336381519313e+00	 3.860120335715329e-01	 4.318068044952379e+00
 1.829801662300079e+00	 4.024345395432744e-01	 4.456434671730983e+00
 1.826109965149958e+00	 4.188677288587697e-01	 4.524297426837758e+00
 1.822260543640271e+00	 4.353095167050305e-01	 4.510778024564189e+00
 1.818252685304075e+00	 4.517577942769935e-01	 4.405177325654370e+00
 1.814085712390736e+00	 4.682104293993746e-01	 4.196988842539376e+00
 1.809758982609063e+00	 4.846652671736595e-01	 3.875912357481821e+00
 1.854616027193228e+00	 3.219791109412959e-01	 2.022914295630130e+00
 1.851687373569412e+00	 3.384155901141933e-01	 2.934963061996555e+00
 1.848604328113462e+00	 3.548709288244347e-01	 3.569655711798454e+00
 1.845366012173774e+00	 3.713431345988638e-01	 3.918392131651515e+00
 1.841971578090960e+00	 3.878301886145815e-01	 4.112738954420179e+00
 1.838420209993003e+00	 4.043300462218324e-01	 4.254367895435036e+00
 1.834711124582473e+00	 4.208406374924301e-01	 4.331431386837654e+00
 1.830843571914933e+00	 4.373598677937027e-01	 4.332283795481402e+00
 1.826816836167647e+00	 4.538856183878984e-01	 4.245496376294025e+00
 1.822630236397704e+00	 4.704157470569681e-01	 4.059872253144491e+00
 1.818283127288656e+00	 4.869480887526040e-01	 3.764461470456337e+00
 1.733042477529863e+00	 4.641200864301568e-01	 3.830340910373610e+00
 1.728745595055301e+00	 4.798774209899135e-01	 3.466539071298175e+00
 1.724294604671216e+00	 4.956326763851802e-01	 3.134406836707591e+00
 1.719688999601968e+00	 5.113837291358949e-01	 2.831476251585614e+00
 1.714928309753177e+00	 5.271284367778979e-01	 2.555355122383189e+00
 1.710012102353537e+00	 5.428646385999550e-01	 2.303733024648101e+00
 1.704939982580465e+00	 5.585901564033950e-01	 2.074387896340243e+00
 1.699711594168736e+00	 5.743027952840064e-01	 1.865193288850146e+00
 1.694326620001263e+00	 5.900003444358111e-01	 1.674126350115171e+00
 1.688784782681174e+00	 6.056805779762906e-01	 1.499276616133036e+00
 1.683085845084354e+00	 6.213412557926126e-01	 1.338855688560090e+00
 1.741566404834599e+00	 4.664028497930368e-01	 3.946463829531826e+00
 1.737248388248177e+00	 4.822376864200964e-01	 3.565170971269257e+00
 1.732775505776295e+00	 4.980704336564107e-01	 3.215522477071091e+00
 1.728147248150731e+00	 5.138989575776163e-01	 2.895769292413737e+00
 1.723363142964937e+00	 5.297211051818782e-01	 2.604240730796274e+00
 1.718422755319014e+00	 5.455347051305395e-01	 2.339349285305994e+00
 1.713325688448433e+00	 5.613375685114939e-01	 2.099596000473904e+00
 1.708071584335666e+00	 5.771274896249299e-01	 1.883576480425813e+00
 1.702660124303875e+00	 5.929022467910560e-01	 1.689987611960080e+00
 1.697091029591799e+00	 6.086596031793869e-01	 1.517635083322974e+00
 1.691364061909009e+00	 6.243973076591316e-01	 1.365441781059809e+00
 1.750090375614572e+00	 4.686856247985898e-01	 4.031235834859926e+00
 1.745751224808450e+00	 4.845979638882660e-01	 3.635822748029502e+00
 1.741256450137057e+00	 5.005082033608793e-01	 3.271992041405538e+00
 1.736605539839576e+00	 5.164141988477118e-01	 2.938722221076275e+00
 1.731798019197280e+00	 5.323137868091998e-01	 2.635065399764920e+00
 1.726833451181668e+00	 5.482047852792105e-01	 2.360150761500587e+00
 1.721711437086255e+00	 5.640849946321488e-01	 2.113188568076150e+00
 1.716431617141206e+00	 5.799521983725480e-01	 1.893474787725489e+00
 1.710993671109924e+00	 5.958041639467488e-01	 1.700396429327040e+00
 1.705397318866751e+00	 6.116386435762436e-01	 1.533437667814084e+00
 1.699642320954944e+00	 6.274533751122271e-01	 1.392186848295684e+00
 1.758614385039166e+00	 4.709684101532610e-01	 4.086231463468483e+00
 1.754254099917486e+00	 4.869582520569317e-01	 3.680414895402664e+00
 1.749737432947277e+00	 5.029459841171647e-01	 3.305973260281157e+00
 1.745063869875115e+00	 5.189294515208410e-01	 2.962621149827624e+00
 1.740232933670093e+00	 5.349064801906228e-01	 2.650134708803611e+00
 1.735244185175092e+00	 5.508748775328534e-01	 2.368353602557875e+00
 1.730097223741669e+00	 5.668324332084014e-01	 2.117183514667732e+00
 1.724791687847675e+00	 5.827769199260977e-01	 1.896599259971139e+00
 1.719327255696745e+00	 5.987060942583666e-01	 1.706648601410614e+00
 1.713703645798822e+00	 6.146176974786299e-01	 1.547456861716544e+00
 1.707920617530850e+00	 6.305094564200207e-01	 1.419232422994473e+00
 1.767138428277760e+00	 4.732512045634946e-01	 4.112999899658965e+00
 1.762757008756646e+00	 4.893185495886022e-01	 3.700834952488642e+00
 1.758218449400724e+00	 5.053837745438453e-01	 3.319585350211958e+00
 1.753522233463964e+00	 5.214447141716648e-01	 2.969710168428858e+00
 1.748667881603261e+00	 5.374991838569074e-01	 2.651710764429748e+00
 1.743654952532881e+00	 5.535449803783530e-01	 2.366131097968256e+00
 1.738483043662412e+00	 5.695798826832934e-01	 2.113558577157265e+00
 1.733151791717387e+00	 5.856016526848158e-01	 1.894625520090033e+00
 1.727660873341673e+00	 6.016080360813869e-01	 1.710011326161036e+00
 1.722010005680807e+00	 6.175967631983170e-01	 1.560445453897597e+00
 1.716198946945416e+00	 6.335655498506330e-01	 1.446711304363088e+00
 1.775662500499735e+00	 4.755340067357352e-01	 4.113065235435861e+00
 1.771259946507290e+00	 4.916788551457862e-01	 3.698937904079722e+00
 1.766699494691173e+00	 5.078215732594996e-01	 3.314909503709990e+00
 1.761980625812735e+00	 5.239599853748425e-01	 2.962191873487948e+00
 1.757102858216673e+00	 5.400918963388135e-01	 2.642012718384843e+00
 1.752065748488628e+00	 5.562150923025945e-01	 2.355614134066299e+00
 1.746868892096222e+00	 5.723273414998669e-01	 2.104251658573808e+00
 1.741511924012661e+00	 5.884263950479396e-01	 1.889193947146815e+00
 1.735994519322042e+00	 6.045099877712874e-01	 1.711723170150051e+00
 1.730316393805499e+00	 6.205758390470735e-01	 1.573136237139063e+00
 1.724477304507334e+00	 6.366216536721855e-01	 1.474746952555460e+00
 1.784186596874472e+00	 4.778168153764275e-01	 4.087926713927061e+00
 1.779762908350782e+00	 4.940391673909927e-01	 3.676546559398661e+00
 1.775180564012395e+00	 5.102593788827063e-01	 3.293989354499009e+00
 1.770439042128041e+00	 5.264752637050345e-01	 2.942227871223728e+00
 1.765537858730214e+00	 5.426846161671013e-01	 2.623217258974255e+00
 1.760476568275929e+00	 5.588852117924632e-01	 2.338891624954755e+00
 1.755254764290835e+00	 5.750748081011636e-01	 2.091161149601623e+00
 1.749872079995814e+00	 5.912511454147059e-01	 1.881909839566536e+00
 1.744328188915190e+00	 6.074119476835451e-01	 1.712994024646356e+00
 1.738622805465689e+00	 6.235549233366698e-01	 1.586241708350846e+00
 1.732755685525294e+00	 6.396777661527995e-01	 1.503452884465877e+00
 1.792710712571352e+00	 4.800996291920159e-01	 4.039058956284570e+00
 1.788265889468485e+00	 4.963994849867308e-01	 3.635451909883451e+00
 1.783661652558164e+00	 5.126971900320439e-01	 3.258831418717781e+00
 1.778897477616497e+00	 5.289905477369012e-01	 2.911939254542974e+00
 1.773972878363771e+00	 5.452773418725307e-01	 2.597459076425204e+00
 1.768887407128378e+00	 5.615553373348441e-01	 2.318010918536260e+00
 1.763640655493990e+00	 5.778222809302256e-01	 2.076146227695737e+00
 1.758232254929163e+00	 5.940759021843520e-01	 1.874343559796289e+00
 1.752661877398449e+00	 6.103139141736381e-01	 1.715005048370106e+00
 1.746929235954171e+00	 6.265340143788759e-01	 1.600453762083427e+00
 1.741034085307989e+00	 6.427338855605964e-01	 1.532932070818319e+00
 1.801234842759755e+00	 4.823824468889450e-01	 3.967912172616629e+00
 1.796768885041758e+00	 4.987598065955091e-01	 3.577413466716716e+00
 1.792142755522252e+00	 5.151350053260909e-01	 3.211405512912787e+00
 1.787355927484714e+00	 5.315058360451024e-01	 2.873407055285648e+00
 1.782407912337233e+00	 5.478700719858620e-01	 2.566831303129088e+00
 1.777298260279568e+00	 5.642254674166222e-01	 2.294978178483288e+00
 1.772026560953423e+00	 5.805697584300946e-01	 2.061027134529088e+00
 1.766592444075025e+00	 5.969006637561151e-01	 1.868030661029292e+00
 1.760995580049157e+00	 6.132158855970431e-01	 1.718908597377473e+00
 1.755235680563738e+00	 6.295131104854617e-01	 1.616443377573591e+00
 1.749312499164107e+00	 6.457900101636972e-01	 1.563276334523163e+00
 1.809758982609063e+00	 4.846652671736595e-01	 3.875912357481821e+00
 1.805271890251967e+00	 5.011201308798364e-01	 3.504159578771913e+00
 1.800623868098430e+00	 5.175728233834260e-01	 3.153645149589919e+00
 1.795814386939307e+00	 5.340211272042982e-01	 2.828672672462404e+00
 1.790842955870483e+00	 5.504628050378552e-01	 2.533385929601935e+00
 1.785709122963095e+00	 5.668956005246829e-01	 2.271758742946686e+00
 1.780412475916871e+00	 5.833172390438123e-01	 2.047585432492967e+00
 1.774952642695718e+00	 5.997254285292316e-01	 1.864471996591923e+00
 1.769329292144649e+00	 6.161178603092384e-01	 1.725828142511058e+00
 1.763542134587182e+00	 6.324922099681967e-01	 1.634860299549023e+00
 1.757590922402342e+00	 6.488461382302234e-01	 1.594565750273899e+00
 1.818283127288656e+00	 4.869480887526040e-01	 3.764461470456337e+00
 1.813774900280472e+00	 5.034804565022218e-01	 3.417387731623432e+00
 1.809104985480471e+00	 5.200106428226275e-01	 3.087447911066666e+00
 1.804272851186890e+00	 5.365364197891487e-01	 2.779738277277613e+00
 1.799278004183412e+00	 5.530555395592704e-01	 2.499134196966132e+00
 1.794119990412552e+00	 5.695657351459109e-01	 2.250277460773249e+00
 1.788798395632072e+00	 5.860647212144210e-01	 2.037564240946832e+00
 1.783312846053559e+00	 6.025501949029394e-01	 1.865133812572297e+00
 1.777663008962260e+00	 6.190198366657010e-01	 1.736858174834848e+00
 1.771848593317296e+00	 6.354713111388515e-01	 1.656332713009430e+00
 1.765869350331383e+00	 6.519022680282957e-01	 1.626868045357946e+00
 1.683085845084354e+00	 6.213412557926126e-01	 1.338855688560090e+00
 1.677228601699849e+00	 6.369827810704320e-01	 1.215086145812018e+00
 1.671213852015979e+00	 6.526002218751347e-01	 1.150165981704800e+00
 1.665041481651053e+00	 6.681912987448789e-01	 1.142049426374388e+00
 1.658711418525549e+00	 6.837537215354029e-01	 1.188376751028679e+00
 1.652223633306464e+00	 6.992851903642255e-01	 1.286483177644998e+00
 1.645578139827386e+00	 7.147833965724529e-01	 1.433409698288517e+00
 1.638774995483586e+00	 7.302460237034971e-01	 1.625915892486279e+00
 1.631814301601403e+00	 7.456707484979819e-01	 1.858996935903844e+00
 1.624696203781240e+00	 7.610552419040804e-01	 2.109230759585238e+00
 1.617420892213523e+00	 7.763971701024949e-01	 2.369452953680477e+00
 1.691364061909009e+00	 6.243973076591316e-01	 1.365441781059809e+00
 1.685478009815265e+00	 6.401157653989908e-01	 1.252851778448862e+00
 1.679433676731163e+00	 6.558100202067585e-01	 1.198641802597882e+00
 1.673230947712444e+00	 6.714777814091277e-01	 1.200485768359426e+00
 1.666869750325086e+00	 6.871167475978315e-01	 1.255704889974775e+00
 1.660350055091832e+00	 7.027246075784859e-01	 1.361276249449437e+00
 1.653671875914328e+00	 7.182990413371282e-01	 1.513843352261103e+00
 1.646835270470162e+00	 7.338377210237484e-01	 1.709728763857675e+00
 1.639840340584065e+00	 7.493383119520894e-01	 1.940245629567940e+00
 1.632687232572591e+00	 7.647984736149539e-01	 2.180029648716957e+00
 1.625376137561633e+00	 7.802158607142236e-01	 2.425293713400581e+00
 1.699642320954944e+00	 6.274533751122271e-01	 1.392186848295685e+00
 1.693727460004945e+00	 6.432487657064578e-01	 1.293156403837842e+00
 1.687653543369646e+00	 6.590198349090151e-01	 1.251553980902263e+00
 1.681420455542223e+00	 6.747642808350729e-01	 1.264737242535434e+00
 1.675028123734150e+00	 6.904797908123047e-01	 1.329681547909081e+00
 1.668476518323915e+00	 7.061640423343688e-01	 1.442988324428586e+00
 1.661765653281227e+00	 7.218147040321778e-01	 1.600895494810235e+00
 1.654895586565994e+00	 7.374294366622454e-01	 1.799290057324285e+00
 1.647866420501339e+00	 7.530058941113775e-01	 2.023816204976426e+00
 1.640678302119975e+00	 7.685417244169505e-01	 2.250628425826179e+00
 1.633331423483267e+00	 7.840345708019715e-01	 2.477886446698073e+00
 1.707920617530850e+00	 6.305094564200207e-01	 1.419232422994473e+00
 1.701976947593920e+00	 6.463817802173634e-01	 1.335523833508337e+00
 1.695873447273244e+00	 6.622296641629146e-01	 1.307943199678305e+00
 1.689610000499428e+00	 6.780507951602820e-01	 1.333496738748674e+00
 1.683186534129443e+00	 6.938428492730280e-01	 1.408787807155349e+00
 1.676603018397522e+00	 7.096034926828038e-01	 1.530025219305376e+00
 1.669859467341436e+00	 7.253303826653485e-01	 1.693033678958120e+00
 1.662955939203413e+00	 7.410211685836475e-01	 1.893259498788833e+00
 1.655892536804974e+00	 7.566734928975217e-01	 2.108516950513242e+00
 1.648669407894992e+00	 7.722849921888694e-01	 2.320296401435131e+00
 1.641286745470310e+00	 7.878532982017723e-01	 2.527098574193746e+00
 1.716198946945416e+00	 6.335655498506330e-01	 1.446711304363088e+00
 1.710226467907224e+00	 6.495148071562377e-01	 1.379479860766119e+00
 1.704093383783774e+00	 6.654395061494696e-01	 1.366860249949285e+00
 1.697799577943102e+00	 6.813373225223234e-01	 1.405472784208000e+00
 1.691344976887671e+00	 6.972059210742070e-01	 1.491523314125567e+00
 1.684729550707461e+00	 7.130429566747216e-01	 1.620811634861038e+00
 1.677953313508303e+00	 7.288460752443860e-01	 1.788742052737603e+00
 1.671016323814749e+00	 7.446129147526156e-01	 1.989226217786329e+00
 1.663918684946717e+00	 7.603411062321973e-01	 2.193159069747128e+00
 1.656660545369243e+00	 7.760282748095092e-01	 2.388297367995374e+00
 1.649242099014651e+00	 7.916720407496621e-01	 2.572780921166360e+00
 1.724477304507334e+00	 6.366216536721855e-01	 1.474746952555460e+00
 1.718476016269890e+00	 6.526478447476121e-01	 1.424551348421563e+00
 1.712313348243052e+00	 6.686493590496899e-01	 1.427364873799940e+00
 1.705989183232283e+00	 6.846238610587631e-01	 1.479388204381670e+00
 1.699503447385540e+00	 7.005690043100479e-01	 1.576404820720468e+00
 1.692856110648541e+00	 7.164824323610515e-01	 1.713789640780057e+00
 1.686047187195182e+00	 7.323617797770374e-01	 1.886519850614128e+00
 1.679076735832334e+00	 7.482046731338077e-01	 2.084961930189904e+00
 1.671944860378315e+00	 7.640087320370795e-01	 2.276556900983599e+00
 1.664651710014327e+00	 7.797715701576683e-01	 2.453890059716353e+00
 1.657197479608172e+00	 7.954907962816750e-01	 2.614768480308649e+00
 1.732755685525294e+00	 6.396777661527995e-01	 1.503452884465877e+00
 1.726725588006950e+00	 6.557808912160165e-01	 1.470265325943142e+00
 1.720533335992895e+00	 6.718592210445868e-01	 1.488524623226456e+00
 1.714178811726014e+00	 6.879104089071703e-01	 1.553978804191102e+00
 1.707661940999752e+00	 7.039320970747547e-01	 1.661964748785176e+00
 1.700982693615570e+00	 7.199219177927243e-01	 1.807417184514885e+00
 1.694141083815422e+00	 7.358774942710485e-01	 1.984879908094984e+00
 1.687137170688498e+00	 7.517964416918844e-01	 2.178977458307494e+00
 1.679971058551517e+00	 7.676763682338440e-01	 2.357528153004659e+00
 1.672642897301842e+00	 7.835148761121460e-01	 2.516328622327190e+00
 1.665152882742761e+00	 7.993095626338458e-01	 2.652881176360357e+00
 1.741034085307989e+00	 6.427338855605964e-01	 1.532932070818319e+00
 1.734975178443437e+00	 6.589139447859820e-01	 1.516148095738562e+00
 1.728753342375118e+00	 6.750690903151718e-01	 1.549413734231534e+00
 1.722368458783333e+00	 6.911969642051115e-01	 1.627992068845414e+00
 1.715820453107013e+00	 7.072951974625338e-01	 1.746749776872549e+00
 1.709109295003357e+00	 7.233614110206694e-01	 1.900166623392284e+00
 1.702234998782373e+00	 7.393932167341655e-01	 2.082347198775909e+00
 1.695197623815573e+00	 7.553882183915052e-01	 2.269792518710764e+00
 1.687997274918069e+00	 7.713440127441658e-01	 2.434894156453496e+00
 1.680634102703389e+00	 7.872581905517401e-01	 2.574863092435540e+00
 1.673108303910304e+00	 8.031283376422097e-01	 2.686924632548573e+00
 1.749312499164107e+00	 6.457900101636972e-01	 1.563276334523163e+00
 1.743224782904385e+00	 6.620470036820394e-01	 1.561724348277198e+00
 1.736973362731538e+00	 6.782789650424554e-01	 1.609112015677111e+00
 1.730558119763282e+00	 6.944835250901548e-01	 1.700185883684928e+00
 1.723978979084028e+00	 7.106583035675909e-01	 1.829319448596074e+00
 1.717235910206709e+00	 7.268009100958163e-01	 1.990523279212721e+00
 1.710328927509388e+00	 7.429089451741350e-01	 2.177046289135517e+00
 1.703258090645889e+00	 7.589800011973302e-01	 2.355935824108358e+00
 1.696023504929720e+00	 7.750116634897204e-01	 2.507480130341305e+00
 1.688625321690569e+00	 7.910015113552501e-01	 2.628739886159504e+00
 1.681063738602686e+00	 8.069471191428014e-01	 2.716690938767702e+00
 1.757590922402342e+00	 6.488461382302234e-01	 1.594565750273899e+00
 1.751474396714826e+00	 6.651800661287188e-01	 1.606516285778600e+00
 1.745193392403971e+00	 6.814888434074490e-01	 1.666703752426391e+00
 1.738747790024900e+00	 6.977700896998675e-01	 1.769327272426936e+00
 1.732137514307501e+00	 7.140214134841311e-01	 1.908244801881081e+00
 1.725362534620436e+00	 7.302404130690962e-01	 2.076984014623014e+00
 1.718422865409816e+00	 7.464246775987030e-01	 2.265905867460487e+00
 1.711318566611778e+00	 7.625717880740187e-01	 2.435945203865246e+00
 1.704049744038217e+00	 7.786793183921834e-01	 2.574115463172384e+00
 1.696616549734979e+00	 7.947448364014740e-01	 2.677202296720217e+00
 1.689019182311793e+00	 8.107659049716559e-01	 2.741959421433313e+00
 1.765869350331383e+00	 6.519022680282957e-01	 1.626868045357946e+00
 1.759724015199794e+00	 6.683131303505517e-01	 1.650042754202913e+00
 1.753413426734233e+00	 6.846987235911637e-01	 1.721276622324535e+00
 1.746937464927228e+00	 7.010566561718174e-01	 1.834191153229269e+00
 1.740296054154137e+00	 7.173845253063597e-01	 1.982107018449528e+00
 1.733489163639346e+00	 7.336799179914384e-01	 2.158055830569729e+00
 1.726516807897010e+00	 7.499404120156162e-01	 2.347164062188122e+00
 1.719379047145570e+00	 7.661635769862305e-01	 2.508367742551657e+00
 1.712075987695309e+00	 7.823469753732302e-01	 2.633634008202019e+00
 1.704607782308222e+00	 7.984881635692114e-01	 2.719491000693752e+00
 1.696974630529512e+00	 8.145846929648082e-01	 2.762497414946032e+00
 1.617420892213523e+00	 7.763971701024949e-01	 2.369452953680477e+00
 1.609989878453082e+00	 7.916915991502730e-01	 2.609256819904662e+00
 1.602402218305899e+00	 8.069388008559107e-01	 2.800710113187499e+00
 1.594658236046571e+00	 8.221364337303407e-01	 2.947185692261632e+00
 1.586758301496337e+00	 8.372821557180704e-01	 3.052260382855130e+00
 1.578702830195891e+00	 8.523736252820372e-01	 3.119700141849693e+00
 1.570492283547801e+00	 8.674085024978190e-01	 3.153443049611600e+00
 1.562127168928098e+00	 8.823844501562221e-01	 3.157580087850643e+00
 1.553608039766600e+00	 8.972991348732569e-01	 3.136333672467303e+00
 1.544935495595602e+00	 9.121502282064712e-01	 3.094033923748466e+00
 1.536110182066576e+00	 9.269354077766122e-01	 3.035092669907121e+00
 1.625376137561633e+00	 7.802158607142236e-01	 2.425293713400580e+00
 1.617908574540580e+00	 7.955855150394799e-01	 2.647998428743842e+00
 1.610283594671409e+00	 8.109077097360987e-01	 2.822999730366058e+00
 1.602501523823640e+00	 8.261800917984519e-01	 2.953893748198118e+00
 1.594562733637453e+00	 8.414003076516984e-01	 3.044547197198616e+00
 1.586467641697350e+00	 8.565660042419762e-01	 3.099082864864600e+00
 1.578216711675283e+00	 8.716748301359977e-01	 3.121862780674995e+00
 1.569810453442782e+00	 8.867244366290573e-01	 3.117469020093945e+00
 1.561249423151682e+00	 9.017124788604670e-01	 3.090682108333648e+00
 1.552534223283045e+00	 9.166366169353817e-01	 3.046457002479415e+00
 1.543665502663949e+00	 9.314945170519777e-01	 2.989896644753956e+00
 1.633331423483267e+00	 7.840345708019715e-01	 2.477886446698073e+00
 1.625827311015202e+00	 7.994794507884304e-01	 2.680483649003845e+00
 1.618165011233726e+00	 8.148766388585917e-01	 2.836629524890905e+00
 1.610344851603284e+00	 8.302237704901996e-01	 2.950173563661219e+00
 1.602367205583006e+00	 8.455184805890036e-01	 3.025291641105855e+00
 1.594232492801211e+00	 8.607584045842814e-01	 3.066471697997054e+00
 1.585941179199240e+00	 8.759411795338146e-01	 3.078496966396194e+00
 1.577493777144135e+00	 8.910644452373244e-01	 3.066426691938903e+00
 1.568890845509755e+00	 9.061258453573618e-01	 3.035574313282619e+00
 1.560132989725942e+00	 9.211230285466261e-01	 2.991483073793592e+00
 1.551220861795396e+00	 9.360536495806617e-01	 2.939899055247035e+00
 1.641286745470310e+00	 7.878532982017723e-01	 2.527098574193746e+00
 1.633746083389548e+00	 8.033734041905228e-01	 2.707169884926610e+00
 1.626046463526597e+00	 8.188455859742730e-01	 2.842493469346147e+00
 1.618188214940832e+00	 8.342674675140894e-01	 2.937201627897312e+00
 1.610171712910338e+00	 8.496366721962542e-01	 2.995798148789034e+00
 1.601997379107259e+00	 8.649508239331301e-01	 3.023144047006055e+00
 1.593665681742335e+00	 8.802075482735139e-01	 3.024440729008544e+00
 1.585177135678125e+00	 8.954044735214981e-01	 3.005210527070709e+00
 1.576532302510527e+00	 9.105392318628177e-01	 2.971274560670407e+00
 1.567731790618172e+00	 9.256094604976628e-01	 2.928727896706350e+00
 1.558776255179390e+00	 9.406128027788884e-01	 2.883911995523664e+00
 1.649242099014651e+00	 7.916720407496621e-01	 2.572780921166360e+00
 1.641664887176220e+00	 8.072673730391527e-01	 2.728487019595266e+00
 1.633927947083770e+00	 8.228145488340280e-01	 2.841450038094474e+00
 1.626031609391615e+00	 8.383111805786261e-01	 2.916113910076714e+00
 1.617976251196791e+00	 8.537548801397167e-01	 2.957328572167883e+00
 1.609762296215283e+00	 8.691432599127000e-01	 2.970335635173520e+00
 1.601390214927231e+00	 8.844739339373399e-01	 2.960751370461050e+00
 1.592860524690725e+00	 8.997445190220527e-01	 2.934546951748534e+00
 1.584173789823706e+00	 9.149526358757109e-01	 2.898025906173522e+00
 1.575330621653610e+00	 9.300959102459478e-01	 2.857798743338196e+00
 1.566331678534406e+00	 9.451719740628823e-01	 2.820754746723355e+00
 1.657197479608172e+00	 7.954907962816750e-01	 2.614768480308649e+00
 1.649583717887820e+00	 8.111613551277174e-01	 2.744838476071778e+00
 1.641809457438996e+00	 8.267835251887402e-01	 2.834323495026330e+00
 1.633875030510958e+00	 8.423549073923153e-01	 2.888007301606108e+00
 1.625780816019710e+00	 8.578731020856597e-01	 2.911103705470472e+00
 1.617527239725068e+00	 8.733357101471682e-01	 2.909242037744672e+00
 1.609114774376592e+00	 8.887403341075366e-01	 2.888449844128920e+00
 1.600543939827905e+00	 9.040845792794623e-01	 2.855132731149681e+00
 1.591815303119002e+00	 9.193660548949177e-01	 2.816051316117339e+00
 1.582929478526133e+00	 9.345823752489378e-01	 2.778295246620534e+00
 1.573887127578916e+00	 9.497311608488682e-01	 2.749254271560833e+00
 1.665152882742761e+00	 7.993095626338458e-01	 2.652881176360357e+00
 1.657502571036947e+00	 8.150553482496138e-01	 2.756602272470376e+00
 1.649690990126024e+00	 8.307525127892950e-01	 2.821905169336215e+00
 1.641718473854194e+00	 8.463986456636626e-01	 2.853941042598637e+00
 1.633585402956432e+00	 8.619913357003486e-01	 2.858304792166982e+00
 1.625292205236402e+00	 8.775281722607137e-01	 2.841020198925430e+00
 1.616839355713080e+00	 8.930067463663480e-01	 2.808522211356099e+00
 1.608227376735635e+00	 9.084246518342023e-01	 2.767636294872616e+00
 1.599456838066123e+00	 9.237794864193145e-01	 2.725554791341797e+00
 1.590528356929616e+00	 9.390688529640905e-01	 2.689810251966311e+00
 1.581442598031394e+00	 9.542903605530698e-01	 2.668245723337604e+00
 1.673108303910304e+00	 8.031283376422097e-01	 2.686924632548573e+00
 1.665421442136204e+00	 8.189493501982381e-01	 2.764132071159730e+00
 1.657572540678602e+00	 8.347215093865761e-01	 2.804954719714171e+00
 1.649561934976651e+00	 8.504423931011736e-01	 2.814938133017473e+00
 1.641390007584303e+00	 8.661095786500523e-01	 2.800075014812273e+00
 1.633057188349071e+00	 8.817206438775129e-01	 2.766789932004504e+00
 1.624563954559359e+00	 8.972731682960193e-01	 2.721921083321540e+00
 1.615910831059886e+00	 9.127647342267473e-01	 2.672699051947042e+00
 1.607098390334780e+00	 9.281929279477776e-01	 2.626722486740888e+00
 1.598127252557938e+00	 9.435553408488627e-01	 2.591930672762502e+00
 1.588998085610311e+00	 9.588495705917116e-01	 2.576572968901232e+00
 1.681063738602686e+00	 8.069471191428014e-01	 2.716690938767702e+00
 1.673340326698193e+00	 8.228433587669878e-01	 2.767758222278683e+00
 1.665454104630480e+00	 8.386905127314682e-01	 2.784201387325354e+00
 1.657405409433659e+00	 8.544861474133527e-01	 2.771986728988615e+00
 1.649194625480663e+00	 8.702278286010372e-01	 2.737520968350534e+00
 1.640822184662861e+00	 8.859131226217444e-01	 2.687635403146057e+00
 1.632288566538091e+00	 9.015395974787935e-01	 2.629567048702215e+00
 1.623594298446628e+00	 9.171048239975716e-01	 2.570936695685281e+00
 1.614739955594678e+00	 9.326063769791830e-01	 2.519723826606259e+00
 1.605726161104973e+00	 9.480418363607115e-01	 2.484238349545739e+00
 1.596553586034144e+00	 9.634087883810178e-01	 2.473089125079569e+00
 1.689019182311793e+00	 8.107659049716559e-01	 2.741959421433312e+00
 1.681259220235513e+00	 8.267373717492592e-01	 2.767788801743248e+00
 1.673335677515406e+00	 8.426595205748560e-01	 2.760345237935931e+00
 1.665248892780547e+00	 8.585299063087067e-01	 2.726041524759470e+00
 1.656999252222854e+00	 8.743460832195703e-01	 2.671714117414168e+00
 1.648587189777560e+00	 8.901056061175850e-01	 2.604606599377558e+00
 1.640013187271940e+00	 9.058060314969151e-01	 2.532350087587145e+00
 1.631277774541833e+00	 9.214449186871494e-01	 2.462940498696262e+00
 1.622381529515527e+00	 9.370198310124075e-01	 2.404712615899979e+00
 1.613325078264600e+00	 9.525283369570938e-01	 2.366310912726909e+00
 1.604109095021363e+00	 9.679680113372132e-01	 2.356657108133913e+00
 1.696974630529512e+00	 8.145846929648082e-01	 2.762497414946032e+00
 1.689178118260765e+00	 8.306313869384492e-01	 2.764510643914854e+00
 1.681217254867131e+00	 8.466285306676240e-01	 2.734058393529634e+00
 1.673092380572644e+00	 8.625736674957397e-01	 2.678025120761163e+00
 1.664803883388218e+00	 8.784643401719195e-01	 2.603692238128345e+00
 1.656352199292954e+00	 8.942980919892130e-01	 2.518720781277241e+00
 1.647737812383569e+00	 9.100724679326290e-01	 2.431130972079214e+00
 1.638961254991470e+00	 9.257850158359557e-01	 2.349278598370481e+00
 1.630023107767036e+00	 9.414332875463270e-01	 2.281828147576161e+00
 1.620923999730693e+00	 9.570148400954669e-01	 2.237722648735215e+00
 1.611664608290443e+00	 9.725272368765220e-01	 2.226150195791573e+00
 1.536110182066576e+00	 9.269354077766122e-01	 3.035092669907120e+00
 1.527132791305695e+00	 9.416523586869447e-01	 2.969864651135548e+00
 1.518004062972558e+00	 9.562987755506877e-01	 2.905783758994835e+00
 1.508724783053639e+00	 9.708723627734075e-01	 2.842853757046399e+00
 1.499295783373475e+00	 9.853708353953261e-01	 2.780959118107930e+00
 1.489717941445333e+00	 9.997919202222378e-01	 2.719833230078631e+00
 1.479992180288704e+00	 1.014133356955129e+00	 2.659051769949499e+00
 1.470119468213546e+00	 1.028392899317367e+00	 2.599234574225585e+00
 1.460100818571260e+00	 1.042568316178337e+00	 2.539616221388717e+00
 1.449937289472463e+00	 1.056657392672377e+00	 2.478217079299055e+00
 1.439629983471600e+00	 1.070657931311884e+00	 2.412765973779121e+00
 1.543665502663949e+00	 9.314945170519777e-01	 2.989896644753956e+00
 1.534643956824760e+00	 9.462838529277522e-01	 2.930949119299723e+00
 1.525470329063080e+00	 9.610023078369365e-01	 2.875630875237522e+00
 1.516145409231251e+00	 9.756475748942754e-01	 2.823103243545447e+00
 1.506670033245125e+00	 9.902173579014734e-01	 2.772319315062917e+00
 1.497045082934008e+00	 1.004709372483678e+00	 2.721992210257750e+00
 1.487271485857252e+00	 1.019121347224653e+00	 2.670561570498161e+00
 1.477350215087430e+00	 1.033451024799512e+00	 2.616343601418223e+00
 1.467282288960102e+00	 1.047696163103880e+00	 2.558456420339182e+00
 1.457068770790184e+00	 1.061854536378336e+00	 2.493926303144574e+00
 1.446710768555018e+00	 1.075923936326990e+00	 2.418975979044592e+00
 1.551220861795396e+00	 9.360536495806617e-01	 2.939899055247035e+00
 1.542155160652689e+00	 9.509153707911350e-01	 2.889464675748082e+00
 1.532936633233446e+00	 9.657058641132331e-01	 2.843983663774413e+00
 1.523566073255896e+00	 9.804228113708188e-01	 2.801890255262832e+00
 1.514044320727234e+00	 9.950639051270245e-01	 2.761343256057112e+00
 1.504372261792829e+00	 1.009626849826293e+00	 2.720194352469911e+00
 1.494550828551916e+00	 1.024109362935106e+00	 2.675954666945375e+00
 1.484580998839716e+00	 1.038509176080270e+00	 2.625759658565160e+00
 1.474463795975967e+00	 1.052824036183593e+00	 2.566801794467708e+00
 1.464200288479920e+00	 1.067051706591839e+00	 2.496356156647026e+00
 1.453791589751842e+00	 1.081189968200777e+00	 2.409509895861861e+00
 1.558776255179390e+00	 9.406128027788884e-01	 2.883911995523664e+00
 1.549666398532978e+00	 9.555469096522795e-01	 2.843482715170264e+00
 1.540402971252602e+00	 9.704094417139244e-01	 2.808452747626600e+00
 1.530986770922394e+00	 9.851980694967543e-01	 2.776642997590150e+00
 1.521418641640915e+00	 9.999104743252769e-01	 2.745553306978215e+00
 1.511699473869616e+00	 1.014544349463179e+00	 2.712330783381223e+00
 1.501830204247639e+00	 1.029097401259614e+00	 2.673736364654452e+00
 1.491811815372873e+00	 1.043567350293024e+00	 2.626109719731452e+00
 1.481645335549267e+00	 1.057951932511356e+00	 2.565332602980176e+00
 1.471331838500422e+00	 1.072248900367507e+00	 2.487632868467147e+00
 1.460872443049564e+00	 1.086456023948855e+00	 2.388204044151306e+00
 1.566331678534406e+00	 9.451719740628823e-01	 2.820754746723355e+00
 1.557177666209127e+00	 9.601784668863710e-01	 2.791096224523894e+00
 1.547869338889494e+00	 9.751130379733581e-01	 2.766679289896082e+00
 1.538407498025565e+00	 9.899733465657978e-01	 2.744823734552222e+00
 1.528792991807278e+00	 1.004757062749529e+00	 2.722504014232347e+00
 1.519026715012187e+00	 1.019461868607437e+00	 2.696317572393712e+00
 1.509109608819361e+00	 1.034085459371301e+00	 2.662451358681906e+00
 1.499042660589376e+00	 1.048625544571160e+00	 2.616646642390873e+00
 1.488826903610410e+00	 1.063079849181050e+00	 2.554162238847232e+00
 1.478463416810444e+00	 1.077446114759960e+00	 2.469811582057670e+00
 1.467953324435676e+00	 1.091722100586833e+00	 2.358789961900879e+00
 1.573887127578916e+00	 9.497311608488682e-01	 2.749254271560833e+00
 1.564688959424633e+00	 9.648100398685951e-01	 2.730419952913060e+00
 1.555335731913071e+00	 9.798166502258812e-01	 2.716334967800577e+00
 1.545828250360228e+00	 9.947486398716654e-01	 2.703928695112573e+00
 1.536167367047434e+00	 1.009603667653077e+00	 2.689782070601483e+00
 1.526353981068362e+00	 1.024379404472165e+00	 2.670095883406727e+00
 1.516389038142021e+00	 1.039073534443294e+00	 2.640657193766723e+00
 1.506273530391697e+00	 1.053683756048060e+00	 2.596803972034457e+00
 1.496008496089809e+00	 1.068207783286553e+00	 2.533388077401582e+00
 1.485595019368734e+00	 1.082643346823816e+00	 2.444736712979736e+00
 1.475034229897670e+00	 1.096988195130322e+00	 2.324895212783541e+00
 1.581442598031394e+00	 9.542903605530698e-01	 2.668245723337604e+00
 1.572200273922992e+00	 9.694416259741379e-01	 2.659590605542725e+00
 1.562802146092280e+00	 9.845202758058416e-01	 2.655121976718916e+00
 1.553249023721202e+00	 9.995239467080732e-01	 2.651488011741889e+00
 1.543541763182496e+00	 1.014450286289221e+00	 2.645006311957276e+00
 1.533681267885961e+00	 1.029296954270462e+00	 2.631632152394738e+00
 1.523668488090563e+00	 1.044061623648717e+00	 2.606924744494109e+00
 1.513504420682306e+00	 1.058741981857107e+00	 2.566011614149518e+00
 1.503190108917871e+00	 1.073335731921745e+00	 2.503551213801841e+00
 1.492726642134045e+00	 1.087840593613695e+00	 2.413693906199805e+00
 1.482115155423036e+00	 1.102254304594929e+00	 2.290041476169814e+00
 1.588998085610311e+00	 9.588495705917116e-01	 2.576572968901232e+00
 1.579711605447703e+00	 9.740732225781839e-01	 2.576767060938583e+00
 1.570268577196068e+00	 9.892239120475869e-01	 2.580773063239742e+00
 1.560669813903308e+00	 1.004299264368737e+00	 2.585065690167361e+00
 1.550916176033572e+00	 1.019296915911257e+00	 2.585827743795232e+00
 1.541008571312801e+00	 1.034214515215427e+00	 2.578918289932529e+00
 1.530947954539925e+00	 1.049049724160696e+00	 2.559838712048538e+00
 1.520735327363677e+00	 1.063800219131686e+00	 2.523696742377894e+00
 1.510371738025008e+00	 1.078463692180506e+00	 2.465168589116964e+00
 1.499858281065129e+00	 1.093037852184217e+00	 2.378459298231545e+00
 1.489196096999267e+00	 1.107520425996264e+00	 2.257261507844952e+00
 1.596553586034144e+00	 9.634087883810178e-01	 2.473089125079569e+00
 1.587222949742264e+00	 9.787048270559200e-01	 2.480130610651818e+00
 1.577735020993383e+00	 9.939275562854638e-01	 2.491051586243306e+00
 1.568090616701363e+00	 1.009074590147373e+00	 2.502259609260507e+00
 1.558290601421774e+00	 1.024143553772483e+00	 2.509929596591912e+00
 1.548335887196703e+00	 1.039132084520157e+00	 2.509971907830711e+00
 1.538227433365048e+00	 1.054037833152356e+00	 2.497998136994517e+00
 1.527966246338281e+00	 1.068858465005180e+00	 2.469284711279021e+00
 1.517553379341630e+00	 1.083591661156715e+00	 2.418734415790920e+00
 1.506989932120735e+00	 1.098235119590002e+00	 2.340835983608609e+00
 1.496277050613855e+00	 1.112786556349938e+00	 2.229533403398532e+00
 1.604109095021363e+00	 9.679680113372132e-01	 2.356657108133913e+00
 1.594734302550172e+00	 9.833364367825309e-01	 2.367885220696748e+00
 1.585201473253172e+00	 9.986312058538210e-01	 2.383751605082001e+00
 1.575511427910188e+00	 1.013849921337697e+00	 2.400701550059888e+00
 1.565665035168214e+00	 1.028990197126197e+00	 2.415027409024130e+00
 1.555663211385484e+00	 1.044049659397754e+00	 2.422836569075240e+00
 1.545506920440873e+00	 1.059025947796823e+00	 2.420016927544073e+00
 1.535197173508592e+00	 1.073916716610972e+00	 2.402199973531362e+00
 1.524735028798148e+00	 1.088719635944252e+00	 2.364721593297957e+00
 1.514121591259616e+00	 1.103432392885668e+00	 2.302580739609722e+00
 1.503358012254291e+00	 1.118052692671558e+00	 2.208901587659656e+00
 1.611664608290443e+00	 9.725272368765220e-01	 2.226150195791572e+00
 1.602245659614925e+00	 9.879680491332032e-01	 2.238257813996781e+00
 1.592667929744381e+00	 1.003334858087005e+00	 2.256697993959306e+00
 1.582932243324602e+00	 1.018625255233427e+00	 2.278057252961461e+00
 1.573039473094003e+00	 1.033836843225697e+00	 2.298869138124489e+00
 1.562990539726966e+00	 1.048967237061314e+00	 2.315582060293989e+00
 1.552786411642341e+00	 1.064014065267221e+00	 2.324524402789069e+00
 1.542428104777079e+00	 1.078974971082447e+00	 2.321867001411533e+00
 1.531916682324971e+00	 1.093847613636997e+00	 2.303583114292998e+00
 1.521253254440523e+00	 1.108629669125836e+00	 2.265406022366500e+00
 1.510438977908069e+00	 1.123318831976734e+00	 2.198231574084065e+00
 1.439629983471600e+00	 1.070657931311884e+00	 2.412765973779121e+00
 1.429178259545016e+00	 1.084570108749448e+00	 2.356418116246159e+00
 1.418585053742233e+00	 1.098389370025116e+00	 2.324244397695866e+00
 1.407851606297432e+00	 1.112113567330683e+00	 2.316514610754017e+00
 1.396979200356835e+00	 1.125740574585664e+00	 2.327497772197562e+00
 1.385969161497703e+00	 1.139268288509219e+00	 2.353876715788926e+00
 1.374822857215517e+00	 1.152694629679524e+00	 2.397491497703466e+00
 1.363541696379728e+00	 1.166017543579481e+00	 2.460509390737159e+00
 1.352127128658505e+00	 1.179235001627677e+00	 2.545424708121550e+00
 1.340580643912978e+00	 1.192345002193526e+00	 2.655057225607869e+00
 1.328903771561460e+00	 1.205345571595528e+00	 2.792549189703336e+00
 1.446710768555018e+00	 1.075923936326990e+00	 2.418975979044591e+00
 1.436207638078101e+00	 1.089904540471294e+00	 2.347592541095091e+00
 1.425562329849847e+00	 1.103791771447829e+00	 2.297740381581128e+00
 1.414776090204504e+00	 1.117583470884436e+00	 2.270043086995846e+00
 1.403850208599420e+00	 1.131277502243543e+00	 2.258335980940030e+00
 1.392786017131682e+00	 1.144871751899366e+00	 2.264259852255146e+00
 1.381584890022769e+00	 1.158364130202484e+00	 2.291521016789816e+00
 1.370248243071623e+00	 1.171752572530697e+00	 2.344259925192927e+00
 1.358777533076577e+00	 1.185035040325052e+00	 2.427048629277015e+00
 1.347174257226612e+00	 1.198209522109982e+00	 2.544886652847739e+00
 1.335439952462451e+00	 1.211274034496471e+00	 2.703195257988980e+00
 1.453791589751842e+00	 1.081189968200777e+00	 2.409509895861861e+00
 1.443237052462367e+00	 1.095238999400726e+00	 2.322293021483523e+00
 1.432539641542876e+00	 1.109194200424686e+00	 2.256355653972062e+00
 1.421700609427711e+00	 1.123053402336496e+00	 2.210419961260675e+00
 1.410721251885383e+00	 1.136814458141450e+00	 2.181005963196078e+00
 1.399602907532831e+00	 1.150475243868766e+00	 2.172575636239972e+00
 1.388346957317566e+00	 1.164033659641381e+00	 2.190212723529690e+00
 1.376954823968062e+00	 1.177487630731942e+00	 2.239506875127296e+00
 1.365427971412847e+00	 1.190835108603911e+00	 2.326549351313242e+00
 1.353767904168788e+00	 1.204074071936691e+00	 2.457926986245454e+00
 1.341976166699057e+00	 1.217202527633707e+00	 2.640714405195627e+00
 1.460872443049564e+00	 1.086456023948855e+00	 2.388204044151306e+00
 1.450266498714448e+00	 1.100573482514591e+00	 2.285961348040297e+00
 1.439516984867485e+00	 1.114596653894036e+00	 2.206285507980547e+00
 1.428625160043144e+00	 1.128523358586982e+00	 2.144805342544708e+00
 1.417592326321118e+00	 1.142351439141542e+00	 2.102893295626177e+00
 1.406419828838237e+00	 1.156078761241895e+00	 2.085981864563629e+00
 1.395109055268068e+00	 1.169703214783290e+00	 2.100050085927367e+00
 1.383661435268645e+00	 1.183222714933180e+00	 2.151619884699136e+00
 1.372078439898727e+00	 1.196635203177400e+00	 2.247750604347467e+00
 1.360361581003097e+00	 1.209938648350282e+00	 2.396031702458674e+00
 1.348512410567412e+00	 1.223131047647648e+00	 2.604573606478573e+00
 1.467953324435676e+00	 1.091722100586833e+00	 2.358789961900879e+00
 1.457295972850974e+00	 1.105907986789738e+00	 2.243902974525193e+00
 1.446494355869842e+00	 1.119999128794229e+00	 2.152582340620179e+00
 1.435549738126890e+00	 1.133993336536009e+00	 2.080214627629528e+00
 1.424463428013025e+00	 1.147888442105974e+00	 2.031235038030762e+00
 1.413236777184987e+00	 1.161682300843225e+00	 2.011492713381939e+00
 1.401871180042429e+00	 1.175372792415285e+00	 2.027386415754017e+00
 1.390368073172970e+00	 1.188957821884376e+00	 2.085860335199236e+00
 1.378728934765629e+00	 1.202435320758665e+00	 2.194398032023529e+00
 1.366955283993134e+00	 1.215803248027381e+00	 2.361014498690935e+00
 1.355048680363653e+00	 1.229059591178706e+00	 2.594246336384792e+00
 1.475034229897670e+00	 1.096988195130322e+00	 2.324895212783541e+00
 1.464325470888582e+00	 1.111242509203015e+00	 2.201287963159779e+00
 1.453471750596112e+00	 1.125401622063611e+00	 2.101347596893875e+00
 1.442474339755039e+00	 1.139463333083694e+00	 2.023522657972149e+00
 1.431334553067501e+00	 1.153425463896903e+00	 1.973123995591980e+00
 1.420053748710169e+00	 1.167285859497232e+00	 1.955982895568003e+00
 1.408633327808805e+00	 1.181042389324441e+00	 1.978448713971228e+00
 1.397074733880639e+00	 1.194692948335492e+00	 2.047384674694034e+00
 1.385379452244967e+00	 1.208235458060854e+00	 2.170161804990656e+00
 1.373549009402492e+00	 1.221667867644615e+00	 2.354650993214808e+00
 1.361584972383916e+00	 1.234988154867292e+00	 2.609213163379781e+00
 1.482115155423036e+00	 1.102254304594929e+00	 2.290041476169814e+00
 1.471354988843903e+00	 1.116577046731271e+00	 2.162193318739880e+00
 1.460449165092463e+00	 1.130804130640535e+00	 2.058671514742461e+00
 1.449398961003681e+00	 1.144933345130152e+00	 1.981467778347930e+00
 1.438205697590944e+00	 1.158962501376486e+00	 1.935512879989817e+00
 1.426870739550870e+00	 1.172889434028388e+00	 1.926191720072038e+00
 1.415395494735353e+00	 1.186712002297834e+00	 1.959341427130275e+00
 1.403781413591250e+00	 1.200428091036492e+00	 2.041247673442383e+00
 1.392029988568154e+00	 1.214035611797111e+00	 2.178639180654221e+00
 1.380142753494762e+00	 1.227532503878613e+00	 2.378680398264934e+00
 1.368121282924333e+00	 1.240916735353818e+00	 2.648962348333787e+00
 1.489196096999267e+00	 1.107520425996264e+00	 2.257261507844952e+00
 1.478384522733568e+00	 1.121911596351353e+00	 2.130659026784292e+00
 1.467426595405061e+00	 1.136206651463346e+00	 2.030523501371938e+00
 1.456323597948904e+00	 1.150403369575501e+00	 1.960655800487956e+00
 1.445076857689750e+00	 1.164499551406878e+00	 1.925218372729028e+00
 1.433687745844180e+00	 1.178493021261167e+00	 1.928727056493112e+00
 1.422157676990231e+00	 1.192381628122537e+00	 1.976050117682219e+00
 1.410488108504401e+00	 1.206163246737341e+00	 2.072405607529892e+00
 1.398680539966603e+00	 1.219835778680583e+00	 2.223357010963499e+00
 1.386736512533540e+00	 1.233397153406000e+00	 2.434807166200779e+00
 1.374657608281044e+00	 1.246845329278696e+00	 2.712990446820529e+00
 1.496277050613855e+00	 1.112786556349938e+00	 2.229533403398532e+00
 1.485414068574213e+00	 1.127246155040111e+00	 2.111411473842353e+00
 1.474404037580072e+00	 1.141609181470395e+00	 2.022755712450107e+00
 1.463248246666797e+00	 1.155873403319857e+00	 1.967563874829257e+00
 1.451948029470316e+00	 1.170036610850236e+00	 1.948925093887098e+00
 1.440504763727184e+00	 1.184096618020045e+00	 1.970069207973356e+00
 1.428919870741593e+00	 1.198051263585625e+00	 2.034445051022543e+00
 1.417194814819693e+00	 1.211898412188002e+00	 2.145719373072529e+00
 1.405331102671727e+00	 1.225635955424417e+00	 2.307774199934266e+00
 1.393330282782418e+00	 1.239261812903405e+00	 2.524702609804764e+00
 1.381193944750181e+00	 1.252773933282339e+00	 2.800802915086374e+00
 1.503358012254291e+00	 1.118052692671558e+00	 2.208901587659656e+00
 1.492443622382469e+00	 1.132580719774393e+00	 2.108810983752601e+00
 1.481381487663662e+00	 1.147011717600031e+00	 2.041106550507203e+00
 1.470172903233450e+00	 1.161343443263336e+00	 2.008544273378925e+00
 1.458819209039041e+00	 1.175573676568716e+00	 2.013189479372206e+00
 1.447321789336972e+00	 1.189700221129493e+00	 2.056574695408421e+00
 1.435682072157595e+00	 1.203720905474172e+00	 2.140284701987639e+00
 1.423901528736725e+00	 1.217633584138439e+00	 2.265957533252372e+00
 1.411981672914939e+00	 1.231436138741759e+00	 2.435284112539818e+00
 1.399924060504986e+00	 1.245126479047455e+00	 2.650006497548129e+00
 1.387730288627881e+00	 1.258702544005156e+00	 2.911914719552943e+00
 1.510438977908069e+00	 1.123318831976734e+00	 2.198231574084065e+00
 1.499473180174970e+00	 1.137915287531046e+00	 2.127494009078744e+00
 1.488358941701999e+00	 1.152414256790601e+00	 2.091055731788485e+00
 1.477097563724953e+00	 1.166813486306054e+00	 2.089828086580479e+00
 1.465690392502321e+00	 1.181110745424474e+00	 2.124443569664317e+00
 1.454138818810631e+00	 1.195303827413987e+00	 2.194479955855306e+00
 1.442444277406394e+00	 1.209390550575254e+00	 2.299219183418209e+00
 1.430608246455096e+00	 1.223368759338615e+00	 2.437799300363272e+00
 1.418632246927650e+00	 1.237236325345754e+00	 2.609216936542358e+00
 1.406517841964842e+00	 1.250991148514776e+00	 2.812328624625293e+00
 1.394266636210279e+00	 1.264631158087561e+00	 3.045850949720185e+00
 1.328903771561460e+00	 1.205345571595528e+00	 2.792549189703336e+00
 1.317100094016168e+00	 1.218232587233964e+00	 2.948059389757362e+00
 1.305169225639270e+00	 1.231006371939438e+00	 3.106954669360625e+00
 1.293112788547912e+00	 1.243665063654852e+00	 3.265056053670849e+00
 1.280932441560393e+00	 1.256206832054128e+00	 3.417793055957215e+00
 1.268629879430219e+00	 1.268629879430219e+00	 3.560205447350109e+00
 1.256206832054128e+00	 1.280932441560393e+00	 3.686944715754393e+00
 1.243665063654852e+00	 1.293112788547913e+00	 3.792275240894373e+00
 1.231006371939438e+00	 1.305169225639270e+00	 3.870075218406854e+00
 1.218232587233963e+00	 1.317100094016168e+00	 3.913837371585896e+00
 1.205345571595528e+00	 1.328903771561460e+00	 3.916669494758508e+00
 1.335439952462451e+00	 1.211274034496471e+00	 2.703195257988980e+00
 1.323578218816319e+00	 1.224224434607888e+00	 2.888744773347644e+00
 1.311588668753623e+00	 1.237061046862685e+00	 3.081002226860606e+00
 1.299472932369836e+00	 1.249782000045293e+00	 3.274317839521127e+00
 1.287232676642098e+00	 1.262385454827237e+00	 3.462596979819350e+00
 1.274869604659506e+00	 1.274869604659506e+00	 3.639304074787359e+00
 1.262385454827237e+00	 1.287232676642098e+00	 3.797466251362361e+00
 1.249782000045293e+00	 1.299472932369836e+00	 3.929676732261865e+00
 1.237061046862685e+00	 1.311588668753623e+00	 4.028098016617404e+00
 1.224224434607888e+00	 1.323578218816319e+00	 4.084464881405451e+00
 1.211274034496471e+00	 1.335439952462451e+00	 4.090087245195590e+00
 1.341976166699057e+00	 1.217202527633707e+00	 2.640714405195627e+00
 1.330056376655977e+00	 1.230216312541315e+00	 2.857079851875551e+00
 1.318008144608183e+00	 1.243115752665815e+00	 3.080119646405665e+00
 1.305833108629521e+00	 1.255898967633128e+00	 3.303200019096112e+00
 1.293532943856018e+00	 1.268564109112330e+00	 3.519220670465575e+00
 1.281109361712400e+00	 1.281109361712400e+00	 3.720620080855266e+00
 1.268564109112330e+00	 1.293532943856017e+00	 3.899380545802651e+00
 1.255898967633128e+00	 1.305833108629521e+00	 4.047032959921510e+00
 1.243115752665815e+00	 1.318008144608184e+00	 4.154661378286788e+00
 1.230216312541315e+00	 1.330056376655977e+00	 4.212907390311766e+00
 1.217202527633707e+00	 1.341976166699057e+00	 4.211974346779060e+00
 1.348512410567412e+00	 1.223131047647648e+00	 2.604573606478573e+00
 1.336534563864171e+00	 1.236208217638752e+00	 2.850145174081002e+00
 1.324427649565231e+00	 1.249170485917754e+00	 3.099405928696838e+00
 1.312193313722846e+00	 1.262015962952014e+00	 3.345217082061899e+00
 1.299833239631967e+00	 1.274742791408118e+00	 3.579983004627184e+00
 1.287349147052996e+00	 1.287349147052996e+00	 3.795657197220264e+00
 1.274742791408118e+00	 1.299833239631967e+00	 3.983747938489779e+00
 1.262015962952014e+00	 1.312193313722847e+00	 4.135323630750686e+00
 1.249170485917754e+00	 1.324427649565231e+00	 4.241017873393696e+00
 1.236208217638751e+00	 1.336534563864170e+00	 4.291034299299358e+00
 1.223131047647648e+00	 1.348512410567413e+00	 4.275151215650821e+00
 1.355048680363653e+00	 1.229059591178706e+00	 2.594246336384792e+00
 1.343012776769932e+00	 1.242200146504712e+00	 2.865074004048235e+00
 1.330847179987044e+00	 1.255225243187424e+00	 3.134051132888810e+00
 1.318553544045686e+00	 1.268132982535606e+00	 3.394005199486974e+00
 1.306133560399765e+00	 1.280921498213315e+00	 3.637347602022734e+00
 1.293588957145393e+00	 1.293588957145393e+00	 3.856079563542928e+00
 1.280921498213315e+00	 1.306133560399765e+00	 4.041797615904303e+00
 1.268132982535605e+00	 1.318553544045686e+00	 4.185698688191405e+00
 1.255225243187424e+00	 1.330847179987044e+00	 4.278584830341743e+00
 1.242200146504711e+00	 1.343012776769932e+00	 4.310867609366174e+00
 1.229059591178706e+00	 1.355048680363653e+00	 4.272572221873252e+00
 1.361584972383916e+00	 1.234988154867292e+00	 2.609213163379781e+00
 1.349491011702289e+00	 1.248192095743705e+00	 2.899051809417097e+00
 1.337266732235900e+00	 1.261280021043750e+00	 3.179334945559608e+00
 1.324913795993914e+00	 1.274250022917558e+00	 3.443320057022327e+00
 1.312433902589228e+00	 1.287100226026631e+00	 3.683920102439473e+00
 1.299828788453687e+00	 1.299828788453687e+00	 3.893708624253742e+00
 1.287100226026631e+00	 1.312433902589228e+00	 4.064924299824801e+00
 1.274250022917558e+00	 1.324913795993915e+00	 4.189474959538708e+00
 1.261280021043750e+00	 1.337266732235901e+00	 4.258941105615600e+00
 1.248192095743705e+00	 1.349491011702289e+00	 4.264578972436667e+00
 1.234988154867292e+00	 1.361584972383916e+00	 4.197323175986488e+00
 1.368121282924333e+00	 1.240916735353818e+00	 2.648962348333787e+00
 1.355969264990275e+00	 1.254184061960244e+00	 2.949315785134842e+00
 1.343686302674079e+00	 1.267334816055656e+00	 3.230625311445025e+00
 1.331274065963408e+00	 1.280367080631528e+00	 3.487034770817451e+00
 1.318734262630171e+00	 1.293278971346777e+00	 3.712445541375860e+00
 1.306068637441975e+00	 1.306068637441975e+00	 3.900520134680850e+00
 1.293278971346777e+00	 1.318734262630171e+00	 4.044685050783314e+00
 1.280367080631528e+00	 1.331274065963408e+00	 4.138132919523581e+00
 1.267334816055655e+00	 1.343686302674080e+00	 4.173823966125254e+00
 1.254184061960244e+00	 1.355969264990276e+00	 4.144486846815305e+00
 1.240916735353818e+00	 1.368121282924333e+00	 4.042618907516375e+00
 1.374657608281044e+00	 1.246845329278696e+00	 2.712990446820529e+00
 1.362447532962918e+00	 1.260176041758838e+00	 3.013154411554807e+00
 1.350105887663859e+00	 1.273389624792064e+00	 3.283377123875361e+00
 1.337634350350043e+00	 1.286484152211171e+00	 3.519137883414674e+00
 1.325034636952411e+00	 1.299457730672467e+00	 3.715805820963371e+00
 1.312308500574354e+00	 1.312308500574354e+00	 3.868641272890245e+00
 1.299457730672467e+00	 1.325034636952411e+00	 3.972796182910271e+00
 1.286484152211171e+00	 1.337634350350043e+00	 4.023313566321256e+00
 1.273389624792063e+00	 1.350105887663859e+00	 4.015126080488987e+00
 1.260176041758837e+00	 1.362447532962919e+00	 3.943053753691265e+00
 1.246845329278697e+00	 1.374657608281044e+00	 3.801800932371016e+00
 1.381193944750181e+00	 1.252773933282339e+00	 2.800802915086374e+00
 1.368925811949249e+00	 1.266168031743997e+00	 3.087907045733008e+00
 1.356525483567518e+00	 1.279444443821899e+00	 3.333130972928969e+00
 1.343994645549694e+00	 1.292601234190142e+00	 3.533731436967783e+00
 1.331335021985766e+00	 1.305636500502410e+00	 3.687017273008649e+00
 1.318548374314922e+00	 1.318548374314922e+00	 3.790347853735539e+00
 1.305636500502410e+00	 1.331335021985766e+00	 3.841130286478843e+00
 1.292601234190142e+00	 1.343994645549694e+00	 3.836815406260813e+00
 1.279444443821899e+00	 1.356525483567518e+00	 3.774892615645910e+00
 1.266168031743997e+00	 1.368925811949250e+00	 3.652883631345763e+00
 1.252773933282338e+00	 1.381193944750181e+00	 3.468335206178550e+00
 1.387730288627881e+00	 1.258702544005156e+00	 2.911914719552943e+00
 1.375404098278298e+00	 1.272160028520235e+00	 3.170963544815911e+00
 1.362945086747335e+00	 1.285499269714085e+00	 3.375511949391091e+00
 1.350354947958237e+00	 1.298718323102097e+00	 3.525029121229571e+00
 1.337635414160051e+00	 1.311815277335320e+00	 3.619228311115237e+00
 1.324788255127775e+00	 1.324788255127775e+00	 3.658061641745260e+00
 1.311815277335320e+00	 1.337635414160052e+00	 3.641713354596622e+00
 1.298718323102097e+00	 1.350354947958238e+00	 3.570591543651035e+00
 1.285499269714085e+00	 1.362945086747336e+00	 3.445318435323972e+00
 1.272160028520235e+00	 1.375404098278298e+00	 3.266719283838265e+00
 1.258702544005156e+00	 1.387730288627881e+00	 3.035809960728991e+00
 1.394266636210279e+00	 1.264631158087561e+00	 3.045850949720185e+00
 1.381882388279096e+00	 1.278152028692061e+00	 3.259763920453539e+00
 1.369364693565589e+00	 1.291554099037546e+00	 3.406228502677175e+00
 1.356715253971548e+00	 1.304835415480692e+00	 3.487354493847906e+00
 1.343935809905084e+00	 1.317994057669907e+00	 3.505717168956674e+00
 1.331028139477010e+00	 1.331028139477010e+00	 3.464347759600885e+00
 1.317994057669907e+00	 1.343935809905085e+00	 3.366722010624227e+00
 1.304835415480692e+00	 1.356715253971548e+00	 3.216746872270737e+00
 1.291554099037545e+00	 1.369364693565589e+00	 3.018745397018451e+00
 1.278152028692060e+00	 1.381882388279097e+00	 2.777439921067923e+00
 1.264631158087562e+00	 1.394266636210279e+00	 2.497933620788061e+00
 1.205345571595528e+00	 1.328903771561460e+00	 3.916669494758508e+00
 1.192345002193527e+00	 1.340580643912977e+00	 3.873994790033611e+00
 1.179235001627678e+00	 1.352127128658504e+00	 3.789511637845301e+00
 1.166017543579482e+00	 1.363541696379727e+00	 3.668820575106493e+00
 1.152694629679524e+00	 1.374822857215517e+00	 3.518010725816255e+00
 1.139268288509220e+00	 1.385969161497703e+00	 3.343638611280183e+00
 1.125740574585664e+00	 1.396979200356834e+00	 3.152705991352085e+00
 1.112113567330684e+00	 1.407851606297432e+00	 2.952636848554730e+00
 1.098389370025117e+00	 1.418585053742233e+00	 2.754331645710622e+00
 1.084570108749449e+00	 1.429178259545016e+00	 2.570534266068340e+00
 1.070657931311884e+00	 1.439629983471600e+00	 2.410543502102174e+00
 1.211274034496471e+00	 1.335439952462451e+00	 4.090087245195590e+00
 1.198209522109982e+00	 1.347174257226611e+00	 4.044874737264372e+00
 1.185035040325052e+00	 1.358777533076577e+00	 3.958401798721551e+00
 1.171752572530697e+00	 1.370248243071622e+00	 3.836488390162941e+00
 1.158364130202485e+00	 1.381584890022768e+00	 3.685392878376728e+00
 1.144871751899366e+00	 1.392786017131682e+00	 3.511790197101190e+00
 1.131277502243543e+00	 1.403850208599420e+00	 3.322749093485179e+00
 1.117583470884436e+00	 1.414776090204503e+00	 3.125708575360471e+00
 1.103791771447830e+00	 1.425562329849847e+00	 2.929476033378594e+00
 1.089904540471294e+00	 1.436207638078100e+00	 2.747913199915454e+00
 1.075923936326989e+00	 1.446710768555017e+00	 2.590926586171070e+00
 1.217202527633707e+00	 1.341976166699057e+00	 4.211974346779061e+00
 1.204074071936692e+00	 1.353767904168787e+00	 4.156662198424126e+00
 1.190835108603912e+00	 1.365427971412846e+00	 4.062248428400484e+00
 1.177487630731942e+00	 1.376954823968060e+00	 3.934611843593424e+00
 1.164033659641382e+00	 1.388346957317566e+00	 3.780017621437505e+00
 1.150475243868767e+00	 1.399602907532831e+00	 3.605095071157176e+00
 1.136814458141450e+00	 1.410721251885382e+00	 3.416814535984888e+00
 1.123053402336496e+00	 1.421700609427711e+00	 3.222463554357685e+00
 1.109194200424686e+00	 1.432539641542875e+00	 3.029692426121068e+00
 1.095238999400726e+00	 1.443237052462367e+00	 2.851088552031948e+00
 1.081189968200777e+00	 1.453791589751842e+00	 2.698118753323366e+00
 1.223131047647648e+00	 1.348512410567413e+00	 4.275151215650821e+00
 1.209938648350283e+00	 1.360361581003097e+00	 4.203278916879228e+00
 1.196635203177400e+00	 1.372078439898725e+00	 4.096049215940586e+00
 1.183222714933181e+00	 1.383661435268644e+00	 3.959242065941498e+00
 1.169703214783291e+00	 1.395109055268068e+00	 3.798969914378504e+00
 1.156078761241896e+00	 1.406419828838236e+00	 3.621655312187348e+00
 1.142351439141542e+00	 1.417592326321117e+00	 3.434007719614698e+00
 1.128523358586982e+00	 1.428625160043143e+00	 3.242999629451937e+00
 1.114596653894037e+00	 1.439516984867485e+00	 3.055842131659384e+00
 1.100573482514591e+00	 1.450266498714447e+00	 2.882141611210218e+00
 1.086456023948855e+00	 1.460872443049564e+00	 2.735185900648842e+00
 1.229059591178706e+00	 1.355048680363653e+00	 4.272572221873252e+00
 1.215803248027382e+00	 1.366955283993134e+00	 4.178759007642984e+00
 1.202435320758666e+00	 1.378728934765628e+00	 4.054893095859724e+00
 1.188957821884376e+00	 1.390368073172970e+00	 3.906500709569838e+00
 1.175372792415286e+00	 1.401871180042428e+00	 3.739384863682866e+00
 1.161682300843226e+00	 1.413236777184986e+00	 3.559603066572613e+00
 1.147888442105974e+00	 1.424463428013025e+00	 3.373444274894440e+00
 1.133993336536010e+00	 1.435549738126889e+00	 3.187405224346745e+00
 1.119999128794229e+00	 1.446494355869842e+00	 3.008166262571760e+00
 1.105907986789738e+00	 1.457295972850975e+00	 2.843097584250433e+00
 1.091722100586834e+00	 1.467953324435676e+00	 2.705118903806881e+00
 1.234988154867292e+00	 1.361584972383916e+00	 4.197323175986488e+00
 1.221667867644616e+00	 1.373549009402491e+00	 4.077246948797190e+00
 1.208235458060854e+00	 1.385379452244967e+00	 3.933958732295342e+00
 1.194692948335492e+00	 1.397074733880638e+00	 3.772578914752053e+00
 1.181042389324442e+00	 1.408633327808805e+00	 3.598447161476040e+00
 1.167285859497232e+00	 1.420053748710168e+00	 3.417100451165885e+00
 1.153425463896904e+00	 1.431334553067501e+00	 3.234250422396632e+00
 1.139463333083695e+00	 1.442474339755039e+00	 3.055760154814292e+00
 1.125401622063612e+00	 1.453471750596112e+00	 2.887620513058985e+00
 1.111242509203016e+00	 1.464325470888582e+00	 2.735926184065203e+00
 1.096988195130322e+00	 1.475034229897669e+00	 2.610835024208595e+00
 1.240916735353818e+00	 1.368121282924333e+00	 4.042618907516375e+00
 1.227532503878613e+00	 1.380142753494762e+00	 3.892995650292798e+00
 1.214035611797111e+00	 1.392029988568154e+00	 3.728513066303270e+00
 1.200428091036492e+00	 1.403781413591249e+00	 3.553736324955079e+00
 1.186712002297834e+00	 1.415395494735354e+00	 3.373390559564030e+00
 1.172889434028388e+00	 1.426870739550870e+00	 3.192339478148196e+00
 1.158962501376486e+00	 1.438205697590943e+00	 3.015563341776393e+00
 1.144933345130153e+00	 1.449398961003680e+00	 2.848136436550450e+00
 1.130804130640535e+00	 1.460449165092463e+00	 2.695204168733526e+00
 1.116577046731271e+00	 1.471354988843902e+00	 2.561959915130679e+00
 1.102254304594929e+00	 1.482115155423035e+00	 2.455170726300791e+00
 1.246845329278697e+00	 1.374657608281044e+00	 3.801800932371016e+00
 1.233397153406001e+00	 1.386736512533540e+00	 3.620364597550991e+00
 1.219835778680584e+00	 1.398680539966603e+00	 3.433909924187885e+00
 1.206163246737342e+00	 1.410488108504401e+00	 3.246300149668162e+00
 1.192381628122537e+00	 1.422157676990230e+00	 3.061497377780287e+00
 1.178493021261168e+00	 1.433687745844179e+00	 2.883542001167218e+00
 1.164499551406879e+00	 1.445076857689749e+00	 2.716531549232138e+00
 1.150403369575502e+00	 1.456323597948904e+00	 2.564599088747954e+00
 1.136206651463347e+00	 1.467426595405061e+00	 2.431891307844075e+00
 1.121911596351354e+00	 1.478384522733568e+00	 2.322546416609300e+00
 1.107520425996265e+00	 1.489196096999267e+00	 2.239667071174451e+00
 1.252773933282338e+00	 1.381193944750181e+00	 3.468335206178550e+00
 1.239261812903406e+00	 1.393330282782417e+00	 3.253818067382028e+00
 1.225635955424418e+00	 1.405331102671726e+00	 3.045588684835908e+00
 1.211898412188003e+00	 1.417194814819693e+00	 2.846664273195253e+00
 1.198051263585625e+00	 1.428919870741592e+00	 2.660098045495563e+00
 1.184096618020045e+00	 1.440504763727184e+00	 2.488959682042152e+00
 1.170036610850236e+00	 1.451948029470316e+00	 2.336315283105480e+00
 1.155873403319858e+00	 1.463248246666797e+00	 2.205206933515326e+00
 1.141609181470396e+00	 1.474404037580072e+00	 2.098632010663148e+00
 1.127246155040112e+00	 1.485414068574213e+00	 2.019227339210395e+00
 1.112786556349938e+00	 1.496277050613855e+00	 1.966202249028245e+00
 1.258702544005156e+00	 1.387730288627881e+00	 3.035809960728991e+00
 1.245126479047455e+00	 1.399924060504985e+00	 2.787923413832151e+00
 1.231436138741759e+00	 1.411981672914938e+00	 2.559073004101301e+00
 1.217633584138439e+00	 1.423901528736724e+00	 2.351288407886881e+00
 1.203720905474172e+00	 1.435682072157594e+00	 2.166570675186899e+00
 1.189700221129493e+00	 1.447321789336972e+00	 2.006873977345227e+00
 1.175573676568716e+00	 1.458819209039040e+00	 1.874086897338847e+00
 1.161343443263336e+00	 1.470172903233450e+00	 1.770013391264442e+00
 1.147011717600031e+00	 1.481381487663662e+00	 1.696353553049568e+00
 1.132580719774393e+00	 1.492443622382469e+00	 1.652457807773490e+00
 1.118052692671557e+00	 1.503358012254291e+00	 1.636809421806797e+00
 1.264631158087562e+00	 1.394266636210279e+00	 2.497933620788061e+00
 1.250991148514777e+00	 1.406517841964841e+00	 2.217349421657383e+00
 1.237236325345755e+00	 1.418632246927651e+00	 1.969969594360962e+00
 1.223368759338615e+00	 1.430608246455096e+00	 1.756697290343552e+00
 1.209390550575255e+00	 1.442444277406394e+00	 1.578340667002872e+00
 1.195303827413988e+00	 1.454138818810630e+00	 1.435596144195344e+00
 1.181110745424474e+00	 1.465690392502321e+00	 1.329031262519310e+00
 1.166813486306055e+00	 1.477097563724952e+00	 1.259067272183808e+00
 1.152414256790601e+00	 1.488358941701999e+00	 1.225192608110473e+00
 1.137915287531047e+00	 1.499473180174970e+00	 1.223986512486464e+00
 1.123318831976734e+00	 1.510438977908068e+00	 1.254023365395492e+00
 1.070657931311884e+00	 1.439629983471600e+00	 2.410543502102174e+00
 1.056657392672377e+00	 1.449937289472463e+00	 2.293341737962848e+00
 1.042568316178337e+00	 1.460100818571260e+00	 2.228608873531186e+00
 1.028392899317367e+00	 1.470119468213545e+00	 2.211608504650729e+00
 1.014133356955129e+00	 1.479992180288705e+00	 2.237130373584846e+00
 9.997919202222384e-01	 1.489717941445333e+00	 2.297539842742953e+00
 9.853708353953267e-01	 1.499295783373474e+00	 2.383174584409376e+00
 9.708723627734085e-01	 1.508724783053639e+00	 2.487292831974324e+00
 9.562987755506887e-01	 1.518004062972557e+00	 2.602894379547252e+00
 9.416523586869459e-01	 1.527132791305695e+00	 2.722671029500540e+00
 9.269354077766124e-01	 1.536110182066576e+00	 2.839019800914862e+00
 1.075923936326989e+00	 1.446710768555017e+00	 2.590926586171070e+00
 1.061854536378336e+00	 1.457068770790184e+00	 2.472984471968752e+00
 1.047696163103880e+00	 1.467282288960102e+00	 2.400003073561949e+00
 1.033451024799512e+00	 1.477350215087430e+00	 2.368248203383121e+00
 1.019121347224654e+00	 1.487271485857252e+00	 2.372675707878044e+00
 1.004709372483679e+00	 1.497045082934007e+00	 2.404639698412173e+00
 9.902173579014739e-01	 1.506670033245124e+00	 2.458631753964897e+00
 9.756475748942761e-01	 1.516145409231250e+00	 2.529366221723998e+00
 9.610023078369375e-01	 1.525470329063079e+00	 2.611329609598171e+00
 9.462838529277534e-01	 1.534643956824760e+00	 2.698790921402678e+00
 9.314945170519781e-01	 1.543665502663949e+00	 2.785812032608606e+00
 1.081189968200777e+00	 1.453791589751842e+00	 2.698118753323366e+00
 1.067051706591839e+00	 1.464200288479920e+00	 2.581553534041690e+00
 1.052824036183593e+00	 1.474463795975967e+00	 2.504341197145647e+00
 1.038509176080270e+00	 1.484580998839715e+00	 2.463279849519328e+00
 1.024109362935107e+00	 1.494550828551916e+00	 2.451164170699758e+00
 1.009626849826293e+00	 1.504372261792829e+00	 2.462882435500552e+00
 9.950639051270254e-01	 1.514044320727234e+00	 2.494422768590833e+00
 9.804228113708195e-01	 1.523566073255896e+00	 2.541615856292329e+00
 9.657058641132339e-01	 1.532936633233445e+00	 2.600143108038093e+00
 9.509153707911361e-01	 1.542155160652688e+00	 2.665544761737887e+00
 9.360536495806618e-01	 1.551220861795396e+00	 2.733227933453590e+00
 1.086456023948855e+00	 1.460872443049564e+00	 2.735185900648842e+00
 1.072248900367507e+00	 1.471331838500423e+00	 2.622983280680806e+00
 1.057951932511357e+00	 1.481645335549267e+00	 2.546195189480577e+00
 1.043567350293024e+00	 1.491811815372873e+00	 2.499631448953307e+00
 1.029097401259614e+00	 1.501830204247639e+00	 2.477766189582529e+00
 1.014544349463180e+00	 1.511699473869615e+00	 2.477463485524033e+00
 9.999104743252775e-01	 1.521418641640915e+00	 2.495489046315770e+00
 9.851980694967550e-01	 1.530986770922394e+00	 2.528516864725362e+00
 9.704094417139253e-01	 1.540402971252601e+00	 2.573135720206976e+00
 9.555469096522805e-01	 1.549666398532978e+00	 2.625855541190225e+00
 9.406128027788887e-01	 1.558776255179391e+00	 2.683113630859117e+00
 1.091722100586834e+00	 1.467953324435676e+00	 2.705118903806882e+00
 1.077446114759960e+00	 1.478463416810444e+00	 2.601116388001929e+00
 1.063079849181050e+00	 1.488826903610410e+00	 2.528685291426618e+00
 1.048625544571160e+00	 1.499042660589376e+00	 2.481794337238580e+00
 1.034085459371302e+00	 1.509109608819360e+00	 2.457613171662822e+00
 1.019461868607437e+00	 1.519026715012187e+00	 2.453477275099233e+00
 1.004757062749529e+00	 1.528792991807277e+00	 2.466675783947493e+00
 9.899733465657985e-01	 1.538407498025565e+00	 2.494457018811458e+00
 9.751130379733587e-01	 1.547869338889493e+00	 2.534033796243595e+00
 9.601784668863719e-01	 1.557177666209127e+00	 2.582588530460606e+00
 9.451719740628828e-01	 1.566331678534407e+00	 2.637278133039962e+00
 1.096988195130322e+00	 1.475034229897669e+00	 2.610835024208595e+00
 1.082643346823816e+00	 1.485595019368734e+00	 2.519309819628903e+00
 1.068207783286553e+00	 1.496008496089809e+00	 2.455011550570066e+00
 1.053683756048060e+00	 1.506273530391696e+00	 2.414625410531732e+00
 1.039073534443295e+00	 1.516389038142022e+00	 2.395737654908723e+00
 1.024379404472166e+00	 1.526353981068362e+00	 2.395919963281276e+00
 1.009603667653078e+00	 1.536167367047434e+00	 2.412734571734398e+00
 9.947486398716660e-01	 1.545828250360228e+00	 2.443739126714340e+00
 9.798166502258819e-01	 1.555335731913070e+00	 2.486491267314433e+00
 9.648100398685961e-01	 1.564688959424632e+00	 2.538552944757703e+00
 9.497311608488682e-01	 1.573887127578916e+00	 2.597494489541405e+00
 1.102254304594929e+00	 1.482115155423035e+00	 2.455170726300791e+00
 1.087840593613695e+00	 1.492726642134045e+00	 2.379503801894847e+00
 1.073335731921745e+00	 1.503190108917871e+00	 2.329554354117593e+00
 1.058741981857107e+00	 1.513504420682307e+00	 2.302888839739276e+00
 1.044061623648717e+00	 1.523668488090562e+00	 2.297075996913819e+00
 1.029296954270462e+00	 1.533681267885960e+00	 2.309692108465454e+00
 1.014450286289221e+00	 1.543541763182495e+00	 2.338325940970440e+00
 9.995239467080739e-01	 1.553249023721201e+00	 2.380583365730875e+00
 9.845202758058428e-01	 1.562802146092279e+00	 2.434091669894273e+00
 9.694416259741384e-01	 1.572200273922991e+00	 2.496503567955508e+00
 9.542903605530698e-01	 1.581442598031394e+00	 2.565500925673565e+00
 1.107520425996265e+00	 1.489196096999267e+00	 2.239667071174451e+00
 1.093037852184217e+00	 1.499858281065129e+00	 2.185190619326307e+00
 1.078463692180506e+00	 1.510371738025008e+00	 2.156611296152403e+00
 1.063800219131686e+00	 1.520735327363677e+00	 2.151258615704584e+00
 1.049049724160697e+00	 1.530947954539924e+00	 2.166470995077674e+00
 1.034214515215427e+00	 1.541008571312801e+00	 2.199601267181801e+00
 1.019296915911257e+00	 1.550916176033571e+00	 2.248021846760287e+00
 1.004299264368738e+00	 1.560669813903307e+00	 2.309129556185812e+00
 9.892239120475878e-01	 1.570268577196068e+00	 2.380350119815303e+00
 9.740732225781852e-01	 1.579711605447702e+00	 2.459142337749404e+00
 9.588495705917117e-01	 1.588998085610312e+00	 2.543001951715152e+00
 1.112786556349938e+00	 1.496277050613855e+00	 1.966202249028245e+00
 1.098235119590002e+00	 1.506989932120735e+00	 1.940011198254658e+00
 1.083591661156715e+00	 1.517553379341630e+00	 1.940399490648831e+00
 1.068858465005180e+00	 1.527966246338281e+00	 1.964321030268773e+00
 1.054037833152356e+00	 1.538227433365047e+00	 2.008674440430496e+00
 1.039132084520158e+00	 1.548335887196702e+00	 2.070364527023168e+00
 1.024143553772484e+00	 1.558290601421774e+00	 2.146308088078166e+00
 1.009074590147374e+00	 1.568090616701362e+00	 2.233439378399939e+00
 9.939275562854648e-01	 1.577735020993382e+00	 2.328715237736461e+00
 9.787048270559210e-01	 1.587222949742263e+00	 2.429119893092332e+00
 9.634087883810180e-01	 1.596553586034144e+00	 2.531669447714028e+00
 1.118052692671557e+00	 1.503358012254291e+00	 1.636809421806797e+00
 1.103432392885668e+00	 1.514121591259616e+00	 1.647539177774353e+00
 1.088719635944252e+00	 1.524735028798148e+00	 1.685057827292416e+00
 1.073916716610972e+00	 1.535197173508591e+00	 1.746577095304843e+00
 1.059025947796823e+00	 1.545506920440872e+00	 1.828349607274645e+00
 1.044049659397754e+00	 1.555663211385484e+00	 1.926610975863685e+00
 1.028990197126198e+00	 1.565665035168214e+00	 2.037586667173392e+00
 1.013849921337699e+00	 1.575511427910187e+00	 2.157498534594941e+00
 9.986312058538218e-01	 1.585201473253171e+00	 2.282571027622676e+00
 9.833364367825321e-01	 1.594734302550171e+00	 2.409037085144299e+00
 9.679680113372134e-01	 1.604109095021363e+00	 2.533143724681053e+00
 1.123318831976734e+00	 1.510438977908068e+00	 1.254023365395492e+00
 1.108629669125836e+00	 1.521253254440523e+00	 1.311282860202530e+00
 1.093847613636997e+00	 1.531916682324970e+00	 1.394649171967710e+00
 1.078974971082447e+00	 1.542428104777079e+00	 1.502444901745790e+00
 1.064014065267222e+00	 1.552786411642340e+00	 1.630073680734000e+00
 1.048967237061315e+00	 1.562990539726966e+00	 1.772884109443548e+00
 1.033836843225698e+00	 1.573039473094003e+00	 1.926178090298853e+00
 1.018625255233428e+00	 1.582932243324601e+00	 2.085218857528932e+00
 1.003334858087006e+00	 1.592667929744381e+00	 2.245238709763945e+00
 9.879680491332047e-01	 1.602245659614925e+00	 2.401446452922315e+00
 9.725272368765219e-01	 1.611664608290443e+00	 2.549034562943418e+00
 9.269354077766124e-01	 1.536110182066576e+00	 2.839019800914862e+00
 9.121502282064713e-01	 1.544935495595601e+00	 2.927269330064497e+00
 8.972991348732574e-01	 1.553608039766600e+00	 2.971090736933329e+00
 8.823844501562227e-01	 1.562127168928098e+00	 2.975306587034637e+00
 8.674085024978194e-01	 1.570492283547801e+00	 2.944900754744133e+00
 8.523736252820379e-01	 1.578702830195891e+00	 2.885011665000671e+00
 8.372821557180713e-01	 1.586758301496337e+00	 2.800925309417620e+00
 8.221364337303418e-01	 1.594658236046570e+00	 2.698068065953723e+00
 8.069388008559120e-01	 1.602402218305899e+00	 2.581999351378167e+00
 7.916915991502745e-01	 1.609989878453082e+00	 2.458404135660421e+00
 7.763971701024950e-01	 1.617420892213523e+00	 2.333085347125676e+00
 9.314945170519781e-01	 1.543665502663949e+00	 2.785812032608606e+00
 9.166366169353819e-01	 1.552534223283045e+00	 2.851674060561078e+00
 9.017124788604672e-01	 1.561249423151681e+00	 2.882179916064627e+00
 8.867244366290579e-01	 1.569810453442782e+00	 2.881098967943693e+00
 8.716748301359981e-01	 1.578216711675283e+00	 2.852295580338156e+00
 8.565660042419773e-01	 1.586467641697350e+00	 2.799724526876098e+00
 8.414003076516988e-01	 1.594562733637452e+00	 2.727426241377741e+00
 8.261800917984530e-01	 1.602501523823640e+00	 2.639521930646905e+00
 8.109077097360999e-01	 1.610283594671408e+00	 2.540208574925252e+00
 7.955855150394812e-01	 1.617908574540580e+00	 2.433753841418353e+00
 7.802158607142238e-01	 1.625376137561632e+00	 2.324490935956732e+00
 9.360536495806618e-01	 1.551220861795396e+00	 2.733227933453590e+00
 9.211230285466265e-01	 1.560132989725943e+00	 2.785185043540858e+00
 9.061258453573621e-01	 1.568890845509755e+00	 2.808475549903230e+00
 8.910644452373246e-01	 1.577493777144135e+00	 2.806044195707848e+00
 8.759411795338151e-01	 1.585941179199239e+00	 2.780876328711885e+00
 8.607584045842821e-01	 1.594232492801210e+00	 2.735995031241648e+00
 8.455184805890048e-01	 1.602367205583006e+00	 2.674458137981279e+00
 8.302237704902008e-01	 1.610344851603284e+00	 2.599355164438721e+00
 8.148766388585932e-01	 1.618165011233725e+00	 2.513804168916006e+00
 7.994794507884322e-01	 1.625827311015201e+00	 2.420948570587962e+00
 7.840345708019715e-01	 1.633331423483266e+00	 2.323953945893757e+00
 9.406128027788887e-01	 1.558776255179391e+00	 2.683113630859117e+00
 9.256094604976632e-01	 1.567731790618172e+00	 2.728564151835744e+00
 9.105392318628179e-01	 1.576532302510526e+00	 2.749833889780327e+00
 8.954044735214983e-01	 1.585177135678125e+00	 2.749267722736947e+00
 8.802075482735146e-01	 1.593665681742335e+00	 2.729208555538871e+00
 8.649508239331309e-01	 1.601997379107259e+00	 2.691995712649348e+00
 8.496366721962550e-01	 1.610171712910337e+00	 2.639963259323606e+00
 8.342674675140902e-01	 1.618188214940832e+00	 2.575438272169565e+00
 8.188455859742743e-01	 1.626046463526596e+00	 2.500739080091990e+00
 8.033734041905242e-01	 1.633746083389547e+00	 2.418173496330407e+00
 7.878532982017724e-01	 1.641286745470310e+00	 2.330037061849705e+00
 9.451719740628828e-01	 1.566331678534407e+00	 2.637278133039962e+00
 9.300959102459481e-01	 1.575330621653610e+00	 2.682556869116853e+00
 9.149526358757110e-01	 1.584173789823705e+00	 2.706112069787755e+00
 8.997445190220529e-01	 1.592860524690725e+00	 2.709909773610317e+00
 8.844739339373405e-01	 1.601390214927231e+00	 2.695883173340269e+00
 8.691432599127007e-01	 1.609762296215283e+00	 2.665931822330745e+00
 8.537548801397180e-01	 1.617976251196792e+00	 2.621920799071385e+00
 8.383111805786272e-01	 1.626031609391613e+00	 2.565679850048129e+00
 8.228145488340287e-01	 1.633927947083769e+00	 2.499002530966777e+00
 8.072673730391542e-01	 1.641664887176219e+00	 2.423645366061933e+00
 7.916720407496620e-01	 1.649242099014650e+00	 2.341327044713425e+00
 9.497311608488682e-01	 1.573887127578916e+00	 2.597494489541405e+00
 9.345823752489382e-01	 1.582929478526132e+00	 2.647892942899420e+00
 9.193660548949181e-01	 1.591815303119002e+00	 2.677168334796573e+00
 9.040845792794627e-01	 1.600543939827904e+00	 2.687125228877933e+00
 8.887403341075369e-01	 1.609114774376591e+00	 2.679516070021631e+00
 8.733357101471693e-01	 1.617527239725068e+00	 2.656040758557104e+00
 8.578731020856605e-01	 1.625780816019709e+00	 2.618346201821645e+00
 8.423549073923166e-01	 1.633875030510957e+00	 2.568025863227236e+00
 8.267835251887414e-01	 1.641809457438995e+00	 2.506619328834816e+00
 8.111613551277187e-01	 1.649583717887819e+00	 2.435611911068995e+00
 7.954907962816750e-01	 1.657197479608172e+00	 2.356434308661310e+00
 9.542903605530698e-01	 1.581442598031394e+00	 2.565500925673565e+00
 9.390688529640909e-01	 1.590528356929616e+00	 2.625287025796964e+00
 9.237794864193151e-01	 1.599456838066124e+00	 2.662862268705662e+00
 9.084246518342031e-01	 1.608227376735635e+00	 2.680083518763740e+00
 8.930067463663489e-01	 1.616839355713080e+00	 2.678747744727163e+00
 8.775281722607142e-01	 1.625292205236401e+00	 2.660591519529520e+00
 8.619913357003499e-01	 1.633585402956432e+00	 2.627290506055108e+00
 8.463986456636637e-01	 1.641718473854193e+00	 2.580458949945999e+00
 8.307525127892962e-01	 1.649690990126023e+00	 2.521649200284203e+00
 8.150553482496149e-01	 1.657502571036946e+00	 2.452351278588838e+00
 7.993095626338458e-01	 1.665152882742761e+00	 2.373992515979861e+00
 9.588495705917117e-01	 1.588998085610312e+00	 2.543001951715152e+00
 9.435553408488632e-01	 1.598127252557937e+00	 2.615439305409831e+00
 9.281929279477784e-01	 1.607098390334780e+00	 2.663055022908571e+00
 9.127647342267482e-01	 1.615910831059886e+00	 2.687968526438723e+00
 8.972731682960196e-01	 1.624563954559358e+00	 2.692242960433736e+00
 8.817206438775137e-01	 1.633057188349071e+00	 2.677884178048577e+00
 8.661095786500534e-01	 1.641390007584303e+00	 2.646839711831898e+00
 8.504423931011745e-01	 1.649561934976651e+00	 2.600997751354580e+00
 8.347215093865773e-01	 1.657572540678602e+00	 2.542186150365053e+00
 8.189493501982394e-01	 1.665421442136204e+00	 2.472171485608238e+00
 8.031283376422099e-01	 1.673108303910304e+00	 2.392658188816026e+00
 9.634087883810180e-01	 1.596553586034144e+00	 2.531669447714028e+00
 9.480418363607116e-01	 1.605726161104973e+00	 2.619036123218466e+00
 9.326063769791836e-01	 1.614739955594677e+00	 2.677609544967051e+00
 9.171048239975721e-01	 1.623594298446629e+00	 2.709978500544239e+00
 9.015395974787940e-01	 1.632288566538091e+00	 2.718690412728669e+00
 8.859131226217450e-01	 1.640822184662861e+00	 2.706249377241600e+00
 8.702278286010379e-01	 1.649194625480662e+00	 2.675114172410103e+00
 8.544861474133538e-01	 1.657405409433658e+00	 2.627696266171210e+00
 8.386905127314694e-01	 1.665454104630480e+00	 2.566357845597144e+00
 8.228433587669889e-01	 1.673340326698192e+00	 2.493409893660921e+00
 8.069471191428015e-01	 1.681063738602686e+00	 2.411110337294120e+00
 9.679680113372134e-01	 1.604109095021363e+00	 2.533143724681053e+00
 9.525283369570939e-01	 1.613325078264599e+00	 2.636750582837804e+00
 9.370198310124079e-01	 1.622381529515527e+00	 2.706390807480047e+00
 9.214449186871499e-01	 1.631277774541833e+00	 2.745325976657365e+00
 9.058060314969160e-01	 1.640013187271940e+00	 2.756802414235729e+00
 8.901056061175857e-01	 1.648587189777560e+00	 2.744047846652183e+00
 8.743460832195711e-01	 1.656999252222853e+00	 2.710268008998161e+00
 8.585299063087077e-01	 1.665248892780546e+00	 2.658643229352567e+00
 8.426595205748574e-01	 1.673335677515406e+00	 2.592325020030750e+00
 8.267373717492604e-01	 1.681259220235511e+00	 2.514432703931250e+00
 8.107659049716560e-01	 1.689019182311793e+00	 2.428050103459168e+00
 9.725272368765219e-01	 1.611664608290443e+00	 2.549034562943418e+00
 9.570148400954672e-01	 1.620923999730693e+00	 2.669243147975477e+00
 9.414332875463274e-01	 1.630023107767037e+00	 2.749266037137103e+00
 9.257850158359563e-01	 1.638961254991470e+00	 2.793237707401971e+00
 9.100724679326296e-01	 1.647737812383568e+00	 2.805314594174038e+00
 8.942980919892135e-01	 1.656352199292953e+00	 2.789669938022672e+00
 8.784643401719208e-01	 1.664803883388219e+00	 2.750488547881098e+00
 8.625736674957413e-01	 1.673092380572644e+00	 2.691961513989255e+00
 8.466285306676252e-01	 1.681217254867130e+00	 2.618280903604026e+00
 8.306313869384504e-01	 1.689178118260764e+00	 2.533634471997323e+00
 8.145846929648080e-01	 1.696974630529512e+00	 2.442200420526361e+00
 7.763971701024950e-01	 1.617420892213523e+00	 2.333085347125676e+00
 7.610552419040807e-01	 1.624696203781240e+00	 2.221555817140462e+00
 7.456707484979823e-01	 1.631814301601403e+00	 2.134318447535878e+00
 7.302460237034977e-01	 1.638774995483586e+00	 2.068884104106434e+00
 7.147833965724535e-01	 1.645578139827385e+00	 2.020762460679681e+00
 6.992851903642262e-01	 1.652223633306464e+00	 1.987258039968360e+00
 6.837537215354034e-01	 1.658711418525549e+00	 1.965871919462147e+00
 6.681912987448795e-01	 1.665041481651053e+00	 1.954145203734496e+00
 6.526002218751353e-01	 1.671213852015979e+00	 1.949657877120813e+00
 6.369827810704327e-01	 1.677228601699848e+00	 1.950027585148908e+00
 6.213412557926123e-01	 1.683085845084353e+00	 1.952908351263571e+00
 7.802158607142238e-01	 1.625376137561632e+00	 2.324490935956732e+00
 7.647984736149546e-01	 1.632687232572591e+00	 2.225613540508637e+00
 7.493383119520900e-01	 1.639840340584065e+00	 2.146664236768198e+00
 7.338377210237491e-01	 1.646835270470162e+00	 2.086155845590688e+00
 7.182990413371285e-01	 1.653671875914327e+00	 2.040312889766734e+00
 7.027246075784864e-01	 1.660350055091831e+00	 2.006765136786117e+00
 6.871167475978319e-01	 1.666869750325087e+00	 1.983643476305302e+00
 6.714777814091282e-01	 1.673230947712444e+00	 1.969138948430463e+00
 6.558100202067592e-01	 1.679433676731162e+00	 1.961500392168701e+00
 6.401157653989918e-01	 1.685478009815265e+00	 1.959032015604190e+00
 6.243973076591317e-01	 1.691364061909010e+00	 1.960090896344687e+00
 7.840345708019715e-01	 1.633331423483266e+00	 2.323953945893757e+00
 7.685417244169512e-01	 1.640678302119976e+00	 2.234454651746120e+00
 7.530058941113781e-01	 1.647866420501339e+00	 2.161503158042013e+00
 7.374294366622458e-01	 1.654895586565994e+00	 2.104274826149182e+00
 7.218147040321784e-01	 1.661765653281227e+00	 2.059883098989714e+00
 7.061640423343696e-01	 1.668476518323915e+00	 2.026039309768239e+00
 6.904797908123053e-01	 1.675028123734150e+00	 2.001363922475544e+00
 6.747642808350736e-01	 1.681420455542223e+00	 1.984554969695007e+00
 6.590198349090155e-01	 1.687653543369646e+00	 1.974384725259798e+00
 6.432487657064586e-01	 1.693727460004945e+00	 1.969696291580335e+00
 6.274533751122271e-01	 1.699642320954944e+00	 1.969400111828537e+00
 7.878532982017724e-01	 1.641286745470310e+00	 2.330037061849705e+00
 7.722849921888700e-01	 1.648669407894992e+00	 2.247059364276095e+00
 7.566734928975223e-01	 1.655892536804974e+00	 2.178171995965196e+00
 7.410211685836481e-01	 1.662955939203413e+00	 2.122910534554804e+00
 7.253303826653491e-01	 1.669859467341436e+00	 2.079385937763603e+00
 7.096034926828045e-01	 1.676603018397521e+00	 2.045182411727657e+00
 6.938428492730284e-01	 1.683186534129443e+00	 2.019271390354484e+00
 6.780507951602825e-01	 1.689610000499428e+00	 2.000717159299558e+00
 6.622296641629153e-01	 1.695873447273244e+00	 1.988672232904646e+00
 6.463817802173640e-01	 1.701976947593920e+00	 1.982373185174775e+00
 6.305094564200205e-01	 1.707920617530850e+00	 1.981136399814709e+00
 7.916720407496620e-01	 1.649242099014650e+00	 2.341327044713425e+00
 7.760282748095095e-01	 1.656660545369243e+00	 2.262423705611639e+00
 7.603411062321977e-01	 1.663918684946716e+00	 2.196016273276107e+00
 7.446129147526158e-01	 1.671016323814749e+00	 2.141810063812492e+00
 7.288460752443867e-01	 1.677953313508303e+00	 2.098731194504293e+00
 7.130429566747222e-01	 1.684729550707461e+00	 2.064289810858650e+00
 6.972059210742078e-01	 1.691344976887671e+00	 2.037595121455860e+00
 6.813373225223240e-01	 1.697799577943102e+00	 2.017939086064626e+00
 6.654395061494700e-01	 1.704093383783774e+00	 2.004713447105154e+00
 6.495148071562385e-01	 1.710226467907224e+00	 1.997405028904744e+00
 6.335655498506328e-01	 1.716198946945416e+00	 1.995590949837885e+00
 7.954907962816750e-01	 1.657197479608172e+00	 2.356434308661310e+00
 7.797715701576688e-01	 1.664651710014326e+00	 2.279559280734106e+00
 7.640087320370800e-01	 1.671944860378315e+00	 2.214390171926093e+00
 7.482046731338080e-01	 1.679076735832334e+00	 2.160677799340312e+00
 7.323617797770379e-01	 1.686047187195182e+00	 2.117825574163412e+00
 7.164824323610521e-01	 1.692856110648541e+00	 2.083450452945121e+00
 7.005690043100482e-01	 1.699503447385540e+00	 2.056555588977094e+00
 6.846238610587639e-01	 1.705989183232284e+00	 2.036524155445630e+00
 6.686493590496905e-01	 1.712313348243052e+00	 2.022848249696935e+00
 6.526478447476127e-01	 1.718476016269890e+00	 2.015123883568785e+00
 6.366216536721854e-01	 1.724477304507334e+00	 2.013045880059834e+00
 7.993095626338458e-01	 1.665152882742761e+00	 2.373992515979861e+00
 7.835148761121464e-01	 1.672642897301841e+00	 2.297493047502081e+00
 7.676763682338448e-01	 1.679971058551517e+00	 2.232656461520846e+00
 7.517964416918849e-01	 1.687137170688498e+00	 2.179156853066877e+00
 7.358774942710489e-01	 1.694141083815421e+00	 2.136572676097315e+00
 7.199219177927247e-01	 1.700982693615570e+00	 2.102746921485602e+00
 7.039320970747552e-01	 1.707661940999752e+00	 2.076364616545267e+00
 6.879104089071707e-01	 1.714178811726014e+00	 2.056765764256936e+00
 6.718592210445877e-01	 1.720533335992894e+00	 2.043406041410305e+00
 6.557808912160171e-01	 1.726725588006950e+00	 2.035851701014277e+00
 6.396777661527996e-01	 1.732755685525294e+00	 2.033774374131677e+00
 8.031283376422099e-01	 1.673108303910304e+00	 2.392658188816026e+00
 7.872581905517405e-01	 1.680634102703388e+00	 2.315267103689793e+00
 7.713440127441661e-01	 1.687997274918069e+00	 2.250186434874553e+00
 7.553882183915058e-01	 1.695197623815573e+00	 2.196893309474099e+00
 7.393932167341662e-01	 1.702234998782373e+00	 2.154872972260717e+00
 7.233614110206696e-01	 1.709109295003356e+00	 2.122255495805291e+00
 7.072951974625343e-01	 1.715820453107013e+00	 2.097225493284941e+00
 6.911969642051119e-01	 1.722368458783333e+00	 2.078947450696521e+00
 6.750690903151726e-01	 1.728753342375117e+00	 2.066705905826215e+00
 6.589139447859829e-01	 1.734975178443437e+00	 2.059900481980935e+00
 6.427338855605965e-01	 1.741034085307989e+00	 2.058040813871110e+00
 8.069471191428015e-01	 1.681063738602686e+00	 2.411110337294120e+00
 7.910015113552504e-01	 1.688625321690568e+00	 2.331938485268596e+00
 7.750116634897211e-01	 1.696023504929720e+00	 2.266359850439658e+00
 7.589800011973308e-01	 1.703258090645889e+00	 2.213536287061267e+00
 7.429089451741354e-01	 1.710328927509388e+00	 2.172642916814621e+00
 7.268009100958170e-01	 1.717235910206709e+00	 2.142046207223069e+00
 7.106583035675916e-01	 1.723978979084028e+00	 2.119333085330525e+00
 6.944835250901553e-01	 1.730558119763281e+00	 2.103343039827640e+00
 6.782789650424560e-01	 1.736973362731537e+00	 2.093056768396787e+00
 6.620470036820399e-01	 1.743224782904384e+00	 2.087572429184068e+00
 6.457900101636972e-01	 1.749312499164107e+00	 2.086100907893821e+00
 8.107659049716560e-01	 1.689019182311793e+00	 2.428050103459167e+00
 7.947448364014750e-01	 1.696616549734980e+00	 2.346578975559772e+00
 7.786793183921839e-01	 1.704049744038217e+00	 2.280564881383935e+00
 7.625717880740189e-01	 1.711318566611777e+00	 2.228738002938527e+00
 7.464246775987037e-01	 1.718422865409816e+00	 2.189836205802220e+00
 7.302404130690966e-01	 1.725362534620436e+00	 2.162182893338707e+00
 7.140214134841314e-01	 1.732137514307500e+00	 2.142873943901356e+00
 6.977700896998681e-01	 1.738747790024899e+00	 2.130216784667915e+00
 6.814888434074495e-01	 1.745193392403969e+00	 2.122757550693827e+00
 6.651800661287196e-01	 1.751474396714826e+00	 2.119160095795040e+00
 6.488461382302230e-01	 1.757590922402342e+00	 2.118201816333169e+00
 8.145846929648080e-01	 1.696974630529512e+00	 2.442200420526361e+00
 7.984881635692119e-01	 1.704607782308222e+00	 2.358274924900480e+00
 7.823469753732306e-01	 1.712075987695308e+00	 2.292198071095025e+00
 7.661635769862309e-01	 1.719379047145569e+00	 2.242153840445051e+00
 7.499404120156170e-01	 1.726516807897009e+00	 2.206325084977211e+00
 7.336799179914387e-01	 1.733489163639346e+00	 2.182723250503089e+00
 7.173845253063604e-01	 1.740296054154137e+00	 2.168026410053105e+00
 7.010566561718182e-01	 1.746937464927227e+00	 2.159823503030806e+00
 6.846987235911640e-01	 1.753413426734232e+00	 2.156097320042485e+00
 6.683131303505522e-01	 1.759724015199794e+00	 2.154946529470633e+00
 6.519022680282955e-01	 1.765869350331382e+00	 2.154582271777119e+00
 6.213412557926123e-01	 1.683085845084353e+00	 1.952908351263571e+00
 6.056805779762906e-01	 1.688784782681174e+00	 1.957129032719254e+00
 5.900003444358113e-01	 1.694326620001263e+00	 1.962529222009331e+00
 5.743027952840069e-01	 1.699711594168735e+00	 1.968375692334406e+00
 5.585901564033956e-01	 1.704939982580464e+00	 1.974027417792821e+00
 5.428646385999558e-01	 1.710012102353537e+00	 1.978930973185743e+00
 5.271284367778988e-01	 1.714928309753176e+00	 1.982615877600233e+00
 5.113837291358960e-01	 1.719688999601967e+00	 1.984689892351038e+00
 4.956326763851813e-01	 1.724294604671215e+00	 1.984834283623962e+00
 4.798774209899149e-01	 1.728745595055301e+00	 1.982799059922130e+00
 4.641200864301568e-01	 1.733042477529863e+00	 1.978398194172508e+00
 6.243973076591317e-01	 1.691364061909010e+00	 1.960090896344687e+00
 6.086596031793871e-01	 1.697091029591799e+00	 1.964489387114851e+00
 5.929022467910563e-01	 1.702660124303875e+00	 1.972243118923307e+00
 5.771274896249304e-01	 1.708071584335666e+00	 1.982121185911754e+00
 5.613375685114946e-01	 1.713325688448432e+00	 1.992983112514587e+00
 5.455347051305403e-01	 1.718422755319014e+00	 2.003774921529162e+00
 5.297211051818791e-01	 1.723363142964937e+00	 2.013525135923909e+00
 5.138989575776174e-01	 1.728147248150730e+00	 2.021340724066204e+00
 4.980704336564119e-01	 1.732775505776294e+00	 2.026402997850770e+00
 4.822376864200977e-01	 1.737248388248176e+00	 2.027963473006737e+00
 4.664028497930368e-01	 1.741566404834599e+00	 2.025339700657644e+00
 6.274533751122271e-01	 1.699642320954944e+00	 1.969400111828537e+00
 6.116386435762436e-01	 1.705397318866750e+00	 1.974008778469487e+00
 5.958041639467491e-01	 1.710993671109925e+00	 1.983616373978079e+00
 5.799521983725485e-01	 1.716431617141206e+00	 1.996621375046022e+00
 5.640849946321495e-01	 1.721711437086255e+00	 2.011510521676836e+00
 5.482047852792112e-01	 1.726833451181668e+00	 2.026855394479464e+00
 5.323137868092009e-01	 1.731798019197281e+00	 2.041308919176726e+00
 5.164141988477129e-01	 1.736605539839575e+00	 2.053601807282474e+00
 5.005082033608804e-01	 1.741256450137056e+00	 2.062538941726634e+00
 4.845979638882673e-01	 1.745751224808450e+00	 2.066995716032817e+00
 4.686856247985899e-01	 1.750090375614572e+00	 2.065914335479012e+00
 6.305094564200205e-01	 1.707920617530850e+00	 1.981136399814709e+00
 6.146176974786302e-01	 1.713703645798822e+00	 1.985920218356845e+00
 5.987060942583668e-01	 1.719327255696745e+00	 1.996825556374222e+00
 5.827769199260981e-01	 1.724791687847674e+00	 2.012005458354958e+00
 5.668324332084019e-01	 1.730097223741669e+00	 2.029698676129873e+00
 5.508748775328540e-01	 1.735244185175092e+00	 2.048226597667463e+00
 5.349064801906237e-01	 1.740232933670093e+00	 2.065990100050310e+00
 5.189294515208421e-01	 1.745063869875114e+00	 2.081466335028341e+00
 5.029459841171660e-01	 1.749737432947276e+00	 2.093205455385650e+00
 4.869582520569332e-01	 1.754254099917486e+00	 2.099827290200857e+00
 4.709684101532611e-01	 1.758614385039167e+00	 2.100017976925651e+00
 6.335655498506328e-01	 1.716198946945416e+00	 1.995590949837885e+00
 6.175967631983170e-01	 1.722010005680807e+00	 2.000449019265058e+00
 6.016080360813871e-01	 1.727660873341673e+00	 2.012040835094402e+00
 5.856016526848165e-01	 1.733151791717387e+00	 2.028397354741107e+00
 5.695798826832941e-01	 1.738483043662412e+00	 2.047632305247189e+00
 5.535449803783536e-01	 1.743654952532880e+00	 2.067939307150802e+00
 5.374991838569083e-01	 1.748667881603261e+00	 2.087588922966218e+00
 5.214447141716657e-01	 1.753522233463964e+00	 2.104925638279805e+00
 5.053837745438465e-01	 1.758218449400724e+00	 2.118364783314204e+00
 4.893185495886034e-01	 1.762757008756645e+00	 2.126389402663324e+00
 4.732512045634947e-01	 1.767138428277760e+00	 2.127547080754125e+00
 6.366216536721854e-01	 1.724477304507334e+00	 2.013045880059834e+00
 6.205758390470735e-01	 1.730316393805499e+00	 2.017812902243473e+00
 6.045099877712876e-01	 1.735994519322042e+00	 2.029426058148669e+00
 5.884263950479400e-01	 1.741511924012661e+00	 2.045915758514067e+00
 5.723273414998675e-01	 1.746868892096221e+00	 2.065391871341221e+00
 5.562150923025951e-01	 1.752065748488628e+00	 2.086040885681745e+00
 5.400918963388144e-01	 1.757102858216673e+00	 2.106123003900787e+00
 5.239599853748436e-01	 1.761980625812735e+00	 2.123969170198929e+00
 5.078215732595008e-01	 1.766699494691173e+00	 2.137978043017029e+00
 4.916788551457875e-01	 1.771259946507289e+00	 2.146612918795581e+00
 4.755340067357353e-01	 1.775662500499735e+00	 2.148398614411819e+00
 6.396777661527996e-01	 1.732755685525294e+00	 2.033774374131677e+00
 6.235549233366701e-01	 1.738622805465690e+00	 2.038222101180912e+00
 6.074119476835455e-01	 1.744328188915189e+00	 2.049138829266352e+00
 5.912511454147064e-01	 1.749872079995813e+00	 2.064674192653075e+00
 5.750748081011644e-01	 1.755254764290835e+00	 2.083053602816244e+00
 5.588852117924640e-01	 1.760476568275929e+00	 2.102575298236488e+00
 5.426846161671021e-01	 1.765537858730214e+00	 2.121607329947778e+00
 5.264752637050356e-01	 1.770439042128041e+00	 2.138584490562482e+00
 5.102593788827076e-01	 1.775180564012396e+00	 2.152005194325856e+00
 4.940391673909943e-01	 1.779762908350782e+00	 2.160428315585782e+00
 4.778168153764275e-01	 1.784186596874472e+00	 2.162469992903143e+00
 6.427338855605965e-01	 1.741034085307989e+00	 2.058040813871110e+00
 6.265340143788761e-01	 1.746929235954171e+00	 2.061879463828288e+00
 6.103139141736383e-01	 1.752661877398449e+00	 2.071330582120380e+00
 5.940759021843525e-01	 1.758232254929162e+00	 2.084781060272637e+00
 5.778222809302264e-01	 1.763640655493990e+00	 2.100689526101333e+00
 5.615553373348446e-01	 1.768887407128377e+00	 2.117583126831479e+00
 5.452773418725317e-01	 1.773972878363771e+00	 2.134054258628479e+00
 5.289905477369020e-01	 1.778897477616496e+00	 2.148757250375398e+00
 5.126971900320451e-01	 1.783661652558164e+00	 2.160405009330240e+00
 4.963994849867320e-01	 1.788265889468484e+00	 2.167765636107460e+00
 4.800996291920160e-01	 1.792710712571352e+00	 2.169659016244929e+00
 6.457900101636972e-01	 1.749312499164107e+00	 2.086100907893821e+00
 6.295131104854617e-01	 1.755235680563737e+00	 2.088980549674027e+00
 6.132158855970437e-01	 1.760995580049157e+00	 2.096146652166475e+00
 5.969006637561154e-01	 1.766592444075025e+00	 2.106339694351538e+00
 5.805697584300950e-01	 1.772026560953422e+00	 2.118367496404570e+00
 5.642254674166229e-01	 1.777298260279568e+00	 2.131101584651215e+00
 5.478700719858631e-01	 1.782407912337232e+00	 2.143473516958510e+00
 5.315058360451034e-01	 1.787355927484714e+00	 2.154471176663752e+00
 5.151350053260922e-01	 1.792142755522251e+00	 2.163135042910861e+00
 4.987598065955106e-01	 1.796768885041758e+00	 2.168554445039848e+00
 4.823824468889452e-01	 1.801234842759755e+00	 2.169863808459362e+00
 6.488461382302230e-01	 1.757590922402342e+00	 2.118201816333169e+00
 6.324922099681970e-01	 1.763542134587182e+00	 2.119713724776848e+00
 6.161178603092389e-01	 1.769329292144649e+00	 2.123726346176670e+00
 5.997254285292322e-01	 1.774952642695718e+00	 2.129448405783340e+00
 5.833172390438129e-01	 1.780412475916870e+00	 2.136151227328329e+00
 5.668956005246835e-01	 1.785709122963094e+00	 2.143164529511137e+00
 5.504628050378562e-01	 1.790842955870483e+00	 2.149872200280272e+00
 5.340211272042992e-01	 1.795814386939306e+00	 2.155708057442344e+00
 5.175728233834274e-01	 1.800623868098429e+00	 2.160151603856402e+00
 5.011201308798379e-01	 1.805271890251967e+00	 2.162723785202464e+00
 4.846652671736595e-01	 1.809758982609063e+00	 2.162982758054766e+00
 6.519022680282955e-01	 1.765869350331382e+00	 2.154582271777119e+00
 6.354713111388517e-01	 1.771848593317297e+00	 2.154260253656493e+00
 6.190198366657016e-01	 1.777663008962260e+00	 2.154203009543662e+00
 6.025501949029400e-01	 1.783312846053559e+00	 2.154200529804305e+00
 5.860647212144215e-01	 1.788798395632072e+00	 2.154100319383827e+00
 5.695657351459118e-01	 1.794119990412552e+00	 2.153802476678339e+00
 5.530555395592713e-01	 1.799278004183412e+00	 2.153254770869663e+00
 5.365364197891498e-01	 1.804272851186889e+00	 2.152447726852016e+00
 5.200106428226289e-01	 1.809104985480471e+00	 2.151409726545762e+00
 5.034804565022232e-01	 1.813774900280471e+00	 2.150202135071507e+00
 4.869480887526040e-01	 1.818283127288656e+00	 2.148914459946386e+00
 4.641200864301568e-01	 1.733042477529863e+00	 1.978398194172508e+00
 4.483627767027926e-01	 1.737185795271111e+00	 1.971476388719646e+00
 4.326075762556573e-01	 1.741176128310005e+00	 1.962889381807749e+00
 4.168565486401227e-01	 1.745014091710825e+00	 1.953996848405486e+00
 4.011117356475782e-01	 1.748700334494148e+00	 1.946133255439757e+00
 3.853751566898679e-01	 1.752235538925222e+00	 1.940603046580081e+00
 3.696488082037957e-01	 1.755620419791376e+00	 1.938675141299321e+00
 3.539346630798197e-01	 1.758855723669352e+00	 1.941327005734514e+00
 3.382346701150147e-01	 1.761942228183390e+00	 1.950014651181185e+00
 3.225507534903555e-01	 1.764880741254913e+00	 1.966488659720114e+00
 3.068848122723423e-01	 1.767672100344656e+00	 1.992358675086236e+00
 4.664028497930368e-01	 1.741566404834599e+00	 2.025339700657644e+00
 4.505680381205852e-01	 1.745730101383383e+00	 2.017658654866743e+00
 4.347353461028813e-01	 1.749740060778345e+00	 2.005755953825983e+00
 4.189068474408177e-01	 1.753596901108930e+00	 1.991541615822057e+00
 4.030845939682791e-01	 1.757301274587891e+00	 1.976897798726765e+00
 3.872706150295307e-01	 1.760853866836164e+00	 1.963673282654733e+00
 3.714669168807962e-01	 1.764255396156726e+00	 1.953678100518095e+00
 3.556754821161418e-01	 1.767506612798326e+00	 1.948470402618308e+00
 3.398982691177462e-01	 1.770608298209911e+00	 1.949891025264975e+00
 3.241372115306161e-01	 1.773561264286633e+00	 1.960161187889483e+00
 3.083942177617581e-01	 1.776366352608244e+00	 1.981354589449625e+00
 4.686856247985899e-01	 1.750090375614572e+00	 2.065914335479012e+00
 4.527733107857274e-01	 1.754274451074868e+00	 2.057824862762168e+00
 4.368631268021764e-01	 1.758304036926028e+00	 2.043492145934340e+00
 4.209571566984043e-01	 1.762179754282670e+00	 2.025240437085467e+00
 4.050574623508451e-01	 1.765902258549744e+00	 2.005365015557755e+00
 3.891660830362392e-01	 1.769472238703889e+00	 1.986126109760731e+00
 3.732850348302827e-01	 1.772890416563749e+00	 1.969742980160888e+00
 3.574163100307011e-01	 1.776157546050095e+00	 1.958225474469954e+00
 3.415618766048302e-01	 1.779274412436605e+00	 1.953694342887819e+00
 3.257236776617582e-01	 1.782241831592177e+00	 1.958706846159818e+00
 3.099036309490487e-01	 1.785060649215597e+00	 1.975676707064453e+00
 4.709684101532611e-01	 1.758614385039167e+00	 2.100017976925651e+00
 4.549785934485989e-01	 1.762818839503396e+00	 2.091832476145444e+00
 4.389909171478490e-01	 1.766868051899751e+00	 2.075917694063429e+00
 4.230074752511032e-01	 1.770762646368043e+00	 2.054877936918958e+00
 4.070303396773924e-01	 1.774503281505424e+00	 2.031288947548364e+00
 3.910615596359792e-01	 1.778090649644257e+00	 2.007691406546166e+00
 3.751031610220792e-01	 1.781525476118869e+00	 1.986584602858617e+00
 3.591571458371241e-01	 1.784808518522068e+00	 1.970298793802223e+00
 3.432254916336520e-01	 1.787940565952282e+00	 1.961134898567604e+00
 3.273101509848783e-01	 1.790922438252171e+00	 1.961853540005291e+00
 3.114130509789675e-01	 1.793754985239579e+00	 1.975086195169384e+00
 4.732512045634947e-01	 1.767138428277760e+00	 2.127547080754125e+00
 4.571838848595786e-01	 1.771363261826792e+00	 2.119540458408545e+00
 4.411187159342062e-01	 1.775432100846214e+00	 2.102854738955570e+00
 4.250578019371358e-01	 1.779345572501041e+00	 2.080241995072471e+00
 4.090032248300366e-01	 1.783104338580646e+00	 2.054427649060039e+00
 3.929570437547362e-01	 1.786709094773127e+00	 2.028103692466102e+00
 3.769212944260102e-01	 1.790160569928508e+00	 2.003922078416404e+00
 3.608979885490370e-01	 1.793459525311652e+00	 1.984402748442096e+00
 3.448891132615969e-01	 1.796606753845749e+00	 1.971928877073308e+00
 3.288966306010724e-01	 1.799603079347243e+00	 1.969334858964290e+00
 3.129224769962685e-01	 1.802449355753047e+00	 1.979349382775334e+00
 4.755340067357353e-01	 1.775662500499735e+00	 2.148398614411819e+00
 4.593891837690458e-01	 1.779907713202884e+00	 2.140809187581895e+00
 4.432465219555546e-01	 1.783996178912116e+00	 2.124127722335524e+00
 4.271081355947225e-01	 1.787928527817661e+00	 2.101123624993117e+00
 4.109761166908940e-01	 1.791705424901127e+00	 2.074543050569469e+00
 3.948525343184959e-01	 1.795327569206358e+00	 2.047101978925212e+00
 3.787394340118999e-01	 1.798795693099090e+00	 2.021479461954205e+00
 3.626388371800658e-01	 1.802110561516254e+00	 2.000255352204651e+00
 3.465527405460505e-01	 1.805272971205816e+00	 1.985798168898112e+00
 3.304831156114372e-01	 1.808283749958018e+00	 1.980889903249037e+00
 3.144319081457050e-01	 1.811143755828862e+00	 1.988237605571137e+00
 4.778168153764275e-01	 1.784186596874472e+00	 2.162469992903143e+00
 4.615944889273797e-01	 1.788452188789497e+00	 2.155500373521454e+00
 4.453743340062008e-01	 1.792560281244154e+00	 2.139563285828885e+00
 4.291584750620844e-01	 1.796511507453899e+00	 2.117316855752497e+00
 4.129490141420800e-01	 1.800306535592582e+00	 2.091400825741500e+00
 3.967480302532441e-01	 1.803946068059810e+00	 2.064429624483031e+00
 3.805575787495729e-01	 1.807430840737038e+00	 2.038985601071778e+00
 3.643796907438367e-01	 1.810761622233279e+00	 2.017580059980235e+00
 3.482163725443980e-01	 1.813939213121293e+00	 2.002470190094503e+00
 3.320696051170690e-01	 1.816964445165126e+00	 1.996263114481013e+00
 3.159413435720306e-01	 1.819838180539884e+00	 2.001527054510744e+00
 4.800996291920160e-01	 1.792710712571352e+00	 2.169659016244929e+00
 4.637997990849597e-01	 1.796996683744460e+00	 2.163476977224735e+00
 4.475021508804515e-01	 1.801124402989027e+00	 2.148990172537658e+00
 4.312088191774423e-01	 1.805094506545749e+00	 2.128618617123570e+00
 4.149219160657108e-01	 1.808907665780728e+00	 2.104770262083460e+00
 3.986435304849662e-01	 1.812564586449341e+00	 2.079834193987789e+00
 3.823757276088534e-01	 1.816066007948775e+00	 2.056173987180792e+00
 3.661205482539759e-01	 1.819412702560137e+00	 2.036105587089456e+00
 3.498800083140248e-01	 1.822605474680986e+00	 2.021677706327399e+00
 3.336560982190642e-01	 1.825645160049192e+00	 2.015204110416214e+00
 3.174507824199989e-01	 1.828532624958971e+00	 2.018998627960547e+00
 4.823824468889452e-01	 1.801234842759755e+00	 2.169863808459362e+00
 4.660051129921649e-01	 1.805541193225597e+00	 2.164603132206189e+00
 4.496299713726133e-01	 1.809688539293435e+00	 2.152239131186131e+00
 4.332591667790175e-01	 1.813677520229208e+00	 2.134828627703830e+00
 4.168948213439022e-01	 1.817508810591282e+00	 2.114424135063365e+00
 4.005390339396478e-01	 1.821183119490810e+00	 2.093067321509773e+00
 3.841938795595654e-01	 1.824701189840726e+00	 2.072782610867159e+00
 3.678614087241095e-01	 1.828063797594234e+00	 2.055565732766043e+00
 3.515436469123164e-01	 1.831271750973706e+00	 2.043158661007005e+00
 3.352425940185192e-01	 1.834325889690844e+00	 2.037467523529112e+00
 3.189602238343636e-01	 1.837227084158984e+00	 2.040437787289862e+00
 4.846652671736595e-01	 1.809758982609063e+00	 2.162982758054766e+00
 4.682104293993744e-01	 1.814085712390736e+00	 2.158744067865103e+00
 4.517577942769935e-01	 1.818252685304075e+00	 2.149142822753343e+00
 4.353095167050307e-01	 1.822260543640271e+00	 2.135749285985465e+00
 4.188677288587699e-01	 1.826109965149957e+00	 2.120138585578866e+00
 4.024345395432750e-01	 1.829801662300079e+00	 2.103884576950075e+00
 3.860120335715336e-01	 1.833336381519313e+00	 2.088553821151780e+00
 3.696022711678638e-01	 1.836714902432977e+00	 2.075699207632954e+00
 3.532072873966583e-01	 1.839938037088262e+00	 2.066656007368156e+00
 3.368290916165305e-01	 1.843006629170708e+00	 2.062812843329440e+00
 3.204696669598779e-01	 1.845921553212783e+00	 2.065634415792172e+00
 4.869480887526040e-01	 1.818283127288656e+00	 2.148914459946386e+00
 4.704157470569679e-01	 1.822630236397705e+00	 2.145766034781672e+00
 4.538856183878984e-01	 1.826816836167647e+00	 2.139535729511544e+00
 4.373598677937028e-01	 1.830843571914933e+00	 2.131185564276779e+00
 4.208406374924303e-01	 1.834711124582473e+00	 2.121693000668088e+00
 4.043300462218327e-01	 1.838420209993003e+00	 2.112045336205211e+00
 3.878301886145822e-01	 1.841971578090959e+00	 2.103234188522871e+00
 3.713431345988646e-01	 1.845366012173774e+00	 2.096250076760273e+00
 3.548709288244357e-01	 1.848604328113462e+00	 2.091917544367974e+00
 3.384155901141945e-01	 1.851687373569411e+00	 2.091004262290397e+00
 3.219791109412959e-01	 1.854616027193228e+00	 2.094374781072487e+00
 3.068848122723423e-01	 1.767672100344656e+00	 1.992358675086236e+00
 2.912360624240649e-01	 1.770317608769745e+00	 2.025546583717301e+00
 2.756090206873471e-01	 1.772817673086979e+00	 2.061914885482647e+00
 2.600055129802040e-01	 1.775173213945177e+00	 2.099863022625990e+00
 2.444273382514744e-01	 1.777385178479808e+00	 2.137750278548081e+00
 2.288762681028862e-01	 1.779454539528256e+00	 2.173905426463884e+00
 2.133540464351001e-01	 1.781382294842315e+00	 2.206636100364120e+00
 1.978623891175583e-01	 1.783169466298693e+00	 2.234237874268234e+00
 1.824029836819386e-01	 1.784817099108259e+00	 2.255003037565836e+00
 1.669774890389995e-01	 1.786326261024755e+00	 2.267229055987764e+00
 1.515875352185671e-01	 1.787698041553686e+00	 2.269226709421887e+00
 3.083942177617581e-01	 1.776366352608244e+00	 1.981354589449625e+00
 2.926684999179884e-01	 1.779024872902190e+00	 2.011928041800450e+00
 2.769645969566065e-01	 1.781537233724924e+00	 2.047648621717802e+00
 2.612843437763506e-01	 1.783904360253470e+00	 2.086428047993281e+00
 2.456295481741357e-01	 1.786127204281780e+00	 2.126141088748629e+00
 2.300019904652600e-01	 1.788206743432129e+00	 2.164635880729235e+00
 2.144034231277075e-01	 1.790143980363745e+00	 2.199743944946671e+00
 1.988355704703725e-01	 1.791939941979430e+00	 2.229289884356035e+00
 1.833001283250075e-01	 1.793595678630914e+00	 2.251100751144719e+00
 1.677987637616735e-01	 1.795112263323673e+00	 2.263015073030830e+00
 1.523331148274494e-01	 1.796490790921936e+00	 2.262891529717271e+00
 3.099036309490487e-01	 1.785060649215597e+00	 1.975676707064453e+00
 2.941009447172263e-01	 1.787732181444672e+00	 2.003515120161855e+00
 2.783201801391768e-01	 1.790256838835518e+00	 2.037989084297913e+00
 2.625631810944037e-01	 1.792635551093389e+00	 2.076663471508394e+00
 2.468317642279399e-01	 1.794869274670746e+00	 2.117068212949268e+00
 2.311277185686942e-01	 1.796958991974783e+00	 2.156709143784452e+00
 2.154528051720147e-01	 1.798905710572194e+00	 2.193078523308338e+00
 1.998087567862874e-01	 1.800710462391899e+00	 2.223665215773944e+00
 1.841972775433778e-01	 1.802374302926518e+00	 2.245964519358870e+00
 1.686200426726882e-01	 1.803898310433295e+00	 2.257487632590004e+00
 1.530786982385879e-01	 1.805283585135209e+00	 2.255770749359312e+00
 3.114130509789675e-01	 1.793754985239579e+00	 1.975086195169384e+00
 2.955333960101378e-01	 1.796439529462697e+00	 2.000115154022936e+00
 2.796757694669592e-01	 1.798976483477317e+00	 2.032797383679730e+00
 2.638420242097390e-01	 1.801366781516948e+00	 2.070489732441805e+00
 2.480339857316652e-01	 1.803611384692580e+00	 2.110514937099857e+00
 2.322534517752951e-01	 1.805711280196355e+00	 2.150172849513273e+00
 2.165021919733761e-01	 1.807667480502450e+00	 2.186751322106406e+00
 2.007819475138224e-01	 1.809481022565931e+00	 2.217536737623133e+00
 1.850944308286478e-01	 1.811152967020334e+00	 2.239824170503387e+00
 1.694413253066301e-01	 1.812684397374696e+00	 2.250927169190962e+00
 1.538242850294628e-01	 1.814076419210772e+00	 2.248187150546693e+00
 3.129224769962685e-01	 1.802449355753047e+00	 1.979349382775334e+00
 2.969658529850819e-01	 1.805146912021767e+00	 2.001539854164921e+00
 2.810313641718545e-01	 1.807696162708877e+00	 2.031938057749612e+00
 2.651208723977320e-01	 1.810098046576164e+00	 2.067829627037756e+00
 2.492362120040906e-01	 1.812353529393163e+00	 2.106465750647709e+00
 2.333791894471688e-01	 1.814463603136980e+00	 2.145074637795271e+00
 2.175515829371465e-01	 1.816429285189302e+00	 2.180872631129731e+00
 2.017551421014978e-01	 1.818251617531361e+00	 2.211074952217943e+00
 1.859915876724159e-01	 1.819931665937626e+00	 2.232906067047363e+00
 1.702626111980854e-01	 1.821470519168950e+00	 2.243609660911334e+00
 1.545698747775543e-01	 1.822869288165889e+00	 2.240458213948183e+00
 3.144319081457050e-01	 1.811143755828862e+00	 1.988237605571137e+00
 2.983983148304175e-01	 1.813854324187387e+00	 2.007605176026657e+00
 2.823869634857643e-01	 1.816415871588759e+00	 2.035278968563863e+00
 2.663997249337583e-01	 1.818829341323053e+00	 2.068608235404810e+00
 2.504384423639945e-01	 1.821095703818368e+00	 2.104906305151267e+00
 2.345049309464215e-01	 1.823215955836794e+00	 2.141462145489066e+00
 2.186009774686803e-01	 1.825191119667539e+00	 2.175551566380435e+00
 2.027283399978331e-01	 1.827022242318018e+00	 2.204448049086894e+00
 1.868887475662803e-01	 1.828710394703656e+00	 2.225433188476736e+00
 1.710838998816402e-01	 1.830256670837135e+00	 2.235806738100027e+00
 1.553154670603430e-01	 1.831662187017830e+00	 2.232896249455735e+00
 3.159413435720306e-01	 1.819838180539884e+00	 2.001527054510744e+00
 2.998307807345036e-01	 1.822561761025059e+00	 2.018131191867487e+00
 2.837425666405891e-01	 1.825135605175517e+00	 2.042691201435222e+00
 2.676785810931935e-01	 1.827560660809629e+00	 2.072752849958096e+00
 2.516406761301556e-01	 1.829837903014074e+00	 2.105823373602058e+00
 2.356306756351595e-01	 1.831968333335933e+00	 2.139382997258077e+00
 2.196503749733321e-01	 1.833952978971950e+00	 2.170896092136175e+00
 2.037015406513480e-01	 1.835792891955738e+00	 2.197821957121984e+00
 1.877859100018390e-01	 1.837489148343687e+00	 2.217625211508575e+00
 1.719051908918811e-01	 1.839042847400324e+00	 2.227785788771780e+00
 1.560610614553088e-01	 1.840455110783858e+00	 2.225808523022547e+00
 3.174507824199989e-01	 1.828532624958971e+00	 2.018998627960547e+00
 3.012632498856996e-01	 1.831269217600288e+00	 2.032941965894057e+00
 2.850981728682304e-01	 1.833855358527709e+00	 2.054048966288073e+00
 2.689574401514132e-01	 1.836292000087910e+00	 2.080192905362020e+00
 2.528429126213524e-01	 1.838580122026157e+00	 2.109204810431736e+00
 2.367564228754889e-01	 1.840720730674532e+00	 2.138884796244212e+00
 2.206997748564563e-01	 1.842714858137325e+00	 2.167013042026851e+00
 2.046747435105624e-01	 1.844563561474353e+00	 2.191360394937716e+00
 1.886830744706905e-01	 1.846267921882982e+00	 2.209698587763872e+00
 1.727264837633943e-01	 1.847829043879594e+00	 2.219810060787176e+00
 1.568066575399322e-01	 1.849248054481242e+00	 2.219497379715756e+00
 3.189602238343636e-01	 1.837227084158984e+00	 2.040437787289862e+00
 3.026957214723645e-01	 1.839976688978579e+00	 2.051865432253739e+00
 2.864537814005891e-01	 1.842575126703891e+00	 2.069229501207942e+00
 2.702363013837929e-01	 1.845023354209911e+00	 2.090859909924347e+00
 2.540451511563637e-01	 1.847322355900495e+00	 2.115039512181792e+00
 2.378821720295160e-01	 1.849473142892728e+00	 2.140015114594666e+00
 2.217491765234075e-01	 1.851476752198452e+00	 2.164008139158437e+00
 2.056479480239961e-01	 1.853334245903695e+00	 2.185217986999877e+00
 1.895802404644332e-01	 1.855046710346803e+00	 2.201830296994115e+00
 1.735477780307659e-01	 1.856615255296021e+00	 2.212050625296444e+00
 1.575522548916935e-01	 1.858041013127248e+00	 2.214100824715320e+00
 3.204696669598779e-01	 1.845921553212783e+00	 2.065634415792172e+00
 3.041281946828570e-01	 1.848684170225434e+00	 2.074733275801062e+00
 2.878093914695663e-01	 1.851294904762620e+00	 2.088112978113632e+00
 2.715151640657085e-01	 1.853754718227649e+00	 2.104680596496654e+00
 2.552473910539679e-01	 1.856064599682962e+00	 2.123277188553325e+00
 2.390079224593470e-01	 1.858225565030656e+00	 2.142714312803973e+00
 2.227985793795404e-01	 1.860238656190121e+00	 2.161774774974107e+00
 2.066211536401689e-01	 1.862104940273597e+00	 2.179222311774136e+00
 1.904774074746651e-01	 1.863825508760415e+00	 2.193811155110602e+00
 1.743690732285824e-01	 1.865401476670680e+00	 2.204294964742675e+00
 1.582978530880727e-01	 1.866833981739142e+00	 2.209435171912732e+00
 3.219791109412959e-01	 1.854616027193228e+00	 2.094374781072487e+00
 3.055606687055367e-01	 1.857391656406358e+00	 2.101339796098796e+00
 2.891650023070632e-01	 1.860014687762456e+00	 2.110471571836604e+00
 2.727940274725352e-01	 1.862486087193140e+00	 2.121383399681422e+00
 2.564496316329439e-01	 1.864806848419438e+00	 2.133631503221281e+00
 2.401336735270881e-01	 1.866977992128452e+00	 2.146725916193778e+00
 2.238479828302094e-01	 1.869000565147120e+00	 2.160140613462181e+00
 2.075943598076006e-01	 1.870875639613892e+00	 2.173322940604684e+00
 1.913745749929846e-01	 1.872604312149079e+00	 2.185702387685196e+00
 1.751903688914300e-01	 1.874187703024645e+00	 2.196698752421779e+00
 1.590434517065504e-01	 1.875626955334190e+00	 2.205729737314971e+00
 1.515875352185671e-01	 1.787698041553686e+00	 2.269226709421887e+00
 1.362373235588749e-01	 1.788933352611214e+00	 2.260120708976061e+00
 1.209257759949575e-01	 1.790033568801779e+00	 2.242099820487240e+00
 1.056543988854585e-01	 1.790999839205792e+00	 2.218045122276938e+00
 9.042466986710648e-02	 1.791833331478070e+00	 2.190784055602310e+00
 7.523803770138718e-02	 1.792535231079186e+00	 2.163093857341540e+00
 6.009592214175536e-02	 1.793106740510443e+00	 2.137704844330213e+00
 4.499971382104898e-02	 1.793549078553067e+00	 2.117303548940791e+00
 2.995077415874777e-02	 1.793863479512159e+00	 2.104535706209734e+00
 1.495043528770935e-02	 1.794051192465945e+00	 2.102009093463014e+00
 0.000000000000000e+00	 1.794113480520832e+00	 2.112296223996288e+00
 1.523331148274494e-01	 1.796490790921936e+00	 2.262891529717271e+00
 1.369074035247442e-01	 1.797732177827113e+00	 2.249506386385456e+00
 1.215205464861688e-01	 1.798837805404580e+00	 2.226008677672224e+00
 1.061740574793720e-01	 1.799808828386452e+00	 2.196789836463178e+00
 9.086942140881972e-02	 1.800646420170603e+00	 2.166176165420818e+00
 7.560809416171207e-02	 1.801351772048239e+00	 2.138430735475874e+00
 6.039150247454317e-02	 1.801926092435115e+00	 2.117755186509211e+00
 4.522104381996076e-02	 1.802370606106978e+00	 2.108291430771940e+00
 3.009808631356915e-02	 1.802686553439808e+00	 2.114123260193879e+00
 1.502396864030461e-02	 1.802875189655369e+00	 2.139277859267081e+00
 0.000000000000000e+00	 1.802937784072603e+00	 2.187727225684652e+00
 1.530786982385879e-01	 1.805283585135209e+00	 2.255770749359312e+00
 1.375774869077654e-01	 1.806531047918943e+00	 2.239347244392011e+00
 1.221153200103886e-01	 1.807642086910848e+00	 2.212080300473926e+00
 1.066937187231594e-01	 1.808617862494764e+00	 2.179474329001683e+00
 9.131417521832773e-02	 1.809459553811653e+00	 2.146960817269349e+00
 7.597815250885417e-02	 1.810168357983386e+00	 2.119899079866655e+00
 6.068708431431715e-02	 1.810745489340192e+00	 2.103576947996817e+00
 4.544237494721856e-02	 1.811192178652375e+00	 2.103211398090812e+00
 3.024539921933057e-02	 1.811509672366819e+00	 2.123949121617433e+00
 1.509750236771070e-02	 1.811699231848858e+00	 2.170867038444441e+00
 0.000000000000000e+00	 1.811762132630000e+00	 2.248972756516062e+00
 1.538242850294628e-01	 1.814076419210772e+00	 2.248187150546693e+00
 1.382475733282073e-01	 1.815329957900539e+00	 2.229987081180702e+00
 1.227100962305709e-01	 1.816446408331353e+00	 2.200650281962317e+00
 1.072133823223502e-01	 1.817426936538807e+00	 2.166402603126275e+00
 9.175893104361964e-02	 1.818272727406976e+00	 2.133392829529785e+00
 7.634821253314082e-02	 1.818984983888418e+00	 2.107692668880372e+00
 6.098266749361573e-02	 1.819564926227870e+00	 2.095296698915032e+00
 4.566370707743905e-02	 1.820013791190213e+00	 2.102122275611683e+00
 3.039271279258867e-02	 1.820332831293267e+00	 2.134009404985795e+00
 1.517103642828048e-02	 1.820523314045961e+00	 2.196720581429588e+00
 0.000000000000000e+00	 1.820586521192396e+00	 2.295940595905568e+00
 1.545698747775543e-01	 1.822869288165889e+00	 2.240458213948183e+00
 1.389176624063389e-01	 1.824128902785731e+00	 2.221763946254909e+00
 1.233048748096698e-01	 1.825250764676867e+00	 2.192048568707672e+00
 1.077330479824736e-01	 1.826236045526661e+00	 2.157873553477189e+00
 9.220368863268462e-02	 1.827085935962324e+00	 2.125722772971393e+00
 7.671827402489943e-02	 1.827801644767130e+00	 2.102002105697578e+00
 6.127825184497742e-02	 1.828384398100345e+00	 2.093039007521404e+00
 4.588504008523901e-02	 1.828835438721451e+00	 2.105082050983572e+00
 3.054002694990016e-02	 1.829156025219229e+00	 2.144300435786126e+00
 1.524457078036680e-02	 1.829347431246227e+00	 2.216783473941977e+00
 0.000000000000000e+00	 1.829410944759166e+00	 2.328540053407714e+00
 1.553154670603430e-01	 1.831662187017830e+00	 2.232896249455735e+00
 1.395877537624294e-01	 1.832927877588356e+00	 2.215010283333716e+00
 1.238996554106393e-01	 1.834055150958159e+00	 2.186599602282202e+00
 1.082527154090591e-01	 1.835045184466403e+00	 2.154181095367763e+00
 9.264844773351176e-02	 1.835899174483453e+00	 2.124197079621775e+00
 7.708833677445745e-02	 1.836618335623317e+00	 2.103014901282480e+00
 6.157383720094068e-02	 1.837203899959812e+00	 2.096926494401917e+00
 4.610637384523512e-02	 1.837657116247048e+00	 2.112147899935315e+00
 3.068734160782166e-02	 1.837979249144782e+00	 2.154818748890293e+00
 1.531810538232251e-02	 1.838171578449207e+00	 2.231001713500514e+00
 0.000000000000000e+00	 1.838235398329687e+00	 2.346681930714563e+00
 1.560610614553088e-01	 1.840455110783858e+00	 2.225808523022547e+00
 1.402578470167476e-01	 1.841726877322242e+00	 2.210053069022265e+00
 1.244944376964336e-01	 1.842859562186001e+00	 2.184622456605580e+00
 1.087723843076361e-01	 1.843854348366112e+00	 2.155614290271415e+00
 9.309320809409025e-02	 1.844712437976115e+00	 2.129058148463788e+00
 7.745840057214219e-02	 1.845435051460771e+00	 2.110915554937674e+00
 6.186942339404398e-02	 1.846023426808468e+00	 2.107079885086764e+00
 4.632770823204415e-02	 1.846478818767959e+00	 2.123376210685507e+00
 3.083465668290985e-02	 1.846802498070001e+00	 2.165561086995364e+00
 1.539164019250044e-02	 1.846995750654450e+00	 2.239322286606511e+00
 0.000000000000000e+00	 1.847059876903333e+00	 2.350278484739425e+00
 1.568066575399322e-01	 1.849248054481242e+00	 2.219497379715756e+00
 1.409279417895626e-01	 1.850525897001225e+00	 2.207213947395211e+00
 1.250892213300065e-01	 1.851663993371164e+00	 2.186430971271973e+00
 1.092920543837341e-01	 1.852663532233867e+00	 2.162454621141653e+00
 9.353796946240919e-02	 1.853525721446064e+00	 2.140531613275657e+00
 7.782846520828113e-02	 1.854251787283287e+00	 2.125858907894873e+00
 6.216501025682580e-02	 1.854842973648508e+00	 2.123576938934534e+00
 4.654904312028284e-02	 1.855300541285142e+00	 2.138769537075033e+00
 3.098197209172137e-02	 1.855625766994964e+00	 2.176464045030693e+00
 1.546517516925347e-02	 1.855819942861508e+00	 2.241631428294120e+00
 0.000000000000000e+00	 1.855884375479479e+00	 2.339186405562800e+00
 1.575522548916935e-01	 1.858041013127248e+00	 2.214100824715320e+00
 1.415980377011434e-01	 1.859324931639138e+00	 2.206563658514688e+00
 1.256840059743122e-01	 1.860468439524419e+00	 2.191993575732205e+00
 1.098117253428824e-01	 1.861472731077748e+00	 2.174554313114963e+00
 9.398273158645773e-02	 1.862339019899055e+00	 2.158365461952899e+00
 7.819853047320163e-02	 1.863068538094658e+00	 2.147503701421685e+00
 6.246059762182463e-02	 1.863662535482129e+00	 2.146003900721636e+00
 4.677037838456789e-02	 1.864122278799557e+00	 2.157860122181099e+00
 3.112928775081290e-02	 1.864449050919747e+00	 2.187026555154813e+00
 1.553871027093444e-02	 1.864644150069929e+00	 2.237418408149004e+00
 0.000000000000000e+00	 1.864708889057499e+00	 2.312912784165197e+00
 1.582978530880727e-01	 1.866833981739142e+00	 2.209435171912732e+00
 1.422681343717590e-01	 1.868123976249811e+00	 2.207964547035276e+00
 1.262787912923049e-01	 1.869272895656538e+00	 2.201222451249890e+00
 1.103313968906104e-01	 1.870281939905831e+00	 2.191867313931277e+00
 9.442749421422506e-02	 1.871152328340841e+00	 2.182529867762647e+00
 7.856859615723111e-02	 1.871885298898677e+00	 2.175815676232359e+00
 6.275618532157888e-02	 1.872482107311525e+00	 2.174307476716183e+00
 4.699171389951602e-02	 1.872944026312160e+00	 2.180567372029600e+00
 3.127660357674109e-02	 1.873272344844427e+00	 2.197138901007424e+00
 1.561224545589620e-02	 1.873468367279264e+00	 2.226549016276643e+00
 0.000000000000000e+00	 1.873533412636770e+00	 2.271309994948983e+00
 1.590434517065504e-01	 1.875626955334190e+00	 2.205729737314971e+00
 1.429382314216784e-01	 1.876923025847079e+00	 2.211687136769754e+00
 1.268735769469384e-01	 1.878077356778291e+00	 2.214391283701259e+00
 1.108510687324477e-01	 1.879091153726199e+00	 2.214642794814593e+00
 9.487225709370022e-02	 1.879965641777177e+00	 2.213234335989161e+00
 7.893866205069694e-02	 1.880702064699139e+00	 2.210954800042265e+00
 6.305177318862708e-02	 1.881301684138893e+00	 2.208593233413068e+00
 4.721304953974399e-02	 1.881765778823908e+00	 2.206942545263378e+00
 3.142391948606261e-02	 1.882095643769081e+00	 2.206803030200786e+00
 1.568578068249159e-02	 1.882292589489063e+00	 2.208985733470128e+00
 0.000000000000000e+00	 1.882357941216666e+00	 2.214315685044311e+00
 1.882357941216666e+00	 0.000000000000000e+00	 9.162186785634679e+00
 1.882292589489063e+00	 1.568578068249056e-02	 6.340274886228620e+00
 1.882095643769081e+00	 3.142391948606171e-02	 4.194234948704740e+00
 1.881765778823908e+00	 4.721304953974327e-02	 2.628735158614113e+00
 1.881301684138893e+00	 6.305177318862648e-02	 1.548106840975414e+00
 1.880702064699139e+00	 7.893866205069652e-02	 8.564481275132816e-01
 1.879965641777177e+00	 9.487225709369997e-02	 4.577304729644593e-01
 1.879091153726199e+00	 1.108510687324475e-01	 2.559079412051122e-01
 1.878077356778291e+00	 1.268735769469385e-01	 1.550291596318236e-01
 1.876923025847079e+00	 1.429382314216786e-01	 5.935182577426479e-02
 1.875626955334190e+00	 1.590434517065505e-01	-1.265403649300213e-01
 1.891180970624999e+00	 0.000000000000000e+00	 9.198002947117118e+00
 1.891115312579360e+00	 1.575930341640359e-02	 6.526331881212657e+00
 1.890917443731123e+00	 3.157121036829688e-02	 4.467359870429627e+00
 1.890586032635812e+00	 4.743434757785371e-02	 2.937651872140594e+00
 1.890119762636100e+00	 6.334731083901778e-02	 1.853221764944265e+00
 1.889517332647063e+00	 7.930866507460144e-02	 1.129616789691866e+00
 1.888777457947550e+00	 9.531694441351364e-02	 6.820046717106818e-01
 1.887898870977132e+00	 1.113706522885186e-01	 4.252633697339703e-01
 1.886880322138074e+00	 1.274682615549137e-01	 2.740733755880740e-01
 1.885720580601748e+00	 1.436082146305012e-01	 1.430124750101943e-01
 1.884418435118870e+00	 1.597889236572119e-01	-5.334713433689084e-02
 1.900004000033333e+00	 0.000000000000000e+00	 9.123369598961915e+00
 1.899938035669670e+00	 1.583282615033130e-02	 6.617959704047404e+00
 1.899739243693211e+00	 3.171850125053537e-02	 4.665287782726669e+00
 1.899406286447809e+00	 4.765564561593599e-02	 3.192494939388773e+00
 1.898937841133457e+00	 6.364284848933535e-02	 2.125970396441605e+00
 1.898332600595200e+00	 7.967866809837910e-02	 1.391418561851689e+00
 1.897589274118200e+00	 9.576163173314470e-02	 9.139286407222209e-01
 1.896706588228396e+00	 1.118902358443561e-01	 6.180467593362780e-01
 1.895683287498230e+00	 1.280629461626155e-01	 4.278505493754956e-01
 1.894518135356813e+00	 1.442781978390277e-01	 2.670261270145203e-01
 1.893209914903944e+00	 1.605343956075780e-01	 5.894738790259273e-02
 1.908827029441666e+00	 0.000000000000000e+00	 8.960016298030986e+00
 1.908760758759990e+00	 1.590634888430188e-02	 6.631278495463021e+00
 1.908561043655338e+00	 3.186579213283049e-02	 4.799072914504816e+00
 1.908226540259889e+00	 4.787694365406539e-02	 3.399815563139847e+00
 1.907755919630951e+00	 6.393838613967308e-02	 2.368983045910391e+00
 1.907147868543532e+00	 8.004867112213844e-02	 1.641164094598953e+00
 1.906401090289097e+00	 9.620631905271350e-02	 1.150113536313812e+00
 1.905514305479960e+00	 1.124098194000881e-01	 8.288086884991210e-01
 1.904486252858727e+00	 1.286576307701752e-01	 6.095081503006593e-01
 1.903315690112244e+00	 1.449481810473887e-01	 4.238129472596912e-01
 1.902001394689388e+00	 1.612798675577750e-01	 2.027299731242167e-01
 1.917650058849999e+00	 0.000000000000000e+00	 8.729287324306574e+00
 1.917583481850319e+00	 1.597987161834349e-02	 6.582123399666916e+00
 1.917382843617501e+00	 3.201308301523558e-02	 4.879574977658040e+00
 1.917046794072044e+00	 4.809824169231717e-02	 3.566050754128693e+00
 1.916573998128565e+00	 6.423392379012477e-02	 2.584845650359897e+00
 1.915963136492034e+00	 8.041867414598838e-02	 1.878178627700021e+00
 1.915212906460218e+00	 9.665100637234036e-02	 1.387232863311433e+00
 1.914322022731792e+00	 1.129294029558424e-01	 1.052198295835423e+00
 1.913289218219532e+00	 1.292523153777245e-01	 8.123165302042576e-01
 1.912113244868009e+00	 1.456181642557153e-01	 6.059280788094029e-01
 1.910792874475175e+00	 1.620253395079285e-01	 3.705219034424653e-01
 1.926473088258333e+00	 0.000000000000000e+00	 8.452150503515186e+00
 1.926406204940658e+00	 1.605339435248433e-02	 6.486051055658697e+00
 1.926204643579694e+00	 3.216037389780393e-02	 4.917463556248064e+00
 1.925867047884262e+00	 4.831953973076658e-02	 3.697525855406517e+00
 1.925392076626284e+00	 6.452946144078428e-02	 2.776100678302038e+00
 1.924778404440686e+00	 8.078867717003781e-02	 2.101801529007091e+00
 1.924024722631534e+00	 9.709569369214555e-02	 1.622020909339543e+00
 1.923129739983864e+00	 1.134489865117469e-01	 1.282960878987506e+00
 1.922092183580612e+00	 1.298469999853945e-01	 1.029665964039551e+00
 1.920910799624076e+00	 1.462881474641382e-01	 8.060584093457609e-01
 1.919584354261279e+00	 1.627708114581646e-01	 5.549757576230874e-01
 1.935296117666666e+00	 0.000000000000000e+00	 8.149205788416833e+00
 1.935228928031002e+00	 1.612691708675258e-02	 6.358345911002326e+00
 1.935026443541912e+00	 3.230766478058891e-02	 4.923222375713530e+00
 1.934687301696533e+00	 4.854083776948886e-02	 3.800456997851177e+00
 1.934210155124092e+00	 6.482499909174548e-02	 2.945248010288431e+00
 1.933593672389465e+00	 8.115868019439562e-02	 2.311385846550587e+00
 1.932836538803020e+00	 9.754038101224943e-02	 1.851271222735694e+00
 1.931937457236144e+00	 1.139685700679294e-01	 1.515935560298493e+00
 1.930895148941935e+00	 1.304416845933169e-01	 1.255063772823699e+00
 1.929708354380417e+00	 1.469581306727882e-01	 1.017019428428828e+00
 1.928375834047675e+00	 1.635162834086093e-01	 7.488722870916186e-01
 1.944119147074999e+00	 0.000000000000000e+00	 7.840693606425532e+00
 1.944051651121354e+00	 1.620043982117643e-02	 6.214026363697773e+00
 1.943848243504153e+00	 3.245495566364379e-02	 4.907153455916838e+00
 1.943507555508850e+00	 4.876213580855929e-02	 3.880953489012526e+00
 1.943028233621972e+00	 6.512053674310217e-02	 3.094745795823843e+00
 1.942408940338352e+00	 8.152868321917076e-02	 2.506297873380671e+00
 1.941648354974646e+00	 9.798506833277225e-02	 2.071835132707381e+00
 1.940745174488602e+00	 1.144881536245179e-01	 1.746053017129902e+00
 1.939698114303471e+00	 1.310363692016230e-01	 1.482131526344835e+00
 1.938505909136998e+00	 1.476281138817963e-01	 1.231752172121227e+00
 1.937167313834337e+00	 1.642617553593884e-01	 9.451173792146286e-01
 1.952942176483333e+00	 0.000000000000000e+00	 7.546502980951189e+00
 1.952874374211709e+00	 1.627396255578405e-02	 6.067850737585395e+00
 1.952670043466408e+00	 3.260224654702193e-02	 4.879381151702073e+00
 1.952327809321199e+00	 4.898343384805312e-02	 3.945020137401221e+00
 1.951846312119910e+00	 6.541607439494819e-02	 3.227011287402864e+00
 1.951224208287323e+00	 8.189868624447208e-02	 2.685916724753890e+00
 1.950460171146388e+00	 9.842975565383434e-02	 2.280620310394578e+00
 1.949552891741205e+00	 1.150077371816401e-01	 1.968333274781691e+00
 1.948501079665185e+00	 1.316310538104442e-01	 1.704602323102830e+00
 1.947303463893790e+00	 1.482980970912932e-01	 1.443320252215226e+00
 1.945958793621237e+00	 1.650072273106281e-01	 1.136739105093630e+00
 1.961765205891666e+00	 0.000000000000000e+00	 7.286179433586930e+00
 1.961697097302065e+00	 1.634748529060362e-02	 5.934323096527128e+00
 1.961491843428675e+00	 3.274953743077662e-02	 4.849856084505989e+00
 1.961148063133574e+00	 4.920473188804563e-02	 3.998559514253137e+00
 1.960664390617890e+00	 6.571161204737740e-02	 3.344421652390422e+00
 1.960039476236356e+00	 8.226868927040855e-02	 2.849633927277189e+00
 1.959271987318218e+00	 9.887444297555595e-02	 2.474589369550420e+00
 1.958360608993926e+00	 1.155273207394240e-01	 2.177883560043195e+00
 1.957304045027047e+00	 1.322257384199121e-01	 1.916318145052240e+00
 1.956101018650761e+00	 1.489680803014100e-01	 1.644906967398879e+00
 1.954750273408352e+00	 1.657526992624541e-01	 1.316884849210822e+00
 1.970588235300000e+00	 0.000000000000000e+00	 7.078932674009993e+00
 1.970519820392425e+00	 1.642100802566334e-02	 5.827698902415198e+00
 1.970313643390948e+00	 3.289682831496119e-02	 4.828358968435969e+00
 1.969968316945962e+00	 4.942602992861205e-02	 4.047374154728921e+00
 1.969482469115896e+00	 6.600714970048366e-02	 3.449314763439816e+00
 1.968854744185433e+00	 8.263869229708914e-02	 2.996853019633803e+00
 1.968083803490109e+00	 9.931913029805751e-02	 2.650758505598292e+00
 1.967168326246733e+00	 1.160469042979975e-01	 2.369896213475018e+00
 1.966107010389023e+00	 1.328204230301581e-01	 2.111227284802763e+00
 1.964898573407881e+00	 1.496380635122773e-01	 1.829812493792930e+00
 1.963541753195655e+00	 1.664981712149926e-01	 1.478818518361598e+00
 1.875626955334190e+00	 1.590434517065505e-01	-1.265403649300213e-01
 1.874187703024645e+00	 1.751903688914292e-01	-3.757456009783802e-01
 1.872604312149079e+00	 1.913745749929839e-01	-5.818698633698404e-01
 1.870875639613893e+00	 2.075943598076000e-01	-7.213043620724434e-01
 1.869000565147121e+00	 2.238479828302088e-01	-7.710035813807291e-01
 1.866977992128452e+00	 2.401336735270876e-01	-7.085317254997400e-01
 1.864806848419438e+00	 2.564496316329435e-01	-5.121100889003976e-01
 1.862486087193140e+00	 2.727940274725351e-01	-1.606653942407219e-01
 1.860014687762457e+00	 2.891650023070629e-01	 3.661208512851978e-01
 1.857391656406358e+00	 3.055606687055365e-01	 1.087761922108045e+00
 1.854616027193228e+00	 3.219791109412959e-01	 2.022914295630132e+00
 1.884418435118870e+00	 1.597889236572119e-01	-5.334713433689084e-02
 1.882972436714475e+00	 1.760115250265634e-01	-2.973918723547534e-01
 1.881381624134609e+00	 1.922715900940228e-01	-4.995133406127998e-01
 1.879644848927742e+00	 2.085674006398712e-01	-6.375618176755681e-01
 1.877760985570946e+00	 2.248972080009056e-01	-6.898727863161465e-01
 1.875728932303808e+00	 2.412592333445181e-01	-6.353098398339225e-01
 1.873547611962533e+00	 2.576516679671723e-01	-4.533084981698517e-01
 1.871215972813470e+00	 2.740726736175319e-01	-1.239209834161169e-01
 1.868732989385335e+00	 2.905203828444762e-01	 3.721379870586424e-01
 1.866097663299309e+00	 3.069928993702055e-01	 1.053444322883641e+00
 1.863309024096240e+00	 3.234882984886234e-01	 1.937816522547536e+00
 1.893209914903944e+00	 1.605343956075780e-01	 5.894738790259273e-02
 1.891757170404670e+00	 1.768326811614318e-01	-1.846317270560767e-01
 1.890158936120451e+00	 1.931686051948514e-01	-3.867288345954646e-01
 1.888414058241827e+00	 2.095404414720083e-01	-5.267211051727806e-01
 1.886521405994919e+00	 2.259464331715612e-01	-5.843857776188243e-01
 1.884479872479216e+00	 2.423847931620121e-01	-5.399392489780070e-01
 1.882288375505576e+00	 2.588537043015761e-01	-3.740770598543287e-01
 1.879945858433651e+00	 2.753513197628177e-01	-6.801483213281651e-02
 1.877451291007973e+00	 2.918757633822889e-01	 3.964697748534970e-01
 1.874803670191940e+00	 3.084251300353768e-01	 1.036994014292810e+00
 1.872002020998873e+00	 3.249974860365428e-01	 1.870525823166532e+00
 1.902001394689388e+00	 1.612798675577750e-01	 2.027299731242158e-01
 1.900541904095215e+00	 1.776538372961512e-01	-4.469934326643782e-02
 1.898936248106599e+00	 1.940656202955728e-01	-2.502516218278545e-01
 1.897183267556163e+00	 2.105134823040985e-01	-3.948974115487345e-01
 1.895281826419069e+00	 2.269956583422437e-01	-4.599152013682145e-01
 1.893230812654720e+00	 2.435103529796167e-01	-4.269264181344533e-01
 1.891029139048634e+00	 2.600557406361796e-01	-2.779313063781476e-01
 1.888675744053763e+00	 2.766299659083937e-01	 4.654245493891533e-03
 1.886169592630466e+00	 2.932311439204797e-01	 4.379608581791344e-01
 1.883509677084360e+00	 3.098573607010063e-01	 1.038626709274412e+00
 1.880695017901244e+00	 3.265066735849895e-01	 1.822757381502061e+00
 1.910792874475175e+00	 1.620253395079285e-01	 3.705219034424646e-01
 1.909326637786092e+00	 1.784749934308381e-01	 1.152977608515172e-01
 1.907713560093051e+00	 1.949626353962909e-01	-9.670017109619544e-02
 1.905952476870757e+00	 2.114865231362290e-01	-2.481009978012957e-01
 1.904042246843425e+00	 2.280448835130215e-01	-3.217427160433621e-01
 1.901981752830368e+00	 2.446359127973791e-01	-3.007028464273442e-01
 1.899769902591771e+00	 2.612577769710079e-01	-1.683299344678869e-01
 1.897405629673888e+00	 2.779086120542619e-01	 9.172400688587957e-02
 1.894887894252909e+00	 2.945865244590271e-01	 4.954700300611963e-01
 1.892215683976677e+00	 3.112895913670508e-01	 1.058547667203605e+00
 1.889388014803469e+00	 3.280158611338988e-01	 1.796189121590408e+00
 1.919584354261279e+00	 1.627708114581646e-01	 5.549757576230883e-01
 1.918111371477284e+00	 1.792961495656094e-01	 2.883757056520144e-01
 1.916490872079803e+00	 1.958596504971091e-01	 6.742107811659076e-02
 1.914721686185623e+00	 2.124595639684870e-01	-9.223968324868054e-02
 1.912802667268015e+00	 2.290941086839626e-01	-1.750611311485087e-01
 1.910732693006208e+00	 2.457614726153465e-01	-1.656268077654806e-01
 1.908510666135051e+00	 2.624598133060859e-01	-4.867609568879189e-02
 1.906135515294109e+00	 2.791872582004242e-01	 1.908679938103892e-01
 1.903606195875401e+00	 2.959419049979102e-01	 5.678700026362864e-01
 1.900921690869000e+00	 3.127218220334664e-01	 1.096952074107680e+00
 1.898081011705663e+00	 3.295250486832059e-01	 1.792462752521317e+00
 1.928375834047675e+00	 1.635162834086093e-01	 7.488722870916178e-01
 1.926896105168775e+00	 1.801173057005816e-01	 4.676713138307589e-01
 1.925268184066851e+00	 1.967566655981312e-01	 2.357190163956289e-01
 1.923490895500773e+00	 2.134326048009596e-01	 6.687874184974807e-02
 1.921563087692869e+00	 2.301433338551352e-01	-2.497648302023897e-02
 1.919483633182285e+00	 2.468870324335661e-01	-2.598503913993516e-02
 1.917251429678539e+00	 2.636618496414380e-01	 7.768135393264765e-02
 1.914865400914505e+00	 2.804659043468823e-01	 2.997947730385532e-01
 1.912324497498038e+00	 2.972972855371075e-01	 6.540471901085360e-01
 1.909627697761435e+00	 3.141540527002096e-01	 1.154025420318534e+00
 1.906774008607944e+00	 3.310342362328462e-01	 1.813184793534321e+00
 1.937167313834337e+00	 1.642617553593884e-01	 9.451173792146286e-01
 1.935680838860548e+00	 1.809384618358714e-01	 6.464392568687580e-01
 1.934045496054190e+00	 1.976536806994605e-01	 4.019092418287449e-01
 1.932260104816218e+00	 2.144056456337339e-01	 2.235441730822809e-01
 1.930323508118016e+00	 2.311925590266076e-01	 1.234899501880667e-01
 1.928234573358647e+00	 2.480125922520850e-01	 1.140056219740004e-01
 1.925992193222301e+00	 2.648638859770895e-01	 2.074466439004887e-01
 1.923595286535160e+00	 2.817445504936383e-01	 4.162472039695835e-01
 1.921042799120914e+00	 2.986526660765980e-01	 7.529015046439615e-01
 1.918333704654092e+00	 3.155862833672365e-01	 1.229943875643885e+00
 1.915467005510425e+00	 3.325434237827546e-01	 1.859927579812803e+00
 1.945958793621237e+00	 1.650072273106281e-01	 1.136739105093630e+00
 1.944465572552588e+00	 1.817596179715958e-01	 8.180492814822717e-01
 1.942822808041816e+00	 1.985506958012007e-01	 5.598135116859979e-01
 1.941029314131968e+00	 2.153786864668973e-01	 3.721419158877187e-01
 1.939083928543483e+00	 2.322417841984477e-01	 2.653996924210018e-01
 1.936985513535340e+00	 2.491381520709504e-01	 2.501966495008199e-01
 1.934732956766399e+00	 2.660659223130650e-01	 3.373759176024012e-01
 1.932325172156156e+00	 2.830231966406935e-01	 5.380017323677807e-01
 1.929761100744129e+00	 3.000080466163604e-01	 8.633461647928706e-01
 1.927039711547079e+00	 3.170185140345035e-01	 1.324874662135198e+00
 1.924160002413225e+00	 3.340526113328665e-01	 1.934230249585920e+00
 1.954750273408352e+00	 1.657526992624541e-01	 1.316884849210822e+00
 1.953250306244875e+00	 1.825807741078712e-01	 9.759835135598964e-01
 1.951600120029727e+00	 1.994477109034553e-01	 7.033572660069481e-01
 1.949798523448037e+00	 2.163517273005370e-01	 5.071504746566243e-01
 1.947844348969299e+00	 2.332910093707239e-01	 3.958951706808327e-01
 1.945736453712412e+00	 2.502637118902095e-01	 3.785062883832234e-01
 1.943473720310901e+00	 2.672679586493892e-01	 4.642760978164787e-01
 1.941055057777571e+00	 2.843018427880500e-01	 6.628677093901979e-01
 1.938479402367777e+00	 3.013634271563733e-01	 9.843075160465034e-01
 1.935745718440505e+00	 3.184507447019673e-01	 1.438976424528458e+00
 1.932852999316459e+00	 3.355617988831173e-01	 2.037599713127396e+00
 1.963541753195655e+00	 1.664981712149926e-01	 1.478818518361599e+00
 1.962035039937395e+00	 1.834019302448144e-01	 1.113833837158703e+00
 1.960377432017917e+00	 2.003447260063280e-01	 8.265672208418332e-01
 1.958567732764435e+00	 2.173247681347400e-01	 6.231394048902513e-01
 1.956604769395495e+00	 2.343402345435043e-01	 5.101978712442250e-01
 1.954487393889909e+00	 2.513892717099096e-01	 4.949180604388616e-01
 1.952214483855871e+00	 2.684699949860874e-01	 5.850037882073321e-01
 1.949784943399491e+00	 2.855804889357098e-01	 7.886867351124907e-01
 1.947197703991955e+00	 3.027188076966157e-01	 1.114724863147330e+00
 1.944451725334479e+00	 3.198829753695840e-01	 1.572399598430430e+00
 1.941545996220244e+00	 3.370709864334422e-01	 2.171511604218170e+00
 1.854616027193228e+00	 3.219791109412959e-01	 2.022914295630130e+00
 1.851687373569412e+00	 3.384155901141933e-01	 2.934963061996553e+00
 1.848604328113462e+00	 3.548709288244347e-01	 3.569655711798454e+00
 1.845366012173774e+00	 3.713431345988638e-01	 3.918392131651514e+00
 1.841971578090960e+00	 3.878301886145815e-01	 4.112738954420179e+00
 1.838420209993003e+00	 4.043300462218324e-01	 4.254367895435036e+00
 1.834711124582473e+00	 4.208406374924301e-01	 4.331431386837653e+00
 1.830843571914933e+00	 4.373598677937027e-01	 4.332283795481402e+00
 1.826816836167647e+00	 4.538856183878984e-01	 4.245496376294025e+00
 1.822630236397704e+00	 4.704157470569681e-01	 4.059872253144491e+00
 1.818283127288656e+00	 4.869480887526040e-01	 3.764461470456337e+00
 1.863309024096240e+00	 3.234882984886234e-01	 1.937816522547533e+00
 1.860366643223122e+00	 3.400018190873033e-01	 2.797552087456948e+00
 1.857269146849096e+00	 3.565342876221557e-01	 3.387287177260203e+00
 1.854015652204112e+00	 3.730837022808532e-01	 3.700799536616449e+00
 1.850605307655608e+00	 3.896480347778188e-01	 3.891011913654244e+00
 1.847037293507387e+00	 4.062252308795626e-01	 4.035768793407247e+00
 1.843310822790522e+00	 4.228132109556790e-01	 4.122563838081153e+00
 1.839425142045411e+00	 4.394098705554803e-01	 4.139097241616969e+00
 1.835379532094092e+00	 4.560130810102132e-01	 4.073306330587347e+00
 1.831173308801916e+00	 4.726206900607705e-01	 3.913381552820020e+00
 1.826805823827681e+00	 4.892305225107746e-01	 3.647782507902104e+00
 1.872002020998873e+00	 3.249974860365428e-01	 1.870525823166534e+00
 1.869045912876419e+00	 3.415880480610784e-01	 2.677557972699101e+00
 1.865933965584301e+00	 3.581976464205966e-01	 3.221176929609909e+00
 1.862665292234023e+00	 3.748242699636000e-01	 3.500565899312552e+00
 1.859239037219846e+00	 3.914658809418339e-01	 3.684538279210346e+00
 1.855654377021386e+00	 4.081204155380744e-01	 3.830012874477813e+00
 1.851910520998216e+00	 4.247857844196964e-01	 3.924292887546082e+00
 1.848006712175566e+00	 4.414598733179969e-01	 3.954796396385816e+00
 1.843942228020241e+00	 4.581405436332218e-01	 3.908996326907853e+00
 1.839716381205850e+00	 4.748256330652056e-01	 3.774653981326330e+00
 1.835328520366439e+00	 4.915129562695016e-01	 3.539798767501084e+00
 1.880695017901244e+00	 3.265066735849895e-01	 1.822757381502062e+00
 1.877725182529421e+00	 3.431742770354342e-01	 2.578100239431229e+00
 1.874598784319196e+00	 3.598610052196566e-01	 3.075463872115123e+00
 1.871314932263623e+00	 3.765648376469893e-01	 3.322523004911272e+00
 1.867872766783782e+00	 3.932837271065004e-01	 3.498762064134908e+00
 1.864271460535099e+00	 4.100156001972329e-01	 3.643051891688704e+00
 1.860510219205645e+00	 4.267583578843425e-01	 3.742509850178178e+00
 1.856588282305478e+00	 4.435098760811119e-01	 3.784478271375367e+00
 1.852504923946168e+00	 4.602680062567869e-01	 3.756537610175913e+00
 1.848259453609578e+00	 4.770305760701435e-01	 3.646344091545756e+00
 1.843851216904998e+00	 4.937953900286675e-01	 3.441493579064189e+00
 1.889388014803469e+00	 3.280158611338988e-01	 1.796189121590406e+00
 1.886404452182247e+00	 3.447605060102871e-01	 2.502236615092433e+00
 1.883263603053897e+00	 3.615243640192350e-01	 2.954270310998067e+00
 1.879964572293025e+00	 3.783054053309060e-01	 3.171513163099339e+00
 1.876506496347521e+00	 3.951015732716919e-01	 3.338937152690792e+00
 1.872888544048626e+00	 4.119107848569036e-01	 3.480298006959316e+00
 1.869109917412900e+00	 4.287309313494783e-01	 3.582766085462244e+00
 1.865169852435230e+00	 4.455598788446854e-01	 3.633696434400634e+00
 1.861067619871948e+00	 4.623954688807709e-01	 3.620641234369249e+00
 1.856802526013169e+00	 4.792355190754544e-01	 3.531361345480883e+00
 1.852373913443422e+00	 4.960778237881541e-01	 3.353836881697640e+00
 1.898081011705663e+00	 3.295250486832059e-01	 1.792462752521315e+00
 1.895083721835017e+00	 3.463467349855531e-01	 2.452964325887192e+00
 1.891928421788526e+00	 3.631877228192311e-01	 2.861639684991011e+00
 1.888614212322343e+00	 3.800459730152350e-01	 3.052286137917163e+00
 1.885140225911173e+00	 3.969194194372820e-01	 3.210217053473661e+00
 1.881505627562064e+00	 4.138059695169516e-01	 3.346982655153403e+00
 1.877709615620070e+00	 4.307035048149640e-01	 3.450041005835358e+00
 1.873751422564904e+00	 4.476098816085765e-01	 3.506973893076425e+00
 1.869630315797655e+00	 4.645229315050365e-01	 3.505497874914129e+00
 1.865345598416690e+00	 4.814404620810083e-01	 3.433474462916494e+00
 1.860896609981780e+00	 4.983602575478439e-01	 3.278919376256249e+00
 1.906774008607944e+00	 3.310342362328462e-01	 1.813184793534322e+00
 1.903762991487849e+00	 3.479329639611483e-01	 2.433221730621731e+00
 1.900593240523198e+00	 3.648510816195437e-01	 2.801538676392143e+00
 1.897263852351691e+00	 3.817865406998611e-01	 2.969501266698591e+00
 1.893773955474843e+00	 3.987372656031441e-01	 3.117657421279419e+00
 1.890122711075513e+00	 4.157011541772421e-01	 3.248237929890549e+00
 1.886309313827246e+00	 4.326760782806602e-01	 3.349219208754788e+00
 1.882332992694578e+00	 4.496598843726447e-01	 3.408619934422942e+00
 1.878193011723362e+00	 4.666503941294464e-01	 3.414509997582514e+00
 1.873888670820212e+00	 4.836454050866755e-01	 3.355018647760073e+00
 1.869419306520137e+00	 5.006426913076192e-01	 3.218341765981503e+00
 1.915467005510425e+00	 3.325434237827546e-01	 1.859927579812803e+00
 1.912442261140863e+00	 3.495191929369890e-01	 2.445889919504321e+00
 1.909258059258034e+00	 3.665144404200725e-01	 2.777859274964210e+00
 1.905913492381182e+00	 3.835271083846696e-01	 2.927729523398651e+00
 1.902407685038640e+00	 4.005551117691519e-01	 3.066218296075607e+00
 1.898739794589072e+00	 4.175963388376407e-01	 3.189098863758363e+00
 1.894909012034517e+00	 4.346486517464275e-01	 3.285092662035989e+00
 1.890914562824337e+00	 4.517098871367495e-01	 3.342861593901004e+00
 1.886755707649143e+00	 4.687778567538631e-01	 3.351014207113413e+00
 1.882431743223803e+00	 4.858503480923257e-01	 3.298111129804914e+00
 1.877942003058562e+00	 5.029251250673622e-01	 3.172669706009474e+00
 1.924160002413225e+00	 3.340526113328665e-01	 1.934230249585920e+00
 1.921121530794179e+00	 3.511054219129908e-01	 2.493794279017322e+00
 1.917922877993149e+00	 3.681777992207165e-01	 2.794420796167895e+00
 1.914563132410930e+00	 3.852676760695452e-01	 2.931455528068626e+00
 1.911041414602669e+00	 4.023729579351785e-01	 3.060766283533292e+00
 1.907356878102840e+00	 4.194915234980123e-01	 3.174505649146576e+00
 1.903508710241975e+00	 4.366212252121263e-01	 3.262362832568701e+00
 1.899496132954261e+00	 4.537598899007507e-01	 3.313845557996681e+00
 1.895318403575075e+00	 4.709053193781491e-01	 3.318282788132894e+00
 1.890974815627531e+00	 4.880552910978292e-01	 3.264826785369621e+00
 1.886464699597119e+00	 5.052075588269552e-01	 3.142454459822688e+00
 1.932852999316459e+00	 3.355617988831173e-01	 2.037599713127397e+00
 1.929800800447914e+00	 3.526916508890702e-01	 2.579706023929300e+00
 1.926587696728664e+00	 3.698411580213750e-01	 2.854971855167259e+00
 1.923212772441050e+00	 3.870082437543728e-01	 2.985079504173082e+00
 1.919675144167039e+00	 4.041908041010981e-01	 3.106076678958764e+00
 1.915973961616915e+00	 4.213867081582223e-01	 3.209305801572456e+00
 1.912108408449707e+00	 4.385937986776169e-01	 3.285642760194425e+00
 1.908077703084432e+00	 4.558098926645076e-01	 3.325640018257863e+00
 1.903881099501229e+00	 4.730327820021673e-01	 3.319525207478546e+00
 1.899517888031467e+00	 4.902602341030561e-01	 3.257199154635237e+00
 1.894987396135878e+00	 5.074899925862805e-01	 3.128233296997638e+00
 1.941545996220244e+00	 3.370709864334422e-01	 2.171511604218169e+00
 1.938480070102190e+00	 3.542778798651433e-01	 2.706343697477223e+00
 1.935252515464695e+00	 3.715045168219472e-01	 2.963750104776787e+00
 1.931862412471655e+00	 3.887488114390375e-01	 3.092919185384274e+00
 1.928308873731856e+00	 4.060086502667835e-01	 3.206835536399360e+00
 1.924591045131398e+00	 4.232818928181366e-01	 3.298256267300075e+00
 1.920708106657807e+00	 4.405663721427606e-01	 3.359459078463246e+00
 1.916659273214932e+00	 4.578598954278800e-01	 3.382236478303823e+00
 1.912443795427681e+00	 4.751602446257804e-01	 3.357889579137633e+00
 1.908060960435679e+00	 4.924651771078769e-01	 3.277221434821106e+00
 1.903510092674904e+00	 5.097724263452202e-01	 3.130529883635633e+00
 1.818283127288656e+00	 4.869480887526040e-01	 3.764461470456337e+00
 1.813774900280472e+00	 5.034804565022218e-01	 3.417387731623432e+00
 1.809104985480471e+00	 5.200106428226275e-01	 3.087447911066666e+00
 1.804272851186890e+00	 5.365364197891487e-01	 2.779738277277613e+00
 1.799278004183412e+00	 5.530555395592704e-01	 2.499134196966132e+00
 1.794119990412552e+00	 5.695657351459109e-01	 2.250277460773249e+00
 1.788798395632072e+00	 5.860647212144210e-01	 2.037564240946832e+00
 1.783312846053559e+00	 6.025501949029394e-01	 1.865133812572297e+00
 1.777663008962260e+00	 6.190198366657010e-01	 1.736858174834848e+00
 1.771848593317296e+00	 6.354713111388515e-01	 1.656332713009430e+00
 1.765869350331383e+00	 6.519022680282957e-01	 1.626868045357946e+00
 1.826805823827681e+00	 4.892305225107746e-01	 3.647782507902104e+00
 1.822276465758901e+00	 5.058403811368120e-01	 3.329827905479370e+00
 1.817584662031687e+00	 5.224480481087361e-01	 3.024377514517550e+00
 1.812729878452084e+00	 5.390512850591123e-01	 2.737217511794508e+00
 1.807711619491975e+00	 5.556478336093043e-01	 2.473859676770342e+00
 1.802529428965615e+00	 5.722354161463736e-01	 2.239526407668670e+00
 1.797182890689137e+00	 5.888117366238169e-01	 2.039136396322794e+00
 1.791671629122110e+00	 6.053744813857633e-01	 1.877291100906143e+00
 1.785995309990285e+00	 6.219213200142381e-01	 1.758262160815359e+00
 1.780153640888623e+00	 6.384499061990339e-01	 1.685979902435221e+00
 1.774146371863731e+00	 6.549578786297220e-01	 1.664023088213534e+00
 1.835328520366439e+00	 4.915129562695016e-01	 3.539798767501084e+00
 1.830778031237056e+00	 5.082003057718679e-01	 3.252584702942792e+00
 1.826064338582611e+00	 5.248854533952091e-01	 2.973328730138072e+00
 1.821186905716960e+00	 5.415661503293331e-01	 2.708296241136523e+00
 1.816145234800188e+00	 5.582401276594871e-01	 2.463446506037977e+00
 1.810938867518299e+00	 5.749050971468807e-01	 2.244415970747554e+00
 1.805567385745794e+00	 5.915587520331596e-01	 2.056502220453353e+00
 1.800030412190233e+00	 6.081987678684503e-01	 1.904648754258845e+00
 1.794327611017873e+00	 6.248228033625711e-01	 1.793430721835483e+00
 1.788458688459521e+00	 6.414285012589674e-01	 1.727041777683004e+00
 1.782423393395677e+00	 6.580134892308822e-01	 1.709282212523555e+00
 1.843851216904998e+00	 4.937953900286675e-01	 3.441493579064190e+00
 1.839279596715006e+00	 5.105602304072889e-01	 3.184952035720582e+00
 1.834544015133317e+00	 5.273228586819669e-01	 2.932232765387206e+00
 1.829643932981598e+00	 5.440810155997551e-01	 2.689873104970849e+00
 1.824578850108139e+00	 5.608324217097863e-01	 2.464094122803854e+00
 1.819348306070697e+00	 5.775747781474236e-01	 2.260782783774767e+00
 1.813951880802146e+00	 5.943057674424644e-01	 2.085474767385856e+00
 1.808389195258034e+00	 6.110230543510344e-01	 1.943338089279404e+00
 1.802659912045135e+00	 6.277242867107512e-01	 1.839157682510359e+00
 1.796763736030097e+00	 6.444070963187151e-01	 1.777321099848344e+00
 1.790700414927322e+00	 6.610690998318429e-01	 1.761805502593073e+00
 1.852373913443422e+00	 4.960778237881541e-01	 3.353836881697640e+00
 1.847781162192821e+00	 5.129201550429737e-01	 3.126236611788771e+00
 1.843023691683877e+00	 5.297602639689291e-01	 2.899057315069033e+00
 1.838100960246077e+00	 5.465958808703203e-01	 2.678900787100190e+00
 1.833012465415917e+00	 5.634247157601698e-01	 2.472067379031408e+00
 1.827757744622905e+00	 5.802444591479938e-01	 2.284534028399665e+00
 1.822336375858294e+00	 5.970527828517453e-01	 2.121936492282845e+00
 1.816747978325622e+00	 6.138473408335514e-01	 1.989552355378507e+00
 1.810992213072177e+00	 6.306257700588299e-01	 1.892284973523417e+00
 1.805068783600458e+00	 6.473856913783389e-01	 1.834648518479904e+00
 1.798977436458766e+00	 6.641247104326712e-01	 1.820754294302335e+00
 1.860896609981780e+00	 4.983602575478439e-01	 3.278919376256249e+00
 1.856282727670566e+00	 5.152800796788221e-01	 3.076077832964727e+00
 1.851503368234364e+00	 5.321976692560152e-01	 2.871805210876408e+00
 1.846557987510477e+00	 5.491107461409722e-01	 2.672384213997422e+00
 1.841446080723607e+00	 5.660170098106045e-01	 2.483694428747002e+00
 1.836167183175018e+00	 5.829141401485834e-01	 2.311645153741832e+00
 1.830720870914339e+00	 5.997997982610178e-01	 2.161836945467292e+00
 1.825106761393103e+00	 6.166716273160361e-01	 2.039544547308845e+00
 1.819324514099112e+00	 6.335272534068580e-01	 1.949700707793410e+00
 1.813373831170712e+00	 6.503642864379001e-01	 1.896881057268054e+00
 1.807254457990109e+00	 6.671803210334327e-01	 1.885290217040608e+00
 1.869419306520137e+00	 5.006426913076192e-01	 3.218341765981503e+00
 1.864784293148312e+00	 5.176400043147329e-01	 3.035470487660249e+00
 1.859983044784852e+00	 5.346350745431454e-01	 2.849696370011320e+00
 1.855015014774876e+00	 5.516256114116537e-01	 2.667576132506013e+00
 1.849879696031298e+00	 5.686093038610581e-01	 2.495364662378876e+00
 1.844576621727132e+00	 5.855838211491839e-01	 2.338157646177811e+00
 1.839105365970385e+00	 6.025468136702953e-01	 2.201190516746747e+00
 1.833465544460584e+00	 6.194959137985229e-01	 2.089625264155303e+00
 1.827656815126045e+00	 6.364287367548868e-01	 2.008337295210044e+00
 1.821678878740966e+00	 6.533428814974618e-01	 1.961900626465480e+00
 1.815531479521452e+00	 6.702359316341945e-01	 1.954574246518980e+00
 1.877942003058562e+00	 5.029251250673622e-01	 3.172669706009474e+00
 1.873285858626127e+00	 5.199999289506052e-01	 3.003705229561165e+00
 1.868462721335411e+00	 5.370724798302392e-01	 2.831996565621385e+00
 1.863472042039355e+00	 5.541404766823075e-01	 2.663592301553614e+00
 1.858313311339076e+00	 5.712015979114976e-01	 2.504408988397983e+00
 1.852986060279340e+00	 5.882535021497867e-01	 2.360204891531664e+00
 1.847489861026533e+00	 6.052938290795933e-01	 2.236074228418506e+00
 1.841824327528172e+00	 6.223202002810472e-01	 2.136160613260037e+00
 1.835989116153088e+00	 6.393302201029678e-01	 2.065169594712065e+00
 1.829983926311327e+00	 6.563214765570854e-01	 2.027612561189484e+00
 1.823808501052896e+00	 6.732915422350229e-01	 2.027765768116027e+00
 1.886464699597119e+00	 5.052075588269552e-01	 3.142454459822688e+00
 1.881787424104077e+00	 5.223598535863381e-01	 2.979793834679975e+00
 1.876942397886117e+00	 5.395098851172165e-01	 2.816479383229577e+00
 1.871929069303992e+00	 5.566553419528767e-01	 2.657857415718097e+00
 1.866746926647027e+00	 5.737938919618902e-01	 2.509243884297199e+00
 1.861395498831739e+00	 5.909231831503838e-01	 2.375900442101349e+00
 1.855874356082885e+00	 6.080408444889259e-01	 2.263008910320213e+00
 1.850183110595975e+00	 6.251444867636436e-01	 2.175570157660962e+00
 1.844321417180349e+00	 6.422317034511513e-01	 2.117213102526753e+00
 1.838288973881903e+00	 6.593000716168336e-01	 2.091944184786984e+00
 1.832085522584540e+00	 6.763471528359838e-01	 2.104021650422389e+00
 1.894987396135878e+00	 5.074899925862805e-01	 3.128233296997638e+00
 1.890288989582232e+00	 5.247197782218312e-01	 2.962761703639450e+00
 1.885422074437041e+00	 5.419472904039975e-01	 2.800951525573815e+00
 1.880386096568869e+00	 5.591702072233043e-01	 2.647255555449681e+00
 1.875180541955240e+00	 5.763861860122034e-01	 2.506218419467661e+00
 1.869804937384422e+00	 5.935928641509662e-01	 2.382455531200903e+00
 1.864258851139542e+00	 6.107878598983075e-01	 2.280630314336039e+00
 1.858541893664097e+00	 6.279687732463468e-01	 2.205429668824356e+00
 1.852653718207937e+00	 6.451331867994891e-01	 2.161537660188577e+00
 1.846594021452801e+00	 6.622786666767680e-01	 2.152843396472498e+00
 1.840362544116487e+00	 6.794027634371440e-01	 2.182495328662358e+00
 1.903510092674904e+00	 5.097724263452202e-01	 3.130529883635633e+00
 1.898790555060662e+00	 5.270797028569836e-01	 2.951647643352640e+00
 1.893901750988258e+00	 5.443846956905017e-01	 2.783254850336368e+00
 1.888843123834064e+00	 5.616850724935336e-01	 2.628722390161655e+00
 1.883614157263803e+00	 5.789784800624048e-01	 2.491655513423100e+00
 1.878214375937486e+00	 5.962625451515265e-01	 2.375876266431501e+00
 1.872643346196608e+00	 6.135348753077534e-01	 2.285404033606876e+00
 1.866900676732649e+00	 6.307930597291920e-01	 2.224434156375914e+00
 1.860986019235964e+00	 6.480346701480327e-01	 2.197314598759466e+00
 1.854899069024128e+00	 6.652572617369513e-01	 2.208520635699737e+00
 1.848639565648836e+00	 6.824583740385707e-01	 2.262335897682441e+00
 1.765869350331383e+00	 6.519022680282957e-01	 1.626868045357946e+00
 1.759724015199794e+00	 6.683131303505517e-01	 1.650042754202913e+00
 1.753413426734233e+00	 6.846987235911637e-01	 1.721276622324535e+00
 1.746937464927228e+00	 7.010566561718174e-01	 1.834191153229269e+00
 1.740296054154137e+00	 7.173845253063597e-01	 1.982107018449528e+00
 1.733489163639346e+00	 7.336799179914384e-01	 2.158055830569729e+00
 1.726516807897010e+00	 7.499404120156162e-01	 2.347164062188122e+00
 1.719379047145570e+00	 7.661635769862305e-01	 2.508367742551657e+00
 1.712075987695309e+00	 7.823469753732302e-01	 2.633634008202019e+00
 1.704607782308222e+00	 7.984881635692114e-01	 2.719491000693752e+00
 1.696974630529512e+00	 8.145846929648082e-01	 2.762497414946032e+00
 1.774146371863731e+00	 6.549578786297220e-01	 1.664023088213535e+00
 1.767972232182473e+00	 6.714456623056039e-01	 1.694792504869749e+00
 1.761632064588246e+00	 6.879080584581186e-01	 1.774024464864276e+00
 1.755125748511073e+00	 7.043426642990833e-01	 1.894828784253471e+00
 1.748453207971837e+00	 7.207470657799385e-01	 2.050050135694658e+00
 1.741614412050666e+00	 7.371188385870379e-01	 2.232280549209611e+00
 1.734609375329743e+00	 7.534555491554897e-01	 2.418955934859944e+00
 1.727438158309759e+00	 7.697547557008282e-01	 2.571504810985613e+00
 1.720100867799294e+00	 7.860140092677468e-01	 2.684934094236865e+00
 1.712597657276366e+00	 8.022308547950969e-01	 2.755545088039453e+00
 1.704928727221485e+00	 8.184028321963254e-01	 2.779727124463951e+00
 1.782423393395677e+00	 6.580134892308822e-01	 1.709282212523555e+00
 1.776220449164800e+00	 6.745781942604032e-01	 1.743984600085528e+00
 1.769850702441976e+00	 6.911173933248602e-01	 1.827946333296710e+00
 1.763314032094718e+00	 7.076286724261931e-01	 1.953925565675430e+00
 1.756610361789429e+00	 7.241096062534321e-01	 2.114433430751378e+00
 1.749739660461979e+00	 7.405577591826311e-01	 2.301746822562339e+00
 1.742701942762565e+00	 7.569706862954361e-01	 2.483048724571737e+00
 1.735497269474131e+00	 7.733459344155724e-01	 2.627116441109684e+00
 1.728125747903544e+00	 7.896810431624701e-01	 2.729945368361018e+00
 1.720587532244843e+00	 8.059735460212316e-01	 2.787652880516817e+00
 1.712882823913839e+00	 8.222209714281085e-01	 2.796482439477891e+00
 1.790700414927322e+00	 6.610690998318429e-01	 1.761805502593073e+00
 1.784468666146862e+00	 6.777107262150124e-01	 1.798188987983272e+00
 1.778069340295493e+00	 6.943267281914407e-01	 1.884775597011294e+00
 1.771502315678212e+00	 7.109146805531854e-01	 2.014129825670034e+00
 1.764767515606941e+00	 7.274721467268629e-01	 2.178569867310999e+00
 1.757864908873280e+00	 7.439966797782196e-01	 2.369115117556993e+00
 1.750794510195449e+00	 7.604858234354371e-01	 2.543175075420039e+00
 1.743556380638632e+00	 7.769371131304262e-01	 2.678846088021031e+00
 1.736150628007981e+00	 7.933480770573488e-01	 2.771965422960279e+00
 1.728577407213554e+00	 8.097162372475533e-01	 2.818508055945134e+00
 1.720836920606459e+00	 8.260391106600911e-01	 2.814593876548362e+00
 1.798977436458766e+00	 6.641247104326712e-01	 1.820754294302336e+00
 1.792716883128748e+00	 6.808432581694953e-01	 1.857949264326125e+00
 1.786287978148868e+00	 6.975360630579137e-01	 1.946196212560103e+00
 1.779690599261606e+00	 7.142006886800998e-01	 2.078022007605533e+00
 1.772924669424397e+00	 7.308346872002509e-01	 2.245690682872740e+00
 1.765990157284573e+00	 7.474356003738056e-01	 2.436663720171084e+00
 1.758887077628368e+00	 7.640009605754744e-01	 2.602981879314231e+00
 1.751615491803209e+00	 7.805282918453531e-01	 2.730253916360483e+00
 1.744175508112531e+00	 7.970151109523312e-01	 2.814215754662055e+00
 1.736567282182402e+00	 8.134589284739997e-01	 2.850740141635860e+00
 1.728791017299227e+00	 8.298572498922063e-01	 2.835844511909012e+00
 1.807254457990109e+00	 6.671803210334327e-01	 1.885290217040608e+00
 1.800965100110545e+00	 6.839757901239151e-01	 1.923782292689514e+00
 1.794506616002171e+00	 7.007453979243333e-01	 2.013842818055083e+00
 1.787878882844947e+00	 7.174866968069751e-01	 2.148115133735787e+00
 1.781081823241821e+00	 7.341972276736178e-01	 2.318946115991418e+00
 1.774115405695855e+00	 7.508745209693893e-01	 2.507792460746588e+00
 1.766979645061297e+00	 7.675160977155304e-01	 2.666032643905371e+00
 1.759674602967811e+00	 7.841194705603169e-01	 2.784819155145106e+00
 1.752200388217115e+00	 8.006821448473654e-01	 2.859843997123628e+00
 1.744557157151288e+00	 8.172016197005080e-01	 2.886916515640582e+00
 1.736745113992029e+00	 8.336753891243879e-01	 2.861971641206636e+00
 1.815531479521452e+00	 6.702359316341945e-01	 1.954574246518980e+00
 1.809213317092343e+00	 6.871083220783347e-01	 1.996177819066276e+00
 1.802725253855475e+00	 7.039547327907528e-01	 2.089300808378058e+00
 1.796067166428287e+00	 7.207727049338504e-01	 2.226855238965805e+00
 1.789238977059240e+00	 7.375597681469845e-01	 2.401406095753939e+00
 1.782240654107128e+00	 7.543134415649738e-01	 2.585824326818045e+00
 1.775072212494208e+00	 7.710312348555861e-01	 2.735809815817487e+00
 1.767733714132385e+00	 7.877106492752801e-01	 2.845942408865815e+00
 1.760225268321657e+00	 8.043491787423995e-01	 2.911926114017489e+00
 1.752547032120114e+00	 8.209443109270164e-01	 2.929544375111603e+00
 1.744699210684749e+00	 8.374935283565698e-01	 2.894668416264282e+00
 1.823808501052896e+00	 6.732915422350229e-01	 2.027765768116027e+00
 1.817461534074229e+00	 6.902408540328180e-01	 2.075598081071590e+00
 1.810943891708848e+00	 7.071640676572262e-01	 2.174106391812427e+00
 1.804255450011673e+00	 7.240587130607646e-01	 2.316621775641083e+00
 1.797396130876680e+00	 7.409223086203730e-01	 2.496055892279647e+00
 1.790365902518390e+00	 7.577523621605593e-01	 2.674005495548045e+00
 1.783164779927075e+00	 7.745463719956235e-01	 2.815717060601802e+00
 1.775792825296878e+00	 7.913018279902072e-01	 2.916947926239819e+00
 1.768250148426081e+00	 8.080162126373820e-01	 2.973468553478769e+00
 1.760536907088782e+00	 8.246870021534625e-01	 2.981072672820370e+00
 1.752653307377271e+00	 8.413116675886849e-01	 2.935585459598194e+00
 1.832085522584540e+00	 6.763471528359838e-01	 2.104021650422389e+00
 1.825709751056291e+00	 6.933733859874273e-01	 2.162477411917319e+00
 1.819162529562362e+00	 7.103734025238065e-01	 2.269746628683242e+00
 1.812443733595157e+00	 7.273447211877574e-01	 2.419727990275812e+00
 1.805553284694165e+00	 7.442848490938035e-01	 2.604413213367502e+00
 1.798491150929641e+00	 7.611912827561479e-01	 2.775507482330523e+00
 1.791257347359871e+00	 7.780615091356247e-01	 2.909081500782984e+00
 1.783851936461238e+00	 7.948930067050608e-01	 3.001085827957566e+00
 1.776275028530309e+00	 8.116832465322605e-01	 3.047410365234034e+00
 1.768526782057194e+00	 8.284296933797841e-01	 3.043894022841540e+00
 1.760607404069479e+00	 8.451298068206674e-01	 2.986332457392654e+00
 1.840362544116487e+00	 6.794027634371440e-01	 2.182495328662358e+00
 1.833957968038617e+00	 6.965059179422266e-01	 2.257221839319982e+00
 1.827381167416087e+00	 7.135827373905478e-01	 2.377659452571333e+00
 1.820632017178787e+00	 7.306307293148669e-01	 2.538421273102977e+00
 1.813710438511722e+00	 7.476473895672974e-01	 2.728141334495718e+00
 1.806616399340881e+00	 7.646302033517413e-01	 2.893429250613984e+00
 1.799349914792569e+00	 7.815766462755710e-01	 3.019155913317134e+00
 1.791911047625413e+00	 7.984841854198050e-01	 3.101534294715662e+00
 1.784299908634266e+00	 8.153502804269840e-01	 3.136625281586930e+00
 1.776516657025253e+00	 8.321723846059189e-01	 3.120346576373866e+00
 1.768561500761259e+00	 8.489479460524503e-01	 3.048479731611664e+00
 1.848639565648836e+00	 6.824583740385707e-01	 2.262335897682441e+00
 1.842206185021296e+00	 6.996384498972793e-01	 2.360208679500276e+00
 1.835599805270095e+00	 7.167920722575036e-01	 2.499233674646728e+00
 1.828820300762612e+00	 7.339167374421329e-01	 2.674883481297009e+00
 1.821867592329375e+00	 7.510099300408764e-01	 2.869893909292281e+00
 1.814741647752110e+00	 7.680691239473409e-01	 3.030799284160600e+00
 1.807442482225145e+00	 7.850917834154445e-01	 3.149120887734258e+00
 1.799970158789351e+00	 8.020753641344032e-01	 3.221401716781033e+00
 1.792324788737874e+00	 8.190173143215005e-01	 3.243923763394071e+00
 1.784506531992859e+00	 8.359150758318045e-01	 3.212715868634670e+00
 1.776515597452493e+00	 8.527660852839679e-01	 3.123559791902130e+00
 1.696974630529512e+00	 8.145846929648082e-01	 2.762497414946032e+00
 1.689178118260765e+00	 8.306313869384492e-01	 2.764510643914854e+00
 1.681217254867131e+00	 8.466285306676240e-01	 2.734058393529634e+00
 1.673092380572644e+00	 8.625736674957397e-01	 2.678025120761163e+00
 1.664803883388218e+00	 8.784643401719195e-01	 2.603692238128345e+00
 1.656352199292954e+00	 8.942980919892130e-01	 2.518720781277241e+00
 1.647737812383569e+00	 9.100724679326290e-01	 2.431130972079214e+00
 1.638961254991470e+00	 9.257850158359557e-01	 2.349278598370481e+00
 1.630023107767036e+00	 9.414332875463270e-01	 2.281828147576161e+00
 1.620923999730693e+00	 9.570148400954669e-01	 2.237722648735215e+00
 1.611664608290443e+00	 9.725272368765220e-01	 2.226150195791572e+00
 1.704928727221485e+00	 8.184028321963254e-01	 2.779727124463951e+00
 1.697095670969706e+00	 8.345247405858770e-01	 2.761171891542513e+00
 1.689097493242846e+00	 8.505968664779323e-01	 2.710589065046595e+00
 1.680934535859641e+00	 8.666167417010110e-01	 2.635251259337232e+00
 1.672607188649691e+00	 8.825818974865597e-01	 2.542802893744412e+00
 1.664115889635622e+00	 8.984898656125029e-01	 2.441242198735892e+00
 1.655461125183213e+00	 9.143381795566544e-01	 2.338900073426291e+00
 1.646643430119026e+00	 9.301243756589617e-01	 2.244415712598305e+00
 1.637663387815065e+00	 9.458459942915269e-01	 2.166708937874774e+00
 1.628521630240110e+00	 9.615005810353460e-01	 2.114949185335464e+00
 1.619218837977321e+00	 9.770856878626532e-01	 2.098521120638957e+00
 1.712882823913839e+00	 8.222209714281085e-01	 2.796482439477891e+00
 1.705013223679053e+00	 8.384180942335565e-01	 2.761469847370592e+00
 1.696977731618971e+00	 8.545652022884529e-01	 2.694879160343104e+00
 1.688776691147035e+00	 8.706598159064300e-01	 2.604181174307060e+00
 1.680410493911535e+00	 8.866994548012653e-01	 2.497206235532459e+00
 1.671879579978630e+00	 9.026816392357642e-01	 2.382125977502572e+00
 1.663184437983164e+00	 9.186038911805489e-01	 2.267431849268809e+00
 1.654325605246851e+00	 9.344637354817299e-01	 2.161910349604712e+00
 1.645303667863333e+00	 9.502587010363841e-01	 2.074614898096168e+00
 1.636119260749749e+00	 9.659863219747828e-01	 2.014834292371999e+00
 1.626773067664415e+00	 9.816441388482542e-01	 1.992057719894870e+00
 1.720836920606459e+00	 8.260391106600911e-01	 2.814593876548361e+00
 1.712930776388675e+00	 8.423114478814255e-01	 2.766328988517872e+00
 1.704857969995367e+00	 8.585335380991310e-01	 2.687122636697531e+00
 1.696618846434682e+00	 8.747028901119597e-01	 2.584456237947632e+00
 1.688213799173609e+00	 8.908170121160215e-01	 2.466171292644309e+00
 1.679643270321835e+00	 9.068734128590045e-01	 2.340451242140592e+00
 1.670907750783279e+00	 9.228696028043454e-01	 2.215800042285138e+00
 1.662007780374811e+00	 9.388030953043197e-01	 2.101017362503033e+00
 1.652943947911714e+00	 9.546714077809840e-01	 2.005170337178985e+00
 1.643716891259486e+00	 9.704720629138887e-01	 1.937561814590491e+00
 1.634327297351610e+00	 9.862025898334583e-01	 1.907695068336354e+00
 1.728791017299227e+00	 8.298572498922063e-01	 2.835844511909012e+00
 1.720848329098446e+00	 8.462048015294210e-01	 2.776643837325159e+00
 1.712738208371899e+00	 8.625018739099153e-01	 2.687497731124653e+00
 1.704461001722444e+00	 8.787459643175632e-01	 2.575713034371262e+00
 1.696017104435768e+00	 8.949345694308106e-01	 2.448969886643810e+00
 1.687406960665095e+00	 9.110651864822303e-01	 2.315304091914771e+00
 1.678631063583420e+00	 9.271353144280755e-01	 2.183086109498880e+00
 1.669689955502773e+00	 9.431424551267908e-01	 2.060996573860948e+00
 1.660584227960080e+00	 9.590841145254129e-01	 1.957998264731604e+00
 1.651314521769201e+00	 9.749578038527736e-01	 1.883304467956427e+00
 1.641881527038787e+00	 9.907610408183972e-01	 1.846343687716157e+00
 1.736745113992029e+00	 8.336753891243879e-01	 2.861971641206636e+00
 1.728765881808237e+00	 8.500981551774791e-01	 2.793280260831966e+00
 1.720618446748428e+00	 8.664702097207524e-01	 2.696167972907423e+00
 1.712303157010177e+00	 8.827890385232040e-01	 2.577584159475227e+00
 1.703820409697871e+00	 8.990521267456166e-01	 2.444877294233919e+00
 1.695170651008271e+00	 9.152569601054497e-01	 2.305778202603175e+00
 1.686354376383450e+00	 9.314010260517734e-01	 2.168379840380506e+00
 1.677372130630603e+00	 9.474818149492026e-01	 2.041113488143981e+00
 1.668224508008301e+00	 9.634968212697557e-01	 1.932721276664145e+00
 1.658912152278770e+00	 9.794435447915477e-01	 1.852224978064035e+00
 1.649435756725832e+00	 9.953194918032041e-01	 1.808891018224489e+00
 1.744699210684749e+00	 8.374935283565698e-01	 2.894668416264282e+00
 1.736683434517918e+00	 8.539915088255371e-01	 2.817076757685995e+00
 1.728498685124819e+00	 8.704385455315894e-01	 2.713283191950105e+00
 1.720145312297740e+00	 8.868321127288447e-01	 2.589699023050828e+00
 1.711623714959772e+00	 9.031696840604224e-01	 2.453172916402381e+00
 1.702934341351219e+00	 9.194487337286685e-01	 2.310975436881032e+00
 1.694077689183231e+00	 9.356667376754709e-01	 2.170779983543270e+00
 1.685054305758168e+00	 9.518211747716140e-01	 2.040640010619758e+00
 1.675864788056249e+00	 9.679095280140982e-01	 1.928962442969578e+00
 1.666509782788071e+00	 9.839292857303222e-01	 1.844477214183119e+00
 1.656989986412625e+00	 9.998779427880106e-01	 1.796202876858715e+00
 1.752653307377271e+00	 8.413116675886849e-01	 2.935585459598194e+00
 1.744600987227362e+00	 8.578848624735322e-01	 2.848845732884995e+00
 1.736378923500933e+00	 8.744068813423735e-01	 2.738980523086058e+00
 1.727987467584991e+00	 8.908751869344482e-01	 2.611684652984081e+00
 1.719427020221330e+00	 9.072872413752120e-01	 2.473140953783139e+00
 1.710698031693797e+00	 9.236405073518947e-01	 2.330006463005436e+00
 1.701801001982623e+00	 9.399324492992017e-01	 2.189394881761282e+00
 1.692736480885333e+00	 9.561605345940853e-01	 2.058855172518840e+00
 1.683505068103797e+00	 9.723222347585270e-01	 1.946346197586728e+00
 1.674107413296981e+00	 9.884150266692067e-01	 1.860207319083796e+00
 1.664544216099050e+00	 1.004436393772950e+00	 1.809124903118225e+00
 1.760607404069479e+00	 8.451298068206674e-01	 2.986332457392654e+00
 1.752518539936439e+00	 8.617782161214010e-01	 2.889374760736839e+00
 1.744259161876635e+00	 8.783752171530522e-01	 2.773385406469053e+00
 1.735829622871788e+00	 8.949182611399782e-01	 2.643166501482650e+00
 1.727230325482402e+00	 9.114047986899676e-01	 2.504071088037674e+00
 1.718461722035865e+00	 9.278322809751353e-01	 2.361991381539228e+00
 1.709524314781487e+00	 9.441981609229977e-01	 2.223343115047614e+00
 1.700418656011965e+00	 9.604998944166752e-01	 2.095045862255369e+00
 1.691145348150817e+00	 9.767349415031269e-01	 1.984499230280574e+00
 1.681705043805379e+00	 9.929007676083125e-01	 1.899554834773605e+00
 1.672098445784992e+00	 1.008994844758154e+00	 1.848483992426321e+00
 1.768561500761259e+00	 8.489479460524503e-01	 3.048479731611664e+00
 1.760436092645022e+00	 8.656715697690809e-01	 2.939427836409224e+00
 1.752139400251785e+00	 8.823435529635717e-01	 2.816612584172163e+00
 1.743671778157990e+00	 8.989613353453968e-01	 2.683769253266215e+00
 1.735033630742844e+00	 9.155223560046739e-01	 2.545259169067753e+00
 1.726225412377278e+00	 9.320240545983967e-01	 2.406060359861994e+00
 1.717247627579685e+00	 9.484638725468920e-01	 2.271754151539678e+00
 1.708100831137931e+00	 9.648392542394437e-01	 2.148507562517695e+00
 1.698785628197180e+00	 9.811476482479842e-01	 2.043051380477182e+00
 1.689302674313143e+00	 9.973865085477501e-01	 1.962653824276936e+00
 1.679652675470333e+00	 1.013553295743755e+00	 1.915089717666925e+00
 1.776515597452493e+00	 8.527660852839679e-01	 3.123559791902130e+00
 1.768353645352981e+00	 8.695649234165084e-01	 2.999746616427654e+00
 1.760019638626250e+00	 8.863118887738806e-01	 2.868767093113954e+00
 1.751513933443456e+00	 9.030044095506682e-01	 2.733117635659560e+00
 1.742836936002513e+00	 9.196399133193138e-01	 2.596007907877728e+00
 1.733989102717897e+00	 9.362158282216865e-01	 2.461354274225120e+00
 1.724970940377082e+00	 9.527295841709179e-01	 2.333769005948366e+00
 1.715783006263097e+00	 9.691786140624498e-01	 2.218545093046240e+00
 1.706425908242760e+00	 9.855603549931850e-01	 2.121636532993585e+00
 1.696900304820150e+00	 1.001872249487630e+00	 2.049633989582111e+00
 1.687206905154955e+00	 1.018111746729887e+00	 2.009735739209827e+00
 1.611664608290443e+00	 9.725272368765220e-01	 2.226150195791572e+00
 1.602245659614925e+00	 9.879680491332032e-01	 2.238257813996780e+00
 1.592667929744381e+00	 1.003334858087005e+00	 2.256697993959306e+00
 1.582932243324602e+00	 1.018625255233427e+00	 2.278057252961461e+00
 1.573039473094003e+00	 1.033836843225697e+00	 2.298869138124489e+00
 1.562990539726966e+00	 1.048967237061314e+00	 2.315582060293989e+00
 1.552786411642341e+00	 1.064014065267221e+00	 2.324524402789069e+00
 1.542428104777079e+00	 1.078974971082447e+00	 2.321867001411533e+00
 1.531916682324971e+00	 1.093847613636997e+00	 2.303583114292998e+00
 1.521253254440523e+00	 1.108629669125836e+00	 2.265406022366500e+00
 1.510438977908069e+00	 1.123318831976734e+00	 2.198231574084065e+00
 1.619218837977321e+00	 9.770856878626532e-01	 2.098521120638957e+00
 1.609755740599045e+00	 9.925988746330442e-01	 2.108428302472873e+00
 1.600133117783002e+00	 1.008037711230660e+00	 2.127179646229001e+00
 1.590351798040284e+00	 1.023399777861803e+00	 2.151609454370021e+00
 1.580412658200036e+00	 1.038682665942803e+00	 2.178598078621440e+00
 1.570316623252049e+00	 1.053883979292119e+00	 2.205039457942088e+00
 1.560064666154375e+00	 1.069001335321072e+00	 2.227805696268386e+00
 1.549657807605893e+00	 1.084032366222025e+00	 2.243708775470673e+00
 1.539097115783824e+00	 1.098974720152806e+00	 2.249459522082203e+00
 1.528383706046224e+00	 1.113826062416185e+00	 2.241411133528059e+00
 1.517518740599537e+00	 1.128584076633202e+00	 2.207414779177579e+00
 1.626773067664415e+00	 9.816441388482542e-01	 1.992057719894870e+00
 1.617265821583394e+00	 9.972297001322822e-01	 1.997812078092948e+00
 1.607598305821880e+00	 1.012740564373654e+00	 2.015267029522657e+00
 1.597771352756269e+00	 1.028174300489476e+00	 2.041614111677516e+00
 1.587785843306425e+00	 1.043528488659176e+00	 2.074168080639556e+00
 1.577642706777550e+00	 1.058800721522175e+00	 2.110333854313589e+00
 1.567342920666891e+00	 1.073988605374169e+00	 2.147570286482293e+00
 1.556887510435255e+00	 1.089089761360856e+00	 2.183350866820129e+00
 1.546277549243292e+00	 1.104101826667885e+00	 2.215121466030409e+00
 1.535514157652602e+00	 1.119022455705831e+00	 2.238498787116225e+00
 1.524598503291736e+00	 1.133849321289002e+00	 2.240808189610508e+00
 1.634327297351610e+00	 9.862025898334583e-01	 1.907695068336354e+00
 1.624775902567862e+00	 1.001860525631068e+00	 1.908048544060099e+00
 1.615063493860911e+00	 1.017443417516154e+00	 1.923016119385131e+00
 1.605190907472450e+00	 1.032948823116622e+00	 1.950254317133237e+00
 1.595159028413066e+00	 1.048374311375000e+00	 1.987598420954306e+00
 1.584968790303364e+00	 1.063717463751668e+00	 2.033028527662318e+00
 1.574621175179788e+00	 1.078975875426700e+00	 2.084632247303162e+00
 1.564117213265066e+00	 1.094147156499127e+00	 2.140564146442010e+00
 1.553457982703275e+00	 1.109228933182416e+00	 2.199002055054139e+00
 1.542644609259557e+00	 1.124218848994950e+00	 2.253420466424286e+00
 1.531678265984568e+00	 1.139114565944303e+00	 2.293436868730994e+00
 1.641881527038787e+00	 9.907610408183972e-01	 1.846343687716157e+00
 1.632285983552334e+00	 1.006491351129553e+00	 1.840739918619166e+00
 1.622528681899983e+00	 1.022146270658324e+00	 1.852438295915276e+00
 1.612610462188723e+00	 1.037723345743415e+00	 1.879666406746088e+00
 1.602532213519856e+00	 1.053220134090457e+00	 1.920864733634505e+00
 1.592294873829391e+00	 1.068634205980787e+00	 1.974651522382432e+00
 1.581899429692964e+00	 1.083963145478854e+00	 2.039784140204281e+00
 1.571346916095225e+00	 1.099204551637025e+00	 2.115117020577419e+00
 1.560638416163673e+00	 1.114356039696582e+00	 2.199296047353144e+00
 1.549775060866989e+00	 1.129415242283717e+00	 2.283183102585371e+00
 1.538758028677931e+00	 1.144379810599269e+00	 2.360436033049564e+00
 1.649435756725832e+00	 9.953194918032041e-01	 1.808891018224489e+00
 1.639796064536700e+00	 1.011122176627887e+00	 1.797453019298222e+00
 1.629993869938989e+00	 1.026849123800328e+00	 1.805502319009667e+00
 1.620030016904980e+00	 1.042497868370034e+00	 1.831942004033623e+00
 1.609905398626689e+00	 1.058065956805731e+00	 1.875900999171101e+00
 1.599620957355527e+00	 1.073550948209718e+00	 1.936697459854089e+00
 1.589177684206319e+00	 1.088950415530820e+00	 2.013798522714714e+00
 1.578576618925632e+00	 1.104261946774735e+00	 2.106776512331355e+00
 1.567818849624387e+00	 1.119483146210567e+00	 2.213606598500189e+00
 1.556905512474797e+00	 1.134611635572308e+00	 2.324866858454941e+00
 1.545837791371726e+00	 1.149645055254069e+00	 2.437048313500922e+00
 1.656989986412625e+00	 9.998779427880106e-01	 1.796202876858715e+00
 1.647306145520848e+00	 1.015753002126221e+00	 1.779721025858648e+00
 1.637459057977820e+00	 1.031551976942333e+00	 1.784136277421770e+00
 1.627449571621117e+00	 1.047272390996652e+00	 1.809130036019000e+00
 1.617278583733465e+00	 1.062911779521005e+00	 1.854601507628393e+00
 1.606947040881672e+00	 1.078467690438650e+00	 1.920629328442080e+00
 1.596455938719752e+00	 1.093937685582786e+00	 2.007429444525449e+00
 1.585806321756186e+00	 1.109319341912445e+00	 2.115309342804044e+00
 1.574999283085314e+00	 1.124610252724550e+00	 2.240520761560595e+00
 1.564035964082883e+00	 1.139808028860900e+00	 2.375623234601765e+00
 1.552917554065853e+00	 1.154910299908869e+00	 2.518621072162969e+00
 1.664544216099050e+00	 1.004436393772950e+00	 1.809124903118225e+00
 1.654816226504664e+00	 1.020383827624706e+00	 1.789045222631278e+00
 1.644924246016367e+00	 1.036254830084502e+00	 1.790229512469747e+00
 1.634869126337027e+00	 1.052046913623446e+00	 1.813238722358789e+00
 1.624651768840077e+00	 1.067757602236462e+00	 1.858822796644122e+00
 1.614273124407722e+00	 1.083384432667768e+00	 1.927880253311044e+00
 1.603734193233162e+00	 1.098924955634940e+00	 2.021413931640515e+00
 1.593036024586787e+00	 1.114376737050343e+00	 2.140277223131625e+00
 1.582179716546356e+00	 1.129737359238717e+00	 2.278757739255152e+00
 1.571166415691146e+00	 1.145004422149667e+00	 2.432673207658797e+00
 1.559997316760212e+00	 1.160175544563835e+00	 2.600603772671369e+00
 1.672098445784992e+00	 1.008994844758154e+00	 1.848483992426322e+00
 1.662326307488035e+00	 1.025014653123492e+00	 1.826896720891990e+00
 1.652389434054523e+00	 1.040957683227002e+00	 1.825634517195917e+00
 1.642288681052605e+00	 1.056821436250591e+00	 1.846237538452832e+00
 1.632024953946423e+00	 1.072603424952286e+00	 1.890385565075398e+00
 1.621599207933577e+00	 1.088301174897262e+00	 1.959855246696936e+00
 1.611012447746446e+00	 1.103912225687471e+00	 2.056473458952559e+00
 1.600265727417335e+00	 1.119434132188614e+00	 2.180823495344158e+00
 1.589360150007411e+00	 1.134864465753248e+00	 2.327077464215603e+00
 1.578296867299485e+00	 1.150200815438786e+00	 2.493305400010746e+00
 1.567077079454702e+00	 1.165440789219135e+00	 2.678545402631750e+00
 1.679652675470333e+00	 1.013553295743755e+00	 1.915089717666925e+00
 1.669836388470852e+00	 1.029645478622731e+00	 1.894718161906189e+00
 1.659854622092178e+00	 1.045660536369997e+00	 1.892168811752092e+00
 1.649708235767744e+00	 1.061595958878264e+00	 1.910059153356478e+00
 1.639398139052400e+00	 1.077449247668659e+00	 1.951076563058521e+00
 1.628925291459133e+00	 1.093217917127318e+00	 2.017932939251600e+00
 1.618290702259505e+00	 1.108899495740568e+00	 2.113315411608941e+00
 1.607495430247728e+00	 1.124491527327446e+00	 2.236863896446108e+00
 1.596540583468382e+00	 1.139991572268327e+00	 2.384279415912392e+00
 1.585427318907801e+00	 1.155397208728432e+00	 2.554874279831825e+00
 1.574156842149224e+00	 1.170706033874936e+00	 2.748091946392605e+00
 1.687206905154955e+00	 1.018111746729887e+00	 2.009735739209827e+00
 1.677346469453000e+00	 1.034276304122572e+00	 1.993925401249627e+00
 1.667319810129224e+00	 1.050363389513653e+00	 1.991616795757275e+00
 1.657127790482340e+00	 1.066370481506641e+00	 2.006601343286543e+00
 1.646771324157903e+00	 1.082295070385765e+00	 2.042650459223454e+00
 1.636251374984289e+00	 1.098134659358124e+00	 2.103467293055102e+00
 1.625568956772238e+00	 1.113886765794420e+00	 2.192535216399905e+00
 1.614725133077868e+00	 1.129548922467025e+00	 2.308396947618816e+00
 1.603721016929166e+00	 1.145118678784137e+00	 2.449201450579460e+00
 1.592557770515995e+00	 1.160593602018781e+00	 2.614798390522572e+00
 1.581236604843679e+00	 1.175971278531404e+00	 2.804983906600646e+00
 1.510438977908069e+00	 1.123318831976734e+00	 2.198231574084065e+00
 1.499473180174970e+00	 1.137915287531046e+00	 2.127494009078744e+00
 1.488358941701999e+00	 1.152414256790601e+00	 2.091055731788485e+00
 1.477097563724953e+00	 1.166813486306054e+00	 2.089828086580479e+00
 1.465690392502321e+00	 1.181110745424474e+00	 2.124443569664317e+00
 1.454138818810631e+00	 1.195303827413987e+00	 2.194479955855306e+00
 1.442444277406394e+00	 1.209390550575254e+00	 2.299219183418209e+00
 1.430608246455096e+00	 1.223368759338615e+00	 2.437799300363272e+00
 1.418632246927650e+00	 1.237236325345754e+00	 2.609216936542358e+00
 1.406517841964842e+00	 1.250991148514776e+00	 2.812328624625293e+00
 1.394266636210279e+00	 1.264631158087561e+00	 3.045850949720186e+00
 1.517518740599537e+00	 1.128584076633202e+00	 2.207414779177579e+00
 1.506501543738727e+00	 1.143248949013946e+00	 2.173870164263214e+00
 1.495335210363370e+00	 1.157815878160022e+00	 2.174363262135035e+00
 1.484021047808442e+00	 1.172282600059670e+00	 2.208114277881780e+00
 1.472560408642650e+00	 1.186646873604397e+00	 2.273882603280399e+00
 1.460954690161394e+00	 1.200906481718889e+00	 2.369477601109799e+00
 1.449205333846210e+00	 1.215059232477700e+00	 2.491858417222580e+00
 1.437313824791073e+00	 1.229102960207538e+00	 2.637639503399709e+00
 1.425281691096022e+00	 1.243035526574004e+00	 2.803105266652632e+00
 1.413110503228631e+00	 1.256854821651652e+00	 2.984214535166466e+00
 1.400801873353830e+00	 1.270558764976264e+00	 3.176604078890865e+00
 1.524598503291736e+00	 1.133849321289002e+00	 2.240808189610508e+00
 1.513529907303260e+00	 1.148582610496222e+00	 2.246691773202608e+00
 1.502311479025553e+00	 1.163217499528870e+00	 2.283828633611704e+00
 1.490944531892771e+00	 1.177751713812772e+00	 2.350026446767028e+00
 1.479430424783833e+00	 1.192183001783869e+00	 2.442457247493583e+00
 1.467770561513018e+00	 1.206509136023409e+00	 2.557403164400577e+00
 1.455966390286883e+00	 1.220727914379837e+00	 2.689951729199644e+00
 1.444019403127893e+00	 1.234837161076229e+00	 2.834609331184310e+00
 1.431931135265215e+00	 1.248834727802100e+00	 2.985406429931602e+00
 1.419703164493211e+00	 1.262718494788459e+00	 3.135904703653618e+00
 1.407337110498131e+00	 1.276486371864982e+00	 3.279203415863113e+00
 1.531678265984568e+00	 1.139114565944303e+00	 2.293436868730994e+00
 1.520558270868471e+00	 1.153916271978030e+00	 2.339201667665479e+00
 1.509287747688447e+00	 1.168619120897289e+00	 2.411454209465016e+00
 1.497868015977838e+00	 1.183220827565488e+00	 2.506830645195689e+00
 1.486300440925771e+00	 1.197719129963005e+00	 2.621213511209023e+00
 1.474586432865403e+00	 1.212111790327644e+00	 2.749657327338741e+00
 1.462727446728315e+00	 1.226396596281746e+00	 2.885793598799580e+00
 1.450724981465461e+00	 1.240571361944754e+00	 3.022416230797874e+00
 1.438580579435138e+00	 1.254633929030095e+00	 3.151754363983573e+00
 1.426295825758493e+00	 1.268582167925229e+00	 3.265467043541924e+00
 1.413872347643098e+00	 1.282413978753733e+00	 3.354651911023427e+00
 1.538758028677931e+00	 1.144379810599269e+00	 2.360436033049564e+00
 1.527586634434259e+00	 1.159249933459527e+00	 2.444785556511037e+00
 1.516264016351956e+00	 1.174020742265423e+00	 2.549408005422654e+00
 1.504791500063544e+00	 1.188689941317948e+00	 2.670005531844129e+00
 1.493170457068364e+00	 1.203255258141917e+00	 2.801450497511104e+00
 1.481402304218453e+00	 1.217714444631694e+00	 2.937801424851511e+00
 1.469488503170413e+00	 1.232065278183510e+00	 3.071823230144630e+00
 1.457430559803687e+00	 1.246305562813177e+00	 3.194886829499215e+00
 1.445230023605701e+00	 1.260433130258036e+00	 3.297867128601839e+00
 1.432888487024391e+00	 1.274445841061997e+00	 3.371009128845881e+00
 1.420407584788649e+00	 1.288341585642535e+00	 3.403938427331050e+00
 1.545837791371726e+00	 1.149645055254069e+00	 2.437048313500922e+00
 1.534614998000523e+00	 1.164583594940868e+00	 2.556968528829337e+00
 1.523240285015977e+00	 1.179422363633412e+00	 2.690019663759553e+00
 1.511714984149790e+00	 1.194159055070281e+00	 2.831203983457142e+00
 1.500040473211515e+00	 1.208791386320720e+00	 2.974660158867951e+00
 1.488218175572069e+00	 1.223317098935656e+00	 3.113680438617230e+00
 1.476249559613076e+00	 1.237733960085210e+00	 3.240622122855736e+00
 1.464136138142472e+00	 1.252039763681564e+00	 3.345965099942005e+00
 1.451879467776811e+00	 1.266232331485970e+00	 3.419545881579146e+00
 1.439481148290814e+00	 1.280309514198792e+00	 3.450678194215228e+00
 1.426942821934699e+00	 1.294269192531402e+00	 3.428038975634042e+00
 1.552917554065853e+00	 1.154910299908869e+00	 2.518621072162969e+00
 1.541643361567165e+00	 1.169917256422209e+00	 2.669411633136346e+00
 1.530216553680411e+00	 1.184823985001404e+00	 2.825776517768287e+00
 1.518638468236475e+00	 1.199628168822615e+00	 2.982248865941271e+00
 1.506910489355124e+00	 1.214327514499528e+00	 3.132506395312623e+00
 1.495034046926153e+00	 1.228919753239628e+00	 3.269389565119331e+00
 1.483010616056212e+00	 1.243402641986929e+00	 3.384922005313852e+00
 1.470841716481725e+00	 1.257773964549979e+00	 3.469710595406779e+00
 1.458528911948376e+00	 1.272031532713947e+00	 3.512673902420030e+00
 1.446073809557678e+00	 1.286173187335648e+00	 3.502661154937376e+00
 1.433478059081167e+00	 1.300196799420353e+00	 3.427917936148371e+00
 1.559997316760212e+00	 1.160175544563835e+00	 2.600603772671369e+00
 1.548671725134085e+00	 1.175250917903706e+00	 2.775908530207892e+00
 1.537192822345158e+00	 1.190225606369539e+00	 2.949319743761907e+00
 1.525561952323501e+00	 1.205097282575082e+00	 3.115128900874272e+00
 1.513780505499092e+00	 1.219863642678457e+00	 3.266821825858242e+00
 1.501849918280609e+00	 1.234522407543708e+00	 3.397097624678524e+00
 1.489771672499723e+00	 1.249071323888746e+00	 3.497889870624029e+00
 1.477547294821350e+00	 1.263508165418487e+00	 3.560296752821348e+00
 1.465178356120306e+00	 1.277830733942015e+00	 3.573215662430517e+00
 1.452666470824892e+00	 1.292036860472597e+00	 3.525184646230652e+00
 1.440013296227967e+00	 1.306124406309403e+00	 3.404529266536848e+00
 1.567077079454702e+00	 1.165440789219135e+00	 2.678545402631750e+00
 1.555700088701180e+00	 1.180584579385515e+00	 2.870382217223854e+00
 1.544169091010119e+00	 1.195627227737962e+00	 3.053440597841263e+00
 1.532485436410767e+00	 1.210566396327809e+00	 3.221994624413278e+00
 1.520650521643320e+00	 1.225399770857619e+00	 3.369603677530343e+00
 1.508665789635336e+00	 1.240125061847996e+00	 3.489131955081514e+00
 1.496532728943512e+00	 1.254740005790745e+00	 3.572770147185939e+00
 1.484252873161254e+00	 1.269242366287154e+00	 3.612059201933194e+00
 1.471827800292510e+00	 1.283629935170223e+00	 3.597215939715835e+00
 1.459259132092370e+00	 1.297900533609671e+00	 3.516515081215420e+00
 1.446548533375018e+00	 1.312052013198571e+00	 3.358817697008904e+00
 1.574156842149224e+00	 1.170706033874936e+00	 2.748091946392605e+00
 1.562728452268355e+00	 1.185918240867792e+00	 2.946881820977777e+00
 1.551145359675193e+00	 1.201028849106815e+00	 3.131076734758377e+00
 1.539408920498175e+00	 1.216035510080927e+00	 3.295154435693064e+00
 1.527520537787710e+00	 1.230935899037128e+00	 3.433009765688071e+00
 1.515481660990239e+00	 1.245727716152589e+00	 3.537974541163550e+00
 1.503293785387483e+00	 1.260408687693009e+00	 3.602839451883235e+00
 1.490958451501341e+00	 1.274976567156046e+00	 3.619877908850363e+00
 1.478477244464895e+00	 1.289429136398619e+00	 3.580798977669398e+00
 1.465851793360023e+00	 1.303764206746903e+00	 3.474958726972343e+00
 1.453083770522235e+00	 1.317979620087872e+00	 3.291719912846950e+00
 1.581236604843679e+00	 1.175971278531404e+00	 2.804983906600647e+00
 1.569756815835507e+00	 1.191251902350693e+00	 2.999579457987354e+00
 1.558121628340282e+00	 1.206430470476242e+00	 3.175308606303141e+00
 1.546332404585625e+00	 1.221504623834564e+00	 3.327070731909870e+00
 1.534390553932164e+00	 1.236472027217100e+00	 3.449354562773560e+00
 1.522297532345219e+00	 1.251330370457584e+00	 3.536258212586959e+00
 1.510054841831539e+00	 1.266077369595616e+00	 3.581511040019151e+00
 1.497664029841520e+00	 1.280710768025226e+00	 3.578497258341878e+00
 1.485126688637370e+00	 1.295228337627252e+00	 3.520281212170509e+00
 1.472444454627765e+00	 1.309627879884325e+00	 3.398861798117817e+00
 1.459619007669536e+00	 1.323907226977324e+00	 3.204165724750425e+00
 1.394266636210279e+00	 1.264631158087561e+00	 3.045850949720185e+00
 1.381882388279096e+00	 1.278152028692061e+00	 3.259763920453539e+00
 1.369364693565589e+00	 1.291554099037546e+00	 3.406228502677175e+00
 1.356715253971548e+00	 1.304835415480692e+00	 3.487354493847906e+00
 1.343935809905084e+00	 1.317994057669907e+00	 3.505717168956674e+00
 1.331028139477010e+00	 1.331028139477010e+00	 3.464347759600884e+00
 1.317994057669907e+00	 1.343935809905085e+00	 3.366722010624227e+00
 1.304835415480692e+00	 1.356715253971548e+00	 3.216746872270737e+00
 1.291554099037545e+00	 1.369364693565589e+00	 3.018745397018451e+00
 1.278152028692060e+00	 1.381882388279097e+00	 2.777439921067923e+00
 1.264631158087562e+00	 1.394266636210279e+00	 2.497933620788061e+00
 1.400801873353830e+00	 1.270558764976264e+00	 3.176604078890865e+00
 1.388359577704215e+00	 1.284143010901814e+00	 3.332803508597496e+00
 1.375783209777603e+00	 1.297607899725179e+00	 3.411264658912641e+00
 1.363074479452979e+00	 1.310951468645877e+00	 3.416684649609443e+00
 1.350235135296129e+00	 1.324171788311199e+00	 3.354440610469373e+00
 1.337266963752267e+00	 1.337266963752267e+00	 3.230575880616135e+00
 1.324171788311199e+00	 1.350235135296129e+00	 3.051783933105603e+00
 1.310951468645877e+00	 1.363074479452979e+00	 2.825390091535887e+00
 1.297607899725179e+00	 1.375783209777604e+00	 2.559331117595276e+00
 1.284143010901814e+00	 1.388359577704215e+00	 2.262132760181485e+00
 1.270558764976264e+00	 1.400801873353830e+00	 1.942885367923409e+00
 1.407337110498131e+00	 1.276486371864982e+00	 3.279203415863113e+00
 1.394836767130033e+00	 1.290133993111668e+00	 3.372934983610162e+00
 1.382201725990261e+00	 1.303661700412999e+00	 3.383683040636532e+00
 1.369433704934989e+00	 1.317067521811333e+00	 3.318208236656225e+00
 1.356534460687683e+00	 1.330349518952845e+00	 3.184123080446345e+00
 1.343505788027957e+00	 1.343505788027958e+00	 2.989874646814788e+00
 1.330349518952846e+00	 1.356534460687683e+00	 2.744724715257394e+00
 1.317067521811333e+00	 1.369433704934989e+00	 2.458727414522664e+00
 1.303661700412999e+00	 1.382201725990261e+00	 2.142704460281065e+00
 1.290133993111668e+00	 1.394836767130033e+00	 1.808218085610022e+00
 1.276486371864982e+00	 1.407337110498131e+00	 1.467541775971485e+00
 1.413872347643098e+00	 1.282413978753733e+00	 3.354651911023427e+00
 1.401313956556475e+00	 1.296124975321627e+00	 3.384073360002434e+00
 1.388620242203491e+00	 1.309715501100996e+00	 3.329774467660875e+00
 1.375792930417513e+00	 1.323183574977036e+00	 3.200063720912327e+00
 1.362833786079690e+00	 1.336527249594811e+00	 3.004231043493031e+00
 1.349744612304036e+00	 1.349744612304036e+00	 2.752527791324592e+00
 1.336527249594811e+00	 1.362833786079690e+00	 2.456143944271054e+00
 1.323183574977036e+00	 1.375792930417513e+00	 2.127182574609600e+00
 1.309715501100996e+00	 1.388620242203492e+00	 1.778631686229175e+00
 1.296124975321626e+00	 1.401313956556475e+00	 1.424333531777719e+00
 1.282413978753734e+00	 1.413872347643098e+00	 1.078951527610129e+00
 1.420407584788649e+00	 1.288341585642535e+00	 3.403938427331050e+00
 1.407791145983461e+00	 1.302115957531690e+00	 3.370066174086969e+00
 1.395038758417221e+00	 1.315769301789156e+00	 3.255718694209677e+00
 1.382152155900488e+00	 1.329299628142963e+00	 3.070244569637626e+00
 1.369133111472095e+00	 1.342704980237059e+00	 2.824061530447659e+00
 1.355983436580455e+00	 1.355983436580455e+00	 2.528634512881248e+00
 1.342704980237059e+00	 1.369133111472094e+00	 2.196450736275609e+00
 1.329299628142963e+00	 1.382152155900489e+00	 1.840991883977574e+00
 1.315769301789156e+00	 1.395038758417222e+00	 1.476703487620666e+00
 1.302115957531690e+00	 1.407791145983461e+00	 1.118961627939463e+00
 1.288341585642535e+00	 1.420407584788649e+00	 7.840370784911307e-01
 1.426942821934699e+00	 1.294269192531402e+00	 3.428038975634042e+00
 1.414268335410914e+00	 1.308106939741863e+00	 3.334695944670058e+00
 1.401457274631381e+00	 1.321823102477469e+00	 3.167587868809863e+00
 1.388511381383852e+00	 1.335415681309091e+00	 2.936603487758030e+00
 1.375432436864842e+00	 1.348882710879555e+00	 2.652746931979320e+00
 1.362222260857169e+00	 1.362222260857169e+00	 2.328114611279862e+00
 1.348882710879555e+00	 1.375432436864842e+00	 1.975869002150862e+00
 1.335415681309090e+00	 1.388511381383852e+00	 1.610209422378498e+00
 1.321823102477469e+00	 1.401457274631381e+00	 1.246339896226687e+00
 1.308106939741863e+00	 1.414268335410915e+00	 9.004342277756739e-01
 1.294269192531402e+00	 1.426942821934699e+00	 5.895984136590042e-01
 1.433478059081167e+00	 1.300196799420353e+00	 3.427917936148371e+00
 1.420745524838758e+00	 1.314097921952147e+00	 3.281682586395647e+00
 1.407875790845899e+00	 1.327876903165925e+00	 3.071349919493091e+00
 1.394870606867539e+00	 1.341531734475394e+00	 2.806856558241487e+00
 1.381731762257876e+00	 1.355060441522263e+00	 2.499259680944859e+00
 1.368461085134135e+00	 1.368461085134135e+00	 2.160713502173866e+00
 1.355060441522264e+00	 1.381731762257876e+00	 1.804442589044927e+00
 1.341531734475394e+00	 1.394870606867540e+00	 1.444712103621898e+00
 1.327876903165925e+00	 1.407875790845899e+00	 1.096795077243356e+00
 1.314097921952146e+00	 1.420745524838758e+00	 7.769368372349207e-01
 1.300196799420352e+00	 1.433478059081167e+00	 5.023167204892440e-01
 1.440013296227967e+00	 1.306124406309403e+00	 3.404529266536847e+00
 1.427222714266913e+00	 1.320088904162543e+00	 3.214685777242853e+00
 1.414294307060703e+00	 1.333930703854511e+00	 2.972871866678407e+00
 1.401229832351486e+00	 1.347647787641850e+00	 2.688587289565350e+00
 1.388031087651143e+00	 1.361238172165149e+00	 2.372416827035888e+00
 1.374699909411304e+00	 1.374699909411304e+00	 2.036007115051515e+00
 1.361238172165149e+00	 1.388031087651143e+00	 1.692040301542058e+00
 1.347647787641850e+00	 1.401229832351486e+00	 1.354204623661514e+00
 1.333930703854511e+00	 1.414294307060703e+00	 1.037162012041112e+00
 1.320088904162542e+00	 1.427222714266913e+00	 7.565128438542297e-01
 1.306124406309403e+00	 1.440013296227967e+00	 5.287579807955278e-01
 1.446548533375018e+00	 1.312052013198571e+00	 3.358817697008904e+00
 1.433699903695301e+00	 1.326079886373054e+00	 3.137307281624120e+00
 1.420712823275722e+00	 1.339984504543216e+00	 2.877923066019956e+00
 1.407589057835629e+00	 1.353763840808436e+00	 2.589250573210424e+00
 1.394330413044587e+00	 1.367415902808178e+00	 2.280884507119259e+00
 1.380938733688632e+00	 1.380938733688631e+00	 1.963406678081642e+00
 1.367415902808178e+00	 1.394330413044587e+00	 1.648360806283836e+00
 1.353763840808435e+00	 1.407589057835629e+00	 1.348224294023289e+00
 1.339984504543216e+00	 1.420712823275722e+00	 1.076377073338747e+00
 1.326079886373053e+00	 1.433699903695301e+00	 8.470676506696664e-01
 1.312052013198571e+00	 1.446548533375018e+00	 6.753764846592938e-01
 1.453083770522235e+00	 1.317979620087872e+00	 3.291719912846950e+00
 1.440177093123845e+00	 1.332070868583682e+00	 3.053093230478807e+00
 1.427131339490886e+00	 1.346038305232031e+00	 2.792178383421735e+00
 1.413948283319904e+00	 1.359879893975125e+00	 2.516176554011354e+00
 1.400629738438151e+00	 1.373593633451312e+00	 2.233182314551920e+00
 1.387177557966071e+00	 1.387177557966071e+00	 1.952163393387335e+00
 1.373593633451312e+00	 1.400629738438151e+00	 1.682937423710030e+00
 1.359879893975124e+00	 1.413948283319904e+00	 1.436145764181711e+00
 1.346038305232029e+00	 1.427131339490886e+00	 1.223224496186047e+00
 1.332070868583682e+00	 1.440177093123845e+00	 1.056372717718532e+00
 1.317979620087872e+00	 1.453083770522235e+00	 9.485182684431850e-01
 1.459619007669536e+00	 1.323907226977324e+00	 3.204165724750425e+00
 1.446654282552467e+00	 1.338061850794431e+00	 2.965536359707166e+00
 1.433549855706123e+00	 1.352092105920942e+00	 2.721221304342379e+00
 1.420307508804248e+00	 1.365995947141896e+00	 2.476574416091627e+00
 1.406929063831782e+00	 1.379771364094519e+00	 2.237687570633531e+00
 1.393416382243579e+00	 1.393416382243579e+00	 2.011373006178741e+00
 1.379771364094519e+00	 1.406929063831782e+00	 1.805142810454078e+00
 1.365995947141896e+00	 1.420307508804248e+00	 1.627185636361995e+00
 1.352092105920941e+00	 1.433549855706123e+00	 1.486340748017584e+00
 1.338061850794431e+00	 1.446654282552468e+00	 1.392069514026122e+00
 1.323907226977324e+00	 1.459619007669536e+00	 1.354424479361888e+00
 1.264631158087562e+00	 1.394266636210279e+00	 2.497933620788061e+00
 1.250991148514777e+00	 1.406517841964841e+00	 2.217349421657383e+00
 1.237236325345755e+00	 1.418632246927651e+00	 1.969969594360963e+00
 1.223368759338615e+00	 1.430608246455096e+00	 1.756697290343552e+00
 1.209390550575255e+00	 1.442444277406394e+00	 1.578340667002871e+00
 1.195303827413988e+00	 1.454138818810630e+00	 1.435596144195343e+00
 1.181110745424474e+00	 1.465690392502321e+00	 1.329031262519310e+00
 1.166813486306055e+00	 1.477097563724952e+00	 1.259067272183808e+00
 1.152414256790601e+00	 1.488358941701999e+00	 1.225192608110473e+00
 1.137915287531047e+00	 1.499473180174970e+00	 1.223986512486464e+00
 1.123318831976734e+00	 1.510438977908068e+00	 1.254023365395492e+00
 1.270558764976264e+00	 1.400801873353830e+00	 1.942885367923409e+00
 1.256854821651652e+00	 1.413110503228630e+00	 1.638864814602698e+00
 1.243035526574004e+00	 1.425281691096021e+00	 1.381075892147452e+00
 1.229102960207538e+00	 1.437313824791072e+00	 1.169335146456592e+00
 1.215059232477701e+00	 1.449205333846210e+00	 1.003302847022005e+00
 1.200906481718890e+00	 1.460954690161393e+00	 8.824676674630789e-01
 1.186646873604398e+00	 1.472560408642650e+00	 8.061310196689504e-01
 1.172282600059671e+00	 1.484021047808442e+00	 7.733018543915213e-01
 1.157815878160022e+00	 1.495335210363369e+00	 7.801326508699700e-01
 1.143248949013947e+00	 1.506501543738727e+00	 8.231508470806200e-01
 1.128584076633202e+00	 1.517518740599537e+00	 8.996983150516307e-01
 1.276486371864982e+00	 1.407337110498131e+00	 1.467541775971485e+00
 1.262718494788460e+00	 1.419703164493210e+00	 1.156117589766089e+00
 1.248834727802101e+00	 1.431931135265215e+00	 9.003709688150269e-01
 1.234837161076230e+00	 1.444019403127892e+00	 6.992462078415060e-01
 1.220727914379838e+00	 1.455966390286883e+00	 5.514818598185268e-01
 1.206509136023409e+00	 1.467770561513017e+00	 4.555964449290442e-01
 1.192183001783870e+00	 1.479430424783833e+00	 4.098738499266723e-01
 1.177751713812773e+00	 1.490944531892771e+00	 4.111688441810902e-01
 1.163217499528870e+00	 1.502311479025552e+00	 4.543168176365570e-01
 1.148582610496223e+00	 1.513529907303260e+00	 5.355827413876361e-01
 1.133849321289002e+00	 1.524598503291737e+00	 6.510803078620279e-01
 1.282413978753734e+00	 1.413872347643098e+00	 1.078951527610129e+00
 1.268582167925230e+00	 1.426295825758493e+00	 7.744162939120991e-01
 1.254633929030096e+00	 1.438580579435138e+00	 5.315720925852110e-01
 1.240571361944754e+00	 1.450724981465461e+00	 3.487017716623868e-01
 1.226396596281747e+00	 1.462727446728315e+00	 2.238446936895604e-01
 1.212111790327645e+00	 1.474586432865403e+00	 1.547830802099288e-01
 1.197719129963005e+00	 1.486300440925770e+00	 1.387803675748757e-01
 1.183220827565489e+00	 1.497868015977837e+00	 1.704638138972834e-01
 1.168619120897289e+00	 1.509287747688448e+00	 2.450484660894577e-01
 1.153916271978031e+00	 1.520558270868470e+00	 3.579338937089056e-01
 1.139114565944302e+00	 1.531678265984568e+00	 5.042872216347709e-01
 1.288341585642535e+00	 1.420407584788649e+00	 7.840370784911312e-01
 1.274445841061997e+00	 1.432888487024390e+00	 4.989748521393679e-01
 1.260433130258036e+00	 1.445230023605700e+00	 2.783307233161638e-01
 1.246305562813177e+00	 1.457430559803686e+00	 1.199334161197706e-01
 1.232065278183511e+00	 1.469488503170412e+00	 2.134205360296293e-02
 1.217714444631694e+00	 1.481402304218452e+00	-2.016725248265500e-02
 1.203255258141917e+00	 1.493170457068364e+00	-8.968797245349935e-03
 1.188689941317948e+00	 1.504791500063543e+00	 4.931086229575971e-02
 1.174020742265423e+00	 1.516264016351956e+00	 1.496921453191308e-01
 1.159249933459528e+00	 1.527586634434258e+00	 2.869291888076830e-01
 1.144379810599269e+00	 1.538758028677931e+00	 4.555199570250890e-01
 1.294269192531402e+00	 1.426942821934699e+00	 5.895984136590044e-01
 1.280309514198793e+00	 1.439481148290814e+00	 3.349155871845182e-01
 1.266232331485971e+00	 1.451879467776810e+00	 1.442348571871525e-01
 1.252039763681564e+00	 1.464136138142472e+00	 1.513473149925396e-02
 1.237733960085210e+00	 1.476249559613076e+00	-5.509046196061934e-02
 1.223317098935656e+00	 1.488218175572068e+00	-6.977707368971897e-02
 1.208791386320720e+00	 1.500040473211514e+00	-3.438490526230162e-02
 1.194159055070281e+00	 1.511714984149789e+00	 4.587978590005401e-02
 1.179422363633414e+00	 1.523240285015977e+00	 1.656720154223579e-01
 1.164583594940869e+00	 1.534614998000523e+00	 3.193648514045729e-01
 1.149645055254069e+00	 1.545837791371726e+00	 5.010603749893939e-01
 1.300196799420352e+00	 1.433478059081167e+00	 5.023167204892440e-01
 1.286173187335648e+00	 1.446073809557677e+00	 2.872721752504841e-01
 1.272031532713948e+00	 1.458528911948376e+00	 1.328113261883322e-01
 1.257773964549979e+00	 1.470841716481724e+00	 3.646302262257758e-02
 1.243402641986929e+00	 1.483010616056212e+00	-4.542287699031367e-03
 1.228919753239628e+00	 1.495034046926153e+00	 5.568715070759622e-03
 1.214327514499529e+00	 1.506910489355123e+00	 6.159787314872461e-02
 1.199628168822616e+00	 1.518638468236475e+00	 1.583848384150161e-01
 1.184823985001405e+00	 1.530216553680411e+00	 2.904702977974958e-01
 1.169917256422210e+00	 1.541643361567165e+00	 4.521066378106986e-01
 1.154910299908869e+00	 1.552917554065853e+00	 6.372692784539207e-01
 1.306124406309403e+00	 1.440013296227967e+00	 5.287579807955276e-01
 1.292036860472598e+00	 1.452666470824892e+00	 3.609925403736433e-01
 1.277830733942016e+00	 1.465178356120306e+00	 2.475280538484392e-01
 1.263508165418488e+00	 1.477547294821350e+00	 1.860409836072471e-01
 1.249071323888747e+00	 1.489771672499722e+00	 1.736572917718892e-01
 1.234522407543709e+00	 1.501849918280608e+00	 2.059209924061167e-01
 1.219863642678458e+00	 1.513780505499092e+00	 2.780731461798897e-01
 1.205097282575082e+00	 1.525561952323500e+00	 3.850835112992590e-01
 1.190225606369540e+00	 1.537192822345158e+00	 5.216257551643513e-01
 1.175250917903707e+00	 1.548671725134084e+00	 6.820880644866186e-01
 1.160175544563835e+00	 1.559997316760212e+00	 8.605844367934665e-01
 1.312052013198571e+00	 1.446548533375018e+00	 6.753764846592935e-01
 1.297900533609672e+00	 1.459259132092369e+00	 5.609416892702783e-01
 1.283629935170224e+00	 1.471827800292509e+00	 4.917962685823334e-01
 1.269242366287155e+00	 1.484252873161254e+00	 4.659475781314826e-01
 1.254740005790747e+00	 1.496532728943512e+00	 4.804780575662718e-01
 1.240125061847997e+00	 1.508665789635337e+00	 5.313403251007371e-01
 1.225399770857620e+00	 1.520650521643320e+00	 6.141614433136828e-01
 1.210566396327810e+00	 1.532485436410767e+00	 7.242753348277007e-01
 1.195627227737962e+00	 1.544169091010119e+00	 8.567322003692200e-01
 1.180584579385516e+00	 1.555700088701180e+00	 1.006308672359704e+00
 1.165440789219135e+00	 1.567077079454702e+00	 1.167518651766418e+00
 1.317979620087872e+00	 1.453083770522235e+00	 9.485182684431850e-01
 1.303764206746904e+00	 1.465851793360023e+00	 8.919044885337386e-01
 1.289429136398620e+00	 1.478477244464894e+00	 8.689726759893273e-01
 1.274976567156046e+00	 1.490958451501341e+00	 8.782211575016078e-01
 1.260408687693009e+00	 1.503293785387482e+00	 9.170333905331186e-01
 1.245727716152589e+00	 1.515481660990238e+00	 9.818964447465707e-01
 1.230935899037129e+00	 1.527520537787710e+00	 1.069009368533683e+00
 1.216035510080927e+00	 1.539408920498174e+00	 1.174300698999265e+00
 1.201028849106816e+00	 1.551145359675193e+00	 1.293437033068533e+00
 1.185918240867793e+00	 1.562728452268355e+00	 1.421832325774137e+00
 1.170706033874936e+00	 1.574156842149224e+00	 1.554657863600990e+00
 1.323907226977324e+00	 1.459619007669536e+00	 1.354424479361888e+00
 1.309627879884325e+00	 1.472444454627764e+00	 1.358588385986059e+00
 1.295228337627253e+00	 1.485126688637369e+00	 1.382386550197118e+00
 1.280710768025226e+00	 1.497664029841519e+00	 1.425077273435440e+00
 1.266077369595616e+00	 1.510054841831538e+00	 1.484426693473378e+00
 1.251330370457585e+00	 1.522297532345218e+00	 1.557667782664244e+00
 1.236472027217101e+00	 1.534390553932163e+00	 1.641788763694746e+00
 1.221504623834565e+00	 1.546332404585624e+00	 1.733539693667965e+00
 1.206430470476243e+00	 1.558121628340281e+00	 1.829439803417860e+00
 1.191251902350694e+00	 1.569756815835506e+00	 1.925785544988175e+00
 1.175971278531404e+00	 1.581236604843679e+00	 2.018659295974478e+00
 1.123318831976734e+00	 1.510438977908068e+00	 1.254023365395492e+00
 1.108629669125836e+00	 1.521253254440523e+00	 1.311282860202530e+00
 1.093847613636997e+00	 1.531916682324970e+00	 1.394649171967711e+00
 1.078974971082447e+00	 1.542428104777079e+00	 1.502444901745789e+00
 1.064014065267222e+00	 1.552786411642340e+00	 1.630073680734000e+00
 1.048967237061315e+00	 1.562990539726966e+00	 1.772884109443548e+00
 1.033836843225698e+00	 1.573039473094003e+00	 1.926178090298853e+00
 1.018625255233428e+00	 1.582932243324601e+00	 2.085218857528932e+00
 1.003334858087006e+00	 1.592667929744381e+00	 2.245238709763945e+00
 9.879680491332047e-01	 1.602245659614925e+00	 2.401446452922315e+00
 9.725272368765219e-01	 1.611664608290443e+00	 2.549034562943418e+00
 1.128584076633202e+00	 1.517518740599537e+00	 8.996983150516308e-01
 1.113826062416185e+00	 1.528383706046224e+00	 1.004616691393872e+00
 1.098974720152806e+00	 1.539097115783824e+00	 1.133699988543800e+00
 1.084032366222025e+00	 1.549657807605892e+00	 1.286975100241641e+00
 1.069001335321073e+00	 1.560064666154375e+00	 1.459158360721249e+00
 1.053883979292120e+00	 1.570316623252049e+00	 1.644729664156501e+00
 1.038682665942804e+00	 1.580412658200036e+00	 1.838083387184815e+00
 1.023399777861804e+00	 1.590351798040284e+00	 2.033537914421898e+00
 1.008037711230661e+00	 1.600133117783001e+00	 2.225344897398732e+00
 9.925988746330451e-01	 1.609755740599044e+00	 2.407698252569145e+00
 9.770856878626532e-01	 1.619218837977321e+00	 2.574742906012086e+00
 1.133849321289002e+00	 1.524598503291737e+00	 6.510803078620282e-01
 1.119022455705831e+00	 1.535514157652602e+00	 7.949400958687730e-01
 1.104101826667885e+00	 1.546277549243292e+00	 9.608550173778814e-01
 1.089089761360856e+00	 1.556887510435254e+00	 1.149044038734934e+00
 1.073988605374169e+00	 1.567342920666890e+00	 1.354669136073969e+00
 1.058800721522175e+00	 1.577642706777549e+00	 1.571591011465590e+00
 1.043528488659177e+00	 1.587785843306425e+00	 1.793555743808685e+00
 1.028174300489477e+00	 1.597771352756268e+00	 2.014205387373041e+00
 1.012740564373655e+00	 1.607598305821879e+00	 2.227088324246833e+00
 9.972297001322832e-01	 1.617265821583393e+00	 2.425669375215297e+00
 9.816441388482543e-01	 1.626773067664415e+00	 2.603339675590550e+00
 1.139114565944302e+00	 1.531678265984568e+00	 5.042872216347709e-01
 1.124218848994950e+00	 1.542644609259557e+00	 6.778486297893591e-01
 1.109228933182416e+00	 1.553457982703275e+00	 8.715219941494402e-01
 1.094147156499128e+00	 1.564117213265066e+00	 1.083946328559173e+00
 1.078975875426700e+00	 1.574621175179788e+00	 1.311923493537665e+00
 1.063717463751669e+00	 1.584968790303364e+00	 1.548940996925602e+00
 1.048374311375001e+00	 1.595159028413066e+00	 1.788352244698763e+00
 1.032948823116623e+00	 1.605190907472450e+00	 2.023387793099017e+00
 1.017443417516155e+00	 1.615063493860909e+00	 2.247166364979535e+00
 1.001860525631069e+00	 1.624775902567861e+00	 2.452705634578822e+00
 9.862025898334583e-01	 1.634327297351610e+00	 2.632932786961912e+00
 1.144379810599269e+00	 1.538758028677931e+00	 4.555199570250889e-01
 1.129415242283717e+00	 1.549775060866989e+00	 6.491469496843230e-01
 1.114356039696582e+00	 1.560638416163673e+00	 8.610045648009270e-01
 1.099204551637025e+00	 1.571346916095226e+00	 1.087066278642169e+00
 1.083963145478855e+00	 1.581899429692963e+00	 1.326328011198054e+00
 1.068634205980788e+00	 1.592294873829391e+00	 1.572338492915441e+00
 1.053220134090458e+00	 1.602532213519856e+00	 1.818310546018913e+00
 1.037723345743416e+00	 1.612610462188722e+00	 2.057324443298844e+00
 1.022146270658325e+00	 1.622528681899982e+00	 2.282339161893566e+00
 1.006491351129554e+00	 1.632285983552334e+00	 2.486203406190106e+00
 9.907610408183973e-01	 1.641881527038787e+00	 2.661666406618860e+00
 1.149645055254069e+00	 1.545837791371726e+00	 5.010603749893938e-01
 1.134611635572308e+00	 1.556905512474797e+00	 7.047279617356701e-01
 1.119483146210567e+00	 1.567818849624386e+00	 9.242134464200047e-01
 1.104261946774735e+00	 1.578576618925632e+00	 1.153876233631364e+00
 1.088950415530820e+00	 1.589177684206319e+00	 1.393376702129837e+00
 1.073550948209719e+00	 1.599620957355527e+00	 1.637426803582696e+00
 1.058065956805731e+00	 1.609905398626689e+00	 1.879347396059473e+00
 1.042497868370034e+00	 1.620030016904980e+00	 2.112326133384005e+00
 1.026849123800329e+00	 1.629993869938989e+00	 2.329428532980857e+00
 1.011122176627888e+00	 1.639796064536699e+00	 2.523608804276699e+00
 9.953194918032041e-01	 1.649435756725832e+00	 2.687720445782427e+00
 1.154910299908869e+00	 1.552917554065853e+00	 6.372692784539203e-01
 1.139808028860899e+00	 1.564035964082883e+00	 8.405706472130783e-01
 1.124610252724551e+00	 1.574999283085313e+00	 1.056815765401970e+00
 1.109319341912446e+00	 1.585806321756186e+00	 1.279934965051771e+00
 1.093937685582786e+00	 1.596455938719752e+00	 1.508649410819319e+00
 1.078467690438650e+00	 1.606947040881672e+00	 1.739932120772399e+00
 1.062911779521005e+00	 1.617278583733464e+00	 1.967457203433534e+00
 1.047272390996653e+00	 1.627449571621117e+00	 2.184773874188585e+00
 1.031551976942334e+00	 1.637459057977820e+00	 2.385316916850775e+00
 1.015753002126222e+00	 1.647306145520847e+00	 2.562416888015235e+00
 9.998779427880107e-01	 1.656989986412625e+00	 2.709310074489993e+00
 1.160175544563835e+00	 1.559997316760212e+00	 8.605844367934666e-01
 1.145004422149667e+00	 1.571166415691145e+00	 1.052737935147939e+00
 1.129737359238717e+00	 1.582179716546355e+00	 1.254632416295431e+00
 1.114376737050343e+00	 1.593036024586787e+00	 1.460705092065886e+00
 1.098924955634941e+00	 1.603734193233161e+00	 1.667810260685037e+00
 1.083384432667769e+00	 1.614273124407722e+00	 1.875662029320909e+00
 1.067757602236463e+00	 1.624651768840077e+00	 2.078710651463581e+00
 1.052046913623446e+00	 1.634869126337026e+00	 2.271117665294781e+00
 1.036254830084503e+00	 1.644924246016368e+00	 2.446946353334579e+00
 1.020383827624707e+00	 1.654816226504663e+00	 2.600170896217747e+00
 1.004436393772950e+00	 1.664544216099050e+00	 2.724685255599540e+00
 1.165440789219135e+00	 1.567077079454702e+00	 1.167518651766418e+00
 1.150200815438786e+00	 1.578296867299485e+00	 1.337374620753395e+00
 1.134864465753249e+00	 1.589360150007411e+00	 1.513570602862248e+00
 1.119434132188614e+00	 1.600265727417334e+00	 1.691315749989132e+00
 1.103912225687472e+00	 1.611012447746446e+00	 1.866606151081010e+00
 1.088301174897263e+00	 1.621599207933576e+00	 2.040504060154271e+00
 1.072603424952286e+00	 1.632024953946423e+00	 2.209253357298243e+00
 1.056821436250592e+00	 1.642288681052604e+00	 2.367875308658197e+00
 1.040957683227003e+00	 1.652389434054522e+00	 2.511317498644175e+00
 1.025014653123494e+00	 1.662326307488035e+00	 2.634461509553879e+00
 1.008994844758154e+00	 1.672098445784992e+00	 2.732130298080712e+00
 1.170706033874936e+00	 1.574156842149224e+00	 1.554657863600990e+00
 1.155397208728432e+00	 1.585427318907801e+00	 1.690705328150044e+00
 1.139991572268328e+00	 1.596540583468382e+00	 1.829621711781961e+00
 1.124491527327446e+00	 1.607495430247728e+00	 1.967594706814557e+00
 1.108899495740569e+00	 1.618290702259505e+00	 2.100865302225190e+00
 1.093217917127319e+00	 1.628925291459132e+00	 2.230424289686569e+00
 1.077449247668659e+00	 1.639398139052400e+00	 2.355304574351590e+00
 1.061595958878265e+00	 1.649708235767744e+00	 2.471631261264480e+00
 1.045660536369998e+00	 1.659854622092177e+00	 2.575488673997832e+00
 1.029645478622732e+00	 1.669836388470851e+00	 2.662926139442257e+00
 1.013553295743755e+00	 1.679652675470332e+00	 2.729963428985988e+00
 1.175971278531404e+00	 1.581236604843679e+00	 2.018659295974478e+00
 1.160593602018781e+00	 1.592557770515995e+00	 2.109032516008785e+00
 1.145118678784137e+00	 1.603721016929166e+00	 2.198859231845980e+00
 1.129548922467025e+00	 1.614725133077867e+00	 2.285509292114326e+00
 1.113886765794420e+00	 1.625568956772238e+00	 2.366376637207584e+00
 1.098134659358124e+00	 1.636251374984289e+00	 2.441465984067745e+00
 1.082295070385766e+00	 1.646771324157903e+00	 2.513155936707464e+00
 1.066370481506642e+00	 1.657127790482339e+00	 2.579035525594780e+00
 1.050363389513654e+00	 1.667319810129223e+00	 2.636574946664331e+00
 1.034276304122573e+00	 1.677346469452999e+00	 2.683248242775954e+00
 1.018111746729887e+00	 1.687206905154955e+00	 2.716536383516890e+00
 9.725272368765219e-01	 1.611664608290443e+00	 2.549034562943418e+00
 9.570148400954672e-01	 1.620923999730693e+00	 2.669243147975477e+00
 9.414332875463274e-01	 1.630023107767037e+00	 2.749266037137103e+00
 9.257850158359563e-01	 1.638961254991470e+00	 2.793237707401971e+00
 9.100724679326296e-01	 1.647737812383568e+00	 2.805314594174038e+00
 8.942980919892135e-01	 1.656352199292953e+00	 2.789669938022672e+00
 8.784643401719208e-01	 1.664803883388219e+00	 2.750488547881098e+00
 8.625736674957413e-01	 1.673092380572644e+00	 2.691961513989255e+00
 8.466285306676252e-01	 1.681217254867130e+00	 2.618280903604026e+00
 8.306313869384504e-01	 1.689178118260764e+00	 2.533634471997323e+00
 8.145846929648080e-01	 1.696974630529512e+00	 2.442200420526361e+00
 9.770856878626532e-01	 1.619218837977321e+00	 2.574742906012086e+00
 9.615005810353462e-01	 1.628521630240110e+00	 2.707623683471143e+00
 9.458459942915274e-01	 1.637663387815064e+00	 2.794701705179079e+00
 9.301243756589621e-01	 1.646643430119025e+00	 2.840964352952985e+00
 9.143381795566552e-01	 1.655461125183214e+00	 2.851459710354567e+00
 8.984898656125033e-01	 1.664115889635621e+00	 2.831289592918039e+00
 8.825818974865609e-01	 1.672607188649691e+00	 2.785602459732877e+00
 8.666167417010120e-01	 1.680934535859640e+00	 2.719586244095370e+00
 8.505968664779338e-01	 1.689097493242845e+00	 2.638461140684927e+00
 8.345247405858784e-01	 1.697095670969706e+00	 2.547472386203534e+00
 8.184028321963256e-01	 1.704928727221486e+00	 2.451883069649708e+00
 9.816441388482543e-01	 1.626773067664415e+00	 2.603339675590550e+00
 9.659863219747833e-01	 1.636119260749749e+00	 2.741813564682004e+00
 9.502587010363843e-01	 1.645303667863334e+00	 2.830931987107119e+00
 9.344637354817303e-01	 1.654325605246850e+00	 2.876300112895251e+00
 9.186038911805495e-01	 1.663184437983163e+00	 2.883614640009510e+00
 9.026816392357647e-01	 1.671879579978629e+00	 2.858655418933213e+00
 8.866994548012662e-01	 1.680410493911535e+00	 2.807276929213684e+00
 8.706598159064309e-01	 1.688776691147034e+00	 2.735399649400189e+00
 8.545652022884538e-01	 1.696977731618970e+00	 2.649001361554992e+00
 8.384180942335583e-01	 1.705013223679052e+00	 2.554108430984709e+00
 8.222209714281083e-01	 1.712882823913839e+00	 2.456787101043557e+00
 9.862025898334583e-01	 1.634327297351610e+00	 2.632932786961912e+00
 9.704720629138888e-01	 1.643716891259486e+00	 2.770677587193292e+00
 9.546714077809845e-01	 1.652943947911714e+00	 2.857459503567640e+00
 9.388030953043199e-01	 1.662007780374810e+00	 2.899270033701148e+00
 9.228696028043460e-01	 1.670907750783278e+00	 2.902215180434979e+00
 9.068734128590051e-01	 1.679643270321834e+00	 2.872506078094811e+00
 8.908170121160226e-01	 1.688213799173608e+00	 2.816449446983273e+00
 8.747028901119608e-01	 1.696618846434682e+00	 2.740437920561063e+00
 8.585335380991325e-01	 1.704857969995367e+00	 2.650940289514519e+00
 8.423114478814271e-01	 1.712930776388675e+00	 2.554491706362503e+00
 8.260391106600912e-01	 1.720836920606458e+00	 2.457683893433590e+00
 9.907610408183973e-01	 1.641881527038787e+00	 2.661666406618860e+00
 9.749578038527736e-01	 1.651314521769201e+00	 2.793102571927527e+00
 9.590841145254130e-01	 1.660584227960079e+00	 2.873796856032677e+00
 9.431424551267915e-01	 1.669689955502773e+00	 2.909899213920285e+00
 9.271353144280760e-01	 1.678631063583420e+00	 2.907689301198311e+00
 9.110651864822312e-01	 1.687406960665095e+00	 2.873566505851037e+00
 8.949345694308115e-01	 1.696017104435768e+00	 2.814039790137448e+00
 8.787459643175644e-01	 1.704461001722444e+00	 2.735717389411059e+00
 8.625018739099167e-01	 1.712738208371898e+00	 2.645296414379227e+00
 8.462048015294223e-01	 1.720848329098446e+00	 2.549552402762667e+00
 8.298572498922062e-01	 1.728791017299227e+00	 2.455328865471023e+00
 9.953194918032041e-01	 1.649435756725832e+00	 2.687720445782427e+00
 9.794435447915480e-01	 1.658912152278770e+00	 2.807997173008272e+00
 9.634968212697558e-01	 1.668224508008300e+00	 2.879466698739874e+00
 9.474818149492031e-01	 1.677372130630603e+00	 2.908213091461683e+00
 9.314010260517740e-01	 1.686354376383450e+00	 2.900457599591856e+00
 9.152569601054503e-01	 1.695170651008270e+00	 2.862548489116673e+00
 8.990521267456177e-01	 1.703820409697870e+00	 2.800950678880030e+00
 8.827890385232054e-01	 1.712303157010177e+00	 2.722235221934207e+00
 8.664702097207534e-01	 1.720618446748428e+00	 2.633068681097976e+00
 8.500981551774804e-01	 1.728765881808236e+00	 2.540202446298792e+00
 8.336753891243880e-01	 1.736745113992029e+00	 2.450462040410275e+00
 9.998779427880107e-01	 1.656989986412625e+00	 2.709310074489993e+00
 9.839292857303223e-01	 1.666509782788071e+00	 2.814291697453981e+00
 9.679095280140989e-01	 1.675864788056249e+00	 2.874001815094888e+00
 9.518211747716145e-01	 1.685054305758168e+00	 2.894237729300450e+00
 9.356667376754718e-01	 1.694077689183231e+00	 2.880933749760169e+00
 9.194487337286694e-01	 1.702934341351218e+00	 2.840151234484614e+00
 9.031696840604232e-01	 1.711623714959771e+00	 2.778068421054599e+00
 8.868321127288457e-01	 1.720145312297739e+00	 2.700970097948981e+00
 8.704385455315907e-01	 1.728498685124818e+00	 2.615237165037614e+00
 8.539915088255383e-01	 1.736683434517917e+00	 2.527336131746577e+00
 8.374935283565700e-01	 1.744699210684749e+00	 2.443808600518398e+00
 1.004436393772950e+00	 1.664544216099050e+00	 2.724685255599540e+00
 9.884150266692072e-01	 1.674107413296981e+00	 2.810937936326651e+00
 9.723222347585273e-01	 1.683505068103797e+00	 2.856945198394836e+00
 9.561605345940860e-01	 1.692736480885333e+00	 2.868000099659145e+00
 9.399324492992021e-01	 1.701801001982622e+00	 2.849524945702156e+00
 9.236405073518955e-01	 1.710698031693796e+00	 2.807061926916746e+00
 9.072872413752125e-01	 1.719427020221330e+00	 2.746263544921996e+00
 8.908751869344493e-01	 1.727987467584990e+00	 2.672882877922782e+00
 8.744068813423749e-01	 1.736378923500933e+00	 2.592763734358840e+00
 8.578848624735339e-01	 1.744600987227362e+00	 2.511830743599877e+00
 8.413116675886849e-01	 1.752653307377271e+00	 2.436079431542972e+00
 1.008994844758154e+00	 1.672098445784992e+00	 2.732130298080712e+00
 9.929007676083129e-01	 1.681705043805379e+00	 2.796909006973367e+00
 9.767349415031276e-01	 1.691145348150817e+00	 2.827850136736672e+00
 9.604998944166758e-01	 1.700418656011965e+00	 2.829528366712645e+00
 9.441981609229979e-01	 1.709524314781486e+00	 2.806632338342091e+00
 9.278322809751357e-01	 1.718461722035863e+00	 2.763956279215663e+00
 9.114047986899687e-01	 1.727230325482402e+00	 2.706391420555526e+00
 8.949182611399791e-01	 1.735829622871788e+00	 2.638917257324482e+00
 8.783752171530532e-01	 1.744259161876634e+00	 2.566592699891620e+00
 8.617782161214028e-01	 1.752518539936439e+00	 2.494547165585696e+00
 8.451298068206675e-01	 1.760607404069479e+00	 2.427971657552950e+00
 1.013553295743755e+00	 1.679652675470332e+00	 2.729963428985988e+00
 9.973865085477501e-01	 1.689302674313143e+00	 2.771199206011961e+00
 9.811476482479849e-01	 1.698785628197181e+00	 2.786280301978902e+00
 9.648392542394443e-01	 1.708100831137931e+00	 2.778852167863322e+00
 9.484638725468924e-01	 1.717247627579685e+00	 2.752651466856673e+00
 9.320240545983974e-01	 1.726225412377277e+00	 2.711499072567679e+00
 9.155223560046748e-01	 1.735033630742843e+00	 2.659292870212737e+00
 8.989613353453980e-01	 1.743671778157989e+00	 2.600000408907867e+00
 8.823435529635734e-01	 1.752139400251785e+00	 2.537651452904000e+00
 8.656715697690824e-01	 1.760436092645021e+00	 2.476330479001802e+00
 8.489479460524506e-01	 1.768561500761259e+00	 2.420169166455891e+00
 1.018111746729887e+00	 1.687206905154955e+00	 2.716536383516890e+00
 1.001872249487630e+00	 1.696900304820150e+00	 2.732823872724484e+00
 9.855603549931854e-01	 1.706425908242760e+00	 2.731809842630275e+00
 9.691786140624503e-01	 1.715783006263096e+00	 2.716002893631713e+00
 9.527295841709187e-01	 1.724970940377081e+00	 2.687972684438517e+00
 9.362158282216873e-01	 1.733989102717897e+00	 2.650344688437444e+00
 9.196399133193149e-01	 1.742836936002513e+00	 2.605794768029432e+00
 9.030044095506687e-01	 1.751513933443456e+00	 2.557043613304498e+00
 8.863118887738816e-01	 1.760019638626248e+00	 2.506851091144044e+00
 8.695649234165100e-01	 1.768353645352981e+00	 2.458010550227509e+00
 8.527660852839681e-01	 1.776515597452493e+00	 2.413343126484027e+00
 8.145846929648080e-01	 1.696974630529512e+00	 2.442200420526361e+00
 7.984881635692119e-01	 1.704607782308222e+00	 2.358274924900480e+00
 7.823469753732306e-01	 1.712075987695308e+00	 2.292198071095025e+00
 7.661635769862309e-01	 1.719379047145569e+00	 2.242153840445051e+00
 7.499404120156170e-01	 1.726516807897009e+00	 2.206325084977211e+00
 7.336799179914387e-01	 1.733489163639346e+00	 2.182723250503089e+00
 7.173845253063604e-01	 1.740296054154137e+00	 2.168026410053105e+00
 7.010566561718182e-01	 1.746937464927227e+00	 2.159823503030806e+00
 6.846987235911640e-01	 1.753413426734232e+00	 2.156097320042485e+00
 6.683131303505522e-01	 1.759724015199794e+00	 2.154946529470633e+00
 6.519022680282955e-01	 1.765869350331382e+00	 2.154582271777119e+00
 8.184028321963256e-01	 1.704928727221486e+00	 2.451883069649708e+00
 8.022308547950975e-01	 1.712597657276366e+00	 2.366576067112443e+00
 7.860140092677473e-01	 1.720100867799294e+00	 2.301388910076511e+00
 7.697547557008287e-01	 1.727438158309759e+00	 2.253966675540390e+00
 7.534555491554902e-01	 1.734609375329742e+00	 2.221943391364791e+00
 7.371188385870384e-01	 1.741614412050667e+00	 2.202904685096826e+00
 7.207470657799391e-01	 1.748453207971837e+00	 2.193258018704381e+00
 7.043426642990840e-01	 1.755125748511074e+00	 2.189840432686728e+00
 6.879080584581196e-01	 1.761632064588246e+00	 2.190072989979439e+00
 6.714456623056047e-01	 1.767972232182473e+00	 2.191489819592435e+00
 6.549578786297219e-01	 1.774146371863731e+00	 2.191735499651879e+00
 8.222209714281083e-01	 1.712882823913839e+00	 2.456787101043557e+00
 8.059735460212321e-01	 1.720587532244843e+00	 2.372020391949810e+00
 7.896810431624707e-01	 1.728125747903544e+00	 2.308930015020738e+00
 7.733459344155730e-01	 1.735497269474130e+00	 2.264748611977370e+00
 7.569706862954365e-01	 1.742701942762564e+00	 2.236688845808664e+00
 7.405577591826318e-01	 1.749739660461978e+00	 2.221946972597884e+00
 7.241096062534327e-01	 1.756610361789429e+00	 2.216882906070548e+00
 7.076286724261937e-01	 1.763314032094718e+00	 2.217696124523112e+00
 6.911173933248609e-01	 1.769850702441975e+00	 2.221375231361316e+00
 6.745781942604039e-01	 1.776220449164800e+00	 2.225019230262856e+00
 6.580134892308822e-01	 1.782423393395677e+00	 2.225835521908519e+00
 8.260391106600912e-01	 1.720836920606458e+00	 2.457683893433590e+00
 8.097162372475537e-01	 1.728577407213554e+00	 2.375172752807607e+00
 7.933480770573491e-01	 1.736150628007981e+00	 2.315206357147582e+00
 7.769371131304268e-01	 1.743556380638631e+00	 2.274729583445416e+00
 7.604858234354377e-01	 1.750794510195449e+00	 2.250659383040086e+00
 7.439966797782203e-01	 1.757864908873280e+00	 2.239888834049845e+00
 7.274721467268634e-01	 1.764767515606941e+00	 2.238827244032108e+00
 7.109146805531861e-01	 1.771502315678212e+00	 2.243247970027146e+00
 6.943267281914413e-01	 1.778069340295493e+00	 2.249807835812675e+00
 6.777107262150133e-01	 1.784468666146862e+00	 2.255298272106263e+00
 6.610690998318431e-01	 1.790700414927322e+00	 2.256617027422021e+00
 8.298572498922062e-01	 1.728791017299227e+00	 2.455328865471023e+00
 8.134589284740003e-01	 1.736567282182402e+00	 2.376585528619633e+00
 7.970151109523318e-01	 1.744175508112531e+00	 2.320593436260919e+00
 7.805282918453533e-01	 1.751615491803208e+00	 2.284132607491558e+00
 7.640009605754752e-01	 1.758887077628368e+00	 2.263948164049723e+00
 7.474356003738059e-01	 1.765990157284572e+00	 2.256754612903426e+00
 7.308346872002515e-01	 1.772924669424396e+00	 2.259013587953213e+00
 7.142006886801003e-01	 1.779690599261606e+00	 2.266351245147949e+00
 6.975360630579145e-01	 1.786287978148868e+00	 2.275173700693927e+00
 6.808432581694961e-01	 1.792716883128747e+00	 2.282090536980971e+00
 6.641247104326711e-01	 1.798977436458766e+00	 2.283815549906488e+00
 8.336753891243880e-01	 1.736745113992029e+00	 2.450462040410275e+00
 8.172016197005085e-01	 1.744557157151287e+00	 2.376799095639405e+00
 8.006821448473660e-01	 1.752200388217115e+00	 2.325457670705454e+00
 7.841194705603172e-01	 1.759674602967811e+00	 2.293174103962529e+00
 7.675160977155310e-01	 1.766979645061297e+00	 2.276643832558221e+00
 7.508745209693901e-01	 1.774115405695855e+00	 2.272525718543633e+00
 7.341972276736185e-01	 1.781081823241821e+00	 2.277360869571841e+00
 7.174866968069756e-01	 1.787878882844947e+00	 2.286859071363915e+00
 7.007453979243340e-01	 1.794506616002171e+00	 2.297274764807467e+00
 6.839757901239162e-01	 1.800965100110545e+00	 2.305159614003973e+00
 6.671803210334328e-01	 1.807254457990109e+00	 2.307167369157261e+00
 8.374935283565700e-01	 1.744699210684749e+00	 2.443808600518398e+00
 8.209443109270168e-01	 1.752547032120114e+00	 2.376342291329525e+00
 8.043491787424001e-01	 1.760225268321657e+00	 2.330156781504768e+00
 7.877106492752806e-01	 1.767733714132384e+00	 2.302064209418166e+00
 7.710312348555869e-01	 1.775072212494209e+00	 2.288830768987116e+00
 7.543134415649742e-01	 1.782240654107128e+00	 2.287180893878581e+00
 7.375597681469854e-01	 1.789238977059240e+00	 2.293784389748911e+00
 7.207727049338508e-01	 1.796067166428286e+00	 2.304622377482247e+00
 7.039547327907537e-01	 1.802725253855474e+00	 2.315911945533224e+00
 6.871083220783356e-01	 1.809213317092342e+00	 2.324269007547605e+00
 6.702359316341945e-01	 1.815531479521452e+00	 2.326409414674255e+00
 8.413116675886849e-01	 1.752653307377271e+00	 2.436079431542972e+00
 8.246870021534630e-01	 1.760536907088782e+00	 2.375732870610359e+00
 8.080162126373823e-01	 1.768250148426080e+00	 2.335040170865527e+00
 7.913018279902077e-01	 1.775792825296878e+00	 2.311007087644447e+00
 7.745463719956243e-01	 1.783164779927075e+00	 2.300589342009563e+00
 7.577523621605597e-01	 1.790365902518389e+00	 2.300696478807843e+00
 7.409223086203739e-01	 1.797396130876680e+00	 2.308195878960179e+00
 7.240587130607654e-01	 1.804255450011673e+00	 2.319489862147270e+00
 7.071640676572267e-01	 1.810943891708847e+00	 2.330885077347985e+00
 6.902408540328184e-01	 1.817461534074229e+00	 2.339182057145416e+00
 6.732915422350230e-01	 1.823808501052896e+00	 2.341279171590852e+00
 8.451298068206675e-01	 1.760607404069479e+00	 2.427971657552950e+00
 8.284296933797848e-01	 1.768526782057194e+00	 2.375477954709953e+00
 8.116832465322612e-01	 1.776275028530309e+00	 2.340449295226402e+00
 7.948930067050616e-01	 1.783851936461238e+00	 2.320201236389599e+00
 7.780615091356252e-01	 1.791257347359871e+00	 2.311996157757761e+00
 7.611912827561486e-01	 1.798491150929640e+00	 2.313046609978739e+00
 7.442848490938040e-01	 1.805553284694165e+00	 2.320518836719365e+00
 7.273447211877578e-01	 1.812443733595157e+00	 2.331307957035091e+00
 7.103734025238072e-01	 1.819162529562361e+00	 2.341992851684808e+00
 6.933733859874279e-01	 1.825709751056291e+00	 2.349661859246836e+00
 6.763471528359838e-01	 1.832085522584540e+00	 2.351514588835278e+00
 8.489479460524506e-01	 1.768561500761259e+00	 2.420169166455891e+00
 8.321723846059192e-01	 1.776516657025253e+00	 2.376074472848244e+00
 8.153502804269847e-01	 1.784299908634265e+00	 2.346718033023464e+00
 7.984841854198054e-01	 1.791911047625413e+00	 2.329839790442423e+00
 7.815766462755713e-01	 1.799349914792569e+00	 2.323124306760818e+00
 7.646302033517420e-01	 1.806616399340881e+00	 2.324203419443545e+00
 7.476473895672979e-01	 1.813710438511721e+00	 2.330659093126779e+00
 7.306307293148674e-01	 1.820632017178786e+00	 2.339920790712934e+00
 7.135827373905486e-01	 1.827381167416087e+00	 2.349032758090206e+00
 6.965059179422274e-01	 1.833957968038617e+00	 2.355471190762309e+00
 6.794027634371442e-01	 1.840362544116487e+00	 2.356853989454243e+00
 8.527660852839681e-01	 1.776515597452493e+00	 2.413343126484027e+00
 8.359150758318051e-01	 1.784506531992859e+00	 2.378009596980558e+00
 8.190173143215014e-01	 1.792324788737874e+00	 2.354173047338092e+00
 8.020753641344036e-01	 1.799970158789352e+00	 2.340110821167763e+00
 7.850917834154448e-01	 1.807442482225144e+00	 2.334043608684605e+00
 7.680691239473414e-01	 1.814741647752109e+00	 2.334137232252281e+00
 7.510099300408769e-01	 1.821867592329375e+00	 2.338504648066985e+00
 7.339167374421334e-01	 1.828820300762612e+00	 2.345170153142219e+00
 7.167920722575044e-01	 1.835599805270095e+00	 2.351801026638353e+00
 6.996384498972799e-01	 1.842206185021295e+00	 2.356372434342758e+00
 6.824583740385706e-01	 1.848639565648836e+00	 2.357035983030867e+00
 6.519022680282955e-01	 1.765869350331382e+00	 2.154582271777119e+00
 6.354713111388517e-01	 1.771848593317297e+00	 2.154260253656493e+00
 6.190198366657016e-01	 1.777663008962260e+00	 2.154203009543662e+00
 6.025501949029400e-01	 1.783312846053559e+00	 2.154200529804305e+00
 5.860647212144215e-01	 1.788798395632072e+00	 2.154100319383827e+00
 5.695657351459118e-01	 1.794119990412552e+00	 2.153802476678339e+00
 5.530555395592713e-01	 1.799278004183412e+00	 2.153254770869663e+00
 5.365364197891498e-01	 1.804272851186889e+00	 2.152447726852016e+00
 5.200106428226289e-01	 1.809104985480471e+00	 2.151409726545762e+00
 5.034804565022232e-01	 1.813774900280471e+00	 2.150202135071507e+00
 4.869480887526040e-01	 1.818283127288656e+00	 2.148914459946386e+00
 6.549578786297219e-01	 1.774146371863731e+00	 2.191735499651879e+00
 6.384499061990342e-01	 1.780153640888624e+00	 2.189532768440789e+00
 6.219213200142383e-01	 1.785995309990285e+00	 2.185336769927396e+00
 6.053744813857638e-01	 1.791671629122109e+00	 2.179515615453027e+00
 5.888117366238175e-01	 1.797182890689137e+00	 2.172490441573212e+00
 5.722354161463743e-01	 1.802529428965615e+00	 2.164729760391095e+00
 5.556478336093053e-01	 1.807711619491974e+00	 2.156743828508915e+00
 5.390512850591133e-01	 1.812729878452083e+00	 2.149079044342757e+00
 5.224480481087375e-01	 1.817584662031686e+00	 2.142312383158482e+00
 5.058403811368134e-01	 1.822276465758901e+00	 2.137045878811167e+00
 4.892305225107745e-01	 1.826805823827681e+00	 2.133901160806079e+00
 6.580134892308822e-01	 1.782423393395677e+00	 2.225835521908519e+00
 6.414285012589676e-01	 1.788458688459521e+00	 2.222147065712343e+00
 6.248228033625713e-01	 1.794327611017873e+00	 2.214610012380640e+00
 6.081987678684507e-01	 1.800030412190232e+00	 2.204053643627333e+00
 5.915587520331601e-01	 1.805567385745794e+00	 2.191357289969322e+00
 5.749050971468814e-01	 1.810938867518298e+00	 2.177444078171197e+00
 5.582401276594879e-01	 1.816145234800187e+00	 2.163274713162644e+00
 5.415661503293344e-01	 1.821186905716960e+00	 2.149841304679640e+00
 5.248854533952103e-01	 1.826064338582610e+00	 2.138161248449180e+00
 5.082003057718694e-01	 1.830778031237055e+00	 2.129271171318362e+00
 4.915129562695016e-01	 1.835328520366439e+00	 2.124220949322085e+00
 6.610690998318431e-01	 1.790700414927322e+00	 2.256617027422021e+00
 6.444070963187153e-01	 1.796763736030097e+00	 2.251816435646569e+00
 6.277242867107518e-01	 1.802659912045134e+00	 2.241720300373244e+00
 6.110230543510350e-01	 1.808389195258034e+00	 2.227503693703174e+00
 5.943057674424651e-01	 1.813951880802145e+00	 2.210390256376017e+00
 5.775747781474243e-01	 1.819348306070697e+00	 2.191645467049493e+00
 5.608324217097872e-01	 1.824578850108139e+00	 2.172569957638847e+00
 5.440810155997560e-01	 1.829643932981597e+00	 2.154492885362473e+00
 5.273228586819682e-01	 1.834544015133316e+00	 2.138765371674798e+00
 5.105602304072903e-01	 1.839279596715006e+00	 2.126754017815617e+00
 4.937953900286674e-01	 1.843851216904997e+00	 2.119834506266772e+00
 6.641247104326711e-01	 1.798977436458766e+00	 2.283815549906488e+00
 6.473856913783390e-01	 1.805068783600458e+00	 2.278255638864811e+00
 6.306257700588300e-01	 1.810992213072177e+00	 2.266367187342092e+00
 6.138473408335520e-01	 1.816747978325622e+00	 2.249557219195749e+00
 5.970527828517465e-01	 1.822336375858293e+00	 2.229281326600639e+00
 5.802444591479949e-01	 1.827757744622905e+00	 2.207036584979584e+00
 5.634247157601709e-01	 1.833012465415916e+00	 2.184354521345451e+00
 5.465958808703215e-01	 1.838100960246076e+00	 2.162794146985751e+00
 5.297602639689301e-01	 1.843023691683876e+00	 2.143935064932177e+00
 5.129201550429753e-01	 1.847781162192820e+00	 2.129370662182926e+00
 4.960778237881540e-01	 1.852373913443422e+00	 2.120701066805298e+00
 6.671803210334328e-01	 1.807254457990109e+00	 2.307167369157261e+00
 6.503642864379001e-01	 1.813373831170712e+00	 2.301180796094709e+00
 6.335272534068583e-01	 1.819324514099111e+00	 2.288252097234790e+00
 6.166716273160365e-01	 1.825106761393103e+00	 2.269907922316064e+00
 5.997997982610184e-01	 1.830720870914339e+00	 2.247724952810255e+00
 5.829141401485844e-01	 1.836167183175019e+00	 2.223322585430448e+00
 5.660170098106057e-01	 1.841446080723607e+00	 2.198355672197926e+00
 5.491107461409732e-01	 1.846557987510475e+00	 2.174507328173520e+00
 5.321976692560165e-01	 1.851503368234363e+00	 2.153481817457472e+00
 5.152800796788236e-01	 1.856282727670566e+00	 2.136964735374238e+00
 4.983602575478438e-01	 1.860896609981779e+00	 2.126660190785020e+00
 6.702359316341945e-01	 1.815531479521452e+00	 2.326409414674255e+00
 6.533428814974620e-01	 1.821678878740965e+00	 2.320309280534252e+00
 6.364287367548873e-01	 1.827656815126044e+00	 2.307078208012715e+00
 6.194959137985235e-01	 1.833465544460584e+00	 2.288251631657500e+00
 6.025468136702961e-01	 1.839105365970385e+00	 2.265417929085622e+00
 5.855838211491849e-01	 1.844576621727132e+00	 2.240210995123653e+00
 5.686093038610591e-01	 1.849879696031297e+00	 2.214302871479955e+00
 5.516256114116549e-01	 1.855015014774876e+00	 2.189374251781778e+00
 5.346350745431466e-01	 1.859983044784851e+00	 2.167085654795446e+00
 5.176400043147342e-01	 1.864784293148311e+00	 2.149213630493020e+00
 5.006426913076193e-01	 1.869419306520137e+00	 2.137544571842924e+00
 6.732915422350230e-01	 1.823808501052896e+00	 2.341279171590852e+00
 6.563214765570855e-01	 1.829983926311328e+00	 2.335359612833559e+00
 6.393302201029681e-01	 1.835989116153088e+00	 2.322550338019332e+00
 6.223202002810477e-01	 1.841824327528172e+00	 2.304286182912917e+00
 6.052938290795936e-01	 1.847489861026532e+00	 2.282059270071190e+00
 5.882535021497876e-01	 1.852986060279340e+00	 2.257408167856649e+00
 5.712015979114985e-01	 1.858313311339075e+00	 2.231820720554775e+00
 5.541404766823086e-01	 1.863472042039354e+00	 2.206912197485734e+00
 5.370724798302403e-01	 1.868462721335410e+00	 2.184378582493528e+00
 5.199999289506066e-01	 1.873285858626126e+00	 2.165927617014892e+00
 5.029251250673623e-01	 1.877942003058562e+00	 2.153269590439206e+00
 6.763471528359838e-01	 1.832085522584540e+00	 2.351514588835278e+00
 6.593000716168337e-01	 1.838288973881903e+00	 2.346051358611486e+00
 6.422317034511515e-01	 1.844321417180349e+00	 2.334374835123070e+00
 6.251444867636440e-01	 1.850183110595974e+00	 2.317711302526392e+00
 6.080408444889266e-01	 1.855874356082885e+00	 2.297300568594253e+00
 5.909231831503844e-01	 1.861395498831738e+00	 2.274374872381356e+00
 5.737938919618912e-01	 1.866746926647026e+00	 2.250376180078881e+00
 5.566553419528779e-01	 1.871929069303992e+00	 2.226792697180619e+00
 5.395098851172180e-01	 1.876942397886117e+00	 2.205138829604597e+00
 5.223598535863397e-01	 1.881787424104077e+00	 2.186945425627169e+00
 5.052075588269552e-01	 1.886464699597119e+00	 2.173750675210383e+00
 6.794027634371442e-01	 1.840362544116487e+00	 2.356853989454243e+00
 6.622786666767680e-01	 1.846594021452800e+00	 2.352105028427284e+00
 6.451331867994894e-01	 1.852653718207937e+00	 2.342257384787307e+00
 6.279687732463471e-01	 1.858541893664097e+00	 2.328079785125586e+00
 6.107878598983082e-01	 1.864258851139542e+00	 2.310509456525532e+00
 5.935928641509671e-01	 1.869804937384422e+00	 2.290651708388649e+00
 5.763861860122044e-01	 1.875180541955239e+00	 2.269665536454319e+00
 5.591702072233057e-01	 1.880386096568869e+00	 2.248752707210288e+00
 5.419472904039987e-01	 1.885422074437041e+00	 2.229147524933533e+00
 5.247197782218328e-01	 1.890288989582232e+00	 2.212107274897863e+00
 5.074899925862805e-01	 1.894987396135878e+00	 2.198903331975125e+00
 6.824583740385706e-01	 1.848639565648836e+00	 2.357035983030867e+00
 6.652572617369515e-01	 1.854899069024128e+00	 2.353208589919333e+00
 6.480346701480332e-01	 1.860986019235963e+00	 2.345619484845451e+00
 6.307930597291923e-01	 1.866900676732648e+00	 2.334776692178479e+00
 6.135348753077542e-01	 1.872643346196608e+00	 2.321312415547629e+00
 5.962625451515272e-01	 1.878214375937486e+00	 2.305931333730971e+00
 5.789784800624057e-01	 1.883614157263803e+00	 2.289399285742189e+00
 5.616850724935349e-01	 1.888843123834063e+00	 2.272532647979043e+00
 5.443846956905031e-01	 1.893901750988257e+00	 2.256188400561012e+00
 5.270797028569850e-01	 1.898790555060661e+00	 2.241254875273392e+00
 5.097724263452204e-01	 1.903510092674904e+00	 2.228643173144997e+00
 4.869480887526040e-01	 1.818283127288656e+00	 2.148914459946386e+00
 4.704157470569679e-01	 1.822630236397705e+00	 2.145766034781672e+00
 4.538856183878984e-01	 1.826816836167647e+00	 2.139535729511544e+00
 4.373598677937028e-01	 1.830843571914933e+00	 2.131185564276779e+00
 4.208406374924303e-01	 1.834711124582473e+00	 2.121693000668088e+00
 4.043300462218327e-01	 1.838420209993003e+00	 2.112045336205211e+00
 3.878301886145822e-01	 1.841971578090959e+00	 2.103234188522872e+00
 3.713431345988646e-01	 1.845366012173774e+00	 2.096250076760273e+00
 3.548709288244357e-01	 1.848604328113462e+00	 2.091917544367974e+00
 3.384155901141945e-01	 1.851687373569411e+00	 2.091004262290397e+00
 3.219791109412959e-01	 1.854616027193228e+00	 2.094374781072487e+00
 4.892305225107745e-01	 1.826805823827681e+00	 2.133901160806079e+00
 4.726206900607703e-01	 1.831173308801916e+00	 2.131561389671679e+00
 4.560130810102133e-01	 1.835379532094092e+00	 2.128506356551875e+00
 4.394098705554804e-01	 1.839425142045410e+00	 2.125086604252044e+00
 4.228132109556794e-01	 1.843310822790522e+00	 2.121678610372823e+00
 4.062252308795631e-01	 1.847037293507387e+00	 2.118679724894567e+00
 3.896480347778194e-01	 1.850605307655607e+00	 2.116503171385205e+00
 3.730837022808540e-01	 1.854015652204112e+00	 2.115570626787825e+00
 3.565342876221567e-01	 1.857269146849096e+00	 2.116176970279202e+00
 3.400018190873044e-01	 1.860366643223122e+00	 2.118472745135143e+00
 3.234882984886233e-01	 1.863309024096240e+00	 2.122715409982861e+00
 4.915129562695016e-01	 1.835328520366439e+00	 2.124220949322085e+00
 4.748256330652054e-01	 1.839716381205851e+00	 2.122141770508194e+00
 4.581405436332219e-01	 1.843942228020241e+00	 2.121342627946850e+00
 4.414598733179971e-01	 1.848006712175566e+00	 2.121675451795265e+00
 4.247857844196967e-01	 1.851910520998216e+00	 2.123027056780487e+00
 4.081204155380748e-01	 1.855654377021385e+00	 2.125306675625840e+00
 3.914658809418343e-01	 1.859239037219845e+00	 2.128449891084799e+00
 3.748242699636008e-01	 1.862665292234023e+00	 2.132414361177749e+00
 3.581976464205976e-01	 1.865933965584300e+00	 2.137075104883445e+00
 3.415880480610795e-01	 1.869045912876419e+00	 2.142091329005086e+00
 3.249974860365428e-01	 1.872002020998873e+00	 2.147210444250574e+00
 4.937953900286674e-01	 1.843851216904997e+00	 2.119834506266772e+00
 4.770305760701433e-01	 1.848259453609578e+00	 2.117559566325469e+00
 4.602680062567868e-01	 1.852504923946168e+00	 2.118182677694037e+00
 4.435098760811120e-01	 1.856588282305477e+00	 2.121152303583276e+00
 4.267583578843429e-01	 1.860510219205645e+00	 2.125974744513335e+00
 4.100156001972335e-01	 1.864271460535099e+00	 2.132198036071173e+00
 3.932837271065011e-01	 1.867872766783782e+00	 2.139393604560714e+00
 3.765648376469900e-01	 1.871314932263623e+00	 2.147152463848848e+00
 3.598610052196576e-01	 1.874598784319194e+00	 2.155018179636284e+00
 3.431742770354353e-01	 1.877725182529420e+00	 2.162277345546528e+00
 3.265066735849897e-01	 1.880695017901245e+00	 2.168264602553803e+00
 4.960778237881540e-01	 1.852373913443422e+00	 2.120701066805298e+00
 4.792355190754543e-01	 1.856802526013169e+00	 2.117836008394573e+00
 4.623954688807710e-01	 1.861067619871948e+00	 2.119076643439460e+00
 4.455598788446856e-01	 1.865169852435230e+00	 2.123625673780063e+00
 4.287309313494787e-01	 1.869109917412900e+00	 2.130722726150978e+00
 4.119107848569040e-01	 1.872888544048625e+00	 2.139640179502772e+00
 3.951015732716926e-01	 1.876506496347521e+00	 2.149679345924307e+00
 3.783054053309068e-01	 1.879964572293025e+00	 2.160166980291649e+00
 3.615243640192359e-01	 1.883263603053898e+00	 2.170410368421170e+00
 3.447605060102883e-01	 1.886404452182246e+00	 2.179439689028932e+00
 3.280158611338989e-01	 1.889388014803469e+00	 2.186274490483046e+00
 4.983602575478438e-01	 1.860896609981779e+00	 2.126660190785020e+00
 4.814404620810082e-01	 1.865345598416690e+00	 2.122872112185158e+00
 4.645229315050365e-01	 1.869630315797655e+00	 2.124059890792283e+00
 4.476098816085765e-01	 1.873751422564903e+00	 2.129248275436145e+00
 4.307035048149643e-01	 1.877709615620070e+00	 2.137502286142266e+00
 4.138059695169521e-01	 1.881505627562064e+00	 2.147923254462316e+00
 3.969194194372828e-01	 1.885140225911173e+00	 2.159645221520789e+00
 3.800459730152358e-01	 1.888614212322343e+00	 2.171831667540371e+00
 3.631877228192321e-01	 1.891928421788526e+00	 2.183647489937997e+00
 3.463467349855543e-01	 1.895083721835016e+00	 2.193978960261434e+00
 3.295250486832060e-01	 1.898081011705663e+00	 2.201628770854629e+00
 5.006426913076193e-01	 1.869419306520137e+00	 2.137544571842924e+00
 4.836454050866754e-01	 1.873888670820212e+00	 2.132655569368263e+00
 4.666503941294464e-01	 1.878193011723362e+00	 2.133215832029344e+00
 4.496598843726448e-01	 1.882332992694578e+00	 2.138178560809186e+00
 4.326760782806605e-01	 1.886309313827246e+00	 2.146539022236354e+00
 4.157011541772427e-01	 1.890122711075513e+00	 2.157330700436308e+00
 3.987372656031449e-01	 1.893773955474844e+00	 2.169621815618830e+00
 3.817865406998620e-01	 1.897263852351690e+00	 2.182512181418575e+00
 3.648510816195448e-01	 1.900593240523199e+00	 2.195117176176886e+00
 3.479329639611495e-01	 1.903762991487849e+00	 2.206287637164723e+00
 3.310342362328462e-01	 1.906774008607944e+00	 2.214708329318492e+00
 5.029251250673623e-01	 1.877942003058562e+00	 2.153269590439206e+00
 4.858503480923255e-01	 1.882431743223802e+00	 2.147186726313142e+00
 4.687778567538631e-01	 1.886755707649143e+00	 2.146624853398077e+00
 4.517098871367496e-01	 1.890914562824337e+00	 2.150570616753388e+00
 4.346486517464278e-01	 1.894909012034517e+00	 2.158052983293374e+00
 4.175963388376412e-01	 1.898739794589072e+00	 2.168139405170703e+00
 4.005551117691525e-01	 1.902407685038639e+00	 2.179932362898406e+00
 3.835271083846704e-01	 1.905913492381181e+00	 2.192566259298989e+00
 3.665144404200736e-01	 1.909258059258034e+00	 2.205199036204458e+00
 3.495191929369901e-01	 1.912442261140863e+00	 2.216750240626926e+00
 3.325434237827546e-01	 1.915467005510426e+00	 2.225886435409707e+00
 5.052075588269552e-01	 1.886464699597119e+00	 2.173750675210383e+00
 4.880552910978292e-01	 1.890974815627532e+00	 2.166464432136822e+00
 4.709053193781492e-01	 1.895318403575075e+00	 2.164364401861499e+00
 4.537598899007508e-01	 1.899496132954260e+00	 2.166574277083863e+00
 4.366212252121265e-01	 1.903508710241975e+00	 2.172258804191562e+00
 4.194915234980127e-01	 1.907356878102840e+00	 2.180619858474630e+00
 4.023729579351792e-01	 1.911041414602669e+00	 2.190892916942476e+00
 3.852676760695460e-01	 1.914563132410930e+00	 2.202343898519326e+00
 3.681777992207175e-01	 1.917922877993149e+00	 2.214264815410794e+00
 3.511054219129919e-01	 1.921121530794178e+00	 2.225743495792624e+00
 3.340526113328665e-01	 1.924160002413225e+00	 2.235528899187842e+00
 5.074899925862805e-01	 1.894987396135878e+00	 2.198903331975125e+00
 4.902602341030561e-01	 1.899517888031467e+00	 2.190486096839261e+00
 4.730327820021674e-01	 1.903881099501229e+00	 2.186509070501635e+00
 4.558098926645078e-01	 1.908077703084432e+00	 2.186335232820266e+00
 4.385937986776174e-01	 1.912108408449707e+00	 2.189365837922289e+00
 4.213867081582230e-01	 1.915973961616915e+00	 2.195036302623783e+00
 4.041908041010985e-01	 1.919675144167038e+00	 2.202812514858285e+00
 3.870082437543736e-01	 1.923212772441049e+00	 2.212187530590847e+00
 3.698411580213761e-01	 1.926587696728663e+00	 2.222678550360046e+00
 3.526916508890713e-01	 1.929800800447914e+00	 2.233636488928782e+00
 3.355617988831173e-01	 1.932852999316460e+00	 2.243994223603052e+00
 5.097724263452204e-01	 1.903510092674904e+00	 2.228643173144997e+00
 4.924651771078767e-01	 1.908060960435679e+00	 2.219247748963817e+00
 4.751602446257804e-01	 1.912443795427681e+00	 2.213130682623442e+00
 4.578598954278802e-01	 1.916659273214932e+00	 2.209995140376171e+00
 4.405663721427611e-01	 1.920708106657808e+00	 2.209578284961106e+00
 4.232818928181369e-01	 1.924591045131397e+00	 2.211646879470007e+00
 4.060086502667843e-01	 1.928308873731856e+00	 2.215993338149594e+00
 3.887488114390382e-01	 1.931862412471655e+00	 2.222432191331546e+00
 3.715045168219482e-01	 1.935252515464695e+00	 2.230796930290473e+00
 3.542778798651443e-01	 1.938480070102190e+00	 2.240790820006200e+00
 3.370709864334423e-01	 1.941545996220245e+00	 2.251633752722863e+00
 3.219791109412959e-01	 1.854616027193228e+00	 2.094374781072487e+00
 3.055606687055367e-01	 1.857391656406358e+00	 2.101339796098796e+00
 2.891650023070632e-01	 1.860014687762456e+00	 2.110471571836604e+00
 2.727940274725352e-01	 1.862486087193140e+00	 2.121383399681422e+00
 2.564496316329439e-01	 1.864806848419438e+00	 2.133631503221281e+00
 2.401336735270881e-01	 1.866977992128452e+00	 2.146725916193778e+00
 2.238479828302094e-01	 1.869000565147120e+00	 2.160140613462181e+00
 2.075943598076006e-01	 1.870875639613892e+00	 2.173322940604684e+00
 1.913745749929846e-01	 1.872604312149079e+00	 2.185702387685196e+00
 1.751903688914300e-01	 1.874187703024645e+00	 2.196698752421779e+00
 1.590434517065504e-01	 1.875626955334190e+00	 2.205729737314971e+00
 3.234882984886233e-01	 1.863309024096240e+00	 2.122715409982861e+00
 3.069928993702057e-01	 1.866097663299308e+00	 2.127894766538049e+00
 2.905203828444765e-01	 1.868732989385335e+00	 2.133122676199552e+00
 2.740726736175322e-01	 1.871215972813470e+00	 2.138717124604182e+00
 2.576516679671727e-01	 1.873547611962533e+00	 2.144933897347546e+00
 2.412592333445186e-01	 1.875728932303808e+00	 2.151976612201673e+00
 2.248972080009062e-01	 1.877760985570946e+00	 2.160006018477100e+00
 2.085674006398718e-01	 1.879644848927742e+00	 2.169148611570874e+00
 1.922715900940236e-01	 1.881381624134609e+00	 2.179504610599838e+00
 1.760115250265642e-01	 1.882972436714475e+00	 2.191155346542381e+00
 1.597889236572118e-01	 1.884418435118870e+00	 2.204170107526927e+00
 3.249974860365428e-01	 1.872002020998873e+00	 2.147210444250574e+00
 3.084251300353769e-01	 1.874803670191940e+00	 2.151121866820357e+00
 2.918757633822891e-01	 1.877451291007973e+00	 2.153349784729850e+00
 2.753513197628181e-01	 1.879945858433651e+00	 2.154784304549200e+00
 2.588537043015764e-01	 1.882288375505576e+00	 2.156249109853997e+00
 2.423847931620126e-01	 1.884479872479215e+00	 2.158510781617311e+00
 2.259464331715617e-01	 1.886521405994918e+00	 2.162287395262064e+00
 2.095404414720090e-01	 1.888414058241828e+00	 2.168256444831767e+00
 1.931686051948520e-01	 1.890158936120450e+00	 2.177062144487844e+00
 1.768326811614326e-01	 1.891757170404670e+00	 2.189322156949167e+00
 1.605343956075780e-01	 1.893209914903944e+00	 2.205633797581394e+00
 3.265066735849897e-01	 1.880695017901245e+00	 2.168264602553803e+00
 3.098573607010064e-01	 1.883509677084360e+00	 2.171397371495384e+00
 2.932311439204799e-01	 1.886169592630466e+00	 2.171488569104270e+00
 2.766299659083941e-01	 1.888675744053763e+00	 2.169869730897367e+00
 2.600557406361800e-01	 1.891029139048634e+00	 2.167802646049771e+00
 2.435103529796172e-01	 1.893230812654720e+00	 2.166488098505734e+00
 2.269956583422443e-01	 1.895281826419068e+00	 2.167073889690667e+00
 2.105134823040992e-01	 1.897183267556163e+00	 2.170662195670061e+00
 1.940656202955735e-01	 1.898936248106599e+00	 2.178316311251513e+00
 1.776538372961520e-01	 1.900541904095215e+00	 2.191066832825057e+00
 1.612798675577749e-01	 1.902001394689388e+00	 2.209917330712952e+00
 3.280158611338989e-01	 1.889388014803469e+00	 2.186274490483046e+00
 3.112895913670510e-01	 1.892215683976677e+00	 2.189090068116513e+00
 2.945865244590273e-01	 1.894887894252909e+00	 2.187868045176600e+00
 2.779086120542623e-01	 1.897405629673888e+00	 2.184252542746828e+00
 2.612577769710084e-01	 1.899769902591771e+00	 2.179815502395674e+00
 2.446359127973796e-01	 1.901981752830368e+00	 2.176064979197008e+00
 2.280448835130220e-01	 1.904042246843425e+00	 2.174452716751219e+00
 2.114865231362296e-01	 1.905952476870757e+00	 2.176381059413518e+00
 1.949626353962916e-01	 1.907713560093051e+00	 2.183209256494345e+00
 1.784749934308389e-01	 1.909326637786092e+00	 2.196259212395165e+00
 1.620253395079284e-01	 1.910792874475175e+00	 2.216820735510116e+00
 3.295250486832060e-01	 1.898081011705663e+00	 2.201628770854629e+00
 3.127218220334665e-01	 1.900921690869000e+00	 2.204561415795742e+00
 2.959419049979104e-01	 1.903606195875402e+00	 2.202810714670362e+00
 2.791872582004246e-01	 1.906135515294109e+00	 2.198206347423773e+00
 2.624598133060862e-01	 1.908510666135051e+00	 2.192504262292168e+00
 2.457614726153469e-01	 1.910732693006207e+00	 2.187394650584323e+00
 2.290941086839632e-01	 1.912802667268016e+00	 2.184509199355873e+00
 2.124595639684876e-01	 1.914721686185623e+00	 2.185427679517884e+00
 1.958596504971099e-01	 1.916490872079803e+00	 2.191683926395709e+00
 1.792961495656101e-01	 1.918111371477284e+00	 2.204771268859449e+00
 1.627708114581645e-01	 1.919584354261280e+00	 2.226147461912861e+00
 3.310342362328462e-01	 1.906774008607944e+00	 2.214708329318492e+00
 3.141540527002098e-01	 1.909627697761435e+00	 2.218165699395321e+00
 2.972972855371077e-01	 1.912324497498037e+00	 2.216632702986831e+00
 2.804659043468828e-01	 1.914865400914506e+00	 2.211999337701842e+00
 2.636618496414384e-01	 1.917251429678539e+00	 2.206081189263168e+00
 2.468870324335666e-01	 1.919483633182285e+00	 2.200627216577978e+00
 2.301433338551358e-01	 1.921563087692869e+00	 2.197326806117893e+00
 2.134326048009602e-01	 1.923490895500773e+00	 2.197816155461809e+00
 1.967566655981319e-01	 1.925268184066851e+00	 2.203684045252667e+00
 1.801173057005824e-01	 1.926896105168775e+00	 2.216477057838655e+00
 1.635162834086092e-01	 1.928375834047675e+00	 2.237704299540718e+00
 3.325434237827546e-01	 1.915467005510426e+00	 2.225886435409707e+00
 3.155862833672366e-01	 1.918333704654092e+00	 2.230250179494754e+00
 2.986526660765982e-01	 1.921042799120914e+00	 2.229643893251715e+00
 2.817445504936386e-01	 1.923595286535161e+00	 2.225894405834739e+00
 2.648638859770899e-01	 1.925992193222300e+00	 2.220754317618370e+00
 2.480125922520855e-01	 1.928234573358647e+00	 2.215909722773845e+00
 2.311925590266081e-01	 1.930323508118015e+00	 2.212987188129826e+00
 2.144056456337346e-01	 1.932260104816217e+00	 2.213560050459758e+00
 1.976536806994613e-01	 1.934045496054190e+00	 2.219154093667714e+00
 1.809384618358723e-01	 1.935680838860549e+00	 2.231252666285481e+00
 1.642617553593884e-01	 1.937167313834336e+00	 2.251301298277316e+00
 3.340526113328665e-01	 1.924160002413225e+00	 2.235528899187842e+00
 3.170185140345038e-01	 1.927039711547080e+00	 2.241155238266799e+00
 3.000080466163605e-01	 1.929761100744128e+00	 2.242148056719485e+00
 2.830231966406938e-01	 1.932325172156155e+00	 2.240149254502833e+00
 2.660659223130654e-01	 1.934732956766400e+00	 2.236727540673860e+00
 2.491381520709509e-01	 1.936985513535340e+00	 2.233386219392742e+00
 2.322417841984482e-01	 1.939083928543483e+00	 2.231570214774247e+00
 2.153786864668980e-01	 1.941029314131968e+00	 2.232672398998687e+00
 1.985506958012014e-01	 1.942822808041816e+00	 2.238039287362064e+00
 1.817596179715965e-01	 1.944465572552587e+00	 2.248976162814623e+00
 1.650072273106280e-01	 1.945958793621237e+00	 2.266751691040106e+00
 3.355617988831173e-01	 1.932852999316460e+00	 2.243994223603052e+00
 3.184507447019675e-01	 1.935745718440506e+00	 2.251214521391187e+00
 3.013634271563735e-01	 1.938479402367776e+00	 2.254442979650009e+00
 2.843018427880504e-01	 1.941055057777572e+00	 2.255016504770865e+00
 2.672679586493897e-01	 1.943473720310901e+00	 2.254200696607874e+00
 2.502637118902101e-01	 1.945736453712412e+00	 2.253197822545213e+00
 2.332910093707245e-01	 1.947844348969300e+00	 2.253154008597416e+00
 2.163517273005377e-01	 1.949798523448037e+00	 2.255165714203991e+00
 1.994477109034560e-01	 1.951600120029727e+00	 2.260285556594723e+00
 1.825807741078719e-01	 1.953250306244875e+00	 2.269527549407063e+00
 1.657526992624541e-01	 1.954750273408352e+00	 2.283871818666377e+00
 3.370709864334423e-01	 1.941545996220245e+00	 2.251633752722863e+00
 3.198829753695842e-01	 1.944451725334479e+00	 2.260755076130321e+00
 3.027188076966160e-01	 1.947197703991955e+00	 2.266820586768037e+00
 2.855804889357101e-01	 1.949784943399491e+00	 2.270743801150495e+00
 2.684699949860878e-01	 1.952214483855871e+00	 2.273369652025793e+00
 2.513892717099102e-01	 1.954487393889909e+00	 2.275482773874124e+00
 2.343402345435050e-01	 1.956604769395496e+00	 2.277814979275329e+00
 2.173247681347407e-01	 1.958567732764435e+00	 2.281051995040137e+00
 2.003447260063288e-01	 1.960377432017918e+00	 2.285839526168413e+00
 1.834019302448152e-01	 1.962035039937395e+00	 2.292788714445474e+00
 1.664981712149926e-01	 1.963541753195654e+00	 2.302481056849322e+00
 1.590434517065504e-01	 1.875626955334190e+00	 2.205729737314971e+00
 1.429382314216784e-01	 1.876923025847079e+00	 2.211687136769754e+00
 1.268735769469384e-01	 1.878077356778291e+00	 2.214391283701259e+00
 1.108510687324477e-01	 1.879091153726199e+00	 2.214642794814593e+00
 9.487225709370022e-02	 1.879965641777177e+00	 2.213234335989161e+00
 7.893866205069694e-02	 1.880702064699139e+00	 2.210954800042265e+00
 6.305177318862708e-02	 1.881301684138893e+00	 2.208593233413068e+00
 4.721304953974399e-02	 1.881765778823908e+00	 2.206942545263378e+00
 3.142391948606261e-02	 1.882095643769081e+00	 2.206803030200786e+00
 1.568578068249159e-02	 1.882292589489063e+00	 2.208985733470128e+00
 0.000000000000000e+00	 1.882357941216666e+00	 2.214315685044311e+00
 1.597889236572118e-01	 1.884418435118870e+00	 2.204170107526927e+00
 1.436082146305011e-01	 1.885720580601749e+00	 2.217563057379615e+00
 1.274682615549137e-01	 1.886880322138074e+00	 2.229606576691227e+00
 1.113706522885187e-01	 1.887898870977132e+00	 2.239250294976376e+00
 9.531694441351392e-02	 1.888777457947550e+00	 2.245455651918935e+00
 7.930866507460187e-02	 1.889517332647062e+00	 2.247201722083765e+00
 6.334731083901836e-02	 1.890119762636099e+00	 2.243490721949913e+00
 4.743434757785443e-02	 1.890586032635811e+00	 2.233353233402191e+00
 3.157121036829778e-02	 1.890917443731123e+00	 2.215853175560654e+00
 1.575930341640463e-02	 1.891115312579360e+00	 2.190092554497497e+00
 0.000000000000000e+00	 1.891180970624999e+00	 2.155216017997899e+00
 1.605343956075780e-01	 1.893209914903944e+00	 2.205633797581394e+00
 1.442781978390275e-01	 1.894518135356813e+00	 2.225068357510255e+00
 1.280629461626155e-01	 1.895683287498231e+00	 2.244606774377276e+00
 1.118902358443562e-01	 1.896706588228395e+00	 2.261706408763373e+00
 9.576163173314500e-02	 1.897589274118199e+00	 2.273852987837342e+00
 7.967866809837955e-02	 1.898332600595201e+00	 2.278567718500831e+00
 6.364284848933595e-02	 1.898937841133457e+00	 2.273414029684944e+00
 4.765564561593674e-02	 1.899406286447809e+00	 2.256003978735578e+00
 3.171850125053627e-02	 1.899739243693211e+00	 2.224004354571131e+00
 1.583282615033235e-02	 1.899938035669670e+00	 2.175142507965780e+00
 0.000000000000000e+00	 1.900004000033333e+00	 2.107211936912409e+00
 1.612798675577749e-01	 1.902001394689388e+00	 2.209917330712952e+00
 1.449481810473886e-01	 1.903315690112244e+00	 2.233945114550204e+00
 1.286576307701753e-01	 1.904486252858727e+00	 2.259105779751081e+00
 1.124098194000882e-01	 1.905514305479959e+00	 2.281718159483243e+00
 9.620631905271379e-02	 1.906401090289098e+00	 2.298142845387948e+00
 8.004867112213891e-02	 1.907147868543532e+00	 2.304790233117230e+00
 6.393838613967366e-02	 1.907755919630951e+00	 2.298128157192023e+00
 4.787694365406614e-02	 1.908226540259889e+00	 2.274689151078506e+00
 3.186579213283140e-02	 1.908561043655338e+00	 2.231077366099886e+00
 1.590634888430292e-02	 1.908760758759990e+00	 2.163975180441403e+00
 0.000000000000000e+00	 1.908827029441666e+00	 2.070149527071818e+00
 1.620253395079284e-01	 1.910792874475175e+00	 2.216820735510116e+00
 1.456181642557152e-01	 1.912113244868008e+00	 2.243939920571322e+00
 1.292523153777245e-01	 1.913289218219532e+00	 2.272822538463493e+00
 1.129294029558426e-01	 1.914322022731792e+00	 2.298997753443199e+00
 9.665100637234066e-02	 1.915212906460218e+00	 2.318046754873957e+00
 8.041867414598883e-02	 1.915963136492034e+00	 2.325611381535151e+00
 6.423392379012537e-02	 1.916573998128565e+00	 2.317402308672728e+00
 4.809824169231792e-02	 1.917046794072044e+00	 2.289206834808556e+00
 3.201308301523648e-02	 1.917382843617501e+00	 2.236896302989304e+00
 1.597987161834455e-02	 1.917583481850320e+00	 2.156433188737372e+00
 0.000000000000000e+00	 1.917650058849999e+00	 2.043877884468984e+00
 1.627708114581645e-01	 1.919584354261280e+00	 2.226147461912861e+00
 1.462881474641380e-01	 1.920910799624077e+00	 2.254803775342475e+00
 1.298469999853945e-01	 1.922092183580612e+00	 2.285480919835756e+00
 1.134489865117470e-01	 1.923129739983864e+00	 2.313262457830870e+00
 9.709569369214588e-02	 1.924024722631535e+00	 2.333291156788517e+00
 8.078867717003825e-02	 1.924778404440686e+00	 2.340777841020732e+00
 6.452946144078488e-02	 1.925392076626283e+00	 2.331009792847854e+00
 4.831953973076732e-02	 1.925867047884262e+00	 2.299358741379742e+00
 3.216037389780486e-02	 1.926204643579694e+00	 2.241288474795383e+00
 1.605339435248539e-02	 1.926406204940658e+00	 2.152362109489078e+00
 0.000000000000000e+00	 1.926473088258333e+00	 2.028249046862104e+00
 1.635162834086092e-01	 1.928375834047675e+00	 2.237704299540718e+00
 1.469581306727880e-01	 1.929708354380417e+00	 2.266291982299728e+00
 1.304416845933169e-01	 1.930895148941936e+00	 2.296809601152010e+00
 1.139685700679296e-01	 1.931937457236145e+00	 2.324234481957931e+00
 9.754038101224971e-02	 1.932836538803019e+00	 2.343607286603581e+00
 8.115868019439608e-02	 1.933593672389465e+00	 2.350040743415105e+00
 6.482499909174606e-02	 1.934210155124091e+00	 2.338727926569261e+00
 4.854083776948961e-02	 1.934687301696534e+00	 2.304950124234938e+00
 3.230766478058984e-02	 1.935026443541913e+00	 2.244084332642753e+00
 1.612691708675365e-02	 1.935228928031003e+00	 2.151610410657220e+00
 0.000000000000000e+00	 1.935296117666666e+00	 2.023117926717045e+00
 1.642617553593884e-01	 1.937167313834336e+00	 2.251301298277316e+00
 1.476281138817961e-01	 1.938505909136998e+00	 2.278164047379110e+00
 1.310363692016229e-01	 1.939698114303471e+00	 2.306541955128779e+00
 1.144881536245180e-01	 1.940745174488602e+00	 2.331640861759683e+00
 9.798506833277253e-02	 1.941648354974646e+00	 2.348731062713801e+00
 8.152868321917121e-02	 1.942408940338352e+00	 2.353155570974895e+00
 6.512053674310277e-02	 1.943028233621972e+00	 2.340337941065561e+00
 4.876213580856004e-02	 1.943507555508849e+00	 2.305789696040865e+00
 3.245495566364472e-02	 1.943848243504153e+00	 2.245117396128415e+00
 1.620043982117750e-02	 1.944051651121353e+00	 2.154029384896582e+00
 0.000000000000000e+00	 1.944119147074999e+00	 2.028342245975685e+00
 1.650072273106280e-01	 1.945958793621237e+00	 2.266751691040106e+00
 1.482980970912930e-01	 1.947303463893789e+00	 2.290183580621448e+00
 1.316310538104442e-01	 1.948501079665185e+00	 2.314415940461052e+00
 1.150077371816403e-01	 1.949552891741206e+00	 2.335213347447599e+00
 9.842975565383462e-02	 1.950460171146388e+00	 2.348402977435624e+00
 8.189868624447254e-02	 1.951224208287323e+00	 2.349882055049510e+00
 6.541607439494881e-02	 1.951846312119910e+00	 2.335624890738431e+00
 4.898343384805388e-02	 1.952327809321200e+00	 2.301689548172081e+00
 3.260224654702285e-02	 1.952670043466408e+00	 2.244224182209618e+00
 1.627396255578512e-02	 1.952874374211707e+00	 2.159473084731663e+00
 0.000000000000000e+00	 1.952942176483333e+00	 2.043782472592466e+00
 1.657526992624541e-01	 1.954750273408352e+00	 2.283871818666377e+00
 1.489680803014097e-01	 1.956101018650761e+00	 2.302118200461979e+00
 1.322257384199121e-01	 1.957304045027046e+00	 2.320173995348044e+00
 1.155273207394242e-01	 1.958360608993926e+00	 2.334688294215601e+00
 9.887444297555625e-02	 1.959271987318218e+00	 2.342367990965463e+00
 8.226868927040905e-02	 1.960039476236356e+00	 2.339984077505902e+00
 6.571161204737802e-02	 1.960664390617890e+00	 2.324377564429170e+00
 4.920473188804639e-02	 1.961148063133574e+00	 2.292465072373207e+00
 3.274953743077755e-02	 1.961491843428675e+00	 2.241244136013222e+00
 1.634748529060471e-02	 1.961697097302066e+00	 2.167798259482300e+00
 0.000000000000000e+00	 1.961765205891666e+00	 2.069301758783512e+00
 1.664981712149926e-01	 1.963541753195654e+00	 2.302481056849322e+00
 1.496380635122771e-01	 1.964898573407881e+00	 2.313739440620595e+00
 1.328204230301581e-01	 1.966107010389023e+00	 2.323562933905236e+00
 1.160469042979976e-01	 1.967168326246733e+00	 2.329806555904292e+00
 9.931913029805782e-02	 1.968083803490110e+00	 2.330375428204190e+00
 8.263869229708956e-02	 1.968854744185433e+00	 2.323229574814725e+00
 6.600714970048427e-02	 1.969482469115895e+00	 2.306388399078151e+00
 4.942602992861282e-02	 1.969968316945963e+00	 2.277934884531116e+00
 3.289682831496212e-02	 1.970313643390948e+00	 2.236019563506466e+00
 1.642100802566443e-02	 1.970519820392425e+00	 2.178864293884424e+00
 0.000000000000000e+00	 1.970588235300000e+00	 2.104765880934639e+00
 1.970588235300000e+00	 0.000000000000000e+00	 7.078932674009993e+00
 1.970519820392425e+00	 1.642100802566334e-02	 5.827698902415198e+00
 1.970313643390948e+00	 3.289682831496119e-02	 4.828358968435969e+00
 1.969968316945962e+00	 4.942602992861205e-02	 4.047374154728921e+00
 1.969482469115896e+00	 6.600714970048366e-02	 3.449314763439816e+00
 1.968854744185433e+00	 8.263869229708914e-02	 2.996853019633803e+00
 1.968083803490109e+00	 9.931913029805751e-02	 2.650758505598292e+00
 1.967168326246733e+00	 1.160469042979975e-01	 2.369896213475018e+00
 1.966107010389023e+00	 1.328204230301581e-01	 2.111227284802763e+00
 1.964898573407881e+00	 1.496380635122773e-01	 1.829812493792930e+00
 1.963541753195655e+00	 1.664981712149926e-01	 1.478818518361598e+00
 1.979411264708333e+00	 0.000000000000000e+00	 6.887390617273883e+00
 1.979342543482784e+00	 1.649453076097796e-02	 5.731730972989854e+00
 1.979135443353222e+00	 3.304411919960481e-02	 4.814145711156663e+00
 1.978788570758354e+00	 4.964732796979519e-02	 4.101224375642696e+00
 1.978300547613911e+00	 6.630268735432222e-02	 3.557599633718787e+00
 1.977670012134527e+00	 8.300869532457990e-02	 3.145938505237123e+00
 1.976895619662033e+00	 9.976381762141422e-02	 2.826936222188315e+00
 1.975976043499590e+00	 1.165664878574424e-01	 2.559312812714301e+00
 1.974909975751075e+00	 1.334151076412680e-01	 2.299812484553379e+00
 1.973696128165110e+00	 1.503080467239820e-01	 2.003205870833887e+00
 1.972333232983107e+00	 1.672436431683274e-01	 1.622295187993902e+00
 1.988234294116667e+00	 0.000000000000000e+00	 6.661909284232848e+00
 1.988165266573141e+00	 1.656805349650859e-02	 5.618841595714612e+00
 1.987957243315492e+00	 3.319141008463999e-02	 4.796314874353688e+00
 1.987608824570739e+00	 4.986862601150802e-02	 4.161107616120616e+00
 1.987118626111917e+00	 6.659822500879423e-02	 3.678027372044863e+00
 1.986485280083611e+00	 8.337869835277670e-02	 3.309901442710914e+00
 1.985707435833949e+00	 1.002085049455213e-01	 3.017570268240277e+00
 1.984783760752450e+00	 1.170860714176574e-01	 2.759883611874623e+00
 1.983712941113145e+00	 1.340097922531461e-01	 2.493699615923601e+00
 1.982493682922379e+00	 1.509780299364346e-01	 2.173886796463516e+00
 1.981124712770631e+00	 1.679891151223749e-01	 1.753329029677778e+00
 1.997057323525000e+00	 0.000000000000000e+00	 6.403046381771585e+00
 1.996987989663497e+00	 1.664157623220292e-02	 5.486154228885654e+00
 1.996779043277752e+00	 3.333870096997509e-02	 4.769365926129256e+00
 1.996429078383105e+00	 5.008992405363105e-02	 4.219710638479579e+00
 1.995936704609892e+00	 6.689376266376228e-02	 3.802283867372982e+00
 1.995300548032656e+00	 8.374870138153247e-02	 3.480238740149917e+00
 1.994519252005821e+00	 1.006531922702292e-01	 3.214780025977183e+00
 1.993591478005259e+00	 1.176056549784952e-01	 2.965160977837313e+00
 1.992515906475166e+00	 1.346044768656508e-01	 2.688683080550094e+00
 1.991291237679609e+00	 1.516480131495014e-01	 2.340698772077178e+00
 1.989916192558135e+00	 1.687345870770098e-01	 1.874617191496021e+00
 2.005880352933334e+00	 0.000000000000000e+00	 6.111363791075533e+00
 2.005810712753848e+00	 1.671509896800864e-02	 5.330853769273046e+00
 2.005600843239997e+00	 3.348599185551849e-02	 4.727903021603793e+00
 2.005249332195440e+00	 5.031122209604479e-02	 4.269854110132054e+00
 2.004754783107819e+00	 6.718930031908894e-02	 3.922204094283923e+00
 2.004115815981632e+00	 8.411870441070034e-02	 3.648597535092872e+00
 2.003331068177603e+00	 1.010978795953879e-01	 3.410822223076294e+00
 2.002399195257965e+00	 1.181252385398082e-01	 3.168807728264558e+00
 2.001318871837074e+00	 1.351991614786409e-01	 2.880626850983944e+00
 2.000088792436723e+00	 1.523179963630490e-01	 2.502500038925583e+00
 1.998707672345530e+00	 1.694800590321063e-01	 1.988802821782987e+00
 2.014703382341667e+00	 0.000000000000000e+00	 5.787427476228850e+00
 2.014633435844194e+00	 1.678862170387343e-02	 5.150185173625528e+00
 2.014422643202223e+00	 3.363328274117855e-02	 4.666632649183178e+00
 2.014069586007733e+00	 5.053252013862973e-02	 4.304489586831687e+00
 2.013572861605677e+00	 6.748483797463685e-02	 4.029768745604256e+00
 2.012931083930510e+00	 8.448870744013323e-02	 3.806771788908979e+00
 2.012142884349258e+00	 1.015425669208479e-01	 3.598087801023080e+00
 2.011206912510516e+00	 1.186448221014493e-01	 3.364594585739781e+00
 2.010121837198803e+00	 1.357938460919748e-01	 3.065462821860521e+00
 2.008886347193643e+00	 1.529879795769438e-01	 2.658163136783071e+00
 2.007499152132723e+00	 1.702255309875390e-01	 2.098476144786395e+00
 2.023526411750000e+00	 0.000000000000000e+00	 5.431807395204095e+00
 2.023456158934532e+00	 1.686214443974498e-02	 4.941452116259320e+00
 2.023244443164422e+00	 3.378057362686362e-02	 4.580361338486929e+00
 2.022889839819972e+00	 5.075381818126642e-02	 4.316696575031807e+00
 2.022390940103445e+00	 6.778037563026854e-02	 4.117100953460738e+00
 2.021746351879260e+00	 8.485871046968424e-02	 3.946698970810160e+00
 2.020954700520745e+00	 1.019872542464594e-01	 3.769098866157493e+00
 2.020014629762858e+00	 1.191644056632711e-01	 3.546397699551616e+00
 2.018924802560290e+00	 1.363885307055112e-01	 3.239189205563429e+00
 2.017683901950290e+00	 1.536579627910522e-01	 2.806574475880476e+00
 2.016290631919625e+00	 1.709710029431824e-01	 2.206175510308322e+00
 2.032349441158334e+00	 0.000000000000000e+00	 5.045077413170037e+00
 2.032278882024863e+00	 1.693566717557098e-02	 4.702015681634945e+00
 2.032066243126591e+00	 3.392786451248211e-02	 4.463993428064474e+00
 2.031710093632146e+00	 5.097511622383536e-02	 4.299679670952672e+00
 2.031209018601105e+00	 6.807591328584661e-02	 4.176463096081640e+00
 2.030561619827852e+00	 8.522871349920640e-02	 4.060456828765963e+00
 2.029766516692022e+00	 1.024319415720726e-01	 3.916505720899679e+00
 2.028822347014941e+00	 1.196839892251263e-01	 3.708196233065726e+00
 2.027727767921467e+00	 1.369832153191087e-01	 3.397868971030547e+00
 2.026481456706587e+00	 1.543279460052406e-01	 2.946633921699152e+00
 2.025082111706145e+00	 1.717164748989107e-01	 2.314388418116163e+00
 2.041172470566667e+00	 0.000000000000000e+00	 4.627815218047870e+00
 2.041101605115184e+00	 1.700918991129913e-02	 4.429293090862761e+00
 2.040888043088722e+00	 3.407515539794231e-02	 4.312528891088961e+00
 2.040530347444243e+00	 5.119641426621703e-02	 4.246765774036195e+00
 2.040027097098637e+00	 6.837145094123367e-02	 4.200253687750763e+00
 2.039376887776257e+00	 8.559871652855275e-02	 4.140260244690952e+00
 2.038578332863048e+00	 1.028766288975378e-01	 4.033083972729036e+00
 2.037630064266710e+00	 1.202035727868675e-01	 3.844070014699907e+00
 2.036530733282270e+00	 1.375778999326259e-01	 3.537628324396953e+00
 2.035279011462456e+00	 1.549979292193754e-01	 3.077254392237242e+00
 2.033873591492191e+00	 1.724619468545988e-01	 2.425552517887089e+00
 2.049995499975000e+00	 0.000000000000000e+00	 4.180602238248424e+00
 2.049924328205493e+00	 1.708271264687711e-02	 4.120756461115406e+00
 2.049709843050813e+00	 3.422244628315263e-02	 4.121061217283525e+00
 2.049350601256250e+00	 5.141771230829197e-02	 4.151401372547637e+00
 2.048845175596020e+00	 6.866698859629229e-02	 4.181004349408402e+00
 2.048192155724445e+00	 8.596871955757628e-02	 4.178458171366226e+00
 2.047390149033785e+00	 1.033213162227052e-01	 4.111731718574259e+00
 2.046437781518113e+00	 1.207231563483473e-01	 3.948197250586530e+00
 2.045333698642635e+00	 1.381725845459214e-01	 3.654655230213799e+00
 2.044076566217819e+00	 1.556679124333231e-01	 3.197361467372432e+00
 2.042665071277676e+00	 1.732074188101208e-01	 2.542056585422825e+00
 2.058818529383334e+00	 0.000000000000000e+00	 3.704023562523903e+00
 2.058747051295792e+00	 1.715623538225260e-02	 3.773931596960204e+00
 2.058531643012857e+00	 3.436973716802146e-02	 3.884775349391795e+00
 2.058170855068159e+00	 5.163901034994070e-02	 4.007149899159217e+00
 2.057663254093237e+00	 6.896252625088510e-02	 4.111376857480647e+00
 2.057007423672389e+00	 8.633872258613008e-02	 4.167530648642909e+00
 2.056201965204191e+00	 1.037660035474252e-01	 4.145466802352027e+00
 2.055245498769098e+00	 1.212427399094184e-01	 4.014852297071463e+00
 2.054136664002496e+00	 1.387672691588538e-01	 3.745197972026579e+00
 2.052874120972598e+00	 1.563378956469501e-01	 3.305893009958001e+00
 2.051456551062507e+00	 1.739528907653515e-01	 2.666241475846815e+00
 1.963541753195655e+00	 1.664981712149926e-01	 1.478818518361599e+00
 1.962035039937395e+00	 1.834019302448144e-01	 1.113833837158703e+00
 1.960377432017917e+00	 2.003447260063280e-01	 8.265672208418332e-01
 1.958567732764435e+00	 2.173247681347400e-01	 6.231394048902513e-01
 1.956604769395495e+00	 2.343402345435043e-01	 5.101978712442250e-01
 1.954487393889909e+00	 2.513892717099096e-01	 4.949180604388616e-01
 1.952214483855871e+00	 2.684699949860874e-01	 5.850037882073321e-01
 1.949784943399491e+00	 2.855804889357098e-01	 7.886867351124907e-01
 1.947197703991955e+00	 3.027188076966157e-01	 1.114724863147330e+00
 1.944451725334479e+00	 3.198829753695840e-01	 1.572399598430430e+00
 1.941545996220244e+00	 3.370709864334422e-01	 2.171511604218170e+00
 1.972333232983107e+00	 1.672436431683274e-01	 1.622295187993902e+00
 1.970819773630115e+00	 1.842230863825027e-01	 1.226168348588828e+00
 1.969154744006365e+00	 2.012417411098860e-01	 9.190183855722893e-01
 1.967336942081150e+00	 2.182978089695609e-01	 7.050869842322661e-01
 1.965365189822070e+00	 2.353894597168285e-01	 5.892582882413089e-01
 1.963238334067847e+00	 2.525148315300733e-01	 5.770654535327736e-01
 1.960955247401336e+00	 2.696720313231641e-01	 6.746964360521320e-01
 1.958514829021956e+00	 2.868591350836591e-01	 8.889988724044847e-01
 1.955916005616716e+00	 3.040741882370558e-01	 1.227483897039271e+00
 1.953157732229060e+00	 3.213152060373045e-01	 1.698328724026164e+00
 1.950238993124648e+00	 3.385801739837758e-01	 2.310377805794116e+00
 1.981124712770631e+00	 1.679891151223749e-01	 1.753329029677778e+00
 1.979604507322948e+00	 1.850442425208570e-01	 1.316195616671538e+00
 1.977932055994974e+00	 2.021387562140528e-01	 9.806764594835971e-01
 1.976106151398081e+00	 2.192708498049244e-01	 7.494763367540553e-01
 1.974125610248917e+00	 2.364386848906215e-01	 6.260052930785742e-01
 1.971989274246110e+00	 2.536403913506257e-01	 6.143890195055890e-01
 1.969696010947182e+00	 2.708740676605446e-01	 7.194785321453678e-01
 1.967244714644846e+00	 2.881377812318237e-01	 9.468590014822871e-01
 1.964634307241942e+00	 3.054295687776203e-01	 1.302857568849859e+00
 1.961863739124130e+00	 3.227474367050577e-01	 1.794549970173821e+00
 1.958931990029550e+00	 3.400893615340513e-01	 2.429765770626102e+00
 1.989916192558135e+00	 1.687345870770098e-01	 1.874617191496021e+00
 1.988389241015790e+00	 1.858653986597584e-01	 1.390455700957816e+00
 1.986709367983631e+00	 2.030357713187153e-01	 1.021094594856187e+00
 1.984875360715103e+00	 2.202438906407224e-01	 7.680377499316443e-01
 1.982886030675901e+00	 2.374879100647797e-01	 6.335046428795337e-01
 1.980740214424560e+00	 2.547659511714677e-01	 6.204430545442616e-01
 1.978436774493257e+00	 2.720761039981343e-01	 7.325411711886649e-01
 1.975974600268007e+00	 2.894164273801139e-01	 9.742389320890514e-01
 1.973352608867469e+00	 3.067849493182255e-01	 1.350738455834601e+00
 1.970569746019525e+00	 3.241796673727672e-01	 1.868013360591106e+00
 1.967624986934786e+00	 3.415985490842008e-01	 2.532816776345372e+00
 1.998707672345530e+00	 1.694800590321063e-01	 1.988802821782987e+00
 1.997173974708539e+00	 1.866865547990883e-01	 1.455366354955783e+00
 1.995486679972220e+00	 2.039327864237606e-01	 1.049650173216331e+00
 1.993644570032090e+00	 2.212169314768472e-01	 7.722872214944942e-01
 1.991646451102887e+00	 2.385371352391998e-01	 6.245843275625049e-01
 1.989491154603049e+00	 2.558915109925001e-01	 6.085357389896927e-01
 1.987177538039408e+00	 2.732781403358382e-01	 7.268361907609759e-01
 1.984704485891279e+00	 2.906950735284401e-01	 9.828933525408949e-01
 1.982070910493136e+00	 3.081403298587879e-01	 1.380839486962276e+00
 1.979275752915078e+00	 3.256118980403568e-01	 1.925542132441074e+00
 1.976317983840187e+00	 3.431077366341572e-01	 2.622613605988546e+00
 2.007499152132723e+00	 1.702255309875390e-01	 2.098476144786395e+00
 2.005958708401092e+00	 1.875077109387282e-01	 1.517225614194179e+00
 2.004263991960627e+00	 2.048298015290760e-01	 1.075548585652718e+00
 2.002413779348917e+00	 2.221899723131905e-01	 7.735311094907733e-01
 2.000406871529739e+00	 2.395863604137781e-01	 6.118397649657005e-01
 1.998242094781434e+00	 2.570170708136236e-01	 5.917345508232776e-01
 1.995918301585487e+00	 2.744801766735620e-01	 7.150814746388739e-01
 1.993434371514504e+00	 2.919737196767124e-01	 9.843646927073813e-01
 1.990789212118780e+00	 3.094957103992237e-01	 1.402698033926080e+00
 1.987981759810624e+00	 3.270441287077500e-01	 1.973835722480582e+00
 1.985010980745589e+00	 3.446169241838526e-01	 2.702182095324204e+00
 2.016290631919625e+00	 1.709710029431824e-01	 2.206175510308322e+00
 2.014743442093345e+00	 1.883288670785593e-01	 1.582214319141273e+00
 2.013041303948737e+00	 2.057268166345483e-01	 1.107826917280197e+00
 2.011182988665458e+00	 2.231630131496444e-01	 7.828706642687426e-01
 2.009167291956323e+00	 2.406355855884111e-01	 6.076388641908150e-01
 2.006993034959571e+00	 2.581426306347390e-01	 5.828715422595842e-01
 2.004659065131339e+00	 2.756822130112106e-01	 7.097661227423832e-01
 2.002164257137524e+00	 2.932523658248414e-01	 9.899878658119006e-01
 1.999507513744238e+00	 3.108510909394492e-01	 1.425679901880040e+00
 1.996687766705998e+00	 3.284763593748701e-01	 2.019472682583002e+00
 1.993703977650824e+00	 3.461261117332197e-01	 2.774492647972461e+00
 2.025082111706145e+00	 1.717164748989107e-01	 2.314388418116163e+00
 2.023528175785197e+00	 1.891500232184631e-01	 1.656398574958595e+00
 2.021818615936437e+00	 2.066238317400649e-01	 1.155357538763550e+00
 2.019952197981589e+00	 2.241360539861011e-01	 8.112064459627316e-01
 2.017927712382503e+00	 2.416848107629952e-01	 6.241269611697700e-01
 2.015743975137318e+00	 2.592681904557470e-01	 5.945484836051276e-01
 2.013399828676815e+00	 2.768842493486894e-01	 7.231554917600520e-01
 2.010894142760184e+00	 2.945310119727374e-01	 1.010894892734621e+00
 2.008225815369348e+00	 3.122064714793808e-01	 1.458983222948230e+00
 2.005393773601034e+00	 3.299085900416410e-01	 2.068913526781495e+00
 2.002396974555725e+00	 3.476352992821909e-01	 2.842461719296723e+00
 2.033873591492191e+00	 1.724619468545988e-01	 2.425552517887089e+00
 2.032312909476544e+00	 1.899711793583208e-01	 1.745732150000763e+00
 2.030595927923613e+00	 2.075208468455127e-01	 1.226851607713445e+00
 2.028721407297184e+00	 2.251090948224524e-01	 8.692426309480166e-01
 2.026688132808145e+00	 2.427340359374269e-01	 6.732316303209995e-01
 2.024494915314527e+00	 2.603937502765484e-01	 6.391418783995119e-01
 2.022140592221762e+00	 2.780862856859037e-01	 7.672961103657139e-01
 2.019624028382323e+00	 2.958096581203107e-01	 1.058019412373091e+00
 2.016944116993947e+00	 3.135618520189347e-01	 1.511642255448615e+00
 2.014099780495567e+00	 3.313408207079863e-01	 2.128503511904947e+00
 2.011089971460127e+00	 3.491444868306984e-01	 2.908953270012375e+00
 2.042665071277676e+00	 1.732074188101208e-01	 2.542056585422825e+00
 2.041097643167284e+00	 1.907923354980139e-01	 1.856058814906922e+00
 2.039373239910149e+00	 2.084178619507789e-01	 1.330862482669984e+00
 2.037490616612118e+00	 2.260821356585905e-01	 9.674912106097981e-01
 2.035448553233113e+00	 2.437832611116027e-01	 7.666673760281042e-01
 2.033245855491058e+00	 2.615193100970440e-01	 7.288078537168622e-01
 2.030881355766028e+00	 2.792883220227587e-01	 8.540204728056028e-01
 2.028353914003786e+00	 2.970883042674717e-01	 1.142101081493440e+00
 2.025662418617874e+00	 3.149172325580274e-01	 1.592531091672028e+00
 2.022805787389431e+00	 3.327730513738292e-01	 2.204475353807357e+00
 2.019782968363860e+00	 3.506536743786751e-01	 2.976780190424870e+00
 2.051456551062507e+00	 1.739528907653515e-01	 2.666241475846816e+00
 2.049882376857315e+00	 1.916134916374238e-01	 1.993114624065857e+00
 2.048150551895931e+00	 2.093148770557507e-01	 1.475789052296004e+00
 2.046259825926267e+00	 2.270551764944074e-01	 1.116276085656540e+00
 2.044208973657273e+00	 2.448324862854191e-01	 9.159402075463396e-01
 2.041996795666765e+00	 2.626448699171346e-01	 8.754869293725560e-01
 2.039622119309464e+00	 2.804903583591599e-01	 9.949517145042189e-01
 2.037083799624415e+00	 2.983669504141306e-01	 1.273689867387146e+00
 2.034380720240965e+00	 3.162726130965752e-01	 1.710367276959699e+00
 2.031511794282461e+00	 3.342052820390937e-01	 2.302951881122674e+00
 2.028475965266763e+00	 3.521628619260533e-01	 3.048705696178358e+00
 1.941545996220244e+00	 3.370709864334422e-01	 2.171511604218169e+00
 1.938480070102190e+00	 3.542778798651433e-01	 2.706343697477223e+00
 1.935252515464695e+00	 3.715045168219472e-01	 2.963750104776787e+00
 1.931862412471655e+00	 3.887488114390375e-01	 3.092919185384274e+00
 1.928308873731856e+00	 4.060086502667835e-01	 3.206835536399360e+00
 1.924591045131398e+00	 4.232818928181366e-01	 3.298256267300075e+00
 1.920708106657807e+00	 4.405663721427606e-01	 3.359459078463246e+00
 1.916659273214932e+00	 4.578598954278800e-01	 3.382236478303823e+00
 1.912443795427681e+00	 4.751602446257804e-01	 3.357889579137633e+00
 1.908060960435679e+00	 4.924651771078769e-01	 3.277221434821106e+00
 1.903510092674904e+00	 5.097724263452202e-01	 3.130529883635633e+00
 1.950238993124648e+00	 3.385801739837758e-01	 2.310377805794115e+00
 1.947159339757076e+00	 3.558641088411304e-01	 2.850151884254728e+00
 1.943917334201315e+00	 3.731678756223417e-01	 3.101577115247906e+00
 1.940512052502813e+00	 3.904893791234378e-01	 3.236748673991046e+00
 1.936942603297183e+00	 4.078264964321268e-01	 3.347637963385790e+00
 1.933208128646343e+00	 4.251770774776411e-01	 3.428596932924346e+00
 1.929307804866323e+00	 4.425389456074416e-01	 3.473357280667638e+00
 1.925240843345804e+00	 4.599098981907534e-01	 3.475019998958007e+00
 1.921006491354468e+00	 4.772877072488776e-01	 3.426044581841690e+00
 1.916604032840201e+00	 4.946701201121875e-01	 3.318237865122377e+00
 1.912032789214229e+00	 5.120548601036816e-01	 3.142742470378954e+00
 1.958931990029550e+00	 3.400893615340513e-01	 2.429765770626100e+00
 1.955838609412455e+00	 3.574503378169704e-01	 2.985287732436950e+00
 1.952582152938404e+00	 3.748312344225044e-01	 3.242509732144457e+00
 1.949161692534410e+00	 3.922299468075285e-01	 3.391182160583834e+00
 1.945576332862909e+00	 4.096443425970912e-01	 3.504502635841665e+00
 1.941825212161644e+00	 4.270722621367091e-01	 3.578260802635939e+00
 1.937907503075148e+00	 4.445115190716422e-01	 3.607536009324828e+00
 1.933822413476946e+00	 4.619599009531187e-01	 3.586683303467909e+00
 1.929569187281490e+00	 4.794151698714577e-01	 3.509319127224234e+00
 1.925147105244934e+00	 4.968750631159928e-01	 3.368306688655489e+00
 1.920555485753756e+00	 5.143372938616730e-01	 3.155740985428608e+00
 1.967624986934786e+00	 3.415985490842008e-01	 2.532816776345372e+00
 1.964517879068161e+00	 3.590365667926065e-01	 3.111008444943830e+00
 1.961246971675803e+00	 3.764945932223906e-01	 3.382609034232280e+00
 1.957811332566286e+00	 3.939705144912779e-01	 3.549820012680820e+00
 1.954210062428879e+00	 4.114621887616586e-01	 3.669291832960794e+00
 1.950442295677148e+00	 4.289674467953352e-01	 3.738097987821188e+00
 1.946507201284140e+00	 4.464840925353690e-01	 3.752561981988560e+00
 1.942403983608214e+00	 4.640099037149928e-01	 3.708240890030051e+00
 1.938131883208609e+00	 4.815426324935459e-01	 3.599908607614413e+00
 1.933690177649742e+00	 4.990800061193236e-01	 3.421538774680899e+00
 1.929078182293349e+00	 5.166197276192274e-01	 3.166287349485145e+00
 1.976317983840187e+00	 3.431077366341572e-01	 2.622613605988545e+00
 1.973197148724028e+00	 3.606227957679817e-01	 3.226582527762746e+00
 1.969911790413346e+00	 3.781579520219558e-01	 3.518001877002824e+00
 1.966460972598281e+00	 3.957110821746541e-01	 3.706371664276201e+00
 1.962843791994938e+00	 4.132800349258104e-01	 3.834007478671352e+00
 1.959059379192707e+00	 4.308626314535145e-01	 3.899116051929133e+00
 1.955106899493149e+00	 4.484566659986286e-01	 3.899164353001161e+00
 1.950985553739471e+00	 4.660599064763932e-01	 3.830861812006474e+00
 1.946694579135689e+00	 4.836700951151673e-01	 3.690142186870443e+00
 1.942233250054491e+00	 5.012849491222111e-01	 3.472145050906743e+00
 1.937600878832876e+00	 5.189021613763783e-01	 3.171196880117226e+00
 1.985010980745589e+00	 3.446169241838526e-01	 2.702182095324204e+00
 1.981876418379890e+00	 3.622090247430395e-01	 3.331289869217773e+00
 1.978576609150870e+00	 3.798213108211553e-01	 3.644879471720069e+00
 1.975110612630236e+00	 3.974516498576258e-01	 3.854653254767227e+00
 1.971477521560928e+00	 4.150978810895282e-01	 3.990788119217606e+00
 1.967676462708170e+00	 4.327578161112408e-01	 4.052476606753102e+00
 1.963706597702032e+00	 4.504292394614277e-01	 4.038231209618596e+00
 1.959567123870574e+00	 4.681099092373365e-01	 3.945866355961368e+00
 1.955257275062591e+00	 4.857975577363481e-01	 3.772479943141556e+00
 1.950776322459048e+00	 5.034898921246862e-01	 3.514434394354324e+00
 1.946123575372203e+00	 5.211845951331590e-01	 3.167337214488579e+00
 1.993703977650824e+00	 3.461261117332197e-01	 2.774492647972461e+00
 1.990555688035582e+00	 3.637952537177229e-01	 3.424421826247807e+00
 1.987241427888211e+00	 3.814846696199445e-01	 3.759496003483300e+00
 1.983760252661990e+00	 3.991922175401612e-01	 3.988585331655255e+00
 1.980111251126696e+00	 4.169157272527940e-01	 4.131905981985711e+00
 1.976293546223384e+00	 4.346530007685088e-01	 4.189492000104573e+00
 1.972306295910644e+00	 4.524018129237728e-01	 4.160806162326591e+00
 1.968148694001381e+00	 4.701599119978401e-01	 4.044722809312431e+00
 1.963819970989180e+00	 4.879250203571130e-01	 3.839510089273964e+00
 1.959319394863277e+00	 5.056948351267798e-01	 3.542811580487104e+00
 1.954646271911197e+00	 5.234670288896022e-01	 3.151627263547994e+00
 2.002396974555725e+00	 3.476352992821909e-01	 2.842461719296723e+00
 1.999234957690937e+00	 3.653814826919749e-01	 3.505281317480581e+00
 1.995906246625206e+00	 3.831480284182786e-01	 3.858167287120665e+00
 1.992409892693384e+00	 4.009327852222285e-01	 4.102190615082425e+00
 1.988744980692086e+00	 4.187335734155892e-01	 4.249764113104192e+00
 1.984910629738201e+00	 4.365481854253137e-01	 4.301622092102673e+00
 1.980905994118838e+00	 4.543743863856706e-01	 4.258085026485441e+00
 1.976730264131752e+00	 4.722099147579211e-01	 4.119044314873797e+00
 1.972382666915315e+00	 4.900524829774880e-01	 3.883946268501324e+00
 1.967862467267044e+00	 5.078997781285233e-01	 3.551775288832765e+00
 1.963168968449725e+00	 5.257494626457417e-01	 3.121036196726610e+00
 2.011089971460127e+00	 3.491444868306984e-01	 2.908953270012372e+00
 2.007914227345791e+00	 3.669677116657392e-01	 3.573182922897182e+00
 2.004571065361692e+00	 3.848113872161132e-01	 3.937269459768033e+00
 2.001059532724257e+00	 4.026733529037965e-01	 4.189591822333110e+00
 1.997378710256942e+00	 4.205514195778954e-01	 4.336893591435861e+00
 1.993527713252470e+00	 4.384433700816494e-01	 4.380471117397357e+00
 1.989505692326468e+00	 4.563469598471275e-01	 4.321412592540199e+00
 1.985311834261547e+00	 4.742599175175962e-01	 4.160585809661549e+00
 1.980945362840864e+00	 4.921799455974982e-01	 3.898624923141912e+00
 1.976405539670214e+00	 5.101047211299473e-01	 3.535916163388965e+00
 1.971691664987653e+00	 5.280318964016106e-01	 3.072582456219160e+00
 2.019782968363860e+00	 3.506536743786751e-01	 2.976780190424870e+00
 2.016593496999975e+00	 3.685539406389585e-01	 3.627452989888627e+00
 2.013235884097506e+00	 3.864747460134034e-01	 3.993237709028635e+00
 2.009709172754451e+00	 4.044139205848329e-01	 4.245009550493503e+00
 2.006012439821110e+00	 4.223692657396942e-01	 4.385950816659505e+00
 2.002144796766039e+00	 4.403385547375105e-01	 4.417784630737748e+00
 1.998105390533390e+00	 4.583195333081502e-01	 4.342279482127901e+00
 1.993893404390623e+00	 4.763099202768828e-01	 4.161241045422809e+00
 1.989508058765687e+00	 4.943074082171689e-01	 3.876502734102760e+00
 1.984948612072654e+00	 5.123096641310829e-01	 3.489914926162327e+00
 1.980214361524848e+00	 5.303143301572421e-01	 3.003332799957937e+00
 2.028475965266763e+00	 3.521628619260533e-01	 3.048705696178358e+00
 2.025272766653326e+00	 3.701401696115764e-01	 3.667429745512497e+00
 2.021900702832483e+00	 3.881381048101049e-01	 4.022565035645576e+00
 2.018358812783806e+00	 4.061544882653070e-01	 4.262760215524779e+00
 2.014646169384433e+00	 4.241871119009676e-01	 4.389714869218882e+00
 2.010761880278761e+00	 4.422337393928923e-01	 4.405446533385072e+00
 2.006705088739459e+00	 4.602921067687453e-01	 4.312319087505097e+00
 2.002474974518841e+00	 4.783599230357982e-01	 4.113039688437176e+00
 1.998070754689647e+00	 4.964348708365260e-01	 3.810654129066855e+00
 1.993491684474229e+00	 5.145146071319616e-01	 3.408540542246562e+00
 1.988737058061177e+00	 5.325967639126696e-01	 2.910401372418796e+00
 1.903510092674904e+00	 5.097724263452202e-01	 3.130529883635633e+00
 1.898790555060662e+00	 5.270797028569836e-01	 2.951647643352640e+00
 1.893901750988258e+00	 5.443846956905017e-01	 2.783254850336368e+00
 1.888843123834064e+00	 5.616850724935336e-01	 2.628722390161655e+00
 1.883614157263803e+00	 5.789784800624048e-01	 2.491655513423100e+00
 1.878214375937486e+00	 5.962625451515265e-01	 2.375876266431501e+00
 1.872643346196608e+00	 6.135348753077534e-01	 2.285404033606876e+00
 1.866900676732649e+00	 6.307930597291920e-01	 2.224434156375914e+00
 1.860986019235964e+00	 6.480346701480327e-01	 2.197314598759466e+00
 1.854899069024128e+00	 6.652572617369513e-01	 2.208520635699737e+00
 1.848639565648836e+00	 6.824583740385707e-01	 2.262335897682441e+00
 1.912032789214229e+00	 5.120548601036816e-01	 3.142742470378954e+00
 1.907292120539398e+00	 5.294396274917157e-01	 2.939467861214982e+00
 1.902381427539802e+00	 5.468221009766666e-01	 2.755880265454160e+00
 1.897300151099619e+00	 5.641999377635201e-01	 2.594234541701757e+00
 1.892047772572763e+00	 5.815707741124688e-01	 2.457152052078250e+00
 1.886623814490985e+00	 5.989322261520573e-01	 2.347606473458042e+00
 1.881027841254142e+00	 6.162818907172745e-01	 2.268907574982569e+00
 1.875259459801693e+00	 6.336173462122059e-01	 2.224682917299252e+00
 1.869318320264493e+00	 6.509361534968209e-01	 2.218857434460839e+00
 1.863204116595952e+00	 6.682358567974318e-01	 2.255630865421744e+00
 1.856916587181651e+00	 6.855139846403154e-01	 2.339453008589522e+00
 1.920555485753756e+00	 5.143372938616730e-01	 3.155740985428608e+00
 1.915793686018341e+00	 5.317995521260379e-01	 2.919537890446433e+00
 1.910861104091576e+00	 5.492595062625016e-01	 2.713877775703570e+00
 1.905757178365433e+00	 5.667148030332706e-01	 2.540016368595102e+00
 1.900481387882018e+00	 5.841630681623998e-01	 2.399667273027520e+00
 1.895033253044816e+00	 6.016019071525602e-01	 2.294990393494007e+00
 1.889412336312042e+00	 6.190289061268681e-01	 2.228578221496746e+00
 1.883618242871130e+00	 6.364416326953832e-01	 2.203439932349306e+00
 1.877650621293430e+00	 6.538376368458485e-01	 2.222983245940431e+00
 1.871509164168183e+00	 6.712144518582038e-01	 2.290994011134738e+00
 1.865193608714851e+00	 6.885695952423758e-01	 2.411613480126128e+00
 1.929078182293349e+00	 5.166197276192274e-01	 3.166287349485145e+00
 1.924295251497358e+00	 5.341594767599817e-01	 2.891359339319227e+00
 1.919340780643440e+00	 5.516969115480334e-01	 2.658928413840527e+00
 1.914214205631366e+00	 5.692296683028057e-01	 2.469366021878554e+00
 1.908915003191424e+00	 5.867553622122095e-01	 2.323552460524202e+00
 1.903442691598834e+00	 6.042715881530377e-01	 2.222867150763400e+00
 1.897796831370164e+00	 6.217759215365296e-01	 2.169176712755517e+00
 1.891977025940817e+00	 6.392659191787129e-01	 2.164820783294522e+00
 1.885982922322637e+00	 6.567391201950973e-01	 2.212595523565427e+00
 1.879814211740690e+00	 6.741930469192483e-01	 2.315734771448488e+00
 1.873470630248318e+00	 6.916252058447343e-01	 2.477888799333750e+00
 1.937600878832876e+00	 5.189021613763783e-01	 3.171196880117226e+00
 1.932796816976314e+00	 5.365194013935788e-01	 2.854438983719371e+00
 1.927820457195261e+00	 5.541343168332896e-01	 2.592679998618018e+00
 1.922671232897280e+00	 5.717445335721453e-01	 2.385519938917706e+00
 1.917348618500843e+00	 5.893476562619099e-01	 2.233078595336371e+00
 1.911852130152897e+00	 6.069412691534936e-01	 2.135986907442084e+00
 1.906181326428364e+00	 6.245229369462532e-01	 2.095376113791395e+00
 1.900335809010612e+00	 6.420902056621810e-01	 2.112864618923078e+00
 1.894315223351975e+00	 6.596406035445503e-01	 2.190542521720849e+00
 1.888119259313345e+00	 6.771716419805456e-01	 2.330953755800413e+00
 1.881747651781935e+00	 6.946808164473743e-01	 2.537075799304935e+00
 1.946123575372203e+00	 5.211845951331590e-01	 3.167337214488579e+00
 1.941298382455075e+00	 5.388793260268609e-01	 2.808288756253240e+00
 1.936300133746901e+00	 5.565717221182966e-01	 2.516747974794947e+00
 1.931128260163035e+00	 5.742593988413098e-01	 2.291654318048935e+00
 1.925782233810132e+00	 5.919399503115128e-01	 2.132438247101530e+00
 1.920261568706862e+00	 6.096109501539300e-01	 2.039012956294262e+00
 1.914565821486496e+00	 6.272699523560333e-01	 2.011763890185290e+00
 1.908694592080373e+00	 6.449144921457759e-01	 2.051535994634691e+00
 1.902647524381308e+00	 6.625420868941899e-01	 2.159618644785148e+00
 1.896424306886016e+00	 6.801502370420770e-01	 2.337728198808556e+00
 1.890024673315585e+00	 6.977364270502797e-01	 2.587988132986478e+00
 1.954646271911197e+00	 5.234670288896022e-01	 3.151627263547994e+00
 1.949799947933507e+00	 5.412392506598598e-01	 2.752425739117207e+00
 1.944779810298225e+00	 5.590091274030821e-01	 2.432716234847807e+00
 1.939585287428495e+00	 5.767742641103191e-01	 2.190886558524747e+00
 1.934215849119149e+00	 5.945322443610296e-01	 2.025747421261868e+00
 1.928671007260585e+00	 6.122806311543501e-01	 1.936523762856943e+00
 1.922950316544420e+00	 6.300169677658647e-01	 1.922843933402933e+00
 1.917053375149956e+00	 6.477387786294845e-01	 1.984726668618011e+00
 1.910979825410497e+00	 6.654435702439987e-01	 2.122565801768189e+00
 1.904729354458575e+00	 6.831288321038235e-01	 2.337112661067324e+00
 1.898301694849150e+00	 7.007920376534326e-01	 2.629456108056106e+00
 1.963168968449725e+00	 5.257494626457417e-01	 3.121036196726610e+00
 1.958301513411475e+00	 5.435991752926068e-01	 2.686372160615981e+00
 1.953259486849095e+00	 5.614465326876726e-01	 2.342137922941412e+00
 1.948042314693518e+00	 5.792891293791932e-01	 2.086276666816692e+00
 1.942649464427752e+00	 5.971245384104724e-01	 1.917047361960161e+00
 1.937080445813921e+00	 6.149503121547569e-01	 1.833014958705365e+00
 1.931334811601989e+00	 6.327639831757417e-01	 1.833038537858588e+00
 1.925412158219222e+00	 6.505630651132944e-01	 1.916257355932677e+00
 1.919312126439404e+00	 6.683450535939598e-01	 2.082074730563985e+00
 1.913034402030891e+00	 6.861074271657653e-01	 2.330139716798269e+00
 1.906578716382512e+00	 7.038476482568162e-01	 2.660326531418010e+00
 1.971691664987653e+00	 5.280318964016106e-01	 3.072582456219160e+00
 1.966803078888847e+00	 5.459590999251343e-01	 2.609655395219234e+00
 1.961739163399377e+00	 5.638839379720954e-01	 2.246536221695351e+00
 1.956499341957966e+00	 5.818039946479524e-01	 1.980828630293834e+00
 1.951083079735801e+00	 5.997168324598532e-01	 1.810306312229133e+00
 1.945489884366729e+00	 6.176199931551537e-01	 1.732901287279657e+00
 1.939719306659061e+00	 6.355109985856590e-01	 1.746690331166674e+00
 1.933770941288024e+00	 6.533873515971929e-01	 1.849879441769817e+00
 1.927644427467892e+00	 6.712465369440548e-01	 2.040786292737529e+00
 1.921339449602834e+00	 6.890860222278832e-01	 2.317820628753392e+00
 1.914855737915554e+00	 7.069032588604145e-01	 2.679462563026370e+00
 1.980214361524848e+00	 5.303143301572421e-01	 3.003332799957937e+00
 1.975304644365486e+00	 5.483190245574735e-01	 2.521807967050052e+00
 1.970218839948934e+00	 5.663213432563775e-01	 2.147405122264585e+00
 1.964956369221702e+00	 5.843188599166166e-01	 1.877491759259705e+00
 1.959516695043154e+00	 6.023091265091832e-01	 1.709421232760658e+00
 1.953899322918863e+00	 6.202896741555429e-01	 1.640518503701939e+00
 1.948103801715490e+00	 6.382580139956113e-01	 1.668064158991627e+00
 1.942129724356225e+00	 6.562116380811678e-01	 1.789276655120771e+00
 1.935976728495822e+00	 6.741480202942665e-01	 2.001292739733489e+00
 1.929644497174275e+00	 6.920646172901584e-01	 2.301146010755169e+00
 1.923132759448157e+00	 7.099588694642095e-01	 2.685743578755624e+00
 1.988737058061177e+00	 5.325967639126696e-01	 2.910401372418796e+00
 1.983806209841261e+00	 5.506789491896563e-01	 2.422367556702027e+00
 1.978698516497631e+00	 5.687587485405461e-01	 2.046210178234696e+00
 1.973413396484585e+00	 5.868337251852063e-01	 1.779161998296811e+00
 1.967950310349670e+00	 6.049014205584747e-01	 1.618219480497460e+00
 1.962308761470183e+00	 6.229593551559282e-01	 1.560125229964019e+00
 1.956488296771135e+00	 6.410050294055930e-01	 1.601348925857953e+00
 1.950488507423679e+00	 6.590359245652063e-01	 1.738066704041855e+00
 1.944309029523059e+00	 6.770495036445779e-01	 1.966138951363990e+00
 1.937949544745086e+00	 6.950432123525722e-01	 2.281086478244072e+00
 1.931409780980206e+00	 7.130144800681855e-01	 2.678065042046184e+00
 1.848639565648836e+00	 6.824583740385707e-01	 2.262335897682441e+00
 1.842206185021296e+00	 6.996384498972793e-01	 2.360208679500276e+00
 1.835599805270095e+00	 7.167920722575036e-01	 2.499233674646728e+00
 1.828820300762612e+00	 7.339167374421329e-01	 2.674883481297009e+00
 1.821867592329375e+00	 7.510099300408764e-01	 2.869893909292281e+00
 1.814741647752110e+00	 7.680691239473409e-01	 3.030799284160600e+00
 1.807442482225145e+00	 7.850917834154445e-01	 3.149120887734258e+00
 1.799970158789351e+00	 8.020753641344032e-01	 3.221401716781033e+00
 1.792324788737874e+00	 8.190173143215005e-01	 3.243923763394071e+00
 1.784506531992859e+00	 8.359150758318045e-01	 3.212715868634670e+00
 1.776515597452493e+00	 8.527660852839679e-01	 3.123559791902130e+00
 1.856916587181651e+00	 6.855139846403154e-01	 2.339453008589522e+00
 1.850454402004383e+00	 7.027709818526354e-01	 2.467824328044348e+00
 1.843818443124431e+00	 7.200014071247187e-01	 2.631728679382210e+00
 1.837008584346666e+00	 7.372027455695898e-01	 2.826843451552612e+00
 1.830024746147141e+00	 7.543724705145618e-01	 3.027296650705758e+00
 1.822866896163328e+00	 7.715080445429551e-01	 3.184712185445706e+00
 1.815535049657578e+00	 7.886069205552394e-01	 3.294973157243710e+00
 1.808029269953017e+00	 8.056665428488362e-01	 3.355022147745041e+00
 1.800349668841084e+00	 8.226843482157801e-01	 3.361443401314919e+00
 1.792496406959950e+00	 8.396577670574028e-01	 3.310469701750340e+00
 1.784469694143107e+00	 8.565842245151777e-01	 3.197987531014718e+00
 1.865193608714851e+00	 6.885695952423758e-01	 2.411613480126128e+00
 1.858702618987810e+00	 7.059035138082984e-01	 2.575173826574643e+00
 1.852037080979040e+00	 7.232107419922021e-01	 2.767889473735797e+00
 1.845196867930909e+00	 7.404887536972563e-01	 2.986043299960301e+00
 1.838181899965001e+00	 7.577350109883825e-01	 3.191012714365276e+00
 1.830992144574534e+00	 7.749469651386214e-01	 3.344792278933648e+00
 1.823627617089888e+00	 7.921220576950020e-01	 3.445213992047858e+00
 1.816088381116449e+00	 8.092577215631579e-01	 3.489692319626760e+00
 1.808374548943953e+00	 8.263513821098806e-01	 3.475226383217697e+00
 1.800486281926599e+00	 8.434004582827749e-01	 3.398406278428661e+00
 1.792423790833194e+00	 8.604023637461387e-01	 3.255417690280059e+00
 1.873470630248318e+00	 6.916252058447343e-01	 2.477888799333750e+00
 1.866950835971476e+00	 7.090360457642576e-01	 2.681138369194306e+00
 1.860255718833843e+00	 7.264200768599559e-01	 2.904298852546412e+00
 1.853385151515288e+00	 7.437747618251467e-01	 3.144653967286869e+00
 1.846339053782927e+00	 7.610975514623681e-01	 3.353297601507389e+00
 1.839117392985728e+00	 7.783858857343849e-01	 3.502910128525563e+00
 1.831720184522106e+00	 7.956371948347916e-01	 3.591826441279101e+00
 1.824147492279707e+00	 8.128489002774392e-01	 3.618004807652160e+00
 1.816399429046567e+00	 8.300184160038826e-01	 3.578971118201124e+00
 1.808476156892919e+00	 8.471431495080044e-01	 3.471825062703136e+00
 1.800377887522883e+00	 8.642205029769344e-01	 3.293244567442495e+00
 1.881747651781935e+00	 6.946808164473743e-01	 2.537075799304935e+00
 1.875199052955281e+00	 7.121685777205033e-01	 2.782231438385148e+00
 1.868474356688762e+00	 7.296294117279802e-01	 3.037406247993065e+00
 1.861573435099748e+00	 7.470607699532755e-01	 3.296950164352548e+00
 1.854496207600891e+00	 7.644600919365476e-01	 3.506720888166275e+00
 1.847242641396912e+00	 7.818248063302898e-01	 3.651066563102618e+00
 1.839812751954262e+00	 7.991523319746668e-01	 3.726923054122547e+00
 1.832206603442847e+00	 8.164400789917516e-01	 3.732672188994399e+00
 1.824424309149011e+00	 8.336854498978674e-01	 3.666477789893726e+00
 1.816466031859018e+00	 8.508858407331766e-01	 3.526100346646403e+00
 1.808331984212309e+00	 8.680386422076479e-01	 3.308901639400087e+00
 1.890024673315585e+00	 6.977364270502797e-01	 2.587988132986478e+00
 1.883447269939126e+00	 7.153011096770259e-01	 2.874966893680002e+00
 1.876692994543716e+00	 7.328387465962762e-01	 3.161900929706528e+00
 1.869761718684233e+00	 7.503467780816572e-01	 3.437485427062633e+00
 1.862653361418864e+00	 7.678226324109497e-01	 3.646457655763819e+00
 1.855367889808084e+00	 7.852637269263816e-01	 3.781729182425906e+00
 1.847905319386383e+00	 8.026674691146874e-01	 3.842743623613589e+00
 1.840265714605928e+00	 8.200312577061675e-01	 3.826525041735256e+00
 1.832449189251368e+00	 8.373524837919140e-01	 3.731646801078892e+00
 1.824455906825007e+00	 8.546285319583766e-01	 3.556680330784108e+00
 1.816286080901601e+00	 8.718567814383628e-01	 3.299861468019596e+00
 1.898301694849150e+00	 7.007920376534326e-01	 2.629456108056106e+00
 1.891695486922907e+00	 7.184336416338153e-01	 2.955915185678002e+00
 1.884911632398626e+00	 7.360480814648447e-01	 3.272560381404038e+00
 1.877950002268689e+00	 7.536327862103063e-01	 3.559675913597066e+00
 1.870810515236819e+00	 7.711851728856052e-01	 3.765970089957913e+00
 1.863493138219246e+00	 7.887026475227036e-01	 3.889899413017741e+00
 1.855997886818497e+00	 8.061826062549119e-01	 3.932119904204746e+00
 1.848324825769005e+00	 8.236224364207564e-01	 3.892510015959694e+00
 1.840474069353725e+00	 8.410195176861033e-01	 3.768477279362367e+00
 1.832445781790996e+00	 8.583712231836887e-01	 3.559086249475328e+00
 1.824240177590894e+00	 8.756749206691622e-01	 3.263635629869167e+00
 1.906578716382512e+00	 7.038476482568162e-01	 2.660326531418010e+00
 1.899943703906525e+00	 7.215661735908613e-01	 3.021702343974852e+00
 1.893130270253413e+00	 7.392574163336867e-01	 3.364248612441068e+00
 1.886138285853059e+00	 7.569187943392364e-01	 3.657062304475540e+00
 1.878967669054727e+00	 7.745477133605426e-01	 3.857990631324306e+00
 1.871618386630398e+00	 7.921415681193017e-01	 3.968566030348630e+00
 1.864090454250636e+00	 8.096977433953995e-01	 3.990260013964938e+00
 1.856383936932138e+00	 8.272136151355908e-01	 3.924237104898914e+00
 1.848498949456167e+00	 8.446865515805155e-01	 3.771065642027966e+00
 1.840435656757095e+00	 8.621139144091977e-01	 3.528911539893799e+00
 1.832194274280319e+00	 8.794930599001302e-01	 3.197774669142743e+00
 1.914855737915554e+00	 7.069032588604145e-01	 2.679462563026370e+00
 1.908191920889882e+00	 7.246987055481543e-01	 3.069008996843380e+00
 1.901348908107999e+00	 7.424667512028029e-01	 3.431534587278642e+00
 1.894326569437291e+00	 7.602048024684630e-01	 3.723307135854650e+00
 1.887124822872560e+00	 7.779102538357913e-01	 3.915387650459462e+00
 1.879743635041538e+00	 7.955804887162194e-01	 4.010257050097947e+00
 1.872183021682827e+00	 8.132128805362090e-01	 4.010242330557298e+00
 1.864443048095384e+00	 8.308047938507415e-01	 3.917528889498857e+00
 1.856523829558777e+00	 8.483535854752309e-01	 3.734174840293482e+00
 1.848425531723414e+00	 8.658566056349889e-01	 3.461821053291765e+00
 1.840148370970008e+00	 8.833111991313497e-01	 3.099868073075531e+00
 1.923132759448157e+00	 7.099588694642095e-01	 2.685743578755624e+00
 1.916440137872873e+00	 7.278312375056845e-01	 3.094569421707888e+00
 1.909567545962300e+00	 7.456760860721946e-01	 3.467552860083271e+00
 1.902514853021330e+00	 7.634908105979997e-01	 3.752192193503360e+00
 1.895281976690290e+00	 7.812727943113806e-01	 3.931162525381693e+00
 1.887868883452669e+00	 7.990194093135027e-01	 4.007639436296131e+00
 1.880275589115100e+00	 8.167280176773999e-01	 3.984845637448673e+00
 1.872502159258801e+00	 8.343959725662805e-01	 3.866064902178469e+00
 1.864548709661641e+00	 8.520206193703300e-01	 3.654657769757935e+00
 1.856415406690063e+00	 8.695992968611462e-01	 3.354079067476436e+00
 1.848102467660094e+00	 8.871293383629042e-01	 2.967544269173906e+00
 1.931409780980206e+00	 7.130144800681855e-01	 2.678065042046184e+00
 1.924688354855402e+00	 7.309637694634421e-01	 3.095170625488342e+00
 1.917786183816244e+00	 7.488854209418625e-01	 3.467149451264307e+00
 1.910703136605119e+00	 7.667768187278619e-01	 3.737615965636630e+00
 1.903439130507891e+00	 7.846353347873409e-01	 3.898446785662713e+00
 1.895994131863790e+00	 8.024583299111958e-01	 3.953516104443019e+00
 1.888368156547483e+00	 8.202431548190312e-01	 3.906982819027883e+00
 1.880561270422445e+00	 8.379871512822787e-01	 3.763306504021053e+00
 1.872573589764845e+00	 8.556876532658934e-01	 3.527264896546259e+00
 1.864405281657153e+00	 8.733419880877550e-01	 3.203972933855602e+00
 1.856056564350709e+00	 8.909474775948771e-01	 2.798903376131166e+00
 1.776515597452493e+00	 8.527660852839679e-01	 3.123559791902130e+00
 1.768353645352981e+00	 8.695649234165084e-01	 2.999746616427654e+00
 1.760019638626250e+00	 8.863118887738806e-01	 2.868767093113954e+00
 1.751513933443456e+00	 9.030044095506682e-01	 2.733117635659560e+00
 1.742836936002513e+00	 9.196399133193138e-01	 2.596007907877728e+00
 1.733989102717897e+00	 9.362158282216865e-01	 2.461354274225120e+00
 1.724970940377082e+00	 9.527295841709179e-01	 2.333769005948366e+00
 1.715783006263097e+00	 9.691786140624498e-01	 2.218545093046240e+00
 1.706425908242760e+00	 9.855603549931850e-01	 2.121636532993585e+00
 1.696900304820150e+00	 1.001872249487630e+00	 2.049633989582111e+00
 1.687206905154955e+00	 1.018111746729887e+00	 2.009735739209827e+00
 1.784469694143107e+00	 8.565842245151777e-01	 3.197987531014718e+00
 1.776271198060235e+00	 8.734582770636438e-01	 3.053521599193728e+00
 1.767899876999939e+00	 8.902802245839441e-01	 2.909896162503084e+00
 1.759356088728096e+00	 9.070474837557672e-01	 2.768357529068584e+00
 1.750640241261322e+00	 9.237574706338767e-01	 2.630944233470641e+00
 1.741752793057634e+00	 9.404076018450087e-01	 2.500483260259573e+00
 1.732694253173587e+00	 9.569952957950965e-01	 2.380581848913051e+00
 1.723465181387379e+00	 9.735179738857331e-01	 2.275614719202023e+00
 1.714066188287475e+00	 9.899730617387847e-01	 2.190706577249486e+00
 1.704497935326324e+00	 1.006357990428024e+00	 2.131709785611314e+00
 1.694761134838787e+00	 1.022670197716636e+00	 2.105177105384133e+00
 1.792423790833194e+00	 8.604023637461387e-01	 3.255417690280058e+00
 1.784188750766886e+00	 8.773516307105389e-01	 3.083161431177879e+00
 1.775780115372968e+00	 8.942485603938041e-01	 2.920896658001145e+00
 1.767198244012032e+00	 9.110905579607247e-01	 2.768766400951862e+00
 1.758443546519395e+00	 9.278750279483767e-01	 2.627756587135182e+00
 1.749516483396619e+00	 9.445993754683620e-01	 2.499694621311328e+00
 1.740417565969336e+00	 9.612610074194075e-01	 2.387243406957253e+00
 1.731147356510909e+00	 9.778573337092544e-01	 2.293890636276131e+00
 1.721706468331452e+00	 9.943857684847280e-01	 2.223933199633727e+00
 1.712095565831782e+00	 1.010843731368860e+00	 2.182456588532154e+00
 1.702315364521933e+00	 1.027228648703915e+00	 2.175309191556696e+00
 1.800377887522883e+00	 8.642205029769344e-01	 3.293244567442495e+00
 1.792106303473086e+00	 8.812449843572696e-01	 3.088220295438253e+00
 1.783660353745503e+00	 8.982168962035235e-01	 2.903119427716526e+00
 1.775040399295439e+00	 9.151336321655826e-01	 2.737126518289699e+00
 1.766246851776918e+00	 9.319925852628342e-01	 2.590291646214733e+00
 1.757280173735038e+00	 9.487911490917404e-01	 2.463530942185730e+00
 1.748140878764512e+00	 9.655267190438193e-01	 2.358622447073195e+00
 1.738829531633867e+00	 9.821966935329549e-01	 2.278197121611367e+00
 1.729346748374864e+00	 9.987984752309285e-01	 2.225724848752100e+00
 1.719693196336689e+00	 1.015329472310028e+00	 2.205495294374545e+00
 1.709869594204548e+00	 1.031787099691592e+00	 2.222593517963465e+00
 1.808331984212309e+00	 8.680386422076479e-01	 3.308901639400087e+00
 1.800023856178985e+00	 8.851383380039110e-01	 3.068254737394082e+00
 1.791540592117708e+00	 9.021852320131636e-01	 2.857887224555798e+00
 1.782882554578495e+00	 9.191767063703843e-01	 2.676167982228301e+00
 1.774050157034071e+00	 9.361101425772700e-01	 2.522326261893495e+00
 1.765043864073077e+00	 9.529829227151395e-01	 2.396453750516851e+00
 1.755864191559301e+00	 9.697924306682997e-01	 2.299501891974979e+00
 1.746511706756435e+00	 9.865360533567757e-01	 2.233274275210083e+00
 1.736987028417887e+00	 1.003211181977301e+00	 2.200413922503651e+00
 1.727290826841209e+00	 1.019815213251417e+00	 2.204385335923255e+00
 1.717423823886777e+00	 1.036345550679533e+00	 2.249451186469637e+00
 1.816286080901601e+00	 8.718567814383628e-01	 3.299861468019596e+00
 1.807941408884735e+00	 8.890316916505393e-01	 3.022824420522491e+00
 1.799420830489747e+00	 9.061535678227851e-01	 2.786496171331075e+00
 1.790724709861372e+00	 9.232197805751722e-01	 2.588570761382991e+00
 1.781853462291037e+00	 9.402276998917033e-01	 2.427569918836374e+00
 1.772807554410919e+00	 9.571746963385540e-01	 2.302846260340971e+00
 1.763587504353886e+00	 9.740581422928172e-01	 2.214581704760345e+00
 1.754193881878793e+00	 9.908754131806579e-01	 2.163780902300247e+00
 1.744627308460692e+00	 1.007623888723759e+00	 2.152259505132220e+00
 1.734888457345503e+00	 1.024300954192916e+00	 2.182627130706912e+00
 1.724978053568774e+00	 1.040904001667607e+00	 2.258264895925008e+00
 1.824240177590894e+00	 8.756749206691622e-01	 3.263635629869167e+00
 1.815858961590483e+00	 8.929250452972296e-01	 2.951492884270107e+00
 1.807301068861785e+00	 9.101219036324504e-01	 2.690217210039777e+00
 1.798566865144247e+00	 9.272628547799895e-01	 2.476966694949998e+00
 1.789656767547998e+00	 9.443452572061556e-01	 2.309667153968137e+00
 1.780571244748752e+00	 9.613664699619794e-01	 2.187016067847694e+00
 1.771310817148454e+00	 9.783238539173404e-01	 2.108481722506975e+00
 1.761876057001123e+00	 9.952147730045421e-01	 2.074297345318982e+00
 1.752267588503455e+00	 1.012036595470219e+00	 2.085450057910089e+00
 1.742486087849738e+00	 1.028786695134416e+00	 2.143664490567639e+00
 1.732532283250688e+00	 1.045462452655680e+00	 2.251380930782408e+00
 1.832194274280319e+00	 8.794930599001302e-01	 3.197774669142743e+00
 1.823776514296382e+00	 8.968183989440567e-01	 2.853828304113190e+00
 1.815181307233987e+00	 9.140902394422210e-01	 2.570297535798627e+00
 1.806409020427296e+00	 9.313059289848786e-01	 2.343941466545284e+00
 1.797460072805135e+00	 9.484628145206460e-01	 2.172199935634657e+00
 1.788334935086760e+00	 9.655582435854104e-01	 2.053197800763252e+00
 1.779034129943188e+00	 9.825895655418369e-01	 1.985744440356310e+00
 1.769558232123606e+00	 9.995541328283698e-01	 1.969328266852171e+00
 1.759907868546351e+00	 1.016449302216593e+00	 2.004106064864092e+00
 1.750083718354078e+00	 1.033272436075806e+00	 2.090886993980373e+00
 1.740086512932670e+00	 1.050020903643622e+00	 2.231111123793310e+00
 1.840148370970008e+00	 8.833111991313497e-01	 3.099868073075531e+00
 1.831694067002582e+00	 9.007117525910970e-01	 2.729404253702337e+00
 1.823061545606518e+00	 9.180585752521578e-01	 2.427962015897554e+00
 1.814251175710693e+00	 9.353490031898828e-01	 2.192036549657501e+00
 1.805263378062631e+00	 9.525803718351958e-01	 2.018690004346320e+00
 1.796098625425127e+00	 9.697500172088421e-01	 1.905555722770322e+00
 1.786757442738275e+00	 9.868552771662759e-01	 1.850837747584532e+00
 1.777240407246422e+00	 1.003893492652082e+00	 1.853305385015390e+00
 1.767548148589553e+00	 1.020862008962797e+00	 1.912282634906161e+00
 1.757681348858684e+00	 1.037758177016974e+00	 2.027632322250480e+00
 1.747640742614871e+00	 1.054579354631298e+00	 2.199734793566612e+00
 1.848102467660094e+00	 8.871293383629042e-01	 2.967544269173906e+00
 1.839611619709233e+00	 9.046051062384257e-01	 2.577800469029988e+00
 1.830941783979543e+00	 9.220269110623232e-01	 2.264414594422798e+00
 1.822093330994613e+00	 9.393920773950442e-01	 2.023751125571296e+00
 1.813066683320668e+00	 9.566979291498247e-01	 1.852601176262146e+00
 1.803862315764040e+00	 9.739417908322702e-01	 1.748186294320251e+00
 1.794480755533899e+00	 9.911209887906253e-01	 1.708157617108456e+00
 1.784922582369755e+00	 1.008232852475620e+00	 1.730590162710594e+00
 1.775188428633234e+00	 1.025274715708745e+00	 1.813972061683117e+00
 1.765278979363722e+00	 1.042243917957811e+00	 1.957188560679582e+00
 1.755194972297440e+00	 1.059137805618577e+00	 2.159500657749444e+00
 1.856056564350709e+00	 8.909474775948771e-01	 2.798903376131166e+00
 1.847529172416486e+00	 9.084984598861181e-01	 2.398603614561149e+00
 1.838822022353228e+00	 9.259952468727786e-01	 2.080839682883266e+00
 1.829935486279233e+00	 9.434351516004069e-01	 1.841543974588121e+00
 1.820869988579429e+00	 9.608154864645534e-01	 1.677341610533806e+00
 1.811626006103686e+00	 9.781335644556893e-01	 1.585120691147222e+00
 1.802204068330247e+00	 9.953867004148540e-01	 1.562030749824741e+00
 1.792604757493784e+00	 1.012572212298924e+00	 1.605476452143512e+00
 1.782828708677572e+00	 1.029687422454352e+00	 1.713106342415648e+00
 1.772876609869356e+00	 1.046729658898207e+00	 1.882796465751953e+00
 1.762749201980530e+00	 1.063696256605328e+00	 2.112628722563041e+00
 1.687206905154955e+00	 1.018111746729887e+00	 2.009735739209827e+00
 1.677346469453000e+00	 1.034276304122572e+00	 1.993925401249627e+00
 1.667319810129224e+00	 1.050363389513653e+00	 1.991616795757275e+00
 1.657127790482340e+00	 1.066370481506641e+00	 2.006601343286543e+00
 1.646771324157903e+00	 1.082295070385765e+00	 2.042650459223454e+00
 1.636251374984289e+00	 1.098134659358124e+00	 2.103467293055102e+00
 1.625568956772238e+00	 1.113886765794420e+00	 2.192535216399905e+00
 1.614725133077868e+00	 1.129548922467025e+00	 2.308396947618816e+00
 1.603721016929166e+00	 1.145118678784137e+00	 2.449201450579460e+00
 1.592557770515995e+00	 1.160593602018781e+00	 2.614798390522572e+00
 1.581236604843679e+00	 1.175971278531404e+00	 2.804983906600646e+00
 1.694761134838787e+00	 1.022670197716636e+00	 2.105177105384134e+00
 1.684856550434408e+00	 1.038907129623116e+00	 2.099438002255256e+00
 1.674784998165587e+00	 1.055066242658078e+00	 2.101433554541705e+00
 1.664547345196320e+00	 1.071145004135839e+00	 2.116086934429073e+00
 1.654144509262857e+00	 1.087140893103726e+00	 2.148211828171037e+00
 1.643577458508968e+00	 1.103051401589804e+00	 2.202461321964043e+00
 1.632847211284564e+00	 1.118874035849150e+00	 2.282588296536542e+00
 1.621954835907669e+00	 1.134606317607475e+00	 2.387223387249219e+00
 1.610901450389679e+00	 1.150245785300797e+00	 2.516239184657101e+00
 1.599688222123976e+00	 1.165789995309950e+00	 2.669911443583729e+00
 1.588316367537974e+00	 1.181236523188651e+00	 2.848347258724612e+00
 1.702315364521933e+00	 1.027228648703915e+00	 2.175309191556696e+00
 1.692366631415170e+00	 1.043537955124262e+00	 2.186081559783139e+00
 1.682250186201349e+00	 1.059769095803164e+00	 2.198082508536673e+00
 1.671966899909744e+00	 1.075919526765739e+00	 2.217188455689477e+00
 1.661517694367309e+00	 1.091986715822421e+00	 2.249097600067354e+00
 1.650903542033195e+00	 1.107968143822233e+00	 2.299276307643228e+00
 1.640125465796491e+00	 1.123861305904635e+00	 2.371304737630937e+00
 1.629184538737123e+00	 1.139663712748673e+00	 2.464800356836381e+00
 1.618081883849891e+00	 1.155372891818188e+00	 2.580609296545530e+00
 1.606818673731701e+00	 1.170986388601824e+00	 2.719381603973113e+00
 1.595396130232051e+00	 1.186501767846565e+00	 2.881505256371981e+00
 1.709869594204548e+00	 1.031787099691592e+00	 2.222593517963465e+00
 1.699876712395419e+00	 1.048168780625861e+00	 2.255097154890976e+00
 1.689715374236622e+00	 1.064471948948745e+00	 2.281835445221451e+00
 1.679386454622709e+00	 1.080694049396168e+00	 2.309461713681353e+00
 1.668890879471329e+00	 1.096832538541664e+00	 2.344402914721383e+00
 1.658229625557020e+00	 1.112884886055224e+00	 2.392785645164431e+00
 1.647403720308047e+00	 1.128848575960685e+00	 2.457868569320435e+00
 1.636414241566234e+00	 1.144721107890431e+00	 2.540642229035688e+00
 1.625262317309789e+00	 1.160499998336127e+00	 2.642419751836053e+00
 1.613949125339137e+00	 1.176182781894224e+00	 2.764174843746156e+00
 1.602475892925860e+00	 1.191767012504980e+00	 2.906547253350604e+00
 1.717423823886777e+00	 1.036345550679533e+00	 2.249451186469637e+00
 1.707386793375291e+00	 1.052799606127761e+00	 2.307707480273821e+00
 1.697180562271525e+00	 1.069174802094656e+00	 2.352963281593281e+00
 1.686806009335308e+00	 1.085468572026947e+00	 2.392474608538015e+00
 1.676264064574992e+00	 1.101678361261275e+00	 2.433243377296917e+00
 1.665555709080496e+00	 1.117801628288591e+00	 2.481774396645517e+00
 1.654681974819259e+00	 1.133835846017113e+00	 2.541493987866791e+00
 1.643643944395010e+00	 1.149778503032563e+00	 2.614287450534610e+00
 1.632442750769359e+00	 1.165627104854430e+00	 2.701791892233994e+00
 1.621079576946250e+00	 1.181379175186976e+00	 2.805255189536572e+00
 1.609555655619353e+00	 1.197032257163728e+00	 2.925540697902583e+00
 1.724978053568774e+00	 1.040904001667607e+00	 2.258264895925007e+00
 1.714896874354919e+00	 1.057430431629812e+00	 2.345118399148226e+00
 1.704645750306170e+00	 1.073877655240733e+00	 2.411737263030571e+00
 1.694225564047638e+00	 1.090243094657903e+00	 2.465808070043870e+00
 1.683637249678369e+00	 1.106524183981068e+00	 2.514755829771362e+00
 1.672881792603672e+00	 1.122718370522144e+00	 2.565348054536237e+00
 1.661960229330158e+00	 1.138823116073728e+00	 2.621424353542112e+00
 1.650873647223457e+00	 1.154835898174882e+00	 2.685297658088178e+00
 1.639623184228585e+00	 1.170754211372916e+00	 2.758859772285761e+00
 1.628210028553009e+00	 1.186575568479903e+00	 2.843584382459203e+00
 1.616635418312479e+00	 1.202297501822644e+00	 2.940531218632836e+00
 1.732532283250688e+00	 1.045462452655680e+00	 2.251380930782408e+00
 1.722406955334436e+00	 1.062061257131862e+00	 2.368520489682619e+00
 1.712110938340675e+00	 1.078580508386809e+00	 2.458430157438837e+00
 1.701645118759792e+00	 1.095017617288860e+00	 2.529056996215191e+00
 1.691010434781536e+00	 1.111370006700862e+00	 2.588099249319869e+00
 1.680207876126600e+00	 1.127635112755698e+00	 2.642714168074033e+00
 1.669238483840770e+00	 1.143810386130344e+00	 2.696931196328807e+00
 1.658103350051580e+00	 1.159893293317201e+00	 2.753256799568138e+00
 1.646803617687455e+00	 1.175881317891402e+00	 2.813769495164845e+00
 1.635340480159378e+00	 1.191771961772831e+00	 2.880121528451569e+00
 1.623715181005190e+00	 1.207562746481559e+00	 2.953542689581249e+00
 1.740086512932670e+00	 1.050020903643622e+00	 2.231111123793311e+00
 1.729917036313979e+00	 1.066692082633762e+00	 2.379090575414877e+00
 1.719576126375154e+00	 1.083283361532720e+00	 2.493317444824209e+00
 1.709064673471866e+00	 1.099792139919640e+00	 2.581831194257649e+00
 1.698383619884564e+00	 1.116215829420472e+00	 2.652543452106670e+00
 1.687533959649329e+00	 1.132551854989064e+00	 2.713108929381477e+00
 1.676516738351125e+00	 1.148797656186771e+00	 2.767313229680921e+00
 1.665333052879389e+00	 1.164950688459332e+00	 2.817770259873450e+00
 1.653984051145953e+00	 1.181008424409705e+00	 2.866678547545516e+00
 1.642470931765327e+00	 1.196968355065582e+00	 2.915822739344827e+00
 1.630794943697434e+00	 1.212827991140307e+00	 2.966577275072444e+00
 1.747640742614871e+00	 1.054579354631298e+00	 2.199734793566613e+00
 1.737427117293680e+00	 1.071322908135361e+00	 2.377993242082651e+00
 1.727041314409724e+00	 1.087986214678301e+00	 2.516678502434623e+00
 1.716484228183955e+00	 1.104566662550068e+00	 2.623756323830353e+00
 1.705756804987528e+00	 1.121061652139717e+00	 2.707530644236384e+00
 1.694860043171911e+00	 1.137468597222056e+00	 2.775796179837648e+00
 1.683794992861250e+00	 1.153784926242821e+00	 2.831895372102948e+00
 1.672562755706888e+00	 1.170008083601091e+00	 2.878463991555124e+00
 1.661164484604067e+00	 1.186135530927643e+00	 2.917755133591899e+00
 1.649601383370821e+00	 1.202164748357982e+00	 2.951640764944814e+00
 1.637874706389165e+00	 1.218093235798722e+00	 2.981615454955278e+00
 1.755194972297440e+00	 1.059137805618577e+00	 2.159500657749444e+00
 1.744937198273674e+00	 1.075953733636508e+00	 2.366382341277549e+00
 1.734506502444499e+00	 1.092689067823387e+00	 2.528797785603961e+00
 1.723903782896154e+00	 1.109341185179969e+00	 2.654474842548803e+00
 1.713129990090498e+00	 1.125907474858411e+00	 2.752526117813331e+00
 1.702186126694397e+00	 1.142385339454485e+00	 2.830066424632522e+00
 1.691073247371174e+00	 1.158772196298307e+00	 2.890027776310705e+00
 1.679792458534083e+00	 1.175065478742289e+00	 2.934983650013527e+00
 1.668344918061780e+00	 1.191262637445034e+00	 2.967177508089256e+00
 1.656731834975827e+00	 1.207361141649855e+00	 2.988524616394229e+00
 1.644954469080330e+00	 1.223358480456637e+00	 3.000616030823088e+00
 1.762749201980530e+00	 1.063696256605328e+00	 2.112628722563041e+00
 1.752447279254096e+00	 1.080584559137052e+00	 2.345402481320082e+00
 1.741971690479596e+00	 1.097391920967813e+00	 2.529966004429820e+00
 1.731323337608558e+00	 1.114115707809167e+00	 2.673745899717528e+00
 1.720503175193552e+00	 1.130753297576373e+00	 2.787018275621568e+00
 1.709512210216838e+00	 1.147302081686165e+00	 2.875235855258974e+00
 1.698351501880926e+00	 1.163759466353038e+00	 2.941084865746826e+00
 1.687022161360983e+00	 1.180122873882741e+00	 2.986993733130976e+00
 1.675525351519082e+00	 1.196389743961696e+00	 3.015133308743335e+00
 1.663862286580313e+00	 1.212557534941026e+00	 3.027419181077664e+00
 1.652034231770882e+00	 1.228623725113884e+00	 3.025516113785483e+00
 1.581236604843679e+00	 1.175971278531404e+00	 2.804983906600647e+00
 1.569756815835507e+00	 1.191251902350693e+00	 2.999579457987354e+00
 1.558121628340282e+00	 1.206430470476242e+00	 3.175308606303141e+00
 1.546332404585625e+00	 1.221504623834564e+00	 3.327070731909870e+00
 1.534390553932164e+00	 1.236472027217100e+00	 3.449354562773560e+00
 1.522297532345219e+00	 1.251330370457584e+00	 3.536258212586959e+00
 1.510054841831539e+00	 1.266077369595616e+00	 3.581511040019151e+00
 1.497664029841520e+00	 1.280710768025226e+00	 3.578497258341878e+00
 1.485126688637370e+00	 1.295228337627252e+00	 3.520281212170509e+00
 1.472444454627765e+00	 1.309627879884325e+00	 3.398861798117817e+00
 1.459619007669536e+00	 1.323907226977324e+00	 3.204165724750425e+00
 1.588316367537974e+00	 1.181236523188651e+00	 2.848347258724612e+00
 1.576785179402541e+00	 1.196585563834321e+00	 3.030012984307932e+00
 1.565097897005287e+00	 1.211832091846338e+00	 3.190382746754191e+00
 1.553255888673019e+00	 1.226973737588806e+00	 3.324867146601412e+00
 1.541260570076582e+00	 1.242008155397609e+00	 3.428645977357377e+00
 1.529113403700177e+00	 1.256933024763047e+00	 3.496688313339295e+00
 1.516815898275585e+00	 1.271746051498620e+00	 3.523774211229886e+00
 1.504369608181692e+00	 1.286444968894735e+00	 3.504517953187778e+00
 1.491776132809844e+00	 1.301027538856150e+00	 3.433392746965326e+00
 1.479037115895506e+00	 1.315491553021954e+00	 3.304696903750340e+00
 1.466154244816837e+00	 1.329834833866933e+00	 3.110350907072529e+00
 1.595396130232051e+00	 1.186501767846565e+00	 2.881505256371981e+00
 1.583813542969390e+00	 1.201919225318573e+00	 3.045697383960178e+00
 1.572074165670134e+00	 1.217233713217009e+00	 3.187787712640376e+00
 1.560179372760274e+00	 1.232442851343566e+00	 3.303661752458811e+00
 1.548130586220875e+00	 1.247544283578577e+00	 3.389129165487810e+00
 1.535929275055025e+00	 1.262535679068910e+00	 3.439943893166081e+00
 1.523576954719528e+00	 1.277414733401964e+00	 3.451825726086021e+00
 1.511075186521768e+00	 1.292179169764523e+00	 3.420483242778233e+00
 1.498425576982225e+00	 1.306826740085268e+00	 3.341638031707931e+00
 1.485629777163158e+00	 1.321355226159749e+00	 3.211050098621040e+00
 1.472689481964054e+00	 1.335762440756658e+00	 3.023671525936837e+00
 1.602475892925860e+00	 1.191767012504980e+00	 2.906547253350604e+00
 1.590841906535989e+00	 1.207252886803293e+00	 3.049829372284025e+00
 1.579050434334744e+00	 1.222635334588108e+00	 3.171529516445759e+00
 1.567102856847306e+00	 1.237911965098715e+00	 3.267972435548929e+00
 1.555000602364956e+00	 1.253080411759889e+00	 3.335537322634939e+00
 1.542745146409667e+00	 1.268138333375069e+00	 3.370677970764614e+00
 1.530338011163272e+00	 1.283083415305555e+00	 3.369944236828322e+00
 1.517780764861653e+00	 1.297913370634511e+00	 3.330004737861149e+00
 1.505075021154423e+00	 1.312625941314540e+00	 3.247670692885392e+00
 1.492222438430636e+00	 1.327218899297652e+00	 3.119920811201311e+00
 1.479224719111105e+00	 1.341690047646450e+00	 2.943866773409462e+00
 1.609555655619353e+00	 1.197032257163728e+00	 2.925540697902583e+00
 1.597870270102277e+00	 1.212586548288325e+00	 3.045564112915022e+00
 1.586026702999048e+00	 1.228036955959495e+00	 3.145558250640913e+00
 1.574026340934035e+00	 1.243381078854122e+00	 3.222252061312304e+00
 1.561870618508737e+00	 1.258616539941428e+00	 3.272534776474636e+00
 1.549561017764014e+00	 1.273740987681423e+00	 3.293476084941867e+00
 1.537099067606728e+00	 1.288752097209307e+00	 3.282347516288855e+00
 1.524486343201255e+00	 1.303647571504623e+00	 3.236644956226020e+00
 1.511724465326346e+00	 1.318425142543899e+00	 3.154112205731789e+00
 1.498815099697849e+00	 1.333082572435607e+00	 3.032765483614611e+00
 1.485759956257906e+00	 1.347617654536259e+00	 2.870918760338010e+00
 1.616635418312479e+00	 1.202297501822644e+00	 2.940531218632836e+00
 1.604898633668189e+00	 1.217920209773513e+00	 3.036015724174634e+00
 1.593002971662969e+00	 1.233438577331024e+00	 3.113768900310737e+00
 1.580949825020376e+00	 1.248850192609657e+00	 3.170889479450286e+00
 1.568740634652129e+00	 1.264152668123079e+00	 3.204718070388408e+00
 1.556376889117973e+00	 1.279343641987868e+00	 3.212857343497555e+00
 1.543860124049799e+00	 1.294420779113129e+00	 3.193193359430469e+00
 1.531191921540481e+00	 1.309381772374784e+00	 3.143917964761116e+00
 1.518373909497903e+00	 1.324224343773282e+00	 3.063552165337596e+00
 1.505407760964712e+00	 1.338946245573559e+00	 2.950970375737491e+00
 1.492295193404373e+00	 1.353545261426035e+00	 2.805425431202652e+00
 1.623715181005190e+00	 1.207562746481559e+00	 2.953542689581249e+00
 1.611926997233663e+00	 1.223253871258701e+00	 3.024257753470742e+00
 1.599979240326434e+00	 1.238840198702553e+00	 3.080002115663744e+00
 1.587873309106248e+00	 1.254319306365189e+00	 3.118210483563367e+00
 1.575610650795045e+00	 1.269688796304723e+00	 3.136616999574025e+00
 1.563192760471453e+00	 1.284946296294302e+00	 3.133275425556737e+00
 1.550621180492393e+00	 1.300089461016934e+00	 3.106580442140704e+00
 1.537897499879237e+00	 1.315115973244915e+00	 3.055289985520706e+00
 1.525023353669004e+00	 1.330023545002623e+00	 2.978548531457955e+00
 1.512000422231134e+00	 1.344809918711451e+00	 2.875911223560828e+00
 1.498830430550423e+00	 1.359472868315728e+00	 2.747368730656067e+00
 1.630794943697434e+00	 1.212827991140307e+00	 2.966577275072444e+00
 1.618955360798635e+00	 1.228587532743732e+00	 3.013323620680715e+00
 1.606955508989369e+00	 1.244241820073938e+00	 3.048044945642279e+00
 1.594796793191571e+00	 1.259788420120589e+00	 3.068478726916061e+00
 1.582480666937397e+00	 1.275224924486247e+00	 3.072695601207436e+00
 1.570008631824363e+00	 1.290548950600624e+00	 3.059119538767066e+00
 1.557382236934418e+00	 1.305758142920632e+00	 3.026549138579606e+00
 1.544603078217432e+00	 1.320850174114942e+00	 2.974179966896659e+00
 1.531672797839558e+00	 1.335822746231854e+00	 2.901627847819697e+00
 1.518593083497030e+00	 1.350673591849224e+00	 2.808953001662973e+00
 1.505365667695974e+00	 1.365400475205287e+00	 2.696684914230118e+00
 1.637874706389165e+00	 1.218093235798722e+00	 2.981615454955278e+00
 1.625983724363042e+00	 1.233921194228452e+00	 3.006207031455891e+00
 1.613931777651700e+00	 1.249643441445034e+00	 3.021631533810992e+00
 1.601720277276259e+00	 1.265257533875727e+00	 3.025896595656245e+00
 1.589350683079096e+00	 1.280761052667533e+00	 3.017353100046707e+00
 1.576824503176610e+00	 1.296151604906731e+00	 2.994715332726785e+00
 1.564143293375780e+00	 1.311426824824133e+00	 2.957082298336037e+00
 1.551308656554971e+00	 1.326584374984788e+00	 2.903960120950678e+00
 1.538322242009472e+00	 1.341621947460913e+00	 2.835285436699315e+00
 1.525185744762312e+00	 1.356537264986825e+00	 2.751449672803405e+00
 1.511900904840941e+00	 1.371328082094663e+00	 2.653324094389432e+00
 1.644954469080330e+00	 1.223358480456637e+00	 3.000616030823088e+00
 1.633012087926821e+00	 1.239254855712704e+00	 3.005862361353892e+00
 1.620908046313353e+00	 1.255045062815700e+00	 3.004443777660303e+00
 1.608643761360232e+00	 1.270726647630473e+00	 2.994606040771114e+00
 1.596220699220055e+00	 1.286297180848464e+00	 2.974924810820769e+00
 1.583640374528104e+00	 1.301754259212521e+00	 2.944325769962647e+00
 1.570904349816387e+00	 1.317095506727351e+00	 2.902105984603808e+00
 1.558014234891763e+00	 1.332318575854376e+00	 2.847956427927360e+00
 1.544971686178657e+00	 1.347421148689733e+00	 2.781985569517480e+00
 1.531778406026890e+00	 1.362400938124194e+00	 2.704743925025572e+00
 1.518436141985242e+00	 1.377255688983805e+00	 2.617249445327365e+00
 1.652034231770882e+00	 1.228623725113884e+00	 3.025516113785483e+00
 1.640040451489909e+00	 1.244588517196332e+00	 3.015205011674195e+00
 1.627884314974253e+00	 1.260446684185791e+00	 3.000111952422766e+00
 1.615567245443407e+00	 1.276195761384695e+00	 2.978689370017953e+00
 1.603090715360185e+00	 1.291833309028926e+00	 2.949682998699872e+00
 1.590456245878753e+00	 1.307356913517891e+00	 2.912151955731627e+00
 1.577665406256145e+00	 1.322764188630196e+00	 2.865490174547631e+00
 1.564719813227715e+00	 1.338052776723630e+00	 2.809449108933113e+00
 1.551621130347021e+00	 1.353220349918248e+00	 2.744161614170276e+00
 1.538371067290680e+00	 1.368264611261278e+00	 2.670166896644290e+00
 1.524971379128793e+00	 1.383183295872664e+00	 2.588436409351944e+00
 1.459619007669536e+00	 1.323907226977324e+00	 3.204165724750425e+00
 1.446654282552467e+00	 1.338061850794431e+00	 2.965536359707166e+00
 1.433549855706123e+00	 1.352092105920942e+00	 2.721221304342379e+00
 1.420307508804248e+00	 1.365995947141896e+00	 2.476574416091627e+00
 1.406929063831782e+00	 1.379771364094519e+00	 2.237687570633531e+00
 1.393416382243579e+00	 1.393416382243579e+00	 2.011373006178741e+00
 1.379771364094519e+00	 1.406929063831782e+00	 1.805142810454078e+00
 1.365995947141896e+00	 1.420307508804248e+00	 1.627185636361995e+00
 1.352092105920941e+00	 1.433549855706123e+00	 1.486340748017584e+00
 1.338061850794431e+00	 1.446654282552468e+00	 1.392069514026122e+00
 1.323907226977324e+00	 1.459619007669536e+00	 1.354424479361888e+00
 1.466154244816837e+00	 1.329834833866933e+00	 3.110350907072529e+00
 1.453131471981090e+00	 1.344052833005293e+00	 2.884321354978821e+00
 1.439968371921361e+00	 1.358145906609932e+00	 2.667877651006179e+00
 1.426666734288595e+00	 1.372112000308721e+00	 2.464426578591623e+00
 1.413228389225423e+00	 1.385949094737759e+00	 2.277948788213368e+00
 1.399655206521105e+00	 1.399655206521105e+00	 2.112983889372463e+00
 1.385949094737759e+00	 1.413228389225422e+00	 1.974612856668325e+00
 1.372112000308721e+00	 1.426666734288596e+00	 1.868437832580105e+00
 1.358145906609932e+00	 1.439968371921361e+00	 1.800559425247730e+00
 1.344052833005293e+00	 1.453131471981090e+00	 1.777551614667097e+00
 1.329834833866932e+00	 1.466154244816837e+00	 1.806434395169605e+00
 1.472689481964054e+00	 1.335762440756658e+00	 3.023671525936837e+00
 1.459608661409634e+00	 1.350043815216231e+00	 2.815604446142688e+00
 1.446386888136528e+00	 1.364199707298964e+00	 2.629199225771472e+00
 1.433025959772882e+00	 1.378228053475556e+00	 2.466171768052271e+00
 1.419527714619014e+00	 1.392126825380985e+00	 2.328669349483242e+00
 1.405894030798598e+00	 1.405894030798598e+00	 2.219258066662187e+00
 1.392126825380985e+00	 1.419527714619015e+00	 2.140907736727710e+00
 1.378228053475556e+00	 1.433025959772882e+00	 2.096974331382490e+00
 1.364199707298963e+00	 1.446386888136529e+00	 2.091180040182007e+00
 1.350043815216230e+00	 1.459608661409634e+00	 2.127591073920153e+00
 1.335762440756657e+00	 1.472689481964054e+00	 2.210593333422759e+00
 1.479224719111105e+00	 1.341690047646450e+00	 2.943866773409462e+00
 1.466085850838023e+00	 1.356034797427197e+00	 2.757581264994222e+00
 1.452805404351552e+00	 1.370253507987989e+00	 2.602093495057602e+00
 1.439385185257041e+00	 1.384344106642355e+00	 2.477680822959633e+00
 1.425827040012498e+00	 1.398304556024148e+00	 2.384930961124845e+00
 1.412132855076003e+00	 1.412132855076003e+00	 2.324731386856802e+00
 1.398304556024148e+00	 1.425827040012498e+00	 2.298256315562909e+00
 1.384344106642355e+00	 1.439385185257041e+00	 2.306951313444679e+00
 1.370253507987989e+00	 1.452805404351553e+00	 2.352515643520206e+00
 1.356034797427197e+00	 1.466085850838023e+00	 2.436882454088742e+00
 1.341690047646450e+00	 1.479224719111105e+00	 2.562196933315945e+00
 1.485759956257906e+00	 1.347617654536259e+00	 2.870918760338010e+00
 1.472563040266178e+00	 1.362025779638146e+00	 2.708493220639392e+00
 1.459223920566363e+00	 1.376307308676963e+00	 2.583536507435378e+00
 1.445744410741009e+00	 1.390460159809072e+00	 2.494911463320198e+00
 1.432126365405813e+00	 1.404482286667198e+00	 2.441916076719378e+00
 1.418371679353267e+00	 1.418371679353267e+00	 2.424049952061277e+00
 1.404482286667198e+00	 1.432126365405813e+00	 2.441002937287078e+00
 1.390460159809072e+00	 1.445744410741010e+00	 2.492641465873887e+00
 1.376307308676963e+00	 1.459223920566363e+00	 2.578992706210935e+00
 1.362025779638146e+00	 1.472563040266179e+00	 2.700226626574803e+00
 1.347617654536259e+00	 1.485759956257906e+00	 2.856780829298575e+00
 1.492295193404373e+00	 1.353545261426035e+00	 2.805425431202652e+00
 1.479040229694022e+00	 1.368016761849031e+00	 2.666627564138388e+00
 1.465642436780887e+00	 1.382361109365842e+00	 2.570572459859337e+00
 1.452103636224718e+00	 1.396576212975658e+00	 2.513907455363728e+00
 1.438425690798901e+00	 1.410660017310085e+00	 2.494906755246382e+00
 1.424610503630336e+00	 1.424610503630336e+00	 2.511968763668064e+00
 1.410660017310085e+00	 1.438425690798901e+00	 2.563605950676737e+00
 1.396576212975658e+00	 1.452103636224718e+00	 2.648432477406869e+00
 1.382361109365842e+00	 1.465642436780888e+00	 2.765149672756216e+00
 1.368016761849031e+00	 1.479040229694022e+00	 2.912529469775606e+00
 1.353545261426034e+00	 1.492295193404373e+00	 3.090403990677968e+00
 1.498830430550423e+00	 1.359472868315728e+00	 2.747368730656067e+00
 1.485517419121476e+00	 1.374007744059806e+00	 2.630543237235959e+00
 1.472060952995053e+00	 1.388414910054578e+00	 2.560313294300824e+00
 1.458462861708104e+00	 1.402692266142069e+00	 2.530797817126138e+00
 1.444725016191701e+00	 1.416837747952759e+00	 2.539283568431751e+00
 1.430849327907154e+00	 1.430849327907154e+00	 2.583350422699511e+00
 1.416837747952760e+00	 1.444725016191701e+00	 2.660636292082640e+00
 1.402692266142068e+00	 1.458462861708104e+00	 2.768825591740393e+00
 1.388414910054578e+00	 1.472060952995054e+00	 2.905635571023376e+00
 1.374007744059805e+00	 1.485517419121477e+00	 3.068971552962655e+00
 1.359472868315728e+00	 1.498830430550423e+00	 3.258855794528990e+00
 1.505365667695974e+00	 1.365400475205287e+00	 2.696684914230118e+00
 1.491994608548464e+00	 1.379998726270423e+00	 2.599526592702352e+00
 1.478479469208790e+00	 1.394468710743127e+00	 2.549938323854606e+00
 1.464822087191101e+00	 1.408808319308257e+00	 2.541796063666815e+00
 1.451024341584154e+00	 1.423015478595172e+00	 2.570524555457164e+00
 1.437088152183668e+00	 1.437088152183668e+00	 2.633163882846229e+00
 1.423015478595172e+00	 1.451024341584154e+00	 2.726776124022022e+00
 1.408808319308256e+00	 1.464822087191101e+00	 2.848434217224393e+00
 1.394468710743127e+00	 1.478479469208790e+00	 2.995208676843576e+00
 1.379998726270422e+00	 1.491994608548465e+00	 3.165382351481802e+00
 1.365400475205287e+00	 1.505365667695974e+00	 3.357970127242331e+00
 1.511900904840941e+00	 1.371328082094663e+00	 2.653324094389431e+00
 1.498471797974906e+00	 1.385989708480836e+00	 2.572192913970136e+00
 1.484897985422025e+00	 1.400522511431443e+00	 2.536871572260077e+00
 1.471181312673642e+00	 1.414924372474174e+00	 2.543199490717593e+00
 1.457323666976201e+00	 1.429193209237272e+00	 2.584204223594382e+00
 1.443326976459824e+00	 1.443326976459824e+00	 2.656483254603514e+00
 1.429193209237272e+00	 1.457323666976200e+00	 2.756817527763981e+00
 1.414924372474174e+00	 1.471181312673642e+00	 2.881982591208977e+00
 1.400522511431443e+00	 1.484897985422025e+00	 3.028883344690976e+00
 1.385989708480836e+00	 1.498471797974906e+00	 3.197183072741284e+00
 1.371328082094663e+00	 1.511900904840942e+00	 3.383660133818966e+00
 1.518436141985242e+00	 1.377255688983805e+00	 2.617249445327365e+00
 1.504948987400725e+00	 1.391980690691000e+00	 2.547114699442965e+00
 1.491316501634686e+00	 1.406576312119480e+00	 2.519406009265048e+00
 1.477540538155662e+00	 1.421040425639775e+00	 2.531388495602120e+00
 1.463622992367781e+00	 1.435370939879010e+00	 2.575992593377363e+00
 1.449565800735567e+00	 1.449565800735567e+00	 2.648486658962866e+00
 1.435370939879009e+00	 1.463622992367781e+00	 2.745661248277845e+00
 1.421040425639776e+00	 1.477540538155663e+00	 2.864304497395235e+00
 1.406576312119480e+00	 1.491316501634687e+00	 3.002467600506680e+00
 1.391980690690999e+00	 1.504948987400726e+00	 3.159822519460295e+00
 1.377255688983805e+00	 1.518436141985242e+00	 3.331916126273746e+00
 1.524971379128793e+00	 1.383183295872664e+00	 2.588436409351944e+00
 1.511426176825844e+00	 1.397971672900867e+00	 2.522900766307036e+00
 1.497735017846702e+00	 1.412630112807195e+00	 2.495145812923699e+00
 1.483899763637098e+00	 1.427156478805014e+00	 2.502921292906778e+00
 1.469922317758837e+00	 1.441548670520337e+00	 2.541654286972506e+00
 1.455804625010844e+00	 1.455804625010844e+00	 2.604455129168494e+00
 1.441548670520337e+00	 1.469922317758837e+00	 2.688315489970178e+00
 1.427156478805014e+00	 1.483899763637098e+00	 2.790426270770682e+00
 1.412630112807194e+00	 1.497735017846702e+00	 2.911268577017824e+00
 1.397971672900867e+00	 1.511426176825845e+00	 3.048833985710047e+00
 1.383183295872664e+00	 1.524971379128793e+00	 3.198803533191923e+00
 1.323907226977324e+00	 1.459619007669536e+00	 1.354424479361888e+00
 1.309627879884325e+00	 1.472444454627764e+00	 1.358588385986059e+00
 1.295228337627253e+00	 1.485126688637369e+00	 1.382386550197118e+00
 1.280710768025226e+00	 1.497664029841519e+00	 1.425077273435440e+00
 1.266077369595616e+00	 1.510054841831538e+00	 1.484426693473378e+00
 1.251330370457585e+00	 1.522297532345218e+00	 1.557667782664244e+00
 1.236472027217101e+00	 1.534390553932163e+00	 1.641788763694746e+00
 1.221504623834565e+00	 1.546332404585624e+00	 1.733539693667965e+00
 1.206430470476243e+00	 1.558121628340281e+00	 1.829439803417860e+00
 1.191251902350694e+00	 1.569756815835506e+00	 1.925785544988175e+00
 1.175971278531404e+00	 1.581236604843679e+00	 2.018659295974478e+00
 1.329834833866932e+00	 1.466154244816837e+00	 1.806434395169605e+00
 1.315491553021954e+00	 1.479037115895505e+00	 1.866330515514509e+00
 1.301027538856151e+00	 1.491776132809843e+00	 1.931834228217514e+00
 1.286444968894736e+00	 1.504369608181692e+00	 2.002697966592396e+00
 1.271746051498621e+00	 1.516815898275585e+00	 2.077217415710723e+00
 1.256933024763049e+00	 1.529113403700177e+00	 2.153451737541334e+00
 1.242008155397609e+00	 1.541260570076581e+00	 2.229253516034813e+00
 1.226973737588806e+00	 1.553255888673018e+00	 2.302273997810693e+00
 1.211832091846339e+00	 1.565097897005287e+00	 2.369969062935875e+00
 1.196585563834322e+00	 1.576785179402540e+00	 2.429605879834636e+00
 1.181236523188651e+00	 1.588316367537974e+00	 2.478270194072245e+00
 1.335762440756657e+00	 1.472689481964054e+00	 2.210593333422759e+00
 1.321355226159749e+00	 1.485629777163158e+00	 2.314743413395163e+00
 1.306826740085268e+00	 1.498425576982224e+00	 2.412699776689275e+00
 1.292179169764524e+00	 1.511075186521768e+00	 2.504132885937505e+00
 1.277414733401964e+00	 1.523576954719527e+00	 2.588037559298149e+00
 1.262535679068911e+00	 1.535929275055025e+00	 2.663236144375629e+00
 1.247544283578578e+00	 1.548130586220875e+00	 2.728381777450525e+00
 1.232442851343567e+00	 1.560179372760274e+00	 2.781962388762455e+00
 1.217233713217009e+00	 1.572074165670134e+00	 2.822305413547656e+00
 1.201919225318574e+00	 1.583813542969390e+00	 2.847583163758946e+00
 1.186501767846565e+00	 1.595396130232050e+00	 2.855818811030439e+00
 1.341690047646450e+00	 1.479224719111105e+00	 2.562196933315945e+00
 1.327218899297653e+00	 1.492222438430635e+00	 2.700232472286306e+00
 1.312625941314540e+00	 1.505075021154422e+00	 2.821873063945468e+00
 1.297913370634512e+00	 1.517780764861653e+00	 2.926950207325538e+00
 1.283083415305556e+00	 1.530338011163272e+00	 3.015122314177629e+00
 1.268138333375069e+00	 1.542745146409667e+00	 3.085912991560186e+00
 1.253080411759890e+00	 1.555000602364956e+00	 3.138713197225558e+00
 1.237911965098716e+00	 1.567102856847306e+00	 3.172784116799796e+00
 1.222635334588109e+00	 1.579050434334744e+00	 3.187260723201832e+00
 1.207252886803294e+00	 1.590841906535989e+00	 3.181155973896631e+00
 1.191767012504980e+00	 1.602475892925860e+00	 3.153365597142220e+00
 1.347617654536259e+00	 1.485759956257906e+00	 2.856780829298575e+00
 1.333082572435608e+00	 1.498815099697849e+00	 3.019097948881705e+00
 1.318425142543900e+00	 1.511724465326345e+00	 3.156307338151533e+00
 1.303647571504624e+00	 1.524486343201255e+00	 3.268769518054980e+00
 1.288752097209308e+00	 1.537099067606727e+00	 3.356746535761647e+00
 1.273740987681423e+00	 1.549561017764014e+00	 3.420402389486720e+00
 1.258616539941429e+00	 1.561870618508737e+00	 3.459804185608457e+00
 1.243381078854123e+00	 1.574026340934034e+00	 3.474923994374753e+00
 1.228036955959496e+00	 1.586026702999048e+00	 3.465641365172240e+00
 1.212586548288326e+00	 1.597870270102276e+00	 3.431746457399460e+00
 1.197032257163729e+00	 1.609555655619353e+00	 3.372943738478285e+00
 1.353545261426034e+00	 1.492295193404373e+00	 3.090403990677968e+00
 1.338946245573560e+00	 1.505407760964711e+00	 3.267688221404724e+00
 1.324224343773282e+00	 1.518373909497903e+00	 3.413017505652084e+00
 1.309381772374785e+00	 1.531191921540480e+00	 3.527260362245764e+00
 1.294420779113130e+00	 1.543860124049798e+00	 3.611223553331646e+00
 1.279343641987868e+00	 1.556376889117973e+00	 3.665651638367297e+00
 1.264152668123079e+00	 1.568740634652129e+00	 3.691227237873809e+00
 1.248850192609658e+00	 1.580949825020375e+00	 3.688571973645735e+00
 1.233438577331025e+00	 1.593002971662969e+00	 3.658248046703010e+00
 1.217920209773513e+00	 1.604898633668188e+00	 3.600760409253132e+00
 1.202297501822644e+00	 1.616635418312479e+00	 3.516559482349268e+00
 1.359472868315728e+00	 1.498830430550423e+00	 3.258855794528990e+00
 1.344809918711451e+00	 1.512000422231134e+00	 3.442423311615058e+00
 1.330023545002623e+00	 1.525023353669003e+00	 3.589078441664743e+00
 1.315115973244917e+00	 1.537897499879237e+00	 3.700140811671876e+00
 1.300089461016935e+00	 1.550621180492393e+00	 3.776903997114316e+00
 1.284946296294302e+00	 1.563192760471453e+00	 3.820634308060972e+00
 1.269688796304724e+00	 1.575610650795045e+00	 3.832570263808469e+00
 1.254319306365190e+00	 1.587873309106248e+00	 3.813922722935568e+00
 1.238840198702554e+00	 1.599979240326434e+00	 3.765875630153651e+00
 1.223253871258701e+00	 1.611926997233662e+00	 3.689587336227734e+00
 1.207562746481559e+00	 1.623715181005190e+00	 3.586192442582123e+00
 1.365400475205287e+00	 1.505365667695974e+00	 3.357970127242331e+00
 1.350673591849225e+00	 1.518593083497030e+00	 3.539792969237052e+00
 1.335822746231855e+00	 1.531672797839557e+00	 3.681623332338254e+00
 1.320850174114943e+00	 1.544603078217431e+00	 3.785176061275612e+00
 1.305758142920632e+00	 1.557382236934418e+00	 3.852174643468314e+00
 1.290548950600625e+00	 1.570008631824362e+00	 3.884349329540731e+00
 1.275224924486247e+00	 1.582480666937396e+00	 3.883435922458119e+00
 1.259788420120590e+00	 1.594796793191570e+00	 3.851175202149355e+00
 1.244241820073938e+00	 1.606955508989369e+00	 3.789312946872291e+00
 1.228587532743733e+00	 1.618955360798634e+00	 3.699600507382415e+00
 1.212827991140307e+00	 1.630794943697435e+00	 3.583795885224105e+00
 1.371328082094663e+00	 1.511900904840942e+00	 3.383660133818966e+00
 1.356537264986826e+00	 1.525185744762312e+00	 3.556354793402760e+00
 1.341621947460914e+00	 1.538322242009472e+00	 3.687842047226299e+00
 1.326584374984789e+00	 1.551308656554971e+00	 3.780177048616868e+00
 1.311426824824134e+00	 1.564143293375780e+00	 3.835457277633894e+00
 1.296151604906731e+00	 1.576824503176609e+00	 3.855820097648756e+00
 1.280761052667533e+00	 1.589350683079095e+00	 3.843440961975243e+00
 1.265257533875728e+00	 1.601720277276258e+00	 3.800532237183912e+00
 1.249643441445035e+00	 1.613931777651700e+00	 3.729342604017165e+00
 1.233921194228453e+00	 1.625983724363042e+00	 3.632156991531286e+00
 1.218093235798723e+00	 1.637874706389165e+00	 3.511296995266572e+00
 1.377255688983805e+00	 1.518436141985242e+00	 3.331916126273746e+00
 1.362400938124195e+00	 1.531778406026890e+00	 3.488732389994969e+00
 1.347421148689733e+00	 1.544971686178656e+00	 3.604979541260867e+00
 1.332318575854376e+00	 1.558014234891763e+00	 3.682999096536789e+00
 1.317095506727351e+00	 1.570904349816386e+00	 3.725207573516335e+00
 1.301754259212522e+00	 1.583640374528103e+00	 3.734093584800256e+00
 1.286297180848465e+00	 1.596220699220054e+00	 3.712215564415004e+00
 1.270726647630473e+00	 1.608643761360231e+00	 3.662200093359204e+00
 1.255045062815701e+00	 1.620908046313352e+00	 3.586740784538941e+00
 1.239254855712705e+00	 1.633012087926821e+00	 3.488597682063463e+00
 1.223358480456637e+00	 1.644954469080331e+00	 3.370597124960591e+00
 1.383183295872664e+00	 1.524971379128793e+00	 3.198803533191922e+00
 1.368264611261278e+00	 1.538371067290679e+00	 3.333613563813498e+00
 1.353220349918248e+00	 1.551621130347021e+00	 3.430334285340730e+00
 1.338052776723630e+00	 1.564719813227714e+00	 3.491540578339548e+00
 1.322764188630196e+00	 1.577665406256143e+00	 3.519913989992662e+00
 1.307356913517892e+00	 1.590456245878752e+00	 3.518239465307460e+00
 1.291833309028926e+00	 1.603090715360185e+00	 3.489402695330800e+00
 1.276195761384695e+00	 1.615567245443407e+00	 3.436388047901473e+00
 1.260446684185792e+00	 1.627884314974253e+00	 3.362277040529298e+00
 1.244588517196333e+00	 1.640040451489909e+00	 3.270247309496709e+00
 1.228623725113884e+00	 1.652034231770882e+00	 3.163572024276589e+00
 1.175971278531404e+00	 1.581236604843679e+00	 2.018659295974478e+00
 1.160593602018781e+00	 1.592557770515995e+00	 2.109032516008785e+00
 1.145118678784137e+00	 1.603721016929166e+00	 2.198859231845980e+00
 1.129548922467025e+00	 1.614725133077867e+00	 2.285509292114326e+00
 1.113886765794420e+00	 1.625568956772238e+00	 2.366376637207584e+00
 1.098134659358124e+00	 1.636251374984289e+00	 2.441465984067745e+00
 1.082295070385766e+00	 1.646771324157903e+00	 2.513155936707464e+00
 1.066370481506642e+00	 1.657127790482339e+00	 2.579035525594780e+00
 1.050363389513654e+00	 1.667319810129223e+00	 2.636574946664331e+00
 1.034276304122573e+00	 1.677346469452999e+00	 2.683248242775954e+00
 1.018111746729887e+00	 1.687206905154955e+00	 2.716536383516890e+00
 1.181236523188651e+00	 1.588316367537974e+00	 2.478270194072244e+00
 1.165789995309951e+00	 1.599688222123976e+00	 2.519339317471198e+00
 1.150245785300797e+00	 1.610901450389679e+00	 2.557221151974856e+00
 1.134606317607475e+00	 1.621954835907669e+00	 2.590445688874098e+00
 1.118874035849151e+00	 1.632847211284564e+00	 2.617614725975852e+00
 1.103051401589804e+00	 1.643577458508968e+00	 2.638366531536588e+00
 1.087140893103727e+00	 1.654144509262857e+00	 2.657022822547834e+00
 1.071145004135839e+00	 1.664547345196320e+00	 2.673273469398512e+00
 1.055066242658079e+00	 1.674784998165586e+00	 2.685950819656523e+00
 1.038907129623117e+00	 1.684856550434408e+00	 2.693929568906308e+00
 1.022670197716636e+00	 1.694761134838787e+00	 2.696127499255178e+00
 1.186501767846565e+00	 1.595396130232050e+00	 2.855818811030438e+00
 1.170986388601823e+00	 1.606818673731701e+00	 2.852793545700241e+00
 1.155372891818188e+00	 1.618081883849891e+00	 2.845256085016459e+00
 1.139663712748673e+00	 1.629184538737122e+00	 2.832653201536301e+00
 1.123861305904635e+00	 1.640125465796491e+00	 2.814540460849264e+00
 1.107968143822234e+00	 1.650903542033194e+00	 2.790725621945799e+00
 1.091986715822421e+00	 1.661517694367308e+00	 2.765741411272006e+00
 1.075919526765740e+00	 1.671966899909743e+00	 2.741754558810738e+00
 1.059769095803165e+00	 1.682250186201348e+00	 2.718667821322086e+00
 1.043537955124264e+00	 1.692366631415169e+00	 2.696456378412763e+00
 1.027228648703915e+00	 1.702315364521934e+00	 2.675166691524271e+00
 1.191767012504980e+00	 1.602475892925860e+00	 3.153365597142220e+00
 1.176182781894224e+00	 1.613949125339137e+00	 3.112003947043267e+00
 1.160499998336127e+00	 1.625262317309789e+00	 3.065980492068614e+00
 1.144721107890431e+00	 1.636414241566234e+00	 3.015418854114547e+00
 1.128848575960686e+00	 1.647403720308046e+00	 2.960577797324168e+00
 1.112884886055225e+00	 1.658229625557020e+00	 2.901853320086970e+00
 1.096832538541665e+00	 1.668890879471328e+00	 2.842549087268330e+00
 1.080694049396169e+00	 1.679386454622708e+00	 2.787477412632037e+00
 1.064471948948746e+00	 1.689715374236622e+00	 2.737367078805596e+00
 1.048168780625862e+00	 1.699876712395418e+00	 2.692997596779925e+00
 1.031787099691592e+00	 1.709869594204547e+00	 2.655240064349098e+00
 1.197032257163729e+00	 1.609555655619353e+00	 3.372943738478285e+00
 1.181379175186976e+00	 1.621079576946250e+00	 3.299542478179665e+00
 1.165627104854430e+00	 1.632442750769358e+00	 3.222367005014646e+00
 1.149778503032564e+00	 1.643643944395009e+00	 3.141981225528042e+00
 1.133835846017113e+00	 1.654681974819259e+00	 3.059099989678608e+00
 1.117801628288591e+00	 1.665555709080496e+00	 2.974590684138579e+00
 1.101678361261276e+00	 1.676264064574992e+00	 2.890632476535222e+00
 1.085468572026949e+00	 1.686806009335308e+00	 2.813393761414618e+00
 1.069174802094657e+00	 1.697180562271523e+00	 2.744648770326735e+00
 1.052799606127762e+00	 1.707386793375290e+00	 2.685689140130022e+00
 1.036345550679533e+00	 1.717423823886777e+00	 2.637910582012600e+00
 1.202297501822644e+00	 1.616635418312479e+00	 3.516559482349268e+00
 1.186575568479903e+00	 1.628210028553008e+00	 3.417944851216318e+00
 1.170754211372916e+00	 1.639623184228585e+00	 3.317345137429068e+00
 1.154835898174882e+00	 1.650873647223456e+00	 3.215531273817182e+00
 1.138823116073729e+00	 1.661960229330158e+00	 3.113430477355283e+00
 1.122718370522145e+00	 1.672881792603671e+00	 3.012127764745213e+00
 1.106524183981069e+00	 1.683637249678369e+00	 2.913128977165528e+00
 1.090243094657904e+00	 1.694225564047637e+00	 2.822409882608968e+00
 1.073877655240733e+00	 1.704645750306169e+00	 2.743073419215868e+00
 1.057430431629813e+00	 1.714896874354918e+00	 2.676635023914066e+00
 1.040904001667607e+00	 1.724978053568774e+00	 2.624718949737447e+00
 1.207562746481559e+00	 1.623715181005190e+00	 3.586192442582123e+00
 1.191771961772830e+00	 1.635340480159378e+00	 3.469711053019590e+00
 1.175881317891401e+00	 1.646803617687454e+00	 3.353801965558219e+00
 1.159893293317201e+00	 1.658103350051580e+00	 3.239213127653788e+00
 1.143810386130344e+00	 1.669238483840769e+00	 3.126843737204148e+00
 1.127635112755698e+00	 1.680207876126599e+00	 3.017746098633817e+00
 1.111370006700863e+00	 1.691010434781535e+00	 2.913127424645862e+00
 1.095017617288860e+00	 1.701645118759792e+00	 2.817388004971837e+00
 1.078580508386809e+00	 1.712110938340675e+00	 2.735163160780121e+00
 1.062061257131863e+00	 1.722406955334436e+00	 2.667908449155845e+00
 1.045462452655680e+00	 1.732532283250688e+00	 2.617184477754668e+00
 1.212827991140307e+00	 1.630794943697435e+00	 3.583795885224105e+00
 1.196968355065582e+00	 1.642470931765327e+00	 3.457305839566654e+00
 1.181008424409705e+00	 1.653984051145953e+00	 3.334582780285380e+00
 1.164950688459333e+00	 1.665333052879389e+00	 3.216124846139810e+00
 1.148797656186772e+00	 1.676516738351124e+00	 3.102566102621926e+00
 1.132551854989065e+00	 1.687533959649328e+00	 2.994679154057138e+00
 1.116215829420473e+00	 1.698383619884563e+00	 2.893377724562100e+00
 1.099792139919641e+00	 1.709064673471866e+00	 2.801147683170351e+00
 1.083283361532721e+00	 1.719576126375154e+00	 2.723402982826405e+00
 1.066692082633763e+00	 1.729917036313978e+00	 2.661552866931240e+00
 1.050020903643622e+00	 1.740086512932670e+00	 2.616805929264788e+00
 1.218093235798723e+00	 1.637874706389165e+00	 3.511296995266572e+00
 1.202164748357982e+00	 1.649601383370821e+00	 3.383159206072313e+00
 1.186135530927644e+00	 1.661164484604067e+00	 3.262491710958180e+00
 1.170008083601092e+00	 1.672562755706888e+00	 3.149319147854153e+00
 1.153784926242822e+00	 1.683794992861249e+00	 3.043776550590259e+00
 1.137468597222056e+00	 1.694860043171911e+00	 2.946113129880108e+00
 1.121061652139717e+00	 1.705756804987527e+00	 2.856696057656680e+00
 1.104566662550069e+00	 1.716484228183955e+00	 2.776467143484661e+00
 1.087986214678302e+00	 1.727041314409724e+00	 2.710241940638871e+00
 1.071322908135362e+00	 1.737427117293679e+00	 2.659583021742161e+00
 1.054579354631298e+00	 1.747640742614871e+00	 2.625062352779204e+00
 1.223358480456637e+00	 1.644954469080331e+00	 3.370597124960591e+00
 1.207361141649855e+00	 1.656731834975827e+00	 3.249666833621009e+00
 1.191262637445034e+00	 1.668344918061780e+00	 3.140292321926229e+00
 1.175065478742290e+00	 1.679792458534084e+00	 3.041804110074007e+00
 1.158772196298307e+00	 1.691073247371174e+00	 2.953607457579653e+00
 1.142385339454486e+00	 1.702186126694397e+00	 2.875187723416385e+00
 1.125907474858412e+00	 1.713129990090498e+00	 2.806115775248650e+00
 1.109341185179970e+00	 1.723903782896154e+00	 2.746084601480428e+00
 1.092689067823388e+00	 1.734506502444499e+00	 2.698094347181062e+00
 1.075953733636509e+00	 1.744937198273673e+00	 2.663985974421426e+00
 1.059137805618578e+00	 1.755194972297440e+00	 2.643413899313026e+00
 1.228623725113884e+00	 1.652034231770882e+00	 3.163572024276589e+00
 1.212557534941026e+00	 1.663862286580313e+00	 3.059190513009003e+00
 1.196389743961696e+00	 1.675525351519081e+00	 2.970708182607582e+00
 1.180122873882741e+00	 1.687022161360984e+00	 2.896543839065474e+00
 1.163759466353039e+00	 1.698351501880926e+00	 2.835145325253078e+00
 1.147302081686166e+00	 1.709512210216838e+00	 2.784996867952496e+00
 1.130753297576374e+00	 1.720503175193551e+00	 2.744626530911793e+00
 1.114115707809168e+00	 1.731323337608557e+00	 2.712613693600460e+00
 1.097391920967814e+00	 1.741971690479595e+00	 2.689340939266649e+00
 1.080584559137054e+00	 1.752447279254095e+00	 2.676722105183205e+00
 1.063696256605328e+00	 1.762749201980530e+00	 2.673302624884361e+00
 1.018111746729887e+00	 1.687206905154955e+00	 2.716536383516890e+00
 1.001872249487630e+00	 1.696900304820150e+00	 2.732823872724484e+00
 9.855603549931854e-01	 1.706425908242760e+00	 2.731809842630275e+00
 9.691786140624503e-01	 1.715783006263096e+00	 2.716002893631713e+00
 9.527295841709187e-01	 1.724970940377081e+00	 2.687972684438517e+00
 9.362158282216873e-01	 1.733989102717897e+00	 2.650344688437444e+00
 9.196399133193149e-01	 1.742836936002513e+00	 2.605794768029432e+00
 9.030044095506687e-01	 1.751513933443456e+00	 2.557043613304498e+00
 8.863118887738816e-01	 1.760019638626248e+00	 2.506851091144044e+00
 8.695649234165100e-01	 1.768353645352981e+00	 2.458010550227509e+00
 8.527660852839681e-01	 1.776515597452493e+00	 2.413343126484027e+00
 1.022670197716636e+00	 1.694761134838787e+00	 2.696127499255178e+00
 1.006357990428024e+00	 1.704497935326324e+00	 2.690208678975518e+00
 9.899730617387850e-01	 1.714066188287475e+00	 2.675440720475463e+00
 9.735179738857336e-01	 1.723465181387379e+00	 2.653203821476528e+00
 9.569952957950972e-01	 1.732694253173586e+00	 2.624908259280840e+00
 9.404076018450096e-01	 1.741752793057634e+00	 2.591990907961518e+00
 9.237574706338777e-01	 1.750640241261321e+00	 2.555911589544883e+00
 9.070474837557683e-01	 1.759356088728095e+00	 2.518149303814961e+00
 8.902802245839454e-01	 1.767899876999938e+00	 2.480198381087557e+00
 8.734582770636449e-01	 1.776271198060234e+00	 2.443564601679540e+00
 8.565842245151780e-01	 1.784469694143108e+00	 2.409761324850305e+00
 1.027228648703915e+00	 1.702315364521934e+00	 2.675166691524271e+00
 1.010843731368860e+00	 1.712095565831782e+00	 2.653093864812753e+00
 9.943857684847284e-01	 1.721706468331452e+00	 2.628778545660061e+00
 9.778573337092549e-01	 1.731147356510909e+00	 2.602692815037478e+00
 9.612610074194082e-01	 1.740417565969336e+00	 2.575313539891063e+00
 9.445993754683630e-01	 1.749516483396619e+00	 2.547120276314750e+00
 9.278750279483776e-01	 1.758443546519395e+00	 2.518593019412870e+00
 9.110905579607256e-01	 1.767198244012031e+00	 2.490209843430867e+00
 8.942485603938056e-01	 1.775780115372968e+00	 2.462444475439773e+00
 8.773516307105402e-01	 1.784188750766886e+00	 2.435763845222701e+00
 8.604023637461388e-01	 1.792423790833194e+00	 2.410625653043940e+00
 1.031787099691592e+00	 1.709869594204547e+00	 2.655240064349098e+00
 1.015329472310029e+00	 1.719693196336689e+00	 2.622472108842739e+00
 9.987984752309287e-01	 1.729346748374865e+00	 2.592307164426237e+00
 9.821966935329554e-01	 1.738829531633867e+00	 2.564526362142630e+00
 9.655267190438198e-01	 1.748140878764512e+00	 2.538895966745885e+00
 9.487911490917418e-01	 1.757280173735038e+00	 2.515166293602079e+00
 9.319925852628353e-01	 1.766246851776917e+00	 2.493070481672692e+00
 9.151336321655836e-01	 1.775040399295439e+00	 2.472323165787964e+00
 8.982168962035247e-01	 1.783660353745502e+00	 2.452619091111042e+00
 8.812449843572712e-01	 1.792106303473086e+00	 2.433631712035465e+00
 8.642205029769344e-01	 1.800377887522883e+00	 2.415011816763974e+00
 1.036345550679533e+00	 1.717423823886777e+00	 2.637910582012600e+00
 1.019815213251417e+00	 1.727290826841209e+00	 2.599322991739085e+00
 1.003211181977301e+00	 1.736987028417887e+00	 2.566505866047125e+00
 9.865360533567764e-01	 1.746511706756435e+00	 2.538763490585984e+00
 9.697924306683005e-01	 1.755864191559300e+00	 2.515371230816679e+00
 9.529829227151404e-01	 1.765043864073076e+00	 2.495575092921738e+00
 9.361101425772709e-01	 1.774050157034071e+00	 2.478591146901405e+00
 9.191767063703854e-01	 1.782882554578494e+00	 2.463604855371917e+00
 9.021852320131646e-01	 1.791540592117707e+00	 2.449770351255510e+00
 8.851383380039127e-01	 1.800023856178985e+00	 2.436209706867512e+00
 8.680386422076478e-01	 1.808331984212308e+00	 2.422012235877325e+00
 1.040904001667607e+00	 1.724978053568774e+00	 2.624718949737447e+00
 1.024300954192917e+00	 1.734888457345504e+00	 2.584613644772999e+00
 1.007623888723760e+00	 1.744627308460692e+00	 2.551849831731466e+00
 9.908754131806581e-01	 1.754193881878792e+00	 2.525466048720975e+00
 9.740581422928178e-01	 1.763587504353885e+00	 2.504463415939356e+00
 9.571746963385549e-01	 1.772807554410919e+00	 2.487805473355460e+00
 9.402276998917043e-01	 1.781853462291037e+00	 2.474417883409987e+00
 9.232197805751732e-01	 1.790724709861371e+00	 2.463188043233880e+00
 9.061535678227867e-01	 1.799420830489746e+00	 2.452964650534358e+00
 8.890316916505411e-01	 1.807941408884734e+00	 2.442557266582256e+00
 8.718567814383629e-01	 1.816286080901601e+00	 2.430735918664817e+00
 1.045462452655680e+00	 1.732532283250688e+00	 2.617184477754668e+00
 1.028786695134416e+00	 1.742486087849739e+00	 2.579299387669744e+00
 1.012036595470219e+00	 1.752267588503456e+00	 2.548810577938521e+00
 9.952147730045425e-01	 1.761876057001122e+00	 2.524698984726289e+00
 9.783238539173406e-01	 1.771310817148453e+00	 2.505905143328254e+00
 9.613664699619803e-01	 1.780571244748752e+00	 2.491328937817192e+00
 9.443452572061566e-01	 1.789656767547997e+00	 2.479829215288361e+00
 9.272628547799905e-01	 1.798566865144247e+00	 2.470223310854641e+00
 9.101219036324519e-01	 1.807301068861784e+00	 2.461286529170770e+00
 8.929250452972309e-01	 1.815858961590483e+00	 2.451751627511697e+00
 8.756749206691625e-01	 1.824240177590894e+00	 2.440308344312168e+00
 1.050020903643622e+00	 1.740086512932670e+00	 2.616805929264788e+00
 1.033272436075806e+00	 1.750083718354078e+00	 2.584324356115791e+00
 1.016449302216594e+00	 1.759907868546351e+00	 2.557856394273613e+00
 9.995541328283705e-01	 1.769558232123605e+00	 2.536530624584563e+00
 9.825895655418375e-01	 1.779034129943188e+00	 2.519437718169286e+00
 9.655582435854111e-01	 1.788334935086759e+00	 2.505629735613028e+00
 9.484628145206473e-01	 1.797460072805134e+00	 2.494119287091512e+00
 9.313059289848798e-01	 1.806409020427295e+00	 2.483878601910125e+00
 9.140902394422225e-01	 1.815181307233987e+00	 2.473838555529799e+00
 8.968183989440586e-01	 1.823776514296382e+00	 2.462887701356260e+00
 8.794930599001300e-01	 1.832194274280319e+00	 2.449871353395789e+00
 1.054579354631298e+00	 1.747640742614871e+00	 2.625062352779204e+00
 1.037758177016974e+00	 1.757681348858684e+00	 2.600622119230393e+00
 1.020862008962798e+00	 1.767548148589553e+00	 2.579452776128782e+00
 1.003893492652083e+00	 1.777240407246422e+00	 2.561032948813591e+00
 9.868552771662767e-01	 1.786757442738276e+00	 2.544811278229945e+00
 9.697500172088429e-01	 1.796098625425127e+00	 2.530204909570287e+00
 9.525803718351967e-01	 1.805263378062631e+00	 2.516597834966156e+00
 9.353490031898837e-01	 1.814251175710692e+00	 2.503339141699596e+00
 9.180585752521593e-01	 1.823061545606518e+00	 2.489741216965583e+00
 9.007117525910985e-01	 1.831694067002581e+00	 2.475077959371255e+00
 8.833111991313498e-01	 1.840148370970008e+00	 2.458583046121734e+00
 1.059137805618578e+00	 1.755194972297440e+00	 2.643413899313026e+00
 1.042243917957811e+00	 1.765278979363722e+00	 2.629116287304459e+00
 1.025274715708746e+00	 1.775188428633234e+00	 2.614062852227368e+00
 1.008232852475620e+00	 1.784922582369755e+00	 2.598281867988032e+00
 9.911209887906262e-01	 1.794480755533900e+00	 2.581784944425818e+00
 9.739417908322711e-01	 1.803862315764040e+00	 2.564564347598544e+00
 9.566979291498261e-01	 1.813066683320668e+00	 2.546590164024380e+00
 9.393920773950454e-01	 1.822093330994612e+00	 2.527807364006068e+00
 9.220269110623245e-01	 1.830941783979543e+00	 2.508132818687186e+00
 9.046051062384273e-01	 1.839611619709232e+00	 2.487452324590790e+00
 8.871293383629040e-01	 1.848102467660094e+00	 2.465617688084613e+00
 1.063696256605328e+00	 1.762749201980530e+00	 2.673302624884361e+00
 1.046729658898207e+00	 1.772876609869357e+00	 2.670721110099187e+00
 1.029687422454353e+00	 1.782828708677572e+00	 2.662147807225927e+00
 1.012572212298925e+00	 1.792604757493784e+00	 2.648357497088373e+00
 9.953867004148546e-01	 1.802204068330247e+00	 2.630126973285455e+00
 9.781335644556902e-01	 1.811626006103685e+00	 2.608230838550052e+00
 9.608154864645549e-01	 1.820869988579429e+00	 2.583437131777283e+00
 9.434351516004084e-01	 1.829935486279232e+00	 2.556502845166424e+00
 9.259952468727801e-01	 1.838822022353227e+00	 2.528169390402962e+00
 9.084984598861195e-01	 1.847529172416485e+00	 2.499158071848282e+00
 8.909474775948772e-01	 1.856056564350709e+00	 2.470169321090269e+00
 8.527660852839681e-01	 1.776515597452493e+00	 2.413343126484027e+00
 8.359150758318051e-01	 1.784506531992859e+00	 2.378009596980558e+00
 8.190173143215014e-01	 1.792324788737874e+00	 2.354173047338092e+00
 8.020753641344036e-01	 1.799970158789352e+00	 2.340110821167763e+00
 7.850917834154448e-01	 1.807442482225144e+00	 2.334043608684605e+00
 7.680691239473414e-01	 1.814741647752109e+00	 2.334137232252281e+00
 7.510099300408769e-01	 1.821867592329375e+00	 2.338504648066985e+00
 7.339167374421334e-01	 1.828820300762612e+00	 2.345170153142219e+00
 7.167920722575044e-01	 1.835599805270095e+00	 2.351801026638353e+00
 6.996384498972799e-01	 1.842206185021295e+00	 2.356372434342758e+00
 6.824583740385706e-01	 1.848639565648836e+00	 2.357035983030867e+00
 8.565842245151780e-01	 1.784469694143108e+00	 2.409761324850305e+00
 8.396577670574036e-01	 1.792496406959950e+00	 2.382394492608429e+00
 8.226843482157804e-01	 1.800349668841083e+00	 2.363315278833336e+00
 8.056665428488365e-01	 1.808029269953017e+00	 2.351348625405867e+00
 7.886069205552402e-01	 1.815535049657577e+00	 2.345262180718775e+00
 7.715080445429554e-01	 1.822866896163327e+00	 2.343767178074543e+00
 7.543724705145624e-01	 1.830024746147141e+00	 2.345519552491768e+00
 7.372027455695904e-01	 1.837008584346666e+00	 2.349113554492484e+00
 7.200014071247192e-01	 1.843818443124430e+00	 2.352866344040454e+00
 7.027709818526362e-01	 1.850454402004382e+00	 2.355270166363379e+00
 6.855139846403153e-01	 1.856916587181651e+00	 2.354928836634279e+00
 8.604023637461388e-01	 1.792423790833194e+00	 2.410625653043940e+00
 8.434004582827754e-01	 1.800486281926599e+00	 2.389448739536727e+00
 8.263513821098809e-01	 1.808374548943953e+00	 2.373910583124705e+00
 8.092577215631587e-01	 1.816088381116450e+00	 2.363293001414080e+00
 7.921220576950027e-01	 1.823627617089888e+00	 2.356820208749016e+00
 7.749469651386222e-01	 1.830992144574534e+00	 2.353658896731780e+00
 7.577350109883830e-01	 1.838181899965001e+00	 2.352918573441140e+00
 7.404887536972570e-01	 1.845196867930910e+00	 2.353652163099126e+00
 7.232107419922029e-01	 1.852037080979040e+00	 2.354730785797164e+00
 7.059035138082992e-01	 1.858702618987810e+00	 2.354913912978663e+00
 6.885695952423757e-01	 1.865193608714851e+00	 2.353221754865970e+00
 8.642205029769344e-01	 1.800377887522883e+00	 2.415011816763974e+00
 8.471431495080048e-01	 1.808476156892918e+00	 2.398326311832338e+00
 8.300184160038834e-01	 1.816399429046566e+00	 2.385187718854878e+00
 8.128489002774396e-01	 1.824147492279707e+00	 2.375245287954568e+00
 7.956371948347921e-01	 1.831720184522107e+00	 2.368090679480114e+00
 7.783858857343856e-01	 1.839117392985728e+00	 2.363257354844472e+00
 7.610975514623687e-01	 1.846339053782927e+00	 2.360220244397016e+00
 7.437747618251471e-01	 1.853385151515288e+00	 2.358387824862568e+00
 7.264200768599567e-01	 1.860255718833843e+00	 2.356836172172709e+00
 7.090360457642585e-01	 1.866950835971476e+00	 2.354777060609331e+00
 6.916252058447343e-01	 1.873470630248318e+00	 2.351775919852753e+00
 8.680386422076478e-01	 1.808331984212308e+00	 2.422012235877325e+00
 8.508858407331772e-01	 1.816466031859018e+00	 2.408196086519531e+00
 8.336854498978677e-01	 1.824424309149010e+00	 2.396388605309826e+00
 8.164400789917521e-01	 1.832206603442847e+00	 2.386518290463680e+00
 7.991523319746678e-01	 1.839812751954262e+00	 2.378456380201125e+00
 7.818248063302906e-01	 1.847242641396911e+00	 2.372015661038738e+00
 7.644600919365478e-01	 1.854496207600891e+00	 2.366927740238036e+00
 7.470607699532762e-01	 1.861573435099747e+00	 2.362632148984590e+00
 7.296294117279808e-01	 1.868474356688762e+00	 2.358664305760235e+00
 7.121685777205041e-01	 1.875199052955282e+00	 2.354663737935229e+00
 6.946808164473743e-01	 1.881747651781935e+00	 2.350494143310362e+00
 8.718567814383629e-01	 1.816286080901601e+00	 2.430735918664817e+00
 8.546285319583773e-01	 1.824455906825007e+00	 2.418241743397838e+00
 8.373524837919145e-01	 1.832449189251368e+00	 2.406768246312977e+00
 8.200312577061676e-01	 1.840265714605927e+00	 2.396436228011768e+00
 8.026674691146880e-01	 1.847905319386382e+00	 2.387309868282797e+00
 7.852637269263818e-01	 1.855367889808084e+00	 2.379361172862191e+00
 7.678226324109505e-01	 1.862653361418864e+00	 2.372282393343355e+00
 7.503467780816581e-01	 1.869761718684233e+00	 2.365872360541601e+00
 7.328387465962768e-01	 1.876692994543716e+00	 2.359947667215023e+00
 7.153011096770268e-01	 1.883447269939126e+00	 2.354389672128496e+00
 6.977364270502795e-01	 1.890024673315585e+00	 2.349281248487129e+00
 8.756749206691625e-01	 1.824240177590894e+00	 2.440308344312168e+00
 8.583712231836894e-01	 1.832445781790996e+00	 2.427661672278344e+00
 8.410195176861038e-01	 1.840474069353725e+00	 2.415594660749548e+00
 8.236224364207566e-01	 1.848324825769005e+00	 2.404334686130750e+00
 8.061826062549124e-01	 1.855997886818497e+00	 2.394014555811468e+00
 7.887026475227042e-01	 1.863493138219246e+00	 2.384510222200239e+00
 7.711851728856056e-01	 1.870810515236819e+00	 2.375775578024053e+00
 7.536327862103069e-01	 1.877950002268689e+00	 2.367767228263624e+00
 7.360480814648452e-01	 1.884911632398625e+00	 2.360424375372114e+00
 7.184336416338161e-01	 1.891695486922907e+00	 2.353774498731405e+00
 7.007920376534325e-01	 1.898301694849150e+00	 2.348044151613609e+00
 8.794930599001300e-01	 1.832194274280319e+00	 2.449871353395789e+00
 8.621139144091986e-01	 1.840435656757095e+00	 2.435668887413209e+00
 8.446865515805162e-01	 1.848498949456167e+00	 2.422148819519706e+00
 8.272136151355911e-01	 1.856383936932139e+00	 2.409525464053343e+00
 8.096977433954000e-01	 1.864090454250636e+00	 2.397784017733912e+00
 7.921415681193020e-01	 1.871618386630397e+00	 2.386942566694086e+00
 7.745477133605432e-01	 1.878967669054727e+00	 2.377012365600176e+00
 7.569187943392373e-01	 1.886138285853060e+00	 2.367985563263262e+00
 7.392574163336874e-01	 1.893130270253413e+00	 2.359838215390023e+00
 7.215661735908618e-01	 1.899943703906525e+00	 2.352641815420097e+00
 7.038476482568163e-01	 1.906578716382512e+00	 2.346691943574917e+00
 8.833111991313498e-01	 1.840148370970008e+00	 2.458583046121734e+00
 8.658566056349893e-01	 1.848425531723414e+00	 2.441490948901094e+00
 8.483535854752317e-01	 1.856523829558777e+00	 2.425700555068315e+00
 8.308047938507421e-01	 1.864443048095384e+00	 2.411230418893258e+00
 8.132128805362095e-01	 1.872183021682827e+00	 2.398074700222765e+00
 7.955804887162202e-01	 1.879743635041538e+00	 2.386213668198087e+00
 7.779102538357916e-01	 1.887124822872560e+00	 2.375608829262633e+00
 7.602048024684636e-01	 1.894326569437291e+00	 2.366206002361592e+00
 7.424667512028035e-01	 1.901348908107998e+00	 2.357938108811138e+00
 7.246987055481553e-01	 1.908191920889881e+00	 2.350819236851455e+00
 7.069032588604145e-01	 1.914855737915554e+00	 2.345135971799030e+00
 8.871293383629040e-01	 1.848102467660094e+00	 2.465617688084613e+00
 8.695992968611470e-01	 1.856415406690063e+00	 2.444360404751303e+00
 8.520206193703309e-01	 1.864548709661641e+00	 2.425484276060884e+00
 8.343959725662811e-01	 1.872502159258800e+00	 2.408874735407978e+00
 8.167280176774003e-01	 1.880275589115099e+00	 2.394395236496011e+00
 7.990194093135032e-01	 1.887868883452669e+00	 2.381890842985376e+00
 7.812727943113812e-01	 1.895281976690290e+00	 2.371191797495773e+00
 7.634908105980003e-01	 1.902514853021329e+00	 2.362116793996784e+00
 7.456760860721953e-01	 1.909567545962300e+00	 2.354475942005347e+00
 7.278312375056852e-01	 1.916440137872873e+00	 2.348138450560298e+00
 7.099588694642096e-01	 1.923132759448157e+00	 2.343289922354520e+00
 8.909474775948772e-01	 1.856056564350709e+00	 2.470169321090269e+00
 8.733419880877556e-01	 1.864405281657153e+00	 2.443525147828763e+00
 8.556876532658938e-01	 1.872573589764845e+00	 2.420888848459411e+00
 8.379871512822794e-01	 1.880561270422445e+00	 2.401921769944519e+00
 8.202431548190318e-01	 1.888368156547483e+00	 2.386266882984283e+00
 8.024583299111965e-01	 1.895994131863790e+00	 2.373552987265558e+00
 7.846353347873413e-01	 1.903439130507890e+00	 2.363398610696194e+00
 7.667768187278625e-01	 1.910703136605119e+00	 2.355415586638030e+00
 7.488854209418633e-01	 1.917786183816243e+00	 2.349212297051630e+00
 7.309637694634429e-01	 1.924688354855402e+00	 2.344435273875530e+00
 7.130144800681852e-01	 1.931409780980207e+00	 2.341069902251475e+00
 6.824583740385706e-01	 1.848639565648836e+00	 2.357035983030867e+00
 6.652572617369515e-01	 1.854899069024128e+00	 2.353208589919333e+00
 6.480346701480332e-01	 1.860986019235963e+00	 2.345619484845451e+00
 6.307930597291923e-01	 1.866900676732648e+00	 2.334776692178479e+00
 6.135348753077542e-01	 1.872643346196608e+00	 2.321312415547629e+00
 5.962625451515272e-01	 1.878214375937486e+00	 2.305931333730971e+00
 5.789784800624057e-01	 1.883614157263803e+00	 2.289399285742189e+00
 5.616850724935349e-01	 1.888843123834063e+00	 2.272532647979043e+00
 5.443846956905031e-01	 1.893901750988257e+00	 2.256188400561012e+00
 5.270797028569850e-01	 1.898790555060661e+00	 2.241254875273392e+00
 5.097724263452204e-01	 1.903510092674904e+00	 2.228643173144997e+00
 6.855139846403153e-01	 1.856916587181651e+00	 2.354928836634279e+00
 6.682358567974321e-01	 1.863204116595952e+00	 2.351661753069990e+00
 6.509361534968212e-01	 1.869318320264493e+00	 2.346328126226363e+00
 6.336173462122061e-01	 1.875259459801692e+00	 2.339037617351972e+00
 6.162818907172751e-01	 1.881027841254142e+00	 2.329991134972312e+00
 5.989322261520581e-01	 1.886623814490985e+00	 2.319469141774785e+00
 5.815707741124698e-01	 1.892047772572763e+00	 2.307820660078993e+00
 5.641999377635212e-01	 1.897300151099619e+00	 2.295452977035938e+00
 5.468221009766679e-01	 1.902381427539802e+00	 2.282822045585145e+00
 5.294396274917170e-01	 1.907292120539397e+00	 2.270423572396537e+00
 5.120548601036816e-01	 1.912032789214229e+00	 2.258784779552967e+00
 6.885695952423757e-01	 1.865193608714851e+00	 2.353221754865970e+00
 6.712144518582039e-01	 1.871509164168183e+00	 2.350211669900505e+00
 6.538376368458487e-01	 1.877650621293430e+00	 2.346696615268032e+00
 6.364416326953839e-01	 1.883618242871130e+00	 2.342404911035148e+00
 6.190289061268688e-01	 1.889412336312042e+00	 2.337161342017059e+00
 6.016019071525610e-01	 1.895033253044815e+00	 2.330875729943632e+00
 5.841630681624008e-01	 1.900481387882017e+00	 2.323532216437865e+00
 5.667148030332719e-01	 1.905757178365433e+00	 2.315179256941439e+00
 5.492595062625030e-01	 1.910861104091575e+00	 2.305920320496353e+00
 5.317995521260396e-01	 1.915793686018341e+00	 2.295905285389272e+00
 5.143372938616730e-01	 1.920555485753755e+00	 2.285322516105296e+00
 6.916252058447343e-01	 1.873470630248318e+00	 2.351775919852753e+00
 6.741930469192484e-01	 1.879814211740690e+00	 2.348849608410792e+00
 6.567391201950976e-01	 1.885982922322636e+00	 2.346794512668558e+00
 6.392659191787133e-01	 1.891977025940817e+00	 2.345013659082549e+00
 6.217759215365304e-01	 1.897796831370164e+00	 2.343010216973207e+00
 6.042715881530389e-01	 1.903442691598834e+00	 2.340376289873880e+00
 5.867553622122104e-01	 1.908915003191423e+00	 2.336782433480741e+00
 5.692296683028069e-01	 1.914214205631365e+00	 2.331967899316057e+00
 5.516969115480349e-01	 1.919340780643440e+00	 2.325731597871696e+00
 5.341594767599832e-01	 1.924295251497357e+00	 2.317923769988888e+00
 5.166197276192274e-01	 1.929078182293349e+00	 2.308438350572923e+00
 6.946808164473743e-01	 1.881747651781935e+00	 2.350494143310362e+00
 6.771716419805458e-01	 1.888119259313344e+00	 2.347566952264352e+00
 6.596406035445508e-01	 1.894315223351976e+00	 2.346689910097486e+00
 6.420902056621818e-01	 1.900335809010613e+00	 2.346996135967337e+00
 6.245229369462538e-01	 1.906181326428363e+00	 2.347721040805061e+00
 6.069412691534942e-01	 1.911852130152897e+00	 2.348191292084445e+00
 5.893476562619110e-01	 1.917348618500842e+00	 2.347814524540282e+00
 5.717445335721467e-01	 1.922671232897279e+00	 2.346069794912286e+00
 5.541343168332908e-01	 1.927820457195260e+00	 2.342498773316676e+00
 5.365194013935801e-01	 1.932796816976313e+00	 2.336697658719208e+00
 5.189021613763785e-01	 1.937600878832876e+00	 2.328309801221330e+00
 6.977364270502795e-01	 1.890024673315585e+00	 2.349281248487129e+00
 6.801502370420770e-01	 1.896424306886015e+00	 2.346355310878931e+00
 6.625420868941903e-01	 1.902647524381308e+00	 2.346449564576751e+00
 6.449144921457762e-01	 1.908694592080372e+00	 2.348481958612173e+00
 6.272699523560339e-01	 1.914565821486497e+00	 2.351473363335344e+00
 6.096109501539307e-01	 1.920261568706861e+00	 2.354536663171381e+00
 5.919399503115138e-01	 1.925782233810131e+00	 2.356866618233332e+00
 5.742593988413109e-01	 1.931128260163035e+00	 2.357730491817243e+00
 5.565717221182981e-01	 1.936300133746901e+00	 2.356459435193010e+00
 5.388793260268625e-01	 1.941298382455074e+00	 2.352440615850820e+00
 5.211845951331590e-01	 1.946123575372203e+00	 2.345110070487435e+00
 7.007920376534325e-01	 1.898301694849150e+00	 2.348044151613609e+00
 6.831288321038235e-01	 1.904729354458575e+00	 2.345206628851252e+00
 6.654435702439991e-01	 1.910979825410497e+00	 2.346139031424183e+00
 6.477387786294851e-01	 1.917053375149957e+00	 2.349598238142120e+00
 6.300169677658654e-01	 1.922950316544420e+00	 2.354443168849862e+00
 6.122806311543508e-01	 1.928671007260584e+00	 2.359623960063332e+00
 5.945322443610307e-01	 1.934215849119148e+00	 2.364171935927862e+00
 5.767742641103203e-01	 1.939585287428494e+00	 2.367190370458389e+00
 5.590091274030835e-01	 1.944779810298224e+00	 2.367846031262558e+00
 5.412392506598613e-01	 1.949799947933506e+00	 2.365361489559806e+00
 5.234670288896022e-01	 1.954646271911197e+00	 2.359008176312473e+00
 7.038476482568163e-01	 1.906578716382512e+00	 2.346691943574917e+00
 6.861074271657656e-01	 1.913034402030891e+00	 2.344113294736044e+00
 6.683450535939601e-01	 1.919312126439404e+00	 2.345822795803217e+00
 6.505630651132948e-01	 1.925412158219221e+00	 2.350469729622704e+00
 6.327639831757422e-01	 1.931334811601990e+00	 2.356803039199903e+00
 6.149503121547579e-01	 1.937080445813921e+00	 2.363660541427277e+00
 5.971245384104735e-01	 1.942649464427751e+00	 2.369958966158933e+00
 5.792891293791944e-01	 1.948042314693518e+00	 2.374684815509524e+00
 5.614465326876741e-01	 1.953259486849095e+00	 2.376886032341016e+00
 5.435991752926084e-01	 1.958301513411475e+00	 2.375664461370062e+00
 5.257494626457417e-01	 1.963168968449725e+00	 2.370169081202123e+00
 7.069032588604145e-01	 1.914855737915554e+00	 2.345135971799030e+00
 6.890860222278834e-01	 1.921339449602834e+00	 2.343068249198863e+00
 6.712465369440550e-01	 1.927644427467893e+00	 2.345564402920971e+00
 6.533873515971935e-01	 1.933770941288025e+00	 2.351218979844122e+00
 6.355109985856596e-01	 1.939719306659061e+00	 2.358722314478049e+00
 6.176199931551547e-01	 1.945489884366728e+00	 2.366849736310722e+00
 5.997168324598541e-01	 1.951083079735801e+00	 2.374451636086021e+00
 5.818039946479535e-01	 1.956499341957966e+00	 2.380444384790827e+00
 5.638839379720969e-01	 1.961739163399377e+00	 2.383802093052009e+00
 5.459590999251359e-01	 1.966803078888846e+00	 2.383549192961399e+00
 5.280318964016106e-01	 1.971691664987653e+00	 2.378753819082613e+00
 7.099588694642096e-01	 1.923132759448157e+00	 2.343289922354520e+00
 6.920646172901587e-01	 1.929644497174276e+00	 2.342065092561650e+00
 6.741480202942667e-01	 1.935976728495822e+00	 2.345426586915436e+00
 6.562116380811681e-01	 1.942129724356224e+00	 2.351966473210400e+00
 6.382580139956119e-01	 1.948103801715490e+00	 2.360367251340489e+00
 6.202896741555440e-01	 1.953899322918863e+00	 2.369391010103617e+00
 6.023091265091846e-01	 1.959516695043154e+00	 2.377869480080861e+00
 5.843188599166177e-01	 1.964956369221701e+00	 2.384694975253503e+00
 5.663213432563791e-01	 1.970218839948934e+00	 2.388812209768766e+00
 5.483190245574751e-01	 1.975304644365486e+00	 2.389210970422824e+00
 5.303143301572421e-01	 1.980214361524848e+00	 2.384919620019263e+00
 7.130144800681852e-01	 1.931409780980207e+00	 2.341069902251475e+00
 6.950432123525723e-01	 1.937949544745086e+00	 2.341098191759119e+00
 6.770495036445784e-01	 1.944309029523059e+00	 2.345471398471079e+00
 6.590359245652068e-01	 1.950488507423679e+00	 2.352830775790410e+00
 6.410050294055939e-01	 1.956488296771135e+00	 2.361901179046473e+00
 6.229593551559293e-01	 1.962308761470184e+00	 2.371480127900395e+00
 6.049014205584760e-01	 1.967950310349670e+00	 2.380427805531867e+00
 5.868337251852073e-01	 1.973413396484584e+00	 2.387657986136495e+00
 5.687587485405474e-01	 1.978698516497631e+00	 2.392129875827895e+00
 5.506789491896580e-01	 1.983806209841261e+00	 2.392840846027604e+00
 5.325967639126695e-01	 1.988737058061177e+00	 2.388820032861513e+00
 5.097724263452204e-01	 1.903510092674904e+00	 2.228643173144997e+00
 4.924651771078767e-01	 1.908060960435679e+00	 2.219247748963817e+00
 4.751602446257804e-01	 1.912443795427681e+00	 2.213130682623442e+00
 4.578598954278802e-01	 1.916659273214932e+00	 2.209995140376171e+00
 4.405663721427611e-01	 1.920708106657808e+00	 2.209578284961106e+00
 4.232818928181369e-01	 1.924591045131397e+00	 2.211646879470007e+00
 4.060086502667843e-01	 1.928308873731856e+00	 2.215993338149594e+00
 3.887488114390382e-01	 1.931862412471655e+00	 2.222432191331546e+00
 3.715045168219482e-01	 1.935252515464695e+00	 2.230796930290473e+00
 3.542778798651443e-01	 1.938480070102190e+00	 2.240790820006200e+00
 3.370709864334423e-01	 1.941545996220245e+00	 2.251633752722863e+00
 5.120548601036816e-01	 1.912032789214229e+00	 2.258784779552967e+00
 4.946701201121874e-01	 1.916604032840201e+00	 2.248685208647615e+00
 4.772877072488776e-01	 1.921006491354468e+00	 2.240570347140113e+00
 4.599098981907536e-01	 1.925240843345804e+00	 2.234510358035519e+00
 4.425389456074418e-01	 1.929307804866323e+00	 2.230604637020956e+00
 4.251770774776416e-01	 1.933208128646343e+00	 2.228977107950705e+00
 4.078264964321275e-01	 1.936942603297183e+00	 2.229771993813190e+00
 3.904893791234387e-01	 1.940512052502813e+00	 2.233150029055417e+00
 3.731678756223426e-01	 1.943917334201314e+00	 2.239285077690513e+00
 3.558641088411316e-01	 1.947159339757076e+00	 2.248250864231799e+00
 3.385801739837758e-01	 1.950238993124647e+00	 2.259594405697690e+00
 5.143372938616730e-01	 1.920555485753755e+00	 2.285322516105296e+00
 4.968750631159927e-01	 1.925147105244934e+00	 2.274827461009424e+00
 4.794151698714576e-01	 1.929569187281490e+00	 2.265179799687516e+00
 4.619599009531188e-01	 1.933822413476946e+00	 2.256770666611536e+00
 4.445115190716425e-01	 1.937907503075149e+00	 2.250016176934351e+00
 4.270722621367097e-01	 1.941825212161644e+00	 2.245352463016351e+00
 4.096443425970919e-01	 1.945576332862909e+00	 2.243231213719831e+00
 3.922299468075293e-01	 1.949161692534409e+00	 2.244115680957965e+00
 3.748312344225054e-01	 1.952582152938404e+00	 2.248477116479615e+00
 3.574503378169717e-01	 1.955838609412455e+00	 2.256711693592718e+00
 3.400893615340512e-01	 1.958931990029550e+00	 2.268667819054643e+00
 5.166197276192274e-01	 1.929078182293349e+00	 2.308438350572923e+00
 4.990800061193236e-01	 1.933690177649742e+00	 2.297806502962926e+00
 4.815426324935459e-01	 1.938131883208610e+00	 2.287042631444892e+00
 4.640099037149931e-01	 1.942403983608215e+00	 2.276813365841862e+00
 4.464840925353693e-01	 1.946507201284139e+00	 2.267806567374601e+00
 4.289674467953358e-01	 1.950442295677148e+00	 2.260726155489821e+00
 4.114621887616591e-01	 1.954210062428879e+00	 2.256287463503674e+00
 3.939705144912787e-01	 1.957811332566286e+00	 2.255213086084662e+00
 3.764945932223915e-01	 1.961246971675802e+00	 2.258229180042214e+00
 3.590365667926076e-01	 1.964517879068161e+00	 2.266006960654798e+00
 3.415985490842010e-01	 1.967624986934785e+00	 2.278669024386850e+00
 5.189021613763785e-01	 1.937600878832876e+00	 2.328309801221330e+00
 5.012849491222109e-01	 1.942233250054491e+00	 2.317750716966086e+00
 4.836700951151674e-01	 1.946694579135689e+00	 2.306239643439866e+00
 4.660599064763934e-01	 1.950985553739471e+00	 2.294673768524044e+00
 4.484566659986289e-01	 1.955106899493149e+00	 2.283968255904331e+00
 4.308626314535149e-01	 1.959059379192707e+00	 2.275050911306411e+00
 4.132800349258109e-01	 1.962843791994937e+00	 2.268857402376947e+00
 3.957110821746551e-01	 1.966460972598282e+00	 2.266326993696827e+00
 3.781579520219569e-01	 1.969911790413346e+00	 2.268398756806311e+00
 3.606227957679829e-01	 1.973197148724028e+00	 2.275972310891316e+00
 3.431077366341572e-01	 1.976317983840187e+00	 2.289415521577164e+00
 5.211845951331590e-01	 1.946123575372203e+00	 2.345110070487435e+00
 5.034898921246862e-01	 1.950776322459048e+00	 2.334784980367826e+00
 4.857975577363481e-01	 1.955257275062592e+00	 2.322848932280391e+00
 4.681099092373366e-01	 1.959567123870573e+00	 2.310385263567343e+00
 4.504292394614280e-01	 1.963706597702032e+00	 2.298492516498077e+00
 4.327578161112414e-01	 1.967676462708169e+00	 2.288278992871407e+00
 4.150978810895289e-01	 1.971477521560928e+00	 2.280857885896884e+00
 3.974516498576267e-01	 1.975110612630235e+00	 2.277342949229313e+00
 3.798213108211564e-01	 1.978576609150870e+00	 2.278844661377099e+00
 3.622090247430407e-01	 1.981876418379890e+00	 2.286445320675770e+00
 3.446169241838526e-01	 1.985010980745589e+00	 2.300727209505556e+00
 5.234670288896022e-01	 1.954646271911197e+00	 2.359008176312473e+00
 5.056948351267798e-01	 1.959319394863277e+00	 2.349030772952602e+00
 4.879250203571132e-01	 1.963819970989180e+00	 2.336945974612544e+00
 4.701599119978404e-01	 1.968148694001381e+00	 2.323979378278636e+00
 4.524018129237732e-01	 1.972306295910643e+00	 2.311369490781694e+00
 4.346530007685095e-01	 1.976293546223384e+00	 2.300362220586071e+00
 4.169157272527949e-01	 1.980111251126696e+00	 2.292205969316000e+00
 3.991922175401620e-01	 1.983760252661990e+00	 2.288147281204339e+00
 3.814846696199455e-01	 1.987241427888211e+00	 2.289427006951937e+00
 3.637952537177240e-01	 1.990555688035582e+00	 2.297265436828266e+00
 3.461261117332197e-01	 1.993703977650823e+00	 2.312426318524371e+00
 5.257494626457417e-01	 1.963168968449725e+00	 2.370169081202123e+00
 5.078997781285232e-01	 1.967862467267044e+00	 2.360606282737784e+00
 4.900524829774880e-01	 1.972382666915316e+00	 2.348603710343003e+00
 4.722099147579212e-01	 1.976730264131752e+00	 2.335485839905663e+00
 4.543743863856709e-01	 1.980905994118837e+00	 2.322588228997140e+00
 4.365481854253142e-01	 1.984910629738201e+00	 2.311251994536875e+00
 4.187335734155900e-01	 1.988744980692086e+00	 2.302818911497972e+00
 4.009327852222294e-01	 1.992409892693384e+00	 2.298627089072405e+00
 3.831480284182797e-01	 1.995906246625206e+00	 2.300007178977755e+00
 3.653814826919763e-01	 1.999234957690937e+00	 2.308273917668357e+00
 3.476352992821909e-01	 2.002396974555725e+00	 2.324337344647648e+00
 5.280318964016106e-01	 1.971691664987653e+00	 2.378753819082613e+00
 5.101047211299472e-01	 1.976405539670215e+00	 2.369626510076560e+00
 4.921799455974982e-01	 1.980945362840864e+00	 2.357892624663487e+00
 4.742599175175964e-01	 1.985311834261547e+00	 2.344932636460130e+00
 4.563469598471280e-01	 1.989505692326468e+00	 2.332136730700981e+00
 4.384433700816499e-01	 1.993527713252470e+00	 2.320899316343126e+00
 4.205514195778962e-01	 1.997378710256942e+00	 2.312614179382035e+00
 4.026733529037974e-01	 2.001059532724258e+00	 2.308670231952245e+00
 3.848113872161142e-01	 2.004571065361692e+00	 2.310447810013336e+00
 3.669677116657404e-01	 2.007914227345791e+00	 2.319313775528713e+00
 3.491444868306985e-01	 2.011089971460127e+00	 2.336286985402748e+00
 5.303143301572421e-01	 1.980214361524848e+00	 2.384919620019263e+00
 5.123096641310828e-01	 1.984948612072654e+00	 2.376203370117530e+00
 4.943074082171690e-01	 1.989508058765687e+00	 2.364880828913366e+00
 4.763099202768831e-01	 1.993893404390623e+00	 2.352346076842347e+00
 4.583195333081506e-01	 1.998105390533390e+00	 2.340001985204641e+00
 4.403385547375112e-01	 2.002144796766040e+00	 2.329254811158124e+00
 4.223692657396950e-01	 2.006012439821109e+00	 2.321509452979375e+00
 4.044139205848339e-01	 2.009709172754451e+00	 2.318165318242706e+00
 3.864747460134044e-01	 2.013235884097506e+00	 2.320612755760119e+00
 3.685539406389596e-01	 2.016593496999975e+00	 2.330229720685560e+00
 3.506536743786751e-01	 2.019782968363861e+00	 2.348104077294116e+00
 5.325967639126695e-01	 1.988737058061177e+00	 2.388820032861513e+00
 5.145146071319613e-01	 1.993491684474228e+00	 2.380445793670218e+00
 4.964348708365260e-01	 1.998070754689647e+00	 2.369634140315171e+00
 4.783599230357983e-01	 2.002474974518841e+00	 2.357750850288344e+00
 4.602921067687459e-01	 2.006705088739458e+00	 2.346170011764113e+00
 4.422337393928928e-01	 2.010761880278762e+00	 2.336268749819291e+00
 4.241871119009684e-01	 2.014646169384433e+00	 2.329422630885497e+00
 4.061544882653080e-01	 2.018358812783806e+00	 2.327001696080468e+00
 3.881381048101060e-01	 2.021900702832483e+00	 2.330367072226511e+00
 3.701401696115776e-01	 2.025272766653326e+00	 2.340868106663520e+00
 3.521628619260533e-01	 2.028475965266763e+00	 2.359619534830882e+00
 3.370709864334423e-01	 1.941545996220245e+00	 2.251633752722863e+00
 3.198829753695842e-01	 1.944451725334479e+00	 2.260755076130321e+00
 3.027188076966160e-01	 1.947197703991955e+00	 2.266820586768037e+00
 2.855804889357101e-01	 1.949784943399491e+00	 2.270743801150495e+00
 2.684699949860878e-01	 1.952214483855871e+00	 2.273369652025793e+00
 2.513892717099102e-01	 1.954487393889909e+00	 2.275482773874124e+00
 2.343402345435050e-01	 1.956604769395496e+00	 2.277814979275329e+00
 2.173247681347407e-01	 1.958567732764435e+00	 2.281051995040137e+00
 2.003447260063288e-01	 1.960377432017918e+00	 2.285839526168413e+00
 1.834019302448152e-01	 1.962035039937395e+00	 2.292788714445474e+00
 1.664981712149926e-01	 1.963541753195654e+00	 2.302481056849322e+00
 3.385801739837758e-01	 1.950238993124647e+00	 2.259594405697690e+00
 3.213152060373046e-01	 1.953157732229060e+00	 2.270712915627978e+00
 3.040741882370560e-01	 1.955916005616716e+00	 2.279758242290148e+00
 2.868591350836596e-01	 1.958514829021956e+00	 2.287190989293770e+00
 2.696720313231646e-01	 1.960955247401336e+00	 2.293406404290631e+00
 2.525148315300738e-01	 1.963238334067846e+00	 2.298742995406282e+00
 2.353894597168291e-01	 1.965365189822070e+00	 2.303490310967663e+00
 2.182978089695616e-01	 1.967336942081151e+00	 2.307895953712479e+00
 2.012417411098868e-01	 1.969154744006365e+00	 2.312171899788215e+00
 1.842230863825036e-01	 1.970819773630115e+00	 2.316500191538739e+00
 1.672436431683273e-01	 1.972333232983107e+00	 2.321038071370191e+00
 3.400893615340512e-01	 1.958931990029550e+00	 2.268667819054643e+00
 3.227474367050578e-01	 1.961863739124130e+00	 2.281677690588066e+00
 3.054295687776205e-01	 1.964634307241942e+00	 2.293410215382410e+00
 2.881377812318240e-01	 1.967244714644846e+00	 2.303930846329393e+00
 2.708740676605449e-01	 1.969696010947181e+00	 2.313243087329008e+00
 2.536403913506262e-01	 1.971989274246110e+00	 2.321297357271249e+00
 2.364386848906221e-01	 1.974125610248917e+00	 2.327998991243802e+00
 2.192708498049250e-01	 1.976106151398081e+00	 2.333215452574255e+00
 2.021387562140536e-01	 1.977932055994974e+00	 2.336782828383849e+00
 1.850442425208578e-01	 1.979604507322948e+00	 2.338511679954303e+00
 1.679891151223749e-01	 1.981124712770631e+00	 2.338192317427241e+00
 3.415985490842010e-01	 1.967624986934785e+00	 2.278669024386850e+00
 3.241796673727674e-01	 1.970569746019525e+00	 2.293454161305846e+00
 3.067849493182258e-01	 1.973352608867469e+00	 2.307581660072484e+00
 2.894164273801143e-01	 1.975974600268006e+00	 2.320778861518356e+00
 2.720761039981348e-01	 1.978436774493256e+00	 2.332714746933911e+00
 2.547659511714682e-01	 1.980740214424560e+00	 2.343008966416146e+00
 2.374879100647804e-01	 1.982886030675900e+00	 2.351239979864296e+00
 2.202438906407231e-01	 1.984875360715103e+00	 2.356952386787881e+00
 2.030357713187161e-01	 1.986709367983631e+00	 2.359663520098489e+00
 1.858653986597592e-01	 1.988389241015790e+00	 2.358869377608265e+00
 1.687345870770097e-01	 1.989916192558135e+00	 2.354049963092213e+00
 3.431077366341572e-01	 1.976317983840187e+00	 2.289415521577164e+00
 3.256118980403570e-01	 1.979275752915078e+00	 2.305849860849592e+00
 3.081403298587881e-01	 1.982070910493136e+00	 2.322080598069489e+00
 2.906950735284403e-01	 1.984704485891279e+00	 2.337553292034841e+00
 2.732781403358386e-01	 1.987177538039408e+00	 2.351658917275200e+00
 2.558915109925006e-01	 1.989491154603049e+00	 2.363742973765726e+00
 2.385371352392004e-01	 1.991646451102887e+00	 2.373113686192988e+00
 2.212169314768480e-01	 1.993644570032091e+00	 2.379049371626506e+00
 2.039327864237614e-01	 1.995486679972220e+00	 2.380805053388199e+00
 1.866865547990892e-01	 1.997173974708539e+00	 2.377618397382486e+00
 1.694800590321062e-01	 1.998707672345530e+00	 2.368715045192651e+00
 3.446169241838526e-01	 1.985010980745589e+00	 2.300727209505556e+00
 3.270441287077501e-01	 1.987981759810624e+00	 2.318675021766762e+00
 3.094957103992240e-01	 1.990789212118780e+00	 2.336717845634034e+00
 2.919737196767128e-01	 1.993434371514504e+00	 2.354075093874623e+00
 2.744801766735623e-01	 1.995918301585487e+00	 2.369915559430849e+00
 2.570170708136242e-01	 1.998242094781434e+00	 2.383366523671579e+00
 2.395863604137787e-01	 2.000406871529739e+00	 2.393521932570829e+00
 2.221899723131911e-01	 2.002413779348917e+00	 2.399449722491927e+00
 2.048298015290768e-01	 2.004263991960626e+00	 2.400198376117264e+00
 1.875077109387290e-01	 2.005958708401091e+00	 2.394802787445968e+00
 1.702255309875389e-01	 2.007499152132723e+00	 2.382289512724866e+00
 3.461261117332197e-01	 1.993703977650823e+00	 2.312426318524371e+00
 3.284763593748703e-01	 1.996687766705998e+00	 2.331742504682633e+00
 3.108510909394495e-01	 1.999507513744238e+00	 2.351306942352978e+00
 2.932523658248417e-01	 2.002164257137524e+00	 2.370167854575914e+00
 2.756822130112110e-01	 2.004659065131339e+00	 2.387327001541588e+00
 2.581426306347395e-01	 2.006993034959572e+00	 2.401748704706820e+00
 2.406355855884116e-01	 2.009167291956322e+00	 2.412367918676367e+00
 2.231630131496452e-01	 2.011182988665458e+00	 2.418097435486928e+00
 2.057268166345491e-01	 2.013041303948738e+00	 2.417834304710248e+00
 1.883288670785601e-01	 2.014743442093345e+00	 2.410465551077456e+00
 1.709710029431823e-01	 2.016290631919625e+00	 2.394873269162444e+00
 3.476352992821909e-01	 2.002396974555725e+00	 2.324337344647648e+00
 3.299085900416411e-01	 2.005393773601034e+00	 2.344867728733877e+00
 3.122064714793811e-01	 2.008225815369348e+00	 2.365664081760999e+00
 2.945310119727377e-01	 2.010894142760184e+00	 2.385657727697491e+00
 2.768842493486897e-01	 2.013399828676814e+00	 2.403737880539579e+00
 2.592681904557474e-01	 2.015743975137317e+00	 2.418760501765452e+00
 2.416848107629957e-01	 2.017927712382503e+00	 2.429556186842820e+00
 2.241360539861018e-01	 2.019952197981589e+00	 2.434937168525224e+00
 2.066238317400656e-01	 2.021818615936437e+00	 2.433703523359029e+00
 1.891500232184639e-01	 2.023528175785197e+00	 2.424648666004386e+00
 1.717164748989107e-01	 2.025082111706145e+00	 2.406564213693891e+00
 3.491444868306985e-01	 2.011089971460127e+00	 2.336286985402748e+00
 3.313408207079864e-01	 2.014099780495567e+00	 2.357868603781594e+00
 3.135618520189350e-01	 2.016944116993947e+00	 2.379608043753078e+00
 2.958096581203110e-01	 2.019624028382323e+00	 2.400373369000968e+00
 2.780862856859040e-01	 2.022140592221762e+00	 2.418995085403550e+00
 2.603937502765490e-01	 2.024494915314528e+00	 2.434274749426888e+00
 2.427340359374274e-01	 2.026688132808145e+00	 2.444992588302872e+00
 2.251090948224531e-01	 2.028721407297184e+00	 2.449914222962715e+00
 2.075208468455135e-01	 2.030595927923613e+00	 2.447796583283194e+00
 1.899711793583216e-01	 2.032312909476545e+00	 2.437393103272850e+00
 1.724619468545988e-01	 2.033873591492191e+00	 2.417458281421757e+00
 3.506536743786751e-01	 2.019782968363861e+00	 2.348104077294116e+00
 3.327730513738294e-01	 2.022805787389431e+00	 2.370565464350135e+00
 3.149172325580277e-01	 2.025662418617873e+00	 2.392960128733983e+00
 2.970883042674720e-01	 2.028353914003787e+00	 2.414145874285855e+00
 2.792883220227592e-01	 2.030881355766028e+00	 2.432947701894380e+00
 2.615193100970445e-01	 2.033245855491057e+00	 2.448166086547507e+00
 2.437832611116033e-01	 2.035448553233113e+00	 2.458584250333204e+00
 2.260821356585912e-01	 2.037490616612119e+00	 2.462974525734322e+00
 2.084178619507796e-01	 2.039373239910148e+00	 2.460103902042141e+00
 1.907923354980147e-01	 2.041097643167284e+00	 2.448738845662650e+00
 1.732074188101208e-01	 2.042665071277676e+00	 2.427649482554626e+00
 3.521628619260533e-01	 2.028475965266763e+00	 2.359619534830882e+00
 3.342052820390940e-01	 2.031511794282461e+00	 2.382781005240008e+00
 3.162726130965756e-01	 2.034380720240966e+00	 2.405544093452619e+00
 2.983669504141310e-01	 2.037083799624414e+00	 2.426808718827884e+00
 2.804903583591603e-01	 2.039622119309464e+00	 2.445446958726662e+00
 2.626448699171351e-01	 2.041996795666766e+00	 2.460310912042491e+00
 2.448324862854198e-01	 2.044208973657273e+00	 2.470239544271760e+00
 2.270551764944082e-01	 2.046259825926268e+00	 2.474064611981307e+00
 2.093148770557514e-01	 2.048150551895931e+00	 2.470615762897366e+00
 1.916134916374246e-01	 2.049882376857315e+00	 2.458724905661165e+00
 1.739528907653514e-01	 2.051456551062507e+00	 2.437229940622066e+00
 1.664981712149926e-01	 1.963541753195654e+00	 2.302481056849322e+00
 1.496380635122771e-01	 1.964898573407881e+00	 2.313739440620595e+00
 1.328204230301581e-01	 1.966107010389023e+00	 2.323562933905236e+00
 1.160469042979976e-01	 1.967168326246733e+00	 2.329806555904292e+00
 9.931913029805782e-02	 1.968083803490110e+00	 2.330375428204190e+00
 8.263869229708956e-02	 1.968854744185433e+00	 2.323229574814725e+00
 6.600714970048427e-02	 1.969482469115895e+00	 2.306388399078151e+00
 4.942602992861282e-02	 1.969968316945963e+00	 2.277934884531116e+00
 3.289682831496212e-02	 1.970313643390948e+00	 2.236019563506466e+00
 1.642100802566443e-02	 1.970519820392425e+00	 2.178864293884424e+00
 0.000000000000000e+00	 1.970588235300000e+00	 2.104765880934639e+00
 1.672436431683273e-01	 1.972333232983107e+00	 2.321038071370191e+00
 1.503080467239818e-01	 1.973696128165110e+00	 2.324706215688021e+00
 1.334151076412680e-01	 1.974909975751075e+00	 2.325731929832278e+00
 1.165664878574426e-01	 1.975976043499590e+00	 2.323243208422089e+00
 9.976381762141452e-02	 1.976895619662033e+00	 2.316409466354477e+00
 8.300869532458036e-02	 1.977670012134527e+00	 2.304444767489712e+00
 6.630268735432285e-02	 1.978300547613911e+00	 2.286610784851880e+00
 4.964732796979596e-02	 1.978788570758354e+00	 2.262219541547304e+00
 3.304411919960574e-02	 1.979135443353222e+00	 2.230635978065816e+00
 1.649453076097905e-02	 1.979342543482784e+00	 2.191280388011426e+00
 0.000000000000000e+00	 1.979411264708333e+00	 2.143630760600409e+00
 1.679891151223749e-01	 1.981124712770631e+00	 2.338192317427241e+00
 1.509780299364344e-01	 1.982493682922379e+00	 2.334933090878758e+00
 1.340097922531461e-01	 1.983712941113145e+00	 2.328119354061745e+00
 1.170860714176576e-01	 1.984783760752450e+00	 2.317969359997238e+00
 1.002085049455216e-01	 1.985707435833949e+00	 2.304735008825002e+00
 8.337869835277716e-02	 1.986485280083611e+00	 2.288703689940491e+00
 6.659822500879485e-02	 1.987118626111916e+00	 2.270199904519961e+00
 4.986862601150879e-02	 1.987608824570739e+00	 2.249586719689313e+00
 3.319141008464092e-02	 1.987957243315492e+00	 2.227267101822090e+00
 1.656805349650968e-02	 1.988165266573141e+00	 2.203685172602562e+00
 0.000000000000000e+00	 1.988234294116667e+00	 2.179327427550666e+00
 1.687345870770097e-01	 1.989916192558135e+00	 2.354049963092213e+00
 1.516480131495013e-01	 1.991291237679609e+00	 2.344575674712364e+00
 1.346044768656508e-01	 1.992515906475166e+00	 2.330906418243086e+00
 1.176056549784953e-01	 1.993591478005259e+00	 2.314170557307520e+00
 1.006531922702295e-01	 1.994519252005821e+00	 2.295523224030421e+00
 8.374870138153295e-02	 1.995300548032656e+00	 2.276146957692850e+00
 6.689376266376290e-02	 1.995936704609892e+00	 2.257252166934300e+00
 5.008992405363184e-02	 1.996429078383105e+00	 2.240077468744105e+00
 3.333870096997602e-02	 1.996779043277751e+00	 2.225889953491335e+00
 1.664157623220401e-02	 1.996987989663497e+00	 2.215985421171895e+00
 0.000000000000000e+00	 1.997057323525000e+00	 2.211688629891196e+00
 1.694800590321062e-01	 1.998707672345530e+00	 2.368715045192651e+00
 1.523179963630489e-01	 2.000088792436724e+00	 2.353786582711130e+00
 1.351991614786409e-01	 2.001318871837074e+00	 2.334270900291307e+00
 1.181252385398084e-01	 2.002399195257965e+00	 2.312028850769946e+00
 1.010978795953882e-01	 2.003331068177603e+00	 2.288942057228496e+00
 8.411870441070078e-02	 2.004115815981633e+00	 2.266912529515843e+00
 6.718930031908958e-02	 2.004754783107819e+00	 2.247862141820951e+00
 5.031122209604558e-02	 2.005249332195440e+00	 2.233732026458067e+00
 3.348599185551944e-02	 2.005600843239997e+00	 2.226481934822000e+00
 1.671509896800975e-02	 2.005810712753848e+00	 2.228089612189019e+00
 0.000000000000000e+00	 2.005880352933334e+00	 2.240550228667248e+00
 1.702255309875389e-01	 2.007499152132723e+00	 2.382289512724866e+00
 1.529879795769437e-01	 2.008886347193643e+00	 2.362715499779888e+00
 1.357938460919748e-01	 2.010121837198804e+00	 2.338387216467319e+00
 1.186448221014495e-01	 2.011206912510516e+00	 2.311722868030321e+00
 1.015425669208482e-01	 2.012142884349258e+00	 2.285156298097325e+00
 8.448870744013372e-02	 2.012931083930511e+00	 2.261135762728953e+00
 6.748483797463746e-02	 2.013572861605677e+00	 2.242122597416742e+00
 5.053252013863051e-02	 2.014069586007733e+00	 2.230589834052891e+00
 3.363328274117951e-02	 2.014422643202223e+00	 2.229020820482416e+00
 1.678862170387454e-02	 2.014633435844194e+00	 2.239907890765060e+00
 0.000000000000000e+00	 2.014703382341667e+00	 2.265751129700740e+00
 1.709710029431823e-01	 2.016290631919625e+00	 2.394873269162444e+00
 1.536579627910520e-01	 2.017683901950290e+00	 2.371509240982599e+00
 1.363885307055112e-01	 2.018924802560289e+00	 2.343426491597795e+00
 1.191644056632713e-01	 2.020014629762859e+00	 2.313427885551513e+00
 1.019872542464597e-01	 2.020954700520745e+00	 2.284327646561760e+00
 8.485871046968470e-02	 2.021746351879260e+00	 2.258949467075218e+00
 6.778037563026917e-02	 2.022390940103445e+00	 2.240124537130152e+00
 5.075381818126721e-02	 2.022889839819972e+00	 2.230689551340870e+00
 3.378057362686460e-02	 2.023244443164422e+00	 2.233484748215408e+00
 1.686214443974610e-02	 2.023456158934532e+00	 2.251352031341659e+00
 0.000000000000000e+00	 2.023526411750000e+00	 2.287133217210695e+00
 1.717164748989107e-01	 2.025082111706145e+00	 2.406564213693891e+00
 1.543279460052404e-01	 2.026481456706588e+00	 2.380311810764393e+00
 1.369832153191087e-01	 2.027727767921467e+00	 2.349556627491188e+00
 1.196839892251265e-01	 2.028822347014941e+00	 2.317315898358300e+00
 1.024319415720729e-01	 2.029766516692021e+00	 2.286614776922259e+00
 8.522871349920687e-02	 2.030561619827852e+00	 2.260483957203898e+00
 6.807591328584725e-02	 2.031209018601106e+00	 2.241957235256109e+00
 5.097511622383614e-02	 2.031710093632146e+00	 2.234069071451803e+00
 3.392786451248306e-02	 2.032066243126590e+00	 2.239852209251813e+00
 1.693566717557211e-02	 2.032278882024863e+00	 2.262335401352501e+00
 0.000000000000000e+00	 2.032349441158334e+00	 2.304541289162700e+00
 1.724619468545988e-01	 2.033873591492191e+00	 2.417458281421757e+00
 1.549979292193752e-01	 2.035279011462456e+00	 2.389264460666119e+00
 1.375778999326259e-01	 2.036530733282270e+00	 2.356942369604380e+00
 1.202035727868676e-01	 2.037630064266709e+00	 2.323555687994512e+00
 1.028766288975381e-01	 2.038578332863048e+00	 2.292173400337501e+00
 8.559871652855321e-02	 2.039376887776258e+00	 2.265867103804781e+00
 6.837145094123431e-02	 2.040027097098637e+00	 2.247708271773275e+00
 5.119641426621782e-02	 2.040530347444243e+00	 2.240765535183235e+00
 3.407515539794327e-02	 2.040888043088722e+00	 2.248102038975174e+00
 1.700918991130026e-02	 2.041101605115184e+00	 2.272772925827953e+00
 0.000000000000000e+00	 2.041172470566667e+00	 2.317822994295074e+00
 1.732074188101208e-01	 2.042665071277676e+00	 2.427649482554626e+00
 1.556679124333229e-01	 2.044076566217819e+00	 2.398505745576824e+00
 1.381725845459214e-01	 2.045333698642635e+00	 2.365745372012769e+00
 1.207231563483474e-01	 2.046437781518113e+00	 2.332312888746344e+00
 1.033213162227055e-01	 2.047390149033785e+00	 2.301156325710415e+00
 8.596871955757676e-02	 2.048192155724446e+00	 2.275224383434741e+00
 6.866698859629294e-02	 2.048845175596020e+00	 2.257463566251543e+00
 5.141771230829277e-02	 2.049350601256251e+00	 2.250815344985403e+00
 3.422244628315362e-02	 2.049709843050813e+00	 2.258213407829975e+00
 1.708271264687824e-02	 2.049924328205494e+00	 2.282581052914377e+00
 0.000000000000000e+00	 2.049995499975000e+00	 2.326828770771252e+00
 1.739528907653514e-01	 2.051456551062507e+00	 2.437229940622066e+00
 1.563378956469499e-01	 2.052874120972599e+00	 2.408171578568002e+00
 1.387672691588538e-01	 2.054136664002496e+00	 2.376124260734604e+00
 1.212427399094186e-01	 2.055245498769098e+00	 2.343750052183849e+00
 1.037660035474255e-01	 2.056201965204191e+00	 2.313713519025432e+00
 8.633872258613057e-02	 2.057007423672388e+00	 2.288678927075749e+00
 6.896252625088575e-02	 2.057663254093237e+00	 2.271307410896376e+00
 5.163901034994151e-02	 2.058170855068159e+00	 2.264254178591850e+00
 3.436973716802243e-02	 2.058531643012857e+00	 2.270165812466126e+00
 1.715623538225374e-02	 2.058747051295792e+00	 2.291677720280720e+00
 0.000000000000000e+00	 2.058818529383334e+00	 2.331411786409549e+00
 2.058818529383334e+00	 0.000000000000000e+00	 3.704023562523902e+00
 2.058747051295792e+00	 1.715623538225260e-02	 3.773931596960201e+00
 2.058531643012857e+00	 3.436973716802146e-02	 3.884775349391792e+00
 2.058170855068159e+00	 5.163901034994070e-02	 4.007149899159217e+00
 2.057663254093237e+00	 6.896252625088510e-02	 4.111376857480647e+00
 2.057007423672389e+00	 8.633872258613008e-02	 4.167530648642909e+00
 2.056201965204191e+00	 1.037660035474252e-01	 4.145466802352026e+00
 2.055245498769098e+00	 1.212427399094184e-01	 4.014852297071463e+00
 2.054136664002496e+00	 1.387672691588538e-01	 3.745197972026579e+00
 2.052874120972598e+00	 1.563378956469501e-01	 3.305893009958001e+00
 2.051456551062507e+00	 1.739528907653515e-01	 2.666241475846815e+00
 2.067643058796667e+00	 0.000000000000000e+00	 3.238088431951665e+00
 2.067571274338999e+00	 1.722977061700544e-02	 3.422509337735823e+00
 2.067354942770832e+00	 3.451705309343959e-02	 3.629774469116796e+00
 2.066992608413081e+00	 5.186034601400614e-02	 3.831878979413331e+00
 2.066482831753568e+00	 6.925811414933346e-02	 4.000927298186527e+00
 2.065824190305540e+00	 8.670878851840116e-02	 4.109166768457390e+00
 2.065015279472878e+00	 1.042107664729740e-01	 4.129023075950840e+00
 2.064054713421412e+00	 1.217624118044820e-01	 4.033137495120990e+00
 2.062941125955724e+00	 1.393620548737723e-01	 3.794405954191111e+00
 2.061673171400800e+00	 1.570079927641407e-01	 3.386019905427989e+00
 2.060249525487874e+00	 1.746984894580363e-01	 2.781508969588484e+00
 2.076467588210001e+00	 0.000000000000000e+00	 2.820477427332289e+00
 2.076395497382196e+00	 1.730330585155438e-02	 3.103155541410741e+00
 2.076178242528763e+00	 3.466436901851108e-02	 3.389286985930543e+00
 2.075814361757913e+00	 5.208168167763481e-02	 3.653564596451590e+00
 2.075302409413750e+00	 6.955370204729899e-02	 3.871122957506303e+00
 2.074640956938473e+00	 8.707885445017870e-02	 4.017576586434628e+00
 2.073828593741268e+00	 1.046555293980448e-01	 4.069059684469695e+00
 2.072863928073350e+00	 1.222820836991005e-01	 4.002267468832780e+00
 2.071745587908495e+00	 1.399568405882870e-01	 3.794499076826824e+00
 2.070472221828470e+00	 1.576780898809677e-01	 3.423702016608817e+00
 2.069042499912646e+00	 1.754440881503876e-01	 2.868518121729763e+00
 2.085292117623334e+00	 0.000000000000000e+00	 2.448085046543812e+00
 2.085219720425382e+00	 1.737684108595038e-02	 2.817695253072817e+00
 2.085001542286666e+00	 3.481168494332260e-02	 3.169051887648314e+00
 2.084636115102676e+00	 5.230301734093597e-02	 3.480824207066259e+00
 2.084121987073818e+00	 6.984928994490247e-02	 3.732405800217027e+00
 2.083457723571238e+00	 8.744892038158603e-02	 3.903954529426345e+00
 2.082641908009435e+00	 1.051002923227571e-01	 3.976433808771857e+00
 2.081673142725004e+00	 1.228017555933854e-01	 3.931655226190388e+00
 2.080550049860926e+00	 1.405516263024989e-01	 3.752322493304725e+00
 2.079271272255744e+00	 1.583481869975220e-01	 3.422076690409272e+00
 2.077835474336971e+00	 1.761896868424884e-01	 2.925542756268952e+00
 2.094116647036667e+00	 0.000000000000000e+00	 2.117871539912481e+00
 2.094043943468564e+00	 1.745037632024442e-02	 2.567932814861632e+00
 2.093824842044546e+00	 3.495900086796078e-02	 2.974718419444410e+00
 2.093457868447397e+00	 5.252435300401877e-02	 3.322134222900884e+00
 2.092941564733811e+00	 7.014487784226459e-02	 3.595043494938663e+00
 2.092274490203895e+00	 8.781898631274664e-02	 3.779305835406910e+00
 2.091455222277453e+00	 1.055450552472305e-01	 3.861817205310214e+00
 2.090482357376469e+00	 1.233214274874477e-01	 3.830551063070696e+00
 2.089354511813128e+00	 1.411464120165089e-01	 3.674600587066291e+00
 2.088070322682753e+00	 1.590182841138945e-01	 3.384221948923271e+00
 2.086628448760997e+00	 1.769352855344224e-01	 2.950878584173673e+00
 2.102941176450000e+00	 0.000000000000000e+00	 1.826861530633158e+00
 2.102868166511744e+00	 1.752391155448750e-02	 2.355652268711010e+00
 2.102648141802415e+00	 3.510631679251230e-02	 2.811847908677215e+00
 2.102279621792095e+00	 5.274568866699238e-02	 3.185832890406660e+00
 2.101761142393767e+00	 7.044046573950599e-02	 3.469132975701155e+00
 2.101091256836495e+00	 8.818905224378382e-02	 3.654450416706742e+00
 2.100268536545397e+00	 1.059898181715844e-01	 3.735699984815195e+00
 2.099291572027842e+00	 1.238410993813988e-01	 3.708045865067596e+00
 2.098158973765217e+00	 1.417411977304180e-01	 3.567939398327557e+00
 2.096869373109628e+00	 1.596883812301762e-01	 3.313157636998625e+00
 2.095421423184876e+00	 1.776808842262730e-01	 2.942842662222223e+00
 2.111765705863333e+00	 0.000000000000000e+00	 1.572142669779898e+00
 2.111692389554924e+00	 1.759744678873057e-02	 2.182617749014591e+00
 2.111471441560285e+00	 3.525363271706382e-02	 2.685915544042266e+00
 2.111101375136792e+00	 5.296702432996599e-02	 3.080123098773884e+00
 2.110580720053723e+00	 7.073605363674738e-02	 3.364603914539328e+00
 2.109908023469095e+00	 8.855911817482100e-02	 3.540026626893953e+00
 2.109081850813340e+00	 1.064345810959382e-01	 3.608394296974838e+00
 2.108100786679215e+00	 1.243607712753499e-01	 3.573074327528921e+00
 2.106963435717304e+00	 1.423359834443270e-01	 3.438828991242821e+00
 2.105668423536505e+00	 1.603584783464578e-01	 3.211846542681663e+00
 2.104214397608754e+00	 1.784264829181235e-01	 2.899772867446605e+00
 2.120590235276666e+00	 0.000000000000000e+00	 1.350864324898212e+00
 2.120516612598105e+00	 1.767098202302463e-02	 2.050573865507075e+00
 2.120294741318165e+00	 3.540094864170201e-02	 2.602312110383721e+00
 2.119923128481511e+00	 5.318835999304879e-02	 3.013075117936705e+00
 2.119400297713716e+00	 7.103164153410949e-02	 3.291222107707707e+00
 2.118724790101751e+00	 8.892918410598157e-02	 3.446494934110822e+00
 2.117895165081359e+00	 1.068793440204116e-01	 3.490037923845327e+00
 2.116910001330680e+00	 1.248804431694123e-01	 3.434418096188770e+00
 2.115767897669507e+00	 1.429307691583371e-01	 3.293645763262539e+00
 2.114467473963513e+00	 1.610285754628304e-01	 3.083195491327951e+00
 2.113007372032781e+00	 1.791720816100575e-01	 2.820027386722654e+00
 2.129414764689999e+00	 0.000000000000000e+00	 1.160236301205471e+00
 2.129340835641293e+00	 1.774451725742063e-02	 1.961246076645223e+00
 2.129118041076065e+00	 3.554826456651351e-02	 2.566345680450948e+00
 2.128744881826276e+00	 5.340969565634995e-02	 2.992629268679273e+00
 2.128219875373785e+00	 7.132722943171296e-02	 3.258592778020994e+00
 2.127541556734517e+00	 8.929925003738894e-02	 3.384141503578515e+00
 2.126708479349526e+00	 1.073241069451239e-01	 3.390597784639736e+00
 2.125719215982335e+00	 1.254001150636971e-01	 3.300708830698883e+00
 2.124572359621937e+00	 1.435255548725490e-01	 3.138654698361948e+00
 2.123266524390786e+00	 1.616986725793848e-01	 2.930056414143186e+00
 2.121800346457106e+00	 1.799176803021584e-01	 2.701984221067808e+00
 2.138239294103332e+00	 0.000000000000000e+00	 9.975275944572681e-01
 2.138165058684489e+00	 1.781805249196956e-02	 1.916341053763541e+00
 2.137941340833998e+00	 3.569558049158501e-02	 2.583243264843519e+00
 2.137566635171108e+00	 5.363103131997866e-02	 3.026598526805468e+00
 2.137039453033966e+00	 7.162281732967855e-02	 3.276163795743194e+00
 2.136358323367448e+00	 8.966931596916647e-02	 3.363081691894423e+00
 2.135521793617915e+00	 1.077688698701947e-01	 3.319873354454976e+00
 2.134528430634272e+00	 1.259197869583157e-01	 3.180431193286132e+00
 2.133376821574709e+00	 1.441203405870637e-01	 2.980011565762378e+00
 2.132065574818457e+00	 1.623687696962117e-01	 2.755227391892652e+00
 2.130593320881878e+00	 1.806632789945096e-01	 2.544040704221720e+00
 2.147063823516666e+00	 0.000000000000000e+00	 8.600651745686109e-01
 2.146989281727697e+00	 1.789158772672240e-02	 1.917547036269174e+00
 2.146764640591973e+00	 3.584289641700315e-02	 2.658152421348114e+00
 2.146388388516029e+00	 5.385236698404408e-02	 3.122671063268625e+00
 2.145859030694298e+00	 7.191840522812687e-02	 3.353228820368805e+00
 2.145175090000602e+00	 9.003938190143755e-02	 3.393263455659643e+00
 2.144335107886603e+00	 1.082136327957435e-01	 3.287499999413222e+00
 2.143337645286588e+00	 1.264394588533793e-01	 3.081925764690632e+00
 2.142181283527938e+00	 1.447151263019822e-01	 2.823765065712961e+00
 2.140864625246658e+00	 1.630388668134023e-01	 2.561453674493819e+00
 2.139386295307245e+00	 1.814088776871945e-01	 2.344613035098706e+00
 2.051456551062507e+00	 1.739528907653515e-01	 2.666241475846816e+00
 2.049882376857315e+00	 1.916134916374238e-01	 1.993114624065858e+00
 2.048150551895931e+00	 2.093148770557507e-01	 1.475789052296004e+00
 2.046259825926267e+00	 2.270551764944074e-01	 1.116276085656540e+00
 2.044208973657273e+00	 2.448324862854191e-01	 9.159402075463416e-01
 2.041996795666765e+00	 2.626448699171346e-01	 8.754869293725560e-01
 2.039622119309464e+00	 2.804903583591599e-01	 9.949517145042192e-01
 2.037083799624415e+00	 2.983669504141306e-01	 1.273689867387146e+00
 2.034380720240965e+00	 3.162726130965752e-01	 1.710367276959699e+00
 2.031511794282461e+00	 3.342052820390937e-01	 2.302951881122674e+00
 2.028475965266763e+00	 3.521628619260533e-01	 3.048705696178357e+00
 2.060249525487874e+00	 1.746984894580363e-01	 2.781508969588485e+00
 2.058668604040913e+00	 1.924347873813847e-01	 2.142394138722453e+00
 2.056929356113464e+00	 2.102120446620651e-01	 1.650261439552479e+00
 2.055030526094590e+00	 2.280283827566950e-01	 1.307927715215897e+00
 2.052970883441376e+00	 2.458818898377876e-01	 1.117222963718581e+00
 2.050749223590655e+00	 2.637706210934052e-01	 1.078970689249412e+00
 2.048364368870937e+00	 2.816925990534855e-01	 1.192969651681772e+00
 2.045815169413713e+00	 2.996458139431212e-01	 1.457976942574304e+00
 2.043100504063327e+00	 3.176282240630477e-01	 1.871692293473748e+00
 2.040219281284530e+00	 3.356377561975623e-01	 2.430743499154331e+00
 2.037170440066873e+00	 3.536723060500791e-01	 3.130672814740907e+00
 2.069042499912646e+00	 1.754440881503876e-01	 2.868518121729764e+00
 2.067454831223859e+00	 1.932560831250240e-01	 2.281062015481758e+00
 2.065708160330302e+00	 2.111092122680537e-01	 1.830147543027695e+00
 2.063801226262183e+00	 2.290015890186395e-01	 1.518746755422038e+00
 2.061732793224723e+00	 2.469312933897866e-01	 1.348565245005803e+00
 2.059501651513772e+00	 2.648963722692743e-01	 1.320017094645105e+00
 2.057106618431624e+00	 2.828948397473754e-01	 1.432201544104442e+00
 2.054546539202219e+00	 3.009246774716440e-01	 1.682881315416099e+00
 2.051820287884890e+00	 3.189838350290254e-01	 2.068462515811947e+00
 2.048926768285800e+00	 3.370702303555184e-01	 2.583976012764866e+00
 2.045864914866182e+00	 3.551817501735879e-01	 3.223060151088515e+00
 2.077835474336971e+00	 1.761896868424884e-01	 2.925542756268953e+00
 2.076241058406319e+00	 1.940773788684221e-01	 2.402437758459298e+00
 2.074486964546619e+00	 2.120063798737980e-01	 2.004805615962093e+00
 2.072571926429228e+00	 2.299747952803273e-01	 1.735133157570356e+00
 2.070494703007504e+00	 2.479806969415096e-01	 1.594420998331898e+00
 2.068254079436308e+00	 2.660221234448447e-01	 1.582155187455286e+00
 2.065848867991720e+00	 2.840970804409430e-01	 1.696280867539981e+00
 2.063277908990127e+00	 3.022035409998225e-01	 1.933177896741755e+00
 2.060540071705855e+00	 3.203394459946423e-01	 2.287638361327043e+00
 2.057634255286470e+00	 3.385027045131051e-01	 2.752845881133610e+00
 2.054559389664892e+00	 3.566911942967295e-01	 3.320356584882798e+00
 2.086628448760997e+00	 1.769352855344224e-01	 2.950878584173674e+00
 2.085027285588453e+00	 1.948986746116594e-01	 2.499945784199704e+00
 2.083265768762588e+00	 2.129035474793797e-01	 2.163765390197469e+00
 2.081342626595910e+00	 2.309480015418445e-01	 1.943708287446122e+00
 2.079256612789907e+00	 2.490301004930505e-01	 1.839498727849820e+00
 2.077006507358456e+00	 2.671478746202191e-01	 1.849184761924834e+00
 2.074591117551423e+00	 2.852993211343013e-01	 1.969110951799427e+00
 2.072009278777640e+00	 3.034824045277809e-01	 2.193893322809648e+00
 2.069259855526420e+00	 3.216950569600323e-01	 2.516396486183115e+00
 2.066341742286739e+00	 3.399351786704650e-01	 2.927712839379551e+00
 2.063253864463201e+00	 3.582006384196532e-01	 3.417143724049437e+00
 2.095421423184876e+00	 1.776808842262730e-01	 2.942842662222223e+00
 2.093813512770422e+00	 1.957199703548164e-01	 2.567113158827750e+00
 2.092044572978384e+00	 2.138007150848803e-01	 2.296724441997963e+00
 2.090113326762409e+00	 2.319212078032777e-01	 2.131310273686411e+00
 2.088018522572121e+00	 2.500795040445029e-01	 2.068756183042023e+00
 2.085758935280412e+00	 2.682736257955009e-01	 2.105170752824432e+00
 2.083333367110929e+00	 2.865015618275639e-01	 2.234859432272848e+00
 2.080740648564953e+00	 3.047612680556430e-01	 2.450300836232227e+00
 2.077979639346784e+00	 3.230506679253297e-01	 2.742125464242295e+00
 2.075049229286808e+00	 3.413676528277410e-01	 3.099096746314980e+00
 2.071948339261310e+00	 3.597100825425086e-01	 3.508094294422421e+00
 2.104214397608754e+00	 1.784264829181235e-01	 2.899772867446604e+00
 2.102599739952394e+00	 1.965412660979735e-01	 2.597567394392128e+00
 2.100823377194180e+00	 2.146978826903816e-01	 2.393544651910151e+00
 2.098884026928908e+00	 2.328944140647129e-01	 2.284989476192485e+00
 2.096780432354335e+00	 2.511289075959603e-01	 2.267395183965079e+00
 2.094511363202366e+00	 2.693993769707924e-01	 2.334437768866883e+00
 2.092075616670435e+00	 2.877038025208437e-01	 2.477952845727955e+00
 2.089472018352266e+00	 3.060401315835327e-01	 2.687915301044774e+00
 2.086699423167150e+00	 3.244062788906682e-01	 2.952421580769110e+00
 2.083756716286878e+00	 3.428001269850761e-01	 3.257674518424517e+00
 2.080642814059420e+00	 3.612195266654452e-01	 3.587970577700330e+00
 2.113007372032781e+00	 1.791720816100575e-01	 2.820027386722653e+00
 2.111385967134528e+00	 1.973625618412110e-01	 2.585034302678188e+00
 2.109602181410150e+00	 2.155950502959652e-01	 2.444248755922571e+00
 2.107654727095589e+00	 2.338676203262365e-01	 2.392004071095837e+00
 2.105542342136737e+00	 2.521783111475165e-01	 2.420856579643349e+00
 2.103263791124515e+00	 2.705251281461971e-01	 2.521564767132127e+00
 2.100817866230138e+00	 2.889060432142541e-01	 2.683071366169284e+00
 2.098203388139777e+00	 3.073189951115737e-01	 2.892488348010388e+00
 2.095419206987715e+00	 3.257618898561822e-01	 3.135084737608163e+00
 2.092464203287147e+00	 3.442326011426128e-01	 3.394277147557767e+00
 2.089337288857729e+00	 3.627289707886123e-01	 3.651622896307625e+00
 2.121800346457106e+00	 1.799176803021584e-01	 2.701984221067808e+00
 2.120172194316986e+00	 1.981838575846094e-01	 2.523335904822259e+00
 2.118380985626466e+00	 2.164922179017126e-01	 2.439016985276435e+00
 2.116425427262635e+00	 2.348408265879351e-01	 2.439815748896792e+00
 2.114304251919518e+00	 2.532277146992651e-01	 2.514815335749150e+00
 2.112016219047050e+00	 2.716508793218174e-01	 2.651379864410845e+00
 2.109560115790234e+00	 2.901082839079083e-01	 2.835143676694804e+00
 2.106934757927686e+00	 3.085978586398903e-01	 3.050003646383186e+00
 2.104138990808679e+00	 3.271175008220056e-01	 3.278114466601279e+00
 2.101171690287817e+00	 3.456650753004945e-01	 3.499886799907130e+00
 2.098031763656439e+00	 3.642384149121597e-01	 3.693988143800073e+00
 2.130593320881878e+00	 1.806632789945096e-01	 2.544040704221720e+00
 2.128958421499933e+00	 1.990051533282493e-01	 2.406388395115540e+00
 2.127159789843305e+00	 2.173893855077057e-01	 2.368183792366340e+00
 2.125196127430228e+00	 2.358140328498946e-01	 2.416085522506042e+00
 2.123066161702865e+00	 2.542771182512998e-01	 2.535175747834542e+00
 2.120768646970167e+00	 2.727766304977565e-01	 2.708955281510825e+00
 2.118302365350920e+00	 2.913105246019196e-01	 2.919341973421255e+00
 2.115666127716191e+00	 3.098767221686060e-01	 3.146672298476579e+00
 2.112858774630242e+00	 3.284731117882725e-01	 3.369706048117278e+00
 2.109879177289086e+00	 3.470975494588635e-01	 3.565633993922801e+00
 2.106726238455749e+00	 3.657478590362366e-01	 3.710088359499122e+00
 2.139386295307245e+00	 1.814088776871945e-01	 2.344613035098705e+00
 2.137744648683532e+00	 1.998264490722111e-01	 2.228200157438480e+00
 2.135938594060838e+00	 2.182865531140259e-01	 2.222234660254236e+00
 2.133966827598551e+00	 2.367872391122015e-01	 2.308669642027306e+00
 2.131828071486969e+00	 2.553265218037142e-01	 2.468066776502570e+00
 2.129521074894057e+00	 2.739023816741171e-01	 2.679602416700968e+00
 2.127044614912394e+00	 2.925127652964011e-01	 2.921077097678557e+00
 2.124397497505491e+00	 3.111555856978451e-01	 3.168928353503326e+00
 2.121578558452605e+00	 3.298287227551169e-01	 3.398246731670310e+00
 2.118586664291155e+00	 3.485300236178631e-01	 3.582794854893761e+00
 2.115420713255859e+00	 3.672573031609928e-01	 3.695029346082334e+00
 2.028475965266763e+00	 3.521628619260533e-01	 3.048705696178358e+00
 2.025272766653326e+00	 3.701401696115764e-01	 3.667429745512497e+00
 2.021900702832483e+00	 3.881381048101049e-01	 4.022565035645576e+00
 2.018358812783806e+00	 4.061544882653070e-01	 4.262760215524779e+00
 2.014646169384433e+00	 4.241871119009676e-01	 4.389714869218882e+00
 2.010761880278761e+00	 4.422337393928923e-01	 4.405446533385072e+00
 2.006705088739459e+00	 4.602921067687453e-01	 4.312319087505097e+00
 2.002474974518841e+00	 4.783599230357982e-01	 4.113039688437176e+00
 1.998070754689647e+00	 4.964348708365260e-01	 3.810654129066855e+00
 1.993491684474229e+00	 5.145146071319616e-01	 3.408540542246562e+00
 1.988737058061177e+00	 5.325967639126696e-01	 2.910401372418796e+00
 2.037170440066873e+00	 3.536723060500791e-01	 3.130672814740908e+00
 2.033953511870113e+00	 3.717266682586763e-01	 3.698294743013357e+00
 2.030566994674092e+00	 3.898017463941682e-01	 4.028062626189016e+00
 2.027009923339256e+00	 4.078953518594775e-01	 4.244303453886305e+00
 2.023281366768910e+00	 4.260052671141150e-01	 4.348686683025125e+00
 2.019380428782637e+00	 4.441292462485367e-01	 4.343520687774657e+00
 2.015306248981001e+00	 4.622650155865509e-01	 4.231756535173540e+00
 2.011058003600574e+00	 4.804102743157578e-01	 4.016989974148411e+00
 2.006634906358315e+00	 4.985626951459567e-01	 3.703461542336044e+00
 2.002036209284311e+00	 5.167199249954290e-01	 3.296054695987261e+00
 1.997261203541910e+00	 5.348795857049577e-01	 2.800291869588423e+00
 2.045864914866182e+00	 3.551817501735879e-01	 3.223060151088515e+00
 2.042634257086100e+00	 3.733131669052712e-01	 3.725544566717778e+00
 2.039233286514900e+00	 3.914653879777524e-01	 4.016566387186839e+00
 2.035661033893906e+00	 4.096362154532062e-01	 4.198513026623600e+00
 2.031916564152587e+00	 4.278234223268679e-01	 4.273230118049208e+00
 2.027998977285713e+00	 4.460247531038403e-01	 4.243438198573562e+00
 2.023907409221743e+00	 4.642379244040728e-01	 4.112740613964500e+00
 2.019641032681508e+00	 4.824606255954923e-01	 3.885629394424917e+00
 2.015199058026183e+00	 5.006905194552196e-01	 3.567488992847600e+00
 2.010580734093593e+00	 5.189252428587805e-01	 3.164597777776438e+00
 2.005785349021840e+00	 5.371624074971756e-01	 2.684127174783202e+00
 2.054559389664892e+00	 3.566911942967295e-01	 3.320356584882797e+00
 2.051315002301486e+00	 3.748996655515140e-01	 3.748098036383662e+00
 2.047899578355109e+00	 3.931290295610114e-01	 3.990621484851077e+00
 2.044312144447956e+00	 4.113770790466464e-01	 4.130823461685903e+00
 2.040551761535664e+00	 4.296415775393758e-01	 4.170898848261759e+00
 2.036617525788189e+00	 4.479202599589470e-01	 4.114098867019769e+00
 2.032508569461885e+00	 4.662108332214486e-01	 3.964741908786073e+00
 2.028224061761841e+00	 4.845109768751312e-01	 3.728222136903353e+00
 2.023763209693450e+00	 5.028183437644346e-01	 3.411015749177174e+00
 2.019125258902276e+00	 5.211305607221275e-01	 3.020684779660304e+00
 2.014309494501172e+00	 5.394452292894243e-01	 2.565878323871313e+00
 2.063253864463201e+00	 3.582006384196532e-01	 3.417143724049437e+00
 2.059995747516472e+00	 3.764861641975579e-01	 3.764859559366495e+00
 2.056565870194917e+00	 3.947926711441001e-01	 3.952727071067818e+00
 2.052963255001605e+00	 4.131179426399513e-01	 4.046574647412839e+00
 2.049186958918340e+00	 4.314597327517884e-01	 4.049116272279691e+00
 2.045236074290263e+00	 4.498157668140014e-01	 3.964249618370263e+00
 2.041109729701627e+00	 4.681837420388157e-01	 3.797068600510422e+00
 2.036807090841774e+00	 4.865613281548041e-01	 3.553873558884733e+00
 2.032327361360318e+00	 5.049461680737224e-01	 3.242178945785630e+00
 2.027669783710558e+00	 5.233358785855805e-01	 2.870718390519938e+00
 2.022833639980103e+00	 5.417280510818046e-01	 2.449447018751956e+00
 2.071948339261310e+00	 3.597100825425086e-01	 3.508094294422423e+00
 2.068676492731258e+00	 3.780726628435567e-01	 3.774748791530578e+00
 2.065232162034526e+00	 3.964563127271726e-01	 3.905337285119979e+00
 2.061614365555055e+00	 4.148588062332741e-01	 3.951013863510998e+00
 2.057822156300817e+00	 4.332778879642556e-01	 3.915178301528076e+00
 2.053854622792139e+00	 4.517112736691478e-01	 3.802487774190856e+00
 2.049710889941170e+00	 4.701566508563120e-01	 3.618869948514518e+00
 2.045390119921507e+00	 4.886116794346401e-01	 3.371533605601653e+00
 2.040891513026985e+00	 5.070739923832034e-01	 3.068976662015773e+00
 2.036214308518640e+00	 5.255411964492500e-01	 2.720991460506496e+00
 2.031357785458835e+00	 5.440108728744170e-01	 2.338667201825325e+00
 2.080642814059420e+00	 3.612195266654452e-01	 3.587970577700332e+00
 2.077357237946044e+00	 3.796591614896633e-01	 3.776700347902617e+00
 2.073898453874134e+00	 3.981199543103834e-01	 3.850862232061273e+00
 2.070265476108505e+00	 4.165996698267676e-01	 3.849297763032135e+00
 2.066457353683294e+00	 4.350960431769266e-01	 3.776256080580376e+00
 2.062473171294014e+00	 4.536067805245310e-01	 3.637264244852516e+00
 2.058312050180712e+00	 4.721295596740745e-01	 3.439139688327002e+00
 2.053973149001240e+00	 4.906620307147687e-01	 3.190000145378323e+00
 2.049455664693653e+00	 5.092018166929979e-01	 2.899270926667787e+00
 2.044758833326722e+00	 5.277465143132476e-01	 2.577689406646961e+00
 2.039881930937567e+00	 5.462936946673629e-01	 2.237306594133212e+00
 2.089337288857729e+00	 3.627289707886123e-01	 3.651622896307625e+00
 2.086037983161030e+00	 3.812456601360313e-01	 3.769663522158457e+00
 2.082564745713942e+00	 3.997835958938872e-01	 3.791668938421459e+00
 2.078916586662154e+00	 4.183405334205854e-01	 3.746494306780024e+00
 2.075092551065970e+00	 4.369141983899517e-01	 3.639398641652785e+00
 2.071091719796090e+00	 4.555022873802948e-01	 3.476886644558573e+00
 2.066913210420454e+00	 4.741024684922414e-01	 3.266719346853949e+00
 2.062556178081173e+00	 4.927123819953196e-01	 3.017922224104638e+00
 2.058019816360520e+00	 5.113296410032265e-01	 2.740790650321269e+00
 2.053303358135004e+00	 5.299518321776834e-01	 2.446892561334159e+00
 2.048406076416498e+00	 5.485765164607425e-01	 2.149068198228607e+00
 2.098031763656439e+00	 3.642384149121597e-01	 3.693988143800073e+00
 2.094718728376417e+00	 3.828321587828140e-01	 3.752602014687601e+00
 2.091231037554151e+00	 4.014472374778383e-01	 3.730082285900490e+00
 2.087567697216205e+00	 4.200813970148803e-01	 3.647584651526146e+00
 2.083727748449047e+00	 4.387323536034800e-01	 3.511535495162797e+00
 2.079710268298565e+00	 4.573977942365838e-01	 3.329522331150191e+00
 2.075514370660597e+00	 4.760753773109498e-01	 3.110301477574744e+00
 2.071139207161506e+00	 4.947627332764222e-01	 2.863803241364586e+00
 2.066583968027788e+00	 5.134574653140096e-01	 2.601134487499980e+00
 2.061847882943687e+00	 5.321571500426682e-01	 2.334578465357608e+00
 2.056930221895829e+00	 5.508593382546569e-01	 2.077591766797311e+00
 2.106726238455749e+00	 3.657478590362366e-01	 3.710088359499122e+00
 2.103399473592404e+00	 3.844186574301646e-01	 3.724493668987310e+00
 2.099897329394959e+00	 4.031108790623909e-01	 3.668385923687400e+00
 2.096218807770854e+00	 4.218222606098053e-01	 3.557464993368650e+00
 2.092362945832724e+00	 4.405505088176614e-01	 3.399479158198901e+00
 2.088328816801641e+00	 4.592933010935424e-01	 3.203201372863052e+00
 2.084115530901338e+00	 4.780482861303370e-01	 2.978432818019782e+00
 2.079722236242440e+00	 4.968130845582060e-01	 2.736004050482464e+00
 2.075148119695656e+00	 5.155852896254678e-01	 2.487773630705748e+00
 2.070392407752969e+00	 5.343624679083132e-01	 2.246624107077600e+00
 2.065454367375761e+00	 5.531421600492069e-01	 2.026455238021080e+00
 2.115420713255859e+00	 3.672573031609928e-01	 3.695029346082335e+00
 2.112080218809191e+00	 3.860051560782366e-01	 3.684330216146727e+00
 2.108563621236568e+00	 4.047745206476998e-01	 3.608823160018959e+00
 2.104869918326306e+00	 4.235631242055140e-01	 3.480948367524919e+00
 2.100998143217202e+00	 4.423686640326460e-01	 3.309927622687903e+00
 2.096947365305518e+00	 4.611888079513150e-01	 3.105819444137053e+00
 2.092716691142881e+00	 4.800211949505413e-01	 2.879517371766064e+00
 2.088305265324173e+00	 4.988634358408002e-01	 2.642745984675777e+00
 2.083712271364325e+00	 5.177131139377213e-01	 2.408054538282075e+00
 2.078936932563052e+00	 5.365677857747292e-01	 2.188808109292025e+00
 2.073978512856493e+00	 5.554249818444937e-01	 1.999176138639096e+00
 1.988737058061177e+00	 5.325967639126696e-01	 2.910401372418796e+00
 1.983806209841261e+00	 5.506789491896563e-01	 2.422367556702027e+00
 1.978698516497631e+00	 5.687587485405461e-01	 2.046210178234696e+00
 1.973413396484585e+00	 5.868337251852063e-01	 1.779161998296811e+00
 1.967950310349670e+00	 6.049014205584747e-01	 1.618219480497460e+00
 1.962308761470183e+00	 6.229593551559282e-01	 1.560125229964019e+00
 1.956488296771135e+00	 6.410050294055930e-01	 1.601348925857953e+00
 1.950488507423679e+00	 6.590359245652063e-01	 1.738066704041855e+00
 1.944309029523059e+00	 6.770495036445779e-01	 1.966138951363990e+00
 1.937949544745086e+00	 6.950432123525722e-01	 2.281086478244073e+00
 1.931409780980206e+00	 7.130144800681855e-01	 2.678065042046184e+00
 1.997261203541910e+00	 5.348795857049577e-01	 2.800291869588423e+00
 1.992309220668944e+00	 5.530392750329843e-01	 2.319908398702970e+00
 1.987179634676896e+00	 5.711965682083980e-01	 1.952955766115136e+00
 1.981871861527434e+00	 5.893490180064977e-01	 1.696576591320384e+00
 1.976385359455892e+00	 6.074941553241785e-01	 1.547457852536826e+00
 1.970719629710934e+00	 6.256294900293221e-01	 1.501810004657487e+00
 1.964874217275590e+00	 6.437525118362468e-01	 1.555344805582264e+00
 1.958848711568684e+00	 6.618606912068137e-01	 1.703251815276637e+00
 1.952642747125680e+00	 6.799514802767427e-01	 1.940173536298749e+00
 1.946256004257984e+00	 6.980223138066511e-01	 2.260179169494160e+00
 1.939688209689715e+00	 7.160706101572964e-01	 2.656736964088094e+00
 2.005785349021840e+00	 5.371624074971756e-01	 2.684127174783202e+00
 2.000812231495826e+00	 5.553996008762783e-01	 2.224235388462532e+00
 1.995660752855364e+00	 5.736343878762442e-01	 1.876188988315344e+00
 1.990330326569490e+00	 5.918643108278056e-01	 1.637029786111748e+00
 1.984820408561330e+00	 6.100868900899152e-01	 1.503167882529218e+00
 1.979130497950917e+00	 6.282996249027633e-01	 1.470358146481784e+00
 1.973260137779301e+00	 6.464999942669614e-01	 1.533675571391348e+00
 1.967208915712976e+00	 6.646854578484974e-01	 1.687489478291788e+00
 1.960976464727635e+00	 6.828534569090018e-01	 1.925436539851230e+00
 1.954562463770272e+00	 7.010014152608478e-01	 2.240392604149124e+00
 1.947966638398685e+00	 7.191267402465555e-01	 2.624443302362135e+00
 2.014309494501172e+00	 5.394452292894243e-01	 2.565878323871313e+00
 2.009315242322110e+00	 5.577599267196292e-01	 2.136663563714136e+00
 2.004141871033233e+00	 5.760722075441648e-01	 1.815125006544194e+00
 1.998788791610951e+00	 5.943796036491991e-01	 1.598193573676981e+00
 1.993255457666181e+00	 6.126796248557445e-01	 1.482035309633947e+00
 1.987541366190324e+00	 6.309697597763001e-01	 1.462025900460827e+00
 1.981646058282454e+00	 6.492474766977745e-01	 1.532724191358759e+00
 1.975569119856737e+00	 6.675102244902823e-01	 1.687844677094359e+00
 1.969310182329090e+00	 6.857554335413676e-01	 1.920228942697010e+00
 1.962868923282101e+00	 7.039805167151612e-01	 2.221816036548969e+00
 1.956245067107252e+00	 7.221828703359467e-01	 2.583611763136660e+00
 2.022833639980103e+00	 5.417280510818046e-01	 2.449447018751956e+00
 2.017818253147993e+00	 5.601202525631275e-01	 2.058483480123599e+00
 2.012622989210703e+00	 5.785100272122409e-01	 1.768989970615802e+00
 2.007247256652015e+00	 5.968948964707489e-01	 1.577777009770098e+00
 2.001690506770640e+00	 6.152723596217257e-01	 1.480799615297351e+00
 1.995952234429347e+00	 6.336398946499822e-01	 1.473130533088766e+00
 1.990031978785235e+00	 6.519949591287233e-01	 1.548932543012681e+00
 1.983929324000143e+00	 6.703349911321941e-01	 1.701429815581166e+00
 1.977643899930212e+00	 6.886574101738524e-01	 1.922878298507032e+00
 1.971175382793627e+00	 7.069596181695894e-01	 2.204535116667454e+00
 1.964523495815548e+00	 7.252390004254544e-01	 2.536626974056750e+00
 2.031357785458835e+00	 5.440108728744170e-01	 2.338667201825324e+00
 2.026321263973674e+00	 5.624805784068644e-01	 1.990961856506609e+00
 2.021104107387973e+00	 5.809478468805528e-01	 1.737020931429878e+00
 2.015705721692882e+00	 5.994101892925254e-01	 1.573525592857163e+00
 2.010125555874903e+00	 6.178650943879190e-01	 1.496253063495648e+00
 2.004363102668178e+00	 6.363100295238575e-01	 1.500049232087566e+00
 1.998417899287829e+00	 6.547424415598448e-01	 1.578800369650144e+00
 1.992289528143369e+00	 6.731597577742570e-01	 1.725403927120787e+00
 1.985977617531167e+00	 6.915593868064690e-01	 1.931738393039764e+00
 1.979481842305000e+00	 7.099387196241318e-01	 2.188632194348590e+00
 1.972801924523711e+00	 7.282951305150630e-01	 2.485831628409978e+00
 2.039881930937567e+00	 5.462936946673629e-01	 2.237306594133212e+00
 2.034824274799357e+00	 5.648409042509300e-01	 1.935342207205258e+00
 2.029585225565243e+00	 5.833856665491816e-01	 1.718465759662489e+00
 2.024164186733747e+00	 6.019254821145991e-01	 1.583220661399675e+00
 2.018560604979166e+00	 6.204578291543844e-01	 1.525239768961467e+00
 2.012773970907009e+00	 6.389801643979751e-01	 1.539218037869082e+00
 2.006803819790424e+00	 6.574899239911769e-01	 1.618884267137463e+00
 2.000649732286595e+00	 6.759845244164968e-01	 1.756971908472467e+00
 1.994311335132122e+00	 6.944613634392292e-01	 1.945188916501210e+00
 1.987788301816373e+00	 7.129178210787869e-01	 2.174186620836902e+00
 1.981080353231873e+00	 7.313512606047566e-01	 2.433527605825583e+00
 2.048406076416498e+00	 5.485765164607425e-01	 2.149068198228607e+00
 2.043327285625239e+00	 5.672012300954161e-01	 1.892845461997486e+00
 2.038066343742712e+00	 5.858234862182075e-01	 1.712583070000740e+00
 2.032622651774812e+00	 6.044407749370398e-01	 1.604678809894575e+00
 2.026995654083625e+00	 6.230505639211810e-01	 1.564654792578883e+00
 2.021184839146032e+00	 6.416502992723842e-01	 1.587130805778052e+00
 2.015189740293205e+00	 6.602374064227561e-01	 1.665796700308920e+00
 2.009009936430000e+00	 6.788092910589392e-01	 1.793383777333020e+00
 2.002645052733243e+00	 6.973633400721456e-01	 1.961635148786220e+00
 1.996094761327899e+00	 7.158969225335539e-01	 2.161275047680389e+00
 1.989358781940170e+00	 7.344073906945200e-01	 2.381977070093423e+00
 2.056930221895829e+00	 5.508593382546569e-01	 2.077591766797311e+00
 2.051830296451523e+00	 5.695615559404130e-01	 1.864670573901345e+00
 2.046547461920581e+00	 5.882613058877115e-01	 1.718642150760712e+00
 2.041081116816273e+00	 6.069560677599187e-01	 1.635751323126617e+00
 2.035430703188476e+00	 6.256432986883688e-01	 1.611443263158801e+00
 2.029595707385439e+00	 6.443204341471325e-01	 1.640338198223125e+00
 2.023575660796358e+00	 6.629848888546198e-01	 1.716205048104977e+00
 2.017370140573761e+00	 6.816340577016080e-01	 1.831933952826261e+00
 2.010978770334698e+00	 7.002653167052311e-01	 1.979507657227455e+00
 2.004401220839730e+00	 7.188760239884309e-01	 2.149971723082307e+00
 1.997637210648736e+00	 7.374635207843371e-01	 2.333403544766478e+00
 2.065454367375761e+00	 5.531421600492069e-01	 2.026455238021079e+00
 2.060333307278406e+00	 5.719218817860114e-01	 1.851995115223487e+00
 2.055028580099048e+00	 5.906991255577745e-01	 1.735922898733068e+00
 2.049539581858329e+00	 6.094713605833055e-01	 1.674323628107179e+00
 2.043865752293914e+00	 6.282360334560075e-01	 1.662599524832658e+00
 2.038006575625422e+00	 6.469905690222695e-01	 1.695446705832412e+00
 2.031961581300069e+00	 6.657323712868055e-01	 1.766830676619840e+00
 2.025730344718055e+00	 6.844588243445296e-01	 1.869960558272212e+00
 2.019312487936653e+00	 7.031672933384970e-01	 1.997262006490628e+00
 2.012707680352018e+00	 7.218551254434172e-01	 2.140348785775521e+00
 2.005915639357706e+00	 7.405196508741925e-01	 2.289992967188677e+00
 2.073978512856493e+00	 5.554249818444937e-01	 1.999176138639096e+00
 2.068836318106088e+00	 5.742822076323024e-01	 1.855975862190353e+00
 2.063509698278315e+00	 5.931369452284766e-01	 1.763715759105891e+00
 2.057998046901178e+00	 6.119866534072709e-01	 1.718314763190417e+00
 2.052300801400137e+00	 6.308287682241573e-01	 1.715166309327310e+00
 2.046417443866173e+00	 6.496607038978439e-01	 1.749117696798593e+00
 2.040347501804525e+00	 6.684798537193505e-01	 1.814448039255332e+00
 2.034090548863060e+00	 6.872835909877286e-01	 1.904844745595010e+00
 2.027646205539275e+00	 7.060692699719570e-01	 2.013378480266563e+00
 2.021014139864915e+00	 7.248342268985118e-01	 2.132476556490596e+00
 2.014194068067215e+00	 7.435757809640704e-01	 2.252920111885734e+00
 1.931409780980206e+00	 7.130144800681855e-01	 2.678065042046184e+00
 1.924688354855402e+00	 7.309637694634421e-01	 3.095170625488342e+00
 1.917786183816244e+00	 7.488854209418625e-01	 3.467149451264307e+00
 1.910703136605119e+00	 7.667768187278619e-01	 3.737615965636630e+00
 1.903439130507891e+00	 7.846353347873409e-01	 3.898446785662713e+00
 1.895994131863790e+00	 8.024583299111958e-01	 3.953516104443019e+00
 1.888368156547483e+00	 8.202431548190312e-01	 3.906982819027883e+00
 1.880561270422445e+00	 8.379871512822787e-01	 3.763306504021053e+00
 1.872573589764845e+00	 8.556876532658934e-01	 3.527264896546258e+00
 1.864405281657153e+00	 8.733419880877550e-01	 3.203972933855602e+00
 1.856056564350709e+00	 8.909474775948771e-01	 2.798903376131166e+00
 1.939688209689715e+00	 7.160706101572964e-01	 2.656736964088093e+00
 1.932937974118424e+00	 7.340968339837993e-01	 3.069517555201281e+00
 1.926006218922043e+00	 7.520953014314645e-01	 3.428435242773635e+00
 1.918892812280358e+00	 7.700633855129514e-01	 3.678153712197457e+00
 1.911597671124698e+00	 7.879984469298634e-01	 3.817292271554660e+00
 1.904120761650013e+00	 8.058978351609011e-01	 3.850369083274605e+00
 1.896462099799011e+00	 8.237588895703063e-01	 3.782420743513531e+00
 1.888621751717463e+00	 8.415789405357922e-01	 3.619020317088005e+00
 1.880599834179923e+00	 8.593553105951374e-01	 3.366296628510775e+00
 1.872396514985003e+00	 8.770853156105536e-01	 3.030954845797107e+00
 1.864012013319517e+00	 8.947662659499382e-01	 2.620298385275714e+00
 1.947966638398685e+00	 7.191267402465555e-01	 2.624443302362135e+00
 1.941187593380994e+00	 7.372298985043433e-01	 3.021662868576228e+00
 1.934226254027490e+00	 7.553051819212971e-01	 3.357216550293693e+00
 1.927082487955355e+00	 7.733499522983185e-01	 3.581771695273630e+00
 1.919756211741378e+00	 7.913615590727094e-01	 3.698195457241944e+00
 1.912247391436232e+00	 8.093373404109726e-01	 3.711536736722571e+00
 1.904556043050652e+00	 8.272746243219816e-01	 3.627552760205671e+00
 1.896682233012715e+00	 8.451707297897306e-01	 3.452728782858443e+00
 1.888626078595345e+00	 8.630229679248169e-01	 3.194298847531918e+00
 1.880387748313307e+00	 8.808286431337822e-01	 2.860267633618682e+00
 1.871967462288870e+00	 8.985850543054005e-01	 2.459433421089807e+00
 1.956245067107252e+00	 7.221828703359467e-01	 2.583611763136660e+00
 1.949437212643225e+00	 7.403629630250422e-01	 2.956384255333802e+00
 1.942446289132673e+00	 7.585150624113133e-01	 3.260122246038799e+00
 1.935272163630169e+00	 7.766365190839003e-01	 3.456426646905742e+00
 1.927914752357967e+00	 7.947246712158029e-01	 3.549915506949566e+00
 1.920374021222447e+00	 8.127768456613205e-01	 3.546056134133632e+00
 1.912649986302385e+00	 8.307903590739587e-01	 3.451170590463586e+00
 1.904742714308149e+00	 8.487625190439885e-01	 3.272456671665438e+00
 1.896652323011041e+00	 8.666906252548237e-01	 3.018009798465175e+00
 1.888378981641965e+00	 8.845719706573315e-01	 2.696845851403002e+00
 1.879922911258653e+00	 9.024038426611642e-01	 2.318924973009479e+00
 1.964523495815548e+00	 7.252390004254544e-01	 2.536626974056750e+00
 1.957686831905231e+00	 7.434960275458661e-01	 2.877421377038422e+00
 1.950666324237679e+00	 7.617249429014670e-01	 3.143679345877224e+00
 1.943461839304864e+00	 7.799230858696361e-01	 3.309951079718018e+00
 1.936073292974493e+00	 7.980877833590673e-01	 3.381073852693048e+00
 1.928500651008666e+00	 8.162163509118574e-01	 3.362821938069236e+00
 1.920743929554185e+00	 8.343060938261391e-01	 3.261927694070792e+00
 1.912803195603715e+00	 8.523543082984602e-01	 3.086103432396214e+00
 1.904678567426931e+00	 8.703582825850483e-01	 2.844064108418503e+00
 1.896370214970877e+00	 8.883152981810956e-01	 2.545550864864270e+00
 1.887878360228749e+00	 9.062226310171286e-01	 2.201355452696999e+00
 1.972801924523711e+00	 7.282951305150630e-01	 2.485831628409978e+00
 1.965936451167123e+00	 7.466290920667822e-01	 2.787961222235172e+00
 1.958886359342599e+00	 7.649348233917110e-01	 3.014315129452174e+00
 1.951651514979499e+00	 7.832096526554629e-01	 3.150055861163114e+00
 1.944231833590993e+00	 8.014508955024265e-01	 3.200157037100450e+00
 1.936627280794890e+00	 8.196558561624929e-01	 3.170589330476138e+00
 1.928837872806026e+00	 8.378218285784241e-01	 3.068342093976001e+00
 1.920863676899359e+00	 8.559460975530399e-01	 2.901445731609649e+00
 1.912704811842940e+00	 8.740259399153826e-01	 2.678994856771554e+00
 1.904361448299948e+00	 8.920586257049669e-01	 2.411172269648944e+00
 1.895833809199044e+00	 9.100414193731937e-01	 2.109273778993871e+00
 1.981080353231873e+00	 7.313512606047566e-01	 2.433527605825584e+00
 1.974186070429016e+00	 7.497621565877612e-01	 2.692556717748936e+00
 1.967106394447519e+00	 7.681447038819986e-01	 2.878359199456850e+00
 1.959841190654136e+00	 7.864962194413193e-01	 2.984332715270053e+00
 1.952390374207497e+00	 8.048140076458040e-01	 3.015519476742224e+00
 1.944753910581124e+00	 8.230953614131398e-01	 2.977976857017599e+00
 1.936931816057885e+00	 8.413375633307143e-01	 2.878799121484756e+00
 1.928924158195032e+00	 8.595378868076216e-01	 2.726139920017817e+00
 1.920731056258989e+00	 8.776935972457170e-01	 2.529235584077957e+00
 1.912352681629079e+00	 8.958019532288382e-01	 2.298429264623532e+00
 1.903789258169420e+00	 9.138602077292585e-01	 2.045195938525174e+00
 1.989358781940170e+00	 7.344073906945200e-01	 2.381977070093424e+00
 1.982435689691021e+00	 7.528952211087712e-01	 2.595709073807215e+00
 1.975326429552528e+00	 7.713545843722834e-01	 2.742045481836006e+00
 1.968030866328837e+00	 7.897827862271430e-01	 2.820256654007100e+00
 1.960548914824040e+00	 8.081771197891241e-01	 2.835386148284392e+00
 1.952880540367373e+00	 8.265348666637086e-01	 2.793469191948889e+00
 1.945025759309738e+00	 8.448532980829113e-01	 2.701554084218825e+00
 1.936984639490681e+00	 8.631296760621002e-01	 2.567724428447084e+00
 1.928757300675005e+00	 8.813612545759445e-01	 2.401122241630838e+00
 1.920343914958172e+00	 8.995452807526023e-01	 2.211971981460303e+00
 1.911744707139762e+00	 9.176789960852230e-01	 2.011605522664437e+00
 1.997637210648736e+00	 7.374635207843371e-01	 2.333403544766478e+00
 1.990685308953253e+00	 7.560282856297815e-01	 2.501854522384157e+00
 1.983546464657714e+00	 7.745644648625190e-01	 2.611514168627453e+00
 1.976220542003663e+00	 7.930693530128724e-01	 2.665188340301331e+00
 1.968707455440654e+00	 8.115402319323102e-01	 2.667855199703809e+00
 1.961007170153640e+00	 8.299743719141104e-01	 2.625419825842188e+00
 1.953119702561558e+00	 8.483690328349164e-01	 2.544734859083754e+00
 1.945045120786256e+00	 8.667214653163697e-01	 2.433622095324730e+00
 1.936783545090910e+00	 8.850289119059541e-01	 2.300895083412724e+00
 1.928335148287128e+00	 9.032886082761525e-01	 2.156382771788781e+00
 1.919700156109956e+00	 9.214977844409867e-01	 2.010954241544670e+00
 2.005915639357706e+00	 7.405196508741925e-01	 2.289992967188677e+00
 1.998934928215824e+00	 7.591613501507609e-01	 2.415365626936459e+00
 1.991766499763166e+00	 7.777743453526579e-01	 2.492813605100727e+00
 1.984410217678675e+00	 7.963559197984450e-01	 2.526376384689204e+00
 1.976865996057371e+00	 8.149033440752861e-01	 2.520900488730347e+00
 1.969133799939929e+00	 8.334138771642571e-01	 2.482053678389445e+00
 1.961213645813324e+00	 8.518847675866305e-01	 2.416344412410918e+00
 1.953105602081704e+00	 8.703132545703245e-01	 2.331142427668866e+00
 1.944809789506627e+00	 8.886965692356383e-01	 2.234700502094323e+00
 1.936326381615850e+00	 9.070319357993809e-01	 2.136177453138620e+00
 1.927655605079885e+00	 9.253165727964493e-01	 2.045662415778578e+00
 2.014194068067215e+00	 7.435757809640704e-01	 2.252920111885734e+00
 2.007184547478847e+00	 7.622944146716788e-01	 2.340552552541244e+00
 1.999986534868971e+00	 7.809842258426540e-01	 2.391902122795444e+00
 1.992599893353933e+00	 7.996424865837992e-01	 2.410959577507621e+00
 1.985024536674227e+00	 8.182664562179760e-01	 2.402374050609687e+00
 1.977260429726245e+00	 8.368533824140595e-01	 2.371469638438810e+00
 1.969307589065010e+00	 8.554005023379549e-01	 2.324263249369218e+00
 1.961166083376974e+00	 8.739050438238590e-01	 2.267483797494982e+00
 1.952836033922081e+00	 8.923642265648891e-01	 2.208592810691697e+00
 1.944317614944240e+00	 9.107752633221808e-01	 2.155806514859505e+00
 1.935611054049432e+00	 9.291353611515104e-01	 2.118119446529140e+00
 1.856056564350709e+00	 8.909474775948771e-01	 2.798903376131166e+00
 1.847529172416486e+00	 9.084984598861181e-01	 2.398603614561149e+00
 1.838822022353228e+00	 9.259952468727786e-01	 2.080839682883266e+00
 1.829935486279233e+00	 9.434351516004069e-01	 1.841543974588121e+00
 1.820869988579429e+00	 9.608154864645534e-01	 1.677341610533806e+00
 1.811626006103686e+00	 9.781335644556893e-01	 1.585120691147222e+00
 1.802204068330247e+00	 9.953867004148540e-01	 1.562030749824741e+00
 1.792604757493784e+00	 1.012572212298924e+00	 1.605476452143512e+00
 1.782828708677572e+00	 1.029687422454352e+00	 1.713106342415648e+00
 1.772876609869356e+00	 1.046729658898207e+00	 1.882796465751953e+00
 1.762749201980530e+00	 1.063696256605328e+00	 2.112628722563040e+00
 1.864012013319517e+00	 8.947662659499382e-01	 2.620298385275714e+00
 1.855448071189168e+00	 9.123924754440570e-01	 2.220515285018841e+00
 1.846703600448590e+00	 9.299642573411303e-01	 1.909222112139337e+00
 1.837778974811067e+00	 9.474789131698542e-01	 1.680037560085927e+00
 1.828674620480534e+00	 9.649337438061401e-01	 1.529153893697650e+00
 1.819391016350745e+00	 9.823260507233702e-01	 1.453163992643962e+00
 1.809928694169406e+00	 9.996531372534282e-01	 1.448756488226190e+00
 1.800288238666776e+00	 1.016912309857390e+00	 1.512708856633515e+00
 1.790470287648234e+00	 1.034100879404719e+00	 1.641875660487829e+00
 1.780475532050395e+00	 1.051216162459804e+00	 1.833171763530527e+00
 1.770304715960357e+00	 1.068255482574626e+00	 2.083550372348912e+00
 1.871967462288870e+00	 8.985850543054005e-01	 2.459433421089807e+00
 1.863366969962474e+00	 9.162864910023476e-01	 2.074629670784673e+00
 1.854585178544640e+00	 9.339332678097632e-01	 1.779729607734798e+00
 1.845622463343635e+00	 9.515226747394960e-01	 1.569918629832825e+00
 1.836479252382404e+00	 9.690520011478224e-01	 1.438852961968331e+00
 1.827156026598584e+00	 9.865185369910400e-01	 1.382663846739141e+00
 1.817653320009345e+00	 1.003919574091880e+00	 1.397609644764205e+00
 1.807971719840529e+00	 1.021252407415621e+00	 1.479903288412817e+00
 1.798111866619622e+00	 1.038514336354744e+00	 1.625700263111578e+00
 1.788074454232105e+00	 1.055702666020960e+00	 1.831081614454391e+00
 1.777860229940787e+00	 1.072814708543394e+00	 2.092031830999995e+00
 1.879922911258653e+00	 9.024038426611642e-01	 2.318924973009479e+00
 1.871285868736274e+00	 9.201805065609013e-01	 1.961622083997052e+00
 1.862466756641240e+00	 9.379022782786074e-01	 1.692556230582843e+00
 1.853465951876797e+00	 9.555664363092834e-01	 1.507720190180063e+00
 1.844283884284900e+00	 9.731702584895766e-01	 1.401641010111805e+00
 1.834921036847070e+00	 9.907110232587019e-01	 1.367913626806279e+00
 1.825377945849936e+00	 1.008186010930241e+00	 1.402342724717856e+00
 1.815655201014926e+00	 1.025592504973677e+00	 1.500638513050719e+00
 1.805753445591633e+00	 1.042927793304513e+00	 1.658351222270842e+00
 1.795673376414403e+00	 1.060189169581784e+00	 1.870854102852100e+00
 1.785415743921752e+00	 1.077373934511765e+00	 2.133321302614818e+00
 1.887878360228749e+00	 9.062226310171286e-01	 2.201355452696999e+00
 1.879204767510441e+00	 9.240745221196309e-01	 1.881725802917771e+00
 1.870348334738253e+00	 9.418712887475919e-01	 1.646552035827249e+00
 1.861309440410412e+00	 9.596101978791686e-01	 1.491746870615262e+00
 1.852088516187881e+00	 9.772885158313785e-01	 1.412809856259372e+00
 1.842686047096064e+00	 9.949035095263580e-01	 1.403312178623449e+00
 1.833102571691050e+00	 1.012452447768540e+00	 1.456824103587222e+00
 1.823338682189851e+00	 1.029932602531615e+00	 1.568613292236796e+00
 1.813395024564165e+00	 1.047341250254110e+00	 1.733717471352234e+00
 1.803272298597203e+00	 1.064675673142387e+00	 1.946926795264011e+00
 1.792971257903185e+00	 1.081933160479871e+00	 2.202761870858226e+00
 1.895833809199044e+00	 9.100414193731937e-01	 2.109273778993871e+00
 1.887123666284845e+00	 9.279685376784483e-01	 1.835180082155952e+00
 1.878229912835541e+00	 9.458402992166461e-01	 1.640003436240866e+00
 1.869152928944340e+00	 9.636539594491023e-01	 1.519520358411781e+00
 1.859893148091208e+00	 9.814067731732050e-01	 1.469031907967560e+00
 1.850451057345432e+00	 9.990959957940110e-01	 1.483362767005538e+00
 1.840827197532559e+00	 1.016718884606808e+00	 1.555036794655714e+00
 1.831022163365186e+00	 1.034272700089496e+00	 1.677645101892041e+00
 1.821036603537113e+00	 1.051754707203622e+00	 1.845804603071802e+00
 1.810871220780415e+00	 1.069162176702880e+00	 2.053845747004344e+00
 1.800526771885018e+00	 1.086492386447844e+00	 2.295790842435856e+00
 1.903789258169420e+00	 9.138602077292585e-01	 2.045195938525174e+00
 1.895042565059360e+00	 9.318625532372659e-01	 1.822229876262928e+00
 1.886111490932971e+00	 9.498093096857011e-01	 1.671235229259434e+00
 1.876996417478440e+00	 9.676977210190363e-01	 1.587796625928739e+00
 1.867697779994740e+00	 9.855250305150310e-01	 1.566990245360935e+00
 1.858216067595038e+00	 1.003288482061664e+00	 1.603421443208312e+00
 1.848551823374337e+00	 1.020985321445077e+00	 1.691077270872430e+00
 1.838705644540815e+00	 1.038612797647376e+00	 1.821668906251291e+00
 1.828678182510376e+00	 1.056168164153135e+00	 1.988733721763591e+00
 1.818470142963956e+00	 1.073648680263372e+00	 2.186264558225222e+00
 1.808082285867186e+00	 1.091051612415817e+00	 2.407939131973253e+00
 1.911744707139762e+00	 9.176789960852230e-01	 2.011605522664436e+00
 1.902961463833854e+00	 9.357565687959954e-01	 1.843125560364554e+00
 1.893993069030402e+00	 9.537783201546851e-01	 1.738609625662769e+00
 1.884839906012572e+00	 9.717414825889213e-01	 1.693395223210874e+00
 1.875502411898339e+00	 9.896432878568331e-01	 1.702307460687686e+00
 1.865981077844747e+00	 1.007480968329320e+00	 1.759697441570804e+00
 1.856276449216255e+00	 1.025251758283376e+00	 1.859484061183173e+00
 1.846389125716622e+00	 1.042952895205315e+00	 1.994735986288261e+00
 1.836319761483851e+00	 1.060581621102732e+00	 2.156740348448261e+00
 1.826069065147739e+00	 1.078135183823976e+00	 2.338943478042517e+00
 1.815637799849618e+00	 1.095610838383923e+00	 2.534830687095408e+00
 1.919700156109956e+00	 9.214977844409867e-01	 2.010954241544671e+00
 1.910880362608200e+00	 9.396505843545492e-01	 1.898122647916877e+00
 1.901874647127701e+00	 9.577473306235291e-01	 1.840525292371216e+00
 1.892683394546596e+00	 9.757852441587090e-01	 1.833197767285491e+00
 1.883307043801862e+00	 9.937615451985873e-01	 1.870688115838753e+00
 1.873746088094421e+00	 1.011673454596982e+00	 1.947096306780310e+00
 1.864001075058185e+00	 1.029518195121736e+00	 2.056117156895497e+00
 1.854072606892488e+00	 1.047292992763371e+00	 2.191086663862490e+00
 1.843961340457435e+00	 1.064995078052501e+00	 2.344173377152467e+00
 1.833667987331677e+00	 1.082621687384800e+00	 2.506748555331211e+00
 1.823193313832248e+00	 1.100170064352294e+00	 2.672181952542508e+00
 1.927655605079885e+00	 9.253165727964493e-01	 2.045662415778578e+00
 1.918799261382271e+00	 9.435445999128399e-01	 1.987481505668087e+00
 1.909756225224729e+00	 9.617163410921622e-01	 1.975416408949527e+00
 1.900526883080371e+00	 9.798290057283510e-01	 2.004146458668160e+00
 1.891111675705172e+00	 9.978798025402695e-01	 2.067916837390339e+00
 1.881511098343927e+00	 1.015865940864652e+00	 2.160579446546131e+00
 1.871725700899998e+00	 1.033784631960188e+00	 2.275637232538555e+00
 1.861756088068298e+00	 1.051633090321602e+00	 2.406291931478088e+00
 1.851602919431023e+00	 1.069408535002526e+00	 2.545494081000259e+00
 1.841266909515684e+00	 1.087108190945955e+00	 2.684650834843911e+00
 1.830748827815011e+00	 1.104729290321062e+00	 2.815801372196161e+00
 1.935611054049432e+00	 9.291353611515104e-01	 2.118119446529140e+00
 1.926718160155936e+00	 9.474386154707789e-01	 2.111467065907025e+00
 1.917637803321350e+00	 9.656853515605142e-01	 2.141751737423547e+00
 1.908370371613757e+00	 9.838727672977978e-01	 2.203242624294376e+00
 1.898916307608127e+00	 1.001998059881856e+00	 2.289856448270514e+00
 1.889276108593128e+00	 1.020058427132333e+00	 2.395200063626518e+00
 1.879450326741568e+00	 1.038051068798763e+00	 2.512616461887281e+00
 1.869439569243934e+00	 1.055973187880068e+00	 2.635234167479538e+00
 1.859244498404515e+00	 1.073821991952893e+00	 2.756019963969782e+00
 1.848865831699675e+00	 1.091594694507553e+00	 2.867725597350547e+00
 1.838304341797836e+00	 1.109288516290360e+00	 2.961588927927392e+00
 1.762749201980530e+00	 1.063696256605328e+00	 2.112628722563041e+00
 1.752447279254096e+00	 1.080584559137052e+00	 2.345402481320082e+00
 1.741971690479596e+00	 1.097391920967813e+00	 2.529966004429820e+00
 1.731323337608558e+00	 1.114115707809167e+00	 2.673745899717528e+00
 1.720503175193552e+00	 1.130753297576373e+00	 2.787018275621568e+00
 1.709512210216838e+00	 1.147302081686165e+00	 2.875235855258974e+00
 1.698351501880926e+00	 1.163759466353038e+00	 2.941084865746826e+00
 1.687022161360983e+00	 1.180122873882741e+00	 2.986993733130976e+00
 1.675525351519082e+00	 1.196389743961696e+00	 3.015133308743335e+00
 1.663862286580313e+00	 1.212557534941026e+00	 3.027419181077664e+00
 1.652034231770882e+00	 1.228623725113884e+00	 3.025516113785483e+00
 1.770304715960357e+00	 1.068255482574626e+00	 2.083550372348912e+00
 1.759958637025422e+00	 1.085216171924466e+00	 2.334719850378524e+00
 1.749438147673221e+00	 1.102095573644475e+00	 2.534963042274656e+00
 1.738744153721231e+00	 1.118891042155094e+00	 2.691975359368628e+00
 1.727877613813429e+00	 1.135599944132772e+00	 2.816541962287100e+00
 1.716839539248212e+00	 1.152219659813304e+00	 2.912550563045391e+00
 1.705630993768050e+00	 1.168747584293672e+00	 2.982493267496347e+00
 1.694253093310836e+00	 1.185181128831082e+00	 3.028680659937617e+00
 1.682707005722908e+00	 1.201517722137913e+00	 3.053242559381044e+00
 1.670993950433781e+00	 1.217754811671241e+00	 3.058130813843965e+00
 1.659115198092679e+00	 1.233889864915653e+00	 3.045124173699279e+00
 1.777860229940787e+00	 1.072814708543394e+00	 2.092031830999995e+00
 1.767469994797264e+00	 1.089847784711276e+00	 2.350736792217450e+00
 1.756904604867259e+00	 1.106799226320477e+00	 2.556478861114811e+00
 1.746164969834201e+00	 1.123666376500318e+00	 2.718209363694467e+00
 1.735252052433484e+00	 1.140446590688437e+00	 2.846191834835217e+00
 1.724166868279639e+00	 1.157137237939693e+00	 2.943292378369042e+00
 1.712910485655099e+00	 1.173735702233551e+00	 3.011954896125816e+00
 1.701484025260491e+00	 1.190239383778676e+00	 3.054507408232975e+00
 1.689888659926420e+00	 1.206645700313400e+00	 3.073163082609985e+00
 1.678125614286827e+00	 1.222952088400753e+00	 3.070023269796875e+00
 1.666196164413961e+00	 1.239156004716755e+00	 3.047082585145418e+00
 1.785415743921752e+00	 1.077373934511765e+00	 2.133321302614819e+00
 1.774981352569573e+00	 1.094479397497635e+00	 2.389741995974215e+00
 1.764371062061685e+00	 1.111502878995983e+00	 2.591722892784340e+00
 1.753585785947471e+00	 1.128441710845013e+00	 2.750663422584763e+00
 1.742626491053740e+00	 1.145293237243554e+00	 2.874851441212013e+00
 1.731494197311164e+00	 1.162054816065520e+00	 2.966886861197318e+00
 1.720189977542146e+00	 1.178723820172865e+00	 3.029309677653795e+00
 1.708714957210041e+00	 1.195297638725709e+00	 3.064599086390046e+00
 1.697070314129733e+00	 1.211773678488339e+00	 3.075174531339412e+00
 1.685257278139585e+00	 1.228149365129737e+00	 3.063398739394851e+00
 1.673277130734878e+00	 1.244422144517355e+00	 3.031582786224898e+00
 1.792971257903185e+00	 1.081933160479871e+00	 2.202761870858226e+00
 1.782492710342305e+00	 1.099111010283692e+00	 2.448102290496920e+00
 1.771837519256474e+00	 1.116206531671159e+00	 2.638468385286526e+00
 1.761006602061037e+00	 1.133217045189357e+00	 2.787595660632793e+00
 1.750000929674220e+00	 1.150139883798303e+00	 2.901435169480962e+00
 1.738821526342836e+00	 1.166972394190972e+00	 2.982780789705117e+00
 1.727469469429260e+00	 1.183711938111802e+00	 3.034411317669170e+00
 1.715945889159581e+00	 1.200355893672370e+00	 3.059089355948089e+00
 1.704251968332960e+00	 1.216901656662912e+00	 3.059562124763306e+00
 1.692388941992190e+00	 1.233346641858371e+00	 3.038564257607080e+00
 1.680358097055581e+00	 1.249688284317622e+00	 2.998822626732383e+00
 1.800526771885018e+00	 1.086492386447844e+00	 2.295790842435856e+00
 1.790004068115412e+00	 1.103742623069598e+00	 2.522262367178953e+00
 1.779303976451604e+00	 1.120910184346170e+00	 2.694557134447225e+00
 1.768427418174900e+00	 1.137992379533524e+00	 2.827305477894513e+00
 1.757375368294947e+00	 1.154986530352869e+00	 2.924887135996495e+00
 1.746148855374703e+00	 1.171889972316237e+00	 2.990441231840435e+00
 1.734748961316511e+00	 1.188700056050550e+00	 3.027126511679815e+00
 1.723176821109203e+00	 1.205414148618842e+00	 3.038119735579413e+00
 1.711433622536215e+00	 1.222029634837304e+00	 3.026616000255223e+00
 1.699520605844772e+00	 1.238543918586828e+00	 2.995831057552818e+00
 1.687439063376218e+00	 1.254954424117722e+00	 2.949005676894911e+00
 1.808082285867186e+00	 1.091051612415817e+00	 2.407939131973253e+00
 1.797515425888848e+00	 1.108374235855505e+00	 2.608744535014610e+00
 1.786770433647050e+00	 1.125613837021181e+00	 2.757577009965179e+00
 1.775848234289060e+00	 1.142767713877692e+00	 2.868132227689288e+00
 1.764749806915944e+00	 1.159833176907435e+00	 2.944180084687945e+00
 1.753476184406809e+00	 1.176807550441501e+00	 2.989354623186253e+00
 1.742028453203972e+00	 1.193688173989298e+00	 3.007334158075791e+00
 1.730407753059001e+00	 1.210472403565315e+00	 3.001838905135554e+00
 1.718615276739613e+00	 1.227157613011695e+00	 2.976630563967634e+00
 1.706652269697467e+00	 1.243741195315285e+00	 2.935513922643129e+00
 1.694520029696938e+00	 1.260220563917822e+00	 2.882340535595667e+00
 1.815637799849618e+00	 1.095610838383923e+00	 2.534830687095408e+00
 1.805026783662566e+00	 1.113005848641562e+00	 2.704242647441184e+00
 1.794236890842787e+00	 1.130317489696357e+00	 2.825167632646580e+00
 1.783269050403514e+00	 1.147543048222036e+00	 2.908453910945779e+00
 1.772124245537235e+00	 1.164679823462184e+00	 2.958314297130174e+00
 1.760803513439203e+00	 1.181725128566953e+00	 2.979025850935264e+00
 1.749307945091712e+00	 1.198676291928235e+00	 2.974924573630948e+00
 1.737638685009065e+00	 1.215530658511974e+00	 2.950402009770719e+00
 1.725796930943267e+00	 1.232285591186268e+00	 2.909903840173641e+00
 1.713783933550406e+00	 1.248938472043919e+00	 2.857930537268912e+00
 1.701600996017893e+00	 1.265486703718089e+00	 2.799040138098194e+00
 1.823193313832248e+00	 1.100170064352294e+00	 2.672181952542508e+00
 1.812538141436519e+00	 1.117637461427920e+00	 2.806319067693155e+00
 1.801703348038793e+00	 1.135021142371863e+00	 2.895018834485314e+00
 1.790689866518263e+00	 1.152318382566732e+00	 2.946685886613066e+00
 1.779498684158843e+00	 1.169526470017301e+00	 2.966316513088020e+00
 1.768130842471933e+00	 1.186642706692780e+00	 2.958977343800275e+00
 1.756587436979800e+00	 1.203664409867549e+00	 2.929798711469449e+00
 1.744869616959493e+00	 1.220588913459008e+00	 2.883969964140291e+00
 1.732978585147292e+00	 1.237413569361207e+00	 2.826736819387781e+00
 1.720915597403722e+00	 1.254135748772903e+00	 2.763400836077635e+00
 1.708681962339231e+00	 1.270752843518689e+00	 2.699321063285754e+00
 1.830748827815011e+00	 1.104729290321062e+00	 2.815801372196161e+00
 1.820049499210662e+00	 1.122269074214731e+00	 2.912073130036119e+00
 1.809169805235041e+00	 1.139724795047865e+00	 2.964869140782336e+00
 1.798110682633305e+00	 1.157093716911955e+00	 2.981279597672757e+00
 1.786873122780791e+00	 1.174373116572966e+00	 2.967238861232001e+00
 1.775458171505045e+00	 1.191560284819168e+00	 2.928748167688792e+00
 1.763866928868310e+00	 1.208652527807428e+00	 2.871867381426086e+00
 1.752100548910374e+00	 1.225647168406602e+00	 2.802708756672538e+00
 1.740160239351801e+00	 1.242541547536694e+00	 2.727432805301393e+00
 1.728047261257549e+00	 1.259333025502415e+00	 2.652246351879803e+00
 1.715762928661102e+00	 1.276018983319791e+00	 2.583402840430280e+00
 1.838304341797836e+00	 1.109288516290360e+00	 2.961588927927392e+00
 1.827560856984948e+00	 1.126900687002145e+00	 3.018481211173214e+00
 1.816636262431510e+00	 1.144428447724527e+00	 3.032504273669962e+00
 1.805531498748641e+00	 1.161869051257882e+00	 3.010721312303367e+00
 1.794247561403101e+00	 1.179219763129365e+00	 2.960157799732626e+00
 1.782785500538586e+00	 1.196477862946308e+00	 2.887893126976058e+00
 1.771146420757310e+00	 1.213640645748062e+00	 2.801050472731656e+00
 1.759331480861803e+00	 1.230705423354943e+00	 2.706788753911468e+00
 1.747341893556909e+00	 1.247669525712911e+00	 2.612296760566894e+00
 1.735178925112020e+00	 1.264530302232631e+00	 2.524789562224889e+00
 1.722843894983654e+00	 1.281285123121560e+00	 2.451507255504644e+00
 1.652034231770882e+00	 1.228623725113884e+00	 3.025516113785483e+00
 1.640040451489909e+00	 1.244588517196332e+00	 3.015205011674195e+00
 1.627884314974253e+00	 1.260446684185791e+00	 3.000111952422766e+00
 1.615567245443407e+00	 1.276195761384695e+00	 2.978689370017953e+00
 1.603090715360185e+00	 1.291833309028926e+00	 2.949682998699872e+00
 1.590456245878753e+00	 1.307356913517891e+00	 2.912151955731627e+00
 1.577665406256145e+00	 1.322764188630196e+00	 2.865490174547631e+00
 1.564719813227715e+00	 1.338052776723630e+00	 2.809449108933113e+00
 1.551621130347021e+00	 1.353220349918248e+00	 2.744161614170276e+00
 1.538371067290680e+00	 1.368264611261278e+00	 2.670166896644290e+00
 1.524971379128793e+00	 1.383183295872664e+00	 2.588436409351944e+00
 1.659115198092679e+00	 1.233889864915653e+00	 3.045124173699279e+00
 1.647070009945780e+00	 1.249923085456091e+00	 3.022700835993528e+00
 1.634861769671204e+00	 1.265849223885944e+00	 2.997182999851596e+00
 1.622491906588665e+00	 1.281665804943434e+00	 2.967151717852656e+00
 1.609961899472268e+00	 1.297370378407102e+00	 2.931433872352338e+00
 1.597273275996167e+00	 1.312960520331156e+00	 2.889122304182983e+00
 1.584427612143568e+00	 1.328433834266354e+00	 2.839597420228969e+00
 1.571426531579497e+00	 1.343787952465138e+00	 2.782550200124919e+00
 1.558271704987856e+00	 1.359020537069780e+00	 2.718006506998710e+00
 1.544964849373297e+00	 1.374129281282284e+00	 2.646352592130425e+00
 1.531507727328530e+00	 1.389111910514845e+00	 2.568361668743298e+00
 1.666196164413961e+00	 1.239156004716755e+00	 3.047082585145418e+00
 1.654099568401059e+00	 1.255257653715226e+00	 3.014898070382265e+00
 1.641839224367501e+00	 1.271251763585521e+00	 2.981723428270716e+00
 1.629416567733224e+00	 1.287135848501651e+00	 2.946144298548993e+00
 1.616833083583618e+00	 1.302907447784808e+00	 2.906946059198708e+00
 1.604090306112832e+00	 1.318564127144003e+00	 2.863134182105938e+00
 1.591189818030238e+00	 1.334103479902143e+00	 2.813956196405765e+00
 1.578133249930532e+00	 1.349523128206319e+00	 2.758925179053074e+00
 1.564922279627960e+00	 1.364820724221016e+00	 2.697844676218090e+00
 1.551558631455213e+00	 1.379993951303016e+00	 2.630834943436609e+00
 1.538044075527599e+00	 1.395040525156758e+00	 2.558360377177009e+00
 1.673277130734878e+00	 1.244422144517355e+00	 3.031582786224898e+00
 1.661129126855909e+00	 1.260592221973893e+00	 2.991821561983292e+00
 1.648816679063320e+00	 1.276654303284669e+00	 2.953615044656155e+00
 1.636341228877267e+00	 1.292605892059475e+00	 2.915431010577426e+00
 1.623704267694428e+00	 1.308444517162163e+00	 2.875892236510336e+00
 1.610907336228940e+00	 1.324167733956537e+00	 2.833797261971663e+00
 1.597952023916344e+00	 1.339773125537655e+00	 2.788142888418355e+00
 1.584839968281008e+00	 1.355258303947252e+00	 2.738148333836370e+00
 1.571572854267518e+00	 1.370620911372030e+00	 2.683280944698589e+00
 1.558152413536601e+00	 1.385858621323542e+00	 2.623283350963269e+00
 1.544580423726169e+00	 1.400969139798472e+00	 2.558201933895067e+00
 1.680358097055581e+00	 1.249688284317622e+00	 2.998822626732383e+00
 1.668158685310495e+00	 1.265926790232248e+00	 2.953505122160451e+00
 1.655794133758834e+00	 1.282056842983528e+00	 2.912750821594019e+00
 1.643265890020974e+00	 1.298075935617038e+00	 2.874788742957977e+00
 1.630575451804882e+00	 1.313981586539283e+00	 2.837959495404469e+00
 1.617724366344679e+00	 1.329771340768862e+00	 2.800736626693971e+00
 1.604714229802077e+00	 1.345442771172981e+00	 2.761749837047336e+00
 1.591546686631111e+00	 1.360993479688022e+00	 2.719809976709747e+00
 1.578223428906711e+00	 1.376421098522895e+00	 2.673935727255486e+00
 1.564746195617638e+00	 1.391723291343930e+00	 2.623381849730834e+00
 1.551116771924405e+00	 1.406897754440051e+00	 2.567668866212370e+00
 1.687439063376218e+00	 1.254954424117722e+00	 2.949005676894911e+00
 1.675188243764978e+00	 1.271261358490446e+00	 2.899990771075841e+00
 1.662771588454217e+00	 1.287459382682243e+00	 2.859034086508689e+00
 1.650190551164529e+00	 1.303545979174471e+00	 2.824006518508011e+00
 1.637446635915166e+00	 1.319518655916285e+00	 2.792848448029135e+00
 1.624541396460240e+00	 1.335374947581082e+00	 2.763591851210041e+00
 1.611476435687626e+00	 1.351112416808215e+00	 2.734384405481970e+00
 1.598253404981029e+00	 1.366728655428708e+00	 2.703515507896705e+00
 1.584874003545722e+00	 1.382221285673687e+00	 2.669444103457391e+00
 1.571339977698499e+00	 1.397587961364249e+00	 2.630828203661632e+00
 1.557653120122475e+00	 1.412826369081563e+00	 2.586555958306109e+00
 1.694520029696938e+00	 1.260220563917822e+00	 2.882340535595667e+00
 1.682217802219523e+00	 1.276595926748645e+00	 2.831327983233193e+00
 1.669749043149644e+00	 1.292861922380958e+00	 2.792377713133122e+00
 1.657115212308113e+00	 1.309016022731904e+00	 2.762884640389002e+00
 1.644317820025469e+00	 1.325055725293288e+00	 2.740272338871302e+00
 1.631358426575810e+00	 1.340978554393303e+00	 2.722016088762778e+00
 1.618238641573180e+00	 1.356782062443449e+00	 2.705668051309270e+00
 1.604960123330950e+00	 1.372463831169396e+00	 2.688884484549090e+00
 1.591524578184734e+00	 1.388021472824479e+00	 2.669454895263229e+00
 1.577933759779361e+00	 1.403452631384569e+00	 2.645333004153825e+00
 1.564189468320544e+00	 1.418754983723077e+00	 2.614669383450336e+00
 1.701600996017893e+00	 1.265486703718089e+00	 2.799040138098194e+00
 1.689247360674293e+00	 1.281930495006999e+00	 2.747572933959739e+00
 1.676726497845287e+00	 1.298264462079817e+00	 2.712703315156248e+00
 1.664039873451907e+00	 1.314486066289466e+00	 2.691233841856562e+00
 1.651189004135976e+00	 1.330592794670409e+00	 2.679956160068757e+00
 1.638175456691582e+00	 1.346582161205628e+00	 2.675675161748387e+00
 1.625000847458929e+00	 1.362451708078776e+00	 2.675235403378133e+00
 1.611666841681061e+00	 1.378199006910165e+00	 2.675549694607294e+00
 1.598175152823929e+00	 1.393821659975345e+00	 2.673629749348027e+00
 1.584527541860397e+00	 1.409317301404957e+00	 2.666618772823420e+00
 1.570725816518780e+00	 1.424683598364656e+00	 2.651825839596059e+00
 1.708681962339231e+00	 1.270752843518689e+00	 2.699321063285754e+00
 1.696276919129450e+00	 1.287265063265666e+00	 2.648787746799549e+00
 1.683703952541321e+00	 1.303667001778964e+00	 2.619940441984818e+00
 1.670964534596094e+00	 1.319956109847291e+00	 2.608874439121407e+00
 1.658060188246877e+00	 1.336129864047763e+00	 2.611635770610045e+00
 1.644992486807742e+00	 1.352185768018162e+00	 2.624246656997346e+00
 1.631763053345063e+00	 1.368121353714287e+00	 2.642733343397730e+00
 1.618373560031548e+00	 1.383934182651099e+00	 2.663156235438795e+00
 1.604825727463490e+00	 1.399621847126358e+00	 2.681642223982279e+00
 1.591121323941786e+00	 1.415181971425482e+00	 2.694419068293941e+00
 1.577262164717349e+00	 1.430612213006369e+00	 2.697851688200774e+00
 1.715762928661102e+00	 1.276018983319791e+00	 2.583402840430279e+00
 1.703306477585158e+00	 1.292599631524800e+00	 2.535039741792453e+00
 1.690681407237921e+00	 1.309069541478542e+00	 2.514025776558984e+00
 1.677889195740855e+00	 1.325426153405507e+00	 2.515635487231734e+00
 1.664931372358356e+00	 1.341666933425470e+00	 2.535057019310779e+00
 1.651809516924482e+00	 1.357789374831009e+00	 2.567419025361314e+00
 1.638525259231771e+00	 1.373790999350076e+00	 2.607820092134084e+00
 1.625080278382599e+00	 1.389669358392279e+00	 2.651360597117796e+00
 1.611476302103599e+00	 1.405422034277594e+00	 2.693176880334041e+00
 1.597715106023702e+00	 1.421046641446214e+00	 2.728477596917933e+00
 1.583798512916420e+00	 1.436540827648282e+00	 2.752582096214400e+00
 1.722843894983654e+00	 1.281285123121560e+00	 2.451507255504644e+00
 1.710336036041581e+00	 1.297934199784559e+00	 2.406400684613435e+00
 1.697658861935259e+00	 1.314472081178694e+00	 2.394902335163002e+00
 1.684813856886373e+00	 1.330896196964246e+00	 2.411353938890737e+00
 1.671802556470602e+00	 1.347204002803646e+00	 2.449974871458077e+00
 1.658626547041991e+00	 1.363392981644274e+00	 2.504890685482681e+00
 1.645287465119243e+00	 1.379460644986235e+00	 2.570164300073181e+00
 1.631786996734402e+00	 1.395404534133789e+00	 2.639829750213107e+00
 1.618126876744440e+00	 1.411222221429127e+00	 2.707928378067388e+00
 1.604308888106322e+00	 1.426911311467221e+00	 2.768547327317803e+00
 1.590334861116157e+00	 1.442469442290463e+00	 2.815860181131743e+00
 1.524971379128793e+00	 1.383183295872664e+00	 2.588436409351944e+00
 1.511426176825844e+00	 1.397971672900867e+00	 2.522900766307036e+00
 1.497735017846702e+00	 1.412630112807195e+00	 2.495145812923699e+00
 1.483899763637098e+00	 1.427156478805014e+00	 2.502921292906778e+00
 1.469922317758837e+00	 1.441548670520337e+00	 2.541654286972506e+00
 1.455804625010844e+00	 1.455804625010844e+00	 2.604455129168495e+00
 1.441548670520337e+00	 1.469922317758837e+00	 2.688315489970178e+00
 1.427156478805014e+00	 1.483899763637098e+00	 2.790426270770682e+00
 1.412630112807194e+00	 1.497735017846702e+00	 2.911268577017824e+00
 1.397971672900867e+00	 1.511426176825845e+00	 3.048833985710048e+00
 1.383183295872664e+00	 1.524971379128793e+00	 3.198803533191922e+00
 1.531507727328530e+00	 1.389111910514845e+00	 2.568361668743298e+00
 1.517904467438496e+00	 1.403963673638498e+00	 2.504490951288003e+00
 1.504154625271265e+00	 1.418684942702428e+00	 2.473220548455989e+00
 1.490260070251113e+00	 1.433273571761289e+00	 2.472633979625995e+00
 1.476222714098909e+00	 1.447727451438451e+00	 2.500276289422649e+00
 1.462044509949393e+00	 1.462044509949392e+00	 2.549039975233025e+00
 1.447727451438451e+00	 1.476222714098909e+00	 2.615156476013380e+00
 1.433273571761289e+00	 1.490260070251114e+00	 2.697336444973673e+00
 1.418684942702428e+00	 1.504154625271265e+00	 2.797034136654798e+00
 1.403963673638497e+00	 1.517904467438496e+00	 2.911159198524587e+00
 1.389111910514845e+00	 1.531507727328529e+00	 3.035915903087207e+00
 1.538044075527599e+00	 1.395040525156758e+00	 2.558360377177009e+00
 1.524382758050524e+00	 1.409955674375853e+00	 2.497665369931056e+00
 1.510574232695254e+00	 1.424739772597365e+00	 2.464440412068885e+00
 1.496620376864607e+00	 1.439390664717236e+00	 2.457077315812422e+00
 1.482523110438513e+00	 1.453906232356196e+00	 2.473922049003012e+00
 1.468284394887525e+00	 1.468284394887524e+00	 2.510279639492664e+00
 1.453906232356197e+00	 1.482523110438513e+00	 2.560261960588325e+00
 1.439390664717236e+00	 1.496620376864607e+00	 2.625290111025055e+00
 1.424739772597364e+00	 1.510574232695254e+00	 2.705389960228258e+00
 1.409955674375853e+00	 1.524382758050525e+00	 2.797536917237416e+00
 1.395040525156758e+00	 1.538044075527600e+00	 2.898443070188204e+00
 1.544580423726169e+00	 1.400969139798472e+00	 2.558201933895067e+00
 1.530861048662085e+00	 1.415947675113002e+00	 2.502316313098174e+00
 1.516993840118813e+00	 1.430794602492080e+00	 2.468830286549242e+00
 1.502980683477710e+00	 1.445507757672938e+00	 2.456418763334676e+00
 1.488823506777766e+00	 1.460085013273664e+00	 2.463734358262354e+00
 1.474524279825343e+00	 1.474524279825343e+00	 2.488592595536778e+00
 1.460085013273664e+00	 1.488823506777766e+00	 2.525020431476791e+00
 1.445507757672938e+00	 1.502980683477709e+00	 2.575110522779513e+00
 1.430794602492080e+00	 1.516993840118813e+00	 2.637343237390397e+00
 1.415947675113002e+00	 1.530861048662086e+00	 2.709170254201869e+00
 1.400969139798471e+00	 1.544580423726169e+00	 2.787796343844246e+00
 1.551116771924405e+00	 1.406897754440051e+00	 2.567668866212370e+00
 1.537339339273335e+00	 1.421939675850015e+00	 2.518347353960645e+00
 1.523413447542084e+00	 1.436849432386648e+00	 2.486424372986820e+00
 1.509340990090551e+00	 1.451624850628474e+00	 2.470833013572023e+00
 1.495123903116784e+00	 1.466263794190947e+00	 2.470508411890886e+00
 1.480764164762955e+00	 1.480764164762955e+00	 2.484414823054342e+00
 1.466263794190948e+00	 1.495123903116784e+00	 2.510503659207056e+00
 1.451624850628474e+00	 1.509340990090551e+00	 2.547611994166755e+00
 1.436849432386648e+00	 1.523413447542084e+00	 2.593888968460236e+00
 1.421939675850014e+00	 1.537339339273335e+00	 2.647246715496023e+00
 1.406897754440051e+00	 1.551116771924405e+00	 2.705367837562727e+00
 1.557653120122475e+00	 1.412826369081563e+00	 2.586555958306109e+00
 1.543817629884428e+00	 1.427931676586959e+00	 2.545672519909326e+00
 1.529833054965211e+00	 1.442904262281142e+00	 2.517265409764232e+00
 1.515701296703261e+00	 1.457741943583929e+00	 2.500501257557213e+00
 1.501424299455686e+00	 1.472442575108139e+00	 2.494573854772406e+00
 1.487004049700462e+00	 1.487004049700461e+00	 2.499236506384258e+00
 1.472442575108139e+00	 1.501424299455685e+00	 2.517350608592610e+00
 1.457741943583929e+00	 1.515701296703262e+00	 2.543599630603096e+00
 1.442904262281142e+00	 1.529833054965211e+00	 2.576009764792756e+00
 1.427931676586958e+00	 1.543817629884429e+00	 2.612938074766571e+00
 1.412826369081564e+00	 1.557653120122475e+00	 2.652530420941395e+00
 1.564189468320544e+00	 1.418754983723077e+00	 2.614669383450336e+00
 1.550295920495522e+00	 1.433923677323902e+00	 2.584215466863157e+00
 1.536252662388339e+00	 1.448959092175636e+00	 2.561403892815338e+00
 1.522061603315973e+00	 1.463859036539385e+00	 2.545610456171835e+00
 1.507724695794586e+00	 1.478621356025330e+00	 2.536263990851325e+00
 1.493243934637968e+00	 1.493243934637968e+00	 2.535134079713111e+00
 1.478621356025330e+00	 1.507724695794586e+00	 2.546193721126873e+00
 1.463859036539384e+00	 1.522061603315973e+00	 2.563869054669195e+00
 1.448959092175635e+00	 1.536252662388339e+00	 2.584675641723686e+00
 1.433923677323901e+00	 1.550295920495522e+00	 2.607400237854937e+00
 1.418754983723076e+00	 1.564189468320544e+00	 2.630637660484307e+00
 1.570725816518780e+00	 1.424683598364656e+00	 2.651825839596059e+00
 1.556774211106772e+00	 1.439915678060915e+00	 2.633908655907153e+00
 1.542672269811611e+00	 1.455013922070203e+00	 2.618897297116106e+00
 1.528421909928814e+00	 1.469976129494921e+00	 2.606352610393488e+00
 1.514025092133605e+00	 1.484800136942613e+00	 2.596090578282922e+00
 1.499483819575579e+00	 1.499483819575579e+00	 2.592600998611228e+00
 1.484800136942613e+00	 1.514025092133605e+00	 2.597853563999691e+00
 1.469976129494921e+00	 1.528421909928815e+00	 2.609206126221538e+00
 1.455013922070203e+00	 1.542672269811610e+00	 2.620843804306608e+00
 1.439915678060914e+00	 1.556774211106772e+00	 2.631773098474607e+00
 1.424683598364656e+00	 1.570725816518780e+00	 2.641023749625635e+00
 1.577262164717349e+00	 1.430612213006369e+00	 2.697851688200774e+00
 1.563252501718332e+00	 1.445907678798064e+00	 2.694692532193055e+00
 1.549091877235168e+00	 1.461068751964919e+00	 2.689809299373101e+00
 1.534782216541917e+00	 1.476093222450622e+00	 2.682924031594236e+00
 1.520325488472857e+00	 1.490978917860081e+00	 2.675290703821939e+00
 1.505723704513398e+00	 1.505723704513398e+00	 2.672092365641955e+00
 1.490978917860081e+00	 1.520325488472857e+00	 2.673958219230118e+00
 1.476093222450622e+00	 1.534782216541917e+00	 2.680386657099613e+00
 1.461068751964918e+00	 1.549091877235169e+00	 2.685458426052080e+00
 1.445907678798064e+00	 1.563252501718333e+00	 2.687180385199845e+00
 1.430612213006369e+00	 1.577262164717350e+00	 2.685003428274925e+00
 1.583798512916420e+00	 1.436540827648282e+00	 2.752582096214400e+00
 1.569730792330361e+00	 1.451899679535419e+00	 2.766514706038250e+00
 1.555511484659158e+00	 1.467123581859856e+00	 2.774209001875968e+00
 1.541142523155410e+00	 1.482210315406569e+00	 2.775532502129012e+00
 1.526625884812461e+00	 1.497157698777827e+00	 2.774288101665857e+00
 1.511963589451530e+00	 1.511963589451530e+00	 2.774043188967960e+00
 1.497157698777826e+00	 1.526625884812461e+00	 2.775242286855297e+00
 1.482210315406569e+00	 1.541142523155411e+00	 2.778185255505638e+00
 1.467123581859856e+00	 1.555511484659158e+00	 2.779450420871450e+00
 1.451899679535419e+00	 1.569730792330361e+00	 2.774729500017209e+00
 1.436540827648282e+00	 1.583798512916420e+00	 2.763871892186914e+00
 1.590334861116157e+00	 1.442469442290463e+00	 2.815860181131743e+00
 1.576209082943013e+00	 1.457891680273050e+00	 2.849329136160680e+00
 1.561931092083721e+00	 1.473178411755090e+00	 2.872170157481473e+00
 1.547502829769426e+00	 1.488327408362844e+00	 2.885047777245296e+00
 1.532926281152534e+00	 1.503336479695941e+00	 2.893356970061397e+00
 1.518203474390078e+00	 1.518203474390078e+00	 2.898868925110004e+00
 1.503336479695941e+00	 1.532926281152534e+00	 2.902272161179577e+00
 1.488327408362844e+00	 1.547502829769426e+00	 2.904138732770996e+00
 1.473178411755089e+00	 1.561931092083721e+00	 2.903737208421377e+00
 1.457891680273049e+00	 1.576209082943013e+00	 2.895511348683162e+00
 1.442469442290463e+00	 1.590334861116157e+00	 2.878904692449193e+00
 1.383183295872664e+00	 1.524971379128793e+00	 3.198803533191922e+00
 1.368264611261278e+00	 1.538371067290679e+00	 3.333613563813498e+00
 1.353220349918248e+00	 1.551621130347021e+00	 3.430334285340730e+00
 1.338052776723630e+00	 1.564719813227714e+00	 3.491540578339548e+00
 1.322764188630196e+00	 1.577665406256143e+00	 3.519913989992662e+00
 1.307356913517892e+00	 1.590456245878752e+00	 3.518239465307460e+00
 1.291833309028926e+00	 1.603090715360185e+00	 3.489402695330799e+00
 1.276195761384695e+00	 1.615567245443407e+00	 3.436388047901473e+00
 1.260446684185792e+00	 1.627884314974253e+00	 3.362277040529298e+00
 1.244588517196333e+00	 1.640040451489909e+00	 3.270247309496709e+00
 1.228623725113884e+00	 1.652034231770882e+00	 3.163572024276589e+00
 1.389111910514845e+00	 1.531507727328529e+00	 3.035915903087207e+00
 1.374129281282285e+00	 1.544964849373297e+00	 3.146451269090304e+00
 1.359020537069781e+00	 1.558271704987856e+00	 3.222314567001768e+00
 1.343787952465139e+00	 1.571426531579496e+00	 3.266274527709258e+00
 1.328433834266355e+00	 1.584427612143567e+00	 3.281234167363848e+00
 1.312960520331156e+00	 1.597273275996165e+00	 3.270227241953171e+00
 1.297370378407103e+00	 1.609961899472267e+00	 3.236415308992487e+00
 1.281665804943435e+00	 1.622491906588665e+00	 3.183085360997467e+00
 1.265849223885945e+00	 1.634861769671203e+00	 3.113647989331298e+00
 1.249923085456091e+00	 1.647070009945780e+00	 3.031636031409687e+00
 1.233889864915654e+00	 1.659115198092679e+00	 2.940703649142367e+00
 1.395040525156758e+00	 1.538044075527600e+00	 2.898443070188205e+00
 1.379993951303018e+00	 1.551558631455213e+00	 2.986011654617113e+00
 1.364820724221017e+00	 1.564922279627959e+00	 3.042311794837672e+00
 1.349523128206319e+00	 1.578133249930531e+00	 3.070279619496732e+00
 1.334103479902144e+00	 1.591189818030237e+00	 3.073006103272625e+00
 1.318564127144004e+00	 1.604090306112832e+00	 3.053733316336099e+00
 1.302907447784809e+00	 1.616833083583618e+00	 3.015851281515788e+00
 1.287135848501651e+00	 1.629416567733224e+00	 2.962895402757044e+00
 1.271251763585522e+00	 1.641839224367500e+00	 2.898544422239836e+00
 1.255257653715227e+00	 1.654099568401058e+00	 2.826618857773762e+00
 1.239156004716755e+00	 1.666196164413961e+00	 2.751079866859359e+00
 1.400969139798471e+00	 1.544580423726169e+00	 2.787796343844246e+00
 1.385858621323543e+00	 1.558152413536601e+00	 2.853880756951622e+00
 1.370620911372031e+00	 1.571572854267517e+00	 2.892007498583529e+00
 1.355258303947253e+00	 1.584839968281007e+00	 2.905254040166024e+00
 1.339773125537656e+00	 1.597952023916344e+00	 2.896866257150874e+00
 1.324167733956538e+00	 1.610907336228940e+00	 2.870254544563716e+00
 1.308444517162163e+00	 1.623704267694428e+00	 2.828990551279738e+00
 1.292605892059476e+00	 1.636341228877266e+00	 2.776804495333136e+00
 1.276654303284669e+00	 1.648816679063319e+00	 2.717583016168164e+00
 1.260592221973893e+00	 1.661129126855908e+00	 2.655367513831188e+00
 1.244422144517355e+00	 1.673277130734878e+00	 2.594352919728982e+00
 1.406897754440051e+00	 1.551116771924405e+00	 2.705367837562727e+00
 1.391723291343931e+00	 1.564746195617638e+00	 2.751622425234246e+00
 1.376421098522896e+00	 1.578223428906710e+00	 2.773059397766080e+00
 1.360993479688022e+00	 1.591546686631110e+00	 2.772871904465146e+00
 1.345442771172981e+00	 1.604714229802077e+00	 2.754428107885178e+00
 1.329771340768863e+00	 1.617724366344680e+00	 2.721267236349362e+00
 1.313981586539284e+00	 1.630575451804881e+00	 2.677096276622454e+00
 1.298075935617039e+00	 1.643265890020974e+00	 2.625787267548090e+00
 1.282056842983527e+00	 1.655794133758833e+00	 2.571375148870188e+00
 1.265926790232248e+00	 1.668158685310494e+00	 2.518056113365811e+00
 1.249688284317622e+00	 1.680358097055581e+00	 2.470186404876470e+00
 1.412826369081564e+00	 1.557653120122475e+00	 2.652530420941395e+00
 1.397587961364249e+00	 1.571339977698499e+00	 2.680778339641682e+00
 1.382221285673688e+00	 1.584874003545722e+00	 2.687101458922598e+00
 1.366728655428709e+00	 1.598253404981029e+00	 2.674783323792995e+00
 1.351112416808216e+00	 1.611476435687625e+00	 2.647282205873371e+00
 1.335374947581083e+00	 1.624541396460239e+00	 2.608227163479262e+00
 1.319518655916286e+00	 1.637446635915165e+00	 2.561414773638733e+00
 1.303545979174471e+00	 1.650190551164529e+00	 2.510806495161162e+00
 1.287459382682243e+00	 1.662771588454217e+00	 2.460526615055906e+00
 1.271261358490447e+00	 1.675188243764978e+00	 2.414860724302919e+00
 1.254954424117723e+00	 1.687439063376218e+00	 2.378254663249037e+00
 1.418754983723076e+00	 1.564189468320544e+00	 2.630637660484307e+00
 1.403452631384569e+00	 1.577933759779360e+00	 2.642868017125766e+00
 1.388021472824480e+00	 1.591524578184733e+00	 2.635743939212833e+00
 1.372463831169396e+00	 1.604960123330949e+00	 2.612614460769381e+00
 1.356782062443449e+00	 1.618238641573180e+00	 2.576996211792526e+00
 1.340978554393303e+00	 1.631358426575810e+00	 2.532569556192822e+00
 1.325055725293289e+00	 1.644317820025468e+00	 2.483175443781116e+00
 1.309016022731904e+00	 1.657115212308112e+00	 2.432812933512183e+00
 1.292861922380959e+00	 1.669749043149643e+00	 2.385637338132236e+00
 1.276595926748645e+00	 1.682217802219523e+00	 2.345958933853155e+00
 1.260220563917822e+00	 1.694520029696938e+00	 2.318242172739142e+00
 1.424683598364656e+00	 1.570725816518780e+00	 2.641023749625635e+00
 1.409317301404957e+00	 1.584527541860397e+00	 2.639388804808413e+00
 1.393821659975345e+00	 1.598175152823928e+00	 2.620573416820628e+00
 1.378199006910166e+00	 1.611666841681060e+00	 2.587967570410378e+00
 1.362451708078776e+00	 1.625000847458929e+00	 2.545114922465745e+00
 1.346582161205629e+00	 1.638175456691581e+00	 2.495709087828594e+00
 1.330592794670409e+00	 1.651189004135976e+00	 2.443590691561683e+00
 1.314486066289467e+00	 1.664039873451907e+00	 2.392745142763813e+00
 1.298264462079818e+00	 1.676726497845286e+00	 2.347301077696778e+00
 1.281930495007000e+00	 1.689247360674292e+00	 2.311529413213945e+00
 1.265486703718089e+00	 1.701600996017893e+00	 2.289842945312848e+00
 1.430612213006369e+00	 1.577262164717350e+00	 2.685003428274925e+00
 1.415181971425483e+00	 1.591121323941786e+00	 2.671815861391111e+00
 1.399621847126359e+00	 1.604825727463489e+00	 2.643152808528932e+00
 1.383934182651099e+00	 1.618373560031547e+00	 2.602421028297911e+00
 1.368121353714287e+00	 1.631763053345062e+00	 2.553160284202332e+00
 1.352185768018162e+00	 1.644992486807741e+00	 2.499039848076495e+00
 1.336129864047763e+00	 1.658060188246876e+00	 2.443855832641959e+00
 1.319956109847291e+00	 1.670964534596094e+00	 2.391529305957155e+00
 1.303667001778964e+00	 1.683703952541321e+00	 2.346105132907886e+00
 1.287265063265667e+00	 1.696276919129449e+00	 2.311751481841347e+00
 1.270752843518689e+00	 1.708681962339230e+00	 2.292759928027120e+00
 1.436540827648282e+00	 1.583798512916420e+00	 2.763871892186914e+00
 1.421046641446214e+00	 1.597715106023701e+00	 2.741602126925725e+00
 1.405422034277595e+00	 1.611476302103599e+00	 2.705021374838993e+00
 1.389669358392280e+00	 1.625080278382598e+00	 2.657529346119635e+00
 1.373790999350076e+00	 1.638525259231769e+00	 2.602631393973503e+00
 1.357789374831010e+00	 1.651809516924482e+00	 2.543935305165784e+00
 1.341666933425470e+00	 1.664931372358356e+00	 2.485148992588866e+00
 1.325426153405508e+00	 1.677889195740855e+00	 2.430079040088648e+00
 1.309069541478542e+00	 1.690681407237920e+00	 2.382630041850390e+00
 1.292599631524802e+00	 1.703306477585158e+00	 2.346804671304894e+00
 1.276018983319791e+00	 1.715762928661101e+00	 2.326704407823936e+00
 1.442469442290463e+00	 1.590334861116157e+00	 2.878904692449193e+00
 1.426911311467222e+00	 1.604308888106321e+00	 2.850178281281754e+00
 1.411222221429127e+00	 1.618126876744440e+00	 2.807694712992669e+00
 1.395404534133789e+00	 1.631786996734401e+00	 2.754823174942887e+00
 1.379460644986235e+00	 1.645287465119242e+00	 2.695004488773981e+00
 1.363392981644275e+00	 1.658626547041991e+00	 2.631748257307381e+00
 1.347204002803646e+00	 1.671802556470602e+00	 2.568630996565511e+00
 1.330896196964247e+00	 1.684813856886373e+00	 2.509295200409191e+00
 1.314472081178695e+00	 1.697658861935258e+00	 2.457449277012268e+00
 1.297934199784560e+00	 1.710336036041580e+00	 2.416868288737611e+00
 1.281285123121559e+00	 1.722843894983654e+00	 2.391395419992529e+00
 1.228623725113884e+00	 1.652034231770882e+00	 3.163572024276589e+00
 1.212557534941026e+00	 1.663862286580313e+00	 3.059190513009002e+00
 1.196389743961696e+00	 1.675525351519081e+00	 2.970708182607582e+00
 1.180122873882741e+00	 1.687022161360984e+00	 2.896543839065474e+00
 1.163759466353039e+00	 1.698351501880926e+00	 2.835145325253078e+00
 1.147302081686166e+00	 1.709512210216838e+00	 2.784996867952496e+00
 1.130753297576374e+00	 1.720503175193551e+00	 2.744626530911793e+00
 1.114115707809168e+00	 1.731323337608557e+00	 2.712613693600460e+00
 1.097391920967814e+00	 1.741971690479595e+00	 2.689340939266648e+00
 1.080584559137054e+00	 1.752447279254095e+00	 2.676722105183205e+00
 1.063696256605328e+00	 1.762749201980530e+00	 2.673302624884362e+00
 1.233889864915654e+00	 1.659115198092679e+00	 2.940703649142367e+00
 1.217754811671241e+00	 1.670993950433781e+00	 2.857269890887499e+00
 1.201517722137913e+00	 1.682707005722907e+00	 2.793562135204538e+00
 1.185181128831082e+00	 1.694253093310836e+00	 2.747067166228055e+00
 1.168747584293673e+00	 1.705630993768050e+00	 2.715254435584585e+00
 1.152219659813305e+00	 1.716839539248212e+00	 2.695585450294405e+00
 1.135599944132772e+00	 1.727877613813429e+00	 2.685523324576688e+00
 1.118891042155095e+00	 1.738744153721230e+00	 2.682542408981428e+00
 1.102095573644476e+00	 1.749438147673221e+00	 2.684846223027392e+00
 1.085216171924467e+00	 1.759958637025421e+00	 2.693539513795905e+00
 1.068255482574626e+00	 1.770304715960357e+00	 2.706406146086611e+00
 1.239156004716755e+00	 1.666196164413961e+00	 2.751079866859359e+00
 1.222952088400753e+00	 1.678125614286827e+00	 2.687384618116304e+00
 1.206645700313399e+00	 1.689888659926420e+00	 2.646104530335621e+00
 1.190239383778677e+00	 1.701484025260491e+00	 2.623968033769837e+00
 1.173735702233552e+00	 1.712910485655100e+00	 2.617648483218526e+00
 1.157137237939694e+00	 1.724166868279638e+00	 2.623775289704503e+00
 1.140446590688438e+00	 1.735252052433483e+00	 2.638945264727908e+00
 1.123666376500318e+00	 1.746164969834201e+00	 2.659734084772996e+00
 1.106799226320477e+00	 1.756904604867258e+00	 2.682859570959536e+00
 1.089847784711278e+00	 1.767469994797263e+00	 2.708035091898348e+00
 1.072814708543394e+00	 1.777860229940787e+00	 2.732839520578100e+00
 1.244422144517355e+00	 1.673277130734878e+00	 2.594352919728982e+00
 1.228149365129738e+00	 1.685257278139586e+00	 2.548685534399648e+00
 1.211773678488339e+00	 1.697070314129733e+00	 2.527093150276522e+00
 1.195297638725710e+00	 1.708714957210041e+00	 2.525717032167365e+00
 1.178723820172866e+00	 1.720189977542146e+00	 2.540614178462484e+00
 1.162054816065520e+00	 1.731494197311164e+00	 2.567769902134199e+00
 1.145293237243554e+00	 1.742626491053740e+00	 2.603110663848355e+00
 1.128441710845014e+00	 1.753585785947470e+00	 2.642517059618017e+00
 1.111502878995984e+00	 1.764371062061683e+00	 2.681836865068376e+00
 1.094479397497636e+00	 1.774981352569573e+00	 2.718954624097366e+00
 1.077373934511765e+00	 1.785415743921752e+00	 2.751723791667352e+00
 1.249688284317622e+00	 1.680358097055581e+00	 2.470186404876470e+00
 1.233346641858371e+00	 1.692388941992189e+00	 2.440343516036935e+00
 1.216901656662912e+00	 1.704251968332960e+00	 2.435312687587594e+00
 1.200355893672370e+00	 1.715945889159581e+00	 2.450816767368512e+00
 1.183711938111802e+00	 1.727469469429259e+00	 2.482473624522850e+00
 1.166972394190973e+00	 1.738821526342836e+00	 2.525809887976658e+00
 1.150139883798304e+00	 1.750000929674219e+00	 2.576274967492338e+00
 1.133217045189358e+00	 1.761006602061036e+00	 2.629255254979882e+00
 1.116206531671160e+00	 1.771837519256473e+00	 2.680088403343578e+00
 1.099111010283693e+00	 1.782492710342304e+00	 2.725073974318545e+00
 1.081933160479871e+00	 1.792971257903185e+00	 2.762203267658196e+00
 1.254954424117723e+00	 1.687439063376218e+00	 2.378254663249037e+00
 1.238543918586828e+00	 1.699520605844772e+00	 2.361548694988617e+00
 1.222029634837303e+00	 1.711433622536215e+00	 2.369573832845331e+00
 1.205414148618842e+00	 1.723176821109202e+00	 2.397800854915288e+00
 1.188700056050550e+00	 1.734748961316512e+00	 2.441583254846416e+00
 1.171889972316237e+00	 1.746148855374703e+00	 2.496171848531201e+00
 1.154986530352870e+00	 1.757375368294946e+00	 2.556729684829200e+00
 1.137992379533525e+00	 1.768427418174900e+00	 2.618347153750502e+00
 1.120910184346171e+00	 1.779303976451603e+00	 2.676057185091326e+00
 1.103742623069600e+00	 1.790004068115411e+00	 2.725198887902256e+00
 1.086492386447844e+00	 1.800526771885019e+00	 2.763445454250655e+00
 1.260220563917822e+00	 1.694520029696938e+00	 2.318242172739142e+00
 1.243741195315285e+00	 1.706652269697467e+00	 2.311509686488999e+00
 1.227157613011695e+00	 1.718615276739613e+00	 2.328712374382548e+00
 1.210472403565315e+00	 1.730407753059001e+00	 2.365232928598574e+00
 1.193688173989298e+00	 1.742028453203972e+00	 2.416332786600792e+00
 1.176807550441501e+00	 1.753476184406809e+00	 2.477167319319936e+00
 1.159833176907436e+00	 1.764749806915944e+00	 2.542801335882259e+00
 1.142767713877693e+00	 1.775848234289059e+00	 2.608224794550601e+00
 1.125613837021182e+00	 1.786770433647050e+00	 2.668368609082030e+00
 1.108374235855506e+00	 1.797515425888847e+00	 2.718164804957479e+00
 1.091051612415817e+00	 1.808082285867185e+00	 2.754640994806844e+00
 1.265486703718089e+00	 1.701600996017893e+00	 2.289842945312848e+00
 1.248938472043919e+00	 1.713783933550405e+00	 2.289452824957064e+00
 1.232285591186269e+00	 1.725796930943267e+00	 2.311588309687510e+00
 1.215530658511975e+00	 1.737638685009066e+00	 2.351705663221533e+00
 1.198676291928235e+00	 1.749307945091711e+00	 2.405144189823551e+00
 1.181725128566953e+00	 1.760803513439203e+00	 2.467141719765594e+00
 1.164679823462185e+00	 1.772124245537235e+00	 2.532850414976728e+00
 1.147543048222037e+00	 1.783269050403514e+00	 2.597352781265176e+00
 1.130317489696358e+00	 1.794236890842786e+00	 2.655677773023890e+00
 1.113005848641563e+00	 1.805026783662565e+00	 2.702816876699823e+00
 1.095610838383923e+00	 1.815637799849618e+00	 2.735003618253483e+00
 1.270752843518689e+00	 1.708681962339230e+00	 2.292759928027120e+00
 1.254135748772903e+00	 1.720915597403722e+00	 2.294621407964762e+00
 1.237413569361207e+00	 1.732978585147291e+00	 2.317084968123810e+00
 1.220588913459008e+00	 1.744869616959493e+00	 2.355839811062367e+00
 1.203664409867549e+00	 1.756587436979800e+00	 2.406470671785522e+00
 1.186642706692780e+00	 1.768130842471933e+00	 2.464473318755971e+00
 1.169526470017301e+00	 1.779498684158842e+00	 2.525270369926356e+00
 1.152318382566733e+00	 1.790689866518262e+00	 2.584227307372096e+00
 1.135021142371864e+00	 1.801703348038791e+00	 2.636668573631019e+00
 1.117637461427922e+00	 1.812538141436519e+00	 2.677893633248702e+00
 1.100170064352294e+00	 1.823193313832249e+00	 2.703770094400054e+00
 1.276018983319791e+00	 1.715762928661101e+00	 2.326704407823936e+00
 1.259333025502415e+00	 1.728047261257548e+00	 2.326274948029952e+00
 1.242541547536694e+00	 1.740160239351801e+00	 2.344108144644069e+00
 1.225647168406602e+00	 1.752100548910374e+00	 2.376283251640797e+00
 1.208652527807429e+00	 1.763866928868309e+00	 2.418795676128746e+00
 1.191560284819169e+00	 1.775458171505045e+00	 2.467572215635994e+00
 1.174373116572967e+00	 1.786873122780790e+00	 2.518486596504064e+00
 1.157093716911956e+00	 1.798110682633304e+00	 2.567375194636418e+00
 1.139724795047866e+00	 1.809169805235040e+00	 2.610052819386831e+00
 1.122269074214732e+00	 1.820049499210662e+00	 2.642328441798765e+00
 1.104729290321062e+00	 1.830748827815010e+00	 2.660200196459064e+00
 1.281285123121559e+00	 1.722843894983654e+00	 2.391395419992529e+00
 1.264530302232631e+00	 1.735178925112020e+00	 2.383688432009070e+00
 1.247669525712911e+00	 1.747341893556909e+00	 2.391585244181123e+00
 1.230705423354944e+00	 1.759331480861804e+00	 2.411710054405407e+00
 1.213640645748062e+00	 1.771146420757310e+00	 2.440631896354006e+00
 1.196477862946308e+00	 1.782785500538586e+00	 2.474879336183536e+00
 1.179219763129366e+00	 1.794247561403101e+00	 2.510955447756784e+00
 1.161869051257883e+00	 1.805531498748640e+00	 2.545352945757013e+00
 1.144428447724528e+00	 1.816636262431509e+00	 2.574569355637285e+00
 1.126900687002146e+00	 1.827560856984948e+00	 2.595122099816809e+00
 1.109288516290361e+00	 1.838304341797836e+00	 2.603576670561801e+00
 1.063696256605328e+00	 1.762749201980530e+00	 2.673302624884362e+00
 1.046729658898207e+00	 1.772876609869357e+00	 2.670721110099187e+00
 1.029687422454353e+00	 1.782828708677572e+00	 2.662147807225927e+00
 1.012572212298925e+00	 1.792604757493784e+00	 2.648357497088373e+00
 9.953867004148546e-01	 1.802204068330247e+00	 2.630126973285455e+00
 9.781335644556902e-01	 1.811626006103685e+00	 2.608230838550052e+00
 9.608154864645549e-01	 1.820869988579429e+00	 2.583437131777283e+00
 9.434351516004084e-01	 1.829935486279232e+00	 2.556502845166424e+00
 9.259952468727801e-01	 1.838822022353227e+00	 2.528169390402962e+00
 9.084984598861195e-01	 1.847529172416485e+00	 2.499158071848282e+00
 8.909474775948772e-01	 1.856056564350709e+00	 2.470169321090269e+00
 1.068255482574626e+00	 1.770304715960357e+00	 2.706406146086611e+00
 1.051216162459804e+00	 1.780475532050394e+00	 2.714337313786087e+00
 1.034100879404719e+00	 1.790470287648233e+00	 2.711084268252686e+00
 1.016912309857390e+00	 1.800288238666776e+00	 2.698189163268995e+00
 9.996531372534292e-01	 1.809928694169406e+00	 2.677215547040757e+00
 9.823260507233711e-01	 1.819391016350745e+00	 2.649742580942577e+00
 9.649337438061413e-01	 1.828674620480534e+00	 2.617359075150859e+00
 9.474789131698553e-01	 1.837778974811066e+00	 2.581657405064506e+00
 9.299642573411318e-01	 1.846703600448590e+00	 2.544227371853642e+00
 9.123924754440587e-01	 1.855448071189167e+00	 2.506661369535301e+00
 8.947662659499381e-01	 1.864012013319517e+00	 2.470557052970590e+00
 1.072814708543394e+00	 1.777860229940787e+00	 2.732839520578100e+00
 1.055702666020960e+00	 1.788074454232105e+00	 2.747909024220859e+00
 1.038514336354744e+00	 1.798111866619622e+00	 2.747812689371969e+00
 1.021252407415621e+00	 1.807971719840528e+00	 2.734707909481282e+00
 1.003919574091881e+00	 1.817653320009344e+00	 2.710788946111437e+00
 9.865185369910409e-01	 1.827156026598584e+00	 2.678279815924927e+00
 9.690520011478235e-01	 1.836479252382404e+00	 2.639426982965263e+00
 9.515226747394969e-01	 1.845622463343634e+00	 2.596491924205858e+00
 9.339332678097648e-01	 1.854585178544640e+00	 2.551754962027535e+00
 9.162864910023489e-01	 1.863366969962473e+00	 2.507598962367092e+00
 8.985850543054007e-01	 1.871967462288870e+00	 2.466148207199732e+00
 1.077373934511765e+00	 1.785415743921752e+00	 2.751723791667352e+00
 1.060189169581784e+00	 1.795673376414403e+00	 2.770945761698951e+00
 1.042927793304513e+00	 1.805753445591633e+00	 2.772174292400559e+00
 1.025592504973677e+00	 1.815655201014926e+00	 2.758032068269956e+00
 1.008186010930241e+00	 1.825377945849935e+00	 2.731190238626612e+00
 9.907110232587029e-01	 1.834921036847070e+00	 2.694360216536159e+00
 9.731702584895774e-01	 1.844283884284899e+00	 2.650285273611458e+00
 9.555664363092848e-01	 1.853465951876796e+00	 2.601737464246047e+00
 9.379022782786087e-01	 1.862466756641239e+00	 2.551680983654644e+00
 9.201805065609027e-01	 1.871285868736273e+00	 2.502830408621102e+00
 9.024038426611642e-01	 1.879922911258652e+00	 2.457749398254419e+00
 1.081933160479871e+00	 1.792971257903185e+00	 2.762203267658196e+00
 1.064675673142387e+00	 1.803272298597202e+00	 2.782973256858982e+00
 1.047341250254111e+00	 1.813395024564164e+00	 2.784020396466417e+00
 1.029932602531616e+00	 1.823338682189851e+00	 2.768284863448102e+00
 1.012452447768540e+00	 1.833102571691049e+00	 2.738763049817599e+00
 9.949035095263590e-01	 1.842686047096064e+00	 2.698498515061867e+00
 9.772885158313799e-01	 1.852088516187880e+00	 2.650572841677949e+00
 9.596101978791698e-01	 1.861309440410411e+00	 2.598308947147317e+00
 9.418712887475928e-01	 1.870348334738252e+00	 2.544879205282047e+00
 9.240745221196324e-01	 1.879204767510440e+00	 2.493192369253347e+00
 9.062226310171289e-01	 1.887878360228749e+00	 2.446157553241548e+00
 1.086492386447844e+00	 1.800526771885019e+00	 2.763445454250655e+00
 1.069162176702880e+00	 1.810871220780415e+00	 2.783533518038513e+00
 1.051754707203623e+00	 1.821036603537113e+00	 2.783212600204625e+00
 1.034272700089496e+00	 1.831022163365186e+00	 2.765594687780062e+00
 1.016718884606809e+00	 1.840827197532559e+00	 2.733851916606714e+00
 9.990959957940119e-01	 1.850451057345432e+00	 2.691206916730063e+00
 9.814067731732061e-01	 1.859893148091208e+00	 2.641113328688969e+00
 9.636539594491035e-01	 1.869152928944339e+00	 2.587072995874746e+00
 9.458402992166475e-01	 1.878229912835541e+00	 2.532177448760316e+00
 9.279685376784500e-01	 1.887123666284845e+00	 2.479511226054495e+00
 9.100414193731938e-01	 1.895833809199044e+00	 2.432160035150564e+00
 1.091051612415817e+00	 1.808082285867185e+00	 2.754640994806844e+00
 1.073648680263373e+00	 1.818470142963956e+00	 2.772184902981937e+00
 1.056168164153135e+00	 1.828678182510376e+00	 2.769622965293506e+00
 1.038612797647377e+00	 1.838705644540815e+00	 2.750095379474638e+00
 1.020985321445077e+00	 1.848551823374337e+00	 2.716802638939534e+00
 1.003288482061665e+00	 1.858216067595038e+00	 2.673134377023978e+00
 9.855250305150323e-01	 1.867697779994740e+00	 2.622755713947635e+00
 9.676977210190376e-01	 1.876996417478440e+00	 2.568809427035911e+00
 9.498093096857024e-01	 1.886111490932969e+00	 2.514393291432771e+00
 9.318625532372673e-01	 1.895042565059359e+00	 2.462603203442927e+00
 9.138602077292586e-01	 1.903789258169420e+00	 2.416534759067208e+00
 1.095610838383923e+00	 1.815637799849618e+00	 2.735003618253483e+00
 1.078135183823976e+00	 1.826069065147739e+00	 2.748502194774356e+00
 1.060581621102733e+00	 1.836319761483851e+00	 2.743134201292454e+00
 1.042952895205316e+00	 1.846389125716622e+00	 2.721926497523854e+00
 1.025251758283376e+00	 1.856276449216254e+00	 2.688037283686022e+00
 1.007480968329322e+00	 1.865981077844747e+00	 2.645095137353017e+00
 9.896432878568346e-01	 1.875502411898338e+00	 2.596192450102435e+00
 9.717414825889225e-01	 1.884839906012572e+00	 2.544288471170607e+00
 9.537783201546869e-01	 1.893993069030402e+00	 2.492334173043955e+00
 9.357565687959974e-01	 1.902961463833853e+00	 2.443274483135026e+00
 9.176789960852232e-01	 1.911744707139762e+00	 2.400050301553642e+00
 1.100170064352294e+00	 1.823193313832249e+00	 2.703770094400054e+00
 1.082621687384800e+00	 1.833667987331677e+00	 2.712076681879438e+00
 1.064995078052501e+00	 1.843961340457434e+00	 2.703639851744320e+00
 1.047292992763372e+00	 1.854072606892489e+00	 2.681253557089321e+00
 1.029518195121736e+00	 1.864001075058184e+00	 2.648270481447689e+00
 1.011673454596983e+00	 1.873746088094420e+00	 2.607661578852471e+00
 9.937615451985884e-01	 1.883307043801862e+00	 2.562107682027876e+00
 9.757852441587102e-01	 1.892683394546595e+00	 2.514270851597685e+00
 9.577473306235308e-01	 1.901874647127700e+00	 2.466797495775126e+00
 9.396505843545510e-01	 1.910880362608200e+00	 2.422321311899150e+00
 9.214977844409867e-01	 1.919700156109956e+00	 2.383466003393081e+00
 1.104729290321062e+00	 1.830748827815010e+00	 2.660200196459064e+00
 1.087108190945956e+00	 1.841266909515684e+00	 2.662516242163335e+00
 1.069408535002526e+00	 1.851602919431023e+00	 2.651044481506406e+00
 1.051633090321603e+00	 1.861756088068297e+00	 2.628585445919678e+00
 1.033784631960189e+00	 1.871725700899998e+00	 2.597942869006929e+00
 1.015865940864653e+00	 1.881511098343927e+00	 2.561392908325231e+00
 9.978798025402706e-01	 1.891111675705171e+00	 2.521177284704439e+00
 9.798290057283521e-01	 1.900526883080370e+00	 2.479507856962730e+00
 9.617163410921636e-01	 1.909756225224728e+00	 2.438570717605254e+00
 9.435445999128415e-01	 1.918799261382270e+00	 2.400530102593191e+00
 9.253165727964494e-01	 1.927655605079884e+00	 2.367532065890648e+00
 1.109288516290361e+00	 1.838304341797836e+00	 2.603576670561801e+00
 1.091594694507553e+00	 1.848865831699674e+00	 2.599445430790547e+00
 1.073821991952893e+00	 1.859244498404515e+00	 2.585502953432589e+00
 1.055973187880068e+00	 1.869439569243934e+00	 2.564238150343557e+00
 1.038051068798763e+00	 1.879450326741568e+00	 2.537449828458391e+00
 1.020058427132334e+00	 1.889276108593128e+00	 2.506841902156728e+00
 1.001998059881857e+00	 1.898916307608127e+00	 2.474068895686659e+00
 9.838727672977994e-01	 1.908370371613757e+00	 2.440741407667705e+00
 9.656853515605157e-01	 1.917637803321349e+00	 2.408431439189527e+00
 9.474386154707806e-01	 1.926718160155935e+00	 2.378677528678757e+00
 9.291353611515103e-01	 1.935611054049432e+00	 2.352989640915748e+00
 8.909474775948772e-01	 1.856056564350709e+00	 2.470169321090269e+00
 8.733419880877556e-01	 1.864405281657153e+00	 2.443525147828763e+00
 8.556876532658938e-01	 1.872573589764845e+00	 2.420888848459411e+00
 8.379871512822794e-01	 1.880561270422445e+00	 2.401921769944519e+00
 8.202431548190318e-01	 1.888368156547483e+00	 2.386266882984283e+00
 8.024583299111965e-01	 1.895994131863790e+00	 2.373552987265558e+00
 7.846353347873413e-01	 1.903439130507890e+00	 2.363398610696194e+00
 7.667768187278625e-01	 1.910703136605119e+00	 2.355415586638030e+00
 7.488854209418633e-01	 1.917786183816243e+00	 2.349212297051630e+00
 7.309637694634429e-01	 1.924688354855402e+00	 2.344435273875530e+00
 7.130144800681852e-01	 1.931409780980207e+00	 2.341069902251475e+00
 8.947662659499381e-01	 1.864012013319517e+00	 2.470557052970590e+00
 8.770853156105543e-01	 1.872396514985003e+00	 2.438693737733099e+00
 8.593553105951380e-01	 1.880599834179922e+00	 2.412555100442567e+00
 8.415789405357927e-01	 1.888621751717463e+00	 2.391566711713576e+00
 8.237588895703066e-01	 1.896462099799010e+00	 2.375139521889367e+00
 8.058978351609019e-01	 1.904120761650014e+00	 2.362674444859670e+00
 7.879984469298640e-01	 1.911597671124698e+00	 2.353566610476702e+00
 7.700633855129519e-01	 1.918892812280358e+00	 2.347209268880416e+00
 7.520953014314652e-01	 1.926006218922042e+00	 2.342997334103048e+00
 7.340968339838003e-01	 1.932937974118424e+00	 2.340348232276749e+00
 7.160706101572966e-01	 1.939688209689715e+00	 2.339010650169207e+00
 8.985850543054007e-01	 1.871967462288870e+00	 2.466148207199732e+00
 8.808286431337827e-01	 1.880387748313307e+00	 2.430516436665679e+00
 8.630229679248178e-01	 1.888626078595345e+00	 2.401975490289571e+00
 8.451707297897312e-01	 1.896682233012714e+00	 2.379773116740889e+00
 8.272746243219822e-01	 1.904556043050652e+00	 2.363145607354043e+00
 8.093373404109732e-01	 1.912247391436232e+00	 2.351322693138060e+00
 7.913615590727103e-01	 1.919756211741379e+00	 2.343532086415958e+00
 7.733499522983188e-01	 1.927082487955355e+00	 2.339003649767306e+00
 7.553051819212977e-01	 1.934226254027489e+00	 2.336973179163399e+00
 7.372298985043443e-01	 1.941187593380994e+00	 2.336690432405411e+00
 7.191267402465555e-01	 1.947966638398685e+00	 2.337697115429099e+00
 9.024038426611642e-01	 1.879922911258652e+00	 2.457749398254419e+00
 8.845719706573320e-01	 1.888378981641964e+00	 2.419739541517882e+00
 8.666906252548241e-01	 1.896652323011041e+00	 2.389833124094773e+00
 8.487625190439888e-01	 1.904742714308148e+00	 2.367157273291838e+00
 8.307903590739594e-01	 1.912649986302385e+00	 2.350830238114233e+00
 8.127768456613212e-01	 1.920374021222447e+00	 2.339966534687995e+00
 7.947246712158034e-01	 1.927914752357966e+00	 2.333681713736587e+00
 7.766365190839010e-01	 1.935272163630169e+00	 2.331096732210584e+00
 7.585150624113142e-01	 1.942446289132672e+00	 2.331341915541725e+00
 7.403629630250433e-01	 1.949437212643225e+00	 2.333560542426700e+00
 7.221828703359465e-01	 1.956245067107251e+00	 2.337122468517170e+00
 9.062226310171289e-01	 1.887878360228749e+00	 2.446157553241548e+00
 8.883152981810960e-01	 1.896370214970877e+00	 2.407100710794724e+00
 8.703582825850489e-01	 1.904678567426931e+00	 2.376803559171488e+00
 8.523543082984606e-01	 1.912803195603714e+00	 2.354329062794521e+00
 8.343060938261400e-01	 1.920743929554184e+00	 2.338733311982864e+00
 8.162163509118578e-01	 1.928500651008666e+00	 2.329070852600417e+00
 7.980877833590678e-01	 1.936073292974493e+00	 2.324399616549109e+00
 7.799230858696367e-01	 1.943461839304863e+00	 2.323785434694708e+00
 7.617249429014677e-01	 1.950666324237680e+00	 2.326306118339185e+00
 7.434960275458669e-01	 1.957686831905231e+00	 2.331055099840638e+00
 7.252390004254544e-01	 1.964523495815548e+00	 2.337281465042022e+00
 9.100414193731938e-01	 1.895833809199044e+00	 2.432160035150564e+00
 8.920586257049673e-01	 1.904361448299948e+00	 2.393329074979201e+00
 8.740259399153831e-01	 1.912704811842939e+00	 2.363554900521291e+00
 8.559460975530405e-01	 1.920863676899360e+00	 2.341892041136783e+00
 8.378218285784246e-01	 1.928837872806025e+00	 2.327389590430192e+00
 8.196558561624937e-01	 1.936627280794890e+00	 2.319096656524514e+00
 8.014508955024269e-01	 1.944231833590993e+00	 2.316067393310739e+00
 7.832096526554635e-01	 1.951651514979499e+00	 2.317365593811702e+00
 7.649348233917118e-01	 1.958886359342598e+00	 2.322068831478069e+00
 7.466290920667832e-01	 1.965936451167123e+00	 2.329272139872425e+00
 7.282951305150627e-01	 1.972801924523710e+00	 2.338170553559004e+00
 9.138602077292586e-01	 1.903789258169420e+00	 2.416534759067208e+00
 8.958019532288388e-01	 1.912352681629080e+00	 2.379145340330883e+00
 8.776935972457179e-01	 1.920731056258989e+00	 2.350747891234798e+00
 8.595378868076224e-01	 1.928924158195032e+00	 2.330443514422891e+00
 8.413375633307147e-01	 1.936931816057884e+00	 2.317328758189075e+00
 8.230953614131402e-01	 1.944753910581124e+00	 2.310501124356511e+00
 8.048140076458048e-01	 1.952390374207497e+00	 2.309064138577575e+00
 7.864962194413198e-01	 1.959841190654135e+00	 2.312131963805275e+00
 7.681447038819993e-01	 1.967106394447518e+00	 2.318833542518028e+00
 7.497621565877620e-01	 1.974186070429015e+00	 2.328316258067871e+00
 7.313512606047566e-01	 1.981080353231873e+00	 2.339787982949307e+00
 9.176789960852232e-01	 1.911744707139762e+00	 2.400050301553642e+00
 8.995452807526031e-01	 1.920343914958172e+00	 2.365261886310069e+00
 8.813612545759445e-01	 1.928757300675005e+00	 2.339035997000754e+00
 8.631296760621006e-01	 1.936984639490681e+00	 2.320574609351146e+00
 8.448532980829121e-01	 1.945025759309737e+00	 2.309075478030138e+00
 8.265348666637092e-01	 1.952880540367373e+00	 2.303737639689686e+00
 8.081771197891249e-01	 1.960548914824041e+00	 2.303766461158149e+00
 7.897827862271437e-01	 1.968030866328837e+00	 2.308378213210923e+00
 7.713545843722842e-01	 1.975326429552527e+00	 2.316804155323891e+00
 7.528952211087722e-01	 1.982435689691021e+00	 2.328294121752314e+00
 7.344073906945200e-01	 1.989358781940170e+00	 2.342133909366985e+00
 9.214977844409867e-01	 1.919700156109956e+00	 2.383466003393081e+00
 9.032886082761531e-01	 1.928335148287128e+00	 2.352382856812313e+00
 8.850289119059546e-01	 1.936783545090909e+00	 2.329065484894190e+00
 8.667214653163703e-01	 1.945045120786256e+00	 2.312870338368419e+00
 8.483690328349168e-01	 1.953119702561557e+00	 2.303149440846934e+00
 8.299743719141109e-01	 1.961007170153640e+00	 2.299255825148653e+00
 8.115402319323108e-01	 1.968707455440654e+00	 2.300548498772653e+00
 7.930693530128730e-01	 1.976220542003663e+00	 2.306396918676455e+00
 7.745644648625198e-01	 1.983546464657714e+00	 2.316184960647431e+00
 7.560282856297825e-01	 1.990685308953253e+00	 2.329314373640403e+00
 7.374635207843369e-01	 1.997637210648736e+00	 2.345210502766371e+00
 9.253165727964494e-01	 1.927655605079884e+00	 2.367532065890648e+00
 9.070319357993816e-01	 1.936326381615849e+00	 2.341204245392074e+00
 8.886965692356391e-01	 1.944809789506627e+00	 2.321475496609017e+00
 8.703132545703250e-01	 1.953105602081704e+00	 2.307909659752526e+00
 8.518847675866309e-01	 1.961213645813324e+00	 2.300065411186519e+00
 8.334138771642573e-01	 1.969133799939929e+00	 2.297501571726751e+00
 8.149033440752865e-01	 1.976865996057371e+00	 2.299781929318849e+00
 7.963559197984457e-01	 1.984410217678674e+00	 2.306479556044290e+00
 7.777743453526587e-01	 1.991766499763165e+00	 2.317180604683302e+00
 7.591613501507617e-01	 1.998934928215824e+00	 2.331487575295751e+00
 7.405196508741924e-01	 2.005915639357707e+00	 2.349022053022022e+00
 9.291353611515103e-01	 1.935611054049432e+00	 2.352989640915748e+00
 9.107752633221814e-01	 1.944317614944239e+00	 2.332413974648500e+00
 8.923642265648896e-01	 1.952836033922081e+00	 2.316898116294739e+00
 8.739050438238596e-01	 1.961166083376974e+00	 2.306265532768330e+00
 8.554005023379557e-01	 1.969307589065009e+00	 2.300333268356463e+00
 8.368533824140600e-01	 1.977260429726245e+00	 2.298917064241500e+00
 8.182664562179768e-01	 1.985024536674226e+00	 2.301835978842218e+00
 7.996424865837999e-01	 1.992599893353934e+00	 2.308916488774248e+00
 7.809842258426549e-01	 1.999986534868971e+00	 2.319996055657457e+00
 7.622944146716795e-01	 2.007184547478847e+00	 2.334926149376026e+00
 7.435757809640703e-01	 2.014194068067215e+00	 2.353574723684292e+00
 7.130144800681852e-01	 1.931409780980207e+00	 2.341069902251475e+00
 6.950432123525723e-01	 1.937949544745086e+00	 2.341098191759119e+00
 6.770495036445784e-01	 1.944309029523059e+00	 2.345471398471079e+00
 6.590359245652068e-01	 1.950488507423679e+00	 2.352830775790410e+00
 6.410050294055939e-01	 1.956488296771135e+00	 2.361901179046473e+00
 6.229593551559293e-01	 1.962308761470184e+00	 2.371480127900395e+00
 6.049014205584760e-01	 1.967950310349670e+00	 2.380427805531867e+00
 5.868337251852073e-01	 1.973413396484584e+00	 2.387657986136495e+00
 5.687587485405474e-01	 1.978698516497631e+00	 2.392129875827895e+00
 5.506789491896580e-01	 1.983806209841261e+00	 2.392840846027604e+00
 5.325967639126695e-01	 1.988737058061177e+00	 2.388820032861513e+00
 7.160706101572966e-01	 1.939688209689715e+00	 2.339010650169207e+00
 6.980223138066514e-01	 1.946256004257983e+00	 2.340746693800168e+00
 6.799514802767430e-01	 1.952642747125680e+00	 2.346445374184463e+00
 6.618606912068142e-01	 1.958848711568683e+00	 2.354812709566057e+00
 6.437525118362473e-01	 1.964874217275590e+00	 2.364631340133161e+00
 6.256294900293229e-01	 1.970719629710934e+00	 2.374749475420834e+00
 6.074941553241796e-01	 1.976385359455892e+00	 2.384070820588325e+00
 5.893490180064991e-01	 1.981871861527434e+00	 2.391545471956784e+00
 5.711965682083997e-01	 1.987179634676896e+00	 2.396161765569704e+00
 5.530392750329859e-01	 1.992309220668944e+00	 2.396939056353805e+00
 5.348795857049577e-01	 1.997261203541909e+00	 2.392921399734801e+00
 7.191267402465555e-01	 1.947966638398685e+00	 2.337697115429099e+00
 7.010014152608480e-01	 1.954562463770271e+00	 2.341518925269627e+00
 6.828534569090022e-01	 1.960976464727635e+00	 2.348919915116309e+00
 6.646854578484978e-01	 1.967208915712976e+00	 2.358650868602024e+00
 6.464999942669621e-01	 1.973260137779301e+00	 2.369533373043994e+00
 6.282996249027640e-01	 1.979130497950916e+00	 2.380448654343850e+00
 6.100868900899165e-01	 1.984820408561330e+00	 2.390327432071733e+00
 5.918643108278066e-01	 1.990330326569490e+00	 2.398140783975070e+00
 5.736343878762455e-01	 1.995660752855363e+00	 2.402892002340254e+00
 5.553996008762799e-01	 2.000812231495826e+00	 2.403609418275575e+00
 5.371624074971756e-01	 2.005785349021840e+00	 2.399340164100630e+00
 7.221828703359465e-01	 1.956245067107251e+00	 2.337122468517170e+00
 7.039805167151613e-01	 1.962868923282101e+00	 2.343305379409566e+00
 6.857554335413678e-01	 1.969310182329089e+00	 2.352697125708948e+00
 6.675102244902829e-01	 1.975569119856737e+00	 2.364073468920031e+00
 6.492474766977752e-01	 1.981646058282454e+00	 2.376276302123485e+00
 6.309697597763010e-01	 1.987541366190324e+00	 2.388202374894692e+00
 6.126796248557453e-01	 1.993255457666180e+00	 2.398793078962305e+00
 5.943796036492004e-01	 1.998788791610951e+00	 2.407025282700546e+00
 5.760722075441662e-01	 2.004141871033232e+00	 2.411903195545515e+00
 5.577599267196307e-01	 2.009315242322109e+00	 2.412451236889808e+00
 5.394452292894243e-01	 2.014309494501172e+00	 2.407707877965249e+00
 7.252390004254544e-01	 1.964523495815548e+00	 2.337281465042022e+00
 7.069596181695899e-01	 1.971175382793628e+00	 2.345999539545794e+00
 6.886574101738531e-01	 1.977643899930212e+00	 2.357583285631416e+00
 6.703349911321946e-01	 1.983929324000142e+00	 2.370813864141375e+00
 6.519949591287238e-01	 1.990031978785234e+00	 2.384535026084453e+00
 6.336398946499827e-01	 1.995952234429347e+00	 2.397641730115491e+00
 6.152723596217269e-01	 2.001690506770640e+00	 2.409069860588295e+00
 5.968948964707501e-01	 2.007247256652015e+00	 2.417787033125880e+00
 5.785100272122423e-01	 2.012622989210702e+00	 2.422784467456022e+00
 5.601202525631289e-01	 2.017818253147991e+00	 2.423069900546217e+00
 5.417280510818046e-01	 2.022833639980103e+00	 2.417661506865489e+00
 7.282951305150627e-01	 1.972801924523710e+00	 2.338170553559004e+00
 7.099387196241320e-01	 1.979481842305000e+00	 2.349497945665515e+00
 6.915593868064692e-01	 1.985977617531167e+00	 2.363388880200024e+00
 6.731597577742576e-01	 1.992289528143369e+00	 2.378610544913536e+00
 6.547424415598457e-01	 1.998417899287829e+00	 2.393990291672865e+00
 6.363100295238585e-01	 2.004363102668178e+00	 2.408404149065312e+00
 6.178650943879204e-01	 2.010125555874903e+00	 2.420766474718283e+00
 5.994101892925267e-01	 2.015705721692881e+00	 2.430020733124544e+00
 5.809478468805542e-01	 2.021104107387972e+00	 2.435131377373221e+00
 5.624805784068659e-01	 2.026321263973674e+00	 2.435076806293510e+00
 5.440108728744172e-01	 2.031357785458835e+00	 2.428843362147873e+00
 7.313512606047566e-01	 1.981080353231873e+00	 2.339787982949307e+00
 7.129178210787871e-01	 1.987788301816374e+00	 2.353700261449494e+00
 6.944613634392295e-01	 1.994311335132122e+00	 2.369928632029498e+00
 6.759845244164977e-01	 2.000649732286595e+00	 2.387207140218107e+00
 6.574899239911773e-01	 2.006803819790424e+00	 2.404328669737920e+00
 6.389801643979762e-01	 2.012773970907008e+00	 2.420133352820845e+00
 6.204578291543853e-01	 2.018560604979166e+00	 2.433498158719716e+00
 6.019254821146002e-01	 2.024164186733747e+00	 2.443327645048706e+00
 5.833856665491830e-01	 2.029585225565243e+00	 2.448545848998210e+00
 5.648409042509318e-01	 2.034824274799356e+00	 2.448089288396082e+00
 5.462936946673629e-01	 2.039881930937566e+00	 2.440901036051768e+00
 7.344073906945200e-01	 1.989358781940170e+00	 2.342133909366985e+00
 7.158969225335540e-01	 1.996094761327899e+00	 2.358509341745433e+00
 6.973633400721461e-01	 2.002645052733242e+00	 2.377021533878775e+00
 6.788092910589397e-01	 2.009009936430000e+00	 2.396352420505250e+00
 6.602374064227566e-01	 2.015189740293205e+00	 2.415242533637351e+00
 6.416502992723850e-01	 2.021184839146032e+00	 2.432479313196298e+00
 6.230505639211821e-01	 2.026995654083625e+00	 2.446886633694434e+00
 6.044407749370410e-01	 2.032622651774811e+00	 2.457315530434473e+00
 5.858234862182089e-01	 2.038066343742712e+00	 2.462636100909606e+00
 5.672012300954179e-01	 2.043327285625240e+00	 2.461730549831887e+00
 5.485765164607425e-01	 2.048406076416498e+00	 2.453487339514913e+00
 7.374635207843369e-01	 1.997637210648736e+00	 2.345210502766371e+00
 7.188760239884310e-01	 2.004401220839729e+00	 2.363831300469833e+00
 7.002653167052314e-01	 2.010978770334698e+00	 2.384490882656865e+00
 6.816340577016087e-01	 2.017370140573761e+00	 2.405800302601726e+00
 6.629848888546206e-01	 2.023575660796358e+00	 2.426430039910110e+00
 6.443204341471334e-01	 2.029595707385439e+00	 2.445098214103462e+00
 6.256432986883700e-01	 2.035430703188476e+00	 2.460560051504724e+00
 6.069560677599199e-01	 2.041081116816272e+00	 2.471598587724360e+00
 5.882613058877131e-01	 2.046547461920581e+00	 2.477016580060321e+00
 5.695615559404148e-01	 2.051830296451522e+00	 2.475629596684921e+00
 5.508593382546569e-01	 2.056930221895830e+00	 2.466260242622279e+00
 7.405196508741924e-01	 2.005915639357707e+00	 2.349022053022023e+00
 7.218551254434173e-01	 2.012707680352017e+00	 2.369575578925860e+00
 7.031672933384974e-01	 2.019312487936653e+00	 2.392164314555166e+00
 6.844588243445301e-01	 2.025730344718054e+00	 2.415309856341194e+00
 6.657323712868063e-01	 2.031961581300068e+00	 2.437595111151034e+00
 6.469905690222701e-01	 2.038006575625421e+00	 2.457652415475760e+00
 6.282360334560089e-01	 2.043865752293914e+00	 2.474152944606499e+00
 6.094713605833069e-01	 2.049539581858328e+00	 2.485797392919773e+00
 5.906991255577758e-01	 2.055028580099048e+00	 2.491307898206042e+00
 5.719218817860132e-01	 2.060333307278405e+00	 2.489421175348713e+00
 5.531421600492071e-01	 2.065454367375761e+00	 2.478882817621994e+00
 7.435757809640703e-01	 2.014194068067215e+00	 2.353574723684292e+00
 7.248342268985118e-01	 2.021014139864915e+00	 2.375655014525325e+00
 7.060692699719573e-01	 2.027646205539275e+00	 2.399873841273965e+00
 6.872835909877293e-01	 2.034090548863059e+00	 2.424645312867305e+00
 6.684798537193514e-01	 2.040347501804524e+00	 2.448447421024047e+00
 6.496607038978447e-01	 2.046417443866173e+00	 2.469810419682493e+00
 6.308287682241586e-01	 2.052300801400137e+00	 2.487306178608764e+00
 6.119866534072722e-01	 2.057998046901178e+00	 2.499538843079237e+00
 5.931369452284784e-01	 2.063509698278315e+00	 2.505136771181076e+00
 5.742822076323040e-01	 2.068836318106088e+00	 2.502745712460000e+00
 5.554249818444938e-01	 2.073978512856493e+00	 2.491023184434435e+00
 5.325967639126695e-01	 1.988737058061177e+00	 2.388820032861513e+00
 5.145146071319613e-01	 1.993491684474228e+00	 2.380445793670218e+00
 4.964348708365260e-01	 1.998070754689647e+00	 2.369634140315171e+00
 4.783599230357983e-01	 2.002474974518841e+00	 2.357750850288344e+00
 4.602921067687459e-01	 2.006705088739458e+00	 2.346170011764113e+00
 4.422337393928928e-01	 2.010761880278762e+00	 2.336268749819291e+00
 4.241871119009684e-01	 2.014646169384433e+00	 2.329422630885497e+00
 4.061544882653080e-01	 2.018358812783806e+00	 2.327001696080468e+00
 3.881381048101060e-01	 2.021900702832483e+00	 2.330367072226511e+00
 3.701401696115776e-01	 2.025272766653326e+00	 2.340868106663520e+00
 3.521628619260533e-01	 2.028475965266763e+00	 2.359619534830882e+00
 5.348795857049577e-01	 1.997261203541909e+00	 2.392921399734801e+00
 5.167199249954286e-01	 2.002036209284311e+00	 2.384648035200552e+00
 4.985626951459570e-01	 2.006634906358315e+00	 2.374161650194730e+00
 4.804102743157581e-01	 2.011058003600574e+00	 2.362785995150257e+00
 4.622650155865514e-01	 2.015306248981001e+00	 2.351852699582679e+00
 4.441292462485375e-01	 2.019380428782637e+00	 2.342696150489299e+00
 4.260052671141157e-01	 2.023281366768909e+00	 2.336649066963269e+00
 4.078953518594782e-01	 2.027009923339256e+00	 2.335038719599668e+00
 3.898017463941693e-01	 2.030566994674091e+00	 2.339183741401936e+00
 3.717266682586777e-01	 2.033953511870113e+00	 2.350391475515336e+00
 3.536723060500792e-01	 2.037170440066873e+00	 2.369783850766217e+00
 5.371624074971756e-01	 2.005785349021840e+00	 2.399340164100630e+00
 5.189252428587804e-01	 2.010580734093594e+00	 2.390810653546565e+00
 5.006905194552195e-01	 2.015199058026183e+00	 2.380233375023663e+00
 4.824606255954924e-01	 2.019641032681508e+00	 2.368904082564312e+00
 4.642379244040731e-01	 2.023907409221744e+00	 2.358125639536455e+00
 4.460247531038409e-01	 2.027998977285713e+00	 2.349203042980959e+00
 4.278234223268686e-01	 2.031916564152587e+00	 2.343439163259675e+00
 4.096362154532071e-01	 2.035661033893906e+00	 2.342131145470665e+00
 3.914653879777533e-01	 2.039233286514900e+00	 2.346567417185894e+00
 3.733131669052723e-01	 2.042634257086099e+00	 2.358025245667298e+00
 3.551817501735882e-01	 2.045864914866183e+00	 2.377638013456843e+00
 5.394452292894243e-01	 2.014309494501172e+00	 2.407707877965249e+00
 5.211305607221273e-01	 2.019125258902276e+00	 2.398604959377076e+00
 5.028183437644348e-01	 2.023763209693450e+00	 2.387559664869002e+00
 4.845109768751313e-01	 2.028224061761840e+00	 2.375853587758950e+00
 4.662108332214490e-01	 2.032508569461885e+00	 2.364774321775238e+00
 4.479202599589476e-01	 2.036617525788188e+00	 2.355610625357097e+00
 4.296415775393765e-01	 2.040551761535664e+00	 2.349648321481472e+00
 4.113770790466473e-01	 2.044312144447956e+00	 2.348166877299648e+00
 3.931290295610125e-01	 2.047899578355109e+00	 2.352436605931760e+00
 3.748996655515152e-01	 2.051315002301485e+00	 2.363716431348784e+00
 3.566911942967296e-01	 2.054559389664892e+00	 2.383155631611696e+00
 5.417280510818046e-01	 2.022833639980103e+00	 2.417661506865489e+00
 5.233358785855803e-01	 2.027669783710558e+00	 2.407706902084985e+00
 5.049461680737224e-01	 2.032327361360318e+00	 2.395854766762231e+00
 4.865613281548043e-01	 2.036807090841774e+00	 2.383386176771741e+00
 4.681837420388162e-01	 2.041109729701628e+00	 2.371586759167555e+00
 4.498157668140020e-01	 2.045236074290263e+00	 2.361741990738551e+00
 4.314597327517893e-01	 2.049186958918340e+00	 2.355133253432383e+00
 4.131179426399521e-01	 2.052963255001604e+00	 2.353034588704932e+00
 3.947926711441010e-01	 2.056565870194917e+00	 2.356710090881044e+00
 3.764861641975592e-01	 2.059995747516472e+00	 2.367411878172933e+00
 3.582006384196533e-01	 2.063253864463201e+00	 2.386309856559492e+00
 5.440108728744172e-01	 2.031357785458835e+00	 2.428843362147873e+00
 5.255411964492500e-01	 2.036214308518641e+00	 2.417797011615595e+00
 5.070739923832034e-01	 2.040891513026985e+00	 2.404836775889177e+00
 4.886116794346402e-01	 2.045390119921506e+00	 2.391256666752193e+00
 4.701566508563123e-01	 2.049710889941169e+00	 2.378353456407059e+00
 4.517112736691485e-01	 2.053854622792138e+00	 2.367422104844596e+00
 4.332778879642563e-01	 2.057822156300817e+00	 2.359751966558130e+00
 4.148588062332750e-01	 2.061614365555055e+00	 2.356623716377944e+00
 3.964563127271736e-01	 2.065232162034525e+00	 2.359306932192958e+00
 3.780726628435581e-01	 2.068676492731258e+00	 2.369058270864888e+00
 3.597100825425086e-01	 2.071948339261310e+00	 2.387073376794117e+00
 5.462936946673629e-01	 2.039881930937566e+00	 2.440901036051768e+00
 5.277465143132475e-01	 2.044758833326723e+00	 2.428560342768851e+00
 5.092018166929980e-01	 2.049455664693653e+00	 2.414227588932920e+00
 4.906620307147689e-01	 2.053973149001240e+00	 2.399222988107408e+00
 4.721295596740751e-01	 2.058312050180712e+00	 2.384867380663837e+00
 4.536067805245315e-01	 2.062473171294014e+00	 2.372477784793911e+00
 4.350960431769275e-01	 2.066457353683294e+00	 2.363363750482855e+00
 4.165996698267688e-01	 2.070265476108505e+00	 2.358824453883003e+00
 3.981199543103845e-01	 2.073898453874133e+00	 2.360146467478017e+00
 3.796591614896646e-01	 2.077357237946044e+00	 2.368602139942975e+00
 3.612195266654453e-01	 2.080642814059420e+00	 2.385418412613622e+00
 5.485765164607425e-01	 2.048406076416498e+00	 2.453487339514913e+00
 5.299518321776832e-01	 2.053303358135004e+00	 2.439686421903418e+00
 5.113296410032266e-01	 2.058019816360521e+00	 2.423752859507049e+00
 4.927123819953200e-01	 2.062556178081173e+00	 2.407046148436930e+00
 4.741024684922417e-01	 2.066913210420454e+00	 2.390923933735561e+00
 4.555022873802952e-01	 2.071091719796089e+00	 2.376737679129463e+00
 4.369141983899525e-01	 2.075092551065971e+00	 2.365829164508097e+00
 4.183405334205864e-01	 2.078916586662154e+00	 2.359527746174232e+00
 3.997835958938883e-01	 2.082564745713942e+00	 2.359148312820920e+00
 3.812456601360327e-01	 2.086037983161031e+00	 2.365989868679986e+00
 3.627289707886124e-01	 2.089337288857729e+00	 2.381316710850154e+00
 5.508593382546569e-01	 2.056930221895830e+00	 2.466260242622279e+00
 5.321571500426681e-01	 2.061847882943687e+00	 2.450869195972993e+00
 5.134574653140097e-01	 2.066583968027788e+00	 2.433141955618568e+00
 4.947627332764225e-01	 2.071139207161506e+00	 2.414490198204889e+00
 4.760753773109500e-01	 2.075514370660596e+00	 2.396320925655085e+00
 4.573977942365843e-01	 2.079710268298565e+00	 2.380032249031746e+00
 4.387323536034809e-01	 2.083727748449047e+00	 2.367010026046343e+00
 4.200813970148811e-01	 2.087567697216204e+00	 2.358625284808968e+00
 4.014472374778394e-01	 2.091231037554150e+00	 2.356232364278523e+00
 3.828321587828153e-01	 2.094718728376416e+00	 2.361167700336501e+00
 3.642384149121597e-01	 2.098031763656439e+00	 2.374739539688147e+00
 5.531421600492071e-01	 2.065454367375761e+00	 2.478882817621994e+00
 5.343624679083131e-01	 2.070392407752969e+00	 2.461806983827404e+00
 5.155852896254677e-01	 2.075148119695656e+00	 2.442127919101882e+00
 4.968130845582062e-01	 2.079722236242439e+00	 2.421322198099212e+00
 4.780482861303374e-01	 2.084115530901338e+00	 2.400858549712292e+00
 4.592933010935429e-01	 2.088328816801641e+00	 2.382193750686056e+00
 4.405505088176623e-01	 2.092362945832725e+00	 2.366769399962178e+00
 4.218222606098063e-01	 2.096218807770854e+00	 2.356009503837377e+00
 4.031108790623920e-01	 2.099897329394959e+00	 2.351318799839264e+00
 3.844186574301659e-01	 2.103399473592404e+00	 2.354081745658315e+00
 3.657478590362367e-01	 2.106726238455749e+00	 2.365657683568238e+00
 5.554249818444938e-01	 2.073978512856493e+00	 2.491023184434435e+00
 5.365677857747290e-01	 2.078936932563052e+00	 2.472202429713359e+00
 5.177131139377212e-01	 2.083712271364324e+00	 2.450447426967084e+00
 4.988634358408005e-01	 2.088305265324173e+00	 2.427312188029406e+00
 4.800211949505416e-01	 2.092716691142881e+00	 2.404339358849628e+00
 4.611888079513155e-01	 2.096947365305516e+00	 2.383056218770627e+00
 4.423686640326468e-01	 2.100998143217203e+00	 2.364971588794939e+00
 4.235631242055150e-01	 2.104869918326305e+00	 2.351573576348992e+00
 4.047745206477009e-01	 2.108563621236568e+00	 2.344328081830608e+00
 3.860051560782379e-01	 2.112080218809191e+00	 2.344677990630422e+00
 3.672573031609927e-01	 2.115420713255858e+00	 2.354041438174469e+00
 3.521628619260533e-01	 2.028475965266763e+00	 2.359619534830882e+00
 3.342052820390940e-01	 2.031511794282461e+00	 2.382781005240008e+00
 3.162726130965756e-01	 2.034380720240966e+00	 2.405544093452619e+00
 2.983669504141310e-01	 2.037083799624414e+00	 2.426808718827884e+00
 2.804903583591603e-01	 2.039622119309464e+00	 2.445446958726662e+00
 2.626448699171351e-01	 2.041996795666766e+00	 2.460310912042491e+00
 2.448324862854198e-01	 2.044208973657273e+00	 2.470239544271760e+00
 2.270551764944082e-01	 2.046259825926268e+00	 2.474064611981307e+00
 2.093148770557514e-01	 2.048150551895931e+00	 2.470615762897366e+00
 1.916134916374246e-01	 2.049882376857315e+00	 2.458724905661165e+00
 1.739528907653514e-01	 2.051456551062507e+00	 2.437229940622066e+00
 3.536723060500792e-01	 2.037170440066873e+00	 2.369783850766217e+00
 3.356377561975625e-01	 2.040219281284530e+00	 2.393370391214619e+00
 3.176282240630479e-01	 2.043100504063327e+00	 2.416218446039108e+00
 2.996458139431216e-01	 2.045815169413713e+00	 2.437293326675012e+00
 2.816925990534858e-01	 2.048364368870937e+00	 2.455537536593242e+00
 2.637706210934058e-01	 2.050749223590655e+00	 2.469878178365994e+00
 2.458818898377882e-01	 2.052970883441376e+00	 2.479233328490254e+00
 2.280283827566957e-01	 2.055030526094590e+00	 2.482517481446556e+00
 2.102120446620659e-01	 2.056929356113464e+00	 2.478646162715930e+00
 1.924347873813856e-01	 2.058668604040913e+00	 2.466539808166162e+00
 1.746984894580363e-01	 2.060249525487874e+00	 2.445127004398258e+00
 3.551817501735882e-01	 2.045864914866183e+00	 2.377638013456843e+00
 3.370702303555186e-01	 2.048926768285800e+00	 2.401299091628229e+00
 3.189838350290257e-01	 2.051820287884890e+00	 2.423962885580526e+00
 3.009246774716443e-01	 2.054546539202218e+00	 2.444654772846302e+00
 2.828948397473759e-01	 2.057106618431624e+00	 2.462382295693045e+00
 2.648963722692748e-01	 2.059501651513772e+00	 2.476142107791044e+00
 2.469312933897871e-01	 2.061732793224723e+00	 2.484925874704137e+00
 2.290015890186401e-01	 2.063801226262182e+00	 2.487725233369188e+00
 2.111092122680545e-01	 2.065708160330302e+00	 2.483535913852784e+00
 1.932560831250248e-01	 2.067454831223859e+00	 2.471361124225191e+00
 1.754440881503875e-01	 2.069042499912646e+00	 2.450214296422547e+00
 3.566911942967296e-01	 2.054559389664892e+00	 2.383155631611696e+00
 3.385027045131052e-01	 2.057634255286469e+00	 2.406562556764801e+00
 3.203394459946425e-01	 2.060540071705855e+00	 2.428790306769947e+00
 3.022035409998227e-01	 2.063277908990127e+00	 2.448919162866820e+00
 2.840970804409434e-01	 2.065848867991720e+00	 2.466016486311759e+00
 2.660221234448452e-01	 2.068254079436308e+00	 2.479143200246209e+00
 2.479806969415102e-01	 2.070494703007503e+00	 2.487359211301980e+00
 2.299747952803279e-01	 2.072571926429228e+00	 2.489727879868375e+00
 2.120063798737988e-01	 2.074486964546619e+00	 2.485319645943084e+00
 1.940773788684229e-01	 2.076241058406318e+00	 2.473214914900631e+00
 1.761896868424884e-01	 2.077835474336970e+00	 2.452506304390452e+00
 3.582006384196533e-01	 2.063253864463201e+00	 2.386309856559492e+00
 3.399351786704651e-01	 2.066341742286739e+00	 2.409155556536708e+00
 3.216950569600325e-01	 2.069259855526419e+00	 2.430712749804450e+00
 3.034824045277811e-01	 2.072009278777640e+00	 2.450111622182682e+00
 2.852993211343018e-01	 2.074591117551423e+00	 2.466474301297078e+00
 2.671478746202196e-01	 2.077006507358456e+00	 2.478920868773974e+00
 2.490301004930512e-01	 2.079256612789907e+00	 2.486574297937198e+00
 2.309480015418452e-01	 2.081342626595910e+00	 2.488564429763676e+00
 2.129035474793806e-01	 2.083265768762590e+00	 2.484031097722467e+00
 1.948986746116602e-01	 2.085027285588452e+00	 2.472126509390741e+00
 1.769352855344224e-01	 2.086628448760998e+00	 2.452016989462725e+00
 3.597100825425086e-01	 2.071948339261310e+00	 2.387073376794117e+00
 3.413676528277411e-01	 2.075049229286808e+00	 2.409072182457102e+00
 3.230506679253299e-01	 2.077979639346785e+00	 2.429741408319779e+00
 3.047612680556432e-01	 2.080740648564952e+00	 2.448256308636621e+00
 2.865015618275644e-01	 2.083333367110929e+00	 2.463788891697936e+00
 2.682736257955012e-01	 2.085758935280411e+00	 2.475513457000923e+00
 2.500795040445034e-01	 2.088018522572120e+00	 2.482611043541580e+00
 2.319212078032784e-01	 2.090113326762409e+00	 2.484272905889991e+00
 2.138007150848811e-01	 2.092044572978385e+00	 2.479703132447378e+00
 1.957199703548173e-01	 2.093813512770423e+00	 2.468120517405757e+00
 1.776808842262729e-01	 2.095421423184876e+00	 2.448759794494079e+00
 3.612195266654453e-01	 2.080642814059420e+00	 2.385418412613622e+00
 3.428001269850763e-01	 2.083756716286878e+00	 2.406305849538872e+00
 3.244062788906685e-01	 2.086699423167150e+00	 2.425886637117926e+00
 3.060401315835329e-01	 2.089472018352266e+00	 2.443376424635506e+00
 2.877038025208442e-01	 2.092075616670436e+00	 2.457992382026291e+00
 2.693993769707930e-01	 2.094511363202366e+00	 2.468958256191995e+00
 2.511289075959609e-01	 2.096780432354334e+00	 2.475508323914478e+00
 2.328944140647136e-01	 2.098884026928908e+00	 2.476890362008759e+00
 2.146978826903825e-01	 2.100823377194181e+00	 2.472367752960515e+00
 1.965412660979743e-01	 2.102599739952393e+00	 2.461220841265163e+00
 1.784264829181235e-01	 2.104214397608754e+00	 2.442747652085627e+00
 3.627289707886124e-01	 2.089337288857729e+00	 2.381316710850154e+00
 3.442326011426131e-01	 2.092464203287147e+00	 2.400849298122272e+00
 3.257618898561826e-01	 2.095419206987716e+00	 2.419157959693648e+00
 3.073189951115741e-01	 2.098203388139777e+00	 2.435494229018590e+00
 2.889060432142544e-01	 2.100817866230138e+00	 2.449115885152439e+00
 2.705251281461976e-01	 2.103263791124514e+00	 2.459291521900972e+00
 2.521783111475171e-01	 2.105542342136737e+00	 2.465303998899954e+00
 2.338676203262373e-01	 2.107654727095588e+00	 2.466452899327154e+00
 2.155950502959660e-01	 2.109602181410150e+00	 2.462056116411666e+00
 1.973625618412119e-01	 2.111385967134527e+00	 2.451450687724297e+00
 1.791720816100575e-01	 2.113007372032781e+00	 2.433992992466176e+00
 3.642384149121597e-01	 2.098031763656439e+00	 2.374739539688147e+00
 3.456650753004947e-01	 2.101171690287817e+00	 2.392694595633334e+00
 3.271175008220060e-01	 2.104138990808680e+00	 2.409564075565775e+00
 3.085978586398906e-01	 2.106934757927686e+00	 2.424631048635375e+00
 2.901082839079087e-01	 2.109560115790234e+00	 2.437189516844507e+00
 2.716508793218180e-01	 2.112016219047050e+00	 2.446548490228851e+00
 2.532277146992657e-01	 2.114304251919518e+00	 2.452034929163868e+00
 2.348408265879358e-01	 2.116425427262635e+00	 2.452995682636686e+00
 2.164922179017134e-01	 2.118380985626467e+00	 2.448798548643957e+00
 1.981838575846104e-01	 2.120172194316987e+00	 2.438832579538114e+00
 1.799176803021584e-01	 2.121800346457106e+00	 2.422507751207282e+00
 3.657478590362367e-01	 2.106726238455749e+00	 2.365657683568238e+00
 3.470975494588637e-01	 2.109879177289086e+00	 2.381833138275048e+00
 3.284731117882728e-01	 2.112858774630243e+00	 2.397112867418962e+00
 3.098767221686065e-01	 2.115666127716192e+00	 2.410807289641328e+00
 2.913105246019199e-01	 2.118302365350920e+00	 2.422242409962389e+00
 2.727766304977570e-01	 2.120768646970166e+00	 2.430763393701477e+00
 2.542771182513003e-01	 2.123066161702865e+00	 2.435736992582448e+00
 2.358140328498953e-01	 2.125196127430227e+00	 2.436552956082155e+00
 2.173893855077065e-01	 2.127159789843305e+00	 2.432624558255198e+00
 1.990051533282502e-01	 2.128958421499934e+00	 2.423388366769728e+00
 1.806632789945095e-01	 2.130593320881877e+00	 2.408303376776952e+00
 3.672573031609927e-01	 2.115420713255858e+00	 2.354041438174469e+00
 3.485300236178633e-01	 2.118586664291156e+00	 2.368255652653254e+00
 3.298287227551172e-01	 2.121578558452605e+00	 2.381811408061269e+00
 3.111555856978455e-01	 2.124397497505492e+00	 2.394042448519640e+00
 2.925127652964016e-01	 2.127044614912394e+00	 2.404302728316079e+00
 2.739023816741177e-01	 2.129521074894057e+00	 2.411969476777376e+00
 2.553265218037148e-01	 2.131828071486968e+00	 2.416445100253562e+00
 2.367872391122023e-01	 2.133966827598550e+00	 2.417158058571627e+00
 2.182865531140267e-01	 2.135938594060838e+00	 2.413562850343632e+00
 1.998264490722119e-01	 2.137744648683531e+00	 2.405139237851052e+00
 1.814088776871944e-01	 2.139386295307245e+00	 2.391390837936572e+00
 1.739528907653514e-01	 2.051456551062507e+00	 2.437229940622066e+00
 1.563378956469499e-01	 2.052874120972599e+00	 2.408171578568002e+00
 1.387672691588538e-01	 2.054136664002496e+00	 2.376124260734604e+00
 1.212427399094186e-01	 2.055245498769098e+00	 2.343750052183849e+00
 1.037660035474255e-01	 2.056201965204191e+00	 2.313713519025432e+00
 8.633872258613057e-02	 2.057007423672388e+00	 2.288678927075749e+00
 6.896252625088575e-02	 2.057663254093237e+00	 2.271307410896376e+00
 5.163901034994151e-02	 2.058170855068159e+00	 2.264254178591850e+00
 3.436973716802243e-02	 2.058531643012857e+00	 2.270165812466126e+00
 1.715623538225374e-02	 2.058747051295792e+00	 2.291677720280720e+00
 0.000000000000000e+00	 2.058818529383334e+00	 2.331411786409549e+00
 1.746984894580363e-01	 2.060249525487874e+00	 2.445127004398258e+00
 1.570079927641405e-01	 2.061673171400800e+00	 2.416773165166416e+00
 1.393620548737723e-01	 2.062941125955724e+00	 2.386079330135437e+00
 1.217624118044821e-01	 2.064054713421412e+00	 2.355351912373077e+00
 1.042107664729743e-01	 2.065015279472879e+00	 2.326899404324849e+00
 8.670878851840166e-02	 2.065824190305541e+00	 2.303029674013301e+00
 6.925811414933408e-02	 2.066482831753568e+00	 2.286047234039836e+00
 5.186034601400691e-02	 2.066992608413080e+00	 2.278250550329768e+00
 3.451705309344057e-02	 2.067354942770832e+00	 2.281929452126422e+00
 1.722977061700658e-02	 2.067571274338999e+00	 2.299362699228324e+00
 0.000000000000000e+00	 2.067643058796667e+00	 2.332815756859697e+00
 1.754440881503875e-01	 2.069042499912646e+00	 2.450214296422547e+00
 1.576780898809675e-01	 2.070472221828471e+00	 2.422733132202185e+00
 1.399568405882869e-01	 2.071745587908495e+00	 2.393506970243548e+00
 1.222820836991007e-01	 2.072863928073350e+00	 2.364502033369144e+00
 1.046555293980451e-01	 2.073828593741268e+00	 2.337686569149719e+00
 8.707885445017917e-02	 2.074640956938473e+00	 2.315028205957971e+00
 6.955370204729965e-02	 2.075302409413749e+00	 2.298491284949721e+00
 5.208168167763563e-02	 2.075814361757912e+00	 2.290034236547581e+00
 3.466436901851208e-02	 2.076178242528764e+00	 2.291607064406432e+00
 1.730330585155552e-02	 2.076395497382195e+00	 2.305148994167434e+00
 0.000000000000000e+00	 2.076467588210001e+00	 2.332586338541848e+00
 1.761896868424884e-01	 2.077835474336970e+00	 2.452506304390452e+00
 1.583481869975218e-01	 2.079271272255743e+00	 2.426057353812308e+00
 1.405516263024989e-01	 2.080550049860926e+00	 2.398413162071997e+00
 1.228017555933855e-01	 2.081673142725004e+00	 2.371215103166753e+00
 1.051002923227574e-01	 2.082641908009435e+00	 2.346106884276736e+00
 8.744892038158651e-02	 2.083457723571238e+00	 2.324731923880160e+00
 6.984928994490312e-02	 2.084121987073818e+00	 2.308730709634328e+00
 5.230301734093679e-02	 2.084636115102677e+00	 2.299738206305309e+00
 3.481168494332357e-02	 2.085001542286665e+00	 2.299381378267056e+00
 1.737684108595153e-02	 2.085219720425383e+00	 2.309276885251063e+00
 0.000000000000000e+00	 2.085292117623334e+00	 2.331029004095131e+00
 1.769352855344224e-01	 2.086628448760998e+00	 2.452016989462725e+00
 1.590182841138943e-01	 2.088070322682753e+00	 2.426751331393854e+00
 1.411464120165089e-01	 2.089354511813128e+00	 2.400803521753166e+00
 1.233214274874479e-01	 2.090482357376469e+00	 2.375505311506241e+00
 1.055450552472308e-01	 2.091455222277454e+00	 2.352191452359088e+00
 8.781898631274709e-02	 2.092274490203895e+00	 2.332197059027535e+00
 7.014487784226525e-02	 2.092941564733812e+00	 2.316854955835835e+00
 5.252435300401959e-02	 2.093457868447397e+00	 2.307493079709284e+00
 3.495900086796176e-02	 2.093824842044545e+00	 2.305432005691047e+00
 1.745037632024558e-02	 2.094043943468565e+00	 2.311982655101038e+00
 0.000000000000000e+00	 2.094116647036667e+00	 2.328444240349064e+00
 1.776808842262729e-01	 2.095421423184876e+00	 2.448759794494079e+00
 1.596883812301760e-01	 2.096869373109628e+00	 2.424820198674186e+00
 1.417411977304180e-01	 2.098158973765217e+00	 2.400683305459114e+00
 1.238410993813990e-01	 2.099291572027842e+00	 2.377386357592761e+00
 1.059898181715847e-01	 2.100268536545396e+00	 2.355970621332211e+00
 8.818905224378430e-02	 2.101091256836494e+00	 2.337478694842720e+00
 7.044046573950664e-02	 2.101761142393767e+00	 2.322951806222160e+00
 5.274568866699318e-02	 2.102279621792094e+00	 2.313427175076005e+00
 3.510631679251330e-02	 2.102648141802415e+00	 2.309935505451435e+00
 1.752391155448866e-02	 2.102868166511744e+00	 2.313498671747305e+00
 0.000000000000000e+00	 2.102941176450000e+00	 2.325127652932872e+00
 1.784264829181235e-01	 2.104214397608754e+00	 2.442747652085627e+00
 1.603584783464577e-01	 2.105668423536505e+00	 2.420268726681594e+00
 1.423359834443270e-01	 2.106963435717304e+00	 2.398057414222806e+00
 1.243607712753501e-01	 2.108100786679214e+00	 2.376871457642456e+00
 1.064345810959385e-01	 2.109081850813341e+00	 2.357473997499810e+00
 8.855911817482148e-02	 2.109908023469094e+00	 2.340630788343851e+00
 7.073605363674806e-02	 2.110580720053723e+00	 2.327107410755124e+00
 5.296702432996681e-02	 2.111101375136791e+00	 2.317666554918646e+00
 3.525363271706484e-02	 2.111471441560285e+00	 2.313065445283558e+00
 1.759744678873173e-02	 2.111692389554924e+00	 2.314053469488346e+00
 0.000000000000000e+00	 2.111765705863333e+00	 2.321370068261964e+00
 1.791720816100575e-01	 2.113007372032781e+00	 2.433992992466176e+00
 1.610285754628302e-01	 2.114467473963513e+00	 2.413101328619195e+00
 1.429307691583371e-01	 2.115767897669508e+00	 2.392930398663147e+00
 1.248804431694124e-01	 2.116910001330680e+00	 2.373973352260535e+00
 1.068793440204119e-01	 2.117895165081359e+00	 2.356730458309531e+00
 8.892918410598209e-02	 2.118724790101751e+00	 2.341706190983568e+00
 7.103164153411014e-02	 2.119400297713716e+00	 2.329406318258935e+00
 5.318835999304961e-02	 2.119923128481511e+00	 2.320335070790400e+00
 3.540094864170301e-02	 2.120294741318164e+00	 2.314992462507162e+00
 1.767098202302579e-02	 2.120516612598105e+00	 2.313871827733320e+00
 0.000000000000000e+00	 2.120590235276666e+00	 2.317457632977986e+00
 1.799176803021584e-01	 2.121800346457106e+00	 2.422507751207282e+00
 1.616986725793845e-01	 2.123266524390786e+00	 2.403322064644956e+00
 1.435255548725490e-01	 2.124572359621937e+00	 2.385306463616515e+00
 1.254001150636973e-01	 2.125719215982335e+00	 2.368704313656282e+00
 1.073241069451242e-01	 2.126708479349526e+00	 2.353768164827253e+00
 8.929925003738945e-02	 2.127541556734517e+00	 2.340756669001631e+00
 7.132722943171366e-02	 2.128219875373785e+00	 2.329931507212145e+00
 5.340969565635077e-02	 2.128744881826276e+00	 2.321554407017935e+00
 3.554826456651451e-02	 2.129118041076065e+00	 2.315884323143550e+00
 1.774451725742180e-02	 2.129340835641293e+00	 2.313174847884431e+00
 0.000000000000000e+00	 2.129414764689999e+00	 2.313671910916341e+00
 1.806632789945095e-01	 2.130593320881877e+00	 2.408303376776952e+00
 1.623687696962115e-01	 2.132065574818457e+00	 2.390934646560519e+00
 1.441203405870637e-01	 2.133376821574709e+00	 2.375189472677647e+00
 1.259197869583158e-01	 2.134528430634272e+00	 2.361076152699523e+00
 1.077688698701950e-01	 2.135521793617915e+00	 2.348614573918694e+00
 8.966931596916697e-02	 2.136358323367449e+00	 2.337832923285743e+00
 7.162281732967921e-02	 2.137039453033965e+00	 2.328764415785554e+00
 5.363103131997948e-02	 2.137566635171108e+00	 2.321444123356952e+00
 3.569558049158602e-02	 2.137941340833998e+00	 2.315905979571269e+00
 1.781805249197074e-02	 2.138165058684489e+00	 2.312180028316153e+00
 0.000000000000000e+00	 2.138239294103332e+00	 2.310289977672511e+00
 1.814088776871944e-01	 2.139386295307245e+00	 2.391390837936572e+00
 1.630388668134021e-01	 2.140864625246658e+00	 2.375942442411487e+00
 1.447151263019822e-01	 2.142181283527937e+00	 2.362582952652313e+00
 1.264394588533794e-01	 2.143337645286587e+00	 2.351100225823314e+00
 1.082136327957438e-01	 2.144335107886604e+00	 2.341296450146784e+00
 9.003938190143806e-02	 2.145175090000602e+00	 2.332984608754799e+00
 7.191840522812755e-02	 2.145859030694298e+00	 2.325984971147735e+00
 5.385236698404491e-02	 2.146388388516030e+00	 2.320121696600884e+00
 3.584289641700417e-02	 2.146764640591973e+00	 2.315219626762355e+00
 1.789158772672358e-02	 2.146989281727696e+00	 2.311101337506069e+00
 0.000000000000000e+00	 2.147063823516666e+00	 2.307584512836389e+00
 2.147063823516666e+00	 0.000000000000000e+00	 8.600651745686071e-01
 2.146989281727697e+00	 1.789158772672240e-02	 1.917547036269174e+00
 2.146764640591973e+00	 3.584289641700315e-02	 2.658152421348112e+00
 2.146388388516029e+00	 5.385236698404408e-02	 3.122671063268625e+00
 2.145859030694298e+00	 7.191840522812687e-02	 3.353228820368804e+00
 2.145175090000602e+00	 9.003938190143755e-02	 3.393263455659643e+00
 2.144335107886603e+00	 1.082136327957435e-01	 3.287499999413221e+00
 2.143337645286588e+00	 1.264394588533793e-01	 3.081925764690633e+00
 2.142181283527938e+00	 1.447151263019822e-01	 2.823765065712961e+00
 2.140864625246658e+00	 1.630388668134023e-01	 2.561453674493819e+00
 2.139386295307245e+00	 1.814088776871945e-01	 2.344613035098705e+00
 2.155886852925016e+00	 0.000000000000000e+00	 7.652563232439188e-01
 2.155812004818010e+00	 1.796511046209789e-02	 1.955185579262464e+00
 2.155586440554033e+00	 3.599018730187193e-02	 2.766277508843467e+00
 2.155208642327952e+00	 5.407366502569269e-02	 3.250843734282697e+00
 2.154677109191528e+00	 7.221394288271948e-02	 3.462438197212480e+00
 2.153990357948555e+00	 9.040938492999101e-02	 3.455815886410822e+00
 2.153146924057020e+00	 1.086583201204628e-01	 3.286890937675013e+00
 2.152145362537581e+00	 1.269590424144494e-01	 3.012694198148382e+00
 2.150984248887804e+00	 1.453098109149132e-01	 2.691330327926835e+00
 2.149662180001442e+00	 1.637088500270273e-01	 2.381934497844296e+00
 2.148177775092080e+00	 1.821543496424223e-01	 2.144628726779215e+00
 2.164709882333466e+00	 0.000000000000000e+00	 7.293158852030186e-01
 2.164634727908435e+00	 1.803863319767585e-02	 2.015060805610389e+00
 2.164408240516233e+00	 3.613747818708211e-02	 2.875683797708803e+00
 2.164028896140064e+00	 5.429496306776715e-02	 3.372096757662590e+00
 2.163495187689004e+00	 7.250948053777691e-02	 3.566332876406297e+00
 2.162805625896828e+00	 9.077938795901222e-02	 3.521491290378352e+00
 2.161958740227829e+00	 1.091030074456263e-01	 3.301681005775439e+00
 2.160953079789044e+00	 1.274786259759229e-01	 2.971964209714391e+00
 2.159787214248219e+00	 1.459044955281991e-01	 2.598299062565661e+00
 2.158459734756845e+00	 1.643788332409613e-01	 2.247482052100375e+00
 2.156969254877593e+00	 1.828998215979255e-01	 1.987089974773786e+00
 2.173532911742116e+00	 0.000000000000000e+00	 7.479517622523197e-01
 2.173457450999069e+00	 1.811215593340394e-02	 2.092127868268405e+00
 2.173230040478665e+00	 3.628476907254193e-02	 2.980771469860234e+00
 2.172849149952441e+00	 5.451626111014748e-02	 3.480510640515891e+00
 2.172313266186794e+00	 7.280501819316076e-02	 3.658946751145625e+00
 2.171620893845463e+00	 9.114939098835227e-02	 3.584587997184864e+00
 2.170770556399055e+00	 1.095476947710806e-01	 3.326782212207534e+00
 2.169760797040980e+00	 1.279982095376466e-01	 2.955649101205396e+00
 2.168590179609160e+00	 1.464991801416903e-01	 2.542012007762975e+00
 2.167257289512821e+00	 1.650488164550589e-01	 2.157329315789996e+00
 2.165760734663721e+00	 1.836452935535623e-01	 1.873625571134323e+00
 2.182355941151066e+00	 0.000000000000000e+00	 8.169541219034026e-01
 2.182280174090007e+00	 1.818567866922985e-02	 2.181432845986131e+00
 2.182051840441417e+00	 3.643205995815960e-02	 3.076037414695509e+00
 2.181669403765162e+00	 5.473755915271377e-02	 3.570264897610459e+00
 2.181131344684955e+00	 7.310055584873260e-02	 3.734410933067118e+00
 2.180436161794501e+00	 9.151939401786215e-02	 3.639495063933550e+00
 2.179582372570720e+00	 1.099923820966725e-01	 3.357185483781667e+00
 2.178568514293389e+00	 1.285177930994679e-01	 2.959723345163184e+00
 2.177393144970602e+00	 1.470938647552370e-01	 2.519846762727387e+00
 2.176054844269327e+00	 1.657187996691748e-01	 2.110714630153466e+00
 2.174552214450399e+00	 1.843907655091912e-01	 1.805830354255848e+00
 2.191178970560415e+00	 0.000000000000000e+00	 9.321937411120313e-01
 2.191102897181349e+00	 1.825920140510125e-02	 2.278110882552905e+00
 2.190873640404581e+00	 3.657935084384342e-02	 3.156073227142878e+00
 2.190489657578304e+00	 5.495885719534612e-02	 3.635635983699919e+00
 2.189949423183549e+00	 7.339609350435398e-02	 3.786951706586949e+00
 2.189251429743987e+00	 9.188939704739298e-02	 3.680690351636601e+00
 2.188394188742844e+00	 1.104370694222489e-01	 3.387958976634403e+00
 2.187376231546269e+00	 1.290373766612339e-01	 2.980221255412033e+00
 2.186196110332526e+00	 1.476885493686899e-01	 2.529216955351567e+00
 2.184852399026318e+00	 1.663887828831639e-01	 2.106881513890955e+00
 2.183343694237561e+00	 1.851362374646702e-01	 1.785265833474858e+00
 2.200001999970266e+00	 0.000000000000000e+00	 1.089620389871400e+00
 2.199925620273190e+00	 1.833272414096580e-02	 2.377384370837396e+00
 2.199695440368243e+00	 3.672664172950156e-02	 3.215563253959850e+00
 2.199309911391945e+00	 5.518015523792461e-02	 3.670995275778751e+00
 2.198767501682639e+00	 7.369163115988650e-02	 3.810888532775825e+00
 2.198066697693963e+00	 9.225940007679573e-02	 3.702738648418016e+00
 2.197206004915452e+00	 1.108817567476566e-01	 3.414246428582041e+00
 2.196183948799623e+00	 1.295569602227918e-01	 3.013235690563018e+00
 2.194999075694908e+00	 1.482832339818991e-01	 2.567571431100406e+00
 2.193649953783748e+00	 1.670587660968804e-01	 2.145078483948366e+00
 2.192135174025141e+00	 1.858817094198578e-01	 1.813460800587948e+00
 2.208825029380716e+00	 0.000000000000000e+00	 1.285261253544581e+00
 2.208748343365628e+00	 1.840624687677118e-02	 2.474561180368676e+00
 2.208517240332494e+00	 3.687393261504230e-02	 3.249282686933510e+00
 2.208130165206160e+00	 5.540145328032932e-02	 3.670807103870230e+00
 2.207585580182284e+00	 7.398716881519168e-02	 3.800632101384688e+00
 2.206881965644471e+00	 9.262940310592145e-02	 3.700289838182974e+00
 2.206017821088564e+00	 1.113264440727425e-01	 3.431265551662932e+00
 2.204991666053448e+00	 1.300765437839886e-01	 3.054916789544197e+00
 2.203802041057728e+00	 1.488779185947151e-01	 2.632393462583284e+00
 2.202447508541579e+00	 1.677287493101794e-01	 2.224558882172646e+00
 2.200926653813076e+00	 1.866271813746121e-01	 1.891911928656385e+00
 2.217648058791865e+00	 0.000000000000000e+00	 1.515219392857935e+00
 2.217571066458761e+00	 1.847976961246507e-02	 2.565032927246693e+00
 2.217339040297423e+00	 3.702122350037385e-02	 3.252095701675151e+00
 2.216950419021027e+00	 5.562275132244034e-02	 3.629626828996163e+00
 2.216403658682547e+00	 7.428270647013119e-02	 3.750682429681244e+00
 2.215697233595557e+00	 9.299940613462128e-02	 3.668077113487650e+00
 2.214829637262203e+00	 1.117711313973532e-01	 3.434306463749238e+00
 2.213799383307747e+00	 1.305961273446716e-01	 3.101470738264402e+00
 2.212605006420962e+00	 1.494726032069882e-01	 2.721199979234439e+00
 2.211245063299760e+00	 1.683987325229155e-01	 2.344580707672952e+00
 2.209718133601300e+00	 1.873726533287918e-01	 2.022084358450646e+00
 2.226471088203815e+00	 0.000000000000000e+00	 1.776232451486790e+00
 2.226393789552685e+00	 1.855329234799514e-02	 2.644780631781774e+00
 2.226160840263118e+00	 3.716851438540449e-02	 3.219379893476743e+00
 2.225770672836623e+00	 5.584404936413773e-02	 3.542425969110923e+00
 2.225221737183490e+00	 7.457824412456648e-02	 3.655848445393183e+00
 2.224512501547259e+00	 9.336940916274614e-02	 3.601038037384535e+00
 2.223641453436392e+00	 1.122158187213357e-01	 3.418775471979330e+00
 2.222607100562519e+00	 1.311157109046881e-01	 3.149162107286006e+00
 2.221407971784588e+00	 1.500672878185689e-01	 2.831540816543737e+00
 2.220042618058251e+00	 1.690687157349433e-01	 2.504406454729577e+00
 2.218509613389748e+00	 1.881181252822547e-01	 2.205412272877880e+00
 2.235294117616666e+00	 0.000000000000000e+00	 2.067440048519669e+00
 2.235216512647500e+00	 1.862681508330905e-02	 2.712129436815746e+00
 2.234982640229673e+00	 3.731580527004243e-02	 3.148843518351677e+00
 2.234590926653027e+00	 5.606534740530161e-02	 3.406506828504403e+00
 2.234039815685173e+00	 7.487378177835924e-02	 3.513247077038458e+00
 2.233327769499625e+00	 9.373941219014720e-02	 3.496332450771197e+00
 2.232453269611153e+00	 1.126605060445367e-01	 3.382111131331144e+00
 2.231414817817765e+00	 1.316352944638850e-01	 3.195953149484039e+00
 2.230210937148586e+00	 1.506619724293075e-01	 2.962194703380851e+00
 2.228840172817007e+00	 1.697386989461175e-01	 2.704085082392007e+00
 2.227301093178355e+00	 1.888635972348596e-01	 2.443736354456298e+00
 2.139386295307245e+00	 1.814088776871945e-01	 2.344613035098705e+00
 2.137744648683532e+00	 1.998264490722111e-01	 2.228200157438481e+00
 2.135938594060838e+00	 2.182865531140259e-01	 2.222234660254236e+00
 2.133966827598551e+00	 2.367872391122015e-01	 2.308669642027307e+00
 2.131828071486969e+00	 2.553265218037142e-01	 2.468066776502571e+00
 2.129521074894057e+00	 2.739023816741171e-01	 2.679602416700968e+00
 2.127044614912394e+00	 2.925127652964011e-01	 2.921077097678557e+00
 2.124397497505491e+00	 3.111555856978451e-01	 3.168928353503326e+00
 2.121578558452605e+00	 3.298287227551169e-01	 3.398246731670307e+00
 2.118586664291155e+00	 3.485300236178631e-01	 3.582794854893762e+00
 2.115420713255859e+00	 3.672573031609928e-01	 3.695029346082334e+00
 2.148177775092080e+00	 1.821543496424223e-01	 2.144628726779215e+00
 2.146529382373564e+00	 2.006476052116181e-01	 2.032643162676785e+00
 2.144715906046622e+00	 2.191835682189999e-01	 2.044330957711707e+00
 2.142736036912700e+00	 2.377602799480361e-01	 2.157220194022796e+00
 2.140588491911129e+00	 2.563757469775795e-01	 2.347650442859163e+00
 2.138272015069765e+00	 2.750279414943086e-01	 2.590789947204682e+00
 2.135785378455829e+00	 2.937148016329822e-01	 2.860656313366729e+00
 2.133127383126119e+00	 3.124342318447950e-01	 3.130140610180070e+00
 2.130296860075697e+00	 3.311841032941044e-01	 3.371034740845693e+00
 2.127292671184186e+00	 3.499622542837595e-01	 3.554061917744643e+00
 2.124113710158760e+00	 3.687664907092441e-01	 3.648910035022968e+00
 2.156969254877593e+00	 1.828998215979255e-01	 1.987089974773787e+00
 2.155314116064326e+00	 2.014687613512871e-01	 1.870219424635476e+00
 2.153493218033174e+00	 2.200805833242418e-01	 1.887941638821672e+00
 2.151505246227645e+00	 2.387333207841608e-01	 2.014479123364040e+00
 2.149348912336104e+00	 2.574249721517705e-01	 2.223048641959140e+00
 2.147022955246299e+00	 2.761535013148723e-01	 2.485887679735391e+00
 2.144526142000099e+00	 2.949168379699883e-01	 2.774284513724341e+00
 2.141857268747582e+00	 3.137128779922271e-01	 3.058611774190720e+00
 2.139015161699622e+00	 3.325394838336319e-01	 3.308363346036064e+00
 2.135998678078050e+00	 3.513944849502514e-01	 3.492194423479259e+00
 2.132806707062495e+00	 3.702756782581408e-01	 3.577964494326402e+00
 2.165760734663721e+00	 1.836452935535623e-01	 1.873625571134323e+00
 2.164098849755733e+00	 2.022899174910777e-01	 1.745001676374878e+00
 2.162270530020391e+00	 2.209775984296105e-01	 1.759139340077285e+00
 2.160274455543268e+00	 2.397063616204323e-01	 1.888060121211612e+00
 2.158109332761763e+00	 2.584741973261401e-01	 2.102942571147521e+00
 2.155773895423520e+00	 2.772790611356551e-01	 2.374156193998888e+00
 2.153266905545051e+00	 2.961188743072610e-01	 2.671299099165522e+00
 2.150587154369724e+00	 3.149915241399767e-01	 2.963239218042810e+00
 2.147733463324223e+00	 3.338948643735286e-01	 3.218158920692737e+00
 2.144704684972583e+00	 3.528267156171619e-01	 3.403602830992047e+00
 2.141499703966895e+00	 3.717848658075003e-01	 3.487289170844694e+00
 2.174552214450399e+00	 1.843907655091912e-01	 1.805830354255848e+00
 2.172883583447700e+00	 2.031110736308498e-01	 1.660988924940090e+00
 2.171047842008173e+00	 2.218746135349653e-01	 1.663890698669827e+00
 2.169043664859453e+00	 2.406794024567073e-01	 1.785446339675403e+00
 2.166869753187978e+00	 2.595234225005410e-01	 1.995866314261395e+00
 2.164524835601286e+00	 2.784046209565050e-01	 2.264700575865406e+00
 2.162007669090537e+00	 2.973209106446422e-01	 2.560882015786779e+00
 2.159317039992388e+00	 3.162701702878790e-01	 2.852773541678368e+00
 2.156451764949334e+00	 3.352502449136231e-01	 3.108218608542571e+00
 2.153410691867619e+00	 3.542589462843135e-01	 3.294594988497724e+00
 2.150192700871797e+00	 3.732940533571398e-01	 3.382155269449573e+00
 2.183343694237561e+00	 1.851362374646702e-01	 1.785265833474859e+00
 2.181668317140144e+00	 2.039322297704632e-01	 1.622107900250824e+00
 2.179825153996416e+00	 2.227716286401655e-01	 1.608058479880244e+00
 2.177812874176083e+00	 2.416524432928424e-01	 1.713993047116334e+00
 2.175630173614619e+00	 2.605726476748258e-01	 1.910209869493001e+00
 2.173275775779456e+00	 2.795301807772695e-01	 2.166473657732504e+00
 2.170748432636405e+00	 2.985229469819732e-01	 2.452063043507727e+00
 2.168046925615416e+00	 3.175488164357696e-01	 2.735821739064121e+00
 2.165170066574794e+00	 3.366056254537444e-01	 2.986213194752648e+00
 2.162116698762993e+00	 3.556911769515287e-01	 3.171378530912929e+00
 2.158885697777032e+00	 3.748032409068762e-01	 3.266703837394617e+00
 2.192135174025141e+00	 1.858817094198578e-01	 1.813460800587949e+00
 2.190453050832980e+00	 2.047533859097776e-01	 1.632214471483806e+00
 2.188602465985023e+00	 2.236686437450699e-01	 1.597403656080324e+00
 2.186582083493046e+00	 2.426254841286944e-01	 1.680930222836284e+00
 2.184390594041556e+00	 2.616218728488473e-01	 1.854222108192481e+00
 2.182026715957890e+00	 2.806557405977962e-01	 2.088279185266900e+00
 2.179489196182510e+00	 2.997249833190961e-01	 2.353723010027513e+00
 2.176776811238651e+00	 3.188274625834834e-01	 2.620850294142695e+00
 2.173888368200441e+00	 3.379610059937213e-01	 2.859689914218083e+00
 2.170822705658540e+00	 3.571234076186305e-01	 3.040063226446005e+00
 2.167578694682434e+00	 3.763124284565266e-01	 3.145000527990199e+00
 2.200926653813076e+00	 1.866271813746121e-01	 1.891911928656385e+00
 2.199237784526123e+00	 2.055745420486529e-01	 1.695095031856395e+00
 2.197379777973891e+00	 2.245656588495380e-01	 1.637587438697287e+00
 2.195351292810220e+00	 2.435985249641197e-01	 1.693365092850508e+00
 2.193151014468660e+00	 2.626710980224581e-01	 1.836013666541906e+00
 2.190777656136448e+00	 2.817813004179327e-01	 2.038774912583334e+00
 2.188229959728697e+00	 3.009270196558522e-01	 2.274596932671413e+00
 2.185506696861939e+00	 3.201061087308563e-01	 2.516188208119901e+00
 2.182606669826112e+00	 3.393163865333828e-01	 2.736075198730605e+00
 2.179528712554093e+00	 3.585556382854416e-01	 2.906663273815169e+00
 2.176271691587835e+00	 3.778216160059086e-01	 3.021043317676542e+00
 2.209718133601300e+00	 1.873726533287918e-01	 2.022084358450646e+00
 2.208022518219492e+00	 2.063956981869490e-01	 1.814467852691753e+00
 2.206157089962917e+00	 2.254626739534285e-01	 1.734173264451082e+00
 2.204120502127490e+00	 2.445715657989752e-01	 1.758284608383403e+00
 2.201911434895801e+00	 2.637203231955108e-01	 1.863559771969327e+00
 2.199528596314987e+00	 2.829068602375265e-01	 2.026475627853911e+00
 2.196970723274818e+00	 3.021290559920834e-01	 2.223277090135594e+00
 2.194236582485118e+00	 3.213847548777231e-01	 2.430029960000562e+00
 2.191324971451645e+00	 3.406717670725576e-01	 2.622677364730333e+00
 2.188234719449488e+00	 3.599878689517844e-01	 2.777099551470178e+00
 2.184964688493071e+00	 3.793308035548390e-01	 2.898763889211687e+00
 2.218509613389748e+00	 1.881181252822547e-01	 2.205412272877880e+00
 2.216807251912999e+00	 2.072168543245254e-01	 1.993984407617475e+00
 2.214934401952002e+00	 2.263596890566009e-01	 1.892628737133359e+00
 2.212889711444741e+00	 2.455446066331173e-01	 1.882557868676924e+00
 2.210671855322850e+00	 2.647695483678583e-01	 1.944703006113925e+00
 2.208279536493369e+00	 2.840324200564252e-01	 2.059756111277460e+00
 2.205711486820725e+00	 3.033310923276313e-01	 2.208216026074759e+00
 2.202966468108035e+00	 3.226634010239193e-01	 2.370438402224134e+00
 2.200043273076878e+00	 3.420271476110746e-01	 2.526689243288951e+00
 2.196940726344561e+00	 3.614200996174821e-01	 2.657201820148890e+00
 2.193657685397974e+00	 3.808399911031352e-01	 2.782028983365334e+00
 2.227301093178355e+00	 1.888635972348596e-01	 2.443736354456299e+00
 2.225591985606564e+00	 2.080380104612422e-01	 2.237412479561513e+00
 2.223711713941045e+00	 2.272567041589144e-01	 2.118361427449824e+00
 2.221658920761857e+00	 2.465176474664031e-01	 2.072938489649677e+00
 2.219432275749678e+00	 2.658187735393531e-01	 2.087156006094718e+00
 2.217030476671453e+00	 2.851579798744763e-01	 2.146854027278021e+00
 2.214452250366266e+00	 3.045331286623377e-01	 2.237729486416210e+00
 2.211696353730532e+00	 3.239420471692804e-01	 2.345347593194159e+00
 2.208761574701650e+00	 3.433825281487632e-01	 2.455190753920426e+00
 2.205646733239143e+00	 3.628523302823570e-01	 2.552710880058225e+00
 2.202350682302377e+00	 3.823491786506144e-01	 2.674641719989108e+00
 2.115420713255859e+00	 3.672573031609928e-01	 3.695029346082334e+00
 2.112080218809191e+00	 3.860051560782366e-01	 3.684330216146728e+00
 2.108563621236568e+00	 4.047745206476998e-01	 3.608823160018960e+00
 2.104869918326306e+00	 4.235631242055140e-01	 3.480948367524920e+00
 2.100998143217202e+00	 4.423686640326460e-01	 3.309927622687903e+00
 2.096947365305518e+00	 4.611888079513150e-01	 3.105819444137053e+00
 2.092716691142881e+00	 4.800211949505413e-01	 2.879517371766063e+00
 2.088305265324173e+00	 4.988634358408002e-01	 2.642745984675777e+00
 2.083712271364325e+00	 5.177131139377213e-01	 2.408054538282075e+00
 2.078936932563052e+00	 5.365677857747292e-01	 2.188808109292025e+00
 2.073978512856493e+00	 5.554249818444937e-01	 1.999176138639096e+00
 2.124113710158760e+00	 3.687664907092441e-01	 3.648910035022968e+00
 2.120759488462541e+00	 3.875913850520200e-01	 3.631308148766970e+00
 2.117228439971545e+00	 4.064378794458986e-01	 3.550695503054283e+00
 2.113519558355659e+00	 4.253036918878404e-01	 3.418059057345514e+00
 2.109631872780525e+00	 4.441865101961342e-01	 3.243940255566716e+00
 2.105564448818238e+00	 4.630839926092652e-01	 3.039514813139293e+00
 2.101316389348949e+00	 4.819937684140336e-01	 2.816585666527639e+00
 2.096886835452392e+00	 5.009134386028998e-01	 2.587573805025916e+00
 2.092274967288285e+00	 5.198405765604910e-01	 2.365506882455471e+00
 2.087480004964628e+00	 5.387727287791740e-01	 2.164005507141688e+00
 2.082501209392824e+00	 5.577074156035491e-01	 1.997267109786645e+00
 2.132806707062495e+00	 3.702756782581408e-01	 3.577964494326401e+00
 2.129438758116726e+00	 3.891776140264905e-01	 3.566658276664497e+00
 2.125893258707358e+00	 4.081012382448166e-01	 3.491920598093763e+00
 2.122169198385853e+00	 4.270442595709091e-01	 3.364702706447138e+00
 2.118265602344693e+00	 4.460043563603793e-01	 3.196412846687635e+00
 2.114181532331809e+00	 4.649791772679778e-01	 2.998913042599052e+00
 2.109916087555876e+00	 4.839663418782847e-01	 2.784507695645520e+00
 2.105468405581475e+00	 5.029634413657451e-01	 2.565930208155077e+00
 2.100837663213118e+00	 5.219680391839848e-01	 2.356327536543604e+00
 2.096023077367081e+00	 5.409776717843123e-01	 2.169242580842784e+00
 2.091023905930038e+00	 5.599898493632576e-01	 2.018594317877155e+00
 2.141499703966895e+00	 3.717848658075003e-01	 3.487289170844694e+00
 2.138118027771579e+00	 3.907638430014604e-01	 3.492430433157710e+00
 2.134558077443845e+00	 4.097645970442629e-01	 3.432661687271951e+00
 2.130818838416728e+00	 4.287848272545272e-01	 3.319502929649128e+00
 2.126899331909553e+00	 4.478222025251862e-01	 3.164782252724960e+00
 2.122798615846085e+00	 4.668743619272565e-01	 2.980622827262968e+00
 2.118515785763518e+00	 4.859389153430989e-01	 2.779428130176300e+00
 2.114049975711286e+00	 5.050134441291420e-01	 2.573865329953872e+00
 2.109400359138693e+00	 5.240955018080113e-01	 2.376846741715977e+00
 2.104566149770289e+00	 5.431826147899551e-01	 2.201509264296360e+00
 2.099546602468018e+00	 5.622722831234357e-01	 2.061191712637889e+00
 2.150192700871797e+00	 3.732940533571398e-01	 3.382155269449573e+00
 2.146797297426935e+00	 3.923500719767423e-01	 3.410638588580494e+00
 2.143222896180841e+00	 4.114279558440463e-01	 3.373076813578084e+00
 2.139468478448125e+00	 4.305253949385006e-01	 3.281103208727531e+00
 2.135533061474949e+00	 4.496400486903596e-01	 3.146524568331555e+00
 2.131415699360915e+00	 4.687695465869062e-01	 2.981305681257504e+00
 2.127115483971732e+00	 4.879114888082806e-01	 2.797552160715308e+00
 2.122631545841692e+00	 5.070634468928968e-01	 2.607491556179303e+00
 2.117963055064880e+00	 5.262229644323784e-01	 2.423452664063627e+00
 2.113109222174130e+00	 5.453875577959153e-01	 2.257842953927093e+00
 2.108069299006646e+00	 5.645547168838998e-01	 2.123124027661271e+00
 2.158885697777032e+00	 3.748032409068762e-01	 3.266703837394615e+00
 2.155476567082626e+00	 3.939363009521487e-01	 3.323261614485178e+00
 2.151887714918184e+00	 4.130913146439760e-01	 3.313318977330814e+00
 2.148118118479883e+00	 4.322659626226354e-01	 3.248166554393769e+00
 2.144166791040727e+00	 4.514578948557044e-01	 3.139154408781364e+00
 2.140032782876149e+00	 4.706647312467305e-01	 2.997674958425497e+00
 2.135715182180379e+00	 4.898840622736348e-01	 2.835144374266259e+00
 2.131213115972556e+00	 5.091134496568155e-01	 2.662982376444027e+00
 2.126525750991552e+00	 5.283504270568947e-01	 2.492590347976446e+00
 2.121652294578479e+00	 5.475925008020039e-01	 2.335327685332444e+00
 2.116591995545806e+00	 5.668371506444664e-01	 2.202486305755393e+00
 2.167578694682434e+00	 3.763124284565266e-01	 3.145000527990200e+00
 2.164155836738488e+00	 3.955225299274924e-01	 3.232244031006487e+00
 2.160552533655710e+00	 4.147546734438609e-01	 3.253536290582014e+00
 2.156767758511844e+00	 4.340065303067386e-01	 3.219375178250973e+00
 2.152800520606734e+00	 4.532757410210251e-01	 3.140224211872569e+00
 2.148649866391642e+00	 4.725599159065340e-01	 3.026494898394382e+00
 2.144314880389316e+00	 4.918566357389660e-01	 2.888527660459122e+00
 2.139794686103742e+00	 5.111634524207040e-01	 2.736571268272463e+00
 2.135088446918580e+00	 5.304778896813689e-01	 2.580760697367917e+00
 2.130195366983215e+00	 5.497974438080335e-01	 2.431093332582115e+00
 2.125114692085380e+00	 5.691195844049511e-01	 2.297403438733070e+00
 2.176271691587835e+00	 3.778216160059086e-01	 3.021043317676541e+00
 2.172835106394356e+00	 3.971087589025857e-01	 3.139496737856897e+00
 2.169217352393255e+00	 4.164180322435097e-01	 3.193872129507465e+00
 2.165417398543849e+00	 4.357470979906162e-01	 3.193430174449336e+00
 2.161434250172814e+00	 4.550935871861269e-01	 3.147323558552597e+00
 2.157266949907243e+00	 4.744551005661207e-01	 3.064579697656949e+00
 2.152914578598399e+00	 4.938292092040787e-01	 2.954082146295355e+00
 2.148376256235115e+00	 5.132134551843685e-01	 2.824550610383064e+00
 2.143651142845835e+00	 5.326053523056093e-01	 2.684519483968420e+00
 2.138738439388215e+00	 5.520023868138155e-01	 2.542314829534622e+00
 2.133637388625251e+00	 5.714020181651709e-01	 2.406029721235742e+00
 2.184964688493071e+00	 3.793308035548390e-01	 2.898763889211685e+00
 2.181514376050063e+00	 3.986949878772416e-01	 3.046897729409651e+00
 2.177882171130657e+00	 4.180813910427317e-01	 3.134465284840518e+00
 2.174067038575738e+00	 4.374876656740749e-01	 3.169051210770036e+00
 2.170067979738813e+00	 4.569114333508142e-01	 3.158078511743833e+00
 2.165884033422805e+00	 4.763502852252949e-01	 3.108792604967797e+00
 2.161514276807488e+00	 4.958017826687776e-01	 3.028244158626099e+00
 2.156957826366540e+00	 5.152634579476147e-01	 2.923270624382616e+00
 2.152213838773188e+00	 5.347328149294246e-01	 2.800476381933401e+00
 2.147281511793357e+00	 5.542073298191619e-01	 2.666211412557721e+00
 2.142160085165303e+00	 5.736844519249417e-01	 2.526548418201417e+00
 2.193657685397974e+00	 3.808399911031352e-01	 2.782028983365335e+00
 2.190193645705442e+00	 4.002812168512723e-01	 2.956292794310580e+00
 2.186546989867752e+00	 4.197447498413360e-01	 3.075450110403160e+00
 2.182716678607350e+00	 4.392282333569208e-01	 3.144976228876500e+00
 2.178701709304576e+00	 4.587292795148922e-01	 3.170150972864868e+00
 2.174501116938178e+00	 4.782454698838605e-01	 3.156045040381115e+00
 2.170113975016439e+00	 4.977743561328674e-01	 3.107505213594115e+00
 2.165539396497882e+00	 5.173134607102490e-01	 3.029138344084681e+00
 2.160776534700510e+00	 5.368602775526229e-01	 2.925294028036300e+00
 2.155824584198518e+00	 5.564122728238846e-01	 2.800045884058999e+00
 2.150682781705418e+00	 5.759668856840802e-01	 2.657171345598044e+00
 2.202350682302377e+00	 3.823491786506144e-01	 2.674641719989109e+00
 2.198872915360330e+00	 4.018674458244905e-01	 2.869496200046273e+00
 2.195211808604378e+00	 4.214081086391313e-01	 3.016956669786907e+00
 2.191366318638528e+00	 4.409688010389605e-01	 3.119961153479356e+00
 2.187335438869950e+00	 4.605471256781652e-01	 3.181238055558692e+00
 2.183118200453215e+00	 4.801406545416224e-01	 3.203295737276493e+00
 2.178713673225113e+00	 4.997469295961529e-01	 3.188411032294379e+00
 2.174120966629006e+00	 5.193634634720777e-01	 3.138616611688733e+00
 2.169339230627674e+00	 5.389877401750129e-01	 3.055687106739495e+00
 2.164367656603575e+00	 5.586172158277958e-01	 2.941123896251677e+00
 2.159205478245480e+00	 5.782493194424025e-01	 2.796138464055972e+00
 2.073978512856493e+00	 5.554249818444937e-01	 1.999176138639096e+00
 2.068836318106088e+00	 5.742822076323024e-01	 1.855975862190353e+00
 2.063509698278315e+00	 5.931369452284766e-01	 1.763715759105891e+00
 2.057998046901178e+00	 6.119866534072709e-01	 1.718314763190417e+00
 2.052300801400137e+00	 6.308287682241573e-01	 1.715166309327310e+00
 2.046417443866173e+00	 6.496607038978439e-01	 1.749117696798593e+00
 2.040347501804525e+00	 6.684798537193505e-01	 1.814448039255332e+00
 2.034090548863060e+00	 6.872835909877286e-01	 1.904844745595010e+00
 2.027646205539275e+00	 7.060692699719570e-01	 2.013378480266564e+00
 2.021014139864915e+00	 7.248342268985118e-01	 2.132476556490596e+00
 2.014194068067215e+00	 7.435757809640704e-01	 2.252920111885734e+00
 2.082501209392824e+00	 5.577074156035491e-01	 1.997267109786645e+00
 2.077337883581865e+00	 5.766421322680707e-01	 1.876487212938767e+00
 2.071989374827014e+00	 5.955743505160948e-01	 1.800518577589378e+00
 2.066455074164067e+00	 6.145015186790967e-01	 1.765208841428273e+00
 2.060734416706659e+00	 6.334210622764097e-01	 1.766049234639961e+00
 2.054826882417499e+00	 6.523303849008688e-01	 1.798156659980602e+00
 2.048731996860177e+00	 6.712268691316222e-01	 1.856254151143063e+00
 2.042449331930523e+00	 6.901078774736942e-01	 1.934649643301847e+00
 2.035978506566521e+00	 7.089707533238360e-01	 2.027212994180516e+00
 2.029319187435735e+00	 7.278128219621544e-01	 2.127351199177548e+00
 2.022471089599275e+00	 7.466313915689744e-01	 2.223859946300519e+00
 2.091023905930038e+00	 5.599898493632576e-01	 2.018594317877155e+00
 2.085839449058531e+00	 5.790020569044437e-01	 1.912078185985966e+00
 2.080469051376604e+00	 5.980117558042611e-01	 1.845340644726801e+00
 2.074912101427842e+00	 6.170163839514069e-01	 1.814351809591525e+00
 2.069168032014060e+00	 6.360133563290774e-01	 1.814877911487479e+00
 2.063236320969690e+00	 6.550000659042351e-01	 1.842465588956068e+00
 2.057116491916669e+00	 6.739738845441572e-01	 1.892424363515129e+00
 2.050808114998790e+00	 6.929321639598428e-01	 1.959807222634117e+00
 2.044310807594524e+00	 7.118722366758172e-01	 2.039389239483030e+00
 2.037624235007253e+00	 7.307914170258170e-01	 2.125644164007089e+00
 2.030748111131956e+00	 7.496870021738173e-01	 2.203335552427369e+00
 2.099546602468018e+00	 5.622722831234357e-01	 2.061191712637889e+00
 2.094341014535971e+00	 5.813619815412434e-01	 1.961905450080388e+00
 2.088948727926975e+00	 6.004491610928040e-01	 1.898229559138466e+00
 2.083369128692399e+00	 6.195312492240379e-01	 1.866447773460756e+00
 2.077601647322239e+00	 6.386056503820055e-01	 1.862776035542687e+00
 2.071645759522648e+00	 6.576697469077983e-01	 1.883348500490472e+00
 2.065500986973908e+00	 6.767208999568233e-01	 1.924201540864255e+00
 2.059166898067780e+00	 6.957564504460559e-01	 1.981255668701650e+00
 2.052643108623211e+00	 7.147737200277960e-01	 2.050295295629214e+00
 2.045929282579404e+00	 7.337700120894125e-01	 2.126946257590159e+00
 2.039025132665209e+00	 7.527426127785313e-01	 2.189962215366924e+00
 2.108069299006646e+00	 5.645547168838998e-01	 2.123124027661271e+00
 2.102842580014074e+00	 5.837219061782911e-01	 2.025138503007616e+00
 2.097428404478017e+00	 6.028865663815512e-01	 1.959231536341915e+00
 2.091826155957633e+00	 6.220461144968252e-01	 1.922189026540852e+00
 2.086035262631094e+00	 6.411979444350389e-01	 1.910848882017151e+00
 2.080055198076276e+00	 6.603394279114135e-01	 1.922088239396223e+00
 2.073885482031808e+00	 6.794679153694878e-01	 1.952808514270518e+00
 2.067525681137406e+00	 6.985807369322143e-01	 1.999918192692308e+00
 2.060975409652505e+00	 7.176752033796687e-01	 2.060313277040037e+00
 2.054234330152124e+00	 7.367486071528544e-01	 2.130855305715194e+00
 2.047302154198982e+00	 7.557982233830479e-01	 2.182386836935529e+00
 2.116591995545806e+00	 5.668371506444664e-01	 2.202486305755393e+00
 2.111344145492725e+00	 5.860818308154090e-01	 2.100959571570984e+00
 2.105908081029622e+00	 6.053239716703315e-01	 2.028391608203793e+00
 2.100283183223440e+00	 6.245609797696056e-01	 1.982256472970485e+00
 2.094468877940526e+00	 6.437902384880226e-01	 1.960183875204705e+00
 2.088464636630480e+00	 6.630091089149367e-01	 1.959947117122674e+00
 2.082269977090273e+00	 6.822149307820182e-01	 1.979448710733298e+00
 2.075884464207586e+00	 7.014050234181988e-01	 2.016703572972751e+00
 2.069307710682332e+00	 7.205766867313318e-01	 2.069819706379574e+00
 2.062539377725350e+00	 7.397272022160553e-01	 2.136976278640989e+00
 2.055579175733224e+00	 7.588538339872994e-01	 2.179287243084737e+00
 2.125114692085380e+00	 5.691195844049511e-01	 2.297403438733070e+00
 2.119845710971815e+00	 5.884417554524179e-01	 2.188563517178082e+00
 2.114387757581683e+00	 6.077613769589731e-01	 2.105753820975860e+00
 2.108740210489716e+00	 6.270758450422144e-01	 2.047320043825523e+00
 2.102902493250435e+00	 6.463825325408021e-01	 2.011851148079233e+00
 2.096874075185164e+00	 6.656787899182228e-01	 1.998167538929239e+00
 2.090654472149216e+00	 6.849619461942816e-01	 2.005306771500722e+00
 2.084243247278234e+00	 7.042293099038901e-01	 2.032506687502184e+00
 2.077640011712617e+00	 7.234781700826811e-01	 2.079185883376461e+00
 2.070844425299015e+00	 7.427057972789289e-01	 2.144480352737340e+00
 2.063856197267884e+00	 7.619094445912181e-01	 2.179371501128396e+00
 2.133637388625251e+00	 5.714020181651709e-01	 2.406029721235742e+00
 2.128347276451229e+00	 5.908016800891406e-01	 2.287157746876206e+00
 2.122867434134091e+00	 6.101987822473041e-01	 2.191361431954824e+00
 2.117197237756355e+00	 6.295907103144880e-01	 2.118039107001103e+00
 2.111336108560720e+00	 6.489748265932219e-01	 2.066904092224807e+00
 2.105283513740229e+00	 6.683484709211277e-01	 2.037972619960898e+00
 2.099038967208545e+00	 6.877089616061454e-01	 2.031549159704138e+00
 2.092602030349270e+00	 7.070535963891693e-01	 2.048209037801952e+00
 2.085972312743283e+00	 7.263796534336128e-01	 2.088778249314144e+00
 2.079149472873056e+00	 7.456843923413875e-01	 2.151611020137898e+00
 2.072133218802911e+00	 7.649650551947358e-01	 2.181377246502886e+00
 2.142160085165303e+00	 5.736844519249417e-01	 2.526548418201417e+00
 2.136848841930855e+00	 5.931616047253985e-01	 2.395962129685193e+00
 2.131347110686737e+00	 6.126361875351529e-01	 2.285257104804174e+00
 2.125654265023253e+00	 6.321055755862620e-01	 2.195062870851183e+00
 2.119769723871279e+00	 6.515671206451272e-01	 2.126379898367398e+00
 2.113692952295582e+00	 6.710181519235066e-01	 2.080566790535066e+00
 2.107423462268170e+00	 6.904559770174771e-01	 2.059324757595586e+00
 2.100960813420607e+00	 7.098778828739175e-01	 2.064679264716134e+00
 2.094304613774258e+00	 7.292811367840228e-01	 2.098958747310498e+00
 2.087454520447409e+00	 7.486629874033446e-01	 2.157969797932590e+00
 2.080410240338255e+00	 7.680206657977842e-01	 2.184071018795286e+00
 2.150682781705418e+00	 5.759668856840802e-01	 2.657171345598044e+00
 2.145350407410583e+00	 5.955215293610134e-01	 2.514208918080554e+00
 2.139826787239514e+00	 6.150735928223476e-01	 2.387483103575299e+00
 2.134111292290306e+00	 6.346204408573730e-01	 2.279030781758758e+00
 2.128203339182012e+00	 6.541594146963634e-01	 2.191300087768820e+00
 2.122102390851126e+00	 6.736878329252148e-01	 2.127136390939101e+00
 2.115807957328000e+00	 6.932029924281443e-01	 2.089765453676497e+00
 2.109319596492164e+00	 7.127021693580154e-01	 2.082773656190860e+00
 2.102636914805465e+00	 7.321826201338077e-01	 2.110085178503607e+00
 2.095759568022010e+00	 7.516415824647141e-01	 2.163279169419099e+00
 2.088687261873863e+00	 7.710762764002955e-01	 2.186247606782035e+00
 2.159205478245480e+00	 5.782493194424025e-01	 2.796138464055972e+00
 2.153851972890299e+00	 5.978814539958068e-01	 2.641142674484654e+00
 2.148306463792314e+00	 6.175109981087173e-01	 2.498081485463697e+00
 2.142568319557409e+00	 6.371353061276571e-01	 2.370572915804352e+00
 2.136636954492820e+00	 6.567517087467752e-01	 2.262671034735474e+00
 2.130511829406764e+00	 6.763575139261084e-01	 2.178850256028343e+00
 2.124192452387945e+00	 6.959500078380145e-01	 2.123986719997081e+00
 2.117678379563856e+00	 7.155264558413442e-01	 2.103336647292812e+00
 2.110969215836830e+00	 7.350841034828632e-01	 2.122511554256791e+00
 2.104064615596794e+00	 7.546201775254083e-01	 2.167274778594683e+00
 2.096964283409688e+00	 7.741318870022024e-01	 2.186729402229331e+00
 2.014194068067215e+00	 7.435757809640704e-01	 2.252920111885734e+00
 2.007184547478847e+00	 7.622944146716788e-01	 2.340552552541244e+00
 1.999986534868971e+00	 7.809842258426540e-01	 2.391902122795444e+00
 1.992599893353933e+00	 7.996424865837992e-01	 2.410959577507621e+00
 1.985024536674227e+00	 8.182664562179760e-01	 2.402374050609687e+00
 1.977260429726245e+00	 8.368533824140595e-01	 2.371469638438810e+00
 1.969307589065010e+00	 8.554005023379549e-01	 2.324263249369218e+00
 1.961166083376974e+00	 8.739050438238590e-01	 2.267483797494982e+00
 1.952836033922081e+00	 8.923642265648891e-01	 2.208592810691697e+00
 1.944317614944240e+00	 9.107752633221808e-01	 2.155806514859505e+00
 1.935611054049432e+00	 9.291353611515104e-01	 2.118119446529141e+00
 2.022471089599275e+00	 7.466313915689744e-01	 2.223859946300519e+00
 2.015432764461386e+00	 7.654269466301140e-01	 2.281999286168609e+00
 2.008205172722931e+00	 7.841935607127992e-01	 2.314316766747840e+00
 2.000788176937756e+00	 8.029284947139812e-01	 2.324657719721509e+00
 1.993181690491892e+00	 8.216289966941377e-01	 2.317369997965002e+00
 1.985385678137485e+00	 8.402923030118693e-01	 2.297318706132082e+00
 1.977400156497592e+00	 8.589156394796459e-01	 2.269902427493607e+00
 1.969225194540931e+00	 8.774962225398828e-01	 2.241071034593311e+00
 1.960860914025747e+00	 8.960312604604593e-01	 2.217345163467359e+00
 1.952307489911985e+00	 9.145179545487901e-01	 2.205837422203198e+00
 1.943565150740947e+00	 9.329535003834831e-01	 2.214275394495232e+00
 2.030748111131956e+00	 7.496870021738173e-01	 2.203335552427370e+00
 2.023680981444456e+00	 7.685594785884093e-01	 2.239784304446110e+00
 2.016423810577315e+00	 7.874028955827291e-01	 2.259442245354662e+00
 2.008976460521891e+00	 8.062145028438797e-01	 2.265851237345348e+00
 2.001338844309751e+00	 8.249915371699555e-01	 2.262916750732191e+00
 1.993510926548799e+00	 8.437312236092845e-01	 2.254921152303138e+00
 1.985492723930135e+00	 8.624307766209049e-01	 2.246538703347296e+00
 1.977284305704739e+00	 8.810874012554500e-01	 2.242852363921564e+00
 1.968885794129171e+00	 8.996982943555670e-01	 2.249372491726778e+00
 1.960297364879411e+00	 9.182606457749486e-01	 2.272057514565019e+00
 1.951519247432082e+00	 9.367716396150376e-01	 2.317336644755821e+00
 2.039025132665209e+00	 7.527426127785313e-01	 2.189962215366924e+00
 2.031929198428021e+00	 7.716920105465177e-01	 2.211484751084196e+00
 2.024642448432109e+00	 7.906122304524191e-01	 2.224034753553089e+00
 2.017164744106341e+00	 8.095005109734911e-01	 2.230694697229525e+00
 2.009495998127826e+00	 8.283540776454471e-01	 2.234788553251729e+00
 2.001636174960232e+00	 8.471701442063436e-01	 2.239894042525743e+00
 1.993585291362701e+00	 8.659459137617870e-01	 2.249856795491949e+00
 1.985343416868482e+00	 8.846785799706316e-01	 2.268806523332010e+00
 1.976910674232447e+00	 9.033653282502914e-01	 2.301175296821734e+00
 1.968287239846621e+00	 9.220033370007406e-01	 2.351718019229474e+00
 1.959473344122953e+00	 9.405897788462569e-01	 2.425535168609402e+00
 2.047302154198982e+00	 7.557982233830479e-01	 2.182386836935529e+00
 2.040177415412047e+00	 7.748245425043910e-01	 2.194726056541732e+00
 2.032861086287296e+00	 7.938215653218436e-01	 2.204911918789808e+00
 2.025353027691110e+00	 8.127865191028123e-01	 2.215413689571456e+00
 2.017653151946145e+00	 8.317166181206312e-01	 2.228836680735461e+00
 2.009761423371831e+00	 8.506090648030845e-01	 2.247933871370258e+00
 2.001677858795353e+00	 8.694610509023473e-01	 2.275619616469372e+00
 1.993402528032240e+00	 8.882697586854972e-01	 2.314985555137103e+00
 1.984935554335675e+00	 9.070323621447128e-01	 2.369318821596035e+00
 1.976277114813727e+00	 9.257460282262511e-01	 2.442122652062815e+00
 1.967427440813676e+00	 9.444079180772248e-01	 2.537139469072827e+00
 2.055579175733224e+00	 7.588538339872994e-01	 2.179287243084737e+00
 2.048425632396499e+00	 7.779570744619830e-01	 2.187180892672921e+00
 2.041079724142859e+00	 7.970309001909767e-01	 2.198951473884175e+00
 2.033541311276201e+00	 8.160725272318403e-01	 2.216303290669813e+00
 2.025810305764729e+00	 8.350791585955256e-01	 2.240987764226524e+00
 2.017886671783635e+00	 8.540479853995451e-01	 2.274814822476574e+00
 2.009770426228157e+00	 8.729761880426430e-01	 2.319666541439033e+00
 2.001461639196094e+00	 8.918609374001163e-01	 2.377513157258742e+00
 1.992960434438949e+00	 9.106993960389111e-01	 2.450431558438839e+00
 1.984266989780838e+00	 9.294887194515642e-01	 2.540626357257070e+00
 1.975381537504368e+00	 9.482260573080245e-01	 2.650453627445248e+00
 2.063856197267884e+00	 7.619094445912181e-01	 2.179371501128396e+00
 2.056673849381341e+00	 7.810896064192457e-01	 2.186568145411357e+00
 2.049298361998782e+00	 8.002402350597938e-01	 2.203089954452345e+00
 2.041729594861618e+00	 8.193585353605715e-01	 2.229726555041513e+00
 2.033967459583602e+00	 8.384416990701486e-01	 2.267242147986948e+00
 2.026011920195694e+00	 8.574869059957645e-01	 2.316387062368933e+00
 2.017862993661176e+00	 8.764913251827290e-01	 2.377911710108754e+00
 2.009520750360128e+00	 8.954521161145592e-01	 2.452583065447320e+00
 2.000985314542367e+00	 9.143664299329661e-01	 2.541203784399624e+00
 1.992256864748060e+00	 9.332314106767650e-01	 2.644634068333935e+00
 1.983335634195144e+00	 9.520441965387395e-01	 2.763816363528586e+00
 2.072133218802911e+00	 7.649650551947358e-01	 2.181377246502886e+00
 2.064922066366541e+00	 7.842221383761329e-01	 2.190651904987098e+00
 2.057516999855050e+00	 8.034495699282691e-01	 2.214321420205548e+00
 2.049917878447365e+00	 8.226445434890033e-01	 2.252113036080293e+00
 2.042124613402789e+00	 8.418042395445188e-01	 2.303672278406037e+00
 2.034137168608048e+00	 8.609258265917804e-01	 2.368575067069179e+00
 2.025955561094475e+00	 8.800064623226614e-01	 2.446342361027540e+00
 2.017579861524422e+00	 8.990432948288959e-01	 2.536457465701708e+00
 2.009010194646027e+00	 9.180334638269577e-01	 2.638386122608111e+00
 2.000246739715504e+00	 9.369741019019382e-01	 2.751599489813902e+00
 1.991289730886122e+00	 9.558623357694527e-01	 2.875600109122508e+00
 2.080410240338255e+00	 7.680206657977842e-01	 2.184071018795287e+00
 2.073170283352062e+00	 7.873546703325958e-01	 2.197240473188164e+00
 2.065735637711644e+00	 8.066589047963771e-01	 2.229696199457652e+00
 2.058106162033445e+00	 8.259305516171316e-01	 2.279957334462043e+00
 2.050281767222315e+00	 8.451667800186544e-01	 2.346421123551684e+00
 2.042262417020745e+00	 8.643647471876307e-01	 2.427375980594891e+00
 2.034048128528116e+00	 8.835215994624956e-01	 2.521017197339158e+00
 2.025638972689056e+00	 9.026344735431960e-01	 2.625465436048966e+00
 2.017035074750024e+00	 9.217004977209656e-01	 2.738788129266300e+00
 2.008236614683276e+00	 9.407167931271685e-01	 2.859023898975015e+00
 1.999243827577417e+00	 9.596804750002486e-01	 2.984210094424095e+00
 2.088687261873863e+00	 7.710762764002955e-01	 2.186247606782035e+00
 2.081418500337869e+00	 7.904872022885883e-01	 2.204185387193848e+00
 2.073954275568549e+00	 8.098682396640930e-01	 2.246319656198038e+00
 2.066294445619862e+00	 8.292165597449541e-01	 2.309817673527062e+00
 2.058438921042203e+00	 8.485293204925737e-01	 2.391700622514522e+00
 2.050387665433826e+00	 8.678036677833542e-01	 2.488858004457897e+00
 2.042140695962164e+00	 8.870367366022874e-01	 2.598064783123662e+00
 2.033698083854115e+00	 9.062256522575299e-01	 2.716001416869259e+00
 2.025059954854456e+00	 9.253675316150700e-01	 2.839276905503244e+00
 2.016226489651488e+00	 9.444594843525407e-01	 2.964454967143793e+00
 2.007197924269145e+00	 9.634986142312094e-01	 3.088083446974053e+00
 2.096964283409688e+00	 7.741318870022024e-01	 2.186729402229331e+00
 2.089666717323930e+00	 7.936197342440635e-01	 2.209380459521778e+00
 2.082172913425751e+00	 8.130775745313916e-01	 2.261350979106375e+00
 2.074482729206619e+00	 8.325025678724669e-01	 2.338314500893854e+00
 2.066596074862476e+00	 8.518918609662948e-01	 2.435790163721632e+00
 2.058512913847339e+00	 8.712425883789894e-01	 2.549158817306445e+00
 2.050233263396684e+00	 8.905518737420933e-01	 2.673681969481672e+00
 2.041757195019681e+00	 9.098168309719679e-01	 2.804523708977165e+00
 2.033084834959419e+00	 9.290345655093508e-01	 2.936775733405462e+00
 2.024216364620247e+00	 9.482021755781400e-01	 3.065485599978580e+00
 2.015152020961425e+00	 9.673167534624195e-01	 3.185688302802722e+00
 1.935611054049432e+00	 9.291353611515104e-01	 2.118119446529140e+00
 1.926718160155936e+00	 9.474386154707789e-01	 2.111467065907025e+00
 1.917637803321350e+00	 9.656853515605142e-01	 2.141751737423547e+00
 1.908370371613757e+00	 9.838727672977978e-01	 2.203242624294376e+00
 1.898916307608127e+00	 1.001998059881856e+00	 2.289856448270514e+00
 1.889276108593128e+00	 1.020058427132333e+00	 2.395200063626518e+00
 1.879450326741568e+00	 1.038051068798763e+00	 2.512616461887282e+00
 1.869439569243934e+00	 1.055973187880068e+00	 2.635234167479538e+00
 1.859244498404515e+00	 1.073821991952893e+00	 2.756019963969782e+00
 1.848865831699675e+00	 1.091594694507553e+00	 2.867725597350547e+00
 1.838304341797836e+00	 1.109288516290360e+00	 2.961588927927392e+00
 1.943565150740947e+00	 9.329535003834831e-01	 2.214275394495232e+00
 1.934635712864383e+00	 9.513319691184711e-01	 2.251463827159482e+00
 1.925518041696562e+00	 9.696536873709692e-01	 2.316870132364775e+00
 1.916212526900262e+00	 9.879158415031603e-01	 2.404459829821076e+00
 1.906719612869136e+00	 1.006115617196585e+00	 2.507936551630761e+00
 1.897039798935374e+00	 1.024250200755752e+00	 2.620786247558075e+00
 1.887173639540842e+00	 1.042316780422991e+00	 2.736324783118396e+00
 1.877121744371174e+00	 1.060312547703372e+00	 2.847748889043454e+00
 1.866884778452287e+00	 1.078234698698499e+00	 2.948190399891037e+00
 1.856463462208891e+00	 1.096080435447949e+00	 3.030773698114341e+00
 1.845858571484564e+00	 1.113846967277110e+00	 3.088547539747935e+00
 1.951519247432082e+00	 9.367716396150376e-01	 2.317336644755821e+00
 1.942553265572416e+00	 9.552253227657993e-01	 2.388223540751472e+00
 1.933398280071349e+00	 9.736220231811342e-01	 2.479279327038875e+00
 1.924054682186348e+00	 9.919589157083222e-01	 2.584430351496271e+00
 1.914522918129753e+00	 1.010233174511214e+00	 2.697421250651201e+00
 1.904803489277268e+00	 1.028441974379180e+00	 2.811860333568615e+00
 1.894896952339819e+00	 1.046582492047340e+00	 2.921268331754213e+00
 1.884803919498182e+00	 1.064651907526910e+00	 3.019130472913429e+00
 1.874525058499899e+00	 1.082647405444447e+00	 3.098951815339113e+00
 1.864061092718026e+00	 1.100566176388786e+00	 3.154315757949060e+00
 1.853412801171289e+00	 1.118405418264389e+00	 3.180725240787396e+00
 1.959473344122953e+00	 9.405897788462569e-01	 2.425535168609402e+00
 1.950470818280154e+00	 9.591186764128397e-01	 2.521008394451613e+00
 1.941278518445825e+00	 9.775903589910715e-01	 2.629138338509580e+00
 1.931896837472129e+00	 9.960019899133258e-01	 2.744073606521145e+00
 1.922326223390080e+00	 1.014350731825763e+00	 2.859850968271317e+00
 1.912567179618903e+00	 1.032633748002612e+00	 2.970441470171151e+00
 1.902620265138577e+00	 1.050848203671779e+00	 3.069799898132976e+00
 1.892486094625017e+00	 1.068991267350622e+00	 3.151917548778162e+00
 1.882165338547392e+00	 1.087060112190651e+00	 3.210878245649982e+00
 1.871658723227099e+00	 1.105051917329954e+00	 3.240917515033981e+00
 1.860967030858012e+00	 1.122963869252066e+00	 3.241303948477082e+00
 1.967427440813676e+00	 9.444079180772248e-01	 2.537139469072827e+00
 1.958388370987716e+00	 9.630120300596674e-01	 2.649100369547633e+00
 1.949158756820112e+00	 9.815586948008418e-01	 2.766611417657812e+00
 1.939738992757716e+00	 1.000045064118215e+00	 2.884301916440275e+00
 1.930129528650220e+00	 1.018468289140254e+00	 2.996748982818354e+00
 1.920330869960368e+00	 1.036825521626043e+00	 3.098523941622486e+00
 1.910343577937188e+00	 1.055113915296276e+00	 3.184242065246593e+00
 1.900168269751738e+00	 1.073330627174449e+00	 3.248615618081351e+00
 1.889805618594804e+00	 1.091472818937026e+00	 3.286510143188597e+00
 1.879256353736129e+00	 1.109537658271343e+00	 3.293003906273106e+00
 1.868521260544733e+00	 1.127522320240007e+00	 3.272902045961434e+00
 1.975381537504368e+00	 9.482260573080245e-01	 2.650453627445248e+00
 1.966305923695221e+00	 9.669053837063573e-01	 2.771800610578865e+00
 1.957038995194323e+00	 9.855270306105074e-01	 2.891867698894716e+00
 1.947581148043220e+00	 1.004088138323032e+00	 3.006020392659336e+00
 1.937932833910279e+00	 1.022585846454706e+00	 3.109621504192602e+00
 1.928094560301754e+00	 1.041017295249468e+00	 3.198077388704988e+00
 1.918066890735730e+00	 1.059379626920799e+00	 3.266887527142115e+00
 1.907850444878401e+00	 1.077669986998334e+00	 3.311697422189587e+00
 1.897445898642177e+00	 1.095885525683485e+00	 3.328354746583481e+00
 1.886853984245140e+00	 1.114023399212843e+00	 3.313281364630237e+00
 1.876075490231453e+00	 1.132080771228081e+00	 3.277720636009794e+00
 1.983335634195144e+00	 9.520441965387395e-01	 2.763816363528585e+00
 1.974223476402787e+00	 9.707987373529852e-01	 2.888428800735455e+00
 1.964919233568579e+00	 9.894953664201290e-01	 3.005080848597963e+00
 1.955423303328753e+00	 1.008131212527820e+00	 3.110126814813441e+00
 1.945736139170353e+00	 1.026703403769140e+00	 3.199957738124936e+00
 1.935858250643150e+00	 1.045209068872882e+00	 3.271047013919360e+00
 1.925790203534276e+00	 1.063645338545317e+00	 3.319999389212336e+00
 1.915532620005068e+00	 1.082009346822216e+00	 3.343603291088272e+00
 1.905086178689550e+00	 1.100298232429944e+00	 3.338886430309733e+00
 1.894451614754149e+00	 1.118509140154342e+00	 3.305218299548290e+00
 1.883629719918174e+00	 1.136639222216155e+00	 3.257917038642925e+00
 1.991289730886122e+00	 9.558623357694527e-01	 2.875600109122508e+00
 1.982141029110534e+00	 9.746920909996273e-01	 2.998322542765574e+00
 1.972799471942996e+00	 9.934637022297690e-01	 3.106428712306824e+00
 1.963265458614427e+00	 1.012174286732622e+00	 3.197511502185806e+00
 1.953539444430550e+00	 1.030820961083575e+00	 3.269229938839826e+00
 1.943621940984647e+00	 1.049400842496282e+00	 3.319353771524063e+00
 1.933513516332905e+00	 1.067911050169797e+00	 3.345811450881602e+00
 1.923214795131795e+00	 1.086348706646036e+00	 3.346741473149734e+00
 1.912726458736965e+00	 1.104710939176316e+00	 3.320547035169747e+00
 1.902049245263181e+00	 1.122994881095731e+00	 3.271293308552546e+00
 1.891183949604895e+00	 1.141197673204096e+00	 3.215605721570566e+00
 1.999243827577417e+00	 9.596804750002486e-01	 2.984210094424095e+00
 1.990058581818582e+00	 9.785854446463579e-01	 3.100836745237136e+00
 1.980679710317691e+00	 9.974320380394882e-01	 3.196092960710526e+00
 1.971107613900354e+00	 1.016217360937480e+00	 3.269057178370082e+00
 1.961342749690970e+00	 1.034938518398033e+00	 3.318893450446620e+00
 1.951385631326335e+00	 1.053592616119660e+00	 3.344894542843145e+00
 1.941236829131689e+00	 1.072176761794209e+00	 3.346528471176952e+00
 1.930896970258641e+00	 1.090688066469737e+00	 3.323488446500383e+00
 1.920366738784460e+00	 1.109123645922516e+00	 3.275746180203225e+00
 1.909646875772254e+00	 1.127480622036900e+00	 3.213849906076199e+00
 1.898738179291617e+00	 1.145756124191772e+00	 3.152859215157624e+00
 2.007197924269145e+00	 9.634986142312094e-01	 3.088083446974053e+00
 1.997976134527049e+00	 9.824787982932531e-01	 3.195343014005306e+00
 1.988559948692782e+00	 1.001400373849349e+00	 3.274258734462982e+00
 1.978949769186645e+00	 1.020260435142437e+00	 3.325638829363597e+00
 1.969146054951716e+00	 1.039056075712533e+00	 3.350386737371447e+00
 1.959149321668304e+00	 1.057784389743013e+00	 3.349542297250882e+00
 1.948960141930705e+00	 1.076442473418519e+00	 3.324326417658919e+00
 1.938579145385666e+00	 1.095027426293259e+00	 3.276189212497077e+00
 1.928007018832077e+00	 1.113536352668460e+00	 3.207091794214033e+00
 1.917244506281389e+00	 1.131966362977736e+00	 3.135186255796758e+00
 1.906292408978343e+00	 1.150314575179052e+00	 3.071709012347996e+00
 2.015152020961425e+00	 9.673167534624195e-01	 3.185688302802722e+00
 2.005893687236054e+00	 9.863721519403884e-01	 3.281229048741768e+00
 1.996440187068388e+00	 1.005368709659412e+00	 3.341114287856310e+00
 1.986791924473414e+00	 1.024303509347537e+00	 3.368123555272753e+00
 1.976949360212890e+00	 1.043173633027096e+00	 3.365131404132366e+00
 1.966913012010647e+00	 1.061976163366336e+00	 3.335146239228751e+00
 1.956683454730029e+00	 1.080708185042699e+00	 3.281352699171681e+00
 1.946261320512928e+00	 1.099366786116542e+00	 3.207157571806722e+00
 1.935647298879856e+00	 1.117949059414060e+00	 3.118073857222679e+00
 1.924842136790607e+00	 1.136452103918131e+00	 3.037556133587196e+00
 1.913846638665072e+00	 1.154873026165801e+00	 2.974146453961756e+00
 1.838304341797836e+00	 1.109288516290360e+00	 2.961588927927392e+00
 1.827560856984948e+00	 1.126900687002145e+00	 3.018481211173214e+00
 1.816636262431510e+00	 1.144428447724527e+00	 3.032504273669962e+00
 1.805531498748641e+00	 1.161869051257882e+00	 3.010721312303368e+00
 1.794247561403101e+00	 1.179219763129365e+00	 2.960157799732626e+00
 1.782785500538586e+00	 1.196477862946308e+00	 2.887893126976058e+00
 1.771146420757310e+00	 1.213640645748062e+00	 2.801050472731656e+00
 1.759331480861803e+00	 1.230705423354943e+00	 2.706788753911468e+00
 1.747341893556909e+00	 1.247669525712911e+00	 2.612296760566894e+00
 1.735178925112020e+00	 1.264530302232631e+00	 2.524789562224889e+00
 1.722843894983654e+00	 1.281285123121560e+00	 2.451507255504644e+00
 1.845858571484564e+00	 1.113846967277110e+00	 3.088547539747935e+00
 1.835070937968959e+00	 1.131531512502689e+00	 3.109662360520451e+00
 1.824101450470054e+00	 1.149131300868953e+00	 3.087885387479409e+00
 1.812951053464272e+00	 1.166643573887080e+00	 3.031161168118075e+00
 1.801620746509102e+00	 1.184065585847327e+00	 2.947483951834456e+00
 1.790111584063650e+00	 1.201394605177988e+00	 2.844883764385821e+00
 1.778424675269332e+00	 1.218627915802793e+00	 2.731414520402590e+00
 1.766561183690609e+00	 1.235762818495394e+00	 2.615144298864690e+00
 1.754522327015755e+00	 1.252796632229572e+00	 2.504147890959030e+00
 1.742309376717713e+00	 1.269726695523801e+00	 2.406501713118993e+00
 1.729923657675115e+00	 1.286550367778807e+00	 2.330281160399294e+00
 1.853412801171289e+00	 1.118405418264389e+00	 3.180725240787396e+00
 1.842581018953048e+00	 1.136162338003836e+00	 3.173068239485312e+00
 1.831566638508754e+00	 1.153834154014039e+00	 3.123511273803330e+00
 1.820370608180139e+00	 1.171418096516981e+00	 3.040568667273475e+00
 1.808993931615413e+00	 1.188911408566021e+00	 2.932810409541829e+00
 1.797437667589097e+00	 1.206311347410417e+00	 2.808823195885730e+00
 1.785702929781807e+00	 1.223615185858278e+00	 2.677197304915775e+00
 1.773790886519932e+00	 1.240820213636592e+00	 2.546515727320285e+00
 1.761702760475180e+00	 1.257923738746963e+00	 2.425345660571354e+00
 1.749439828324040e+00	 1.274923088815674e+00	 2.322232467408785e+00
 1.737003420367256e+00	 1.291815612436721e+00	 2.245696177749337e+00
 1.860967030858012e+00	 1.122963869252066e+00	 3.241303948477082e+00
 1.850091099937194e+00	 1.140793163505434e+00	 3.210648004987573e+00
 1.839031826547572e+00	 1.158537007159620e+00	 3.140961828111315e+00
 1.827790162896181e+00	 1.176192619147409e+00	 3.040161732479517e+00
 1.816367116721958e+00	 1.193757231285266e+00	 2.917005237979908e+00
 1.804763751114833e+00	 1.211228089643409e+00	 2.780246570033893e+00
 1.792981184294625e+00	 1.228602455914329e+00	 2.638622820338418e+00
 1.781020589349650e+00	 1.245877608778351e+00	 2.500842453070073e+00
 1.768883193935048e+00	 1.263050845264901e+00	 2.375576276237597e+00
 1.756570279930857e+00	 1.280119482108074e+00	 2.271450980256000e+00
 1.744083183059930e+00	 1.297080857095136e+00	 2.197045327100954e+00
 1.868521260544733e+00	 1.127522320240007e+00	 3.272902045961434e+00
 1.857601180921378e+00	 1.145423989007335e+00	 3.224596246994373e+00
 1.846497014586467e+00	 1.163239860305531e+00	 3.141799138313894e+00
 1.835209717612342e+00	 1.180967141778190e+00	 3.031145605559464e+00
 1.823740301828660e+00	 1.198603054004876e+00	 2.900928786997125e+00
 1.812089834640766e+00	 1.216144831876776e+00	 2.759686050591027e+00
 1.800259438807678e+00	 1.233589725970756e+00	 2.615916497033176e+00
 1.788250292179642e+00	 1.250935003920483e+00	 2.478069363517029e+00
 1.776063627395229e+00	 1.268177951783206e+00	 2.354534997469795e+00
 1.763700731538021e+00	 1.285315875400826e+00	 2.253638505821366e+00
 1.751162945752986e+00	 1.302346101753885e+00	 2.183636166104833e+00
 1.876075490231453e+00	 1.132080771228081e+00	 3.277720636009794e+00
 1.865111261905582e+00	 1.150054814509385e+00	 3.217412671291750e+00
 1.853962202625403e+00	 1.167942713451607e+00	 3.127595050032193e+00
 1.842629272328563e+00	 1.185741664409146e+00	 3.014712516688102e+00
 1.831113486935444e+00	 1.203448876724669e+00	 2.885433239396876e+00
 1.819415918166803e+00	 1.221061574110329e+00	 2.747670249705825e+00
 1.807537693320858e+00	 1.238576996027372e+00	 2.609304527309572e+00
 1.795479995009785e+00	 1.255992399062802e+00	 2.478146046856250e+00
 1.783244060855584e+00	 1.273305058301691e+00	 2.361925275780369e+00
 1.770831183145389e+00	 1.290512268693754e+00	 2.268287460884012e+00
 1.758242708446275e+00	 1.307611346412800e+00	 2.204789792128349e+00
 1.883629719918174e+00	 1.136639222216155e+00	 3.257917038642925e+00
 1.872621342889786e+00	 1.154685640011436e+00	 3.190926745270988e+00
 1.861427390664340e+00	 1.172645566597684e+00	 3.100355397589955e+00
 1.850048827044785e+00	 1.190516187040101e+00	 2.992041345731745e+00
 1.838486672042233e+00	 1.208294699444463e+00	 2.871362153963168e+00
 1.826742001692850e+00	 1.225978316343882e+00	 2.744723658455961e+00
 1.814815947834057e+00	 1.243564266083988e+00	 2.619013190825473e+00
 1.802709697839955e+00	 1.261049794205120e+00	 2.501026021195648e+00
 1.790424494315982e+00	 1.278432164820177e+00	 2.397457897892501e+00
 1.777961634752816e+00	 1.295708661986680e+00	 2.314900494019438e+00
 1.765322471139646e+00	 1.312876591071715e+00	 2.259839850781839e+00
 1.891183949604895e+00	 1.141197673204096e+00	 3.215605721570566e+00
 1.880131423873971e+00	 1.159316465513336e+00	 3.146903728472672e+00
 1.868892578703238e+00	 1.177348419743595e+00	 3.061692393080121e+00
 1.857468381760953e+00	 1.195290709670882e+00	 2.964435224638629e+00
 1.845859857148952e+00	 1.213140522164074e+00	 2.859550003426008e+00
 1.834068085218814e+00	 1.230895058577249e+00	 2.751366074818936e+00
 1.822094202347163e+00	 1.248551536140415e+00	 2.645268179745545e+00
 1.809939400670032e+00	 1.266107189347253e+00	 2.546665965562425e+00
 1.797604927776289e+00	 1.283559271338480e+00	 2.460850132730326e+00
 1.785092086360161e+00	 1.300905055279432e+00	 2.392989560181064e+00
 1.772402233832950e+00	 1.318141835730464e+00	 2.348131551165983e+00
 1.898738179291617e+00	 1.145756124191772e+00	 3.152859215157624e+00
 1.887641504858117e+00	 1.163947291014934e+00	 3.087072505755740e+00
 1.876357766742059e+00	 1.182051272889176e+00	 3.012993788896901e+00
 1.864887936477006e+00	 1.200065232301310e+00	 2.933327549654371e+00
 1.853233042255522e+00	 1.217986344883317e+00	 2.850826687143113e+00
 1.841394168744601e+00	 1.235811800810240e+00	 2.768112029144326e+00
 1.829372456860071e+00	 1.253538806196465e+00	 2.688293923663795e+00
 1.817169103499892e+00	 1.271164584489011e+00	 2.615024952742987e+00
 1.804785361236369e+00	 1.288686377856418e+00	 2.551824882084004e+00
 1.792222537967280e+00	 1.306101448571833e+00	 2.502075000535192e+00
 1.779481996526039e+00	 1.323407080388878e+00	 2.469020687653530e+00
 1.906292408978343e+00	 1.150314575179052e+00	 3.071709012347997e+00
 1.895151585842206e+00	 1.168578116516081e+00	 3.013126384016207e+00
 1.883822954780765e+00	 1.186754126034262e+00	 2.955617172225151e+00
 1.872307491192888e+00	 1.204839754931210e+00	 2.899762802862028e+00
 1.860606227361870e+00	 1.222832167602012e+00	 2.846174901664989e+00
 1.848720252270120e+00	 1.240728543042670e+00	 2.795470207196877e+00
 1.836650711372670e+00	 1.258526076251949e+00	 2.748312914296822e+00
 1.824398806329413e+00	 1.276221979630209e+00	 2.706063683905656e+00
 1.811965794696090e+00	 1.293813484373809e+00	 2.670109834847945e+00
 1.799352989574029e+00	 1.311297841863705e+00	 2.641684627403932e+00
 1.786561759218760e+00	 1.328672325046793e+00	 2.621872668024505e+00
 1.913846638665072e+00	 1.154873026165801e+00	 2.974146453961756e+00
 1.902661666826218e+00	 1.173208942016625e+00	 2.926723876835803e+00
 1.891288142819316e+00	 1.191456979178688e+00	 2.890890649561134e+00
 1.879727045908540e+00	 1.209614277560408e+00	 2.864745276338568e+00
 1.867979412467919e+00	 1.227677990319973e+00	 2.846397203680486e+00
 1.856046335795278e+00	 1.245645285274350e+00	 2.833956395752035e+00
 1.843928965884853e+00	 1.263513346306681e+00	 2.825545029954315e+00
 1.831628509158474e+00	 1.281279374770660e+00	 2.819743724957187e+00
 1.819146228155318e+00	 1.298940590890470e+00	 2.815436624733842e+00
 1.806483441180266e+00	 1.316494235154875e+00	 2.811352814175358e+00
 1.793641521910966e+00	 1.333937569704040e+00	 2.806061547779762e+00
 1.722843894983654e+00	 1.281285123121560e+00	 2.451507255504644e+00
 1.710336036041581e+00	 1.297934199784559e+00	 2.406400684613435e+00
 1.697658861935259e+00	 1.314472081178694e+00	 2.394902335163002e+00
 1.684813856886373e+00	 1.330896196964246e+00	 2.411353938890737e+00
 1.671802556470602e+00	 1.347204002803646e+00	 2.449974871458077e+00
 1.658626547041991e+00	 1.363392981644274e+00	 2.504890685482680e+00
 1.645287465119243e+00	 1.379460644986235e+00	 2.570164300073181e+00
 1.631786996734402e+00	 1.395404534133789e+00	 2.639829750213107e+00
 1.618126876744440e+00	 1.411222221429127e+00	 2.707928378067388e+00
 1.604308888106322e+00	 1.426911311467221e+00	 2.768547327317803e+00
 1.590334861116157e+00	 1.442469442290463e+00	 2.815860181131743e+00
 1.729923657675115e+00	 1.286550367778807e+00	 2.330281160399295e+00
 1.717364399605329e+00	 1.303267861268188e+00	 2.289112574601131e+00
 1.704635130596620e+00	 1.319873702548785e+00	 2.287025354432807e+00
 1.691737340969855e+00	 1.336365310718468e+00	 2.317533584007875e+00
 1.678672572610923e+00	 1.352740130984107e+00	 2.373996469673353e+00
 1.665442418392746e+00	 1.368995635949644e+00	 2.449648371545281e+00
 1.652048521559052e+00	 1.385129326889079e+00	 2.537631621861756e+00
 1.638492575070372e+00	 1.401138735003042e+00	 2.631032030669791e+00
 1.624776320912806e+00	 1.417021422657641e+00	 2.722916957380799e+00
 1.610901549370107e+00	 1.432774984604303e+00	 2.806375805060014e+00
 1.596870098259705e+00	 1.448397049179322e+00	 2.874562773120382e+00
 1.737003420367256e+00	 1.291815612436721e+00	 2.245696177749337e+00
 1.724392763169800e+00	 1.308601522752440e+00	 2.208759740710531e+00
 1.711611399258739e+00	 1.325275323919451e+00	 2.214238788810560e+00
 1.698660825054121e+00	 1.341834424473213e+00	 2.255138288965536e+00
 1.685542588752047e+00	 1.358276259165039e+00	 2.324281469004176e+00
 1.672258289744316e+00	 1.374598290255434e+00	 2.414340919150798e+00
 1.658809577999677e+00	 1.390798008792296e+00	 2.517872603657682e+00
 1.645198153407151e+00	 1.406872935872629e+00	 2.627352680954554e+00
 1.631425765081967e+00	 1.422820623886461e+00	 2.735217007999431e+00
 1.617494210634661e+00	 1.438638657741673e+00	 2.833903182147484e+00
 1.603405335403986e+00	 1.454324656068464e+00	 2.915894951969733e+00
 1.744083183059930e+00	 1.297080857095136e+00	 2.197045327100954e+00
 1.731421126734840e+00	 1.313935184237158e+00	 2.164512467282002e+00
 1.718587667921462e+00	 1.330676945290548e+00	 2.175650434664839e+00
 1.705584309139019e+00	 1.347303538228351e+00	 2.223269772167800e+00
 1.692412604893825e+00	 1.363812387346324e+00	 2.299978025144797e+00
 1.679074161096556e+00	 1.380200944561541e+00	 2.398211487096183e+00
 1.665570634440982e+00	 1.396466690695798e+00	 2.510269971986828e+00
 1.651903731744612e+00	 1.412607136742474e+00	 2.628354510069326e+00
 1.638075209251801e+00	 1.428619825115519e+00	 2.744607840730078e+00
 1.624086871899873e+00	 1.444502330879274e+00	 2.851157552814346e+00
 1.609940572548900e+00	 1.460252262957840e+00	 2.940161700314299e+00
 1.751162945752986e+00	 1.302346101753885e+00	 2.183636166104833e+00
 1.738449490300299e+00	 1.319268845722191e+00	 2.155557208901588e+00
 1.725563936584634e+00	 1.336078566661932e+00	 2.170384975005451e+00
 1.712507793224396e+00	 1.352772651983751e+00	 2.221046502894672e+00
 1.699282621036108e+00	 1.369348515527848e+00	 2.300250120912486e+00
 1.685890032449323e+00	 1.385803598867863e+00	 2.400517414272781e+00
 1.672331690882829e+00	 1.402135372599496e+00	 2.514218328366239e+00
 1.658609310082624e+00	 1.418341337612502e+00	 2.633609304469873e+00
 1.644724653422189e+00	 1.434419026344752e+00	 2.750874319891681e+00
 1.630679533165634e+00	 1.450366004017048e+00	 2.858168680830001e+00
 1.616475809694347e+00	 1.466179869847399e+00	 2.947665392970016e+00
 1.758242708446275e+00	 1.307611346412800e+00	 2.204789792128349e+00
 1.745477853866021e+00	 1.324602507207378e+00	 2.181095547756907e+00
 1.732540205248102e+00	 1.341480188033461e+00	 2.197582912556859e+00
 1.719431277310100e+00	 1.358241765739284e+00	 2.247602628813005e+00
 1.706152637178747e+00	 1.374884643709492e+00	 2.324276505644713e+00
 1.692705903802472e+00	 1.391406253174298e+00	 2.420529187111829e+00
 1.679092747325082e+00	 1.407804054503300e+00	 2.529123159658388e+00
 1.665314888421059e+00	 1.424075538482633e+00	 2.642696894873760e+00
 1.651374097593011e+00	 1.440218227574093e+00	 2.753805998793675e+00
 1.637272194431832e+00	 1.456229677154939e+00	 2.854967214524235e+00
 1.623011046840228e+00	 1.472107476737092e+00	 2.938705101031653e+00
 1.765322471139646e+00	 1.312876591071715e+00	 2.259839850781839e+00
 1.752506217431852e+00	 1.329936168692566e+00	 2.240343158850182e+00
 1.739516473911709e+00	 1.346881809404990e+00	 2.256399511166544e+00
 1.726354761395976e+00	 1.363710879494819e+00	 2.302086911864676e+00
 1.713022653321593e+00	 1.380420771891143e+00	 2.371249642611549e+00
 1.699521775155861e+00	 1.397008907480743e+00	 2.457529414309813e+00
 1.685853803767603e+00	 1.413472736407122e+00	 2.554399854628000e+00
 1.672020466759789e+00	 1.429809739352794e+00	 2.655204227883344e+00
 1.658023541764149e+00	 1.446017428803475e+00	 2.753196258363484e+00
 1.643864855698359e+00	 1.462093350292891e+00	 2.841583903049687e+00
 1.629546283986442e+00	 1.478035083626868e+00	 2.913575895082137e+00
 1.772402233832950e+00	 1.318141835730464e+00	 2.348131551165983e+00
 1.759534580997640e+00	 1.335269830177598e+00	 2.332528782849225e+00
 1.746492742575304e+00	 1.352283430776377e+00	 2.346003745315518e+00
 1.733278245481874e+00	 1.369179993250225e+00	 2.383661672298299e+00
 1.719892669464497e+00	 1.385956900072682e+00	 2.440374664219850e+00
 1.706337646509344e+00	 1.402611561787096e+00	 2.510811808630870e+00
 1.692614860210256e+00	 1.419141418310874e+00	 2.589472726528733e+00
 1.678726045098686e+00	 1.435543940222906e+00	 2.670724442289941e+00
 1.664672985935481e+00	 1.451816630032835e+00	 2.748841448836099e+00
 1.650457516965104e+00	 1.467957023430847e+00	 2.818048813848083e+00
 1.636081521132888e+00	 1.483962690516677e+00	 2.872618598509022e+00
 1.779481996526039e+00	 1.323407080388878e+00	 2.469020687653530e+00
 1.766562944563231e+00	 1.340603491662318e+00	 2.456893206364153e+00
 1.753469011238729e+00	 1.357685052147477e+00	 2.465577257506027e+00
 1.740201729567638e+00	 1.374649107005374e+00	 2.491501740618312e+00
 1.726762685607308e+00	 1.391493028253994e+00	 2.530868334792785e+00
 1.713153517862779e+00	 1.408214216093255e+00	 2.579680175589749e+00
 1.699375916652905e+00	 1.424810100214466e+00	 2.633774041552644e+00
 1.685431623437618e+00	 1.441278141092894e+00	 2.688855949929703e+00
 1.671322430106890e+00	 1.457615831262106e+00	 2.740540034421277e+00
 1.657050178231957e+00	 1.473820696568750e+00	 2.784390551287572e+00
 1.642616758279468e+00	 1.489890297406469e+00	 2.816499930427105e+00
 1.786561759218760e+00	 1.328672325046793e+00	 2.621872668024504e+00
 1.773591308128472e+00	 1.345937153146570e+00	 2.612688249444211e+00
 1.760445279901834e+00	 1.363086673518147e+00	 2.614313323308400e+00
 1.747125213653118e+00	 1.380118220760135e+00	 2.624793417232375e+00
 1.733632701749878e+00	 1.397029156434963e+00	 2.641958020715319e+00
 1.719969389216021e+00	 1.413816870399117e+00	 2.663447408825347e+00
 1.706136973095411e+00	 1.430478782117809e+00	 2.686743052980479e+00
 1.692137201776460e+00	 1.447012341962681e+00	 2.709201520965710e+00
 1.677971874278255e+00	 1.463415032491225e+00	 2.728091740866738e+00
 1.663642839498809e+00	 1.479684369706544e+00	 2.740635476439711e+00
 1.649151995426080e+00	 1.495817904296194e+00	 2.745458069402434e+00
 1.793641521910966e+00	 1.333937569704040e+00	 2.806061547779762e+00
 1.780619671693210e+00	 1.351270814630199e+00	 2.799175760095845e+00
 1.767421548564461e+00	 1.368488294888244e+00	 2.791415823855977e+00
 1.754048697738162e+00	 1.385587334514377e+00	 2.782733439585024e+00
 1.740502717892060e+00	 1.402565284615472e+00	 2.772880667742745e+00
 1.726785260568927e+00	 1.419419524704581e+00	 2.761434491980548e+00
 1.712898029537639e+00	 1.436147464020815e+00	 2.747825040876216e+00
 1.698842780115081e+00	 1.452746542832192e+00	 2.731367373474929e+00
 1.684621318449455e+00	 1.469214233720123e+00	 2.711296705838218e+00
 1.670235500765549e+00	 1.485548042844174e+00	 2.686887254311710e+00
 1.655687232572625e+00	 1.501745511185803e+00	 2.659612745362141e+00
 1.590334861116157e+00	 1.442469442290463e+00	 2.815860181131743e+00
 1.576209082943013e+00	 1.457891680273050e+00	 2.849329136160680e+00
 1.561931092083721e+00	 1.473178411755090e+00	 2.872170157481473e+00
 1.547502829769426e+00	 1.488327408362844e+00	 2.885047777245296e+00
 1.532926281152534e+00	 1.503336479695941e+00	 2.893356970061397e+00
 1.518203474390078e+00	 1.518203474390078e+00	 2.898868925110004e+00
 1.503336479695941e+00	 1.532926281152534e+00	 2.902272161179577e+00
 1.488327408362844e+00	 1.547502829769426e+00	 2.904138732770996e+00
 1.473178411755089e+00	 1.561931092083721e+00	 2.903737208421377e+00
 1.457891680273049e+00	 1.576209082943013e+00	 2.895511348683162e+00
 1.442469442290463e+00	 1.590334861116157e+00	 2.878904692449193e+00
 1.596870098259705e+00	 1.448397049179322e+00	 2.874562773120382e+00
 1.582686272368129e+00	 1.463882662482917e+00	 2.925713422562752e+00
 1.568349608295735e+00	 1.479232212442803e+00	 2.962544920302263e+00
 1.553862055250860e+00	 1.494443461528082e+00	 2.987515842581790e+00
 1.539225606543589e+00	 1.509514210337267e+00	 3.005435755085250e+00
 1.524442298665355e+00	 1.524442298665355e+00	 3.017339644804423e+00
 1.509514210337267e+00	 1.539225606543589e+00	 3.024108599965660e+00
 1.494443461528083e+00	 1.553862055250861e+00	 3.026533603315808e+00
 1.479232212442803e+00	 1.568349608295735e+00	 3.025223627939981e+00
 1.463882662482917e+00	 1.582686272368130e+00	 3.015863008700722e+00
 1.448397049179321e+00	 1.596870098259705e+00	 2.996169929501108e+00
 1.603405335403986e+00	 1.454324656068464e+00	 2.915894951969733e+00
 1.589163461793934e+00	 1.469873644693080e+00	 2.978684010827309e+00
 1.574768124508386e+00	 1.485286013130841e+00	 3.024881128729737e+00
 1.560221280732874e+00	 1.500559514693683e+00	 3.059048233793328e+00
 1.545524931935164e+00	 1.515691940979004e+00	 3.083955428829643e+00
 1.530681122941096e+00	 1.530681122941096e+00	 3.100655076517275e+00
 1.515691940979004e+00	 1.545524931935164e+00	 3.110136976281736e+00
 1.500559514693683e+00	 1.560221280732874e+00	 3.113322471715990e+00
 1.485286013130840e+00	 1.574768124508386e+00	 3.111058077677910e+00
 1.469873644693080e+00	 1.589163461793934e+00	 3.101898577651115e+00
 1.454324656068464e+00	 1.603405335403986e+00	 3.081246968510864e+00
 1.609940572548900e+00	 1.460252262957840e+00	 2.940161700314299e+00
 1.595640651220338e+00	 1.475864626903494e+00	 3.008807801885380e+00
 1.581186640721594e+00	 1.491339813819156e+00	 3.060616126928959e+00
 1.566580506215397e+00	 1.506675567859600e+00	 3.100465836316607e+00
 1.551824257327200e+00	 1.521869671621101e+00	 3.129830277498662e+00
 1.536919947217245e+00	 1.536919947217245e+00	 3.149770564659532e+00
 1.521869671621100e+00	 1.551824257327200e+00	 3.161302393221944e+00
 1.506675567859599e+00	 1.566580506215397e+00	 3.165389985433700e+00
 1.491339813819156e+00	 1.581186640721594e+00	 3.162939504948167e+00
 1.475864626903493e+00	 1.595640651220339e+00	 3.154283569352630e+00
 1.460252262957839e+00	 1.609940572548900e+00	 3.134589738313544e+00
 1.616475809694347e+00	 1.466179869847399e+00	 2.947665392970016e+00
 1.602117840647250e+00	 1.481855609114111e+00	 3.016646637189390e+00
 1.587605156935277e+00	 1.497393614507704e+00	 3.070470895643928e+00
 1.572939731698358e+00	 1.512791621025784e+00	 3.112564641637690e+00
 1.558123582719631e+00	 1.528047402263506e+00	 3.143948214969901e+00
 1.543158771493746e+00	 1.543158771493746e+00	 3.165614432109873e+00
 1.528047402263506e+00	 1.558123582719632e+00	 3.178523095643948e+00
 1.512791621025784e+00	 1.572939731698359e+00	 3.183594892289905e+00
 1.497393614507703e+00	 1.587605156935277e+00	 3.181704714863806e+00
 1.481855609114111e+00	 1.602117840647250e+00	 3.173674450670619e+00
 1.466179869847399e+00	 1.616475809694348e+00	 3.156644354122321e+00
 1.623011046840228e+00	 1.472107476737092e+00	 2.938705101031653e+00
 1.608595030074581e+00	 1.487846591324885e+00	 3.003179060481979e+00
 1.594023673149356e+00	 1.503447415196439e+00	 3.055075071678146e+00
 1.579298957181686e+00	 1.518907674192191e+00	 3.096116430205766e+00
 1.564422908112395e+00	 1.534225132906170e+00	 3.127171495586996e+00
 1.549397595770543e+00	 1.549397595770543e+00	 3.149088705420658e+00
 1.534225132906170e+00	 1.564422908112395e+00	 3.162691190662953e+00
 1.518907674192191e+00	 1.579298957181686e+00	 3.168770739474227e+00
 1.503447415196439e+00	 1.594023673149357e+00	 3.168081145555508e+00
 1.487846591324885e+00	 1.608595030074581e+00	 3.161330984253719e+00
 1.472107476737092e+00	 1.623011046840228e+00	 3.147848723915932e+00
 1.629546283986442e+00	 1.478035083626868e+00	 2.913575895082137e+00
 1.615072219502239e+00	 1.493837573535769e+00	 2.969194023362281e+00
 1.600442189363751e+00	 1.509501215885315e+00	 3.015036987541243e+00
 1.585658182665308e+00	 1.525023727358770e+00	 3.051869448706242e+00
 1.570722233505427e+00	 1.540402863549040e+00	 3.080337420587549e+00
 1.555636420047579e+00	 1.555636420047579e+00	 3.101069833346373e+00
 1.540402863549040e+00	 1.570722233505427e+00	 3.114673361558124e+00
 1.525023727358770e+00	 1.585658182665308e+00	 3.121726566451549e+00
 1.509501215885314e+00	 1.600442189363750e+00	 3.122773388690718e+00
 1.493837573535769e+00	 1.615072219502240e+00	 3.118316035603889e+00
 1.478035083626868e+00	 1.629546283986441e+00	 3.108632152486885e+00
 1.636081521132888e+00	 1.483962690516677e+00	 2.872618598509022e+00
 1.621549408930136e+00	 1.499828555746719e+00	 2.915090488130160e+00
 1.606860705578380e+00	 1.515555016574287e+00	 2.950944297822323e+00
 1.592017408149153e+00	 1.531139780525477e+00	 2.980549081850913e+00
 1.577021558898665e+00	 1.546580594192068e+00	 3.004259038344415e+00
 1.561875244324799e+00	 1.561875244324799e+00	 3.022409398881220e+00
 1.546580594192068e+00	 1.577021558898666e+00	 3.035311575275507e+00
 1.531139780525477e+00	 1.592017408149154e+00	 3.043247591935956e+00
 1.515555016574287e+00	 1.606860705578380e+00	 3.046463840273171e+00
 1.499828555746718e+00	 1.621549408930137e+00	 3.045164199504642e+00
 1.483962690516677e+00	 1.636081521132888e+00	 3.039502575782237e+00
 1.642616758279468e+00	 1.489890297406469e+00	 2.816499930427105e+00
 1.628026598358182e+00	 1.505819537957685e+00	 2.841250291953831e+00
 1.613279221793163e+00	 1.521608817263309e+00	 2.863364601313050e+00
 1.598376633633152e+00	 1.537255833692263e+00	 2.882858518837978e+00
 1.583320884292047e+00	 1.552758324835201e+00	 2.899725838592658e+00
 1.568114068602146e+00	 1.568114068602146e+00	 2.913934824986625e+00
 1.552758324835201e+00	 1.583320884292047e+00	 2.925423783705927e+00
 1.537255833692263e+00	 1.598376633633152e+00	 2.934095895097245e+00
 1.521608817263308e+00	 1.613279221793163e+00	 2.939813346497087e+00
 1.505819537957684e+00	 1.628026598358182e+00	 2.942390808120500e+00
 1.489890297406469e+00	 1.642616758279468e+00	 2.941588304944458e+00
 1.649151995426080e+00	 1.495817904296194e+00	 2.745458069402434e+00
 1.634503787786285e+00	 1.511810520168621e+00	 2.748038705104810e+00
 1.619697738008020e+00	 1.527662617952335e+00	 2.752846058998327e+00
 1.604735859117230e+00	 1.543371886859082e+00	 2.759479414629661e+00
 1.589620209685509e+00	 1.558936055478388e+00	 2.767504440809038e+00
 1.574352892879563e+00	 1.574352892879563e+00	 2.776450074183771e+00
 1.558936055478388e+00	 1.589620209685508e+00	 2.785804618910396e+00
 1.543371886859082e+00	 1.604735859117230e+00	 2.795011091160041e+00
 1.527662617952335e+00	 1.619697738008020e+00	 2.803461844793319e+00
 1.511810520168621e+00	 1.634503787786285e+00	 2.810492522907757e+00
 1.495817904296194e+00	 1.649151995426080e+00	 2.815375388019538e+00
 1.655687232572625e+00	 1.501745511185803e+00	 2.659612745362141e+00
 1.640980977214357e+00	 1.517801502379484e+00	 2.635804986576536e+00
 1.626116254222871e+00	 1.533716418641320e+00	 2.619918008028848e+00
 1.611095084601319e+00	 1.549487940025887e+00	 2.611072546190739e+00
 1.595919535078986e+00	 1.565113786121580e+00	 2.608339276905582e+00
 1.580591717156995e+00	 1.580591717156995e+00	 2.610736342180608e+00
 1.565113786121580e+00	 1.595919535078986e+00	 2.617226082460452e+00
 1.549487940025886e+00	 1.611095084601319e+00	 2.626711001550416e+00
 1.533716418641319e+00	 1.626116254222872e+00	 2.638029000200290e+00
 1.517801502379483e+00	 1.640980977214357e+00	 2.649947922963854e+00
 1.501745511185803e+00	 1.655687232572625e+00	 2.661159471241653e+00
 1.442469442290463e+00	 1.590334861116157e+00	 2.878904692449193e+00
 1.426911311467222e+00	 1.604308888106321e+00	 2.850178281281754e+00
 1.411222221429127e+00	 1.618126876744440e+00	 2.807694712992669e+00
 1.395404534133789e+00	 1.631786996734401e+00	 2.754823174942887e+00
 1.379460644986235e+00	 1.645287465119242e+00	 2.695004488773981e+00
 1.363392981644275e+00	 1.658626547041991e+00	 2.631748257307381e+00
 1.347204002803646e+00	 1.671802556470602e+00	 2.568630996565511e+00
 1.330896196964247e+00	 1.684813856886373e+00	 2.509295200409191e+00
 1.314472081178695e+00	 1.697658861935258e+00	 2.457449277012268e+00
 1.297934199784560e+00	 1.710336036041580e+00	 2.416868288737611e+00
 1.281285123121559e+00	 1.722843894983654e+00	 2.391395419992529e+00
 1.448397049179321e+00	 1.596870098259705e+00	 2.996169929501107e+00
 1.432774984604304e+00	 1.610901549370106e+00	 2.963577160159518e+00
 1.417021422657642e+00	 1.624776320912806e+00	 2.917370263779093e+00
 1.401138735003042e+00	 1.638492575070372e+00	 2.860868908877992e+00
 1.385129326889079e+00	 1.652048521559052e+00	 2.797429206109055e+00
 1.368995635949644e+00	 1.665442418392745e+00	 2.730441249988667e+00
 1.352740130984108e+00	 1.678672572610922e+00	 2.663327731446366e+00
 1.336365310718469e+00	 1.691737340969854e+00	 2.599543565826980e+00
 1.319873702548785e+00	 1.704635130596619e+00	 2.542576472357684e+00
 1.303267861268188e+00	 1.717364399605328e+00	 2.495948433110927e+00
 1.286550367778807e+00	 1.729923657675114e+00	 2.463217952206258e+00
 1.454324656068464e+00	 1.603405335403986e+00	 3.081246968510863e+00
 1.438638657741674e+00	 1.617494210634660e+00	 3.047097349535353e+00
 1.422820623886462e+00	 1.631425765081967e+00	 2.999344996300706e+00
 1.406872935872630e+00	 1.645198153407151e+00	 2.941245354866614e+00
 1.390798008792297e+00	 1.658809577999677e+00	 2.876059328527323e+00
 1.374598290255435e+00	 1.672258289744316e+00	 2.807051222524592e+00
 1.358276259165040e+00	 1.685542588752046e+00	 2.737487840368023e+00
 1.341834424473214e+00	 1.698660825054120e+00	 2.670638673500529e+00
 1.325275323919451e+00	 1.711611399258738e+00	 2.609777117086567e+00
 1.308601522752441e+00	 1.724392763169799e+00	 2.558182636400170e+00
 1.291815612436721e+00	 1.737003420367256e+00	 2.519143800706438e+00
 1.460252262957839e+00	 1.609940572548900e+00	 3.134589738313544e+00
 1.444502330879274e+00	 1.624086871899872e+00	 3.100982886364972e+00
 1.428619825115520e+00	 1.638075209251800e+00	 3.053701990803503e+00
 1.412607136742475e+00	 1.651903731744611e+00	 2.995923655238098e+00
 1.396466690695799e+00	 1.665570634440981e+00	 2.930803120155243e+00
 1.380200944561542e+00	 1.679074161096556e+00	 2.861472618995692e+00
 1.363812387346325e+00	 1.692412604893824e+00	 2.791040961778360e+00
 1.347303538228352e+00	 1.705584309139018e+00	 2.722594285081659e+00
 1.330676945290548e+00	 1.718587667921462e+00	 2.659197897897257e+00
 1.313935184237159e+00	 1.731421126734840e+00	 2.603899144257201e+00
 1.297080857095136e+00	 1.744083183059930e+00	 2.559731195662249e+00
 1.466179869847399e+00	 1.616475809694348e+00	 3.156644354122321e+00
 1.450366004017048e+00	 1.630679533165633e+00	 3.125473382936815e+00
 1.434419026344753e+00	 1.644724653422189e+00	 3.080522542039013e+00
 1.418341337612502e+00	 1.658609310082623e+00	 3.024875053911473e+00
 1.402135372599496e+00	 1.672331690882828e+00	 2.961570079892217e+00
 1.385803598867864e+00	 1.685890032449323e+00	 2.893601496223526e+00
 1.369348515527848e+00	 1.699282621036107e+00	 2.823917968804883e+00
 1.352772651983752e+00	 1.712507793224395e+00	 2.755424262498640e+00
 1.336078566661932e+00	 1.725563936584634e+00	 2.690983711211233e+00
 1.319268845722192e+00	 1.738449490300298e+00	 2.633421766050594e+00
 1.302346101753885e+00	 1.751162945752986e+00	 2.585530530703416e+00
 1.472107476737092e+00	 1.623011046840228e+00	 3.147848723915932e+00
 1.456229677154939e+00	 1.637272194431832e+00	 3.120803569296783e+00
 1.440218227574093e+00	 1.651374097593011e+00	 3.079885653842812e+00
 1.424075538482634e+00	 1.665314888421059e+00	 3.028070359270778e+00
 1.407804054503300e+00	 1.679092747325081e+00	 2.968270388740232e+00
 1.391406253174298e+00	 1.692705903802472e+00	 2.903334971713235e+00
 1.374884643709493e+00	 1.706152637178747e+00	 2.836050433957250e+00
 1.358241765739285e+00	 1.719431277310099e+00	 2.769142065541720e+00
 1.341480188033461e+00	 1.732540205248101e+00	 2.705277209727933e+00
 1.324602507207379e+00	 1.745477853866019e+00	 2.647069486426690e+00
 1.307611346412800e+00	 1.758242708446275e+00	 2.597084055462862e+00
 1.478035083626868e+00	 1.629546283986441e+00	 3.108632152486885e+00
 1.462093350292891e+00	 1.643864855698358e+00	 3.087202834939140e+00
 1.446017428803476e+00	 1.658023541764148e+00	 3.051867534206334e+00
 1.429809739352794e+00	 1.672020466759789e+00	 3.005479408382355e+00
 1.413472736407123e+00	 1.685853803767603e+00	 2.950814358944398e+00
 1.397008907480743e+00	 1.699521775155860e+00	 2.890570673496309e+00
 1.380420771891143e+00	 1.713022653321593e+00	 2.827370095439904e+00
 1.363710879494819e+00	 1.726354761395975e+00	 2.763760250389380e+00
 1.346881809404991e+00	 1.739516473911709e+00	 2.702218348872278e+00
 1.329936168692567e+00	 1.752506217431851e+00	 2.645156075337790e+00
 1.312876591071716e+00	 1.765322471139646e+00	 2.594925564784425e+00
 1.483962690516677e+00	 1.636081521132888e+00	 3.039502575782237e+00
 1.467957023430847e+00	 1.650457516965103e+00	 3.024894769784558e+00
 1.451816630032835e+00	 1.664672985935481e+00	 2.996541090828907e+00
 1.435543940222906e+00	 1.678726045098685e+00	 2.957070532516838e+00
 1.419141418310875e+00	 1.692614860210256e+00	 2.909111884894090e+00
 1.402611561787097e+00	 1.706337646509344e+00	 2.855206191820804e+00
 1.385956900072683e+00	 1.719892669464496e+00	 2.797808325029965e+00
 1.369179993250226e+00	 1.733278245481873e+00	 2.739289969049112e+00
 1.352283430776377e+00	 1.746492742575303e+00	 2.681943933138093e+00
 1.335269830177598e+00	 1.759534580997639e+00	 2.627989696580447e+00
 1.318141835730464e+00	 1.772402233832951e+00	 2.579580084689030e+00
 1.489890297406469e+00	 1.642616758279468e+00	 2.941588304944458e+00
 1.473820696568751e+00	 1.657050178231957e+00	 2.934096704465678e+00
 1.457615831262107e+00	 1.671322430106890e+00	 2.913975427136898e+00
 1.441278141092895e+00	 1.685431623437618e+00	 2.882810023939931e+00
 1.424810100214467e+00	 1.699375916652904e+00	 2.843071895735961e+00
 1.408214216093256e+00	 1.713153517862778e+00	 2.797138532637822e+00
 1.391493028253995e+00	 1.726762685607307e+00	 2.747295597477163e+00
 1.374649107005375e+00	 1.740201729567638e+00	 2.695740469687614e+00
 1.357685052147477e+00	 1.753469011238729e+00	 2.644587162330507e+00
 1.340603491662319e+00	 1.766562944563231e+00	 2.595872514885541e+00
 1.323407080388879e+00	 1.779481996526039e+00	 2.551563555189678e+00
 1.495817904296194e+00	 1.649151995426080e+00	 2.815375388019538e+00
 1.479684369706545e+00	 1.663642839498807e+00	 2.815019249939830e+00
 1.463415032491225e+00	 1.677971874278254e+00	 2.804235338757507e+00
 1.447012341962682e+00	 1.692137201776459e+00	 2.782661603937228e+00
 1.430478782117809e+00	 1.706136973095410e+00	 2.752601809651726e+00
 1.413816870399118e+00	 1.719969389216020e+00	 2.716263572834763e+00
 1.397029156434963e+00	 1.733632701749877e+00	 2.675760961383699e+00
 1.380118220760136e+00	 1.747125213653118e+00	 2.633118597825828e+00
 1.363086673518147e+00	 1.760445279901833e+00	 2.590277177710341e+00
 1.345937153146571e+00	 1.773591308128471e+00	 2.549100301600441e+00
 1.328672325046793e+00	 1.786561759218760e+00	 2.511382510042828e+00
 1.501745511185803e+00	 1.655687232572625e+00	 2.661159471241653e+00
 1.485548042844174e+00	 1.670235500765547e+00	 2.668073646882441e+00
 1.469214233720123e+00	 1.684621318449455e+00	 2.667380810435036e+00
 1.452746542832192e+00	 1.698842780115080e+00	 2.656585892039229e+00
 1.436147464020815e+00	 1.712898029537638e+00	 2.637606989755092e+00
 1.419419524704582e+00	 1.726785260568927e+00	 2.612475517167328e+00
 1.402565284615473e+00	 1.740502717892059e+00	 2.583131511523622e+00
 1.385587334514378e+00	 1.754048697738161e+00	 2.551428298375248e+00
 1.368488294888244e+00	 1.767421548564461e+00	 2.519138608043345e+00
 1.351270814630200e+00	 1.780619671693210e+00	 2.487962039002293e+00
 1.333937569704040e+00	 1.793641521910966e+00	 2.459533753520868e+00
 1.281285123121559e+00	 1.722843894983654e+00	 2.391395419992529e+00
 1.264530302232631e+00	 1.735178925112020e+00	 2.383688432009070e+00
 1.247669525712911e+00	 1.747341893556909e+00	 2.391585244181123e+00
 1.230705423354944e+00	 1.759331480861804e+00	 2.411710054405407e+00
 1.213640645748062e+00	 1.771146420757310e+00	 2.440631896354006e+00
 1.196477862946308e+00	 1.782785500538586e+00	 2.474879336183536e+00
 1.179219763129366e+00	 1.794247561403101e+00	 2.510955447756784e+00
 1.161869051257883e+00	 1.805531498748640e+00	 2.545352945757013e+00
 1.144428447724528e+00	 1.816636262431509e+00	 2.574569355637285e+00
 1.126900687002146e+00	 1.827560856984948e+00	 2.595122099816809e+00
 1.109288516290361e+00	 1.838304341797836e+00	 2.603576670561801e+00
 1.286550367778807e+00	 1.729923657675114e+00	 2.463217952206258e+00
 1.269726695523801e+00	 1.742309376717713e+00	 2.446090618042863e+00
 1.252796632229572e+00	 1.754522327015755e+00	 2.442028234356559e+00
 1.235762818495395e+00	 1.766561183690609e+00	 2.448238323058553e+00
 1.218627915802794e+00	 1.778424675269332e+00	 2.461903506466489e+00
 1.201394605177988e+00	 1.790111584063650e+00	 2.480195603830527e+00
 1.184065585847327e+00	 1.801620746509102e+00	 2.500289982403581e+00
 1.166643573887081e+00	 1.812951053464272e+00	 2.519380040612350e+00
 1.149131300868954e+00	 1.824101450470053e+00	 2.534691700471692e+00
 1.131531512502690e+00	 1.835070937968958e+00	 2.543497786899779e+00
 1.113846967277110e+00	 1.845858571484564e+00	 2.543132173021097e+00
 1.291815612436721e+00	 1.737003420367256e+00	 2.519143800706438e+00
 1.274923088815674e+00	 1.749439828324040e+00	 2.493738114931292e+00
 1.257923738746963e+00	 1.761702760475180e+00	 2.479315668565560e+00
 1.240820213636592e+00	 1.773790886519932e+00	 2.473591487345518e+00
 1.223615185858279e+00	 1.785702929781807e+00	 2.474281143508552e+00
 1.206311347410418e+00	 1.797437667589096e+00	 2.479114407521031e+00
 1.188911408566022e+00	 1.808993931615413e+00	 2.485849136253501e+00
 1.171418096516982e+00	 1.820370608180138e+00	 2.492285272955944e+00
 1.153834154014040e+00	 1.831566638508753e+00	 2.496278833986955e+00
 1.136162338003837e+00	 1.842581018953047e+00	 2.495755757803521e+00
 1.118405418264389e+00	 1.853412801171289e+00	 2.488735355227790e+00
 1.297080857095136e+00	 1.744083183059930e+00	 2.559731195662249e+00
 1.280119482108074e+00	 1.756570279930858e+00	 2.527414903835365e+00
 1.263050845264901e+00	 1.768883193935049e+00	 2.504401242170861e+00
 1.245877608778351e+00	 1.781020589349650e+00	 2.488837863159139e+00
 1.228602455914329e+00	 1.792981184294625e+00	 2.478893629233136e+00
 1.211228089643410e+00	 1.804763751114833e+00	 2.472771974470374e+00
 1.193757231285266e+00	 1.816367116721957e+00	 2.468724490492545e+00
 1.176192619147410e+00	 1.827790162896181e+00	 2.465064609330896e+00
 1.158537007159621e+00	 1.839031826547572e+00	 2.460181255633492e+00
 1.140793163505436e+00	 1.850091099937193e+00	 2.452552341173549e+00
 1.122963869252066e+00	 1.860967030858012e+00	 2.441102468616136e+00
 1.302346101753885e+00	 1.751162945752986e+00	 2.585530530703416e+00
 1.285315875400826e+00	 1.763700731538021e+00	 2.547893824087495e+00
 1.268177951783205e+00	 1.776063627395229e+00	 2.518225133749380e+00
 1.250935003920484e+00	 1.788250292179642e+00	 2.495030787188015e+00
 1.233589725970756e+00	 1.800259438807678e+00	 2.476854237833152e+00
 1.216144831876776e+00	 1.812089834640766e+00	 2.462289290903381e+00
 1.198603054004877e+00	 1.823740301828660e+00	 2.449993547035268e+00
 1.180967141778191e+00	 1.835209717612342e+00	 2.438701933486474e+00
 1.163239860305532e+00	 1.846497014586467e+00	 2.427240192321666e+00
 1.145423989007336e+00	 1.857601180921378e+00	 2.414661842660629e+00
 1.127522320240007e+00	 1.868521260544733e+00	 2.400781287375872e+00
 1.307611346412800e+00	 1.758242708446275e+00	 2.597084055462862e+00
 1.290512268693754e+00	 1.770831183145389e+00	 2.555936345551850e+00
 1.273305058301691e+00	 1.783244060855584e+00	 2.521713839248543e+00
 1.255992399062802e+00	 1.795479995009785e+00	 2.493208495162039e+00
 1.238576996027372e+00	 1.807537693320858e+00	 2.469260600896511e+00
 1.221061574110330e+00	 1.819415918166802e+00	 2.448772016678078e+00
 1.203448876724670e+00	 1.831113486935444e+00	 2.430719636126676e+00
 1.185741664409146e+00	 1.842629272328562e+00	 2.414168930629279e+00
 1.167942713451609e+00	 1.853962202625403e+00	 2.398301475761007e+00
 1.150054814509386e+00	 1.865111261905581e+00	 2.383000469913683e+00
 1.132080771228081e+00	 1.876075490231453e+00	 2.368153773418172e+00
 1.312876591071716e+00	 1.765322471139646e+00	 2.594925564784425e+00
 1.295708661986680e+00	 1.777961634752817e+00	 2.552292335883426e+00
 1.278432164820176e+00	 1.790424494315982e+00	 2.515779999715975e+00
 1.261049794205121e+00	 1.802709697839955e+00	 2.484393992779108e+00
 1.243564266083988e+00	 1.814815947834057e+00	 2.457194604575109e+00
 1.225978316343883e+00	 1.826742001692850e+00	 2.433310392072519e+00
 1.208294699444464e+00	 1.838486672042232e+00	 2.411951816464128e+00
 1.190516187040102e+00	 1.850048827044785e+00	 2.392424964949863e+00
 1.172645566597685e+00	 1.861427390664339e+00	 2.374427296080152e+00
 1.154685640011437e+00	 1.872621342889786e+00	 2.358176227122629e+00
 1.136639222216155e+00	 1.883629719918174e+00	 2.343591076285613e+00
 1.318141835730464e+00	 1.772402233832951e+00	 2.579580084689030e+00
 1.300905055279432e+00	 1.785092086360161e+00	 2.537699822828520e+00
 1.283559271338480e+00	 1.797604927776289e+00	 2.501322222782346e+00
 1.266107189347253e+00	 1.809939400670031e+00	 2.469594919517732e+00
 1.248551536140415e+00	 1.822094202347163e+00	 2.441722279185463e+00
 1.230895058577249e+00	 1.834068085218813e+00	 2.416979136953901e+00
 1.213140522164075e+00	 1.845859857148951e+00	 2.394724768048311e+00
 1.195290709670882e+00	 1.857468381760951e+00	 2.374492161104451e+00
 1.177348419743596e+00	 1.868892578703237e+00	 2.356474222076444e+00
 1.159316465513337e+00	 1.880131423873970e+00	 2.340770445259735e+00
 1.141197673204096e+00	 1.891183949604895e+00	 2.327453778609567e+00
 1.323407080388879e+00	 1.779481996526039e+00	 2.551563555189678e+00
 1.306101448571832e+00	 1.792222537967280e+00	 2.512884751704862e+00
 1.288686377856418e+00	 1.804785361236369e+00	 2.479224898071379e+00
 1.271164584489011e+00	 1.817169103499892e+00	 2.449803405533622e+00
 1.253538806196465e+00	 1.829372456860070e+00	 2.423893681451759e+00
 1.235811800810241e+00	 1.841394168744602e+00	 2.400837342541988e+00
 1.217986344883318e+00	 1.853233042255522e+00	 2.380061655804472e+00
 1.200065232301311e+00	 1.864887936477005e+00	 2.361453334594749e+00
 1.182051272889177e+00	 1.876357766742058e+00	 2.345183535581126e+00
 1.163947291014936e+00	 1.887641504858116e+00	 2.331350604324092e+00
 1.145756124191772e+00	 1.898738179291618e+00	 2.320092139531936e+00
 1.328672325046793e+00	 1.786561759218760e+00	 2.511382510042828e+00
 1.311297841863705e+00	 1.799352989574029e+00	 2.478560738195120e+00
 1.293813484373809e+00	 1.811965794696090e+00	 2.450358006705498e+00
 1.276221979630209e+00	 1.824398806329413e+00	 2.425995921832179e+00
 1.258526076251950e+00	 1.836650711372670e+00	 2.404742769595447e+00
 1.240728543042670e+00	 1.848720252270120e+00	 2.385928355972367e+00
 1.222832167602012e+00	 1.860606227361869e+00	 2.369066441019956e+00
 1.204839754931211e+00	 1.872307491192887e+00	 2.354169401395648e+00
 1.186754126034263e+00	 1.883822954780764e+00	 2.341280220763642e+00
 1.168578116516082e+00	 1.895151585842205e+00	 2.330470650203230e+00
 1.150314575179052e+00	 1.906292408978342e+00	 2.321846336147645e+00
 1.333937569704040e+00	 1.793641521910966e+00	 2.459533753520868e+00
 1.316494235154875e+00	 1.806483441180266e+00	 2.435428816583410e+00
 1.298940590890470e+00	 1.819146228155318e+00	 2.415576925070381e+00
 1.281279374770660e+00	 1.831628509158474e+00	 2.399133123902673e+00
 1.263513346306681e+00	 1.843928965884853e+00	 2.385287271468963e+00
 1.245645285274350e+00	 1.856046335795278e+00	 2.373289180741157e+00
 1.227677990319974e+00	 1.867979412467918e+00	 2.362721690926854e+00
 1.209614277560409e+00	 1.879727045908540e+00	 2.353474560709975e+00
 1.191456979178689e+00	 1.891288142819314e+00	 2.345473337412065e+00
 1.173208942016627e+00	 1.902661666826218e+00	 2.338671307917808e+00
 1.154873026165801e+00	 1.913846638665072e+00	 2.333046703022653e+00
 1.109288516290361e+00	 1.838304341797836e+00	 2.603576670561801e+00
 1.091594694507553e+00	 1.848865831699674e+00	 2.599445430790547e+00
 1.073821991952893e+00	 1.859244498404515e+00	 2.585502953432589e+00
 1.055973187880068e+00	 1.869439569243934e+00	 2.564238150343557e+00
 1.038051068798763e+00	 1.879450326741568e+00	 2.537449828458391e+00
 1.020058427132334e+00	 1.889276108593128e+00	 2.506841902156728e+00
 1.001998059881857e+00	 1.898916307608127e+00	 2.474068895686659e+00
 9.838727672977994e-01	 1.908370371613757e+00	 2.440741407667705e+00
 9.656853515605157e-01	 1.917637803321349e+00	 2.408431439189527e+00
 9.474386154707806e-01	 1.926718160155935e+00	 2.378677528678758e+00
 9.291353611515103e-01	 1.935611054049432e+00	 2.352989640915748e+00
 1.113846967277110e+00	 1.845858571484564e+00	 2.543132173021097e+00
 1.096080435447949e+00	 1.856463462208892e+00	 2.533474090178614e+00
 1.078234698698499e+00	 1.866884778452287e+00	 2.518283039371447e+00
 1.060312547703372e+00	 1.877121744371174e+00	 2.499005926106407e+00
 1.042316780422992e+00	 1.887173639540842e+00	 2.476828643785226e+00
 1.024250200755753e+00	 1.897039798935372e+00	 2.452865182548611e+00
 1.006115617196586e+00	 1.906719612869135e+00	 2.428164450512990e+00
 9.879158415031618e-01	 1.916212526900261e+00	 2.403717018925825e+00
 9.696536873709707e-01	 1.925518041696562e+00	 2.380461726801830e+00
 9.513319691184728e-01	 1.934635712864383e+00	 2.359292084626699e+00
 9.329535003834832e-01	 1.943565150740947e+00	 2.341062421081490e+00
 1.118405418264389e+00	 1.853412801171289e+00	 2.488735355227790e+00
 1.100566176388786e+00	 1.864061092718026e+00	 2.475789315100308e+00
 1.082647405444448e+00	 1.874525058499898e+00	 2.460329661458743e+00
 1.064651907526910e+00	 1.884803919498182e+00	 2.443344713209984e+00
 1.046582492047341e+00	 1.894896952339820e+00	 2.425551207516714e+00
 1.028441974379181e+00	 1.904803489277268e+00	 2.407579579750078e+00
 1.010233174511215e+00	 1.914522918129752e+00	 2.389981903340137e+00
 9.919589157083232e-01	 1.924054682186347e+00	 2.373239751400349e+00
 9.736220231811357e-01	 1.933398280071347e+00	 2.357771912203210e+00
 9.552253227658015e-01	 1.942553265572416e+00	 2.343941894754598e+00
 9.367716396150375e-01	 1.951519247432082e+00	 2.332065165239403e+00
 1.122963869252066e+00	 1.860967030858012e+00	 2.441102468616136e+00
 1.105051917329954e+00	 1.871658723227098e+00	 2.426546766609552e+00
 1.087060112190651e+00	 1.882165338547391e+00	 2.411545533158946e+00
 1.068991267350623e+00	 1.892486094625017e+00	 2.396980590005679e+00
 1.050848203671780e+00	 1.902620265138577e+00	 2.383201913461859e+00
 1.032633748002613e+00	 1.912567179618902e+00	 2.370461335326293e+00
 1.014350731825765e+00	 1.922326223390080e+00	 2.358921440380419e+00
 9.960019899133274e-01	 1.931896837472129e+00	 2.348664381752755e+00
 9.775903589910730e-01	 1.941278518445825e+00	 2.339700542986374e+00
 9.591186764128414e-01	 1.950470818280153e+00	 2.331976979961848e+00
 9.405897788462569e-01	 1.959473344122953e+00	 2.325385580513199e+00
 1.127522320240007e+00	 1.868521260544733e+00	 2.400781287375872e+00
 1.109537658271344e+00	 1.879256353736129e+00	 2.385861773526511e+00
 1.091472818937026e+00	 1.889805618594803e+00	 2.371836584919218e+00
 1.073330627174450e+00	 1.900168269751737e+00	 2.359645855255060e+00
 1.055113915296277e+00	 1.910343577937188e+00	 2.349373816710843e+00
 1.036825521626044e+00	 1.920330869960368e+00	 2.340997251768330e+00
 1.018468289140255e+00	 1.930129528650220e+00	 2.334395188826186e+00
 1.000045064118216e+00	 1.939738992757714e+00	 2.329358510012998e+00
 9.815586948008433e-01	 1.949158756820110e+00	 2.325599397032903e+00
 9.630120300596692e-01	 1.958388370987716e+00	 2.322760545342733e+00
 9.444079180772249e-01	 1.967427440813676e+00	 2.320424081805903e+00
 1.132080771228081e+00	 1.876075490231453e+00	 2.368153773418172e+00
 1.114023399212843e+00	 1.886853984245140e+00	 2.353829434684056e+00
 1.095885525683485e+00	 1.897445898642176e+00	 2.341111700854256e+00
 1.077669986998335e+00	 1.907850444878401e+00	 2.331078714771563e+00
 1.059379626920800e+00	 1.918066890735729e+00	 2.323668281635531e+00
 1.041017295249469e+00	 1.928094560301753e+00	 2.318684312793701e+00
 1.022585846454707e+00	 1.937932833910278e+00	 2.315826819925220e+00
 1.004088138323034e+00	 1.947581148043218e+00	 2.314702155432846e+00
 9.855270306105088e-01	 1.957038995194323e+00	 2.314833080670977e+00
 9.669053837063589e-01	 1.966305923695220e+00	 2.315668589693819e+00
 9.482260573080243e-01	 1.975381537504368e+00	 2.316593421217115e+00
 1.136639222216155e+00	 1.883629719918174e+00	 2.343591076285613e+00
 1.118509140154343e+00	 1.894451614754150e+00	 2.330508225531701e+00
 1.100298232429944e+00	 1.905086178689550e+00	 2.319282456825906e+00
 1.082009346822217e+00	 1.915532620005067e+00	 2.311022970803750e+00
 1.063645338545318e+00	 1.925790203534276e+00	 2.305694633704904e+00
 1.045209068872883e+00	 1.935858250643149e+00	 2.303029308272708e+00
 1.026703403769141e+00	 1.945736139170353e+00	 2.302651157241233e+00
 1.008131212527822e+00	 1.955423303328752e+00	 2.304087357843167e+00
 9.894953664201306e-01	 1.964919233568579e+00	 2.306778632426612e+00
 9.707987373529871e-01	 1.974223476402786e+00	 2.310089520486654e+00
 9.520441965387395e-01	 1.983335634195144e+00	 2.313318322590859e+00
 1.141197673204096e+00	 1.891183949604895e+00	 2.327453778609567e+00
 1.122994881095732e+00	 1.902049245263181e+00	 2.316028147134635e+00
 1.104710939176317e+00	 1.912726458736964e+00	 2.306262859878380e+00
 1.086348706646037e+00	 1.923214795131794e+00	 2.299227714083291e+00
 1.067911050169798e+00	 1.933513516332904e+00	 2.295069815008669e+00
 1.049400842496282e+00	 1.943621940984646e+00	 2.293548463651172e+00
 1.030820961083577e+00	 1.953539444430550e+00	 2.294313789954467e+00
 1.012174286732623e+00	 1.963265458614426e+00	 2.296917784361234e+00
 9.934637022297703e-01	 1.972799471942995e+00	 2.300825132212108e+00
 9.746920909996287e-01	 1.982141029110534e+00	 2.305423774152932e+00
 9.558623357694527e-01	 1.991289730886122e+00	 2.310035121050510e+00
 1.145756124191772e+00	 1.898738179291618e+00	 2.320092139531936e+00
 1.127480622036900e+00	 1.909646875772254e+00	 2.310518741729375e+00
 1.109123645922517e+00	 1.920366738784460e+00	 2.301969088991201e+00
 1.090688066469738e+00	 1.930896970258641e+00	 2.295447018463391e+00
 1.072176761794210e+00	 1.941236829131688e+00	 2.291418043385645e+00
 1.053592616119660e+00	 1.951385631326334e+00	 2.289767073744207e+00
 1.034938518398034e+00	 1.961342749690969e+00	 2.290270691061855e+00
 1.016217360937481e+00	 1.971107613900353e+00	 2.292608341298958e+00
 9.974320380394895e-01	 1.980679710317690e+00	 2.296373315800079e+00
 9.785854446463594e-01	 1.990058581818581e+00	 2.301083441534090e+00
 9.596804750002484e-01	 1.999243827577417e+00	 2.306191407381916e+00
 1.150314575179052e+00	 1.906292408978342e+00	 2.321846336147645e+00
 1.131966362977736e+00	 1.917244506281389e+00	 2.314102978155704e+00
 1.113536352668460e+00	 1.928007018832077e+00	 2.306310967812969e+00
 1.095027426293259e+00	 1.938579145385666e+00	 2.299439638075668e+00
 1.076442473418520e+00	 1.948960141930704e+00	 2.294370475056867e+00
 1.057784389743014e+00	 1.959149321668304e+00	 2.291219140779734e+00
 1.039056075712534e+00	 1.969146054951715e+00	 2.289987840340810e+00
 1.020260435142439e+00	 1.978949769186645e+00	 2.290584791127699e+00
 1.001400373849350e+00	 1.988559948692782e+00	 2.292835194436463e+00
 9.824787982932547e-01	 1.997976134527048e+00	 2.296491898352011e+00
 9.634986142312095e-01	 2.007197924269145e+00	 2.301245677130099e+00
 1.154873026165801e+00	 1.913846638665072e+00	 2.333046703022653e+00
 1.136452103918131e+00	 1.924842136790607e+00	 2.326897416448852e+00
 1.117949059414061e+00	 1.935647298879856e+00	 2.319173287542521e+00
 1.099366786116543e+00	 1.946261320512928e+00	 2.310968706935782e+00
 1.080708185042699e+00	 1.956683454730028e+00	 2.303564870666393e+00
 1.061976163366337e+00	 1.966913012010647e+00	 2.297447016574170e+00
 1.043173633027097e+00	 1.976949360212890e+00	 2.292940851944920e+00
 1.024303509347539e+00	 1.986791924473413e+00	 2.290283374359849e+00
 1.005368709659413e+00	 1.996440187068386e+00	 2.289633679450339e+00
 9.863721519403903e-01	 2.005893687236055e+00	 2.291083440562053e+00
 9.673167534624196e-01	 2.015152020961425e+00	 2.294666984279272e+00
 9.291353611515103e-01	 1.935611054049432e+00	 2.352989640915748e+00
 9.107752633221814e-01	 1.944317614944239e+00	 2.332413974648500e+00
 8.923642265648896e-01	 1.952836033922081e+00	 2.316898116294739e+00
 8.739050438238596e-01	 1.961166083376974e+00	 2.306265532768330e+00
 8.554005023379557e-01	 1.969307589065009e+00	 2.300333268356463e+00
 8.368533824140600e-01	 1.977260429726245e+00	 2.298917064241500e+00
 8.182664562179768e-01	 1.985024536674226e+00	 2.301835978842218e+00
 7.996424865837999e-01	 1.992599893353934e+00	 2.308916488774248e+00
 7.809842258426549e-01	 1.999986534868971e+00	 2.319996055657457e+00
 7.622944146716795e-01	 2.007184547478847e+00	 2.334926149376026e+00
 7.435757809640703e-01	 2.014194068067215e+00	 2.353574723684292e+00
 9.329535003834832e-01	 1.943565150740947e+00	 2.341062421081490e+00
 9.145179545487909e-01	 1.952307489911985e+00	 2.326296337244337e+00
 8.960312604604603e-01	 1.960860914025748e+00	 2.315025649985758e+00
 8.774962225398832e-01	 1.969225194540931e+00	 2.307323710372065e+00
 8.589156394796467e-01	 1.977400156497592e+00	 2.303256096550293e+00
 8.402923030118700e-01	 1.985385678137485e+00	 2.302885563036645e+00
 8.216289966941384e-01	 1.993181690491892e+00	 2.306276476626460e+00
 8.029284947139819e-01	 2.000788176937756e+00	 2.313498718539816e+00
 7.841935607128003e-01	 2.008205172722930e+00	 2.324631037997618e+00
 7.654269466301148e-01	 2.015432764461386e+00	 2.339763847951171e+00
 7.466313915689743e-01	 2.022471089599275e+00	 2.359001459123069e+00
 9.367716396150375e-01	 1.951519247432082e+00	 2.332065165239403e+00
 9.182606457749493e-01	 1.960297364879410e+00	 2.322296428501905e+00
 8.996982943555677e-01	 1.968885794129170e+00	 2.314779922106459e+00
 8.810874012554506e-01	 1.977284305704739e+00	 2.309768278531749e+00
 8.624307766209054e-01	 1.985492723930135e+00	 2.307505338829598e+00
 8.437312236092854e-01	 1.993510926548799e+00	 2.308231028740981e+00
 8.249915371699561e-01	 2.001338844309750e+00	 2.312185704761085e+00
 8.062145028438803e-01	 2.008976460521890e+00	 2.319613949450814e+00
 7.874028955827300e-01	 2.016423810577315e+00	 2.330767801035756e+00
 7.685594785884102e-01	 2.023680981444456e+00	 2.345909408022068e+00
 7.496870021738175e-01	 2.030748111131957e+00	 2.365313105150928e+00
 9.405897788462569e-01	 1.959473344122953e+00	 2.325385580513198e+00
 9.220033370007412e-01	 1.968287239846621e+00	 2.319850372530862e+00
 9.033653282502921e-01	 1.976910674232447e+00	 2.315642272268764e+00
 8.846785799706322e-01	 1.985343416868481e+00	 2.313123443491705e+00
 8.659459137617872e-01	 1.993585291362700e+00	 2.312646570374191e+00
 8.471701442063441e-01	 2.001636174960232e+00	 2.314559757015307e+00
 8.283540776454476e-01	 2.009495998127826e+00	 2.319210877752961e+00
 8.095005109734916e-01	 2.017164744106341e+00	 2.326951357127780e+00
 7.906122304524200e-01	 2.024642448432109e+00	 2.338139364263058e+00
 7.716920105465183e-01	 2.031929198428021e+00	 2.353142412286329e+00
 7.527426127785311e-01	 2.039025132665209e+00	 2.372339359177880e+00
 9.444079180772249e-01	 1.967427440813676e+00	 2.320424081805903e+00
 9.257460282262515e-01	 1.976277114813727e+00	 2.318406343541866e+00
 9.070323621447138e-01	 1.984935554335675e+00	 2.317105475261696e+00
 8.882697586854974e-01	 1.993402528032239e+00	 2.316924259522387e+00
 8.694610509023480e-01	 2.001677858795353e+00	 2.318255640131144e+00
 8.506090648030851e-01	 2.009761423371830e+00	 2.321487741153059e+00
 8.317166181206317e-01	 2.017653151946145e+00	 2.327008315088422e+00
 8.127865191028130e-01	 2.025353027691109e+00	 2.335208598492708e+00
 7.938215653218446e-01	 2.032861086287296e+00	 2.346486559410807e+00
 7.748245425043920e-01	 2.040177415412047e+00	 2.361249527037069e+00
 7.557982233830478e-01	 2.047302154198982e+00	 2.379916199950298e+00
 9.482260573080243e-01	 1.975381537504368e+00	 2.316593421217115e+00
 9.294887194515647e-01	 1.984266989780837e+00	 2.317424218693839e+00
 9.106993960389117e-01	 1.992960434438949e+00	 2.318673416310344e+00
 8.918609374001168e-01	 2.001461639196095e+00	 2.320716325848857e+00
 8.729761880426438e-01	 2.009770426228158e+00	 2.323918388945752e+00
 8.540479853995462e-01	 2.017886671783635e+00	 2.328640411220734e+00
 8.350791585955262e-01	 2.025810305764729e+00	 2.335243201462760e+00
 8.160725272318409e-01	 2.033541311276201e+00	 2.344091593438451e+00
 7.970309001909780e-01	 2.041079724142859e+00	 2.355557834179994e+00
 7.779570744619838e-01	 2.048425632396498e+00	 2.370024328840434e+00
 7.588538339872994e-01	 2.055579175733224e+00	 2.387885738329867e+00
 9.520441965387395e-01	 1.983335634195144e+00	 2.313318322590859e+00
 9.332314106767655e-01	 1.992256864748059e+00	 2.316375235651695e+00
 9.143664299329669e-01	 2.000985314542367e+00	 2.319860770648806e+00
 8.954521161145595e-01	 2.009520750360127e+00	 2.324055487513498e+00
 8.764913251827298e-01	 2.017862993661176e+00	 2.329230371256850e+00
 8.574869059957652e-01	 2.026011920195693e+00	 2.335652376395898e+00
 8.384416990701492e-01	 2.033967459583602e+00	 2.343589349836905e+00
 8.193585353605723e-01	 2.041729594861619e+00	 2.353314308944454e+00
 8.002402350597947e-01	 2.049298361998782e+00	 2.365109058019327e+00
 7.810896064192467e-01	 2.056673849381341e+00	 2.379267132840194e+00
 7.619094445912177e-01	 2.063856197267883e+00	 2.396096069247978e+00
 9.558623357694527e-01	 1.991289730886122e+00	 2.310035121050510e+00
 9.369741019019390e-01	 2.000246739715503e+00	 2.314741654722866e+00
 9.180334638269583e-01	 2.009010194646027e+00	 2.320192687286517e+00
 8.990432948288964e-01	 2.017579861524421e+00	 2.326507540062928e+00
 8.800064623226619e-01	 2.025955561094475e+00	 2.333796580256785e+00
 8.609258265917812e-01	 2.034137168608049e+00	 2.342167170413298e+00
 8.418042395445197e-01	 2.042124613402790e+00	 2.351728967242133e+00
 8.226445434890037e-01	 2.049917878447365e+00	 2.362598545570413e+00
 8.034495699282699e-01	 2.057516999855049e+00	 2.374903329894535e+00
 7.842221383761333e-01	 2.064922066366540e+00	 2.388784822643924e+00
 7.649650551947357e-01	 2.072133218802911e+00	 2.404401124802651e+00
 9.596804750002484e-01	 1.999243827577417e+00	 2.306191407381916e+00
 9.407167931271693e-01	 2.008236614683276e+00	 2.312016425445017e+00
 9.217004977209663e-01	 2.017035074750023e+00	 2.319204476851024e+00
 9.026344735431970e-01	 2.025638972689057e+00	 2.327647937952485e+00
 8.835215994624964e-01	 2.034048128528116e+00	 2.337231176419494e+00
 8.643647471876317e-01	 2.042262417020744e+00	 2.347837000032527e+00
 8.451667800186552e-01	 2.050281767222315e+00	 2.359352423256263e+00
 8.259305516171324e-01	 2.058106162033445e+00	 2.371673726261611e+00
 8.066589047963781e-01	 2.065735637711644e+00	 2.384710787993387e+00
 7.873546703325968e-01	 2.073170283352061e+00	 2.398390681746630e+00
 7.680206657977842e-01	 2.080410240338255e+00	 2.412660528466175e+00
 9.634986142312095e-01	 2.007197924269145e+00	 2.301245677130099e+00
 9.444594843525417e-01	 2.016226489651488e+00	 2.307702857501404e+00
 9.253675316150708e-01	 2.025059954854455e+00	 2.316441303394247e+00
 9.062256522575305e-01	 2.033698083854115e+00	 2.327061506565304e+00
 8.870367366022883e-01	 2.042140695962163e+00	 2.339157219303293e+00
 8.678036677833550e-01	 2.050387665433826e+00	 2.352322496443388e+00
 8.485293204925743e-01	 2.058438921042202e+00	 2.366158021077268e+00
 8.292165597449546e-01	 2.066294445619862e+00	 2.380276687401752e+00
 8.098682396640938e-01	 2.073954275568549e+00	 2.394308421312770e+00
 7.904872022885893e-01	 2.081418500337870e+00	 2.407904226449248e+00
 7.710762764002956e-01	 2.088687261873864e+00	 2.420739450372646e+00
 9.673167534624196e-01	 2.015152020961425e+00	 2.294666984279272e+00
 9.482021755781406e-01	 2.024216364620247e+00	 2.301314295844289e+00
 9.290345655093517e-01	 2.033084834959419e+00	 2.311457880052469e+00
 9.098168309719685e-01	 2.041757195019680e+00	 2.324342157745867e+00
 8.905518737420935e-01	 2.050233263396683e+00	 2.339206402537747e+00
 8.712425883789897e-01	 2.058512913847339e+00	 2.355292469527748e+00
 8.518918609662952e-01	 2.066596074862476e+00	 2.371851771122425e+00
 8.325025678724677e-01	 2.074482729206619e+00	 2.388151472051225e+00
 8.130775745313923e-01	 2.082172913425751e+00	 2.403479883075748e+00
 7.936197342440642e-01	 2.089666717323930e+00	 2.417151040230632e+00
 7.741318870022023e-01	 2.096964283409688e+00	 2.428508463655578e+00
 7.435757809640703e-01	 2.014194068067215e+00	 2.353574723684292e+00
 7.248342268985118e-01	 2.021014139864915e+00	 2.375655014525325e+00
 7.060692699719573e-01	 2.027646205539275e+00	 2.399873841273965e+00
 6.872835909877293e-01	 2.034090548863059e+00	 2.424645312867305e+00
 6.684798537193514e-01	 2.040347501804524e+00	 2.448447421024047e+00
 6.496607038978447e-01	 2.046417443866173e+00	 2.469810419682493e+00
 6.308287682241586e-01	 2.052300801400137e+00	 2.487306178608764e+00
 6.119866534072722e-01	 2.057998046901178e+00	 2.499538843079237e+00
 5.931369452284784e-01	 2.063509698278315e+00	 2.505136771181076e+00
 5.742822076323040e-01	 2.068836318106088e+00	 2.502745712460000e+00
 5.554249818444938e-01	 2.073978512856493e+00	 2.491023184434435e+00
 7.466313915689743e-01	 2.022471089599275e+00	 2.359001459123069e+00
 7.278128219621546e-01	 2.029319187435735e+00	 2.382040928817830e+00
 7.089707533238362e-01	 2.035978506566521e+00	 2.407304499951759e+00
 6.901078774736948e-01	 2.042449331930523e+00	 2.433119112789398e+00
 6.712268691316229e-01	 2.048731996860176e+00	 2.457881883970354e+00
 6.523303849008698e-01	 2.054826882417499e+00	 2.480045131058412e+00
 6.334210622764110e-01	 2.060734416706659e+00	 2.498105635411656e+00
 6.145015186790980e-01	 2.066455074164066e+00	 2.510595247495363e+00
 5.955743505160963e-01	 2.071989374827015e+00	 2.516072804798015e+00
 5.766421322680724e-01	 2.077337883581866e+00	 2.513117324502285e+00
 5.577074156035490e-01	 2.082501209392824e+00	 2.500322425676133e+00
 7.496870021738175e-01	 2.030748111131957e+00	 2.365313105150928e+00
 7.307914170258173e-01	 2.037624235007253e+00	 2.388678993637752e+00
 7.118722366758174e-01	 2.044310807594524e+00	 2.414207865868103e+00
 6.929321639598434e-01	 2.050808114998791e+00	 2.440193822428274e+00
 6.739738845441580e-01	 2.057116491916668e+00	 2.465017870809801e+00
 6.550000659042363e-01	 2.063236320969690e+00	 2.487118339486959e+00
 6.360133563290785e-01	 2.069168032014058e+00	 2.504979977861428e+00
 6.170163839514079e-01	 2.074912101427841e+00	 2.517124438365134e+00
 5.980117558042625e-01	 2.080469051376603e+00	 2.522102109521548e+00
 5.790020569044455e-01	 2.085839449058531e+00	 2.518485260553232e+00
 5.599898493632576e-01	 2.091023905930038e+00	 2.504862450550455e+00
 7.527426127785311e-01	 2.039025132665209e+00	 2.372339359177880e+00
 7.337700120894128e-01	 2.045929282579404e+00	 2.395446273381041e+00
 7.147737200277963e-01	 2.052643108623211e+00	 2.420517435169002e+00
 6.957564504460566e-01	 2.059166898067780e+00	 2.445859368423710e+00
 6.767208999568241e-01	 2.065500986973908e+00	 2.469900996067215e+00
 6.576697469077992e-01	 2.071645759522647e+00	 2.491129864860741e+00
 6.386056503820067e-01	 2.077601647322238e+00	 2.508081010756016e+00
 6.195312492240390e-01	 2.083369128692399e+00	 2.519327249474461e+00
 6.004491610928053e-01	 2.088948727926974e+00	 2.523470859776494e+00
 5.813619815412450e-01	 2.094341014535971e+00	 2.519136618456739e+00
 5.622722831234357e-01	 2.099546602468017e+00	 2.504966138332070e+00
 7.557982233830478e-01	 2.047302154198982e+00	 2.379916199950297e+00
 7.367486071528546e-01	 2.054234330152124e+00	 2.402224255347631e+00
 7.176752033796692e-01	 2.060975409652505e+00	 2.426169807705986e+00
 6.985807369322148e-01	 2.067525681137406e+00	 2.450107487591743e+00
 6.794679153694884e-01	 2.073885482031807e+00	 2.472577429125870e+00
 6.603394279114148e-01	 2.080055198076276e+00	 2.492178877185168e+00
 6.411979444350400e-01	 2.086035262631093e+00	 2.507558747005084e+00
 6.220461144968267e-01	 2.091826155957634e+00	 2.517401655441958e+00
 6.028865663815528e-01	 2.097428404478016e+00	 2.520421390039922e+00
 5.837219061782924e-01	 2.102842580014072e+00	 2.515353773397052e+00
 5.645547168838998e-01	 2.108069299006645e+00	 2.500950872351035e+00
 7.588538339872994e-01	 2.055579175733224e+00	 2.387885738329867e+00
 7.397272022160557e-01	 2.062539377725350e+00	 2.408898905145052e+00
 7.205766867313325e-01	 2.069307710682332e+00	 2.431104756915558e+00
 7.014050234181992e-01	 2.075884464207585e+00	 2.452931811272570e+00
 6.822149307820189e-01	 2.082269977090273e+00	 2.473093992794004e+00
 6.630091089149375e-01	 2.088464636630480e+00	 2.490364008873081e+00
 6.437902384880239e-01	 2.094468877940526e+00	 2.503561532923156e+00
 6.245609797696066e-01	 2.100283183223440e+00	 2.511542909043773e+00
 6.053239716703330e-01	 2.105908081029622e+00	 2.513192342995753e+00
 5.860818308154102e-01	 2.111344145492724e+00	 2.507414535448361e+00
 5.668371506444664e-01	 2.116591995545806e+00	 2.493128705272014e+00
 7.619094445912177e-01	 2.063856197267883e+00	 2.396096069247978e+00
 7.427057972789288e-01	 2.070844425299015e+00	 2.415362387832393e+00
 7.234781700826816e-01	 2.077640011712617e+00	 2.435265299928404e+00
 7.042293099038908e-01	 2.084243247278234e+00	 2.454327949438956e+00
 6.849619461942821e-01	 2.090654472149216e+00	 2.471498261172814e+00
 6.656787899182237e-01	 2.096874075185163e+00	 2.485783465897696e+00
 6.463825325408030e-01	 2.102902493250435e+00	 2.496236171959661e+00
 6.270758450422157e-01	 2.108740210489715e+00	 2.501943676581514e+00
 6.077613769589745e-01	 2.114387757581683e+00	 2.502018815371924e+00
 5.884417554524196e-01	 2.119845710971814e+00	 2.495592304485226e+00
 5.691195844049511e-01	 2.125114692085379e+00	 2.481806521457052e+00
 7.649650551947357e-01	 2.072133218802911e+00	 2.404401124802651e+00
 7.456843923413877e-01	 2.079149472873056e+00	 2.421518893298333e+00
 7.263796534336132e-01	 2.085972312743284e+00	 2.438597767902039e+00
 7.070535963891698e-01	 2.092602030349270e+00	 2.454293574571932e+00
 6.877089616061461e-01	 2.099038967208545e+00	 2.467838656845397e+00
 6.683484709211283e-01	 2.105283513740229e+00	 2.478535137835756e+00
 6.489748265932230e-01	 2.111336108560719e+00	 2.485728046909659e+00
 6.295907103144891e-01	 2.117197237756355e+00	 2.488794171348059e+00
 6.101987822473055e-01	 2.122867434134090e+00	 2.487132501524935e+00
 5.908016800891424e-01	 2.128347276451228e+00	 2.480156222527702e+00
 5.714020181651709e-01	 2.133637388625251e+00	 2.467286196493488e+00
 7.680206657977842e-01	 2.080410240338255e+00	 2.412660528466175e+00
 7.486629874033452e-01	 2.087454520447410e+00	 2.427276642966435e+00
 7.292811367840235e-01	 2.094304613774259e+00	 2.441051876570524e+00
 7.098778828739182e-01	 2.100960813420608e+00	 2.452828505310200e+00
 6.904559770174782e-01	 2.107423462268170e+00	 2.462164547405552e+00
 6.710181519235073e-01	 2.113692952295582e+00	 2.468716706831799e+00
 6.515671206451283e-01	 2.119769723871279e+00	 2.472181240647510e+00
 6.321055755862635e-01	 2.125654265023253e+00	 2.472282285244196e+00
 6.126361875351543e-01	 2.131347110686737e+00	 2.468761834834501e+00
 5.931616047254004e-01	 2.136848841930856e+00	 2.461371323592561e+00
 5.736844519249419e-01	 2.142160085165303e+00	 2.449864753965934e+00
 7.710762764002956e-01	 2.088687261873864e+00	 2.420739450372646e+00
 7.516415824647140e-01	 2.095759568022009e+00	 2.432548411522720e+00
 7.321826201338077e-01	 2.102636914805464e+00	 2.442580797005345e+00
 7.127021693580159e-01	 2.109319596492163e+00	 2.449934789879516e+00
 6.932029924281451e-01	 2.115807957328000e+00	 2.454526341344778e+00
 6.736878329252156e-01	 2.122102390851125e+00	 2.456425755513492e+00
 6.541594146963646e-01	 2.128203339182012e+00	 2.455738655424474e+00
 6.346204408573745e-01	 2.134111292290305e+00	 2.452593718597384e+00
 6.150735928223491e-01	 2.139826787239513e+00	 2.447132126969061e+00
 5.955215293610149e-01	 2.145350407410582e+00	 2.439498681119788e+00
 5.759668856840803e-01	 2.150682781705418e+00	 2.429834519548772e+00
 7.741318870022023e-01	 2.096964283409688e+00	 2.428508463655578e+00
 7.546201775254084e-01	 2.104064615596794e+00	 2.437251663346568e+00
 7.350841034828635e-01	 2.110969215836829e+00	 2.443141226581529e+00
 7.155264558413447e-01	 2.117678379563855e+00	 2.445616789308163e+00
 6.959500078380153e-01	 2.124192452387945e+00	 2.444975583315149e+00
 6.763575139261093e-01	 2.130511829406764e+00	 2.441759873886930e+00
 6.567517087467765e-01	 2.136636954492820e+00	 2.436542130769931e+00
 6.371353061276586e-01	 2.142568319557409e+00	 2.429912108232315e+00
 6.175109981087186e-01	 2.148306463792312e+00	 2.422465705080957e+00
 5.978814539958085e-01	 2.153851972890297e+00	 2.414795553041373e+00
 5.782493194424027e-01	 2.159205478245480e+00	 2.407483272493227e+00
 5.554249818444938e-01	 2.073978512856493e+00	 2.491023184434435e+00
 5.365677857747290e-01	 2.078936932563052e+00	 2.472202429713359e+00
 5.177131139377212e-01	 2.083712271364324e+00	 2.450447426967084e+00
 4.988634358408005e-01	 2.088305265324173e+00	 2.427312188029406e+00
 4.800211949505416e-01	 2.092716691142881e+00	 2.404339358849628e+00
 4.611888079513155e-01	 2.096947365305516e+00	 2.383056218770627e+00
 4.423686640326468e-01	 2.100998143217203e+00	 2.364971588794939e+00
 4.235631242055150e-01	 2.104869918326305e+00	 2.351573576348992e+00
 4.047745206477009e-01	 2.108563621236568e+00	 2.344328081830608e+00
 3.860051560782379e-01	 2.112080218809191e+00	 2.344677990630422e+00
 3.672573031609927e-01	 2.115420713255858e+00	 2.354041438174469e+00
 5.577074156035490e-01	 2.082501209392824e+00	 2.500322425676133e+00
 5.387727287791739e-01	 2.087480004964628e+00	 2.480021911328059e+00
 5.198405765604912e-01	 2.092274967288285e+00	 2.456558836177086e+00
 5.009134386029001e-01	 2.096886835452392e+00	 2.431540199227227e+00
 4.819937684140340e-01	 2.101316389348949e+00	 2.406557659762675e+00
 4.630839926092659e-01	 2.105564448818237e+00	 2.383183687806135e+00
 4.441865101961348e-01	 2.109631872780525e+00	 2.362968652062125e+00
 4.253036918878415e-01	 2.113519558355659e+00	 2.347438770169801e+00
 4.064378794458997e-01	 2.117228439971545e+00	 2.338094843819306e+00
 3.875913850520212e-01	 2.120759488462540e+00	 2.336411699663254e+00
 3.687664907092441e-01	 2.124113710158760e+00	 2.343837965648419e+00
 5.599898493632576e-01	 2.091023905930038e+00	 2.504862450550455e+00
 5.409776717843121e-01	 2.096023077367081e+00	 2.483667288567807e+00
 5.219680391839850e-01	 2.100837663213118e+00	 2.459342302153840e+00
 5.029634413657452e-01	 2.105468405581474e+00	 2.433486672650146e+00
 4.839663418782852e-01	 2.109916087555875e+00	 2.407679707926450e+00
 4.649791772679783e-01	 2.114181532331809e+00	 2.383477238737451e+00
 4.460043563603800e-01	 2.118265602344693e+00	 2.362408980389482e+00
 4.270442595709101e-01	 2.122169198385853e+00	 2.345976781688471e+00
 4.081012382448178e-01	 2.125893258707358e+00	 2.335653680828794e+00
 3.891776140264916e-01	 2.129438758116725e+00	 2.332883686237121e+00
 3.702756782581408e-01	 2.132806707062494e+00	 2.339082198378459e+00
 5.622722831234357e-01	 2.099546602468017e+00	 2.504966138332070e+00
 5.431826147899550e-01	 2.104566149770289e+00	 2.483487860748564e+00
 5.240955018080113e-01	 2.109400359138693e+00	 2.459160927193386e+00
 5.050134441291421e-01	 2.114049975711286e+00	 2.433516619229757e+00
 4.859389153430992e-01	 2.118515785763518e+00	 2.408061248957609e+00
 4.668743619272572e-01	 2.122798615846085e+00	 2.384272895621117e+00
 4.478222025251871e-01	 2.126899331909553e+00	 2.363599134699586e+00
 4.287848272545282e-01	 2.130818838416728e+00	 2.347455678431881e+00
 4.097645970442639e-01	 2.134558077443845e+00	 2.337225844375673e+00
 3.907638430014616e-01	 2.138118027771578e+00	 2.334260766938769e+00
 3.717848658075005e-01	 2.141499703966896e+00	 2.339880265821380e+00
 5.645547168838998e-01	 2.108069299006645e+00	 2.500950872351035e+00
 5.453875577959152e-01	 2.113109222174130e+00	 2.479826835114667e+00
 5.262229644323784e-01	 2.117963055064880e+00	 2.456371354560558e+00
 5.070634468928970e-01	 2.122631545841692e+00	 2.431988440615561e+00
 4.879114888082811e-01	 2.127115483971733e+00	 2.408051473101388e+00
 4.687695465869067e-01	 2.131415699360915e+00	 2.385900372590693e+00
 4.496400486903603e-01	 2.135533061474950e+00	 2.366839790289531e+00
 4.305253949385014e-01	 2.139468478448124e+00	 2.352138232706166e+00
 4.114279558440475e-01	 2.143222896180841e+00	 2.343028034484420e+00
 3.923500719767436e-01	 2.146797297426934e+00	 2.340706091102148e+00
 3.732940533571398e-01	 2.150192700871797e+00	 2.346335262141750e+00
 5.668371506444664e-01	 2.116591995545806e+00	 2.493128705272014e+00
 5.475925008020039e-01	 2.121652294578479e+00	 2.473021496814923e+00
 5.283504270568947e-01	 2.126525750991552e+00	 2.451323939076525e+00
 5.091134496568157e-01	 2.131213115972555e+00	 2.429254096532032e+00
 4.898840622736351e-01	 2.135715182180379e+00	 2.407993175759856e+00
 4.706647312467312e-01	 2.140032782876150e+00	 2.388683224201370e+00
 4.514578948557051e-01	 2.144166791040728e+00	 2.372425873880306e+00
 4.322659626226364e-01	 2.148118118479883e+00	 2.360282042482006e+00
 4.130913146439771e-01	 2.151887714918184e+00	 2.353272501782062e+00
 3.939363009521499e-01	 2.155476567082625e+00	 2.352379221727450e+00
 3.748032409068762e-01	 2.158885697777032e+00	 2.358547397489417e+00
 5.691195844049511e-01	 2.125114692085379e+00	 2.481806521457052e+00
 5.497974438080334e-01	 2.130195366983215e+00	 2.463403375762286e+00
 5.304778896813690e-01	 2.135088446918580e+00	 2.444362914492571e+00
 5.111634524207040e-01	 2.139794686103742e+00	 2.425659268921347e+00
 4.918566357389663e-01	 2.144314880389316e+00	 2.408222914896117e+00
 4.725599159065345e-01	 2.148649866391642e+00	 2.392938992825701e+00
 4.532757410210260e-01	 2.152800520606734e+00	 2.380646697971482e+00
 4.340065303067395e-01	 2.156767758511844e+00	 2.372139649912647e+00
 4.147546734438620e-01	 2.160552533655709e+00	 2.368167147620175e+00
 3.955225299274938e-01	 2.164155836738488e+00	 2.369436214883359e+00
 3.763124284565266e-01	 2.167578694682433e+00	 2.376614339864088e+00
 5.714020181651709e-01	 2.133637388625251e+00	 2.467286196493488e+00
 5.520023868138153e-01	 2.138738439388215e+00	 2.451298410464278e+00
 5.326053523056095e-01	 2.143651142845835e+00	 2.435826557740024e+00
 5.132134551843687e-01	 2.148376256235116e+00	 2.421543522961667e+00
 4.938292092040790e-01	 2.152914578598399e+00	 2.409071165401746e+00
 4.744551005661213e-01	 2.157266949907243e+00	 2.398979353182898e+00
 4.550935871861274e-01	 2.161434250172813e+00	 2.391786092576605e+00
 4.357470979906173e-01	 2.165417398543849e+00	 2.387958657550834e+00
 4.164180322435109e-01	 2.169217352393255e+00	 2.387915622279367e+00
 3.971087589025871e-01	 2.172835106394356e+00	 2.392029697635000e+00
 3.778216160059087e-01	 2.176271691587835e+00	 2.400631271740103e+00
 5.736844519249419e-01	 2.142160085165303e+00	 2.449864753965934e+00
 5.542073298191618e-01	 2.147281511793357e+00	 2.437027108908529e+00
 5.347328149294247e-01	 2.152213838773188e+00	 2.426047350143284e+00
 5.152634579476149e-01	 2.156957826366540e+00	 2.417240465047951e+00
 4.958017826687779e-01	 2.161514276807488e+00	 2.410862470512083e+00
 4.763502852252953e-01	 2.165884033422805e+00	 2.407110254081541e+00
 4.569114333508149e-01	 2.170067979738812e+00	 2.406122534412287e+00
 4.374876656740759e-01	 2.174067038575736e+00	 2.407981842328724e+00
 4.180813910427328e-01	 2.177882171130657e+00	 2.412717421309607e+00
 3.986949878772429e-01	 2.181514376050062e+00	 2.420308944538524e+00
 3.793308035548391e-01	 2.184964688493071e+00	 2.430690944732671e+00
 5.759668856840803e-01	 2.150682781705418e+00	 2.429834519548772e+00
 5.564122728238846e-01	 2.155824584198517e+00	 2.420904706585091e+00
 5.368602775526230e-01	 2.160776534700510e+00	 2.415352135680210e+00
 5.173134607102493e-01	 2.165539396497882e+00	 2.413077897819609e+00
 4.977743561328677e-01	 2.170113975016440e+00	 2.413915590351280e+00
 4.782454698838611e-01	 2.174501116938178e+00	 2.417632057452975e+00
 4.587292795148928e-01	 2.178701709304576e+00	 2.423929273611493e+00
 4.392282333569216e-01	 2.182716678607349e+00	 2.432447267362891e+00
 4.197447498413371e-01	 2.186546989867752e+00	 2.442767980058195e+00
 4.002812168512736e-01	 2.190193645705442e+00	 2.454419952742269e+00
 3.808399911031353e-01	 2.193657685397974e+00	 2.466883733340404e+00
 5.782493194424027e-01	 2.159205478245480e+00	 2.407483272493227e+00
 5.586172158277957e-01	 2.164367656603575e+00	 2.403241321724664e+00
 5.389877401750129e-01	 2.169339230627673e+00	 2.404062276371457e+00
 5.193634634720780e-01	 2.174120966629006e+00	 2.409377972316554e+00
 4.997469295961534e-01	 2.178713673225113e+00	 2.418543647686347e+00
 4.801406545416229e-01	 2.183118200453216e+00	 2.430839674750291e+00
 4.605471256781661e-01	 2.187335438869950e+00	 2.445474458029627e+00
 4.409688010389614e-01	 2.191366318638528e+00	 2.461588391644457e+00
 4.214081086391326e-01	 2.195211808604377e+00	 2.478258766435346e+00
 4.018674458244917e-01	 2.198872915360329e+00	 2.494505515732779e+00
 3.823491786506145e-01	 2.202350682302378e+00	 2.509297687789673e+00
 3.672573031609927e-01	 2.115420713255858e+00	 2.354041438174469e+00
 3.485300236178633e-01	 2.118586664291156e+00	 2.368255652653254e+00
 3.298287227551172e-01	 2.121578558452605e+00	 2.381811408061269e+00
 3.111555856978455e-01	 2.124397497505492e+00	 2.394042448519640e+00
 2.925127652964016e-01	 2.127044614912394e+00	 2.404302728316079e+00
 2.739023816741177e-01	 2.129521074894057e+00	 2.411969476777376e+00
 2.553265218037148e-01	 2.131828071486968e+00	 2.416445100253562e+00
 2.367872391122023e-01	 2.133966827598550e+00	 2.417158058571627e+00
 2.182865531140267e-01	 2.135938594060838e+00	 2.413562850343632e+00
 1.998264490722119e-01	 2.137744648683531e+00	 2.405139237851052e+00
 1.814088776871944e-01	 2.139386295307245e+00	 2.391390837936572e+00
 3.687664907092441e-01	 2.124113710158760e+00	 2.343837965648419e+00
 3.499622542837598e-01	 2.127292671184187e+00	 2.356244156374952e+00
 3.311841032941045e-01	 2.130296860075696e+00	 2.368129019503210e+00
 3.124342318447953e-01	 2.133127383126118e+00	 2.378863366886974e+00
 2.937148016329827e-01	 2.135785378455830e+00	 2.387843143460886e+00
 2.750279414943093e-01	 2.138272015069765e+00	 2.394491945049509e+00
 2.563757469775800e-01	 2.140588491911129e+00	 2.398262358417144e+00
 2.377602799480368e-01	 2.142736036912699e+00	 2.398636265334174e+00
 2.191835682190007e-01	 2.144715906046622e+00	 2.395124249309200e+00
 2.006476052116190e-01	 2.146529382373564e+00	 2.387264239803082e+00
 1.821543496424223e-01	 2.148177775092080e+00	 2.374619524266366e+00
 3.702756782581408e-01	 2.132806707062494e+00	 2.339082198378459e+00
 3.513944849502517e-01	 2.135998678078050e+00	 2.350114192533400e+00
 3.325394838336322e-01	 2.139015161699623e+00	 2.360523734484427e+00
 3.137128779922275e-01	 2.141857268747582e+00	 2.369749900821996e+00
 2.949168379699886e-01	 2.144526142000098e+00	 2.377262451290569e+00
 2.761535013148728e-01	 2.147022955246298e+00	 2.382563731377322e+00
 2.574249721517711e-01	 2.149348912336103e+00	 2.385189382800515e+00
 2.387333207841614e-01	 2.151505246227644e+00	 2.384708008246430e+00
 2.200805833242426e-01	 2.153493218033174e+00	 2.380719933416276e+00
 2.014687613512880e-01	 2.155314116064326e+00	 2.372855205434422e+00
 1.828998215979255e-01	 2.156969254877594e+00	 2.360770962002976e+00
 3.717848658075005e-01	 2.141499703966896e+00	 2.339880265821380e+00
 3.528267156171620e-01	 2.144704684972582e+00	 2.349912677087154e+00
 3.338948643735288e-01	 2.147733463324223e+00	 2.358993113699492e+00
 3.149915241399771e-01	 2.150587154369724e+00	 2.366659760627460e+00
 2.961188743072615e-01	 2.153266905545051e+00	 2.372487706883814e+00
 2.772790611356556e-01	 2.155773895423519e+00	 2.376090121414637e+00
 2.584741973261407e-01	 2.158109332761764e+00	 2.377118266284118e+00
 2.397063616204330e-01	 2.160274455543267e+00	 2.375260455024017e+00
 2.209775984296113e-01	 2.162270530020390e+00	 2.370240103770831e+00
 2.022899174910786e-01	 2.164098849755733e+00	 2.361813018619257e+00
 1.836452935535623e-01	 2.165760734663722e+00	 2.349764057754939e+00
 3.732940533571398e-01	 2.150192700871797e+00	 2.346335262141750e+00
 3.542589462843137e-01	 2.153410691867619e+00	 2.355684921823722e+00
 3.352502449136233e-01	 2.156451764949333e+00	 2.363534049735503e+00
 3.162701702878793e-01	 2.159317039992388e+00	 2.369550744960114e+00
 2.973209106446425e-01	 2.162007669090537e+00	 2.373446638314540e+00
 2.784046209565056e-01	 2.164524835601285e+00	 2.374977494474875e+00
 2.595234225005417e-01	 2.166869753187978e+00	 2.373942459989614e+00
 2.406794024567081e-01	 2.169043664859453e+00	 2.370182248057528e+00
 2.218746135349662e-01	 2.171047842008172e+00	 2.363576412405237e+00
 2.031110736308507e-01	 2.172883583447700e+00	 2.354039858213567e+00
 1.843907655091911e-01	 2.174552214450399e+00	 2.341518732969432e+00
 3.748032409068762e-01	 2.158885697777032e+00	 2.358547397489417e+00
 3.556911769515290e-01	 2.162116698762993e+00	 2.367474654628187e+00
 3.366056254537447e-01	 2.165170066574794e+00	 2.374142770861525e+00
 3.175488164357699e-01	 2.168046925615417e+00	 2.378380731341169e+00
 2.985229469819736e-01	 2.170748432636406e+00	 2.380067626965319e+00
 2.795301807772702e-01	 2.173275775779456e+00	 2.379133296610193e+00
 2.605726476748265e-01	 2.175630173614619e+00	 2.375556741968058e+00
 2.416524432928432e-01	 2.177812874176085e+00	 2.369363471433135e+00
 2.227716286401662e-01	 2.179825153996416e+00	 2.360621930234395e+00
 2.039322297704642e-01	 2.181668317140143e+00	 2.349439169429434e+00
 1.851362374646701e-01	 2.183343694237561e+00	 2.335955901086610e+00
 3.763124284565266e-01	 2.167578694682433e+00	 2.376614339864089e+00
 3.571234076186307e-01	 2.170822705658540e+00	 2.385324039241058e+00
 3.379610059937216e-01	 2.173888368200441e+00	 2.390814844718960e+00
 3.188274625834839e-01	 2.176776811238652e+00	 2.393107666899581e+00
 2.997249833190964e-01	 2.179489196182509e+00	 2.392279688328543e+00
 2.806557405977968e-01	 2.182026715957890e+00	 2.388466014359609e+00
 2.616218728488479e-01	 2.184390594041556e+00	 2.381857186667661e+00
 2.426254841286951e-01	 2.186582083493045e+00	 2.372695618775867e+00
 2.236686437450708e-01	 2.188602465985022e+00	 2.361271115813369e+00
 2.047533859097785e-01	 2.190453050832980e+00	 2.347915635928369e+00
 1.858817094198578e-01	 2.192135174025141e+00	 2.332997445272461e+00
 3.778216160059087e-01	 2.176271691587835e+00	 2.400631271740104e+00
 3.585556382854418e-01	 2.179528712554094e+00	 2.409273694519714e+00
 3.393163865333830e-01	 2.182606669826111e+00	 2.413545181915735e+00
 3.201061087308567e-01	 2.185506696861939e+00	 2.413689559341679e+00
 3.009270196558527e-01	 2.188229959728696e+00	 2.410012453281736e+00
 2.817813004179333e-01	 2.190777656136448e+00	 2.402885149147410e+00
 2.626710980224587e-01	 2.193151014468659e+00	 2.392741135159320e+00
 2.435985249641205e-01	 2.195351292810219e+00	 2.380071561892610e+00
 2.245656588495387e-01	 2.197379777973890e+00	 2.365419784874029e+00
 2.055745420486539e-01	 2.199237784526123e+00	 2.349375152613526e+00
 1.866271813746121e-01	 2.200926653813077e+00	 2.332566196713998e+00
 3.793308035548391e-01	 2.184964688493071e+00	 2.430690944732671e+00
 3.599878689517845e-01	 2.188234719449488e+00	 2.439362713217200e+00
 3.406717670725579e-01	 2.191324971451645e+00	 2.442328039526948e+00
 3.213847548777234e-01	 2.194236582485119e+00	 2.440084468140730e+00
 3.021290559920838e-01	 2.196970723274818e+00	 2.433196149823784e+00
 2.829068602375269e-01	 2.199528596314987e+00	 2.422301192313745e+00
 2.637203231955114e-01	 2.201911434895801e+00	 2.408107166098908e+00
 2.445715657989760e-01	 2.204120502127490e+00	 2.391385520192529e+00
 2.254626739534294e-01	 2.206157089962917e+00	 2.372965080619065e+00
 2.063956981869499e-01	 2.208022518219492e+00	 2.353724799101419e+00
 1.873726533287917e-01	 2.209718133601299e+00	 2.334585913461128e+00
 3.808399911031353e-01	 2.193657685397974e+00	 2.466883733340404e+00
 3.614200996174822e-01	 2.196940726344560e+00	 2.475628680291852e+00
 3.420271476110751e-01	 2.200043273076879e+00	 2.477157024504533e+00
 3.226634010239198e-01	 2.202966468108035e+00	 2.472250495940449e+00
 3.033310923276318e-01	 2.205711486820724e+00	 2.461761585259306e+00
 2.840324200564257e-01	 2.208279536493369e+00	 2.446625600759834e+00
 2.647695483678589e-01	 2.210671855322849e+00	 2.427855067405720e+00
 2.455446066331181e-01	 2.212889711444741e+00	 2.406533030863348e+00
 2.263596890566018e-01	 2.214934401952002e+00	 2.383805444752379e+00
 2.072168543245263e-01	 2.216807251913000e+00	 2.360872813854163e+00
 1.881181252822547e-01	 2.218509613389748e+00	 2.338981259800016e+00
 3.823491786506145e-01	 2.202350682302378e+00	 2.509297687789673e+00
 3.628523302823573e-01	 2.205646733239143e+00	 2.518107690760594e+00
 3.433825281487635e-01	 2.208761574701650e+00	 2.518025096998539e+00
 3.239420471692807e-01	 2.211696353730531e+00	 2.510145780166459e+00
 3.045331286623382e-01	 2.214452250366265e+00	 2.495640128818799e+00
 2.851579798744769e-01	 2.217030476671454e+00	 2.475770773190882e+00
 2.658187735393538e-01	 2.219432275749678e+00	 2.451885808637483e+00
 2.465176474664039e-01	 2.221658920761856e+00	 2.425410919782623e+00
 2.272567041589152e-01	 2.223711713941045e+00	 2.397834604202891e+00
 2.080380104612432e-01	 2.225591985606564e+00	 2.370705176308174e+00
 1.888635972348596e-01	 2.227301093178355e+00	 2.345638721340921e+00
 1.814088776871944e-01	 2.139386295307245e+00	 2.391390837936572e+00
 1.630388668134021e-01	 2.140864625246658e+00	 2.375942442411487e+00
 1.447151263019822e-01	 2.142181283527937e+00	 2.362582952652313e+00
 1.264394588533794e-01	 2.143337645286587e+00	 2.351100225823314e+00
 1.082136327957438e-01	 2.144335107886604e+00	 2.341296450146784e+00
 9.003938190143806e-02	 2.145175090000602e+00	 2.332984608754799e+00
 7.191840522812755e-02	 2.145859030694298e+00	 2.325984971147735e+00
 5.385236698404491e-02	 2.146388388516030e+00	 2.320121696600884e+00
 3.584289641700417e-02	 2.146764640591973e+00	 2.315219626762355e+00
 1.789158772672358e-02	 2.146989281727696e+00	 2.311101337506069e+00
 0.000000000000000e+00	 2.147063823516666e+00	 2.307584512836389e+00
 1.821543496424223e-01	 2.148177775092080e+00	 2.374619524266365e+00
 1.637088500270271e-01	 2.149662180001442e+00	 2.360885619169294e+00
 1.453098109149132e-01	 2.150984248887804e+00	 2.349739304112256e+00
 1.269590424144496e-01	 2.152145362537580e+00	 2.340756029800069e+00
 1.086583201204632e-01	 2.153146924057020e+00	 2.333528187954283e+00
 9.040938492999151e-02	 2.153990357948556e+00	 2.327661309855574e+00
 7.221394288272016e-02	 2.154677109191527e+00	 2.322770302531838e+00
 5.407366502569354e-02	 2.155208642327952e+00	 2.318475809217743e+00
 3.599018730187295e-02	 2.155586440554033e+00	 2.314400773398121e+00
 1.796511046209908e-02	 2.155812004818010e+00	 2.310167278352186e+00
 0.000000000000000e+00	 2.155886852925016e+00	 2.305393726634403e+00
 1.828998215979255e-01	 2.156969254877594e+00	 2.360770962002976e+00
 1.643788332409611e-01	 2.158459734756845e+00	 2.348254000955148e+00
 1.459044955281991e-01	 2.159787214248219e+00	 2.338867789674573e+00
 1.274786259759230e-01	 2.160953079789044e+00	 2.331976885721460e+00
 1.091030074456266e-01	 2.161958740227829e+00	 2.326964804424391e+00
 9.077938795901273e-02	 2.162805625896829e+00	 2.323229952121041e+00
 7.250948053777760e-02	 2.163495187689005e+00	 2.320181608031745e+00
 5.429496306776798e-02	 2.164028896140064e+00	 2.317236043693937e+00
 3.613747818708313e-02	 2.164408240516233e+00	 2.313812861351705e+00
 1.803863319767704e-02	 2.164634727908436e+00	 2.309331625078928e+00
 0.000000000000000e+00	 2.164709882333466e+00	 2.303208850714578e+00
 1.836452935535623e-01	 2.165760734663722e+00	 2.349764057754939e+00
 1.650488164550587e-01	 2.167257289512821e+00	 2.337984060500547e+00
 1.464991801416902e-01	 2.168590179609160e+00	 2.329914495884426e+00
 1.279982095376468e-01	 2.169760797040981e+00	 2.324710675015139e+00
 1.095476947710809e-01	 2.170770556399055e+00	 2.321548293568799e+00
 9.114939098835277e-02	 2.171620893845462e+00	 2.319619099280974e+00
 7.280501819316147e-02	 2.172313266186795e+00	 2.318126620020006e+00
 5.451626111014831e-02	 2.172849149952441e+00	 2.316282043690528e+00
 3.628476907254295e-02	 2.173230040478665e+00	 2.313300333457152e+00
 1.811215593340515e-02	 2.173457450999069e+00	 2.308396653936965e+00
 0.000000000000000e+00	 2.173532911742116e+00	 2.300783176086616e+00
 1.843907655091911e-01	 2.174552214450399e+00	 2.341518732969432e+00
 1.657187996691746e-01	 2.176054844269327e+00	 2.330013010105328e+00
 1.470938647552370e-01	 2.177393144970603e+00	 2.322826102651240e+00
 1.285177930994681e-01	 2.178568514293390e+00	 2.318905856126967e+00
 1.099923820966728e-01	 2.179582372570720e+00	 2.317221340633366e+00
 9.151939401786265e-02	 2.180436161794501e+00	 2.316758251691251e+00
 7.310055584873329e-02	 2.181131344684955e+00	 2.316514384584881e+00
 5.473755915271462e-02	 2.181669403765163e+00	 2.315495275799234e+00
 3.643205995816066e-02	 2.182051840441418e+00	 2.312710097151259e+00
 1.818567866923106e-02	 2.182280174090007e+00	 2.307167880143570e+00
 0.000000000000000e+00	 2.182355941151066e+00	 2.297874139918434e+00
 1.851362374646701e-01	 2.183343694237561e+00	 2.335955901086610e+00
 1.663887828831636e-01	 2.184852399026318e+00	 2.324278784375515e+00
 1.476885493686899e-01	 2.186196110332526e+00	 2.317549868913046e+00
 1.290373766612340e-01	 2.187376231546269e+00	 2.314511450478490e+00
 1.104370694222492e-01	 2.188394188742845e+00	 2.313927305740406e+00
 9.188939704739348e-02	 2.189251429743987e+00	 2.314577825078801e+00
 7.339609350435468e-02	 2.189949423183549e+00	 2.315255232823286e+00
 5.495885719534697e-02	 2.190489657578305e+00	 2.314758990857215e+00
 3.657935084384444e-02	 2.190873640404580e+00	 2.311891473313745e+00
 1.825920140510245e-02	 2.191102897181349e+00	 2.305453991782352e+00
 0.000000000000000e+00	 2.191178970560415e+00	 2.294243242061352e+00
 1.858817094198578e-01	 2.192135174025141e+00	 2.332997445272461e+00
 1.670587660968802e-01	 2.193649953783749e+00	 2.320720023402881e+00
 1.482832339818991e-01	 2.194999075694908e+00	 2.314033618668984e+00
 1.295569602227919e-01	 2.196183948799623e+00	 2.311477028781955e+00
 1.108817567476570e-01	 2.197206004915452e+00	 2.311610207940325e+00
 9.225940007679623e-02	 2.198066697693962e+00	 2.313009129809876e+00
 7.369163115988717e-02	 2.198767501682638e+00	 2.314260752832659e+00
 5.518015523792547e-02	 2.199309911391945e+00	 2.313958186197644e+00
 3.672664172950261e-02	 2.199695440368243e+00	 2.310696146340790e+00
 1.833272414096701e-02	 2.199925620273190e+00	 2.303066785294170e+00
 0.000000000000000e+00	 2.200001999970266e+00	 2.289655963583848e+00
 1.866271813746121e-01	 2.200926653813077e+00	 2.332566196713998e+00
 1.677287493101792e-01	 2.202447508541578e+00	 2.319276056373945e+00
 1.488779185947151e-01	 2.203802041057728e+00	 2.312225727369744e+00
 1.300765437839888e-01	 2.204991666053447e+00	 2.309752697702826e+00
 1.113264440727428e-01	 2.206017821088564e+00	 2.310214709661192e+00
 9.262940310592198e-02	 2.206881965644472e+00	 2.311984350666989e+00
 7.398716881519238e-02	 2.207585580182284e+00	 2.313443762382212e+00
 5.540145328033015e-02	 2.208130165206159e+00	 2.312979568809905e+00
 3.687393261504335e-02	 2.208517240332494e+00	 2.308978115417427e+00
 1.840624687677240e-02	 2.208748343365628e+00	 2.299821102514694e+00
 0.000000000000000e+00	 2.208825029380716e+00	 2.283881687257831e+00
 1.873726533287917e-01	 2.209718133601299e+00	 2.334585913461128e+00
 1.683987325229153e-01	 2.211245063299761e+00	 2.319886885596403e+00
 1.494726032069882e-01	 2.212605006420961e+00	 2.312075108655937e+00
 1.305961273446718e-01	 2.213799383307746e+00	 2.309289086860211e+00
 1.117711313973535e-01	 2.214829637262203e+00	 2.309686101545122e+00
 9.299940613462176e-02	 2.215697233595556e+00	 2.311436527120344e+00
 7.428270647013184e-02	 2.216403658682547e+00	 2.312718282244681e+00
 5.562275132244118e-02	 2.216950419021026e+00	 2.311711519384048e+00
 3.702122350037491e-02	 2.217339040297422e+00	 2.306593646955456e+00
 1.847976961246629e-02	 2.217571066458761e+00	 2.295534769215587e+00
 0.000000000000000e+00	 2.217648058791865e+00	 2.276693619942932e+00
 1.881181252822547e-01	 2.218509613389748e+00	 2.338981259800016e+00
 1.690687157349431e-01	 2.220042618058251e+00	 2.322493170931438e+00
 1.500672878185688e-01	 2.221407971784588e+00	 2.313531201434797e+00
 1.311157109046882e-01	 2.222607100562518e+00	 2.310037269637608e+00
 1.122158187213360e-01	 2.223641453436392e+00	 2.309969808217322e+00
 9.336940916274668e-02	 2.224512501547260e+00	 2.311298333947234e+00
 7.457824412456718e-02	 2.225221737183489e+00	 2.311995955144500e+00
 5.584404936413859e-02	 2.225770672836623e+00	 2.310034558626613e+00
 3.716851438540554e-02	 2.226160840263118e+00	 2.303380656052385e+00
 1.855329234799637e-02	 2.226393789552686e+00	 2.289991462116225e+00
 0.000000000000000e+00	 2.226471088203815e+00	 2.267811181261773e+00
 1.888635972348596e-01	 2.227301093178355e+00	 2.345638721340921e+00
 1.697386989461173e-01	 2.228840172817007e+00	 2.326990689093684e+00
 1.506619724293075e-01	 2.230210937148586e+00	 2.316502391113149e+00
 1.316352944638852e-01	 2.231414817817765e+00	 2.311917762201043e+00
 1.126605060445370e-01	 2.232453269611154e+00	 2.310990853364923e+00
 9.373941219014767e-02	 2.233327769499624e+00	 2.311481222773097e+00
 7.487378177835993e-02	 2.234039815685173e+00	 2.311149631761750e+00
 5.606534740530249e-02	 2.234590926653027e+00	 2.307754016426104e+00
 3.731580527004347e-02	 2.234982640229672e+00	 2.299045707004042e+00
 1.862681508331029e-02	 2.235216512647499e+00	 2.282765869018668e+00
 0.000000000000000e+00	 2.235294117616666e+00	 2.256642141930662e+00
 2.235294117616666e+00	 0.000000000000000e+00	 2.067440048519669e+00
 2.235216512647500e+00	 1.862681508330905e-02	 2.712129436815746e+00
 2.234982640229673e+00	 3.731580527004243e-02	 3.148843518351677e+00
 2.234590926653027e+00	 5.606534740530161e-02	 3.406506828504403e+00
 2.234039815685173e+00	 7.487378177835924e-02	 3.513247077038458e+00
 2.233327769499625e+00	 9.373941219014720e-02	 3.496332450771197e+00
 2.232453269611153e+00	 1.126605060445367e-01	 3.382111131331144e+00
 2.231414817817765e+00	 1.316352944638850e-01	 3.195953149484039e+00
 2.230210937148586e+00	 1.506619724293075e-01	 2.962194703380851e+00
 2.228840172817007e+00	 1.697386989461175e-01	 2.704085082392007e+00
 2.227301093178355e+00	 1.888635972348596e-01	 2.443736354456298e+00
 2.244117147030466e+00	 0.000000000000000e+00	 2.331758287118924e+00
 2.244039235743250e+00	 1.870033781837215e-02	 2.755132029519509e+00
 2.243804440197124e+00	 3.746309615422733e-02	 3.057414758717963e+00
 2.243411180470269e+00	 5.628664544585382e-02	 3.253765442406869e+00
 2.242857894187618e+00	 7.516931943142009e-02	 3.358247964633391e+00
 2.242143037452658e+00	 9.410941521672932e-02	 3.383779704199966e+00
 2.241265085786478e+00	 1.131051933668598e-01	 3.342082921747239e+00
 2.240222535073461e+00	 1.321548780221675e-01	 3.243639069436730e+00
 2.239013902512914e+00	 1.512566570391123e-01	 3.097646142269228e+00
 2.237637727575971e+00	 1.704086821563503e-01	 2.911979203563659e+00
 2.236092572967051e+00	 1.896090691865214e-01	 2.693154232616572e+00
 2.252940176445066e+00	 0.000000000000000e+00	 2.522803331664601e+00
 2.252861958839785e+00	 1.877386055322048e-02	 2.769456990146192e+00
 2.252626240165328e+00	 3.761038703802465e-02	 2.966971221727482e+00
 2.252231434288208e+00	 5.650794348588324e-02	 3.118763716913398e+00
 2.251675972690686e+00	 7.546485708385607e-02	 3.226947091446638e+00
 2.250958305406227e+00	 9.447941824261315e-02	 3.292288358063288e+00
 2.250076901962240e+00	 1.135498806884351e-01	 3.314171676386797e+00
 2.249030252329490e+00	 1.326744615796722e-01	 3.290564484225762e+00
 2.247816867877463e+00	 1.518513416481237e-01	 3.217987118042676e+00
 2.246435282335047e+00	 1.710786653657839e-01	 3.091486043179700e+00
 2.244884052755747e+00	 1.903545411373832e-01	 2.904610829315848e+00
 2.261763205860265e+00	 0.000000000000000e+00	 2.652007237997652e+00
 2.261684681936913e+00	 1.884738328790770e-02	 2.761497021156696e+00
 2.261448040134089e+00	 3.775767792153130e-02	 2.879714860189660e+00
 2.261051688106653e+00	 5.672924152552061e-02	 3.000337958492460e+00
 2.260494051194197e+00	 7.576039473582347e-02	 3.115616013334736e+00
 2.259773573360162e+00	 9.484942126797326e-02	 3.216341202276884e+00
 2.258888718138284e+00	 1.139945680094496e-01	 3.291821793715414e+00
 2.257837969585706e+00	 1.331940451365935e-01	 3.329859471084073e+00
 2.256619833242108e+00	 1.524460262565401e-01	 3.316730464265582e+00
 2.255232837094122e+00	 1.717486485746182e-01	 3.237170594066329e+00
 2.253675532544351e+00	 1.911000130876450e-01	 3.074364350052345e+00
 2.270586235275865e+00	 0.000000000000000e+00	 2.730608109083349e+00
 2.270507405034428e+00	 1.892090602248753e-02	 2.737533568793134e+00
 2.270269840103212e+00	 3.790496880484414e-02	 2.797805547514615e+00
 2.269871941925419e+00	 5.695053956489655e-02	 2.897338405449371e+00
 2.269312129697973e+00	 7.605593238747844e-02	 3.020583429909260e+00
 2.268588841314298e+00	 9.521942429298426e-02	 3.150508961382375e+00
 2.267700534314453e+00	 1.144392553300903e-01	 3.268584366905411e+00
 2.266645686841974e+00	 1.337136286931258e-01	 3.354767933455332e+00
 2.265422798606722e+00	 1.530407108645598e-01	 3.387498757763771e+00
 2.264030391853086e+00	 1.724186317830529e-01	 3.343692720885189e+00
 2.262467012332769e+00	 1.918454850375069e-01	 3.198742650014235e+00
 2.279409264691664e+00	 0.000000000000000e+00	 2.769653848730728e+00
 2.279330128132136e+00	 1.899442875701364e-02	 2.703739021431959e+00
 2.279091640072504e+00	 3.805225968806008e-02	 2.723361974244817e+00
 2.278692195744318e+00	 5.717183760414182e-02	 2.808629069178520e+00
 2.278130208201834e+00	 7.635147003897721e-02	 2.938234209832851e+00
 2.277404109268463e+00	 9.558942731782064e-02	 3.089448735774607e+00
 2.276512350490592e+00	 1.148839426505439e-01	 3.238115265232275e+00
 2.275453404098145e+00	 1.342332122494636e-01	 3.358645538933470e+00
 2.274225763971176e+00	 1.536353954723810e-01	 3.424022321406257e+00
 2.272827946611831e+00	 1.730886149912878e-01	 3.405805427770833e+00
 2.271258492120908e+00	 1.925909569871686e-01	 3.274141958092241e+00
 2.288232294107464e+00	 0.000000000000000e+00	 2.780005828469580e+00
 2.288152851229837e+00	 1.906795149153976e-02	 2.666178857042977e+00
 2.287913440041769e+00	 3.819955057127600e-02	 2.658462523706678e+00
 2.287512449563160e+00	 5.739313564338704e-02	 2.733087578776543e+00
 2.286948286705601e+00	 7.664700769047590e-02	 2.865008438108213e+00
 2.286219377222491e+00	 9.595943034265697e-02	 3.027902478117744e+00
 2.285324166666547e+00	 1.153286299709976e-01	 3.194173258595697e+00
 2.284261121354082e+00	 1.347527958058014e-01	 3.334957703184813e+00
 2.283028729335348e+00	 1.542300800802023e-01	 3.420137270835792e+00
 2.281625501370243e+00	 1.737585981995226e-01	 3.418353163182896e+00
 2.280049971908674e+00	 1.933364289368304e-01	 3.297025626868963e+00
 2.297055323523064e+00	 0.000000000000000e+00	 2.772342469918641e+00
 2.296975574327333e+00	 1.914147422611955e-02	 2.630813741123270e+00
 2.296735240010814e+00	 3.834684145458878e-02	 2.605146127344676e+00
 2.296332703381759e+00	 5.761443368276292e-02	 2.669605028925200e+00
 2.295766365209095e+00	 7.694254534213078e-02	 2.797400484768193e+00
 2.295034645176212e+00	 9.632943336766780e-02	 2.960695504003801e+00
 2.294135982842159e+00	 1.157733172916381e-01	 3.130618184005589e+00
 2.293068838609642e+00	 1.352723793623336e-01	 3.277277618616210e+00
 2.291831694699106e+00	 1.548247646882218e-01	 3.369783603966228e+00
 2.290423056128215e+00	 1.744285814079572e-01	 3.376270160972100e+00
 2.288841451695976e+00	 1.940819008866921e-01	 3.263922907886700e+00
 2.305878352938263e+00	 0.000000000000000e+00	 2.757162744910688e+00
 2.305798297424424e+00	 1.921499696080672e-02	 2.603501576433139e+00
 2.305557039979444e+00	 3.849413233809533e-02	 2.565413100281116e+00
 2.305152957199925e+00	 5.783573172240011e-02	 2.617085830956766e+00
 2.304584443712138e+00	 7.723808299409803e-02	 2.731958094394118e+00
 2.303849913129459e+00	 9.669943639302774e-02	 2.882735035936021e+00
 2.302947799017274e+00	 1.162180046126525e-01	 3.041409152909458e+00
 2.301876555864682e+00	 1.357919629192546e-01	 3.179284326590869e+00
 2.300634660062327e+00	 1.554194492966379e-01	 3.267003332101320e+00
 2.299220610885634e+00	 1.750985646167913e-01	 3.274578816690355e+00
 2.297632931482718e+00	 1.948273728369538e-01	 3.171427751516719e+00
 2.314701382352864e+00	 0.000000000000000e+00	 2.744789595566326e+00
 2.314621020520913e+00	 1.928851969565496e-02	 2.589999505818362e+00
 2.314378839947464e+00	 3.864142322189251e-02	 2.541225957629675e+00
 2.313973211017472e+00	 5.805702976242937e-02	 2.574447567017151e+00
 2.313402522214548e+00	 7.753362064653381e-02	 2.665281495906350e+00
 2.312665181082062e+00	 9.706943941891133e-02	 2.789008779748986e+00
 2.311759615191734e+00	 1.166626919342275e-01	 2.920602798270901e+00
 2.310684273119061e+00	 1.363115464767589e-01	 3.034760832029809e+00
 2.309437625424885e+00	 1.560141339056490e-01	 3.105938651564537e+00
 2.308018165642393e+00	 1.757685478262246e-01	 3.108388098204419e+00
 2.306424411268809e+00	 1.955728447878152e-01	 3.016197630773374e+00
 2.323524411766664e+00	 0.000000000000000e+00	 2.745373276446165e+00
 2.323443743616602e+00	 1.936204243071796e-02	 2.595965869367491e+00
 2.323200639914680e+00	 3.878871410607723e-02	 2.534510212074314e+00
 2.322793464834211e+00	 5.827832780298133e-02	 2.540620847243977e+00
 2.322220600716149e+00	 7.782915829959436e-02	 2.594022532088418e+00
 2.321480449033855e+00	 9.743944244549314e-02	 2.674583532601972e+00
 2.320571431365386e+00	 1.171073792565502e-01	 2.762351560343224e+00
 2.319491990372638e+00	 1.368311300350412e-01	 2.837592259272425e+00
 2.318240590786651e+00	 1.566088185154535e-01	 2.880830154762855e+00
 2.316815720398378e+00	 1.764385310364570e-01	 2.872891989701485e+00
 2.315215891054155e+00	 1.963183167394767e-01	 2.794952388436751e+00
 2.227301093178355e+00	 1.888635972348596e-01	 2.443736354456299e+00
 2.225591985606564e+00	 2.080380104612422e-01	 2.237412479561513e+00
 2.223711713941045e+00	 2.272567041589144e-01	 2.118361427449824e+00
 2.221658920761857e+00	 2.465176474664031e-01	 2.072938489649677e+00
 2.219432275749678e+00	 2.658187735393531e-01	 2.087156006094718e+00
 2.217030476671453e+00	 2.851579798744763e-01	 2.146854027278021e+00
 2.214452250366266e+00	 3.045331286623377e-01	 2.237729486416210e+00
 2.211696353730532e+00	 3.239420471692804e-01	 2.345347593194159e+00
 2.208761574701650e+00	 3.433825281487632e-01	 2.455190753920426e+00
 2.205646733239143e+00	 3.628523302823570e-01	 2.552710880058225e+00
 2.202350682302377e+00	 3.823491786506144e-01	 2.674641719989108e+00
 2.236092572967051e+00	 1.896090691865214e-01	 2.693154232616572e+00
 2.234376719300101e+00	 2.088591665970157e-01	 2.494119850865169e+00
 2.232489025929950e+00	 2.281537192602845e-01	 2.358806350655731e+00
 2.230428130078733e+00	 2.474906882987458e-01	 2.278830643951392e+00
 2.228192696176172e+00	 2.668679987099058e-01	 2.245545550099963e+00
 2.225781416849120e+00	 2.862835396915860e-01	 2.250068291223305e+00
 2.223193013911316e+00	 3.057351649961033e-01	 2.283313161177887e+00
 2.220426239352480e+00	 3.252206933137013e-01	 2.335999430558226e+00
 2.217479876325830e+00	 3.447379086855121e-01	 2.398661307696044e+00
 2.214352740133107e+00	 3.642845609462930e-01	 2.461885729219529e+00
 2.211043679206151e+00	 3.838583661971546e-01	 2.580134793865602e+00
 2.244884052755747e+00	 1.903545411373832e-01	 2.904610829315848e+00
 2.243161452993536e+00	 2.096803227319892e-01	 2.708488348678717e+00
 2.241266337918653e+00	 2.290507343608546e-01	 2.556921780282691e+00
 2.239197339395315e+00	 2.484637291302883e-01	 2.445995112471234e+00
 2.236953116602291e+00	 2.679172238796573e-01	 2.371496216147363e+00
 2.234532357026340e+00	 2.874090995078937e-01	 2.328938996425427e+00
 2.231933777455860e+00	 3.069372013290654e-01	 2.313589492699982e+00
 2.229156124973871e+00	 3.264993394573168e-01	 2.320496160535697e+00
 2.226198177949418e+00	 3.460932892214528e-01	 2.344524599168883e+00
 2.223058747026457e+00	 3.657167916094170e-01	 2.380397020352938e+00
 2.219736676109307e+00	 3.853675537428786e-01	 2.500223698627099e+00
 2.253675532544351e+00	 1.911000130876450e-01	 3.074364350052345e+00
 2.251946186686788e+00	 2.105014788663626e-01	 2.878619141517464e+00
 2.250043649907096e+00	 2.299477494608246e-01	 2.712334723625300e+00
 2.247966548711565e+00	 2.494367699612299e-01	 2.575280449453650e+00
 2.245713537028012e+00	 2.689664490488068e-01	 2.466865022903312e+00
 2.243283297203106e+00	 2.885346593235973e-01	 2.386152600323102e+00
 2.240674540999906e+00	 3.081392376614207e-01	 2.331882658107850e+00
 2.237886010594730e+00	 3.277779856003211e-01	 2.302493863788792e+00
 2.234916479572447e+00	 3.474486697567768e-01	 2.296152220041290e+00
 2.231764753919240e+00	 3.671490222719178e-01	 2.310783784584605e+00
 2.228429673011896e+00	 3.868767412879703e-01	 2.436199545768605e+00
 2.262467012332769e+00	 1.918454850375069e-01	 3.198742650014235e+00
 2.260730920379786e+00	 2.113226350003361e-01	 3.002655109658209e+00
 2.258820961895221e+00	 2.308447645603939e-01	 2.824690502318787e+00
 2.256735758027442e+00	 2.504098107917702e-01	 2.667530742734954e+00
 2.254473957453314e+00	 2.700156742175535e-01	 2.533400366048674e+00
 2.252034237379414e+00	 2.896602191388949e-01	 2.424076871999210e+00
 2.249415304543460e+00	 3.093412739933654e-01	 2.340904694908273e+00
 2.246615896215076e+00	 3.290566317429090e-01	 2.284813041643177e+00
 2.243634781194953e+00	 3.488040502916763e-01	 2.256337873136083e+00
 2.240470760811494e+00	 3.685812529339828e-01	 2.255648340155826e+00
 2.237122669913967e+00	 3.883859288326131e-01	 2.390015053676074e+00
 2.271258492120908e+00	 1.925909569871686e-01	 3.274141958092241e+00
 2.269515654072454e+00	 2.121437911341094e-01	 3.078780069272217e+00
 2.267598273882971e+00	 2.317417796597629e-01	 2.893652379924718e+00
 2.265504967342906e+00	 2.513828516221088e-01	 2.723589335238779e+00
 2.263234377878171e+00	 2.710648993860958e-01	 2.572835376585281e+00
 2.260785177555253e+00	 2.907857789539846e-01	 2.445053819798858e+00
 2.258156068086532e+00	 3.105433103250964e-01	 2.343335260883356e+00
 2.255345781834930e+00	 3.303352778852747e-01	 2.270209756537740e+00
 2.252353082816967e+00	 3.501594308263425e-01	 2.227663061740491e+00
 2.249176767703267e+00	 3.700134835958008e-01	 2.217157243283378e+00
 2.245815666815571e+00	 3.898951163769912e-01	 2.363100599384527e+00
 2.280049971908674e+00	 1.933364289368304e-01	 3.297025626868963e+00
 2.278300387764714e+00	 2.129649472678827e-01	 3.105218010212173e+00
 2.276375585870287e+00	 2.326387947591311e-01	 2.918901193012044e+00
 2.274274176657915e+00	 2.523558924524452e-01	 2.744298757522888e+00
 2.271994798302561e+00	 2.721141245546330e-01	 2.586888065782046e+00
 2.269536117730619e+00	 2.919113387690642e-01	 2.451399962455402e+00
 2.266896831629128e+00	 3.117453466568098e-01	 2.341821948108943e+00
 2.264075667454317e+00	 3.316139240276127e-01	 2.261405076045327e+00
 2.261071384438525e+00	 3.515148113609675e-01	 2.212674862098793e+00
 2.257882774594597e+00	 3.714457142575597e-01	 2.197793822574337e+00
 2.254508663716754e+00	 3.914043039212879e-01	 2.356823601663948e+00
 2.288841451695976e+00	 1.940819008866921e-01	 3.263922907886700e+00
 2.287085121456494e+00	 2.137861034018557e-01	 3.080232347086466e+00
 2.285152897857111e+00	 2.335358098586986e-01	 2.900134985639520e+00
 2.283043385972432e+00	 2.533289332829788e-01	 2.730500655886232e+00
 2.280755218726461e+00	 2.731633497233641e-01	 2.577261459821663e+00
 2.278287057905504e+00	 2.930368985843319e-01	 2.445406585973043e+00
 2.275637595171260e+00	 3.129473829887026e-01	 2.338980580634759e+00
 2.272805553073255e+00	 3.328925701701175e-01	 2.261085332860268e+00
 2.269789686059659e+00	 3.528701918957428e-01	 2.213886070245372e+00
 2.266588781485531e+00	 3.728779449194479e-01	 2.200525851416734e+00
 2.263201660617569e+00	 3.929134914656874e-01	 2.372525729848732e+00
 2.297632931482718e+00	 1.948273728369538e-01	 3.171427751516719e+00
 2.295869855147715e+00	 2.146072595362286e-01	 3.002125183264535e+00
 2.293930209843388e+00	 2.344328249586651e-01	 2.837068647148726e+00
 2.291812595286414e+00	 2.543019741139095e-01	 2.683035716155506e+00
 2.289515639149849e+00	 2.742125748924880e-01	 2.545643724423129e+00
 2.287037998079901e+00	 2.941624583999852e-01	 2.429339986647325e+00
 2.284378358712933e+00	 3.141494193209708e-01	 2.337395496264616e+00
 2.281535438691769e+00	 3.341712163129840e-01	 2.271902368580204e+00
 2.278507987680400e+00	 3.542255724308603e-01	 2.233775333992161e+00
 2.275294788376108e+00	 3.743101755816535e-01	 2.227378371507320e+00
 2.271894657518064e+00	 3.944226790103731e-01	 2.411523315988752e+00
 2.306424411268809e+00	 1.955728447878152e-01	 3.016197630773374e+00
 2.304654588838302e+00	 2.154284156712012e-01	 2.869236587468651e+00
 2.302707521829056e+00	 2.353298400592305e-01	 2.729433553178988e+00
 2.300581804599821e+00	 2.552750149454366e-01	 2.602743583265748e+00
 2.298276059572699e+00	 2.752618000622036e-01	 2.493708279707791e+00
 2.295788938253805e+00	 2.952880182162226e-01	 2.405441700593125e+00
 2.293119122254157e+00	 3.153514556538114e-01	 2.339619812859880e+00
 2.290265324309880e+00	 3.354498624564059e-01	 2.296473761715126e+00
 2.287226289300784e+00	 3.555809529665117e-01	 2.274787270466303e+00
 2.284000795266373e+00	 3.757424062443644e-01	 2.280292990259866e+00
 2.280587654418288e+00	 3.959318665555291e-01	 2.475107759785996e+00
 2.315215891054155e+00	 1.963183167394767e-01	 2.794952388436751e+00
 2.313439322528182e+00	 2.162495718069737e-01	 2.679943882617277e+00
 2.311484833814060e+00	 2.362268551605946e-01	 2.576977209818793e+00
 2.309351013912615e+00	 2.562480557777598e-01	 2.490462776747310e+00
 2.307036479994991e+00	 2.763110252327098e-01	 2.423113905568170e+00
 2.304539878427208e+00	 2.964135780332421e-01	 2.375928720139281e+00
 2.301859885794940e+00	 3.165534919874207e-01	 2.348175679578656e+00
 2.298995209927609e+00	 3.367285086005783e-01	 2.337383040342129e+00
 2.295944590920845e+00	 3.569363335028883e-01	 2.339332569581798e+00
 2.292706802156369e+00	 3.771746369077693e-01	 2.361177353007940e+00
 2.289280651318292e+00	 3.974410541013390e-01	 2.564545926508249e+00
 2.202350682302377e+00	 3.823491786506144e-01	 2.674641719989109e+00
 2.198872915360330e+00	 4.018674458244905e-01	 2.869496200046273e+00
 2.195211808604378e+00	 4.214081086391313e-01	 3.016956669786907e+00
 2.191366318638528e+00	 4.409688010389605e-01	 3.119961153479356e+00
 2.187335438869950e+00	 4.605471256781652e-01	 3.181238055558692e+00
 2.183118200453215e+00	 4.801406545416224e-01	 3.203295737276493e+00
 2.178713673225113e+00	 4.997469295961529e-01	 3.188411032294379e+00
 2.174120966629006e+00	 5.193634634720777e-01	 3.138616611688733e+00
 2.169339230627674e+00	 5.389877401750129e-01	 3.055687106739495e+00
 2.164367656603575e+00	 5.586172158277958e-01	 2.941123896251677e+00
 2.159205478245480e+00	 5.782493194424025e-01	 2.796138464055972e+00
 2.211043679206151e+00	 3.838583661971546e-01	 2.580134793865602e+00
 2.207552185014594e+00	 4.034536747967697e-01	 2.792624737336865e+00
 2.203876627340406e+00	 4.230714674359873e-01	 2.965514603164217e+00
 2.200015958669147e+00	 4.427093687200601e-01	 3.099217550989092e+00
 2.195969168434814e+00	 4.623649718404974e-01	 3.193940327029186e+00
 2.191735283967799e+00	 4.820358391984421e-01	 3.249676389868824e+00
 2.187313371433395e+00	 5.017195030584951e-01	 3.266198037707391e+00
 2.182702536759802e+00	 5.214134662329620e-01	 3.243047441429430e+00
 2.177901926554573e+00	 5.411152027964576e-01	 3.179526485397234e+00
 2.172910729008428e+00	 5.608221588307604e-01	 3.074685315885112e+00
 2.167728174785390e+00	 5.805317531997775e-01	 2.927309495626303e+00
 2.219736676109307e+00	 3.853675537428786e-01	 2.500223698627099e+00
 2.216231454668255e+00	 4.050399037682275e-01	 2.730798336343391e+00
 2.212541446075853e+00	 4.247348262320155e-01	 2.927361381848451e+00
 2.208665598699224e+00	 4.444499364003254e-01	 3.088246726600110e+00
 2.204602897999183e+00	 4.641828180019889e-01	 3.211600098635728e+00
 2.200352367481941e+00	 4.839310238544147e-01	 3.295375443802311e+00
 2.195913069641293e+00	 5.036920765199840e-01	 3.337330345499592e+00
 2.191284106890273e+00	 5.234634689929881e-01	 3.335020381046322e+00
 2.186464622481203e+00	 5.432426654170399e-01	 3.285792309990683e+00
 2.181453801413066e+00	 5.630271018328600e-01	 3.186775987387942e+00
 2.176250871325130e+00	 5.828141869562861e-01	 3.034874893318616e+00
 2.228429673011896e+00	 3.868767412879703e-01	 2.436199545768605e+00
 2.224910724321362e+00	 4.066261327390417e-01	 2.684348133569522e+00
 2.221206264810777e+00	 4.263981850273884e-01	 2.902187869676178e+00
 2.217315238728812e+00	 4.461905040799224e-01	 3.086260581883940e+00
 2.213236627563108e+00	 4.660006641627988e-01	 3.233065706441780e+00
 2.208969450995687e+00	 4.858262085096929e-01	 3.338987527577464e+00
 2.204512767848845e+00	 5.056646499807667e-01	 3.400253075050033e+00
 2.199865677020447e+00	 5.255134717522968e-01	 3.412929461536650e+00
 2.195027318407586e+00	 5.453701280368966e-01	 3.372920050639704e+00
 2.189996873817498e+00	 5.652320448342281e-01	 3.275959341575029e+00
 2.184773567864700e+00	 5.850966207120616e-01	 3.117606454592869e+00
 2.237122669913967e+00	 3.883859288326131e-01	 2.390015053676075e+00
 2.233589993973972e+00	 4.082123617093915e-01	 2.654258153878959e+00
 2.229871083545230e+00	 4.280615438222784e-01	 2.889962912077349e+00
 2.225964878757964e+00	 4.479310717590170e-01	 3.092524526940020e+00
 2.221870357126637e+00	 4.678185103230863e-01	 3.257202048903874e+00
 2.217586534509080e+00	 4.877213931644289e-01	 3.379128071253567e+00
 2.213112466056088e+00	 5.076372234409893e-01	 3.453434778405278e+00
 2.208447247150357e+00	 5.275634745110300e-01	 3.475193257069104e+00
 2.203590014333742e+00	 5.474975906561652e-01	 3.439369399710606e+00
 2.198539946221737e+00	 5.674369878349999e-01	 3.340821370016962e+00
 2.193296264404102e+00	 5.873790544672368e-01	 3.174295628120752e+00
 2.245815666815571e+00	 3.898951163769912e-01	 2.363100599384526e+00
 2.242269263626135e+00	 4.097985906794548e-01	 2.641351466393368e+00
 2.238535902279266e+00	 4.297249026168576e-01	 2.891011009883932e+00
 2.234614518786735e+00	 4.496716394377748e-01	 3.106717110180230e+00
 2.230504086689820e+00	 4.696363564830106e-01	 3.283030066673619e+00
 2.226203618022165e+00	 4.896165778187760e-01	 3.414438734313859e+00
 2.221712164263061e+00	 5.096097969007987e-01	 3.495367100808672e+00
 2.217028817280029e+00	 5.296134772693292e-01	 3.520254537137222e+00
 2.212152710259690e+00	 5.496250532749829e-01	 3.483623943678163e+00
 2.207083018625792e+00	 5.696419308353097e-01	 3.379970342895904e+00
 2.201818960943336e+00	 5.896614882219459e-01	 3.203753302088005e+00
 2.254508663716754e+00	 3.914043039212879e-01	 2.356823601663949e+00
 2.250948533277908e+00	 4.113848196494101e-01	 2.646272508010991e+00
 2.247200721012941e+00	 4.313882614112983e-01	 2.905378998542948e+00
 2.243264158815177e+00	 4.514122071163618e-01	 3.128451014304163e+00
 2.239137816252706e+00	 4.714542026427306e-01	 3.309791702646384e+00
 2.234820701534987e+00	 4.915117624728866e-01	 3.443707324832329e+00
 2.230311862469800e+00	 5.115823703603417e-01	 3.524515288235496e+00
 2.225610387409495e+00	 5.316634800273357e-01	 3.546552266025414e+00
 2.220715406185453e+00	 5.517525158934872e-01	 3.504190845139070e+00
 2.215626091029675e+00	 5.718468738352920e-01	 3.392036536117601e+00
 2.210341657482404e+00	 5.919439219763216e-01	 3.204809600295140e+00
 2.263201660617569e+00	 3.929134914656874e-01	 2.372525729848733e+00
 2.259627802929341e+00	 4.129710486194358e-01	 2.669650661818099e+00
 2.255865539746309e+00	 4.330516202057732e-01	 2.933103815441559e+00
 2.251913798843343e+00	 4.531527747949438e-01	 3.157285648490392e+00
 2.247771545815349e+00	 4.732720488024059e-01	 3.336678848312655e+00
 2.243437785047590e+00	 4.934069471269135e-01	 3.465857715201522e+00
 2.238911560676343e+00	 5.135549438197650e-01	 3.539497617878512e+00
 2.234191957538781e+00	 5.337134827851908e-01	 3.552384480188464e+00
 2.229278102111049e+00	 5.538799785118151e-01	 3.499424249359365e+00
 2.224169163433396e+00	 5.740518168350810e-01	 3.375652287157982e+00
 2.218864354021304e+00	 5.942263557304976e-01	 3.176313685846944e+00
 2.271894657518064e+00	 3.944226790103731e-01	 2.411523315988752e+00
 2.268307072580489e+00	 4.145572775897104e-01	 2.712100475465060e+00
 2.264530358479425e+00	 4.347149790004542e-01	 2.974216300994851e+00
 2.260563438871286e+00	 4.548933424736864e-01	 3.192781374537685e+00
 2.256405275377793e+00	 4.750898949621955e-01	 3.362889645422619e+00
 2.252054868560017e+00	 4.953021317810093e-01	 3.479828995929165e+00
 2.247511258882727e+00	 5.155275172792153e-01	 3.539091802920532e+00
 2.242773527667920e+00	 5.357634855430364e-01	 3.536385450761470e+00
 2.237840798036501e+00	 5.560074411301041e-01	 3.467642741801987e+00
 2.232712235836968e+00	 5.762567598348117e-01	 3.329032141477293e+00
 2.227387050560041e+00	 5.965087894846076e-01	 3.116967785628967e+00
 2.280587654418288e+00	 3.959318665555291e-01	 2.475107759785995e+00
 2.276986342231405e+00	 4.161435065604120e-01	 2.774221876987669e+00
 2.273195177212341e+00	 4.363783377955139e-01	 3.028741260349529e+00
 2.269213078899060e+00	 4.566339101527555e-01	 3.234499448003808e+00
 2.265039004940091e+00	 4.769077411222584e-01	 3.387628477852435e+00
 2.260671952072315e+00	 4.971973164353271e-01	 3.484570343576997e+00
 2.256110957088990e+00	 5.175000907388390e-01	 3.522088347233852e+00
 2.251355097796940e+00	 5.378134883010134e-01	 3.497278299730049e+00
 2.246403493961826e+00	 5.581349037484913e-01	 3.407579511354804e+00
 2.241255308240398e+00	 5.784617028346182e-01	 3.250785505137240e+00
 2.235909747098612e+00	 5.987912232387845e-01	 3.025054376183309e+00
 2.289280651318292e+00	 3.974410541013390e-01	 2.564545926508250e+00
 2.285665611882141e+00	 4.177297355317194e-01	 2.856600388141151e+00
 2.281859995945115e+00	 4.380416965911244e-01	 3.096697526349071e+00
 2.277862718926717e+00	 4.583744778323171e-01	 3.282001963600213e+00
 2.273672734502291e+00	 4.787255872827543e-01	 3.410105830780117e+00
 2.269289035584527e+00	 4.990925010900192e-01	 3.479040823589955e+00
 2.264710655295170e+00	 5.194726641987831e-01	 3.487290032831981e+00
 2.259936667925870e+00	 5.398634910592639e-01	 3.433799495871804e+00
 2.254966189887047e+00	 5.602623663671141e-01	 3.317989407310651e+00
 2.249798380643699e+00	 5.806666458346353e-01	 3.139764917360927e+00
 2.244432443637021e+00	 6.010736569931620e-01	 2.899526436665475e+00
 2.159205478245480e+00	 5.782493194424025e-01	 2.796138464055972e+00
 2.153851972890299e+00	 5.978814539958068e-01	 2.641142674484654e+00
 2.148306463792314e+00	 6.175109981087173e-01	 2.498081485463697e+00
 2.142568319557409e+00	 6.371353061276571e-01	 2.370572915804352e+00
 2.136636954492820e+00	 6.567517087467752e-01	 2.262671034735474e+00
 2.130511829406764e+00	 6.763575139261084e-01	 2.178850256028343e+00
 2.124192452387945e+00	 6.959500078380145e-01	 2.123986719997081e+00
 2.117678379563856e+00	 7.155264558413442e-01	 2.103336647292812e+00
 2.110969215836830e+00	 7.350841034828632e-01	 2.122511554256791e+00
 2.104064615596794e+00	 7.546201775254083e-01	 2.167274778594683e+00
 2.096964283409688e+00	 7.741318870022024e-01	 2.186729402229331e+00
 2.167728174785390e+00	 5.805317531997775e-01	 2.927309495626303e+00
 2.162353538369905e+00	 6.002413786296527e-01	 2.760554392909090e+00
 2.156786140345039e+00	 6.199484033941401e-01	 2.601707169566821e+00
 2.151025346824470e+00	 6.396501713970000e-01	 2.455891821240733e+00
 2.145070569803611e+00	 6.593440027962573e-01	 2.328683829041291e+00
 2.138921267962409e+00	 6.790271949260904e-01	 2.226092729180868e+00
 2.132576947447920e+00	 6.986970232470009e-01	 2.154541689960880e+00
 2.126037162635602e+00	 7.183507423238277e-01	 2.120843978461802e+00
 2.119301516868275e+00	 7.379855868311253e-01	 2.132176205241326e+00
 2.112369663171695e+00	 7.575987725853763e-01	 2.166789916412190e+00
 2.105241304945670e+00	 7.771874976034668e-01	 2.182304229776799e+00
 2.176250871325130e+00	 5.828141869562861e-01	 3.034874893318616e+00
 2.170855103849378e+00	 6.026013032626328e-01	 2.856066385054321e+00
 2.165265816897661e+00	 6.223858086787024e-01	 2.682477948000339e+00
 2.159482374091446e+00	 6.421650366654905e-01	 2.520419576061495e+00
 2.153504185114336e+00	 6.619362968449013e-01	 2.376664920850267e+00
 2.147330706518005e+00	 6.816968759252564e-01	 2.258432527159018e+00
 2.140961442507862e+00	 7.014440386552008e-01	 2.173364006147211e+00
 2.134395945707334e+00	 7.211750288055653e-01	 2.129499026545250e+00
 2.127633817899733e+00	 7.408870701786925e-01	 2.135243792889177e+00
 2.120674710746636e+00	 7.605773676447120e-01	 2.159552255991517e+00
 2.113518326481731e+00	 7.802431082041758e-01	 2.171476110801110e+00
 2.184773567864700e+00	 5.850966207120616e-01	 3.117606454592870e+00
 2.179356669328708e+00	 6.049612278948818e-01	 2.926691635456125e+00
 2.173745493450157e+00	 6.248232139625390e-01	 2.739639880775675e+00
 2.167939401358311e+00	 6.446799019332675e-01	 2.563631013507263e+00
 2.161937800424958e+00	 6.645285908928492e-01	 2.406317455574525e+00
 2.155740145073506e+00	 6.843665569237496e-01	 2.275804517384108e+00
 2.149345937567717e+00	 7.041910540627589e-01	 2.180627566235917e+00
 2.142754728778989e+00	 7.239993152866984e-01	 2.129725951407393e+00
 2.135966118931131e+00	 7.437885535257021e-01	 2.131484495803861e+00
 2.128979758321541e+00	 7.635559627035452e-01	 2.146642271654117e+00
 2.121795348017791e+00	 7.832987188044471e-01	 2.155651579817509e+00
 2.193296264404102e+00	 5.873790544672368e-01	 3.174295628120752e+00
 2.187858234807885e+00	 6.073211525265333e-01	 2.971459359303885e+00
 2.182225170002508e+00	 6.272606192457870e-01	 2.772451960570757e+00
 2.176396428625035e+00	 6.471947672004699e-01	 2.585010662203076e+00
 2.170371415735438e+00	 6.671208849402420e-01	 2.417351035054593e+00
 2.164149583628863e+00	 6.870362379217134e-01	 2.278146720227327e+00
 2.157730432627428e+00	 7.069380694698192e-01	 2.176505989582244e+00
 2.151113511850506e+00	 7.268236017673706e-01	 2.121945011864741e+00
 2.144298419962396e+00	 7.466900368722920e-01	 2.120921081153672e+00
 2.137284805896334e+00	 7.665345577620064e-01	 2.129131944357882e+00
 2.130072369553765e+00	 7.863543294043980e-01	 2.136223334814384e+00
 2.201818960943336e+00	 5.896614882219459e-01	 3.203753302088005e+00
 2.196359800286902e+00	 6.096810771577217e-01	 2.989414871334400e+00
 2.190704846554698e+00	 6.296980245285821e-01	 2.780186060053809e+00
 2.184853455891589e+00	 6.497096324672363e-01	 2.584052770902783e+00
 2.178805031045740e+00	 6.697131789872224e-01	 2.409481819876158e+00
 2.172559022184031e+00	 6.897059189192922e-01	 2.265400490220251e+00
 2.166114927686940e+00	 7.096850848765250e-01	 2.161172879819459e+00
 2.159472294921818e+00	 7.296478882477234e-01	 2.106572913363313e+00
 2.152630720993461e+00	 7.495915202186001e-01	 2.104324259221597e+00
 2.145589853470935e+00	 7.695131528202246e-01	 2.108084824983791e+00
 2.138349391089572e+00	 7.894099400041462e-01	 2.114570384981126e+00
 2.210341657482404e+00	 5.919439219763216e-01	 3.204809600295140e+00
 2.204861365765748e+00	 6.120410017885809e-01	 2.979619460834479e+00
 2.199184523106704e+00	 6.321354298110605e-01	 2.762126883678883e+00
 2.193310483157944e+00	 6.522244977337061e-01	 2.560261336093637e+00
 2.187238646355822e+00	 6.723054730339305e-01	 2.382432632933827e+00
 2.180968460738960e+00	 6.923755999166283e-01	 2.237510696869938e+00
 2.174499422746198e+00	 7.124321002830208e-01	 2.134802085367312e+00
 2.167831077992863e+00	 7.324721747278994e-01	 2.084023151778566e+00
 2.160963022024254e+00	 7.524930035647647e-01	 2.082461173580983e+00
 2.153894901045267e+00	 7.724917478783297e-01	 2.084556089815328e+00
 2.146626412625126e+00	 7.924655506038091e-01	 2.092058188424482e+00
 2.218864354021304e+00	 5.942263557304976e-01	 3.176313685846944e+00
 2.213362931244413e+00	 6.144009264192449e-01	 2.941150272588161e+00
 2.207664199658510e+00	 6.345728350933587e-01	 2.717571923832836e+00
 2.201767510424072e+00	 6.547393630000171e-01	 2.513150132384021e+00
 2.195672261665650e+00	 6.748977670805086e-01	 2.335933064208157e+00
 2.189377899293605e+00	 6.950452809138656e-01	 2.194425905089395e+00
 2.182883917805144e+00	 7.151791156894508e-01	 2.097567957902516e+00
 2.176189861063577e+00	 7.352964612080412e-01	 2.054706353442051e+00
 2.169295323054702e+00	 7.553944869109229e-01	 2.056095375878090e+00
 2.162199948619255e+00	 7.754703429364523e-01	 2.059592588420469e+00
 2.154903434160346e+00	 7.955211612035042e-01	 2.070038780142729e+00
 2.227387050560041e+00	 5.965087894846076e-01	 3.116967785628967e+00
 2.221864496722889e+00	 6.167608510498479e-01	 2.873100193609077e+00
 2.216143876210095e+00	 6.370102403756125e-01	 2.645831421217146e+00
 2.210224537689943e+00	 6.572542282663094e-01	 2.442242745599891e+00
 2.204105876975182e+00	 6.774900611270980e-01	 2.269719576723662e+00
 2.197787337847918e+00	 6.977149619111476e-01	 2.136098555253526e+00
 2.191268412863725e+00	 7.179261310959584e-01	 2.049645608845978e+00
 2.184548644133896e+00	 7.381207476882907e-01	 2.019030611496024e+00
 2.177627624084736e+00	 7.582959702572132e-01	 2.025986795148739e+00
 2.170504996192819e+00	 7.784489379947216e-01	 2.034232884139736e+00
 2.163180455695149e+00	 7.985767718033497e-01	 2.049850890518362e+00
 2.235909747098612e+00	 5.987912232387845e-01	 3.025054376183309e+00
 2.230366062201168e+00	 6.191207756805243e-01	 2.774093789068540e+00
 2.224623552761442e+00	 6.394476456579581e-01	 2.546177976874236e+00
 2.218681564955530e+00	 6.597690935327210e-01	 2.347072608517558e+00
 2.212539492284381e+00	 6.800823551738397e-01	 2.183535613656092e+00
 2.206196776401852e+00	 7.003846429086179e-01	 2.062485142890719e+00
 2.199652907921884e+00	 7.206731465026877e-01	 1.991211163919478e+00
 2.192907427203757e+00	 7.409450341687903e-01	 1.977397018175924e+00
 2.185959925114283e+00	 7.611974536037730e-01	 1.992891701814757e+00
 2.178810043765883e+00	 7.814275330532678e-01	 2.009507287377622e+00
 2.171457477229453e+00	 8.016323824034624e-01	 2.032820054582305e+00
 2.244432443637021e+00	 6.010736569931620e-01	 2.899526436665475e+00
 2.238867627679239e+00	 6.214807003114081e-01	 2.642757890130743e+00
 2.233103229312530e+00	 6.418850509405317e-01	 2.417109228990322e+00
 2.227138592220802e+00	 6.622839587993911e-01	 2.226951413533063e+00
 2.220973107593212e+00	 6.826746492208766e-01	 2.077131706558478e+00
 2.214606214955360e+00	 7.030543239064198e-01	 1.973546398019580e+00
 2.208037402979564e+00	 7.234201619097830e-01	 1.922442015823350e+00
 2.201266210273095e+00	 7.437693206496828e-01	 1.929446077079018e+00
 2.194292226143276e+00	 7.640989369507408e-01	 1.957562666501764e+00
 2.187115091338370e+00	 7.844061281122209e-01	 1.986437881888541e+00
 2.179734498763173e+00	 8.046879930039602e-01	 2.020258712295032e+00
 2.096964283409688e+00	 7.741318870022024e-01	 2.186729402229331e+00
 2.089666717323930e+00	 7.936197342440635e-01	 2.209380459521778e+00
 2.082172913425751e+00	 8.130775745313916e-01	 2.261350979106375e+00
 2.074482729206619e+00	 8.325025678724669e-01	 2.338314500893854e+00
 2.066596074862476e+00	 8.518918609662948e-01	 2.435790163721632e+00
 2.058512913847339e+00	 8.712425883789894e-01	 2.549158817306445e+00
 2.050233263396684e+00	 8.905518737420933e-01	 2.673681969481672e+00
 2.041757195019681e+00	 9.098168309719679e-01	 2.804523708977165e+00
 2.033084834959419e+00	 9.290345655093508e-01	 2.936775733405462e+00
 2.024216364620247e+00	 9.482021755781400e-01	 3.065485599978580e+00
 2.015152020961425e+00	 9.673167534624195e-01	 3.185688302802722e+00
 2.105241304945670e+00	 7.771874976034668e-01	 2.182304229776799e+00
 2.097914934310198e+00	 7.967522661989974e-01	 2.208752013748841e+00
 2.090391551283217e+00	 8.162869093982641e-01	 2.269372572461556e+00
 2.082671012793703e+00	 8.357885759996773e-01	 2.358437885327833e+00
 2.074753228683139e+00	 8.552544014398380e-01	 2.470063036213668e+00
 2.066638162261302e+00	 8.746815089745683e-01	 2.598223981028154e+00
 2.058325830831710e+00	 8.940670108819563e-01	 2.736778227711612e+00
 2.049816306185801e+00	 9.134080096865614e-01	 2.879488571745356e+00
 2.041109715064977e+00	 9.327015994038659e-01	 3.020050019486991e+00
 2.032206239589626e+00	 9.519448668040253e-01	 3.152120019232347e+00
 2.023106117654333e+00	 9.711348926939367e-01	 3.269352105926771e+00
 2.113518326481731e+00	 7.802431082041758e-01	 2.171476110801110e+00
 2.106163151296597e+00	 7.998847981534668e-01	 2.200760598931563e+00
 2.098610189140870e+00	 8.194962442647727e-01	 2.268144137304231e+00
 2.090859296381036e+00	 8.390745841266308e-01	 2.366819526189418e+00
 2.082910382504116e+00	 8.586169419132337e-01	 2.489816077666170e+00
 2.074763410675642e+00	 8.781204295701044e-01	 2.630018535637915e+00
 2.066418398267171e+00	 8.975821480218732e-01	 2.780188984910458e+00
 2.057875417352409e+00	 9.169991884012930e-01	 2.932991896229714e+00
 2.049134595171063e+00	 9.363686332985853e-01	 3.081022443145196e+00
 2.040196114559561e+00	 9.556875580301594e-01	 3.216838213910903e+00
 2.031060214347808e+00	 9.749530319257198e-01	 3.332994427364890e+00
 2.121795348017791e+00	 7.832987188044471e-01	 2.155651579817509e+00
 2.114411368283038e+00	 8.030173301075727e-01	 2.187118206065365e+00
 2.106828826998620e+00	 8.227055791309988e-01	 2.259613155149649e+00
 2.099047579968525e+00	 8.423605922533854e-01	 2.365568714447665e+00
 2.091067536325311e+00	 8.619794823865142e-01	 2.497243017657741e+00
 2.082888659090261e+00	 8.815593501656063e-01	 2.646739616653179e+00
 2.074510965702970e+00	 9.010972851618294e-01	 2.806030118630679e+00
 2.065934528519404e+00	 9.205903671161279e-01	 2.966980040130867e+00
 2.057159475277577e+00	 9.400356671934588e-01	 3.121378018280049e+00
 2.048185989529951e+00	 9.594302492564801e-01	 3.260968506707500e+00
 2.039014311041749e+00	 9.787711711577023e-01	 3.377488069039649e+00
 2.130072369553765e+00	 7.863543294043980e-01	 2.136223334814384e+00
 2.122659585269433e+00	 8.061498620614146e-01	 2.169517951280572e+00
 2.115047464856373e+00	 8.259149139970212e-01	 2.245704270768181e+00
 2.107235863556076e+00	 8.456466003799971e-01	 2.356769080953165e+00
 2.099224690146626e+00	 8.653420228597112e-01	 2.494510302378618e+00
 2.091013907505060e+00	 8.849982707610811e-01	 2.650556714126014e+00
 2.082603533139006e+00	 9.046124223018099e-01	 2.816390820597381e+00
 2.073993639686687e+00	 9.241815458310307e-01	 2.983375016571934e+00
 2.065184355384421e+00	 9.437027010884341e-01	 3.142781196288509e+00
 2.056175864500698e+00	 9.631729404829252e-01	 3.285823939182060e+00
 2.046968407736055e+00	 9.825893103898174e-01	 3.403697390075243e+00
 2.138349391089572e+00	 7.894099400041462e-01	 2.114570384981126e+00
 2.130907802255696e+00	 8.092823940150938e-01	 2.149634302091331e+00
 2.123266102714041e+00	 8.291242488629199e-01	 2.228319576175996e+00
 2.115424147143592e+00	 8.489326085065225e-01	 2.342478916261555e+00
 2.107381843967966e+00	 8.687045633328575e-01	 2.483757427256803e+00
 2.099139155919944e+00	 8.884371913565374e-01	 2.643611993929195e+00
 2.090696100575181e+00	 9.081275594418005e-01	 2.813333881409462e+00
 2.082052750854160e+00	 9.277727245459665e-01	 2.984074715878289e+00
 2.073209235491492e+00	 9.473697349834601e-01	 3.146875997506883e+00
 2.064165739471699e+00	 9.669156317094326e-01	 3.292702284383105e+00
 2.054922504430628e+00	 9.864074496219990e-01	 3.412478171062614e+00
 2.146626412625126e+00	 7.924655506038091e-01	 2.092058188424481e+00
 2.139156019241738e+00	 8.124149259687111e-01	 2.129123291567375e+00
 2.131484740571531e+00	 8.323335837287748e-01	 2.209338880965691e+00
 2.123612430730982e+00	 8.522186166330189e-01	 2.324731475723659e+00
 2.115538997789235e+00	 8.720671038059853e-01	 2.467097254313372e+00
 2.107264404334813e+00	 8.918761119519827e-01	 2.628020603796267e+00
 2.098788668011396e+00	 9.116426965817848e-01	 2.798895960607598e+00
 2.090111862021722e+00	 9.313639032609002e-01	 2.970953113951061e+00
 2.081234115598693e+00	 9.510367688784852e-01	 3.135286131113102e+00
 2.072155614442857e+00	 9.706583229359402e-01	 3.282886050460343e+00
 2.062876601125368e+00	 9.902255888541810e-01	 3.404677472535439e+00
 2.154903434160346e+00	 7.955211612035042e-01	 2.070038780142729e+00
 2.147404236227473e+00	 8.155474579223665e-01	 2.109622720753385e+00
 2.139703378428752e+00	 8.355429185946655e-01	 2.190619969344306e+00
 2.131800714318151e+00	 8.555046247595425e-01	 2.305535270238462e+00
 2.123696151610336e+00	 8.754296442791267e-01	 2.446616314657567e+00
 2.115389652749569e+00	 8.953150325474253e-01	 2.605870964525422e+00
 2.106881235447553e+00	 9.151578337217492e-01	 2.775087842502495e+00
 2.098170973189272e+00	 9.349550819757962e-01	 2.945860467594644e+00
 2.089258995705922e+00	 9.547038027734583e-01	 3.109615103799001e+00
 2.080145489414070e+00	 9.744010141623854e-01	 3.257642475510010e+00
 2.070830697820173e+00	 9.940437280862964e-01	 3.381133487812488e+00
 2.163180455695149e+00	 7.985767718033497e-01	 2.049850890518362e+00
 2.155652453212812e+00	 8.186799898761611e-01	 2.092752349650669e+00
 2.147922016285612e+00	 8.387522534606721e-01	 2.173998844234486e+00
 2.139988997905005e+00	 8.587906328861497e-01	 2.286874343052720e+00
 2.131853305431173e+00	 8.787921847523142e-01	 2.424375096519573e+00
 2.123514901164115e+00	 8.987539531428733e-01	 2.579225046744382e+00
 2.114973802883553e+00	 9.186729708616779e-01	 2.743894678144547e+00
 2.106230084356713e+00	 9.385462606906195e-01	 2.910623497147455e+00
 2.097283875813081e+00	 9.583708366683281e-01	 3.071446317513353e+00
 2.088135364385238e+00	 9.781437053887059e-01	 3.218223513887659e+00
 2.078784794514945e+00	 9.978618673182788e-01	 3.342675390357003e+00
 2.171457477229453e+00	 8.016323824034624e-01	 2.032820054582305e+00
 2.163900670197668e+00	 8.218125218301948e-01	 2.080114077066198e+00
 2.156140654142022e+00	 8.419615883268748e-01	 2.161289958784094e+00
 2.148177281491449e+00	 8.620766410128976e-01	 2.270708532979507e+00
 2.140010459251650e+00	 8.821547252255802e-01	 2.402408319206722e+00
 2.131640149578353e+00	 9.021928737383342e-01	 2.550118633621577e+00
 2.123066370319295e+00	 9.221881080015564e-01	 2.707276213804713e+00
 2.114289195523944e+00	 9.421374394053350e-01	 2.867045556754809e+00
 2.105308755920068e+00	 9.620378705630429e-01	 3.022343156566972e+00
 2.096125239356263e+00	 9.818863966148395e-01	 3.165865814215863e+00
 2.086738891209582e+00	 1.001680006550062e+00	 3.290123175799276e+00
 2.179734498763173e+00	 8.046879930039602e-01	 2.020258712295032e+00
 2.172148887181955e+00	 8.249450537845692e-01	 2.073292109625019e+00
 2.164359291997888e+00	 8.451709231933534e-01	 2.154286435618726e+00
 2.156365565077391e+00	 8.653626491398434e-01	 2.258973724396568e+00
 2.148167613071671e+00	 8.855172656989569e-01	 2.382725193357300e+00
 2.139765397992186e+00	 9.056317943338167e-01	 2.520561569896969e+00
 2.131158937754682e+00	 9.257032451413696e-01	 2.667167006324889e+00
 2.122348306690867e+00	 9.457286181199076e-01	 2.816906792611906e+00
 2.113333636026786e+00	 9.657049044575522e-01	 2.963849064382639e+00
 2.104115114327044e+00	 9.856290878407244e-01	 3.101790689307403e+00
 2.094692987903987e+00	 1.005498145781579e+00	 3.224287498763991e+00
 2.015152020961425e+00	 9.673167534624195e-01	 3.185688302802722e+00
 2.005893687236054e+00	 9.863721519403884e-01	 3.281229048741768e+00
 1.996440187068388e+00	 1.005368709659412e+00	 3.341114287856310e+00
 1.986791924473414e+00	 1.024303509347537e+00	 3.368123555272753e+00
 1.976949360212890e+00	 1.043173633027096e+00	 3.365131404132366e+00
 1.966913012010647e+00	 1.061976163366336e+00	 3.335146239228751e+00
 1.956683454730029e+00	 1.080708185042699e+00	 3.281352699171681e+00
 1.946261320512928e+00	 1.099366786116542e+00	 3.207157571806722e+00
 1.935647298879856e+00	 1.117949059414060e+00	 3.118073857222679e+00
 1.924842136790607e+00	 1.136452103918131e+00	 3.037556133587196e+00
 1.913846638665072e+00	 1.154873026165801e+00	 2.974146453961756e+00
 2.023106117654333e+00	 9.711348926939367e-01	 3.269352105926771e+00
 2.013811239945681e+00	 9.902655055878161e-01	 3.354173850069357e+00
 2.004320425444586e+00	 1.009337045469721e+00	 3.396345383336041e+00
 1.994634079760735e+00	 1.028346583552808e+00	 3.400531580453738e+00
 1.984752665474563e+00	 1.047291190341735e+00	 3.371488720793318e+00
 1.974676702353419e+00	 1.066167936989625e+00	 3.314101045379306e+00
 1.964406767529707e+00	 1.084973896666724e+00	 3.233420930863975e+00
 1.953943495640461e+00	 1.103706145939547e+00	 3.134712671741630e+00
 1.943287578927816e+00	 1.122361766159259e+00	 3.028482226203477e+00
 1.932439767299915e+00	 1.140937844858008e+00	 2.940394298090908e+00
 1.921400868351795e+00	 1.159431477151930e+00	 2.877644750247052e+00
 2.031060214347808e+00	 9.749530319257198e-01	 3.332994427364890e+00
 2.021728792655865e+00	 9.941588592354959e-01	 3.410520273715029e+00
 2.012200663821316e+00	 1.013305381280240e+00	 3.439491200257560e+00
 2.002476235048544e+00	 1.032389657758226e+00	 3.426048950003714e+00
 1.992555970736670e+00	 1.051408747656441e+00	 3.376425968165479e+00
 1.982440392696559e+00	 1.070359710612884e+00	 3.296980254812570e+00
 1.972130080329678e+00	 1.089239608290614e+00	 3.194233906542010e+00
 1.961625670768205e+00	 1.108045505762309e+00	 3.074915344164841e+00
 1.950927858975904e+00	 1.126774472904106e+00	 2.955682476563118e+00
 1.940037397809262e+00	 1.145423585797430e+00	 2.861014209357359e+00
 1.928955098038472e+00	 1.163989928137512e+00	 2.797862617107262e+00
 2.039014311041749e+00	 9.787711711577023e-01	 3.377488069039649e+00
 2.029646345366507e+00	 9.980522128833647e-01	 3.450662767006960e+00
 2.020080902198479e+00	 1.017273717090919e+00	 3.470526329005515e+00
 2.010318390336745e+00	 1.036432731963755e+00	 3.444293687300896e+00
 2.000359275999113e+00	 1.055526304971193e+00	 3.379272655008687e+00
 1.990204083039975e+00	 1.074551484236118e+00	 3.282897642440334e+00
 1.979853393129854e+00	 1.093505319914399e+00	 3.162767138141492e+00
 1.969307845896078e+00	 1.112384865584881e+00	 3.026749487865483e+00
 1.958568139024043e+00	 1.131187179648680e+00	 2.898615797008987e+00
 1.947635028318585e+00	 1.149909326736499e+00	 2.798460406748889e+00
 1.936509327725052e+00	 1.168548379122663e+00	 2.734043182316420e+00
 2.046968407736055e+00	 9.825893103898174e-01	 3.403697390075243e+00
 2.037563898077505e+00	 1.001945566531359e+00	 3.474994551966800e+00
 2.027961140575972e+00	 1.021242052901702e+00	 3.489430470295434e+00
 2.018160545625237e+00	 1.040475806169355e+00	 3.454894308326839e+00
 2.008162581261798e+00	 1.059643862285976e+00	 3.379373140329283e+00
 1.997967773383570e+00	 1.078743257859332e+00	 3.270985095469119e+00
 1.987576705930144e+00	 1.097771031538108e+00	 3.138016345732492e+00
 1.976990021023997e+00	 1.116724225407317e+00	 2.990203909345528e+00
 1.966208419072159e+00	 1.135599886393057e+00	 2.856232127029123e+00
 1.955232658827821e+00	 1.154395067675310e+00	 2.751784635531704e+00
 1.944063557411484e+00	 1.173106830107501e+00	 2.685433748372372e+00
 2.054922504430628e+00	 9.864074496219990e-01	 3.412478171062614e+00
 2.045481450788762e+00	 1.005838920179418e+00	 3.483907334540023e+00
 2.035841378953698e+00	 1.025210388712538e+00	 3.496188007152229e+00
 2.026002700913923e+00	 1.044518880374991e+00	 3.457489275616252e+00
 2.015965886524625e+00	 1.063761419600771e+00	 3.376085989956789e+00
 2.005731463727252e+00	 1.082935031482530e+00	 3.260391894683265e+00
 1.995300018730459e+00	 1.102036743161770e+00	 3.118996687002743e+00
 1.984672196151880e+00	 1.121063585229672e+00	 2.964594462366573e+00
 1.973848699120177e+00	 1.140012593137313e+00	 2.827490078080743e+00
 1.962830289336903e+00	 1.158880808613961e+00	 2.720045806229996e+00
 1.951617787097718e+00	 1.177665281092140e+00	 2.651285818418515e+00
 2.062876601125368e+00	 9.902255888541810e-01	 3.404677472535439e+00
 2.053399003500176e+00	 1.009732273827475e+00	 3.477791011418419e+00
 2.043721617331558e+00	 1.029178724523373e+00	 3.490787577457823e+00
 2.033844856202704e+00	 1.048561954580625e+00	 3.451726455315289e+00
 2.023769191787500e+00	 1.067878976915561e+00	 3.368783338298517e+00
 2.013495154070926e+00	 1.087126805105718e+00	 3.250284002472879e+00
 2.003023331530710e+00	 1.106302454785413e+00	 3.104741994517717e+00
 1.992354371279641e+00	 1.125402945051998e+00	 2.948876147178999e+00
 1.981488979168024e+00	 1.144425299881529e+00	 2.811356862899846e+00
 1.970427919845770e+00	 1.163366549552554e+00	 2.702309961337279e+00
 1.959172016783703e+00	 1.182223732076696e+00	 2.630855128097177e+00
 2.070830697820173e+00	 9.940437280862964e-01	 3.381133487812488e+00
 2.061316556211649e+00	 1.013625627475470e+00	 3.457033374519226e+00
 2.051601855709449e+00	 1.033147060334154e+00	 3.473221647052044e+00
 2.041687011491481e+00	 1.052605028786220e+00	 3.437262577264472e+00
 2.031572497050323e+00	 1.071996534230328e+00	 3.356850255132627e+00
 2.021258844414498e+00	 1.091318578728901e+00	 3.239843357424945e+00
 2.010746644330807e+00	 1.110568166409069e+00	 3.094304020548024e+00
 2.000036546407199e+00	 1.129742304874350e+00	 2.942012598923013e+00
 1.989129259215624e+00	 1.148838006625779e+00	 2.806808232713696e+00
 1.978025550354356e+00	 1.167852290491185e+00	 2.697650249187151e+00
 1.966726246469390e+00	 1.186782183061286e+00	 2.623401683175148e+00
 2.078784794514945e+00	 9.978618673182788e-01	 3.342675390357003e+00
 2.069234108923079e+00	 1.017518981123339e+00	 3.422019813183490e+00
 2.059482094087275e+00	 1.037115396144829e+00	 3.443486083371975e+00
 2.049529166780155e+00	 1.056648102991737e+00	 3.413762698024981e+00
 2.039375802313002e+00	 1.076114091545055e+00	 3.339684117304358e+00
 2.029022534757877e+00	 1.095510352352083e+00	 3.228267175301461e+00
 2.018469957130661e+00	 1.114833878032765e+00	 3.087280895760244e+00
 2.007718721534471e+00	 1.134081664696781e+00	 2.942976021818747e+00
 1.996769539262902e+00	 1.153250713370142e+00	 2.812828422144315e+00
 1.985623180862599e+00	 1.172338031429952e+00	 2.705146904791560e+00
 1.974280476154727e+00	 1.191340634046026e+00	 2.628189802786643e+00
 2.086738891209582e+00	 1.001680006550062e+00	 3.290123175799276e+00
 2.077151661634368e+00	 1.021412334771018e+00	 3.373133014154256e+00
 2.067362332464935e+00	 1.041083731955344e+00	 3.401579729615070e+00
 2.057371322068627e+00	 1.060691177197140e+00	 3.380899666769532e+00
 2.047179107575436e+00	 1.080231648859723e+00	 3.316693985194453e+00
 2.036786225100966e+00	 1.099702125975270e+00	 3.214767256234044e+00
 2.026193269930182e+00	 1.119099589656531e+00	 3.083579442815229e+00
 2.015400896661373e+00	 1.138421024519345e+00	 2.950747130965312e+00
 2.004409819309784e+00	 1.157663420114694e+00	 2.828410101597929e+00
 1.993220811370433e+00	 1.176823772368955e+00	 2.723887237460789e+00
 1.981834705839663e+00	 1.195899085031030e+00	 2.644488168143778e+00
 2.094692987903987e+00	 1.005498145781579e+00	 3.224287498763991e+00
 2.085069214345415e+00	 1.025305688418445e+00	 3.310752659393531e+00
 2.075242570842331e+00	 1.045052067765647e+00	 3.347503979411924e+00
 2.065213477356800e+00	 1.064734251402391e+00	 3.338353593961484e+00
 2.054982412837529e+00	 1.084349206174316e+00	 3.287299983832544e+00
 2.044549915443673e+00	 1.103893899598468e+00	 3.198569297969305e+00
 2.033916582729284e+00	 1.123365301280397e+00	 3.082265433745990e+00
 2.023083071787823e+00	 1.142760384342097e+00	 2.964315101546612e+00
 2.012050099356196e+00	 1.162076126859514e+00	 2.852554336941235e+00
 2.000818441877797e+00	 1.181309513308291e+00	 2.752965625024675e+00
 1.989388935524150e+00	 1.200457536016417e+00	 2.671569876569190e+00
 1.913846638665072e+00	 1.154873026165801e+00	 2.974146453961756e+00
 1.902661666826218e+00	 1.173208942016625e+00	 2.926723876835803e+00
 1.891288142819316e+00	 1.191456979178688e+00	 2.890890649561134e+00
 1.879727045908540e+00	 1.209614277560408e+00	 2.864745276338568e+00
 1.867979412467919e+00	 1.227677990319973e+00	 2.846397203680486e+00
 1.856046335795278e+00	 1.245645285274350e+00	 2.833956395752035e+00
 1.843928965884853e+00	 1.263513346306681e+00	 2.825545029954315e+00
 1.831628509158474e+00	 1.281279374770660e+00	 2.819743724957187e+00
 1.819146228155318e+00	 1.298940590890470e+00	 2.815436624733842e+00
 1.806483441180266e+00	 1.316494235154875e+00	 2.811352814175358e+00
 1.793641521910966e+00	 1.333937569704040e+00	 2.806061547779762e+00
 1.921400868351795e+00	 1.159431477151930e+00	 2.877644750247052e+00
 1.910171747810132e+00	 1.177839767516462e+00	 2.841517176821340e+00
 1.898753330857676e+00	 1.196159832322338e+00	 2.827140846537243e+00
 1.887146600623915e+00	 1.214388800188779e+00	 2.830191733131684e+00
 1.875352597573609e+00	 1.232523813037072e+00	 2.846337898771899e+00
 1.863372419320002e+00	 1.250562027505147e+00	 2.871232234082589e+00
 1.851207220396538e+00	 1.268500616360523e+00	 2.900504497417713e+00
 1.838858211986984e+00	 1.286336769910229e+00	 2.930051702309423e+00
 1.826326661613955e+00	 1.304067697406268e+00	 2.956292247165090e+00
 1.813613892785886e+00	 1.321690628445213e+00	 2.975515205351251e+00
 1.800721284602547e+00	 1.339202814360497e+00	 2.983838127659867e+00
 1.928955098038472e+00	 1.163989928137512e+00	 2.797862617107262e+00
 1.917681828793916e+00	 1.182470593015675e+00	 2.769732042573989e+00
 1.906218518895826e+00	 1.200862685465300e+00	 2.771655484624611e+00
 1.894566155339006e+00	 1.219163322816412e+00	 2.797360575972546e+00
 1.882725782678945e+00	 1.237369635753398e+00	 2.840550018465340e+00
 1.870698502844313e+00	 1.255478769735147e+00	 2.894896854633140e+00
 1.858485474907758e+00	 1.273487886413557e+00	 2.954038707836527e+00
 1.846087914814986e+00	 1.291394165048992e+00	 3.011643485358358e+00
 1.833507095072052e+00	 1.309194803921275e+00	 3.062080790425841e+00
 1.820744344390948e+00	 1.326887021734783e+00	 3.099726568034737e+00
 1.807801047293561e+00	 1.344468059016220e+00	 3.118722080329055e+00
 1.936509327725052e+00	 1.168548379122663e+00	 2.734043182316420e+00
 1.925191909777535e+00	 1.187101418514392e+00	 2.710861893388361e+00
 1.913683706933751e+00	 1.205565538607712e+00	 2.724179839760734e+00
 1.901985710053817e+00	 1.223937845443448e+00	 2.766245005691400e+00
 1.890098967783955e+00	 1.242215458469090e+00	 2.829265247970218e+00
 1.878024586368254e+00	 1.260395511964490e+00	 2.905405470190199e+00
 1.865763729418575e+00	 1.278475156465919e+00	 2.986783768018618e+00
 1.853317617642557e+00	 1.296451560187076e+00	 3.065466544916416e+00
 1.840687528529700e+00	 1.314321910435607e+00	 3.133896877092940e+00
 1.827874795995547e+00	 1.332083415023695e+00	 3.185187535034379e+00
 1.814880809984109e+00	 1.349733303671310e+00	 3.211978720248507e+00
 1.944063557411484e+00	 1.173106830107501e+00	 2.685433748372372e+00
 1.932701990760956e+00	 1.191732244012742e+00	 2.664400481044560e+00
 1.921148894971435e+00	 1.210268391749708e+00	 2.684455645042512e+00
 1.909405264768351e+00	 1.228712368070029e+00	 2.736830856064683e+00
 1.897472152888661e+00	 1.247061281184294e+00	 2.812704216827808e+00
 1.885350669891869e+00	 1.265312254193315e+00	 2.903198769566103e+00
 1.873041983929049e+00	 1.283462426517742e+00	 2.999379914572105e+00
 1.860547320469775e+00	 1.301508955324611e+00	 3.092251791323284e+00
 1.847867961986985e+00	 1.319449016949386e+00	 3.172814659032760e+00
 1.835005247599781e+00	 1.337279808312057e+00	 3.233076029716197e+00
 1.821960572674290e+00	 1.354998548325865e+00	 3.264849123255331e+00
 1.951617787097718e+00	 1.177665281092140e+00	 2.651285818418516e+00
 1.940212071744144e+00	 1.196363069510854e+00	 2.629841997602953e+00
 1.928614083008861e+00	 1.214971244891428e+00	 2.652221280615995e+00
 1.916824819482612e+00	 1.233486890696295e+00	 2.709096864366856e+00
 1.904845337993084e+00	 1.251907103899148e+00	 2.791076847033492e+00
 1.892676753415201e+00	 1.270228996421762e+00	 2.888703338538140e+00
 1.880320238439241e+00	 1.288449696569163e+00	 2.992450524770495e+00
 1.867777023296715e+00	 1.306566350461724e+00	 3.092721680137782e+00
 1.855048395443998e+00	 1.324576123462730e+00	 3.179845132218950e+00
 1.842135699203746e+00	 1.342476201599982e+00	 3.244546875737706e+00
 1.829040335364204e+00	 1.360263792979988e+00	 3.278549752174733e+00
 1.959172016783703e+00	 1.182223732076696e+00	 2.630855128097177e+00
 1.947722152727065e+00	 1.200993895008855e+00	 2.606681187346098e+00
 1.936079271046015e+00	 1.219674098033007e+00	 2.627211965918826e+00
 1.924244374196605e+00	 1.238261413322389e+00	 2.683014942508317e+00
 1.912218523097251e+00	 1.256752926613798e+00	 2.764582700044481e+00
 1.900002836938293e+00	 1.275145738649970e+00	 2.862332078077177e+00
 1.887598492949212e+00	 1.293436966620314e+00	 2.966602259299734e+00
 1.875006726123453e+00	 1.311623745598542e+00	 3.067651783760569e+00
 1.862228828900827e+00	 1.329703229975759e+00	 3.155654493721150e+00
 1.849266150807539e+00	 1.347672594887578e+00	 3.220731399495449e+00
 1.836120098053952e+00	 1.365529037633778e+00	 3.254272074647631e+00
 1.966726246469390e+00	 1.186782183061286e+00	 2.623401683175148e+00
 1.955232233709683e+00	 1.205624720506876e+00	 2.594413462756368e+00
 1.943544459082879e+00	 1.224376951174583e+00	 2.609159954211872e+00
 1.931663928910332e+00	 1.243035935948451e+00	 2.658550448743439e+00
 1.919591708201184e+00	 1.261598749328382e+00	 2.733411322702989e+00
 1.907328920461187e+00	 1.280062480878080e+00	 2.824484619938478e+00
 1.894876747459023e+00	 1.298424236671334e+00	 2.922425541381862e+00
 1.882236428950067e+00	 1.316681140735194e+00	 3.017798835321702e+00
 1.869409262357561e+00	 1.334830336488594e+00	 3.101074091451616e+00
 1.856396602411258e+00	 1.352868988174956e+00	 3.162619951772699e+00
 1.843199860743632e+00	 1.370794282287334e+00	 3.193182173383454e+00
 1.974280476154727e+00	 1.191340634046026e+00	 2.628189802786643e+00
 1.962742314691966e+00	 1.210255546005045e+00	 2.592535024420985e+00
 1.951009647119439e+00	 1.229079804316292e+00	 2.597794729338822e+00
 1.939083483623798e+00	 1.247810458574623e+00	 2.635662459933412e+00
 1.926964893304907e+00	 1.266444572043045e+00	 2.697742592103674e+00
 1.914655003983927e+00	 1.284979223106230e+00	 2.775547739685291e+00
 1.902155001968735e+00	 1.303411506722354e+00	 2.860495031954958e+00
 1.889466131776633e+00	 1.321738535871809e+00	 2.943901258465988e+00
 1.876589695814288e+00	 1.339957443001354e+00	 3.016976885385123e+00
 1.863527054014999e+00	 1.358065381462227e+00	 3.070818957758669e+00
 1.850279623433346e+00	 1.376059526940758e+00	 3.096420349041426e+00
 1.981834705839663e+00	 1.195899085031030e+00	 2.644488168143778e+00
 1.970252395673880e+00	 1.214886371503490e+00	 2.600542984759697e+00
 1.958474835155678e+00	 1.233782657458274e+00	 2.592843204654122e+00
 1.946503038337006e+00	 1.252584981201045e+00	 2.614304044348960e+00
 1.934338078408444e+00	 1.271290394757927e+00	 2.657747059433488e+00
 1.921981087506555e+00	 1.289895965334562e+00	 2.715895767213505e+00
 1.909433256478409e+00	 1.308398776773510e+00	 2.781370101014445e+00
 1.896695834603225e+00	 1.326795931008512e+00	 2.846679692126797e+00
 1.883770129271097e+00	 1.345084549514157e+00	 2.904215985581836e+00
 1.870657505618858e+00	 1.363261774749500e+00	 2.946243206498383e+00
 1.857359386123191e+00	 1.381324771594149e+00	 2.964888204577156e+00
 1.989388935524150e+00	 1.200457536016417e+00	 2.671569876569190e+00
 1.977762476655390e+00	 1.219517197002342e+00	 2.617935495473350e+00
 1.965940023191580e+00	 1.238485510600662e+00	 2.594029924061506e+00
 1.953922593049960e+00	 1.257359503827861e+00	 2.594422534998475e+00
 1.941711263511819e+00	 1.276136217473172e+00	 2.613586292811065e+00
 1.929307171029115e+00	 1.294812707563214e+00	 2.645890994843673e+00
 1.916711510988107e+00	 1.313386046824939e+00	 2.685595295217599e+00
 1.903925537429925e+00	 1.331853326145434e+00	 2.726837510421364e+00
 1.890950562728077e+00	 1.350211656027125e+00	 2.763625215671272e+00
 1.877787957222933e+00	 1.368458168036886e+00	 2.789823652052497e+00
 1.864439148813270e+00	 1.386590016247609e+00	 2.799142975607414e+00
 1.793641521910966e+00	 1.333937569704040e+00	 2.806061547779762e+00
 1.780619671693210e+00	 1.351270814630199e+00	 2.799175760095845e+00
 1.767421548564461e+00	 1.368488294888244e+00	 2.791415823855977e+00
 1.754048697738162e+00	 1.385587334514377e+00	 2.782733439585024e+00
 1.740502717892060e+00	 1.402565284615472e+00	 2.772880667742745e+00
 1.726785260568927e+00	 1.419419524704581e+00	 2.761434491980548e+00
 1.712898029537639e+00	 1.436147464020815e+00	 2.747825040876216e+00
 1.698842780115081e+00	 1.452746542832192e+00	 2.731367373474929e+00
 1.684621318449455e+00	 1.469214233720123e+00	 2.711296705838218e+00
 1.670235500765549e+00	 1.485548042844174e+00	 2.686887254311710e+00
 1.655687232572625e+00	 1.501745511185803e+00	 2.659612745362141e+00
 1.800721284602547e+00	 1.339202814360497e+00	 2.983838127659867e+00
 1.787648035257332e+00	 1.356604476113089e+00	 2.978590084511695e+00
 1.774397817226498e+00	 1.373889916257660e+00	 2.961086391614884e+00
 1.760972181822651e+00	 1.391056448268004e+00	 2.933156265014526e+00
 1.747372734033735e+00	 1.408101412795434e+00	 2.896445709614571e+00
 1.733601131921385e+00	 1.425022179009569e+00	 2.852439851019655e+00
 1.719659085979478e+00	 1.441816145923415e+00	 2.802488999591556e+00
 1.705548358453376e+00	 1.458480743701365e+00	 2.747838355199657e+00
 1.691270762620391e+00	 1.475013434948751e+00	 2.689661232335673e+00
 1.676828162032080e+00	 1.491411715981592e+00	 2.629502264051392e+00
 1.662222469719014e+00	 1.507673118075252e+00	 2.571000281893984e+00
 1.807801047293561e+00	 1.344468059016220e+00	 3.118722080329055e+00
 1.794676398820894e+00	 1.361938137595289e+00	 3.114522451876080e+00
 1.781374085887994e+00	 1.379291537626440e+00	 3.088907908872664e+00
 1.767895665906628e+00	 1.396525562021053e+00	 3.045243306889492e+00
 1.754242750174934e+00	 1.413637540974881e+00	 2.986721616336351e+00
 1.740417003273408e+00	 1.430624833314105e+00	 2.916384484331022e+00
 1.726420142420930e+00	 1.447484827825629e+00	 2.837146613279033e+00
 1.712253936791332e+00	 1.464214944570216e+00	 2.751823867069969e+00
 1.697920206791036e+00	 1.480812636177113e+00	 2.663164986269994e+00
 1.683420823298369e+00	 1.497275389118798e+00	 2.574728902804995e+00
 1.668757706865203e+00	 1.513600724964534e+00	 2.491546509753418e+00
 1.814880809984109e+00	 1.349733303671310e+00	 3.211978720248507e+00
 1.801704762383994e+00	 1.367271799076890e+00	 3.208258419059811e+00
 1.788350354549037e+00	 1.384693158994662e+00	 3.176144900101304e+00
 1.774819149990168e+00	 1.401994675773593e+00	 3.120200835492721e+00
 1.761112766315720e+00	 1.419173669153872e+00	 3.044823257835688e+00
 1.747232874625044e+00	 1.436227487618241e+00	 2.954262810389718e+00
 1.733181198862023e+00	 1.453153509727497e+00	 2.852646909227010e+00
 1.718959515128960e+00	 1.469949145438773e+00	 2.744006729978031e+00
 1.704569650961385e+00	 1.486611837405231e+00	 2.632342371312669e+00
 1.690013484564393e+00	 1.503139062255801e+00	 2.522714686167094e+00
 1.675292944011158e+00	 1.519528331853648e+00	 2.421189955792050e+00
 1.821960572674290e+00	 1.354998548325865e+00	 3.264849123255331e+00
 1.808733125946728e+00	 1.372605460557982e+00	 3.261058535422478e+00
 1.795326623209718e+00	 1.390094780362409e+00	 3.224036826680260e+00
 1.781742634073352e+00	 1.407463789525695e+00	 3.159210654472205e+00
 1.767982782456155e+00	 1.424709797332467e+00	 3.071842223906424e+00
 1.754048745976337e+00	 1.441830141922026e+00	 2.967047681401981e+00
 1.739942255302785e+00	 1.458822191629058e+00	 2.849819526367315e+00
 1.725665093466270e+00	 1.475683346307066e+00	 2.725052954513573e+00
 1.711219095131432e+00	 1.492411038633125e+00	 2.597641378092704e+00
 1.696606145830132e+00	 1.509002735392614e+00	 2.473595523366808e+00
 1.681828181156845e+00	 1.525455938742596e+00	 2.359860917393612e+00
 1.829040335364204e+00	 1.360263792979988e+00	 3.278549752174733e+00
 1.815761489509192e+00	 1.377939122038655e+00	 3.274157971177540e+00
 1.802302891870125e+00	 1.395496401729758e+00	 3.233797705832776e+00
 1.788666118156256e+00	 1.412932903277429e+00	 3.163429699379452e+00
 1.774852798596301e+00	 1.430245925510728e+00	 3.068846392601249e+00
 1.760864617327334e+00	 1.447432796225509e+00	 2.955689913034016e+00
 1.746703311743244e+00	 1.464490873530353e+00	 2.829474199059109e+00
 1.732370671803273e+00	 1.481417547175127e+00	 2.695611172764805e+00
 1.717868539301168e+00	 1.498210239860813e+00	 2.559380511683764e+00
 1.703198807095564e+00	 1.514866408529244e+00	 2.427496212189629e+00
 1.688363418302234e+00	 1.531383545631376e+00	 2.307481895419325e+00
 1.836120098053952e+00	 1.365529037633778e+00	 3.254272074647631e+00
 1.822789853071486e+00	 1.383272783518999e+00	 3.248766137792719e+00
 1.809279160530349e+00	 1.400898023096792e+00	 3.206615721713693e+00
 1.795589602238957e+00	 1.418402017028866e+00	 3.133989628743937e+00
 1.781722814736224e+00	 1.435782053688712e+00	 3.036879491785387e+00
 1.767680488678083e+00	 1.453035450528743e+00	 2.921117808138954e+00
 1.753464368183430e+00	 1.470159555431423e+00	 2.792400235891375e+00
 1.739076250139979e+00	 1.487151748042984e+00	 2.656239521798042e+00
 1.724517983470590e+00	 1.504009441088318e+00	 2.517863583065906e+00
 1.709791468360668e+00	 1.520730081665703e+00	 2.384530932756110e+00
 1.694898655447289e+00	 1.537311152519990e+00	 2.263968027474764e+00
 1.843199860743632e+00	 1.370794282287334e+00	 3.193182173383453e+00
 1.829818216633706e+00	 1.388606444999106e+00	 3.186066300640333e+00
 1.816255429190478e+00	 1.406299644463590e+00	 3.143652828860353e+00
 1.802513086321534e+00	 1.423871130780076e+00	 3.071996407885014e+00
 1.788592830875984e+00	 1.441318181866483e+00	 2.976960654036053e+00
 1.774496360028629e+00	 1.458638104831776e+00	 2.864236674644144e+00
 1.760225424623369e+00	 1.475828237332307e+00	 2.739365993638947e+00
 1.745781828476398e+00	 1.492885948910667e+00	 2.607376934552886e+00
 1.731167427639690e+00	 1.509808642315658e+00	 2.473381202217241e+00
 1.716384129625421e+00	 1.526593754802000e+00	 2.344803740188303e+00
 1.701433892591978e+00	 1.543238759408437e+00	 2.229227521489727e+00
 1.850279623433346e+00	 1.376059526940758e+00	 3.096420349041426e+00
 1.836846580195948e+00	 1.393940106479063e+00	 3.087215184105652e+00
 1.823231697850602e+00	 1.411701265830231e+00	 3.046044348211676e+00
 1.809436570404062e+00	 1.429340244531128e+00	 2.978529885656449e+00
 1.795462847015646e+00	 1.446854310044099e+00	 2.890083965066639e+00
 1.781312231379016e+00	 1.464240759134659e+00	 2.785928337756004e+00
 1.766986481063092e+00	 1.481496919233046e+00	 2.671118346018554e+00
 1.752487406812542e+00	 1.498620149778209e+00	 2.549471873106126e+00
 1.737816871808461e+00	 1.515607843542854e+00	 2.426211324283633e+00
 1.722976790889804e+00	 1.532457427938146e+00	 2.308409056193922e+00
 1.707969129736268e+00	 1.549166366296717e+00	 2.203162089602931e+00
 1.857359386123191e+00	 1.381324771594149e+00	 2.964888204577156e+00
 1.843874943758311e+00	 1.399273767958964e+00	 2.953342569355163e+00
 1.830207966510811e+00	 1.417102887196798e+00	 2.914898555894474e+00
 1.816360054486623e+00	 1.434809358282093e+00	 2.854643364312991e+00
 1.802332863155270e+00	 1.452390438221620e+00	 2.777218005849179e+00
 1.788128102729292e+00	 1.469843413437442e+00	 2.687050646634939e+00
 1.773747537502624e+00	 1.487165601133679e+00	 2.588199532627469e+00
 1.759192985148420e+00	 1.504354350645638e+00	 2.482957900255358e+00
 1.744466315976898e+00	 1.521407044769926e+00	 2.376619793407658e+00
 1.729569452153795e+00	 1.538321101074150e+00	 2.275432159597343e+00
 1.714504366880125e+00	 1.555093973184831e+00	 2.185667382343546e+00
 1.864439148813270e+00	 1.386590016247609e+00	 2.799142975607414e+00
 1.850903307320891e+00	 1.404607429438896e+00	 2.785550884960285e+00
 1.837184235171193e+00	 1.422504508563369e+00	 2.751296264969740e+00
 1.823283538569292e+00	 1.440278472033041e+00	 2.701363162682294e+00
 1.809202879294923e+00	 1.457926566399106e+00	 2.639305388603323e+00
 1.794943974079505e+00	 1.475446067740176e+00	 2.568436975688095e+00
 1.780508593941997e+00	 1.492834283034248e+00	 2.491041732283737e+00
 1.765898563484045e+00	 1.510088551512984e+00	 2.408254261737457e+00
 1.751115760144993e+00	 1.527206245996894e+00	 2.324860884279225e+00
 1.736162113417373e+00	 1.544184774210023e+00	 2.245949675845588e+00
 1.721039604023517e+00	 1.561021580072778e+00	 2.176633423102023e+00
 1.655687232572625e+00	 1.501745511185803e+00	 2.659612745362141e+00
 1.640980977214357e+00	 1.517801502379484e+00	 2.635804986576536e+00
 1.626116254222871e+00	 1.533716418641320e+00	 2.619918008028848e+00
 1.611095084601319e+00	 1.549487940025887e+00	 2.611072546190739e+00
 1.595919535078986e+00	 1.565113786121580e+00	 2.608339276905582e+00
 1.580591717156995e+00	 1.580591717156995e+00	 2.610736342180608e+00
 1.565113786121580e+00	 1.595919535078986e+00	 2.617226082460452e+00
 1.549487940025886e+00	 1.611095084601319e+00	 2.626711001550416e+00
 1.533716418641319e+00	 1.626116254222872e+00	 2.638029000200290e+00
 1.517801502379483e+00	 1.640980977214357e+00	 2.649947922963854e+00
 1.501745511185803e+00	 1.655687232572625e+00	 2.661159471241653e+00
 1.662222469719014e+00	 1.507673118075252e+00	 2.571000281893984e+00
 1.647458166642315e+00	 1.523792484590229e+00	 2.521595512194973e+00
 1.632534770437641e+00	 1.539770219330222e+00	 2.485625669631459e+00
 1.617454310085350e+00	 1.555603993192633e+00	 2.461744312170266e+00
 1.602218860472419e+00	 1.571291516764728e+00	 2.448537969044442e+00
 1.586830541434388e+00	 1.586830541434388e+00	 2.444524298525453e+00
 1.571291516764728e+00	 1.602218860472420e+00	 2.448149439373374e+00
 1.555603993192633e+00	 1.617454310085350e+00	 2.457784582598034e+00
 1.539770219330221e+00	 1.632534770437640e+00	 2.471721799252440e+00
 1.523792484590228e+00	 1.647458166642315e+00	 2.488169168827211e+00
 1.507673118075252e+00	 1.662222469719015e+00	 2.505245261345462e+00
 1.668757706865203e+00	 1.513600724964534e+00	 2.491546509753418e+00
 1.653935356070108e+00	 1.529783466800842e+00	 2.422063966267527e+00
 1.638953286652277e+00	 1.545824020019018e+00	 2.370396355464277e+00
 1.623813535569272e+00	 1.561720046359288e+00	 2.334813714341147e+00
 1.608518185865760e+00	 1.577469247407792e+00	 2.313505694630570e+00
 1.593069365711697e+00	 1.593069365711697e+00	 2.304580227817539e+00
 1.577469247407792e+00	 1.608518185865761e+00	 2.306061366102991e+00
 1.561720046359288e+00	 1.623813535569272e+00	 2.315886325634982e+00
 1.545824020019018e+00	 1.638953286652278e+00	 2.331901767680419e+00
 1.529783466800841e+00	 1.653935356070109e+00	 2.351859362516565e+00
 1.513600724964534e+00	 1.668757706865203e+00	 2.373410689605506e+00
 1.675292944011158e+00	 1.519528331853648e+00	 2.421189955792050e+00
 1.660412545497697e+00	 1.535774449011314e+00	 2.336954838423741e+00
 1.645371802866735e+00	 1.551877820707688e+00	 2.273816661245332e+00
 1.630172761053036e+00	 1.567836099525825e+00	 2.229744538062653e+00
 1.614817511258964e+00	 1.583646978050739e+00	 2.202617431254632e+00
 1.599308189988881e+00	 1.599308189988881e+00	 2.190223201131150e+00
 1.583646978050739e+00	 1.614817511258964e+00	 2.190256807577143e+00
 1.567836099525824e+00	 1.630172761053037e+00	 2.200317690217496e+00
 1.551877820707688e+00	 1.645371802866736e+00	 2.217906362966837e+00
 1.535774449011313e+00	 1.660412545497698e+00	 2.240420268210020e+00
 1.519528331853649e+00	 1.675292944011158e+00	 2.265148944911394e+00
 1.681828181156845e+00	 1.525455938742596e+00	 2.359860917393612e+00
 1.666889734925040e+00	 1.541765431221634e+00	 2.266007509598934e+00
 1.651790319080969e+00	 1.557931621396212e+00	 2.195470608837624e+00
 1.636531986536599e+00	 1.573952152692216e+00	 2.145999959939461e+00
 1.621116836651983e+00	 1.589824708693531e+00	 2.115248959810622e+00
 1.605547014265897e+00	 1.605547014265897e+00	 2.100773969042809e+00
 1.589824708693531e+00	 1.621116836651983e+00	 2.100032746222741e+00
 1.573952152692216e+00	 1.636531986536599e+00	 2.110382031311139e+00
 1.557931621396211e+00	 1.651790319080969e+00	 2.129074314386042e+00
 1.541765431221633e+00	 1.666889734925041e+00	 2.153253835717567e+00
 1.525455938742596e+00	 1.681828181156845e+00	 2.179951872478163e+00
 1.688363418302234e+00	 1.531383545631376e+00	 2.307481895419325e+00
 1.673366924352097e+00	 1.547756413431792e+00	 2.208956627136717e+00
 1.658208835294932e+00	 1.563985422084572e+00	 2.134939974020011e+00
 1.642891212019911e+00	 1.580068205858431e+00	 2.083042838455351e+00
 1.627416162044774e+00	 1.596002439336134e+00	 2.050777127862820e+00
 1.611785838542706e+00	 1.611785838542706e+00	 2.035555207271352e+00
 1.596002439336134e+00	 1.627416162044774e+00	 2.034688439081525e+00
 1.580068205858431e+00	 1.642891212019911e+00	 2.045384836741444e+00
 1.563985422084572e+00	 1.658208835294933e+00	 2.064745869299237e+00
 1.547756413431791e+00	 1.673366924352097e+00	 2.089762463775252e+00
 1.531383545631376e+00	 1.688363418302234e+00	 2.117310261933430e+00
 1.694898655447289e+00	 1.537311152519990e+00	 2.263968027474764e+00
 1.679844113778824e+00	 1.553747395641779e+00	 2.165532481573123e+00
 1.664627351508581e+00	 1.570039222772748e+00	 2.091804617047808e+00
 1.649250437502926e+00	 1.586184259024445e+00	 2.040336008259862e+00
 1.633715487437289e+00	 1.602180169978511e+00	 2.008580117291767e+00
 1.618024662819265e+00	 1.618024662819265e+00	 1.993891766993380e+00
 1.602180169978511e+00	 1.633715487437289e+00	 1.993525659775881e+00
 1.586184259024445e+00	 1.649250437502926e+00	 2.004633969455377e+00
 1.570039222772747e+00	 1.664627351508581e+00	 2.024263044015776e+00
 1.553747395641777e+00	 1.679844113778824e+00	 2.049349267463436e+00
 1.537311152519990e+00	 1.694898655447289e+00	 2.076714138897714e+00
 1.701433892591978e+00	 1.543238759408437e+00	 2.229227521489727e+00
 1.686321303205182e+00	 1.559738377851583e+00	 2.135461385057321e+00
 1.671045867721866e+00	 1.576093023460720e+00	 2.065642815928223e+00
 1.655609662985597e+00	 1.592300312190228e+00	 2.017342578009881e+00
 1.640014812829485e+00	 1.608357900620628e+00	 1.988037716104314e+00
 1.624263487095532e+00	 1.624263487095532e+00	 1.975110929708577e+00
 1.608357900620628e+00	 1.640014812829485e+00	 1.975848945194402e+00
 1.592300312190227e+00	 1.655609662985597e+00	 1.987439914464561e+00
 1.576093023460720e+00	 1.671045867721867e+00	 2.006969879097969e+00
 1.559738377851583e+00	 1.686321303205183e+00	 2.031418349638425e+00
 1.543238759408437e+00	 1.701433892591978e+00	 2.057653059964143e+00
 1.707969129736268e+00	 1.549166366296717e+00	 2.203162089602931e+00
 1.692798492631129e+00	 1.565729360061197e+00	 2.118466051365247e+00
 1.677464383934746e+00	 1.582146824148469e+00	 2.056031602338074e+00
 1.661968888467875e+00	 1.598416365355750e+00	 2.013526231671116e+00
 1.646314138221316e+00	 1.614535631262448e+00	 1.988531594296453e+00
 1.630502311371466e+00	 1.630502311371466e+00	 1.978542666533188e+00
 1.614535631262447e+00	 1.646314138221315e+00	 1.980965846771054e+00
 1.598416365355751e+00	 1.661968888467876e+00	 1.993116030344981e+00
 1.582146824148469e+00	 1.677464383934746e+00	 2.012212698990601e+00
 1.565729360061197e+00	 1.692798492631130e+00	 2.035375076270154e+00
 1.549166366296717e+00	 1.707969129736268e+00	 2.059616410986702e+00
 1.714504366880125e+00	 1.555093973184831e+00	 2.185667382343546e+00
 1.699275682056624e+00	 1.571720342270610e+00	 2.114265977463883e+00
 1.683882900147171e+00	 1.588200624835976e+00	 2.062547100113575e+00
 1.668328113949717e+00	 1.604532418520987e+00	 2.028351533187367e+00
 1.652613463612735e+00	 1.620713361903935e+00	 2.009445583660991e+00
 1.636741135647025e+00	 1.636741135647025e+00	 2.003519901803777e+00
 1.620713361903935e+00	 1.652613463612734e+00	 2.008187186235570e+00
 1.604532418520987e+00	 1.668328113949717e+00	 2.020978805171845e+00
 1.588200624835976e+00	 1.683882900147172e+00	 2.039340375859995e+00
 1.571720342270609e+00	 1.699275682056624e+00	 2.060626355581898e+00
 1.555093973184831e+00	 1.714504366880125e+00	 2.082093708588918e+00
 1.721039604023517e+00	 1.561021580072778e+00	 2.176633423102023e+00
 1.705752871481626e+00	 1.577711324479812e+00	 2.122577826585164e+00
 1.690301416359099e+00	 1.594254425523221e+00	 2.084764866243980e+00
 1.674687339431072e+00	 1.610648471685908e+00	 2.061284234428315e+00
 1.658912789003697e+00	 1.626891092545054e+00	 2.050165961435443e+00
 1.642979959922168e+00	 1.642979959922168e+00	 2.049378780876887e+00
 1.626891092545055e+00	 1.658912789003697e+00	 2.056827315716422e+00
 1.610648471685908e+00	 1.674687339431073e+00	 2.070348116771950e+00
 1.594254425523221e+00	 1.690301416359099e+00	 2.087704597530944e+00
 1.577711324479812e+00	 1.705752871481626e+00	 2.106580920891197e+00
 1.561021580072778e+00	 1.721039604023517e+00	 2.124574904807662e+00
 1.501745511185803e+00	 1.655687232572625e+00	 2.661159471241653e+00
 1.485548042844174e+00	 1.670235500765547e+00	 2.668073646882441e+00
 1.469214233720123e+00	 1.684621318449455e+00	 2.667380810435036e+00
 1.452746542832192e+00	 1.698842780115080e+00	 2.656585892039229e+00
 1.436147464020815e+00	 1.712898029537638e+00	 2.637606989755092e+00
 1.419419524704582e+00	 1.726785260568927e+00	 2.612475517167328e+00
 1.402565284615473e+00	 1.740502717892059e+00	 2.583131511523622e+00
 1.385587334514378e+00	 1.754048697738161e+00	 2.551428298375248e+00
 1.368488294888244e+00	 1.767421548564461e+00	 2.519138608043345e+00
 1.351270814630200e+00	 1.780619671693210e+00	 2.487962039002293e+00
 1.333937569704040e+00	 1.793641521910966e+00	 2.459533753520868e+00
 1.507673118075252e+00	 1.662222469719015e+00	 2.505245261345462e+00
 1.491411715981593e+00	 1.676828162032079e+00	 2.518931414416003e+00
 1.475013434948752e+00	 1.691270762620391e+00	 2.527084044908752e+00
 1.458480743701366e+00	 1.705548358453375e+00	 2.526726677138751e+00
 1.441816145923415e+00	 1.719659085979478e+00	 2.518620210589921e+00
 1.425022179009569e+00	 1.733601131921384e+00	 2.504629238208162e+00
 1.408101412795435e+00	 1.747372734033735e+00	 2.486530163444411e+00
 1.391056448268004e+00	 1.760972181822650e+00	 2.466016419762586e+00
 1.373889916257661e+00	 1.774397817226498e+00	 2.444705178716458e+00
 1.356604476113090e+00	 1.787648035257331e+00	 2.424145437854819e+00
 1.339202814360497e+00	 1.800721284602547e+00	 2.405827369707154e+00
 1.513600724964534e+00	 1.668757706865203e+00	 2.373410689605506e+00
 1.497275389118799e+00	 1.683420823298369e+00	 2.392298927712864e+00
 1.480812636177114e+00	 1.697920206791036e+00	 2.406825933853177e+00
 1.464214944570217e+00	 1.712253936791332e+00	 2.415143985564338e+00
 1.447484827825630e+00	 1.726420142420929e+00	 2.416158652325686e+00
 1.430624833314105e+00	 1.740417003273407e+00	 2.411592604040324e+00
 1.413637540974881e+00	 1.754242750174934e+00	 2.403081672013522e+00
 1.396525562021053e+00	 1.767895665906627e+00	 2.392180609978312e+00
 1.379291537626440e+00	 1.781374085887994e+00	 2.380370384170799e+00
 1.361938137595290e+00	 1.794676398820894e+00	 2.369066879820140e+00
 1.344468059016220e+00	 1.807801047293561e+00	 2.359630901142972e+00
 1.519528331853649e+00	 1.675292944011158e+00	 2.265148944911394e+00
 1.503139062255803e+00	 1.690013484564393e+00	 2.287766285369964e+00
 1.486611837405232e+00	 1.704569650961384e+00	 2.306656568756339e+00
 1.469949145438773e+00	 1.718959515128959e+00	 2.321667951726732e+00
 1.453153509727497e+00	 1.733181198862022e+00	 2.330099798771700e+00
 1.436227487618241e+00	 1.747232874625042e+00	 2.333274907758306e+00
 1.419173669153873e+00	 1.761112766315720e+00	 2.332711299732362e+00
 1.401994675773594e+00	 1.774819149990168e+00	 2.329845968220644e+00
 1.384693158994663e+00	 1.788350354549037e+00	 2.326042742160395e+00
 1.367271799076891e+00	 1.801704762383993e+00	 2.322601605515467e+00
 1.349733303671310e+00	 1.814880809984109e+00	 2.320769346430941e+00
 1.525455938742596e+00	 1.681828181156845e+00	 2.179951872478163e+00
 1.509002735392615e+00	 1.696606145830132e+00	 2.204920607119597e+00
 1.492411038633126e+00	 1.711219095131431e+00	 2.226718923783348e+00
 1.475683346307067e+00	 1.725665093466269e+00	 2.246125330749850e+00
 1.458822191629058e+00	 1.739942255302784e+00	 2.260317204593027e+00
 1.441830141922026e+00	 1.754048745976336e+00	 2.269581251253360e+00
 1.424709797332469e+00	 1.767982782456154e+00	 2.275340146557270e+00
 1.407463789525696e+00	 1.781742634073352e+00	 2.278933753135960e+00
 1.390094780362410e+00	 1.795326623209717e+00	 2.281627547534525e+00
 1.372605460557983e+00	 1.808733125946727e+00	 2.284622547976663e+00
 1.354998548325865e+00	 1.821960572674290e+00	 2.289066611321018e+00
 1.531383545631376e+00	 1.688363418302234e+00	 2.117310261933430e+00
 1.514866408529244e+00	 1.703198807095564e+00	 2.143346347992360e+00
 1.498210239860814e+00	 1.717868539301168e+00	 2.166681111181668e+00
 1.481417547175128e+00	 1.732370671803272e+00	 2.188338937729123e+00
 1.464490873530355e+00	 1.746703311743244e+00	 2.206679953112364e+00
 1.447432796225509e+00	 1.760864617327333e+00	 2.220412016994566e+00
 1.430245925510728e+00	 1.774852798596301e+00	 2.230884631010220e+00
 1.412932903277430e+00	 1.788666118156255e+00	 2.239360868527346e+00
 1.395496401729759e+00	 1.802302891870124e+00	 2.247026357733628e+00
 1.377939122038655e+00	 1.815761489509192e+00	 2.254999813055454e+00
 1.360263792979988e+00	 1.829040335364205e+00	 2.264344979050829e+00
 1.537311152519990e+00	 1.694898655447289e+00	 2.076714138897714e+00
 1.520730081665703e+00	 1.709791468360667e+00	 2.102625615304221e+00
 1.504009441088319e+00	 1.724517983470590e+00	 2.126202411003346e+00
 1.487151748042984e+00	 1.739076250139977e+00	 2.148411427120557e+00
 1.470159555431424e+00	 1.753464368183429e+00	 2.169052115614204e+00
 1.453035450528744e+00	 1.767680488678082e+00	 2.185662341088497e+00
 1.435782053688713e+00	 1.781722814736223e+00	 2.199255972460522e+00
 1.418402017028867e+00	 1.795589602238956e+00	 2.211039350244620e+00
 1.400898023096792e+00	 1.809279160530348e+00	 2.222136479596552e+00
 1.383272783519000e+00	 1.822789853071486e+00	 2.233600161378849e+00
 1.365529037633777e+00	 1.836120098053952e+00	 2.246424582621515e+00
 1.543238759408437e+00	 1.701433892591978e+00	 2.057653059964143e+00
 1.526593754802001e+00	 1.716384129625421e+00	 2.082338488391949e+00
 1.509808642315658e+00	 1.731167427639690e+00	 2.104938723986232e+00
 1.492885948910669e+00	 1.745781828476398e+00	 2.126391005351763e+00
 1.475828237332308e+00	 1.760225424623369e+00	 2.147292212111288e+00
 1.458638104831776e+00	 1.774496360028628e+00	 2.165221587583433e+00
 1.441318181866484e+00	 1.788592830875984e+00	 2.180359674546507e+00
 1.423871130780076e+00	 1.802513086321532e+00	 2.193875854224337e+00
 1.406299644463590e+00	 1.816255429190478e+00	 2.206850457444138e+00
 1.388606444999106e+00	 1.829818216633705e+00	 2.220286491828967e+00
 1.370794282287334e+00	 1.843199860743632e+00	 2.235122878957136e+00
 1.549166366296717e+00	 1.707969129736268e+00	 2.059616410986702e+00
 1.532457427938147e+00	 1.722976790889803e+00	 2.082063341023438e+00
 1.515607843542855e+00	 1.737816871808461e+00	 2.102542913352172e+00
 1.498620149778210e+00	 1.752487406812541e+00	 2.121990340745714e+00
 1.481496919233046e+00	 1.766986481063090e+00	 2.141252674264406e+00
 1.464240759134660e+00	 1.781312231379015e+00	 2.158972823985094e+00
 1.446854310044099e+00	 1.795462847015645e+00	 2.174095009706790e+00
 1.429340244531129e+00	 1.809436570404062e+00	 2.187771145649185e+00
 1.411701265830233e+00	 1.823231697850602e+00	 2.201055562405111e+00
 1.393940106479064e+00	 1.836846580195948e+00	 2.214917326502716e+00
 1.376059526940758e+00	 1.850279623433346e+00	 2.230254124897379e+00
 1.555093973184831e+00	 1.714504366880125e+00	 2.082093708588918e+00
 1.538321101074151e+00	 1.729569452153795e+00	 2.101377166411768e+00
 1.521407044769926e+00	 1.744466315976897e+00	 2.118665148692329e+00
 1.504354350645638e+00	 1.759192985148420e+00	 2.134918252948153e+00
 1.487165601133680e+00	 1.773747537502623e+00	 2.151005054001872e+00
 1.469843413437443e+00	 1.788128102729292e+00	 2.166792297951954e+00
 1.452390438221620e+00	 1.802332863155270e+00	 2.180354504791893e+00
 1.434809358282094e+00	 1.816360054486623e+00	 2.192619589197176e+00
 1.417102887196799e+00	 1.830207966510810e+00	 2.204633282951406e+00
 1.399273767958964e+00	 1.843874943758311e+00	 2.217346297112013e+00
 1.381324771594150e+00	 1.857359386123191e+00	 2.231484996244163e+00
 1.561021580072778e+00	 1.721039604023517e+00	 2.124574904807662e+00
 1.544184774210024e+00	 1.736162113417373e+00	 2.139855904764025e+00
 1.527206245996895e+00	 1.751115760144993e+00	 2.152953251884309e+00
 1.510088551512984e+00	 1.765898563484043e+00	 2.164880117762052e+00
 1.492834283034248e+00	 1.780508593941995e+00	 2.176552435402697e+00
 1.475446067740177e+00	 1.794943974079505e+00	 2.188548915139086e+00
 1.457926566399107e+00	 1.809202879294922e+00	 2.199023427727797e+00
 1.440278472033042e+00	 1.823283538569291e+00	 2.208308640351929e+00
 1.422504508563371e+00	 1.837184235171193e+00	 2.217458816610924e+00
 1.404607429438897e+00	 1.850903307320891e+00	 2.227421632786369e+00
 1.386590016247609e+00	 1.864439148813270e+00	 2.238263361349992e+00
 1.333937569704040e+00	 1.793641521910966e+00	 2.459533753520868e+00
 1.316494235154875e+00	 1.806483441180266e+00	 2.435428816583410e+00
 1.298940590890470e+00	 1.819146228155318e+00	 2.415576925070381e+00
 1.281279374770660e+00	 1.831628509158474e+00	 2.399133123902673e+00
 1.263513346306681e+00	 1.843928965884853e+00	 2.385287271468963e+00
 1.245645285274350e+00	 1.856046335795278e+00	 2.373289180741157e+00
 1.227677990319974e+00	 1.867979412467918e+00	 2.362721690926854e+00
 1.209614277560409e+00	 1.879727045908540e+00	 2.353474560709975e+00
 1.191456979178689e+00	 1.891288142819314e+00	 2.345473337412065e+00
 1.173208942016627e+00	 1.902661666826218e+00	 2.338671307917808e+00
 1.154873026165801e+00	 1.913846638665072e+00	 2.333046703022653e+00
 1.339202814360497e+00	 1.800721284602547e+00	 2.405827369707154e+00
 1.321690628445213e+00	 1.813613892785887e+00	 2.391360396167545e+00
 1.304067697406269e+00	 1.826326661613954e+00	 2.380752243316880e+00
 1.286336769910229e+00	 1.838858211986983e+00	 2.373067516516504e+00
 1.268500616360523e+00	 1.851207220396538e+00	 2.367392193750827e+00
 1.250562027505148e+00	 1.863372419320001e+00	 2.362889151028947e+00
 1.232523813037073e+00	 1.875352597573608e+00	 2.359135228520711e+00
 1.214388800188781e+00	 1.887146600623915e+00	 2.355897146451857e+00
 1.196159832322339e+00	 1.898753330857675e+00	 2.352961856535753e+00
 1.177839767516464e+00	 1.910171747810131e+00	 2.350133781978967e+00
 1.159431477151930e+00	 1.921400868351795e+00	 2.347232151782183e+00
 1.344468059016220e+00	 1.807801047293561e+00	 2.359630901142972e+00
 1.326887021734783e+00	 1.820744344390948e+00	 2.353615625697902e+00
 1.309194803921275e+00	 1.833507095072052e+00	 2.351019115445864e+00
 1.291394165048992e+00	 1.846087914814986e+00	 2.350835749438434e+00
 1.273487886413557e+00	 1.858485474907758e+00	 2.352042436140317e+00
 1.255478769735148e+00	 1.870698502844312e+00	 2.353763261641969e+00
 1.237369635753399e+00	 1.882725782678946e+00	 2.355608642467863e+00
 1.219163322816413e+00	 1.894566155339006e+00	 2.357244806652517e+00
 1.200862685465302e+00	 1.906218518895826e+00	 2.358348973792598e+00
 1.182470593015676e+00	 1.917681828793916e+00	 2.358606817477125e+00
 1.163989928137511e+00	 1.928955098038471e+00	 2.357709873610740e+00
 1.349733303671310e+00	 1.814880809984109e+00	 2.320769346430941e+00
 1.332083415023695e+00	 1.827874795995548e+00	 2.321969497612393e+00
 1.314321910435607e+00	 1.840687528529700e+00	 2.326119884130140e+00
 1.296451560187077e+00	 1.853317617642557e+00	 2.332161362055729e+00
 1.278475156465919e+00	 1.865763729418575e+00	 2.338875893057352e+00
 1.260395511964490e+00	 1.878024586368254e+00	 2.345571014882098e+00
 1.242215458469091e+00	 1.890098967783955e+00	 2.351833904734339e+00
 1.223937845443449e+00	 1.901985710053816e+00	 2.357257385026047e+00
 1.205565538607713e+00	 1.913683706933750e+00	 2.361437484763211e+00
 1.187101418514393e+00	 1.925191909777534e+00	 2.363970909971136e+00
 1.168548379122664e+00	 1.936509327725052e+00	 2.364452470277971e+00
 1.354998548325865e+00	 1.821960572674290e+00	 2.289066611321018e+00
 1.337279808312057e+00	 1.835005247599780e+00	 2.296197155587147e+00
 1.319449016949385e+00	 1.847867961986985e+00	 2.305798047950878e+00
 1.301508955324611e+00	 1.860547320469775e+00	 2.316647006695545e+00
 1.283462426517742e+00	 1.873041983929048e+00	 2.327536594182022e+00
 1.265312254193315e+00	 1.885350669891869e+00	 2.337973086985308e+00
 1.247061281184295e+00	 1.897472152888660e+00	 2.347503643601626e+00
 1.228712368070030e+00	 1.909405264768351e+00	 2.355674621427875e+00
 1.210268391749709e+00	 1.921148894971434e+00	 2.362029084401037e+00
 1.191732244012743e+00	 1.932701990760955e+00	 2.366104227159953e+00
 1.173106830107502e+00	 1.944063557411484e+00	 2.367428764288102e+00
 1.360263792979988e+00	 1.829040335364205e+00	 2.264344979050829e+00
 1.342476201599982e+00	 1.842135699203746e+00	 2.276073355044863e+00
 1.324576123462730e+00	 1.855048395443998e+00	 2.289770659937507e+00
 1.306566350461724e+00	 1.867777023296715e+00	 2.303895292856297e+00
 1.288449696569163e+00	 1.880320238439240e+00	 2.317670236499866e+00
 1.270228996421762e+00	 1.892676753415200e+00	 2.330631392207071e+00
 1.251907103899149e+00	 1.904845337993083e+00	 2.342311212379970e+00
 1.233486890696297e+00	 1.916824819482612e+00	 2.352236229720348e+00
 1.214971244891429e+00	 1.928614083008861e+00	 2.359924458479250e+00
 1.196363069510855e+00	 1.940212071744143e+00	 2.364882718241645e+00
 1.177665281092140e+00	 1.951617787097718e+00	 2.366603930380452e+00
 1.365529037633777e+00	 1.836120098053952e+00	 2.246424582621515e+00
 1.347672594887578e+00	 1.849266150807540e+00	 2.261371925974136e+00
 1.329703229975759e+00	 1.862228828900827e+00	 2.277545447713867e+00
 1.311623745598542e+00	 1.875006726123453e+00	 2.293552811140888e+00
 1.293436966620315e+00	 1.887598492949212e+00	 2.308924091101131e+00
 1.275145738649971e+00	 1.900002836938292e+00	 2.323209149569657e+00
 1.256752926613798e+00	 1.912218523097250e+00	 2.335950760592829e+00
 1.238261413322390e+00	 1.924244374196604e+00	 2.346681977811810e+00
 1.219674098033008e+00	 1.936079271046014e+00	 2.354923376809053e+00
 1.200993895008857e+00	 1.947722152727063e+00	 2.360180224539508e+00
 1.182223732076697e+00	 1.959172016783703e+00	 2.361939627693447e+00
 1.370794282287334e+00	 1.843199860743632e+00	 2.235122878957136e+00
 1.352868988174956e+00	 1.856396602411258e+00	 2.251787677779205e+00
 1.334830336488594e+00	 1.869409262357560e+00	 2.268745997677807e+00
 1.316681140735195e+00	 1.882236428950067e+00	 2.285267825078238e+00
 1.298424236671334e+00	 1.894876747459023e+00	 2.300947072668035e+00
 1.280062480878080e+00	 1.907328920461187e+00	 2.315370952199651e+00
 1.261598749328383e+00	 1.919591708201184e+00	 2.328117307565870e+00
 1.243035935948452e+00	 1.931663928910331e+00	 2.338751769810636e+00
 1.224376951174584e+00	 1.943544459082879e+00	 2.346824788181591e+00
 1.205624720506878e+00	 1.955232233709682e+00	 2.351868591361306e+00
 1.186782183061287e+00	 1.966726246469390e+00	 2.353394132574207e+00
 1.376059526940758e+00	 1.850279623433346e+00	 2.230254124897379e+00
 1.358065381462228e+00	 1.863527054014999e+00	 2.246773997569137e+00
 1.339957443001354e+00	 1.876589695814287e+00	 2.263036761992563e+00
 1.321738535871809e+00	 1.889466131776632e+00	 2.278690347816113e+00
 1.303411506722355e+00	 1.902155001968735e+00	 2.293389811560107e+00
 1.284979223106231e+00	 1.914655003983926e+00	 2.306782839186288e+00
 1.266444572043045e+00	 1.926964893304907e+00	 2.318506818356154e+00
 1.247810458574623e+00	 1.939083483623797e+00	 2.328185730237569e+00
 1.229079804316294e+00	 1.951009647119438e+00	 2.335426916987368e+00
 1.210255546005046e+00	 1.962742314691965e+00	 2.339817781058496e+00
 1.191340634046026e+00	 1.974280476154726e+00	 2.340922472016392e+00
 1.381324771594150e+00	 1.857359386123191e+00	 2.231484996244163e+00
 1.363261774749500e+00	 1.870657505618858e+00	 2.246001859365361e+00
 1.345084549514157e+00	 1.883770129271097e+00	 2.260083823660958e+00
 1.326795931008512e+00	 1.896695834603226e+00	 2.273472221315139e+00
 1.308398776773511e+00	 1.909433256478410e+00	 2.285904728428201e+00
 1.289895965334563e+00	 1.921981087506554e+00	 2.297112369893228e+00
 1.271290394757928e+00	 1.934338078408444e+00	 2.306816281958912e+00
 1.252584981201046e+00	 1.946503038337005e+00	 2.314724290241329e+00
 1.233782657458275e+00	 1.958474835155677e+00	 2.320527361468328e+00
 1.214886371503492e+00	 1.970252395673879e+00	 2.323895987253382e+00
 1.195899085031030e+00	 1.981834705839663e+00	 2.324476557709565e+00
 1.386590016247609e+00	 1.864439148813270e+00	 2.238263361349992e+00
 1.368458168036886e+00	 1.877787957222933e+00	 2.249167952290520e+00
 1.350211656027125e+00	 1.890950562728077e+00	 2.259554986960933e+00
 1.331853326145434e+00	 1.903925537429925e+00	 2.269267197977505e+00
 1.313386046824939e+00	 1.916711510988107e+00	 2.278146111289862e+00
 1.294812707563215e+00	 1.929307171029115e+00	 2.286028700658488e+00
 1.276136217473172e+00	 1.941711263511818e+00	 2.292743791731371e+00
 1.257359503827862e+00	 1.953922593049959e+00	 2.298108275764254e+00
 1.238485510600663e+00	 1.965940023191579e+00	 2.301923193559115e+00
 1.219517197002343e+00	 1.977762476655389e+00	 2.303969750203160e+00
 1.200457536016417e+00	 1.989388935524150e+00	 2.304005320683731e+00
 1.154873026165801e+00	 1.913846638665072e+00	 2.333046703022653e+00
 1.136452103918131e+00	 1.924842136790607e+00	 2.326897416448852e+00
 1.117949059414061e+00	 1.935647298879856e+00	 2.319173287542521e+00
 1.099366786116543e+00	 1.946261320512928e+00	 2.310968706935782e+00
 1.080708185042699e+00	 1.956683454730028e+00	 2.303564870666393e+00
 1.061976163366337e+00	 1.966913012010647e+00	 2.297447016574170e+00
 1.043173633027097e+00	 1.976949360212890e+00	 2.292940851944920e+00
 1.024303509347539e+00	 1.986791924473413e+00	 2.290283374359849e+00
 1.005368709659413e+00	 1.996440187068386e+00	 2.289633679450339e+00
 9.863721519403903e-01	 2.005893687236055e+00	 2.291083440562053e+00
 9.673167534624196e-01	 2.015152020961425e+00	 2.294666984279272e+00
 1.159431477151930e+00	 1.921400868351795e+00	 2.347232151782183e+00
 1.140937844858008e+00	 1.932439767299915e+00	 2.342244988637273e+00
 1.122361766159259e+00	 1.943287578927815e+00	 2.334118841033862e+00
 1.103706145939548e+00	 1.953943495640461e+00	 2.324151524453656e+00
 1.084973896666725e+00	 1.964406767529707e+00	 2.313941628850319e+00
 1.066167936989626e+00	 1.974676702353418e+00	 2.304394760289557e+00
 1.047291190341737e+00	 1.984752665474563e+00	 2.296174356677520e+00
 1.028346583552809e+00	 1.994634079760735e+00	 2.289861176985356e+00
 1.009337045469723e+00	 2.004320425444586e+00	 2.285963923770315e+00
 9.902655055878178e-01	 2.013811239945681e+00	 2.284929517111755e+00
 9.711348926939367e-01	 2.023106117654333e+00	 2.287152942635137e+00
 1.163989928137511e+00	 1.928955098038471e+00	 2.357709873610740e+00
 1.145423585797431e+00	 1.940037397809262e+00	 2.353459659734570e+00
 1.126774472904106e+00	 1.950927858975903e+00	 2.344858421982076e+00
 1.108045505762309e+00	 1.961625670768204e+00	 2.333392534873685e+00
 1.089239608290615e+00	 1.972130080329677e+00	 2.320839869670261e+00
 1.070359710612885e+00	 1.982440392696559e+00	 2.308488913495697e+00
 1.051408747656442e+00	 1.992555970736669e+00	 2.297272785719534e+00
 1.032389657758227e+00	 2.002476235048544e+00	 2.288047345757307e+00
 1.013305381280242e+00	 2.012200663821316e+00	 2.281601740979523e+00
 9.941588592354975e-01	 2.021728792655865e+00	 2.278668584582447e+00
 9.749530319257198e-01	 2.031060214347808e+00	 2.279933684608773e+00
 1.168548379122664e+00	 1.936509327725052e+00	 2.364452470277971e+00
 1.149909326736499e+00	 1.947635028318585e+00	 2.360605820510241e+00
 1.131187179648680e+00	 1.958568139024042e+00	 2.351533942441902e+00
 1.112384865584882e+00	 1.969307845896078e+00	 2.338884888537251e+00
 1.093505319914400e+00	 1.979853393129853e+00	 2.324497463692092e+00
 1.074551484236119e+00	 1.990204083039974e+00	 2.309998688834827e+00
 1.055526304971194e+00	 2.000359275999112e+00	 2.296525492964321e+00
 1.036432731963756e+00	 2.010318390336744e+00	 2.285140949674418e+00
 1.017273717090920e+00	 2.020080902198478e+00	 2.276846268943059e+00
 9.980522128833663e-01	 2.029646345366506e+00	 2.272590988181144e+00
 9.787711711577025e-01	 2.039014311041749e+00	 2.273282690318811e+00
 1.173106830107502e+00	 1.944063557411484e+00	 2.367428764288102e+00
 1.154395067675310e+00	 1.955232658827819e+00	 2.363742636718983e+00
 1.135599886393057e+00	 1.966208419072158e+00	 2.354280867172373e+00
 1.116724225407318e+00	 1.976990021023997e+00	 2.340798256146311e+00
 1.097771031538109e+00	 1.987576705930144e+00	 2.325148532023526e+00
 1.078743257859333e+00	 1.997967773383569e+00	 2.309189315198245e+00
 1.059643862285977e+00	 2.008162581261797e+00	 2.294217788000155e+00
 1.040475806169357e+00	 2.018160545625237e+00	 2.281437112788871e+00
 1.021242052901703e+00	 2.027961140575972e+00	 2.271992945990366e+00
 1.001945566531361e+00	 2.037563898077505e+00	 2.266983751161568e+00
 9.825893103898176e-01	 2.046968407736056e+00	 2.267470613796431e+00
 1.177665281092140e+00	 1.951617787097718e+00	 2.366603930380452e+00
 1.158880808613962e+00	 1.962830289336903e+00	 2.362924202544861e+00
 1.140012593137314e+00	 1.973848699120177e+00	 2.353228384631983e+00
 1.121063585229672e+00	 1.984672196151879e+00	 2.339315262165442e+00
 1.102036743161770e+00	 1.995300018730458e+00	 2.323023303199742e+00
 1.082935031482531e+00	 2.005731463727250e+00	 2.306321910677400e+00
 1.063761419600772e+00	 2.015965886524625e+00	 2.290630821782288e+00
 1.044518880374993e+00	 2.026002700913923e+00	 2.277226909490935e+00
 1.025210388712539e+00	 2.035841378953698e+00	 2.267333412941359e+00
 1.005838920179419e+00	 2.045481450788762e+00	 2.262130480959094e+00
 9.864074496219992e-01	 2.054922504430628e+00	 2.262765190835877e+00
 1.182223732076697e+00	 1.959172016783703e+00	 2.361939627693447e+00
 1.163366549552554e+00	 1.970427919845770e+00	 2.358199694108325e+00
 1.144425299881529e+00	 1.981488979168023e+00	 2.348499577536316e+00
 1.125402945051999e+00	 1.992354371279641e+00	 2.334620066272090e+00
 1.106302454785414e+00	 2.003023331530709e+00	 2.318347968903277e+00
 1.087126805105719e+00	 2.013495154070926e+00	 2.301653354116400e+00
 1.067878976915562e+00	 2.023769191787499e+00	 2.286041470751457e+00
 1.048561954580627e+00	 2.033844856202704e+00	 2.272797258157180e+00
 1.029178724523375e+00	 2.043721617331557e+00	 2.263155413479727e+00
 1.009732273827477e+00	 2.053399003500176e+00	 2.258311273717178e+00
 9.902255888541812e-01	 2.062876601125368e+00	 2.259431145335613e+00
 1.186782183061287e+00	 1.966726246469390e+00	 2.353394132574207e+00
 1.167852290491185e+00	 1.978025550354356e+00	 2.349613523034299e+00
 1.148838006625779e+00	 1.989129259215624e+00	 2.340211592989770e+00
 1.129742304874350e+00	 2.000036546407199e+00	 2.326889921030236e+00
 1.110568166409069e+00	 2.010746644330806e+00	 2.311344538549330e+00
 1.091318578728902e+00	 2.021258844414498e+00	 2.295436155303411e+00
 1.071996534230329e+00	 2.031572497050323e+00	 2.280722219440467e+00
 1.052605028786221e+00	 2.041687011491480e+00	 2.268430813206219e+00
 1.033147060334156e+00	 2.051601855709450e+00	 2.259742692917794e+00
 1.013625627475472e+00	 2.061316556211648e+00	 2.255802617248390e+00
 9.940437280862963e-01	 2.070830697820173e+00	 2.257730094170697e+00
 1.191340634046026e+00	 1.974280476154726e+00	 2.340922472016392e+00
 1.172338031429952e+00	 1.985623180862599e+00	 2.337205490079694e+00
 1.153250713370142e+00	 1.996769539262902e+00	 2.328475812202931e+00
 1.134081664696782e+00	 2.007718721534471e+00	 2.316295353828618e+00
 1.114833878032766e+00	 2.018469957130660e+00	 2.302221808215126e+00
 1.095510352352085e+00	 2.029022534757877e+00	 2.287918323837284e+00
 1.076114091545056e+00	 2.039375802313002e+00	 2.274941041609307e+00
 1.056648102991739e+00	 2.049529166780154e+00	 2.264405855604538e+00
 1.037115396144830e+00	 2.059482094087275e+00	 2.257374895395920e+00
 1.017518981123340e+00	 2.069234108923078e+00	 2.254877292472023e+00
 9.978618673182789e-01	 2.078784794514945e+00	 2.257920450635541e+00
 1.195899085031030e+00	 1.981834705839663e+00	 2.324476557709565e+00
 1.176823772368955e+00	 1.993220811370433e+00	 2.321010938818786e+00
 1.157663420114694e+00	 2.004409819309784e+00	 2.313398019806490e+00
 1.138421024519346e+00	 2.015400896661373e+00	 2.303000348041659e+00
 1.119099589656532e+00	 2.026193269930182e+00	 2.291176829602567e+00
 1.099702125975272e+00	 2.036786225100966e+00	 2.279343236704660e+00
 1.080231648859724e+00	 2.047179107575435e+00	 2.268961279947895e+00
 1.060691177197142e+00	 2.057371322068627e+00	 2.260996181863631e+00
 1.041083731955346e+00	 2.067362332464934e+00	 2.256327459558168e+00
 1.021412334771020e+00	 2.077151661634367e+00	 2.255804273368677e+00
 1.001680006550062e+00	 2.086738891209582e+00	 2.260257326495195e+00
 1.200457536016417e+00	 1.989388935524150e+00	 2.304005320683731e+00
 1.181309513308292e+00	 2.000818441877797e+00	 2.301060909384827e+00
 1.162076126859514e+00	 2.012050099356196e+00	 2.295078572772515e+00
 1.142760384342097e+00	 2.023083071787823e+00	 2.287162523433790e+00
 1.123365301280397e+00	 2.033916582729283e+00	 2.278412995428293e+00
 1.103893899598469e+00	 2.044549915443672e+00	 2.269949504601728e+00
 1.084349206174317e+00	 2.054982412837529e+00	 2.263041524384446e+00
 1.064734251402393e+00	 2.065213477356799e+00	 2.258470991568495e+00
 1.045052067765649e+00	 2.075242570842330e+00	 2.256871512744603e+00
 1.025305688418447e+00	 2.085069214345414e+00	 2.258848625491304e+00
 1.005498145781580e+00	 2.094692987903986e+00	 2.264992432682096e+00
 9.673167534624196e-01	 2.015152020961425e+00	 2.294666984279272e+00
 9.482021755781406e-01	 2.024216364620247e+00	 2.301314295844289e+00
 9.290345655093517e-01	 2.033084834959419e+00	 2.311457880052469e+00
 9.098168309719685e-01	 2.041757195019680e+00	 2.324342157745867e+00
 8.905518737420935e-01	 2.050233263396683e+00	 2.339206402537747e+00
 8.712425883789897e-01	 2.058512913847339e+00	 2.355292469527748e+00
 8.518918609662952e-01	 2.066596074862476e+00	 2.371851771122425e+00
 8.325025678724677e-01	 2.074482729206619e+00	 2.388151472051225e+00
 8.130775745313923e-01	 2.082172913425751e+00	 2.403479883075748e+00
 7.936197342440642e-01	 2.089666717323930e+00	 2.417151040230632e+00
 7.741318870022023e-01	 2.096964283409688e+00	 2.428508463655578e+00
 9.711348926939367e-01	 2.023106117654333e+00	 2.287152942635137e+00
 9.519448668040258e-01	 2.032206239589626e+00	 2.293851939876725e+00
 9.327015994038663e-01	 2.041109715064976e+00	 2.305267999277434e+00
 9.134080096865619e-01	 2.049816306185801e+00	 2.320292516388838e+00
 8.940670108819566e-01	 2.058325830831709e+00	 2.337813519106239e+00
 8.746815089745689e-01	 2.066638162261302e+00	 2.356724086798305e+00
 8.552544014398387e-01	 2.074753228683138e+00	 2.375929979018057e+00
 8.357885759996779e-01	 2.082671012793702e+00	 2.394356444519508e+00
 8.162869093982649e-01	 2.090391551283217e+00	 2.410954188961337e+00
 7.967522661989983e-01	 2.097914934310198e+00	 2.424704487267151e+00
 7.771874976034669e-01	 2.105241304945670e+00	 2.434623434078264e+00
 9.749530319257198e-01	 2.031060214347808e+00	 2.279933684608773e+00
 9.556875580301600e-01	 2.040196114559561e+00	 2.286808125592243e+00
 9.363686332985863e-01	 2.049134595171063e+00	 2.299340612303932e+00
 9.169991884012939e-01	 2.057875417352409e+00	 2.316138726424081e+00
 8.975821480218735e-01	 2.066418398267170e+00	 2.335808516566010e+00
 8.781204295701049e-01	 2.074763410675641e+00	 2.356963522545275e+00
 8.586169419132345e-01	 2.082910382504116e+00	 2.378232972329684e+00
 8.390745841266316e-01	 2.090859296381037e+00	 2.398269121131070e+00
 8.194962442647739e-01	 2.098610189140870e+00	 2.415753710005655e+00
 7.998847981534678e-01	 2.106163151296597e+00	 2.429403529166216e+00
 7.802431082041756e-01	 2.113518326481731e+00	 2.437975078919963e+00
 9.787711711577025e-01	 2.039014311041749e+00	 2.273282690318811e+00
 9.594302492564809e-01	 2.048185989529952e+00	 2.280438546639030e+00
 9.400356671934595e-01	 2.057159475277577e+00	 2.293918768457335e+00
 9.205903671161286e-01	 2.065934528519404e+00	 2.312115488138929e+00
 9.010972851618301e-01	 2.074510965702969e+00	 2.333421198978226e+00
 8.815593501656065e-01	 2.082888659090260e+00	 2.356238300093633e+00
 8.619794823865147e-01	 2.091067536325310e+00	 2.378987777700482e+00
 8.423605922533861e-01	 2.099047579968526e+00	 2.400116991060506e+00
 8.227055791309997e-01	 2.106828826998619e+00	 2.418106539561870e+00
 8.030173301075735e-01	 2.114411368283037e+00	 2.431476195467398e+00
 7.832987188044471e-01	 2.121795348017791e+00	 2.438789894824448e+00
 9.825893103898176e-01	 2.046968407736056e+00	 2.267470613796431e+00
 9.631729404829260e-01	 2.056175864500697e+00	 2.274996572059336e+00
 9.437027010884343e-01	 2.065184355384420e+00	 2.289243603785116e+00
 9.241815458310317e-01	 2.073993639686688e+00	 2.308455921477717e+00
 9.046124223018104e-01	 2.082603533139005e+00	 2.330880056379784e+00
 8.849982707610817e-01	 2.091013907505061e+00	 2.354774840233396e+00
 8.653420228597120e-01	 2.099224690146626e+00	 2.378420487687937e+00
 8.456466003799976e-01	 2.107235863556074e+00	 2.400126746591292e+00
 8.259149139970219e-01	 2.115047464856373e+00	 2.418240091805600e+00
 8.061498620614156e-01	 2.122659585269433e+00	 2.431149946520650e+00
 7.863543294043980e-01	 2.130072369553765e+00	 2.437293923237981e+00
 9.864074496219992e-01	 2.054922504430628e+00	 2.262765190835877e+00
 9.669156317094336e-01	 2.064165739471699e+00	 2.270733155616114e+00
 9.473697349834607e-01	 2.073209235491492e+00	 2.285554253444227e+00
 9.277727245459672e-01	 2.082052750854160e+00	 2.305391482820177e+00
 9.081275594418009e-01	 2.090696100575181e+00	 2.328412187029606e+00
 8.884371913565380e-01	 2.099139155919944e+00	 2.352798389758151e+00
 8.687045633328584e-01	 2.107381843967966e+00	 2.376756196167822e+00
 8.489326085065232e-01	 2.115424147143592e+00	 2.398524225708150e+00
 8.291242488629210e-01	 2.123266102714041e+00	 2.416381051590398e+00
 8.092823940150953e-01	 2.130907802255696e+00	 2.428651630432897e+00
 7.894099400041461e-01	 2.138349391089572e+00	 2.433712714029995e+00
 9.902255888541812e-01	 2.062876601125368e+00	 2.259431145335613e+00
 9.706583229359409e-01	 2.072155614442857e+00	 2.267896743714490e+00
 9.510367688784858e-01	 2.081234115598693e+00	 2.283087762749727e+00
 9.313639032609008e-01	 2.090111862021721e+00	 2.303151880455744e+00
 9.116426965817855e-01	 2.098788668011396e+00	 2.326243218359263e+00
 8.918761119519836e-01	 2.107264404334813e+00	 2.350532948695911e+00
 8.720671038059857e-01	 2.115538997789235e+00	 2.374218932403309e+00
 8.522186166330196e-01	 2.123612430730982e+00	 2.395534353318286e+00
 8.323335837287754e-01	 2.131484740571530e+00	 2.412755322891994e+00
 8.124149259687123e-01	 2.139156019241738e+00	 2.424207438564960e+00
 7.924655506038089e-01	 2.146626412625126e+00	 2.428271287633175e+00
 9.940437280862963e-01	 2.070830697820173e+00	 2.257730094170697e+00
 9.744010141623860e-01	 2.080145489414070e+00	 2.266733181955564e+00
 9.547038027734588e-01	 2.089258995705922e+00	 2.282078996920625e+00
 9.349550819757968e-01	 2.098170973189272e+00	 2.301964988788772e+00
 9.151578337217495e-01	 2.106881235447553e+00	 2.324597226662799e+00
 8.953150325474258e-01	 2.115389652749569e+00	 2.348201196267275e+00
 8.754296442791274e-01	 2.123696151610336e+00	 2.371031593815160e+00
 8.555046247595429e-01	 2.131800714318151e+00	 2.391381081138302e+00
 8.355429185946665e-01	 2.139703378428751e+00	 2.407587975879164e+00
 8.155474579223673e-01	 2.147404236227472e+00	 2.418042859617879e+00
 7.955211612035042e-01	 2.154903434160346e+00	 2.421194095742742e+00
 9.978618673182789e-01	 2.078784794514945e+00	 2.257920450635541e+00
 9.781437053887063e-01	 2.088135364385238e+00	 2.267485620359336e+00
 9.583708366683288e-01	 2.097283875813081e+00	 2.282760549557711e+00
 9.385462606906200e-01	 2.106230084356712e+00	 2.302056761308666e+00
 9.186729708616787e-01	 2.114973802883553e+00	 2.323696655559393e+00
 8.987539531428741e-01	 2.123514901164115e+00	 2.346024415605098e+00
 8.787921847523151e-01	 2.131853305431174e+00	 2.367415877487800e+00
 8.587906328861503e-01	 2.139988997905005e+00	 2.386287326282508e+00
 8.387522534606728e-01	 2.147922016285611e+00	 2.401103192648032e+00
 8.186799898761620e-01	 2.155652453212812e+00	 2.410382632346388e+00
 7.985767718033495e-01	 2.163180455695149e+00	 2.412704980613510e+00
 1.001680006550062e+00	 2.086738891209582e+00	 2.260257326495195e+00
 9.818863966148403e-01	 2.096125239356263e+00	 2.270394417291988e+00
 9.620378705630438e-01	 2.105308755920068e+00	 2.285362649887260e+00
 9.421374394053353e-01	 2.114289195523944e+00	 2.303651142357705e+00
 9.221881080015569e-01	 2.123066370319294e+00	 2.323762233261641e+00
 9.021928737383350e-01	 2.131640149578353e+00	 2.344222417268507e+00
 8.821547252255810e-01	 2.140010459251651e+00	 2.363592210444860e+00
 8.620766410128983e-01	 2.148177281491450e+00	 2.380474908587253e+00
 8.419615883268757e-01	 2.156140654142021e+00	 2.393524211655447e+00
 8.218125218301959e-01	 2.163900670197667e+00	 2.401450696936150e+00
 8.016323824034624e-01	 2.171457477229453e+00	 2.403027132992112e+00
 1.005498145781580e+00	 2.094692987903986e+00	 2.264992432682096e+00
 9.856290878407250e-01	 2.104115114327044e+00	 2.275697042132119e+00
 9.657049044575525e-01	 2.113333636026786e+00	 2.290113068803241e+00
 9.457286181199082e-01	 2.122348306690866e+00	 2.306969977728655e+00
 9.257032451413704e-01	 2.131158937754683e+00	 2.325012888681107e+00
 9.056317943338176e-01	 2.139765397992186e+00	 2.343013461583442e+00
 8.855172656989574e-01	 2.148167613071671e+00	 2.359779678726962e+00
 8.653626491398443e-01	 2.156365565077391e+00	 2.374164486704901e+00
 8.451709231933541e-01	 2.164359291997887e+00	 2.385073270885952e+00
 8.249450537845703e-01	 2.172148887181954e+00	 2.391470145080187e+00
 8.046879930039602e-01	 2.179734498763173e+00	 2.392383048720673e+00
 7.741318870022023e-01	 2.096964283409688e+00	 2.428508463655578e+00
 7.546201775254084e-01	 2.104064615596794e+00	 2.437251663346568e+00
 7.350841034828635e-01	 2.110969215836829e+00	 2.443141226581529e+00
 7.155264558413447e-01	 2.117678379563855e+00	 2.445616789308163e+00
 6.959500078380153e-01	 2.124192452387945e+00	 2.444975583315149e+00
 6.763575139261093e-01	 2.130511829406764e+00	 2.441759873886930e+00
 6.567517087467765e-01	 2.136636954492820e+00	 2.436542130769931e+00
 6.371353061276586e-01	 2.142568319557409e+00	 2.429912108232315e+00
 6.175109981087186e-01	 2.148306463792312e+00	 2.422465705080957e+00
 5.978814539958085e-01	 2.153851972890297e+00	 2.414795553041373e+00
 5.782493194424027e-01	 2.159205478245480e+00	 2.407483272493227e+00
 7.771874976034669e-01	 2.105241304945670e+00	 2.434623434078264e+00
 7.575987725853764e-01	 2.112369663171694e+00	 2.440401685044536e+00
 7.379855868311260e-01	 2.119301516868275e+00	 2.442325766013031e+00
 7.183507423238283e-01	 2.126037162635601e+00	 2.440207811266096e+00
 6.986970232470018e-01	 2.132576947447920e+00	 2.434670422326301e+00
 6.790271949260915e-01	 2.138921267962409e+00	 2.426715043353399e+00
 6.593440027962585e-01	 2.145070569803611e+00	 2.417367538103516e+00
 6.396501713970013e-01	 2.151025346824469e+00	 2.407664639273376e+00
 6.199484033941417e-01	 2.156786140345039e+00	 2.398642244861137e+00
 6.002413786296545e-01	 2.162353538369905e+00	 2.391325508352523e+00
 5.805317531997776e-01	 2.167728174785390e+00	 2.386720659859284e+00
 7.802431082041756e-01	 2.113518326481731e+00	 2.437975078919963e+00
 7.605773676447123e-01	 2.120674710746636e+00	 2.441210847356140e+00
 7.408870701786928e-01	 2.127633817899733e+00	 2.439876620472238e+00
 7.211750288055655e-01	 2.134395945707333e+00	 2.434134281670476e+00
 7.014440386552016e-01	 2.140961442507862e+00	 2.424798264137237e+00
 6.816968759252573e-01	 2.147330706518005e+00	 2.413246336003484e+00
 6.619362968449025e-01	 2.153504185114335e+00	 2.400874466260650e+00
 6.421650366654920e-01	 2.159482374091446e+00	 2.389082726476454e+00
 6.223858086787040e-01	 2.165265816897660e+00	 2.379263136647786e+00
 6.026013032626345e-01	 2.170855103849377e+00	 2.372789369701700e+00
 5.828141869562861e-01	 2.176250871325130e+00	 2.371008249715502e+00
 7.832987188044471e-01	 2.121795348017791e+00	 2.438789894824447e+00
 7.635559627035454e-01	 2.128979758321541e+00	 2.439895533940545e+00
 7.437885535257025e-01	 2.135966118931131e+00	 2.435988102975441e+00
 7.239993152866990e-01	 2.142754728778989e+00	 2.427542365531951e+00
 7.041910540627595e-01	 2.149345937567716e+00	 2.415456034948976e+00
 6.843665569237507e-01	 2.155740145073506e+00	 2.401391026233692e+00
 6.645285908928505e-01	 2.161937800424958e+00	 2.387031109845828e+00
 6.446799019332691e-01	 2.167939401358312e+00	 2.374057035674919e+00
 6.248232139625406e-01	 2.173745493450156e+00	 2.364134040914176e+00
 6.049612278948836e-01	 2.179356669328708e+00	 2.358901280799966e+00
 5.850966207120616e-01	 2.184773567864700e+00	 2.359963115040926e+00
 7.863543294043980e-01	 2.130072369553765e+00	 2.437293923237981e+00
 7.665345577620063e-01	 2.137284805896333e+00	 2.436671901160502e+00
 7.466900368722924e-01	 2.144298419962397e+00	 2.430858043903262e+00
 7.268236017673713e-01	 2.151113511850506e+00	 2.420578782990262e+00
 7.069380694698197e-01	 2.157730432627428e+00	 2.406741528665085e+00
 6.870362379217146e-01	 2.164149583628863e+00	 2.391187761405375e+00
 6.671208849402435e-01	 2.170371415735439e+00	 2.375807719359227e+00
 6.471947672004714e-01	 2.176396428625035e+00	 2.362481134101440e+00
 6.272606192457887e-01	 2.182225170002508e+00	 2.353064512450462e+00
 6.073211525265351e-01	 2.187858234807885e+00	 2.349380404797356e+00
 5.873790544672369e-01	 2.193296264404102e+00	 2.353208590332682e+00
 7.894099400041461e-01	 2.138349391089572e+00	 2.433712714029994e+00
 7.695131528202245e-01	 2.145589853470934e+00	 2.431755845815339e+00
 7.495915202186005e-01	 2.152630720993461e+00	 2.424678579986941e+00
 7.296478882477241e-01	 2.159472294921819e+00	 2.413390931965226e+00
 7.096850848765260e-01	 2.166114927686940e+00	 2.398753511737349e+00
 6.897059189192931e-01	 2.172559022184030e+00	 2.382676645703325e+00
 6.697131789872235e-01	 2.178805031045739e+00	 2.367176661183508e+00
 6.497096324672377e-01	 2.184853455891588e+00	 2.354251523914702e+00
 6.296980245285837e-01	 2.190704846554697e+00	 2.345868005137604e+00
 6.096810771577232e-01	 2.196359800286902e+00	 2.343950898305964e+00
 5.896614882219460e-01	 2.201818960943336e+00	 2.350374213173500e+00
 7.924655506038089e-01	 2.146626412625126e+00	 2.428271287633175e+00
 7.724917478783301e-01	 2.153894901045267e+00	 2.425362971419176e+00
 7.524930035647649e-01	 2.160963022024253e+00	 2.417641987876225e+00
 7.324721747279002e-01	 2.167831077992863e+00	 2.406127009691322e+00
 7.124321002830218e-01	 2.174499422746198e+00	 2.391591827194491e+00
 6.923755999166294e-01	 2.180968460738960e+00	 2.375899323554497e+00
 6.723054730339317e-01	 2.187238646355822e+00	 2.361112477578655e+00
 6.522244977337072e-01	 2.193310483157944e+00	 2.349267676246065e+00
 6.321354298110623e-01	 2.199184523106704e+00	 2.342361877810364e+00
 6.120410017885825e-01	 2.204861365765747e+00	 2.342341887131533e+00
 5.919439219763216e-01	 2.210341657482403e+00	 2.351095668170765e+00
 7.955211612035042e-01	 2.154903434160346e+00	 2.421194095742742e+00
 7.754703429364526e-01	 2.162199948619255e+00	 2.417708553063320e+00
 7.553944869109233e-01	 2.169295323054702e+00	 2.409940649007511e+00
 7.352964612080417e-01	 2.176189861063577e+00	 2.398936133165821e+00
 7.151791156894516e-01	 2.182883917805145e+00	 2.385357497875864e+00
 6.950452809138665e-01	 2.189377899293604e+00	 2.370899062618717e+00
 6.748977670805096e-01	 2.195672261665649e+00	 2.357591946684648e+00
 6.547393630000186e-01	 2.201767510424071e+00	 2.347432065752179e+00
 6.345728350933605e-01	 2.207664199658510e+00	 2.342367401180010e+00
 6.144009264192466e-01	 2.213362931244411e+00	 2.344287443667596e+00
 5.942263557304979e-01	 2.218864354021305e+00	 2.355014733203451e+00
 7.985767718033495e-01	 2.163180455695149e+00	 2.412704980613510e+00
 7.784489379947221e-01	 2.170504996192819e+00	 2.409007500900899e+00
 7.582959702572135e-01	 2.177627624084735e+00	 2.401767013211437e+00
 7.381207476882913e-01	 2.184548644133895e+00	 2.391968458539654e+00
 7.179261310959593e-01	 2.191268412863725e+00	 2.380152828891481e+00
 6.977149619111488e-01	 2.197787337847918e+00	 2.367720836362770e+00
 6.774900611270990e-01	 2.204105876975182e+00	 2.356594142531744e+00
 6.572542282663105e-01	 2.210224537689943e+00	 2.348650205659992e+00
 6.370102403756142e-01	 2.216143876210095e+00	 2.345709765788383e+00
 6.167608510498497e-01	 2.221864496722888e+00	 2.349526565907645e+00
 5.965087894846076e-01	 2.227387050560041e+00	 2.361852540326921e+00
 8.016323824034624e-01	 2.171457477229453e+00	 2.403027132992112e+00
 7.814275330532683e-01	 2.178810043765883e+00	 2.399474322290338e+00
 7.611974536037734e-01	 2.185959925114283e+00	 2.393313561093454e+00
 7.409450341687908e-01	 2.192907427203756e+00	 2.385375386367440e+00
 7.206731465026885e-01	 2.199652907921883e+00	 2.376081509328953e+00
 7.003846429086187e-01	 2.206196776401851e+00	 2.366411406229087e+00
 6.800823551738414e-01	 2.212539492284382e+00	 2.358100495058134e+00
 6.597690935327222e-01	 2.218681564955529e+00	 2.352830683291044e+00
 6.394476456579596e-01	 2.224623552761442e+00	 2.352246197796811e+00
 6.191207756805260e-01	 2.230366062201167e+00	 2.358058416471271e+00
 5.987912232387845e-01	 2.235909747098613e+00	 2.371581038402472e+00
 8.046879930039602e-01	 2.179734498763173e+00	 2.392383048720673e+00
 7.844061281122209e-01	 2.187115091338370e+00	 2.389323082633463e+00
 7.640989369507413e-01	 2.194292226143276e+00	 2.384772765220055e+00
 7.437693206496833e-01	 2.201266210273095e+00	 2.379324736526645e+00
 7.234201619097839e-01	 2.208037402979565e+00	 2.373248713227362e+00
 7.030543239064208e-01	 2.214606214955360e+00	 2.367019403409651e+00
 6.826746492208779e-01	 2.220973107593211e+00	 2.362094850134839e+00
 6.622839587993923e-01	 2.227138592220802e+00	 2.360025647981348e+00
 6.418850509405333e-01	 2.233103229312530e+00	 2.362305844585472e+00
 6.214807003114096e-01	 2.238867627679239e+00	 2.369966491447376e+00
 6.010736569931618e-01	 2.244432443637021e+00	 2.383950846418406e+00
 5.782493194424027e-01	 2.159205478245480e+00	 2.407483272493227e+00
 5.586172158277957e-01	 2.164367656603575e+00	 2.403241321724664e+00
 5.389877401750129e-01	 2.169339230627673e+00	 2.404062276371457e+00
 5.193634634720780e-01	 2.174120966629006e+00	 2.409377972316554e+00
 4.997469295961534e-01	 2.178713673225113e+00	 2.418543647686347e+00
 4.801406545416229e-01	 2.183118200453216e+00	 2.430839674750291e+00
 4.605471256781661e-01	 2.187335438869950e+00	 2.445474458029627e+00
 4.409688010389614e-01	 2.191366318638528e+00	 2.461588391644457e+00
 4.214081086391326e-01	 2.195211808604377e+00	 2.478258766435346e+00
 4.018674458244917e-01	 2.198872915360329e+00	 2.494505515732779e+00
 3.823491786506145e-01	 2.202350682302378e+00	 2.509297687789673e+00
 5.805317531997776e-01	 2.167728174785390e+00	 2.386720659859284e+00
 5.608221588307604e-01	 2.172910729008428e+00	 2.387410247454386e+00
 5.411152027964579e-01	 2.177901926554573e+00	 2.394683791400212e+00
 5.214134662329624e-01	 2.182702536759802e+00	 2.407524636273350e+00
 5.017195030584956e-01	 2.187313371433394e+00	 2.424830659330581e+00
 4.820358391984427e-01	 2.191735283967799e+00	 2.445416970965339e+00
 4.623649718404984e-01	 2.195969168434815e+00	 2.468019805508724e+00
 4.427093687200609e-01	 2.200015958669146e+00	 2.491301491150011e+00
 4.230714674359884e-01	 2.203876627340405e+00	 2.513856385247974e+00
 4.034536747967711e-01	 2.207552185014595e+00	 2.534217659653152e+00
 3.838583661971548e-01	 2.211043679206151e+00	 2.550864819836693e+00
 5.828141869562861e-01	 2.176250871325130e+00	 2.371008249715502e+00
 5.630271018328598e-01	 2.181453801413066e+00	 2.376264789494797e+00
 5.432426654170399e-01	 2.186464622481203e+00	 2.389156979697475e+00
 5.234634689929882e-01	 2.191284106890273e+00	 2.408315307049464e+00
 5.036920765199844e-01	 2.195913069641293e+00	 2.432276965806454e+00
 4.839310238544153e-01	 2.200352367481941e+00	 2.459489389903311e+00
 4.641828180019897e-01	 2.204602897999183e+00	 2.488315001952686e+00
 4.444499364003264e-01	 2.208665598699223e+00	 2.517037063717462e+00
 4.247348262320168e-01	 2.212541446075854e+00	 2.543866510158582e+00
 4.050399037682288e-01	 2.216231454668254e+00	 2.566949647512333e+00
 3.853675537428787e-01	 2.219736676109307e+00	 2.584376595051913e+00
 5.850966207120616e-01	 2.184773567864700e+00	 2.359963115040926e+00
 5.652320448342278e-01	 2.189996873817498e+00	 2.369336903644754e+00
 5.453701280368968e-01	 2.195027318407586e+00	 2.386956690939527e+00
 5.255134717522970e-01	 2.199865677020448e+00	 2.411194506205300e+00
 5.056646499807671e-01	 2.204512767848845e+00	 2.440322294037305e+00
 4.858262085096931e-01	 2.208969450995686e+00	 2.472516142530250e+00
 4.660006641627995e-01	 2.213236627563107e+00	 2.505861757187993e+00
 4.461905040799235e-01	 2.217315238728811e+00	 2.538361061134195e+00
 4.263981850273895e-01	 2.221206264810776e+00	 2.567939799648876e+00
 4.066261327390430e-01	 2.224910724321361e+00	 2.592419434112372e+00
 3.868767412879703e-01	 2.228429673011896e+00	 2.609507314962328e+00
 5.873790544672369e-01	 2.193296264404102e+00	 2.353208590332682e+00
 5.674369878349996e-01	 2.198539946221737e+00	 2.366165893614732e+00
 5.474975906561652e-01	 2.203590014333742e+00	 2.387565803168144e+00
 5.275634745110304e-01	 2.208447247150357e+00	 2.415615076533522e+00
 5.076372234409896e-01	 2.213112466056087e+00	 2.448414615851150e+00
 4.877213931644295e-01	 2.217586534509080e+00	 2.483964257615801e+00
 4.678185103230870e-01	 2.221870357126636e+00	 2.520168839406750e+00
 4.479310717590181e-01	 2.225964878757965e+00	 2.554789768447674e+00
 4.280615438222796e-01	 2.229871083545230e+00	 2.585469351055510e+00
 4.082123617093930e-01	 2.233589993973973e+00	 2.609863765499227e+00
 3.883859288326132e-01	 2.237122669913967e+00	 2.625600426649901e+00
 5.896614882219460e-01	 2.201818960943336e+00	 2.350374213173500e+00
 5.696419308353097e-01	 2.207083018625792e+00	 2.366298323707006e+00
 5.496250532749830e-01	 2.212152710259691e+00	 2.390475114989741e+00
 5.296134772693294e-01	 2.217028817280029e+00	 2.421038061820720e+00
 5.096097969007990e-01	 2.221712164263061e+00	 2.456010022983633e+00
 4.896165778187765e-01	 2.226203618022165e+00	 2.493270302957651e+00
 4.696363564830114e-01	 2.230504086689820e+00	 2.530535758259722e+00
 4.496716394377758e-01	 2.234614518786735e+00	 2.565482716376024e+00
 4.297249026168588e-01	 2.238535902279266e+00	 2.595741446200649e+00
 4.097985906794562e-01	 2.242269263626135e+00	 2.618904897010561e+00
 3.898951163769912e-01	 2.245815666815570e+00	 2.632537413266100e+00
 5.919439219763216e-01	 2.210341657482403e+00	 2.351095668170765e+00
 5.718468738352918e-01	 2.215626091029676e+00	 2.369287934452160e+00
 5.517525158934872e-01	 2.220715406185453e+00	 2.395183241125103e+00
 5.316634800273360e-01	 2.225610387409493e+00	 2.426926925229925e+00
 5.115823703603422e-01	 2.230311862469800e+00	 2.462480914923918e+00
 4.915117624728872e-01	 2.234820701534987e+00	 2.499674371858377e+00
 4.714542026427314e-01	 2.239137816252708e+00	 2.536270815032551e+00
 4.514122071163629e-01	 2.243264158815177e+00	 2.569978948295197e+00
 4.313882614112995e-01	 2.247200721012941e+00	 2.598462075175207e+00
 4.113848196494116e-01	 2.250948533277908e+00	 2.619347120871091e+00
 3.914043039212879e-01	 2.254508663716754e+00	 2.630233274496097e+00
 5.942263557304979e-01	 2.218864354021305e+00	 2.355014733203451e+00
 5.740518168350808e-01	 2.224169163433397e+00	 2.374701783523718e+00
 5.538799785118151e-01	 2.229278102111049e+00	 2.401227273023466e+00
 5.337134827851910e-01	 2.234191957538781e+00	 2.432726846824244e+00
 5.135549438197654e-01	 2.238911560676342e+00	 2.467224647971783e+00
 4.934069471269141e-01	 2.243437785047590e+00	 2.502672175432542e+00
 4.732720488024067e-01	 2.247771545815349e+00	 2.536958339165388e+00
 4.531527747949448e-01	 2.251913798843344e+00	 2.567919091632313e+00
 4.330516202057744e-01	 2.255865539746309e+00	 2.593346646589055e+00
 4.129710486194372e-01	 2.259627802929341e+00	 2.610998297816292e+00
 3.929134914656874e-01	 2.263201660617569e+00	 2.618604852023639e+00
 5.965087894846076e-01	 2.227387050560041e+00	 2.361852540326921e+00
 5.762567598348114e-01	 2.232712235836967e+00	 2.382281148707401e+00
 5.560074411301041e-01	 2.237840798036500e+00	 2.408214854851115e+00
 5.357634855430367e-01	 2.242773527667920e+00	 2.437969730558237e+00
 5.155275172792155e-01	 2.247511258882727e+00	 2.469782330437330e+00
 4.953021317810100e-01	 2.252054868560018e+00	 2.501819867316474e+00
 4.750898949621962e-01	 2.256405275377793e+00	 2.532189946057000e+00
 4.548933424736874e-01	 2.260563438871286e+00	 2.558949865819521e+00
 4.347149790004553e-01	 2.264530358479424e+00	 2.580115502922702e+00
 4.145572775897117e-01	 2.268307072580489e+00	 2.593669788267622e+00
 3.944226790103732e-01	 2.271894657518064e+00	 2.597570794877089e+00
 5.987912232387845e-01	 2.235909747098613e+00	 2.371581038402472e+00
 5.784617028346182e-01	 2.241255308240398e+00	 2.391727194700609e+00
 5.581349037484914e-01	 2.246403493961826e+00	 2.415732789563976e+00
 5.378134883010135e-01	 2.251355097796938e+00	 2.442211668789958e+00
 5.175000907388394e-01	 2.256110957088990e+00	 2.469702993414390e+00
 4.971973164353277e-01	 2.260671952072315e+00	 2.496680959704396e+00
 4.769077411222592e-01	 2.265039004940090e+00	 2.521564069526386e+00
 4.566339101527566e-01	 2.269213078899059e+00	 2.542723962620775e+00
 4.363783377955150e-01	 2.273195177212341e+00	 2.558493824419637e+00
 4.161435065604135e-01	 2.276986342231405e+00	 2.567176384881247e+00
 3.959318665555291e-01	 2.280587654418289e+00	 2.567051525389486e+00
 6.010736569931618e-01	 2.244432443637021e+00	 2.383950846418406e+00
 5.806666458346349e-01	 2.249798380643699e+00	 2.402685134222898e+00
 5.602623663671141e-01	 2.254966189887047e+00	 2.423373695043153e+00
 5.398634910592640e-01	 2.259936667925870e+00	 2.445016052191187e+00
 5.194726641987837e-01	 2.264710655295170e+00	 2.466543090097752e+00
 4.990925010900198e-01	 2.269289035584527e+00	 2.486826176277705e+00
 4.787255872827550e-01	 2.273672734502291e+00	 2.504685826865465e+00
 4.583744778323183e-01	 2.277862718926716e+00	 2.518899928936887e+00
 4.380416965911256e-01	 2.281859995945114e+00	 2.528211534945053e+00
 4.177297355317209e-01	 2.285665611882142e+00	 2.531336246433743e+00
 3.974410541013390e-01	 2.289280651318292e+00	 2.526969205756215e+00
 3.823491786506145e-01	 2.202350682302378e+00	 2.509297687789673e+00
 3.628523302823573e-01	 2.205646733239143e+00	 2.518107690760594e+00
 3.433825281487635e-01	 2.208761574701650e+00	 2.518025096998539e+00
 3.239420471692807e-01	 2.211696353730531e+00	 2.510145780166459e+00
 3.045331286623382e-01	 2.214452250366265e+00	 2.495640128818799e+00
 2.851579798744769e-01	 2.217030476671454e+00	 2.475770773190882e+00
 2.658187735393538e-01	 2.219432275749678e+00	 2.451885808637483e+00
 2.465176474664039e-01	 2.221658920761856e+00	 2.425410919782623e+00
 2.272567041589152e-01	 2.223711713941045e+00	 2.397834604202891e+00
 2.080380104612432e-01	 2.225591985606564e+00	 2.370705176308174e+00
 1.888635972348596e-01	 2.227301093178355e+00	 2.345638721340921e+00
 3.838583661971548e-01	 2.211043679206151e+00	 2.550864819836693e+00
 3.642845609462932e-01	 2.214352740133107e+00	 2.559367744793609e+00
 3.447379086855124e-01	 2.217479876325829e+00	 2.557465174320624e+00
 3.252206933137017e-01	 2.220426239352480e+00	 2.546545574491586e+00
 3.057351649961038e-01	 2.223193013911316e+00	 2.528070338013221e+00
 2.862835396915866e-01	 2.225781416849120e+00	 2.503566962365893e+00
 2.668679987099064e-01	 2.228192696176171e+00	 2.474712714929312e+00
 2.474906882987467e-01	 2.230428130078733e+00	 2.443281759192350e+00
 2.281537192602854e-01	 2.232489025929950e+00	 2.411116305561071e+00
 2.088591665970166e-01	 2.234376719300101e+00	 2.380114050840138e+00
 1.896090691865213e-01	 2.236092572967051e+00	 2.352216239991296e+00
 3.853675537428787e-01	 2.219736676109307e+00	 2.584376595051913e+00
 3.657167916094172e-01	 2.223058747026457e+00	 2.591946860982956e+00
 3.460932892214530e-01	 2.226198177949418e+00	 2.587993086848787e+00
 3.264993394573170e-01	 2.229156124973871e+00	 2.574121884070191e+00
 3.069372013290657e-01	 2.231933777455859e+00	 2.552060668556928e+00
 2.874090995078942e-01	 2.234532357026339e+00	 2.523648315194570e+00
 2.679172238796579e-01	 2.236953116602290e+00	 2.490820206804407e+00
 2.484637291302891e-01	 2.239197339395315e+00	 2.455594018615792e+00
 2.290507343608555e-01	 2.241266337918653e+00	 2.420056204966726e+00
 2.096803227319902e-01	 2.243161452993535e+00	 2.386349154597203e+00
 1.903545411373831e-01	 2.244884052755747e+00	 2.356658980836597e+00
 3.868767412879703e-01	 2.228429673011896e+00	 2.609507314962328e+00
 3.671490222719179e-01	 2.231764753919240e+00	 2.615369260847277e+00
 3.474486697567771e-01	 2.234916479572446e+00	 2.609112732326544e+00
 3.277779856003216e-01	 2.237886010594730e+00	 2.592545845811975e+00
 3.081392376614210e-01	 2.240674540999905e+00	 2.567560388603396e+00
 2.885346593235978e-01	 2.243283297203106e+00	 2.536160429410037e+00
 2.689664490488076e-01	 2.245713537028013e+00	 2.500447156338391e+00
 2.494367699612307e-01	 2.247966548711565e+00	 2.462604464536967e+00
 2.299477494608254e-01	 2.250043649907096e+00	 2.424885258968615e+00
 2.105014788663636e-01	 2.251946186686789e+00	 2.389598437456407e+00
 1.911000130876450e-01	 2.253675532544351e+00	 2.359096519119081e+00
 3.883859288326132e-01	 2.237122669913967e+00	 2.625600426649901e+00
 3.685812529339829e-01	 2.240470760811494e+00	 2.629326433288959e+00
 3.488040502916766e-01	 2.243634781194952e+00	 2.620819009584795e+00
 3.290566317429092e-01	 2.246615896215075e+00	 2.601981736535934e+00
 3.093412739933658e-01	 2.249415304543459e+00	 2.574796596778504e+00
 2.896602191388955e-01	 2.252034237379413e+00	 2.541357830705365e+00
 2.700156742175540e-01	 2.254473957453314e+00	 2.503856680364672e+00
 2.504098107917710e-01	 2.256735758027442e+00	 2.464566895481612e+00
 2.308447645603949e-01	 2.258820961895221e+00	 2.425830965676782e+00
 2.113226350003370e-01	 2.260730920379785e+00	 2.390047042664677e+00
 1.918454850375068e-01	 2.262467012332769e+00	 2.359656516227179e+00
 3.898951163769912e-01	 2.245815666815570e+00	 2.632537413266100e+00
 3.700134835958010e-01	 2.249176767703266e+00	 2.633840978733728e+00
 3.501594308263428e-01	 2.252353082816968e+00	 2.623222553399111e+00
 3.303352778852750e-01	 2.255345781834930e+00	 2.602606963534830e+00
 3.105433103250967e-01	 2.258156068086532e+00	 2.573993116536945e+00
 2.907857789539853e-01	 2.260785177555253e+00	 2.539491310301260e+00
 2.710648993860964e-01	 2.263234377878171e+00	 2.501307999354075e+00
 2.513828516221095e-01	 2.265504967342905e+00	 2.461731333905270e+00
 2.317417796597639e-01	 2.267598273882971e+00	 2.423117434348045e+00
 2.121437911341104e-01	 2.269515654072454e+00	 2.387877363482186e+00
 1.925909569871686e-01	 2.271258492120908e+00	 2.358464758798608e+00
 3.914043039212879e-01	 2.254508663716754e+00	 2.630233274496097e+00
 3.714457142575599e-01	 2.257882774594598e+00	 2.628935852335740e+00
 3.515148113609678e-01	 2.261071384438524e+00	 2.616432628730129e+00
 3.316139240276131e-01	 2.264075667454317e+00	 2.594596484846007e+00
 3.117453466568103e-01	 2.266896831629129e+00	 2.565370564195182e+00
 2.919113387690648e-01	 2.269536117730618e+00	 2.530808001102911e+00
 2.721141245546337e-01	 2.271994798302562e+00	 2.493056516083364e+00
 2.523558924524459e-01	 2.274274176657915e+00	 2.454344102041115e+00
 2.326387947591321e-01	 2.276375585870287e+00	 2.416965453361083e+00
 2.129649472678835e-01	 2.278300387764714e+00	 2.383269098513039e+00
 1.933364289368304e-01	 2.280049971908675e+00	 2.355645196915515e+00
 3.929134914656874e-01	 2.263201660617569e+00	 2.618604852023639e+00
 3.728779449194480e-01	 2.266588781485531e+00	 2.614634531682105e+00
 3.528701918957430e-01	 2.269789686059657e+00	 2.600557163803793e+00
 3.328925701701180e-01	 2.272805553073256e+00	 2.578122862044295e+00
 3.129473829887030e-01	 2.275637595171260e+00	 2.549146415410541e+00
 2.930368985843323e-01	 2.278287057905504e+00	 2.515551452110665e+00
 2.731633497233648e-01	 2.280755218726461e+00	 2.479353892495686e+00
 2.533289332829796e-01	 2.283043385972431e+00	 2.442647896001636e+00
 2.335358098586995e-01	 2.285152897857111e+00	 2.407592556624412e+00
 2.137861034018567e-01	 2.287085121456493e+00	 2.376399305758632e+00
 1.940819008866921e-01	 2.288841451695976e+00	 2.351319981416162e+00
 3.944226790103732e-01	 2.271894657518064e+00	 2.597570794877089e+00
 3.743101755816536e-01	 2.275294788376108e+00	 2.590959817346285e+00
 3.542255724308606e-01	 2.278507987680400e+00	 2.575702782459325e+00
 3.341712163129843e-01	 2.281535438691769e+00	 2.553356311842896e+00
 3.141494193209712e-01	 2.284378358712934e+00	 2.525535070148016e+00
 2.941624583999858e-01	 2.287037998079902e+00	 2.493961701131410e+00
 2.742125748924886e-01	 2.289515639149848e+00	 2.460448124801462e+00
 2.543019741139103e-01	 2.291812595286413e+00	 2.426881858180867e+00
 2.344328249586660e-01	 2.293930209843388e+00	 2.395213088459227e+00
 2.146072595362296e-01	 2.295869855147714e+00	 2.367442455427788e+00
 1.948273728369537e-01	 2.297632931482718e+00	 2.345609500346695e+00
 3.959318665555291e-01	 2.280587654418289e+00	 2.567051525389486e+00
 3.757424062443647e-01	 2.284000795266373e+00	 2.557934624052713e+00
 3.555809529665118e-01	 2.287226289300784e+00	 2.541974835784447e+00
 3.354498624564063e-01	 2.290265324309880e+00	 2.520464756534028e+00
 3.153514556538118e-01	 2.293119122254156e+00	 2.494747916175178e+00
 2.952880182162232e-01	 2.295788938253804e+00	 2.466275345835923e+00
 2.752618000622042e-01	 2.298276059572699e+00	 2.436583616866567e+00
 2.552750149454373e-01	 2.300581804599820e+00	 2.407281648002569e+00
 2.353298400592313e-01	 2.302707521829055e+00	 2.380038266997800e+00
 2.154284156712022e-01	 2.304654588838302e+00	 2.356570481536962e+00
 1.955728447878152e-01	 2.306424411268809e+00	 2.338632414576043e+00
 3.974410541013390e-01	 2.289280651318292e+00	 2.526969205756215e+00
 3.771746369077695e-01	 2.292706802156369e+00	 2.515582022760979e+00
 3.569363335028887e-01	 2.295944590920846e+00	 2.499477433056807e+00
 3.367285086005786e-01	 2.298995209927609e+00	 2.479613873300229e+00
 3.165534919874212e-01	 2.301859885794940e+00	 2.456993391124302e+00
 2.964135780332426e-01	 2.304539878427208e+00	 2.432725613206204e+00
 2.763110252327106e-01	 2.307036479994991e+00	 2.408001251933414e+00
 2.562480557777606e-01	 2.309351013912615e+00	 2.384079511058316e+00
 2.362268551605955e-01	 2.311484833814059e+00	 2.362276246136916e+00
 2.162495718069747e-01	 2.313439322528182e+00	 2.343952832332614e+00
 1.963183167394766e-01	 2.315215891054156e+00	 2.330505692596132e+00
 1.888635972348596e-01	 2.227301093178355e+00	 2.345638721340921e+00
 1.697386989461173e-01	 2.228840172817007e+00	 2.326990689093684e+00
 1.506619724293075e-01	 2.230210937148586e+00	 2.316502391113149e+00
 1.316352944638852e-01	 2.231414817817765e+00	 2.311917762201043e+00
 1.126605060445370e-01	 2.232453269611154e+00	 2.310990853364923e+00
 9.373941219014767e-02	 2.233327769499624e+00	 2.311481222773097e+00
 7.487378177835993e-02	 2.234039815685173e+00	 2.311149631761750e+00
 5.606534740530249e-02	 2.234590926653027e+00	 2.307754016426104e+00
 3.731580527004347e-02	 2.234982640229672e+00	 2.299045707004042e+00
 1.862681508331029e-02	 2.235216512647499e+00	 2.282765869018668e+00
 0.000000000000000e+00	 2.235294117616666e+00	 2.256642141930662e+00
 1.896090691865213e-01	 2.236092572967051e+00	 2.352216239991296e+00
 1.704086821563501e-01	 2.237637727575971e+00	 2.331669707732801e+00
 1.512566570391123e-01	 2.239013902512914e+00	 2.319774245190074e+00
 1.321548780221677e-01	 2.240222535073460e+00	 2.314097625905903e+00
 1.131051933668601e-01	 2.241265085786478e+00	 2.312214943693300e+00
 9.410941521672982e-02	 2.242143037452657e+00	 2.311704371460768e+00
 7.516931943142079e-02	 2.242857894187619e+00	 2.310143219049698e+00
 5.628664544585469e-02	 2.243411180470268e+00	 2.305104259421063e+00
 3.746309615422838e-02	 2.243804440197124e+00	 2.294152294297135e+00
 1.870033781837339e-02	 2.244039235743249e+00	 2.274840932214774e+00
 0.000000000000000e+00	 2.244117147030466e+00	 2.244709553827171e+00
 1.903545411373831e-01	 2.244884052755747e+00	 2.356658980836597e+00
 1.710786653657838e-01	 2.246435282335047e+00	 2.335011201917971e+00
 1.518513416481237e-01	 2.247816867877463e+00	 2.322243508646729e+00
 1.326744615796724e-01	 2.249030252329490e+00	 2.315806068962539e+00
 1.135498806884355e-01	 2.250076901962240e+00	 2.313154054399091e+00
 9.447941824261366e-02	 2.250958305406227e+00	 2.311743688762462e+00
 7.546485708385678e-02	 2.251675972690686e+00	 2.309028591193891e+00
 5.650794348588412e-02	 2.252231434288208e+00	 2.302456381813774e+00
 3.761038703802571e-02	 2.252626240165328e+00	 2.289465520000549e+00
 1.877386055322171e-02	 2.252861958839786e+00	 2.267482347298972e+00
 0.000000000000000e+00	 2.252940176445066e+00	 2.233918308925041e+00
 1.911000130876450e-01	 2.253675532544351e+00	 2.359096519119081e+00
 1.717486485746180e-01	 2.255232837094122e+00	 2.337087835717715e+00
 1.524460262565400e-01	 2.256619833242108e+00	 2.323943069043269e+00
 1.331940451365936e-01	 2.257837969585706e+00	 2.317052571101646e+00
 1.139945680094499e-01	 2.258888718138283e+00	 2.313809858317335e+00
 9.484942126797379e-02	 2.259773573360162e+00	 2.311607872719759e+00
 7.576039473582419e-02	 2.260494051194198e+00	 2.307835534283603e+00
 5.672924152552148e-02	 2.261051688106654e+00	 2.299874551532512e+00
 3.775767792153237e-02	 2.261448040134089e+00	 2.285096459458416e+00
 1.884738328790895e-02	 2.261684681936912e+00	 2.260859855835643e+00
 0.000000000000000e+00	 2.261763205860265e+00	 2.224507809071690e+00
 1.918454850375068e-01	 2.262467012332769e+00	 2.359656516227179e+00
 1.724186317830527e-01	 2.264030391853086e+00	 2.337971230565484e+00
 1.530407108645597e-01	 2.265422798606721e+00	 2.324905376469582e+00
 1.337136286931259e-01	 2.266645686841974e+00	 2.317846524690597e+00
 1.144392553300906e-01	 2.267700534314453e+00	 2.314184046999295e+00
 9.521942429298476e-02	 2.268588841314297e+00	 2.311305513200843e+00
 7.605593238747917e-02	 2.269312129697973e+00	 2.306593377454720e+00
 5.695053956489744e-02	 2.269871941925420e+00	 2.297421919974772e+00
 3.790496880484522e-02	 2.270269840103212e+00	 2.281154412209469e+00
 1.892090602248878e-02	 2.270507405034428e+00	 2.255140475713013e+00
 0.000000000000000e+00	 2.270586235275865e+00	 2.216713607066995e+00
 1.925909569871686e-01	 2.271258492120908e+00	 2.358464758798608e+00
 1.730886149912876e-01	 2.272827946611831e+00	 2.337731987291142e+00
 1.536353954723810e-01	 2.274225763971177e+00	 2.325162453691763e+00
 1.342332122494638e-01	 2.275453404098145e+00	 2.318197237954574e+00
 1.148839426505443e-01	 2.276512350490592e+00	 2.314278331740745e+00
 9.558942731782116e-02	 2.277404109268463e+00	 2.310845095240546e+00
 7.635147003897792e-02	 2.278130208201834e+00	 2.305331002818382e+00
 5.717183760414270e-02	 2.278692195744318e+00	 2.295160642573205e+00
 3.805225968806117e-02	 2.279091640072504e+00	 2.277746937011234e+00
 1.899442875701491e-02	 2.279330128132136e+00	 2.250488554218967e+00
 0.000000000000000e+00	 2.279409264691664e+00	 2.210767481156905e+00
 1.933364289368304e-01	 2.280049971908675e+00	 2.355645196915515e+00
 1.737585981995224e-01	 2.281625501370243e+00	 2.336439707638998e+00
 1.542300800802022e-01	 2.283028729335347e+00	 2.324745906059914e+00
 1.347527958058015e-01	 2.284261121354082e+00	 2.318113938119541e+00
 1.153286299709979e-01	 2.285324166666546e+00	 2.314094444583219e+00
 9.595943034265751e-02	 2.286219377222491e+00	 2.310235002300571e+00
 7.664700769047661e-02	 2.286948286705600e+00	 2.304076855158012e+00
 5.739313564338794e-02	 2.287512449563160e+00	 2.293151898884608e+00
 3.819955057127708e-02	 2.287913440041769e+00	 2.274979886053389e+00
 1.906795149154102e-02	 2.288152851229837e+00	 2.247065819888764e+00
 0.000000000000000e+00	 2.288232294107464e+00	 2.206897507803629e+00
 1.940819008866921e-01	 2.288841451695976e+00	 2.351319981416162e+00
 1.744285814079569e-01	 2.290423056128214e+00	 2.334163015286079e+00
 1.548247646882218e-01	 2.291831694699106e+00	 2.323686931183711e+00
 1.352723793623337e-01	 2.293068838609642e+00	 2.317605774479067e+00
 1.157733172916385e-01	 2.294135982842159e+00	 2.313634139288995e+00
 9.632943336766836e-02	 2.295034645176212e+00	 2.309483519451987e+00
 7.694254534213150e-02	 2.295766365209097e+00	 2.302858951401014e+00
 5.761443368276380e-02	 2.296332703381759e+00	 2.291455912214726e+00
 3.834684145458987e-02	 2.296735240010814e+00	 2.272957438381991e+00
 1.914147422612082e-02	 2.296975574327333e+00	 2.245031433157720e+00
 0.000000000000000e+00	 2.297055323523064e+00	 2.205328132778724e+00
 1.948273728369537e-01	 2.297632931482718e+00	 2.345609500346695e+00
 1.750985646167911e-01	 2.299220610885635e+00	 2.330969576374101e+00
 1.554194492966379e-01	 2.300634660062328e+00	 2.322016328381899e+00
 1.357919629192548e-01	 2.301876555864683e+00	 2.316681821387050e+00
 1.162180046126528e-01	 2.302947799017273e+00	 2.312899192290479e+00
 9.669943639302830e-02	 2.303849913129458e+00	 2.308598836482096e+00
 7.723808299409873e-02	 2.304584443712136e+00	 2.301704889871142e+00
 5.783573172240101e-02	 2.305152957199925e+00	 2.290131968791385e+00
 3.849413233809643e-02	 2.305557039979444e+00	 2.271782132555863e+00
 1.921499696080799e-02	 2.305798297424425e+00	 2.244542035850843e+00
 0.000000000000000e+00	 2.305878352938263e+00	 2.206280240624038e+00
 1.955728447878152e-01	 2.306424411268809e+00	 2.338632414576043e+00
 1.757685478262243e-01	 2.308018165642391e+00	 2.326926119568071e+00
 1.560141339056490e-01	 2.309437625424884e+00	 2.319764507911824e+00
 1.363115464767591e-01	 2.310684273119061e+00	 2.315351081178371e+00
 1.166626919342278e-01	 2.311759615191734e+00	 2.311891403614695e+00
 9.706943941891187e-02	 2.312665181082062e+00	 2.307589050927670e+00
 7.753362064653452e-02	 2.313402522214548e+00	 2.300641859327443e+00
 5.805702976243027e-02	 2.313973211017472e+00	 2.289238436497932e+00
 3.864142322189361e-02	 2.314378839947464e+00	 2.271554898555477e+00
 1.928851969565624e-02	 2.314621020520913e+00	 2.245751799540429e+00
 0.000000000000000e+00	 2.314701382352864e+00	 2.209971222524038e+00
 1.963183167394766e-01	 2.315215891054156e+00	 2.330505692596132e+00
 1.764385310364568e-01	 2.316815720398379e+00	 2.322098455654134e+00
 1.566088185154535e-01	 2.318240590786652e+00	 2.316961499984796e+00
 1.368311300350413e-01	 2.319491990372638e+00	 2.313622487019331e+00
 1.171073792565506e-01	 2.320571431365386e+00	 2.310612597783525e+00
 9.743944244549368e-02	 2.321480449033855e+00	 2.306462171036575e+00
 7.782915829959509e-02	 2.322220600716149e+00	 2.299696647795371e+00
 5.827832780298224e-02	 2.322793464834211e+00	 2.288832783178700e+00
 3.878871410607834e-02	 2.323200639914681e+00	 2.272375088964279e+00
 1.936204243071925e-02	 2.323443743616602e+00	 2.248812472801777e+00
 0.000000000000000e+00	 2.323524411766664e+00	 2.216615042631735e+00
 2.323524411766664e+00	 0.000000000000000e+00	 2.745373276446162e+00
 2.323443743616602e+00	 1.936204243071796e-02	 2.595965869367491e+00
 2.323200639914680e+00	 3.878871410607723e-02	 2.534510212074314e+00
 2.322793464834211e+00	 5.827832780298133e-02	 2.540620847243980e+00
 2.322220600716149e+00	 7.782915829959436e-02	 2.594022532088421e+00
 2.321480449033855e+00	 9.743944244549314e-02	 2.674583532601973e+00
 2.320571431365386e+00	 1.171073792565502e-01	 2.762351560343224e+00
 2.319491990372638e+00	 1.368311300350412e-01	 2.837592259272425e+00
 2.318240590786651e+00	 1.566088185154535e-01	 2.880830154762855e+00
 2.316815720398378e+00	 1.764385310364570e-01	 2.872891989701485e+00
 2.315215891054155e+00	 1.963183167394767e-01	 2.794952388436751e+00
 2.332348940767776e+00	 0.000000000000000e+00	 2.791877514358557e+00
 2.332267966247539e+00	 1.943557766217617e-02	 2.625391368268116e+00
 2.332023939260249e+00	 3.893603002471444e-02	 2.530299217701331e+00
 2.331615217766517e+00	 5.849966345662133e-02	 2.490532468478656e+00
 2.331040177963597e+00	 7.812474618384858e-02	 2.490592120568132e+00
 2.330297215253816e+00	 9.780950835971168e-02	 2.515588918281922e+00
 2.329384745220547e+00	 1.175521421601332e-01	 2.551285624467350e+00
 2.328301204611078e+00	 1.373508019042064e-01	 2.584141291925655e+00
 2.327045052325661e+00	 1.572036042005578e-01	 2.601357410451718e+00
 2.325614770412040e+00	 1.771086281199704e-01	 2.590925821267544e+00
 2.324008865064697e+00	 1.970639153947111e-01	 2.541678307214929e+00
 2.341173467267554e+00	 0.000000000000000e+00	 2.901416331492689e+00
 2.341092186377230e+00	 1.950911287302710e-02	 2.674871041812345e+00
 2.340847236104838e+00	 3.908334590202416e-02	 2.513265334323056e+00
 2.340436968198291e+00	 5.872099904810694e-02	 2.404377675349894e+00
 2.339859752711145e+00	 7.842033398502124e-02	 2.336908813574324e+00
 2.339113978974688e+00	 9.817957416982777e-02	 2.300526923299350e+00
 2.338198056577620e+00	 1.179969049385057e-01	 2.285914435842409e+00
 2.337110416352620e+00	 1.378704736269727e-01	 2.284816402758753e+00
 2.335849511369155e+00	 1.577983897180010e-01	 2.290090240333251e+00
 2.334413817931758e+00	 1.777787250144939e-01	 2.295756718736643e+00
 2.332801836583068e+00	 1.978095138395674e-01	 2.297052076574350e+00
 2.349997988765666e+00	 0.000000000000000e+00	 3.060386242560640e+00
 2.349916401505432e+00	 1.958264804239493e-02	 2.738959351280113e+00
 2.349670527948471e+00	 3.923066169619430e-02	 2.484746178639808e+00
 2.349258713629998e+00	 5.894233451463022e-02	 2.288905025819240e+00
 2.348679322459877e+00	 7.871592161924970e-02	 2.143763337322030e+00
 2.347930737698365e+00	 9.854963977086598e-02	 2.042865990140733e+00
 2.347011362939482e+00	 1.184416674655224e-01	 1.981024917286120e+00
 2.345919623101312e+00	 1.383901450559685e-01	 1.954369884574753e+00
 2.344653965422533e+00	 1.583931748991300e-01	 1.960400245884458e+00
 2.343212860464476e+00	 1.784488215300385e-01	 1.998037516624980e+00
 2.341594803117931e+00	 1.985551118626670e-01	 2.067678623231709e+00
 2.358822502761778e+00	 0.000000000000000e+00	 3.255371656642815e+00
 2.358740609131898e+00	 1.965618314940383e-02	 2.812281200526675e+00
 2.358493812291163e+00	 3.937797736541278e-02	 2.446052539551705e+00
 2.358080451562100e+00	 5.916366979338318e-02	 2.150759109789921e+00
 2.357498884710881e+00	 7.901150900267125e-02	 1.921785376560765e+00
 2.356747488926737e+00	 9.891970505785086e-02	 1.755876437857132e+00
 2.355824661809015e+00	 1.188864296150379e-01	 1.651188689912257e+00
 2.354728822361202e+00	 1.389098160438223e-01	 1.607341353676500e+00
 2.353458411991198e+00	 1.589879595752919e-01	 1.625468667874346e+00
 2.352011895517132e+00	 1.791189174766153e-01	 1.708272569428533e+00
 2.350387762177955e+00	 1.993007092526315e-01	 1.860075700816200e+00
 2.367647006755555e+00	 0.000000000000000e+00	 3.473141378614551e+00
 2.367564806756384e+00	 1.972971817317799e-02	 2.889530668581967e+00
 2.367317086632938e+00	 3.952529286786756e-02	 2.398468957515835e+00
 2.366902179495063e+00	 5.938500482155783e-02	 1.996482591600353e+00
 2.366318436965246e+00	 7.930709605142312e-02	 1.681446697615120e+00
 2.365564230161695e+00	 9.928976992580693e-02	 1.452634284332947e+00
 2.364637950689095e+00	 1.193311912609068e-01	 1.310766214822060e+00
 2.363538011636338e+00	 1.394294864431625e-01	 1.258061832936909e+00
 2.362262848580552e+00	 1.595827435778335e-01	 1.298290034782575e+00
 2.360810920596668e+00	 1.797890126642353e-01	 1.436820591626677e+00
 2.359180711271804e+00	 2.000463057980825e-01	 1.680675550220591e+00
 2.376471498246666e+00	 0.000000000000000e+00	 3.700645188336107e+00
 2.376388991878643e+00	 1.980325309284157e-02	 2.965469770404360e+00
 2.376140348473815e+00	 3.967260816174652e-02	 2.343254290922703e+00
 2.375723894929350e+00	 5.960633953634623e-02	 1.832518206858963e+00
 2.375137976724059e+00	 7.960268268164264e-02	 1.433064201517958e+00
 2.374380958905133e+00	 9.965983426975876e-02	 1.146024982800047e+00
 2.373451227082600e+00	 1.197759522769838e-01	 9.739108415617227e-01
 2.372347188430767e+00	 1.399491561066176e-01	 9.206577424851485e-01
 2.371067272695995e+00	 1.601775267381020e-01	 9.916757279673476e-01
 2.369609933210024e+00	 1.804591069029094e-01	 1.193897431801795e+00
 2.367973647908145e+00	 2.007919012876414e-01	 1.535826519611675e+00
 2.385295974734777e+00	 0.000000000000000e+00	 3.925010495597966e+00
 2.385213161998431e+00	 1.987678788751876e-02	 3.034927245064783e+00
 2.384963595313815e+00	 3.981992320523760e-02	 2.281642269830860e+00
 2.384545595365426e+00	 5.982767387494037e-02	 1.665210714798457e+00
 2.383957501488406e+00	 7.989826880946704e-02	 1.186802909039580e+00
 2.383197672658942e+00	 1.000298979847308e-01	 8.487470748095582e-01
 2.382264488492409e+00	 1.202207125371235e-01	 6.545727657520439e-01
 2.381156350248538e+00	 1.404688248868162e-01	 6.090548003927013e-01
 2.379871681842928e+00	 1.607723088874440e-01	 7.182574657308765e-01
 2.378408930864142e+00	 1.811292000026486e-01	 9.895787825751650e-01
 2.376766569595645e+00	 2.015374955099300e-01	 1.431794645141630e+00
 2.394120433719554e+00	 0.000000000000000e+00	 4.133539068873485e+00
 2.394037314615504e+00	 1.995032253633372e-02	 3.092797370652924e+00
 2.393786824652957e+00	 3.996723795652874e-02	 2.214842037380607e+00
 2.393367278303754e+00	 6.004900777453227e-02	 1.500808807292553e+00
 2.392777008759376e+00	 8.019385435103364e-02	 9.526788793635638e-01
 2.392014368925014e+00	 1.003999609657477e-01	 5.733157618092992e-01
 2.391077732421400e+00	 1.206654719151807e-01	 3.665028982250682e-01
 2.389965494593699e+00	 1.409884926363867e-01	 3.369818356731509e-01
 2.388676073526756e+00	 1.613670898572067e-01	 4.904907083679271e-01
 2.387207911065962e+00	 1.817992917734640e-01	 8.338028280095487e-01
 2.385559473842969e+00	 2.022830882535698e-01	 1.374765193371619e+00
 2.402944872700665e+00	 0.000000000000000e+00	 4.313703835988123e+00
 2.402861447229616e+00	 2.002385701841063e-02	 3.134038805221888e+00
 2.402610033991262e+00	 4.011455237380784e-02	 2.144038679204159e+00
 2.402188941244798e+00	 6.027034117231397e-02	 1.345466975645332e+00
 2.401596496038056e+00	 8.048943922247974e-02	 7.405620641082694e-01
 2.400831045205240e+00	 1.007700231078340e-01	 3.320663974118187e-01
 2.399890956372451e+00	 1.211102302850098e-01	 1.232566479346825e-01
 2.398774618970295e+00	 1.415081592079575e-01	 1.179745158422434e-01
 2.397480445252878e+00	 1.619618694787370e-01	 3.206579862218021e-01
 2.396006871322424e+00	 1.824693820253664e-01	 7.363728300809140e-01
 2.394352358158783e+00	 2.030286793071823e-01	 1.370844166388114e+00
 2.411769289177776e+00	 0.000000000000000e+00	 4.453145754867869e+00
 2.411685557340520e+00	 2.009739131287368e-02	 3.153673453105329e+00
 2.411433220828751e+00	 4.026186641526282e-02	 2.070393741137050e+00
 2.411010581689024e+00	 6.049167400547752e-02	 1.205247336229513e+00
 2.410415960825535e+00	 8.078502333994263e-02	 5.601790983448248e-01
 2.409647699001513e+00	 1.011400843060141e-01	 1.371579023767904e-01
 2.408704157848441e+00	 1.215549875204656e-01	-6.180237915790776e-02
 2.407583720882377e+00	 1.420278244541572e-01	-3.462100878128560e-02
 2.406284794526695e+00	 1.625566475833819e-01	 2.208721527129303e-01
 2.404805809140468e+00	 1.831394705683671e-01	 7.069596557747939e-01
 2.403145220051753e+00	 2.037742684593891e-01	 1.426059770565748e+00
 2.315215891054155e+00	 1.963183167394767e-01	 2.794952388436750e+00
 2.313439322528182e+00	 2.162495718069737e-01	 2.679943882617277e+00
 2.311484833814060e+00	 2.362268551605946e-01	 2.576977209818793e+00
 2.309351013912615e+00	 2.562480557777598e-01	 2.490462776747311e+00
 2.307036479994991e+00	 2.763110252327098e-01	 2.423113905568170e+00
 2.304539878427208e+00	 2.964135780332421e-01	 2.375928720139281e+00
 2.301859885794940e+00	 3.165534919874207e-01	 2.348175679578656e+00
 2.298995209927609e+00	 3.367285086005783e-01	 2.337383040342129e+00
 2.295944590920845e+00	 3.569363335028883e-01	 2.339332569581797e+00
 2.292706802156369e+00	 3.771746369077693e-01	 2.361177353007940e+00
 2.289280651318292e+00	 3.974410541013390e-01	 2.564545926508250e+00
 2.324008865064697e+00	 1.970639153947111e-01	 2.541678307214929e+00
 2.322225549296722e+00	 2.170708675098281e-01	 2.475668898414248e+00
 2.320263637616369e+00	 2.371240227222551e-01	 2.424715153317624e+00
 2.318121713665623e+00	 2.572212619919357e-01	 2.391457856652591e+00
 2.315798389363781e+00	 2.773604287335799e-01	 2.376571520922454e+00
 2.313292305935888e+00	 2.975393291546790e-01	 2.378742822735973e+00
 2.310602134941420e+00	 3.177557326236096e-01	 2.394652779057019e+00
 2.307726579302260e+00	 3.380073720681416e-01	 2.418962951063486e+00
 2.304664374329044e+00	 3.582919444046357e-01	 2.444306006202140e+00
 2.301414288744912e+00	 3.786071109981869e-01	 2.479969401096326e+00
 2.297975125705680e+00	 3.989504981539398e-01	 2.684306171327749e+00
 2.332801836583068e+00	 1.978095138395674e-01	 2.297052076574349e+00
 2.331011773575056e+00	 2.178921629808588e-01	 2.300474232190091e+00
 2.329042438930636e+00	 2.380211900305954e-01	 2.316904208325571e+00
 2.326892410932952e+00	 2.581944679312457e-01	 2.347479070226398e+00
 2.324560296249448e+00	 2.784098319379906e-01	 2.391159369981214e+00
 2.322044730964200e+00	 2.986650799580174e-01	 2.444704991272761e+00
 2.319344381610483e+00	 3.189579729200166e-01	 2.502654764355182e+00
 2.316457946202639e+00	 3.392862351741970e-01	 2.557310142516101e+00
 2.313384155266309e+00	 3.596475549231081e-01	 2.598723275542703e+00
 2.310121772866059e+00	 3.800395846835241e-01	 2.639679929524845e+00
 2.306669597629398e+00	 4.004599417796175e-01	 2.833474548454133e+00
 2.341594803117931e+00	 1.985551118626670e-01	 2.067678623231708e+00
 2.339797992873766e+00	 2.187134579872421e-01	 2.156598263194540e+00
 2.337821235269544e+00	 2.389183568312966e-01	 2.252101875524516e+00
 2.335663103229576e+00	 2.591676733198283e-01	 2.354086378780497e+00
 2.333322198169454e+00	 2.794592345484933e-01	 2.460120489582953e+00
 2.330797151032284e+00	 2.997908301241789e-01	 2.565418828740371e+00
 2.328086623325142e+00	 3.201602125358942e-01	 2.662819765748105e+00
 2.325189308154834e+00	 3.405650975562916e-01	 2.742767293551511e+00
 2.322103931262002e+00	 3.610031646741135e-01	 2.793297271150010e+00
 2.318829252052637e+00	 3.814720575578183e-01	 2.831941243609650e+00
 2.315364064625950e+00	 4.019693845506116e-01	 3.005351215379224e+00
 2.350387762177955e+00	 1.993007092526315e-01	 1.860075700816200e+00
 2.348584204703428e+00	 2.195347522961541e-01	 2.046257805987583e+00
 2.346600024145775e+00	 2.398155228700398e-01	 2.228898971633246e+00
 2.344433788070470e+00	 2.601408778818218e-01	 2.406917249542379e+00
 2.342084092641259e+00	 2.805086362676384e-01	 2.576808965905792e+00
 2.339549563660281e+00	 3.009165793340846e-01	 2.732621936502102e+00
 2.336828857608416e+00	 3.213624511304948e-01	 2.865932326356200e+00
 2.333920662684929e+00	 3.418439588519719e-01	 2.965825443467379e+00
 2.330823699845481e+00	 3.623587732734598e-01	 3.018880803369225e+00
 2.327536723837478e+00	 3.829045292151071e-01	 3.048506166763619e+00
 2.324058524231837e+00	 4.034788260391605e-01	 3.193331480906534e+00
 2.359180711271804e+00	 2.000463057980825e-01	 1.680675550220590e+00
 2.357370406574623e+00	 2.203560456747713e-01	 1.971648501721365e+00
 2.355378803072010e+00	 2.407126878925058e-01	 2.245918942309673e+00
 2.353204462970608e+00	 2.611140813413643e-01	 2.501685080231493e+00
 2.350845977182324e+00	 2.815580367979773e-01	 2.734687660017213e+00
 2.348301966368331e+00	 3.020423272686564e-01	 2.938183129242904e+00
 2.345571081983317e+00	 3.225646883630709e-01	 3.102920293926798e+00
 2.342652007319017e+00	 3.431228186987856e-01	 3.217120746937290e+00
 2.339543458546102e+00	 3.637143803369544e-01	 3.266463402499833e+00
 2.336244185753410e+00	 3.843369992494279e-01	 3.281245720249021e+00
 2.332752973983562e+00	 4.049882658175036e-01	 3.390903968271644e+00
 2.367973647908145e+00	 2.007919012876414e-01	 1.535826519611675e+00
 2.366156595997930e+00	 2.211773378902697e-01	 1.934945196543331e+00
 2.364157569560931e+00	 2.416098516443755e-01	 2.301817185334602e+00
 2.361975125444967e+00	 2.620872834225944e-01	 2.634177652789272e+00
 2.359607849310109e+00	 2.826074358420603e-01	 2.927325977178812e+00
 2.357054356676573e+00	 3.031680736088151e-01	 3.174099704025468e+00
 2.354313293972862e+00	 3.237669238928752e-01	 3.364851772845967e+00
 2.351383339583185e+00	 3.444016767342794e-01	 3.487431291093144e+00
 2.348263204893227e+00	 3.650699854804051e-01	 3.527168181851298e+00
 2.344951635333265e+00	 3.857694672548180e-01	 3.522146856430301e+00
 2.341447411417628e+00	 4.064977034578798e-01	 3.591648821240696e+00
 2.376766569595645e+00	 2.015374955099300e-01	 1.431794645141630e+00
 2.374942770483929e+00	 2.219986287098258e-01	 1.938302307454426e+00
 2.372936321125219e+00	 2.425070138713300e-01	 2.395280383812651e+00
 2.370745773008521e+00	 2.630604838496503e-01	 2.800255615511737e+00
 2.368369706542075e+00	 2.836568331024389e-01	 3.148397678779807e+00
 2.365806732105149e+00	 3.042938180354824e-01	 3.432494762059276e+00
 2.363055491100067e+00	 3.249691573791602e-01	 3.642932134829825e+00
 2.360114657003518e+00	 3.456805325960001e-01	 3.767673973159693e+00
 2.356982936416214e+00	 3.664255883196198e-01	 3.792248759158797e+00
 2.353659070109870e+00	 3.872019328253149e-01	 3.763310244146489e+00
 2.350141834070536e+00	 4.080071385325283e-01	 3.789235952077524e+00
 2.385559473842969e+00	 2.022830882535698e-01	 1.374765193371619e+00
 2.383728927543198e+00	 2.228199179006156e-01	 1.983854175944494e+00
 2.381715055277557e+00	 2.434041743190502e-01	 2.525025849133729e+00
 2.379516403176245e+00	 2.640336823466701e-01	 2.995850992856102e+00
 2.377131546395682e+00	 2.847062282816638e-01	 3.391678735804805e+00
 2.374559090174199e+00	 3.054195602295796e-01	 3.705614581830687e+00
 2.371797670887946e+00	 3.261713884811782e-01	 3.928501086790580e+00
 2.368845957106104e+00	 3.469593859214951e-01	 4.048901437089280e+00
 2.365702650644420e+00	 3.677811884704060e-01	 4.053086234863456e+00
 2.362366487616057e+00	 3.886343955549560e-01	 3.996948104863513e+00
 2.358836239478789e+00	 4.095165706136882e-01	 3.977423330303021e+00
 2.394352358158783e+00	 2.030286793071823e-01	 1.370844166388115e+00
 2.392515064686318e+00	 2.236412052298155e-01	 2.073715409719951e+00
 2.390493769530627e+00	 2.443013327332173e-01	 2.689800873446151e+00
 2.388287013463114e+00	 2.650068786377924e-01	 3.216965722214320e+00
 2.385893366388392e+00	 2.857556210822857e-01	 3.651045222773961e+00
 2.383311428403863e+00	 3.065452998720281e-01	 3.985826042280709e+00
 2.380539830859514e+00	 3.273736168581818e-01	 4.213029794416197e+00
 2.377577237417034e+00	 3.482382363483113e-01	 4.322299067690030e+00
 2.374422345107206e+00	 3.691367855485713e-01	 4.301186225806101e+00
 2.371073885384655e+00	 3.900668550377789e-01	 4.215382098304214e+00
 2.367530625178890e+00	 4.110259992735984e-01	 4.150055311201700e+00
 2.403145220051753e+00	 2.037742684593891e-01	 1.426059770565747e+00
 2.401301179423868e+00	 2.244624904646018e-01	 2.209981212827534e+00
 2.399272461397111e+00	 2.451984888595121e-01	 2.888382091400286e+00
 2.397057601384104e+00	 2.659800724471556e-01	 3.459670216966747e+00
 2.394655164037665e+00	 2.868050112068558e-01	 3.920471251125661e+00
 2.392063744314279e+00	 3.076710366437493e-01	 4.265614094756149e+00
 2.389281968537789e+00	 3.285758421694235e-01	 4.488118060044845e+00
 2.386308495462393e+00	 3.495170835139956e-01	 4.579182040784768e+00
 2.383142017333930e+00	 3.704923791699238e-01	 4.528177614137102e+00
 2.379781260948493e+00	 3.914993108678208e-01	 4.411041256295142e+00
 2.376224988707342e+00	 4.125354240844981e-01	 4.301061003060286e+00
 2.289280651318292e+00	 3.974410541013390e-01	 2.564545926508249e+00
 2.285665611882141e+00	 4.177297355317194e-01	 2.856600388141150e+00
 2.281859995945115e+00	 4.380416965911244e-01	 3.096697526349071e+00
 2.277862718926717e+00	 4.583744778323171e-01	 3.282001963600213e+00
 2.273672734502291e+00	 4.787255872827543e-01	 3.410105830780118e+00
 2.269289035584527e+00	 4.990925010900192e-01	 3.479040823589955e+00
 2.264710655295170e+00	 5.194726641987831e-01	 3.487290032831981e+00
 2.259936667925870e+00	 5.398634910592639e-01	 3.433799495871804e+00
 2.254966189887047e+00	 5.602623663671141e-01	 3.317989407310651e+00
 2.249798380643699e+00	 5.806666458346353e-01	 3.139764917360927e+00
 2.244432443637021e+00	 6.010736569931620e-01	 2.899526436665475e+00
 2.297975125705680e+00	 3.989504981539398e-01	 2.684306171327750e+00
 2.294346356687181e+00	 4.193162341039567e-01	 2.960364492746834e+00
 2.290526287376104e+00	 4.397053380968214e-01	 3.177948344249905e+00
 2.286513829072793e+00	 4.601153413445548e-01	 3.335640264035314e+00
 2.282307931478736e+00	 4.805437424103435e-01	 3.432575306784617e+00
 2.277907583681775e+00	 5.009880078564237e-01	 3.468453518929182e+00
 2.273311815131525e+00	 5.214455729236140e-01	 3.443552067775643e+00
 2.268519696603858e+00	 5.419138422424646e-01	 3.358736968104211e+00
 2.263530341153386e+00	 5.623901905759559e-01	 3.215474340459729e+00
 2.258342905052813e+00	 5.828719635936400e-01	 3.015841125674963e+00
 2.252956588718057e+00	 6.033564786770743e-01	 2.762535170272487e+00
 2.306669597629398e+00	 4.004599417796175e-01	 2.833474548454133e+00
 2.303027099032474e+00	 4.209027322273973e-01	 3.082982425513804e+00
 2.299192576351457e+00	 4.413689791318174e-01	 3.270190832599996e+00
 2.295164936767550e+00	 4.618562043641621e-01	 3.394870121051232e+00
 2.290943126008370e+00	 4.823618970233515e-01	 3.457446429827727e+00
 2.286526129336921e+00	 5.028835140862803e-01	 3.459014505794193e+00
 2.281912972530687e+00	 5.234184810899195e-01	 3.401350086251820e+00
 2.277102722849768e+00	 5.439641928451562e-01	 3.286921784388139e+00
 2.272094489992965e+00	 5.645180141823033e-01	 3.118902408740068e+00
 2.266887427040690e+00	 5.850772807281696e-01	 2.901179637900370e+00
 2.261480731383585e+00	 6.056392997145411e-01	 2.638365961617151e+00
 2.315364064625950e+00	 4.019693845506116e-01	 3.005351215379223e+00
 2.311707836458393e+00	 4.224892294524600e-01	 3.219636719397628e+00
 2.307858860415636e+00	 4.430326192246884e-01	 3.370260039564809e+00
 2.303816039559728e+00	 4.635970663978493e-01	 3.457951882099018e+00
 2.299578315644430e+00	 4.841800506066048e-01	 3.484180435815993e+00
 2.295144670107906e+00	 5.047790192425134e-01	 3.451164464244678e+00
 2.290514125055513e+00	 5.253913881387063e-01	 3.361885896681454e+00
 2.285685744231581e+00	 5.460145422864141e-01	 3.220101856634820e+00
 2.280658633979106e+00	 5.666458365832896e-01	 3.030356056315834e+00
 2.275431944186209e+00	 5.872825966134051e-01	 2.797989475737020e+00
 2.270004869218262e+00	 6.079221194587818e-01	 2.529150234666456e+00
 2.324058524231837e+00	 4.034788260391605e-01	 3.193331480906535e+00
 2.320388566505321e+00	 4.240757253295643e-01	 3.365576562665180e+00
 2.316525137113097e+00	 4.446962579040100e-01	 3.475032692519125e+00
 2.312467134998071e+00	 4.653379269523279e-01	 3.523166076737989e+00
 2.308213497940153e+00	 4.859982026449298e-01	 3.512240681051173e+00
 2.303763203552670e+00	 5.066745227880483e-01	 3.445331522071159e+00
 2.299115270268857e+00	 5.273642935109814e-01	 3.326337422529457e+00
 2.294268758317280e+00	 5.480648899853142e-01	 3.159993167282662e+00
 2.289222770685134e+00	 5.687736571760474e-01	 2.951880986987498e+00
 2.283976454068253e+00	 5.894879106245265e-01	 2.708441285977460e+00
 2.278528999806741e+00	 6.102049372630166e-01	 2.436982520275934e+00
 2.332752973983562e+00	 4.049882658175036e-01	 3.390903968271645e+00
 2.329069286713632e+00	 4.256622194091289e-01	 3.516116505187201e+00
 2.325191403988295e+00	 4.463598946983577e-01	 3.581426383383190e+00
 2.321118220631321e+00	 4.670787855343085e-01	 3.588813017617078e+00
 2.316848670448773e+00	 4.878163526231535e-01	 3.541092596233145e+00
 2.312381727229153e+00	 5.085700241858092e-01	 3.441931500018339e+00
 2.307716405733574e+00	 5.293371966477524e-01	 3.295859177815351e+00
 2.302851762674848e+00	 5.501152353609325e-01	 3.108280415077146e+00
 2.297786897684372e+00	 5.709014753577101e-01	 2.885486921184651e+00
 2.292520954265702e+00	 5.916932221367140e-01	 2.634668150664738e+00
 2.287053120733681e+00	 6.124877524804658e-01	 2.363921262519760e+00
 2.341447411417628e+00	 4.064977034578798e-01	 3.591648821240696e+00
 2.337749994623704e+00	 4.272487112415729e-01	 3.666635195867857e+00
 2.333857658585689e+00	 4.480235291363075e-01	 3.686398774689449e+00
 2.329769294008222e+00	 4.688196416505025e-01	 3.653212413197056e+00
 2.325483830723528e+00	 4.896345000261021e-01	 3.570203644614621e+00
 2.321000238695292e+00	 5.104655228987205e-01	 3.441368154952098e+00
 2.316317529012518e+00	 5.313100969900261e-01	 3.271582735721447e+00
 2.311434754872265e+00	 5.521655778323449e-01	 3.066617650443487e+00
 2.306351012550143e+00	 5.730292905254102e-01	 2.833148340366314e+00
 2.301065442357438e+00	 5.938985305251482e-01	 2.578766383769211e+00
 2.295577229583733e+00	 6.147705644643494e-01	 2.311989611924125e+00
 2.350141834070536e+00	 4.080071385325283e-01	 3.789235952077524e+00
 2.346430687775914e+00	 4.288352003773154e-01	 3.812574150407907e+00
 2.342523898449734e+00	 4.496871607464351e-01	 3.786946825844377e+00
 2.338420352677514e+00	 4.705604948076199e-01	 3.714702991910692e+00
 2.334118976317655e+00	 4.914526443386029e-01	 3.599043284199875e+00
 2.329618735509030e+00	 5.123610183897077e-01	 3.444033421022748e+00
 2.324918637668544e+00	 5.332829939788098e-01	 3.254617190476219e+00
 2.320017732477515e+00	 5.542159168186270e-01	 3.036628900719806e+00
 2.314915112855773e+00	 5.751571020762805e-01	 2.796805219152653e+00
 2.309609915922340e+00	 5.961038351650093e-01	 2.542796314730989e+00
 2.304101323941556e+00	 6.170533725678875e-01	 2.283176205940701e+00
 2.358836239478789e+00	 4.095165706136882e-01	 3.977423330303021e+00
 2.355111363710641e+00	 4.304216863667755e-01	 3.949436548621700e+00
 2.351190121124888e+00	 4.513507890573158e-01	 3.880106039066344e+00
 2.347071394187944e+00	 4.723013445123727e-01	 3.771642137466217e+00
 2.342754104784390e+00	 4.932707850454817e-01	 3.627082933883388e+00
 2.338237215228305e+00	 5.142565101216949e-01	 3.450307648875655e+00
 2.333519729264506e+00	 5.352558870551105e-01	 3.246049612684974e+00
 2.328600693058578e+00	 5.562662517388549e-01	 3.019908785510763e+00
 2.323479196174583e+00	 5.772849094074546e-01	 2.778363745502618e+00
 2.318154372539290e+00	 5.983091354314773e-01	 2.528783059204574e+00
 2.312625401391804e+00	 6.193361761443000e-01	 2.279435936986617e+00
 2.367530625178890e+00	 4.110259992735984e-01	 4.150055311201700e+00
 2.363792019968259e+00	 4.320081687603721e-01	 4.072786060550206e+00
 2.359856324155606e+00	 4.530144135975258e-01	 3.962949724494953e+00
 2.355722416088251e+00	 4.740421902714712e-01	 3.822405535008737e+00
 2.351389213676971e+00	 4.950889216315657e-01	 3.653795943426868e+00
 2.346855675411061e+00	 5.161519975576072e-01	 3.460559842958583e+00
 2.342120801363259e+00	 5.372287756599352e-01	 3.246945498275138e+00
 2.337183634183438e+00	 5.583165820121047e-01	 3.018023122413848e+00
 2.332043260079898e+00	 5.794127119160645e-01	 2.779697029242705e+00
 2.326698809787171e+00	 6.005144306997326e-01	 2.538717277332216e+00
 2.321149459519132e+00	 6.216189745468074e-01	 2.302690708368175e+00
 2.376224988707342e+00	 4.125354240844981e-01	 4.301061003060286e+00
 2.372472654089149e+00	 4.335946471085245e-01	 4.178245700635226e+00
 2.368522505086349e+00	 4.546780338956407e-01	 4.032588283982352e+00
 2.364373415927180e+00	 4.757830315916268e-01	 3.865386827861559e+00
 2.360024300548634e+00	 4.969070535816814e-01	 3.678657567176386e+00
 2.355474113615235e+00	 5.180474801603691e-01	 3.475147896973917e+00
 2.350721851527660e+00	 5.392016592342913e-01	 3.258349211218281e+00
 2.345766553420076e+00	 5.603669070574515e-01	 3.032509523363234e+00
 2.340607302145042e+00	 5.815405089992439e-01	 2.802645799242957e+00
 2.335243225244861e+00	 6.027197203449562e-01	 2.574555919863033e+00
 2.329673495908198e+00	 6.239017671286294e-01	 2.354830178395878e+00
 2.244432443637021e+00	 6.010736569931620e-01	 2.899526436665475e+00
 2.238867627679239e+00	 6.214807003114081e-01	 2.642757890130743e+00
 2.233103229312530e+00	 6.418850509405317e-01	 2.417109228990322e+00
 2.227138592220802e+00	 6.622839587993911e-01	 2.226951413533063e+00
 2.220973107593212e+00	 6.826746492208766e-01	 2.077131706558478e+00
 2.214606214955360e+00	 7.030543239064198e-01	 1.973546398019580e+00
 2.208037402979564e+00	 7.234201619097830e-01	 1.922442015823350e+00
 2.201266210273095e+00	 7.437693206496828e-01	 1.929446077079018e+00
 2.194292226143276e+00	 7.640989369507408e-01	 1.957562666501764e+00
 2.187115091338370e+00	 7.844061281122209e-01	 1.986437881888541e+00
 2.179734498763173e+00	 8.046879930039602e-01	 2.020258712295032e+00
 2.252956588718057e+00	 6.033564786770743e-01	 2.762535170272487e+00
 2.247370638108388e+00	 6.238410260424130e-01	 2.502178404458402e+00
 2.241584347094333e+00	 6.443228704920893e-01	 2.281099226731026e+00
 2.235597056867188e+00	 6.647992515004044e-01	 2.102353149079713e+00
 2.229408156303924e+00	 6.852673838623174e-01	 1.969434556673043e+00
 2.223017082801537e+00	 7.057244586515778e-01	 1.886280155537349e+00
 2.216423323090388e+00	 7.261676442082519e-01	 1.857665675600308e+00
 2.209626414025442e+00	 7.465940871551929e-01	 1.886379065415184e+00
 2.202625943354270e+00	 7.670009134429437e-01	 1.929442515643180e+00
 2.195421550460755e+00	 7.873852294225351e-01	 1.972671494490762e+00
 2.188012927083394e+00	 8.077441229455768e-01	 2.018815471869746e+00
 2.261480731383585e+00	 6.056392997145411e-01	 2.638365961617151e+00
 2.255873646127970e+00	 6.262013511050141e-01	 2.377314579439353e+00
 2.250065462472716e+00	 6.467606893532984e-01	 2.162531815753038e+00
 2.244055519116518e+00	 6.673145434891383e-01	 1.995967363280581e+00
 2.237843202624165e+00	 6.878601177695596e-01	 1.879986703969723e+00
 2.231427948264040e+00	 7.083945926406287e-01	 1.817376165990236e+00
 2.224809240824560e+00	 7.289151257287159e-01	 1.811346946455757e+00
 2.217986615408383e+00	 7.494188528608096e-01	 1.859771903416068e+00
 2.210959658203332e+00	 7.699028891133737e-01	 1.917300146322026e+00
 2.203728007228910e+00	 7.903643298892038e-01	 1.974670663822517e+00
 2.196291353057320e+00	 8.108002520216828e-01	 2.033396638807602e+00
 2.270004869218262e+00	 6.079221194587818e-01	 2.529150234666456e+00
 2.264376649328631e+00	 6.285616748304660e-01	 2.270105798947056e+00
 2.258546573044541e+00	 6.491985068334476e-01	 2.063125265809130e+00
 2.252513976572083e+00	 6.698298340529159e-01	 1.909259488564536e+00
 2.246278244163864e+00	 6.904528502079680e-01	 1.809950922197642e+00
 2.239838808959671e+00	 7.110647251169906e-01	 1.767040008228242e+00
 2.233195153805962e+00	 7.316626056926607e-01	 1.782770604759662e+00
 2.226346812053099e+00	 7.522436169661046e-01	 1.849579011017273e+00
 2.219293368329158e+00	 7.728048631397116e-01	 1.920864621110493e+00
 2.212034459289262e+00	 7.933434286680453e-01	 1.991677584677300e+00
 2.204569774339321e+00	 8.138563793662641e-01	 2.062706055118373e+00
 2.278528999806741e+00	 6.102049372630166e-01	 2.436982520275934e+00
 2.272879645301021e+00	 6.309219965500236e-01	 2.182457805506232e+00
 2.267027676406665e+00	 6.516363222418236e-01	 1.984567946362847e+00
 2.260972426837172e+00	 6.723451224790604e-01	 1.843669323816559e+00
 2.254713278532966e+00	 6.930455804429082e-01	 1.760484625792498e+00
 2.248249662505230e+00	 7.137348553240817e-01	 1.736110280764921e+00
 2.241581059658478e+00	 7.344100833215709e-01	 1.772023013794707e+00
 2.234707001590772e+00	 7.550683786706500e-01	 1.854687171984200e+00
 2.227627071370443e+00	 7.757068346996387e-01	 1.939503577706033e+00
 2.220340904288235e+00	 7.963225249148774e-01	 2.022952547830022e+00
 2.212848188583769e+00	 8.169125041133077e-01	 2.105473253432151e+00
 2.287053120733681e+00	 6.124877524804658e-01	 2.363921262519760e+00
 2.281382631635785e+00	 6.332823155949410e-01	 2.116243470825819e+00
 2.275508770155950e+00	 6.540741348877150e-01	 1.928519053163166e+00
 2.269430867515072e+00	 6.748604080548951e-01	 1.800611708099216e+00
 2.263148303341400e+00	 6.956383077397452e-01	 1.732725035532269e+00
 2.256660506517515e+00	 7.164049825053189e-01	 1.725410742177641e+00
 2.249966956005988e+00	 7.371575578369325e-01	 1.779576044613818e+00
 2.243067181652582e+00	 7.578931371740172e-01	 1.875059841677112e+00
 2.235960764965883e+00	 7.786088029708361e-01	 1.971695194382761e+00
 2.228647339872258e+00	 7.993016177855189e-01	 2.067241012256022e+00
 2.221126593445035e+00	 8.199686253968002e-01	 2.160452798882834e+00
 2.295577229583733e+00	 6.147705644643494e-01	 2.311989611924125e+00
 2.289885605923573e+00	 6.356426312964735e-01	 2.073303554336571e+00
 2.283989851889253e+00	 6.565119440804092e-01	 1.896609324112738e+00
 2.277889296209072e+00	 6.773756900677430e-01	 1.781477185160316e+00
 2.271583316199104e+00	 6.982310313638446e-01	 1.727789782275412e+00
 2.265071338613330e+00	 7.190751059041209e-01	 1.735750843950340e+00
 2.258352840472378e+00	 7.399050284602304e-01	 1.805893155780833e+00
 2.251427349869710e+00	 7.607178916757774e-01	 1.910876036680778e+00
 2.244294446754171e+00	 7.815107671309854e-01	 2.017089967681758e+00
 2.236953763687752e+00	 8.022807064357864e-01	 2.122647428099042e+00
 2.229404986577490e+00	 8.230247423507278e-01	 2.225758262283153e+00
 2.304101323941556e+00	 6.170533725678875e-01	 2.283176205940701e+00
 2.298388565755036e+00	 6.380029429858750e-01	 2.055447450041397e+00
 2.292470919203435e+00	 6.589497491291934e-01	 1.890441744704322e+00
 2.286347710522461e+00	 6.798909678049279e-01	 1.787632658962401e+00
 2.280018314716012e+00	 7.008237505805707e-01	 1.746777503388256e+00
 2.273482156409474e+00	 7.217452247639053e-01	 1.767926257902122e+00
 2.266738710681527e+00	 7.426524944129502e-01	 1.851175938405111e+00
 2.259787503873337e+00	 7.635426413755030e-01	 1.962312973856010e+00
 2.252628114374006e+00	 7.844127263577670e-01	 2.075448489777461e+00
 2.245260173381147e+00	 8.052597900214989e-01	 2.188426792868921e+00
 2.237683365635504e+00	 8.260808541090771e-01	 2.299111697118464e+00
 2.312625401391804e+00	 6.193361761443000e-01	 2.279435936986617e+00
 2.306891508720819e+00	 6.403632499944010e-01	 2.064453921976973e+00
 2.300951969695355e+00	 6.613875493433560e-01	 1.911592243291486e+00
 2.294806108058528e+00	 6.824062405537721e-01	 1.820422040462764e+00
 2.288453296502063e+00	 7.034164646552896e-01	 1.790768432047357e+00
 2.281892957522748e+00	 7.244153383280898e-01	 1.822719398338219e+00
 2.275124564257317e+00	 7.453999549165763e-01	 1.915202768959546e+00
 2.268147641294644e+00	 7.663673854727651e-01	 2.029546090998585e+00
 2.260961765464081e+00	 7.873146798288625e-01	 2.146535682498853e+00
 2.253566566598867e+00	 8.082388676984741e-01	 2.263888739924449e+00
 2.245961728273450e+00	 8.291369598058346e-01	 2.379305981127807e+00
 2.321149459519132e+00	 6.216189745468074e-01	 2.302690708368175e+00
 2.315394432411569e+00	 6.427235516533060e-01	 2.102071828576965e+00
 2.309433000961870e+00	 6.638253440321840e-01	 1.961610376452233e+00
 2.303264486420560e+00	 6.849215076015991e-01	 1.881166885865852e+00
 2.296888259167190e+00	 7.060091728533664e-01	 1.860824979596441e+00
 2.290303739569949e+00	 7.270854458400926e-01	 1.900899939055714e+00
 2.283510398823632e+00	 7.481474091925951e-01	 1.998465454667574e+00
 2.276507759764810e+00	 7.691921231671358e-01	 2.112749066675681e+00
 2.269295397663093e+00	 7.902166267219531e-01	 2.230120702689481e+00
 2.261872940987338e+00	 8.112179386225301e-01	 2.348353783727636e+00
 2.254240072145697e+00	 8.321930585749869e-01	 2.465166588925394e+00
 2.329673495908198e+00	 6.239017671286294e-01	 2.354830178395878e+00
 2.323897334417938e+00	 6.450838472938442e-01	 2.170020836218117e+00
 2.317914010599845e+00	 6.662631325049658e-01	 2.042020004696174e+00
 2.311722843211848e+00	 6.874367682357324e-01	 1.971167026563291e+00
 2.305323200321330e+00	 7.086018744401660e-01	 1.957992311133088e+00
 2.298714500167883e+00	 7.297555465433316e-01	 2.003225325332414e+00
 2.291896212004354e+00	 7.508948564624919e-01	 2.101493350812534e+00
 2.284867856915019e+00	 7.720168536581867e-01	 2.212093839260711e+00
 2.277629008609737e+00	 7.931185662147199e-01	 2.325976849246239e+00
 2.270179294192987e+00	 8.141970019494853e-01	 2.441153102845206e+00
 2.262518394906619e+00	 8.352491495505205e-01	 2.555536854836969e+00
 2.179734498763173e+00	 8.046879930039602e-01	 2.020258712295032e+00
 2.172148887181955e+00	 8.249450537845692e-01	 2.073292109625019e+00
 2.164359291997888e+00	 8.451709231933534e-01	 2.154286435618727e+00
 2.156365565077391e+00	 8.653626491398434e-01	 2.258973724396568e+00
 2.148167613071671e+00	 8.855172656989569e-01	 2.382725193357300e+00
 2.139765397992186e+00	 9.056317943338167e-01	 2.520561569896969e+00
 2.131158937754682e+00	 9.257032451413696e-01	 2.667167006324888e+00
 2.122348306690867e+00	 9.457286181199076e-01	 2.816906792611907e+00
 2.113333636026786e+00	 9.657049044575522e-01	 2.963849064382639e+00
 2.104115114327044e+00	 9.856290878407244e-01	 3.101790689307403e+00
 2.094692987903987e+00	 1.005498145781579e+00	 3.224287498763991e+00
 2.188012927083394e+00	 8.077441229455768e-01	 2.018815471869746e+00
 2.180398506057042e+00	 8.280781181537844e-01	 2.078882492272772e+00
 2.172579326717225e+00	 8.483808035282425e-01	 2.160294425921261e+00
 2.164555240367735e+00	 8.686492157667182e-01	 2.260209030422695e+00
 2.156326153305231e+00	 8.888803776798218e-01	 2.375387401333156e+00
 2.147892027396868e+00	 9.090712994184721e-01	 2.502201441536292e+00
 2.139252880626412e+00	 9.292189797242424e-01	 2.636644988810468e+00
 2.130408787607849e+00	 9.493204072016984e-01	 2.774348822409848e+00
 2.121359880065587e+00	 9.693725616117750e-01	 2.910599757169129e+00
 2.112106347280358e+00	 9.893724151852169e-01	 3.040364019233013e+00
 2.102648436499953e+00	 1.009316933955051e+00	 3.158315081011228e+00
 2.196291353057320e+00	 8.108002520216828e-01	 2.033396638807602e+00
 2.188648122594005e+00	 8.312111816356275e-01	 2.101215329725764e+00
 2.180799359106836e+00	 8.515906829539126e-01	 2.183951639818861e+00
 2.172744913336986e+00	 8.719357814625505e-01	 2.280006978831947e+00
 2.164484691226553e+00	 8.922434887078539e-01	 2.387359423129189e+00
 2.156018654498391e+00	 9.125108035285455e-01	 2.503568661508090e+00
 2.147346821204283e+00	 9.327347133108352e-01	 2.625784662161667e+00
 2.138469266240492e+00	 9.529121952655715e-01	 2.750760292291608e+00
 2.129386121829784e+00	 9.730402177265116e-01	 2.874868109471099e+00
 2.120097577969012e+00	 9.931157414687324e-01	 2.994121529298715e+00
 2.110603882841414e+00	 1.013135721046144e+00	 3.104200557174972e+00
 2.204569774339321e+00	 8.138563793662641e-01	 2.062706055118373e+00
 2.196897734455373e+00	 8.343442433422844e-01	 2.138486125746665e+00
 2.189019386837630e+00	 8.548005605607883e-01	 2.223060087727133e+00
 2.180934581664643e+00	 8.752223452960440e-01	 2.315893249818229e+00
 2.172643224523951e+00	 8.956065978300775e-01	 2.416010018585928e+00
 2.164145276994103e+00	 9.159503056894265e-01	 2.521996651370885e+00
 2.155440757194895e+00	 9.362504449049491e-01	 2.632007786379798e+00
 2.146529740304868e+00	 9.565039812937876e-01	 2.743776991575127e+00
 2.137412359045143e+00	 9.767078717625338e-01	 2.854631561548506e+00
 2.128088804128694e+00	 9.968590656306067e-01	 2.961511776861662e+00
 2.118559324674199e+00	 1.016954505972811e+00	 3.060994823424446e+00
 2.212848188583769e+00	 8.169125041133077e-01	 2.105473253432151e+00
 2.205147339303680e+00	 8.374773023859429e-01	 2.188923206341497e+00
 2.197239407580518e+00	 8.580104354392952e-01	 2.275460006250740e+00
 2.189124243030212e+00	 8.785089063359020e-01	 2.365435395916322e+00
 2.180801750885739e+00	 8.989697040935158e-01	 2.458751679151698e+00
 2.172271892581347e+00	 9.193898049265036e-01	 2.554862608634930e+00
 2.163534686304845e+00	 9.397661735103845e-01	 2.652778099880314e+00
 2.154590207517046e+00	 9.600957642686071e-01	 2.751073022720395e+00
 2.145438589437429e+00	 9.803755226806119e-01	 2.847900309074771e+00
 2.136080023495087e+00	 1.000602386610174e+00	 2.941008600941065e+00
 2.126514759744138e+00	 1.020773287653006e+00	 3.027764645429673e+00
 2.221126593445035e+00	 8.199686253968002e-01	 2.160452798882834e+00
 2.213396934801456e+00	 8.406103578787893e-01	 2.250786908000820e+00
 2.205459419006409e+00	 8.612203066798584e-01	 2.339028925071912e+00
 2.197313895113193e+00	 8.817954636508282e-01	 2.426241820456317e+00
 2.188960268000233e+00	 9.023328065451943e-01	 2.513039551431198e+00
 2.180398498957471e+00	 9.228293002651670e-01	 2.599586409522528e+00
 2.171628606240729e+00	 9.432818981309415e-01	 2.685600236151217e+00
 2.162650665593098e+00	 9.636875431722913e-01	 2.770359767119538e+00
 2.153464810732409e+00	 9.840431694415176e-01	 2.852716353817141e+00
 2.144071233803876e+00	 1.004345703346769e+00	 2.931110294049510e+00
 2.134470185797058e+00	 1.024592065004682e+00	 3.003591988083239e+00
 2.229404986577490e+00	 8.230247423507278e-01	 2.225758262283153e+00
 2.221646518611236e+00	 8.437434089330106e-01	 2.322368777366353e+00
 2.213679418786210e+00	 8.644301733729022e-01	 2.411680747725199e+00
 2.205503535593090e+00	 8.850820163095255e-01	 2.495960771636514e+00
 2.197118773555748e+00	 9.056959042321361e-01	 2.576370377343018e+00
 2.188525093819819e+00	 9.262687907308047e-01	 2.653629528573686e+00
 2.179722514709145e+00	 9.467976177704217e-01	 2.728018656726764e+00
 2.170711112249095e+00	 9.672793169871000e-01	 2.799384865893990e+00
 2.161491020655851e+00	 9.877108110060228e-01	 2.867152567226597e+00
 2.152062432790749e+00	 1.008089014779728e+00	 2.930338784036278e+00
 2.142425600578789e+00	 1.028410836945792e+00	 2.987573351526184e+00
 2.237683365635504e+00	 8.260808541090771e-01	 2.299111697118464e+00
 2.229896088395551e+00	 8.468764546607934e-01	 2.401239502688291e+00
 2.221899404590832e+00	 8.676400346088523e-01	 2.491364845902349e+00
 2.213693162149406e+00	 8.883685633806987e-01	 2.572279351814116e+00
 2.205277265240596e+00	 9.090589962013659e-01	 2.646281450460269e+00
 2.196651674865739e+00	 9.297082753488071e-01	 2.714493974665230e+00
 2.187816409416692e+00	 9.503133314326252e-01	 2.777616600058388e+00
 2.178771545201104e+00	 9.708710846952945e-01	 2.835931215314636e+00
 2.169517216933517e+00	 9.913784463348977e-01	 2.889311766607427e+00
 2.160053618191390e+00	 1.011832319848384e+00	 2.937238825687693e+00
 2.150381001835161e+00	 1.032229602394291e+00	 2.978819113318974e+00
 2.245961728273450e+00	 8.291369598058346e-01	 2.379305981127807e+00
 2.238145641816934e+00	 8.500094941743244e-01	 2.484772111985246e+00
 2.230119374091181e+00	 8.708498894781340e-01	 2.575286526030020e+00
 2.221882772461643e+00	 8.916551039330501e-01	 2.652922541625072e+00
 2.213435740743093e+00	 9.124220814999077e-01	 2.720349588120862e+00
 2.204778239792574e+00	 9.331477531445621e-01	 2.779721243024266e+00
 2.195910288069967e+00	 9.538290381213524e-01	 2.832015045877170e+00
 2.186831962165200e+00	 9.744628452791348e-01	 2.877815976472115e+00
 2.177543397291178e+00	 9.950460743889147e-01	 2.917325803546507e+00
 2.168044787741484e+00	 1.015575617492073e+00	 2.950377201837308e+00
 2.158336387312002e+00	 1.036048360268131e+00	 2.976452876603335e+00
 2.254240072145697e+00	 8.321930585749869e-01	 2.465166588925394e+00
 2.246395176537915e+00	 8.531425265857909e-01	 2.571321320905733e+00
 2.238339324958170e+00	 8.740597370711721e-01	 2.660556111069348e+00
 2.230072364209305e+00	 8.949416370352841e-01	 2.734907380482474e+00
 2.221594197751555e+00	 9.157851591747860e-01	 2.796190118906348e+00
 2.212904786297673e+00	 9.365872231434597e-01	 2.846891282829274e+00
 2.204004148375565e+00	 9.573447368404041e-01	 2.888871694654214e+00
 2.194892360857451e+00	 9.780545977208817e-01	 2.922889598835701e+00
 2.185569559454597e+00	 9.987136941288444e-01	 2.949354664291732e+00
 2.176035939176717e+00	 1.019318906650129e+00	 2.968341933745892e+00
 2.166291754755141e+00	 1.039867109485265e+00	 2.979610824105301e+00
 2.262518394906619e+00	 8.352491495505205e-01	 2.555536854836969e+00
 2.254644690221028e+00	 8.562755510073792e-01	 2.659270193521691e+00
 2.246559254862706e+00	 8.772695764783921e-01	 2.745199234618085e+00
 2.238261935071895e+00	 8.982281617561039e-01	 2.815155694590473e+00
 2.229752633954296e+00	 9.191482282730243e-01	 2.870799638282217e+00
 2.221031312078379e+00	 9.400266843708884e-01	 2.913621480003993e+00
 2.212097988040086e+00	 9.608604265935810e-01	 2.945879961776748e+00
 2.202952738993927e+00	 9.816463410027958e-01	 2.969034857349563e+00
 2.193595701149540e+00	 1.002381304515459e+00	 2.983585581778161e+00
 2.184027070232773e+00	 1.023062186261888e+00	 2.989741500518489e+00
 2.174247101910407e+00	 1.043685848963648e+00	 2.987441077834385e+00
 2.094692987903987e+00	 1.005498145781579e+00	 3.224287498763991e+00
 2.085069214345415e+00	 1.025305688418445e+00	 3.310752659393531e+00
 2.075242570842331e+00	 1.045052067765647e+00	 3.347503979411923e+00
 2.065213477356800e+00	 1.064734251402391e+00	 3.338353593961484e+00
 2.054982412837529e+00	 1.084349206174316e+00	 3.287299983832544e+00
 2.044549915443673e+00	 1.103893899598468e+00	 3.198569297969305e+00
 2.033916582729284e+00	 1.123365301280397e+00	 3.082265433745990e+00
 2.023083071787823e+00	 1.142760384342097e+00	 2.964315101546612e+00
 2.012050099356196e+00	 1.162076126859514e+00	 2.852554336941235e+00
 2.000818441877797e+00	 1.181309513308291e+00	 2.752965625024675e+00
 1.989388935524150e+00	 1.200457536016417e+00	 2.671569876569190e+00
 2.102648436499953e+00	 1.009316933955051e+00	 3.158315081011228e+00
 2.092988112746893e+00	 1.029199703791507e+00	 3.245797370655180e+00
 2.083124148568081e+00	 1.049021078045822e+00	 3.289192948562169e+00
 2.073056965520585e+00	 1.068778012780347e+00	 3.290604582120865e+00
 2.062787044372133e+00	 1.088467463321072e+00	 3.252340185708383e+00
 2.052314925325784e+00	 1.108086385667955e+00	 3.176956967241515e+00
 2.041641208205069e+00	 1.127631737917381e+00	 3.077371920184364e+00
 2.030766552599056e+00	 1.147100481695540e+00	 2.975121813543331e+00
 2.019691677966768e+00	 1.166489583601383e+00	 2.874986205103119e+00
 2.008417363700488e+00	 1.185796016657869e+00	 2.781512558896565e+00
 1.996944449147465e+00	 1.205016761770121e+00	 2.699332918766982e+00
 2.110603882841414e+00	 1.013135721046144e+00	 3.104200557174972e+00
 2.100907008904224e+00	 1.033093718060886e+00	 3.188737320228103e+00
 2.091005724060252e+00	 1.052990087201106e+00	 3.234737660339722e+00
 2.080900451461565e+00	 1.072821773012292e+00	 3.242793079775238e+00
 2.070591673694926e+00	 1.092585719300793e+00	 3.213710935933693e+00
 2.060079933007296e+00	 1.112278870549466e+00	 3.148610162645184e+00
 2.049365831491686e+00	 1.131898173345535e+00	 3.064447098509816e+00
 2.038450031232771e+00	 1.151440577819378e+00	 2.976182948527929e+00
 2.027333254411702e+00	 1.170903039092953e+00	 2.886943734922311e+00
 2.016016283369649e+00	 1.190282518736530e+00	 2.799987750620349e+00
 2.004499960629588e+00	 1.209575986232364e+00	 2.718694572791122e+00
 2.118559324674199e+00	 1.016954505972811e+00	 3.060994823424446e+00
 2.108825900573605e+00	 1.036987730123215e+00	 3.139246820457009e+00
 2.098887295085629e+00	 1.056959094106872e+00	 3.184344469191603e+00
 2.088743932957343e+00	 1.076865530952411e+00	 3.195564030878494e+00
 2.078396298594540e+00	 1.096703972946536e+00	 3.172400285907593e+00
 2.067844936288086e+00	 1.116471353055012e+00	 3.115626035093635e+00
 2.057090450400474e+00	 1.136164606355898e+00	 3.044803573217483e+00
 2.046133505511988e+00	 1.155780671483765e+00	 2.968842635651398e+00
 2.034974826525907e+00	 1.175316492083581e+00	 2.889698664767914e+00
 2.023615198732285e+00	 1.194769018272925e+00	 2.809484796874099e+00
 2.012055467829828e+00	 1.214135208111189e+00	 2.730462779551623e+00
 2.126514759744138e+00	 1.020773287653006e+00	 3.027764645429673e+00
 2.116744785511231e+00	 1.040881738875128e+00	 3.097006354706677e+00
 2.106768859410999e+00	 1.060928097638494e+00	 3.138217602358750e+00
 2.096587407785516e+00	 1.080909285454883e+00	 3.149553389029616e+00
 2.086200916859602e+00	 1.100822223091359e+00	 3.129381902443094e+00
 2.075609932968031e+00	 1.120663831996600e+00	 3.079489101476849e+00
 2.064815062742778e+00	 1.140431035739509e+00	 3.019727717954051e+00
 2.053816973259728e+00	 1.160120761458857e+00	 2.954418457194104e+00
 2.042616392144289e+00	 1.179729941322622e+00	 2.884497420060031e+00
 2.031214107635401e+00	 1.199255513995705e+00	 2.811074791103313e+00
 2.019610968607495e+00	 1.218694426114637e+00	 2.735427387074087e+00
 2.134470185797058e+00	 1.024592065004682e+00	 3.003591988083239e+00
 2.124663661473299e+00	 1.044775743213258e+00	 3.061702070989467e+00
 2.114650414803146e+00	 1.064897096671347e+00	 3.096558792055693e+00
 2.104430873723678e+00	 1.084953035373888e+00	 3.105387862265558e+00
 2.094005526278741e+00	 1.104940468568320e+00	 3.085614898664407e+00
 2.083374920847009e+00	 1.124856306186241e+00	 3.041330221565028e+00
 2.072539666329936e+00	 1.144697460287411e+00	 2.990480293061972e+00
 2.061500432299009e+00	 1.164460846514808e+00	 2.934202081775990e+00
 2.050257949101757e+00	 1.184143385559435e+00	 2.872561732946028e+00
 2.038813007926001e+00	 1.203742004633522e+00	 2.805806899954262e+00
 2.027166460821896e+00	 1.223253638950750e+00	 2.734360653491904e+00
 2.142425600578789e+00	 1.028410836945792e+00	 2.987573351526184e+00
 2.132582526216002e+00	 1.048669742034235e+00	 3.033025278061621e+00
 2.122531959028857e+00	 1.068866090080803e+00	 3.059566906853260e+00
 2.112274328549429e+00	 1.088996779563608e+00	 3.063684654374450e+00
 2.101810124640586e+00	 1.109058708210477e+00	 3.042043659337940e+00
 2.091139897724899e+00	 1.129048774435946e+00	 3.002257002808403e+00
 2.080264258973291e+00	 1.148963878790642e+00	 2.958297055253511e+00
 2.069183880452850e+00	 1.168800925421771e+00	 2.909459889469845e+00
 2.057899495233219e+00	 1.188556823543375e+00	 2.855089254297611e+00
 2.046411897451093e+00	 1.208228488915024e+00	 2.794708933101549e+00
 2.034721942332342e+00	 1.227812845327571e+00	 2.728017745172550e+00
 2.150381001835161e+00	 1.032229602394291e+00	 2.978819113318974e+00
 2.140501377495537e+00	 1.052563734234695e+00	 3.010671943928524e+00
 2.130413489854918e+00	 1.072835076742238e+00	 3.027437582288997e+00
 2.120117770040366e+00	 1.093040516878224e+00	 3.025051202823164e+00
 2.109614709733765e+00	 1.113176940850887e+00	 2.999733781682725e+00
 2.098904861401575e+00	 1.133241235557722e+00	 2.963354359702417e+00
 2.087988838484186e+00	 1.153230290040244e+00	 2.924389359615996e+00
 2.076867315544271e+00	 1.173140996949903e+00	 2.881433589024748e+00
 2.065541028373582e+00	 1.192970254023798e+00	 2.833254158224991e+00
 2.054010774057679e+00	 1.212714965568865e+00	 2.778787906638527e+00
 2.042277410998140e+00	 1.232372043953140e+00	 2.717137230101495e+00
 2.158336387312002e+00	 1.036048360268131e+00	 2.976452876603335e+00
 2.148420213068101e+00	 1.056457718711270e+00	 2.994342196700923e+00
 2.138295005048113e+00	 1.076804055531025e+00	 3.000362850729156e+00
 2.127961195974085e+00	 1.097084246171915e+00	 2.990084913390394e+00
 2.117419279346907e+00	 1.117295165322609e+00	 2.960379980019426e+00
 2.106669809676916e+00	 1.137433688363579e+00	 2.925685066495858e+00
 2.095713402673961e+00	 1.157496692827257e+00	 2.889944754143835e+00
 2.084550735396291e+00	 1.177481059869356e+00	 2.851340827400711e+00
 2.073182546357754e+00	 1.197383675750061e+00	 2.808207739298592e+00
 2.061609635592767e+00	 1.217201433323694e+00	 2.759030600193845e+00
 2.049832864678601e+00	 1.236931233535500e+00	 2.702441566643398e+00
 2.166291754755141e+00	 1.039867109485265e+00	 2.979610824105301e+00
 2.156339030689888e+00	 1.060351694360594e+00	 2.983739827745844e+00
 2.146176502375230e+00	 1.080773025322537e+00	 2.978530770505628e+00
 2.135804604128185e+00	 1.101127966298864e+00	 2.959372891593993e+00
 2.125223831268640e+00	 1.121413380458700e+00	 2.924944579807286e+00
 2.114434740350801e+00	 1.141626131665528e+00	 2.890290303410997e+00
 2.103437949353958e+00	 1.161763085942720e+00	 2.856127566986761e+00
 2.092234137831928e+00	 1.181821112950286e+00	 2.820375791809605e+00
 2.080824047020644e+00	 1.201797087471521e+00	 2.781079002663093e+00
 2.069208479903361e+00	 1.221687890908163e+00	 2.736404107932851e+00
 2.057388301233035e+00	 1.241490412782693e+00	 2.684637587796795e+00
 2.174247101910407e+00	 1.043685848963648e+00	 2.987441077834385e+00
 2.164257828117094e+00	 1.064245660079298e+00	 2.978571797077785e+00
 2.154057979603053e+00	 1.084741984992150e+00	 2.962125054350633e+00
 2.143647992280264e+00	 1.105171676113251e+00	 2.933491670998871e+00
 2.133028363287593e+00	 1.125531585092218e+00	 2.894236006122988e+00
 2.122199651223107e+00	 1.145818564275578e+00	 2.858190196539308e+00
 2.111162476335520e+00	 1.166029468177674e+00	 2.824079486598497e+00
 2.099917520674204e+00	 1.186161154962848e+00	 2.789709804451564e+00
 2.088465528197159e+00	 1.206210487937535e+00	 2.752975247223055e+00
 2.076807304836467e+00	 1.226174337050922e+00	 2.711856383597525e+00
 2.064943718520748e+00	 1.246049580402761e+00	 2.664416981054940e+00
 1.989388935524150e+00	 1.200457536016417e+00	 2.671569876569190e+00
 1.977762476655390e+00	 1.219517197002342e+00	 2.617935495473350e+00
 1.965940023191580e+00	 1.238485510600662e+00	 2.594029924061506e+00
 1.953922593049960e+00	 1.257359503827861e+00	 2.594422534998475e+00
 1.941711263511819e+00	 1.276136217473172e+00	 2.613586292811065e+00
 1.929307171029115e+00	 1.294812707563214e+00	 2.645890994843673e+00
 1.916711510988107e+00	 1.313386046824939e+00	 2.685595295217599e+00
 1.903925537429925e+00	 1.331853326145434e+00	 2.726837510421364e+00
 1.890950562728077e+00	 1.350211656027125e+00	 2.763625215671272e+00
 1.877787957222933e+00	 1.368458168036886e+00	 2.789823652052497e+00
 1.864439148813270e+00	 1.386590016247609e+00	 2.799142975607414e+00
 1.996944449147465e+00	 1.205016761770121e+00	 2.699332918766982e+00
 1.985273834072144e+00	 1.224148809570533e+00	 2.636858028478864e+00
 1.973406480032670e+00	 1.243189163054434e+00	 2.596975959817120e+00
 1.961343408812223e+00	 1.262134837947207e+00	 2.576021683400469e+00
 1.949085701783490e+00	 1.280982863799295e+00	 2.570233071812110e+00
 1.936634499714556e+00	 1.299730285456395e+00	 2.575741605241920e+00
 1.923991002531625e+00	 1.318374164527963e+00	 2.588561806696648e+00
 1.911156469038548e+00	 1.336911580852564e+00	 2.604579408235305e+00
 1.898132216593087e+00	 1.355339633958594e+00	 2.619538260526627e+00
 1.884919620740023e+00	 1.373655444518904e+00	 2.629026009228895e+00
 1.871520114801142e+00	 1.391856155797832e+00	 2.628458573184330e+00
 2.004499960629588e+00	 1.209575986232364e+00	 2.718694572791122e+00
 1.992785189360277e+00	 1.228780420826792e+00	 2.650110869157374e+00
 1.980872934757937e+00	 1.247892814175880e+00	 2.597614766366433e+00
 1.968764222471682e+00	 1.266910170713916e+00	 2.559101345841180e+00
 1.956460137965593e+00	 1.285829508752559e+00	 2.532370266627170e+00
 1.943961826323868e+00	 1.304647861956592e+00	 2.515114225573111e+00
 1.931270492012660e+00	 1.323362280817980e+00	 2.504906091301124e+00
 1.918387398598522e+00	 1.341969834126770e+00	 2.499184715731675e+00
 1.905313868423473e+00	 1.360467610437339e+00	 2.495239438100293e+00
 1.892051282236691e+00	 1.378852719528515e+00	 2.490193307945095e+00
 1.878601078782971e+00	 1.397122293856093e+00	 2.480985065379437e+00
 2.012055467829828e+00	 1.214135208111189e+00	 2.730462779551623e+00
 2.000296540391606e+00	 1.233412029458653e+00	 2.658176352626833e+00
 1.988339385251911e+00	 1.252596462632128e+00	 2.596133303374724e+00
 1.976185031925786e+00	 1.271685500774818e+00	 2.543585544724673e+00
 1.963834569968696e+00	 1.290676150959604e+00	 2.499693595204401e+00
 1.951289148780951e+00	 1.309565435670361e+00	 2.463513081851717e+00
 1.938549977368639e+00	 1.328350394281576e+00	 2.433979858783399e+00
 1.925618324061019e+00	 1.347028084534785e+00	 2.409893746973465e+00
 1.912495516184350e+00	 1.365595584010351e+00	 2.389900912302087e+00
 1.899182939692204e+00	 1.384049991593090e+00	 2.372474910823654e+00
 1.885682038752376e+00	 1.402388428930264e+00	 2.355896442388578e+00
 2.019610968607495e+00	 1.218694426114637e+00	 2.735427387074087e+00
 2.007807885037947e+00	 1.238043634153649e+00	 2.661523719496325e+00
 1.995805829399123e+00	 1.257300107090308e+00	 2.592709970420184e+00
 1.983605835071982e+00	 1.276460826776742e+00	 2.529393778048756e+00
 1.971208995703370e+00	 1.295522789047066e+00	 2.471897753552292e+00
 1.958616465009702e+00	 1.314483005204259e+00	 2.420444313276601e+00
 1.945829456536996e+00	 1.333338503505338e+00	 2.375139066109690e+00
 1.932849243377207e+00	 1.352086330643339e+00	 2.335952762826913e+00
 1.919677157840830e+00	 1.370723553224621e+00	 2.302701826085989e+00
 1.906314591085828e+00	 1.389247259240002e+00	 2.275027491981954e+00
 1.892762992702984e+00	 1.407654559528214e+00	 2.252373606617001e+00
 2.027166460821896e+00	 1.223253638950750e+00	 2.734360653491904e+00
 2.015319221171121e+00	 1.242675233599315e+00	 2.660609534062462e+00
 2.003272265084102e+00	 1.262003746217548e+00	 2.587514948611811e+00
 1.991026629807716e+00	 1.281236147366518e+00	 2.516441293277830e+00
 1.978583413080184e+00	 1.300369421641584e+00	 2.448676631312683e+00
 1.965943772934017e+00	 1.319400569164842e+00	 2.385416139556594e+00
 1.953108927455161e+00	 1.338326607075852e+00	 2.327744047192344e+00
 1.940080154498257e+00	 1.357144571019162e+00	 2.276614074350869e+00
 1.926858791358031e+00	 1.375851516627142e+00	 2.232828390336880e+00
 1.913446234396830e+00	 1.394444520996620e+00	 2.197015123839856e+00
 1.899843938628414e+00	 1.412920684157815e+00	 2.169604470407553e+00
 2.034721942332342e+00	 1.227812845327571e+00	 2.728017745172550e+00
 2.022830546662941e+00	 1.247306826483184e+00	 2.655878099627328e+00
 2.010738690191378e+00	 1.266707378680977e+00	 2.580710541129161e+00
 1.998447414030436e+00	 1.286011461190974e+00	 2.504639361736784e+00
 1.985957820009707e+00	 1.305216047369794e+00	 2.429723529239192e+00
 1.973271070477796e+00	 1.324318126158666e+00	 2.357939031297278e+00
 1.960388388060565e+00	 1.343314703579704e+00	 2.291159646597168e+00
 1.947311055375339e+00	 1.362202804228986e+00	 2.231136150819597e+00
 1.934040414701069e+00	 1.380979472764906e+00	 2.179473977780460e+00
 1.920577867604473e+00	 1.399641775390316e+00	 2.137609369058565e+00
 1.906924874522291e+00	 1.418186801326936e+00	 2.106784058713434e+00
 2.042277410998140e+00	 1.232372043953140e+00	 2.717137230101495e+00
 2.030341859385229e+00	 1.251938411492789e+00	 2.647761871010045e+00
 2.018205102605480e+00	 1.271411003147725e+00	 2.572451512709411e+00
 2.005868185637590e+00	 1.290786766896941e+00	 2.493895553510000e+00
 1.993332214402511e+00	 1.310062664858336e+00	 2.414731378529297e+00
 1.980598355564936e+00	 1.329235674792287e+00	 2.337525883367356e+00
 1.967667836290638e+00	 1.348302791603481e+00	 2.264755357120493e+00
 1.954541943959624e+00	 1.367261028839541e+00	 2.198783732256669e+00
 1.941222025835057e+00	 1.386107420184904e+00	 2.141839221783885e+00
 1.927709488688025e+00	 1.404839020948460e+00	 2.095989377475366e+00
 1.914005798378236e+00	 1.423452909543449e+00	 2.063114616585033e+00
 2.049832864678601e+00	 1.236931233535500e+00	 2.702441566643398e+00
 2.037853157209798e+00	 1.256569987315664e+00	 2.636681864321875e+00
 2.025671500210940e+00	 1.276114618284919e+00	 2.562885428106456e+00
 2.013288942526624e+00	 1.295562063131247e+00	 2.484114012830073e+00
 2.000706594169164e+00	 1.314909272733847e+00	 2.403392961959860e+00
 1.987925626119334e+00	 1.334153213672261e+00	 2.323692191165335e+00
 1.974947270082814e+00	 1.353290869733770e+00	 2.247905461133734e+00
 1.961772818202281e+00	 1.372319243417560e+00	 2.178827946361100e+00
 1.948403622725112e+00	 1.391235357434127e+00	 2.119132119918470e+00
 1.934841095626754e+00	 1.410036256198424e+00	 2.071341987902871e+00
 1.921086708189874e+00	 1.428719007315223e+00	 2.037805721344010e+00
 2.057388301233035e+00	 1.241490412782693e+00	 2.684637587796795e+00
 2.045364438008468e+00	 1.261201552639344e+00	 2.623048064072517e+00
 2.033137880892288e+00	 1.280818222759688e+00	 2.552152989545819e+00
 2.020709682594987e+00	 1.300337348540723e+00	 2.475195733941029e+00
 2.008080957220236e+00	 1.319755869622965e+00	 2.395401136777130e+00
 1.995252880064886e+00	 1.339070741405143e+00	 2.315956229709446e+00
 1.982226687374521e+00	 1.358278936557156e+00	 2.239989175596062e+00
 1.969003676054482e+00	 1.377377446529773e+00	 2.170546429710304e+00
 1.955585203336348e+00	 1.396363283059569e+00	 2.110568142159429e+00
 1.941972686399922e+00	 1.415233479667579e+00	 2.062861834665004e+00
 1.928167601950828e+00	 1.433985093150131e+00	 2.030074399321398e+00
 2.064943718520748e+00	 1.246049580402761e+00	 2.664416981054940e+00
 2.052875699653055e+00	 1.265833106151361e+00	 2.607259827673317e+00
 2.040604242534051e+00	 1.285521815239163e+00	 2.540388373198526e+00
 2.028130403740126e+00	 1.305112621772199e+00	 2.467038837421299e+00
 2.015455301466299e+00	 1.324602454152327e+00	 2.390449059293778e+00
 2.002580115325494e+00	 1.343988256597492e+00	 2.313839235475835e+00
 1.989506086103193e+00	 1.363266990660227e+00	 2.240390800638593e+00
 1.976234515467395e+00	 1.382435636742910e+00	 2.173223453127650e+00
 1.962766765633880e+00	 1.401491195608219e+00	 2.115370343601236e+00
 1.949104258986799e+00	 1.420430689883295e+00	 2.069751458745747e+00
 1.935248477654718e+00	 1.439251165556041e+00	 2.039145247040063e+00
 1.864439148813270e+00	 1.386590016247609e+00	 2.799142975607414e+00
 1.850903307320891e+00	 1.404607429438896e+00	 2.785550884960285e+00
 1.837184235171193e+00	 1.422504508563369e+00	 2.751296264969739e+00
 1.823283538569292e+00	 1.440278472033041e+00	 2.701363162682294e+00
 1.809202879294923e+00	 1.457926566399106e+00	 2.639305388603323e+00
 1.794943974079505e+00	 1.475446067740176e+00	 2.568436975688095e+00
 1.780508593941997e+00	 1.492834283034248e+00	 2.491041732283737e+00
 1.765898563484045e+00	 1.510088551512984e+00	 2.408254261737457e+00
 1.751115760144993e+00	 1.527206245996894e+00	 2.324860884279225e+00
 1.736162113417373e+00	 1.544184774210023e+00	 2.245949675845588e+00
 1.721039604023517e+00	 1.561021580072778e+00	 2.176633423102023e+00
 1.871520114801142e+00	 1.391856155797832e+00	 2.628458573184330e+00
 1.857932865445300e+00	 1.409941997443875e+00	 2.613217445496137e+00
 1.844161689539152e+00	 1.427907048005617e+00	 2.583812660730556e+00
 1.830208199388038e+00	 1.445748515330842e+00	 2.544988654398020e+00
 1.816074063082990e+00	 1.463463635513391e+00	 2.499422150665588e+00
 1.801761003875421e+00	 1.481049674286660e+00	 2.449220898786233e+00
 1.787270799510458e+00	 1.498503928400789e+00	 2.394219698303004e+00
 1.772605281519428e+00	 1.515823726982075e+00	 2.335249306545090e+00
 1.757766334472023e+00	 1.533006432873232e+00	 2.276112567073003e+00
 1.742755895188810e+00	 1.550049443953068e+00	 2.220640556207115e+00
 1.727575951914733e+00	 1.566950194434223e+00	 2.172687791022833e+00
 1.878601078782971e+00	 1.397122293856093e+00	 2.480985065379437e+00
 1.864962421578210e+00	 1.415276563937467e+00	 2.464348619831146e+00
 1.851139141930328e+00	 1.433309585917184e+00	 2.439956171738449e+00
 1.837132858244895e+00	 1.451218557078806e+00	 2.410835192445059e+00
 1.822945244924235e+00	 1.469000703058818e+00	 2.379767000981853e+00
 1.808578031739763e+00	 1.486653279245410e+00	 2.347553967532202e+00
 1.794033003162784e+00	 1.504173572160856e+00	 2.311712601349231e+00
 1.779311997654301e+00	 1.521558900826096e+00	 2.273397284819102e+00
 1.764416906914359e+00	 1.538806618106047e+00	 2.235292159332185e+00
 1.749349675091570e+00	 1.555914112034282e+00	 2.200105496998560e+00
 1.734112297953490e+00	 1.572878807115677e+00	 2.170568138186260e+00
 1.885682038752376e+00	 1.402388428930264e+00	 2.355896442388578e+00
 1.871991973727809e+00	 1.420611127408160e+00	 2.338165636277485e+00
 1.858116590367678e+00	 1.438712120767305e+00	 2.318739554056507e+00
 1.844057513177781e+00	 1.456688595727043e+00	 2.298342870384617e+00
 1.829816422871745e+00	 1.474537767466510e+00	 2.279864851456618e+00
 1.815395055740979e+00	 1.492256881028687e+00	 2.262673276628775e+00
 1.800795202982969e+00	 1.509843212707999e+00	 2.243128831625948e+00
 1.786018709988396e+00	 1.527294071420026e+00	 2.222414018247219e+00
 1.771067475587658e+00	 1.544606800051898e+00	 2.202224837955926e+00
 1.755943451257415e+00	 1.561778776791955e+00	 2.184279441684520e+00
 1.740648640287829e+00	 1.578807416437315e+00	 2.170318076876860e+00
 1.892762992702984e+00	 1.407654559528214e+00	 2.252373606617001e+00
 1.879021519902285e+00	 1.425945686344444e+00	 2.233903406838758e+00
 1.865094032874155e+00	 1.444114651025215e+00	 2.218962354587065e+00
 1.850982162224622e+00	 1.462158629725662e+00	 2.206945484290310e+00
 1.836687594978606e+00	 1.480074827167581e+00	 2.199232746431657e+00
 1.822212073947515e+00	 1.497860478048757e+00	 2.194082276684151e+00
 1.807557397055009e+00	 1.515512848435769e+00	 2.188076095002946e+00
 1.792725416621447e+00	 1.533029237138850e+00	 2.182013279215427e+00
 1.777718038607577e+00	 1.550406977067346e+00	 2.176732308117876e+00
 1.762537221818100e+00	 1.567643436564377e+00	 2.173092403903308e+00
 1.747184977065789e+00	 1.584736020719312e+00	 2.171974817689216e+00
 1.899843938628414e+00	 1.412920684157815e+00	 2.169604470407553e+00
 1.886051058109825e+00	 1.431280239234809e+00	 2.150802997925199e+00
 1.872071467472716e+00	 1.449517175160149e+00	 2.139924238044014e+00
 1.857906803423340e+00	 1.467628657524773e+00	 2.135719162702242e+00
 1.843558759297907e+00	 1.485611880593152e+00	 2.137188434236370e+00
 1.829029084427817e+00	 1.503464068717884e+00	 2.141286894470630e+00
 1.814319583462900e+00	 1.521182477737717e+00	 2.146161770718443e+00
 1.799432115653187e+00	 1.538764396357546e+00	 2.151907179983204e+00
 1.784368594089770e+00	 1.556207147508950e+00	 2.158633224140307e+00
 1.769130984905386e+00	 1.573508089689840e+00	 2.166469919849903e+00
 1.753721306435410e+00	 1.590664618281842e+00	 2.175569652813552e+00
 1.906924874522291e+00	 1.418186801326936e+00	 2.106784058713434e+00
 1.893080586358616e+00	 1.436614784567744e+00	 2.088111751778801e+00
 1.879048892186315e+00	 1.454919691641342e+00	 2.080935062356119e+00
 1.864831434811856e+00	 1.473098677574487e+00	 2.083494410775711e+00
 1.850429913882734e+00	 1.491148926174340e+00	 2.092714962968055e+00
 1.835846085250330e+00	 1.509067651448332e+00	 2.103794314525642e+00
 1.821081760290637e+00	 1.526852099007392e+00	 2.116993270930798e+00
 1.806138805183349e+00	 1.544499547451097e+00	 2.131806563062692e+00
 1.791019140149892e+00	 1.562007309733271e+00	 2.147743610913524e+00
 1.775724738651032e+00	 1.579372734506631e+00	 2.164333500541378e+00
 1.760257626544733e+00	 1.596593207445081e+00	 2.181128438546336e+00
 1.914005798378236e+00	 1.423452909543449e+00	 2.063114616585033e+00
 1.900110102656846e+00	 1.441949320831738e+00	 2.045083412347207e+00
 1.886026305037907e+00	 1.460322198938027e+00	 2.041310093366015e+00
 1.871756054428095e+00	 1.478568688324913e+00	 2.049648920185092e+00
 1.857301056786175e+00	 1.496685962342265e+00	 2.064913340594557e+00
 1.842663074483502e+00	 1.514671224652364e+00	 2.081113310901018e+00
 1.827843925622218e+00	 1.532521710638346e+00	 2.100178402068539e+00
 1.812845483311668e+00	 1.550234688794485e+00	 2.121421392767222e+00
 1.797669674903600e+00	 1.567807462096869e+00	 2.143877285842801e+00
 1.782318481186795e+00	 1.585237369353043e+00	 2.166601083964246e+00
 1.766793935541797e+00	 1.602521786529205e+00	 2.188672077042128e+00
 1.921086708189874e+00	 1.428719007315223e+00	 2.037805721344010e+00
 1.907139605012702e+00	 1.447283846515282e+00	 2.020978255488982e+00
 1.893003704050447e+00	 1.465724695519441e+00	 2.020370155628235e+00
 1.878680660309978e+00	 1.484038688226160e+00	 2.033488125808616e+00
 1.864172186061317e+00	 1.502222987528044e+00	 2.052570175675770e+00
 1.849480050195777e+00	 1.520274786742246e+00	 2.072754581252359e+00
 1.834606077541637e+00	 1.538191311024130e+00	 2.095325727928839e+00
 1.819552148137876e+00	 1.555969818762690e+00	 2.120461147895465e+00
 1.804320196466549e+00	 1.573607602956306e+00	 2.146846281305665e+00
 1.788912210644436e+00	 1.591101992567367e+00	 2.173187487103039e+00
 1.773330231574643e+00	 1.608450353854388e+00	 2.198216997322553e+00
 1.928167601950828e+00	 1.433985093150131e+00	 2.030074399321398e+00
 1.914169091434372e+00	 1.452618360106865e+00	 2.015063223396043e+00
 1.899981087246890e+00	 1.471127179854817e+00	 2.017441787015335e+00
 1.885605250495428e+00	 1.489508675728339e+00	 2.033806804677039e+00
 1.871043299761248e+00	 1.507760000162794e+00	 2.055085744028111e+00
 1.856297010455603e+00	 1.525878336130241e+00	 2.078037369399798e+00
 1.841368214132891e+00	 1.543860898558293e+00	 2.102044934475952e+00
 1.826258797761706e+00	 1.561704935730695e+00	 2.128635215518369e+00
 1.810970702954395e+00	 1.579407730668139e+00	 2.156461267602626e+00
 1.795505925155712e+00	 1.596966602487890e+00	 2.184004857849362e+00
 1.779866512791311e+00	 1.614378907740806e+00	 2.209775635557510e+00
 1.935248477654718e+00	 1.439251165556041e+00	 2.039145247040063e+00
 1.921198559930043e+00	 1.457952860094976e+00	 2.026612063122412e+00
 1.906958452650192e+00	 1.476529650413391e+00	 2.031857397031535e+00
 1.892529823022367e+00	 1.494978649281559e+00	 2.049850854652144e+00
 1.877914395939055e+00	 1.513296998677638e+00	 2.071896906440103e+00
 1.863113953331427e+00	 1.531481871228614e+00	 2.095810371617820e+00
 1.848130333479975e+00	 1.549530471634388e+00	 2.119947196292456e+00
 1.832965430282894e+00	 1.567440038073481e+00	 2.145653285836876e+00
 1.817621192482792e+00	 1.585207843588931e+00	 2.172531976384915e+00
 1.802099622852384e+00	 1.602831197452905e+00	 2.198963126790550e+00
 1.786402777339841e+00	 1.620307446508633e+00	 2.223356914633323e+00
 1.721039604023517e+00	 1.561021580072778e+00	 2.176633423102023e+00
 1.705752871481626e+00	 1.577711324479812e+00	 2.122577826585164e+00
 1.690301416359099e+00	 1.594254425523221e+00	 2.084764866243980e+00
 1.674687339431072e+00	 1.610648471685908e+00	 2.061284234428315e+00
 1.658912789003697e+00	 1.626891092545054e+00	 2.050165961435443e+00
 1.642979959922168e+00	 1.642979959922168e+00	 2.049378780876887e+00
 1.626891092545055e+00	 1.658912789003697e+00	 2.056827315716422e+00
 1.610648471685908e+00	 1.674687339431073e+00	 2.070348116771950e+00
 1.594254425523221e+00	 1.690301416359099e+00	 2.087704597530944e+00
 1.577711324479812e+00	 1.705752871481626e+00	 2.106580920891197e+00
 1.561021580072778e+00	 1.721039604023517e+00	 2.124574904807662e+00
 1.727575951914733e+00	 1.566950194434223e+00	 2.172687791022833e+00
 1.712231161788455e+00	 1.583703324933919e+00	 2.136630331544472e+00
 1.696721023480571e+00	 1.600309255132129e+00	 2.113182628048250e+00
 1.681047645744755e+00	 1.616765564353048e+00	 2.100711303675844e+00
 1.665213185046218e+00	 1.633069873171222e+00	 2.097539023626005e+00
 1.649219844565963e+00	 1.649219844565963e+00	 2.101942361209344e+00
 1.633069873171222e+00	 1.665213185046219e+00	 2.112148416966812e+00
 1.616765564353048e+00	 1.681047645744757e+00	 2.126330224184521e+00
 1.600309255132129e+00	 1.696721023480571e+00	 2.142600986603667e+00
 1.583703324933918e+00	 1.712231161788455e+00	 2.159007206286034e+00
 1.566950194434223e+00	 1.727575951914733e+00	 2.173520771352960e+00
 1.734112297953490e+00	 1.572878807115677e+00	 2.170568138186260e+00
 1.718709450259242e+00	 1.589695323690025e+00	 2.149936048318975e+00
 1.703140628782617e+00	 1.606364083025182e+00	 2.138723130519938e+00
 1.687407950255825e+00	 1.622882655286639e+00	 2.135554050197063e+00
 1.671513579303124e+00	 1.639248652046312e+00	 2.139023562881967e+00
 1.655459727441323e+00	 1.655459727441322e+00	 2.147693907041249e+00
 1.639248652046312e+00	 1.671513579303124e+00	 2.160090883409722e+00
 1.622882655286639e+00	 1.687407950255825e+00	 2.174698655684976e+00
 1.606364083025182e+00	 1.703140628782617e+00	 2.189953320301244e+00
 1.589695323690025e+00	 1.718709450259243e+00	 2.204235305566190e+00
 1.572878807115678e+00	 1.734112297953491e+00	 2.215860672593540e+00
 1.740648640287829e+00	 1.578807416437315e+00	 2.170318076876860e+00
 1.725187735058482e+00	 1.595687319050353e+00	 2.162636744214709e+00
 1.709560230446359e+00	 1.612418907486808e+00	 2.161607548764342e+00
 1.693768251162196e+00	 1.628999742753476e+00	 2.166094537517778e+00
 1.677813969989298e+00	 1.645427427419650e+00	 2.174944259025218e+00
 1.661699606780268e+00	 1.661699606780268e+00	 2.186982708826570e+00
 1.645427427419649e+00	 1.677813969989298e+00	 2.201010895884338e+00
 1.628999742753476e+00	 1.693768251162197e+00	 2.215799066330965e+00
 1.612418907486807e+00	 1.709560230446359e+00	 2.230079634138984e+00
 1.595687319050353e+00	 1.725187735058483e+00	 2.242538881295698e+00
 1.578807416437315e+00	 1.740648640287829e+00	 2.251807502609438e+00
 1.747184977065789e+00	 1.584736020719312e+00	 2.171974817689216e+00
 1.731666014350667e+00	 1.601679309317123e+00	 2.174866439589355e+00
 1.715979826652915e+00	 1.618473726801433e+00	 2.182048215047609e+00
 1.700128546661788e+00	 1.635116825020353e+00	 2.192605136069749e+00
 1.684114355319626e+00	 1.651606197540560e+00	 2.205615490330429e+00
 1.667939480814823e+00	 1.667939480814823e+00	 2.220147384886711e+00
 1.651606197540561e+00	 1.684114355319627e+00	 2.235253826348760e+00
 1.635116825020352e+00	 1.700128546661788e+00	 2.249966395261901e+00
 1.618473726801432e+00	 1.715979826652915e+00	 2.263287566170505e+00
 1.601679309317123e+00	 1.731666014350667e+00	 2.274181738219420e+00
 1.584736020719312e+00	 1.747184977065789e+00	 2.281565054094290e+00
 1.753721306435410e+00	 1.590664618281842e+00	 2.175569652813552e+00
 1.738144286300291e+00	 1.607671292792556e+00	 2.186751918812951e+00
 1.722399415583405e+00	 1.624528539253485e+00	 2.200249151912206e+00
 1.706488834952518e+00	 1.641233900354063e+00	 2.215349073006254e+00
 1.690414733508997e+00	 1.657784960658371e+00	 2.231341894656131e+00
 1.674179347777009e+00	 1.674179347777009e+00	 2.247516448547195e+00
 1.657784960658371e+00	 1.690414733508997e+00	 2.263154805791580e+00
 1.641233900354063e+00	 1.706488834952518e+00	 2.277525429238164e+00
 1.624528539253484e+00	 1.722399415583405e+00	 2.289874911095077e+00
 1.607671292792556e+00	 1.738144286300292e+00	 2.299418362971179e+00
 1.590664618281842e+00	 1.753721306435410e+00	 2.305328538793160e+00
 1.760257626544733e+00	 1.596593207445081e+00	 2.181128438546336e+00
 1.744622549071847e+00	 1.613663267778873e+00	 2.198413239859315e+00
 1.728818995418950e+00	 1.630583343127389e+00	 2.216406603443155e+00
 1.712849114232304e+00	 1.647350967021405e+00	 2.234580979801119e+00
 1.696715102772293e+00	 1.663963715022407e+00	 2.252418928103205e+00
 1.680419205898848e+00	 1.680419205898847e+00	 2.269408872655295e+00
 1.663963715022407e+00	 1.696715102772293e+00	 2.285039289485665e+00
 1.647350967021405e+00	 1.712849114232305e+00	 2.298791363589808e+00
 1.630583343127389e+00	 1.728818995418950e+00	 2.310130171946017e+00
 1.613663267778873e+00	 1.744622549071847e+00	 2.318494461636607e+00
 1.596593207445081e+00	 1.760257626544733e+00	 2.323285106168774e+00
 1.766793935541797e+00	 1.602521786529205e+00	 2.188672077042128e+00
 1.751100800829827e+00	 1.619655232578295e+00	 2.209964242559886e+00
 1.735238564340668e+00	 1.636638136707574e+00	 2.230709564729012e+00
 1.719209382699064e+00	 1.653468023289169e+00	 2.250547437684770e+00
 1.703015461324401e+00	 1.670142458881994e+00	 2.269133421260962e+00
 1.686659053412363e+00	 1.686659053412363e+00	 2.286134651542491e+00
 1.670142458881994e+00	 1.703015461324401e+00	 2.301223619649143e+00
 1.653468023289169e+00	 1.719209382699064e+00	 2.314070360638120e+00
 1.636638136707574e+00	 1.735238564340668e+00	 2.324333109418934e+00
 1.619655232578294e+00	 1.751100800829828e+00	 2.331647495222442e+00
 1.602521786529205e+00	 1.766793935541797e+00	 2.335614360338407e+00
 1.773330231574643e+00	 1.608450353854388e+00	 2.198216997322553e+00
 1.757579039738728e+00	 1.625647185493043e+00	 2.221513055550583e+00
 1.741658120529679e+00	 1.642692918278465e+00	 2.243340309560313e+00
 1.725569638550716e+00	 1.659585067424153e+00	 2.263487520969150e+00
 1.709315807380207e+00	 1.676321190486458e+00	 2.281764133099033e+00
 1.692898888549577e+00	 1.692898888549577e+00	 2.297995360493764e+00
 1.676321190486458e+00	 1.709315807380207e+00	 2.312015585576526e+00
 1.659585067424152e+00	 1.725569638550716e+00	 2.323660105651256e+00
 1.642692918278465e+00	 1.741658120529680e+00	 2.332755288896891e+00
 1.625647185493043e+00	 1.757579039738728e+00	 2.339107213082515e+00
 1.608450353854388e+00	 1.773330231574643e+00	 2.342488875322251e+00
 1.779866512791311e+00	 1.614378907740806e+00	 2.209775635557510e+00
 1.764057263963040e+00	 1.631639124825339e+00	 2.233162601941367e+00
 1.748077662167105e+00	 1.648747686124491e+00	 2.254474916406734e+00
 1.731929879985176e+00	 1.665702097693149e+00	 2.273633338311704e+00
 1.715616139154597e+00	 1.682499908085125e+00	 2.290582302561580e+00
 1.699138709542511e+00	 1.699138709542511e+00	 2.305284712783688e+00
 1.682499908085125e+00	 1.715616139154597e+00	 2.317714981300901e+00
 1.665702097693149e+00	 1.731929879985177e+00	 2.327850360393279e+00
 1.648747686124491e+00	 1.748077662167105e+00	 2.335660625227616e+00
 1.631639124825338e+00	 1.764057263963040e+00	 2.341096184348963e+00
 1.614378907740805e+00	 1.779866512791310e+00	 2.344074708642850e+00
 1.786402777339841e+00	 1.620307446508633e+00	 2.223356914633323e+00
 1.770535471667258e+00	 1.637631048877402e+00	 2.245011103737111e+00
 1.754497187434063e+00	 1.654802438530077e+00	 2.264283792712981e+00
 1.738290105200364e+00	 1.671819112362954e+00	 2.281210571967144e+00
 1.721916454862457e+00	 1.688678609927321e+00	 2.295852197918472e+00
 1.705378514623189e+00	 1.705378514623189e+00	 2.308289114337548e+00
 1.688678609927321e+00	 1.721916454862457e+00	 2.318614160846331e+00
 1.671819112362954e+00	 1.738290105200364e+00	 2.326923514324203e+00
 1.654802438530077e+00	 1.754497187434064e+00	 2.333305925306350e+00
 1.637631048877402e+00	 1.770535471667259e+00	 2.337830327415817e+00
 1.620307446508632e+00	 1.786402777339840e+00	 2.340531913313846e+00
 1.561021580072778e+00	 1.721039604023517e+00	 2.124574904807662e+00
 1.544184774210024e+00	 1.736162113417373e+00	 2.139855904764025e+00
 1.527206245996895e+00	 1.751115760144993e+00	 2.152953251884309e+00
 1.510088551512984e+00	 1.765898563484043e+00	 2.164880117762052e+00
 1.492834283034248e+00	 1.780508593941995e+00	 2.176552435402697e+00
 1.475446067740177e+00	 1.794943974079505e+00	 2.188548915139086e+00
 1.457926566399107e+00	 1.809202879294922e+00	 2.199023427727797e+00
 1.440278472033042e+00	 1.823283538569291e+00	 2.208308640351929e+00
 1.422504508563371e+00	 1.837184235171193e+00	 2.217458816610924e+00
 1.404607429438897e+00	 1.850903307320891e+00	 2.227421632786369e+00
 1.386590016247609e+00	 1.864439148813270e+00	 2.238263361349992e+00
 1.566950194434223e+00	 1.727575951914733e+00	 2.173520771352960e+00
 1.550049443953068e+00	 1.742755895188809e+00	 2.184800401709602e+00
 1.533006432873233e+00	 1.757766334472022e+00	 2.193651982037429e+00
 1.515823726982076e+00	 1.772605281519428e+00	 2.201146040601271e+00
 1.498503928400790e+00	 1.787270799510458e+00	 2.208250364860070e+00
 1.481049674286661e+00	 1.801761003875420e+00	 2.215812515421018e+00
 1.463463635513391e+00	 1.816074063082990e+00	 2.222821361253080e+00
 1.445748515330843e+00	 1.830208199388039e+00	 2.228711308202298e+00
 1.427907048005618e+00	 1.844161689539151e+00	 2.234545320603759e+00
 1.409941997443876e+00	 1.857932865445300e+00	 2.241061980695128e+00
 1.391856155797832e+00	 1.871520114801143e+00	 2.247708641898637e+00
 1.572878807115678e+00	 1.734112297953491e+00	 2.215860672593540e+00
 1.555914112034282e+00	 1.749349675091570e+00	 2.223880746348861e+00
 1.538806618106048e+00	 1.764416906914358e+00	 2.229289676123423e+00
 1.521558900826097e+00	 1.779311997654300e+00	 2.233197995584355e+00
 1.504173572160857e+00	 1.794033003162784e+00	 2.236608768727101e+00
 1.486653279245410e+00	 1.808578031739762e+00	 2.240400652874997e+00
 1.469000703058819e+00	 1.822945244924235e+00	 2.244546861917766e+00
 1.451218557078806e+00	 1.837132858244894e+00	 2.247766392269631e+00
 1.433309585917184e+00	 1.851139141930327e+00	 2.250973769322071e+00
 1.415276563937468e+00	 1.864962421578209e+00	 2.254103988076646e+00
 1.397122293856093e+00	 1.878601078782971e+00	 2.257076900196872e+00
 1.578807416437315e+00	 1.740648640287829e+00	 2.251807502609438e+00
 1.561778776791956e+00	 1.755943451257414e+00	 2.257244068967199e+00
 1.544606800051898e+00	 1.771067475587658e+00	 2.259954031400367e+00
 1.527294071420028e+00	 1.786018709988396e+00	 2.261070801644301e+00
 1.509843212708000e+00	 1.800795202982968e+00	 2.261616365284778e+00
 1.492256881028687e+00	 1.815395055740978e+00	 2.262483810575840e+00
 1.474537767466510e+00	 1.829816422871744e+00	 2.264202274041648e+00
 1.456688595727043e+00	 1.844057513177781e+00	 2.265457519987629e+00
 1.438712120767306e+00	 1.858116590367677e+00	 2.266476157461276e+00
 1.420611127408160e+00	 1.871991973727808e+00	 2.266470291601652e+00
 1.402388428930264e+00	 1.885682038752377e+00	 2.266300019174317e+00
 1.584736020719312e+00	 1.747184977065789e+00	 2.281565054094290e+00
 1.567643436564378e+00	 1.762537221818100e+00	 2.285029202188501e+00
 1.550406977067346e+00	 1.777718038607577e+00	 2.285725130324737e+00
 1.533029237138851e+00	 1.792725416621446e+00	 2.284792223025500e+00
 1.515512848435770e+00	 1.807557397055008e+00	 2.283255253777440e+00
 1.497860478048758e+00	 1.822212073947514e+00	 2.282006385925405e+00
 1.480074827167582e+00	 1.836687594978606e+00	 2.281778501888997e+00
 1.462158629725662e+00	 1.850982162224621e+00	 2.281757577496344e+00
 1.444114651025216e+00	 1.865094032874154e+00	 2.280636841130819e+00
 1.425945686344444e+00	 1.879021519902285e+00	 2.278087155580177e+00
 1.407654559528214e+00	 1.892762992702983e+00	 2.275308185304281e+00
 1.590664618281842e+00	 1.753721306435410e+00	 2.305328538793160e+00
 1.573508089689840e+00	 1.769130984905385e+00	 2.307367180445613e+00
 1.556207147508951e+00	 1.784368594089769e+00	 2.306675920511322e+00
 1.538764396357547e+00	 1.799432115653187e+00	 2.304383431246948e+00
 1.521182477737718e+00	 1.814319583462899e+00	 2.301501359949176e+00
 1.503464068717884e+00	 1.829029084427815e+00	 2.298905807765553e+00
 1.485611880593152e+00	 1.843558759297906e+00	 2.297318311980987e+00
 1.467628657524774e+00	 1.857906803423339e+00	 2.296391100737849e+00
 1.449517175160149e+00	 1.872071467472715e+00	 2.293380808337353e+00
 1.431280239234810e+00	 1.886051058109825e+00	 2.288879409139978e+00
 1.412920684157815e+00	 1.899843938628414e+00	 2.284030070532398e+00
 1.596593207445081e+00	 1.760257626544733e+00	 2.323285106168774e+00
 1.579372734506632e+00	 1.775724738651031e+00	 2.324381738082779e+00
 1.562007309733271e+00	 1.791019140149892e+00	 2.322872693688452e+00
 1.544499547451098e+00	 1.806138805183349e+00	 2.319859466382733e+00
 1.526852099007393e+00	 1.821081760290637e+00	 2.316324881177246e+00
 1.509067651448332e+00	 1.835846085250330e+00	 2.313114056847209e+00
 1.491148926174341e+00	 1.850429913882733e+00	 2.310914843028132e+00
 1.473098677574488e+00	 1.864831434811856e+00	 2.308918151070591e+00
 1.454919691641342e+00	 1.879048892186314e+00	 2.304635151401559e+00
 1.436614784567744e+00	 1.893080586358616e+00	 2.298770631518752e+00
 1.418186801326936e+00	 1.906924874522291e+00	 2.292393014522576e+00
 1.602521786529205e+00	 1.766793935541797e+00	 2.335614360338407e+00
 1.585237369353044e+00	 1.782318481186795e+00	 2.336189806121822e+00
 1.567807462096870e+00	 1.797669674903600e+00	 2.334375563670989e+00
 1.550234688794486e+00	 1.812845483311668e+00	 2.331229697674126e+00
 1.532521710638347e+00	 1.827843925622217e+00	 2.327690731209532e+00
 1.514671224652365e+00	 1.842663074483501e+00	 2.324558096232777e+00
 1.496685962342265e+00	 1.857301056786174e+00	 2.322280374013936e+00
 1.478568688324913e+00	 1.871756054428095e+00	 2.319269910451625e+00
 1.460322198938028e+00	 1.886026305037906e+00	 2.314325863541011e+00
 1.441949320831739e+00	 1.900110102656845e+00	 2.307683337660216e+00
 1.423452909543449e+00	 1.914005798378236e+00	 2.300323207210202e+00
 1.608450353854388e+00	 1.773330231574643e+00	 2.342488875322251e+00
 1.591101992567368e+00	 1.788912210644435e+00	 2.342902007722908e+00
 1.573607602956306e+00	 1.804320196466549e+00	 2.341238943372837e+00
 1.555969818762691e+00	 1.819552148137875e+00	 2.338498283486935e+00
 1.538191311024130e+00	 1.834606077541636e+00	 2.335558984512907e+00
 1.520274786742247e+00	 1.849480050195777e+00	 2.333160301533844e+00
 1.502222987528044e+00	 1.864172186061316e+00	 2.330902578630759e+00
 1.484038688226160e+00	 1.878680660309977e+00	 2.327398206275869e+00
 1.465724695519442e+00	 1.893003704050447e+00	 2.322378029692968e+00
 1.447283846515282e+00	 1.907139605012702e+00	 2.315539164104320e+00
 1.428719007315224e+00	 1.921086708189874e+00	 2.307745871652783e+00
 1.614378907740805e+00	 1.779866512791310e+00	 2.344074708642850e+00
 1.596966602487891e+00	 1.795505925155712e+00	 2.344623152369631e+00
 1.579407730668140e+00	 1.810970702954394e+00	 2.343512020879970e+00
 1.561704935730695e+00	 1.826258797761706e+00	 2.341664630627426e+00
 1.543860898558294e+00	 1.841368214132890e+00	 2.339885320238937e+00
 1.525878336130242e+00	 1.856297010455603e+00	 2.338718162275649e+00
 1.507760000162796e+00	 1.871043299761247e+00	 2.336676194031155e+00
 1.489508675728339e+00	 1.885605250495427e+00	 2.333333745289888e+00
 1.471127179854818e+00	 1.899981087246890e+00	 2.328716017573814e+00
 1.452618360106865e+00	 1.914169091434371e+00	 2.322259055161959e+00
 1.433985093150131e+00	 1.928167601950828e+00	 2.314585447168438e+00
 1.620307446508632e+00	 1.786402777339840e+00	 2.340531913313846e+00
 1.602831197452906e+00	 1.802099622852383e+00	 2.341452728807280e+00
 1.585207843588931e+00	 1.817621192482791e+00	 2.341239234604253e+00
 1.567440038073481e+00	 1.832965430282893e+00	 2.340723853029454e+00
 1.549530471634388e+00	 1.848130333479974e+00	 2.340621465813142e+00
 1.531481871228615e+00	 1.863113953331426e+00	 2.340742235223717e+00
 1.513296998677638e+00	 1.877914395939054e+00	 2.339516101080005e+00
 1.494978649281560e+00	 1.892529823022367e+00	 2.336990872147100e+00
 1.476529650413391e+00	 1.906958452650191e+00	 2.333263668966956e+00
 1.457952860094977e+00	 1.921198559930042e+00	 2.327763449364896e+00
 1.439251165556041e+00	 1.935248477654719e+00	 2.320765772752845e+00
 1.386590016247609e+00	 1.864439148813270e+00	 2.238263361349992e+00
 1.368458168036886e+00	 1.877787957222933e+00	 2.249167952290520e+00
 1.350211656027125e+00	 1.890950562728077e+00	 2.259554986960933e+00
 1.331853326145434e+00	 1.903925537429925e+00	 2.269267197977505e+00
 1.313386046824939e+00	 1.916711510988107e+00	 2.278146111289862e+00
 1.294812707563215e+00	 1.929307171029115e+00	 2.286028700658488e+00
 1.276136217473172e+00	 1.941711263511818e+00	 2.292743791731370e+00
 1.257359503827862e+00	 1.953922593049959e+00	 2.298108275764254e+00
 1.238485510600663e+00	 1.965940023191579e+00	 2.301923193559115e+00
 1.219517197002343e+00	 1.977762476655389e+00	 2.303969750203160e+00
 1.200457536016417e+00	 1.989388935524150e+00	 2.304005320683731e+00
 1.391856155797832e+00	 1.871520114801143e+00	 2.247708641898637e+00
 1.373655444518903e+00	 1.884919620740023e+00	 2.254422401217611e+00
 1.355339633958595e+00	 1.898132216593088e+00	 2.260571347221413e+00
 1.336911580852564e+00	 1.911156469038548e+00	 2.266104478533925e+00
 1.318374164527964e+00	 1.923991002531626e+00	 2.270972809427144e+00
 1.299730285456395e+00	 1.936634499714555e+00	 2.275125653035933e+00
 1.280982863799295e+00	 1.949085701783490e+00	 2.278506644964080e+00
 1.262134837947208e+00	 1.961343408812223e+00	 2.281049569691417e+00
 1.243189163054435e+00	 1.973406480032670e+00	 2.282674052733347e+00
 1.224148809570534e+00	 1.985273834072143e+00	 2.283281181507177e+00
 1.205016761770121e+00	 1.996944449147465e+00	 2.282749117333230e+00
 1.397122293856093e+00	 1.878601078782971e+00	 2.257076900196872e+00
 1.378852719528515e+00	 1.892051282236691e+00	 2.260075976810278e+00
 1.360467610437339e+00	 1.905313868423473e+00	 2.262440628013098e+00
 1.341969834126771e+00	 1.918387398598522e+00	 2.264216251393087e+00
 1.323362280817981e+00	 1.931270492012660e+00	 2.265453607319764e+00
 1.304647861956593e+00	 1.943961826323868e+00	 2.266204736018450e+00
 1.285829508752560e+00	 1.956460137965592e+00	 2.266518605422031e+00
 1.266910170713917e+00	 1.968764222471682e+00	 2.266436554610237e+00
 1.247892814175880e+00	 1.980872934757936e+00	 2.265987598199987e+00
 1.228780420826794e+00	 1.992785189360276e+00	 2.265183657049592e+00
 1.209575986232365e+00	 2.004499960629588e+00	 2.264014780093623e+00
 1.402388428930264e+00	 1.885682038752377e+00	 2.266300019174317e+00
 1.384049991593091e+00	 1.899182939692204e+00	 2.266068449908396e+00
 1.365595584010351e+00	 1.912495516184349e+00	 2.265110608640669e+00
 1.347028084534786e+00	 1.925618324061018e+00	 2.263558556292921e+00
 1.328350394281577e+00	 1.938549977368639e+00	 2.261553189367930e+00
 1.309565435670362e+00	 1.951289148780951e+00	 2.259239795736164e+00
 1.290676150959605e+00	 1.963834569968696e+00	 2.256763331177756e+00
 1.271685500774819e+00	 1.976185031925785e+00	 2.254263483925599e+00
 1.252596462632129e+00	 1.988339385251911e+00	 2.251869595021931e+00
 1.233412029458654e+00	 2.000296540391605e+00	 2.249695502296799e+00
 1.214135208111189e+00	 2.012055467829829e+00	 2.247834375211567e+00
 1.407654559528214e+00	 1.892762992702983e+00	 2.275308185304281e+00
 1.389247259240002e+00	 1.906314591085828e+00	 2.272337749456544e+00
 1.370723553224621e+00	 1.919677157840829e+00	 2.268527069225927e+00
 1.352086330643339e+00	 1.932849243377207e+00	 2.264085263633423e+00
 1.333338503505339e+00	 1.945829456536996e+00	 2.259233886623651e+00
 1.314483005204260e+00	 1.958616465009701e+00	 2.254202126147231e+00
 1.295522789047067e+00	 1.971208995703369e+00	 2.249221713564344e+00
 1.276460826776743e+00	 1.983605835071981e+00	 2.244521613088093e+00
 1.257300107090309e+00	 1.995805829399122e+00	 2.240322561566722e+00
 1.238043634153651e+00	 2.007807885037947e+00	 2.236831528897037e+00
 1.218694426114638e+00	 2.019610968607495e+00	 2.234236168777037e+00
 1.412920684157815e+00	 1.899843938628414e+00	 2.284030070532398e+00
 1.394444520996620e+00	 1.913446234396830e+00	 2.278820142371214e+00
 1.375851516627142e+00	 1.926858791358031e+00	 2.272633968450838e+00
 1.357144571019162e+00	 1.940080154498256e+00	 2.265748250069983e+00
 1.338326607075852e+00	 1.953108927455161e+00	 2.258455850245761e+00
 1.319400569164843e+00	 1.965943772934017e+00	 2.251060640403192e+00
 1.300369421641584e+00	 1.978583413080182e+00	 2.243872046536853e+00
 1.281236147366518e+00	 1.991026629807715e+00	 2.237199367074195e+00
 1.262003746217550e+00	 2.003272265084101e+00	 2.231345935265215e+00
 1.242675233599317e+00	 2.015319221171120e+00	 2.226603198914030e+00
 1.223253638950750e+00	 2.027166460821896e+00	 2.223244789665004e+00
 1.418186801326936e+00	 1.906924874522291e+00	 2.292393014522576e+00
 1.399641775390316e+00	 1.920577867604473e+00	 2.285450413703848e+00
 1.380979472764906e+00	 1.934040414701068e+00	 2.277373621573618e+00
 1.362202804228986e+00	 1.947311055375339e+00	 2.268497574354777e+00
 1.343314703579704e+00	 1.960388388060564e+00	 2.259177225175411e+00
 1.324318126158667e+00	 1.973271070477796e+00	 2.249782042403691e+00
 1.305216047369795e+00	 1.985957820009707e+00	 2.240690196187801e+00
 1.286011461190975e+00	 1.998447414030435e+00	 2.232282507980545e+00
 1.266707378680979e+00	 2.010738690191377e+00	 2.224936238438822e+00
 1.247306826483185e+00	 2.022830546662941e+00	 2.219018789077501e+00
 1.227812845327571e+00	 2.034721942332341e+00	 2.214881392435533e+00
 1.423452909543449e+00	 1.914005798378236e+00	 2.300323207210202e+00
 1.404839020948460e+00	 1.927709488688025e+00	 2.292162047090295e+00
 1.386107420184904e+00	 1.941222025835056e+00	 2.282686878709074e+00
 1.367261028839542e+00	 1.954541943959623e+00	 2.272281653418275e+00
 1.348302791603482e+00	 1.967667836290638e+00	 2.261354324024707e+00
 1.329235674792287e+00	 1.980598355564935e+00	 2.250330998534071e+00
 1.310062664858337e+00	 1.993332214402511e+00	 2.239649770411342e+00
 1.290786766896941e+00	 2.005868185637589e+00	 2.229754302727884e+00
 1.271411003147726e+00	 2.018205102605481e+00	 2.221087244192131e+00
 1.251938411492790e+00	 2.030341859385227e+00	 2.214083555048873e+00
 1.232372043953140e+00	 2.042277410998140e+00	 2.209163820192233e+00
 1.428719007315224e+00	 1.921086708189874e+00	 2.307745871652783e+00
 1.410036256198424e+00	 1.934841095626753e+00	 2.298887405477495e+00
 1.391235357434127e+00	 1.948403622725111e+00	 2.288513303364576e+00
 1.372319243417560e+00	 1.961772818202281e+00	 2.277047438682817e+00
 1.353290869733770e+00	 1.974947270082814e+00	 2.264941801171363e+00
 1.334153213672261e+00	 1.987925626119333e+00	 2.252670309579608e+00
 1.314909272733848e+00	 2.000706594169163e+00	 2.240722288710676e+00
 1.295562063131248e+00	 2.013288942526623e+00	 2.229595690870449e+00
 1.276114618284920e+00	 2.025671500210940e+00	 2.219790142367942e+00
 1.256569987315666e+00	 2.037853157209798e+00	 2.211799895700466e+00
 1.236931233535500e+00	 2.049832864678602e+00	 2.206106767398836e+00
 1.433985093150131e+00	 1.928167601950828e+00	 2.314585447168438e+00
 1.415233479667579e+00	 1.941972686399922e+00	 2.305557912118353e+00
 1.396363283059568e+00	 1.955585203336347e+00	 2.294791351223325e+00
 1.377377446529773e+00	 1.969003676054482e+00	 2.282740592600685e+00
 1.358278936557157e+00	 1.982226687374522e+00	 2.269892827052376e+00
 1.339070741405144e+00	 1.995252880064886e+00	 2.256761082810175e+00
 1.319755869622966e+00	 2.008080957220236e+00	 2.243877352143580e+00
 1.300337348540725e+00	 2.020709682594986e+00	 2.231785452506571e+00
 1.280818222759690e+00	 2.033137880892287e+00	 2.221033705561597e+00
 1.261201552639345e+00	 2.045364438008467e+00	 2.212167517406478e+00
 1.241490412782693e+00	 2.057388301233035e+00	 2.205721942653748e+00
 1.439251165556041e+00	 1.935248477654719e+00	 2.320765772752845e+00
 1.420430689883295e+00	 1.949104258986799e+00	 2.312104231825971e+00
 1.401491195608220e+00	 1.962766765633880e+00	 2.301458549166640e+00
 1.382435636742910e+00	 1.976234515467395e+00	 2.289305665408974e+00
 1.363266990660228e+00	 1.989506086103192e+00	 2.276159262649876e+00
 1.343988256597493e+00	 2.002580115325494e+00	 2.262562904229316e+00
 1.324602454152328e+00	 2.015455301466298e+00	 2.249082813400799e+00
 1.305112621772200e+00	 2.028130403740125e+00	 2.236300376286395e+00
 1.285521815239164e+00	 2.040604242534051e+00	 2.224804455191738e+00
 1.265833106151362e+00	 2.052875699653055e+00	 2.215183598344043e+00
 1.246049580402761e+00	 2.064943718520748e+00	 2.208018231422306e+00
 1.200457536016417e+00	 1.989388935524150e+00	 2.304005320683731e+00
 1.181309513308292e+00	 2.000818441877797e+00	 2.301060909384827e+00
 1.162076126859514e+00	 2.012050099356196e+00	 2.295078572772515e+00
 1.142760384342097e+00	 2.023083071787823e+00	 2.287162523433789e+00
 1.123365301280397e+00	 2.033916582729283e+00	 2.278412995428293e+00
 1.103893899598469e+00	 2.044549915443672e+00	 2.269949504601728e+00
 1.084349206174317e+00	 2.054982412837529e+00	 2.263041524384446e+00
 1.064734251402393e+00	 2.065213477356799e+00	 2.258470991568495e+00
 1.045052067765649e+00	 2.075242570842330e+00	 2.256871512744603e+00
 1.025305688418447e+00	 2.085069214345414e+00	 2.258848625491304e+00
 1.005498145781580e+00	 2.094692987903986e+00	 2.264992432682096e+00
 1.205016761770121e+00	 1.996944449147465e+00	 2.282749117333230e+00
 1.185796016657869e+00	 2.008417363700488e+00	 2.280389953844614e+00
 1.166489583601383e+00	 2.019691677966768e+00	 2.276164113165402e+00
 1.147100481695540e+00	 2.030766552599055e+00	 2.270902124819761e+00
 1.127631737917382e+00	 2.041641208205070e+00	 2.265429581203045e+00
 1.108086385667956e+00	 2.052314925325784e+00	 2.260567275663192e+00
 1.088467463321074e+00	 2.062787044372132e+00	 2.257329274429714e+00
 1.068778012780347e+00	 2.073056965520583e+00	 2.256333152174978e+00
 1.049021078045824e+00	 2.083124148568080e+00	 2.257947702533539e+00
 1.029199703791509e+00	 2.092988112746892e+00	 2.262515568346553e+00
 1.009316933955051e+00	 2.102648436499953e+00	 2.270366655177524e+00
 1.209575986232365e+00	 2.004499960629588e+00	 2.264014780093623e+00
 1.190282518736530e+00	 2.016016283369649e+00	 2.262054174787175e+00
 1.170903039092954e+00	 2.027333254411703e+00	 2.259285117972939e+00
 1.151440577819378e+00	 2.038450031232771e+00	 2.256292148506923e+00
 1.131898173345536e+00	 2.049365831491685e+00	 2.253653583133029e+00
 1.112278870549467e+00	 2.060079933007295e+00	 2.251936235888451e+00
 1.092585719300795e+00	 2.070591673694925e+00	 2.251868299035596e+00
 1.072821773012294e+00	 2.080900451461565e+00	 2.253971871195168e+00
 1.052990087201108e+00	 2.091005724060251e+00	 2.258376766760795e+00
 1.033093718060888e+00	 2.100907008904224e+00	 2.265187253367275e+00
 1.013135721046144e+00	 2.110603882841414e+00	 2.274497157082632e+00
 1.214135208111189e+00	 2.012055467829829e+00	 2.247834375211567e+00
 1.194769018272925e+00	 2.023615198732285e+00	 2.246099511076688e+00
 1.175316492083581e+00	 2.034974826525907e+00	 2.244500208000553e+00
 1.155780671483765e+00	 2.046133505511987e+00	 2.243402427950743e+00
 1.136164606355898e+00	 2.057090450400474e+00	 2.243164301402007e+00
 1.116471353055013e+00	 2.067844936288084e+00	 2.244130951915606e+00
 1.096703972946537e+00	 2.078396298594539e+00	 2.246752831160411e+00
 1.076865530952413e+00	 2.088743932957343e+00	 2.251479450160904e+00
 1.056959094106874e+00	 2.098887295085629e+00	 2.258245845221599e+00
 1.036987730123218e+00	 2.108825900573605e+00	 2.266942091258309e+00
 1.016954505972811e+00	 2.118559324674199e+00	 2.277449721686941e+00
 1.218694426114638e+00	 2.019610968607495e+00	 2.234236168777037e+00
 1.199255513995706e+00	 2.031214107635401e+00	 2.232567812706006e+00
 1.179729941322623e+00	 2.042616392144289e+00	 2.231863645063344e+00
 1.160120761458858e+00	 2.053816973259729e+00	 2.232298191443459e+00
 1.140431035739510e+00	 2.064815062742776e+00	 2.234036214110686e+00
 1.120663831996601e+00	 2.075609932968030e+00	 2.237227601693413e+00
 1.100822223091361e+00	 2.086200916859602e+00	 2.242074084883910e+00
 1.080909285454884e+00	 2.096587407785515e+00	 2.248945558849069e+00
 1.060928097638496e+00	 2.106768859410998e+00	 2.257639877330567e+00
 1.040881738875130e+00	 2.116744785511231e+00	 2.267856771125785e+00
 1.020773287653006e+00	 2.126514759744138e+00	 2.279288940002234e+00
 1.223253638950750e+00	 2.027166460821896e+00	 2.223244789665004e+00
 1.203742004633522e+00	 2.038813007926001e+00	 2.221497002386807e+00
 1.184143385559436e+00	 2.050257949101757e+00	 2.221425491796240e+00
 1.164460846514808e+00	 2.061500432299009e+00	 2.223040219638394e+00
 1.144697460287412e+00	 2.072539666329935e+00	 2.226339131932697e+00
 1.124856306186243e+00	 2.083374920847009e+00	 2.231303073743462e+00
 1.104940468568322e+00	 2.094005526278740e+00	 2.237920085356849e+00
 1.084953035373889e+00	 2.104430873723677e+00	 2.246457070464307e+00
 1.064897096671348e+00	 2.114650414803145e+00	 2.256641441671923e+00
 1.044775743213259e+00	 2.124663661473298e+00	 2.268006103439832e+00
 1.024592065004682e+00	 2.134470185797058e+00	 2.280078056094961e+00
 1.227812845327571e+00	 2.034721942332341e+00	 2.214881392435533e+00
 1.208228488915025e+00	 2.046411897451092e+00	 2.212921237039561e+00
 1.188556823543375e+00	 2.057899495233218e+00	 2.213231771313620e+00
 1.168800925421772e+00	 2.069183880452850e+00	 2.215685002883448e+00
 1.148963878790643e+00	 2.080264258973291e+00	 2.220138352551471e+00
 1.129048774435947e+00	 2.091139897724898e+00	 2.226429554120126e+00
 1.109058708210478e+00	 2.101810124640585e+00	 2.234375498506393e+00
 1.088996779563609e+00	 2.112274328549428e+00	 2.244097896593391e+00
 1.068866090080805e+00	 2.122531959028856e+00	 2.255330595356328e+00
 1.048669742034237e+00	 2.132582526216001e+00	 2.267462862860014e+00
 1.028410836945792e+00	 2.142425600578789e+00	 2.279878812359990e+00
 1.232372043953140e+00	 2.042277410998140e+00	 2.209163820192233e+00
 1.212714965568865e+00	 2.054010774057679e+00	 2.206871069184885e+00
 1.192970254023798e+00	 2.065541028373581e+00	 2.207324626721260e+00
 1.173140996949904e+00	 2.076867315544271e+00	 2.210284898367783e+00
 1.153230290040245e+00	 2.087988838484186e+00	 2.215494814882759e+00
 1.133241235557723e+00	 2.098904861401575e+00	 2.222674677077777e+00
 1.113176940850888e+00	 2.109614709733764e+00	 2.231517369270541e+00
 1.093040516878225e+00	 2.120117770040364e+00	 2.241948821939128e+00
 1.072835076742239e+00	 2.130413489854916e+00	 2.253784713191231e+00
 1.052563734234697e+00	 2.140501377495537e+00	 2.266297630928649e+00
 1.032229602394291e+00	 2.150381001835161e+00	 2.278751294739022e+00
 1.236931233535500e+00	 2.049832864678602e+00	 2.206106767398836e+00
 1.217201433323694e+00	 2.061609635592766e+00	 2.203373608237528e+00
 1.197383675750061e+00	 2.073182546357753e+00	 2.203742480483352e+00
 1.177481059869357e+00	 2.084550735396290e+00	 2.206888287085464e+00
 1.157496692827257e+00	 2.095713402673961e+00	 2.212465253087308e+00
 1.137433688363580e+00	 2.106669809676916e+00	 2.220101675514512e+00
 1.117295165322610e+00	 2.117419279346906e+00	 2.229395056996594e+00
 1.097084246171917e+00	 2.127961195974085e+00	 2.240087338841550e+00
 1.076804055531026e+00	 2.138295005048112e+00	 2.252078326671515e+00
 1.056457718711272e+00	 2.148420213068100e+00	 2.264578638637428e+00
 1.036048360268131e+00	 2.158336387312002e+00	 2.276753777886785e+00
 1.241490412782693e+00	 2.057388301233035e+00	 2.205721942653748e+00
 1.221687890908163e+00	 2.069208479903361e+00	 2.202452681704411e+00
 1.201797087471522e+00	 2.080824047020644e+00	 2.202520193647101e+00
 1.181821112950287e+00	 2.092234137831928e+00	 2.205539730619656e+00
 1.161763085942720e+00	 2.103437949353958e+00	 2.211102350378215e+00
 1.141626131665529e+00	 2.114434740350801e+00	 2.218769531197327e+00
 1.121413380458701e+00	 2.125223831268639e+00	 2.228068186761764e+00
 1.101127966298866e+00	 2.135804604128185e+00	 2.238587481593906e+00
 1.080773025322539e+00	 2.146176502375229e+00	 2.250282962797030e+00
 1.060351694360596e+00	 2.156339030689887e+00	 2.262371608872384e+00
 1.039867109485265e+00	 2.166291754755141e+00	 2.273942570288129e+00
 1.246049580402761e+00	 2.064943718520748e+00	 2.208018231422306e+00
 1.226174337050922e+00	 2.076807304836466e+00	 2.204128996287825e+00
 1.206210487937536e+00	 2.088465528197159e+00	 2.203689224927448e+00
 1.186161154962849e+00	 2.099917520674204e+00	 2.206280127750922e+00
 1.166029468177675e+00	 2.111162476335520e+00	 2.211454892627029e+00
 1.145818564275578e+00	 2.122199651223106e+00	 2.218733124773228e+00
 1.125531585092219e+00	 2.133028363287593e+00	 2.227595704011758e+00
 1.105171676113252e+00	 2.143647992280263e+00	 2.237519660560917e+00
 1.084741984992152e+00	 2.154057979603053e+00	 2.248466982723464e+00
 1.064245660079300e+00	 2.164257828117093e+00	 2.259739598742286e+00
 1.043685848963648e+00	 2.174247101910407e+00	 2.270371859329114e+00
 1.005498145781580e+00	 2.094692987903986e+00	 2.264992432682096e+00
 9.856290878407250e-01	 2.104115114327044e+00	 2.275697042132119e+00
 9.657049044575525e-01	 2.113333636026786e+00	 2.290113068803241e+00
 9.457286181199082e-01	 2.122348306690866e+00	 2.306969977728655e+00
 9.257032451413704e-01	 2.131158937754683e+00	 2.325012888681107e+00
 9.056317943338176e-01	 2.139765397992186e+00	 2.343013461583442e+00
 8.855172656989574e-01	 2.148167613071671e+00	 2.359779678726962e+00
 8.653626491398443e-01	 2.156365565077391e+00	 2.374164486704901e+00
 8.451709231933541e-01	 2.164359291997887e+00	 2.385073270885952e+00
 8.249450537845703e-01	 2.172148887181954e+00	 2.391470145080187e+00
 8.046879930039602e-01	 2.179734498763173e+00	 2.392383048720673e+00
 1.009316933955051e+00	 2.102648436499953e+00	 2.270366655177524e+00
 9.893724151852175e-01	 2.112106347280357e+00	 2.281575757859423e+00
 9.693725616117758e-01	 2.121359880065587e+00	 2.295316688186128e+00
 9.493204072016990e-01	 2.130408787607848e+00	 2.310577564878755e+00
 9.292189797242429e-01	 2.139252880626412e+00	 2.326364808964877e+00
 9.090712994184728e-01	 2.147892027396868e+00	 2.341713958058154e+00
 8.888803776798223e-01	 2.156326153305230e+00	 2.355699343925338e+00
 8.686492157667185e-01	 2.164555240367735e+00	 2.367442595784009e+00
 8.483808035282435e-01	 2.172579326717224e+00	 2.376119941950972e+00
 8.280781181537853e-01	 2.180398506057042e+00	 2.380968292544072e+00
 8.077441229455766e-01	 2.188012927083394e+00	 2.381290095861655e+00
 1.013135721046144e+00	 2.110603882841414e+00	 2.274497157082632e+00
 9.931157414687330e-01	 2.120097577969012e+00	 2.286087978927904e+00
 9.730402177265126e-01	 2.129386121829784e+00	 2.299149745487084e+00
 9.529121952655721e-01	 2.138469266240492e+00	 2.312903663603270e+00
 9.327347133108357e-01	 2.147346821204282e+00	 2.326592222875964e+00
 9.125108035285460e-01	 2.156018654498391e+00	 2.339489975906582e+00
 8.922434887078549e-01	 2.164484691226552e+00	 2.350913146571972e+00
 8.719357814625512e-01	 2.172744913336986e+00	 2.360228028250374e+00
 8.515906829539134e-01	 2.180799359106835e+00	 2.366858144367229e+00
 8.312111816356282e-01	 2.188648122594004e+00	 2.370290153975013e+00
 8.108002520216825e-01	 2.196291353057319e+00	 2.370078495261072e+00
 1.016954505972811e+00	 2.118559324674199e+00	 2.277449721686941e+00
 9.968590656306071e-01	 2.128088804128693e+00	 2.289284643411095e+00
 9.767078717625344e-01	 2.137412359045142e+00	 2.301648172698411e+00
 9.565039812937882e-01	 2.146529740304868e+00	 2.313969270834212e+00
 9.362504449049498e-01	 2.155440757194894e+00	 2.325701496419416e+00
 9.159503056894269e-01	 2.164145276994102e+00	 2.336333788675696e+00
 8.956065978300778e-01	 2.172643224523950e+00	 2.345400041766593e+00
 8.752223452960447e-01	 2.180934581664643e+00	 2.352487431484321e+00
 8.548005605607892e-01	 2.189019386837630e+00	 2.357243466370135e+00
 8.343442433422853e-01	 2.196897734455372e+00	 2.359381745954251e+00
 8.138563793662640e-01	 2.204569774339321e+00	 2.358686419248189e+00
 1.020773287653006e+00	 2.126514759744138e+00	 2.279288940002234e+00
 1.000602386610175e+00	 2.136080023495087e+00	 2.291216050112052e+00
 9.803755226806125e-01	 2.145438589437429e+00	 2.302847806668471e+00
 9.600957642686079e-01	 2.154590207517046e+00	 2.313795818483285e+00
 9.397661735103849e-01	 2.163534686304844e+00	 2.323699941652943e+00
 9.193898049265045e-01	 2.172271892581347e+00	 2.332239103019630e+00
 8.989697040935165e-01	 2.180801750885739e+00	 2.339140875869175e+00
 8.785089063359024e-01	 2.189124243030211e+00	 2.344189768585192e+00
 8.580104354392961e-01	 2.197239407580518e+00	 2.347234197979969e+00
 8.374773023859436e-01	 2.205147339303678e+00	 2.348192129921015e+00
 8.169125041133076e-01	 2.212848188583769e+00	 2.347055380593468e+00
 1.024592065004682e+00	 2.134470185797058e+00	 2.280078056094961e+00
 1.004345703346770e+00	 2.144071233803876e+00	 2.291931705696097e+00
 9.840431694415184e-01	 2.153464810732409e+00	 2.302784238041539e+00
 9.636875431722922e-01	 2.162650665593099e+00	 2.312405024262854e+00
 9.432818981309424e-01	 2.171628606240728e+00	 2.320595669529967e+00
 9.228293002651674e-01	 2.180398498957471e+00	 2.327200913772289e+00
 9.023328065451947e-01	 2.188960268000232e+00	 2.332118244076059e+00
 8.817954636508285e-01	 2.197313895113192e+00	 2.335306178790638e+00
 8.612203066798590e-01	 2.205459419006409e+00	 2.336791194669627e+00
 8.406103578787902e-01	 2.213396934801456e+00	 2.336673279558921e+00
 8.199686253967999e-01	 2.221126593445035e+00	 2.335130104148381e+00
 1.028410836945792e+00	 2.142425600578789e+00	 2.279878812359990e+00
 1.008089014779728e+00	 2.152062432790749e+00	 2.291480171855829e+00
 9.877108110060231e-01	 2.161491020655850e+00	 2.301492660319846e+00
 9.672793169871007e-01	 2.170711112249093e+00	 2.309818742716340e+00
 9.467976177704225e-01	 2.179722514709145e+00	 2.316397443034955e+00
 9.262687907308054e-01	 2.188525093819819e+00	 2.321215359389337e+00
 9.056959042321368e-01	 2.197118773555747e+00	 2.324316348434745e+00
 8.850820163095264e-01	 2.205503535593090e+00	 2.325809838394831e+00
 8.644301733729030e-01	 2.213679418786210e+00	 2.325877741580567e+00
 8.437434089330116e-01	 2.221646518611236e+00	 2.324779948767491e+00
 8.230247423507278e-01	 2.229404986577490e+00	 2.323304380720181e+00
 1.032229602394291e+00	 2.150381001835161e+00	 2.278751294739022e+00
 1.011832319848384e+00	 2.160053618191390e+00	 2.289908912509124e+00
 9.913784463348982e-01	 2.169517216933517e+00	 2.299007719046044e+00
 9.708710846952949e-01	 2.178771545201104e+00	 2.306058816453924e+00
 9.503133314326258e-01	 2.187816409416692e+00	 2.311114530604893e+00
 9.297082753488076e-01	 2.196651674865739e+00	 2.314279577751141e+00
 9.090589962013669e-01	 2.205277265240595e+00	 2.315720856287259e+00
 8.883685633806990e-01	 2.213693162149405e+00	 2.315675822153711e+00
 8.676400346088532e-01	 2.221899404590831e+00	 2.314459418273774e+00
 8.468764546607941e-01	 2.229896088395551e+00	 2.312964341429720e+00
 8.260808541090766e-01	 2.237683365635505e+00	 2.312232500847312e+00
 1.036048360268131e+00	 2.158336387312002e+00	 2.276753777886785e+00
 1.015575617492074e+00	 2.168044787741483e+00	 2.287264141030918e+00
 9.950460743889153e-01	 2.177543397291178e+00	 2.295363361104565e+00
 9.744628452791351e-01	 2.186831962165200e+00	 2.301146927589843e+00
 9.538290381213530e-01	 2.195910288069966e+00	 2.304756559830792e+00
 9.331477531445627e-01	 2.204778239792574e+00	 2.306391562318739e+00
 9.124220814999083e-01	 2.213435740743093e+00	 2.306318759132131e+00
 8.916551039330509e-01	 2.221882772461643e+00	 2.304880965165792e+00
 8.708498894781350e-01	 2.230119374091181e+00	 2.303005521824852e+00
 8.500094941743254e-01	 2.238145641816933e+00	 2.301801619801187e+00
 8.291369598058347e-01	 2.245961728273450e+00	 2.301850501850816e+00
 1.039867109485265e+00	 2.166291754755141e+00	 2.273942570288129e+00
 1.019318906650130e+00	 2.176035939176716e+00	 2.283590667519618e+00
 9.987136941288448e-01	 2.185569559454596e+00	 2.290592684140490e+00
 9.780545977208820e-01	 2.194892360857450e+00	 2.295104449377493e+00
 9.573447368404047e-01	 2.204004148375564e+00	 2.297333371433501e+00
 9.365872231434600e-01	 2.212904786297672e+00	 2.297550018634953e+00
 9.157851591747862e-01	 2.221594197751554e+00	 2.296098231895494e+00
 8.949416370352846e-01	 2.230072364209305e+00	 2.293871065707862e+00
 8.740597370711732e-01	 2.238339324958170e+00	 2.292034465198473e+00
 8.531425265857919e-01	 2.246395176537915e+00	 2.291220590498069e+00
 8.321930585749867e-01	 2.254240072145698e+00	 2.292084508427642e+00
 1.043685848963648e+00	 2.174247101910407e+00	 2.270371859329114e+00
 1.023062186261889e+00	 2.184027070232773e+00	 2.278931746098973e+00
 1.002381304515459e+00	 2.193595701149540e+00	 2.284727786094387e+00
 9.816463410027967e-01	 2.202952738993927e+00	 2.287952298038854e+00
 9.608604265935818e-01	 2.212097988040085e+00	 2.288854873508166e+00
 9.400266843708891e-01	 2.221031312078378e+00	 2.287754221163234e+00
 9.191482282730248e-01	 2.229752633954294e+00	 2.285448096946546e+00
 8.982281617561046e-01	 2.238261935071894e+00	 2.283136044396852e+00
 8.772695764783929e-01	 2.246559254862706e+00	 2.281475380465335e+00
 8.562755510073803e-01	 2.254644690221029e+00	 2.281147397304428e+00
 8.352491495505203e-01	 2.262518394906619e+00	 2.282860470839692e+00
 8.046879930039602e-01	 2.179734498763173e+00	 2.392383048720673e+00
 7.844061281122209e-01	 2.187115091338370e+00	 2.389323082633463e+00
 7.640989369507413e-01	 2.194292226143276e+00	 2.384772765220055e+00
 7.437693206496833e-01	 2.201266210273095e+00	 2.379324736526645e+00
 7.234201619097839e-01	 2.208037402979565e+00	 2.373248713227362e+00
 7.030543239064208e-01	 2.214606214955360e+00	 2.367019403409651e+00
 6.826746492208779e-01	 2.220973107593211e+00	 2.362094850134839e+00
 6.622839587993923e-01	 2.227138592220802e+00	 2.360025647981348e+00
 6.418850509405333e-01	 2.233103229312530e+00	 2.362305844585472e+00
 6.214807003114096e-01	 2.238867627679239e+00	 2.369966491447376e+00
 6.010736569931618e-01	 2.244432443637021e+00	 2.383950846418406e+00
 8.077441229455766e-01	 2.188012927083394e+00	 2.381290095861655e+00
 7.873852294225351e-01	 2.195421550460754e+00	 2.378862874811176e+00
 7.670009134429442e-01	 2.202625943354270e+00	 2.376079740584454e+00
 7.465940871551935e-01	 2.209626414025442e+00	 2.373274666686731e+00
 7.261676442082527e-01	 2.216423323090388e+00	 2.370550030613464e+00
 7.057244586515787e-01	 2.223017082801537e+00	 2.367893994859704e+00
 6.852673838623187e-01	 2.229408156303923e+00	 2.366765680875802e+00
 6.647992515004058e-01	 2.235597056867187e+00	 2.368312874909697e+00
 6.443228704920908e-01	 2.241584347094332e+00	 2.373323810331039e+00
 6.238410260424149e-01	 2.247370638108388e+00	 2.382498137978675e+00
 6.033564786770745e-01	 2.252956588718058e+00	 2.396456010321020e+00
 8.108002520216825e-01	 2.196291353057319e+00	 2.370078495261072e+00
 7.903643298892039e-01	 2.203728007228910e+00	 2.368218314941255e+00
 7.699028891133740e-01	 2.210959658203332e+00	 2.367000185238189e+00
 7.494188528608102e-01	 2.217986615408382e+00	 2.366531167380285e+00
 7.289151257287166e-01	 2.224809240824560e+00	 2.366830820061654e+00
 7.083945926406297e-01	 2.231427948264039e+00	 2.367936944588721e+00
 6.878601177695608e-01	 2.237843202624164e+00	 2.370567668772276e+00
 6.673145434891398e-01	 2.244055519116518e+00	 2.375323387087087e+00
 6.467606893533000e-01	 2.250065462472715e+00	 2.382704076563245e+00
 6.262013511050160e-01	 2.255873646127969e+00	 2.393119386997831e+00
 6.056392997145412e-01	 2.261480731383585e+00	 2.406898219833074e+00
 8.138563793662640e-01	 2.204569774339321e+00	 2.358686419248189e+00
 7.933434286680455e-01	 2.212034459289262e+00	 2.357323837114319e+00
 7.728048631397120e-01	 2.219293368329157e+00	 2.357470877880841e+00
 7.522436169661052e-01	 2.226346812053099e+00	 2.359183542250664e+00
 7.316626056926614e-01	 2.233195153805963e+00	 2.362845294713598e+00
 7.110647251169916e-01	 2.239838808959671e+00	 2.367563601774033e+00
 6.904528502079692e-01	 2.246278244163864e+00	 2.373540539840105e+00
 6.698298340529172e-01	 2.252513976572083e+00	 2.381121599937743e+00
 6.491985068334492e-01	 2.258546573044541e+00	 2.390549769296303e+00
 6.285616748304678e-01	 2.264376649328631e+00	 2.401976097479539e+00
 6.079221194587819e-01	 2.270004869218262e+00	 2.415469728856225e+00
 8.169125041133076e-01	 2.212848188583769e+00	 2.347055380593468e+00
 7.963225249148778e-01	 2.220340904288236e+00	 2.346117427561685e+00
 7.757068346996393e-01	 2.227627071370443e+00	 2.347686471843333e+00
 7.550683786706507e-01	 2.234707001590772e+00	 2.352059596142640e+00
 7.344100833215719e-01	 2.241581059658479e+00	 2.358831150457683e+00
 7.137348553240825e-01	 2.248249662505229e+00	 2.366774464425195e+00
 6.930455804429094e-01	 2.254713278532965e+00	 2.375714019632832e+00
 6.723451224790620e-01	 2.260972426837172e+00	 2.385771135299382e+00
 6.516363222418253e-01	 2.267027676406665e+00	 2.396962717263810e+00
 6.309219965500253e-01	 2.272879645301019e+00	 2.409212258984535e+00
 6.102049372630167e-01	 2.278528999806742e+00	 2.422360286715423e+00
 8.199686253967999e-01	 2.221126593445035e+00	 2.335130104148381e+00
 7.993016177855189e-01	 2.228647339872257e+00	 2.334901716897443e+00
 7.786088029708366e-01	 2.235960764965882e+00	 2.338457013269970e+00
 7.578931371740175e-01	 2.243067181652582e+00	 2.345265316298685e+00
 7.371575578369334e-01	 2.249966956005989e+00	 2.354764891079494e+00
 7.164049825053198e-01	 2.256660506517516e+00	 2.365569978614626e+00
 6.956383077397468e-01	 2.263148303341400e+00	 2.377117441495434e+00
 6.748604080548967e-01	 2.269430867515071e+00	 2.389334804653210e+00
 6.540741348877166e-01	 2.275508770155950e+00	 2.402043448061879e+00
 6.332823155949427e-01	 2.281382631635784e+00	 2.414970001800518e+00
 6.124877524804658e-01	 2.287053120733680e+00	 2.427757163281236e+00
 8.230247423507278e-01	 2.229404986577490e+00	 2.323304380720181e+00
 8.022807064357865e-01	 2.236953763687752e+00	 2.324417718051696e+00
 7.815107671309854e-01	 2.244294446754171e+00	 2.329796198410708e+00
 7.607178916757781e-01	 2.251427349869710e+00	 2.338759013663369e+00
 7.399050284602311e-01	 2.258352840472378e+00	 2.350623177992297e+00
 7.190751059041217e-01	 2.265071338613330e+00	 2.363950499747088e+00
 6.982310313638458e-01	 2.271583316199103e+00	 2.377779718085121e+00
 6.773756900677448e-01	 2.277889296209072e+00	 2.391874592152985e+00
 6.565119440804107e-01	 2.283989851889253e+00	 2.405891183844438e+00
 6.356426312964751e-01	 2.289885605923574e+00	 2.419389606362630e+00
 6.147705644643494e-01	 2.295577229583733e+00	 2.431845173075757e+00
 8.260808541090766e-01	 2.237683365635505e+00	 2.312232500847312e+00
 8.052597900214988e-01	 2.245260173381146e+00	 2.314625816220206e+00
 7.844127263577675e-01	 2.252628114374005e+00	 2.321645251939573e+00
 7.635426413755035e-01	 2.259787503873336e+00	 2.332498419667069e+00
 7.426524944129507e-01	 2.266738710681526e+00	 2.346389977474281e+00
 7.217452247639062e-01	 2.273482156409474e+00	 2.361916254031464e+00
 7.008237505805720e-01	 2.280018314716012e+00	 2.377729312910316e+00
 6.798909678049291e-01	 2.286347710522461e+00	 2.393451637458788e+00
 6.589497491291951e-01	 2.292470919203435e+00	 2.408603836582521e+00
 6.380029429858770e-01	 2.298388565755035e+00	 2.422609511972338e+00
 6.170533725678875e-01	 2.304101323941556e+00	 2.434806698388535e+00
 8.291369598058347e-01	 2.245961728273450e+00	 2.301850501850816e+00
 8.082388676984743e-01	 2.253566566598867e+00	 2.305456482184348e+00
 7.873146798288629e-01	 2.260961765464082e+00	 2.313945038618255e+00
 7.663673854727657e-01	 2.268147641294643e+00	 2.326440693708232e+00
 7.453999549165772e-01	 2.275124564257317e+00	 2.342063305528984e+00
 7.244153383280907e-01	 2.281892957522746e+00	 2.359467300150139e+00
 7.034164646552908e-01	 2.288453296502062e+00	 2.376994211887635e+00
 6.824062405537734e-01	 2.294806108058527e+00	 2.394126218380727e+00
 6.613875493433575e-01	 2.300951969695354e+00	 2.410278002899068e+00
 6.403632499944026e-01	 2.306891508720817e+00	 2.424766324833037e+00
 6.193361761443001e-01	 2.312625401391804e+00	 2.436821711428235e+00
 8.321930585749867e-01	 2.254240072145698e+00	 2.292084508427642e+00
 8.112179386225303e-01	 2.261872940987338e+00	 2.296839961786561e+00
 7.902166267219535e-01	 2.269295397663093e+00	 2.306636069431042e+00
 7.691921231671363e-01	 2.276507759764810e+00	 2.320542431089457e+00
 7.481474091925959e-01	 2.283510398823632e+00	 2.337622525271308e+00
 7.270854458400936e-01	 2.290303739569949e+00	 2.356603491121177e+00
 7.060091728533677e-01	 2.296888259167190e+00	 2.375601894916826e+00
 6.849215076016004e-01	 2.303264486420560e+00	 2.393957733337830e+00
 6.638253440321856e-01	 2.309433000961871e+00	 2.411008958490392e+00
 6.427235516533077e-01	 2.315394432411569e+00	 2.425994825420136e+00
 6.216189745468071e-01	 2.321149459519132e+00	 2.438067795534960e+00
 8.352491495505203e-01	 2.262518394906619e+00	 2.282860470839692e+00
 8.141970019494854e-01	 2.270179294192986e+00	 2.288706282471198e+00
 7.931185662147202e-01	 2.277629008609738e+00	 2.299658508238120e+00
 7.720168536581871e-01	 2.284867856915018e+00	 2.314759671395737e+00
 7.508948564624924e-01	 2.291896212004354e+00	 2.333044968581309e+00
 7.297555465433327e-01	 2.298714500167882e+00	 2.353324436348929e+00
 7.086018744401672e-01	 2.305323200321329e+00	 2.373579307473527e+00
 6.874367682357337e-01	 2.311722843211848e+00	 2.393004683637175e+00
 6.662631325049674e-01	 2.317914010599844e+00	 2.410890652145173e+00
 6.450838472938460e-01	 2.323897334417937e+00	 2.426427975202869e+00
 6.239017671286295e-01	 2.329673495908198e+00	 2.438720165477446e+00
 6.010736569931618e-01	 2.244432443637021e+00	 2.383950846418406e+00
 5.806666458346349e-01	 2.249798380643699e+00	 2.402685134222898e+00
 5.602623663671141e-01	 2.254966189887047e+00	 2.423373695043153e+00
 5.398634910592640e-01	 2.259936667925870e+00	 2.445016052191187e+00
 5.194726641987837e-01	 2.264710655295170e+00	 2.466543090097752e+00
 4.990925010900198e-01	 2.269289035584527e+00	 2.486826176277705e+00
 4.787255872827550e-01	 2.273672734502291e+00	 2.504685826865465e+00
 4.583744778323183e-01	 2.277862718926716e+00	 2.518899928936887e+00
 4.380416965911256e-01	 2.281859995945114e+00	 2.528211534945053e+00
 4.177297355317209e-01	 2.285665611882142e+00	 2.531336246433743e+00
 3.974410541013390e-01	 2.289280651318292e+00	 2.526969205756215e+00
 6.033564786770745e-01	 2.252956588718058e+00	 2.396456010321020e+00
 5.828719635936395e-01	 2.258342905052813e+00	 2.413207973330052e+00
 5.623901905759557e-01	 2.263530341153386e+00	 2.430025981975140e+00
 5.419138422424650e-01	 2.268519696603859e+00	 2.446315818410950e+00
 5.214455729236145e-01	 2.273311815131524e+00	 2.461420950042545e+00
 5.009880078564244e-01	 2.277907583681776e+00	 2.474631016943448e+00
 4.805437424103443e-01	 2.282307931478736e+00	 2.485189856174731e+00
 4.601153413445558e-01	 2.286513829072792e+00	 2.492303077974042e+00
 4.397053380968226e-01	 2.290526287376103e+00	 2.495145210900143e+00
 4.193162341039582e-01	 2.294346356687182e+00	 2.492866434851616e+00
 3.989504981539398e-01	 2.297975125705680e+00	 2.484598922430578e+00
 6.056392997145412e-01	 2.261480731383585e+00	 2.406898219833074e+00
 5.850772807281693e-01	 2.266887427040690e+00	 2.421735302240680e+00
 5.645180141823034e-01	 2.272094489992964e+00	 2.435018615593467e+00
 5.439641928451564e-01	 2.277102722849767e+00	 2.446514395686126e+00
 5.234184810899200e-01	 2.281912972530687e+00	 2.455932235439701e+00
 5.028835140862811e-01	 2.286526129336922e+00	 2.462933006678091e+00
 4.823618970233524e-01	 2.290943126008371e+00	 2.467136311197695e+00
 4.618562043641630e-01	 2.295164936767550e+00	 2.468127477785111e+00
 4.413689791318187e-01	 2.299192576351458e+00	 2.465464123964516e+00
 4.209027322273986e-01	 2.303027099032473e+00	 2.458682303090240e+00
 4.004599417796176e-01	 2.306669597629399e+00	 2.447302258944567e+00
 6.079221194587819e-01	 2.270004869218262e+00	 2.415469728856225e+00
 5.872825966134051e-01	 2.275431944186209e+00	 2.428500209150342e+00
 5.666458365832896e-01	 2.280658633979106e+00	 2.438611341570698e+00
 5.460145422864142e-01	 2.285685744231581e+00	 2.445884565616071e+00
 5.253913881387067e-01	 2.290514125055513e+00	 2.450349703333129e+00
 5.047790192425142e-01	 2.295144670107906e+00	 2.451992383831159e+00
 4.841800506066055e-01	 2.299578315644430e+00	 2.450760988541654e+00
 4.635970663978504e-01	 2.303816039559728e+00	 2.446573135498556e+00
 4.430326192246895e-01	 2.307858860415636e+00	 2.439321723055426e+00
 4.224892294524614e-01	 2.311707836458393e+00	 2.428880555294935e+00
 4.019693845506116e-01	 2.315364064625950e+00	 2.415109572926870e+00
 6.102049372630167e-01	 2.278528999806742e+00	 2.422360286715423e+00
 5.894879106245263e-01	 2.283976454068253e+00	 2.433732717548063e+00
 5.687736571760474e-01	 2.289222770685133e+00	 2.441060484742521e+00
 5.480648899853144e-01	 2.294268758317280e+00	 2.444695528586062e+00
 5.273642935109819e-01	 2.299115270268856e+00	 2.444942556644114e+00
 5.066745227880489e-01	 2.303763203552670e+00	 2.442066038873062e+00
 4.859982026449307e-01	 2.308213497940151e+00	 2.436296713987914e+00
 4.653379269523288e-01	 2.312467134998071e+00	 2.427837626917080e+00
 4.446962579040113e-01	 2.316525137113097e+00	 2.416869719334993e+00
 4.240757253295657e-01	 2.320388566505321e+00	 2.403556997111663e+00
 4.034788260391606e-01	 2.324058524231837e+00	 2.388051300059439e+00
 6.124877524804658e-01	 2.287053120733680e+00	 2.427757163281236e+00
 5.916932221367138e-01	 2.292520954265703e+00	 2.437659824731448e+00
 5.709014753577101e-01	 2.297786897684371e+00	 2.442618997023499e+00
 5.501152353609329e-01	 2.302851762674848e+00	 2.443212957244879e+00
 5.293371966477528e-01	 2.307716405733574e+00	 2.439976499526557e+00
 5.085700241858097e-01	 2.312381727229153e+00	 2.433407568099782e+00
 4.878163526231543e-01	 2.316848670448772e+00	 2.423973391174611e+00
 4.670787855343096e-01	 2.321118220631321e+00	 2.412116136965224e+00
 4.463598946983590e-01	 2.325191403988296e+00	 2.398258115367999e+00
 4.256622194091302e-01	 2.329069286713631e+00	 2.382806550659879e+00
 4.049882658175036e-01	 2.332752973983562e+00	 2.366157952130295e+00
 6.147705644643494e-01	 2.295577229583733e+00	 2.431845173075757e+00
 5.938985305251478e-01	 2.301065442357437e+00	 2.440505539043128e+00
 5.730292905254101e-01	 2.306351012550143e+00	 2.443536503868976e+00
 5.521655778323450e-01	 2.311434754872265e+00	 2.441699048437078e+00
 5.313100969900266e-01	 2.316317529012518e+00	 2.435713791165723e+00
 5.104655228987212e-01	 2.321000238695292e+00	 2.426267325846634e+00
 4.896345000261031e-01	 2.325483830723527e+00	 2.414018048927572e+00
 4.688196416505032e-01	 2.329769294008221e+00	 2.399601498993836e+00
 4.480235291363087e-01	 2.333857658585688e+00	 2.383635233411685e+00
 4.272487112415743e-01	 2.337749994623703e+00	 2.366723268975309e+00
 4.064977034578799e-01	 2.341447411417628e+00	 2.349460114953370e+00
 6.170533725678875e-01	 2.304101323941556e+00	 2.434806698388535e+00
 5.961038351650089e-01	 2.309609915922340e+00	 2.442490915861692e+00
 5.751571020762805e-01	 2.314915112855772e+00	 2.444059349320872e+00
 5.542159168186273e-01	 2.320017732477514e+00	 2.440412573630013e+00
 5.332829939788103e-01	 2.324918637668543e+00	 2.432413298060784e+00
 5.123610183897084e-01	 2.329618735509029e+00	 2.420892475249752e+00
 4.914526443386036e-01	 2.334118976317654e+00	 2.406654887274213e+00
 4.705604948076211e-01	 2.338420352677515e+00	 2.390484232970914e+00
 4.496871607464362e-01	 2.342523898449734e+00	 2.373147742859901e+00
 4.288352003773169e-01	 2.346430687775914e+00	 2.355400349936241e+00
 4.080071385325283e-01	 2.350141834070536e+00	 2.337988446158864e+00
 6.193361761443001e-01	 2.312625401391804e+00	 2.436821711428235e+00
 5.983091354314772e-01	 2.318154372539291e+00	 2.443834092379405e+00
 5.772849094074545e-01	 2.323479196174583e+00	 2.444430639673895e+00
 5.562662517388552e-01	 2.328600693058579e+00	 2.439608927874412e+00
 5.352558870551107e-01	 2.333519729264506e+00	 2.430330544830329e+00
 5.142565101216956e-01	 2.338237215228306e+00	 2.417527037592723e+00
 4.932707850454824e-01	 2.342754104784390e+00	 2.402105322174456e+00
 4.723013445123737e-01	 2.347071394187943e+00	 2.384952582587593e+00
 4.513507890573169e-01	 2.351190121124886e+00	 2.366940686863483e+00
 4.304216863667768e-01	 2.355111363710639e+00	 2.348930149686771e+00
 4.095165706136882e-01	 2.358836239478789e+00	 2.331773672857472e+00
 6.216189745468071e-01	 2.321149459519132e+00	 2.438067795534960e+00
 6.005144306997326e-01	 2.326698809787171e+00	 2.444750321197948e+00
 5.794127119160645e-01	 2.332043260079898e+00	 2.444890285797765e+00
 5.583165820121045e-01	 2.337183634183437e+00	 2.439540177336344e+00
 5.372287756599355e-01	 2.342120801363259e+00	 2.429717763578708e+00
 5.161519975576078e-01	 2.346855675411061e+00	 2.416411940274760e+00
 4.950889216315665e-01	 2.351389213676971e+00	 2.400588029001584e+00
 4.740421902714724e-01	 2.355722416088251e+00	 2.383192551307127e+00
 4.530144135975269e-01	 2.359856324155606e+00	 2.365157508148010e+00
 4.320081687603736e-01	 2.363792019968260e+00	 2.347404195569865e+00
 4.110259992735985e-01	 2.367530625178890e+00	 2.330846589181713e+00
 6.239017671286295e-01	 2.329673495908198e+00	 2.438720165477446e+00
 6.027197203449561e-01	 2.335243225244862e+00	 2.445452002772594e+00
 5.815405089992440e-01	 2.340607302145042e+00	 2.445675044149888e+00
 5.603669070574516e-01	 2.345766553420075e+00	 2.440455105437089e+00
 5.392016592342920e-01	 2.350721851527660e+00	 2.430823941860243e+00
 5.180474801603698e-01	 2.355474113615235e+00	 2.417785063435685e+00
 4.969070535816822e-01	 2.360024300548634e+00	 2.402318984805071e+00
 4.757830315916279e-01	 2.364373415927180e+00	 2.385387937383911e+00
 4.546780338956418e-01	 2.368522505086348e+00	 2.367940074049456e+00
 4.335946471085258e-01	 2.372472654089150e+00	 2.350913198582792e+00
 4.125354240844981e-01	 2.376224988707342e+00	 2.335238053707578e+00
 3.974410541013390e-01	 2.289280651318292e+00	 2.526969205756215e+00
 3.771746369077695e-01	 2.292706802156369e+00	 2.515582022760979e+00
 3.569363335028887e-01	 2.295944590920846e+00	 2.499477433056807e+00
 3.367285086005786e-01	 2.298995209927609e+00	 2.479613873300229e+00
 3.165534919874212e-01	 2.301859885794940e+00	 2.456993391124302e+00
 2.964135780332426e-01	 2.304539878427208e+00	 2.432725613206204e+00
 2.763110252327106e-01	 2.307036479994991e+00	 2.408001251933414e+00
 2.562480557777606e-01	 2.309351013912615e+00	 2.384079511058316e+00
 2.362268551605955e-01	 2.311484833814059e+00	 2.362276246136916e+00
 2.162495718069747e-01	 2.313439322528182e+00	 2.343952832332614e+00
 1.963183167394766e-01	 2.315215891054156e+00	 2.330505692596132e+00
 3.989504981539398e-01	 2.297975125705680e+00	 2.484598922430578e+00
 3.786071109981872e-01	 2.301414288744914e+00	 2.471388835258899e+00
 3.582919444046360e-01	 2.304664374329043e+00	 2.455583952880624e+00
 3.380073720681420e-01	 2.307726579302260e+00	 2.437793435202414e+00
 3.177557326236101e-01	 2.310602134941421e+00	 2.418663198901666e+00
 2.975393291546795e-01	 2.313292305935888e+00	 2.398948238163826e+00
 2.773604287335805e-01	 2.315798389363781e+00	 2.379479993594277e+00
 2.572212619919365e-01	 2.318121713665623e+00	 2.361154385272482e+00
 2.371240227222559e-01	 2.320263637616369e+00	 2.344920600546647e+00
 2.170708675098290e-01	 2.322225549296722e+00	 2.331770586859532e+00
 1.970639153947111e-01	 2.324008865064697e+00	 2.322729200419789e+00
 4.004599417796176e-01	 2.306669597629399e+00	 2.447302258944567e+00
 3.800395846835243e-01	 2.310121772866058e+00	 2.432819173160956e+00
 3.596475549231084e-01	 2.313384155266310e+00	 2.417557193096871e+00
 3.392862351741974e-01	 2.316457946202639e+00	 2.401815511321017e+00
 3.189579729200171e-01	 2.319344381610483e+00	 2.385924114829358e+00
 2.986650799580179e-01	 2.322044730964200e+00	 2.370325914382908e+00
 2.784098319379913e-01	 2.324560296249448e+00	 2.355535975441758e+00
 2.581944679312465e-01	 2.326892410932952e+00	 2.342130124812770e+00
 2.380211900305964e-01	 2.329042438930637e+00	 2.330734313034136e+00
 2.178921629808598e-01	 2.331011773575057e+00	 2.322014680517534e+00
 1.978095138395674e-01	 2.332801836583068e+00	 2.316668276083741e+00
 4.019693845506116e-01	 2.315364064625950e+00	 2.415109572926870e+00
 3.814720575578184e-01	 2.318829252052637e+00	 2.399838958610431e+00
 3.610031646741138e-01	 2.322103931262002e+00	 2.385311849258013e+00
 3.405650975562919e-01	 2.325189308154833e+00	 2.371556390284531e+00
 3.201602125358946e-01	 2.328086623325142e+00	 2.358625934674083e+00
 2.997908301241795e-01	 2.330797151032284e+00	 2.346693318690370e+00
 2.794592345484939e-01	 2.333322198169453e+00	 2.335999586286088e+00
 2.591676733198291e-01	 2.335663103229576e+00	 2.326843116094238e+00
 2.389183568312976e-01	 2.337821235269544e+00	 2.319569506184833e+00
 2.187134579872431e-01	 2.339797992873766e+00	 2.314562162357036e+00
 1.985551118626669e-01	 2.341594803117931e+00	 2.312233536441582e+00
 4.034788260391606e-01	 2.324058524231837e+00	 2.388051300059439e+00
 3.829045292151072e-01	 2.327536723837477e+00	 2.372415133787216e+00
 3.623587732734601e-01	 2.330823699845481e+00	 2.358764283033748e+00
 3.418439588519724e-01	 2.333920662684930e+00	 2.346894544721057e+00
 3.213624511304951e-01	 2.336828857608415e+00	 2.336620986155764e+00
 3.009165793340853e-01	 2.339549563660281e+00	 2.327887845105948e+00
 2.805086362676391e-01	 2.342084092641259e+00	 2.320703961887844e+00
 2.601408778818226e-01	 2.344433788070469e+00	 2.315132374003076e+00
 2.398155228700407e-01	 2.346600024145774e+00	 2.311280671594261e+00
 2.195347522961551e-01	 2.348584204703427e+00	 2.309292057256399e+00
 1.993007092526315e-01	 2.350387762177955e+00	 2.309337054534589e+00
 4.049882658175036e-01	 2.332752973983562e+00	 2.366157952130295e+00
 3.843369992494279e-01	 2.336244185753409e+00	 2.350515642512529e+00
 3.637143803369547e-01	 2.339543458546102e+00	 2.337832498120234e+00
 3.431228186987860e-01	 2.342652007319017e+00	 2.327710596465600e+00
 3.225646883630715e-01	 2.345571081983316e+00	 2.319764086768001e+00
 3.020423272686569e-01	 2.348301966368331e+00	 2.313749558444159e+00
 2.815580367979779e-01	 2.350845977182324e+00	 2.309484937362445e+00
 2.611140813413651e-01	 2.353204462970607e+00	 2.306839495976963e+00
 2.407126878925066e-01	 2.355378803072008e+00	 2.305724628349446e+00
 2.203560456747723e-01	 2.357370406574623e+00	 2.306085331381305e+00
 2.000463057980824e-01	 2.359180711271805e+00	 2.307892334457591e+00
 4.064977034578799e-01	 2.341447411417628e+00	 2.349460114953370e+00
 3.857694672548181e-01	 2.344951635333264e+00	 2.334109412105880e+00
 3.650699854804054e-01	 2.348263204893226e+00	 2.322436116708581e+00
 3.444016767342797e-01	 2.351383339583184e+00	 2.313887282557652e+00
 3.237669238928758e-01	 2.354313293972862e+00	 2.307912502547271e+00
 3.031680736088157e-01	 2.357054356676572e+00	 2.304121148954057e+00
 2.826074358420612e-01	 2.359607849310108e+00	 2.302181000645387e+00
 2.620872834225951e-01	 2.361975125444967e+00	 2.301808617106007e+00
 2.416098516443764e-01	 2.364157569560930e+00	 2.302760482430994e+00
 2.211773378902707e-01	 2.366156595997930e+00	 2.304824858408358e+00
 2.007919012876414e-01	 2.367973647908145e+00	 2.307814286779232e+00
 4.080071385325283e-01	 2.350141834070536e+00	 2.337988446158864e+00
 3.872019328253151e-01	 2.353659070109870e+00	 2.323166335487916e+00
 3.664255883196201e-01	 2.356982936416213e+00	 2.312496356498097e+00
 3.456805325960006e-01	 2.360114657003518e+00	 2.305309422008590e+00
 3.249691573791607e-01	 2.363055491100066e+00	 2.300925907766312e+00
 3.042938180354829e-01	 2.365806732105149e+00	 2.298847887970030e+00
 2.836568331024397e-01	 2.368369706542075e+00	 2.298633246990714e+00
 2.630604838496510e-01	 2.370745773008522e+00	 2.299886366227893e+00
 2.425070138713309e-01	 2.372936321125219e+00	 2.302249587012080e+00
 2.219986287098268e-01	 2.374942770483929e+00	 2.305395386493132e+00
 2.015374955099299e-01	 2.376766569595645e+00	 2.309019204502283e+00
 4.095165706136882e-01	 2.358836239478789e+00	 2.331773672857472e+00
 3.886343955549562e-01	 2.362366487616057e+00	 2.317657253522730e+00
 3.677811884704062e-01	 2.365702650644420e+00	 2.307936008240205e+00
 3.469593859214955e-01	 2.368845957106105e+00	 2.301863883319048e+00
 3.261713884811787e-01	 2.371797670887945e+00	 2.298666345527923e+00
 3.054195602295801e-01	 2.374559090174198e+00	 2.297777584547476e+00
 2.847062282816644e-01	 2.377131546395682e+00	 2.298685334476199e+00
 2.640336823466709e-01	 2.379516403176245e+00	 2.300921822991636e+00
 2.434041743190512e-01	 2.381715055277557e+00	 2.304055503631250e+00
 2.228199179006166e-01	 2.383728927543198e+00	 2.307683505963520e+00
 2.022830882535697e-01	 2.385559473842969e+00	 2.311424739550092e+00
 4.110259992735985e-01	 2.367530625178890e+00	 2.330846589181713e+00
 3.900668550377791e-01	 2.371073885384655e+00	 2.317553937593603e+00
 3.691367855485716e-01	 2.374422345107205e+00	 2.308679413799378e+00
 3.482382363483116e-01	 2.377577237417034e+00	 2.303439552727005e+00
 3.273736168581822e-01	 2.380539830859515e+00	 2.300998189236026e+00
 3.065452998720287e-01	 2.383311428403861e+00	 2.300760543058217e+00
 2.857556210822865e-01	 2.385893366388392e+00	 2.302183440489356e+00
 2.650068786377933e-01	 2.388287013463113e+00	 2.304766475865141e+00
 2.443013327332182e-01	 2.390493769530626e+00	 2.308043964216596e+00
 2.236412052298165e-01	 2.392515064686318e+00	 2.311577617719790e+00
 2.030286793071822e-01	 2.394352358158783e+00	 2.314949879765658e+00
 4.125354240844981e-01	 2.376224988707342e+00	 2.335238053707578e+00
 3.914993108678211e-01	 2.379781260948494e+00	 2.322829072406181e+00
 3.704923791699241e-01	 2.383142017333930e+00	 2.314652449447303e+00
 3.495170835139961e-01	 2.386308495462393e+00	 2.309927303167895e+00
 3.285758421694240e-01	 2.389281968537790e+00	 2.307788104921586e+00
 3.076710366437497e-01	 2.392063744314279e+00	 2.307649521721031e+00
 2.868050112068564e-01	 2.394655164037665e+00	 2.308976219169273e+00
 2.659800724471563e-01	 2.397057601384103e+00	 2.311274181062376e+00
 2.451984888595130e-01	 2.399272461397111e+00	 2.314082833939593e+00
 2.244624904646028e-01	 2.401301179423868e+00	 2.316967902323262e+00
 2.037742684593891e-01	 2.403145220051754e+00	 2.319514926410298e+00
 1.963183167394766e-01	 2.315215891054156e+00	 2.330505692596132e+00
 1.764385310364568e-01	 2.316815720398379e+00	 2.322098455654134e+00
 1.566088185154535e-01	 2.318240590786652e+00	 2.316961499984796e+00
 1.368311300350413e-01	 2.319491990372638e+00	 2.313622487019331e+00
 1.171073792565506e-01	 2.320571431365386e+00	 2.310612597783525e+00
 9.743944244549368e-02	 2.321480449033855e+00	 2.306462171036575e+00
 7.782915829959509e-02	 2.322220600716149e+00	 2.299696647795371e+00
 5.827832780298224e-02	 2.322793464834211e+00	 2.288832783178700e+00
 3.878871410607834e-02	 2.323200639914681e+00	 2.272375088964279e+00
 1.936204243071925e-02	 2.323443743616602e+00	 2.248812472801777e+00
 0.000000000000000e+00	 2.323524411766664e+00	 2.216615042631735e+00
 1.970639153947111e-01	 2.324008865064697e+00	 2.322729200419789e+00
 1.771086281199702e-01	 2.325614770412040e+00	 2.317487951314027e+00
 1.572036042005577e-01	 2.327045052325662e+00	 2.314273543410155e+00
 1.373508019042066e-01	 2.328301204611078e+00	 2.311942940385316e+00
 1.175521421601336e-01	 2.329384745220547e+00	 2.309358267500966e+00
 9.780950835971221e-02	 2.330297215253816e+00	 2.305382131705370e+00
 7.812474618384929e-02	 2.331040177963597e+00	 2.298873254156610e+00
 5.849966345662223e-02	 2.331615217766517e+00	 2.288682375360306e+00
 3.893603002471555e-02	 2.332023939260249e+00	 2.273648395641361e+00
 1.943557766217746e-02	 2.332267966247539e+00	 2.252594716287168e+00
 0.000000000000000e+00	 2.332348940767776e+00	 2.224325749377087e+00
 1.978095138395674e-01	 2.332801836583068e+00	 2.316668276083741e+00
 1.777787250144937e-01	 2.334413817931758e+00	 2.314016405945200e+00
 1.577983897180009e-01	 2.335849511369154e+00	 2.312326773406749e+00
 1.378704736269728e-01	 2.337110416352620e+00	 2.310743856597829e+00
 1.179969049385061e-01	 2.338198056577620e+00	 2.308418841556671e+00
 9.817957416982828e-02	 2.339113978974688e+00	 2.304504681907081e+00
 7.842033398502198e-02	 2.339859752711145e+00	 2.298151475526178e+00
 5.872099904810785e-02	 2.340436968198292e+00	 2.288502117595085e+00
 3.908334590202525e-02	 2.340847236104838e+00	 2.274688192022080e+00
 1.950911287302839e-02	 2.341092186377230e+00	 2.255826065919204e+00
 0.000000000000000e+00	 2.341173467267554e+00	 2.231013154567013e+00
 1.985551118626669e-01	 2.341594803117931e+00	 2.312233536441582e+00
 1.784488215300383e-01	 2.343212860464476e+00	 2.311627668606376e+00
 1.583931748991300e-01	 2.344653965422534e+00	 2.311089645797644e+00
 1.383901450559686e-01	 2.345919623101312e+00	 2.310010135059494e+00
 1.184416674655227e-01	 2.347011362939483e+00	 2.307787961847536e+00
 9.854963977086653e-02	 2.347930737698364e+00	 2.303824966695003e+00
 7.871592161925042e-02	 2.348679322459877e+00	 2.297521181978224e+00
 5.894233451463112e-02	 2.349258713629998e+00	 2.288270287309150e+00
 3.923066169619540e-02	 2.349670527948470e+00	 2.275455304758213e+00
 1.958264804239622e-02	 2.349916401505431e+00	 2.258444497881458e+00
 0.000000000000000e+00	 2.349997988765666e+00	 2.236587441361059e+00
 1.993007092526315e-01	 2.350387762177955e+00	 2.309337054534589e+00
 1.791189174766151e-01	 2.352011895517132e+00	 2.310266531805175e+00
 1.589879595752919e-01	 2.353458411991199e+00	 2.310531177006182e+00
 1.389098160438224e-01	 2.354728822361202e+00	 2.309726974820445e+00
 1.188864296150382e-01	 2.355824661809015e+00	 2.307459422876933e+00
 9.891970505785140e-02	 2.356747488926737e+00	 2.303338242632550e+00
 7.901150900267198e-02	 2.357498884710880e+00	 2.296972412001906e+00
 5.916366979338409e-02	 2.358080451562100e+00	 2.287965477336311e+00
 3.937797736541390e-02	 2.358493812291163e+00	 2.275911105112534e+00
 1.965618314940513e-02	 2.358740609131897e+00	 2.260388836547257e+00
 0.000000000000000e+00	 2.358822502761778e+00	 2.240960011275631e+00
 2.000463057980824e-01	 2.359180711271805e+00	 2.307892334457591e+00
 1.797890126642351e-01	 2.360810920596668e+00	 2.309878715700748e+00
 1.595827435778335e-01	 2.362262848580552e+00	 2.310620935218978e+00
 1.394294864431627e-01	 2.363538011636339e+00	 2.309879870458695e+00
 1.193311912609072e-01	 2.364637950689095e+00	 2.307427170242980e+00
 9.928976992580749e-02	 2.365564230161696e+00	 2.303039876913245e+00
 7.930709605142384e-02	 2.366318436965246e+00	 2.296495370409956e+00
 5.938500482155876e-02	 2.366902179495063e+00	 2.287566590904826e+00
 3.952529286786867e-02	 2.367317086632938e+00	 2.276017499445558e+00
 1.972971817317929e-02	 2.367564806756383e+00	 2.261598739020168e+00
 0.000000000000000e+00	 2.367647006755555e+00	 2.244043461463200e+00
 2.007919012876414e-01	 2.367973647908145e+00	 2.307814286779232e+00
 1.804591069029091e-01	 2.369609933210024e+00	 2.310410852653024e+00
 1.601775267381020e-01	 2.371067272695995e+00	 2.311329031740816e+00
 1.399491561066178e-01	 2.372347188430768e+00	 2.310454608047957e+00
 1.197759522769842e-01	 2.373451227082600e+00	 2.307685299156902e+00
 9.965983426975930e-02	 2.374380958905133e+00	 2.302925346497488e+00
 7.960268268164336e-02	 2.375137976724058e+00	 2.296080426291744e+00
 5.960633953634716e-02	 2.375723894929350e+00	 2.287052836734282e+00
 3.967260816174764e-02	 2.376140348473814e+00	 2.275736919913117e+00
 1.980325309284289e-02	 2.376388991878643e+00	 2.262014680017959e+00
 0.000000000000000e+00	 2.376471498246666e+00	 2.245751562496581e+00
 2.015374955099299e-01	 2.376766569595645e+00	 2.309019204502283e+00
 1.811292000026484e-01	 2.378408930864142e+00	 2.311810472109542e+00
 1.607723088874440e-01	 2.379871681842929e+00	 2.312626112536602e+00
 1.404688248868164e-01	 2.381156350248540e+00	 2.311437261210721e+00
 1.202207125371239e-01	 2.382264488492409e+00	 2.308228052990738e+00
 1.000298979847314e-01	 2.383197672658942e+00	 2.302990237265679e+00
 7.989826880946778e-02	 2.383957501488406e+00	 2.295718111009636e+00
 5.982767387494128e-02	 2.384545595365426e+00	 2.286403724239797e+00
 3.981992320523873e-02	 2.384963595313814e+00	 2.275032315369360e+00
 1.987678788752008e-02	 2.385213161998432e+00	 2.261577937091164e+00
 0.000000000000000e+00	 2.385295974734777e+00	 2.245999236645264e+00
 2.022830882535697e-01	 2.385559473842969e+00	 2.311424739550092e+00
 1.817992917734637e-01	 2.387207911065961e+00	 2.314025985821226e+00
 1.613670898572067e-01	 2.388676073526756e+00	 2.314483349955447e+00
 1.409884926363869e-01	 2.389965494593699e+00	 2.312814187254335e+00
 1.206654719151811e-01	 2.391077732421400e+00	 2.309049821853604e+00
 1.003999609657483e-01	 2.392014368925014e+00	 2.303230243187267e+00
 8.019385435103442e-02	 2.392777008759376e+00	 2.295399116237601e+00
 6.004900777453322e-02	 2.393367278303754e+00	 2.285599058840795e+00
 3.996723795652986e-02	 2.393786824652957e+00	 2.273867142469803e+00
 1.995032253633504e-02	 2.394037314615505e+00	 2.260230576167617e+00
 0.000000000000000e+00	 2.394120433719554e+00	 2.244702536631169e+00
 2.030286793071822e-01	 2.394352358158783e+00	 2.314949879765658e+00
 1.824693820253662e-01	 2.396006871322423e+00	 2.317006673378623e+00
 1.619618694787370e-01	 2.397480445252878e+00	 2.316872434632280e+00
 1.415081592079577e-01	 2.398774618970295e+00	 2.314572023387964e+00
 1.211102302850102e-01	 2.399890956372451e+00	 2.310145141195768e+00
 1.007700231078345e-01	 2.400831045205240e+00	 2.303641165505267e+00
 8.048943922248050e-02	 2.401596496038056e+00	 2.295114292040872e+00
 6.027034117231492e-02	 2.402188941244799e+00	 2.284618937371612e+00
 4.011455237380896e-02	 2.402610033991262e+00	 2.272205356969364e+00
 2.002385701841196e-02	 2.402861447229616e+00	 2.257915437414660e+00
 0.000000000000000e+00	 2.402944872700665e+00	 2.241778624851471e+00
 2.037742684593891e-01	 2.403145220051754e+00	 2.319514926410298e+00
 1.831394705683669e-01	 2.404805809140469e+00	 2.320702668060433e+00
 1.625566475833818e-01	 2.406284794526695e+00	 2.319765567562384e+00
 1.420278244541574e-01	 2.407583720882376e+00	 2.316697683018377e+00
 1.215549875204660e-01	 2.408704157848441e+00	 2.311508690439848e+00
 1.011400843060147e-01	 2.409647699001514e+00	 2.304218911935899e+00
 8.078502333994339e-02	 2.410415960825535e+00	 2.294854644995711e+00
 6.049167400547847e-02	 2.411010581689024e+00	 2.283443743591384e+00
 4.026186641526397e-02	 2.411433220828751e+00	 2.270011405210368e+00
 2.009739131287501e-02	 2.411685557340521e+00	 2.254576121410855e+00
 0.000000000000000e+00	 2.411769289177776e+00	 2.237145753056691e+00
 2.411769289177776e+00	 0.000000000000000e+00	 4.453145754867867e+00
 2.411685557340520e+00	 2.009739131287368e-02	 3.153673453105332e+00
 2.411433220828751e+00	 4.026186641526282e-02	 2.070393741137049e+00
 2.411010581689024e+00	 6.049167400547752e-02	 1.205247336229514e+00
 2.410415960825535e+00	 8.078502333994263e-02	 5.601790983448244e-01
 2.409647699001513e+00	 1.011400843060141e-01	 1.371579023767905e-01
 2.408704157848441e+00	 1.215549875204656e-01	-6.180237915790776e-02
 2.407583720882377e+00	 1.420278244541572e-01	-3.462100878128649e-02
 2.406284794526695e+00	 1.625566475833819e-01	 2.208721527129303e-01
 2.404805809140468e+00	 1.831394705683671e-01	 7.069596557747939e-01
 2.403145220051753e+00	 2.037742684593891e-01	 1.426059770565748e+00
 2.420592184004311e+00	 0.000000000000000e+00	 4.568183613137058e+00
 2.420508145853693e+00	 2.017091292721681e-02	 3.152324821157601e+00
 2.420254886227749e+00	 4.040915505419339e-02	 1.982242579550718e+00
 2.419830700961471e+00	 6.071296867252746e-02	 1.059134478744951e+00
 2.419233904816472e+00	 8.108055648764277e-02	 3.836397542467843e-01
 2.418462832486047e+00	 1.015100816918718e-01	-4.415112107346653e-02
 2.417515839608091e+00	 1.219996680633029e-01	-2.246854398787177e-01
 2.416391303785128e+00	 1.425474000909046e-01	-1.589360735705037e-01
 2.415087625610806e+00	 1.631513231264263e-01	 1.516117002527129e-01
 2.413603229702029e+00	 1.838094435635525e-01	 7.049741711944942e-01
 2.411936565736030e+00	 2.045197290447714e-01	 1.498683808916478e+00
 2.429415071334221e+00	 0.000000000000000e+00	 4.659741922216853e+00
 2.429330726870513e+00	 2.024443447889918e-02	 3.115475672914625e+00
 2.429076544131215e+00	 4.055644356765203e-02	 1.853294633839552e+00
 2.428650812739752e+00	 6.093426315114193e-02	 8.722713919075243e-01
 2.428051841315157e+00	 8.137608938378982e-02	 1.702739635447788e-01
 2.427277958480798e+00	 1.018800787629030e-01	-2.560350028553753e-01
 2.426327513880976e+00	 1.224443482278824e-01	-4.111972259894283e-01
 2.425198879204688e+00	 1.430669752858037e-01	-3.009561940696813e-01
 2.423890449215851e+00	 1.637459981638709e-01	 6.774683920653685e-02
 2.422400642789204e+00	 1.844794159892236e-01	 6.867780944504052e-01
 2.420727903951157e+00	 2.052651889965601e-01	 1.546817595435510e+00
 2.438237968666715e+00	 0.000000000000000e+00	 4.692807955644730e+00
 2.438153317889580e+00	 2.031795611367892e-02	 3.015772250301191e+00
 2.437898212035911e+00	 4.070373224766095e-02	 1.663014562269270e+00
 2.437470934517559e+00	 6.115555788009839e-02	 6.301149607808403e-01
 2.436869787810966e+00	 8.167162261439190e-02	-8.928031373842027e-02
 2.436093094469554e+00	 1.022500762528061e-01	-5.034701428750051e-01
 2.435139198144029e+00	 1.228890288960369e-01	-6.227075326317051e-01
 2.434006464609849e+00	 1.435865510692486e-01	-4.592065110552473e-01
 2.432693282801188e+00	 1.643406738750812e-01	-2.714709501942564e-02
 2.431198065850612e+00	 1.851493891741113e-01	 6.573215197142019e-01
 2.429519252133696e+00	 2.060106497932278e-01	 1.576079415430267e+00
 2.447060893501001e+00	 0.000000000000000e+00	 4.632858068855416e+00
 2.446975936409492e+00	 2.039147797731409e-02	 2.826244996007810e+00
 2.446719907438604e+00	 4.085102138624248e-02	 1.391157827520866e+00
 2.446291083788585e+00	 6.137685329817418e-02	 3.183307594335451e-01
 2.445687761793263e+00	 8.196715676545709e-02	-4.042474742381594e-01
 2.444908257936103e+00	 1.026200748952796e-01	-7.913554921522208e-01
 2.443950909874183e+00	 1.233337109495989e-01	-8.605582751820338e-01
 2.442814077469403e+00	 1.441061284716330e-01	-6.322234625103836e-01
 2.441496143826175e+00	 1.649353514394233e-01	-1.295350895231614e-01
 2.439995516334869e+00	 1.858193644469466e-01	 6.214950972978610e-01
 2.438310627720206e+00	 2.067561129132469e-01	 1.592018637980405e+00
 2.455883863336285e+00	 0.000000000000000e+00	 4.445848890855510e+00
 2.455798599928851e+00	 2.046500021556279e-02	 2.520301681580124e+00
 2.455541647836058e+00	 4.099831127541885e-02	 1.017765543563893e+00
 2.455111278046521e+00	 6.159814984414676e-02	-7.721059724558421e-02
 2.454505780751423e+00	 8.226269242299340e-02	-7.837166243771582e-01
 2.453723466364230e+00	 1.029900754240222e-01	-1.124513816655422e+00
 2.452762666548367e+00	 1.237783952704008e-01	-1.126063865257116e+00
 2.451621735252139e+00	 1.446257085233509e-01	-8.185544688018824e-01
 2.450299049750167e+00	 1.655300320362625e-01	-2.359216406213177e-01
 2.448793011690591e+00	 1.864893431364605e-01	 5.841311578401250e-01
 2.447102048147246e+00	 2.075015798350896e-01	 1.600116968438539e+00
 2.464706895671778e+00	 0.000000000000000e+00	 4.098208709301566e+00
 2.464621325946256e+00	 2.053852297418312e-02	 2.071720686416529e+00
 2.464363450725036e+00	 4.114560220721233e-02	 5.231594356532085e-01
 2.463931534785059e+00	 6.181944795679352e-02	-5.704370217681756e-01
 2.463323862174812e+00	 8.255823017300901e-02	-1.236643882152903e+00
 2.462538737237723e+00	 1.033600785727321e-01	-1.507692933971142e+00
 2.461574485643514e+00	 1.242230827402754e-01	-1.420511579382986e+00
 2.460429455426854e+00	 1.451452922547962e-01	-1.016757626100645e+00
 2.459102018032526e+00	 1.661247168449647e-01	-3.428499602410621e-01
 2.457590569366397e+00	 1.871593265713841e-01	 5.500048094212497e-01
 2.455893530851377e+00	 2.082470520372284e-01	 1.605789670393696e+00
 2.473530008006687e+00	 0.000000000000000e+00	 3.556829044034499e+00
 2.473444131960304e+00	 2.061204639893316e-02	 1.454644423816529e+00
 2.473185333602305e+00	 4.129289447364520e-02	-1.120630894388834e-01
 2.472751871497893e+00	 6.204074807489190e-02	-1.175078444342083e+00
 2.472142023552804e+00	 8.285377060151190e-02	-1.771854628889505e+00
 2.471354088040368e+00	 1.037300850751079e-01	-1.945566923498186e+00
 2.470386384636555e+00	 1.246677742410551e-01	-1.745161920511098e+00
 2.469237255462335e+00	 1.456648806963626e-01	-1.225401407831370e+00
 2.467905066132604e+00	 1.667194070448957e-01	-4.469012014839929e-01
 2.466388206810903e+00	 1.878293160804483e-01	 5.238350082980956e-01
 2.464685093269159e+00	 2.089925309981359e-01	 1.614386757875390e+00
 2.482353217840222e+00	 0.000000000000000e+00	 2.789056404272701e+00
 2.482267035469597e+00	 2.068557063557098e-02	 6.435729103378400e-01
 2.482007313964629e+00	 4.144018836673971e-02	-9.070337657608789e-01
 2.481572305678712e+00	 6.226205063721928e-02	-1.904670227222652e+00
 2.480960282374767e+00	 8.314931429451024e-02	-2.398045712224451e+00
 2.480169536255953e+00	 1.041000956648482e-01	-2.442737310835374e+00
 2.479198381004420e+00	 1.251124706545726e-01	-2.101248972558809e+00
 2.478045152827377e+00	 1.461844748784441e-01	-1.443064373943451e+00
 2.476708211509762e+00	 1.673141038154211e-01	-5.446937028720853e-01
 2.475185941472726e+00	 1.884993129923843e-01	 5.102856039311363e-01
 2.473476752837151e+00	 2.097380181962843e-01	 1.631194158553665e+00
 2.491176542671590e+00	 0.000000000000000e+00	 1.762684224800961e+00
 2.491090053972734e+00	 2.075909582985468e-02	-3.866425251748259e-01
 2.490829409308772e+00	 4.158748417851815e-02	-1.880618185812641e+00
 2.490392854821212e+00	 6.248335608255309e-02	-2.772556505042891e+00
 2.489778656130071e+00	 8.344486183801204e-02	-3.123787601562195e+00
 2.488985099368266e+00	 1.044701110756514e-01	-3.003734227012974e+00
 2.488010492224041e+00	 1.255571728626603e-01	-2.489980748146791e+00
 2.486853164990770e+00	 1.467040758314346e-01	-1.668334887801066e+00
 2.485511471623356e+00	 1.679088083359065e-01	-6.328822507997705e-01
 2.483983790800481e+00	 1.891693186359228e-01	 5.139663589556405e-01
 2.482268526991912e+00	 2.104835151101462e-01	 1.661434848667502e+00
 2.500000000000000e+00	 0.000000000000000e+00	 4.459449766299417e-01
 2.499913204968313e+00	 2.083262212754237e-02	-1.660805396417335e+00
 2.499651637131500e+00	 4.173478220100279e-02	-3.051420416113375e+00
 2.499213536419082e+00	 6.270466484967074e-02	-3.791893452989822e+00
 2.498597162308088e+00	 8.374041381802545e-02	-3.957526497192576e+00
 2.497800794861094e+00	 1.048401320412160e-01	-3.633017543199382e+00
 2.496822735772351e+00	 1.260018817471509e-01	-2.912539529701400e+00
 2.495661309421307e+00	 1.472236845857280e-01	-1.899810840497101e+00
 2.494314863932743e+00	 1.685035217857179e-01	-7.081573597293844e-01
 2.492781772242788e+00	 1.898393343397951e-01	 5.394339447295251e-01
 2.491060433170003e+00	 2.112290232181939e-01	 1.710269960393431e+00
 2.403145220051753e+00	 2.037742684593891e-01	 1.426059770565748e+00
 2.401301179423868e+00	 2.244624904646018e-01	 2.209981212827533e+00
 2.399272461397111e+00	 2.451984888595121e-01	 2.888382091400286e+00
 2.397057601384104e+00	 2.659800724471556e-01	 3.459670216966747e+00
 2.394655164037665e+00	 2.868050112068558e-01	 3.920471251125661e+00
 2.392063744314279e+00	 3.076710366437493e-01	 4.265614094756149e+00
 2.389281968537789e+00	 3.285758421694235e-01	 4.488118060044845e+00
 2.386308495462393e+00	 3.495170835139956e-01	 4.579182040784768e+00
 2.383142017333930e+00	 3.704923791699238e-01	 4.528177614137102e+00
 2.379781260948493e+00	 3.914993108678208e-01	 4.411041256295142e+00
 2.376224988707342e+00	 4.125354240844981e-01	 4.301061003060286e+00
 2.411936565736030e+00	 2.045197290447714e-01	 1.498683808916480e+00
 2.410085779116245e+00	 2.252836340798409e-01	 2.350183481473403e+00
 2.408049639498448e+00	 2.460954902833876e-01	 3.078651875572033e+00
 2.405826676937398e+00	 2.669530984424627e-01	 3.683212529748346e+00
 2.403415450835028e+00	 2.878542203783776e-01	 4.161480759305477e+00
 2.400814551007787e+00	 3.087965792975076e-01	 4.509553429854841e+00
 2.398022598754243e+00	 3.297778601733234e-01	 4.722000014922828e+00
 2.395038247921946e+00	 3.507957101599751e-01	 4.791855131014215e+00
 2.391860185972615e+00	 3.718477390377299e-01	 4.711010002028512e+00
 2.388487135044622e+00	 3.929315196905244e-01	 4.564556010781937e+00
 2.384917853011747e+00	 4.140445886158671e-01	 4.414882375026104e+00
 2.420727903951157e+00	 2.052651889965601e-01	 1.546817595435510e+00
 2.418870371345269e+00	 2.261047769972317e-01	 2.454486380810992e+00
 2.416826810142783e+00	 2.469924909450028e-01	 3.223451508355097e+00
 2.414595745040610e+00	 2.679261236109486e-01	 3.853650850706257e+00
 2.412175730189792e+00	 2.889034286583775e-01	 4.343784724591109e+00
 2.409565350266758e+00	 3.099221209949132e-01	 4.691309827818146e+00
 2.406763221544790e+00	 3.309798771559180e-01	 4.892433951001644e+00
 2.403767992964807e+00	 3.520743357195856e-01	 4.942111636147919e+00
 2.400578347204410e+00	 3.732030977540010e-01	 4.835461656983846e+00
 2.397193001744243e+00	 3.943637272964342e-01	 4.664586324952015e+00
 2.393610709930618e+00	 4.155537518651016e-01	 4.482571550796753e+00
 2.429519252133696e+00	 2.060106497932278e-01	 1.576079415430267e+00
 2.427654973534109e+00	 2.269259208453727e-01	 2.528781786312618e+00
 2.425603990738564e+00	 2.478894926234245e-01	 3.328849668213622e+00
 2.423364823086110e+00	 2.688991498824757e-01	 3.977132545093407e+00
 2.420936019476900e+00	 2.899526381278242e-01	 4.473509848956692e+00
 2.418316159447325e+00	 3.110476639683347e-01	 4.816888840929231e+00
 2.415503854245390e+00	 3.321818955012538e-01	 5.005202747782222e+00
 2.412497747905362e+00	 3.533529627288108e-01	 5.035409304729286e+00
 2.409296518320724e+00	 3.745584580069012e-01	 4.906465711011585e+00
 2.405898878314389e+00	 3.957959365261204e-01	 4.715539984475021e+00
 2.402303576705195e+00	 4.170629168253849e-01	 4.507919390265046e+00
 2.438310627720206e+00	 2.067561129132469e-01	 1.592018637980405e+00
 2.436439603105941e+00	 2.277470672528620e-01	 2.578888353830004e+00
 2.434381198694239e+00	 2.487864970977196e-01	 3.400838387685581e+00
 2.432133928466276e+00	 2.698721791869063e-01	 4.059725802733523e+00
 2.429696336071292e+00	 2.910018508676860e-01	 4.556702046343683e+00
 2.427066995905628e+00	 3.121732104501406e-01	 4.892214558202933e+00
 2.424244514191992e+00	 3.333839175933769e-01	 5.066008104459331e+00
 2.421227530057993e+00	 3.546315937236350e-01	 5.077125967332258e+00
 2.418014716612970e+00	 3.759138224845953e-01	 4.928879523466775e+00
 2.414604782022097e+00	 3.972281502201535e-01	 4.721756194116729e+00
 2.410996470576720e+00	 4.185720864898998e-01	 4.494656783227799e+00
 2.447102048147246e+00	 2.075015798350896e-01	 1.600116968438539e+00
 2.445224277483935e+00	 2.285682178482976e-01	 2.610552798216663e+00
 2.443158451418256e+00	 2.496835061469548e-01	 3.445334332684217e+00
 2.440903078573478e+00	 2.708452134541026e-01	 4.107420892227855e+00
 2.438456697347905e+00	 2.920510689589316e-01	 4.599327645683441e+00
 2.435817876997804e+00	 3.132987626727000e-01	 4.923130730839004e+00
 2.432985218720554e+00	 3.345859458163336e-01	 5.080471561142343e+00
 2.429957356737081e+00	 3.559102312400417e-01	 5.072560426628867e+00
 2.426732959372563e+00	 3.772691938752474e-01	 4.907485988929339e+00
 2.423310730134402e+00	 3.986603712191036e-01	 4.687506766058743e+00
 2.419689408786432e+00	 4.200812638518300e-01	 4.446455694150878e+00
 2.455893530851377e+00	 2.082470520372284e-01	 1.605789670393696e+00
 2.454009014091267e+00	 2.293893742602779e-01	 2.629451140106358e+00
 2.451935766319064e+00	 2.505805215501969e-01	 3.468180049119297e+00
 2.449672290800092e+00	 2.718182546139270e-01	 4.126131382121908e+00
 2.447217120681682e+00	 2.931002944825294e-01	 4.607274561006467e+00
 2.444568820079989e+00	 3.144243228683814e-01	 4.915401865381439e+00
 2.441725985167030e+00	 3.357879825541701e-01	 5.054135488901575e+00
 2.438687245257011e+00	 3.571888778140149e-01	 5.026933317907334e+00
 2.435451263890913e+00	 3.786245748670222e-01	 4.846994817798310e+00
 2.432016739918337e+00	 4.000926023635405e-01	 4.616997283755121e+00
 2.428382408575571e+00	 4.215904519043582e-01	 4.366930185833542e+00
 2.464685093269159e+00	 2.089925309981359e-01	 1.614386757875390e+00
 2.462793830351111e+00	 2.302105381174011e-01	 2.641189921655941e+00
 2.460713160805109e+00	 2.514775450865129e-01	 3.475145177663462e+00
 2.458441582538490e+00	 2.727913045962421e-01	 4.121695329863800e+00
 2.455977623447563e+00	 2.941495295194478e-01	 4.586353429461013e+00
 2.453319842508320e+00	 3.155498932695536e-01	 4.874714285384248e+00
 2.450466830867374e+00	 3.369900301909327e-01	 4.992464049404794e+00
 2.447417212932166e+00	 3.584675359815389e-01	 4.945387940758018e+00
 2.444169647459435e+00	 3.799799681480838e-01	 4.752043790297029e+00
 2.440722828640938e+00	 4.015248464940345e-01	 4.514368241949384e+00
 2.437075487185377e+00	 4.230996536406678e-01	 4.259637422510636e+00
 2.473476752837151e+00	 2.097380181962843e-01	 1.631194158553665e+00
 2.471578743686635e+00	 2.310317110482652e-01	 2.651307392036582e+00
 2.469490652284840e+00	 2.523745785349696e-01	 3.471927637464543e+00
 2.467210971181047e+00	 2.737643653309100e-01	 4.099876439358442e+00
 2.464738223020486e+00	 2.951987761506554e-01	 4.542298718037726e+00
 2.462070961638934e+00	 3.166754761085852e-01	 4.806677162360138e+00
 2.459207773157542e+00	 3.381920911106676e-01	 4.900844124886278e+00
 2.456147277076928e+00	 3.597462082785973e-01	 4.832991062621819e+00
 2.452888127369539e+00	 3.813353764065971e-01	 4.627199984565074e+00
 2.449429013569240e+00	 4.029571064511562e-01	 4.383696163458226e+00
 2.445768661857091e+00	 4.246088720539421e-01	 4.128078652915614e+00
 2.482268526991912e+00	 2.104835151101462e-01	 1.661434848667502e+00
 2.480363771521017e+00	 2.318528946814686e-01	 2.665274663434154e+00
 2.478268258166706e+00	 2.532716236746337e-01	 3.464154779581549e+00
 2.475980474120135e+00	 2.747374387477931e-01	 4.066365187899843e+00
 2.473498936775393e+00	 2.962480364571207e-01	 4.480769799773989e+00
 2.470822194827969e+00	 3.178010736178452e-01	 4.716823516764618e+00
 2.467948829373485e+00	 3.393941676974210e-01	 4.784586219169134e+00
 2.464877455005680e+00	 3.610248972411741e-01	 4.694733694875519e+00
 2.461606720912640e+00	 3.826908023307264e-01	 4.476960979490983e+00
 2.458135311970276e+00	 4.043893850754751e-01	 4.228994693309550e+00
 2.454461949831952e+00	 4.261181101373641e-01	 3.975700173812491e+00
 2.491060433170003e+00	 2.112290232181939e-01	 1.710269960393431e+00
 2.489148931277429e+00	 2.326740906456094e-01	 2.688496838298465e+00
 2.487045995859153e+00	 2.541686822845721e-01	 3.457384510898667e+00
 2.484750108748132e+00	 2.757105267767539e-01	 4.026779923239907e+00
 2.482259782087225e+00	 2.972973125198122e-01	 4.407352000188691e+00
 2.479573559431561e+00	 3.189266880297021e-01	 4.610611189747002e+00
 2.476690016851162e+00	 3.405962623352393e-01	 4.648925330437953e+00
 2.473607764032804e+00	 3.623036054052532e-01	 4.535531842107773e+00
 2.470325445380151e+00	 3.840462486086361e-01	 4.305756032924129e+00
 2.466841741111083e+00	 4.058216852075619e-01	 4.054215670806554e+00
 2.463155368351200e+00	 4.276273708841171e-01	 3.805894274490230e+00
 2.376224988707342e+00	 4.125354240844981e-01	 4.301061003060286e+00
 2.372472654089149e+00	 4.335946471085245e-01	 4.178245700635226e+00
 2.368522505086349e+00	 4.546780338956407e-01	 4.032588283982352e+00
 2.364373415927180e+00	 4.757830315916268e-01	 3.865386827861559e+00
 2.360024300548634e+00	 4.969070535816814e-01	 3.678657567176386e+00
 2.355474113615235e+00	 5.180474801603691e-01	 3.475147896973917e+00
 2.350721851527660e+00	 5.392016592342913e-01	 3.258349211218281e+00
 2.345766553420076e+00	 5.603669070574515e-01	 3.032509523363234e+00
 2.340607302145042e+00	 5.815405089992439e-01	 2.802645799242957e+00
 2.335243225244861e+00	 6.027197203449562e-01	 2.574555919863033e+00
 2.329673495908198e+00	 6.239017671286294e-01	 2.354830178395878e+00
 2.384917853011747e+00	 4.140445886158671e-01	 4.414882375026104e+00
 2.381151791353338e+00	 4.351808518903860e-01	 4.253143198184707e+00
 2.377187191652528e+00	 4.563413673254687e-01	 4.078054303125140e+00
 2.373022924019193e+00	 4.775235727278697e-01	 3.890297146514335e+00
 2.368657898417226e+00	 4.987248720202559e-01	 3.691198172852120e+00
 2.364091065687044e+00	 5.199426359136076e-01	 3.482741532005893e+00
 2.359321418557904e+00	 5.411742026124564e-01	 3.267581778463348e+00
 2.354347992648878e+00	 5.624168785529432e-01	 3.049056498450903e+00
 2.349169867457369e+00	 5.836679391736147e-01	 2.831198798027533e+00
 2.343786167334006e+00	 6.049246297188565e-01	 2.618749571765607e+00
 2.338196062442770e+00	 6.261841660747979e-01	 2.417169457765452e+00
 2.393610709930618e+00	 4.155537518651016e-01	 4.482571550796753e+00
 2.389830921243562e+00	 4.367670553247101e-01	 4.289853726455336e+00
 2.385851870856911e+00	 4.580046993422883e-01	 4.092034946163899e+00
 2.381672424762188e+00	 4.792641123855698e-01	 3.889276609230751e+00
 2.377291488950196e+00	 5.005426889146960e-01	 3.682316078286025e+00
 2.372708010437258e+00	 5.218377900570660e-01	 3.472479062918063e+00
 2.367920978281215e+00	 5.431467443151478e-01	 3.261692123090266e+00
 2.362929424586053e+00	 5.644668483072237e-01	 3.052495241578349e+00
 2.357732425494026e+00	 5.857953675409996e-01	 2.848054401098724e+00
 2.352329102164099e+00	 6.071295372199625e-01	 2.652174087741195e+00
 2.346718621735574e+00	 6.284665630823352e-01	 2.469309627867566e+00
 2.402303576705195e+00	 4.170629168253849e-01	 4.507919390265046e+00
 2.398510060973844e+00	 4.383532605574560e-01	 4.291528076978459e+00
 2.394516559884871e+00	 4.596680332450079e-01	 4.077085929383004e+00
 2.390321935311451e+00	 4.810046540167408e-01	 3.864329689893036e+00
 2.385925089271292e+00	 5.023605078702577e-01	 3.653507141484220e+00
 2.381324964956625e+00	 5.237329463493646e-01	 3.445389106297779e+00
 2.376520547753875e+00	 5.451192882544532e-01	 3.241281697288038e+00
 2.371510866251946e+00	 5.665168203859349e-01	 3.043038775215575e+00
 2.366294993237942e+00	 5.879227983206606e-01	 2.853074549190200e+00
 2.360872046679166e+00	 6.093344472212072e-01	 2.674376244350650e+00
 2.355241190690244e+00	 6.307489626778779e-01	 2.510516745230887e+00
 2.410996470576720e+00	 4.185720864898998e-01	 4.494656783227799e+00
 2.407189227758209e+00	 4.399394707345836e-01	 4.261266112218242e+00
 2.403181275921789e+00	 4.613313723325360e-01	 4.035720526519444e+00
 2.398971472822265e+00	 4.827452010733954e-01	 3.817426366377456e+00
 2.394558716504258e+00	 5.041783324921966e-01	 3.606240145856434e+00
 2.389941946335890e+00	 5.256281085491237e-01	 3.402480115574244e+00
 2.385120144032165e+00	 5.470918383424604e-01	 3.206938207025209e+00
 2.380092334666901e+00	 5.685667988547181e-01	 3.020892313828111e+00
 2.374857587672045e+00	 5.900502357318614e-01	 2.846118850609162e+00
 2.369415017823233e+00	 6.115393640955250e-01	 2.684905515054433e+00
 2.363763786210413e+00	 6.330313693880619e-01	 2.540064163043320e+00
 2.419689408786432e+00	 4.200812638518300e-01	 4.446455694150878e+00
 2.415868438810683e+00	 4.415256890020526e-01	 4.202117660636278e+00
 2.411846036153035e+00	 4.629947199037815e-01	 3.970410325754634e+00
 2.407621054449918e+00	 4.844857570075466e-01	 3.750502750792596e+00
 2.403192387772838e+00	 5.059961663857694e-01	 3.541957314702060e+00
 2.398558971665798e+00	 5.275232804149631e-01	 3.344740790423955e+00
 2.393719784172369e+00	 5.490643984912575e-01	 3.159235926706862e+00
 2.388673846851264e+00	 5.706167877792142e-01	 2.986253493767370e+00
 2.383420225779265e+00	 5.921776839938636e-01	 2.827044735981457e+00
 2.377958032540327e+00	 6.137442922158496e-01	 2.683314159063100e+00
 2.372286425199708e+00	 6.353137877395229e-01	 2.557232562977887e+00
 2.428382408575571e+00	 4.215904519043582e-01	 4.366930185833542e+00
 2.424547711345289e+00	 4.431119185058226e-01	 4.117083394166299e+00
 2.420510857763988e+00	 4.646580792576526e-01	 3.883585972384039e+00
 2.416270697349693e+00	 4.862263252712080e-01	 3.665461708427703e+00
 2.411826120200776e+00	 5.078140131562318e-01	 3.462074817208579e+00
 2.407176058037094e+00	 5.294184657055032e-01	 3.273140480268600e+00
 2.402319485230767e+00	 5.510369726129323e-01	 3.098736010288568e+00
 2.397255419825381e+00	 5.726667912250649e-01	 2.939312601774438e+00
 2.391982924542530e+00	 5.943051473259304e-01	 2.795707613565987e+00
 2.386501107774475e+00	 6.159492359551141e-01	 2.669157312520353e+00
 2.380809124561764e+00	 6.375962222588970e-01	 2.561309990929429e+00
 2.437075487185377e+00	 4.230996536406678e-01	 4.259637422510635e+00
 2.433227062576054e+00	 4.446981623918532e-01	 4.009115688548537e+00
 2.429175757940025e+00	 4.663214536930586e-01	 3.777637897532364e+00
 2.424920418676879e+00	 4.879669093163925e-01	 3.564173465701848e+00
 2.420459930911816e+00	 5.096318764088399e-01	 3.367983266182808e+00
 2.415793222540528e+00	 5.313136681793640e-01	 3.188629582020948e+00
 2.410919264263641e+00	 5.530095646195722e-01	 3.025986798943739e+00
 2.405837070609595e+00	 5.747168132579111e-01	 2.880252802140113e+00
 2.400545700944769e+00	 5.964326299473243e-01	 2.751961025133011e+00
 2.395044260469703e+00	 6.181541996862523e-01	 2.641993081969506e+00
 2.389331901200212e+00	 6.398786774728203e-01	 2.551591896574346e+00
 2.445768661857091e+00	 4.246088720539421e-01	 4.128078652915614e+00
 2.441906509717001e+00	 4.462844238061043e-01	 3.881119466960813e+00
 2.437840753866521e+00	 4.679848465089073e-01	 3.654917033270607e+00
 2.433570235586758e+00	 4.897075125951131e-01	 3.448476207396335e+00
 2.429093837029705e+00	 5.114497597488500e-01	 3.261048207729077e+00
 2.424410482266842e+00	 5.332088915951659e-01	 3.092139932230100e+00
 2.419519138327274e+00	 5.549821784232656e-01	 2.941524125378554e+00
 2.414418816224253e+00	 5.767668579433947e-01	 2.809250362563172e+00
 2.409108571968911e+00	 5.985601360773081e-01	 2.695656802400912e+00
 2.403587507570036e+00	 6.203591877821977e-01	 2.601382640056103e+00
 2.397854772018683e+00	 6.421611579079286e-01	 2.527381176668493e+00
 2.454461949831952e+00	 4.261181101373641e-01	 3.975700173812491e+00
 2.450586069982156e+00	 4.478707058945353e-01	 3.735953027370519e+00
 2.446505862728852e+00	 4.696482610041077e-01	 3.517735514481891e+00
 2.442220165234617e+00	 4.914481385593829e-01	 3.320176663445195e+00
 2.437727855678187e+00	 5.132676667815177e-01	 3.142610603082613e+00
 2.433027854306784e+00	 5.351041397115290e-01	 2.984585193773560e+00
 2.428119124477946e+00	 5.569548179360997e-01	 2.845871614886013e+00
 2.423000673689698e+00	 5.788169293471567e-01	 2.726474878747882e+00
 2.417671554597885e+00	 6.006876699351440e-01	 2.626645224027166e+00
 2.412130866019502e+00	 6.225642046158842e-01	 2.546890323421024e+00
 2.406377753920809e+00	 6.444436680908577e-01	 2.487988222001250e+00
 2.463155368351200e+00	 4.276273708841171e-01	 3.805894274490230e+00
 2.459265760585544e+00	 4.494570118031062e-01	 3.576428854019929e+00
 2.455171101712394e+00	 4.713117004775685e-01	 3.368367367812642e+00
 2.450870224775741e+00	 4.931887906612153e-01	 3.181050685550587e+00
 2.446362003981006e+00	 5.150856011120998e-01	 3.013987302800669e+00
 2.441645355751100e+00	 5.369994162870736e-01	 2.866861237239330e+00
 2.436719239771942e+00	 5.589274870701633e-01	 2.739540983228523e+00
 2.431582660026279e+00	 5.808670315348383e-01	 2.632089497781067e+00
 2.426234665814621e+00	 6.028152357400953e-01	 2.544775173149111e+00
 2.420674352762128e+00	 6.247692545602455e-01	 2.478083732740436e+00
 2.414900863810222e+00	 6.467262125482436e-01	 2.432730967926641e+00
 2.329673495908198e+00	 6.239017671286294e-01	 2.354830178395878e+00
 2.323897334417938e+00	 6.450838472938442e-01	 2.170020836218117e+00
 2.317914010599845e+00	 6.662631325049658e-01	 2.042020004696174e+00
 2.311722843211848e+00	 6.874367682357324e-01	 1.971167026563291e+00
 2.305323200321330e+00	 7.086018744401660e-01	 1.957992311133088e+00
 2.298714500167883e+00	 7.297555465433316e-01	 2.003225325332414e+00
 2.291896212004354e+00	 7.508948564624919e-01	 2.101493350812534e+00
 2.284867856915019e+00	 7.720168536581867e-01	 2.212093839260711e+00
 2.277629008609737e+00	 7.931185662147199e-01	 2.325976849246239e+00
 2.270179294192987e+00	 8.141970019494853e-01	 2.441153102845206e+00
 2.262518394906619e+00	 8.352491495505205e-01	 2.555536854836969e+00
 2.338196062442770e+00	 6.261841660747979e-01	 2.417169457765452e+00
 2.332398770214142e+00	 6.474437359343465e-01	 2.249137781290855e+00
 2.326393557802711e+00	 6.687005006150659e-01	 2.133831739208755e+00
 2.320179741474245e+00	 6.899515951480814e-01	 2.072122076851052e+00
 2.313756686984342e+00	 7.111941289514443e-01	 2.065040984773749e+00
 2.307123810444363e+00	 7.324251868245162e-01	 2.113789490863229e+00
 2.300280579165536e+00	 7.536418299728570e-01	 2.209925765530346e+00
 2.293226512480131e+00	 7.748410970631522e-01	 2.314679389660635e+00
 2.285961182538526e+00	 7.960200053076523e-01	 2.422550638209300e+00
 2.278484215081045e+00	 8.171755515775548e-01	 2.531856808830402e+00
 2.270795290183433e+00	 8.383047135447205e-01	 2.640779741390511e+00
 2.346718621735574e+00	 6.284665630823352e-01	 2.469309627867566e+00
 2.340900198786538e+00	 6.498036225703604e-01	 2.318510082929372e+00
 2.334873097800403e+00	 6.711378666548100e-01	 2.216338240642435e+00
 2.328636632550767e+00	 6.924664199242102e-01	 2.164114401481440e+00
 2.322190166481446e+00	 7.137863812606550e-01	 2.163296581530714e+00
 2.315533113575553e+00	 7.350948248378139e-01	 2.215487528639001e+00
 2.308664939202700e+00	 7.563888011495592e-01	 2.308523276295578e+00
 2.301585160943147e+00	 7.776653380687356e-01	 2.407123622496884e+00
 2.294293349387783e+00	 7.989214419355525e-01	 2.508285988136974e+00
 2.286789128912769e+00	 8.201540986750240e-01	 2.610593799844264e+00
 2.279072178427747e+00	 8.413602749428494e-01	 2.712463310155688e+00
 2.355241190690244e+00	 6.307489626778779e-01	 2.510516745230887e+00
 2.349401636996866e+00	 6.521635118822361e-01	 2.377177527765098e+00
 2.343352647411264e+00	 6.735752354582543e-01	 2.288429097134738e+00
 2.337093533214851e+00	 6.949812475518479e-01	 2.245960341200838e+00
 2.330623655539652e+00	 7.163786365091444e-01	 2.251579974157942e+00
 2.323942426240530e+00	 7.377644658781127e-01	 2.307223398862510e+00
 2.317049308745463e+00	 7.591357754409273e-01	 2.396444205802775e+00
 2.309943818882697e+00	 7.804895822765816e-01	 2.488827982202588e+00
 2.302625525683621e+00	 8.018228818532340e-01	 2.582907019337520e+00
 2.295094052160227e+00	 8.231326491497069e-01	 2.677491140016907e+00
 2.287349076056038e+00	 8.444158398055267e-01	 2.771198501492919e+00
 2.363763786210413e+00	 6.330313693880619e-01	 2.540064163043320e+00
 2.357903101706866e+00	 6.545234085503246e-01	 2.424191076330686e+00
 2.351832223453632e+00	 6.760126118594533e-01	 2.349007910401818e+00
 2.345550460239932e+00	 6.974960830187225e-01	 2.316492036518680e+00
 2.339057170885978e+00	 7.189708998382592e-01	 2.328728552362275e+00
 2.332351765118369e+00	 7.404341152403006e-01	 2.387917211832062e+00
 2.325433704423443e+00	 7.618827582952892e-01	 2.472859908591040e+00
 2.318302502877411e+00	 7.833138352883350e-01	 2.559203391103720e+00
 2.310957727952152e+00	 8.047243308155118e-01	 2.646142621665314e+00
 2.303399001295480e+00	 8.261112089094171e-01	 2.732674790462807e+00
 2.295625999484788e+00	 8.474714141933701e-01	 2.817588106823833e+00
 2.372286425199708e+00	 6.353137877395229e-01	 2.557232562977887e+00
 2.366404609778275e+00	 6.568833172549762e-01	 2.458612851900661e+00
 2.360311842745852e+00	 6.784500006924630e-01	 2.396992261224567e+00
 2.354007430399444e+00	 7.000109313125620e-01	 2.374557389704990e+00
 2.347490729247438e+00	 7.215631763893470e-01	 2.393596201401480e+00
 2.340761146888150e+00	 7.431037782192651e-01	 2.456222167145820e+00
 2.333818142866254e+00	 7.646297551609732e-01	 2.536954527361075e+00
 2.326661229505918e+00	 7.861381027056406e-01	 2.617670067273842e+00
 2.319289972719490e+00	 8.076257945772006e-01	 2.697726354534208e+00
 2.311703992790594e+00	 8.290897838619680e-01	 2.776269612259886e+00
 2.303902965130477e+00	 8.505270041669979e-01	 2.852226895555944e+00
 2.380809124561764e+00	 6.375962222588970e-01	 2.561309990929429e+00
 2.374906178072832e+00	 6.592432426765410e-01	 2.479516134522135e+00
 2.368791522106264e+00	 6.808874067913385e-01	 2.431313680980990e+00
 2.362464460466825e+00	 7.025257974210954e-01	 2.419020033261944e+00
 2.355924347351050e+00	 7.241554713037538e-01	 2.445053287149860e+00
 2.349170588228949e+00	 7.457734601098945e-01	 2.510726795222791e+00
 2.342202640703515e+00	 7.673767714863076e-01	 2.587924754330387e+00
 2.335020015346847e+00	 7.889623901301437e-01	 2.663657346047084e+00
 2.327622276511749e+00	 8.105272788931156e-01	 2.737396348754374e+00
 2.320009043117633e+00	 8.320683799151728e-01	 2.808399368958079e+00
 2.312179989409584e+00	 8.535826157870279e-01	 2.875701738780216e+00
 2.389331901200212e+00	 6.398786774728203e-01	 2.551591896574346e+00
 2.383407823452274e+00	 6.616031894953696e-01	 2.485985360116534e+00
 2.377271278353209e+00	 6.833248349901350e-01	 2.450917629085938e+00
 2.370921567215508e+00	 7.050406863320510e-01	 2.448759304721313e+00
 2.364358041923826e+00	 7.267477897228267e-01	 2.481986647485386e+00
 2.357580105819843e+00	 7.484431662070755e-01	 2.550481337342584e+00
 2.350587214564840e+00	 7.701238127196205e-01	 2.624979597496851e+00
 2.343378876978828e+00	 7.917867031634892e-01	 2.696603505094808e+00
 2.335954655855042e+00	 8.134287895180705e-01	 2.764895210144618e+00
 2.328314168748661e+00	 8.350470029768464e-01	 2.829186728628121e+00
 2.320457088738592e+00	 8.566382551140787e-01	 2.888591729822390e+00
 2.397854772018683e+00	 6.421611579079286e-01	 2.527381176668493e+00
 2.391909562778341e+00	 6.639631623918123e-01	 2.477116124537732e+00
 2.385751128305029e+00	 6.857622901229081e-01	 2.454763476203823e+00
 2.379378767418929e+00	 7.075556030331569e-01	 2.462670227624751e+00
 2.372791829692784e+00	 7.293401367879123e-01	 2.503299589857285e+00
 2.365989716339909e+00	 7.511129018056970e-01	 2.574554206908371e+00
 2.358971881079847e+00	 7.728708843092401e-01	 2.647340151684562e+00
 2.351737830980490e+00	 7.946110474073220e-01	 2.715955592973700e+00
 2.344287127275481e+00	 8.163303322068803e-01	 2.779969924873586e+00
 2.336619386155741e+00	 8.380256589548013e-01	 2.838753265460537e+00
 2.328734279533980e+00	 8.596939282087687e-01	 2.891468301726570e+00
 2.406377753920809e+00	 6.444436680908577e-01	 2.487988222001250e+00
 2.400411412912772e+00	 6.663231660462197e-01	 2.452015192475148e+00
 2.394231088780065e+00	 6.881997770237134e-01	 2.441824493104288e+00
 2.387836077850523e+00	 7.100705525121414e-01	 2.459663498548339e+00
 2.381225727384938e+00	 7.319325176403579e-01	 2.507911894897463e+00
 2.374399436468224e+00	 7.537826722006462e-01	 2.582027893372842e+00
 2.367356656878152e+00	 7.756179917034952e-01	 2.654239374249273e+00
 2.360096893930464e+00	 7.974354284632876e-01	 2.721169261056170e+00
 2.352619707299179e+00	 8.192319127143596e-01	 2.782371766484559e+00
 2.344924711810938e+00	 8.410043537568513e-01	 2.837219460924861e+00
 2.337011578212228e+00	 8.627496411317159e-01	 2.884895341747099e+00
 2.414900863810222e+00	 6.467262125482436e-01	 2.432730967926641e+00
 2.408913390717305e+00	 6.686832051389422e-01	 2.409800511094638e+00
 2.402711176596659e+00	 6.906373005266060e-01	 2.411087845034950e+00
 2.396293515283728e+00	 7.125855397567337e-01	 2.438665480037328e+00
 2.389659751727306e+00	 7.345249374215101e-01	 2.494759825943881e+00
 2.382809282883867e+00	 7.564524826868108e-01	 2.571998705786154e+00
 2.375741558589372e+00	 7.783651403507136e-01	 2.644921865324656e+00
 2.368456082407380e+00	 8.002598519330307e-01	 2.711708598755980e+00
 2.360952412452252e+00	 8.221335367953236e-01	 2.771856204559800e+00
 2.353230162186319e+00	 8.439830932908107e-01	 2.824704704498465e+00
 2.345289001189816e+00	 8.658053999435387e-01	 2.869429302922785e+00
 2.262518394906619e+00	 8.352491495505205e-01	 2.555536854836969e+00
 2.254644690221028e+00	 8.562755510073792e-01	 2.659270193521691e+00
 2.246559254862706e+00	 8.772695764783921e-01	 2.745199234618085e+00
 2.238261935071895e+00	 8.982281617561039e-01	 2.815155694590473e+00
 2.229752633954296e+00	 9.191482282730243e-01	 2.870799638282217e+00
 2.221031312078379e+00	 9.400266843708884e-01	 2.913621480003993e+00
 2.212097988040086e+00	 9.608604265935810e-01	 2.945879961776748e+00
 2.202952738993927e+00	 9.816463410027958e-01	 2.969034857349563e+00
 2.193595701149540e+00	 1.002381304515459e+00	 2.983585581778161e+00
 2.184027070232773e+00	 1.023062186261888e+00	 2.989741500518489e+00
 2.174247101910407e+00	 1.043685848963648e+00	 2.987441077834385e+00
 2.270795290183433e+00	 8.383047135447205e-01	 2.640779741390511e+00
 2.262892781387759e+00	 8.594080351814513e-01	 2.739422620900746e+00
 2.254777767352143e+00	 8.804788623923592e-01	 2.820225754129879e+00
 2.246450093754339e+00	 9.015141197603106e-01	 2.884745009861626e+00
 2.237909663345580e+00	 9.225107174556043e-01	 2.934418005291190e+00
 2.229156436550089e+00	 9.434655525098746e-01	 2.970552516255768e+00
 2.220190432031832e+00	 9.643755101137453e-01	 2.994354697038899e+00
 2.211011727227574e+00	 9.852374649373047e-01	 3.007872960313076e+00
 2.201620458845245e+00	 1.006048282472418e+00	 3.012154063288961e+00
 2.192016823326705e+00	 1.026804820395856e+00	 3.007472286068109e+00
 2.182201077274037e+00	 1.047503929952193e+00	 2.993875476939565e+00
 2.279072178427747e+00	 8.413602749428494e-01	 2.712463310155688e+00
 2.271140865546448e+00	 8.625405166940810e-01	 2.804408471902607e+00
 2.262996272858634e+00	 8.836881455796276e-01	 2.878953907096052e+00
 2.254638245479569e+00	 9.048000749726840e-01	 2.937404664581179e+00
 2.246066685806030e+00	 9.258732037813431e-01	 2.980991344334594e+00
 2.237281554117995e+00	 9.469044177271441e-01	 3.010859235903774e+00
 2.228282869147467e+00	 9.678905906474560e-01	 3.028056902561289e+00
 2.219070708613470e+00	 9.888285858207663e-01	 3.033614667905860e+00
 2.209645209722230e+00	 1.009715257313883e+00	 3.029405951091034e+00
 2.200006569631635e+00	 1.030547451350040e+00	 3.016114497522979e+00
 2.190155045879068e+00	 1.051322007696823e+00	 2.993855071499880e+00
 2.287349076056038e+00	 8.444158398055267e-01	 2.771198501492919e+00
 2.279388959056444e+00	 8.656730017584985e-01	 2.855311605099621e+00
 2.271214787682855e+00	 8.868974324058002e-01	 2.922836775312294e+00
 2.262826406488048e+00	 9.080860339109358e-01	 2.974852946751428e+00
 2.254223717514355e+00	 9.292356939197759e-01	 3.012398882695955e+00
 2.245406680897510e+00	 9.503432868437472e-01	 3.036462889427045e+00
 2.236375315437564e+00	 9.714056751669474e-01	 3.047971920971609e+00
 2.227129699135804e+00	 9.924197107762448e-01	 3.047780096658080e+00
 2.217669969696763e+00	 1.013382236313375e+00	 3.036829165227320e+00
 2.207996324994358e+00	 1.034290086548014e+00	 3.016792212283964e+00
 2.198109023501284e+00	 1.055140089770742e+00	 2.988036580567001e+00
 2.295625999484788e+00	 8.474714141933701e-01	 2.817588106823833e+00
 2.287637078277101e+00	 8.688054965879354e-01	 2.893200836357058e+00
 2.279433328125484e+00	 8.901067292364798e-01	 2.953306993657754e+00
 2.271014593020246e+00	 9.113720030927777e-01	 2.998783787451612e+00
 2.262380774649266e+00	 9.325981945404379e-01	 3.030493078684729e+00
 2.253531833004051e+00	 9.537821666807349e-01	 3.049271519429889e+00
 2.244467786952697e+00	 9.749207706444541e-01	 3.055920037421041e+00
 2.235188714778766e+00	 9.960108469268052e-01	 3.051192687504583e+00
 2.225694754685102e+00	 1.017049226744411e+00	 3.035784896632543e+00
 2.215986105261665e+00	 1.038032733413349e+00	 3.010611483547750e+00
 2.206063025916469e+00	 1.058958183747155e+00	 2.977064873434091e+00
 2.303902965130477e+00	 8.505270041669979e-01	 2.852226895555944e+00
 2.295885239567763e+00	 8.719380073956221e-01	 2.919130186862296e+00
 2.287651910487201e+00	 8.933160424372689e-01	 2.971777092346951e+00
 2.279202821316628e+00	 9.146579890359218e-01	 3.010867170346272e+00
 2.270537873389478e+00	 9.359607123128643e-01	 3.037100071369135e+00
 2.261657026553031e+00	 9.572210640591571e-01	 3.051165951173648e+00
 2.252560299743440e+00	 9.784358840522107e-01	 3.053735195177585e+00
 2.243247771526545e+00	 9.996020013955126e-01	 3.045447474768447e+00
 2.233719580603510e+00	 1.020716235880510e+00	 3.026900161557442e+00
 2.223975926280349e+00	 1.041775399369618e+00	 2.998636131171502e+00
 2.214017068900405e+00	 1.062776297199268e+00	 2.961572740188307e+00
 2.312179989409584e+00	 8.535826157870279e-01	 2.875701738780216e+00
 2.304133459287780e+00	 8.750705403947892e-01	 2.934139125231722e+00
 2.295870551068684e+00	 8.965253783737703e-01	 2.979639831154520e+00
 2.287391107617659e+00	 9.179439982580789e-01	 3.012749531654016e+00
 2.278695029913700e+00	 9.393232539065900e-01	 3.034020119850821e+00
 2.269782277659865e+00	 9.606599858000637e-01	 3.044000244673195e+00
 2.260652869860363e+00	 9.819510223624504e-01	 3.043225136100050e+00
 2.251306885363327e+00	 1.003193181305431e+00	 3.032205738096464e+00
 2.241744463368251e+00	 1.024383270995191e+00	 3.011417175092234e+00
 2.231965803897203e+00	 1.045518091840396e+00	 2.981286583537614e+00
 2.221971168228874e+00	 1.066594437700284e+00	 2.942180658675198e+00
 2.320457088738592e+00	 8.566382551140787e-01	 2.888591729822390e+00
 2.312381753796503e+00	 8.782031017986682e-01	 2.939252803844806e+00
 2.304089266170612e+00	 8.997347434115873e-01	 2.978268525816011e+00
 2.295579468163808e+00	 9.212300372769618e-01	 3.006054150818458e+00
 2.286852260400646e+00	 9.426858259911503e-01	 3.023028032346404e+00
 2.277907602439966e+00	 9.640989387245048e-01	 3.029602136284754e+00
 2.268745513354044e+00	 9.854661925474093e-01	 3.026171828801151e+00
 2.259366072273304e+00	 1.006784393779626e+00	 3.013104958466204e+00
 2.249769418895582e+00	 1.028050339361972e+00	 2.990730258643478e+00
 2.239955753959019e+00	 1.049260818249255e+00	 2.959325101995072e+00
 2.229925339677661e+00	 1.070412612823410e+00	 2.919102644794461e+00
 2.328734279533980e+00	 8.596939282087687e-01	 2.891468301726570e+00
 2.320630139453281e+00	 8.813356978204894e-01	 2.935482289550662e+00
 2.312308072093663e+00	 9.029441439163223e-01	 2.969017366802087e+00
 2.303767919195540e+00	 9.245161126102819e-01	 2.992381532115876e+00
 2.295009581029028e+00	 9.460484352360796e-01	 3.005873585333098e+00
 2.286033017008748e+00	 9.675379296535310e-01	 3.009773470050096e+00
 2.276838246275052e+00	 9.889814015793197e-01	 3.004331886824851e+00
 2.267425348240664e+00	 1.010375645941163e+00	 2.989759197823048e+00
 2.257794463101769e+00	 1.031717448254372e+00	 2.966213649519404e+00
 2.247945792312591e+00	 1.053003586019767e+00	 2.933788945981663e+00
 2.237879599022548e+00	 1.074230830141849e+00	 2.892501211219189e+00
 2.337011578212228e+00	 8.627496411317159e-01	 2.884895341747099e+00
 2.328878632617463e+00	 8.844683346734837e-01	 2.923824788887925e+00
 2.320526985138517e+00	 9.061535862535784e-01	 2.953221730657537e+00
 2.311956476953323e+00	 9.278022307757506e-01	 2.973309777427476e+00
 2.303167007977557e+00	 9.494110883109137e-01	 2.984281933008228e+00
 2.294158537481629e+00	 9.709769654081926e-01	 2.986290619054509e+00
 2.284931084673964e+00	 9.924966564304178e-01	 2.979436977088556e+00
 2.275484729249596e+00	 1.013966944913105e+00	 2.963759469784591e+00
 2.265819611903070e+00	 1.035384604945910e+00	 2.939221809084614e+00
 2.255935934804709e+00	 1.056746402575507e+00	 2.905700244722456e+00
 2.245833962039317e+00	 1.078049097228806e+00	 2.862970252782451e+00
 2.345289001189816e+00	 8.658053999435387e-01	 2.869429302922785e+00
 2.337127249648398e+00	 8.876010185708825e-01	 2.905263867954954e+00
 2.328746021605851e+00	 9.093630767889582e-01	 2.932198484091086e+00
 2.320145157677621e+00	 9.310883982910803e-01	 2.950394950397301e+00
 2.311324557424947e+00	 9.527737918851877e-01	 2.959954007305048e+00
 2.302284179974021e+00	 9.744160528095396e-01	 2.960904897048353e+00
 2.293024044601351e+00	 9.960119640729374e-01	 2.953194218833461e+00
 2.283544231284290e+00	 1.017558297818519e+00	 2.936674101635287e+00
 2.273844881215751e+00	 1.039051816710104e+00	 2.911089723524258e+00
 2.263926197282168e+00	 1.060489275340046e+00	 2.876066212516368e+00
 2.253788444503754e+00	 1.081867421657487e+00	 2.831094970069114e+00
 2.174247101910407e+00	 1.043685848963648e+00	 2.987441077834385e+00
 2.164257828117094e+00	 1.064245660079298e+00	 2.978571797077785e+00
 2.154057979603053e+00	 1.084741984992150e+00	 2.962125054350633e+00
 2.143647992280264e+00	 1.105171676113251e+00	 2.933491670998871e+00
 2.133028363287593e+00	 1.125531585092218e+00	 2.894236006122988e+00
 2.122199651223107e+00	 1.145818564275578e+00	 2.858190196539308e+00
 2.111162476335520e+00	 1.166029468177674e+00	 2.824079486598497e+00
 2.099917520674204e+00	 1.186161154962848e+00	 2.789709804451564e+00
 2.088465528197159e+00	 1.206210487937535e+00	 2.752975247223055e+00
 2.076807304836467e+00	 1.226174337050922e+00	 2.711856383597525e+00
 2.064943718520748e+00	 1.246049580402761e+00	 2.664416981054940e+00
 2.182201077274037e+00	 1.047503929952193e+00	 2.993875476939565e+00
 2.172175260055250e+00	 1.068138954336390e+00	 2.974013511508807e+00
 2.161938097777304e+00	 1.088710260268420e+00	 2.947634579218287e+00
 2.151490027946855e+00	 1.109214688644599e+00	 2.910230911578437e+00
 2.140831549521430e+00	 1.129649079597028e+00	 2.867179315585584e+00
 2.129963223142588e+00	 1.150010273957264e+00	 2.829360709859108e+00
 2.118885671328078e+00	 1.170295114732615e+00	 2.794613297827309e+00
 2.107599578622378e+00	 1.190500448593737e+00	 2.760727779744622e+00
 2.096105691705081e+00	 1.210623127372194e+00	 2.725546665564272e+00
 2.084404819456578e+00	 1.230660009566597e+00	 2.686962473190124e+00
 2.072497832980598e+00	 1.250607961855945e+00	 2.642914366013036e+00
 2.190155045879068e+00	 1.051322007696823e+00	 2.993855071499880e+00
 2.180092685265895e+00	 1.072032245285613e+00	 2.965555780801571e+00
 2.169818209255819e+00	 1.092678532173049e+00	 2.931280576983721e+00
 2.159332056950160e+00	 1.113257697740727e+00	 2.886767090248941e+00
 2.148634729125098e+00	 1.133766570603249e+00	 2.841602561822202e+00
 2.137726788465682e+00	 1.154201980077221e+00	 2.802438951394403e+00
 2.126608859758675e+00	 1.174560757662926e+00	 2.767075907253343e+00
 2.115281630043663e+00	 1.194839738537354e+00	 2.733337378072438e+00
 2.103745848721818e+00	 1.215035763057208e+00	 2.699071188900943e+00
 2.092002327621830e+00	 1.235145678270544e+00	 2.662147149054498e+00
 2.080051941022524e+00	 1.255166339435620e+00	 2.620453601572346e+00
 2.198109023501284e+00	 1.055140089770742e+00	 2.988036580567001e+00
 2.188010119452279e+00	 1.075925540649333e+00	 2.953378144617619e+00
 2.177698329667777e+00	 1.096646808577094e+00	 2.912848820094867e+00
 2.167174094843762e+00	 1.117300711420900e+00	 2.863210177559283e+00
 2.156437917575068e+00	 1.137884066277843e+00	 2.816674638255669e+00
 2.145490362590222e+00	 1.158393690949569e+00	 2.776443469769371e+00
 2.134332056945008e+00	 1.178826405429338e+00	 2.740417018451776e+00
 2.122963690174114e+00	 1.199179033400459e+00	 2.706500433662910e+00
 2.111386014400291e+00	 1.219448403744773e+00	 2.672603174979360e+00
 2.099599844400525e+00	 1.239631352059772e+00	 2.636637043942452e+00
 2.087606057628739e+00	 1.259724722182968e+00	 2.596512647353728e+00
 2.206063025916469e+00	 1.058958183747155e+00	 2.977064873434091e+00
 2.195927578317650e+00	 1.079818848149917e+00	 2.937654647264059e+00
 2.185578474642357e+00	 1.100615097351617e+00	 2.892124779429253e+00
 2.175016157181246e+00	 1.121343737704382e+00	 2.839064055553181e+00
 2.164241130347803e+00	 1.142001574787767e+00	 2.791571094346893e+00
 2.153253960914043e+00	 1.162585414888432e+00	 2.750401905339427e+00
 2.142055278204773e+00	 1.183092066492578e+00	 2.713596683165319e+00
 2.130645774249785e+00	 1.203518341789813e+00	 2.679189210804033e+00
 2.119026203893421e+00	 1.223861058187083e+00	 2.645206324497839e+00
 2.107197384860967e+00	 1.244117039831291e+00	 2.609665883827621e+00
 2.095160197781454e+00	 1.264283119139172e+00	 2.570573151066259e+00
 2.214017068900405e+00	 1.062776297199268e+00	 2.961572740188307e+00
 2.203845077565253e+00	 1.083712175509728e+00	 2.918553475856771e+00
 2.193458659808739e+00	 1.104583406367678e+00	 2.868893151780905e+00
 2.182858259516197e+00	 1.125386784610440e+00	 2.813736093949144e+00
 2.172044382919772e+00	 1.146119104299983e+00	 2.765474174320319e+00
 2.161017598834980e+00	 1.166777160207931e+00	 2.723350996397394e+00
 2.149778538855663e+00	 1.187357749313377e+00	 2.685585295913961e+00
 2.138327897506732e+00	 1.207857672312177e+00	 2.650386407648598e+00
 2.126666432354129e+00	 1.228273735136334e+00	 2.615953714750610e+00
 2.114794964071461e+00	 1.248602750482109e+00	 2.580474571870095e+00
 2.102714376462878e+00	 1.268841539345415e+00	 2.542120603095953e+00
 2.221971168228874e+00	 1.066594437700284e+00	 2.942180658675198e+00
 2.211762632898338e+00	 1.087605530451136e+00	 2.896236597591175e+00
 2.201338900796104e+00	 1.108551743496337e+00	 2.842937388680565e+00
 2.190700417402197e+00	 1.129429860158338e+00	 2.786636887361701e+00
 2.179847690767442e+00	 1.150236662981450e+00	 2.737572860341420e+00
 2.168781291750868e+00	 1.170968935222187e+00	 2.694336590686754e+00
 2.157501854215372e+00	 1.191623462352464e+00	 2.655363594302725e+00
 2.146010075181009e+00	 1.212197033574312e+00	 2.619085165646346e+00
 2.134306714935337e+00	 1.232686443344719e+00	 2.583927838370037e+00
 2.122392597100310e+00	 1.253088492909236e+00	 2.548311276495064e+00
 2.110268608655223e+00	 1.273399991842879e+00	 2.510644493772523e+00
 2.229925339677661e+00	 1.070412612823410e+00	 2.919102644794461e+00
 2.219680260020152e+00	 1.091498920696504e+00	 2.870859396110970e+00
 2.209219213233630e+00	 1.112520116608654e+00	 2.814083939981428e+00
 2.198542646392831e+00	 1.133472972367343e+00	 2.757180353778127e+00
 2.187651069367277e+00	 1.154354258999129e+00	 2.707062920045000e+00
 2.176545055059542e+00	 1.175160748245323e+00	 2.662413662099560e+00
 2.165225239601598e+00	 1.195889214070569e+00	 2.621922664895801e+00
 2.153692322508668e+00	 1.216536434182978e+00	 2.584289084474394e+00
 2.141947066789965e+00	 1.237099191564434e+00	 2.548220647052184e+00
 2.129990299015817e+00	 1.257574276009681e+00	 2.512431523496138e+00
 2.117822909340700e+00	 1.277958485672748e+00	 2.475638473262149e+00
 2.237879599022548e+00	 1.074230830141849e+00	 2.892501211219189e+00
 2.227597974633942e+00	 1.095392353968200e+00	 2.842406503318523e+00
 2.217099612750497e+00	 1.116488533575690e+00	 2.782604252900361e+00
 2.206384962041681e+00	 1.137516129256720e+00	 2.724783836032068e+00
 2.195454534195748e+00	 1.158471900519979e+00	 2.673146958316560e+00
 2.184308904158836e+00	 1.179352607591460e+00	 2.626646332440802e+00
 2.172948710332034e+00	 1.200155012928420e+00	 2.584263954529686e+00
 2.161374654725767e+00	 1.220875882744937e+00	 2.545012242341008e+00
 2.149587503070937e+00	 1.241511988547674e+00	 2.507933600154553e+00
 2.137588084886287e+00	 1.262060108680452e+00	 2.472098292077357e+00
 2.125377293501519e+00	 1.282517029876202e+00	 2.436600514036515e+00
 2.245833962039317e+00	 1.078049097228806e+00	 2.862970252782451e+00
 2.235515792442957e+00	 1.099285837988589e+00	 2.810524284415611e+00
 2.224980114975884e+00	 1.120457002268505e+00	 2.748320755521856e+00
 2.214227379902334e+00	 1.141559338845734e+00	 2.688868206210701e+00
 2.203258100729319e+00	 1.162589595710960e+00	 2.635034473232340e+00
 2.192072854446586e+00	 1.183544521574720e+00	 2.586107898144889e+00
 2.180672281724375e+00	 1.204420867386748e+00	 2.541399286942309e+00
 2.169057087068358e+00	 1.225215387866951e+00	 2.500279221542016e+00
 2.157228038931172e+00	 1.245924843046632e+00	 2.462177718058634e+00
 2.145185969780024e+00	 1.266545999818560e+00	 2.426582114750742e+00
 2.132931776119892e+00	 1.287075633494425e+00	 2.393033075870100e+00
 2.253788444503754e+00	 1.081867421657487e+00	 2.831094970069114e+00
 2.243433729150446e+00	 1.103179380480039e+00	 2.775330836804503e+00
 2.232860735538972e+00	 1.124425530558159e+00	 2.710529992059061e+00
 2.222069915528371e+00	 1.145602609153650e+00	 2.648857972934501e+00
 2.211061784444457e+00	 1.166707352739031e+00	 2.591941916066816e+00
 2.199836921320626e+00	 1.187736498509225e+00	 2.539880861833662e+00
 2.188395969096317e+00	 1.208686785906282e+00	 2.492350884599050e+00
 2.176739634772497e+00	 1.229554958155779e+00	 2.449125139153065e+00
 2.164868689523592e+00	 1.250337763813504e+00	 2.410073640193487e+00
 2.152783968765333e+00	 1.271031958321013e+00	 2.375161181009337e+00
 2.140486372178029e+00	 1.291634305568600e+00	 2.344443273319882e+00
 2.064943718520748e+00	 1.246049580402761e+00	 2.664416981054940e+00
 2.052875699653055e+00	 1.265833106151361e+00	 2.607259827673317e+00
 2.040604242534051e+00	 1.285521815239163e+00	 2.540388373198526e+00
 2.028130403740126e+00	 1.305112621772199e+00	 2.467038837421299e+00
 2.015455301466299e+00	 1.324602454152327e+00	 2.390449059293778e+00
 2.002580115325494e+00	 1.343988256597492e+00	 2.313839235475835e+00
 1.989506086103193e+00	 1.363266990660227e+00	 2.240390800638593e+00
 1.976234515467395e+00	 1.382435636742910e+00	 2.173223453127650e+00
 1.962766765633880e+00	 1.401491195608219e+00	 2.115370343601236e+00
 1.949104258986799e+00	 1.420430689883295e+00	 2.069751458745747e+00
 1.935248477654718e+00	 1.439251165556041e+00	 2.039145247040063e+00
 2.072497832980598e+00	 1.250607961855945e+00	 2.642914366013036e+00
 2.060385666083847e+00	 1.270463861014588e+00	 2.589685671095046e+00
 2.048069316704406e+00	 1.290224596647789e+00	 2.526972049549185e+00
 2.035549845283896e+00	 1.309887071572553e+00	 2.457889482345611e+00
 2.022828374107993e+00	 1.329448202954017e+00	 2.385574849447631e+00
 2.009906087104954e+00	 1.348904923831257e+00	 2.313166843261890e+00
 1.996784229599385e+00	 1.368254184641358e+00	 2.243784950093183e+00
 1.983464108021130e+00	 1.387492954740201e+00	 2.180506501096068e+00
 1.969947089569313e+00	 1.406618223918459e+00	 2.126341808601582e+00
 1.956234601831544e+00	 1.425627003911244e+00	 2.084207418577359e+00
 1.942328132358409e+00	 1.444516329899898e+00	 2.056897525258354e+00
 2.080051941022524e+00	 1.255166339435620e+00	 2.620453601572346e+00
 2.067895626134259e+00	 1.275094611942842e+00	 2.570259826828770e+00
 2.055534384532526e+00	 1.294927374060297e+00	 2.511182062352008e+00
 2.042969280524187e+00	 1.314661517315974e+00	 2.446177586625830e+00
 2.030201440485569e+00	 1.334293947638285e+00	 2.378239887357109e+00
 2.017232052660271e+00	 1.353821586887445e+00	 2.310379790810933e+00
 2.004062366912016e+00	 1.373241374385090e+00	 2.245604590220732e+00
 1.990693694432500e+00	 1.392550268440615e+00	 2.186895172580798e+00
 1.977127407404193e+00	 1.411745247872681e+00	 2.137181157882577e+00
 1.963364938618164e+00	 1.430823313524385e+00	 2.099314080123691e+00
 1.949407781047018e+00	 1.449781489770505e+00	 2.076038655102714e+00
 2.087606057628739e+00	 1.259724722182968e+00	 2.596512647353728e+00
 2.075405594698942e+00	 1.279725368120815e+00	 2.548730884552845e+00
 2.062999460824043e+00	 1.299630156804208e+00	 2.492997946363525e+00
 2.050388724176149e+00	 1.319435968472097e+00	 2.432074368611940e+00
 2.037574515222249e+00	 1.339139697816155e+00	 2.368768271474389e+00
 2.024558026521288e+00	 1.358738255517717e+00	 2.305916745696665e+00
 2.011340512476121e+00	 1.378228569782951e+00	 2.246365173727757e+00
 1.997923289040297e+00	 1.397607587874744e+00	 2.192944482814943e+00
 1.984307733379644e+00	 1.416872277639734e+00	 2.148446342223607e+00
 1.970495283488694e+00	 1.436019629028974e+00	 2.115596332395585e+00
 1.956487437762086e+00	 1.455046655610667e+00	 2.097025129944005e+00
 2.095160197781454e+00	 1.264283119139172e+00	 2.570573151066259e+00
 2.082915586672545e+00	 1.284356138733201e+00	 2.524847420566561e+00
 2.070464560384584e+00	 1.304332954207039e+00	 2.472396074301279e+00
 2.057808190954932e+00	 1.324210434510561e+00	 2.415745281472753e+00
 2.044947612941255e+00	 1.343985463098655e+00	 2.357476269830720e+00
 2.031884023217855e+00	 1.363654939473736e+00	 2.300207009799454e+00
 2.018618680726733e+00	 1.383215780726467e+00	 2.246571774073834e+00
 2.005152906183309e+00	 1.402664923073183e+00	 2.199198567393986e+00
 1.991488081736781e+00	 1.421999323388458e+00	 2.160684436682195e+00
 1.977625650585169e+00	 1.441215960731266e+00	 2.133568687753487e+00
 1.963567116545152e+00	 1.460311837863190e+00	 2.120304051291711e+00
 2.102714376462878e+00	 1.268841539345415e+00	 2.542120603095953e+00
 2.090425616949721e+00	 1.288986932964692e+00	 2.498358227823788e+00
 2.077929698019778e+00	 1.309035775596313e+00	 2.449349951857047e+00
 2.065227695575687e+00	 1.328984924901003e+00	 2.397350362834223e+00
 2.052320748265806e+00	 1.348831253096813e+00	 2.344672714064551e+00
 2.039210057279817e+00	 1.368571648507169e+00	 2.293670947616778e+00
 2.025896886098886e+00	 1.388203017107166e+00	 2.246719538092780e+00
 2.012382560200324e+00	 1.407722284066526e+00	 2.206191149380619e+00
 1.998668466716727e+00	 1.427126395287697e+00	 2.174432112507856e+00
 1.984756054049619e+00	 1.446412318937514e+00	 2.153735749116516e+00
 1.970646831437752e+00	 1.465577046970878e+00	 2.146313581953259e+00
 2.110268608655223e+00	 1.273399991842879e+00	 2.510644493772523e+00
 2.097935700425119e+00	 1.293617759999984e+00	 2.469012547097545e+00
 2.085394888535255e+00	 1.313738630299545e+00	 2.423830512518789e+00
 2.072647252753565e+00	 1.333759449113062e+00	 2.377044583126472e+00
 2.059693935819126e+00	 1.353677077421653e+00	 2.330659391277841e+00
 2.046536143237021e+00	 1.373488392369676e+00	 2.286720411737516e+00
 2.033175143027613e+00	 1.393190288816571e+00	 2.247294135326542e+00
 2.019612265430133e+00	 1.412779680885367e+00	 2.214446002880697e+00
 2.005848902560600e+00	 1.432253503506297e+00	 2.190216105491694e+00
 1.991886508024080e+00	 1.451608713953973e+00	 2.176592673774306e+00
 1.977726596481428e+00	 1.470842293376535e+00	 2.175483396161774e+00
 2.117822909340700e+00	 1.277958485672748e+00	 2.475638473262149e+00
 2.105445851993391e+00	 1.298248629023768e+00	 2.436560299263598e+00
 2.092860146736643e+00	 1.318441527644255e+00	 2.395806412223795e+00
 2.080066877203716e+00	 1.338534016616374e+00	 2.354978192690751e+00
 2.067067190224434e+00	 1.358522945684203e+00	 2.315731433794631e+00
 2.053862295619314e+00	 1.378405180812922e+00	 2.279759165571638e+00
 2.040453465947949e+00	 1.398177605746212e+00	 2.248772204175181e+00
 2.026842036211525e+00	 1.417837123560299e+00	 2.224477413200311e+00
 2.013029403509521e+00	 1.437380658213101e+00	 2.208553680862949e+00
 1.999017026650585e+00	 1.456805156086900e+00	 2.202625633908875e+00
 1.984806425717717e+00	 1.476107587522967e+00	 2.208235126770259e+00
 2.125377293501519e+00	 1.282517029876202e+00	 2.436600514036515e+00
 2.112956086549185e+00	 1.302879549220738e+00	 2.400752318692216e+00
 2.100325487429571e+00	 1.323144476957964e+00	 2.365244323865457e+00
 2.087486583641290e+00	 1.343308636880577e+00	 2.331297067696474e+00
 2.074440526104950e+00	 1.363368867495487e+00	 2.300177706894411e+00
 2.061188528956544e+00	 1.383322023588570e+00	 2.273183303424753e+00
 2.047731869294926e+00	 1.403164977787615e+00	 2.251621794963985e+00
 2.034071886883286e+00	 1.422894622121917e+00	 2.236790633691375e+00
 2.020209983804609e+00	 1.442507869576952e+00	 2.229953094841101e+00
 2.006147624071167e+00	 1.462001655642545e+00	 2.232312273931166e+00
 1.991886333188158e+00	 1.481372939852978e+00	 2.244982809608117e+00
 2.132931776119892e+00	 1.287075633494425e+00	 2.393033075870100e+00
 2.120466418987154e+00	 1.307510529775587e+00	 2.361340587738002e+00
 2.107790925419667e+00	 1.327847487568190e+00	 2.332109231676021e+00
 2.094906386781438e+00	 1.348083319375308e+00	 2.306143054917666e+00
 2.081813958083897e+00	 1.368214852466534e+00	 2.284281194591290e+00
 2.068514857778556e+00	 1.388238930448284e+00	 2.267381668004897e+00
 2.055010367503581e+00	 1.408152414832305e+00	 2.256302810026433e+00
 2.041301831784208e+00	 1.427952186600814e+00	 2.251882339390563e+00
 2.027390657686984e+00	 1.447635147766694e+00	 2.254914052949522e+00
 2.013278314427861e+00	 1.467198222927167e+00	 2.266122164734621e+00
 1.998966332934291e+00	 1.486638360809374e+00	 2.285758707748516e+00
 2.140486372178029e+00	 1.291634305568600e+00	 2.344443273319882e+00
 2.127976864201949e+00	 1.312141579873010e+00	 2.318078472318628e+00
 2.115256475512560e+00	 1.332550568802452e+00	 2.296364725507564e+00
 2.102326301339311e+00	 1.352858073570206e+00	 2.279654315417378e+00
 2.089187500784497e+00	 1.373060910208370e+00	 2.268319383528565e+00
 2.075841296615198e+00	 1.393155911143726e+00	 2.262736265447157e+00
 2.062288975008945e+00	 1.413139926771810e+00	 2.263267440899499e+00
 2.048531885253080e+00	 1.433009827027587e+00	 2.270241077554138e+00
 2.034571439397766e+00	 1.452762502951173e+00	 2.283928165194333e+00
 2.020409111862701e+00	 1.472394868247019e+00	 2.304517254965685e+00
 2.006046438997654e+00	 1.491903860834959e+00	 2.330569258569458e+00
 1.935248477654718e+00	 1.439251165556041e+00	 2.039145247040063e+00
 1.921198559930043e+00	 1.457952860094976e+00	 2.026612063122412e+00
 1.906958452650192e+00	 1.476529650413391e+00	 2.031857397031535e+00
 1.892529823022367e+00	 1.494978649281559e+00	 2.049850854652144e+00
 1.877914395939055e+00	 1.513296998677638e+00	 2.071896906440103e+00
 1.863113953331427e+00	 1.531481871228614e+00	 2.095810371617820e+00
 1.848130333479975e+00	 1.549530471634388e+00	 2.119947196292456e+00
 1.832965430282894e+00	 1.567440038073481e+00	 2.145653285836876e+00
 1.817621192482792e+00	 1.585207843588931e+00	 2.172531976384915e+00
 1.802099622852384e+00	 1.602831197452905e+00	 2.198963126790550e+00
 1.786402777339841e+00	 1.620307446508633e+00	 2.223356914633323e+00
 1.942328132358409e+00	 1.444516329899898e+00	 2.056897525258354e+00
 1.928226816289955e+00	 1.463286440221663e+00	 2.047498843158499e+00
 1.913934614902197e+00	 1.481931189389951e+00	 2.055758288845040e+00
 1.899453201501433e+00	 1.500447679612784e+00	 2.074234366065358e+00
 1.884784307290280e+00	 1.518833042412918e+00	 2.096323184251580e+00
 1.869929720718701e+00	 1.537084440074063e+00	 2.120190901902771e+00
 1.854891286792119e+00	 1.555199067070170e+00	 2.144064542689931e+00
 1.839670906337125e+00	 1.573174151476286e+00	 2.167666957692148e+00
 1.824270535225360e+00	 1.591006956359518e+00	 2.192265156350940e+00
 1.808692183556227e+00	 1.608694781148640e+00	 2.216305221557752e+00
 1.792937914799115e+00	 1.626234962980931e+00	 2.238178825008441e+00
 1.949407781047018e+00	 1.449781489770505e+00	 2.076038655102714e+00
 1.935255066678454e+00	 1.468620015817002e+00	 2.070338617102741e+00
 1.920910771227061e+00	 1.487332723777429e+00	 2.081464330245975e+00
 1.906376574098234e+00	 1.505916705297574e+00	 2.100142191432380e+00
 1.891654212804704e+00	 1.524369081444804e+00	 2.122161714645514e+00
 1.876745482315218e+00	 1.542687004159561e+00	 2.145738010100706e+00
 1.861652234360123e+00	 1.560867657689864e+00	 2.169146096494927e+00
 1.846376376694392e+00	 1.578908260007298e+00	 2.191014587223651e+00
 1.830919872318692e+00	 1.596806064203054e+00	 2.212962068568386e+00
 1.815284738659103e+00	 1.614558359862522e+00	 2.234278049095589e+00
 1.799473046706223e+00	 1.632162474417046e+00	 2.253375073656629e+00
 1.956487437762086e+00	 1.455046655610667e+00	 2.097025129944005e+00
 1.942283325035166e+00	 1.473953597459489e+00	 2.095505148423280e+00
 1.927886935461115e+00	 1.492734264289111e+00	 2.108910193268762e+00
 1.913299954544422e+00	 1.511385737183076e+00	 2.127787239727288e+00
 1.898524126107944e+00	 1.529905126753355e+00	 2.149568561644585e+00
 1.883561251639214e+00	 1.548289574597118e+00	 2.172555847040460e+00
 1.868413189593504e+00	 1.566536254736439e+00	 2.195110283859081e+00
 1.853081854654183e+00	 1.584642375039440e+00	 2.215660605985856e+00
 1.837569216950940e+00	 1.602605178621381e+00	 2.234562827455307e+00
 1.821877301236541e+00	 1.620421945224268e+00	 2.252786877587377e+00
 1.806008186022798e+00	 1.638089992573499e+00	 2.268818299403656e+00
 1.963567116545152e+00	 1.460311837863190e+00	 2.120304051291711e+00
 1.949311605299716e+00	 1.479287195727619e+00	 2.123363976489347e+00
 1.934863121440683e+00	 1.498135821638279e+00	 2.138373703044812e+00
 1.920223356571651e+00	 1.516854786116435e+00	 2.157386013585019e+00
 1.905394060825618e+00	 1.535441189318633e+00	 2.178704197180194e+00
 1.890377042208922e+00	 1.553892162498743e+00	 2.200753725103215e+00
 1.875174165901784e+00	 1.572204869452869e+00	 2.222019701368489e+00
 1.859787353515981e+00	 1.590376507945632e+00	 2.241054793596244e+00
 1.844218582310253e+00	 1.608404311116346e+00	 2.257006409709409e+00
 1.828469884364069e+00	 1.626285548863596e+00	 2.271736572047750e+00
 1.812543345710476e+00	 1.644017529206810e+00	 2.284381401363494e+00
 1.970646831437752e+00	 1.465577046970878e+00	 2.146313581953259e+00
 1.956339921411735e+00	 1.484620821199891e+00	 2.154130846152338e+00
 1.941839343002093e+00	 1.503537406538217e+00	 2.170135261292550e+00
 1.927146793911572e+00	 1.522323862944796e+00	 2.189158454298632e+00
 1.912264030583343e+00	 1.540977280120702e+00	 2.209733328693477e+00
 1.897192867542578e+00	 1.559494778976449e+00	 2.230445929920176e+00
 1.881935176694481e+00	 1.577873513082121e+00	 2.249942603602207e+00
 1.866492886579275e+00	 1.596110670098798e+00	 2.266937755481747e+00
 1.850867981584783e+00	 1.614203473189790e+00	 2.280231110745789e+00
 1.835062501117215e+00	 1.632149182410221e+00	 2.291032042388860e+00
 1.819078538730894e+00	 1.649945096073502e+00	 2.299937978960768e+00
 1.977726596481428e+00	 1.470842293376535e+00	 2.175483396161774e+00
 1.963368287310847e+00	 1.489954484454799e+00	 2.187546078083756e+00
 1.948815613981673e+00	 1.508939029702209e+00	 2.204477708485367e+00
 1.934070280295840e+00	 1.527792978515308e+00	 2.223327785359152e+00
 1.919134049006735e+00	 1.546513410139621e+00	 2.242824725618162e+00
 1.904008741158417e+00	 1.565097435142242e+00	 2.261751531263050e+00
 1.888696235381115e+00	 1.583542196867167e+00	 2.278952699786970e+00
 1.873198467143551e+00	 1.601844872871857e+00	 2.293341757659267e+00
 1.857517427962681e+00	 1.620002676343558e+00	 2.303909412828662e+00
 1.841655164571509e+00	 1.638012857493862e+00	 2.310578691419678e+00
 1.825613778045685e+00	 1.655872704930096e+00	 2.315362772099629e+00
 1.984806425717717e+00	 1.476107587522967e+00	 2.208235126770259e+00
 1.970396716936679e+00	 1.495288196070839e+00	 2.223889199802914e+00
 1.955791948215750e+00	 1.514340701843537e+00	 2.241686184230490e+00
 1.940993829456107e+00	 1.533262143675113e+00	 2.260120354566672e+00
 1.926004129721413e+00	 1.552049590355453e+00	 2.278151044765111e+00
 1.910824676574673e+00	 1.570700142108135e+00	 2.294794193139179e+00
 1.895457355371207e+00	 1.589210932050975e+00	 2.309128949934397e+00
 1.879904108508296e+00	 1.607579127637732e+00	 2.320304929068471e+00
 1.864166934632097e+00	 1.625801932079493e+00	 2.327550101105963e+00
 1.848247887802479e+00	 1.643876585744234e+00	 2.330282862812203e+00
 1.832149076616485e+00	 1.661800367533113e+00	 2.330532101507775e+00
 1.991886333188158e+00	 1.481372939852978e+00	 2.244982809608117e+00
 1.977425224228859e+00	 1.500621966626507e+00	 2.263510923326995e+00
 1.962768359540652e+00	 1.519742433675487e+00	 2.282047985895725e+00
 1.947917455124025e+00	 1.538731369271359e+00	 2.299765474740239e+00
 1.932874286352993e+00	 1.557585831748260e+00	 2.315888654627417e+00
 1.917640687309581e+00	 1.576302910986138e+00	 2.329701983102168e+00
 1.902218550074274e+00	 1.594879729876518e+00	 2.340555360464399e+00
 1.886609823972995e+00	 1.613313445769345e+00	 2.347871044710566e+00
 1.870816514781184e+00	 1.631601251899441e+00	 2.351151229741922e+00
 1.854840683885653e+00	 1.649740378791056e+00	 2.349986277554096e+00
 1.838684447404929e+00	 1.667728095639074e+00	 2.345324309284498e+00
 1.998966332934291e+00	 1.486638360809374e+00	 2.285758707748516e+00
 1.984453823127015e+00	 1.505955806700301e+00	 2.306763120857231e+00
 1.969744861792705e+00	 1.525144235911340e+00	 2.325852425519274e+00
 1.954841171031248e+00	 1.544200666151192e+00	 2.342495263052696e+00
 1.939744532527093e+00	 1.563122145298102e+00	 2.356217458623837e+00
 1.924456786881375e+00	 1.581905752888260e+00	 2.366607180788275e+00
 1.908979832899837e+00	 1.600548601586764e+00	 2.373320779317959e+00
 1.893315626837136e+00	 1.619047838639616e+00	 2.376089308518673e+00
 1.877466181598091e+00	 1.637400647305243e+00	 2.374725735683590e+00
 1.861433565896559e+00	 1.655604248264044e+00	 2.369132826535735e+00
 1.845219903372652e+00	 1.673655901004500e+00	 2.359620199681604e+00
 2.006046438997654e+00	 1.491903860834959e+00	 2.330569258569458e+00
 1.991482527570772e+00	 1.511289726870715e+00	 2.353998698799352e+00
 1.976721468808238e+00	 1.530546119264382e+00	 2.373390685036599e+00
 1.961764990909429e+00	 1.549670045161758e+00	 2.388544479015416e+00
 1.946614881869332e+00	 1.568658541985043e+00	 2.399320717297464e+00
 1.931272988808291e+00	 1.587508678926512e+00	 2.405646085687858e+00
 1.915741217257416e+00	 1.606217558424685e+00	 2.407518690561764e+00
 1.900021530400206e+00	 1.624782317621468e+00	 2.405014135956145e+00
 1.884115948270970e+00	 1.643200129798745e+00	 2.398292307525100e+00
 1.868026546910727e+00	 1.661468205792915e+00	 2.387604856455745e+00
 1.851755457481291e+00	 1.679583795385915e+00	 2.373303480146295e+00
 1.786402777339841e+00	 1.620307446508633e+00	 2.223356914633323e+00
 1.770535471667258e+00	 1.637631048877402e+00	 2.245011103737111e+00
 1.754497187434063e+00	 1.654802438530077e+00	 2.264283792712981e+00
 1.738290105200364e+00	 1.671819112362954e+00	 2.281210571967144e+00
 1.721916454862457e+00	 1.688678609927321e+00	 2.295852197918472e+00
 1.705378514623189e+00	 1.705378514623189e+00	 2.308289114337548e+00
 1.688678609927321e+00	 1.721916454862457e+00	 2.318614160846331e+00
 1.671819112362954e+00	 1.738290105200364e+00	 2.326923514324203e+00
 1.654802438530077e+00	 1.754497187434064e+00	 2.333305925306350e+00
 1.637631048877402e+00	 1.770535471667259e+00	 2.337830327415817e+00
 1.620307446508632e+00	 1.786402777339840e+00	 2.340531913313846e+00
 1.792937914799115e+00	 1.626234962980931e+00	 2.238178825008441e+00
 1.777012562293325e+00	 1.643621939704016e+00	 2.257149243915781e+00
 1.760915605741834e+00	 1.660856146876343e+00	 2.273614369234744e+00
 1.744649233681815e+00	 1.677935072237191e+00	 2.287707312899634e+00
 1.728215684167117e+00	 1.694856246336879e+00	 2.299587480085625e+00
 1.711617243734853e+00	 1.711617243734853e+00	 2.309434841501985e+00
 1.694856246336879e+00	 1.728215684167117e+00	 2.317442332279144e+00
 1.677935072237191e+00	 1.744649233681815e+00	 2.323806424426982e+00
 1.660856146876342e+00	 1.760915605741834e+00	 2.328715936640533e+00
 1.643621939704015e+00	 1.777012562293325e+00	 2.332339161634122e+00
 1.626234962980931e+00	 1.792937914799115e+00	 2.334809407065493e+00
 1.799473046706223e+00	 1.632162474417046e+00	 2.253375073656629e+00
 1.783489647416537e+00	 1.649612825440606e+00	 2.269503653643294e+00
 1.767334018596579e+00	 1.666909850079233e+00	 2.283084585791907e+00
 1.751008356760585e+00	 1.684051026915193e+00	 2.294331061959143e+00
 1.734514908119950e+00	 1.701033877497837e+00	 2.303484460920179e+00
 1.717855967546052e+00	 1.717855967546052e+00	 2.310808392622103e+00
 1.701033877497837e+00	 1.734514908119950e+00	 2.316580805894575e+00
 1.684051026915193e+00	 1.751008356760586e+00	 2.321084207807338e+00
 1.666909850079233e+00	 1.767334018596580e+00	 2.324594060133837e+00
 1.649612825440606e+00	 1.783489647416538e+00	 2.327365435246359e+00
 1.632162474417046e+00	 1.799473046706223e+00	 2.329618030097853e+00
 1.806008186022798e+00	 1.638089992573499e+00	 2.268818299403656e+00
 1.789966739883403e+00	 1.655603717969389e+00	 2.281917513395863e+00
 1.773752438728440e+00	 1.672963560145552e+00	 2.292512707992705e+00
 1.757367487049223e+00	 1.690166988527229e+00	 2.300879873953545e+00
 1.740814139214706e+00	 1.707211515662789e+00	 2.307325851880361e+00
 1.724094698430546e+00	 1.724094698430546e+00	 2.312182169286027e+00
 1.707211515662789e+00	 1.740814139214707e+00	 2.315796875383796e+00
 1.690166988527229e+00	 1.757367487049224e+00	 2.318524422980958e+00
 1.672963560145552e+00	 1.773752438728441e+00	 2.320713664612173e+00
 1.655603717969389e+00	 1.789966739883403e+00	 2.322694047387957e+00
 1.638089992573499e+00	 1.806008186022798e+00	 2.324760107824459e+00
 1.812543345710476e+00	 1.644017529206810e+00	 2.284381401363494e+00
 1.796443852540426e+00	 1.661594629172582e+00	 2.294234841385236e+00
 1.780170878867555e+00	 1.679017289082106e+00	 2.301718310391965e+00
 1.763726637160278e+00	 1.696282969203571e+00	 2.307153475146741e+00
 1.747113389945136e+00	 1.713389173084329e+00	 2.310896287390137e+00
 1.730333448762094e+00	 1.730333448762094e+00	 2.313330634428426e+00
 1.713389173084329e+00	 1.747113389945137e+00	 2.314859919077362e+00
 1.696282969203571e+00	 1.763726637160278e+00	 2.315896619519430e+00
 1.679017289082106e+00	 1.780170878867556e+00	 2.316849897880229e+00
 1.661594629172582e+00	 1.796443852540427e+00	 2.318111344155705e+00
 1.644017529206810e+00	 1.812543345710476e+00	 2.320038959385831e+00
 1.819078538730894e+00	 1.649945096073502e+00	 2.299937978960768e+00
 1.802920998234117e+00	 1.667585570932400e+00	 2.306300926116427e+00
 1.786589351744064e+00	 1.685071048895701e+00	 2.310522702522238e+00
 1.770085819706298e+00	 1.702398981074488e+00	 2.312953683745099e+00
 1.753412672804990e+00	 1.719566862015051e+00	 2.313982740806575e+00
 1.736572230914457e+00	 1.736572230914456e+00	 2.314030724847927e+00
 1.719566862015051e+00	 1.753412672804990e+00	 2.313541810125083e+00
 1.702398981074488e+00	 1.770085819706299e+00	 2.312972747048096e+00
 1.685071048895701e+00	 1.786589351744065e+00	 2.312780095735552e+00
 1.667585570932400e+00	 1.802920998234117e+00	 2.313405528878770e+00
 1.649945096073502e+00	 1.819078538730894e+00	 2.315259310460196e+00
 1.825613778045685e+00	 1.655872704930096e+00	 2.315362772099629e+00
 1.809398189810981e+00	 1.673576555131060e+00	 2.317962759282592e+00
 1.793007870088108e+00	 1.691124851593142e+00	 2.318749355422175e+00
 1.776445047299832e+00	 1.708515036270250e+00	 2.318084831009626e+00
 1.759712000288018e+00	 1.725744594707550e+00	 2.316374941108786e+00
 1.742811057261392e+00	 1.742811057261392e+00	 2.314062264508428e+00
 1.725744594707550e+00	 1.759712000288017e+00	 2.311617327487670e+00
 1.708515036270250e+00	 1.776445047299833e+00	 2.309527565048159e+00
 1.691124851593141e+00	 1.793007870088108e+00	 2.308284191743205e+00
 1.673576555131060e+00	 1.809398189810981e+00	 2.308367073069598e+00
 1.655872704930096e+00	 1.825613778045685e+00	 2.310227706635627e+00
 1.832149076616485e+00	 1.661800367533113e+00	 2.330532101507775e+00
 1.815875440117524e+00	 1.679567593650777e+00	 2.329069469021102e+00
 1.799426446629824e+00	 1.697178709181232e+00	 2.326224328682194e+00
 1.782804332553428e+00	 1.714631146921127e+00	 2.322354183010653e+00
 1.766011384887967e+00	 1.731922383414419e+00	 2.317865790322837e+00
 1.749049940176661e+00	 1.749049940176661e+00	 2.313208378637012e+00
 1.731922383414419e+00	 1.766011384887968e+00	 2.308864567752017e+00
 1.714631146921127e+00	 1.782804332553428e+00	 2.305339053474990e+00
 1.697178709181232e+00	 1.799426446629825e+00	 2.303145127783810e+00
 1.679567593650777e+00	 1.815875440117524e+00	 2.302789128069281e+00
 1.661800367533113e+00	 1.832149076616485e+00	 2.304752927360791e+00
 1.838684447404929e+00	 1.667728095639074e+00	 2.345324309284498e+00
 1.822352762000254e+00	 1.685558698373769e+00	 2.339472753555068e+00
 1.805845094099354e+00	 1.703232633666778e+00	 2.332776698027910e+00
 1.789163688079636e+00	 1.720747325157391e+00	 2.325572363042399e+00
 1.772310839098592e+00	 1.738100240388253e+00	 2.318251781697525e+00
 1.755288892034023e+00	 1.755288892034023e+00	 2.311255908631828e+00
 1.738100240388253e+00	 1.772310839098592e+00	 2.305065357782619e+00
 1.720747325157391e+00	 1.789163688079636e+00	 2.300188824205057e+00
 1.703232633666778e+00	 1.805845094099354e+00	 2.297149265388283e+00
 1.685558698373769e+00	 1.822352762000255e+00	 2.296467937402370e+00
 1.667728095639074e+00	 1.838684447404929e+00	 2.298646400491946e+00
 1.845219903372652e+00	 1.673655901004500e+00	 2.359620199681604e+00
 1.828830168305679e+00	 1.691549881182252e+00	 2.349027315244835e+00
 1.812263825226835e+00	 1.709286637056585e+00	 2.338238983461979e+00
 1.795523126491003e+00	 1.726863583109311e+00	 2.327553774715025e+00
 1.778610375413639e+00	 1.744278177881645e+00	 2.317333418646370e+00
 1.761527925207237e+00	 1.761527925207236e+00	 2.307995827793624e+00
 1.744278177881645e+00	 1.778610375413639e+00	 2.300005668222134e+00
 1.726863583109311e+00	 1.795523126491003e+00	 2.293862533324564e+00
 1.709286637056585e+00	 1.812263825226835e+00	 2.290086797873108e+00
 1.691549881182251e+00	 1.828830168305679e+00	 2.289203249856679e+00
 1.673655901004501e+00	 1.845219903372653e+00	 2.291722617454181e+00
 1.851755457481291e+00	 1.679583795385915e+00	 2.373303480146295e+00
 1.835307671880304e+00	 1.697541153958441e+00	 2.357591295074111e+00
 1.818682652742408e+00	 1.715340731357458e+00	 2.342447577985537e+00
 1.801882660400078e+00	 1.732979932907158e+00	 2.328117025742354e+00
 1.784910006326859e+00	 1.750456208147191e+00	 2.314915634471768e+00
 1.767767052070063e+00	 1.767767052070063e+00	 2.303223657895451e+00
 1.750456208147191e+00	 1.784910006326859e+00	 2.293476027854667e+00
 1.732979932907157e+00	 1.801882660400079e+00	 2.286150294273343e+00
 1.715340731357458e+00	 1.818682652742409e+00	 2.281752163290537e+00
 1.697541153958441e+00	 1.835307671880305e+00	 2.280798733304052e+00
 1.679583795385915e+00	 1.851755457481291e+00	 2.283799549035330e+00
 1.620307446508632e+00	 1.786402777339840e+00	 2.340531913313846e+00
 1.602831197452906e+00	 1.802099622852383e+00	 2.341452728807280e+00
 1.585207843588931e+00	 1.817621192482791e+00	 2.341239234604253e+00
 1.567440038073481e+00	 1.832965430282893e+00	 2.340723853029454e+00
 1.549530471634388e+00	 1.848130333479974e+00	 2.340621465813142e+00
 1.531481871228615e+00	 1.863113953331426e+00	 2.340742235223717e+00
 1.513296998677638e+00	 1.877914395939054e+00	 2.339516101080005e+00
 1.494978649281560e+00	 1.892529823022367e+00	 2.336990872147100e+00
 1.476529650413391e+00	 1.906958452650191e+00	 2.333263668966956e+00
 1.457952860094977e+00	 1.921198559930042e+00	 2.327763449364896e+00
 1.439251165556041e+00	 1.935248477654719e+00	 2.320765772752845e+00
 1.626234962980931e+00	 1.792937914799115e+00	 2.334809407065493e+00
 1.608694781148641e+00	 1.808692183556226e+00	 2.336190266926173e+00
 1.591006956359519e+00	 1.824270535225360e+00	 2.337020084170115e+00
 1.573174151476286e+00	 1.839670906337124e+00	 2.338035341286371e+00
 1.555199067070170e+00	 1.854891286792119e+00	 2.339806279291927e+00
 1.537084440074064e+00	 1.869929720718700e+00	 2.341035766140766e+00
 1.518833042412919e+00	 1.884784307290279e+00	 2.340961749649984e+00
 1.500447679612785e+00	 1.899453201501433e+00	 2.339606992392918e+00
 1.481931189389951e+00	 1.913934614902196e+00	 2.337007455610019e+00
 1.463286440221664e+00	 1.928226816289955e+00	 2.332765291314570e+00
 1.444516329899898e+00	 1.942328132358409e+00	 2.326748802982909e+00
 1.632162474417046e+00	 1.799473046706223e+00	 2.329618030097853e+00
 1.614558359862523e+00	 1.815284738659102e+00	 2.331450752516732e+00
 1.596806064203055e+00	 1.830919872318692e+00	 2.333318539439618e+00
 1.578908260007299e+00	 1.846376376694392e+00	 2.335867289851998e+00
 1.560867657689864e+00	 1.861652234360122e+00	 2.339113728059559e+00
 1.542687004159562e+00	 1.876745482315218e+00	 2.341429324088393e+00
 1.524369081444804e+00	 1.891654212804703e+00	 2.342572682906167e+00
 1.505916705297575e+00	 1.906376574098233e+00	 2.342463606447030e+00
 1.487332723777430e+00	 1.920910771227060e+00	 2.341036228481451e+00
 1.468620015817002e+00	 1.935255066678453e+00	 2.338046526821922e+00
 1.449781489770505e+00	 1.949407781047018e+00	 2.333072750559375e+00
 1.638089992573499e+00	 1.806008186022798e+00	 2.324760107824459e+00
 1.620421945224269e+00	 1.821877301236541e+00	 2.327056116934032e+00
 1.602605178621382e+00	 1.837569216950939e+00	 2.329974486064410e+00
 1.584642375039440e+00	 1.853081854654181e+00	 2.334069106810734e+00
 1.566536254736441e+00	 1.868413189593503e+00	 2.338388821760372e+00
 1.548289574597119e+00	 1.883561251639213e+00	 2.341863259303252e+00
 1.529905126753356e+00	 1.898524126107945e+00	 2.344301871683186e+00
 1.511385737183076e+00	 1.913299954544421e+00	 2.345524860751939e+00
 1.492734264289112e+00	 1.927886935461114e+00	 2.345367721407313e+00
 1.473953597459490e+00	 1.942283325035165e+00	 2.343627314774644e+00
 1.455046655610668e+00	 1.956487437762086e+00	 2.339771305573185e+00
 1.644017529206810e+00	 1.812543345710476e+00	 2.320038959385831e+00
 1.626285548863596e+00	 1.828469884364069e+00	 2.322828765784223e+00
 1.608404311116347e+00	 1.844218582310253e+00	 2.326827755023148e+00
 1.590376507945633e+00	 1.859787353515980e+00	 2.332235397078681e+00
 1.572204869452870e+00	 1.875174165901783e+00	 2.337563557416628e+00
 1.553892162498744e+00	 1.890377042208922e+00	 2.342283386586113e+00
 1.535441189318634e+00	 1.905394060825617e+00	 2.346107570585817e+00
 1.516854786116435e+00	 1.920223356571650e+00	 2.348760030889091e+00
 1.498135821638280e+00	 1.934863121440682e+00	 2.349980771065276e+00
 1.479287195727621e+00	 1.949311605299715e+00	 2.349526610148224e+00
 1.460311837863190e+00	 1.963567116545151e+00	 2.346876694291041e+00
 1.649945096073502e+00	 1.819078538730894e+00	 2.315259310460196e+00
 1.632149182410222e+00	 1.835062501117215e+00	 2.318591994589452e+00
 1.614203473189791e+00	 1.850867981584783e+00	 2.323718540456758e+00
 1.596110670098798e+00	 1.866492886579275e+00	 2.330137620294733e+00
 1.577873513082122e+00	 1.881935176694480e+00	 2.336575431122819e+00
 1.559494778976449e+00	 1.897192867542578e+00	 2.342640819001852e+00
 1.540977280120702e+00	 1.912264030583342e+00	 2.347953157626825e+00
 1.522323862944797e+00	 1.927146793911572e+00	 2.352143366918935e+00
 1.503537406538218e+00	 1.941839343002092e+00	 2.354859065544404e+00
 1.484620821199892e+00	 1.956339921411734e+00	 2.355769947644459e+00
 1.465577046970878e+00	 1.970646831437753e+00	 2.354419891547217e+00
 1.655872704930096e+00	 1.825613778045685e+00	 2.310227706635627e+00
 1.638012857493863e+00	 1.841655164571509e+00	 2.314170404879343e+00
 1.620002676343559e+00	 1.857517427962680e+00	 2.320378717327566e+00
 1.601844872871858e+00	 1.873198467143551e+00	 2.327703891419110e+00
 1.583542196867167e+00	 1.888696235381115e+00	 2.335367265870120e+00
 1.565097435142243e+00	 1.904008741158417e+00	 2.342891801769618e+00
 1.546513410139622e+00	 1.919134049006734e+00	 2.349806973967068e+00
 1.527792978515308e+00	 1.934070280295839e+00	 2.355653938743504e+00
 1.508939029702210e+00	 1.948815613981673e+00	 2.359990995091006e+00
 1.489954484454800e+00	 1.963368287310846e+00	 2.362399278822525e+00
 1.470842293376535e+00	 1.977726596481428e+00	 2.362430832744565e+00
 1.661800367533113e+00	 1.832149076616485e+00	 2.304752927360791e+00
 1.643876585744235e+00	 1.848247887802478e+00	 2.309390320729284e+00
 1.625801932079494e+00	 1.864166934632097e+00	 2.316502734904934e+00
 1.607579127637734e+00	 1.879904108508296e+00	 2.324867694709206e+00
 1.589210932050976e+00	 1.895457355371206e+00	 2.333887039643066e+00
 1.570700142108137e+00	 1.910824676574673e+00	 2.342997546331984e+00
 1.552049590355453e+00	 1.926004129721411e+00	 2.351642163749153e+00
 1.533262143675114e+00	 1.940993829456106e+00	 2.359275481485001e+00
 1.514340701843538e+00	 1.955791948215751e+00	 2.365369502801057e+00
 1.495288196070840e+00	 1.970396716936678e+00	 2.369419659669471e+00
 1.476107587522967e+00	 1.984806425717717e+00	 2.370938625487976e+00
 1.667728095639074e+00	 1.838684447404929e+00	 2.298646400491946e+00
 1.649740378791057e+00	 1.854840683885652e+00	 2.304060563248137e+00
 1.631601251899442e+00	 1.870816514781183e+00	 2.312009937535008e+00
 1.613313445769345e+00	 1.886609823972994e+00	 2.321567706004020e+00
 1.594879729876519e+00	 1.902218550074273e+00	 2.332087713774742e+00
 1.576302910986139e+00	 1.917640687309579e+00	 2.342924064591942e+00
 1.557585831748260e+00	 1.932874286352992e+00	 2.353436514015840e+00
 1.538731369271360e+00	 1.947917455124025e+00	 2.362996240873826e+00
 1.519742433675487e+00	 1.962768359540651e+00	 2.370991935254561e+00
 1.500621966626508e+00	 1.977425224228858e+00	 2.376836138185412e+00
 1.481372939852978e+00	 1.991886333188159e+00	 2.379971760873253e+00
 1.673655901004501e+00	 1.845219903372653e+00	 2.291722617454181e+00
 1.655604248264045e+00	 1.861433565896558e+00	 2.297894865874440e+00
 1.637400647305244e+00	 1.877466181598091e+00	 2.306828762094754e+00
 1.619047838639617e+00	 1.893315626837136e+00	 2.317747615348908e+00
 1.600548601586765e+00	 1.908979832899837e+00	 2.329927061546787e+00
 1.581905752888261e+00	 1.924456786881373e+00	 2.342642003306509e+00
 1.563122145298103e+00	 1.939744532527093e+00	 2.355172294704297e+00
 1.544200666151193e+00	 1.954841171031247e+00	 2.366808818639175e+00
 1.525144235911341e+00	 1.969744861792704e+00	 2.376859893087015e+00
 1.505955806700301e+00	 1.984453823127014e+00	 2.384657939284039e+00
 1.486638360809374e+00	 1.998966332934291e+00	 2.389566342208541e+00
 1.679583795385915e+00	 1.851755457481291e+00	 2.283799549035330e+00
 1.661468205792916e+00	 1.868026546910726e+00	 2.290776717665449e+00
 1.643200129798746e+00	 1.884115948270970e+00	 2.300892703975815e+00
 1.624782317621469e+00	 1.900021530400205e+00	 2.313355949944465e+00
 1.606217558424685e+00	 1.915741217257415e+00	 2.327367497020670e+00
 1.587508678926513e+00	 1.931272988808290e+00	 2.342126478625775e+00
 1.568658541985044e+00	 1.946614881869331e+00	 2.356836098707234e+00
 1.549670045161758e+00	 1.961764990909427e+00	 2.370710017895439e+00
 1.530546119264383e+00	 1.976721468808237e+00	 2.382979081492978e+00
 1.511289726870716e+00	 1.991482527570771e+00	 2.392898320194213e+00
 1.491903860834959e+00	 2.006046438997654e+00	 2.399754151679680e+00
 1.439251165556041e+00	 1.935248477654719e+00	 2.320765772752845e+00
 1.420430689883295e+00	 1.949104258986799e+00	 2.312104231825971e+00
 1.401491195608220e+00	 1.962766765633880e+00	 2.301458549166640e+00
 1.382435636742910e+00	 1.976234515467395e+00	 2.289305665408974e+00
 1.363266990660228e+00	 1.989506086103192e+00	 2.276159262649876e+00
 1.343988256597493e+00	 2.002580115325494e+00	 2.262562904229316e+00
 1.324602454152328e+00	 2.015455301466298e+00	 2.249082813400799e+00
 1.305112621772200e+00	 2.028130403740125e+00	 2.236300376286395e+00
 1.285521815239164e+00	 2.040604242534051e+00	 2.224804455191738e+00
 1.265833106151362e+00	 2.052875699653055e+00	 2.215183598344043e+00
 1.246049580402761e+00	 2.064943718520748e+00	 2.208018231422306e+00
 1.444516329899898e+00	 1.942328132358409e+00	 2.326748802982909e+00
 1.425627003911244e+00	 1.956234601831544e+00	 2.318762965824237e+00
 1.406618223918459e+00	 1.969947089569313e+00	 2.308551994683688e+00
 1.387492954740202e+00	 1.983464108021129e+00	 2.296608538950965e+00
 1.368254184641359e+00	 1.996784229599385e+00	 2.283466284031079e+00
 1.348904923831258e+00	 2.009906087104953e+00	 2.269692757141434e+00
 1.329448202954018e+00	 2.022828374107992e+00	 2.255881758908082e+00
 1.309887071572554e+00	 2.035549845283895e+00	 2.242645508918285e+00
 1.290224596647790e+00	 2.048069316704405e+00	 2.230606594086442e+00
 1.270463861014590e+00	 2.060385666083846e+00	 2.220389808678402e+00
 1.250607961855945e+00	 2.072497832980598e+00	 2.212613974127259e+00
 1.449781489770505e+00	 1.949407781047018e+00	 2.333072750559375e+00
 1.430823313524385e+00	 1.963364938618164e+00	 2.325849965473994e+00
 1.411745247872682e+00	 1.977127407404194e+00	 2.316188291094937e+00
 1.392550268440615e+00	 1.990693694432500e+00	 2.304592093829679e+00
 1.373241374385091e+00	 2.004062366912016e+00	 2.291610773307477e+00
 1.353821586887445e+00	 2.017232052660270e+00	 2.277831233125137e+00
 1.334293947638286e+00	 2.030201440485568e+00	 2.263869964488703e+00
 1.314661517315975e+00	 2.042969280524185e+00	 2.250364833717000e+00
 1.294927374060298e+00	 2.055534384532526e+00	 2.237966665291501e+00
 1.275094611942843e+00	 2.067895626134259e+00	 2.227330712124705e+00
 1.255166339435620e+00	 2.080051941022524e+00	 2.219108103987803e+00
 1.455046655610668e+00	 1.956487437762086e+00	 2.339771305573185e+00
 1.436019629028974e+00	 1.970495283488694e+00	 2.333409616749658e+00
 1.416872277639734e+00	 1.984307733379644e+00	 2.324418606942649e+00
 1.397607587874744e+00	 1.997923289040297e+00	 2.313310443610862e+00
 1.378228569782952e+00	 2.011340512476121e+00	 2.300646031464558e+00
 1.358738255517717e+00	 2.024558026521287e+00	 2.287027146826641e+00
 1.339139697816155e+00	 2.037574515222249e+00	 2.273088172167208e+00
 1.319435968472098e+00	 2.050388724176148e+00	 2.259487524633476e+00
 1.299630156804209e+00	 2.062999460824042e+00	 2.246898873134020e+00
 1.279725368120817e+00	 2.075405594698941e+00	 2.236002238522858e+00
 1.259724722182968e+00	 2.087606057628739e+00	 2.227475070677141e+00
 1.460311837863190e+00	 1.963567116545151e+00	 2.346876694291041e+00
 1.441215960731266e+00	 1.977625650585169e+00	 2.341484609187242e+00
 1.421999323388458e+00	 1.991488081736780e+00	 2.333292225635249e+00
 1.402664923073184e+00	 2.005152906183309e+00	 2.322815672009433e+00
 1.383215780726468e+00	 2.018618680726732e+00	 2.310623228950723e+00
 1.363654939473737e+00	 2.031884023217855e+00	 2.297327125742237e+00
 1.343985463098657e+00	 2.044947612941254e+00	 2.283574924309483e+00
 1.324210434510562e+00	 2.057808190954932e+00	 2.270040587571727e+00
 1.304332954207041e+00	 2.070464560384583e+00	 2.257415329626024e+00
 1.284356138733202e+00	 2.082915586672545e+00	 2.246398345230275e+00
 1.264283119139172e+00	 2.095160197781454e+00	 2.237687515278546e+00
 1.465577046970878e+00	 1.970646831437753e+00	 2.354419891547217e+00
 1.446412318937514e+00	 1.984756054049619e+00	 2.350116147228565e+00
 1.427126395287697e+00	 1.998668466716727e+00	 2.342856754648340e+00
 1.407722284066526e+00	 2.012382560200324e+00	 2.333158038871042e+00
 1.388203017107165e+00	 2.025896886098884e+00	 2.321591607383537e+00
 1.368571648507170e+00	 2.039210057279816e+00	 2.308775806614506e+00
 1.348831253096814e+00	 2.052320748265806e+00	 2.295366753696245e+00
 1.328984924901005e+00	 2.065227695575687e+00	 2.282049043149714e+00
 1.309035775596313e+00	 2.077929698019778e+00	 2.269526228946419e+00
 1.288986932964694e+00	 2.090425616949720e+00	 2.258511182382938e+00
 1.268841539345415e+00	 2.102714376462878e+00	 2.249716425408498e+00
 1.470842293376535e+00	 1.977726596481428e+00	 2.362430832744565e+00
 1.451608713953973e+00	 1.991886508024080e+00	 2.359344161127205e+00
 1.432253503506297e+00	 2.005848902560599e+00	 2.353158334260759e+00
 1.412779680885367e+00	 2.019612265430133e+00	 2.344386185682616e+00
 1.393190288816572e+00	 2.033175143027612e+00	 2.333598680799105e+00
 1.373488392369677e+00	 2.046536143237021e+00	 2.321416031405855e+00
 1.353677077421653e+00	 2.059693935819125e+00	 2.308498373227772e+00
 1.333759449113063e+00	 2.072647252753565e+00	 2.295536109164846e+00
 1.313738630299546e+00	 2.085394888535254e+00	 2.283240021720083e+00
 1.293617759999985e+00	 2.097935700425118e+00	 2.272331258064806e+00
 1.273399991842879e+00	 2.110268608655223e+00	 2.263531290377807e+00
 1.476107587522967e+00	 1.984806425717717e+00	 2.370938625487976e+00
 1.456805156086899e+00	 1.999017026650585e+00	 2.369207517440276e+00
 1.437380658213101e+00	 2.013029403509521e+00	 2.364241845850134e+00
 1.417837123560299e+00	 2.026842036211524e+00	 2.356547340636033e+00
 1.398177605746213e+00	 2.040453465947948e+00	 2.346690436468075e+00
 1.378405180812923e+00	 2.053862295619314e+00	 2.335289042871643e+00
 1.358522945684203e+00	 2.067067190224433e+00	 2.323002865280404e+00
 1.338534016616374e+00	 2.080066877203715e+00	 2.310523382782296e+00
 1.318441527644256e+00	 2.092860146736642e+00	 2.298563589109393e+00
 1.298248629023769e+00	 2.105445851993389e+00	 2.287847603397675e+00
 1.277958485672748e+00	 2.117822909340700e+00	 2.279100256399145e+00
 1.481372939852978e+00	 1.991886333188159e+00	 2.379971760873253e+00
 1.462001655642545e+00	 2.006147624071168e+00	 2.379744229129908e+00
 1.442507869576952e+00	 2.020209983804609e+00	 2.376151119772130e+00
 1.422894622121917e+00	 2.034071886883286e+00	 2.369687523269021e+00
 1.403164977787615e+00	 2.047731869294926e+00	 2.360911535301545e+00
 1.383322023588571e+00	 2.061188528956543e+00	 2.350434679754890e+00
 1.363368867495488e+00	 2.074440526104949e+00	 2.338911870735015e+00
 1.343308636880578e+00	 2.087486583641289e+00	 2.327031022464121e+00
 1.323144476957965e+00	 2.100325487429569e+00	 2.315502416733583e+00
 1.302879549220739e+00	 2.112956086549184e+00	 2.305047937563546e+00
 1.282517029876202e+00	 2.125377293501519e+00	 2.296390281849303e+00
 1.486638360809374e+00	 1.998966332934291e+00	 2.389566342208541e+00
 1.467198222927167e+00	 2.013278314427861e+00	 2.390991665297957e+00
 1.447635147766694e+00	 2.027390657686983e+00	 2.388929142847217e+00
 1.427952186600815e+00	 2.041301831784208e+00	 2.383851748706787e+00
 1.408152414832305e+00	 2.055010367503580e+00	 2.376305511869751e+00
 1.388238930448284e+00	 2.068514857778556e+00	 2.366891571624258e+00
 1.368214852466535e+00	 2.081813958083897e+00	 2.356255777697481e+00
 1.348083319375309e+00	 2.094906386781437e+00	 2.345077929657069e+00
 1.327847487568191e+00	 2.107790925419665e+00	 2.334060768430972e+00
 1.307510529775588e+00	 2.120466418987153e+00	 2.323918832771592e+00
 1.287075633494425e+00	 2.132931776119891e+00	 2.315367292594711e+00
 1.491903860834959e+00	 2.006046438997654e+00	 2.399754151679680e+00
 1.472394868247019e+00	 2.020409111862701e+00	 2.402986760577171e+00
 1.452762502951173e+00	 2.034571439397765e+00	 2.402618265478475e+00
 1.433009827027587e+00	 2.048531885253080e+00	 2.399084231527804e+00
 1.413139926771811e+00	 2.062288975008945e+00	 2.392914974056177e+00
 1.393155911143727e+00	 2.075841296615197e+00	 2.384697333376802e+00
 1.373060910208370e+00	 2.089187500784497e+00	 2.375063909930914e+00
 1.352858073570207e+00	 2.102326301339310e+00	 2.364681930256591e+00
 1.332550568802453e+00	 2.115256475512560e+00	 2.354241859879249e+00
 1.312141579873011e+00	 2.127976864201947e+00	 2.344445879181734e+00
 1.291634305568600e+00	 2.140486372178028e+00	 2.335996337388783e+00
 1.246049580402761e+00	 2.064943718520748e+00	 2.208018231422306e+00
 1.226174337050922e+00	 2.076807304836466e+00	 2.204128996287825e+00
 1.206210487937536e+00	 2.088465528197159e+00	 2.203689224927448e+00
 1.186161154962849e+00	 2.099917520674204e+00	 2.206280127750922e+00
 1.166029468177675e+00	 2.111162476335520e+00	 2.211454892627029e+00
 1.145818564275578e+00	 2.122199651223106e+00	 2.218733124773228e+00
 1.125531585092219e+00	 2.133028363287593e+00	 2.227595704011758e+00
 1.105171676113252e+00	 2.143647992280263e+00	 2.237519660560917e+00
 1.084741984992152e+00	 2.154057979603053e+00	 2.248466982723464e+00
 1.064245660079300e+00	 2.164257828117093e+00	 2.259739598742286e+00
 1.043685848963648e+00	 2.174247101910407e+00	 2.270371859329114e+00
 1.250607961855945e+00	 2.072497832980598e+00	 2.212613974127259e+00
 1.230660009566597e+00	 2.084404819456578e+00	 2.208135686487614e+00
 1.210623127372194e+00	 2.096105691705081e+00	 2.207127731536275e+00
 1.190500448593738e+00	 2.107599578622377e+00	 2.209153690967277e+00
 1.170295114732616e+00	 2.118885671328077e+00	 2.213745396235264e+00
 1.150010273957265e+00	 2.129963223142588e+00	 2.220397161069076e+00
 1.129649079597029e+00	 2.140831549521430e+00	 2.228560449180367e+00
 1.109214688644601e+00	 2.151490027946855e+00	 2.237643430712324e+00
 1.088710260268422e+00	 2.161938097777303e+00	 2.247537122189008e+00
 1.068138954336392e+00	 2.172175260055249e+00	 2.257710727263123e+00
 1.047503929952193e+00	 2.182201077274037e+00	 2.267159093233823e+00
 1.255166339435620e+00	 2.080051941022524e+00	 2.219108103987803e+00
 1.235145678270545e+00	 2.092002327621830e+00	 2.214165086741789e+00
 1.215035763057208e+00	 2.103745848721818e+00	 2.212656427461174e+00
 1.194839738537355e+00	 2.115281630043663e+00	 2.214135410053703e+00
 1.174560757662927e+00	 2.126608859758675e+00	 2.218120347630798e+00
 1.154201980077221e+00	 2.137726788465682e+00	 2.224088582807765e+00
 1.133766570603250e+00	 2.148634729125098e+00	 2.231470940829265e+00
 1.113257697740729e+00	 2.159332056950159e+00	 2.239646701288554e+00
 1.092678532173051e+00	 2.169818209255818e+00	 2.248349225260732e+00
 1.072032245285615e+00	 2.180092685265895e+00	 2.257282278546640e+00
 1.051322007696823e+00	 2.190155045879068e+00	 2.265416486735634e+00
 1.259724722182968e+00	 2.087606057628739e+00	 2.227475070677141e+00
 1.239631352059773e+00	 2.099599844400525e+00	 2.222171602742637e+00
 1.219448403744773e+00	 2.111386014400290e+00	 2.220215650270040e+00
 1.199179033400460e+00	 2.122963690174114e+00	 2.221157474623608e+00
 1.178826405429338e+00	 2.134332056945007e+00	 2.224509648492100e+00
 1.158393690949570e+00	 2.145490362590221e+00	 2.229740799028437e+00
 1.137884066277844e+00	 2.156437917575067e+00	 2.236269821255576e+00
 1.117300711420901e+00	 2.167174094843761e+00	 2.243460629560888e+00
 1.096646808577096e+00	 2.177698329667776e+00	 2.250891755150141e+00
 1.075925540649335e+00	 2.188010119452279e+00	 2.258468454729242e+00
 1.055140089770742e+00	 2.198109023501284e+00	 2.265188751221004e+00
 1.264283119139172e+00	 2.095160197781454e+00	 2.237687515278546e+00
 1.244117039831291e+00	 2.107197384860966e+00	 2.232107973974483e+00
 1.223861058187084e+00	 2.119026203893420e+00	 2.229744127998257e+00
 1.203518341789813e+00	 2.130645774249785e+00	 2.230150437766669e+00
 1.183092066492579e+00	 2.142055278204773e+00	 2.232841455400365e+00
 1.162585414888433e+00	 2.153253960914042e+00	 2.237285285641788e+00
 1.142001574787768e+00	 2.164241130347803e+00	 2.242897534299835e+00
 1.121343737704383e+00	 2.175016157181246e+00	 2.249035814182353e+00
 1.100615097351618e+00	 2.185578474642356e+00	 2.255150352348114e+00
 1.079818848149918e+00	 2.195927578317649e+00	 2.261280725274765e+00
 1.058958183747156e+00	 2.206063025916469e+00	 2.266517877530314e+00
 1.268841539345415e+00	 2.102714376462878e+00	 2.249716425408498e+00
 1.248602750482110e+00	 2.114794964071461e+00	 2.243925418984414e+00
 1.228273735136334e+00	 2.126666432354128e+00	 2.241179116028703e+00
 1.207857672312177e+00	 2.138327897506732e+00	 2.241043345984858e+00
 1.187357749313378e+00	 2.149778538855662e+00	 2.243042304262383e+00
 1.166777160207932e+00	 2.161017598834980e+00	 2.246651705753555e+00
 1.146119104299984e+00	 2.172044382919772e+00	 2.251292442966015e+00
 1.125386784610441e+00	 2.182858259516197e+00	 2.256324820956779e+00
 1.104583406367679e+00	 2.193458659808738e+00	 2.261107655086543e+00
 1.083712175509730e+00	 2.203845077565252e+00	 2.265727659119041e+00
 1.062776297199268e+00	 2.214017068900405e+00	 2.269442981067070e+00
 1.273399991842879e+00	 2.110268608655223e+00	 2.263531290377807e+00
 1.253088492909236e+00	 2.122392597100309e+00	 2.257573780812881e+00
 1.232686443344719e+00	 2.134306714935336e+00	 2.254456534220033e+00
 1.212197033574312e+00	 2.146010075181008e+00	 2.253763869432167e+00
 1.191623462352465e+00	 2.157501854215372e+00	 2.255037235060095e+00
 1.170968935222188e+00	 2.168781291750868e+00	 2.257768030306009e+00
 1.150236662981452e+00	 2.179847690767441e+00	 2.261390947319637e+00
 1.129429860158340e+00	 2.190700417402196e+00	 2.265277909593506e+00
 1.108551743496338e+00	 2.201338900796103e+00	 2.268743119882006e+00
 1.087605530451137e+00	 2.211762632898337e+00	 2.271814756790579e+00
 1.066594437700285e+00	 2.221971168228874e+00	 2.274000146748496e+00
 1.277958485672748e+00	 2.117822909340700e+00	 2.279100256399145e+00
 1.257574276009680e+00	 2.129990299015816e+00	 2.273001672588954e+00
 1.237099191564434e+00	 2.141947066789965e+00	 2.269511104285219e+00
 1.216536434182979e+00	 2.153692322508668e+00	 2.268238432458130e+00
 1.195889214070570e+00	 2.165225239601598e+00	 2.268749916925951e+00
 1.175160748245324e+00	 2.176545055059541e+00	 2.270560659036175e+00
 1.154354258999130e+00	 2.187651069367277e+00	 2.273127602663214e+00
 1.133472972367345e+00	 2.198542646392831e+00	 2.275843150416724e+00
 1.112520116608656e+00	 2.209219213233629e+00	 2.278029465766205e+00
 1.091498920696506e+00	 2.219680260020150e+00	 2.279544282493264e+00
 1.070412612823410e+00	 2.229925339677661e+00	 2.280412954701099e+00
 1.282517029876202e+00	 2.125377293501519e+00	 2.296390281849303e+00
 1.262060108680452e+00	 2.137588084886287e+00	 2.290156623295139e+00
 1.241511988547674e+00	 2.149587503070936e+00	 2.286276487422634e+00
 1.220875882744938e+00	 2.161374654725766e+00	 2.284392344455593e+00
 1.200155012928422e+00	 2.172948710332034e+00	 2.284102773543430e+00
 1.179352607591461e+00	 2.184308904158836e+00	 2.284954541750011e+00
 1.158471900519980e+00	 2.195454534195747e+00	 2.286435237988749e+00
 1.137516129256721e+00	 2.206384962041680e+00	 2.287966541283887e+00
 1.116488533575692e+00	 2.217099612750496e+00	 2.288898196383998e+00
 1.095392353968202e+00	 2.227597974633942e+00	 2.288994666965093e+00
 1.074230830141849e+00	 2.237879599022548e+00	 2.288895223373056e+00
 1.287075633494425e+00	 2.132931776119891e+00	 2.315367292594711e+00
 1.266545999818560e+00	 2.145185969780024e+00	 2.308985223706846e+00
 1.245924843046632e+00	 2.157228038931172e+00	 2.304685422202232e+00
 1.225215387866951e+00	 2.169057087068357e+00	 2.302149931013446e+00
 1.204420867386749e+00	 2.180672281724375e+00	 2.301017108872446e+00
 1.183544521574721e+00	 2.192072854446585e+00	 2.300873299911847e+00
 1.162589595710960e+00	 2.203258100729318e+00	 2.301245074707122e+00
 1.141559338845735e+00	 2.214227379902332e+00	 2.301592124714380e+00
 1.120457002268507e+00	 2.224980114975883e+00	 2.301319239409487e+00
 1.099285837988591e+00	 2.235515792442956e+00	 2.300388817100840e+00
 1.078049097228806e+00	 2.245833962039317e+00	 2.299432103852947e+00
 1.291634305568600e+00	 2.140486372178028e+00	 2.335996337388783e+00
 1.271031958321013e+00	 2.152783968765333e+00	 2.329433272511785e+00
 1.250337763813505e+00	 2.164868689523592e+00	 2.324669862709502e+00
 1.229554958155780e+00	 2.176739634772497e+00	 2.321434665375206e+00
 1.208686785906283e+00	 2.188395969096317e+00	 2.319413233199508e+00
 1.187736498509226e+00	 2.199836921320626e+00	 2.318239348548919e+00
 1.166707352739033e+00	 2.211061784444457e+00	 2.317486845654604e+00
 1.145602609153652e+00	 2.222069915528370e+00	 2.316662105229817e+00
 1.124425530558161e+00	 2.232860735538971e+00	 2.315457676744975e+00
 1.103179380480040e+00	 2.243433729150444e+00	 2.313702873361430e+00
 1.081867421657487e+00	 2.253788444503754e+00	 2.312008040728560e+00
 1.043685848963648e+00	 2.174247101910407e+00	 2.270371859329114e+00
 1.023062186261889e+00	 2.184027070232773e+00	 2.278931746098973e+00
 1.002381304515459e+00	 2.193595701149540e+00	 2.284727786094387e+00
 9.816463410027967e-01	 2.202952738993927e+00	 2.287952298038854e+00
 9.608604265935818e-01	 2.212097988040085e+00	 2.288854873508166e+00
 9.400266843708891e-01	 2.221031312078378e+00	 2.287754221163234e+00
 9.191482282730248e-01	 2.229752633954294e+00	 2.285448096946546e+00
 8.982281617561046e-01	 2.238261935071894e+00	 2.283136044396852e+00
 8.772695764783929e-01	 2.246559254862706e+00	 2.281475380465335e+00
 8.562755510073803e-01	 2.254644690221029e+00	 2.281147397304428e+00
 8.352491495505203e-01	 2.262518394906619e+00	 2.282860470839692e+00
 1.047503929952193e+00	 2.182201077274037e+00	 2.267159093233823e+00
 1.026804820395857e+00	 2.192016823326705e+00	 2.274458569256392e+00
 1.006048282472418e+00	 2.201620458845244e+00	 2.278961999146701e+00
 9.852374649373056e-01	 2.211011727227574e+00	 2.280879455582360e+00
 9.643755101137459e-01	 2.220190432031832e+00	 2.280483957283345e+00
 9.434655525098751e-01	 2.229156436550089e+00	 2.278433891700947e+00
 9.225107174556050e-01	 2.237909663345580e+00	 2.275926080319036e+00
 9.015141197603114e-01	 2.246450093754339e+00	 2.273623391310676e+00
 8.804788623923600e-01	 2.254777767352143e+00	 2.272205687732106e+00
 8.594080351814524e-01	 2.262892781387759e+00	 2.272387309498494e+00
 8.383047135447202e-01	 2.270795290183433e+00	 2.274911290676515e+00
 1.051322007696823e+00	 2.190155045879068e+00	 2.265416486735634e+00
 1.030547451350041e+00	 2.200006569631635e+00	 2.271363255778984e+00
 1.009715257313884e+00	 2.209645209722230e+00	 2.274531220211983e+00
 9.888285858207667e-01	 2.219070708613470e+00	 2.275134535362347e+00
 9.678905906474565e-01	 2.228282869147467e+00	 2.273669521838654e+00
 9.469044177271446e-01	 2.237281554117994e+00	 2.271281606460387e+00
 9.258732037813436e-01	 2.246066685806030e+00	 2.268627281672341e+00
 9.048000749726843e-01	 2.254638245479567e+00	 2.266360459314151e+00
 8.836881455796285e-01	 2.262996272858633e+00	 2.265177066081338e+00
 8.625405166940820e-01	 2.271140865546448e+00	 2.265808816147268e+00
 8.413602749428495e-01	 2.279072178427747e+00	 2.269017312630858e+00
 1.055140089770742e+00	 2.198109023501284e+00	 2.265188751221004e+00
 1.034290086548014e+00	 2.207996324994357e+00	 2.269719868573161e+00
 1.013382236313376e+00	 2.217669969696762e+00	 2.271531948393252e+00
 9.924197107762452e-01	 2.227129699135804e+00	 2.270954504097470e+00
 9.714056751669483e-01	 2.236375315437564e+00	 2.269021170609411e+00
 9.503432868437480e-01	 2.245406680897510e+00	 2.266373903658722e+00
 9.292356939197770e-01	 2.254223717514355e+00	 2.263617003146235e+00
 9.080860339109362e-01	 2.262826406488048e+00	 2.261404413898046e+00
 8.868974324058010e-01	 2.271214787682854e+00	 2.260433069962402e+00
 8.656730017584998e-01	 2.279388959056444e+00	 2.261436564355307e+00
 8.444158398055267e-01	 2.287349076056038e+00	 2.265179159711288e+00
 1.058958183747156e+00	 2.206063025916469e+00	 2.266517877530314e+00
 1.038032733413349e+00	 2.215986105261665e+00	 2.269599767665445e+00
 1.017049226744412e+00	 2.225694754685102e+00	 2.270113076468510e+00
 9.960108469268057e-01	 2.235188714778765e+00	 2.268914401900555e+00
 9.749207706444551e-01	 2.244467786952697e+00	 2.266624849130806e+00
 9.537821666807358e-01	 2.253531833004051e+00	 2.263776413869231e+00
 9.325981945404387e-01	 2.262380774649266e+00	 2.260958405360239e+00
 9.113720030927787e-01	 2.271014593020246e+00	 2.258810381315807e+00
 8.901067292364803e-01	 2.279433328125483e+00	 2.258015401212154e+00
 8.688054965879365e-01	 2.287637078277100e+00	 2.259293617451963e+00
 8.474714141933698e-01	 2.295625999484788e+00	 2.263396220017084e+00
 1.062776297199268e+00	 2.214017068900405e+00	 2.269442981067070e+00
 1.041775399369619e+00	 2.223975926280349e+00	 2.271083804691866e+00
 1.020716235880511e+00	 2.233719580603511e+00	 2.270777021317274e+00
 9.996020013955130e-01	 2.243247771526543e+00	 2.269116695115697e+00
 9.784358840522113e-01	 2.252560299743439e+00	 2.266540898701065e+00
 9.572210640591579e-01	 2.261657026553031e+00	 2.263552671072758e+00
 9.359607123128652e-01	 2.270537873389477e+00	 2.260712564930647e+00
 9.146579890359224e-01	 2.279202821316628e+00	 2.258631501371580e+00
 8.933160424372695e-01	 2.287651910487200e+00	 2.257963955710593e+00
 8.719380073956230e-01	 2.295885239567761e+00	 2.259401494158864e+00
 8.505270041669976e-01	 2.303902965130477e+00	 2.263666677109726e+00
 1.066594437700285e+00	 2.221971168228874e+00	 2.274000146748496e+00
 1.045518091840397e+00	 2.231965803897202e+00	 2.274557199167075e+00
 1.024383270995192e+00	 2.241744463368251e+00	 2.273652834861782e+00
 1.003193181305432e+00	 2.251306885363327e+00	 2.271610917003786e+00
 9.819510223624514e-01	 2.260652869860364e+00	 2.268827700505081e+00
 9.606599858000642e-01	 2.269782277659863e+00	 2.265764173004395e+00
 9.393232539065905e-01	 2.278695029913699e+00	 2.262938531566665e+00
 9.179439982580797e-01	 2.287391107617658e+00	 2.260918979848342e+00
 8.965253783737714e-01	 2.295870551068683e+00	 2.260316869769322e+00
 8.750705403947902e-01	 2.304133459287779e+00	 2.261780207613581e+00
 8.535826157870279e-01	 2.312179989409584e+00	 2.265987540393774e+00
 1.070412612823410e+00	 2.229925339677661e+00	 2.280412954701099e+00
 1.049260818249256e+00	 2.239955753959018e+00	 2.280186578375015e+00
 1.028050339361973e+00	 2.249769418895582e+00	 2.278773823146429e+00
 1.006784393779627e+00	 2.259366072273303e+00	 2.276444866205837e+00
 9.854661925474095e-01	 2.268745513354043e+00	 2.273541737318788e+00
 9.640989387245058e-01	 2.277907602439965e+00	 2.270470441064672e+00
 9.426858259911510e-01	 2.286852260400646e+00	 2.267693384758375e+00
 9.212300372769628e-01	 2.295579468163807e+00	 2.265722140586854e+00
 8.997347434115883e-01	 2.304089266170612e+00	 2.265110566260913e+00
 8.782031017986689e-01	 2.312381753796502e+00	 2.266448304254362e+00
 8.566382551140788e-01	 2.320457088738593e+00	 2.270354675507984e+00
 1.074230830141849e+00	 2.237879599022548e+00	 2.288895223373056e+00
 1.053003586019768e+00	 2.247945792312590e+00	 2.287983701999908e+00
 1.031717448254373e+00	 2.257794463101769e+00	 2.286171869533061e+00
 1.010375645941163e+00	 2.267425348240664e+00	 2.283664668388730e+00
 9.889814015793206e-01	 2.276838246275052e+00	 2.280737654796947e+00
 9.675379296535319e-01	 2.286033017008749e+00	 2.277729079808380e+00
 9.460484352360803e-01	 2.295009581029028e+00	 2.275032290068528e+00
 9.245161126102827e-01	 2.303767919195540e+00	 2.273088477225970e+00
 9.029441439163232e-01	 2.312308072093663e+00	 2.272379800497236e+00
 8.813356978204905e-01	 2.320630139453281e+00	 2.273422902570684e+00
 8.596939282087687e-01	 2.328734279533981e+00	 2.276762834727413e+00
 1.078049097228806e+00	 2.245833962039317e+00	 2.299432103852948e+00
 1.056746402575507e+00	 2.255935934804708e+00	 2.297959302823186e+00
 1.035384604945910e+00	 2.265819611903070e+00	 2.295877494926461e+00
 1.013966944913106e+00	 2.275484729249596e+00	 2.293314837525076e+00
 9.924966564304187e-01	 2.284931084673963e+00	 2.290468322357069e+00
 9.709769654081932e-01	 2.294158537481629e+00	 2.287595836023800e+00
 9.494110883109145e-01	 2.303167007977557e+00	 2.285008555040221e+00
 9.278022307757513e-01	 2.311956476953322e+00	 2.283063704614529e+00
 9.061535862535792e-01	 2.320526985138516e+00	 2.282157705864597e+00
 8.844683346734850e-01	 2.328878632617462e+00	 2.282719731724328e+00
 8.627496411317157e-01	 2.337011578212227e+00	 2.285205687377339e+00
 1.081867421657487e+00	 2.253788444503754e+00	 2.312008040728560e+00
 1.060489275340047e+00	 2.263926197282168e+00	 2.310123144221087e+00
 1.039051816710104e+00	 2.273844881215751e+00	 2.307919917715065e+00
 1.017558297818519e+00	 2.283544231284289e+00	 2.305438336818979e+00
 9.960119640729381e-01	 2.293024044601351e+00	 2.302784893672226e+00
 9.744160528095400e-01	 2.302284179974021e+00	 2.300124657414881e+00
 9.527737918851885e-01	 2.311324557424947e+00	 2.297673684732055e+00
 9.310883982910807e-01	 2.320145157677620e+00	 2.295691809904909e+00
 9.093630767889591e-01	 2.328746021605850e+00	 2.294475839223351e+00
 8.876010185708836e-01	 2.337127249648398e+00	 2.294353170045584e+00
 8.658053999435384e-01	 2.345289001189816e+00	 2.295675850259869e+00
 8.352491495505203e-01	 2.262518394906619e+00	 2.282860470839692e+00
 8.141970019494854e-01	 2.270179294192986e+00	 2.288706282471198e+00
 7.931185662147202e-01	 2.277629008609738e+00	 2.299658508238120e+00
 7.720168536581871e-01	 2.284867856915018e+00	 2.314759671395737e+00
 7.508948564624924e-01	 2.291896212004354e+00	 2.333044968581309e+00
 7.297555465433327e-01	 2.298714500167882e+00	 2.353324436348929e+00
 7.086018744401672e-01	 2.305323200321329e+00	 2.373579307473527e+00
 6.874367682357337e-01	 2.311722843211848e+00	 2.393004683637176e+00
 6.662631325049674e-01	 2.317914010599844e+00	 2.410890652145173e+00
 6.450838472938460e-01	 2.323897334417937e+00	 2.426427975202869e+00
 6.239017671286295e-01	 2.329673495908198e+00	 2.438720165477446e+00
 8.383047135447202e-01	 2.270795290183433e+00	 2.274911290676515e+00
 8.171755515775549e-01	 2.278484215081044e+00	 2.281719449296839e+00
 7.960200053076527e-01	 2.285961182538526e+00	 2.293609726186885e+00
 7.748410970631530e-01	 2.293226512480131e+00	 2.309620440492514e+00
 7.536418299728579e-01	 2.300280579165536e+00	 2.328781675749275e+00
 7.324251868245170e-01	 2.307123810444363e+00	 2.349988447223679e+00
 7.111941289514456e-01	 2.313756686984343e+00	 2.371174209540894e+00
 6.899515951480827e-01	 2.320179741474244e+00	 2.391381962702934e+00
 6.687005006150676e-01	 2.326393557802710e+00	 2.409878104360148e+00
 6.474437359343483e-01	 2.332398770214141e+00	 2.425829297438507e+00
 6.261841660747978e-01	 2.338196062442769e+00	 2.438314682743608e+00
 8.413602749428495e-01	 2.279072178427747e+00	 2.269017312630858e+00
 8.201540986750241e-01	 2.286789128912769e+00	 2.276572718188002e+00
 7.989214419355528e-01	 2.294293349387783e+00	 2.289098104087331e+00
 7.776653380687363e-01	 2.301585160943147e+00	 2.305645544759856e+00
 7.563888011495602e-01	 2.308664939202700e+00	 2.325258310660828e+00
 7.350948248378150e-01	 2.315533113575554e+00	 2.346911309519888e+00
 7.137863812606564e-01	 2.322190166481445e+00	 2.368574181010014e+00
 6.924664199242117e-01	 2.328636632550767e+00	 2.389126830897321e+00
 6.711378666548118e-01	 2.334873097800403e+00	 2.407831502279267e+00
 6.498036225703621e-01	 2.340900198786537e+00	 2.423850584772324e+00
 6.284665630823351e-01	 2.346718621735575e+00	 2.436258933529109e+00
 8.444158398055267e-01	 2.287349076056038e+00	 2.265179159711288e+00
 8.231326491497071e-01	 2.295094052160227e+00	 2.273243191789864e+00
 8.018228818532342e-01	 2.302625525683620e+00	 2.286083077082883e+00
 7.804895822765822e-01	 2.309943818882697e+00	 2.302782388973046e+00
 7.591357754409280e-01	 2.317049308745463e+00	 2.322415665601841e+00
 7.377644658781138e-01	 2.323942426240529e+00	 2.344030815032108e+00
 7.163786365091456e-01	 2.330623655539652e+00	 2.365717162012714e+00
 6.949812475518492e-01	 2.337093533214851e+00	 2.386181867820811e+00
 6.735752354582557e-01	 2.343352647411264e+00	 2.404702327588053e+00
 6.521635118822380e-01	 2.349401636996865e+00	 2.420456255850560e+00
 6.307489626778779e-01	 2.355241190690244e+00	 2.432534081502026e+00
 8.474714141933698e-01	 2.295625999484788e+00	 2.263396220017084e+00
 8.261112089094171e-01	 2.303399001295480e+00	 2.271707085981773e+00
 8.047243308155120e-01	 2.310957727952152e+00	 2.284523463830375e+00
 7.833138352883354e-01	 2.318302502877411e+00	 2.300977956835054e+00
 7.618827582952897e-01	 2.325433704423442e+00	 2.320194235341399e+00
 7.404341152403017e-01	 2.332351765118369e+00	 2.341285244221867e+00
 7.189708998382606e-01	 2.339057170885977e+00	 2.362541712162605e+00
 6.974960830187238e-01	 2.345550460239932e+00	 2.382490328586275e+00
 6.760126118594550e-01	 2.351832223453634e+00	 2.400442721627751e+00
 6.545234085503264e-01	 2.357903101706865e+00	 2.415611304176210e+00
 6.330313693880619e-01	 2.363763786210413e+00	 2.427121714436213e+00
 8.505270041669976e-01	 2.303902965130477e+00	 2.263666677109726e+00
 8.290897838619679e-01	 2.311703992790594e+00	 2.271939751602753e+00
 8.076257945772014e-01	 2.319289972719491e+00	 2.284377481116688e+00
 7.861381027056413e-01	 2.326661229505917e+00	 2.300178819967425e+00
 7.646297551609739e-01	 2.333818142866254e+00	 2.318534221925674e+00
 7.431037782192662e-01	 2.340761146888149e+00	 2.338623883009900e+00
 7.215631763893482e-01	 2.347490729247438e+00	 2.358986960235558e+00
 7.000109313125639e-01	 2.354007430399445e+00	 2.377996096561116e+00
 6.784500006924646e-01	 2.360311842745852e+00	 2.395005442277386e+00
 6.568833172549781e-01	 2.366404609778274e+00	 2.409281260150128e+00
 6.353137877395229e-01	 2.372286425199707e+00	 2.420003812371383e+00
 8.535826157870279e-01	 2.312179989409584e+00	 2.265987540393774e+00
 8.320683799151731e-01	 2.320009043117632e+00	 2.273915696337525e+00
 8.105272788931159e-01	 2.327622276511749e+00	 2.285602758754112e+00
 7.889623901301442e-01	 2.335020015346847e+00	 2.300331147266770e+00
 7.673767714863083e-01	 2.342202640703515e+00	 2.317375539893878e+00
 7.457734601098953e-01	 2.349170588228948e+00	 2.336000983277438e+00
 7.241554713037550e-01	 2.355924347351049e+00	 2.354992554330244e+00
 7.025257974210970e-01	 2.362464460466825e+00	 2.372643636568320e+00
 6.808874067913400e-01	 2.368791522106264e+00	 2.388343821247979e+00
 6.592432426765429e-01	 2.374906178072831e+00	 2.401432153453158e+00
 6.375962222588971e-01	 2.380809124561765e+00	 2.411162716020038e+00
 8.566382551140788e-01	 2.320457088738593e+00	 2.270354675507984e+00
 8.350470029768466e-01	 2.328314168748660e+00	 2.277608606759662e+00
 8.134287895180706e-01	 2.335954655855041e+00	 2.288156354747991e+00
 7.917867031634899e-01	 2.343378876978828e+00	 2.301380714617959e+00
 7.701238127196210e-01	 2.350587214564839e+00	 2.316657821905974e+00
 7.484431662070767e-01	 2.357580105819843e+00	 2.333355100532476e+00
 7.267477897228278e-01	 2.364358041923825e+00	 2.350498612493682e+00
 7.050406863320523e-01	 2.370921567215507e+00	 2.366377948532240e+00
 6.833248349901367e-01	 2.377271278353210e+00	 2.380411721776133e+00
 6.616031894953714e-01	 2.383407823452274e+00	 2.392030475758589e+00
 6.398786774728203e-01	 2.389331901200212e+00	 2.400581095413151e+00
 8.596939282087687e-01	 2.328734279533981e+00	 2.276762834727413e+00
 8.380256589548014e-01	 2.336619386155741e+00	 2.282991370528803e+00
 8.163303322068804e-01	 2.344287127275481e+00	 2.291994770730448e+00
 7.946110474073228e-01	 2.351737830980490e+00	 2.303272914955473e+00
 7.728708843092411e-01	 2.358971881079847e+00	 2.316320424771950e+00
 7.511129018056980e-01	 2.365989716339908e+00	 2.330624419961448e+00
 7.293401367879138e-01	 2.372791829692784e+00	 2.345445673797354e+00
 7.075556030331583e-01	 2.379378767418929e+00	 2.359144521555351e+00
 6.857622901229100e-01	 2.385751128305029e+00	 2.371163496704682e+00
 6.639631623918143e-01	 2.391909562778341e+00	 2.381043143764536e+00
 6.421611579079285e-01	 2.397854772018683e+00	 2.388241918776810e+00
 8.627496411317157e-01	 2.337011578212227e+00	 2.285205687377339e+00
 8.410043537568516e-01	 2.344924711810939e+00	 2.290036098738948e+00
 8.192319127143599e-01	 2.352619707299180e+00	 2.297073967654128e+00
 7.974354284632884e-01	 2.360096893930465e+00	 2.305952768664727e+00
 7.756179917034960e-01	 2.367356656878152e+00	 2.316302435872977e+00
 7.537826722006470e-01	 2.374399436468223e+00	 2.327746898179015e+00
 7.319325176403594e-01	 2.381225727384938e+00	 2.339774649849641e+00
 7.100705525121429e-01	 2.387836077850523e+00	 2.350889288412505e+00
 6.881997770237152e-01	 2.394231088780064e+00	 2.360553946938270e+00
 6.663231660462215e-01	 2.400411412912772e+00	 2.368437462536134e+00
 6.444436680908576e-01	 2.406377753920808e+00	 2.374128421632092e+00
 8.658053999435384e-01	 2.345289001189816e+00	 2.295675850259869e+00
 8.439830932908110e-01	 2.353230162186319e+00	 2.298714148415006e+00
 8.221335367953240e-01	 2.360952412452252e+00	 2.303349381740322e+00
 8.002598519330313e-01	 2.368456082407380e+00	 2.309364934315405e+00
 7.783651403507144e-01	 2.375741558589372e+00	 2.316542679965036e+00
 7.564524826868121e-01	 2.382809282883866e+00	 2.324660267337757e+00
 7.345249374215115e-01	 2.389659751727305e+00	 2.333426776730705e+00
 7.125855397567351e-01	 2.396293515283727e+00	 2.341558580449629e+00
 6.906373005266077e-01	 2.402711176596659e+00	 2.348538280262085e+00
 6.686832051389440e-01	 2.408913390717305e+00	 2.354181089147608e+00
 6.467262125482437e-01	 2.414900863810222e+00	 2.358224076110707e+00
 6.239017671286295e-01	 2.329673495908198e+00	 2.438720165477446e+00
 6.027197203449561e-01	 2.335243225244862e+00	 2.445452002772594e+00
 5.815405089992440e-01	 2.340607302145042e+00	 2.445675044149888e+00
 5.603669070574516e-01	 2.345766553420075e+00	 2.440455105437089e+00
 5.392016592342920e-01	 2.350721851527660e+00	 2.430823941860243e+00
 5.180474801603698e-01	 2.355474113615235e+00	 2.417785063435685e+00
 4.969070535816822e-01	 2.360024300548634e+00	 2.402318984805071e+00
 4.757830315916279e-01	 2.364373415927180e+00	 2.385387937383911e+00
 4.546780338956418e-01	 2.368522505086348e+00	 2.367940074049456e+00
 4.335946471085258e-01	 2.372472654089150e+00	 2.350913198582792e+00
 4.125354240844981e-01	 2.376224988707342e+00	 2.335238053707578e+00
 6.261841660747978e-01	 2.338196062442769e+00	 2.438314682743608e+00
 6.049246297188564e-01	 2.343786167334006e+00	 2.445202507602795e+00
 5.836679391736149e-01	 2.349169867457370e+00	 2.445734825993118e+00
 5.624168785529433e-01	 2.354347992648878e+00	 2.440963722721945e+00
 5.411742026124571e-01	 2.359321418557904e+00	 2.431907545542301e+00
 5.199426359136082e-01	 2.364091065687044e+00	 2.419556728433303e+00
 4.987248720202569e-01	 2.368657898417226e+00	 2.404879033355613e+00
 4.775235727278708e-01	 2.373022924019193e+00	 2.388824239516433e+00
 4.563413673254701e-01	 2.377187191652527e+00	 2.372328311579888e+00
 4.351808518903875e-01	 2.381151791353338e+00	 2.356317080284252e+00
 4.140445886158672e-01	 2.384917853011747e+00	 2.341709470581981e+00
 6.284665630823351e-01	 2.346718621735575e+00	 2.436258933529109e+00
 6.071295372199624e-01	 2.352329102164099e+00	 2.443123866622123e+00
 5.857953675409997e-01	 2.357732425494026e+00	 2.443871562813175e+00
 5.644668483072240e-01	 2.362929424586053e+00	 2.439527614874767e+00
 5.431467443151482e-01	 2.367920978281215e+00	 2.431084134730199e+00
 5.218377900570667e-01	 2.372708010437259e+00	 2.419505601391402e+00
 5.005426889146970e-01	 2.377291488950197e+00	 2.405734110769192e+00
 4.792641123855708e-01	 2.381672424762187e+00	 2.390694057561606e+00
 4.580046993422895e-01	 2.385851870856911e+00	 2.375296281875295e+00
 4.367670553247116e-01	 2.389830921243562e+00	 2.360441715298729e+00
 4.155537518651018e-01	 2.393610709930618e+00	 2.347024562828930e+00
 6.307489626778779e-01	 2.355241190690244e+00	 2.432534081502026e+00
 6.093344472212071e-01	 2.360872046679166e+00	 2.439214221462059e+00
 5.879227983206611e-01	 2.366294993237942e+00	 2.440097284156681e+00
 5.665168203859353e-01	 2.371510866251946e+00	 2.436169763349782e+00
 5.451192882544537e-01	 2.376520547753874e+00	 2.428384863180464e+00
 5.237329463493655e-01	 2.381324964956626e+00	 2.417668387340859e+00
 5.023605078702587e-01	 2.385925089271292e+00	 2.404924012884301e+00
 4.810046540167416e-01	 2.390321935311449e+00	 2.391037980048476e+00
 4.596680332450091e-01	 2.394516559884872e+00	 2.376883231977392e+00
 4.383532605574575e-01	 2.398510060973844e+00	 2.363323040329518e+00
 4.170629168253849e-01	 2.402303576705196e+00	 2.351214154472562e+00
 6.330313693880619e-01	 2.363763786210413e+00	 2.427121714436213e+00
 6.115393640955251e-01	 2.369415017823233e+00	 2.433471972554361e+00
 5.900502357318614e-01	 2.374857587672046e+00	 2.434424146592808e+00
 5.685667988547182e-01	 2.380092334666901e+00	 2.430913176440211e+00
 5.470918383424609e-01	 2.385120144032165e+00	 2.423840840988237e+00
 5.256281085491243e-01	 2.389941946335889e+00	 2.414081704946043e+00
 5.041783324921976e-01	 2.394558716504258e+00	 2.402488432398675e+00
 4.827452010733964e-01	 2.398971472822264e+00	 2.389896499681442e+00
 4.613313723325373e-01	 2.403181275921788e+00	 2.377128342693289e+00
 4.399394707345851e-01	 2.407189227758209e+00	 2.364996975917185e+00
 4.185720864898999e-01	 2.410996470576721e+00	 2.354309122160180e+00
 6.353137877395229e-01	 2.372286425199707e+00	 2.420003812371383e+00
 6.137442922158493e-01	 2.377958032540327e+00	 2.425895753443820e+00
 5.921776839938637e-01	 2.383420225779265e+00	 2.426864413351150e+00
 5.706167877792144e-01	 2.388673846851264e+00	 2.423780873452241e+00
 5.490643984912580e-01	 2.393719784172369e+00	 2.417483122547170e+00
 5.275232804149638e-01	 2.398558971665798e+00	 2.408782077539665e+00
 5.059961663857703e-01	 2.403192387772837e+00	 2.398466952307611e+00
 4.844857570075478e-01	 2.407621054449918e+00	 2.387310008550254e+00
 4.629947199037828e-01	 2.411846036153035e+00	 2.376070724985332e+00
 4.415256890020541e-01	 2.415868438810683e+00	 2.365499423457424e+00
 4.200812638518300e-01	 2.419689408786432e+00	 2.356340392296581e+00
 6.375962222588971e-01	 2.380809124561765e+00	 2.411162716020038e+00
 6.159492359551137e-01	 2.386501107774475e+00	 2.416484405251004e+00
 5.943051473259304e-01	 2.391982924542530e+00	 2.417430434028996e+00
 5.726667912250650e-01	 2.397255419825381e+00	 2.414795868883176e+00
 5.510369726129325e-01	 2.402319485230767e+00	 2.409342694462885e+00
 5.294184657055038e-01	 2.407176058037094e+00	 2.401805924074316e+00
 5.078140131562326e-01	 2.411826120200775e+00	 2.392899039234945e+00
 4.862263252712091e-01	 2.416270697349693e+00	 2.383318793220693e+00
 4.646580792576541e-01	 2.420510857763989e+00	 2.373749416240760e+00
 4.431119185058240e-01	 2.424547711345288e+00	 2.364866262108245e+00
 4.215904519043582e-01	 2.428382408575571e+00	 2.357338938086653e+00
 6.398786774728203e-01	 2.389331901200212e+00	 2.400581095413151e+00
 6.181541996862522e-01	 2.395044260469702e+00	 2.405236951279584e+00
 5.964326299473244e-01	 2.400545700944769e+00	 2.406134624364809e+00
 5.747168132579117e-01	 2.405837070609595e+00	 2.403981156602516e+00
 5.530095646195727e-01	 2.410919264263641e+00	 2.399450463420232e+00
 5.313136681793647e-01	 2.415793222540528e+00	 2.393189549992004e+00
 5.096318764088407e-01	 2.420459930911815e+00	 2.385824036658803e+00
 4.879669093163936e-01	 2.424920418676879e+00	 2.377963029708406e+00
 4.663214536930597e-01	 2.429175757940024e+00	 2.370203376423810e+00
 4.446981623918547e-01	 2.433227062576053e+00	 2.363133345588915e+00
 4.230996536406679e-01	 2.437075487185377e+00	 2.357335776488278e+00
 6.421611579079285e-01	 2.397854772018683e+00	 2.388241918776810e+00
 6.203591877821976e-01	 2.403587507570036e+00	 2.392152571763024e+00
 5.985601360773081e-01	 2.409108571968912e+00	 2.392989446074954e+00
 5.767668579433949e-01	 2.414418816224252e+00	 2.391359694034684e+00
 5.549821784232659e-01	 2.419519138327273e+00	 2.387837244004456e+00
 5.332088915951666e-01	 2.424410482266842e+00	 2.382969138012888e+00
 5.114497597488508e-01	 2.429093837029705e+00	 2.377281158033953e+00
 4.897075125951141e-01	 2.433570235586758e+00	 2.371282778338267e+00
 4.679848465089086e-01	 2.437840753866520e+00	 2.365471484112805e+00
 4.462844238061057e-01	 2.441906509717000e+00	 2.360336498873101e+00
 4.246088720539422e-01	 2.445768661857091e+00	 2.356361965077595e+00
 6.444436680908576e-01	 2.406377753920808e+00	 2.374128421632092e+00
 6.225642046158841e-01	 2.412130866019502e+00	 2.377230578745470e+00
 6.006876699351441e-01	 2.417671554597886e+00	 2.378007386750566e+00
 5.788169293471569e-01	 2.423000673689698e+00	 2.376954386342163e+00
 5.569548179361002e-01	 2.428119124477946e+00	 2.374533746476429e+00
 5.351041397115297e-01	 2.433027854306784e+00	 2.371180738844374e+00
 5.132676667815187e-01	 2.437727855678187e+00	 2.367309479812780e+00
 4.914481385593841e-01	 2.442220165234616e+00	 2.363317978491579e+00
 4.696482610041089e-01	 2.446505862728852e+00	 2.359592532424624e+00
 4.478707058945368e-01	 2.450586069982156e+00	 2.356511514778482e+00
 4.261181101373641e-01	 2.454461949831952e+00	 2.354448598828547e+00
 6.467262125482437e-01	 2.414900863810222e+00	 2.358224076110707e+00
 6.247692545602453e-01	 2.420674352762128e+00	 2.360470391091821e+00
 6.028152357400953e-01	 2.426234665814622e+00	 2.361200939811637e+00
 5.808670315348385e-01	 2.431582660026279e+00	 2.360788070607718e+00
 5.589274870701637e-01	 2.436719239771942e+00	 2.359570564501981e+00
 5.369994162870741e-01	 2.441645355751099e+00	 2.357860261811683e+00
 5.150856011121007e-01	 2.446362003981005e+00	 2.355947934366561e+00
 4.931887906612165e-01	 2.450870224775741e+00	 2.354108443243268e+00
 4.713117004775699e-01	 2.455171101712394e+00	 2.352605224828914e+00
 4.494570118031077e-01	 2.459265760585544e+00	 2.351694150455057e+00
 4.276273708841172e-01	 2.463155368351200e+00	 2.351626806808584e+00
 4.125354240844981e-01	 2.376224988707342e+00	 2.335238053707578e+00
 3.914993108678211e-01	 2.379781260948494e+00	 2.322829072406181e+00
 3.704923791699241e-01	 2.383142017333930e+00	 2.314652449447303e+00
 3.495170835139961e-01	 2.386308495462393e+00	 2.309927303167895e+00
 3.285758421694240e-01	 2.389281968537790e+00	 2.307788104921586e+00
 3.076710366437497e-01	 2.392063744314279e+00	 2.307649521721031e+00
 2.868050112068564e-01	 2.394655164037665e+00	 2.308976219169273e+00
 2.659800724471563e-01	 2.397057601384103e+00	 2.311274181062376e+00
 2.451984888595130e-01	 2.399272461397111e+00	 2.314082833939593e+00
 2.244624904646028e-01	 2.401301179423868e+00	 2.316967902323262e+00
 2.037742684593891e-01	 2.403145220051754e+00	 2.319514926410298e+00
 4.140445886158672e-01	 2.384917853011747e+00	 2.341709470581981e+00
 3.929315196905247e-01	 2.388487135044622e+00	 2.330246103561403e+00
 3.718477390377304e-01	 2.391860185972617e+00	 2.322719235629739e+00
 3.507957101599756e-01	 2.395038247921946e+00	 2.318370604089271e+00
 3.297778601733239e-01	 2.398022598754242e+00	 2.316323106844479e+00
 3.087965792975083e-01	 2.400814551007788e+00	 2.316020346345161e+00
 2.878542203783784e-01	 2.403415450835027e+00	 2.316955695773472e+00
 2.669530984424634e-01	 2.405826676937397e+00	 2.318662550419327e+00
 2.460954902833885e-01	 2.408049639498448e+00	 2.320706600916375e+00
 2.252836340798418e-01	 2.410085779116246e+00	 2.322678844572616e+00
 2.045197290447714e-01	 2.411936565736029e+00	 2.324189264481015e+00
 4.155537518651018e-01	 2.393610709930618e+00	 2.347024562828930e+00
 3.943637272964343e-01	 2.397193001744242e+00	 2.336606023891119e+00
 3.732030977540012e-01	 2.400578347204410e+00	 2.329809976720217e+00
 3.520743357195860e-01	 2.403767992964807e+00	 2.325901629798263e+00
 3.309798771559185e-01	 2.406763221544790e+00	 2.323995447288010e+00
 3.099221209949139e-01	 2.409565350266758e+00	 2.323564964007417e+00
 2.889034286583783e-01	 2.412175730189793e+00	 2.324135534833907e+00
 2.679261236109494e-01	 2.414595745040609e+00	 2.325271272556789e+00
 2.469924909450037e-01	 2.416826810142783e+00	 2.326567471712566e+00
 2.261047769972327e-01	 2.418870371345268e+00	 2.327643777953817e+00
 2.052651889965601e-01	 2.420727903951158e+00	 2.328138030523732e+00
 4.170629168253849e-01	 2.402303576705196e+00	 2.351214154472562e+00
 3.957959365261206e-01	 2.405898878314389e+00	 2.341934544603805e+00
 3.745584580069016e-01	 2.409296518320723e+00	 2.335946948819147e+00
 3.533529627288112e-01	 2.412497747905362e+00	 2.332541290020203e+00
 3.321818955012544e-01	 2.415503854245389e+00	 2.330826770504343e+00
 3.110476639683353e-01	 2.418316159447326e+00	 2.330307584337463e+00
 2.899526381278250e-01	 2.420936019476900e+00	 2.330544264812410e+00
 2.688991498824765e-01	 2.423364823086111e+00	 2.331134869371465e+00
 2.478894926234254e-01	 2.425603990738563e+00	 2.331707556179829e+00
 2.269259208453737e-01	 2.427654973534108e+00	 2.331913913702969e+00
 2.060106497932278e-01	 2.429519252133696e+00	 2.331422968709100e+00
 4.185720864898999e-01	 2.410996470576721e+00	 2.354309122160180e+00
 3.972281502201537e-01	 2.414604782022096e+00	 2.346257491680147e+00
 3.759138224845954e-01	 2.418014716612970e+00	 2.341152574658850e+00
 3.546315937236353e-01	 2.421227530057993e+00	 2.338310565305918e+00
 3.333839175933773e-01	 2.424244514191992e+00	 2.336838725634879e+00
 3.121732104501413e-01	 2.427066995905629e+00	 2.336272338511492e+00
 2.910018508676867e-01	 2.429696336071292e+00	 2.336210234976386e+00
 2.698721791869070e-01	 2.432133928466275e+00	 2.336287565431041e+00
 2.487864970977205e-01	 2.434381198694238e+00	 2.336168531315350e+00
 2.277470672528630e-01	 2.436439603105940e+00	 2.335539877287939e+00
 2.067561129132467e-01	 2.438310627720205e+00	 2.334105067141614e+00
 4.200812638518300e-01	 2.419689408786432e+00	 2.356340392296581e+00
 3.986603712191037e-01	 2.423310730134403e+00	 2.349600803075663e+00
 3.772691938752477e-01	 2.426732959372562e+00	 2.345449421256730e+00
 3.559102312400421e-01	 2.429957356737082e+00	 2.343230511694810e+00
 3.345859458163341e-01	 2.432985218720554e+00	 2.342052971608100e+00
 3.132987626727006e-01	 2.435817876997804e+00	 2.341483284850638e+00
 2.920510689589323e-01	 2.438456697347906e+00	 2.341161622147716e+00
 2.708452134541033e-01	 2.440903078573478e+00	 2.340763296307396e+00
 2.496835061469557e-01	 2.443158451418256e+00	 2.339991651596838e+00
 2.285682178482987e-01	 2.445224277483935e+00	 2.338571721146260e+00
 2.075015798350895e-01	 2.447102048147247e+00	 2.336244573384995e+00
 4.215904519043582e-01	 2.428382408575571e+00	 2.357338938086653e+00
 4.000926023635407e-01	 2.432016739918337e+00	 2.351990525849731e+00
 3.786245748670223e-01	 2.435451263890913e+00	 2.348860197503050e+00
 3.571888778140154e-01	 2.438687245257012e+00	 2.347322265308279e+00
 3.357879825541705e-01	 2.441725985167030e+00	 2.346491181954750e+00
 3.144243228683821e-01	 2.444568820079989e+00	 2.345964414314850e+00
 2.931002944825301e-01	 2.447217120681682e+00	 2.345426437316528e+00
 2.718182546139279e-01	 2.449672290800091e+00	 2.344595716735572e+00
 2.505805215501979e-01	 2.451935766319064e+00	 2.343217759096034e+00
 2.293893742602790e-01	 2.454009014091267e+00	 2.341058937146262e+00
 2.082470520372284e-01	 2.455893530851378e+00	 2.337901009647718e+00
 4.230996536406679e-01	 2.437075487185377e+00	 2.357335776488278e+00
 4.015248464940348e-01	 2.440722828640939e+00	 2.353452813222913e+00
 3.799799681480843e-01	 2.444169647459435e+00	 2.351407751684901e+00
 3.584675359815393e-01	 2.447417212932166e+00	 2.350607046875636e+00
 3.369900301909332e-01	 2.450466830867374e+00	 2.350175049542825e+00
 3.155498932695541e-01	 2.453319842508320e+00	 2.349739655895138e+00
 2.941495295194485e-01	 2.455977623447562e+00	 2.349032532123454e+00
 2.727913045962429e-01	 2.458441582538489e+00	 2.347818208603185e+00
 2.514775450865139e-01	 2.460713160805110e+00	 2.345887293376476e+00
 2.302105381174021e-01	 2.462793830351110e+00	 2.343050468778578e+00
 2.089925309981358e-01	 2.464685093269159e+00	 2.339133187637497e+00
 4.246088720539422e-01	 2.445768661857091e+00	 2.356361965077595e+00
 4.029571064511563e-01	 2.449429013569240e+00	 2.354013921564047e+00
 3.813353764065975e-01	 2.452888127369540e+00	 2.353115068947929e+00
 3.597462082785977e-01	 2.456147277076928e+00	 2.353106166194542e+00
 3.381920911106681e-01	 2.459207773157541e+00	 2.353126291234595e+00
 3.166754761085858e-01	 2.462070961638934e+00	 2.352832881906983e+00
 2.951987761506561e-01	 2.464738223020487e+00	 2.352007605213949e+00
 2.737643653309108e-01	 2.467210971181046e+00	 2.350463888774651e+00
 2.523745785349705e-01	 2.469490652284841e+00	 2.348040301181214e+00
 2.310317110482663e-01	 2.471578743686635e+00	 2.344594723085006e+00
 2.097380181962843e-01	 2.473476752837150e+00	 2.339999223093263e+00
 4.261181101373641e-01	 2.454461949831952e+00	 2.354448598828547e+00
 4.043893850754753e-01	 2.458135311970276e+00	 2.353700207308815e+00
 3.826908023307267e-01	 2.461606720912640e+00	 2.354005268697195e+00
 3.610248972411744e-01	 2.464877455005679e+00	 2.354841026527972e+00
 3.393941676974216e-01	 2.467948829373485e+00	 2.355366652468011e+00
 3.178010736178458e-01	 2.470822194827969e+00	 2.355267913187679e+00
 2.962480364571214e-01	 2.473498936775393e+00	 2.354379208468039e+00
 2.747374387477939e-01	 2.475980474120136e+00	 2.352565616754699e+00
 2.532716236746345e-01	 2.478268258166706e+00	 2.349716445915889e+00
 2.318528946814697e-01	 2.480363771521017e+00	 2.345739582331566e+00
 2.104835151101461e-01	 2.482268526991912e+00	 2.340556550002853e+00
 4.276273708841172e-01	 2.463155368351200e+00	 2.351626806808584e+00
 4.058216852075621e-01	 2.466841741111083e+00	 2.352538123811259e+00
 3.840462486086365e-01	 2.470325445380151e+00	 2.354101601938676e+00
 3.623036054052536e-01	 2.473607764032804e+00	 2.355833128939643e+00
 3.405962623352399e-01	 2.476690016851161e+00	 2.356917911764608e+00
 3.189266880297028e-01	 2.479573559431562e+00	 2.357068524200258e+00
 2.972973125198130e-01	 2.482259782087224e+00	 2.356174753108959e+00
 2.757105267767547e-01	 2.484750108748132e+00	 2.354156002195313e+00
 2.541686822845730e-01	 2.487045995859153e+00	 2.350955016932479e+00
 2.326740906456104e-01	 2.489148931277429e+00	 2.346532415432232e+00
 2.112290232181938e-01	 2.491060433170003e+00	 2.340861934514576e+00
 2.037742684593891e-01	 2.403145220051754e+00	 2.319514926410298e+00
 1.831394705683669e-01	 2.404805809140469e+00	 2.320702668060433e+00
 1.625566475833818e-01	 2.406284794526695e+00	 2.319765567562384e+00
 1.420278244541574e-01	 2.407583720882376e+00	 2.316697683018377e+00
 1.215549875204660e-01	 2.408704157848441e+00	 2.311508690439848e+00
 1.011400843060147e-01	 2.409647699001514e+00	 2.304218911935899e+00
 8.078502333994339e-02	 2.410415960825535e+00	 2.294854644995711e+00
 6.049167400547847e-02	 2.411010581689024e+00	 2.283443743591384e+00
 4.026186641526397e-02	 2.411433220828751e+00	 2.270011405210368e+00
 2.009739131287501e-02	 2.411685557340521e+00	 2.254576121410855e+00
 0.000000000000000e+00	 2.411769289177776e+00	 2.237145753056691e+00
 2.045197290447714e-01	 2.411936565736029e+00	 2.324189264481015e+00
 1.838094435635523e-01	 2.413603229702029e+00	 2.324365465057209e+00
 1.631513231264263e-01	 2.415087625610806e+00	 2.322546396736462e+00
 1.425474000909047e-01	 2.416391303785128e+00	 2.318684212578104e+00
 1.219996680633033e-01	 2.417515839608091e+00	 2.312747025634621e+00
 1.015100816918724e-01	 2.418462832486047e+00	 2.304714162376628e+00
 8.108055648764352e-02	 2.419233904816471e+00	 2.294571709770947e+00
 6.071296867252839e-02	 2.419830700961470e+00	 2.282308305376527e+00
 4.040915505419455e-02	 2.420254886227749e+00	 2.267911123328026e+00
 2.017091292721813e-02	 2.420508145853693e+00	 2.251362012683996e+00
 0.000000000000000e+00	 2.420592184004311e+00	 2.232633748304467e+00
 2.052651889965601e-01	 2.420727903951158e+00	 2.328138030523732e+00
 1.844794159892233e-01	 2.422400642789204e+00	 2.327327622219490e+00
 1.637459981638708e-01	 2.423890449215851e+00	 2.324665514245781e+00
 1.430669752858039e-01	 2.425198879204688e+00	 2.320077638600618e+00
 1.224443482278828e-01	 2.426327513880975e+00	 2.313505462138633e+00
 1.018800787629036e-01	 2.427277958480799e+00	 2.304901471792256e+00
 8.137608938379057e-02	 2.428051841315157e+00	 2.294224946702930e+00
 6.093426315114290e-02	 2.428650812739752e+00	 2.281437965211737e+00
 4.055644356765318e-02	 2.429076544131215e+00	 2.266501598287717e+00
 2.024443447890052e-02	 2.429330726870513e+00	 2.249372244704397e+00
 0.000000000000000e+00	 2.429415071334221e+00	 2.229998067089173e+00
 2.060106497932278e-01	 2.429519252133696e+00	 2.331422968709100e+00
 1.851493891741110e-01	 2.431198065850612e+00	 2.329658764647915e+00
 1.643406738750812e-01	 2.432693282801188e+00	 2.326193617291223e+00
 1.435865510692487e-01	 2.434006464609849e+00	 2.320942728083689e+00
 1.228890288960373e-01	 2.435139198144030e+00	 2.313835647093571e+00
 1.022500762528067e-01	 2.436093094469555e+00	 2.304811996742319e+00
 8.167162261439265e-02	 2.436869787810965e+00	 2.293817476387647e+00
 6.115555788009933e-02	 2.437470934517560e+00	 2.280800094239809e+00
 4.070373224766211e-02	 2.437898212035911e+00	 2.265706576845714e+00
 2.031795611368026e-02	 2.438153317889578e+00	 2.248478910234661e+00
 0.000000000000000e+00	 2.438237968666715e+00	 2.229050970761899e+00
 2.067561129132467e-01	 2.438310627720205e+00	 2.334105067141614e+00
 1.858193644469463e-01	 2.439995516334869e+00	 2.331427631381346e+00
 1.649353514394232e-01	 2.441496143826174e+00	 2.327200485962492e+00
 1.441061284716332e-01	 2.442814077469402e+00	 2.321343400290693e+00
 1.233337109495992e-01	 2.443950909874183e+00	 2.313788551119220e+00
 1.026200748952802e-01	 2.444908257936103e+00	 2.304476491653864e+00
 8.196715676545782e-02	 2.445687761793264e+00	 2.293352396129540e+00
 6.137685329817513e-02	 2.446291083788585e+00	 2.280362524814430e+00
 4.085102138624364e-02	 2.446719907438604e+00	 2.265450858280293e+00
 2.039147797731544e-02	 2.446975936409492e+00	 2.248555853765465e+00
 0.000000000000000e+00	 2.447060893501001e+00	 2.229607280529953e+00
 2.075015798350895e-01	 2.447102048147247e+00	 2.336244573384995e+00
 1.864893431364603e-01	 2.448793011690591e+00	 2.332702093042176e+00
 1.655300320362625e-01	 2.450299049750168e+00	 2.327755001264810e+00
 1.446257085233511e-01	 2.451621735252139e+00	 2.321342743374566e+00
 1.237783952704012e-01	 2.452762666548368e+00	 2.313414481706721e+00
 1.029900754240227e-01	 2.453723466364229e+00	 2.303925317113600e+00
 8.226269242299415e-02	 2.454505780751423e+00	 2.292832781221341e+00
 6.159814984414769e-02	 2.455111278046521e+00	 2.280093542817309e+00
 4.099831127542001e-02	 2.455541647836057e+00	 2.265660275758141e+00
 2.046500021556416e-02	 2.455798599928852e+00	 2.249478639907137e+00
 0.000000000000000e+00	 2.455883863336285e+00	 2.231484330815044e+00
 2.082470520372284e-01	 2.455893530851378e+00	 2.337901009647718e+00
 1.871593265713839e-01	 2.457590569366397e+00	 2.333549169094062e+00
 1.661247168449647e-01	 2.459102018032525e+00	 2.327925162748937e+00
 1.451452922547963e-01	 2.460429455426853e+00	 2.321003030635687e+00
 1.242230827402758e-01	 2.461574485643514e+00	 2.312763096316712e+00
 1.033600785727327e-01	 2.462538737237722e+00	 2.303188447977188e+00
 8.255823017300974e-02	 2.463323862174812e+00	 2.292261686195400e+00
 6.181944795679448e-02	 2.463931534785059e+00	 2.279961880143907e+00
 4.114560220721350e-02	 2.464363450725036e+00	 2.266261678109917e+00
 2.053852297418449e-02	 2.464621325946255e+00	 2.251124522475136e+00
 0.000000000000000e+00	 2.464706895671778e+00	 2.234501923635005e+00
 2.089925309981358e-01	 2.464685093269159e+00	 2.339133187637497e+00
 1.878293160804481e-01	 2.466388206810903e+00	 2.334035044722033e+00
 1.667194070448957e-01	 2.467905066132603e+00	 2.327778105754782e+00
 1.456648806963628e-01	 2.469237255462335e+00	 2.320385736423067e+00
 1.246677742410555e-01	 2.470386384636555e+00	 2.311883415190010e+00
 1.037300850751085e-01	 2.471354088040368e+00	 2.302295481300473e+00
 8.285377060151269e-02	 2.472142023552804e+00	 2.291642146047276e+00
 6.204074807489285e-02	 2.472751871497892e+00	 2.279936707353467e+00
 4.129289447364637e-02	 2.473185333602306e+00	 2.267182912004602e+00
 2.061204639893452e-02	 2.473444131960304e+00	 2.253372414251846e+00
 0.000000000000000e+00	 2.473530008006687e+00	 2.238482283982938e+00
 2.097380181962843e-01	 2.473476752837150e+00	 2.339999223093263e+00
 1.884993129923840e-01	 2.475185941472725e+00	 2.334225087344678e+00
 1.673141038154211e-01	 2.476708211509763e+00	 2.327380118278468e+00
 1.461844748784443e-01	 2.478045152827377e+00	 2.319551551688055e+00
 1.251124706545730e-01	 2.479198381004420e+00	 2.310823833878142e+00
 1.041000956648488e-01	 2.480169536255953e+00	 2.301275644097179e+00
 8.314931429451103e-02	 2.480960282374767e+00	 2.290977177432344e+00
 6.226205063722023e-02	 2.481572305678712e+00	 2.279987626479231e+00
 4.144018836674089e-02	 2.482007313964628e+00	 2.268352804512440e+00
 2.068557063557235e-02	 2.482267035469596e+00	 2.256102857407362e+00
 0.000000000000000e+00	 2.482353217840222e+00	 2.243250016178405e+00
 2.104835151101461e-01	 2.482268526991912e+00	 2.340556550002853e+00
 1.891693186359226e-01	 2.483983790800480e+00	 2.334183862767873e+00
 1.679088083359065e-01	 2.485511471623355e+00	 2.326796657472536e+00
 1.467040758314348e-01	 2.486853164990770e+00	 2.318560399199370e+00
 1.255571728626607e-01	 2.488010492224042e+00	 2.309632135501007e+00
 1.044701110756520e-01	 2.488985099368266e+00	 2.300157800927596e+00
 8.344486183801283e-02	 2.489778656130071e+00	 2.290269779836153e+00
 6.248335608255406e-02	 2.490392854821211e+00	 2.280084663994800e+00
 4.158748417851933e-02	 2.490829409308772e+00	 2.269701146046731e+00
 2.075909582985606e-02	 2.491090053972733e+00	 2.259197994562661e+00
 0.000000000000000e+00	 2.491176542671590e+00	 2.248632061165988e+00
 2.112290232181938e-01	 2.491060433170003e+00	 2.340861934514576e+00
 1.898393343397949e-01	 2.492781772242788e+00	 2.333975150989156e+00
 1.685035217857178e-01	 2.494314863932743e+00	 2.326092365788596e+00
 1.472236845857282e-01	 2.495661309421307e+00	 2.317471448428206e+00
 1.260018817471512e-01	 2.496822735772351e+00	 2.308355502738552e+00
 1.048401320412165e-01	 2.497800794861093e+00	 2.298970461322533e+00
 8.374041381802622e-02	 2.498597162308088e+00	 2.289522936719293e+00
 6.270466484967173e-02	 2.499213536419082e+00	 2.280198263932769e+00
 4.173478220100397e-02	 2.499651637131500e+00	 2.271158673674884e+00
 2.083262212754375e-02	 2.499913204968313e+00	 2.262541540478921e+00
 0.000000000000000e+00	 2.500000000000000e+00	 2.254457654737291e+00
